BEGIN IONS
PEPMASS=166.123
CHARGE=1
MSLEVEL=2
SOURCE_INSTRUMENT=DI-ESI-qTof
FILENAME=gnps_Pseudoephedrine_pos_MplusH.mgf
SEQ=*..*
IONMODE=Positive
ORGANISM=GNPS-LIBRARY
NAME=Pseudoephedrine M+H
PI=Norberto Lopes
DATACOLLECTOR=Norberto Lopes
SMILES=O[C@@H]([C@@H](NC)C)C1=CC=CC=C1
INCHI=InChI=1S/C10H15NO/c1-8(11-2)10(12)9-6-4-3-5-7-9/h3-8,10-12H,1-2H3/t8-,10-/m0/s1
INCHIAUX=N/A
PUBMED=N/A
SUBMITUSER=rsilva
LIBRARYQUALITY=3
SPECTRUMID=CCMSLIB00000081578
USI=mzspec:GNPS:GNPS-LIBRARY:accession:CCMSLIB00000081578
SCANS=1
115.047081	37285.0
116.052788	4863.0
117.061867	38384.0
118.060631	4198.0
119.076317	348.0
130.058731	1943.0
131.069443	668.0
132.071747	26154.0
133.080429	105736.0
134.083786	5331.0
146.08815	595.0
148.102386	244594.0
149.107086	12939.0
166.113449	321.0
END IONS

BEGIN IONS
PEPMASS=325.19
CHARGE=1
MSLEVEL=2
SOURCE_INSTRUMENT=DI-ESI-qTof
FILENAME=f.10mauriz/19_br_pos_25eV.mgf;
SEQ=*..*
IONMODE=Positive
ORGANISM=GNPS-LIBRARY
NAME=Quinidine M+H
PI=Norberto Lopes
DATACOLLECTOR=Lucas Marques
SMILES=COC1=CC=C(N=CC=C2[C@@](O)([H])C3N4CC(C=C)C(CC4)C3)C2=C1
INCHI=InChI=1S/C20H24N2O2/c1-3-13-12-22-9-7-14(13)10-19(22)20(23)16-6-8-21-18-5-4-15(24-2)11-17(16)18/h3-6,8,11,13-14,19-20,23H,1,7,9-10,12H2,2H3/t13?,14?,19?,20-/m0/s1
INCHIAUX= 
PUBMED= 
SUBMITUSER=10mauriz
LIBRARYQUALITY=3
SPECTRUMID=CCMSLIB00000424789
USI=mzspec:GNPS:GNPS-LIBRARY:accession:CCMSLIB00000424789
SCANS=1
160.073349	521.0
166.119553	226.0
172.074692	257.0
184.075607	610.0
186.091843	127.0
198.091644	148.0
199.09346	200.0
227.114899	114.0
239.114304	119.0
253.126221	312.0
264.139465	192.0
279.142059	172.0
307.179169	1028.0
325.190338	7498.0
326.191589	776.0
330.719849	103.0
331.214111	251.0
765.730042	411.0
END IONS

BEGIN IONS
PEPMASS=335.108
CHARGE=0
MSLEVEL=2
SOURCE_INSTRUMENT=LC-ESI-qTof
FILENAME=f.mice/SC_-Fe_+Fe_YEME_Langzeit_Anfang_2015/160113_Penicillin_G_V.mzXML;
SEQ=*..*
IONMODE=Positive
ORGANISM=GNPS-LIBRARY
NAME=Penicillin G M+H
PI=Bandow
DATACOLLECTOR=Senges
SMILES=CC1(C(N2C(S1)C(C2=O)NC(=O)CC3=CC=CC=C3)C(=O)O)C
INCHI=1S/C16H18N2O4S/c1-16(2)12(15(21)22)18-13(20)11(14(18)23-16)17-10(19)8-9-6-4-3-5-7-9/h3-7,11-12,14H,8H2,1-2H3,(H,17,19)(H,21,22)/t11-,12+,14-/m1/s1
INCHIAUX= 
PUBMED= 
SUBMITUSER=mice
LIBRARYQUALITY=3
SPECTRUMID=CCMSLIB00003739952
USI=mzspec:GNPS:GNPS-LIBRARY:accession:CCMSLIB00003739952
SCANS=4527
74.106209	36.0
91.114227	99.0
95.133118	34.0
98.080933	24.0
100.0886	27.0
113.095016	37.0
115.142357	36.0
120.132797	5.0
120.137581	5.0
121.15416	44.0
122.141251	8.0
122.146072	8.0
128.113251	209.0
128.202209	13.0
129.123276	35.0
136.080276	12.0
136.161758	8.0
145.127838	9.0
146.118271	14.0
146.123535	14.0
153.113098	16.0
159.162476	59.0
160.105698	208.0
161.107086	51.0
161.633926	10.0
162.106033	42.0
163.175003	43.0
165.037308	11.0
173.120239	20.0
173.131729	41.0
174.126907	69.0
175.124954	52.0
175.136505	29.0
176.137421	342.0
177.135391	65.0
178.118698	44.0
184.134872	25.0
185.131439	49.0
185.149261	8.0
189.120621	26.0
189.138626	17.0
194.057388	31.0
194.16687	22.0
200.100037	8.0
208.088959	15.0
213.170197	13.0
215.958282	25.0
217.95166	11.0
220.103119	38.0
229.078888	28.0
234.736359	5.0
234.743042	5.0
234.943756	11.0
237.063019	12.0
237.520325	37.0
238.9758	6.0
240.083893	37.0
240.110947	66.0
243.021759	30.0
243.164703	124.0
243.26001	20.0
245.177078	41.0
245.963821	22.0
247.170303	28.0
248.035843	26.0
252.858109	15.0
252.934479	20.0
255.844971	29.0
255.872894	8.0
255.935745	12.0
261.193542	12.0
261.200592	12.0
263.15863	17.0
268.983521	32.0
271.171722	27.0
273.159454	37.0
273.274902	14.0
274.937317	39.0
275.886383	22.0
278.117004	41.0
280.927002	11.0
281.490692	25.0
281.937653	27.0
282.994202	11.0
283.163116	8.0
284.95105	28.0
285.511414	47.0
286.981232	33.0
289.181885	454.0
289.939636	68.0
289.96936	9.0
290.162659	64.0
290.184967	105.0
290.348602	17.0
291.182343	93.0
291.197235	14.0
292.509888	23.0
292.928131	19.0
293.892792	33.0
293.94516	25.0
294.978973	17.0
295.286438	6.0
295.293945	6.0
295.931946	47.0
296.164795	18.0
297.880249	23.0
297.963135	9.0
298.958649	9.0
301.955231	31.0
306.699799	46.0
309.297058	12.0
318.173798	10.0
318.18158	10.0
328.575287	9.0
328.670227	39.0
331.160095	8.0
332.432404	12.0
332.766815	12.0
332.886261	7.0
334.01825	12.0
334.305542	25.0
334.36142	13.0
334.688812	27.0
334.760681	8.0
334.872528	7.0
335.048309	25.0
335.184143	10635.0
335.232117	31.0
335.264069	36.0
335.312042	28.0
335.336029	69.0
335.384003	29.0
335.40799	34.0
335.455963	14.0
335.487946	11.0
335.535919	15.0
335.663879	9.0
335.695862	37.0
335.743866	9.0
335.911865	12.0
336.023865	5.0
336.031891	5.0
336.18396	2490.0
336.231964	58.0
336.320038	5.0
336.328033	5.0
336.688446	9.0
336.904755	7.0
337.008911	7.0
337.040985	17.0
337.097076	14.0
337.185272	586.0
337.217316	43.0
337.257416	104.0
337.698486	10.0
337.770691	8.0
337.923157	13.0
337.963287	10.0
338.188019	121.0
338.220154	15.0
338.268311	39.0
338.364655	32.0
338.589539	8.0
338.742188	8.0
338.782379	20.0
338.870789	15.0
339.176239	22.0
339.224487	11.0
339.24057	90.0
339.353149	15.0
339.497894	10.0
340.181976	15.0
340.310791	16.0
340.769989	8.0
340.947296	9.0
341.26178	8.0
342.529083	12.0
343.531677	6.0
346.109558	6.0
346.832794	8.0
348.966156	10.0
357.201965	20.0
392.80835	20.0
457.406586	13.0
596.093201	16.0
610.946594	51.0
625.687988	28.0
633.981689	24.0
648.974487	39.0
668.266602	77.0
694.831665	8.0
719.312927	12.0
749.778137	12.0
985.887329	10.0
1229.252197	8.0
1921.208008	9.0
2799.421631	6.0
2799.444824	6.0
END IONS

BEGIN IONS
PEPMASS=304.154
CHARGE=1
MSLEVEL=2
SOURCE_INSTRUMENT=LC-ESI-Orbitrap
FILENAME=f.Francesca90/drug_RIS 2/180523_MIX60_INCLUSION (1).mzXML;
SEQ=*..*
IONMODE=Positive
ORGANISM=GNPS-LIBRARY
NAME=Cocaine M+H
PI=Manuel Sergi
DATACOLLECTOR=23.05.2018
SMILES=CN1C2CCC1C(C(C2)OC(=O)C3=CC=CC=C3)C(=O)OC
INCHI= 
INCHIAUX= 
PUBMED= 
SUBMITUSER=Francesca90
LIBRARYQUALITY=3
SPECTRUMID=CCMSLIB00004679364
USI=mzspec:GNPS:GNPS-LIBRARY:accession:CCMSLIB00004679364
SCANS=1163
56.757923	344.32489
56.758327	731.691467
56.758732	872.745117
56.75914	642.415283
56.759544	242.418701
73.848198	454.885559
73.848801	733.968262
73.849403	883.814819
73.850006	825.936584
73.850609	589.469788
80.859444	556.76886
80.860138	913.762878
80.860825	1123.1073
80.861511	1040.225098
80.862206	688.970398
82.063103	601.194458
82.063805	2289.409668
82.064514	4907.696289
82.065216	7752.552246
82.065918	7881.063965
82.066628	4993.093262
82.067329	2275.903076
82.068039	327.111145
90.974365	622.414246
90.975189	2554.890381
90.976013	4917.365234
90.976837	7030.329102
90.977654	5997.11377
90.978477	3564.51001
90.979301	1364.101685
90.980125	441.707184
96.148384	437.248535
96.149284	911.104858
96.150177	1116.098267
96.15107	880.829773
96.151962	407.679016
105.031242	728.778687
105.032257	1783.866089
105.033279	3873.121826
105.034302	4281.675293
105.035324	2784.373779
105.036346	1205.304077
105.037369	439.935181
106.948814	600.323547
106.949867	1168.111206
106.950912	1363.085815
106.951965	1026.778687
106.953011	446.744781
107.551361	509.536591
107.552422	956.189331
107.553482	1229.380249
107.554535	1125.749878
107.555595	704.391418
108.079048	488.249329
108.080116	982.933411
108.081184	1231.759033
108.082245	1054.961914
108.083313	602.016968
113.057144	657.470886
113.058281	1254.870483
113.059425	1627.207642
113.060562	1510.473633
113.061699	981.854797
113.062843	394.234131
113.421715	479.507874
113.422867	892.546448
113.424011	1156.511719
113.425156	1103.425171
113.4263	766.925476
119.046043	605.347595
119.047272	1294.143066
119.048508	1821.611328
119.049736	1810.389648
119.050964	1265.897217
119.0522	573.310669
124.146675	432.857483
124.147987	907.369385
124.1493	1184.631714
124.150612	1087.099121
124.151924	699.692017
131.078049	647.676086
131.079483	1124.479248
131.080902	1311.238037
131.082321	1049.021362
131.083755	525.113464
140.008453	381.566986
140.010025	834.652588
140.011597	1085.422485
140.013168	940.25354
140.01474	530.379578
150.0858	209.986526
150.08754	843.239563
150.089279	1665.686157
150.091034	2147.618652
150.092773	1923.792236
150.094513	1176.533569
150.096268	450.242432
182.105881	719.425232
182.1082	3075.196045
182.110535	12392.610352
182.112869	38496.074219
182.115204	66435.132812
182.117523	86947.796875
182.119858	68216.773438
182.122192	40020.015625
182.124527	13581.19043
182.126862	3368.806396
182.129181	695.232178
183.112259	304.061127
183.114609	920.989624
183.116959	1901.105347
183.119308	3923.64209
183.121674	4235.297363
183.124023	2141.176758
183.126373	1101.296509
183.128723	367.891327
216.711487	785.645508
216.714523	1127.070312
216.717545	1264.422485
216.720566	1105.073608
216.723587	717.182739
251.617889	714.492188
251.621674	1214.279663
251.625458	1446.818604
251.629242	1246.048462
251.633026	742.26947
266.26001	477.342499
266.26413	863.000366
266.26825	1030.553101
266.272369	864.606262
266.276489	494.162994
304.128052	686.553528
304.133087	1468.211792
304.138123	6152.890625
304.143127	21473.609375
304.148163	40426.824219
304.153198	58121.773438
304.158234	51062.902344
304.163269	31134.601562
304.168304	12745.259766
304.173309	3443.025879
304.178345	1391.719116
304.183319	1471.339233
304.188354	953.412537
304.19339	457.484436
305.136536	302.719574
305.141602	912.678223
305.146637	2874.847656
305.151703	5122.646973
305.156769	6968.773438
305.161804	5735.67334
305.16687	3385.566895
305.171936	1221.134888
305.176971	518.16095
313.451782	756.891968
313.457031	1119.92041
313.462311	1185.607056
313.46756	921.277832
313.472839	504.378113
END IONS

BEGIN IONS
PEPMASS=489.209
CHARGE=1
MSLEVEL=2
SOURCE_INSTRUMENT=LC-ESI-Orbitrap
FILENAME=f.rmenezes/MS2_spectra/140717_RM_Fusarium_T-2_toxin_1ul_ms2.mzXML;
SEQ=*..*
IONMODE=Positive
ORGANISM=GNPS-LIBRARY
NAME=T-2 Toxin M+Na
PI=Ales Svatos
DATACOLLECTOR=Riya Menezes
SMILES=CC1=CC2C(CC1OC(=O)CC(C)C)(C3(C(C(C(C34CO4)O2)O)OC(=O)C)C)COC(=O)C
INCHI= 
INCHIAUX= 
PUBMED= 
SUBMITUSER=rmenezes
LIBRARYQUALITY=3
SPECTRUMID=CCMSLIB00004681488
USI=mzspec:GNPS:GNPS-LIBRARY:accession:CCMSLIB00004681488
SCANS=630
133.30603	6165.550781
135.934799	6756.661133
165.070282	7379.993164
168.774887	6856.581055
171.115906	10784.728516
181.266953	6464.345703
185.094086	10968.8125
187.229614	6678.282227
199.112045	17615.451172
200.623795	6726.394043
203.106659	8260.850586
203.589401	7437.962402
215.108826	10882.65918
222.026535	6102.856934
224.729416	5722.325684
225.801773	5910.231934
227.105759	18823.423828
232.725311	7587.973145
241.119659	29547.242188
245.117096	657976.6875
247.425812	7135.506348
267.099274	474760.15625
291.39209	15885.421875
298.832611	91535.421875
299.125885	13911.193359
326.983765	11130.460938
327.002289	10860.271484
327.037964	26194.542969
327.119629	2609482.75
327.19455	11929.512695
327.215485	23766.013672
327.248291	8152.73877
345.130157	79535.234375
369.167328	13509.230469
386.785034	10781.495117
386.825989	12471.301758
386.873322	9909.709961
386.894958	9115.106445
386.94342	18567.095703
386.965363	16378.255859
386.986725	15170.448242
387.011475	18629.212891
387.034393	27495.255859
387.055878	23079.134766
387.1409	3778840.75
387.221252	22393.539062
387.236206	17437.066406
387.265625	32482.226562
387.309357	15157.614258
387.333771	17289.626953
387.356598	14477.461914
387.373444	9351.458984
387.403625	12663.736328
387.422089	8141.885254
403.298492	9029.883789
409.977356	7656.572754
429.187683	75968.9375
489.208282	656207.1875
END IONS

BEGIN IONS
PEPMASS=293.097
CHARGE=1
MSLEVEL=2
SOURCE_INSTRUMENT=LC-ESI-qTof
FILENAME=f.MSV000082630/ccms_peak/raw_files/samples/Subject_32/18NAVY32_6_plasma.mzML;
SEQ=*..*
IONMODE=Positive
ORGANISM=GNPS-LIBRARY
NAME=Ethylenediaminetetraacetic acid EDTA M+H
PI=Dorrestein
DATACOLLECTOR=lfnothias
SMILES=C(CN(CC(=O)O)CC(=O)O)N(CC(=O)O)CC(=O)O
INCHI=InChI=1S/C10H16N2O8/c13-7(14)3-11(4-8(15)16)1-2-12(5-9(17)18)6-10(19)20/h1-6H2,(H,13,14)(H,15,16)(H,17,18)(H,19,20)
INCHIAUX= 
PUBMED= 
SUBMITUSER=lfnothias
LIBRARYQUALITY=3
SPECTRUMID=CCMSLIB00005435779
USI=mzspec:GNPS:GNPS-LIBRARY:accession:CCMSLIB00005435779
SCANS=209
51.100048	22982.816406
51.739052	29397.318359
53.916683	26109.833984
56.049885	596145.625
56.698219	24871.173828
57.285809	24781.386719
60.044781	730482.5625
66.929565	26315.923828
70.065292	33711.535156
74.060188	1354050.625
76.249931	27207.294922
83.045372	34803.257812
86.060013	2753904.5
87.063126	36267.859375
88.039238	2313402.0
90.807091	29346.978516
101.046936	124093.84375
102.05484	1264755.125
104.070602	417975.8125
110.822685	61136.671875
114.05481	2929424.75
116.070526	66284.34375
132.065323	25285256.0
133.068924	499495.40625
134.044373	240188.453125
160.060272	37332936.0
161.063797	1097205.25
238.470108	38956.492188
247.091782	853226.625
248.097321	38364.105469
293.097229	2811490.75
294.099854	164294.828125
END IONS

BEGIN IONS
PEPMASS=163.122
CHARGE=1
MSLEVEL=2
SOURCE_INSTRUMENT=LC-ESI-qTof
FILENAME=f.pilepoga/Alkalo ANGERS/Nicotine.mgf;
SEQ=*..*
IONMODE=Positive
ORGANISM=GNPS-LIBRARY
NAME=Nicotine M+H
PI=Le Pogam
DATACOLLECTOR=Le Pogam
SMILES=CN1CCC[C@H]1C2=CN=CC=C2
INCHI=1S/C10H14N2/c1-12-7-3-5-10(12)9-4-2-6-11-8-9/h2,4,6,8,10H,3,5,7H2,1H3/t10-/m0/s1
INCHIAUX= 
PUBMED= 
SUBMITUSER=pilepoga
LIBRARYQUALITY=3
SPECTRUMID=CCMSLIB00005720169
USI=mzspec:GNPS:GNPS-LIBRARY:accession:CCMSLIB00005720169
SCANS=1
101.034744	3743.977051
102.042191	8459.956055
103.050362	56574.058594
104.046539	4399.521973
105.058006	1112.146973
106.061012	13819.719727
115.048973	7127.066895
116.045258	16088.740234
117.053177	157009.0
118.060608	10696.290039
128.0448	7801.100098
130.060883	84801.273438
131.066299	1923.097046
END IONS

BEGIN IONS
PEPMASS=384.201
CHARGE=1
MSLEVEL=2
SOURCE_INSTRUMENT=LC-ESI-Orbitrap
FILENAME=DAS_MS2.mzXML
SEQ=*..*
IONMODE=Positive
ORGANISM=GNPS-LIBRARY
NAME=Diacetoxyscirpenol M+NH3
PI=D Overy
DATACOLLECTOR=T Witte
SMILES=CC1=CC2C(CC1)(C3(C(C(C(C34CO4)O2)O)OC(=O)C)C)COC(=O)C
INCHI="InChI=1S/C19H26O7/c1-10-5-6-18(8-23-11(2)20)13(7-10)26-16-14(22)15(25-12(3)21)17(18,4)19(16)9-24-19/h7,13-16,22H,5-6,8-9H2,1-4H3/t13-,14-,15-,16-,17-,18-,19-/m1/s1"
INCHIAUX=N/A
PUBMED=N/A
SUBMITUSER=mpanitchpakdi
LIBRARYQUALITY=1
SPECTRUMID=CCMSLIB00005723555
USI=mzspec:GNPS:GNPS-LIBRARY:accession:CCMSLIB00005723555
SCANS=420
97.906555	38573.113281
101.416405	41360.988281
102.406807	44695.75
105.069603	129621.765625
107.939026	42764.429688
108.099686	42040.890625
108.965431	38133.800781
109.064766	59207.289062
112.134468	43067.503906
113.059441	139799.3125
115.098671	43091.871094
115.959518	43730.902344
118.690018	42515.535156
119.085442	50264.332031
120.54435	39822.015625
120.761635	45953.542969
121.064598	109768.59375
123.080383	78581.929688
125.059494	335096.34375
127.075165	60714.707031
128.335175	38459.324219
128.49295	38560.921875
128.700684	44964.984375
130.306854	39134.765625
131.085373	147168.015625
132.605515	42461.726562
133.064484	51707.519531
133.100815	56299.9375
134.743561	44963.613281
135.080322	65599.046875
137.059601	69662.835938
139.454895	38316.917969
140.110718	37729.039062
141.054443	618976.125
143.070084	118379.265625
143.085403	255439.484375
145.064682	47561.082031
145.100983	344541.125
147.023819	47208.621094
147.080246	121346.492188
149.216797	45550.917969
151.075104	96903.851562
155.066605	42058.8125
155.070053	147355.140625
155.085358	92411.992188
155.719498	36960.050781
157.100952	1641832.125
158.689575	39112.09375
159.0802	139248.078125
159.116638	507203.3125
161.095993	207224.234375
162.176239	38628.324219
163.111374	308084.09375
163.304398	48170.296875
163.736176	42784.65625
165.502487	44629.054688
166.258804	39604.886719
167.069916	179946.765625
169.100876	778189.8125
170.10881	108178.625
170.217133	45468.25
171.080154	62351.046875
171.116577	800891.0625
173.095795	404308.125
173.132233	643013.75
175.111542	337360.28125
175.311417	43576.300781
177.039978	46526.234375
181.100891	610398.625
182.30217	44511.980469
183.064896	151499.84375
183.116608	1831386.875
185.080521	272380.25
185.09581	197355.09375
185.132111	226950.515625
187.075348	66660.28125
187.111465	1014147.9375
187.904846	41182.960938
187.913712	37650.71875
187.927933	75197.125
187.933884	70490.703125
187.945236	113088.296875
187.949478	109303.0
187.958176	116487.429688
187.966721	111376.757812
187.973511	88958.867188
187.976791	88364.992188
187.984818	66254.476562
187.987396	67861.226562
187.997849	55883.828125
188.038574	46478.179688
188.051239	45564.75
189.09111	56237.777344
189.127228	107120.617188
190.298737	42343.839844
191.106491	131469.9375
191.722412	42286.476562
193.100906	445831.875
193.121902	97228.523438
197.517334	36302.554688
199.111526	5133514.0
199.916122	43164.722656
201.075516	320936.875
201.127151	5423745.0
203.10643	203238.6875
203.142776	88805.734375
204.625046	42084.804688
205.122055	770250.375
207.567627	42015.914062
208.783035	53882.960938
211.111481	3382691.25
213.07547	144426.390625
215.143005	50597.140625
215.447083	43714.082031
215.685867	44608.175781
217.12204	2217254.0
219.137711	893107.5
223.605911	37283.285156
225.127167	70957.96875
229.122055	11183850.0
229.39418	44494.398438
233.382233	39868.886719
235.132233	123470.09375
239.091263	73880.851562
241.121887	116332.296875
243.138077	94704.5625
247.095779	71453.421875
247.101746	95099.726562
247.104523	108153.023438
247.110413	123964.007812
247.113205	112247.953125
247.116531	166841.4375
247.122208	181737.625
247.132538	20694858.0
247.145737	228390.5
247.151459	146221.25
247.153549	75144.578125
247.156799	53959.824219
247.16037	124732.515625
253.121796	309781.53125
258.225586	40533.359375
259.132568	648877.875
261.148346	125671.132812
265.143036	1650148.375
269.529602	49653.234375
271.132446	807437.5
273.483307	43109.441406
276.55423	44219.777344
277.142975	622104.1875
277.68277	67829.179688
277.708832	44368.007812
277.908234	53298.132812
277.925415	55475.007812
278.209473	64373.777344
278.231415	39998.792969
278.312988	54153.589844
278.37619	43033.269531
278.444183	55853.355469
279.158844	67271.289062
282.72113	39178.636719
283.7995	140606.625
289.143036	9595656.0
289.163818	51825.691406
289.166992	72758.398438
307.049744	96094.476562
307.082153	116628.15625
307.086029	121003.34375
307.090424	152042.078125
307.094208	118620.828125
307.102661	194125.953125
307.106293	157032.8125
307.11087	218842.234375
307.114441	186736.59375
307.118652	260498.609375
307.122955	286756.46875
307.126923	251452.75
307.131165	402066.5
307.134094	256945.109375
307.139313	445710.0625
307.153534	49637928.0
307.166229	229854.859375
307.171844	526525.125
307.174805	255230.859375
307.179718	354299.90625
307.183746	262694.3125
307.187653	161245.171875
307.192108	303522.25
307.195587	170050.78125
307.200195	213475.640625
307.203918	136824.234375
307.212402	158466.453125
307.216034	97681.15625
307.224548	91559.882812
307.228607	150936.953125
307.232605	110555.078125
307.23645	75438.15625
307.253174	118025.75
307.256561	54587.859375
308.816833	66595.976562
309.485748	59621.25
319.153198	296170.03125
319.413757	39404.105469
320.056671	46760.800781
325.164062	914017.0
331.153534	169291.109375
337.164154	174010.59375
349.077728	149841.484375
349.082397	105895.890625
349.112518	236148.9375
349.116547	117725.59375
349.12204	281823.21875
349.127167	247178.5625
349.131927	267855.96875
349.137054	371353.5
349.141266	214368.265625
349.146851	407201.71875
349.164093	45908328.0
349.180603	189914.25
349.186279	485434.53125
349.190765	244607.3125
349.195984	332680.4375
349.200836	237253.296875
349.206024	172151.28125
349.210846	258888.734375
349.215576	169304.859375
349.250488	99933.265625
349.255188	127144.625
349.259888	98854.859375
367.174652	4287352.0
374.663422	44869.632812
379.082001	53381.746094
386.096008	48876.75
391.771881	53572.34375
END IONS

BEGIN IONS
PEPMASS=177.102
CHARGE=1
MSLEVEL=2
SOURCE_INSTRUMENT=ESI-Orbitrap
FILENAME=madeleine.mgf
SEQ=*..*
IONMODE=Positive
ORGANISM=GNPS-LIBRARY
NAME=SEROTONIN - 20.0 eV M+H
PI=Madeleine Ernst
DATACOLLECTOR=Anna Abrahamsson
SMILES=NCCC1=CNC2=CC=C(O)C=C12
INCHI=N/A
INCHIAUX=N/A
PUBMED=N/A
SUBMITUSER=mwang87
LIBRARYQUALITY=1
SPECTRUMID=CCMSLIB00005883502
USI=mzspec:GNPS:GNPS-LIBRARY:accession:CCMSLIB00005883502
SCANS=349
50.126099	78.68
50.138401	74.120003
50.478401	209.610001
50.8773	91.669998
51.797001	195.639999
52.268902	70.860001
52.387798	79.239998
52.549599	96.839996
52.9729	85.599998
53.035801	85.110001
53.062901	78.540001
53.184502	205.029999
54.170898	97.059998
55.8839	84.980003
55.973801	80.089996
56.130798	187.929993
56.469299	82.849998
56.527401	80.360001
56.665699	199.979996
56.827	85.25
56.965099	76.889999
57.2728	76.599998
57.875198	85.980003
58.0238	92.139999
58.064201	87.800003
58.065399	6898.47998
58.1077	79.07
58.1623	86.769997
58.507801	82.25
58.648399	100.82
59.223	95.809998
59.369499	90.760002
59.6828	83.629997
59.969002	216.509995
61.013401	101.669998
61.917801	78.040001
61.935398	243.630005
62.178101	83.089996
62.470001	78.010002
62.4827	87.440002
64.388802	90.5
65.457497	241.610001
65.477402	206.660004
65.697098	81.419998
66.591003	85.290001
66.929001	86.839996
67.041702	143.089996
67.735703	83.260002
68.6017	83.519997
69.394699	84.309998
70.299896	215.880005
70.627403	87.040001
70.967903	87.889999
72.257599	86.059998
72.440201	105.800003
72.605499	275.040009
73.880997	103.559998
74.560997	93.940002
75.035896	100.699997
76.168701	101.599998
76.238701	93.410004
76.4795	90.25
76.553902	92.669998
77.941299	90.980003
78.339996	248.449997
78.953598	93.650002
79.766602	98.489998
80.356697	238.0
81.363503	92.370003
81.593597	91.720001
84.369598	100.160004
84.800499	224.809998
84.959801	102.760002
86.425797	90.550003
86.778	118.300003
87.106598	95.580002
87.382896	99.129997
87.944298	105.129997
88.0215	256.829987
88.4739	90.900002
90.807999	274.290009
91.054298	4444.609863
91.379898	98.550003
92.325302	113.32
93.591904	111.129997
96.166801	103.260002
96.757896	107.129997
100.599701	93.68
100.893204	113.849998
101.666199	104.389999
104.043999	104.370003
104.807503	96.0
105.07	161.610001
107.768303	114.449997
108.403397	99.019997
108.940201	91.040001
109.105499	105.080002
109.117302	94.25
111.385002	113.870003
112.845802	221.399994
113.3834	94.110001
113.963799	2279.580078
114.388496	96.690002
114.893303	107.0
115.054298	1620.0
117.057297	782.659973
119.049202	27449.830078
119.975197	862.650024
122.574699	99.980003
125.938004	107.080002
126.062202	93.480003
126.2761	97.860001
129.838806	91.75
131.741196	99.389999
131.974396	2001.890015
132.080795	2906.870117
133.064697	513.140015
134.962296	217.059998
135.096603	94.839996
136.5905	99.519997
138.592102	140.380005
140.058899	92.279999
140.595901	95.779999
141.958496	1022.919983
142.065094	238.600006
143.072906	121.690002
143.525101	106.07
148.075607	218.539993
149.012207	2301.48999
149.023407	1749.689941
149.903198	94.830002
150.014801	100.43
150.877899	100.589996
151.141693	93.330002
159.067993	196.639999
159.350006	105.309998
159.969101	2607.689941
160.020004	685.049988
160.075699	390561.0
160.127701	692.919983
161.0728	196.919998
161.079102	55475.859375
162.156494	113.139999
166.657104	103.639999
167.022705	383.220001
168.295502	113.309998
169.588104	93.57
170.563705	290.279999
171.839294	95.230003
172.399506	104.239998
172.942795	457.839996
174.056396	117.949997
176.980392	112.470001
177.007904	107.470001
177.074295	1068.550049
177.102203	973.200012
177.956406	1530.530029
178.050201	187.449997
178.122803	167721.125
186.881104	118.849998
190.953293	494.730011
191.229599	167.619995
END IONS

BEGIN IONS
PEPMASS=310.113
CHARGE=1
MSLEVEL=2
SOURCE_INSTRUMENT=ESI-Orbitrap
FILENAME=madeleine.mgf
SEQ=*..*
IONMODE=Positive
ORGANISM=GNPS-LIBRARY
NAME=N-ACETYLNEURAMINATE - 20.0 eV M+H
PI=Madeleine Ernst
DATACOLLECTOR=Anna Abrahamsson
SMILES=CC(=O)N[C@@H]1[C@@H](O)C[C@](O)(O[C@H]1[C@H](O)[C@H](O)CO)C(O)=O
INCHI=N/A
INCHIAUX=N/A
PUBMED=N/A
SUBMITUSER=mwang87
LIBRARYQUALITY=1
SPECTRUMID=CCMSLIB00005883610
USI=mzspec:GNPS:GNPS-LIBRARY:accession:CCMSLIB00005883610
SCANS=457
50.208801	112.419998
50.282902	92.919998
50.633499	102.870003
51.534901	95.330002
51.625301	103.610001
51.995602	97.650002
52.1548	112.029999
52.4548	99.610001
52.624599	94.43
52.646801	90.769997
53.0098	126.75
53.466	100.279999
53.787601	103.709999
54.3139	111.010002
54.318199	98.529999
55.322899	103.910004
55.702499	113.599998
55.7173	105.300003
55.9972	99.269997
56.4492	113.260002
57.191399	93.889999
57.2397	127.629997
57.993198	96.529999
58.253399	105.300003
59.0448	107.650002
60.044701	1354.22998
60.471001	98.660004
61.1842	111.400002
62.130402	121.699997
62.346401	109.980003
62.723099	113.059998
64.299599	125.029999
64.375801	98.959999
65.755699	112.440002
66.298798	100.269997
66.482697	109.959999
66.845703	97.230003
68.954002	102.379997
69.141197	98.279999
69.211098	114.959999
70.8433	102.769997
71.9086	122.610001
72.618401	102.589996
72.848	126.730003
73.039703	124.199997
73.650299	112.769997
73.908302	118.519997
74.2397	116.75
74.334999	145.389999
74.9711	121.309998
75.018501	125.150002
76.101196	110.370003
76.568199	115.709999
77.107697	103.019997
78.283203	126.440002
80.4282	100.029999
80.902199	110.889999
81.0336	190.320007
81.964798	126.550003
82.226799	109.309998
82.323097	119.559998
83.448097	126.889999
84.044601	453.170013
84.243599	111.660004
84.954803	127.699997
85.028397	483.929993
85.2351	117.849998
85.308998	124.980003
85.847198	131.919998
87.746002	135.339996
88.840797	117.389999
90.658897	143.740005
91.558899	115.279999
91.805298	116.0
92.841599	130.039993
93.490501	129.020004
94.441704	112.910004
95.253899	120.800003
96.044197	135.669998
96.113403	132.570007
99.926399	122.169998
101.925903	109.900002
103.039001	2159.320068
104.031601	114.300003
104.442101	113.709999
104.779999	124.110001
108.044403	189.669998
108.363297	121.610001
110.060402	252.119995
111.782204	129.5
111.815697	134.970001
112.039398	3911.360107
113.450897	130.130005
114.541603	139.020004
115.336197	121.93
117.564598	128.699997
117.699097	114.730003
120.054604	118.75
121.028503	5048.290039
123.043999	580.219971
124.039398	134.570007
124.077003	117.900002
124.798401	135.179993
126.055	2112.01001
126.576599	127.559998
128.033798	132.0
128.797302	115.209999
130.049896	1914.319946
132.688507	121.410004
133.622803	112.949997
133.630905	123.690002
134.060196	157.589996
136.039505	2137.030029
137.138901	156.389999
137.241302	111.510002
137.418106	147.919998
138.055206	144.369995
140.070908	131.360001
140.557297	102.970001
143.7565	120.440002
144.347794	111.68
146.991592	130.690002
148.168594	125.989998
150.054794	388.299988
151.039093	1145.569946
152.070694	480.420013
154.050003	4986.080078
155.033798	544.590027
155.053101	145.850006
159.401703	116.18
161.740997	110.75
162.128098	133.360001
164.893494	127.830002
165.936996	115.660004
166.050095	1255.52002
167.033997	16618.890625
168.037399	1325.609985
168.065598	391.230011
170.081299	1153.780029
170.311203	118.849998
172.060501	5912.879883
173.063995	151.190002
174.280701	129.179993
174.477295	130.179993
175.742096	130.960007
178.050003	1382.420044
179.033997	7000.709961
180.037399	337.279999
180.587402	116.980003
182.044998	514.150024
184.060699	966.929993
184.153702	132.139999
185.044601	486.540009
185.064697	143.779999
186.076096	739.919983
186.489899	132.710007
189.598206	137.300003
196.060699	4105.27002
197.044601	11047.769531
197.063904	364.579987
198.048004	1268.97998
199.029404	128.960007
200.693802	137.080002
204.086807	145.270004
208.060394	392.23999
208.263702	136.809998
214.071106	4729.370117
215.054993	4266.569824
215.0737	255.960007
216.058899	254.059998
216.328903	127.230003
220.060593	339.959991
220.218994	132.199997
226.070801	153.300003
232.081604	9592.410156
233.085403	1012.23999
236.277496	131.259995
238.071198	1079.719971
246.028702	141.039993
246.363297	139.399994
248.636505	125.410004
250.092407	4428.410156
251.095505	188.729996
255.576508	152.529999
256.081604	6258.600098
257.084808	333.209991
260.290802	139.960007
272.041687	142.669998
274.092407	50923.921875
275.096008	8426.410156
279.303711	147.410004
279.505493	141.960007
287.579193	130.529999
292.102997	14640.849609
293.105896	1799.560059
298.690491	139.570007
307.993011	144.830002
308.191498	145.229996
308.846008	136.639999
310.113892	592.369995
310.248413	135.710007
320.816498	132.520004
324.771912	141.899994
330.765503	152.050003
333.274902	148.690002
END IONS

BEGIN IONS
PEPMASS=442.147
CHARGE=1
MSLEVEL=2
SOURCE_INSTRUMENT=ESI-Orbitrap
FILENAME=madeleine.mgf
SEQ=*..*
IONMODE=Positive
ORGANISM=GNPS-LIBRARY
NAME=FOLIC ACID - 20.0 eV M+H
PI=Madeleine Ernst
DATACOLLECTOR=Anna Abrahamsson
SMILES=NC1=NC(=O)C2=NC(CNC3=CC=C(C=C3)C(=O)N[C@@H](CCC(O)=O)C(O)=O)=CN=C2N1
INCHI=N/A
INCHIAUX=N/A
PUBMED=N/A
SUBMITUSER=mwang87
LIBRARYQUALITY=1
SPECTRUMID=CCMSLIB00005883886
USI=mzspec:GNPS:GNPS-LIBRARY:accession:CCMSLIB00005883886
SCANS=733
50.141899	77.910004
50.298801	86.970001
50.386101	82.199997
50.5019	93.120003
50.818199	89.239998
50.943001	91.029999
51.483398	93.610001
51.588902	76.940002
51.665501	97.730003
51.915798	89.910004
53.116901	89.449997
53.354	86.629997
54.132401	85.040001
54.573502	90.410004
54.624699	83.199997
54.862499	92.919998
54.876099	90.339996
55.321499	89.080002
55.506802	86.160004
57.362701	93.809998
57.474701	83.379997
57.5765	99.580002
58.0312	93.330002
59.811699	89.629997
60.393002	85.25
60.5224	98.839996
60.5923	83.209999
60.7136	96.339996
60.966	85.660004
61.425499	96.059998
62.029202	85.309998
62.752399	91.790001
62.803001	99.709999
63.069099	105.800003
63.226501	86.339996
63.597801	87.199997
63.706402	82.860001
63.808399	96.120003
64.219498	85.0
64.661201	90.32
64.891296	97.339996
65.630203	91.150002
66.393898	98.629997
66.9048	85.080002
67.016899	106.400002
67.43	113.169998
67.514503	97.029999
67.668701	95.43
67.864197	97.190002
68.084099	101.25
68.572304	100.970001
69.185204	88.120003
69.343201	94.989998
69.451401	90.800003
69.631798	108.610001
69.669701	93.809998
69.690498	96.75
69.979897	88.959999
70.217903	91.57
70.8666	95.260002
71.095901	95.190002
71.183296	103.870003
71.209297	95.839996
71.317398	90.260002
72.312401	96.720001
72.760902	91.949997
72.929901	103.620003
73.042099	109.830002
73.139702	89.900002
73.282204	116.040001
73.327698	96.410004
73.499397	88.059998
74.030098	85.300003
75.385399	105.580002
76.021599	95.480003
76.603104	96.860001
77.613197	110.349998
78.7929	86.300003
78.931503	96.190002
79.366699	115.129997
79.8647	101.709999
79.898499	90.620003
79.936798	98.440002
80.270798	87.860001
81.096397	99.559998
81.320999	105.57
81.558899	101.18
82.793701	92.739998
84.1194	98.800003
84.4244	103.589996
85.0243	92.059998
85.445702	97.919998
85.657204	111.639999
85.781601	104.489998
86.082298	93.410004
86.106201	102.540001
86.7173	98.120003
87.249603	106.470001
87.762398	100.300003
88.388	89.43
88.545197	101.809998
89.903	87.510002
92.163696	153.979996
92.167	112.459999
92.216599	118.800003
93.773598	109.279999
93.840202	130.449997
95.006798	100.25
96.788696	111.010002
98.701599	101.620003
100.976501	105.760002
101.217003	94.559998
101.694504	102.669998
101.6987	128.25
103.236099	107.650002
104.197098	112.059998
105.883102	100.860001
106.584503	91.43
107.383797	124.269997
108.603401	108.790001
111.1772	95.919998
112.537102	107.18
115.550102	107.419998
117.494598	95.589996
117.649101	107.830002
117.748901	126.610001
118.724503	116.239998
119.742302	100.050003
122.380096	99.730003
122.726601	148.169998
123.951698	95.580002
127.545403	113.800003
138.296799	104.309998
138.352203	108.300003
138.482895	104.059998
145.889496	112.669998
149.418793	122.230003
149.667206	119.720001
151.665695	122.809998
152.829407	122.480003
153.109299	118.150002
155.769104	100.540001
157.098007	103.669998
157.108505	108.379997
158.411606	98.690002
159.710297	109.5
160.191895	106.739998
166.733795	104.660004
169.037598	98.32
170.624695	109.169998
172.6586	102.650002
173.032501	95.080002
176.502701	101.449997
181.300797	99.860001
181.559692	114.639999
184.389297	109.010002
193.826508	104.629997
200.1474	109.220001
203.897995	112.169998
206.032501	100.629997
208.698303	115.839996
211.422806	117.559998
212.385605	109.449997
213.890594	111.870003
214.503204	116.290001
215.204102	119.459999
215.940704	119.059998
216.100693	107.690002
224.844696	98.190002
227.179901	109.589996
227.462494	105.040001
238.431595	108.309998
242.636993	100.989998
244.159698	120.360001
246.506393	99.269997
246.957596	117.949997
251.478302	112.160004
253.146194	116.169998
254.963699	95.120003
255.5168	103.529999
262.678894	110.339996
270.783813	123.989998
275.87149	122.410004
287.817505	122.400002
291.519989	128.399994
292.254395	119.309998
294.255707	110.839996
295.094086	9432.679688
296.097198	686.530029
296.326904	129.279999
300.0867	111.099998
307.777802	141.369995
307.993408	104.389999
310.146606	129.550003
313.105103	215.419998
326.653809	127.010002
333.133087	110.790001
340.446289	107.309998
354.285187	122.239998
359.842804	148.190002
359.898987	115.139999
369.304993	129.220001
377.661987	122.489998
389.080811	112.440002
390.892212	128.679993
391.803101	127.519997
400.438995	122.809998
404.738586	109.029999
421.325195	136.520004
423.43631	104.93
425.283203	126.57
429.756012	119.839996
437.466888	110.900002
438.445312	128.179993
449.41861	118.879997
466.426605	121.349998
466.50351	119.919998
468.775909	110.480003
END IONS

BEGIN IONS
PEPMASS=112.087
CHARGE=1
MSLEVEL=2
SOURCE_INSTRUMENT=ESI-Orbitrap
FILENAME=madeleine.mgf
SEQ=*..*
IONMODE=Positive
ORGANISM=GNPS-LIBRARY
NAME=HISTAMINE - 20.0 eV M+H
PI=Madeleine Ernst
DATACOLLECTOR=Anna Abrahamsson
SMILES=NCCC1=CNC=N1
INCHI=N/A
INCHIAUX=N/A
PUBMED=N/A
SUBMITUSER=mwang87
LIBRARYQUALITY=1
SPECTRUMID=CCMSLIB00005884473
USI=mzspec:GNPS:GNPS-LIBRARY:accession:CCMSLIB00005884473
SCANS=1320
50.261501	354.160004
50.325699	1329.449951
50.361801	83.690002
50.907398	77.559998
51.091301	76.849998
51.751499	77.860001
53.169601	72.550003
53.939499	861.849976
54.277401	79.449997
55.359501	1565.76001
55.861099	1474.300049
56.471199	354.079987
56.672798	413.119995
57.206699	1520.780029
57.283798	341.119995
57.748901	408.119995
58.795502	1319.47998
59.201698	78.220001
59.332699	1675.119995
59.397999	88.629997
61.238602	370.75
62.029999	358.660004
62.1558	80.339996
62.9715	460.809998
63.3839	75.68
63.426399	92.110001
63.563599	92.779999
63.609501	77.239998
64.727402	99.93
65.320801	79.139999
65.580704	77.650002
65.778397	75.440002
66.024803	90.510002
66.049004	79.25
66.089897	82.389999
66.2145	86.410004
67.041801	601.789978
67.054497	323.820007
67.488403	1509.209961
67.823502	84.5
68.034302	398.790009
68.049698	53121.308594
68.269203	385.359985
68.8853	77.220001
68.901703	387.130005
69.053001	741.929993
69.454597	91.440002
70.028801	87.25
70.035103	86.660004
70.065498	84.160004
70.287399	93.870003
70.522003	81.82
70.556099	428.720001
70.942001	1808.530029
71.049301	291.790009
71.295303	84.849998
71.568199	77.279999
71.929497	1464.280029
71.940399	5672.899902
71.942101	84.809998
72.369003	430.440002
73.451103	91.57
73.7286	98.949997
74.042503	89.699997
74.556999	394.170013
74.603798	381.079987
78.375999	118.32
79.457199	1681.98999
79.790199	92.059998
79.845299	85.260002
80.992897	96.660004
82.052696	4558.660156
82.6959	92.589996
83.060501	201320.296875
84.057503	618.369995
84.063904	10793.389648
84.959999	87.059998
85.064903	131.679993
85.128197	389.869995
85.137901	95.970001
85.468597	96.400002
86.139	98.75
86.320999	90.980003
86.973198	100.559998
87.004303	221.580002
88.952599	1894.959961
89.951103	1477.540039
90.000801	110.709999
90.585899	111.889999
91.088303	92.18
91.430298	403.529999
91.701401	100.660004
94.650101	85.650002
95.035202	10283.299805
95.049301	237.039993
95.060501	2809462.5
95.084396	7903.899902
96.009598	127.07
96.044403	457.320007
96.057602	29330.869141
96.060898	4216.47998
96.063904	221898.859375
96.0811	424.519989
96.258301	97.830002
96.542198	443.200012
96.846497	88.470001
97.007797	2209.25
97.276901	96.580002
97.4515	94.510002
98.007301	202.559998
99.003502	7193.790039
101.436203	497.429993
102.022102	91.25
106.873199	1798.069946
106.963303	142.330002
107.1194	100.269997
107.780998	437.470001
109.438202	97.809998
111.023499	1581.589966
111.769402	100.540001
112.054604	1845.73999
112.087097	1193311.5
112.117401	2004.76001
112.967003	261.429993
113.0	486.940002
113.019096	12655.019531
113.023003	718.559998
113.034798	1011.599976
113.059998	1200.380005
113.084198	19308.529297
113.090401	98056.453125
113.107498	231.729996
114.717796	432.929993
117.428802	86.330002
122.056	435.529999
123.1399	94.980003
125.766602	96.650002
126.4011	95.169998
126.424698	98.300003
126.955803	843.26001
127.124802	90.959999
130.977295	97.769997
132.697006	1921.880005
133.996307	1948.280029
END IONS

BEGIN IONS
PEPMASS=322.986
CHARGE=1
MSLEVEL=2
SOURCE_INSTRUMENT=LC-ESI-qTof
FILENAME=f.trevorclark/IMS_PAPER/EV_pure_compounds_mgf/MSMS_PROCESSING_TEST_1/MSMS_PROCESSING_TEST_1/20180306_STD_CHLO_MSMS_30V [15] [57].mgf;
SEQ=*..*
IONMODE=Positive
ORGANISM=GNPS-LIBRARY
NAME=chloramphenicol M+H
PI=Roger Linington
DATACOLLECTOR=Trevor Clark
SMILES=C1=CC(=CC=C1C(C(CO)NC(=O)C(Cl)Cl)O)[N+](=O)[O-]
INCHI= 
INCHIAUX= 
PUBMED= 
SUBMITUSER=trevorclark
LIBRARYQUALITY=1
SPECTRUMID=CCMSLIB00006718020
USI=mzspec:GNPS:GNPS-LIBRARY:accession:CCMSLIB00006718020
SCANS=1
118.064003	129.419998
119.072197	380.089996
164.025406	1545.290039
165.066101	2086.409912
170.057495	327.160004
192.022598	251.690002
205.026703	130.759995
206.035904	404.320007
208.030899	130.229996
227.995499	5788.740234
239.995804	2385.850098
248.986298	119.0
250.961899	158.610001
257.994202	17860.960938
274.998199	289.209991
276.989502	158.5
END IONS

BEGIN IONS
PEPMASS=180.139
CHARGE=1
MSLEVEL=2
SOURCE_INSTRUMENT=LC-ESI-qTof
FILENAME=f.liuyaxiong/yejuhua/20211125 YDZY jiajimahuangjian jiachun 0`1ul ims-pos.mzXML;
SEQ=*..*
IONMODE=Positive
ORGANISM=GNPS-LIBRARY
NAME=(-)-N-METHYLEPHEDRINE M+H
PI=liuyaxiong
DATACOLLECTOR= 
SMILES=O[C@H](C1=CC=CC=C1)[C@H](C)N(C)C
INCHI= 
INCHIAUX= 
PUBMED= 
SUBMITUSER=liuyaxiong
LIBRARYQUALITY=3
SPECTRUMID=CCMSLIB00007730291
USI=mzspec:GNPS:GNPS-LIBRARY:accession:CCMSLIB00007730291
SCANS=3000
287.746155	26.0
661.054993	18.0
1102.667603	15.0
END IONS

BEGIN IONS
PEPMASS=277.087
CHARGE=1
MSLEVEL=2
SOURCE_INSTRUMENT=LC-ESI-qTof
FILENAME=f.fronkey/MJH/WUXI20230418/C/C_19.mzXML;
SEQ=*..*
IONMODE=Positive
ORGANISM=GNPS-LIBRARY
NAME=Clenbuterol M+H
PI=Xiang-Rong Cheng
DATACOLLECTOR=Xiang-Rong Cheng
SMILES=CC(C)(C)NCC(C1=CC(=C(C(=C1)Cl)N)Cl)O
INCHI=1S/C12H18Cl2N2O/c1-12(2,3)16-6-10(17)7-4-8(13)11(15)9(14)5-7/h4-5,10,16-17H,6,15H2,1-3H3
INCHIAUX= 
PUBMED=2783
SUBMITUSER=fronkey
LIBRARYQUALITY=3
SPECTRUMID=CCMSLIB00011427530
USI=mzspec:GNPS:GNPS-LIBRARY:accession:CCMSLIB00011427530
SCANS=616083
51.022079	477.227234
51.07893	27.066177
52.027443	93.440475
54.042854	23.125
55.025143	31.901316
55.05426	167.504807
56.797249	34.005001
57.070408	43929.113281
57.246994	42.53125
57.28521	24.560715
57.310589	37.69384
57.335754	69.66008
57.366913	49.079903
57.384289	47.333332
57.416172	43.523674
57.443897	62.022728
57.48085	43.303032
57.53109	35.625
57.561161	32.599998
57.58197	27.133118
57.647476	36.896259
57.669319	22.831633
57.696762	42.415817
57.822269	24.408175
57.941555	67.008331
57.991131	66.480263
58.074009	2197.992676
58.146484	54.08654
58.314335	34.605
58.351051	23.25
58.440834	51.107758
58.514881	27.857063
58.541878	80.612289
58.616951	50.25
58.656071	54.782406
58.672173	27.778847
59.00367	41.892857
59.126057	34.326614
59.551472	41.160713
59.749176	36.640625
60.04594	623.885376
60.327896	23.022728
62.015446	100.284485
63.024616	382.502991
64.017258	55.575001
65.038322	316.989716
66.032028	25.692308
67.054253	365.363647
69.073135	37.961956
72.982277	67.367424
74.98214	30.446428
75.023781	248.367569
76.028893	78.48214
77.03891	4724.641113
77.120735	41.017857
77.368637	34.017857
77.616241	26.818182
77.957558	34.0
77.985535	29.375
78.041061	1534.098267
78.130585	26.01923
79.047981	892.479492
79.126175	32.349998
79.465752	59.698277
79.602104	23.778847
80.049393	848.482056
80.095909	42.375
80.588631	24.045
81.056702	312.142609
81.107292	34.164474
82.264343	55.165321
82.948067	31.008333
83.991516	57.799999
88.034927	31.11574
89.037704	631.013611
89.271011	24.038794
89.341408	28.03125
90.038406	455.769958
91.042503	414.895477
92.049088	783.25
92.098137	22.446428
92.313797	70.778061
93.056641	987.920166
93.558128	25.163462
94.056801	38.363636
95.081985	62.515244
96.086029	41.160713
97.992424	28.049999
98.999359	78.449997
100.007797	108.0
100.999352	37.0
101.302376	78.160713
102.036018	583.545471
103.03611	69.469444
103.072052	26.920454
104.049377	21896.466797
104.143112	152.419006
104.170189	101.209167
104.199242	34.990791
104.238037	24.943323
104.282341	26.584999
104.314079	41.193001
104.354218	32.333
104.421486	69.199997
104.546509	38.519444
104.569244	39.733334
104.623474	64.777779
104.719147	50.157051
104.830475	22.03125
104.931076	46.041668
104.997185	36.235683
105.056496	15034.754883
105.152382	176.190094
105.178909	91.559052
105.223434	60.882011
105.256035	38.336285
105.279167	32.319553
105.349968	45.100807
105.379326	22.367126
105.439125	29.005434
105.47834	39.6875
105.568512	27.0625
105.598869	25.817533
105.65519	53.455936
105.786499	22.461409
105.890442	58.432144
106.064301	12612.481445
106.159698	168.553436
106.199211	90.665779
106.220551	48.377411
106.262878	26.732059
106.306023	78.920761
106.375702	34.150002
106.44799	30.796053
106.52903	45.284092
106.570969	27.25
106.685509	23.125
106.738503	32.0
106.771622	65.520836
106.797943	30.13587
106.898857	32.307693
106.946114	89.136108
106.975601	49.307693
107.067719	1133.444702
107.119041	39.08654
107.164215	41.89352
107.188744	46.720238
107.336723	28.03125
107.943291	35.266304
107.973427	31.266304
109.990082	48.482143
110.99604	418.384094
111.912277	27.1875
112.004082	30.066177
113.015984	1870.835815
113.11541	42.014706
114.019875	292.657623
114.928665	25.375
115.010742	595.711182
115.039948	983.168274
115.264206	23.13587
115.672729	22.025
116.048744	4305.73584
116.176392	35.400002
116.591461	26.107759
116.696236	24.532894
116.966316	84.008331
117.055885	3026.993652
117.12207	79.041664
117.386681	49.113636
117.564697	36.066666
117.657623	30.005953
118.051399	372.20224
118.810074	22.005953
119.058167	134.346268
119.08432	82.125
120.044891	38.102272
120.240509	26.568182
120.969612	48.133064
121.026337	151.363205
121.074669	55.01923
122.049423	34.480263
122.997566	492.644653
123.636505	22.0
124.007027	337.76593
124.195358	33.224998
125.001427	136.453766
125.038849	30.450001
126.008232	777.600952
127.018913	893.934814
127.11937	40.01923
127.460358	28.148809
127.537827	59.680557
127.652458	30.025
127.815773	25.266304
128.014908	186.133331
128.056458	56.003788
128.091003	24.28409
129.017059	596.742249
129.256577	50.111843
130.02504	39.291668
130.137344	23.125
130.904419	45.025002
130.988892	65.125
131.059845	50607.925781
131.414383	77.009209
131.484161	35.263157
131.530792	126.579269
131.56665	41.635765
131.658264	38.432144
131.785553	61.475563
131.820969	64.506508
131.861374	63.657894
131.907532	38.608082
131.969345	100.763695
132.067673	223774.984375
132.70192	75.747177
132.744629	104.86235
132.77536	95.956947
132.815033	107.11232
132.85228	176.594345
132.901443	115.378517
132.974045	113.469116
133.073898	57803.335938
133.428711	115.23214
133.456223	63.609028
133.508881	48.984203
133.537445	84.638466
133.59549	101.465912
133.676727	109.71814
133.706024	61.18182
133.747147	62.674244
133.793091	109.981224
133.874481	72.007111
133.922272	57.714287
133.938034	64.530403
133.978027	99.103043
134.077805	4848.184082
134.183533	102.269051
134.23085	121.531593
134.273163	58.315716
134.332474	43.35989
134.365814	75.798134
134.405716	71.245537
134.454315	46.382275
134.482254	35.46154
134.504684	38.82143
134.538635	67.217857
134.580307	27.733475
134.650284	51.999161
134.672165	22.9715
134.72876	81.704575
134.812683	79.754585
134.865479	37.230316
134.930984	51.037128
134.961945	81.093147
135.0289	32.323685
135.084488	286.395355
135.140869	66.471535
135.226334	28.039604
135.263916	38.171139
135.439606	41.610985
135.465485	34.910599
135.513687	43.655521
135.557373	28.020079
135.683289	46.017857
135.820831	35.753483
135.880142	60.444767
135.955978	68.625
136.001129	39.041527
136.018829	24.818325
136.078827	39.266666
136.135406	55.367424
136.24968	55.5625
136.281143	30.007353
136.456909	24.1
136.536255	35.173077
136.600571	47.816666
136.701004	61.564026
136.772324	32.015625
136.88797	39.728447
137.016296	70.967102
137.048691	23.0
137.120544	48.232143
137.2388	35.56818
137.359085	25.004999
137.45311	33.135868
137.649918	23.011364
138.012573	359.929871
138.096207	24.111111
138.252533	25.183823
138.419205	34.222828
138.50293	23.183823
138.583817	22.245001
138.612152	41.592106
138.992477	59.094696
139.016815	104.905823
139.569397	35.03125
139.728012	30.961956
139.819519	33.041668
139.853729	30.142857
140.025558	62378.695312
140.436508	53.701542
140.50325	25.552382
140.545181	61.612839
140.635956	82.426575
140.710068	137.345734
140.767548	30.770605
140.82457	50.659763
140.875259	39.516609
140.936951	33.39835
141.031021	9310.981445
141.142517	112.199326
141.19783	73.888161
141.227264	70.513733
141.28035	68.780533
141.357712	29.645338
141.447037	27.962288
141.50705	44.267776
141.636551	35.829449
141.7509	54.557693
141.792191	77.999557
141.842056	40.982143
141.885498	30.787878
141.969421	45.592106
142.022964	24525.416016
142.13002	395.314117
142.166229	138.484787
142.196777	95.974419
142.244904	84.653435
142.277527	58.546558
142.326859	38.720238
142.376419	51.125
142.427704	52.91811
142.497559	32.212273
142.53035	41.098984
142.568695	24.757193
142.620834	32.806263
142.644363	33.713665
142.678223	36.920719
142.735229	30.582005
142.776794	26.508209
142.812912	86.056816
142.840958	29.529354
142.892853	55.555557
142.93158	34.906059
142.977631	29.645924
143.028046	2722.101318
143.185272	59.002659
143.245453	47.165321
143.357239	36.011364
143.712479	38.022728
143.897125	38.799999
143.992966	30.211206
144.03595	103.605003
144.523865	35.03125
144.914551	37.0625
144.962418	48.200001
145.26506	31.125
145.323135	39.036289
145.385925	28.025
145.481354	46.094696
145.922318	51.326614
145.966782	294.390259
146.049667	26.674999
146.54245	23.125
146.792175	30.01923
146.975479	58.390625
147.129791	22.333334
147.962677	369.234985
148.030151	38.0
148.080643	22.5
148.767029	23.0
148.970001	55.022728
149.023941	206.422363
149.136734	28.471153
149.95459	38.900002
150.008179	889.347412
150.109024	34.799999
150.365005	22.083334
150.483429	23.285715
150.700897	25.205
150.887085	37.674999
151.01712	20321.976562
151.129578	231.012344
151.161469	167.497177
151.200363	65.900864
151.281479	33.55682
151.327835	27.208334
151.366379	25.625
151.479797	35.6875
151.591949	40.289288
151.645462	27.78125
151.712906	35.28125
151.780533	48.816666
151.818939	48.164474
151.863602	37.017857
151.917236	24.076923
151.955795	53.191177
152.023834	7385.861328
152.12413	137.049606
152.169998	51.400002
152.215942	56.014706
152.305161	64.89286
152.341995	25.0625
152.428726	34.173077
152.458237	41.640152
152.483566	26.347221
152.734863	43.0
152.827591	23.225
152.950241	39.360294
153.017426	11969.612305
153.127289	199.330643
153.164291	84.449074
153.238678	53.083332
153.293121	38.625
153.415543	47.53125
153.486923	38.75
153.513992	46.245689
153.56189	27.053572
153.947296	29.1
154.0224	2422.447021
154.184479	24.102272
154.255035	29.11574
154.289856	26.720238
154.40448	29.444445
154.665833	48.960526
154.744247	49.450001
155.016846	1803.023926
155.084198	109.125
155.123932	39.450001
155.165024	22.020834
155.202484	29.166666
155.251999	42.08654
155.319336	38.680557
155.470688	29.266666
155.677444	59.894737
155.811981	27.225
155.877441	31.818182
155.900101	25.125
156.016861	136.360855
156.54982	26.041666
157.005508	34.44643
158.97467	187.740936
159.09523	27.570652
160.97879	1741.875732
161.093765	23.25
161.306885	25.066177
161.769348	24.595589
161.924454	30.307692
161.984985	242.655579
162.298691	36.197582
162.549698	33.605
162.692368	23.163462
162.977356	1888.686401
163.086624	29.160715
163.125656	27.25
163.319809	25.125
163.911179	40.599998
163.977188	244.094696
164.093094	22.408333
164.971619	134.149994
166.02887	533.041931
166.743835	30.920454
166.837906	25.9
167.035919	50366.398438
167.376083	74.989288
167.410965	85.432182
167.485504	82.784615
167.533157	50.649193
167.586792	59.347221
167.738113	67.157051
167.852051	45.920303
167.88945	54.208488
167.955002	46.861073
168.043884	114453.367188
168.691956	75.353828
168.738846	112.366417
168.798584	98.834846
168.841476	31.1203
168.88739	81.935738
168.944473	95.978951
169.040268	23951.59375
169.202911	199.131577
169.276611	71.080971
169.331024	88.472664
169.418411	90.217049
169.464951	60.325413
169.506119	42.386364
169.573166	41.093185
169.599213	57.884109
169.647415	44.178085
169.716415	30.34651
169.755753	52.903706
169.797836	65.363838
169.863342	82.995773
169.892792	51.365433
169.970856	29.147728
170.041336	42755.789062
170.360748	81.25
170.392258	47.753761
170.421188	55.8125
170.536972	90.194031
170.579178	30.646767
170.634842	57.676617
170.684113	34.68148
170.74704	39.295189
170.843781	114.010788
170.877106	67.412086
171.044189	3680.137207
171.11409	102.644234
171.166275	125.606651
171.26445	32.040012
171.330582	46.62719
171.367752	29.384737
171.409439	29.308397
171.450943	75.46772
171.493927	53.775002
171.531265	35.721283
171.606262	65.295799
171.665207	41.998158
171.732117	34.459461
171.766998	31.97072
171.807358	72.704781
171.861481	72.841217
171.896301	85.003052
171.96138	51.720238
171.994675	60.362499
172.050369	84.92308
172.206894	75.058823
172.261169	42.495811
172.342468	45.0
172.508347	30.204546
172.63002	26.635376
172.667786	22.625811
172.69072	40.328949
172.794601	28.656281
172.950012	80.49128
173.031616	37.979546
173.0961	36.309231
173.330551	47.981632
173.417511	27.013889
173.821365	29.183823
173.865814	22.204546
173.984756	3241.770508
174.085358	76.022728
174.192657	24.889706
174.236862	38.969826
174.816666	28.0
174.87558	24.102272
174.951263	111.0
174.989166	354.961609
175.049637	46.017857
175.090958	30.084459
175.138519	46.388889
175.180161	52.011906
175.463669	28.0625
175.510651	25.111111
175.880417	36.272728
175.982651	2710.191406
176.105057	58.160713
176.137115	52.4375
176.210297	34.875
176.532227	32.016666
176.716644	34.91848
176.808456	27.557692
176.98645	355.429413
177.233368	53.400002
177.902283	23.008333
177.981598	302.667725
178.062119	29.720238
178.913071	25.0
179.364349	33.444443
180.034958	43.076923
180.500137	53.487904
185.985596	467.306152
186.996689	156.484848
187.984177	632.481689
188.989212	213.938889
189.97998	948.412842
190.096725	28.322369
190.446762	27.208334
190.623322	22.796053
190.988663	752.906616
191.112259	23.005953
191.981812	867.940857
192.574966	37.164474
192.618225	22.571428
192.98468	621.381348
193.376938	24.892857
193.992828	193.541672
194.890717	50.016666
194.998917	159.61731
195.438187	22.007353
196.906708	25.020834
197.246796	46.058823
202.001221	34.942307
203.013687	264.81131
204.00705	215.0
205.00943	201.056244
206.01828	66.0
206.997314	81.786766
207.281708	23.01923
208.981247	31.75
209.017624	22.142857
221.019806	79.387817
223.013321	45.160713
228.369125	23.005953
250.510483	22.799999
251.445206	22.005953
261.380493	50.55682
276.643585	45.942307
282.879822	28.333334
323.774628	22.892857
370.944702	25.480263
403.214111	23.694445
405.825134	26.041666
416.693665	31.245001
485.514618	27.03125
497.091919	23.242647
501.689209	24.408333
531.921021	37.272728
638.304199	37.640152
646.509949	22.041666
655.554077	23.285715
685.318359	23.520834
734.660645	22.086538
770.945374	58.041668
800.837708	24.444445
838.232056	25.086538
884.502136	30.148809
910.923645	24.796053
918.963745	30.446428
928.094543	25.222826
928.888916	31.349138
949.002075	81.125
967.352905	22.556818
1014.668396	22.048914
1046.253906	48.920456
1047.555176	45.058823
1095.639282	22.09091
1099.092285	25.05921
1179.796997	22.048914
1231.604492	28.444445
1259.879761	46.222221
1376.603882	27.075001
1392.304932	54.44643
1485.630249	24.071428
1572.013794	24.285715
1581.722656	36.0
END IONS

BEGIN IONS
PEPMASS=646.321
CHARGE=1
MSLEVEL=2
SOURCE_INSTRUMENT=LC-ESI-Orbitrap
FILENAME=t.3b8079543a4a4e878c3787e8dfa42794/spectra/specs_ms.mgf;
SEQ=*..*
IONMODE=Positive
ORGANISM=GNPS-LIBRARY
NAME=[(1S,2R,3R,4R,5R,6S,7S,8R,9R,13R,14R,16S,17S,18R)-8-acetyloxy-11-ethyl-5,7,14-trihydroxy-6,16,18-trimethoxy-13-(methoxymethyl)-11-azahexacyclo[7.7.2.12,5.01,10.03,8.013,17]nonadecan-4-yl] benzoate M+H
PI=Lauren O'Connell
DATACOLLECTOR=Mabel Gonzalez
SMILES=CCN1CC2(C(CC(C34C2C(C(C31)C5(C6C4CC(C6OC(=O)C7=CC=CC=C7)(C(C5O)OC)O)OC(=O)C)OC)OC)O)COC
INCHI=XFSBVAOIAHNAPC-XTHSEXKGSA-N
INCHIAUX= 
PUBMED= 
SUBMITUSER=mabel_gonzalez
LIBRARYQUALITY=3
SPECTRUMID=CCMSLIB00012079744
USI=mzspec:GNPS:GNPS-LIBRARY:accession:CCMSLIB00012079744
SCANS=2305
142.024002	45.0
146.082001	51.0
202.298996	110.0
203.279999	54.0
215.029007	39.0
245.123993	46.0
262.178009	32.0
275.134003	58.0
279.122986	57.0
354.225098	79.0
368.328094	280.0
372.272003	37.0
375.372986	55.0
378.147003	36.0
452.693115	44.0
485.106995	31.0
487.372009	35.0
494.32901	56.0
504.515991	45.0
522.41803	31.0
526.271118	320.0
533.015015	54.0
536.411987	57.0
551.66803	32.0
554.487122	230.0
582.859009	30.0
586.354126	940.0
599.909973	42.0
603.133972	64.0
628.328979	57.0
646.388977	6100.0
647.156128	350.0
END IONS

BEGIN IONS
PEPMASS=344.233
CHARGE=1
MSLEVEL=2
SOURCE_INSTRUMENT=LC-ESI-qTof
FILENAME=f.fronkey/SUZHOU2023/WX20240119nozib/F_simple/F_2.mzXML;
SEQ=*..*
IONMODE=Positive
ORGANISM=GNPS-LIBRARY
NAME=Dibucaine M+H
PI=Xiang-Rong Cheng
DATACOLLECTOR=Xiang-Rong Cheng
SMILES=CCCCOC1=NC2=CC=CC=C2C(=C1)C(=O)NCCN(CC)CC
INCHI=1S/C20H29N3O2/c1-4-7-14-25-19-15-17(16-10-8-9-11-18(16)22-19)20(24)21-12-13-23(5-2)6-3/h8-11,15H,4-7,12-14H2,1-3H3,(H,21,24)
INCHIAUX= 
PUBMED=3025
SUBMITUSER=fronkey
LIBRARYQUALITY=3
SPECTRUMID=CCMSLIB00012176187
USI=mzspec:GNPS:GNPS-LIBRARY:accession:CCMSLIB00012176187
SCANS=856674
50.127129	41.89352
51.024269	159.818542
53.743992	31.266304
54.032967	52.065788
55.054863	1042.781372
55.094349	30.471153
55.125465	42.439999
56.021965	131.784637
56.049637	78.285378
56.609234	42.76923
57.070522	36790.007812
57.140533	680.545593
57.216354	55.513111
57.258678	75.940216
57.316067	51.690971
57.419968	73.749046
57.447407	64.047623
57.4897	39.547775
57.523369	50.942131
57.563168	36.300411
57.643517	40.416668
57.700287	36.059212
57.792805	67.969826
57.830017	74.822968
57.848167	54.222221
57.917801	31.321428
58.073853	2604.711914
58.133305	41.102272
58.181202	38.142857
58.514755	33.041668
58.59935	39.942307
59.149826	41.778225
62.014351	115.030487
62.650166	105.001984
63.022598	940.259705
64.027756	44.625
69.032799	108.556816
70.029869	2579.406494
70.064514	970.431213
70.10881	72.371948
71.031494	44.720238
71.047989	65.173912
72.04541	103.347824
72.081406	12496.12207
72.158989	210.391205
72.18045	97.25
72.225525	45.5625
72.380089	31.007353
72.448349	38.1875
72.465637	31.0625
72.576317	32.020832
72.9263	35.333332
73.084419	660.791199
73.130859	38.942307
74.015717	67.328949
74.097015	9785.601562
74.175163	123.255211
74.199188	75.653229
74.239914	54.069443
74.390968	105.695511
74.5168	41.482143
74.563026	35.090908
75.023567	134.445129
75.055939	34.036289
75.102165	525.020996
75.149422	40.625
75.895538	42.367424
76.626396	30.681452
77.039543	129.482147
79.053101	72.802635
81.071114	391.111786
83.049652	340.077576
85.063728	151.888885
85.083878	166.532898
86.096748	2349.252686
86.172325	32.654411
86.206764	32.149391
87.096893	91.175003
89.038895	8381.387695
89.125496	114.254906
89.150299	39.78125
89.263092	37.266666
89.328499	30.5625
89.381691	49.032143
89.497559	42.0
89.548607	41.102272
90.042061	466.020844
90.493462	34.720238
91.05246	160.399994
93.058807	255.779327
98.106277	33.1875
99.09417	140.617645
100.112511	15860.285156
100.229782	95.23214
100.263077	46.5
100.319481	72.003784
100.362282	41.07143
100.386139	60.404999
100.566483	59.889286
100.852989	41.055557
101.038483	430.161438
101.116661	1349.807495
101.206261	35.014706
101.647163	39.003788
102.117599	107.33654
102.485229	36.003048
103.054703	256.580505
104.052094	104.440788
105.068672	219.224579
106.061844	112.016792
107.730309	72.656815
114.974907	36.111111
115.053673	559.5625
115.168182	42.125
115.306129	40.5
115.445305	64.4879
115.765961	40.048912
115.842056	58.5625
115.874718	55.148811
115.910393	51.599998
115.941513	78.32692
115.988945	138.086533
116.04985	303306.28125
116.618973	166.684784
116.653084	151.276917
116.700516	155.067261
116.744896	110.377632
116.776115	104.703125
116.821854	107.044357
116.888748	106.245842
116.96653	120.69883
117.05307	34185.019531
117.153412	597.494446
117.218307	202.119156
117.296669	97.509399
117.3647	233.924515
117.446999	138.46666
117.508224	126.995613
117.554222	93.199829
117.610168	54.892448
117.634232	99.866371
117.69989	62.738453
117.75695	85.016045
117.783577	52.908833
117.869164	117.566467
117.896164	67.50325
117.946991	68.199997
117.976585	49.307453
118.062691	2421.768066
118.154404	74.231071
118.190773	58.79414
118.239983	81.444794
118.328041	40.784374
118.38372	67.900299
118.41375	36.809837
118.470284	35.907669
118.495422	52.274307
118.550484	37.720924
118.592094	71.15374
118.631737	48.360664
118.655518	44.836468
118.684143	85.86261
118.712112	40.407249
118.771103	39.25528
118.832489	81.620506
118.898964	57.568119
118.942093	31.936924
119.074791	122.011902
119.128128	45.570652
119.17749	48.599998
119.262085	52.005001
119.327759	35.694443
119.43248	36.090908
119.46035	61.920456
119.494225	65.907257
119.545555	62.260418
119.636246	49.920456
119.888405	36.005951
119.961792	32.520832
120.045219	71.211205
120.082932	66.148811
120.109711	50.083332
120.186409	63.440475
120.328911	43.132355
120.353256	36.244999
120.419868	33.008335
120.648911	34.674999
120.7229	50.307693
120.90435	42.004311
121.263359	36.889706
121.424042	33.00658
121.520096	43.125
121.587502	44.75
121.720993	31.007353
121.87529	33.005001
121.90004	37.0
121.938927	35.094696
122.225243	30.045
122.282654	36.012501
122.716202	30.0
122.798798	31.1875
126.033943	338.053375
126.214188	42.23077
126.666443	83.222221
127.052704	451.972656
128.011337	31.020834
128.049927	5108.50293
128.151917	92.371948
128.221008	49.487904
128.554443	54.852272
128.755066	52.014706
129.056122	1202.420166
129.121841	83.111488
129.23526	30.892857
129.908783	59.0625
130.026199	144.043472
130.064682	5274.383301
130.145874	72.245003
130.198456	41.375
130.476028	53.094696
130.498627	33.532894
130.751816	54.941177
131.071869	1247.930054
132.044891	2553.047363
132.076614	976.381287
132.151047	66.210526
133.050476	424.040863
133.078033	325.010529
133.125168	39.009617
135.576416	48.035713
136.6203	39.083332
137.049347	38.80357
138.021866	47.142441
140.052994	308.475006
141.061737	215.633774
141.145432	36.004631
142.067871	1484.8125
142.17395	40.032143
142.511917	36.692307
143.06456	3673.5896
143.16954	64.489868
143.421738	31.113636
143.617294	48.785713
143.958313	66.011902
144.044525	217266.40625
144.643967	151.175735
144.67157	58.813644
144.721786	167.596634
144.859711	128.476196
144.918442	154.854172
145.04863	32255.785156
145.30159	179.717392
145.374054	83.034317
145.427963	101.907539
145.542252	103.759148
145.600494	74.393997
145.642883	93.11692
145.689056	45.255001
145.722946	117.942818
145.76123	55.651333
145.806519	73.254906
145.850372	93.159325
145.960251	84.07917
146.058609	12854.331055
146.167557	192.543472
146.201233	139.129791
146.231171	68.883682
146.295029	82.14785
146.334488	39.781273
146.381454	31.329552
146.452026	105.440605
146.507996	68.322334
146.542725	105.405708
146.574829	79.731674
146.63501	32.286289
146.724533	67.535103
146.765686	33.569893
146.853271	32.106251
146.930176	31.591518
147.007828	51.49128
147.063934	1482.031372
147.168304	69.441841
147.208206	63.23024
147.288193	36.674652
147.318878	38.427761
147.609421	58.0625
147.699081	67.778229
147.849365	39.020832
147.954254	51.25
148.066391	120.4375
148.174774	60.165321
148.338409	32.009617
148.576035	55.002777
148.67569	33.032143
148.819046	37.570652
148.965012	46.349136
148.999741	42.326614
149.643311	38.53125
150.23761	38.142857
150.33107	38.005436
150.516907	33.111843
151.654465	36.005436
152.050949	724.988831
152.129425	48.041668
152.599411	32.076923
153.044067	11948.162109
153.157639	133.136108
153.191116	87.002052
153.224228	38.240383
153.268997	45.149391
153.306931	49.191177
153.336487	40.765625
153.484482	47.760136
153.868866	32.032143
153.985855	49.778225
154.053909	1458.740479
154.129105	40.041668
154.307297	31.446428
154.393784	55.288265
154.892731	33.416668
155.074188	395.555725
155.282867	64.894737
155.850662	63.979652
156.046158	1369.864258
156.079147	1166.787842
156.165146	65.489998
157.08815	1848.294556
157.190338	33.450001
157.233246	36.113636
157.403778	44.048912
157.698441	50.889706
158.062103	6989.013672
158.172211	98.025002
158.212112	58.1875
158.288849	40.224998
158.339874	60.532608
158.664337	44.089287
158.70311	37.785713
158.910034	36.845001
159.068619	2135.496826
159.358841	33.16346
159.41272	45.005951
159.764709	41.671295
159.907974	38.0625
160.075333	3308.636719
160.192123	47.0
160.220657	52.094696
160.987167	41.083332
161.070892	290.597687
162.052368	312.933899
162.131042	70.346153
162.5578	62.370369
163.223541	36.440216
164.020096	41.570946
165.074966	142.25
166.032318	35.224998
167.000626	40.066177
167.071136	1458.590332
167.916916	34.044998
168.075516	561.111267
168.339783	31.666666
169.075424	2012.236328
169.173233	31.006578
170.063293	3933.358154
170.184525	69.580643
170.210434	36.778225
170.646225	40.48077
170.885788	31.0
170.946426	34.007355
171.055283	41424.910156
171.403488	97.338539
171.456207	41.869148
171.497192	50.105171
171.594788	96.255882
171.632675	105.331253
171.798218	43.686741
171.916077	35.723038
172.03981	134890.015625
172.685226	47.98679
172.714951	119.555557
172.769318	66.583336
172.821335	66.844604
172.919159	88.025513
173.042969	21255.177734
173.161118	399.720215
173.220108	135.240158
173.243576	129.430878
173.324448	109.551102
173.445755	76.582146
173.523285	37.360626
173.580368	99.344231
173.615417	73.805542
173.652145	54.318226
173.723465	78.782944
173.749512	75.198334
173.783371	50.147984
173.828598	68.283333
173.891754	90.502274
173.962555	32.672001
174.046509	1476.218872
174.122757	129.926285
174.197784	36.38451
174.261597	78.799377
174.309647	82.467201
174.346863	59.147419
174.379852	49.699554
174.433456	32.312691
174.469238	54.113636
174.581772	48.083332
174.611252	65.6875
174.742264	37.81818
174.806976	67.004311
174.8815	87.552017
174.949905	50.05027
175.047379	108.125
175.122742	43.069576
175.201797	29.535847
175.23558	40.028847
175.29805	64.052635
175.324509	55.370045
175.384674	49.78125
175.428619	34.471153
175.479889	94.014999
175.630478	31.303024
175.678162	32.96946
175.738907	64.040001
175.769882	54.002907
175.995346	59.142242
176.57222	44.0625
176.618561	31.235294
177.177933	44.173912
177.585098	45.048912
177.694534	45.890625
178.024857	41.625
178.069382	47.197582
178.326797	38.326923
178.541275	40.920456
178.661453	31.333334
179.632339	32.0
180.076599	134.125
181.084808	200.266312
181.15509	34.020832
182.095871	2875.676758
182.223541	58.160713
182.384872	35.291668
182.554276	52.0625
183.101959	2765.603271
183.19635	56.333332
183.222824	50.605
183.57785	43.094696
183.906525	65.025002
183.935806	41.083332
184.076736	873.025452
184.103836	694.111206
184.450439	34.059212
185.073792	1413.233154
186.074387	1304.951294
186.173538	41.78125
187.086411	10657.474609
187.207855	143.148804
187.318848	30.444445
187.439896	51.125
187.621185	38.113636
187.782806	45.038792
188.088638	2119.172852
188.157959	70.025002
188.242874	79.4879
188.483505	37.007355
189.091553	246.540466
189.18161	42.066177
189.500122	43.003204
190.103119	31.211206
191.618057	31.889706
191.746979	37.0
192.078094	215.1875
194.075546	47.272728
195.088593	92.669441
196.112091	93.571426
196.658691	49.695515
197.072296	2525.010742
197.111069	871.43103
197.201065	45.25
197.250916	31.918478
197.562454	30.066177
197.99202	36.075001
198.083267	688.656372
198.126678	757.267578
199.118774	1803.000122
199.210861	70.969826
199.247482	36.444443
199.422028	31.625
200.107224	5177.757324
200.235489	82.390625
200.28624	94.556816
200.554977	34.333332
200.859558	57.347221
200.949661	33.55682
201.111511	759.025574
202.046799	41.224998
202.119385	1548.717285
202.380493	31.285715
202.574753	51.512501
203.073196	32.150002
203.127396	191.726654
203.189621	80.368904
204.133224	153.091217
207.08017	38.183823
209.107971	246.346268
209.154388	34.148811
210.110992	257.011597
210.27005	41.367645
210.732712	50.125
211.086914	129.972824
212.093704	30.778847
213.09938	164.007568
213.132126	122.884804
213.893433	48.011906
214.544113	47.012501
214.850403	52.148811
215.081451	141091.515625
215.807297	92.180435
215.879303	69.263779
215.926865	50.867096
215.985031	54.756554
216.022522	88.010231
216.084763	28230.013672
216.218826	430.477478
216.27153	237.014938
216.423325	44.063053
216.48204	83.138275
216.52092	55.470272
216.594559	47.145786
216.670242	76.371475
216.764206	108.990623
216.79541	72.483238
216.878799	91.027115
217.024719	161.842728
217.086868	2172.681396
217.24382	59.849056
217.287277	38.3522
217.375153	60.275681
217.468399	109.040092
217.531509	57.134155
217.602249	66.485291
217.645493	31.617647
217.702621	115.612297
217.778183	39.271008
217.851181	59.463234
217.964859	56.927372
218.039169	66.387154
218.094986	190.232697
218.332962	32.491158
218.404785	34.950993
218.46254	50.18306
218.681427	31.408333
218.801483	39.32143
218.940979	33.5625
219.276276	35.041668
219.481491	37.038792
219.702423	33.333332
220.663773	50.020832
221.228729	38.333332
222.083694	42.120098
222.196045	45.090908
223.088577	30.1
223.119278	101.820457
223.184494	39.390625
223.70079	44.032143
224.087357	79.30867
224.124512	117.555771
224.880188	30.5
225.134415	1264.580322
225.578445	47.25
226.140182	438.35202
227.117371	3998.19751
227.256104	51.049999
227.559036	35.244999
227.833832	38.961956
228.027847	30.568182
228.103867	6299.743164
228.236267	60.222828
228.285126	40.041668
228.436646	61.49128
228.515945	39.048912
228.550247	45.148811
229.011673	56.367645
229.10524	1915.921875
229.291153	52.328949
229.705292	36.55682
230.112289	147.314102
230.26619	54.28125
230.761398	49.612499
231.110825	61.025002
237.101868	309.983398
237.175797	33.164474
237.891083	54.165321
238.100403	116.183441
241.087524	90.240082
243.148254	1962.534302
243.211487	192.041672
243.283279	37.160713
244.155396	609.071838
244.774246	57.204544
245.149063	105.98349
253.130569	698.963135
254.141983	300.449829
254.190964	60.408333
256.37149	44.680557
260.353882	38.642857
271.144348	12135.139648
271.289185	138.482147
271.336243	109.20755
271.440155	52.102272
271.507141	40.049999
271.617188	36.242645
271.832367	43.367424
272.147949	3313.580322
272.288025	51.942307
272.462158	32.57143
272.941193	38.0
273.14798	328.782898
273.903168	53.097828
274.148071	113.347221
280.804962	53.512501
291.234131	39.058823
301.095795	52.416668
321.772614	33.0
323.383698	43.845001
339.532043	33.041668
396.276306	37.00658
401.888855	38.785713
418.907715	37.307693
443.400513	30.045
448.339722	32.048912
478.783844	30.038794
494.965179	56.0625
501.664612	32.375
511.35321	37.0625
528.125977	91.960526
565.658752	33.005951
588.201782	39.148811
717.234497	45.720238
769.451782	39.140625
810.417053	90.448273
842.852661	44.761906
875.764709	53.06649
885.742371	50.245689
921.715515	31.05921
988.024109	30.5
1052.600464	34.75
1287.321655	33.222828
1399.106689	36.845001
1485.664551	58.090908
1503.500732	30.100807
1573.060669	48.005951
1588.031372	30.78125
1617.952393	99.040001
1624.080688	42.605
1684.287231	60.0625
END IONS

BEGIN IONS
PEPMASS=236.175
CHARGE=1
MSLEVEL=2
SOURCE_INSTRUMENT=LC-ESI-qTof
FILENAME=f.fronkey/SUZHOU2023/WX20240119nozib/F_simple/F_7.mzXML;
SEQ=*..*
IONMODE=Positive
ORGANISM=GNPS-LIBRARY
NAME=Procainamide M+H
PI=Xiang-Rong Cheng
DATACOLLECTOR=Xiang-Rong Cheng
SMILES=CCN(CC)CCNC(=O)C1=CC=C(C=C1)N
INCHI=1S/C13H21N3O/c1-3-16(4-2)10-9-15-13(17)11-5-7-12(14)8-6-11/h5-8H,3-4,9-10,14H2,1-2H3,(H,15,17)
INCHIAUX= 
PUBMED=4913
SUBMITUSER=fronkey
LIBRARYQUALITY=3
SPECTRUMID=CCMSLIB00012176191
USI=mzspec:GNPS:GNPS-LIBRARY:accession:CCMSLIB00012176191
SCANS=242912
51.022015	32.25
52.01963	27.375
55.052593	45.044998
57.068993	65.666664
58.06562	101.121216
64.68058	33.482143
64.885536	27.005434
65.011795	86.387817
65.039108	65992.554688
65.354301	45.979168
65.397118	75.263885
65.475258	27.007273
65.499504	38.959999
65.515732	39.193001
65.535233	25.738636
65.597565	53.963234
65.634789	26.812317
65.712257	49.251076
65.755295	80.71627
65.782677	48.106453
65.810478	54.471775
65.823601	44.55682
65.866882	38.148811
65.889359	25.189259
65.969482	36.805
66.008408	45.988377
66.04084	5018.740234
66.097855	92.408447
66.135994	44.949997
66.233139	31.28125
66.423111	49.720238
66.476784	45.0
66.528053	72.75
66.616302	27.431938
66.708328	29.111111
66.793251	38.164474
67.039215	303.506836
67.073494	51.454544
67.157906	29.5
67.382225	32.044998
67.847755	28.408333
70.063095	261.06897
70.978149	31.777779
71.639099	32.900002
72.081474	1497.151978
73.082832	97.001923
74.097397	320.321838
77.039886	129.072586
77.063637	28.450001
79.05246	197.491226
82.875038	64.010414
84.011436	31.09091
86.097427	158.786392
87.098328	261.130402
88.235954	50.736111
89.644188	85.820457
90.03376	394.032745
90.075844	25.875
91.053612	34.125
91.080902	40.208332
91.295448	25.142857
92.049782	179068.515625
92.518822	97.991074
92.576714	69.570656
92.604378	70.442444
92.639809	62.411125
92.711746	82.931763
92.768707	52.9375
92.809669	78.578125
92.840485	86.708336
92.879509	71.274193
92.924324	96.370003
92.951385	33.791668
93.052658	16989.728516
93.141403	251.460709
93.187485	159.703705
93.225311	97.08828
93.259766	61.146507
93.305603	74.518272
93.348305	93.629631
93.369781	66.614037
93.404312	64.34375
93.445129	48.277779
93.470345	34.487179
93.501572	30.139492
93.657082	37.180557
93.726013	34.011364
93.77504	64.030403
93.852615	35.696171
93.901405	42.482292
93.943886	31.836021
93.992943	33.449032
94.05838	313.975891
94.100975	60.817741
94.127831	35.711105
94.182655	104.952705
94.218987	36.476559
94.242943	26.743956
94.287292	43.107143
94.331787	34.090908
94.412994	29.57704
94.532242	33.75
94.589928	30.697533
94.624168	55.347221
94.749107	36.76923
94.789192	37.25
95.021172	27.844999
95.13916	63.041668
95.336166	44.142441
95.488312	45.030407
96.087158	26.796053
96.651146	27.13587
96.713905	36.326614
96.906311	29.015625
97.538223	27.694445
97.607239	31.449074
98.096077	99.102272
98.95945	30.183823
99.987282	67.061272
100.112106	1695.929199
100.181801	35.657608
100.205963	35.010418
101.11779	240.934998
101.322411	50.235466
103.052673	59.570946
103.072556	28.142857
103.858429	50.191177
106.041969	112.778847
110.061272	44.003571
115.054985	224.152542
116.052147	69.764832
118.754776	44.211208
119.078941	56.680557
119.224449	36.090908
119.727875	28.183823
119.841499	61.173077
119.896049	51.375
119.977325	84.272728
120.044464	247809.59375
120.637085	84.949005
120.681053	76.909088
120.719368	131.943451
120.766853	64.782898
120.814407	201.241226
120.897018	237.623306
120.963242	63.501743
121.047356	30065.535156
121.147675	419.622803
121.177376	239.260834
121.230293	111.04866
121.25901	81.175377
121.282211	44.862644
121.336533	121.343674
121.41774	70.113274
121.43988	35.542301
121.474426	25.925926
121.500023	34.201782
121.54097	56.445625
121.595779	44.901455
121.667801	70.03524
121.701805	45.854149
121.721855	83.215279
121.76693	39.43066
121.818169	57.254013
121.881699	54.256054
121.910759	26.346859
122.048889	1442.874023
122.125809	48.247856
122.194679	51.172958
122.238533	35.839684
122.278709	41.59745
122.315193	39.900002
122.356773	72.160103
122.457809	58.061577
122.47934	37.231709
122.537903	26.55592
122.564049	33.175564
122.599487	72.752251
122.668083	43.051395
122.708336	49.085102
122.749138	84.013885
122.786331	46.978657
122.847977	57.721603
122.984138	48.040001
123.01268	37.103283
123.064552	75.625748
123.124962	34.375
123.155319	71.094696
123.212502	44.56818
123.234779	44.408333
123.300056	59.285713
123.345963	48.337963
123.404457	30.25
123.462288	61.603573
123.495384	83.10714
123.599617	34.81818
123.635422	67.003204
123.728592	30.480263
123.85453	33.326614
123.946861	39.361111
124.036041	56.695515
124.085342	35.450001
124.148605	45.148811
124.218445	55.852272
124.311646	29.9
124.347534	28.200001
124.613663	34.020832
124.6492	26.005953
124.669899	32.005436
125.018623	61.06649
125.165718	26.15
125.351532	60.0
126.096222	37.244999
126.126678	41.094696
126.322044	28.076923
126.549805	25.444445
127.999458	27.113636
128.599228	53.654068
128.840088	31.071428
131.047836	238.530701
131.137146	30.625
132.05069	58.778847
132.901733	27.008333
133.903748	86.019066
142.373001	25.245001
154.905548	51.185608
159.348557	39.265625
163.085815	8423.34082
163.204391	111.972824
163.327545	26.004032
163.42337	35.654411
163.497101	32.140625
163.673355	50.034092
163.754807	26.0
163.986053	26.361111
164.089401	1165.124634
164.209854	43.125
164.27124	25.041666
164.549072	30.361111
164.68129	63.0
165.112595	31.041666
165.136917	25.125
165.191391	38.272728
187.103134	33.041668
190.651733	29.053572
215.257034	27.666666
243.919037	34.285713
278.074158	36.025002
294.498779	26.222826
296.852112	47.5625
305.894196	36.0
337.719299	28.008333
341.332703	40.347221
372.136963	30.035715
412.95932	36.642857
450.52066	32.450001
451.004333	84.654068
466.005432	26.654411
482.255554	35.013157
506.669556	33.035713
521.715393	27.009615
532.16217	29.11574
553.898621	51.367424
588.571716	28.0
618.815796	40.0
630.607605	25.0
687.5625	26.183823
764.278687	64.881096
783.980042	28.004629
795.825867	28.889706
823.186646	57.449467
837.641846	27.03125
1100.809448	31.961956
1101.160034	37.408333
1191.225708	29.444445
1207.028687	25.083334
1332.055054	27.796053
1335.313599	27.568182
1409.942261	25.5
1422.256958	39.222828
1553.427124	41.066666
1622.899048	26.53125
1637.363647	55.909092
1654.673218	27.045
1688.472046	52.284092
END IONS

BEGIN IONS
PEPMASS=425.044
CHARGE=1
MSLEVEL=2
SOURCE_INSTRUMENT=ESI-Orbitrap
FILENAME=SP4_B_1_3.mzML
SEQ=*..*
IONMODE=Positive
ORGANISM=GNPS-LIBRARY
NAME=THIAMINE PYROPHOSPHATE M+H
PI=Aron
DATACOLLECTOR=David Hattan
SMILES=CC1=C(SC=[N+]1CC2=CN=C(N=C2N)C)CCO[P@@](O)(OP([O-])(O)=O)=O
INCHI=InChI=1S/C12H18N4O7P2S/c1-8-11(3-4-22-25(20,21)23-24(17,18)19)26-7-16(8)6-10-5-14-9(2)15-12(10)13/h5,7H,3-4,6H2,1-2H3,(H4-,13,14,15,17,18,19,20,21)
INCHIAUX=N/A
PUBMED=N/A
SUBMITUSER=jzemlin
LIBRARYQUALITY=1
SPECTRUMID=CCMSLIB00013583349
USI=mzspec:GNPS:GNPS-LIBRARY:accession:CCMSLIB00013583349
SCANS=1957
54.034721	3954.316895
61.374271	1803.156982
61.962208	1970.898438
63.313641	1685.039062
65.039391	3266.962891
68.050323	4692.941406
70.657967	1689.334839
79.15593	2206.755859
79.450462	2118.749756
80.050179	6348.987793
81.045273	146440.640625
85.011345	3294.666504
88.524895	2275.207275
95.060783	2091.017578
98.006287	8165.349609
99.026848	5258.355957
107.560074	1560.924561
113.901855	1571.180054
121.997833	18541.708984
122.071312	2165148.75
122.139252	13085.012695
122.15007	4054.028076
122.947372	2215.429199
125.961067	2646.343506
126.037201	395568.34375
126.109833	2871.803711
127.040718	4344.77002
127.619186	1801.309937
167.128418	2562.797852
195.159988	3135.957275
202.036819	23837.052734
220.047989	31177.3125
224.013794	128945.054688
235.71843	1926.434692
247.099762	5400.568848
303.979889	116127.796875
345.076111	8937.078125
365.237701	1704.956665
END IONS

BEGIN IONS
PEPMASS=531.156
CHARGE=1
MSLEVEL=2
SOURCE_INSTRUMENT=LC-ESI-Orbitrap
FILENAME=all_ms2.mgf
SEQ=*..*
IONMODE=Positive
ORGANISM=GNPS-LIBRARY
NAME=Ketoconazole [M+H]+
PI=Pieter Dorrestein
DATACOLLECTOR=Minions
SMILES=CC(=O)N1CCN(c2ccc(OC[C@H]3CO[C@](Cn4ccnc4)(c4ccc(Cl)cc4Cl)O3)cc2)CC1
INCHI="InChI=1S/C26H28Cl2N4O4/c1-19(33)31-10-12-32(13-11-31)21-3-5-22(6-4-21)34-15-23-16-35-26(36-23,17-30-9-8-29-18-30)24-7-2-20(27)14-25(24)28/h2-9,14,18,23H,10-13,15-17H2,1H3/t23-,26-/m0/s1"
INCHIAUX=
PUBMED=drug_mix_all_combined.mzML:scan:2504
SUBMITUSER=jzemlin
LIBRARYQUALITY=1
SPECTRUMID=CCMSLIB00015625787
USI=mzspec:GNPS:GNPS-LIBRARY:accession:CCMSLIB00015625787
SCANS=133
51.95797	155803.171875
54.34679	165523.65625
54.349232	391133.5625
54.355228	129576.75
56.0504	325598.15625
58.065708	145118.328125
59.014	489006.375
59.017239	4356495.0
62.553669	150035.171875
66.533302	151618.859375
68.037727	265231.375
69.045547	872589.625
70.06601	832572.0625
71.061172	973921.9375
81.045441	4125588.5
82.053261	16255309.0
82.057419	183164.78125
82.058487	214802.0625
83.060806	292001.46875
86.060791	749330.875
92.547867	172425.703125
92.552841	416062.15625
101.123947	159605.015625
106.065742	200685.890625
107.049477	346681.0
107.060432	176064.28125
112.076027	6777929.0
113.071228	174131.703125
117.069817	254458.9375
118.065353	346001.4375
119.073723	167811.53125
120.044693	1754281.375
120.081047	649658.5
122.060242	1710820.0
122.458366	180492.140625
127.050293	742054.4375
129.070343	256156.546875
130.065109	383191.5625
131.048752	219684.59375
131.073242	360868.28125
132.080826	356390.875
132.786331	479063.28125
134.060196	1639491.625
135.067947	6404891.5
136.07576	2323307.25
139.03093	289146.0625
143.072403	190213.0625
144.080978	1477327.0
145.064667	180799.78125
145.088623	696921.9375
146.06015	953215.125
146.096497	2150451.25
147.068497	214861.3125
148.066757	135509.78125
148.075699	5722423.5
149.015594	339830.8125
150.023483	486034.03125
151.030975	189138.671875
156.080948	453176.3125
157.088516	195248.09375
157.968628	373118.8125
158.096573	743014.4375
158.976181	3407876.5
159.068512	201643.78125
160.075623	877952.5625
161.083786	281146.75
162.091629	687285.8125
163.030746	431085.75
163.123138	598527.5
167.026154	842129.0
167.067291	204209.90625
167.069534	107638.148438
167.081543	4392972.5
169.968491	2692662.75
170.97641	278466.8125
172.075516	1136126.125
172.955536	1986725.125
173.083862	225139.75
174.091385	5669813.0
176.093918	289325.0625
177.102234	6787074.0
178.085861	238235.140625
178.109818	1382069.125
179.026169	161522.90625
184.991638	2028359.75
185.963425	5631314.0
186.971771	542298.6875
188.107605	353377.1875
189.139206	467995.78125
190.086472	244008.484375
191.092621	162552.125
192.101822	1006450.875
200.107773	597821.8125
202.966934	397592.5625
203.036972	1307078.375
204.101868	319825.59375
205.029785	173259.0
205.097626	214028.65625
205.133835	653423.8125
209.036575	765599.6875
215.118851	363201.71875
216.102264	1684703.5
216.123398	369013.46875
217.133438	4538794.0
218.117142	447583.25
219.112808	6090198.0
220.120392	3027981.25
220.140762	212002.546875
224.996063	234217.09375
233.048447	212342.625
234.112488	659948.875
234.13591	324603.65625
235.144394	1757280.75
238.006104	1784455.0
239.0121	177186.90625
244.005356	7421508.5
247.06424	880976.375
247.145142	239590.578125
255.008591	7127573.5
255.035919	349030.875
259.144684	490766.0
266.561981	201234.609375
267.008606	3647432.5
268.016052	418918.84375
277.153198	202153.25
281.023865	751674.0
282.031982	600579.8125
295.039612	162690.484375
297.018433	190417.109375
311.035614	534297.25
378.066467	618523.25
420.07666	427058.40625
421.108978	663250.5625
446.102844	693482.3125
489.145599	8255893.0
530.94281	244918.15625
531.156128	81246608.0
531.285645	372788.75
531.323181	548252.5
531.371582	255221.125
END IONS

BEGIN IONS
PEPMASS=285.142
CHARGE=1
MSLEVEL=2
SOURCE_INSTRUMENT=LC-ESI-Orbitrap
FILENAME=all_ms2.mgf
SEQ=*..*
IONMODE=Positive
ORGANISM=GNPS-LIBRARY
NAME=Promethazine [M+H]+
PI=Pieter Dorrestein
DATACOLLECTOR=Minions
SMILES=CC(CN1c2ccccc2Sc2ccccc21)N(C)C
INCHI="InChI=1S/C17H20N2S/c1-13(18(2)3)12-19-14-8-4-6-10-16(14)20-17-11-7-5-9-15(17)19/h4-11,13H,12H2,1-3H3"
INCHIAUX=
PUBMED=drug_mix_all_combined.mzML:scan:2332
SUBMITUSER=jzemlin
LIBRARYQUALITY=1
SPECTRUMID=CCMSLIB00015625804
USI=mzspec:GNPS:GNPS-LIBRARY:accession:CCMSLIB00015625804
SCANS=155
50.384289	317575.9375
56.05043	2639450.5
56.313461	314337.15625
58.066002	1283400.0
60.372581	345526.90625
62.433609	302363.6875
63.920551	438550.6875
69.217857	356700.78125
69.943619	326457.625
70.065826	1081531.5
71.073769	18495070.0
84.081413	3791751.0
86.083183	814812.75
86.086433	2345354.0
86.097122	333380064.0
86.108139	2362096.25
86.328979	349775.5625
92.548592	782535.8125
92.553879	564505.0625
105.070663	2433281.5
106.066162	447804.5625
109.011307	813024.5625
130.065353	432196.0625
136.021469	982018.6875
154.065765	1187927.625
162.037064	6555992.0
168.656601	379706.25
171.026794	482467.1875
197.028671	514456.96875
198.023315	3000196.0
198.037262	176109664.0
198.075424	1019838.8125
206.096588	1712776.25
207.103851	3650630.25
208.111267	713126.625
224.052521	1508656.625
225.060745	5580708.5
239.077225	672057.1875
240.084045	45471608.0
278.677673	376474.25
285.141998	30089992.0
END IONS

BEGIN IONS
PEPMASS=358.085
CHARGE=1
MSLEVEL=2
SOURCE_INSTRUMENT=LC-ESI-qTof
FILENAME=Indomethacin.mgf
SEQ=*..*
IONMODE=Positive
ORGANISM=GNPS-SELLECKCHEM-FDA-PART1
NAME=Indomethacin M+H
PI=Sirenas
DATACOLLECTOR=Ed Esquenazi 
SMILES=CC1=C(C2=C(N1C(=O)C3=CC=C(C=C3)Cl)C=CC(=C2)OC)CC(=O)O
INCHI=InChI=1S/C19H16ClNO4/c1-11-15(10-18(22)23)16-9-14(25-2)7-8-17(16)21(11)19(24)12-3-5-13(20)6-4-12/h3-9H,10H2,1-2H3,(H,22,23)
INCHIAUX=N/A
PUBMED=N/A
SUBMITUSER=mwang87
LIBRARYQUALITY=3
SPECTRUMID=CCMSLIB00000004233
USI=mzspec:GNPS:GNPS-SELLECKCHEM-FDA-PART1:accession:CCMSLIB00000004233
SCANS=1
110.998291	161.331604
129.010971	14.73157
138.279495	11.42102
138.328445	19.595039
138.360397	21.70916
138.43457	11.36193
138.801941	17.568821
138.878281	12.68091
138.972351	62.437649
138.994843	10913.179688
139.045288	50.878979
139.062317	34.907181
139.10495	50.703861
139.147369	17.10577
139.159027	16.34083
139.191559	49.648041
139.2258	23.478861
139.266663	45.473492
139.280441	31.411421
139.386154	29.501419
139.420517	56.778019
139.442749	37.35981
139.493011	18.688299
139.501801	11.66955
139.67363	23.50378
139.997437	114.714401
140.024307	15.71902
174.091599	1498.514038
174.151306	13.35232
174.240555	13.67493
175.096542	12.15504
202.084778	158.307907
279.865845	13.42253
312.0802	110.617699
313.191864	11.24747
317.042053	42.409241
355.834381	17.55201
356.009857	11.96314
356.112213	12.73518
356.134613	18.944309
358.084808	4801.604004
358.172028	56.155449
358.29715	23.666719
358.394104	21.52022
358.441895	20.16386
358.497467	35.600491
358.536987	33.604462
358.638519	51.013729
358.915833	25.07869
358.940399	53.315048
358.99057	27.70833
END IONS

BEGIN IONS
PEPMASS=366.068
CHARGE=1
MSLEVEL=2
SOURCE_INSTRUMENT=LC-ESI-qTof
FILENAME=Indapamide.mgf
SEQ=*..*
IONMODE=Positive
ORGANISM=GNPS-SELLECKCHEM-FDA-PART1
NAME=Indapamide M+H
PI=Sirenas
DATACOLLECTOR=Ed Esquenazi 
SMILES=CC1CC2=CC=CC=C2N1NC(=O)C3=CC(=C(C=C3)Cl)S(=O)(=O)N
INCHI=InChI=1S/C16H16ClN3O3S/c1-10-8-11-4-2-3-5-14(11)20(10)19-16(21)12-6-7-13(17)15(9-12)24(18,22)23/h2-7,9-10H,8H2,1H3,(H,19,21)(H2,18,22,23)
INCHIAUX=N/A
PUBMED=N/A
SUBMITUSER=mwang87
LIBRARYQUALITY=3
SPECTRUMID=CCMSLIB00000005620
USI=mzspec:GNPS:GNPS-SELLECKCHEM-FDA-PART1:accession:CCMSLIB00000005620
SCANS=1
106.06501	118.827904
117.056602	310.895599
118.063705	92.94561
131.419098	61.252529
131.470062	40.49506
131.493576	82.217278
132.080933	40391.101562
132.447754	68.830353
132.578369	86.16626
132.642731	48.672329
217.966873	195.145004
234.99353	519.224426
348.056549	92.613632
366.066406	2735.074951
END IONS

BEGIN IONS
PEPMASS=255.102
CHARGE=1
MSLEVEL=2
SOURCE_INSTRUMENT=LC-ESI-qTof
FILENAME=Ketoprofen.mgf
SEQ=*..*
IONMODE=Positive
ORGANISM=GNPS-SELLECKCHEM-FDA-PART1
NAME=Ketoprofen M+H
PI=Sirenas
DATACOLLECTOR=Ed Esquenazi 
SMILES=CC(C1=CC(=CC=C1)C(=O)C2=CC=CC=C2)C(=O)O
INCHI=InChI=1S/C16H14O3/c1-11(16(18)19)13-8-5-9-14(10-13)15(17)12-6-3-2-4-7-12/h2-11H,1H3,(H,18,19)
INCHIAUX=N/A
PUBMED=N/A
SUBMITUSER=mwang87
LIBRARYQUALITY=3
SPECTRUMID=CCMSLIB00000005667
USI=mzspec:GNPS:GNPS-SELLECKCHEM-FDA-PART1:accession:CCMSLIB00000005667
SCANS=1
101.003464	42.00338
103.053833	116.026604
105.033226	7953.575195
105.068321	198.855103
105.07518	27.918381
105.091568	62.55965
131.048569	108.259598
143.466492	42.847519
149.058868	68.331093
177.007126	40.945518
177.05365	1706.250977
191.083405	63.950001
194.070465	93.088203
207.840332	53.41473
207.88324	24.435459
207.912552	50.623981
208.104691	29.659189
208.155457	40.18771
208.236023	33.090271
208.276505	32.18108
208.31369	37.459431
209.011139	45.540588
209.065094	110.676003
209.095993	24416.740234
209.373077	31.192711
209.472626	63.845982
209.554367	24.95393
209.623138	50.59317
209.686844	48.265362
209.784622	63.945831
209.925079	39.529942
253.57695	24.864771
253.710785	54.82262
255.054001	93.052269
255.101196	13191.599609
255.282516	84.839706
255.345367	35.231689
255.381302	40.79924
255.423355	56.978619
255.457001	45.250191
255.484055	32.225769
255.502014	45.549179
255.589478	26.676439
255.637283	25.3016
255.671387	54.548241
255.736343	36.106319
256.026642	25.69858
525.188171	40.959431
END IONS

BEGIN IONS
PEPMASS=426.17
CHARGE=1
MSLEVEL=2
SOURCE_INSTRUMENT=LC-ESI-qTof
FILENAME=Domperidone.mgf
SEQ=*..*
IONMODE=Positive
ORGANISM=GNPS-SELLECKCHEM-FDA-PART1
NAME=Domperidone M+H
PI=Sirenas
DATACOLLECTOR=Ed Esquenazi 
SMILES=C1CN(CCC1N2C3=C(C=C(C=C3)Cl)NC2=O)CCCN4C5=CC=CC=C5NC4=O
INCHI=InChI=1S/C22H24ClN5O2/c23-15-6-7-20-18(14-15)25-22(30)28(20)16-8-12-26(13-9-16)10-3-11-27-19-5-2-1-4-17(19)24-21(27)29/h1-2,4-7,14,16H,3,8-13H2,(H,24,29)(H,25,30)
INCHIAUX=N/A
PUBMED=N/A
SUBMITUSER=mwang87
LIBRARYQUALITY=3
SPECTRUMID=CCMSLIB00000006574
USI=mzspec:GNPS:GNPS-SELLECKCHEM-FDA-PART1:accession:CCMSLIB00000006574
SCANS=1
119.061378	168.214905
119.146385	25.667761
119.628242	8.760417
147.05513	550.533997
147.204681	18.54735
147.238495	15.26042
147.328003	5.785714
147.581253	10.26042
148.444901	7.898026
174.010239	8.55388
174.096939	22.20417
174.285843	9.8125
174.319794	16.388889
175.086075	2742.420898
175.116974	46.802502
175.145584	27.12981
175.232239	33.58437
175.25502	26.105261
175.301575	4.0
175.320496	6.1
175.352249	13.00568
175.449387	23.877781
175.463486	12.84028
175.831192	17.296049
175.877808	4.520833
245.488464	25.72299
245.531921	46.04195
252.093094	94.938751
258.158783	41.162239
332.92038	13.75
392.271332	14.3288
408.237274	33.088821
415.424774	17.578529
419.757446	13.02083
422.138153	10.5625
423.316681	24.235291
423.359406	135.597397
423.400665	5.460227
423.440918	101.558998
423.504486	11.18382
423.529114	35.666672
423.555542	33.407501
423.582764	92.80394
423.624695	71.819023
423.67807	115.5821
423.712769	22.67873
423.752258	75.632103
423.775299	30.27841
423.805237	24.62162
423.907318	15.4225
423.975159	98.138382
424.011658	22.98818
424.220917	28.091721
424.4133	42.386909
424.52121	29.090059
424.648804	4.1125
424.702087	17.64583
424.735077	58.022179
424.794617	40.440109
424.85144	32.702888
424.937561	13.00216
425.002106	23.40625
425.048401	20.63158
425.170654	9.1875
425.253143	19.11635
425.389465	4.5
425.461639	8.909091
425.596252	215.7677
425.640656	26.0
425.951843	32.240318
426.057495	46.803329
426.170074	50299.410156
426.255981	72.5
426.325348	59.53093
426.392914	48.640369
426.52832	124.706802
426.647034	160.162003
426.726318	157.063797
426.780396	175.832794
426.839722	94.547302
426.875244	127.251999
426.92276	65.457672
426.944458	134.456299
426.992401	60.381721
427.102325	108.054703
427.253723	70.314308
427.314758	120.137299
427.398621	43.86161
427.473328	80.371758
427.564453	6.5625
427.627625	22.5
427.674622	25.038111
427.699066	32.984219
427.953186	6.889423
428.055634	14.75762
428.372467	26.0084
428.520569	9.180555
428.602875	27.337839
428.631653	65.524208
428.804504	14.50568
429.050079	24.532261
429.203613	17.654409
429.242584	8.735577
429.531982	31.628201
429.582886	8.0
430.00119	12.55625
430.090057	49.165169
430.210419	15.09091
431.040649	8.507813
431.148987	9.009615
431.560852	12.04167
432.168121	8.613426
432.906128	13.5928
433.854523	8.104167
435.160156	7.1125
443.641144	4.5
END IONS

BEGIN IONS
PEPMASS=250.064
CHARGE=1
MSLEVEL=2
SOURCE_INSTRUMENT=LC-ESI-qTof
FILENAME=Plate3_41_60_GG11_01_16500.mzXML
SEQ=*..*
IONMODE=Positive
ORGANISM=GNPS-SELLECKCHEM-FDA-PART2
NAME=Sulfapyridine (Dagenan) [M+H]
PI=Dorrestein
DATACOLLECTOR=Garg_Neha
SMILES=C1=CC=CC(=N1)NS(C2=CC=C(C=C2)N)(=O)=O
INCHI=N/A
INCHIAUX=N/A
PUBMED=N/A
SUBMITUSER=negarg
LIBRARYQUALITY=1
SPECTRUMID=CCMSLIB00000078208
USI=mzspec:GNPS:GNPS-SELLECKCHEM-FDA-PART2:accession:CCMSLIB00000078208
SCANS=1025
45.041229	192.0
46.09724	180.0
46.172947	152.0
46.911591	152.0
46.972958	160.0
47.114929	148.0
47.298168	204.0
48.161682	176.0
48.472961	172.0
48.654655	196.0
48.772732	192.0
49.010708	148.0
49.048336	232.0
49.181419	184.0
49.63131	164.0
49.75618	156.0
49.963833	184.0
50.327801	164.0
50.340511	148.0
50.872875	208.0
51.098839	208.0
51.252609	260.0
51.451027	168.0
51.88147	148.0
51.911579	236.0
51.999088	204.0
52.092205	160.0
52.17577	144.0
52.466579	172.0
52.91589	168.0
53.220364	172.0
53.404922	172.0
53.566494	160.0
54.020477	200.0
54.092182	168.0
54.21228	184.0
54.941574	176.0
55.087719	168.0
55.184685	196.0
55.266609	156.0
55.752869	196.0
56.99028	192.0
57.021404	224.0
57.182899	176.0
57.197815	184.0
57.508316	160.0
57.925644	172.0
58.189518	152.0
58.227478	164.0
58.639153	184.0
58.818237	152.0
58.964867	156.0
59.280472	156.0
59.890041	192.0
60.056507	184.0
60.292725	164.0
60.371567	224.0
60.385487	176.0
60.702961	164.0
60.819317	148.0
61.644749	152.0
61.841801	148.0
62.010571	180.0
62.332664	160.0
62.40654	152.0
62.792347	148.0
62.804966	152.0
62.867191	244.0
62.950161	224.0
63.133472	180.0
63.29488	212.0
63.328136	180.0
63.340809	248.0
63.516754	200.0
63.718365	176.0
63.778751	156.0
63.840675	164.0
63.960079	200.0
64.89016	212.0
64.995682	196.0
65.835968	228.0
65.995941	156.0
66.593918	188.0
67.11528	204.0
67.152176	144.0
68.244446	176.0
68.280624	140.0
68.417198	184.0
68.511063	168.0
68.745193	192.0
68.781502	148.0
68.819473	144.0
68.854279	104.0
68.99791	156.0
69.206375	200.0
69.368729	164.0
69.516342	152.0
69.665771	172.0
69.858604	192.0
70.316818	168.0
70.341858	152.0
71.110138	208.0
71.269669	156.0
71.304962	200.0
71.390694	160.0
71.540443	200.0
71.601059	192.0
71.643166	148.0
71.786438	180.0
71.901146	148.0
72.073395	160.0
72.245842	144.0
72.808578	208.0
72.958107	196.0
73.194862	156.0
73.208221	168.0
73.235474	148.0
73.30703	232.0
73.651657	176.0
74.026199	160.0
74.086151	196.0
74.444618	204.0
75.062393	204.0
75.136391	204.0
75.516586	164.0
75.580589	180.0
75.679253	160.0
75.762383	140.0
75.96347	220.0
76.20826	152.0
76.277771	144.0
76.295158	168.0
76.415161	192.0
76.587502	156.0
76.889122	168.0
76.94149	148.0
77.123161	148.0
77.172112	172.0
77.289299	180.0
77.541473	204.0
77.887115	208.0
78.274033	180.0
78.363861	168.0
79.217155	224.0
79.29689	212.0
79.442291	200.0
79.506165	212.0
79.808144	196.0
79.829483	200.0
80.107132	188.0
80.556664	208.0
81.009979	196.0
81.253059	192.0
81.348175	188.0
81.951279	216.0
82.295143	184.0
82.421577	156.0
82.540878	160.0
82.595131	184.0
82.692833	192.0
82.890228	212.0
83.323875	188.0
83.631195	204.0
83.836998	200.0
84.200035	152.0
84.238396	196.0
84.441284	228.0
84.568512	224.0
84.869789	168.0
85.343506	164.0
85.406036	140.0
85.731911	160.0
85.912605	196.0
86.37442	208.0
86.502098	188.0
86.758316	196.0
87.223679	176.0
87.333382	160.0
88.013588	160.0
88.363106	172.0
89.238976	156.0
89.809578	148.0
90.107834	208.0
90.196655	176.0
90.397133	172.0
90.450127	196.0
90.491768	140.0
90.775993	144.0
91.055908	160.0
91.739952	160.0
92.050842	2020.0
92.157104	152.0
92.567245	168.0
92.737755	140.0
93.041267	560.0
93.056778	800.0
93.28096	160.0
94.051552	448.0
94.119019	216.0
94.175026	196.0
94.256165	140.0
94.308342	176.0
94.368271	184.0
94.381805	140.0
94.737915	140.0
94.799919	196.0
94.848076	156.0
94.951134	152.0
94.980225	152.0
95.020966	160.0
95.034546	140.0
95.060715	4128.0
95.114899	168.0
95.549408	376.0
95.989594	176.0
96.040298	164.0
96.067566	176.0
96.319427	196.0
96.643951	156.0
96.660477	100.0
97.059196	172.0
97.402641	184.0
97.709312	172.0
98.065773	180.0
98.381332	148.0
98.531425	184.0
98.622322	200.0
98.667793	144.0
99.841644	192.0
100.211884	244.0
100.231812	152.0
100.854462	172.0
101.034439	176.0
101.438957	216.0
101.884453	244.0
102.973396	220.0
103.425079	212.0
103.506058	152.0
103.696487	160.0
103.810013	176.0
103.870728	184.0
104.051468	156.0
104.175354	208.0
104.380623	148.0
104.492493	180.0
104.618675	140.0
105.05069	148.0
105.418205	160.0
105.452942	164.0
106.189232	168.0
106.339783	192.0
106.477341	180.0
107.063461	216.0
107.673912	196.0
107.797859	168.0
107.967377	152.0
108.04496	11292.0
108.085289	164.0
108.356522	240.0
108.893776	228.0
109.0466	764.0
109.176422	180.0
109.471924	144.0
109.595825	108.0
109.651085	156.0
109.940971	288.0
109.974365	176.0
110.048401	192.0
110.103806	192.0
110.502731	284.0
110.567924	144.0
110.637001	196.0
110.76474	184.0
111.557945	156.0
113.01104	236.0
113.296852	176.0
113.563942	160.0
113.854706	168.0
114.009789	184.0
114.147964	144.0
114.483093	140.0
114.665268	188.0
115.055618	144.0
115.414558	152.0
115.560043	192.0
115.887581	156.0
116.018318	164.0
116.44532	180.0
116.496872	156.0
116.619354	200.0
116.87957	192.0
117.066841	236.0
117.116379	144.0
117.206856	152.0
117.623093	172.0
117.880096	148.0
118.089798	208.0
118.226097	160.0
118.325668	204.0
119.258446	192.0
119.465019	164.0
119.81739	144.0
119.854729	156.0
119.898315	152.0
120.053101	244.0
120.848198	244.0
121.310295	164.0
121.378265	180.0
121.448441	196.0
122.538795	160.0
122.966591	200.0
123.0858	148.0
123.457039	176.0
124.250008	176.0
124.40535	180.0
124.529694	176.0
124.685219	152.0
124.949821	152.0
125.973083	148.0
126.129501	168.0
126.14962	160.0
126.189857	168.0
126.400108	176.0
126.442627	172.0
127.127213	228.0
127.541634	244.0
127.773254	168.0
128.198822	144.0
128.275452	172.0
128.462616	208.0
128.972931	188.0
129.004578	160.0
129.983002	148.0
130.653259	168.0
131.352615	148.0
131.585388	268.0
131.877777	184.0
132.484161	240.0
132.525406	160.0
133.464172	232.0
133.818497	176.0
134.037308	192.0
134.341644	184.0
134.768753	164.0
135.127121	176.0
136.153992	172.0
136.309784	188.0
137.656052	256.0
138.242126	196.0
138.455826	140.0
138.507355	220.0
138.704178	180.0
140.116516	164.0
140.206055	168.0
140.387589	140.0
140.873795	188.0
141.008484	188.0
141.055756	144.0
141.732605	156.0
141.768158	164.0
142.045746	144.0
142.161804	188.0
142.2164	140.0
142.537003	168.0
142.734299	144.0
143.243607	188.0
144.078537	192.0
144.11438	140.0
144.186066	172.0
144.274506	156.0
144.291245	228.0
144.310364	140.0
144.578278	172.0
144.595032	148.0
144.858414	188.0
144.95903	164.0
145.045319	140.0
145.181976	188.0
145.496307	172.0
145.611557	180.0
145.666809	204.0
145.904709	152.0
146.039368	168.0
147.940277	192.0
148.057053	168.0
148.299332	204.0
148.330841	180.0
148.408417	144.0
148.466614	152.0
148.961746	260.0
149.147568	228.0
149.671906	224.0
149.696259	320.0
149.722763	144.0
150.159286	156.0
150.200745	176.0
150.852737	184.0
150.930969	224.0
151.023895	180.0
151.417938	184.0
151.59433	160.0
152.844208	200.0
153.405746	228.0
153.585754	164.0
153.892853	144.0
154.0177	236.0
154.107712	212.0
154.576431	144.0
155.017212	208.0
155.436279	212.0
155.580246	208.0
155.657211	148.0
155.712479	204.0
155.771454	164.0
155.848785	208.0
155.898666	204.0
155.927841	240.0
155.962784	140.0
156.012344	43652.0
156.360153	172.0
156.42749	180.0
156.52005	172.0
156.796097	232.0
157.009201	4940.0
157.077026	124.0
158.009613	1696.0
158.060165	196.0
158.081314	204.0
159.008652	124.0
159.132935	176.0
159.294067	176.0
159.987717	168.0
160.073334	176.0
160.171555	168.0
160.715317	168.0
161.0569	160.0
161.365204	144.0
162.243698	168.0
162.768906	224.0
162.931458	192.0
163.198318	264.0
163.559555	196.0
163.618103	156.0
164.081787	156.0
164.126663	192.0
164.163376	164.0
164.584412	148.0
164.985535	148.0
165.66626	156.0
166.805618	164.0
167.061462	1448.0
167.472046	168.0
167.763229	196.0
167.843155	228.0
168.070557	516.0
168.395401	172.0
169.077499	324.0
169.873383	164.0
170.488739	176.0
170.582306	184.0
170.688889	148.0
171.098267	320.0
171.180695	220.0
171.279297	120.0
171.879288	184.0
172.01239	140.0
172.101151	172.0
172.872269	176.0
174.542419	264.0
174.601074	208.0
176.13504	160.0
176.51033	236.0
177.018387	220.0
178.297043	168.0
180.533737	140.0
180.618179	1480.0
180.712967	168.0
180.763794	192.0
181.119873	364.0
181.152023	184.0
182.558426	220.0
182.940491	156.0
183.080673	656.0
183.134354	144.0
183.757065	184.0
184.024261	192.0
184.08757	24620.0
185.087479	2448.0
185.183594	140.0
185.6091	176.0
185.951645	160.0
186.099228	692.0
186.200882	204.0
186.525482	136.0
187.09874	176.0
188.170166	228.0
189.020218	160.0
189.397705	172.0
190.327713	172.0
190.346924	220.0
190.712311	188.0
192.964508	240.0
192.986618	176.0
193.744949	144.0
194.135773	196.0
194.899124	168.0
194.943588	156.0
195.26329	216.0
196.401688	172.0
196.572632	144.0
196.949524	152.0
197.108765	208.0
197.16745	156.0
197.488968	156.0
198.558868	192.0
198.699112	204.0
198.800125	224.0
199.378632	208.0
199.401123	156.0
200.064941	192.0
202.535797	168.0
202.612274	184.0
202.802139	188.0
202.850311	248.0
203.386429	164.0
203.619415	876.0
204.005676	176.0
204.122192	316.0
204.250229	160.0
205.34111	236.0
205.840515	164.0
205.926788	152.0
206.029022	148.0
206.383423	208.0
206.557877	208.0
208.073837	148.0
208.102539	160.0
208.292084	208.0
208.682922	148.0
208.803696	144.0
209.601105	188.0
209.791321	148.0
210.359619	172.0
211.229401	144.0
216.726013	172.0
216.939957	156.0
219.648254	188.0
219.999405	240.0
220.34494	196.0
221.226227	144.0
222.81282	184.0
223.029755	212.0
223.327087	172.0
223.585922	172.0
223.657349	148.0
227.081451	160.0
227.336456	220.0
228.048233	184.0
228.878525	152.0
229.143585	152.0
229.499237	168.0
229.692245	164.0
230.580231	176.0
231.042557	168.0
231.081879	172.0
231.136353	140.0
231.593475	168.0
232.053818	1672.0
232.53035	180.0
233.057312	132.0
233.146866	196.0
233.481262	148.0
234.059448	216.0
235.254593	204.0
236.374771	136.0
236.510941	184.0
236.679306	244.0
237.730728	148.0
237.911819	208.0
240.050186	156.0
240.340134	176.0
241.099777	144.0
241.144501	144.0
241.532639	152.0
242.399506	204.0
242.662964	204.0
245.442642	184.0
245.464478	188.0
245.882492	172.0
245.994858	200.0
246.035446	160.0
246.560196	248.0
246.775513	168.0
247.022949	176.0
247.245087	160.0
248.031235	168.0
248.68364	204.0
248.915955	216.0
248.982956	132.0
249.069839	152.0
249.147247	136.0
249.239487	184.0
249.274063	212.0
249.428192	336.0
249.521317	144.0
249.533234	96.0
249.575821	152.0
249.626129	364.0
249.662125	148.0
249.694641	164.0
249.74231	144.0
249.761688	152.0
249.792816	140.0
249.857147	300.0
249.902924	216.0
249.94133	208.0
249.98526	448.0
250.02623	400.0
250.066162	128660.0
250.325592	160.0
250.379715	172.0
250.423782	188.0
250.475021	96.0
250.52243	108.0
250.584503	804.0
250.628235	104.0
250.787186	112.0
250.817978	256.0
250.897705	124.0
251.068192	11328.0
251.34375	136.0
251.596283	108.0
251.816269	100.0
252.063248	4968.0
252.366241	252.0
252.480728	116.0
252.648895	108.0
252.695679	128.0
252.778351	140.0
252.815521	116.0
252.866531	124.0
253.011551	136.0
253.028442	368.0
253.066025	284.0
253.156998	120.0
253.738739	96.0
253.765686	172.0
255.846649	144.0
263.175903	172.0
270.18161	112.0
285.606476	172.0
328.996368	148.0
462.381134	148.0
798.475769	144.0
1076.131348	184.0
1162.438354	144.0
1174.978149	172.0
1202.494995	176.0
1214.395264	156.0
1216.046509	192.0
1226.653931	232.0
1271.012207	160.0
1294.399658	208.0
1299.273438	172.0
1306.198486	172.0
1350.467407	160.0
1367.106689	140.0
1386.699829	180.0
1392.442261	192.0
1401.72644	160.0
1416.317139	204.0
1424.696167	152.0
1437.38269	196.0
1437.858032	176.0
1445.536133	176.0
1459.994995	216.0
1469.394531	148.0
1471.707153	152.0
1492.548462	200.0
1495.571899	156.0
1507.062378	216.0
1525.219971	144.0
1531.771729	144.0
1534.390137	148.0
1535.2323	168.0
1570.89624	148.0
1572.632202	152.0
1573.358398	176.0
1573.563721	204.0
1582.561157	196.0
1584.953247	156.0
1604.298096	152.0
1606.331543	160.0
1609.0448	212.0
1609.667603	140.0
1610.106812	200.0
1624.562378	144.0
1630.978271	232.0
1643.484985	188.0
1645.268677	216.0
1647.877319	164.0
1648.879272	152.0
1650.754761	212.0
1662.760742	152.0
1672.684937	156.0
1676.578003	176.0
1678.045288	176.0
1689.601685	248.0
1691.974976	212.0
1701.099121	248.0
1707.022949	184.0
1708.651489	224.0
1710.165527	156.0
1719.313843	144.0
1723.674072	148.0
1724.587402	148.0
1730.439941	160.0
1734.640015	144.0
1739.451172	160.0
1743.828491	152.0
1744.684692	204.0
1750.22583	160.0
1751.366699	152.0
1753.191284	180.0
1756.567993	152.0
1760.373901	180.0
1769.72229	164.0
1771.238037	164.0
1772.764526	168.0
1775.403564	152.0
1777.987427	140.0
1782.63147	188.0
1783.967773	156.0
1786.414917	168.0
1790.13501	176.0
1793.496582	176.0
1798.371704	208.0
1808.234985	276.0
1823.577759	208.0
1824.274658	152.0
1826.31543	208.0
1845.229614	200.0
1851.912842	184.0
1864.223999	152.0
1868.067261	144.0
1874.447021	200.0
1891.227173	192.0
1893.166504	172.0
1897.55957	176.0
1917.108276	172.0
1919.793335	184.0
1930.176025	192.0
1930.665771	180.0
1934.927002	156.0
1938.027466	152.0
1940.052002	200.0
1944.104248	168.0
1945.157471	148.0
1945.824585	184.0
1952.564331	160.0
1954.050903	164.0
1956.902466	224.0
1958.135254	156.0
1959.39978	180.0
1965.1521	228.0
1967.658691	144.0
1968.674072	148.0
1986.233521	184.0
1989.330444	204.0
1991.479248	144.0
1991.763428	180.0
1992.260986	192.0
1993.034058	160.0
2000.041748	172.0
END IONS

BEGIN IONS
PEPMASS=283.069
CHARGE=1
MSLEVEL=2
SOURCE_INSTRUMENT=LC-ESI-qTof
FILENAME=Plate9_81_88_Plate8_81_88_GC8_01_15759.mzXML
SEQ=*..*
IONMODE=Positive
ORGANISM=GNPS-SELLECKCHEM-FDA-PART2
NAME=Niflumic acid [M+H]
PI=Dorrestein
DATACOLLECTOR=Garg_Neha
SMILES=C1(C(=CC=CN=1)C(=O)O)NC2C=C(C=CC=2)C(F)(F)F
INCHI=N/A
INCHIAUX=N/A
PUBMED=N/A
SUBMITUSER=negarg
LIBRARYQUALITY=1
SPECTRUMID=CCMSLIB00000078537
USI=mzspec:GNPS:GNPS-SELLECKCHEM-FDA-PART2:accession:CCMSLIB00000078537
SCANS=1821
45.066628	156.0
46.40538	160.0
46.596748	144.0
46.72863	160.0
47.440174	188.0
47.820667	188.0
47.92395	200.0
48.006657	160.0
48.049416	160.0
49.156689	212.0
49.381615	180.0
49.43338	168.0
49.51878	168.0
49.532787	140.0
49.6912	260.0
50.179245	228.0
51.279293	232.0
51.360565	140.0
52.192646	172.0
52.215652	176.0
53.135822	144.0
53.445301	152.0
53.462761	140.0
53.838886	192.0
54.216331	208.0
54.748146	152.0
54.771713	240.0
55.17754	204.0
55.319561	192.0
55.588867	160.0
56.257607	168.0
56.339745	140.0
56.785816	160.0
56.892357	140.0
56.964294	124.0
57.155376	140.0
57.171928	168.0
57.628834	152.0
57.863266	148.0
58.189236	200.0
58.234791	164.0
58.335499	160.0
58.365486	160.0
58.398945	144.0
58.508976	156.0
58.58313	216.0
59.33197	188.0
59.519154	232.0
59.904896	188.0
60.176624	204.0
60.261574	164.0
60.360497	248.0
60.444027	164.0
60.465694	184.0
60.62521	140.0
60.937103	148.0
62.359165	152.0
62.4771	160.0
62.557362	196.0
63.507042	140.0
63.714993	140.0
63.940247	116.0
66.016808	156.0
66.363335	140.0
66.653877	176.0
66.815781	188.0
67.169983	184.0
67.19445	156.0
67.463921	168.0
67.600533	172.0
67.707726	248.0
68.382507	172.0
68.908051	200.0
68.943245	148.0
68.973	148.0
69.04493	216.0
69.189705	148.0
69.241035	232.0
69.649055	164.0
69.758728	152.0
69.772026	164.0
69.786987	188.0
69.800293	172.0
70.10659	180.0
70.146591	140.0
71.355309	200.0
72.416748	204.0
72.623528	184.0
72.736092	228.0
72.953491	188.0
73.065193	164.0
73.111137	140.0
74.271248	268.0
74.967552	184.0
75.01754	168.0
75.031334	156.0
75.067543	148.0
75.829948	180.0
76.008568	164.0
76.282982	144.0
76.385582	152.0
76.678101	240.0
77.326057	140.0
77.364571	172.0
77.404839	176.0
77.610558	208.0
77.840141	164.0
78.367409	196.0
78.474922	140.0
78.619568	180.0
78.746681	152.0
79.742416	148.0
80.016357	200.0
80.816299	316.0
80.982445	168.0
81.190346	420.0
81.306953	152.0
81.473946	148.0
81.723854	172.0
81.844452	152.0
82.221214	148.0
82.673012	160.0
83.594894	148.0
83.981133	196.0
84.998314	152.0
85.084579	176.0
85.356506	260.0
85.669395	180.0
85.979164	232.0
86.989769	140.0
87.153206	156.0
87.41539	160.0
87.864441	152.0
88.511925	188.0
89.698517	204.0
89.770157	192.0
90.554459	152.0
90.789467	160.0
90.880516	240.0
90.988701	184.0
91.117851	200.0
91.524872	184.0
91.636765	204.0
92.506203	204.0
92.640251	232.0
92.709229	164.0
93.12748	236.0
93.436966	176.0
93.52549	144.0
93.642937	160.0
93.712288	180.0
94.009239	160.0
94.057487	140.0
94.07679	168.0
94.498108	148.0
94.804054	152.0
94.868011	192.0
95.810555	144.0
96.104958	180.0
96.157646	148.0
96.327515	148.0
96.41935	148.0
96.434982	228.0
96.448669	152.0
96.550339	152.0
96.81649	168.0
96.928154	184.0
97.118317	148.0
97.147743	144.0
97.216415	152.0
97.241928	156.0
97.318489	160.0
97.746994	176.0
98.107422	148.0
99.200638	144.0
99.446602	164.0
99.591545	144.0
100.160316	168.0
100.547226	148.0
101.156853	172.0
101.854675	164.0
101.947098	152.0
102.645622	188.0
103.02507	140.0
103.15036	160.0
103.283096	180.0
104.18589	180.0
104.49498	124.0
105.187813	144.0
105.318497	208.0
106.664734	196.0
107.478226	160.0
108.166435	176.0
109.037582	160.0
109.10202	156.0
109.178955	164.0
109.264236	212.0
109.399506	144.0
109.418243	232.0
109.63279	188.0
109.849632	164.0
110.298584	120.0
110.346664	144.0
110.539101	148.0
111.308403	140.0
111.573143	140.0
111.673668	124.0
112.055099	192.0
112.107773	204.0
112.291191	168.0
112.45787	168.0
112.798988	196.0
112.874054	196.0
113.087723	172.0
113.293129	160.0
113.475388	180.0
113.725708	168.0
114.201645	140.0
114.550735	160.0
114.757637	144.0
115.378746	164.0
115.586212	160.0
116.027435	156.0
116.463051	144.0
116.856453	164.0
116.871513	192.0
116.969391	216.0
117.086777	180.0
117.128464	204.0
117.37986	196.0
117.399269	176.0
117.785606	192.0
118.205032	164.0
118.551506	172.0
118.74012	180.0
119.215561	160.0
119.24382	148.0
120.158394	176.0
120.337357	224.0
120.570053	120.0
120.761299	184.0
121.042168	212.0
121.615814	160.0
121.694839	212.0
122.107971	196.0
122.43589	188.0
122.535011	148.0
123.06897	176.0
124.46595	184.0
124.685875	160.0
124.794792	156.0
124.90377	148.0
125.01635	132.0
125.357956	152.0
125.529602	160.0
125.79287	144.0
125.87822	176.0
126.920464	152.0
127.077469	168.0
127.286217	188.0
127.305565	148.0
127.322144	240.0
127.974266	144.0
128.014801	140.0
128.11615	212.0
128.346039	160.0
128.576187	180.0
129.004364	120.0
129.04599	264.0
129.254074	144.0
129.503113	160.0
129.623184	176.0
129.988266	252.0
130.183487	196.0
130.244812	256.0
130.378387	172.0
130.408401	148.0
130.563004	140.0
131.066086	204.0
131.10939	168.0
131.173203	168.0
132.310867	144.0
133.531631	144.0
133.766327	172.0
133.943634	168.0
134.20636	144.0
134.330887	228.0
134.483185	144.0
134.644043	180.0
135.093216	140.0
135.320023	192.0
135.811295	224.0
135.994598	160.0
136.231445	164.0
136.496399	152.0
137.113312	200.0
137.150604	152.0
137.425781	140.0
137.57048	200.0
137.820389	148.0
138.103256	188.0
138.199173	160.0
138.264694	160.0
138.798798	208.0
139.181274	160.0
139.420883	172.0
139.7995	180.0
139.980316	128.0
140.044983	460.0
140.992798	184.0
141.058212	264.0
141.345154	144.0
141.923111	140.0
142.063034	156.0
142.711395	196.0
143.032562	192.0
143.280228	156.0
143.313583	140.0
143.580566	140.0
143.886002	228.0
143.90271	176.0
144.691681	188.0
145.025894	3900.0
145.514023	140.0
145.840729	140.0
146.02739	392.0
146.22316	144.0
146.579575	248.0
147.279205	152.0
147.47493	316.0
147.663513	144.0
147.861893	240.0
148.79631	124.0
149.47084	164.0
149.814133	240.0
149.853043	140.0
150.008224	196.0
150.033798	144.0
150.333481	172.0
150.709518	160.0
151.046906	168.0
151.081146	140.0
151.607574	144.0
151.788986	152.0
153.129135	184.0
153.89032	176.0
154.485931	168.0
154.849792	180.0
154.978607	140.0
156.16275	160.0
156.384186	144.0
156.41655	156.0
156.791061	196.0
156.822556	144.0
157.034485	172.0
157.081863	160.0
157.264023	208.0
157.748611	144.0
157.808609	152.0
157.931152	208.0
158.76767	176.0
159.279602	132.0
159.709503	144.0
159.961136	148.0
159.981277	152.0
160.07695	188.0
160.644043	152.0
160.684402	140.0
160.863586	160.0
160.929214	168.0
161.018997	188.0
161.048157	252.0
161.146439	152.0
162.013	132.0
162.138367	144.0
162.351318	208.0
162.518738	152.0
162.605026	172.0
162.805588	240.0
162.894485	160.0
163.07489	196.0
163.199448	148.0
163.280823	184.0
163.466156	184.0
163.593796	260.0
163.940186	148.0
164.040054	156.0
164.276749	216.0
164.381363	228.0
164.720917	168.0
165.874985	172.0
166.058487	200.0
166.213531	176.0
166.655167	144.0
167.058365	336.0
167.150284	220.0
167.349625	164.0
167.51445	156.0
167.586594	144.0
167.98877	156.0
168.067429	5168.0
168.213272	188.0
168.536102	156.0
168.683411	144.0
168.993759	152.0
169.071671	608.0
169.106583	308.0
169.304382	160.0
169.664551	224.0
170.035477	160.0
170.072083	196.0
170.243164	144.0
170.274323	156.0
170.328873	144.0
170.458771	140.0
170.716949	164.0
170.791794	132.0
171.04245	152.0
171.286118	180.0
171.420181	144.0
171.752853	132.0
171.943161	216.0
172.040802	208.0
172.737473	164.0
173.033051	144.0
173.360611	164.0
173.495667	148.0
173.845749	204.0
174.061005	164.0
174.221222	172.0
174.718094	208.0
174.809586	176.0
174.839127	224.0
174.868088	168.0
175.344788	268.0
175.603882	104.0
175.793106	188.0
176.445526	164.0
176.640976	132.0
176.74176	188.0
176.826431	148.0
177.040878	256.0
177.160065	168.0
178.330261	152.0
178.628067	164.0
179.019318	164.0
179.057236	304.0
179.408325	224.0
180.043365	144.0
180.302505	200.0
180.845444	188.0
180.962006	228.0
180.983521	180.0
181.110519	180.0
181.399918	156.0
181.461578	164.0
181.574188	152.0
181.606384	140.0
181.751251	220.0
182.723877	200.0
182.796677	172.0
182.963394	140.0
183.040619	144.0
183.440231	216.0
183.502228	148.0
183.761154	164.0
183.925766	152.0
183.998657	148.0
184.055878	144.0
184.449799	176.0
184.558655	196.0
184.601196	152.0
184.690445	160.0
184.879837	204.0
185.027802	180.0
185.115356	176.0
185.391678	152.0
185.437744	168.0
185.953064	168.0
185.988342	200.0
186.11322	156.0
186.512589	200.0
186.547913	148.0
186.982254	216.0
187.244476	200.0
187.805939	208.0
187.890503	192.0
188.310883	148.0
188.56041	144.0
188.679779	184.0
188.715042	160.0
189.043564	184.0
189.478928	148.0
189.509064	148.0
189.566605	160.0
189.854446	140.0
190.048309	780.0
190.111816	172.0
190.340164	164.0
190.958496	148.0
191.050385	312.0
191.192352	160.0
191.228119	168.0
191.632935	148.0
191.90303	228.0
192.068497	140.0
192.430008	184.0
192.474197	196.0
192.831131	156.0
193.037903	164.0
193.483368	160.0
194.347488	180.0
194.403595	152.0
194.490143	152.0
194.672882	160.0
194.803421	180.0
194.950668	176.0
195.057556	376.0
195.857666	176.0
196.062698	8604.0
196.237839	152.0
196.420731	184.0
196.836578	168.0
197.05484	648.0
197.381454	152.0
197.879501	164.0
198.013199	140.0
198.056564	284.0
199.067337	144.0
199.104889	164.0
199.703537	224.0
200.063965	132.0
200.418579	176.0
201.061523	172.0
201.291916	196.0
201.572662	176.0
201.606796	156.0
202.048645	128.0
202.240097	168.0
202.48642	156.0
202.880295	212.0
202.956833	156.0
203.345474	216.0
203.868042	192.0
203.964676	160.0
203.987411	144.0
204.052155	192.0
205.123199	188.0
205.274307	216.0
205.465408	144.0
206.002106	160.0
206.290741	148.0
206.36792	208.0
206.422256	140.0
206.825653	148.0
207.877472	160.0
208.227707	152.0
208.523636	148.0
209.496201	148.0
209.533661	160.0
209.683487	236.0
209.865097	144.0
210.048065	404.0
210.332458	220.0
210.873779	148.0
211.3237	140.0
211.517593	176.0
211.8564	144.0
211.957809	164.0
212.369476	188.0
213.066162	168.0
213.191101	172.0
213.609772	220.0
213.915329	144.0
214.390076	228.0
215.057541	420.0
215.189026	120.0
215.627487	140.0
216.048264	272.0
216.127548	168.0
216.186066	156.0
216.886047	192.0
217.003311	208.0
217.057114	8896.0
217.315933	184.0
217.399307	156.0
217.442459	240.0
217.587158	168.0
218.055771	2352.0
218.114044	240.0
218.604156	236.0
218.801712	100.0
219.013382	160.0
219.044632	488.0
219.402359	152.0
219.434799	156.0
219.753326	148.0
220.078003	172.0
220.240417	152.0
220.473831	220.0
220.515198	180.0
220.590439	124.0
220.640137	120.0
220.774048	116.0
221.313019	200.0
221.426453	180.0
222.752289	148.0
223.322998	200.0
223.355713	140.0
223.632431	188.0
225.043243	356.0
225.323227	176.0
225.933105	148.0
226.050873	244.0
226.079727	156.0
226.383453	192.0
226.80452	180.0
227.371384	180.0
227.521469	164.0
227.70163	164.0
228.068192	184.0
228.528305	156.0
228.597504	228.0
229.211807	164.0
229.286316	132.0
229.326324	176.0
229.385071	132.0
229.471024	144.0
229.579575	152.0
230.053284	164.0
230.312973	160.0
231.461853	180.0
231.562134	152.0
231.983307	140.0
232.532318	184.0
233.033371	156.0
233.480209	168.0
233.933578	168.0
233.95488	180.0
234.64035	160.0
235.047195	156.0
235.131454	248.0
235.192505	180.0
235.608932	172.0
235.891998	184.0
235.96843	180.0
236.003433	184.0
236.054367	440.0
236.375244	188.0
236.415024	148.0
236.472427	184.0
237.062851	4732.0
237.386108	192.0
237.429047	216.0
238.046326	2844.0
238.205582	192.0
238.254745	176.0
238.509796	172.0
238.699036	160.0
238.778931	156.0
239.051208	344.0
239.074356	340.0
239.192657	164.0
239.485184	148.0
240.021408	160.0
240.082108	152.0
240.209549	140.0
240.598373	156.0
240.681732	176.0
240.82576	220.0
240.882477	160.0
241.138947	172.0
241.494507	164.0
241.64537	140.0
243.006226	180.0
243.060394	336.0
243.378143	140.0
243.512222	180.0
243.602295	144.0
243.694351	284.0
243.968109	140.0
244.006302	192.0
244.037079	160.0
244.84169	144.0
245.052277	60616.0
245.150879	156.0
245.292007	108.0
245.562332	184.0
245.634445	152.0
245.709885	160.0
245.782761	124.0
245.875259	148.0
245.927567	192.0
246.012604	212.0
246.055527	5504.0
246.499832	152.0
246.61235	184.0
246.931259	172.0
247.051559	432.0
247.494385	132.0
247.61528	108.0
247.790329	100.0
247.865845	156.0
248.089111	232.0
248.144287	96.0
248.308319	228.0
248.340668	176.0
248.472427	156.0
249.04921	160.0
249.669464	176.0
249.7258	164.0
250.511688	196.0
251.755432	160.0
251.917389	200.0
252.235672	172.0
252.687897	152.0
253.055038	208.0
253.264038	204.0
253.390747	220.0
253.847183	192.0
253.872559	160.0
254.882004	180.0
255.044083	144.0
255.587906	140.0
256.042572	140.0
256.164154	236.0
256.817596	220.0
257.174957	164.0
257.861664	148.0
258.725311	160.0
259.546814	376.0
259.648132	148.0
259.79248	176.0
259.840607	188.0
260.071655	176.0
260.524414	200.0
260.74646	120.0
261.360352	140.0
261.489075	152.0
261.648315	152.0
261.698303	160.0
261.733734	216.0
262.050201	264.0
262.468384	312.0
262.565125	176.0
263.062164	3488.0
263.262207	156.0
263.470062	120.0
263.517395	152.0
263.618835	220.0
263.889069	144.0
263.998169	284.0
264.053497	872.0
264.242767	280.0
264.337433	104.0
264.39801	144.0
264.606445	144.0
264.647797	172.0
264.705475	180.0
264.738251	236.0
264.769104	108.0
264.836792	128.0
264.893463	276.0
264.926331	248.0
264.961945	236.0
265.000153	456.0
265.010895	436.0
265.059601	270904.0
265.154694	188.0
265.200867	124.0
265.27832	308.0
265.351105	196.0
265.460022	180.0
265.554474	156.0
265.591248	1492.0
265.651978	260.0
265.697449	272.0
265.758728	124.0
265.861145	124.0
265.916687	160.0
265.961456	112.0
266.061401	39304.0
266.211853	120.0
266.344818	128.0
266.383636	148.0
266.601135	112.0
266.648682	148.0
266.67395	96.0
266.78421	152.0
267.063324	3184.0
267.138672	188.0
267.172394	232.0
267.315826	132.0
267.344971	148.0
267.371613	168.0
267.46106	108.0
267.543823	144.0
267.585846	96.0
267.669647	320.0
267.695007	136.0
267.785767	276.0
267.81604	132.0
267.92038	280.0
267.962341	224.0
267.985748	224.0
268.029785	140.0
268.067719	296.0
268.14389	136.0
268.445709	132.0
268.530518	100.0
268.580353	124.0
268.783997	152.0
268.960754	112.0
269.082367	192.0
269.818146	248.0
270.058075	144.0
270.251099	168.0
271.11557	156.0
271.587677	216.0
271.971588	148.0
272.161987	144.0
273.35849	160.0
273.628387	168.0
274.112579	140.0
274.286438	144.0
274.366364	140.0
274.485046	152.0
274.679321	156.0
275.346375	264.0
276.586243	216.0
277.144104	108.0
277.334839	168.0
278.478058	164.0
279.759735	176.0
280.242645	148.0
280.36261	256.0
280.948547	152.0
280.99646	164.0
281.168549	108.0
281.313812	108.0
281.420013	140.0
281.530396	148.0
281.584961	172.0
281.652557	140.0
281.678589	124.0
281.786926	196.0
281.81015	160.0
281.875702	152.0
281.902405	172.0
281.94928	176.0
281.989685	172.0
282.023651	196.0
282.05542	136.0
282.080566	260.0
282.105164	144.0
282.160858	140.0
282.241974	164.0
282.353577	128.0
282.377106	372.0
282.412323	108.0
282.435699	172.0
282.483307	260.0
282.514069	124.0
282.575897	212.0
282.623901	108.0
282.688538	180.0
282.745422	104.0
282.779327	160.0
282.813751	264.0
282.847778	304.0
282.902618	140.0
282.931458	156.0
282.963989	400.0
283.071075	210812.0
283.168945	248.0
283.196533	644.0
283.302002	172.0
283.378418	556.0
283.431824	272.0
283.460083	452.0
283.581726	452.0
283.621552	9632.0
283.65451	200.0
283.686829	208.0
283.744659	208.0
283.812408	236.0
283.988464	208.0
284.024139	528.0
284.07251	71944.0
284.183014	148.0
284.21994	188.0
284.346588	96.0
284.394836	120.0
284.464722	148.0
284.537567	120.0
284.591034	120.0
284.647736	112.0
284.695831	240.0
284.753113	168.0
284.801208	228.0
284.829071	120.0
284.942902	220.0
284.972565	180.0
284.992615	184.0
285.072601	6816.0
285.130981	200.0
285.516876	108.0
285.552521	192.0
285.592834	112.0
285.6698	156.0
285.726624	168.0
285.763428	132.0
285.863068	312.0
285.942902	248.0
285.965149	304.0
285.994415	168.0
286.036072	496.0
286.078094	484.0
286.111664	168.0
286.159882	472.0
286.261993	160.0
286.440704	116.0
286.532043	148.0
286.667145	144.0
286.743744	224.0
286.823669	196.0
287.147064	152.0
287.185211	140.0
287.609589	156.0
289.920563	188.0
292.363861	96.0
294.049286	180.0
294.769867	156.0
295.292786	116.0
296.189545	96.0
297.400787	104.0
298.537262	144.0
298.939728	164.0
300.392914	104.0
303.132996	136.0
315.084869	156.0
325.008057	188.0
334.830109	176.0
344.694885	180.0
382.878632	144.0
433.467621	152.0
442.579102	96.0
602.947937	152.0
1060.880981	184.0
1116.938721	144.0
1332.04248	152.0
1392.452026	176.0
1495.267334	156.0
1521.060059	268.0
1590.143799	180.0
1664.64917	180.0
1668.557495	148.0
1687.823975	156.0
1706.61731	172.0
1742.903809	152.0
1748.150757	160.0
1768.138062	188.0
1801.958862	188.0
1802.685425	144.0
1840.153198	172.0
1913.797485	172.0
1937.729004	144.0
1946.438843	144.0
1950.541626	152.0
1956.021851	200.0
1968.082275	192.0
1970.39624	172.0
1979.62207	108.0
1996.118408	168.0
END IONS

BEGIN IONS
PEPMASS=232.144
CHARGE=1
MSLEVEL=2
SOURCE_INSTRUMENT=LC-ESI-qTof
FILENAME=Plate9_81_88_Plate8_81_88_GC8_01_15759.mzXML
SEQ=*..*
IONMODE=Positive
ORGANISM=GNPS-SELLECKCHEM-FDA-PART2
NAME=Amidopyrine [M+H]
PI=Dorrestein
DATACOLLECTOR=Garg_Neha
SMILES=N1(N(C(C(=C1C)N(C)C)=O)C2C=CC=CC=2)C
INCHI=N/A
INCHIAUX=N/A
PUBMED=N/A
SUBMITUSER=negarg
LIBRARYQUALITY=1
SPECTRUMID=CCMSLIB00000078610
USI=mzspec:GNPS:GNPS-SELLECKCHEM-FDA-PART2:accession:CCMSLIB00000078610
SCANS=944
45.186512	152.0
48.479519	252.0
49.286625	188.0
49.364906	188.0
49.495045	172.0
52.567245	160.0
55.457401	196.0
63.878826	180.0
66.611732	196.0
81.228127	204.0
82.859642	144.0
84.965408	212.0
86.524582	144.0
91.778427	224.0
92.263382	144.0
97.075562	912.0
98.083931	1336.0
98.247589	176.0
99.090118	148.0
99.44812	164.0
105.028801	140.0
106.064796	220.0
106.599121	172.0
106.874657	148.0
107.777786	176.0
111.091682	2108.0
111.987854	168.0
112.095383	196.0
113.106903	5724.0
114.108025	444.0
114.817329	140.0
114.956001	184.0
117.926224	192.0
118.06562	384.0
120.071312	176.0
120.086578	232.0
121.333008	172.0
127.087791	164.0
128.95282	188.0
133.074524	176.0
134.061325	196.0
136.066757	148.0
139.085098	612.0
140.09166	180.0
146.062164	168.0
147.08989	124.0
149.106888	228.0
150.089767	152.0
150.11171	148.0
157.017242	152.0
159.089828	532.0
160.062073	148.0
171.8573	172.0
172.060883	156.0
174.11116	184.0
175.085968	476.0
175.107925	176.0
177.100739	532.0
177.619064	156.0
178.10733	148.0
187.086334	904.0
188.091263	128.0
188.980896	148.0
189.098572	140.0
197.043549	212.0
198.987244	172.0
199.926086	144.0
201.107849	180.0
204.145889	252.0
206.946182	164.0
214.140015	128.0
216.107376	180.0
222.221207	144.0
229.932877	196.0
230.01738	144.0
231.014587	176.0
231.132812	272.0
231.166031	152.0
232.14386	8820.0
233.147476	780.0
233.687393	140.0
234.163513	128.0
395.470703	152.0
511.46347	160.0
1338.757568	188.0
1456.253296	188.0
1468.247925	140.0
1531.988037	176.0
1556.80603	148.0
1663.62854	172.0
1740.563843	184.0
1833.400146	196.0
1865.153687	256.0
1889.143555	160.0
1926.96167	212.0
1944.659424	208.0
END IONS

BEGIN IONS
PEPMASS=382.168
CHARGE=1
MSLEVEL=2
SOURCE_INSTRUMENT=LC-ESI-qTof
FILENAME=NCP003352_C2_D11_BC5_01_15719.mzXML
SEQ=*..*
IONMODE=Positive
ORGANISM=GNPS-NIH-CLINICALCOLLECTION1
NAME=azelastine hydrochloride [M+H]
PI=Dorrestein
DATACOLLECTOR=Garg_Neha
SMILES=CN1CCCC(CC1)n2nc(Cc3ccc(Cl)cc3)c4ccccc4c2=O
INCHI=N/A
INCHIAUX=N/A
PUBMED=N/A
SUBMITUSER=negarg
LIBRARYQUALITY=1
SPECTRUMID=CCMSLIB00000078987
USI=mzspec:GNPS:GNPS-NIH-CLINICALCOLLECTION1:accession:CCMSLIB00000078987
SCANS=1167
45.030243	188.0
45.081013	156.0
45.196011	160.0
45.288383	208.0
45.568752	200.0
45.680336	204.0
46.510242	172.0
46.683926	244.0
46.938572	228.0
47.40197	156.0
47.454056	208.0
47.522636	148.0
48.057865	144.0
48.46714	176.0
48.51981	176.0
48.676594	184.0
48.759949	160.0
48.819729	196.0
49.496525	140.0
49.757313	220.0
49.819107	152.0
49.982201	144.0
50.539555	168.0
51.226704	152.0
51.467728	160.0
51.563442	168.0
51.780907	160.0
52.31506	148.0
52.415878	196.0
52.994476	176.0
53.347965	224.0
53.401764	148.0
53.76162	148.0
53.897423	176.0
54.113895	212.0
54.205612	148.0
54.307331	200.0
54.344006	160.0
54.50552	144.0
54.637844	212.0
55.364063	156.0
55.488533	140.0
55.629467	172.0
56.138317	152.0
56.790382	156.0
56.913441	228.0
57.006573	144.0
57.553406	168.0
57.637959	148.0
58.624313	156.0
58.932549	200.0
59.30658	108.0
59.336605	160.0
60.134972	160.0
60.935566	200.0
61.14082	176.0
62.524303	144.0
62.743248	160.0
63.264584	256.0
63.300232	132.0
63.594292	152.0
64.02037	156.0
64.115952	196.0
64.182907	156.0
65.167282	224.0
65.37793	252.0
65.672157	204.0
65.898758	152.0
65.94239	188.0
66.431396	224.0
66.525513	156.0
66.631073	168.0
66.785507	168.0
66.879875	160.0
66.891273	152.0
66.980835	148.0
67.080231	216.0
67.691277	168.0
67.997841	204.0
68.759842	172.0
68.773048	200.0
68.872116	196.0
69.067162	144.0
69.217766	192.0
69.27076	188.0
69.524437	168.0
69.582367	176.0
69.605782	152.0
69.801857	172.0
70.224861	172.0
70.52874	140.0
70.670891	192.0
71.811539	184.0
71.827736	152.0
72.286972	256.0
72.560646	156.0
73.12291	196.0
73.461861	184.0
74.27623	240.0
75.052795	168.0
75.490448	336.0
76.484573	180.0
76.547249	176.0
78.131271	192.0
79.303795	140.0
79.475807	152.0
81.297729	208.0
81.564117	124.0
81.595894	196.0
82.356354	144.0
82.482834	168.0
82.717987	184.0
85.66539	168.0
85.718819	172.0
86.364983	156.0
86.650063	140.0
86.97644	164.0
87.033989	148.0
87.433655	176.0
87.608681	168.0
87.918198	140.0
88.671883	224.0
88.731865	140.0
88.893173	192.0
89.174873	148.0
89.306488	144.0
89.409966	192.0
89.805611	168.0
90.243729	140.0
90.39505	156.0
91.288521	164.0
92.079399	208.0
93.700294	260.0
93.798569	160.0
93.997223	200.0
94.028099	148.0
94.352608	148.0
94.797783	168.0
95.158562	184.0
95.327553	208.0
95.387802	144.0
95.706863	164.0
96.087029	152.0
96.123993	172.0
96.149361	164.0
96.190353	228.0
96.53421	156.0
96.835594	172.0
97.088409	180.0
97.282661	172.0
97.306213	144.0
97.831123	204.0
98.097069	468.0
98.635956	148.0
98.695267	140.0
99.001984	204.0
99.138672	184.0
99.188225	204.0
99.684387	180.0
99.964775	192.0
100.114075	172.0
100.280556	164.0
101.346962	140.0
102.649078	256.0
102.921486	220.0
102.955818	148.0
102.986115	160.0
103.03257	140.0
103.053864	208.0
103.461311	164.0
103.557869	140.0
104.063446	140.0
104.555359	164.0
104.771385	216.0
104.795647	160.0
105.532455	208.0
106.518204	188.0
106.565453	192.0
106.721657	140.0
107.26722	148.0
107.543617	244.0
107.996109	144.0
108.337212	132.0
108.414314	192.0
108.528328	172.0
109.957443	152.0
110.097359	1144.0
110.519569	148.0
110.643059	164.0
110.659805	144.0
110.909096	144.0
111.055199	164.0
111.108498	176.0
111.601868	208.0
111.837479	196.0
111.899773	204.0
111.956413	196.0
112.02829	384.0
112.052742	144.0
112.077171	384.0
112.09153	388.0
112.113091	99900.0
112.192162	148.0
112.260979	256.0
112.281403	200.0
112.458435	112.0
112.719353	248.0
113.094841	156.0
113.116173	7332.0
113.158966	196.0
113.794487	96.0
113.908615	116.0
113.923454	148.0
113.946434	108.0
113.970985	100.0
113.996849	112.0
114.03923	112.0
114.116669	132.0
114.526543	160.0
114.755112	140.0
115.818794	216.0
116.018074	208.0
116.208954	152.0
118.100945	196.0
118.180412	176.0
118.457573	184.0
119.414742	164.0
119.768066	108.0
121.375816	164.0
121.942192	236.0
122.441612	140.0
122.603767	128.0
122.915382	236.0
124.933983	168.0
125.01577	2408.0
125.629028	196.0
126.017494	360.0
126.365761	120.0
126.444595	160.0
126.780525	180.0
127.013481	592.0
127.606552	192.0
128.010635	192.0
128.230087	232.0
128.92067	204.0
129.259872	156.0
129.549667	164.0
129.921463	196.0
130.032639	192.0
130.338547	136.0
131.050385	448.0
132.092422	148.0
132.914902	184.0
133.30986	172.0
134.703766	172.0
136.077057	200.0
136.409271	140.0
136.839645	140.0
137.163467	148.0
137.903366	164.0
138.464874	144.0
138.600754	160.0
138.694489	164.0
138.807022	172.0
139.198059	212.0
139.800674	148.0
141.549881	180.0
143.097992	160.0
145.397537	148.0
146.742188	172.0
148.864227	184.0
149.993118	148.0
150.559158	232.0
151.361252	172.0
153.053055	152.0
153.072754	176.0
153.237778	180.0
153.274734	228.0
153.368393	140.0
155.94426	164.0
156.375259	140.0
156.457413	180.0
156.636703	180.0
157.599686	140.0
158.152344	168.0
158.723541	172.0
158.818832	160.0
159.055786	5020.0
159.112442	200.0
160.061798	668.0
160.529007	140.0
161.079514	164.0
161.62529	160.0
162.618683	180.0
163.719528	140.0
164.428421	116.0
164.944183	168.0
164.977417	148.0
165.020874	176.0
165.629944	148.0
166.389008	192.0
167.02887	244.0
167.275894	176.0
168.746384	124.0
169.067123	152.0
169.258377	172.0
169.763977	176.0
171.018814	140.0
171.385315	136.0
171.49025	172.0
172.388321	168.0
172.994797	148.0
173.358307	196.0
174.106506	140.0
174.582169	188.0
175.166473	164.0
175.780762	148.0
176.692322	148.0
177.089081	180.0
177.529434	96.0
177.659286	148.0
179.265198	176.0
179.363449	148.0
179.467789	160.0
179.622467	168.0
179.710495	140.0
180.423584	168.0
180.996216	164.0
181.811066	168.0
182.071472	140.0
182.388504	212.0
183.053024	148.0
183.405945	228.0
183.435608	148.0
183.853653	224.0
184.212753	180.0
184.25058	228.0
184.458664	148.0
184.631699	148.0
184.726364	196.0
184.831879	152.0
185.074921	208.0
185.10257	152.0
185.210892	200.0
185.37886	156.0
186.021652	140.0
186.21225	164.0
186.244324	168.0
186.420914	144.0
186.619339	208.0
186.768906	172.0
186.89801	184.0
187.490402	160.0
187.632141	148.0
187.96489	152.0
188.265167	144.0
188.666824	228.0
188.825638	100.0
188.929352	148.0
189.934677	176.0
190.280457	164.0
191.67218	156.0
191.796204	156.0
192.485901	156.0
192.751083	172.0
193.293045	204.0
194.04921	148.0
194.271072	176.0
194.739166	112.0
194.871017	156.0
195.62439	144.0
195.788666	212.0
196.147766	140.0
196.340469	184.0
196.650345	172.0
197.075699	212.0
197.24707	164.0
197.41983	128.0
198.074921	164.0
199.119537	160.0
200.019257	176.0
200.072754	172.0
200.092453	152.0
200.57135	184.0
200.822296	160.0
200.923843	152.0
201.30629	184.0
201.502594	156.0
202.78447	184.0
202.842484	128.0
203.079025	188.0
203.201309	140.0
203.681061	144.0
203.982269	168.0
204.07608	172.0
204.716309	300.0
205.985489	152.0
207.021042	116.0
207.416214	228.0
208.282776	232.0
208.630478	152.0
208.983383	152.0
209.459229	172.0
210.70256	180.0
210.725677	148.0
211.04071	140.0
211.086975	168.0
211.115891	204.0
211.655029	104.0
212.779831	200.0
213.997269	176.0
214.13208	176.0
214.306	148.0
214.614944	180.0
214.781174	140.0
214.843643	136.0
215.014587	192.0
215.125504	180.0
215.296539	116.0
215.717422	128.0
215.75943	140.0
216.811752	148.0
217.361542	156.0
217.464249	240.0
217.555252	164.0
218.28978	152.0
218.339767	156.0
218.495667	164.0
219.069031	344.0
219.110962	180.0
219.162827	116.0
219.37619	168.0
219.508865	164.0
219.843338	140.0
220.068954	252.0
220.358932	192.0
220.610138	144.0
220.965027	172.0
221.080948	140.0
221.207687	140.0
221.31723	232.0
222.136841	144.0
222.562546	180.0
222.725891	164.0
223.528595	160.0
224.120346	260.0
224.308884	204.0
224.893509	164.0
224.953217	220.0
225.138336	212.0
225.238785	132.0
225.278702	176.0
226.032013	104.0
227.055573	404.0
227.338638	140.0
227.455688	188.0
227.52774	140.0
227.94223	176.0
228.060974	160.0
228.609802	268.0
229.300873	128.0
229.950882	188.0
232.070328	152.0
232.180603	180.0
232.520386	220.0
232.653946	148.0
233.507782	140.0
233.702469	148.0
234.356781	156.0
234.421082	184.0
236.499405	108.0
236.623322	144.0
236.92038	140.0
237.134872	140.0
237.23909	140.0
237.315735	152.0
237.924942	116.0
238.041626	152.0
238.537598	140.0
238.98967	196.0
239.302582	204.0
239.454498	140.0
240.052368	148.0
241.045242	224.0
241.417282	144.0
242.044891	112.0
242.42337	192.0
243.804321	144.0
243.847824	140.0
244.295578	164.0
245.058319	152.0
246.825455	152.0
247.106461	224.0
248.321869	152.0
249.059448	232.0
249.452225	140.0
249.939697	216.0
250.200928	160.0
252.267242	140.0
252.355759	232.0
252.694183	172.0
252.833405	172.0
253.426636	176.0
253.59848	176.0
254.036972	580.0
255.053177	364.0
255.272919	148.0
255.546463	156.0
255.638733	168.0
256.05246	340.0
257.050415	252.0
257.079132	160.0
257.522888	160.0
257.569885	200.0
258.05899	120.0
258.251617	196.0
258.385956	156.0
259.056396	256.0
259.253052	180.0
259.338287	204.0
259.378693	144.0
259.907837	184.0
262.687531	140.0
263.90506	148.0
264.267303	168.0
264.383789	168.0
265.041077	192.0
265.161041	140.0
265.264771	176.0
265.462524	144.0
265.793396	196.0
266.208893	156.0
267.395996	128.0
267.890411	200.0
268.017487	156.0
268.135498	184.0
268.555359	196.0
269.08728	140.0
269.129425	192.0
270.054535	156.0
270.077423	172.0
270.388489	164.0
270.426849	156.0
270.506073	168.0
270.659943	180.0
270.803925	96.0
270.908875	140.0
271.063965	20192.0
271.129974	108.0
271.181488	160.0
271.616913	176.0
271.823608	140.0
272.008575	180.0
272.066711	2264.0
272.611694	148.0
272.802246	152.0
273.016052	168.0
273.061768	6252.0
273.275909	184.0
273.614899	140.0
274.06311	856.0
274.114075	160.0
274.868103	112.0
275.293182	156.0
276.126007	152.0
276.397247	140.0
276.589203	144.0
276.729095	140.0
276.797791	244.0
277.397461	192.0
277.516785	184.0
278.097321	192.0
278.13385	152.0
278.990875	176.0
279.210327	156.0
279.455444	156.0
280.092804	136.0
280.912323	140.0
281.222656	220.0
281.256927	160.0
281.633331	168.0
281.763611	168.0
282.065125	328.0
282.295044	148.0
282.321808	220.0
282.392029	188.0
282.485687	180.0
282.686432	192.0
283.063812	10704.0
283.162659	164.0
283.457672	152.0
283.671875	124.0
283.771667	220.0
283.97287	176.0
284.066345	2128.0
284.480377	132.0
284.959778	148.0
285.061859	3836.0
285.211823	148.0
285.329468	140.0
285.379578	116.0
285.735016	124.0
285.874176	128.0
285.958496	200.0
286.06424	824.0
286.217285	156.0
286.254761	156.0
286.386108	152.0
286.589417	168.0
287.192566	164.0
287.552673	192.0
288.735138	144.0
289.43222	192.0
290.480927	128.0
290.806427	144.0
290.985107	140.0
291.012268	148.0
291.623718	164.0
292.130371	176.0
292.163971	132.0
292.463837	164.0
293.165405	144.0
293.196075	160.0
293.26767	192.0
293.584717	156.0
293.646118	240.0
294.035034	160.0
294.345703	140.0
294.434479	176.0
294.496613	192.0
295.093964	196.0
295.37439	140.0
295.641266	204.0
295.93222	164.0
296.106842	252.0
296.514557	152.0
296.620819	144.0
297.078644	764.0
297.612274	164.0
298.082855	152.0
298.337189	152.0
298.388763	164.0
298.729218	164.0
298.767059	152.0
299.072876	300.0
299.768982	152.0
300.565521	212.0
301.211487	108.0
301.459869	148.0
301.560089	168.0
301.83667	160.0
301.992279	192.0
303.030792	176.0
304.07074	128.0
304.237671	192.0
304.546722	232.0
304.753967	128.0
304.848969	168.0
305.697479	148.0
305.926239	120.0
305.959198	164.0
306.338104	140.0
306.961945	164.0
307.537598	228.0
308.016235	144.0
308.06485	160.0
308.187469	124.0
308.466705	140.0
308.659973	100.0
309.079529	1856.0
309.223175	148.0
309.941803	156.0
310.079742	436.0
310.140106	168.0
310.371246	208.0
310.964081	152.0
311.076385	404.0
311.329224	156.0
312.007355	140.0
312.08136	232.0
312.153168	116.0
313.529266	156.0
314.953308	176.0
315.3172	200.0
315.546967	160.0
315.702545	144.0
315.893555	144.0
316.020905	164.0
316.095215	216.0
316.417297	160.0
316.738617	144.0
317.756958	144.0
317.945038	188.0
318.415009	156.0
318.587708	148.0
318.640228	132.0
318.914612	160.0
320.434082	188.0
320.459045	172.0
321.246918	168.0
321.629578	136.0
321.925049	144.0
322.578888	204.0
322.859894	128.0
323.094727	304.0
323.405151	148.0
323.774719	340.0
324.10257	172.0
324.53717	168.0
324.759521	140.0
326.127472	152.0
326.587708	252.0
326.940308	140.0
327.512756	160.0
327.743317	168.0
328.132568	168.0
328.568939	160.0
328.619446	144.0
329.426636	96.0
329.558197	188.0
330.766083	164.0
331.182922	100.0
331.240417	148.0
331.802124	164.0
332.288116	160.0
332.600189	176.0
333.104919	148.0
333.453735	176.0
333.712708	148.0
333.853638	156.0
333.943665	180.0
334.141968	164.0
336.22525	244.0
336.772888	156.0
337.22229	196.0
338.28302	100.0
338.792053	188.0
339.124756	1144.0
339.44812	192.0
339.668152	148.0
340.128754	296.0
340.607849	160.0
341.074493	172.0
341.127106	364.0
342.131104	304.0
342.162048	120.0
343.276123	148.0
343.545349	224.0
344.217072	228.0
345.262878	168.0
345.288757	172.0
346.34729	140.0
346.380646	140.0
346.741669	184.0
347.084778	152.0
347.233124	156.0
347.485352	176.0
348.502655	160.0
348.73233	164.0
349.110748	108.0
351.054413	112.0
351.127197	3700.0
351.989044	172.0
352.129272	1292.0
352.624115	168.0
352.715485	124.0
352.810181	124.0
352.89328	172.0
353.123383	812.0
353.208557	236.0
353.349548	208.0
354.128662	216.0
354.294678	132.0
354.555267	192.0
355.419067	192.0
355.71048	140.0
355.988312	152.0
356.762299	164.0
357.322662	160.0
357.356506	140.0
357.721558	172.0
358.011475	144.0
358.561493	168.0
358.610504	160.0
358.957336	140.0
359.225098	152.0
359.659027	152.0
359.927094	184.0
360.108337	156.0
360.229218	168.0
360.312317	156.0
360.618408	208.0
360.852783	160.0
361.624451	188.0
362.309845	172.0
362.446228	140.0
362.515961	108.0
362.980682	140.0
363.667358	180.0
364.096375	188.0
364.483826	164.0
365.09967	148.0
365.400146	148.0
365.836121	180.0
365.971039	200.0
366.163422	116.0
367.262939	160.0
367.579559	236.0
367.797119	184.0
368.156006	140.0
369.115143	140.0
369.608582	148.0
369.738678	144.0
370.561951	152.0
370.588776	152.0
371.327911	200.0
371.442963	108.0
371.838867	140.0
372.030792	144.0
372.160339	188.0
372.470612	188.0
372.791656	200.0
373.452545	168.0
375.844849	212.0
376.15744	236.0
377.043091	148.0
377.106476	172.0
377.335571	220.0
377.464996	128.0
377.613434	136.0
378.320007	140.0
378.477081	188.0
378.592102	136.0
378.721069	236.0
378.848663	140.0
378.949615	172.0
378.982666	128.0
379.138092	140.0
379.326813	120.0
379.370697	220.0
379.42691	232.0
379.498322	208.0
379.523468	340.0
379.56723	116.0
379.612	188.0
379.730835	112.0
379.7789	152.0
379.855408	112.0
379.887146	120.0
379.928528	136.0
380.039276	148.0
380.084595	188.0
380.151154	440.0
380.20694	112.0
380.265686	232.0
380.3396	224.0
380.376343	264.0
380.458496	132.0
380.525543	192.0
380.594849	232.0
380.746674	256.0
380.770935	308.0
380.836151	224.0
380.944336	208.0
381.00882	260.0
381.044098	432.0
381.073517	468.0
381.112671	116.0
381.150513	384.0
381.181366	408.0
381.215393	144.0
381.26712	392.0
381.306915	180.0
381.351257	200.0
381.408508	320.0
381.454529	104.0
381.492981	240.0
381.537689	272.0
381.616089	340.0
381.668365	428.0
381.694611	528.0
381.733398	280.0
381.793121	336.0
381.838348	188.0
381.902466	316.0
381.954071	356.0
382.030426	460.0
382.09436	1092.0
382.171387	237704.0
382.312317	300.0
382.398773	108.0
382.44455	304.0
382.53598	576.0
382.59375	740.0
382.638763	224.0
382.65036	276.0
382.727905	148.0
382.764679	584.0
382.813293	11120.0
382.859528	924.0
382.921967	180.0
382.979431	412.0
383.027802	116.0
383.073853	220.0
383.17334	149040.0
383.292023	248.0
383.332336	192.0
383.384674	136.0
383.436035	268.0
383.4617	236.0
383.511017	256.0
383.552643	216.0
383.703735	288.0
383.748474	416.0
383.815216	924.0
383.955872	156.0
384.027374	156.0
384.096039	476.0
384.167938	172884.0
384.307831	112.0
384.360687	312.0
384.430603	436.0
384.515198	256.0
384.562134	208.0
384.609253	160.0
384.738678	224.0
384.809082	956.0
384.863678	384.0
384.936005	312.0
384.976929	348.0
385.00592	312.0
385.022736	248.0
385.033752	244.0
385.052338	180.0
385.062866	268.0
385.104614	148.0
385.168976	34708.0
385.259521	304.0
385.288727	276.0
385.357056	272.0
385.407257	376.0
385.472076	252.0
385.57132	124.0
385.617767	172.0
385.647583	160.0
385.67923	344.0
385.729431	272.0
385.835846	204.0
385.877441	300.0
386.001678	176.0
386.047302	212.0
386.176483	848.0
386.302063	216.0
386.423035	104.0
386.477081	352.0
386.537903	104.0
386.628479	172.0
386.670563	164.0
386.683502	228.0
386.855774	124.0
386.931885	144.0
387.001099	104.0
387.068756	152.0
387.270538	160.0
387.330902	260.0
387.371735	108.0
387.523071	156.0
387.618622	164.0
387.685059	432.0
387.73233	124.0
387.788513	188.0
387.850342	200.0
388.190094	128.0
388.512543	184.0
388.561798	268.0
389.045715	108.0
389.300873	156.0
393.43811	96.0
394.408569	124.0
395.437683	100.0
395.98056	96.0
396.545532	104.0
397.188934	128.0
397.33844	148.0
397.625977	100.0
397.692719	168.0
398.358612	216.0
398.586639	128.0
400.103241	168.0
402.945374	108.0
403.301666	96.0
406.899261	96.0
408.32428	148.0
409.159271	104.0
415.039001	140.0
426.337219	124.0
449.877472	168.0
521.231995	192.0
522.327637	144.0
526.781189	152.0
529.287415	148.0
536.083923	96.0
555.312317	132.0
559.765259	152.0
575.450623	148.0
599.536133	140.0
633.277649	152.0
653.734924	144.0
660.390442	100.0
745.435974	148.0
927.663757	168.0
930.922424	184.0
1210.560547	156.0
1215.710205	136.0
1216.377441	168.0
1250.213135	176.0
1276.74231	192.0
1294.969971	172.0
1300.397339	220.0
1356.226807	152.0
1366.095703	148.0
1383.778076	168.0
1384.985229	148.0
1392.483765	184.0
1392.647095	144.0
1403.713501	192.0
1412.331909	160.0
1415.302979	156.0
1476.594238	148.0
1477.695801	176.0
1482.565674	148.0
1484.014404	172.0
1484.367188	156.0
1484.949951	172.0
1486.154419	160.0
1488.579956	176.0
1518.399292	144.0
1519.151611	144.0
1521.425415	188.0
1525.115112	176.0
1534.316162	188.0
1539.044189	212.0
1547.637207	152.0
1552.919067	164.0
1556.953003	172.0
1557.919067	148.0
1561.267456	196.0
1573.093994	188.0
1579.795166	140.0
1582.351318	184.0
1583.380737	188.0
1588.842041	180.0
1590.087891	156.0
1596.530884	164.0
1611.7323	180.0
1612.683228	180.0
1613.138916	156.0
1618.947632	140.0
1621.326904	224.0
1621.920654	216.0
1632.429199	140.0
1635.124268	184.0
1638.771973	160.0
1640.061401	204.0
1641.109375	164.0
1647.929565	172.0
1654.595459	184.0
1655.476318	144.0
1659.544067	196.0
1662.050293	168.0
1670.288086	252.0
1683.777222	192.0
1689.220825	176.0
1692.265259	148.0
1697.058228	152.0
1697.632202	172.0
1712.071045	144.0
1725.7771	188.0
1728.879028	168.0
1729.739746	144.0
1737.695435	156.0
1738.292847	164.0
1762.173218	164.0
1768.536987	160.0
1773.495483	216.0
1775.004517	140.0
1781.626587	260.0
1786.208008	196.0
1786.90625	196.0
1793.938354	144.0
1794.056396	164.0
1797.556519	144.0
1803.99231	204.0
1804.753174	140.0
1805.962524	160.0
1809.474243	228.0
1814.752686	176.0
1815.558228	256.0
1818.332397	268.0
1823.89563	140.0
1826.352905	144.0
1829.543945	256.0
1831.545044	236.0
1831.613159	200.0
1841.661011	148.0
1857.050171	152.0
1858.457031	160.0
1860.585571	156.0
1862.695312	192.0
1863.711792	160.0
1870.437012	172.0
1870.944824	228.0
1872.684204	156.0
1876.303345	180.0
1883.111694	140.0
1883.921753	216.0
1884.165527	176.0
1886.213623	180.0
1895.447998	224.0
1895.846558	192.0
1897.493408	160.0
1897.66687	164.0
1898.577271	148.0
1903.393433	152.0
1906.685791	168.0
1909.815796	156.0
1912.661011	148.0
1919.142456	148.0
1921.061157	140.0
1925.442871	184.0
1925.888306	152.0
1930.231689	144.0
1932.287109	188.0
1932.724609	192.0
1933.77478	140.0
1944.098633	164.0
1944.748047	204.0
1952.49707	200.0
1953.25354	144.0
1957.847778	184.0
1962.147827	172.0
1967.175293	144.0
1970.576294	160.0
1973.6521	144.0
1975.5802	172.0
1979.031738	168.0
1979.403564	140.0
1983.567627	212.0
1987.522949	160.0
1993.534546	140.0
1995.490112	140.0
2001.121948	140.0
2002.626831	168.0
END IONS

BEGIN IONS
PEPMASS=237.161
CHARGE=1
MSLEVEL=2
SOURCE_INSTRUMENT=LC-ESI-qTof
FILENAME=NCP003017_A2_B11_BA6_01_15701.mzXML
SEQ=*..*
IONMODE=Positive
ORGANISM=GNPS-NIH-CLINICALCOLLECTION2
NAME=Procaine (Novocaine) aka 2-(diethylamino)ethyl 4-aminobenzoate M+H
PI=Dorrestein
DATACOLLECTOR=Garg_Neha
SMILES=CCN(CC)CCOC(=O)c1ccc(N)cc1
INCHI= 
INCHIAUX=N/A
PUBMED=N/A
SUBMITUSER=negarg
LIBRARYQUALITY=1
SPECTRUMID=CCMSLIB00000077021
USI=mzspec:GNPS:GNPS-NIH-CLINICALCOLLECTION2:accession:CCMSLIB00000077021
SCANS=992
45.134243	148.0
45.249313	156.0
45.335041	228.0
45.375252	228.0
45.925262	224.0
46.094021	196.0
46.63884	184.0
46.911087	184.0
46.97245	144.0
47.169086	232.0
47.636372	152.0
47.688587	168.0
47.973526	224.0
48.613926	188.0
48.790329	200.0
48.833435	184.0
49.008842	148.0
49.402557	156.0
49.921524	160.0
50.362659	248.0
50.458752	152.0
50.608727	212.0
51.215935	248.0
51.396187	164.0
51.454708	228.0
51.723465	204.0
51.938404	144.0
52.034554	240.0
52.057526	140.0
52.38546	180.0
52.486347	252.0
53.054562	188.0
53.103863	156.0
53.821953	148.0
53.960125	140.0
54.046421	152.0
54.815128	188.0
54.989891	160.0
55.255878	220.0
55.497299	144.0
55.577396	208.0
55.629341	184.0
55.844799	176.0
55.905579	136.0
55.972935	180.0
56.045895	152.0
56.380039	256.0
56.57053	372.0
57.403877	184.0
57.518539	228.0
57.645409	232.0
57.914707	192.0
57.993496	140.0
58.216518	148.0
58.269684	164.0
58.47345	156.0
58.680618	156.0
58.796551	164.0
58.973717	144.0
60.17812	164.0
60.267704	184.0
60.434692	180.0
61.646034	168.0
61.725758	168.0
62.009113	152.0
62.486488	152.0
62.547863	228.0
63.802349	168.0
63.94392	140.0
64.524559	232.0
65.001877	228.0
65.111038	144.0
65.471283	220.0
65.596962	200.0
65.827682	228.0
66.423782	168.0
66.528763	200.0
67.455688	144.0
67.511284	144.0
67.823997	208.0
67.904335	140.0
68.293602	156.0
68.431831	248.0
68.669128	184.0
68.877098	208.0
68.92997	180.0
69.047585	136.0
69.330711	124.0
69.682373	180.0
70.365082	184.0
70.563896	164.0
70.592323	180.0
71.906082	376.0
72.019203	172.0
72.18483	192.0
72.42556	116.0
72.796921	196.0
73.223442	188.0
73.247284	152.0
73.475723	172.0
73.95591	148.0
74.072342	244.0
74.576813	144.0
75.73632	152.0
75.946053	144.0
76.310738	164.0
76.331604	176.0
76.460335	156.0
76.542152	164.0
76.564796	140.0
76.624016	172.0
77.208778	164.0
77.222771	228.0
77.469582	188.0
77.60453	160.0
79.07901	176.0
79.125038	228.0
79.160454	156.0
79.241928	140.0
79.440491	220.0
79.632195	160.0
79.82235	196.0
80.294273	152.0
80.444153	188.0
80.599442	152.0
80.725685	224.0
81.019997	152.0
81.308685	148.0
81.355354	156.0
81.432564	180.0
81.903816	204.0
82.040771	160.0
82.42926	212.0
82.767075	164.0
83.102402	172.0
83.24398	168.0
83.942764	188.0
84.507179	164.0
84.763527	172.0
84.937698	152.0
84.968887	216.0
85.2976	220.0
86.311607	256.0
86.489212	156.0
86.52253	164.0
87.432068	216.0
87.532593	208.0
87.834518	152.0
88.151909	160.0
88.546646	200.0
88.612206	200.0
89.14698	160.0
90.032402	160.0
90.062614	164.0
90.730614	180.0
90.897522	152.0
91.18428	248.0
91.907928	140.0
92.048645	852.0
92.255524	184.0
92.828011	148.0
93.042908	168.0
94.844887	180.0
95.110413	156.0
95.816322	148.0
96.114632	156.0
97.328224	144.0
97.524681	216.0
97.681984	212.0
98.097488	140.0
98.117203	228.0
98.239471	196.0
98.644295	156.0
98.909653	136.0
99.089577	156.0
99.46637	168.0
99.818291	148.0
99.900162	188.0
99.961243	148.0
99.991096	228.0
100.033257	132.0
100.11277	49316.0
100.188591	240.0
100.254181	220.0
100.314056	112.0
100.437645	168.0
100.780777	168.0
100.858002	100.0
100.888702	180.0
100.939621	168.0
100.986687	176.0
101.114937	2360.0
101.616371	96.0
101.66185	180.0
101.705185	176.0
102.043495	188.0
102.659653	160.0
102.772614	208.0
103.64814	152.0
104.957184	164.0
105.471657	144.0
106.325745	232.0
107.074097	172.0
108.040115	288.0
108.182907	148.0
108.247093	120.0
108.263657	168.0
108.657494	152.0
108.813148	188.0
109.137276	188.0
109.297432	160.0
109.345299	168.0
109.955956	172.0
110.065216	164.0
110.838448	188.0
111.083748	192.0
111.220139	188.0
111.509987	168.0
112.143509	164.0
112.185669	180.0
113.022026	144.0
113.736229	140.0
116.460808	184.0
116.772461	184.0
116.976875	152.0
118.123199	820.0
118.232155	152.0
119.024307	220.0
119.328499	228.0
119.44593	176.0
119.599106	208.0
119.885345	156.0
119.913673	200.0
119.96579	248.0
120.008987	284.0
120.045013	89384.0
120.161598	156.0
120.199951	136.0
120.285225	124.0
120.304352	248.0
120.561234	112.0
120.686852	176.0
120.894043	156.0
120.982399	232.0
121.048157	3640.0
121.778763	140.0
121.884239	180.0
121.942474	212.0
122.047997	540.0
122.104225	152.0
123.05542	156.0
123.114227	164.0
123.375763	176.0
127.162636	184.0
128.174622	184.0
128.278305	164.0
128.898956	220.0
129.47583	192.0
129.546036	156.0
129.706924	228.0
130.072128	144.0
130.299225	140.0
130.522934	168.0
131.321304	196.0
131.570038	164.0
131.720749	140.0
131.860138	144.0
133.101776	152.0
134.483078	204.0
136.140747	144.0
136.712631	148.0
138.510422	248.0
139.228119	188.0
139.738205	216.0
140.492111	204.0
140.659653	144.0
142.026031	168.0
142.409485	224.0
144.967026	144.0
145.487503	200.0
145.617172	188.0
146.273575	140.0
147.69928	124.0
148.392273	168.0
149.777466	148.0
150.540848	168.0
155.380127	228.0
155.951279	148.0
156.088013	160.0
157.690994	224.0
158.093643	212.0
159.10878	164.0
161.232208	176.0
161.707687	288.0
161.844391	252.0
162.303009	140.0
163.036636	268.0
163.056961	188.0
163.089035	320.0
163.163727	156.0
163.214569	180.0
163.316986	184.0
163.802475	204.0
163.922226	168.0
163.950089	196.0
163.991653	180.0
164.012222	448.0
164.041397	168.0
164.071121	74368.0
164.817871	160.0
164.90657	136.0
165.073181	5948.0
166.075592	752.0
166.508316	136.0
166.595947	152.0
167.233643	196.0
173.680328	148.0
177.910416	260.0
183.917526	208.0
186.953033	160.0
190.227448	148.0
192.918854	168.0
194.967194	160.0
195.9505	188.0
197.977341	204.0
200.742584	156.0
201.925873	164.0
203.169388	188.0
204.496399	168.0
208.420013	144.0
209.418259	184.0
209.545013	184.0
209.859161	168.0
210.439102	164.0
211.245407	152.0
213.91806	200.0
213.953629	128.0
217.833496	136.0
222.113907	144.0
224.705032	144.0
227.30217	148.0
228.137131	204.0
228.979645	164.0
230.454758	156.0
234.948181	140.0
235.167892	156.0
236.173218	256.0
236.264893	144.0
236.650528	180.0
236.94516	144.0
237.065155	484.0
237.099823	128.0
237.161041	113452.0
237.243515	188.0
237.425217	196.0
237.454178	100.0
237.478348	144.0
237.664505	680.0
238.162994	12936.0
238.285263	172.0
238.42543	108.0
239.166153	1668.0
239.207855	152.0
239.435699	152.0
239.860565	188.0
239.929688	140.0
239.987503	124.0
240.017441	108.0
240.194763	220.0
240.693893	148.0
242.131866	160.0
426.032318	204.0
1135.700684	156.0
1137.666748	200.0
1216.893066	164.0
1219.074219	208.0
1245.174683	216.0
1249.856567	152.0
1262.582397	216.0
1273.838013	220.0
1280.944336	164.0
1309.560303	176.0
1313.53186	140.0
1324.722046	256.0
1332.862305	252.0
1343.733032	144.0
1356.677734	184.0
1384.26355	180.0
1404.545776	196.0
1411.244629	156.0
1425.058228	152.0
1438.674805	276.0
1438.969238	216.0
1440.321045	180.0
1442.368774	140.0
1443.84314	164.0
1444.349854	200.0
1450.422607	212.0
1451.173218	168.0
1451.901123	160.0
1456.477783	176.0
1464.464355	144.0
1470.937866	224.0
1479.262451	164.0
1483.284058	168.0
1490.774902	200.0
1500.326782	232.0
1501.498901	140.0
1505.24939	172.0
1510.968994	144.0
1517.079346	164.0
1525.401123	148.0
1528.34082	168.0
1536.381348	164.0
1537.668823	196.0
1542.660034	172.0
1543.96582	164.0
1549.546875	176.0
1549.77417	228.0
1558.734985	184.0
1559.693726	156.0
1567.201538	148.0
1574.687866	168.0
1579.920654	160.0
1580.427002	172.0
1582.112793	164.0
1582.381958	152.0
1593.978271	176.0
1604.36499	208.0
1605.792236	168.0
1616.769531	192.0
1621.045898	168.0
1622.288208	144.0
1623.234253	140.0
1623.32251	172.0
1629.254028	188.0
1631.72937	160.0
1631.954468	164.0
1635.123901	192.0
1639.343872	220.0
1639.537231	184.0
1640.077271	204.0
1656.520996	176.0
1660.452148	148.0
1665.492432	156.0
1665.622437	140.0
1666.8573	180.0
1671.118042	176.0
1675.31897	204.0
1676.834595	208.0
1679.639404	200.0
1683.86731	152.0
1684.300293	156.0
1684.765869	204.0
1688.525879	144.0
1690.301147	192.0
1692.273682	168.0
1693.39563	212.0
1696.845459	232.0
1700.815918	176.0
1707.512207	196.0
1711.091797	180.0
1718.014404	220.0
1721.167236	192.0
1723.744507	232.0
1727.547729	148.0
1727.663574	152.0
1731.611938	144.0
1732.854492	152.0
1733.368164	152.0
1737.281616	160.0
1737.546997	144.0
1738.625732	168.0
1739.646606	168.0
1741.614624	160.0
1745.612183	148.0
1746.717163	144.0
1759.994507	168.0
1762.62561	164.0
1767.391846	148.0
1770.927612	200.0
1775.341309	160.0
1776.708496	152.0
1778.932373	172.0
1782.149048	184.0
1783.863525	196.0
1784.863892	188.0
1786.268433	144.0
1795.255249	200.0
1799.955566	144.0
1801.078735	196.0
1806.361816	164.0
1811.051147	212.0
1811.610229	196.0
1818.716187	140.0
1819.599121	164.0
1826.082764	232.0
1828.575562	144.0
1830.601807	148.0
1831.725952	148.0
1831.862305	220.0
1835.723267	164.0
1836.047363	256.0
1836.32019	168.0
1836.814941	180.0
1853.1521	236.0
1860.527954	204.0
1863.946289	160.0
1864.831421	168.0
1868.959351	168.0
1882.18689	184.0
1885.715088	148.0
1887.011719	256.0
1887.452637	180.0
1890.333252	144.0
1891.172729	232.0
1896.53418	172.0
1896.880859	248.0
1903.066528	144.0
1907.219116	160.0
1909.227417	180.0
1911.671997	152.0
1914.666748	220.0
1915.023804	152.0
1915.833862	184.0
1916.042969	196.0
1916.208496	216.0
1917.472046	160.0
1919.869507	188.0
1925.961426	148.0
1927.263184	164.0
1929.867798	284.0
1931.608154	148.0
1941.917603	224.0
1943.707275	148.0
1945.74353	192.0
1947.842407	156.0
1949.300781	144.0
1950.689453	172.0
1955.307251	184.0
1965.079712	196.0
1965.141479	148.0
1966.041504	152.0
1970.968994	140.0
1974.018555	180.0
1975.911499	176.0
1977.017456	216.0
1978.531128	152.0
1978.911743	164.0
1981.68396	188.0
1981.763794	148.0
1992.53479	200.0
1999.025513	232.0
1999.630737	192.0
2001.651611	148.0
2003.42395	184.0
END IONS

BEGIN IONS
PEPMASS=585.291
CHARGE=1
MSLEVEL=2
SOURCE_INSTRUMENT=LC-ESI-qTof
FILENAME=p1-H07_GH7_01_17963.mzXML
SEQ=*..*
IONMODE=Positive
ORGANISM=GNPS-NIH-NATURALPRODUCTSLIBRARY
NAME=MLS002702983-01! M+H
PI=Dorrestein
DATACOLLECTOR=VVP/LMS
SMILES=CC1OC(OC2CC(O)C3(CO)C4C(O)CC5(C)C(CCC5(O)C4CCC3(O)C2)C6=CC(=O)OC6)C(O)C(O)C1O
INCHI=N/A
INCHIAUX=N/A
PUBMED=N/A
SUBMITUSER=vphelan
LIBRARYQUALITY=1
SPECTRUMID=CCMSLIB00000079543
USI=mzspec:GNPS:GNPS-NIH-NATURALPRODUCTSLIBRARY:accession:CCMSLIB00000079543
SCANS=1322
94.988625	148.0
95.056526	228.0
95.083694	200.0
95.66877	148.0
95.818726	144.0
97.06575	140.0
97.259094	160.0
97.45047	156.0
97.69622	104.0
98.336632	188.0
99.528381	136.0
100.081154	164.0
100.891182	172.0
100.959167	168.0
101.057182	132.0
101.311447	176.0
101.519897	48.0
101.608116	188.0
101.971611	144.0
102.767052	152.0
103.056007	212.0
103.467201	160.0
104.036018	164.0
104.186302	128.0
104.837418	208.0
105.066643	220.0
105.280106	224.0
105.308693	76.0
105.402672	116.0
106.981941	184.0
107.084076	156.0
107.559135	212.0
107.585976	156.0
107.959961	184.0
109.050476	240.0
109.064583	516.0
109.41243	240.0
110.100525	200.0
110.144386	36.0
110.644859	200.0
110.702812	180.0
110.791718	332.0
111.042526	492.0
111.080078	156.0
111.283646	80.0
111.661896	120.0
112.125076	144.0
112.627228	148.0
113.454636	116.0
113.518448	208.0
113.683708	136.0
114.49794	92.0
114.61084	48.0
115.051369	184.0
115.169785	168.0
115.404854	136.0
115.7258	104.0
115.777191	172.0
116.51722	176.0
117.068962	628.0
118.075554	176.0
118.333206	268.0
119.044418	176.0
119.08606	348.0
119.400826	160.0
119.535706	228.0
119.616234	248.0
119.825294	116.0
120.09343	176.0
120.554085	156.0
120.809906	172.0
121.059662	440.0
121.101036	148.0
121.33989	212.0
121.688736	68.0
121.728264	88.0
123.697128	152.0
124.084816	216.0
124.617485	124.0
124.659706	188.0
124.824203	188.0
124.875351	64.0
124.937637	152.0
125.060318	184.0
125.699638	148.0
126.237999	176.0
127.659752	124.0
127.86673	108.0
128.056808	196.0
128.211304	148.0
128.660172	116.0
128.74115	204.0
129.069107	1568.0
129.093994	104.0
129.112091	92.0
129.521759	196.0
129.743835	88.0
129.80278	164.0
130.07193	584.0
131.083801	1420.0
131.604935	48.0
131.986511	40.0
132.804092	92.0
133.018097	196.0
133.054214	228.0
133.079468	132.0
133.101715	504.0
133.681717	112.0
133.994858	104.0
134.100906	200.0
134.156189	196.0
134.68924	148.0
134.978134	136.0
135.042877	200.0
135.07991	376.0
135.116898	128.0
135.693588	144.0
135.872177	144.0
136.26918	240.0
136.783142	192.0
136.801758	140.0
137.056992	216.0
137.09523	188.0
137.256073	116.0
138.197403	48.0
139.073853	108.0
139.10907	196.0
139.156021	192.0
140.165085	64.0
140.389023	128.0
140.71701	128.0
140.91304	228.0
140.976837	144.0
141.069351	1260.0
141.97113	208.0
142.070755	164.0
142.089905	236.0
142.343704	120.0
142.367447	72.0
142.802368	60.0
143.084641	1528.0
143.230804	36.0
143.276062	44.0
143.836472	208.0
144.103943	164.0
144.831192	128.0
145.063965	188.0
145.099808	1004.0
145.17392	168.0
145.269852	36.0
145.633072	64.0
146.057755	124.0
146.098862	184.0
146.792328	152.0
147.00943	100.0
147.077118	496.0
147.118515	380.0
147.270172	184.0
148.07074	184.0
148.090118	136.0
148.264557	68.0
148.924484	116.0
149.058502	120.0
149.095749	180.0
149.639435	196.0
150.182861	80.0
151.030426	152.0
151.079346	132.0
151.196808	104.0
152.236252	176.0
152.393463	152.0
153.053833	444.0
153.284195	172.0
153.372925	36.0
153.821854	180.0
154.039169	108.0
154.076218	220.0
154.400024	144.0
154.954514	208.0
155.084427	836.0
155.14534	52.0
156.071411	176.0
156.087875	236.0
156.434647	160.0
156.686188	96.0
157.062897	200.0
157.100662	4820.0
157.234604	64.0
158.101837	764.0
158.174561	220.0
158.252167	92.0
158.994156	128.0
159.079147	916.0
159.117477	1104.0
159.20755	72.0
159.58699	32.0
159.639786	120.0
160.083755	304.0
160.120621	176.0
160.269089	124.0
161.05368	348.0
161.097733	200.0
161.604782	72.0
162.382477	116.0
163.075134	340.0
163.106003	176.0
163.744766	172.0
164.076019	188.0
164.4944	48.0
164.747208	128.0
165.043686	176.0
165.0905	408.0
165.168991	128.0
166.068054	172.0
166.365707	276.0
167.080399	700.0
167.226822	164.0
167.273148	68.0
167.878632	156.0
168.089767	180.0
168.410294	184.0
168.971237	148.0
169.002289	76.0
169.056625	160.0
169.100433	788.0
170.069992	176.0
170.102707	172.0
170.904205	56.0
171.07605	264.0
171.117188	312.0
171.750885	72.0
172.087524	108.0
173.031372	152.0
173.057556	132.0
173.094513	208.0
173.130875	172.0
173.57637	60.0
173.812439	100.0
174.098572	184.0
174.340271	56.0
175.075378	308.0
175.110733	308.0
176.523026	100.0
177.052292	224.0
177.092102	388.0
177.558487	84.0
178.092056	152.0
178.190262	96.0
178.31781	72.0
179.085327	364.0
179.21994	76.0
179.323868	104.0
179.9561	52.0
180.075073	352.0
180.428986	92.0
180.629562	188.0
180.854324	68.0
181.09642	268.0
182.106476	280.0
183.080048	212.0
183.115509	508.0
184.242599	188.0
184.73732	96.0
184.799545	104.0
184.8293	148.0
185.094925	184.0
185.127228	368.0
185.753159	128.0
186.095108	148.0
186.141266	152.0
186.807159	168.0
186.981293	160.0
187.077499	220.0
187.110886	884.0
187.269897	60.0
188.110916	176.0
188.131577	208.0
188.153412	176.0
188.54129	40.0
189.019852	228.0
189.090698	360.0
190.387772	88.0
191.08049	216.0
191.10556	304.0
191.281357	84.0
191.421768	92.0
191.711014	108.0
192.092926	160.0
192.251526	108.0
192.433716	112.0
192.513794	108.0
193.093613	308.0
194.041183	280.0
194.108002	180.0
194.565536	128.0
195.113846	300.0
195.215729	144.0
196.119659	348.0
196.170731	160.0
196.69516	160.0
197.095062	216.0
197.131073	276.0
197.421585	172.0
197.457947	112.0
198.10112	220.0
198.142014	168.0
199.115417	324.0
199.150818	112.0
200.149185	128.0
200.921448	44.0
201.093582	128.0
201.118988	328.0
201.794144	120.0
202.640411	164.0
203.042938	124.0
203.109955	224.0
204.031082	124.0
205.099991	484.0
205.120636	120.0
205.386581	168.0
205.614838	96.0
205.843216	132.0
206.10054	192.0
206.200317	56.0
207.104385	768.0
207.150269	224.0
207.241959	136.0
207.59166	32.0
207.829742	48.0
208.08519	128.0
208.108932	200.0
209.094528	148.0
209.130646	520.0
209.474228	44.0
210.140671	212.0
211.111984	320.0
211.14299	260.0
212.113861	128.0
212.173386	136.0
212.196579	64.0
212.42569	40.0
212.704254	76.0
213.081787	208.0
213.123199	140.0
214.872314	188.0
215.10083	300.0
215.137878	188.0
215.704605	148.0
216.485794	160.0
216.825638	168.0
217.094086	400.0
218.099442	104.0
218.590591	168.0
219.116226	276.0
219.813492	72.0
220.120499	160.0
220.888916	120.0
221.076218	584.0
221.128189	508.0
221.164108	176.0
221.19371	116.0
222.082901	168.0
222.106369	96.0
222.76535	172.0
223.102646	188.0
223.151703	132.0
224.101166	208.0
225.087326	188.0
225.12294	264.0
225.15715	56.0
225.707001	128.0
226.131805	28.0
226.239563	152.0
226.512085	192.0
227.10321	152.0
227.141281	152.0
227.168564	184.0
228.102478	196.0
228.13855	156.0
228.201675	156.0
228.52652	156.0
228.905777	196.0
229.017212	152.0
229.119247	156.0
229.130051	288.0
229.152771	184.0
230.105835	168.0
230.749374	168.0
230.891495	128.0
231.11232	320.0
232.117416	244.0
232.142227	68.0
232.221069	148.0
232.384888	84.0
232.515366	224.0
232.551788	108.0
232.837189	168.0
233.084961	192.0
233.125107	616.0
233.183533	36.0
233.514938	48.0
233.670074	84.0
233.740051	176.0
233.90744	148.0
234.099258	264.0
234.138733	232.0
234.684311	64.0
235.107727	184.0
235.140015	652.0
236.124466	132.0
236.149109	556.0
236.909271	172.0
237.093384	176.0
237.123428	440.0
237.157486	144.0
238.093246	92.0
238.176178	120.0
238.243759	192.0
238.670975	104.0
239.080093	164.0
239.110306	300.0
239.137665	412.0
240.031982	56.0
240.099823	72.0
240.121414	104.0
240.14418	148.0
240.383652	216.0
241.116089	328.0
241.879517	212.0
242.117767	160.0
243.119675	160.0
244.11824	324.0
245.125076	144.0
246.135803	564.0
246.241913	116.0
246.320007	204.0
247.147644	148.0
248.106888	132.0
248.157043	220.0
248.715454	240.0
248.762543	160.0
248.822189	192.0
249.107224	152.0
249.160324	444.0
250.022934	152.0
250.167725	108.0
251.108887	128.0
252.104355	136.0
252.145432	128.0
253.113586	192.0
253.153442	128.0
253.328827	68.0
254.105545	116.0
254.156311	52.0
254.197571	76.0
254.238815	52.0
254.619781	120.0
254.775436	56.0
255.126785	136.0
255.487549	88.0
256.098724	188.0
256.121033	132.0
257.108124	168.0
257.120178	168.0
257.129364	220.0
257.176422	200.0
258.133148	112.0
258.499542	172.0
259.148773	500.0
259.40274	72.0
259.793976	60.0
260.146179	144.0
261.084503	128.0
261.123779	136.0
261.164276	448.0
261.917419	148.0
262.126099	248.0
262.869904	32.0
263.095825	300.0
263.140411	128.0
263.171112	188.0
264.11673	164.0
264.129333	152.0
264.139343	148.0
264.181671	128.0
265.016968	52.0
265.11142	156.0
265.166016	128.0
266.009369	72.0
266.126251	128.0
267.147552	48.0
267.169525	124.0
267.465637	52.0
267.856384	112.0
268.123566	92.0
268.29306	52.0
268.834503	216.0
269.148438	120.0
269.869995	120.0
270.130859	96.0
270.153534	276.0
271.139984	124.0
271.799255	220.0
272.148712	152.0
273.106781	152.0
273.128235	140.0
273.160065	932.0
273.244934	36.0
273.788055	68.0
273.985687	60.0
274.162964	284.0
275.083862	152.0
275.106964	108.0
275.166382	124.0
275.285248	108.0
276.144531	164.0
276.174286	192.0
276.395935	92.0
276.925629	256.0
277.11322	152.0
277.157593	360.0
277.555298	136.0
277.707825	60.0
278.03299	44.0
278.166656	160.0
278.621277	140.0
279.136871	276.0
279.173798	236.0
280.183014	212.0
281.149933	436.0
281.98291	108.0
282.150055	204.0
282.200195	132.0
282.4711	108.0
282.819092	80.0
283.136292	232.0
283.144226	276.0
283.156403	196.0
283.168976	312.0
283.492279	84.0
283.871063	232.0
285.118713	192.0
285.158539	120.0
285.193848	184.0
285.745361	188.0
286.085266	168.0
286.137451	172.0
286.168671	264.0
287.092712	148.0
287.126434	124.0
287.173645	184.0
288.141632	176.0
288.182434	116.0
288.872681	148.0
289.150635	124.0
289.851166	152.0
290.135864	184.0
290.671753	88.0
291.045135	124.0
291.113068	200.0
291.141907	344.0
291.173096	672.0
291.204742	168.0
292.180328	188.0
292.784912	144.0
293.116669	120.0
293.149536	316.0
293.184265	248.0
293.859985	104.0
294.145874	136.0
295.116913	152.0
295.165649	208.0
295.205811	120.0
295.308411	160.0
296.165009	120.0
296.873535	148.0
297.127014	120.0
297.138306	108.0
297.148743	140.0
297.185699	132.0
297.752106	196.0
298.11969	168.0
298.938141	124.0
299.881775	60.0
301.157227	796.0
301.220581	96.0
301.313843	48.0
301.365662	76.0
301.448608	60.0
301.49353	84.0
301.649078	128.0
302.162506	192.0
303.172577	404.0
303.359131	40.0
304.073669	44.0
304.171509	148.0
304.858551	132.0
305.154297	212.0
305.867188	88.0
306.062134	136.0
306.149323	120.0
306.173584	140.0
307.128571	124.0
307.160522	244.0
307.460022	76.0
307.711334	152.0
308.130432	152.0
308.158386	128.0
308.207306	96.0
308.465942	84.0
308.62326	224.0
309.146545	264.0
309.183563	228.0
309.470001	72.0
309.697632	80.0
310.142609	112.0
310.191681	280.0
310.615997	32.0
311.19928	220.0
311.915222	180.0
312.003113	120.0
312.03476	36.0
312.171906	124.0
313.15921	508.0
313.678802	112.0
314.159058	228.0
315.171661	124.0
316.162964	148.0
317.142853	136.0
318.015411	128.0
318.16095	156.0
318.910461	148.0
318.985107	72.0
319.088196	140.0
319.167175	1800.0
319.974091	36.0
320.172852	380.0
320.315979	84.0
320.832703	48.0
320.996704	144.0
321.185944	2148.0
321.332001	88.0
322.189209	300.0
322.23526	144.0
322.288879	152.0
322.342468	136.0
322.58194	40.0
323.159729	400.0
323.202454	256.0
323.708954	100.0
324.106567	76.0
324.173584	424.0
324.300079	112.0
324.859467	156.0
325.1716	196.0
326.195312	136.0
327.152222	156.0
327.191803	156.0
329.348267	128.0
329.684265	96.0
330.64624	120.0
331.166595	1180.0
332.164215	228.0
332.886658	80.0
333.173615	112.0
334.184326	160.0
334.224335	156.0
335.1492	112.0
335.659515	36.0
335.838226	80.0
336.133728	120.0
336.838348	96.0
337.105072	184.0
337.176788	2888.0
337.225677	120.0
338.182098	656.0
338.224213	212.0
338.901733	160.0
339.190857	628.0
339.258759	72.0
339.46933	108.0
340.192169	316.0
340.313843	116.0
340.40564	48.0
341.175415	260.0
341.611176	96.0
342.176544	160.0
342.553558	52.0
343.519379	72.0
344.205872	120.0
347.574341	136.0
348.933746	68.0
349.179413	2620.0
349.633057	36.0
350.180115	684.0
350.595642	76.0
350.959198	60.0
351.190247	432.0
352.213135	132.0
352.493347	108.0
353.113922	36.0
353.626495	116.0
354.083282	120.0
355.187836	3792.0
355.258636	112.0
355.410309	40.0
356.146149	156.0
356.195648	684.0
356.890228	44.0
356.957916	52.0
357.161011	144.0
357.202759	304.0
357.578644	40.0
358.222534	120.0
358.365692	128.0
358.716156	64.0
359.185242	152.0
359.825287	40.0
360.195374	184.0
361.187103	144.0
362.908875	112.0
363.003662	116.0
364.009277	192.0
365.164581	116.0
366.066528	96.0
366.542694	152.0
366.683685	156.0
366.779663	132.0
367.064911	64.0
367.188019	2576.0
367.331879	48.0
367.644043	84.0
367.820312	48.0
367.889038	112.0
368.037933	32.0
368.191345	508.0
368.324371	40.0
368.385468	120.0
368.839966	120.0
368.882263	44.0
368.95108	56.0
368.981659	40.0
369.193146	392.0
369.551544	88.0
370.195282	160.0
371.601349	28.0
373.199585	884.0
373.545288	124.0
374.206909	132.0
374.249573	44.0
374.715607	60.0
375.058594	148.0
376.200378	120.0
381.527161	72.0
384.909088	208.0
384.995026	88.0
385.197723	1200.0
385.327026	108.0
385.706085	84.0
385.999329	60.0
386.151825	68.0
386.201355	484.0
387.203003	284.0
387.22937	168.0
387.279053	76.0
388.019714	112.0
388.721802	112.0
388.800293	120.0
391.186127	124.0
394.626312	140.0
396.2966	116.0
397.20047	136.0
403.06488	212.0
403.164795	144.0
403.207733	1436.0
404.084473	124.0
404.214905	308.0
405.201508	140.0
405.229553	136.0
406.195709	40.0
406.552795	64.0
439.233154	180.0
452.259308	116.0
456.803894	64.0
476.594452	88.0
480.273132	36.0
483.287476	180.0
484.228668	112.0
495.222198	128.0
498.669647	56.0
585.303955	160.0
586.305969	188.0
630.207153	48.0
646.09491	84.0
681.406494	44.0
686.220825	112.0
691.083435	68.0
695.753235	36.0
707.89624	56.0
714.876953	96.0
737.802246	96.0
888.460449	56.0
914.340088	60.0
922.682373	88.0
948.825378	32.0
973.059937	84.0
1034.573486	92.0
1101.648804	192.0
1108.112305	92.0
1109.656616	160.0
1178.532227	116.0
1179.632446	116.0
1184.436157	40.0
1185.258301	184.0
1219.273315	192.0
1227.704102	140.0
1228.729492	108.0
1247.329468	92.0
1259.533936	108.0
1261.958008	88.0
1262.325684	136.0
1262.57312	56.0
1295.1427	128.0
1297.378418	36.0
1330.608765	156.0
1331.29126	76.0
1333.463501	200.0
1350.195679	164.0
1366.965942	236.0
1386.750977	188.0
1389.101562	152.0
1389.902832	184.0
1391.468872	164.0
1400.772217	216.0
1434.614624	56.0
1438.36377	40.0
1444.575195	136.0
1453.667114	188.0
1467.81604	108.0
1468.609131	176.0
1471.623535	208.0
1496.126831	112.0
1503.001709	132.0
END IONS

BEGIN IONS
PEPMASS=531.295
CHARGE=1
MSLEVEL=2
SOURCE_INSTRUMENT=LC-ESI-Maxis II HD Q-TOF Bruker
FILENAME=G4_GG4_01_2721.mzXML
SEQ=*..*
IONMODE=positive
ORGANISM=GNPS-NIH-NATURALPRODUCTSLIBRARY_ROUND2_POSITIVE
NAME=NCGC00169458-03!5-[(3S,8R,10R,13R,14S,17R)-14-hydroxy-10,13-dimethyl-3-[(2R,3R,4R,5R,6S)-3,4,5-trihydroxy-6-methyloxan-2-yl]oxy-1,2,3,6,7,8,9,11,12,15,16,17-dodecahydrocyclopenta[a]phenanthren-17-yl]pyran-2-one M+H
PI=Jadhav/Dorrestein
DATACOLLECTOR=lfnothias
SMILES=C[C@@H]1O[C@@H](O[C@H]2CC[C@]3(C)C4CC[C@]5(C)[C@H](CC[C@]5(O)[C@@H]4CCC3=C2)C6=COC(=O)C=C6)[C@H](O)[C@H](O)[C@H]1O
INCHI=InChI=1S/C30H42O8/c1-16-24(32)25(33)26(34)27(37-16)38-19-8-11-28(2)18(14-19)5-6-22-21(28)9-12-29(3)20(10-13-30(22,29)35)17-4-7-23(31)36-15-17/h4,7,14-16,19-22,24-27,32-35H,5-6,8-13H2,1-3H3/t16-,19-,20+,21?,22+,24-,25+,26+,27-,28-,29+,30-/m0/s1
INCHIAUX=N/A
PUBMED=n/a
SUBMITUSER=mwang87
LIBRARYQUALITY=1
SPECTRUMID=CCMSLIB00000848836
USI=mzspec:GNPS:GNPS-NIH-NATURALPRODUCTSLIBRARY_ROUND2_POSITIVE:accession:CCMSLIB00000848836
SCANS=415
79.017296	117.0
79.043343	289.0
83.046761	133.0
85.029243	456.0
95.049896	138.0
103.03804	206.0
105.070602	150.0
107.084755	125.0
115.026566	213.0
121.102119	148.0
129.074158	400.0
135.113968	129.0
136.974289	139.0
137.052795	172.0
144.092163	136.0
147.087418	217.0
149.059143	184.0
157.059387	171.0
157.097229	444.0
159.114029	356.0
161.096756	256.0
167.032776	150.0
171.111969	105.0
173.09903	193.0
173.130478	129.0
176.150345	125.0
178.056229	103.0
183.083389	212.0
183.116348	265.0
185.130249	197.0
199.147598	363.0
201.091736	192.0
201.129486	194.0
203.142654	151.0
206.105316	127.0
207.053818	231.0
211.095016	194.0
213.162903	487.0
219.192947	157.0
231.129517	124.0
235.00856	170.0
236.107452	192.0
239.104309	210.0
239.523666	85.0
248.077164	192.0
252.095963	153.0
253.20488	267.0
254.177673	154.0
255.130417	148.0
259.359802	175.0
265.124329	165.0
266.121582	241.0
269.163361	297.0
271.16452	101.0
275.174011	160.0
276.161713	160.0
277.188843	111.0
279.131561	131.0
287.166107	398.0
293.148804	126.0
297.227875	174.0
303.215759	104.0
304.212738	164.0
307.160339	192.0
334.901978	163.0
349.213531	747.0
349.93869	102.0
350.215881	111.0
354.170776	127.0
367.221039	362.0
368.207123	217.0
411.050201	151.0
411.562408	179.0
432.238739	199.0
453.223267	202.0
471.630341	257.0
512.642517	74.0
514.178223	103.0
530.343628	197.0
531.295288	4279.0
532.203613	183.0
532.302368	1124.0
532.384338	280.0
663.325928	136.0
796.288208	159.0
1580.924805	152.0
END IONS

BEGIN IONS
PEPMASS=279.159
CHARGE=1
MSLEVEL=2
SOURCE_INSTRUMENT=LC-ESI-Maxis II HD Q-TOF Bruker
FILENAME=G8_GG8_01_8192.mzXML
SEQ=*..*
IONMODE=positive
ORGANISM=GNPS-NIH-NATURALPRODUCTSLIBRARY_ROUND2_POSITIVE
NAME=NCGC00385977-01_C16H24O5_4-Hydroxy-5-methoxy-4-[2-methyl-3-(3-methyl-2-buten-1-yl)-2-oxiranyl]-1-oxaspiro[2.5]octan-6-one M-H2O+H
PI=Jadhav/Dorrestein
DATACOLLECTOR=lfnothias
SMILES=COC1C(=O)CCC2(CO2)C1(O)C3(C)OC3CC=C(C)C
INCHI=InChI=1S/C16H24O5/c1-10(2)5-6-12-14(3,21-12)16(18)13(19-4)11(17)7-8-15(16)9-20-15/h5,12-13,18H,6-9H2,1-4H3
INCHIAUX=N/A
PUBMED=n/a
SUBMITUSER=mwang87
LIBRARYQUALITY=1
SPECTRUMID=CCMSLIB00000852075
USI=mzspec:GNPS:GNPS-NIH-NATURALPRODUCTSLIBRARY_ROUND2_POSITIVE:accession:CCMSLIB00000852075
SCANS=725
77.941391	93.0
81.057419	170.0
88.158974	184.0
91.051773	129.0
93.070808	100.0
95.053589	185.0
95.086479	147.0
96.003441	141.0
99.437927	233.0
104.062607	159.0
105.042542	164.0
105.071533	487.0
107.089752	458.0
109.030396	82.0
109.102631	263.0
111.009392	134.0
111.043869	318.0
115.055611	409.0
117.069412	625.0
118.015915	157.0
118.050385	123.0
118.153069	99.0
119.084854	345.0
121.049698	279.0
121.063675	475.0
128.984512	112.0
129.071457	386.0
130.077805	390.0
131.045349	96.0
131.086456	791.0
131.320389	172.0
131.541382	272.0
133.10495	189.0
134.1073	308.0
140.69783	228.0
142.078094	106.0
142.443909	58.0
143.085785	269.0
144.08963	430.0
145.066452	237.0
146.067932	108.0
153.070404	245.0
155.07486	138.0
156.057449	124.0
157.103271	198.0
158.109085	120.0
159.078644	107.0
159.121262	126.0
163.075562	262.0
166.075638	127.0
167.038666	174.0
170.062088	63.0
171.030579	71.0
171.085938	130.0
171.111938	93.0
172.088547	85.0
173.132675	475.0
177.102722	130.0
177.134109	145.0
184.071976	174.0
185.105209	158.0
185.130829	237.0
186.077255	98.0
186.105011	145.0
187.083374	307.0
187.113724	720.0
187.371979	128.0
200.07637	162.0
200.122345	163.0
201.041016	120.0
201.125687	292.0
203.918259	142.0
205.123856	571.0
206.156754	148.0
208.067429	220.0
214.097717	142.0
215.104904	232.0
216.958679	125.0
217.122849	225.0
219.011047	289.0
219.052689	129.0
219.134293	429.0
220.151215	79.0
222.128235	156.0
229.123566	784.0
244.109314	238.0
247.131927	213.0
248.175003	88.0
252.039551	107.0
279.100159	139.0
279.16626	212.0
287.104675	86.0
294.986603	74.0
341.225128	111.0
348.775543	66.0
END IONS

BEGIN IONS
PEPMASS=395.242
CHARGE=1
MSLEVEL=2
SOURCE_INSTRUMENT=LC-ESI-Maxis II HD Q-TOF Bruker
FILENAME=E10_GE10_01_8084.mzXML
SEQ=*..*
IONMODE=positive
ORGANISM=GNPS-NIH-NATURALPRODUCTSLIBRARY_ROUND2_POSITIVE
NAME=NCGC00168796-02_C22H36O7_Grayanotoxane-3,5,6,10,14,16-hexol, 14-acetate, (3beta,6beta,14R,16alpha)- M-H2O+H
PI=Jadhav/Dorrestein
DATACOLLECTOR=lfnothias
SMILES=CC(=O)O[C@@H]1[C@H]2CC[C@H]3[C@@](C)(O)[C@@H]4C[C@H](O)C(C)(C)[C@@]4(O)[C@H](O)C[C@@]13C[C@@]2(C)O
INCHI=InChI=1S/C22H36O7/c1-11(23)29-17-12-6-7-13-20(5,27)14-8-15(24)18(2,3)22(14,28)16(25)9-21(13,17)10-19(12,4)26/h12-17,24-28H,6-10H2,1-5H3/t12-,13+,14+,15+,16-,17-,19-,20-,21+,22+/m1/s1
INCHIAUX=N/A
PUBMED=n/a
SUBMITUSER=mwang87
LIBRARYQUALITY=1
SPECTRUMID=CCMSLIB00000852643
USI=mzspec:GNPS:GNPS-NIH-NATURALPRODUCTSLIBRARY_ROUND2_POSITIVE:accession:CCMSLIB00000852643
SCANS=455
71.050171	122.0
73.083809	235.0
73.959099	258.0
79.018944	161.0
79.049461	438.0
80.028854	196.0
80.423569	244.0
81.067955	1078.0
82.076881	237.0
83.047707	587.0
83.085556	297.0
85.043938	89.0
85.062492	279.0
91.053886	2440.0
91.519165	108.0
92.057152	198.0
93.070328	3714.0
93.750435	264.0
94.072281	303.0
94.794678	263.0
95.046074	280.0
95.085762	4146.0
95.375023	49.0
96.086052	116.0
96.471336	124.0
100.35675	114.0
101.057198	105.0
101.950653	151.0
103.054977	353.0
105.068985	6385.0
105.135971	83.0
105.194809	89.0
105.330315	140.0
106.073051	493.0
106.36058	211.0
107.056358	303.0
107.085625	3503.0
107.306824	50.0
107.358803	77.0
108.092789	626.0
108.829742	67.0
109.064003	1230.0
109.100586	679.0
110.071342	246.0
111.079941	1607.0
115.055496	120.0
116.065941	399.0
116.150925	209.0
117.069542	3557.0
117.141998	102.0
117.269051	261.0
117.493416	68.0
118.053413	49.0
118.077263	437.0
119.058243	944.0
119.085587	8971.0
120.064873	283.0
120.0895	1112.0
120.68177	270.0
121.064743	753.0
121.102768	3364.0
121.16629	123.0
122.098625	253.0
123.079369	1184.0
123.119736	232.0
124.045197	206.0
124.113464	255.0
124.348534	114.0
125.091583	111.0
126.097366	173.0
128.060318	708.0
128.865036	191.0
129.070496	1388.0
130.076096	1352.0
131.059952	93.0
131.085052	5894.0
131.65535	109.0
132.091324	968.0
133.065155	447.0
133.101212	8705.0
133.286545	52.0
134.104935	802.0
134.932831	115.0
135.080627	3048.0
135.117371	3325.0
136.084366	290.0
136.118668	151.0
137.096405	1223.0
138.03299	114.0
138.063324	131.0
138.102737	123.0
139.074951	333.0
139.105957	96.0
141.068298	801.0
142.046967	118.0
142.07666	1360.0
142.761536	56.0
142.873245	195.0
142.960938	245.0
143.086426	3526.0
144.053299	137.0
144.0914	721.0
144.370941	129.0
145.063568	337.0
145.101227	7011.0
146.075836	175.0
146.104248	625.0
147.000198	119.0
147.045258	136.0
147.08046	679.0
147.117477	2704.0
148.085968	169.0
148.121109	406.0
149.058136	486.0
149.096939	1415.0
149.13028	288.0
150.096924	103.0
151.075867	1020.0
151.112946	651.0
152.984604	115.0
153.090424	161.0
153.481384	193.0
153.858307	168.0
154.078506	545.0
155.084976	1981.0
155.194687	54.0
156.091248	2370.0
156.971405	68.0
157.101715	3759.0
157.321579	137.0
158.070999	122.0
158.106842	1322.0
159.029556	67.0
159.081665	5223.0
159.117844	10105.0
159.423813	48.0
160.085083	1272.0
160.123077	1462.0
160.192657	53.0
161.096008	6019.0
161.133026	9087.0
161.191971	97.0
161.452789	54.0
162.03389	71.0
162.100677	242.0
162.136017	439.0
163.080994	241.0
163.113037	2597.0
163.457733	115.0
164.148438	103.0
164.644028	59.0
165.073654	369.0
165.0952	126.0
167.005249	114.0
167.079895	483.0
167.108093	79.0
167.843216	314.0
168.092926	292.0
168.325592	214.0
169.07135	311.0
169.100418	4535.0
170.105652	1523.0
170.309158	126.0
171.074188	244.0
171.117065	2862.0
172.089798	613.0
172.126373	247.0
173.098434	1146.0
173.133591	857.0
174.113632	176.0
174.136063	179.0
175.111633	1227.0
175.152206	260.0
176.111099	288.0
176.696091	105.0
176.789993	167.0
176.873566	73.0
177.092377	6742.0
177.128311	5909.0
177.370514	122.0
178.073196	63.0
178.09494	801.0
178.133224	372.0
179.085541	915.0
179.107925	1952.0
179.954056	77.0
180.092316	625.0
181.099716	1432.0
182.108475	1561.0
182.337997	121.0
182.579361	104.0
182.691544	49.0
183.089371	107.0
183.117737	6290.0
184.082382	322.0
184.121933	1674.0
184.695938	94.0
185.09407	751.0
185.132278	2446.0
185.744644	207.0
185.796341	149.0
186.106094	384.0
186.139618	188.0
187.112	4810.0
187.149719	151.0
187.421204	102.0
187.995743	247.0
188.066315	135.0
188.117783	1441.0
188.153427	59.0
189.128754	2037.0
190.128677	121.0
190.479843	83.0
191.105423	872.0
192.091248	143.0
192.201477	206.0
193.102844	981.0
194.108002	1071.0
195.08252	238.0
195.116028	1641.0
195.792694	95.0
196.085403	338.0
196.122025	1340.0
196.308502	233.0
197.132919	4536.0
198.10759	83.0
198.141281	1361.0
199.114883	641.0
199.146835	1857.0
200.150223	109.0
200.917725	102.0
201.088516	744.0
201.141937	325.0
202.133331	84.0
202.500168	297.0
203.081879	268.0
203.145401	140.0
204.096527	111.0
205.120575	2431.0
206.109039	620.0
206.791626	140.0
207.118561	1133.0
208.086853	195.0
208.124237	866.0
209.091187	224.0
209.131729	2156.0
210.103226	416.0
210.136749	1106.0
210.20932	97.0
210.639816	136.0
211.112976	1242.0
211.147781	3091.0
212.088135	142.0
212.121353	319.0
212.154251	823.0
212.798386	94.0
213.107162	231.0
213.12886	659.0
213.162537	739.0
215.11058	191.0
215.14006	654.0
215.535721	101.0
217.120956	519.0
217.736298	173.0
218.114822	267.0
218.2453	116.0
219.031296	166.0
219.120514	636.0
220.126358	1494.0
221.135605	1346.0
222.139908	1610.0
223.071899	137.0
223.110092	349.0
223.147034	3258.0
224.153091	700.0
225.127823	1522.0
225.164322	1043.0
226.145386	380.0
227.145935	998.0
227.185135	821.0
228.172256	96.0
228.940384	119.0
229.122772	193.0
229.15802	422.0
230.158157	287.0
231.121155	205.0
231.807556	153.0
232.179855	182.0
233.136581	1137.0
234.115738	138.0
234.142044	454.0
234.223038	153.0
235.147797	1767.0
236.153122	387.0
237.058167	162.0
237.114624	418.0
237.162888	4614.0
237.31424	124.0
238.171143	1964.0
239.144836	1228.0
239.179276	6055.0
240.110641	82.0
240.150864	476.0
240.188141	1060.0
241.157761	964.0
241.4496	77.0
242.138977	127.0
242.163315	307.0
243.138306	257.0
243.212372	133.0
247.148071	280.0
248.156494	871.0
249.14621	86.0
250.133804	106.0
251.141586	268.0
251.18074	341.0
252.188416	106.0
252.631195	326.0
252.731155	146.0
253.002289	63.0
253.097137	219.0
253.161545	1896.0
253.195282	14653.0
253.414536	103.0
254.165482	505.0
254.198364	2567.0
254.778275	64.0
255.038452	156.0
255.123367	86.0
255.174194	9745.0
255.408478	62.0
256.120605	105.0
256.177582	1773.0
257.157684	665.0
257.186859	617.0
257.946625	77.0
258.157867	66.0
258.189484	498.0
259.085419	128.0
259.172852	134.0
263.000458	197.0
263.177826	3692.0
263.229858	157.0
264.181274	378.0
264.251923	90.0
266.175934	573.0
267.174133	120.0
269.192261	647.0
269.451569	187.0
270.108856	209.0
271.207062	3914.0
272.162109	104.0
272.20993	295.0
273.184906	9769.0
273.940979	111.0
274.157593	190.0
274.189667	1426.0
275.095581	89.0
275.449005	145.0
276.140045	92.0
279.183136	195.0
280.125397	88.0
280.866058	96.0
281.140686	614.0
281.190613	30247.0
281.251831	97.0
281.475586	102.0
281.842621	68.0
282.194122	4274.0
282.352631	96.0
282.431549	58.0
282.573395	60.0
283.204803	104.0
297.205994	53.0
299.042267	204.0
299.141418	158.0
299.200226	17835.0
300.205566	2867.0
316.706848	148.0
317.115326	133.0
317.211639	3211.0
317.613342	94.0
318.213623	300.0
323.191681	313.0
331.242218	88.0
335.218872	204.0
337.080383	100.0
340.232422	150.0
341.212677	1213.0
359.223206	885.0
360.215759	61.0
377.235107	220.0
382.918457	158.0
395.227997	211.0
395.259796	130.0
522.802063	62.0
1403.016479	187.0
1436.061035	272.0
1507.865967	104.0
1645.244873	173.0
1651.655151	160.0
1653.249023	228.0
1786.178101	205.0
1815.974609	116.0
1881.323242	164.0
1882.130127	219.0
1921.581299	132.0
1941.626587	186.0
END IONS

BEGIN IONS
PEPMASS=309.216
CHARGE=1
MSLEVEL=2
SOURCE_INSTRUMENT=LC-ESI-qTof
FILENAME=p3-G08_GG8_01_18301.mzXML
SEQ=*..*
IONMODE=Positive
ORGANISM=GNPS-NIH-SMALLMOLECULEPHARMACOLOGICALLYACTIVE
NAME=MLS001332643-01!Benoxinate hydrochloride5987-82-6 M+H
PI=Dorrestein
DATACOLLECTOR=VP/LMS
SMILES=CCCCOc1cc(ccc1N)C(=O)OCCN(CC)CC
INCHI=N/A
INCHIAUX=N/A
PUBMED=N/A
SUBMITUSER=vphelan
LIBRARYQUALITY=1
SPECTRUMID=CCMSLIB00000085270
USI=mzspec:GNPS:GNPS-NIH-SMALLMOLECULEPHARMACOLOGICALLYACTIVE:accession:CCMSLIB00000085270
SCANS=1641
44.907337	132.0
44.927349	108.0
45.033932	176.0
45.173172	140.0
45.241425	200.0
45.272224	160.0
45.347256	164.0
45.415642	176.0
45.434422	208.0
45.449181	60.0
45.497505	188.0
45.591534	208.0
45.668175	168.0
45.72065	192.0
45.770462	80.0
45.813564	188.0
45.858036	204.0
45.951088	176.0
46.010475	176.0
46.021278	256.0
46.064499	172.0
46.100628	184.0
46.114235	352.0
46.225403	180.0
46.303928	84.0
46.31612	196.0
46.359478	156.0
46.462536	188.0
46.516823	232.0
46.538544	196.0
46.568424	144.0
46.717957	52.0
46.769672	192.0
46.802349	72.0
46.814602	164.0
46.873184	76.0
46.908546	216.0
47.005466	172.0
47.113335	208.0
47.132465	36.0
47.25827	168.0
47.293854	204.0
47.328079	352.0
47.339035	120.0
47.37191	92.0
47.406166	180.0
47.433578	80.0
47.483189	180.0
47.499405	188.0
47.517239	156.0
47.526844	200.0
47.544685	180.0
47.624321	216.0
47.636688	60.0
47.649052	132.0
47.668289	196.0
47.701279	88.0
47.779671	148.0
47.86639	84.0
47.906334	152.0
47.969727	76.0
48.006958	132.0
48.026268	240.0
48.081459	180.0
48.092239	188.0
48.114285	36.0
48.182583	140.0
48.197468	76.0
48.21405	156.0
48.290096	140.0
48.309464	388.0
48.349594	124.0
48.432671	92.0
48.464539	108.0
48.554649	100.0
48.576843	204.0
48.646233	156.0
48.687893	164.0
48.697613	164.0
48.783772	152.0
48.803238	56.0
48.83395	236.0
48.858875	48.0
48.871395	96.0
48.908974	224.0
48.925259	212.0
48.94268	192.0
49.019009	204.0
49.063614	152.0
49.099869	240.0
49.113819	152.0
49.140324	152.0
49.254807	152.0
49.282749	136.0
49.326077	188.0
49.376419	124.0
49.391464	364.0
49.429634	208.0
49.460697	212.0
49.491749	244.0
49.523388	160.0
49.542999	200.0
49.648071	180.0
49.722492	64.0
49.750568	120.0
49.785671	96.0
49.826103	128.0
49.848892	132.0
49.864353	140.0
49.881222	204.0
49.916374	188.0
49.985306	136.0
50.011875	164.0
50.064144	204.0
50.117676	164.0
50.198029	120.0
50.270611	240.0
50.350452	156.0
50.361752	112.0
50.395657	132.0
50.498173	156.0
50.575272	180.0
50.602467	172.0
50.712673	160.0
50.729683	172.0
50.743862	176.0
50.763714	212.0
50.878654	208.0
50.895691	212.0
50.926937	164.0
51.026493	76.0
51.070293	188.0
51.121727	196.0
51.13311	176.0
51.148731	144.0
51.172974	80.0
51.362526	156.0
51.399796	228.0
51.410789	160.0
51.431019	144.0
51.448151	184.0
51.473854	224.0
51.578156	160.0
51.59388	176.0
51.694012	216.0
51.726933	180.0
51.76416	108.0
51.828621	256.0
51.87162	128.0
51.9548	136.0
52.015938	100.0
52.042355	216.0
52.100315	204.0
52.238682	200.0
52.249336	196.0
52.279819	108.0
52.299706	160.0
52.386108	276.0
52.401958	148.0
52.461048	132.0
52.481236	184.0
52.514404	176.0
52.543259	180.0
52.599545	192.0
52.616867	248.0
52.635639	160.0
52.652969	136.0
52.668858	88.0
52.710758	112.0
52.780148	148.0
52.816303	60.0
52.833664	152.0
52.877079	224.0
52.965405	172.0
53.039494	188.0
53.074108	156.0
53.087158	212.0
53.096886	176.0
53.135498	200.0
53.168404	188.0
53.187275	204.0
53.209053	184.0
53.267143	184.0
53.347076	116.0
53.466354	128.0
53.494011	172.0
53.549347	52.0
53.56974	188.0
53.58749	152.0
53.686825	232.0
53.775352	100.0
53.79871	232.0
53.816231	180.0
53.860729	176.0
53.938396	200.0
54.013535	124.0
54.032555	132.0
54.054504	156.0
54.140881	252.0
54.167248	168.0
54.196548	144.0
54.208271	192.0
54.275707	188.0
54.346119	148.0
54.384277	128.0
54.409233	264.0
54.487827	240.0
54.559093	140.0
54.641457	212.0
54.719467	208.0
54.751335	212.0
54.810795	148.0
54.841743	160.0
54.859432	128.0
54.875652	172.0
54.891872	144.0
54.92432	56.0
54.935871	212.0
55.001057	200.0
55.082275	140.0
55.163555	180.0
55.182774	144.0
55.196083	124.0
55.219746	136.0
55.238976	180.0
55.2817	160.0
55.321854	176.0
55.3722	64.0
55.403309	388.0
55.415161	124.0
55.487789	48.0
55.529312	192.0
55.6614	216.0
55.759453	44.0
55.789185	160.0
55.912651	120.0
56.004864	172.0
56.085129	256.0
56.107796	112.0
56.173416	188.0
56.271919	132.0
56.289841	180.0
56.352577	208.0
56.37051	228.0
56.409374	180.0
56.506588	200.0
56.517059	156.0
56.535019	200.0
56.545494	196.0
56.569447	48.0
56.612869	204.0
56.672207	400.0
56.686279	172.0
56.710258	160.0
56.746754	244.0
56.818233	196.0
56.828735	144.0
56.942833	116.0
56.997551	208.0
57.01495	156.0
57.128742	184.0
57.172218	212.0
57.189426	108.0
57.218029	140.0
57.261703	228.0
57.34156	192.0
57.385277	64.0
57.541286	304.0
57.619228	200.0
57.656666	260.0
57.669102	168.0
57.72504	160.0
57.797653	412.0
57.814301	108.0
57.830952	112.0
57.84306	104.0
57.855171	168.0
57.865768	152.0
58.011219	168.0
58.024864	40.0
58.112835	168.0
58.157848	152.0
58.178776	180.0
58.249477	216.0
58.360428	144.0
58.395409	236.0
58.48214	168.0
58.545887	272.0
58.587215	244.0
58.698486	100.0
58.798901	196.0
58.858719	156.0
58.869411	176.0
58.970249	200.0
58.997765	220.0
59.103302	224.0
59.127789	132.0
59.256428	148.0
59.284008	40.0
59.323864	236.0
59.334595	320.0
59.360664	32.0
59.500298	172.0
59.557899	132.0
59.60014	108.0
59.617043	164.0
59.644711	148.0
59.684685	156.0
59.756981	184.0
59.775448	52.0
59.798531	132.0
59.826321	220.0
59.949471	200.0
60.045059	156.0
60.145355	136.0
60.173145	160.0
60.273132	208.0
60.307549	132.0
60.33329	172.0
60.386406	156.0
60.435913	156.0
60.493179	272.0
60.539635	132.0
60.612709	188.0
60.67828	188.0
60.691685	136.0
60.711662	128.0
60.807858	192.0
60.86042	196.0
60.876171	128.0
60.939861	76.0
60.960064	132.0
60.981823	196.0
61.033127	200.0
61.048676	28.0
61.101566	156.0
61.156033	160.0
61.254799	196.0
61.318024	196.0
61.392864	88.0
61.425617	168.0
61.522377	188.0
61.541111	148.0
61.605148	352.0
61.641087	172.0
61.666096	160.0
61.703789	176.0
61.72636	160.0
61.750744	116.0
61.797459	132.0
61.81311	336.0
61.863197	68.0
61.938366	168.0
61.996338	144.0
62.055908	148.0
62.112526	40.0
62.145317	60.0
62.209023	244.0
62.242641	144.0
62.258343	200.0
62.296043	172.0
62.33886	348.0
62.358898	120.0
62.420216	180.0
62.468975	140.0
62.564976	200.0
62.606239	176.0
62.620094	164.0
62.640572	132.0
62.661053	220.0
62.683113	124.0
62.717789	208.0
62.761932	240.0
62.826599	104.0
62.837646	88.0
62.891304	228.0
62.918392	200.0
62.944984	224.0
63.071381	228.0
63.201069	116.0
63.218479	176.0
63.302383	104.0
63.334305	232.0
63.368916	100.0
63.389515	112.0
63.405365	144.0
63.46402	200.0
63.478291	136.0
63.519531	148.0
63.56237	56.0
63.581413	136.0
63.633801	172.0
63.659676	176.0
63.679855	140.0
63.703297	148.0
63.75135	204.0
63.762478	148.0
63.805397	48.0
63.843563	220.0
63.904488	416.0
63.967674	36.0
64.013847	196.0
64.086113	188.0
64.195526	152.0
64.230614	60.0
64.249763	172.0
64.335945	144.0
64.371788	240.0
64.462135	256.0
64.48291	196.0
64.572449	168.0
64.609238	208.0
64.655647	116.0
64.681259	176.0
64.71328	92.0
64.748512	152.0
64.817398	112.0
64.849449	180.0
64.902359	44.0
64.915184	140.0
64.931221	80.0
65.24115	204.0
65.257225	112.0
65.270088	140.0
65.323166	136.0
65.358566	132.0
65.394012	156.0
65.443306	292.0
65.458366	152.0
65.540527	76.0
65.61628	116.0
65.632408	228.0
65.686493	152.0
65.719513	140.0
65.827667	148.0
65.999977	200.0
66.032928	164.0
66.105728	196.0
66.143768	136.0
66.162384	256.0
66.246605	136.0
66.269287	184.0
66.329132	160.0
66.358437	168.0
66.385818	156.0
66.408707	144.0
66.554771	128.0
66.58725	216.0
66.631111	100.0
66.683113	148.0
66.743271	188.0
66.775795	132.0
66.790436	152.0
66.871796	172.0
66.897842	172.0
67.054222	172.0
67.075409	92.0
67.09008	140.0
67.153679	172.0
67.174889	172.0
67.190552	244.0
67.20752	164.0
67.249954	140.0
67.264641	164.0
67.385498	144.0
67.399261	160.0
67.413277	148.0
67.436043	164.0
67.481934	164.0
67.522423	164.0
67.526459	124.0
67.533211	192.0
67.652618	228.0
67.704491	164.0
67.831482	72.0
67.860168	160.0
67.917572	116.0
68.068565	84.0
68.109627	88.0
68.198364	156.0
68.250977	140.0
68.270706	64.0
68.339798	220.0
68.38588	144.0
68.406502	236.0
68.448441	144.0
68.471497	200.0
68.48468	192.0
68.64785	188.0
68.665985	144.0
68.684135	156.0
68.697884	168.0
68.728676	220.0
68.741882	220.0
68.807907	80.0
68.832512	180.0
68.903702	144.0
68.941711	176.0
68.965088	220.0
68.994606	204.0
69.131905	156.0
69.174934	136.0
69.196457	152.0
69.227921	124.0
69.254242	184.0
69.290871	160.0
69.413528	204.0
69.43177	32.0
69.508087	120.0
69.553276	124.0
69.640907	116.0
69.684906	108.0
69.691231	152.0
69.70903	168.0
69.725647	200.0
69.778847	160.0
69.818756	112.0
69.849831	176.0
69.866997	152.0
69.886963	184.0
69.90596	208.0
69.920242	112.0
69.990166	56.0
70.052361	200.0
70.155121	200.0
70.17012	188.0
70.181099	152.0
70.203476	132.0
70.231827	164.0
70.33696	200.0
70.440491	152.0
70.465553	224.0
70.524048	120.0
70.542435	148.0
70.682549	192.0
70.698517	140.0
70.831947	96.0
70.844551	176.0
70.87262	188.0
70.920753	144.0
70.954285	148.0
71.083443	208.0
71.231201	176.0
71.4077	216.0
71.454803	104.0
71.480042	196.0
71.500237	136.0
71.535583	144.0
71.559158	200.0
71.596207	136.0
71.62989	192.0
71.643372	200.0
71.668648	236.0
71.698982	180.0
71.710777	116.0
71.727631	172.0
71.870995	68.0
71.900032	276.0
71.928375	80.0
71.975655	184.0
71.989159	64.0
72.038147	136.0
72.10067	160.0
72.112495	152.0
72.134476	160.0
72.173042	192.0
72.230865	116.0
72.259628	68.0
72.288391	108.0
72.326759	252.0
72.39505	200.0
72.530594	140.0
72.544159	140.0
72.571289	176.0
72.649307	132.0
72.695122	144.0
72.734161	220.0
72.747742	160.0
72.864929	156.0
72.88192	168.0
72.90741	132.0
73.023026	84.0
73.147247	168.0
73.163269	220.0
73.241508	168.0
73.285202	156.0
73.33609	172.0
73.423286	164.0
73.472755	168.0
73.513702	136.0
73.561501	100.0
73.720352	228.0
73.771629	136.0
73.806259	188.0
73.867401	188.0
73.881081	72.0
73.896484	184.0
73.944397	132.0
74.206505	164.0
74.273712	172.0
74.316284	44.0
74.369484	156.0
74.407249	208.0
74.495399	196.0
74.537796	208.0
74.556702	112.0
74.587639	176.0
74.613426	60.0
74.66938	224.0
74.709549	212.0
74.776855	132.0
74.795784	152.0
74.83194	128.0
74.899109	216.0
75.011116	152.0
75.124939	156.0
75.138741	56.0
75.1698	148.0
75.195908	220.0
75.24057	160.0
75.263016	196.0
75.309647	120.0
75.323471	224.0
75.380219	432.0
75.465187	104.0
75.487	120.0
75.513611	208.0
75.639931	212.0
75.703995	160.0
75.748749	220.0
76.014313	164.0
76.028198	140.0
76.163628	168.0
76.27832	188.0
76.333954	192.0
76.353569	168.0
76.394836	108.0
76.450363	204.0
76.487068	132.0
76.546265	160.0
76.723999	108.0
76.738815	152.0
76.805885	176.0
76.843811	184.0
76.874008	216.0
76.88607	180.0
76.912407	128.0
76.950813	100.0
76.977005	28.0
76.99971	76.0
77.046875	212.0
77.084412	116.0
77.129868	188.0
77.237434	172.0
77.255577	204.0
77.285095	180.0
77.363434	192.0
77.60347	72.0
77.666603	156.0
77.691162	188.0
77.719238	132.0
77.791199	144.0
77.835091	200.0
77.940491	152.0
77.956306	192.0
78.030136	164.0
78.092598	172.0
78.149742	108.0
78.184937	164.0
78.237747	148.0
78.274719	100.0
78.332619	184.0
78.429764	152.0
78.496765	108.0
78.775642	196.0
78.852142	192.0
78.906425	72.0
79.016754	152.0
79.042633	112.0
79.125824	192.0
79.182495	220.0
79.281708	80.0
79.373894	168.0
79.483879	148.0
79.501625	192.0
79.552086	168.0
79.608147	136.0
79.647827	108.0
79.693413	132.0
79.730728	172.0
79.794724	44.0
79.84211	204.0
79.900818	228.0
79.935249	188.0
79.949486	192.0
79.970848	128.0
80.020691	104.0
80.134689	52.0
80.218452	184.0
80.29335	240.0
80.346863	136.0
80.403969	132.0
80.434311	100.0
80.472267	200.0
80.541451	132.0
80.591476	156.0
80.666542	184.0
80.70945	164.0
80.757744	152.0
80.779205	228.0
80.81678	160.0
80.861519	200.0
80.959991	184.0
80.986855	172.0
81.031647	220.0
81.088989	192.0
81.105125	52.0
81.131767	144.0
81.20195	168.0
81.237823	72.0
81.25425	244.0
81.268326	184.0
81.320328	152.0
81.368843	164.0
81.420921	116.0
81.535904	104.0
81.570061	124.0
81.613213	180.0
81.679756	184.0
81.731934	136.0
81.749924	200.0
81.88353	212.0
81.915581	208.0
81.948006	168.0
82.088615	156.0
82.133705	272.0
82.220314	180.0
82.262878	220.0
82.290466	144.0
82.4533	168.0
82.480415	180.0
82.520187	120.0
82.589409	188.0
82.727539	204.0
82.749344	148.0
82.840538	152.0
82.936539	168.0
82.954704	248.0
82.972839	68.0
83.063515	216.0
83.089317	108.0
83.180283	116.0
83.198822	260.0
83.230492	148.0
83.272263	40.0
83.494003	180.0
83.641388	128.0
83.686905	104.0
83.726967	196.0
83.745178	256.0
83.765221	128.0
83.903725	168.0
83.967552	76.0
83.980316	132.0
84.108047	172.0
84.190216	140.0
84.225327	232.0
84.268768	180.0
84.311478	160.0
84.374771	176.0
84.412849	204.0
84.464386	116.0
84.590652	140.0
84.612625	160.0
84.640091	144.0
84.689537	120.0
84.74633	112.0
84.852638	140.0
84.896652	192.0
84.922005	160.0
84.935593	172.0
85.032082	108.0
85.177483	184.0
85.210548	184.0
85.228928	148.0
85.311638	60.0
85.352081	128.0
85.385185	144.0
85.398064	172.0
85.425659	176.0
85.576576	184.0
85.811043	192.0
85.836395	172.0
85.876968	188.0
85.977913	220.0
85.985168	156.0
86.01458	160.0
86.062851	124.0
86.103996	156.0
86.246269	176.0
86.267738	216.0
86.324112	200.0
86.351669	236.0
86.427521	116.0
86.48304	72.0
86.508957	172.0
86.614517	188.0
86.633041	188.0
86.696037	144.0
86.709015	112.0
86.731255	136.0
86.75721	200.0
86.777603	240.0
86.80542	192.0
86.890747	160.0
86.946419	120.0
87.009529	140.0
87.049774	220.0
87.073219	176.0
87.133972	204.0
87.15255	168.0
87.184494	212.0
87.202728	132.0
87.264076	76.0
87.379501	144.0
87.405449	224.0
87.515274	100.0
87.56369	172.0
87.720215	208.0
87.733269	152.0
87.94532	232.0
87.980469	192.0
88.024345	164.0
88.167679	172.0
88.231758	228.0
88.25045	148.0
88.300949	152.0
88.330872	84.0
88.448769	116.0
88.473106	128.0
88.541412	132.0
88.651054	176.0
88.727905	56.0
88.756035	60.0
88.840439	144.0
88.861076	152.0
88.874207	188.0
88.893761	132.0
88.962212	176.0
89.037537	184.0
89.050682	132.0
89.115379	200.0
89.21981	188.0
89.266815	128.0
89.413559	100.0
89.453094	120.0
89.488861	160.0
89.545357	256.0
89.567635	184.0
89.626366	84.0
89.713074	212.0
89.811134	124.0
89.829994	52.0
89.856407	216.0
89.879051	200.0
89.89415	172.0
89.946999	152.0
90.030075	128.0
90.055573	120.0
90.094299	100.0
90.145317	176.0
90.167709	200.0
90.19635	228.0
90.224709	80.0
90.254959	152.0
90.268196	140.0
90.307915	180.0
90.355209	160.0
90.430901	36.0
90.457405	72.0
90.514206	136.0
90.59565	148.0
90.680923	80.0
90.720734	76.0
90.785202	152.0
90.857285	180.0
90.929398	148.0
91.054298	388.0
91.098633	192.0
91.137459	136.0
91.227631	188.0
91.268448	172.0
91.363441	204.0
91.376953	168.0
91.633621	188.0
91.674934	92.0
91.707336	216.0
91.722588	204.0
91.882782	144.0
91.898048	148.0
92.045029	156.0
92.058395	68.0
92.094688	132.0
92.111877	72.0
92.204552	184.0
92.28389	188.0
92.331696	80.0
92.412041	168.0
92.488594	56.0
92.580498	212.0
92.703392	136.0
92.850731	148.0
92.864159	196.0
92.879509	44.0
92.892937	216.0
93.025352	80.0
93.048386	136.0
93.098312	176.0
93.178993	88.0
93.228699	188.0
93.313538	168.0
93.334686	160.0
93.384689	152.0
93.487434	244.0
93.656097	256.0
93.683067	128.0
93.71582	52.0
93.895103	468.0
93.908607	180.0
93.922112	136.0
93.968407	220.0
94.022446	236.0
94.066269	364.0
94.071213	256.0
94.144073	164.0
94.23481	136.0
94.362434	136.0
94.408546	132.0
94.710785	100.0
94.732742	168.0
94.877449	160.0
94.912346	32.0
94.947258	128.0
94.978287	192.0
95.008507	152.0
95.107788	168.0
95.12043	192.0
95.209267	64.0
95.292801	168.0
95.323891	124.0
95.37442	228.0
95.483307	108.0
95.533882	64.0
95.555283	172.0
95.576469	176.0
95.607826	96.0
95.627518	168.0
95.685692	132.0
95.734375	188.0
95.761635	200.0
95.792809	148.0
95.852043	168.0
95.890114	188.0
95.931168	180.0
95.974068	116.0
95.999413	232.0
96.014389	236.0
96.02243	160.0
96.028694	200.0
96.045952	200.0
96.108658	96.0
96.149643	148.0
96.192581	144.0
96.243347	124.0
96.309746	212.0
96.370148	192.0
96.39962	96.0
96.460213	156.0
96.624496	196.0
96.640152	148.0
96.669502	52.0
96.711662	108.0
96.747795	192.0
96.762611	268.0
96.937798	160.0
96.966499	180.0
97.047569	164.0
97.098557	140.0
97.118172	256.0
97.143677	244.0
97.165253	108.0
97.235901	240.0
97.251602	112.0
97.318352	136.0
97.337166	156.0
97.367447	172.0
97.481392	108.0
97.648506	236.0
97.683914	132.0
97.837418	132.0
97.971344	128.0
97.994987	188.0
98.038338	220.0
98.067902	176.0
98.095314	332.0
98.152679	184.0
98.188179	172.0
98.21579	144.0
98.25296	152.0
98.296684	120.0
98.336159	220.0
98.411179	136.0
98.43882	164.0
98.54747	188.0
98.573158	216.0
98.643684	252.0
98.711533	164.0
98.753067	116.0
98.807144	144.0
98.836159	100.0
98.891579	160.0
99.02578	164.0
99.046028	48.0
99.104294	260.0
99.145096	148.0
99.289825	172.0
99.337433	180.0
99.373146	200.0
99.389015	144.0
99.410851	120.0
99.44062	196.0
99.458481	172.0
99.539886	132.0
99.599472	64.0
99.687935	160.0
99.756462	180.0
99.788269	168.0
99.802185	180.0
99.838737	212.0
99.873787	180.0
99.891396	192.0
99.919151	184.0
99.956688	204.0
99.997154	152.0
100.025017	176.0
100.048454	188.0
100.061974	192.0
100.092209	204.0
100.111855	33116.0
100.159859	168.0
100.201782	164.0
100.245834	76.0
100.27401	156.0
100.299919	56.0
100.347404	100.0
100.381775	72.0
100.399612	100.0
100.436951	64.0
100.469429	264.0
100.541878	328.0
100.577194	68.0
100.615295	48.0
100.645073	52.0
100.659058	164.0
100.675034	220.0
100.693008	264.0
100.716972	156.0
100.778908	200.0
100.811836	136.0
100.905586	148.0
100.921654	204.0
100.950821	36.0
100.964821	40.0
100.986824	64.0
101.021629	40.0
101.054153	140.0
101.082855	152.0
101.114151	1564.0
101.205315	184.0
101.267593	236.0
101.291084	320.0
101.31913	144.0
101.357201	116.0
101.381248	96.0
101.395279	172.0
101.45575	144.0
101.607841	244.0
101.621887	52.0
101.666039	180.0
101.758377	204.0
101.802551	108.0
101.816612	84.0
101.846886	112.0
101.874863	148.0
101.905304	292.0
101.937416	316.0
102.0457	168.0
102.089943	176.0
102.116089	128.0
102.166374	96.0
102.234795	128.0
102.252907	148.0
102.437317	232.0
102.587288	148.0
102.607452	72.0
102.65181	148.0
102.671982	204.0
102.780914	156.0
102.800797	160.0
102.833389	204.0
102.853577	180.0
103.000984	136.0
103.051498	168.0
103.065643	176.0
103.126266	132.0
103.150528	200.0
103.184898	48.0
103.203094	68.0
103.348953	108.0
103.375038	136.0
103.403374	176.0
103.470177	68.0
103.551178	136.0
103.597771	168.0
103.654503	80.0
103.776123	44.0
103.864471	228.0
103.89782	148.0
103.985077	104.0
104.00132	80.0
104.052071	172.0
104.188148	64.0
104.262733	204.0
104.268867	144.0
104.397514	132.0
104.438194	188.0
104.502083	200.0
104.531784	128.0
104.57045	84.0
104.596916	52.0
104.625412	196.0
104.645775	172.0
104.686684	228.0
104.749641	176.0
104.806694	224.0
104.827072	48.0
104.843376	148.0
104.920128	92.0
104.951416	48.0
104.984047	168.0
105.055992	176.0
105.066841	88.0
105.072517	140.0
105.100327	188.0
105.136185	260.0
105.153389	180.0
105.273842	148.0
105.349419	164.0
105.369217	348.0
105.420242	224.0
105.504745	184.0
105.57222	224.0
105.58654	156.0
105.637787	224.0
105.699059	300.0
105.733849	184.0
105.832108	148.0
105.926323	164.0
105.997009	132.0
106.028236	420.0
106.047218	176.0
106.064651	1136.0
106.10955	184.0
106.158936	172.0
106.231773	88.0
106.297432	148.0
106.328217	176.0
106.379539	224.0
106.406227	128.0
106.4272	148.0
106.451401	184.0
106.609589	144.0
106.69075	124.0
106.829605	156.0
106.856346	160.0
106.911911	100.0
106.981895	200.0
107.00248	240.0
107.039291	500.0
107.07209	1016.0
107.115753	44.0
107.164299	160.0
107.187866	120.0
107.243515	172.0
107.280167	240.0
107.299171	164.0
107.317734	52.0
107.503273	148.0
107.641701	204.0
107.686073	196.0
107.707794	56.0
107.72226	140.0
107.747047	144.0
107.782173	52.0
107.796638	184.0
107.824959	376.0
107.848312	116.0
107.906372	216.0
107.962029	276.0
108.044044	17772.0
108.110985	32.0
108.142998	204.0
108.164803	44.0
108.199997	136.0
108.250648	216.0
108.359474	100.0
108.407135	180.0
108.47139	52.0
108.622772	112.0
108.675728	76.0
108.756615	176.0
108.806267	208.0
108.838623	292.0
108.871849	204.0
108.924103	204.0
108.998573	192.0
109.045593	1076.0
109.079636	76.0
109.149345	196.0
109.239761	212.0
109.327148	160.0
109.368782	120.0
109.404846	184.0
109.43763	160.0
109.471558	176.0
109.514534	120.0
109.570457	204.0
109.664558	148.0
109.68541	252.0
109.73127	148.0
109.787575	88.0
109.820946	140.0
109.862892	184.0
109.88562	140.0
109.906487	88.0
109.929436	84.0
109.973267	168.0
110.063225	184.0
110.094368	180.0
110.138229	88.0
110.184189	64.0
110.276138	180.0
110.326309	140.0
110.357666	128.0
110.416222	72.0
110.525009	192.0
110.558495	144.0
110.59198	92.0
110.612915	168.0
110.664909	164.0
110.696663	64.0
110.757401	36.0
110.80349	68.0
111.027245	164.0
111.052956	64.0
111.159958	196.0
111.187241	100.0
111.355209	136.0
111.512794	372.0
111.533813	72.0
111.580063	112.0
111.693626	200.0
111.714668	208.0
111.790413	116.0
111.887245	68.0
111.9104	176.0
111.958839	208.0
112.000961	140.0
112.03569	500.0
112.095772	140.0
112.135818	112.0
112.150574	96.0
112.346687	76.0
112.602737	176.0
112.687241	148.0
112.730988	120.0
112.773254	180.0
112.81765	160.0
112.857819	236.0
112.900116	232.0
112.974709	204.0
113.008003	128.0
113.073608	92.0
113.168869	132.0
113.242989	156.0
113.296059	152.0
113.327728	164.0
113.378593	176.0
113.427345	108.0
113.575783	132.0
113.609482	156.0
113.660645	188.0
113.679741	116.0
113.771019	164.0
113.796494	196.0
113.819855	200.0
113.852768	120.0
113.88781	124.0
113.914444	172.0
114.080597	172.0
114.159866	176.0
114.181129	108.0
114.210915	164.0
114.289627	124.0
114.421379	196.0
114.512039	180.0
114.594116	192.0
114.640999	188.0
114.867012	152.0
114.933151	44.0
114.998688	204.0
115.046036	176.0
115.19577	172.0
115.268112	172.0
115.281906	216.0
115.34108	128.0
115.388115	176.0
115.445854	128.0
115.57634	148.0
115.623421	184.0
115.719757	136.0
115.766869	164.0
115.792564	100.0
115.912537	208.0
115.942543	228.0
115.9897	148.0
116.102921	144.0
116.167686	236.0
116.281418	56.0
116.382317	192.0
116.493935	132.0
116.532677	160.0
116.560608	260.0
116.575653	68.0
116.600525	204.0
116.827225	176.0
116.997246	124.0
117.038536	208.0
117.059044	360.0
117.188942	196.0
117.279457	92.0
117.335503	176.0
117.378632	120.0
117.469307	188.0
117.501579	168.0
117.520996	228.0
117.659134	136.0
117.978889	172.0
118.06971	176.0
118.184364	192.0
118.236298	288.0
118.301239	156.0
118.403008	196.0
118.543831	212.0
118.734711	184.0
118.797516	212.0
118.86261	180.0
118.936401	220.0
118.953773	160.0
118.975479	228.0
119.048233	600.0
119.107948	196.0
119.127502	180.0
119.213455	168.0
119.22963	164.0
119.244843	196.0
119.318756	148.0
119.396286	208.0
119.486229	64.0
119.508453	204.0
119.60157	56.0
119.622986	124.0
119.649033	204.0
119.675461	208.0
119.806274	232.0
119.830238	128.0
119.920876	208.0
119.969727	120.0
120.043861	208.0
120.224937	108.0
120.288231	132.0
120.395226	204.0
120.417847	132.0
120.462936	136.0
120.512489	188.0
120.639954	160.0
120.867424	176.0
120.889313	136.0
120.915573	164.0
120.959618	196.0
121.003136	184.0
121.049118	32.0
121.077591	136.0
121.143303	192.0
121.167404	184.0
121.345253	84.0
121.429802	160.0
121.511627	88.0
121.546188	160.0
121.592827	124.0
121.622032	208.0
121.66526	120.0
121.711372	104.0
121.884911	52.0
121.915672	156.0
122.007996	180.0
122.059196	348.0
122.181747	188.0
122.223549	184.0
122.282974	200.0
122.315987	212.0
122.365646	196.0
122.408463	128.0
122.479225	248.0
122.507584	104.0
122.602333	44.0
122.699318	164.0
122.727982	216.0
122.769882	148.0
122.911072	128.0
122.937553	196.0
123.034386	152.0
123.074417	164.0
123.096504	156.0
123.118912	136.0
123.301964	136.0
123.348381	188.0
123.379333	208.0
123.430183	176.0
123.483261	200.0
123.582817	144.0
123.634514	188.0
123.666916	228.0
123.702988	176.0
123.724472	72.0
123.757683	176.0
123.782036	116.0
123.83519	112.0
123.908295	120.0
123.976486	176.0
124.038094	880.0
124.174316	184.0
124.318527	80.0
124.334061	112.0
124.39621	188.0
124.421486	228.0
124.460602	64.0
124.498352	128.0
124.522781	164.0
124.573875	176.0
124.609421	84.0
124.631638	60.0
124.891418	156.0
124.982971	148.0
125.01413	136.0
125.04306	368.0
125.141014	72.0
125.156601	160.0
125.216728	212.0
125.236778	60.0
125.259048	116.0
125.345947	192.0
125.397202	184.0
125.439552	120.0
125.555504	164.0
125.586731	180.0
125.625435	148.0
125.689354	104.0
125.771935	160.0
125.82328	160.0
125.959511	320.0
125.98632	148.0
126.022614	244.0
126.054344	300.0
126.129341	180.0
126.174057	156.0
126.31942	160.0
126.344032	172.0
126.422348	96.0
126.525314	172.0
126.652962	160.0
126.711212	160.0
126.877068	132.0
126.980217	176.0
127.022079	184.0
127.063217	132.0
127.17318	168.0
127.271965	200.0
127.330353	184.0
127.382011	136.0
127.420204	180.0
127.456161	128.0
127.752953	64.0
127.812515	160.0
127.914978	140.0
127.952805	100.0
127.971542	228.0
128.043411	208.0
128.061615	164.0
128.164978	184.0
128.338547	108.0
128.386917	188.0
128.445404	212.0
128.454926	80.0
128.461136	180.0
128.48967	96.0
128.530289	232.0
128.573166	160.0
128.717651	196.0
128.7854	32.0
128.8116	308.0
129.054337	180.0
129.097305	100.0
129.199097	176.0
129.266968	172.0
129.29866	180.0
129.516022	48.0
129.552505	176.0
129.595322	192.0
129.622452	176.0
129.7892	172.0
129.822006	84.0
129.846954	152.0
129.915009	188.0
130.01712	152.0
130.064514	172.0
130.081223	200.0
130.164673	148.0
130.382767	132.0
130.43277	140.0
130.512344	136.0
130.789917	216.0
130.827927	228.0
130.833969	160.0
130.841568	180.0
130.974365	176.0
130.997131	148.0
131.013092	96.0
131.075027	332.0
131.199966	104.0
131.250137	408.0
131.298019	80.0
131.371017	44.0
131.47142	168.0
131.491959	144.0
131.571854	64.0
131.660904	132.0
131.912247	148.0
132.019714	156.0
132.035721	132.0
132.063171	120.0
132.257675	128.0
132.282852	52.0
132.333221	116.0
132.477509	144.0
132.505005	120.0
132.537079	160.0
132.608124	152.0
132.805313	184.0
132.828262	136.0
132.846603	144.0
132.945282	188.0
133.149612	188.0
133.204727	180.0
133.282852	280.0
133.319626	156.0
133.437683	164.0
133.466751	76.0
133.524246	244.0
133.60936	176.0
133.705353	216.0
133.729019	124.0
133.764908	232.0
133.816498	188.0
133.931641	136.0
133.97081	172.0
133.989243	60.0
134.005371	64.0
134.057556	592.0
134.178238	128.0
134.26355	216.0
134.280243	152.0
134.344284	204.0
134.401962	100.0
134.471207	76.0
134.487366	156.0
134.568161	176.0
134.598175	100.0
134.617905	224.0
134.662399	208.0
134.727524	168.0
134.773743	224.0
134.819946	132.0
135.030075	2040.0
135.06572	312.0
135.090485	212.0
135.173782	184.0
135.19693	136.0
135.245529	64.0
135.276566	148.0
135.291824	164.0
135.324615	152.0
135.361298	168.0
135.444672	92.0
135.49321	228.0
135.501343	216.0
135.509216	112.0
135.516861	200.0
135.546616	168.0
135.616608	204.0
135.648178	156.0
135.707642	240.0
135.724136	180.0
135.762329	168.0
135.784683	180.0
135.813065	136.0
135.828873	172.0
135.87326	348.0
135.888412	188.0
135.933304	284.0
135.966812	328.0
135.984543	592.0
136.039352	160472.0
136.111832	104.0
136.151825	144.0
136.187225	136.0
136.211533	96.0
136.240143	96.0
136.255188	96.0
136.28685	108.0
136.31456	236.0
136.332428	244.0
136.376205	36.0
136.398773	204.0
136.421402	1696.0
136.453125	180.0
136.488815	104.0
136.555084	168.0
136.587128	88.0
136.609314	84.0
136.638443	168.0
136.665375	112.0
136.694061	208.0
136.709213	64.0
136.72522	88.0
136.740417	340.0
136.761292	176.0
136.800995	72.0
136.842575	96.0
136.852921	152.0
136.858749	88.0
136.896332	28.0
136.926605	44.0
136.960236	172.0
136.983734	84.0
137.007538	204.0
137.042084	15152.0
137.08905	80.0
137.135971	104.0
137.20285	80.0
137.273865	68.0
137.339111	164.0
137.367157	104.0
137.397491	56.0
137.466385	68.0
137.488495	88.0
137.525833	68.0
137.546844	48.0
137.581863	132.0
137.603577	80.0
137.649582	92.0
137.720993	208.0
137.83548	76.0
137.866837	84.0
137.883194	52.0
137.918015	188.0
137.929443	112.0
137.937698	164.0
137.957397	172.0
137.972778	164.0
138.000198	80.0
138.015366	156.0
138.044571	968.0
138.092026	128.0
138.131439	124.0
138.16098	76.0
138.203293	96.0
138.241135	356.0
138.25882	132.0
138.275772	80.0
138.311234	132.0
138.33699	64.0
138.601654	64.0
138.710999	80.0
138.734314	80.0
138.78215	108.0
138.807938	56.0
138.83374	64.0
138.858536	84.0
138.896103	116.0
138.971191	108.0
139.031967	196.0
139.051941	156.0
139.115311	152.0
139.246811	84.0
139.376022	176.0
139.502945	48.0
139.667557	92.0
140.033234	136.0
140.077148	52.0
140.103073	68.0
140.190247	120.0
140.223251	48.0
140.242096	124.0
140.283051	108.0
140.602585	120.0
140.810745	112.0
140.96904	168.0
141.018661	136.0
141.038559	180.0
141.087219	136.0
141.125046	176.0
141.155792	36.0
141.510727	112.0
141.567566	164.0
141.598358	168.0
141.650467	264.0
141.773682	80.0
141.887451	108.0
141.911163	164.0
142.611511	100.0
142.632904	180.0
142.71611	112.0
142.763672	72.0
142.942093	164.0
143.29451	180.0
143.358841	112.0
143.542404	164.0
143.59726	80.0
143.940918	208.0
144.000626	184.0
144.017349	116.0
144.148758	56.0
144.189392	80.0
144.332825	108.0
144.406967	36.0
144.485901	184.0
144.619919	76.0
144.636673	172.0
144.813858	224.0
144.93605	144.0
144.98877	104.0
145.02298	280.0
145.058289	148.0
145.137405	108.0
145.15419	60.0
145.341293	256.0
145.382095	148.0
145.448517	232.0
145.538132	160.0
145.665421	76.0
145.75589	128.0
145.785553	72.0
145.90094	160.0
145.985092	152.0
146.08725	144.0
146.204025	172.0
146.237717	116.0
146.384583	188.0
146.49057	128.0
146.543564	144.0
146.589355	80.0
146.632736	44.0
146.71228	144.0
146.777374	60.0
146.820786	44.0
146.967941	212.0
147.286636	92.0
147.586319	180.0
147.808868	252.0
147.971039	88.0
148.09108	140.0
148.281113	72.0
148.375656	156.0
148.540573	136.0
148.654602	168.0
148.705566	104.0
148.894958	124.0
149.043137	164.0
149.120911	176.0
149.142792	76.0
149.295959	88.0
149.507629	156.0
150.054382	176.0
150.253281	28.0
150.282562	216.0
150.385056	200.0
150.421677	268.0
150.458298	212.0
150.642548	188.0
150.722092	176.0
150.807617	188.0
150.904739	88.0
151.022797	56.0
151.068985	164.0
151.306671	148.0
151.429108	120.0
151.446259	76.0
151.581009	168.0
151.71582	208.0
151.782028	232.0
151.858047	88.0
151.907822	216.0
152.035782	236.0
152.069427	704.0
152.137802	68.0
152.548065	148.0
152.823532	212.0
152.939194	152.0
153.04129	312.0
153.069687	172.0
153.335754	180.0
153.7341	80.0
154.236694	136.0
154.276245	288.0
154.533463	116.0
154.681961	332.0
155.165054	92.0
155.527252	128.0
156.016647	188.0
156.153412	160.0
156.317612	268.0
156.337524	180.0
156.591476	160.0
156.721024	216.0
156.81572	92.0
156.917923	44.0
156.957825	128.0
157.015182	176.0
157.040131	220.0
157.134918	120.0
157.309616	104.0
157.342072	56.0
157.36705	124.0
157.402008	156.0
157.711807	112.0
157.851822	160.0
157.966873	80.0
158.019409	172.0
158.342331	164.0
158.46759	144.0
158.517715	144.0
158.633011	48.0
158.969391	176.0
159.079544	140.0
159.157379	148.0
159.217651	184.0
159.778214	44.0
160.050049	188.0
160.070206	172.0
160.128128	232.0
160.427994	212.0
160.735703	72.0
161.052673	140.0
161.071503	52.0
161.106873	160.0
161.187729	140.0
161.587234	148.0
162.010056	112.0
162.093658	188.0
162.565353	156.0
162.946243	124.0
163.030106	160.0
163.065689	64.0
163.538773	264.0
163.559143	152.0
163.597336	156.0
163.737381	164.0
163.839279	164.0
163.895325	108.0
164.022766	152.0
164.064041	216.0
164.105286	1016.0
164.688766	148.0
165.015869	224.0
165.038879	76.0
165.084915	44.0
165.123276	216.0
165.17955	144.0
165.274216	164.0
165.532761	180.0
165.59935	28.0
166.045334	184.0
166.119003	188.0
166.153061	88.0
166.205978	148.0
166.378922	196.0
166.471359	216.0
166.933929	72.0
167.041962	180.0
167.106277	136.0
167.256775	88.0
167.285889	208.0
167.448669	220.0
167.590363	168.0
167.659927	148.0
167.737259	236.0
167.920334	128.0
168.224823	196.0
168.390091	144.0
168.550262	140.0
169.015717	160.0
169.134766	212.0
169.2202	120.0
169.502548	152.0
169.567337	188.0
169.60318	116.0
169.831818	188.0
170.280853	168.0
170.348389	132.0
170.730484	76.0
170.799744	236.0
170.929764	152.0
171.131226	120.0
171.165085	176.0
171.321365	228.0
171.798447	116.0
171.850632	56.0
171.983734	28.0
172.153442	116.0
172.37027	192.0
172.503571	160.0
172.524475	148.0
172.974442	140.0
173.094879	128.0
173.22847	48.0
173.561325	172.0
173.637375	268.0
173.681961	88.0
173.758041	116.0
174.03627	240.0
174.206985	148.0
174.27005	56.0
174.45665	176.0
174.480316	220.0
174.535522	140.0
174.58812	180.0
174.961777	120.0
174.980209	176.0
175.069733	208.0
175.114517	192.0
175.164566	200.0
175.222519	128.0
175.275223	184.0
175.633774	132.0
175.831665	132.0
175.959702	296.0
175.997986	120.0
176.103622	52.0
176.333496	128.0
176.537079	124.0
176.679916	184.0
176.793686	172.0
176.841339	148.0
177.318085	116.0
177.402908	140.0
177.449036	192.0
177.591187	232.0
177.662811	112.0
177.739761	192.0
177.856537	80.0
177.909637	148.0
178.185852	176.0
178.30011	64.0
178.473892	140.0
178.481598	192.0
178.646606	232.0
178.712296	124.0
178.820328	128.0
178.8853	96.0
178.970505	92.0
179.057312	9432.0
179.129562	72.0
179.351471	204.0
179.431458	40.0
179.450119	196.0
179.506119	76.0
179.671646	196.0
179.74086	152.0
179.839615	152.0
179.860962	144.0
179.882324	96.0
179.960922	272.0
179.997772	232.0
180.020782	56.0
180.06427	15004.0
180.136017	124.0
180.189453	136.0
180.210831	56.0
180.344452	60.0
180.440689	112.0
180.510208	72.0
180.528931	96.0
180.547653	32.0
180.582413	80.0
180.768204	36.0
180.791107	68.0
180.820816	120.0
180.960205	48.0
181.0681	1604.0
181.10704	172.0
181.189072	188.0
181.264633	144.0
181.302643	88.0
181.353561	72.0
181.387833	224.0
181.428619	140.0
181.458115	32.0
181.476883	200.0
181.619019	36.0
181.675354	192.0
181.828308	40.0
181.871246	96.0
182.071548	168.0
182.105637	260.0
182.271698	116.0
182.556381	72.0
182.685486	200.0
182.747375	156.0
182.916931	36.0
183.124268	192.0
183.337112	124.0
183.374847	156.0
183.458405	148.0
183.579742	108.0
184.47348	152.0
184.51944	120.0
184.608673	240.0
184.635727	32.0
185.079544	148.0
185.195999	148.0
185.431732	144.0
185.532028	56.0
185.746262	140.0
185.76796	168.0
185.816803	140.0
185.898209	208.0
186.150681	96.0
186.240311	104.0
186.267471	104.0
186.411469	92.0
186.512039	116.0
186.705078	196.0
186.800278	152.0
186.833038	188.0
187.164993	140.0
187.292999	212.0
187.421051	200.0
187.510971	120.0
187.549133	180.0
187.750519	112.0
187.840912	80.0
188.034653	120.0
188.426392	184.0
188.799652	188.0
188.837936	48.0
188.889908	196.0
189.201889	192.0
189.590622	180.0
189.621002	144.0
189.645676	192.0
189.769043	188.0
190.002182	132.0
190.076263	152.0
190.12291	132.0
190.284866	84.0
190.309586	172.0
190.353516	80.0
190.446899	180.0
190.485352	72.0
190.570526	196.0
190.61998	176.0
190.677704	124.0
190.768417	188.0
190.826141	88.0
190.944397	124.0
190.969147	300.0
191.28656	184.0
191.303345	116.0
191.343658	132.0
191.40123	188.0
191.49762	104.0
191.525177	288.0
191.563736	268.0
191.586349	76.0
191.621597	136.0
191.668427	88.0
191.70932	124.0
191.766129	152.0
191.786942	300.0
191.821808	68.0
191.89595	332.0
191.927551	208.0
191.946854	144.0
192.005539	432.0
192.011932	60.0
192.060852	380.0
192.101807	129528.0
192.168701	92.0
192.21257	120.0
192.253647	52.0
192.290207	96.0
192.301361	108.0
192.342896	208.0
192.370468	172.0
192.398529	216.0
192.445068	180.0
192.482849	168.0
192.525345	148.0
192.555466	640.0
192.583008	84.0
192.611069	216.0
192.64415	104.0
192.679169	52.0
192.712555	88.0
192.762543	196.0
192.809311	88.0
192.844803	80.0
192.866013	52.0
192.897156	128.0
192.924286	76.0
192.949173	140.0
192.974045	120.0
193.020142	72.0
193.103867	11512.0
193.183395	168.0
193.246964	60.0
193.325363	132.0
193.373657	80.0
193.385941	36.0
193.39325	76.0
193.449921	144.0
193.472595	84.0
193.511108	40.0
193.566849	52.0
193.625854	112.0
193.674225	80.0
193.805588	124.0
193.909744	84.0
193.954559	48.0
194.056671	72.0
194.106812	1548.0
194.17868	116.0
194.200729	76.0
194.239716	48.0
194.259125	96.0
194.287521	68.0
194.308075	112.0
194.327911	76.0
194.354156	80.0
194.380722	184.0
194.421066	100.0
194.443192	88.0
194.472061	100.0
194.479614	112.0
194.521912	140.0
194.537643	232.0
194.563171	144.0
194.635941	88.0
194.654205	236.0
194.689819	120.0
194.725464	72.0
194.767136	96.0
194.829895	168.0
194.950516	64.0
195.028336	28.0
195.050568	60.0
195.111725	328.0
195.203491	196.0
195.350403	132.0
195.371414	108.0
195.459412	48.0
195.54718	164.0
195.676529	72.0
195.857544	168.0
195.890793	124.0
195.98291	48.0
196.026489	88.0
196.090607	180.0
196.417847	160.0
196.437378	108.0
197.384201	72.0
197.577209	60.0
197.652756	68.0
198.187592	88.0
199.166718	80.0
199.478638	48.0
201.304443	64.0
201.651627	36.0
202.104431	132.0
202.152542	148.0
202.342194	72.0
203.237869	104.0
203.82283	144.0
204.033157	208.0
204.280579	108.0
204.34317	96.0
205.029449	68.0
205.611267	68.0
205.645523	56.0
205.956757	84.0
206.554199	196.0
206.857529	152.0
206.969193	164.0
207.143906	72.0
207.244171	68.0
207.398941	44.0
207.981232	128.0
208.41777	52.0
208.981354	112.0
209.185699	108.0
209.611969	44.0
209.663849	84.0
209.949265	180.0
210.125107	192.0
210.367661	112.0
210.564011	76.0
211.298813	168.0
211.338776	64.0
211.778824	44.0
214.982849	108.0
216.005508	188.0
217.36499	64.0
217.862259	232.0
218.593338	124.0
218.663971	92.0
218.94368	72.0
219.017303	48.0
219.085068	112.0
219.831055	208.0
220.067215	144.0
220.664062	76.0
221.931335	64.0
222.299179	76.0
222.426804	292.0
223.163589	188.0
224.858658	68.0
226.329514	68.0
227.267731	160.0
227.823181	92.0
228.207901	136.0
228.523727	124.0
229.047562	52.0
229.162048	120.0
229.484573	88.0
232.048584	140.0
232.282501	156.0
232.482361	76.0
232.764694	128.0
233.135315	144.0
233.554901	120.0
233.725266	192.0
233.85614	112.0
234.517105	92.0
234.546677	80.0
234.745773	48.0
234.91658	96.0
234.95929	52.0
235.069138	76.0
235.130173	160.0
235.154587	80.0
235.227844	116.0
235.438538	172.0
235.562698	148.0
235.734863	184.0
235.814331	120.0
235.942719	156.0
235.976898	176.0
236.0616	164.0
236.127441	30052.0
236.19043	68.0
236.211853	64.0
236.317398	56.0
236.386246	132.0
236.422974	68.0
236.468887	76.0
236.52092	40.0
236.560715	36.0
236.620575	36.0
236.683182	84.0
236.756683	52.0
236.808746	148.0
236.876343	60.0
236.919022	52.0
236.968048	144.0
237.130112	2928.0
237.223785	72.0
237.424805	32.0
237.679428	84.0
237.733322	64.0
237.83287	48.0
238.132828	760.0
238.204437	52.0
238.315033	52.0
238.408615	88.0
238.437958	80.0
238.478989	120.0
238.656235	76.0
238.74234	92.0
238.785782	96.0
238.809998	136.0
238.831528	88.0
238.880234	48.0
238.903473	72.0
238.960739	196.0
240.285614	56.0
240.828934	68.0
241.641983	48.0
242.131088	68.0
242.617599	64.0
244.341309	76.0
244.901657	124.0
246.105453	56.0
247.080643	176.0
247.678574	104.0
247.791367	96.0
247.850891	80.0
248.578415	80.0
248.8358	136.0
248.961411	92.0
249.332138	52.0
251.161499	140.0
252.541855	72.0
252.652588	56.0
255.816681	64.0
257.89975	84.0
258.53302	72.0
259.099792	116.0
259.211945	88.0
261.196136	160.0
263.246033	120.0
266.361877	56.0
267.750763	136.0
267.84198	56.0
271.148682	72.0
271.515869	80.0
276.75238	96.0
277.209503	36.0
279.707184	40.0
280.7901	80.0
280.960236	124.0
281.133759	40.0
282.778107	148.0
284.333252	60.0
285.45871	44.0
292.639374	88.0
295.215729	56.0
295.345703	40.0
306.309509	96.0
308.179535	64.0
309.123657	144.0
312.196838	80.0
312.478241	76.0
314.787079	128.0
315.988892	72.0
317.703674	44.0
318.374542	80.0
318.882629	108.0
324.784973	64.0
328.11145	100.0
333.814514	84.0
334.727905	112.0
340.954529	84.0
343.262787	116.0
346.593445	104.0
347.342377	124.0
355.423676	68.0
363.863647	88.0
365.486633	68.0
372.225983	56.0
372.429535	32.0
373.709747	48.0
375.477936	56.0
377.165283	52.0
390.53653	96.0
392.154846	112.0
393.69751	56.0
396.617493	100.0
397.037781	64.0
409.367249	80.0
411.863861	128.0
414.680084	84.0
421.088409	68.0
424.39917	56.0
425.387939	60.0
429.082367	64.0
431.274475	84.0
441.080505	80.0
450.248901	56.0
452.041412	52.0
467.322632	104.0
470.909393	116.0
472.980591	72.0
487.162415	120.0
488.49884	136.0
516.358032	96.0
519.05719	116.0
524.285156	76.0
527.105469	36.0
532.318665	128.0
547.832458	120.0
554.922546	108.0
561.737305	60.0
571.306946	44.0
574.498901	68.0
604.932922	132.0
622.640259	92.0
630.352295	52.0
634.075745	164.0
634.787659	36.0
638.871277	92.0
654.608093	52.0
687.010925	176.0
697.300659	52.0
705.603333	204.0
710.651001	140.0
715.791138	156.0
719.966858	116.0
734.529053	244.0
735.975464	104.0
737.823303	164.0
742.230774	32.0
747.010376	112.0
762.81488	232.0
777.474548	252.0
781.297546	188.0
783.084412	104.0
784.193237	64.0
788.150024	108.0
789.240051	180.0
794.258179	40.0
797.734253	240.0
800.772888	44.0
802.029419	204.0
814.256897	152.0
814.824951	56.0
824.346619	128.0
825.970398	188.0
830.61615	172.0
833.130615	212.0
835.976868	132.0
836.097717	180.0
836.333679	204.0
841.031494	172.0
841.412537	108.0
842.972107	176.0
844.920715	156.0
845.071167	160.0
849.874695	204.0
852.174072	140.0
856.863647	168.0
858.530823	260.0
862.998108	196.0
869.483032	164.0
873.172791	168.0
873.43158	184.0
875.326721	204.0
876.404724	136.0
877.872559	80.0
887.309937	132.0
888.780945	40.0
894.885498	212.0
899.076172	116.0
901.853516	48.0
907.397034	148.0
907.756836	140.0
908.128662	168.0
908.518616	196.0
908.680603	180.0
912.795227	232.0
915.424988	164.0
917.16626	136.0
917.521912	188.0
917.744995	72.0
919.512573	140.0
922.03717	164.0
922.369629	72.0
923.990417	212.0
924.898193	220.0
925.776123	60.0
933.002991	104.0
933.562378	124.0
934.553955	144.0
936.465576	96.0
937.135681	148.0
939.330505	44.0
940.184753	216.0
940.868408	152.0
941.442383	152.0
942.095947	176.0
946.009949	188.0
947.081604	124.0
950.177429	160.0
950.496521	168.0
951.435608	148.0
953.198486	164.0
955.522766	148.0
962.839905	96.0
962.907837	176.0
964.557678	152.0
964.712219	100.0
964.780212	184.0
965.367615	156.0
970.619019	188.0
971.785156	244.0
972.449158	104.0
978.174133	152.0
978.329773	100.0
978.56012	180.0
979.027161	64.0
979.880554	92.0
979.97406	172.0
983.984558	132.0
985.158752	132.0
992.318665	172.0
992.8078	164.0
993.202942	260.0
994.250732	176.0
996.052795	192.0
997.806213	144.0
998.529358	128.0
1000.794922	140.0
1001.103455	132.0
1001.487671	108.0
1004.040344	100.0
1006.375244	204.0
1006.545776	196.0
1007.783813	148.0
1009.496887	196.0
1012.02179	192.0
1015.469299	128.0
1016.915955	96.0
1017.722229	112.0
1018.827332	196.0
1021.471985	64.0
1023.572327	180.0
1024.234741	172.0
1024.648804	144.0
1025.846924	52.0
1026.386475	240.0
1027.358398	164.0
1028.275757	176.0
1029.043335	164.0
1029.656372	228.0
1029.950195	172.0
1033.453735	108.0
1036.463257	168.0
1037.168213	196.0
1037.629883	144.0
1040.240967	192.0
1041.512451	184.0
1041.962158	168.0
1042.559692	108.0
1042.977539	232.0
1043.479004	196.0
1044.212036	188.0
1044.919678	180.0
1045.711182	180.0
1045.96875	156.0
1046.8573	200.0
1047.147095	176.0
1049.537964	116.0
1050.731201	60.0
1052.964844	176.0
1053.759399	108.0
1053.953247	196.0
1055.524048	140.0
1057.60083	152.0
1059.601929	144.0
1060.411987	220.0
1061.87085	196.0
1062.032959	156.0
1062.766113	176.0
1067.625244	80.0
1067.878784	160.0
1068.640015	212.0
1069.147583	136.0
1069.297241	116.0
1073.408203	140.0
1074.438721	220.0
1075.580811	128.0
1076.455688	208.0
1076.762695	132.0
1077.089233	144.0
1078.579102	176.0
1078.775269	128.0
1079.533691	204.0
1080.279419	156.0
1081.064575	160.0
1081.974365	108.0
1082.706299	188.0
1082.86499	220.0
1083.651123	100.0
1083.926392	44.0
1087.822388	148.0
1088.984619	156.0
1089.720337	196.0
1090.265869	204.0
1090.692993	116.0
1091.863403	224.0
1093.205566	156.0
1093.34375	164.0
1095.378418	148.0
1096.841309	200.0
1097.619263	132.0
1097.737915	176.0
1097.988647	176.0
1098.173218	212.0
1098.404175	180.0
1100.938721	160.0
1101.936157	148.0
1102.312866	196.0
1103.410034	196.0
1103.48938	204.0
1104.547607	168.0
1104.660034	184.0
1104.931274	204.0
1105.540039	124.0
1106.06958	168.0
1106.248291	148.0
1106.374146	156.0
1106.559448	48.0
1107.93042	308.0
1109.017212	160.0
1109.30896	140.0
1109.753174	156.0
1110.675049	188.0
1110.774536	196.0
1111.298584	196.0
1112.639404	184.0
1113.708496	196.0
1114.778198	148.0
1115.502686	152.0
1115.742065	128.0
1117.112061	160.0
1119.39502	156.0
1119.474976	160.0
1120.506348	176.0
1120.787354	204.0
1121.060547	180.0
1123.040649	132.0
1123.874634	128.0
1123.947998	116.0
1124.161621	192.0
1124.521973	212.0
1124.708862	160.0
1124.862427	156.0
1124.975952	192.0
1125.710327	184.0
1127.139893	176.0
1127.574341	160.0
1128.035522	60.0
1128.189331	228.0
1128.650635	184.0
1131.106079	148.0
1131.902832	144.0
1132.355713	228.0
1134.355103	40.0
1134.717041	196.0
1134.770752	136.0
1135.14624	152.0
1137.494629	180.0
1138.166016	240.0
1138.354004	92.0
1138.864502	200.0
1140.517456	208.0
1141.875732	124.0
1142.460938	156.0
1142.992432	280.0
1143.214478	148.0
1143.382812	232.0
1145.025635	128.0
1147.512207	232.0
1147.613403	56.0
1147.910034	176.0
1149.252441	200.0
1149.321655	172.0
1150.352539	168.0
1152.797607	228.0
1153.067993	172.0
1156.050537	140.0
1156.646118	160.0
1158.034302	252.0
1158.198608	240.0
1159.633301	64.0
1160.040039	132.0
1160.406128	84.0
1162.549683	156.0
1162.814453	148.0
1163.371094	180.0
1163.778442	184.0
1164.022827	76.0
1166.054199	156.0
1166.638794	48.0
1169.033081	116.0
1169.10791	108.0
1169.720581	184.0
1170.523926	232.0
1171.531982	180.0
1171.779907	200.0
1172.036255	164.0
1172.138428	188.0
1172.424683	172.0
1173.0177	188.0
1173.488037	76.0
1174.217773	164.0
1175.384399	92.0
1175.671021	120.0
1175.759766	112.0
1176.060059	232.0
1177.200195	144.0
1177.814941	184.0
1178.563843	220.0
1179.078979	140.0
1179.41394	144.0
1179.543823	128.0
1180.993408	80.0
1181.273926	160.0
1181.335449	240.0
1181.889648	136.0
1182.245605	204.0
1184.032471	172.0
1184.27417	200.0
1185.423218	220.0
1185.882446	136.0
1186.012573	164.0
1187.747437	164.0
1188.577637	152.0
1189.023682	188.0
1189.181641	152.0
1190.898193	136.0
1191.049316	144.0
1191.15918	208.0
1191.406494	176.0
1193.564697	124.0
1194.630859	164.0
1194.968018	108.0
1195.146851	124.0
1198.720825	188.0
1198.92749	192.0
1199.637451	176.0
1200.554565	180.0
1201.030518	160.0
1201.216675	240.0
1202.686523	168.0
1203.383789	92.0
1203.853394	136.0
1203.929321	204.0
1204.433594	200.0
1205.12439	280.0
1206.824829	164.0
1207.115234	180.0
1208.934692	124.0
1209.301514	164.0
1210.312256	172.0
1211.183105	88.0
1211.3927	136.0
1211.496704	212.0
1212.362793	188.0
1212.515259	76.0
1213.152954	124.0
1213.464966	168.0
1214.345703	136.0
1215.317017	128.0
1217.337036	180.0
1217.628662	196.0
1217.725952	188.0
1218.33728	96.0
1218.59436	168.0
1219.497803	172.0
1221.31958	168.0
1221.458618	180.0
1221.542114	100.0
1222.495361	156.0
1222.578857	104.0
1224.208008	60.0
1224.291504	136.0
1225.796265	164.0
1226.130859	64.0
1226.409668	124.0
1226.813965	144.0
1227.071899	52.0
1228.9552	116.0
1229.004028	60.0
1229.387817	180.0
1230.428589	192.0
1230.609375	216.0
1231.468384	160.0
1232.712036	168.0
1232.949585	168.0
1233.005493	92.0
1233.775635	124.0
1233.822632	180.0
1234.054199	68.0
1234.477539	196.0
1235.229126	100.0
1235.453003	128.0
1235.508911	144.0
1236.075684	188.0
1237.580688	144.0
1238.36499	164.0
1238.7854	132.0
1240.046631	224.0
1240.130737	188.0
1240.235962	212.0
1240.29895	168.0
1240.56543	140.0
1240.915894	84.0
1241.084229	76.0
1242.332642	168.0
1242.388794	80.0
1245.737549	204.0
1245.885132	176.0
1246.714233	148.0
1247.058594	200.0
1247.410156	164.0
1248.092041	172.0
1248.141357	120.0
1248.281982	164.0
1248.886841	132.0
1249.196289	192.0
1250.477051	84.0
1250.786743	224.0
1250.835938	184.0
1252.751465	208.0
1252.843018	136.0
1253.026245	108.0
1253.540649	180.0
1253.82251	136.0
1255.451172	104.0
1257.800659	76.0
1257.857178	216.0
1258.068115	204.0
1258.196045	160.0
1260.428101	192.0
1260.844971	216.0
1261.424683	204.0
1261.975464	232.0
1262.181152	32.0
1263.447266	144.0
1263.624146	204.0
1263.822266	96.0
1264.473267	88.0
1264.92627	204.0
1265.074951	168.0
1266.795898	204.0
1267.065063	172.0
1267.554077	176.0
1269.106445	164.0
1269.375854	208.0
1269.61792	188.0
1269.680786	156.0
1269.943237	204.0
1270.042603	204.0
1270.326294	184.0
1270.794556	192.0
1271.29126	84.0
1271.901733	96.0
1271.998779	160.0
1272.235352	184.0
1272.547729	148.0
1272.87439	152.0
1272.987305	200.0
1273.229492	92.0
1275.19043	92.0
1275.439209	92.0
1275.545898	172.0
1277.152954	88.0
1277.515747	256.0
1278.29126	160.0
1278.88208	128.0
1279.423096	212.0
1279.50769	176.0
1280.199219	136.0
1280.555298	236.0
1281.410156	200.0
1281.94458	260.0
1282.046631	148.0
1282.151245	56.0
1282.279541	176.0
1283.277588	248.0
1283.983643	172.0
1284.290283	124.0
1284.661255	148.0
1286.145508	140.0
1286.331177	176.0
1287.977539	196.0
1288.037842	232.0
1288.373657	88.0
1288.759521	168.0
1289.466919	168.0
1289.817261	116.0
1290.289062	128.0
1290.432007	196.0
1291.390381	176.0
1292.377563	172.0
1292.663818	116.0
1293.207764	104.0
1294.825928	124.0
1295.41333	120.0
1296.2229	232.0
1297.040039	108.0
1297.520264	124.0
1298.502808	128.0
1298.581665	208.0
1298.875732	204.0
1299.069458	188.0
1300.016602	192.0
1300.526123	96.0
1300.971191	124.0
1301.315796	164.0
1301.437866	164.0
1302.290894	152.0
1302.472168	256.0
1302.622925	200.0
1302.831299	208.0
1304.045776	152.0
1304.225464	108.0
1304.477051	280.0
1304.592041	128.0
1304.721436	200.0
1305.217651	208.0
1305.713867	84.0
1305.800171	188.0
1306.670532	180.0
1306.828857	152.0
1306.994385	192.0
1307.116699	220.0
1308.095581	116.0
1308.556641	228.0
1308.959595	128.0
1309.139648	176.0
1309.456543	168.0
1309.960693	164.0
1310.292114	184.0
1310.919067	160.0
1311.106445	124.0
1311.870483	152.0
1311.978638	168.0
1312.086792	140.0
1312.771729	132.0
1313.11792	188.0
1313.980347	108.0
1314.257812	152.0
1314.950562	132.0
1315.376465	124.0
1315.860229	184.0
1316.105713	164.0
1316.640137	184.0
1316.784546	212.0
1318.236694	168.0
1318.626953	160.0
1320.883057	140.0
1321.013184	172.0
1321.18689	136.0
1321.548584	124.0
1322.127563	176.0
1323.133667	208.0
1323.42334	224.0
1323.995483	136.0
1325.697998	52.0
1326.002319	200.0
1326.538696	164.0
1326.950806	196.0
1327.184082	160.0
1327.452271	112.0
1327.546631	156.0
1327.83667	152.0
1327.938232	120.0
1328.518555	40.0
1328.823242	192.0
1328.917969	172.0
1328.978638	168.0
1329.186157	148.0
1329.85376	188.0
1330.035278	148.0
1330.376465	140.0
1330.57251	200.0
1331.044434	192.0
1331.262329	116.0
1331.574585	172.0
1332.155762	172.0
1332.417236	228.0
1333.296509	204.0
1333.550903	240.0
1334.546875	184.0
1334.830444	176.0
1335.412354	176.0
1336.2323	180.0
1336.372559	152.0
1336.452637	256.0
1336.794678	220.0
1336.855347	152.0
1337.486084	192.0
1338.192261	124.0
1338.97876	152.0
1339.784058	108.0
1340.020508	204.0
1340.140869	144.0
1340.370239	144.0
1340.421265	180.0
1341.20105	124.0
1341.302612	156.0
1341.376099	208.0
1341.572876	208.0
1342.185303	136.0
1342.411377	136.0
1342.5354	100.0
1343.293945	172.0
1343.644165	64.0
1345.132935	152.0
1346.147827	180.0
1346.483765	144.0
1346.615234	180.0
1346.870972	140.0
1347.161255	136.0
1347.280029	64.0
1347.477295	116.0
1347.638062	84.0
1348.113037	224.0
1348.244629	220.0
1348.558838	160.0
1350.233398	172.0
1351.425659	168.0
1351.790527	144.0
1351.893921	128.0
1352.237915	132.0
1352.940674	112.0
1353.218872	168.0
1353.42395	80.0
1353.526489	176.0
1353.782715	172.0
1355.80481	160.0
1355.856079	68.0
1356.024658	72.0
1356.706421	144.0
1357.168335	200.0
1358.56189	172.0
1358.921387	108.0
1359.559814	144.0
1359.780029	156.0
1359.970825	160.0
1360.066284	160.0
1360.528809	148.0
1361.358521	156.0
1361.53479	152.0
1361.755127	100.0
1361.806519	144.0
1362.313354	160.0
1363.408203	256.0
1363.885986	228.0
1364.165283	160.0
1364.929932	128.0
1365.150635	212.0
1366.835205	160.0
1368.844849	180.0
1369.316284	136.0
1369.979248	168.0
1370.605469	116.0
1371.136108	76.0
1371.202026	204.0
1373.236694	232.0
1373.488159	84.0
1373.919556	236.0
1374.262817	72.0
1374.543213	176.0
1374.653931	184.0
1376.108154	136.0
1376.366577	164.0
1376.898315	48.0
1376.979614	228.0
1377.097778	192.0
1378.006348	80.0
1378.523682	160.0
1379.078003	180.0
1379.22583	172.0
1379.51416	156.0
1379.950317	124.0
1380.490112	60.0
1380.985596	160.0
1381.362915	64.0
1381.651489	160.0
1381.784668	148.0
1382.807129	180.0
1383.116699	172.0
1383.871826	192.0
1384.071777	460.0
1385.086426	252.0
1385.190186	64.0
1385.76062	144.0
1386.03479	120.0
1386.887085	160.0
1386.976074	140.0
1387.083008	196.0
1387.494995	240.0
1387.613647	152.0
1387.865723	132.0
1388.110474	20.0
1388.533203	128.0
1388.681519	192.0
1389.117432	184.0
1390.566162	320.0
1390.722046	44.0
1391.575073	172.0
1394.369019	152.0
1394.985962	156.0
1395.722046	188.0
1395.903809	176.0
1396.212769	172.0
1396.294678	164.0
1398.288574	132.0
1398.712891	80.0
1399.266724	316.0
1399.61377	148.0
1400.336182	92.0
1400.693726	144.0
1401.24939	140.0
1401.356812	124.0
1401.945435	204.0
1402.221191	140.0
1402.735596	148.0
1403.247803	216.0
1404.150269	204.0
1405.077271	152.0
1405.204102	136.0
1406.696777	136.0
1407.20874	140.0
1407.338867	60.0
1407.480713	176.0
1407.55542	112.0
1407.749634	80.0
1408.063232	136.0
1408.459106	200.0
1408.705688	148.0
1409.132935	184.0
1410.035767	124.0
1410.194458	84.0
1410.267456	148.0
1410.566284	204.0
1411.598267	208.0
1411.717896	128.0
1411.815063	104.0
1412.433594	176.0
1412.630371	124.0
1413.184082	168.0
1413.82019	112.0
1415.010376	184.0
1415.070312	176.0
1416.830322	208.0
1416.942749	100.0
1417.931885	168.0
1418.164307	132.0
1418.749023	200.0
1419.101318	112.0
1419.89624	164.0
1420.188843	144.0
1420.511353	120.0
1421.156616	168.0
1421.494263	184.0
1421.651855	92.0
1421.764404	200.0
1421.974609	140.0
1422.342407	152.0
1423.273315	160.0
1423.333496	104.0
1423.896729	156.0
1424.039429	96.0
1424.970947	204.0
1425.151245	212.0
1427.368774	140.0
1428.480591	140.0
1428.880615	176.0
1429.086426	104.0
1429.850098	144.0
1431.364624	104.0
1432.057495	188.0
1432.253296	208.0
1432.336182	136.0
1432.908813	184.0
1433.030396	192.0
1433.134766	176.0
1434.076904	144.0
1434.7677	260.0
1434.823975	208.0
1434.981445	124.0
1436.012451	152.0
1436.214722	188.0
1437.085938	188.0
1437.817871	148.0
1437.961304	48.0
1438.082031	180.0
1438.338745	240.0
1438.532104	180.0
1438.686035	132.0
1439.675171	188.0
1439.87146	156.0
1440.098145	64.0
1440.959351	140.0
1441.510986	228.0
1441.956787	200.0
1442.516235	136.0
1442.644653	200.0
1443.060547	168.0
1443.340332	192.0
1443.461304	180.0
1443.536987	140.0
1443.854614	124.0
1444.452148	168.0
1445.910156	180.0
1446.843628	116.0
1447.032837	124.0
1447.244873	84.0
1447.297852	164.0
1447.429932	220.0
1447.562866	156.0
1448.047607	272.0
1448.22937	148.0
1448.615723	76.0
1448.676392	140.0
1448.971802	100.0
1449.040039	164.0
1449.282471	244.0
1450.502686	192.0
1451.624878	72.0
1452.246704	260.0
1452.49707	172.0
1452.944702	160.0
1453.322021	176.0
1453.566772	216.0
1454.181641	128.0
1454.325806	100.0
1454.993896	180.0
1455.199463	260.0
1455.411499	116.0
1455.851929	156.0
1456.057007	144.0
1456.178467	196.0
1456.315186	136.0
1456.48999	176.0
1456.695068	168.0
1456.869751	164.0
1457.074951	164.0
1457.34082	184.0
1457.469971	164.0
1458.37439	200.0
1458.65564	192.0
1460.206909	220.0
1460.708862	164.0
1460.959961	168.0
1461.203369	60.0
1461.401245	244.0
1461.697998	168.0
1461.865356	128.0
1461.932617	148.0
1462.413452	64.0
1462.557983	148.0
1462.664551	68.0
1463.395508	156.0
1463.456421	152.0
1463.524902	164.0
1463.593384	136.0
1463.898071	144.0
1464.210327	152.0
1464.385498	56.0
1464.850098	60.0
1464.972046	68.0
1466.168335	192.0
1466.252197	220.0
1466.694214	72.0
1466.755249	116.0
1466.808594	180.0
1467.304199	172.0
1467.456665	184.0
1467.677734	188.0
1468.638672	92.0
1469.104004	144.0
1469.187988	144.0
1469.393921	180.0
1469.737305	140.0
1470.012085	128.0
1470.164673	140.0
1470.3479	72.0
1470.752441	168.0
1470.950806	188.0
1471.697754	164.0
1471.928101	224.0
1472.798828	76.0
1472.852295	132.0
1473.249512	180.0
1473.585693	36.0
1473.700317	136.0
1473.799683	128.0
1473.967773	208.0
1474.418701	248.0
1474.85437	220.0
1474.968994	204.0
1475.381836	152.0
1476.329956	156.0
1476.635864	160.0
1476.697144	60.0
1477.217285	176.0
1477.439087	184.0
1477.50708	176.0
1477.951782	136.0
1478.074219	148.0
1478.196655	164.0
1478.577026	148.0
1478.640503	192.0
1478.755371	160.0
1479.204102	140.0
1479.582031	176.0
1480.738403	156.0
1480.914551	272.0
1481.121338	204.0
1481.581055	140.0
1481.672974	156.0
1481.833862	192.0
1482.109741	140.0
1482.408569	220.0
1482.906738	164.0
1482.965454	176.0
1483.159668	164.0
1483.320679	128.0
1485.564087	168.0
1485.974243	200.0
1486.373291	128.0
1486.491943	256.0
1486.649536	164.0
1486.856689	92.0
1487.372192	184.0
1488.35376	156.0
1488.829834	92.0
1488.906616	200.0
1489.352173	96.0
1489.498047	120.0
1489.605591	152.0
1489.705566	204.0
1490.128052	216.0
1490.343262	184.0
1490.458496	196.0
1491.42688	124.0
1491.657471	144.0
1491.726685	176.0
1491.86499	204.0
1491.949585	160.0
1492.234131	144.0
1493.105957	180.0
1493.533813	172.0
1493.926147	128.0
1494.033447	156.0
1494.364624	248.0
1494.426147	260.0
1494.61084	140.0
1494.826294	176.0
1495.411255	120.0
1495.488281	180.0
1495.649902	112.0
1495.773071	128.0
1495.849976	232.0
1496.119507	216.0
1496.350464	164.0
1496.511719	204.0
1497.082031	172.0
1497.235962	140.0
1497.470215	248.0
1497.567261	160.0
1497.69043	68.0
1498.098755	144.0
1498.39917	148.0
1498.661133	172.0
1498.761353	188.0
1499.1698	160.0
1500.295166	136.0
1500.580444	176.0
1501.428711	232.0
1501.559814	180.0
1501.829712	168.0
1502.747803	128.0
1504.144775	164.0
1504.36084	204.0
1505.225586	76.0
END IONS

BEGIN IONS
PEPMASS=207.153
CHARGE=1
MSLEVEL=2
SOURCE_INSTRUMENT=LC-ESI-qTof
FILENAME=p5-C02_GC2_01_18447.mzXML
SEQ=*..*
IONMODE=Positive
ORGANISM=GNPS-NIH-SMALLMOLECULEPHARMACOLOGICALLYACTIVE
NAME=MLS000766260-01!Oxotremorine M+H
PI=Dorrestein
DATACOLLECTOR=VP/LMS
SMILES=O=C1CCCN1CC#CCN2CCCC2
INCHI=N/A
INCHIAUX=N/A
PUBMED=N/A
SUBMITUSER=vphelan
LIBRARYQUALITY=3
SPECTRUMID=CCMSLIB00000086040
USI=mzspec:GNPS:GNPS-NIH-SMALLMOLECULEPHARMACOLOGICALLYACTIVE:accession:CCMSLIB00000086040
SCANS=229
48.123684	148.0
56.626331	156.0
66.578133	160.0
76.472893	152.0
77.831207	224.0
91.053131	128.0
92.054939	180.0
92.998642	200.0
93.063881	224.0
93.158012	60.0
94.061127	72.0
96.007133	180.0
96.081253	152.0
104.230049	296.0
105.179077	164.0
106.068848	96.0
107.077667	200.0
108.081604	384.0
116.926514	40.0
117.055679	128.0
120.065727	112.0
120.080994	176.0
120.834602	40.0
122.099251	344.0
134.06424	128.0
136.0755	604.0
136.095169	108.0
137.081009	116.0
207.139465	120.0
334.934204	36.0
916.580627	256.0
997.949646	120.0
1038.317993	148.0
1222.120728	172.0
1450.242065	136.0
END IONS

BEGIN IONS
PEPMASS=307.243
CHARGE=1
MSLEVEL=2
SOURCE_INSTRUMENT=LC-ESI-qTof
FILENAME=p5-G04_GG4_01_18473.mzXML
SEQ=*..*
IONMODE=Positive
ORGANISM=GNPS-NIH-SMALLMOLECULEPHARMACOLOGICALLYACTIVE
NAME=MLS000028619-01!BUTACAINE149-16-6 M+H
PI=Dorrestein
DATACOLLECTOR=VP/LMS
SMILES=CCCCN(CCCC)CCCOC(=O)c1ccc(N)cc1
INCHI=N/A
INCHIAUX=N/A
PUBMED=N/A
SUBMITUSER=vphelan
LIBRARYQUALITY=1
SPECTRUMID=CCMSLIB00000086158
USI=mzspec:GNPS:GNPS-NIH-SMALLMOLECULEPHARMACOLOGICALLYACTIVE:accession:CCMSLIB00000086158
SCANS=1551
44.932045	128.0
45.091846	184.0
45.112335	72.0
45.160473	168.0
45.176525	128.0
45.222019	128.0
45.30772	132.0
45.322456	168.0
45.37875	160.0
45.429714	200.0
45.439106	160.0
45.480705	84.0
45.491444	192.0
45.511581	88.0
45.520981	144.0
45.542469	168.0
45.55859	140.0
45.58971	172.0
45.681282	208.0
45.720005	160.0
45.772442	148.0
45.851921	80.0
45.958454	164.0
45.980045	144.0
46.086918	172.0
46.109695	148.0
46.140785	204.0
46.175945	184.0
46.207058	228.0
46.221939	240.0
46.26796	208.0
46.320774	180.0
46.360065	192.0
46.383106	112.0
46.398018	232.0
46.411575	144.0
46.44548	72.0
46.467182	104.0
46.483467	204.0
46.50518	160.0
46.677715	176.0
46.700836	200.0
46.718517	180.0
46.752533	48.0
46.781116	80.0
46.792007	224.0
46.830139	184.0
46.845119	148.0
46.857384	100.0
46.94598	164.0
47.030567	160.0
47.135544	180.0
47.156898	228.0
47.221855	96.0
47.254684	128.0
47.285488	172.0
47.361462	220.0
47.388863	152.0
47.408043	208.0
47.435104	140.0
47.450535	188.0
47.460133	100.0
47.497162	96.0
47.514996	168.0
47.601467	144.0
47.628937	68.0
47.679771	192.0
47.723759	216.0
47.798332	204.0
47.832417	204.0
47.883389	220.0
47.91507	160.0
47.953655	104.0
48.017075	208.0
48.083298	172.0
48.108574	180.0
48.127472	172.0
48.177639	184.0
48.19101	164.0
48.232468	116.0
48.242142	64.0
48.260117	116.0
48.315437	144.0
48.446957	108.0
48.466351	292.0
48.477436	132.0
48.506794	132.0
48.594635	160.0
48.638321	68.0
48.650814	140.0
48.66053	136.0
48.729977	176.0
48.786957	176.0
48.824497	124.0
48.857883	156.0
48.877361	204.0
48.889885	224.0
48.953922	144.0
48.990135	228.0
49.126751	148.0
49.143494	100.0
49.189548	128.0
49.231434	160.0
49.316658	220.0
49.344616	60.0
49.364189	132.0
49.373981	200.0
49.386566	196.0
49.404751	124.0
49.438332	48.0
49.459904	184.0
49.522301	168.0
49.54615	160.0
49.572273	192.0
49.578041	184.0
49.5994	180.0
49.609211	96.0
49.64146	60.0
49.662495	132.0
49.687748	184.0
49.784599	136.0
49.80426	164.0
49.88295	96.0
49.893742	200.0
49.950447	112.0
49.972958	176.0
50.08276	128.0
50.122208	132.0
50.146164	192.0
50.156601	212.0
50.22089	140.0
50.264626	156.0
50.400406	200.0
50.419453	144.0
50.448235	44.0
50.465199	188.0
50.494896	56.0
50.506882	176.0
50.629345	204.0
50.708683	112.0
50.737999	176.0
50.773899	188.0
50.792336	164.0
50.803684	132.0
50.891216	196.0
50.934284	108.0
51.047981	120.0
51.065048	136.0
51.07785	120.0
51.117687	224.0
51.145657	184.0
51.295784	168.0
51.335636	128.0
51.368443	176.0
51.426945	168.0
51.44693	200.0
51.47263	192.0
51.521191	108.0
51.63554	128.0
51.645554	132.0
51.662079	188.0
51.695629	148.0
51.712803	164.0
51.741432	136.0
51.761475	180.0
51.794415	152.0
51.823067	132.0
51.886127	200.0
51.900276	180.0
51.921978	168.0
51.93919	112.0
51.996578	52.0
52.051132	144.0
52.153835	188.0
52.19051	140.0
52.209206	108.0
52.240849	56.0
52.285454	176.0
52.361755	72.0
52.374718	52.0
52.386242	148.0
52.409294	168.0
52.424561	140.0
52.453972	180.0
52.481361	152.0
52.513088	152.0
52.549152	184.0
52.60688	60.0
52.622761	136.0
52.680527	160.0
52.736881	272.0
52.793266	32.0
52.826534	148.0
52.884411	96.0
52.910469	44.0
52.937981	184.0
52.988693	160.0
53.007511	76.0
53.064041	112.0
53.091591	148.0
53.22945	64.0
53.263115	112.0
53.278835	144.0
53.358768	172.0
53.425667	60.0
53.489697	120.0
53.645561	44.0
53.668289	160.0
53.689304	188.0
53.7141	108.0
53.789978	196.0
53.811878	128.0
53.83287	296.0
53.892208	192.0
53.914127	188.0
53.931667	84.0
53.949207	32.0
54.006237	168.0
54.063293	200.0
54.088177	116.0
54.137955	160.0
54.164284	168.0
54.219994	148.0
54.236118	188.0
54.290363	196.0
54.300629	136.0
54.38673	176.0
54.43124	188.0
54.444454	124.0
54.509094	144.0
54.553185	104.0
54.592884	116.0
54.623772	60.0
54.663494	60.0
54.73415	148.0
54.763603	68.0
54.88887	176.0
54.91394	168.0
54.972954	108.0
55.048237	132.0
55.08073	140.0
55.137779	236.0
55.197487	48.0
55.247772	124.0
55.333611	144.0
55.388458	212.0
55.401737	108.0
55.576683	116.0
55.708817	140.0
55.719215	128.0
55.754433	120.0
55.862644	144.0
55.978024	128.0
56.033314	148.0
56.083801	208.0
56.180729	168.0
56.308449	168.0
56.359886	184.0
56.370346	144.0
56.427147	180.0
56.467522	172.0
56.504196	208.0
56.543823	140.0
56.602207	132.0
56.669609	168.0
56.687592	208.0
56.748379	224.0
56.789536	136.0
56.867558	148.0
56.960651	120.0
56.989193	256.0
57.008152	188.0
57.053089	152.0
57.183182	60.0
57.193718	212.0
57.231354	156.0
57.259815	180.0
57.282562	132.0
57.345844	148.0
57.412182	152.0
57.422737	172.0
57.451397	208.0
57.49712	172.0
57.552517	44.0
57.582722	180.0
57.602356	92.0
57.644661	152.0
57.662796	208.0
57.715706	148.0
57.781147	180.0
57.83522	168.0
57.947281	180.0
57.973042	168.0
58.015244	156.0
58.036362	204.0
58.098888	152.0
58.211205	192.0
58.237026	216.0
58.300835	184.0
58.323631	108.0
58.382927	152.0
58.452904	136.0
58.475731	160.0
58.507698	152.0
58.5214	156.0
58.592983	56.0
58.708824	128.0
58.771366	104.0
58.783573	156.0
58.845387	188.0
58.879749	80.0
58.980591	124.0
59.075397	152.0
59.135075	136.0
59.175434	216.0
59.289761	124.0
59.317348	168.0
59.361809	208.0
59.541363	144.0
59.584373	240.0
59.819664	132.0
59.876633	192.0
59.93055	120.0
59.964451	144.0
60.036911	196.0
60.052368	188.0
60.109493	156.0
60.137196	56.0
60.159618	144.0
60.22057	60.0
60.265369	188.0
60.296272	208.0
60.421524	176.0
60.499283	212.0
60.535442	140.0
60.573235	84.0
60.608868	188.0
60.646576	180.0
60.747387	228.0
60.771671	176.0
60.788742	128.0
60.84462	160.0
60.863251	204.0
60.897415	152.0
60.953342	128.0
60.982868	156.0
61.038837	196.0
61.083939	180.0
61.138393	208.0
61.18042	248.0
61.248501	228.0
61.329964	128.0
61.45628	124.0
61.504662	156.0
61.565552	196.0
61.599911	168.0
61.612408	136.0
61.679604	88.0
61.718689	164.0
61.878281	172.0
61.929958	128.0
61.955021	212.0
62.067867	200.0
62.138447	48.0
62.151001	180.0
62.317432	56.0
62.36338	252.0
62.429039	156.0
62.446625	148.0
62.465214	160.0
62.481339	112.0
62.537594	196.0
62.576553	204.0
62.598991	136.0
62.63364	140.0
62.679329	88.0
62.768734	128.0
62.788845	136.0
62.835423	200.0
62.857513	192.0
62.889076	144.0
62.93919	156.0
62.972759	80.0
63.012962	160.0
63.075462	176.0
63.113407	172.0
63.137127	116.0
63.194073	56.0
63.23838	160.0
63.263157	196.0
63.27536	200.0
63.317543	100.0
63.358727	52.0
63.453815	148.0
63.469673	184.0
63.546959	88.0
63.593414	128.0
63.610874	96.0
63.641037	212.0
63.660091	180.0
63.785606	268.0
63.796734	200.0
63.833302	68.0
63.847935	180.0
63.914429	124.0
63.939888	212.0
64.03701	172.0
64.102325	72.0
64.16449	144.0
64.240852	172.0
64.301674	204.0
64.338387	160.0
64.362335	148.0
64.383095	180.0
64.432823	88.0
64.526901	144.0
64.544487	88.0
64.648468	148.0
64.666069	132.0
64.694885	116.0
64.723701	68.0
64.834236	68.0
64.850266	132.0
64.864685	188.0
64.959297	152.0
64.986954	252.0
64.997169	152.0
65.036316	192.0
65.067108	156.0
65.184074	128.0
65.202446	156.0
65.216217	200.0
65.238716	220.0
65.293388	224.0
65.331993	112.0
65.359344	180.0
65.391525	160.0
65.425331	148.0
65.439819	56.0
65.472023	72.0
65.515022	224.0
65.554184	348.0
65.604149	204.0
65.642845	80.0
65.679939	180.0
65.775139	168.0
65.808502	192.0
65.830032	104.0
65.841339	156.0
65.89949	220.0
65.950439	192.0
65.980301	132.0
66.00679	336.0
66.083809	160.0
66.112938	112.0
66.156639	180.0
66.259064	164.0
66.299171	124.0
66.33213	120.0
66.349426	180.0
66.364014	44.0
66.376984	60.0
66.389961	140.0
66.453224	196.0
66.471069	176.0
66.506149	260.0
66.553856	172.0
66.613945	168.0
66.750465	88.0
66.823662	164.0
66.97506	180.0
67.027191	180.0
67.144562	132.0
67.170662	208.0
67.186974	152.0
67.231026	148.0
67.25061	192.0
67.361649	276.0
67.41066	216.0
67.444984	188.0
67.4646	128.0
67.541916	200.0
67.559448	168.0
67.639633	80.0
67.6595	148.0
67.682198	208.0
67.719864	148.0
67.757545	204.0
67.834564	60.0
67.868996	132.0
68.021568	152.0
68.044556	252.0
68.064255	196.0
68.08889	136.0
68.106956	132.0
68.217049	132.0
68.263084	240.0
68.31572	128.0
68.335457	144.0
68.402771	208.0
68.417252	352.0
68.579178	172.0
68.620392	176.0
68.725952	212.0
68.775459	128.0
68.78701	188.0
68.838196	180.0
68.864616	148.0
68.928307	196.0
69.012146	204.0
69.13903	168.0
69.249992	72.0
69.303986	128.0
69.317917	180.0
69.334488	156.0
69.505295	64.0
69.520226	104.0
69.541801	208.0
69.593262	108.0
69.687935	228.0
69.706215	76.0
69.802628	172.0
69.849197	144.0
69.864166	32.0
69.935722	228.0
69.992325	196.0
70.02774	196.0
70.069458	168.0
70.09227	164.0
70.164413	168.0
70.232307	224.0
70.315903	192.0
70.329079	172.0
70.342438	148.0
70.401527	184.0
70.447639	216.0
70.564629	164.0
70.688057	216.0
70.718529	140.0
70.751198	284.0
70.768745	172.0
70.932922	172.0
70.95472	192.0
70.988007	216.0
71.036896	172.0
71.135933	184.0
71.159401	156.0
71.387215	208.0
71.455101	132.0
71.530937	140.0
71.68428	168.0
71.704422	64.0
71.719589	144.0
71.731392	124.0
71.802208	152.0
71.827507	192.0
71.8545	48.0
71.881493	172.0
71.962517	156.0
72.00135	156.0
72.050339	200.0
72.104408	168.0
72.119621	88.0
72.210922	60.0
72.400475	168.0
72.447899	196.0
72.464844	168.0
72.547882	208.0
72.575012	216.0
72.598755	152.0
72.669991	40.0
72.735374	152.0
72.756554	104.0
72.814285	172.0
72.890732	304.0
72.913727	172.0
72.976295	188.0
72.988884	252.0
73.030136	208.0
73.05735	68.0
73.096481	140.0
73.120308	128.0
73.166267	136.0
73.178185	188.0
73.195694	132.0
73.215645	80.0
73.275269	204.0
73.319572	168.0
73.384346	184.0
73.447075	148.0
73.493507	132.0
73.523865	192.0
73.546165	140.0
73.563477	120.0
73.609573	156.0
73.647148	176.0
73.705231	204.0
73.758209	116.0
73.794113	156.0
73.920685	172.0
73.94294	128.0
74.006271	52.0
74.018257	172.0
74.048294	208.0
74.270187	148.0
74.457268	256.0
74.550034	168.0
74.622231	184.0
74.754677	140.0
74.802872	200.0
74.871742	152.0
74.975105	176.0
75.030266	116.0
75.050812	196.0
75.066475	152.0
75.268364	144.0
75.317108	160.0
75.359642	180.0
75.439407	120.0
75.551819	152.0
75.58123	152.0
75.643532	160.0
75.679893	192.0
75.724915	116.0
75.84967	320.0
75.898209	192.0
75.936363	176.0
76.036995	124.0
76.116844	148.0
76.134209	232.0
76.221069	164.0
76.280159	48.0
76.317261	132.0
76.34623	124.0
76.522209	208.0
76.621246	164.0
76.644608	196.0
76.720589	224.0
76.874077	192.0
77.003265	160.0
77.022476	196.0
77.039948	252.0
77.066704	176.0
77.113335	224.0
77.153542	188.0
77.239227	148.0
77.282959	132.0
77.323212	32.0
77.357658	164.0
77.375725	156.0
77.393234	216.0
77.410744	176.0
77.444016	40.0
77.484306	128.0
77.55542	160.0
77.591217	188.0
77.643822	104.0
77.666618	152.0
77.680656	148.0
77.729782	148.0
77.789452	180.0
77.829834	172.0
77.896568	156.0
77.936974	156.0
77.986183	68.0
78.009033	188.0
78.028374	92.0
78.077606	100.0
78.102226	164.0
78.130379	188.0
78.219231	228.0
78.250053	152.0
78.32225	160.0
78.345932	136.0
78.419159	144.0
78.502136	180.0
78.734367	124.0
78.751488	204.0
78.772636	172.0
78.845978	192.0
79.000099	192.0
79.026634	200.0
79.081306	224.0
79.118668	132.0
79.179489	156.0
79.198357	168.0
79.225258	212.0
79.236885	160.0
79.4412	176.0
79.560104	164.0
79.655998	216.0
79.73951	196.0
79.775055	184.0
79.872856	152.0
79.887383	172.0
79.984962	124.0
80.074638	164.0
80.118515	168.0
80.180885	160.0
80.200485	196.0
80.229012	172.0
80.277153	204.0
80.289635	140.0
80.302116	160.0
80.402031	208.0
80.441292	120.0
80.52343	132.0
80.609184	116.0
80.664589	136.0
80.678528	140.0
80.737892	156.0
80.90609	120.0
80.965332	136.0
81.097755	140.0
81.210716	160.0
81.230446	176.0
81.259148	192.0
81.345291	100.0
81.357857	188.0
81.462013	180.0
81.47818	144.0
81.582413	140.0
81.615463	220.0
81.636353	232.0
81.710808	232.0
81.83429	140.0
81.863098	124.0
81.882912	148.0
81.911728	164.0
81.949562	48.0
81.992805	136.0
82.082947	180.0
82.099174	136.0
82.126228	128.0
82.15509	120.0
82.174934	64.0
82.274857	176.0
82.490974	220.0
82.503632	112.0
82.519905	132.0
82.586815	132.0
82.60128	136.0
82.633842	40.0
82.648323	148.0
82.745338	192.0
82.804001	120.0
82.874649	36.0
82.896393	216.0
82.927864	220.0
82.975121	208.0
83.019669	160.0
83.106735	188.0
83.166626	188.0
83.179329	224.0
83.261032	192.0
83.325645	168.0
83.355499	156.0
83.41227	168.0
83.479111	168.0
83.699287	196.0
83.74482	48.0
83.804939	148.0
83.908821	112.0
83.961624	180.0
83.985413	200.0
84.01825	180.0
84.056564	132.0
84.124092	116.0
84.206261	200.0
84.226357	120.0
84.24279	100.0
84.256233	188.0
84.27494	148.0
84.345123	124.0
84.363403	64.0
84.467636	92.0
84.49691	192.0
84.562782	180.0
84.650658	124.0
84.806381	88.0
84.821045	132.0
84.859543	124.0
84.879715	200.0
84.934731	112.0
84.967751	176.0
84.997612	176.0
85.087044	160.0
85.125603	72.0
85.204582	236.0
85.257874	220.0
85.290955	140.0
85.30616	176.0
85.333237	156.0
85.373688	148.0
85.43071	204.0
85.498787	120.0
85.550323	204.0
85.592674	164.0
85.625816	80.0
85.63871	72.0
85.705032	200.0
85.808243	148.0
85.882011	68.0
85.939194	128.0
86.063736	160.0
86.067749	204.0
86.123802	160.0
86.352997	100.0
86.613976	184.0
86.699203	220.0
86.738121	164.0
86.758873	208.0
86.843811	144.0
86.871635	148.0
86.918022	144.0
86.933334	176.0
87.001541	172.0
87.029388	100.0
87.077667	200.0
87.109245	156.0
87.272789	160.0
87.298828	136.0
87.315559	208.0
87.375084	144.0
87.460686	116.0
87.512863	156.0
87.55378	208.0
87.594757	200.0
87.625519	172.0
87.693512	120.0
87.738068	164.0
87.784859	216.0
87.991974	156.0
88.03492	188.0
88.090958	164.0
88.11898	184.0
88.149864	184.0
88.167564	240.0
88.228821	212.0
88.393837	204.0
88.524361	176.0
88.576759	176.0
88.61853	216.0
88.648514	56.0
88.721115	152.0
88.971123	52.0
88.986137	124.0
89.006798	112.0
89.027451	84.0
89.049988	184.0
89.164597	116.0
89.196548	196.0
89.236023	124.0
89.347954	204.0
89.404419	184.0
89.477905	192.0
89.62941	164.0
89.644485	204.0
89.659561	192.0
89.701027	40.0
89.738731	168.0
89.849937	108.0
89.90284	84.0
89.957977	168.0
90.012321	212.0
90.036873	100.0
90.05954	164.0
90.148331	144.0
90.235283	168.0
90.256081	48.0
90.397949	112.0
90.435799	176.0
90.471764	64.0
90.68013	160.0
90.712029	164.0
90.730705	204.0
90.778709	120.0
90.80526	180.0
90.854584	204.0
90.87545	224.0
91.043182	252.0
91.108093	140.0
91.126068	148.0
91.213493	84.0
91.300949	172.0
91.35421	192.0
91.420799	196.0
91.441734	196.0
91.466476	168.0
91.609299	132.0
91.655022	88.0
91.826279	144.0
91.838196	144.0
91.954422	192.0
92.050621	5872.0
92.130096	72.0
92.197678	140.0
92.223724	208.0
92.336533	140.0
92.374786	120.0
92.408119	76.0
92.42453	260.0
92.437927	76.0
92.614059	124.0
92.673447	140.0
92.942436	208.0
93.018646	164.0
93.035927	124.0
93.056259	1800.0
93.136665	104.0
93.231842	48.0
93.29335	116.0
93.316422	176.0
93.364494	220.0
93.427963	200.0
93.454903	180.0
93.469994	128.0
93.529953	148.0
93.575638	296.0
93.654686	108.0
93.7052	116.0
93.743736	124.0
93.870964	224.0
93.896034	160.0
93.943398	108.0
93.967407	136.0
94.054245	204.0
94.160439	128.0
94.233208	244.0
94.269928	196.0
94.390411	148.0
94.475258	92.0
94.504532	144.0
94.578072	252.0
94.614845	168.0
94.74073	160.0
94.793045	140.0
94.822113	184.0
94.88414	40.0
95.006317	192.0
95.070351	128.0
95.113045	188.0
95.173233	88.0
95.206245	196.0
95.276169	152.0
95.456924	204.0
95.51722	136.0
95.602829	36.0
95.628128	176.0
95.660126	192.0
95.717682	136.0
95.787788	164.0
95.803375	76.0
95.83754	224.0
95.89106	196.0
95.945641	140.0
95.969032	200.0
96.002182	88.0
96.025589	156.0
96.064598	212.0
96.134842	176.0
96.203903	52.0
96.220726	172.0
96.277351	136.0
96.322273	116.0
96.394562	180.0
96.484467	136.0
96.513794	160.0
96.574677	216.0
96.611588	148.0
96.668327	152.0
96.689812	184.0
96.807312	200.0
96.88958	40.0
97.024803	208.0
97.062057	128.0
97.122856	192.0
97.148354	100.0
97.278038	216.0
97.370155	232.0
97.395691	184.0
97.456589	172.0
97.482307	228.0
97.519478	148.0
97.545029	172.0
97.592522	204.0
97.855858	172.0
97.970085	144.0
98.011459	160.0
98.033142	128.0
98.064674	228.0
98.080437	128.0
98.186913	140.0
98.208603	112.0
98.257072	140.0
98.362511	152.0
98.384224	196.0
98.463211	104.0
98.494812	84.0
98.565933	176.0
98.609413	120.0
98.633125	152.0
98.650917	184.0
98.936607	232.0
99.020935	228.0
99.060547	144.0
99.211159	128.0
99.232964	80.0
99.281219	108.0
99.302368	128.0
99.341072	200.0
99.380318	220.0
99.53405	172.0
99.588181	152.0
99.614006	180.0
99.639832	192.0
99.69944	228.0
99.764473	328.0
99.846558	160.0
99.874397	160.0
99.920326	180.0
99.968529	140.0
99.98571	148.0
100.007339	108.0
100.03447	108.0
100.062614	336.0
100.078438	136.0
100.112549	17292.0
100.170807	44.0
100.185379	120.0
100.222168	128.0
100.240723	28.0
100.269577	92.0
100.293701	172.0
100.342957	96.0
100.380257	40.0
100.419724	132.0
100.452911	64.0
100.509918	84.0
100.573776	88.0
100.604126	236.0
100.623688	80.0
100.639557	76.0
100.675705	152.0
100.711548	148.0
100.730492	240.0
100.785469	140.0
100.838089	216.0
101.057396	304.0
101.075401	88.0
101.115936	1152.0
101.177475	40.0
101.197502	52.0
101.249565	84.0
101.264763	176.0
101.319672	100.0
101.349724	120.0
101.36776	196.0
101.428459	148.0
101.46196	144.0
101.518105	112.0
101.621941	188.0
101.636452	92.0
101.662544	56.0
101.736809	224.0
101.750862	72.0
101.766922	68.0
101.784988	120.0
101.869904	144.0
101.904442	136.0
101.983879	72.0
102.076363	48.0
102.173912	136.0
102.267479	176.0
102.293648	136.0
102.362099	168.0
102.398354	48.0
102.470871	80.0
102.503105	136.0
102.636147	132.0
102.672447	140.0
102.708748	108.0
102.726906	148.0
102.753128	48.0
102.831825	56.0
102.902481	208.0
102.944885	204.0
102.983253	180.0
103.120644	176.0
103.148941	168.0
103.197464	136.0
103.22261	128.0
103.311562	212.0
103.359276	212.0
103.379509	176.0
103.448326	168.0
103.551598	156.0
103.654915	48.0
103.719765	124.0
103.774506	144.0
103.790726	176.0
103.833313	144.0
103.863731	156.0
103.959091	136.0
104.017952	164.0
104.05246	152.0
104.070732	156.0
104.212914	444.0
104.369415	156.0
104.393822	36.0
104.424324	68.0
104.456871	124.0
104.482384	152.0
104.507729	136.0
104.530869	216.0
104.550461	188.0
104.574883	228.0
104.605415	100.0
104.790741	188.0
104.805	108.0
104.845757	200.0
104.97419	160.0
105.031296	156.0
105.070053	132.0
105.302757	144.0
105.404907	172.0
105.464172	104.0
105.533676	104.0
105.584801	84.0
105.618385	180.0
105.75666	216.0
105.795555	136.0
105.824219	72.0
105.885651	160.0
105.994225	32.0
106.066711	416.0
106.088501	28.0
106.238205	168.0
106.277184	148.0
106.355171	192.0
106.369537	188.0
106.408539	168.0
106.546143	208.0
106.568741	168.0
106.755798	216.0
106.790764	104.0
106.822906	204.0
107.008263	196.0
107.03154	44.0
107.066597	176.0
107.151001	176.0
107.165421	196.0
107.226524	196.0
107.359184	144.0
107.439629	88.0
107.495338	52.0
107.656357	136.0
107.697662	136.0
107.718315	176.0
107.838158	172.0
107.9953	196.0
108.04335	1088.0
108.119003	172.0
108.173248	148.0
108.218796	168.0
108.235359	268.0
108.338913	256.0
108.467392	112.0
108.527519	156.0
108.598625	152.0
108.635361	140.0
108.656105	308.0
108.76194	100.0
108.928055	144.0
108.942596	132.0
109.002853	128.0
109.034027	60.0
109.051941	168.0
109.140045	160.0
109.202431	128.0
109.275238	156.0
109.41468	108.0
109.483391	196.0
109.552124	188.0
109.577126	192.0
109.590958	176.0
109.627136	88.0
109.654228	144.0
109.693428	144.0
109.773056	84.0
109.824554	180.0
110.013	148.0
110.050575	136.0
110.090256	232.0
110.132019	128.0
110.182159	176.0
110.30127	200.0
110.330536	52.0
110.382812	68.0
110.430908	180.0
110.504128	172.0
110.556435	140.0
110.583649	132.0
110.602486	52.0
110.63179	124.0
110.648537	136.0
110.904106	128.0
110.958611	40.0
111.046677	228.0
111.063461	68.0
111.168358	164.0
111.206139	48.0
111.246017	168.0
111.310493	192.0
111.344704	184.0
111.464447	176.0
111.535904	112.0
111.575844	168.0
111.662056	116.0
111.676781	104.0
111.731468	156.0
111.946167	100.0
111.963013	120.0
112.062012	224.0
112.083084	128.0
112.112015	324.0
112.133659	188.0
112.165276	180.0
112.239067	288.0
112.283356	212.0
112.300224	132.0
112.332657	212.0
112.390938	200.0
112.466911	172.0
112.568253	200.0
112.597816	120.0
112.614166	108.0
112.654846	192.0
112.709778	132.0
112.781631	144.0
112.798538	268.0
112.826019	164.0
112.864082	64.0
112.91272	292.0
112.929634	184.0
113.011665	196.0
113.107368	220.0
113.122192	232.0
113.170883	140.0
113.278893	192.0
113.350929	196.0
113.418747	192.0
113.516037	184.0
113.539597	128.0
113.601112	124.0
113.668999	132.0
113.748825	164.0
113.788185	212.0
113.81971	112.0
113.845192	220.0
113.872803	164.0
113.904663	172.0
113.96627	240.0
114.074661	88.0
114.100174	92.0
114.128098	1544.0
114.200607	224.0
114.260857	304.0
114.325638	136.0
114.357567	172.0
114.491692	92.0
114.632294	128.0
114.679176	200.0
114.734604	112.0
114.822533	168.0
114.883881	204.0
114.90522	176.0
114.994843	96.0
115.020454	156.0
115.037529	144.0
115.054611	176.0
115.129242	332.0
115.180603	176.0
115.199829	232.0
115.249207	212.0
115.274605	264.0
115.541878	116.0
115.618904	212.0
115.653152	180.0
115.687401	132.0
115.755913	204.0
115.822304	76.0
115.933044	204.0
115.976578	148.0
116.030174	136.0
116.048897	180.0
116.083237	176.0
116.109909	152.0
116.133102	236.0
116.176003	32.0
116.203896	156.0
116.37056	184.0
116.397072	120.0
116.418541	132.0
116.444313	184.0
116.876411	164.0
116.911919	192.0
116.940971	204.0
116.99263	200.0
117.058762	168.0
117.102448	168.0
117.17569	36.0
117.255417	152.0
117.348106	164.0
117.371826	188.0
117.413467	180.0
117.477509	196.0
117.499084	176.0
117.594025	100.0
117.624245	168.0
117.694977	168.0
117.711571	232.0
117.828629	208.0
117.84819	224.0
117.898544	120.0
117.917999	152.0
117.939613	124.0
117.974197	88.0
118.088799	196.0
118.114754	164.0
118.179657	168.0
118.208206	164.0
118.233757	92.0
118.268387	144.0
118.361473	120.0
118.382553	164.0
118.558601	136.0
118.606285	244.0
118.695175	204.0
118.719025	208.0
118.738541	44.0
118.99894	156.0
119.072357	220.0
119.140106	72.0
119.194427	128.0
119.242233	128.0
119.270493	116.0
119.316139	40.0
119.370499	152.0
119.391685	156.0
119.396446	116.0
119.403587	148.0
119.428131	56.0
119.454132	168.0
119.48143	192.0
119.503181	120.0
119.518417	176.0
119.557587	64.0
119.616348	196.0
119.639984	244.0
119.659889	120.0
119.707008	200.0
119.756416	216.0
119.800491	200.0
119.82724	100.0
119.850311	140.0
119.885132	284.0
119.909584	308.0
119.944908	288.0
119.980492	580.0
120.020981	736.0
120.045563	140468.0
120.103355	132.0
120.132637	124.0
120.151886	148.0
120.177208	216.0
120.245834	188.0
120.265602	92.0
120.286957	56.0
120.292107	56.0
120.314026	100.0
120.337952	76.0
120.364334	96.0
120.381012	220.0
120.404411	2836.0
120.449677	324.0
120.4711	140.0
120.486191	64.0
120.508316	48.0
120.523605	36.0
120.544792	144.0
120.56456	108.0
120.580811	160.0
120.608109	60.0
120.622856	68.0
120.673691	96.0
120.686966	76.0
120.727707	76.0
120.755165	212.0
120.807831	108.0
120.862358	52.0
120.877838	128.0
120.912239	164.0
120.928055	72.0
120.973068	212.0
120.994041	100.0
121.016441	152.0
121.048111	19896.0
121.109909	40.0
121.133926	76.0
121.173431	60.0
121.199722	44.0
121.2313	96.0
121.265236	100.0
121.294937	40.0
121.322464	164.0
121.34137	40.0
121.40345	64.0
121.426369	44.0
121.447449	64.0
121.476715	88.0
121.528618	52.0
121.582664	136.0
121.602135	56.0
121.619286	216.0
121.652374	152.0
121.684395	124.0
121.705826	112.0
121.732231	100.0
121.777206	148.0
121.792915	112.0
121.809631	76.0
121.836632	84.0
121.875961	188.0
121.88604	140.0
121.89312	132.0
121.900368	188.0
121.938728	228.0
121.972519	188.0
121.989822	120.0
122.022156	68.0
122.051086	1148.0
122.068115	260.0
122.104958	132.0
122.127678	104.0
122.170517	48.0
122.194351	240.0
122.282372	76.0
122.317589	52.0
122.346207	60.0
122.438683	56.0
122.493744	172.0
122.54882	60.0
122.603912	56.0
122.64138	64.0
122.742622	52.0
122.800133	188.0
122.934708	68.0
122.967812	196.0
122.987671	132.0
123.029617	60.0
123.12677	40.0
123.159897	176.0
123.256256	108.0
123.513557	104.0
123.672874	92.0
123.710503	176.0
123.89431	128.0
123.949699	176.0
123.978508	112.0
124.102646	92.0
124.143341	68.0
124.286743	152.0
124.32225	64.0
124.694031	188.0
125.260513	96.0
125.666252	104.0
125.686333	180.0
125.806854	56.0
126.057404	180.0
126.12619	276.0
126.173233	56.0
126.287277	88.0
126.394661	72.0
126.636436	84.0
126.750694	120.0
126.950203	48.0
127.351929	176.0
127.567642	136.0
127.626099	56.0
127.880302	92.0
127.90731	112.0
127.953537	60.0
128.006378	44.0
128.060425	188.0
128.144043	3356.0
128.247437	48.0
128.274078	156.0
128.356293	84.0
128.382706	128.0
128.576721	96.0
128.621857	56.0
128.705399	68.0
128.761856	72.0
128.811539	48.0
128.913208	80.0
128.990051	132.0
129.039795	128.0
129.150757	348.0
129.261459	40.0
129.376892	120.0
129.431229	148.0
129.561417	100.0
129.592041	40.0
129.714417	136.0
129.750687	96.0
129.786972	80.0
129.948013	144.0
130.027435	104.0
130.062881	220.0
130.070786	156.0
130.075867	236.0
130.122772	132.0
130.150009	192.0
130.179535	176.0
130.243118	40.0
130.263565	112.0
130.49649	128.0
130.597702	44.0
130.750153	80.0
130.775177	128.0
130.854858	188.0
130.910492	148.0
131.00061	52.0
131.055283	68.0
131.223953	108.0
131.258148	236.0
131.274109	108.0
131.376755	204.0
131.413254	72.0
131.465729	200.0
131.746582	76.0
131.874542	28.0
132.077042	152.0
132.103195	116.0
132.137115	1004.0
132.350372	132.0
132.753677	124.0
132.955612	160.0
133.081802	120.0
133.139206	116.0
133.281631	144.0
133.302322	48.0
133.410339	92.0
133.615021	136.0
133.974167	76.0
134.097458	356.0
134.739075	168.0
134.818649	104.0
135.100739	128.0
135.253464	144.0
135.584671	140.0
135.614807	132.0
136.141449	196.0
136.613281	176.0
136.66214	232.0
137.047409	1964.0
137.123215	104.0
137.496368	108.0
137.853683	48.0
137.965866	204.0
138.054779	576.0
138.419769	176.0
138.82518	48.0
139.280487	136.0
139.379166	92.0
139.428513	96.0
139.503723	136.0
139.762436	228.0
140.193359	176.0
140.849258	168.0
141.305511	56.0
141.528	72.0
141.591934	188.0
141.715103	140.0
141.753021	48.0
141.790939	244.0
141.876266	108.0
141.892868	144.0
141.923691	80.0
141.990082	164.0
142.032776	136.0
142.089722	160.0
142.111069	84.0
142.159058	20788.0
142.248718	68.0
142.331818	84.0
142.35405	164.0
142.391556	100.0
142.410187	108.0
142.487579	124.0
142.526581	196.0
142.564606	212.0
142.583618	60.0
142.702469	44.0
142.799973	48.0
143.030762	140.0
143.066483	76.0
143.11647	40.0
143.16217	1820.0
143.354675	76.0
143.435715	44.0
143.452393	96.0
143.485764	60.0
143.576385	112.0
143.900909	84.0
143.931946	184.0
144.056137	108.0
144.080032	248.0
144.136108	144.0
144.167389	164.0
144.256866	112.0
144.46492	68.0
144.665939	116.0
144.821579	44.0
144.946152	260.0
144.982101	144.0
145.195465	80.0
145.262619	76.0
145.289017	164.0
145.605865	140.0
145.737976	164.0
146.264664	152.0
146.671738	108.0
148.199081	76.0
148.378433	128.0
149.74408	132.0
150.064255	204.0
150.30722	140.0
150.849411	104.0
151.101303	124.0
151.622864	104.0
152.469559	176.0
153.055038	64.0
153.170776	180.0
153.441864	108.0
153.72551	40.0
153.851395	36.0
154.050568	104.0
154.123077	120.0
154.320816	132.0
154.397461	124.0
154.493927	156.0
154.570633	108.0
155.403168	168.0
156.541611	144.0
156.96524	96.0
157.05751	128.0
157.93924	184.0
158.144409	132.0
158.774246	100.0
158.901199	76.0
158.981491	116.0
159.53833	184.0
160.076218	444.0
160.223618	60.0
160.629486	44.0
160.798538	204.0
160.907074	116.0
161.03334	116.0
161.36438	80.0
161.389664	136.0
161.693222	144.0
162.473663	188.0
164.116669	156.0
164.529984	212.0
164.652542	144.0
166.871658	120.0
167.50473	96.0
167.793365	144.0
167.821716	44.0
167.847504	240.0
168.025482	136.0
168.136429	120.0
168.172562	104.0
169.048676	188.0
169.175507	180.0
169.297195	136.0
169.356918	68.0
169.444839	92.0
169.592545	124.0
169.688065	104.0
169.911514	104.0
169.958206	180.0
170.113922	232.0
170.137299	56.0
170.190445	10200.0
170.237595	128.0
170.309326	60.0
170.346863	40.0
170.386612	64.0
170.4048	68.0
170.437454	132.0
170.456757	124.0
170.500946	176.0
170.519135	296.0
170.594513	60.0
170.643906	104.0
170.698517	48.0
170.838959	92.0
171.099197	108.0
171.192291	1240.0
171.222748	184.0
171.346619	64.0
171.393524	52.0
171.43782	60.0
171.456055	40.0
171.59108	240.0
171.625504	116.0
171.682343	40.0
171.888947	68.0
171.956802	32.0
172.079483	72.0
172.165665	120.0
172.197006	156.0
173.007599	136.0
173.214478	144.0
173.445068	88.0
173.597122	64.0
174.129868	228.0
174.517532	108.0
174.763412	136.0
175.11615	156.0
175.224167	72.0
175.517517	172.0
175.983749	144.0
176.387955	148.0
176.411743	232.0
177.044113	108.0
177.725372	136.0
177.754562	192.0
177.773132	148.0
177.881958	152.0
178.03186	208.0
178.086685	26388.0
178.219238	168.0
178.239929	56.0
178.317566	152.0
178.368851	136.0
178.430267	60.0
178.477066	40.0
178.546204	108.0
178.567474	80.0
178.663239	92.0
178.72316	84.0
178.772324	60.0
178.873474	68.0
179.089371	3200.0
179.187103	52.0
179.217026	104.0
179.310287	64.0
179.350266	100.0
179.432159	72.0
179.475571	40.0
179.63559	280.0
179.693527	172.0
179.79567	68.0
179.843719	40.0
179.918045	52.0
180.009232	52.0
180.089355	124.0
180.206894	56.0
180.276367	92.0
180.434784	120.0
180.982559	56.0
181.172714	84.0
181.312042	96.0
181.338852	60.0
181.674026	36.0
182.595352	52.0
182.832092	124.0
183.055542	104.0
183.691605	200.0
184.169373	116.0
184.188278	40.0
184.745132	108.0
185.110535	100.0
185.712173	132.0
185.99707	164.0
186.026932	60.0
186.18396	144.0
187.209671	168.0
187.580215	56.0
188.128525	72.0
188.201126	9112.0
188.267776	48.0
188.322403	56.0
188.485306	76.0
188.655762	56.0
188.737778	36.0
188.830765	76.0
188.893677	100.0
188.953857	48.0
189.096146	160.0
189.203888	844.0
190.008636	56.0
190.508286	104.0
190.738144	68.0
190.840836	72.0
192.049789	128.0
192.867081	100.0
194.112915	156.0
195.104141	188.0
195.457367	148.0
196.421326	32.0
197.233887	48.0
197.535873	52.0
199.473557	56.0
200.416367	48.0
201.986038	180.0
204.400406	40.0
209.085052	192.0
210.127991	356.0
211.098679	164.0
211.144943	196.0
211.361908	44.0
211.552933	60.0
212.645706	72.0
213.334122	164.0
214.151779	80.0
214.183823	48.0
216.090118	188.0
216.851471	64.0
216.936478	132.0
221.009659	80.0
221.927856	112.0
222.384705	52.0
224.858002	104.0
227.921539	168.0
228.595108	64.0
229.616364	84.0
238.061844	196.0
239.633652	68.0
243.143372	84.0
244.871979	56.0
246.003845	40.0
246.20993	116.0
247.404358	88.0
248.087296	108.0
249.126038	92.0
250.7276	100.0
252.444962	108.0
254.006378	156.0
254.908051	176.0
259.007751	76.0
260.178192	188.0
265.573639	88.0
270.261536	72.0
273.721222	68.0
275.000336	84.0
276.553772	152.0
278.549896	84.0
282.620575	60.0
288.18866	104.0
289.477417	44.0
299.994324	64.0
300.92926	192.0
302.997498	52.0
303.583282	84.0
306.663544	104.0
307.237122	1060.0
307.521545	72.0
307.874176	72.0
307.944031	72.0
308.233887	284.0
309.206146	196.0
309.262146	96.0
311.843628	120.0
312.177612	128.0
319.086823	44.0
319.115265	72.0
323.081177	32.0
324.040649	112.0
327.917999	64.0
329.632202	40.0
331.263916	56.0
334.113678	60.0
336.296417	48.0
337.512939	100.0
341.20874	80.0
353.86438	36.0
355.971649	64.0
360.66217	112.0
363.449463	76.0
373.593384	72.0
401.765137	124.0
402.783051	140.0
407.100586	72.0
408.475128	104.0
419.779236	48.0
429.610748	68.0
443.210602	28.0
446.514374	28.0
455.551392	64.0
462.1297	80.0
466.121674	72.0
488.760468	56.0
489.544006	40.0
489.574829	56.0
494.621338	84.0
506.452362	68.0
512.620789	92.0
519.307251	76.0
521.445679	32.0
540.403564	68.0
578.281311	120.0
586.060913	40.0
623.843201	28.0
631.062195	92.0
652.139648	100.0
658.636108	64.0
673.837097	92.0
676.4953	144.0
699.617126	200.0
785.227966	60.0
789.757629	96.0
791.178955	60.0
801.0401	184.0
813.668152	148.0
819.976501	172.0
822.828613	132.0
825.245361	180.0
827.911926	156.0
837.013733	132.0
839.958801	140.0
845.794861	160.0
846.130615	108.0
850.884644	160.0
851.982239	60.0
860.059021	144.0
862.97998	208.0
871.261292	104.0
883.535522	116.0
884.772461	172.0
888.17981	208.0
891.047058	36.0
891.320374	132.0
900.518494	164.0
903.088562	208.0
904.363037	188.0
908.809631	192.0
912.280945	28.0
918.46521	216.0
918.531555	220.0
919.853088	192.0
925.3302	176.0
925.784302	116.0
929.979675	148.0
930.513916	232.0
932.305786	132.0
937.643066	184.0
938.270874	176.0
939.966492	128.0
944.089844	144.0
947.254211	140.0
947.437988	56.0
949.000793	144.0
951.866272	100.0
952.54187	176.0
954.551575	88.0
955.461914	148.0
955.812561	68.0
960.809387	172.0
962.278259	164.0
963.025452	140.0
964.446594	168.0
965.021484	128.0
965.46051	208.0
967.58905	164.0
968.282593	176.0
970.482483	212.0
972.405518	80.0
975.505005	136.0
976.269714	108.0
978.229614	172.0
978.484863	100.0
979.811401	72.0
980.771057	136.0
982.311279	184.0
985.132874	176.0
985.932617	152.0
986.551392	180.0
987.920959	176.0
987.964722	188.0
990.343384	156.0
990.769348	104.0
992.191956	184.0
993.157654	136.0
993.439941	160.0
995.33374	140.0
997.452576	172.0
1001.076538	116.0
1002.336365	224.0
1002.664062	132.0
1003.256592	136.0
1004.151978	176.0
1005.81134	116.0
1007.339478	36.0
1009.109009	196.0
1009.808838	156.0
1011.411682	80.0
1011.563599	144.0
1013.064453	128.0
1014.515625	228.0
1016.488159	116.0
1016.926025	148.0
1017.808472	168.0
1019.046997	192.0
1019.269409	188.0
1024.066162	144.0
1024.199951	140.0
1024.664917	172.0
1026.78125	224.0
1027.329712	128.0
1028.459229	252.0
1029.576538	104.0
1029.678711	80.0
1030.36853	156.0
1031.001099	172.0
1031.141724	136.0
1034.915894	116.0
1036.401978	56.0
1037.453003	176.0
1038.081299	144.0
1038.331421	144.0
1040.018921	136.0
1041.78479	184.0
1042.799927	180.0
1043.892822	212.0
1044.97998	156.0
1045.938843	172.0
1046.312134	156.0
1047.561646	192.0
1047.922241	140.0
1050.849365	180.0
1051.101074	184.0
1051.359131	168.0
1053.125854	220.0
1053.360718	208.0
1053.90979	128.0
1056.586548	148.0
1057.123535	200.0
1057.175293	152.0
1058.269287	160.0
1059.692505	216.0
1059.791382	144.0
1060.543091	36.0
1061.541504	172.0
1061.813843	212.0
1062.352295	144.0
1063.033447	76.0
1063.26062	80.0
1063.643555	64.0
1063.877319	52.0
1065.286499	144.0
1066.449585	188.0
1066.781128	272.0
1068.140137	236.0
1069.148682	128.0
1069.428467	164.0
1069.825562	224.0
1070.405029	92.0
1070.971558	168.0
1071.140991	216.0
1072.229004	176.0
1072.783081	188.0
1073.239502	68.0
1074.061157	136.0
1076.319214	156.0
1078.507812	148.0
1078.769287	168.0
1079.279175	172.0
1079.599609	144.0
1079.710815	160.0
1079.952759	176.0
1080.325684	188.0
1080.724731	180.0
1081.143555	132.0
1081.215454	56.0
1083.625244	108.0
1085.585083	176.0
1085.709717	128.0
1087.244751	80.0
1087.993042	124.0
1088.662842	152.0
1090.088257	200.0
1090.18689	152.0
1090.600952	176.0
1090.798096	160.0
1091.429321	164.0
1091.804077	212.0
1092.876343	188.0
1093.751587	56.0
1094.232178	148.0
1096.036865	200.0
1096.597046	128.0
1096.669556	164.0
1098.27832	152.0
1099.175537	112.0
1099.677124	148.0
1100.185303	140.0
1101.545776	132.0
1101.631592	152.0
1101.684448	44.0
1101.955322	124.0
1102.735107	128.0
1103.072144	96.0
1103.839111	236.0
1103.991699	160.0
1104.685669	116.0
1105.671509	164.0
1106.051636	124.0
1106.227539	116.0
1106.644653	224.0
1106.916138	148.0
1108.406494	72.0
1108.75769	136.0
1110.720215	44.0
1111.569458	176.0
1113.303223	224.0
1113.494629	88.0
1114.178833	172.0
1114.743652	228.0
1115.288574	264.0
1115.408203	36.0
1116.21936	196.0
1117.150513	168.0
1117.982178	164.0
1118.255005	144.0
1118.77417	156.0
1118.907349	92.0
1119.466675	32.0
1119.693115	92.0
1119.960083	96.0
1120.166016	44.0
1120.619019	172.0
1122.071899	196.0
1122.131958	192.0
1122.972168	196.0
1123.31897	144.0
1123.73938	168.0
1126.8573	164.0
1126.950806	144.0
1127.057739	172.0
1127.505493	136.0
1127.866333	196.0
1128.300903	116.0
1128.78894	160.0
1128.855835	108.0
1129.06311	156.0
1129.25708	92.0
1129.571411	124.0
1129.926025	156.0
1130.514893	252.0
1132.262085	128.0
1132.610474	208.0
1133.735962	220.0
1134.252075	136.0
1134.500122	104.0
1134.734741	72.0
1135.747314	232.0
1136.619507	160.0
1136.901367	156.0
1137.36438	184.0
1137.632935	148.0
1138.264038	136.0
1138.598267	152.0
1139.681396	236.0
1140.118164	252.0
1140.494507	96.0
1141.173462	124.0
1141.408813	208.0
1141.966919	112.0
1142.067871	116.0
1142.188965	148.0
1143.218262	176.0
1143.473999	144.0
1143.521118	148.0
1143.568237	60.0
1143.722168	152.0
1144.423218	172.0
1144.658936	188.0
1146.511475	176.0
1147.171997	172.0
1147.670898	108.0
1147.852905	180.0
1148.075439	172.0
1148.439697	156.0
1148.986084	156.0
1149.330078	148.0
1150.214233	88.0
1150.754272	144.0
1151.294434	200.0
1152.098267	108.0
1152.60498	200.0
1152.976685	104.0
1153.360352	220.0
1153.584961	216.0
1154.707397	68.0
1155.647705	192.0
1156.737305	144.0
1157.07373	136.0
1157.090942	96.0
1157.112305	160.0
1157.800293	172.0
1157.928955	176.0
1158.599487	200.0
1158.897583	180.0
1159.385498	60.0
1159.866699	156.0
1160.110718	160.0
1160.354858	176.0
1160.551392	80.0
1161.042725	208.0
1161.148193	60.0
1161.439819	68.0
1162.362549	176.0
1162.559326	60.0
1162.756104	156.0
1163.543457	160.0
1164.568848	104.0
1164.628906	192.0
1164.755981	188.0
1164.908447	180.0
1165.45813	204.0
1165.778198	196.0
1167.205688	212.0
1167.362061	132.0
1168.130615	184.0
1168.246338	172.0
1169.484741	188.0
1170.172241	36.0
1170.403809	184.0
1170.873657	160.0
1171.391235	48.0
1171.757202	136.0
1172.740479	152.0
1173.340332	152.0
1173.667603	92.0
1173.933472	116.0
1177.174927	176.0
1177.332031	204.0
1177.65979	128.0
1178.363403	64.0
1179.422607	100.0
1179.571411	168.0
1179.866943	164.0
1180.017334	176.0
1180.174683	192.0
1180.331909	196.0
1180.817383	192.0
1180.967896	240.0
1181.508301	212.0
1181.884644	176.0
1182.917969	152.0
1184.287476	164.0
1185.911377	180.0
1186.418579	200.0
1186.589966	208.0
1186.761353	256.0
1187.049438	136.0
1187.858643	124.0
1188.613403	180.0
1188.935913	220.0
1189.491821	176.0
1189.553589	164.0
1190.425537	144.0
1191.112427	184.0
1191.414673	164.0
1192.060547	148.0
1192.239136	108.0
1193.62085	312.0
1194.205444	148.0
1194.927734	168.0
1195.003418	204.0
1195.120361	60.0
1195.230469	64.0
1196.066162	228.0
1196.483154	204.0
1196.958252	164.0
1197.171631	128.0
1198.135986	160.0
1198.356445	84.0
1199.18335	184.0
1199.617676	200.0
1200.105225	228.0
1200.362183	160.0
1201.065674	56.0
1201.348511	272.0
1202.949463	112.0
1203.018555	104.0
1203.612305	124.0
1204.213135	152.0
1205.028198	204.0
1205.14563	184.0
1205.539551	96.0
1205.795288	108.0
1206.265259	192.0
1206.348145	116.0
1207.309326	164.0
1207.357666	128.0
1207.620483	200.0
1209.599365	172.0
1210.138916	112.0
1211.42749	172.0
1211.524536	136.0
1211.780884	136.0
1211.912476	60.0
1211.981812	180.0
1212.487671	116.0
1212.961548	204.0
1213.499756	148.0
1213.957397	172.0
1214.165405	188.0
1214.796631	144.0
1216.63501	140.0
1217.072998	112.0
1217.197998	92.0
1217.600708	228.0
1217.85083	188.0
1218.149414	140.0
1219.302856	140.0
1219.705933	104.0
1219.817139	188.0
1220.136963	68.0
1220.338623	140.0
1221.026978	212.0
1221.87561	204.0
1221.924316	204.0
1222.856812	204.0
1222.905518	188.0
1222.954224	136.0
1223.43457	108.0
1223.53894	192.0
1223.706055	200.0
1225.88623	132.0
1226.116211	184.0
1226.82019	188.0
1227.106079	132.0
1227.391968	168.0
1227.475586	32.0
1227.80603	132.0
1228.187012	136.0
1228.326538	196.0
1228.43811	120.0
1228.654297	184.0
1229.959229	132.0
1230.070923	132.0
1230.126831	120.0
1231.306885	184.0
1231.635132	100.0
1231.844604	188.0
1232.857788	180.0
1233.437866	136.0
1234.143921	212.0
1234.220825	160.0
1235.444824	112.0
1235.773682	212.0
1236.011475	184.0
1236.081543	180.0
1236.158447	172.0
1236.326416	120.0
1236.473389	192.0
1236.599365	220.0
1237.159302	128.0
1237.488403	192.0
1237.796509	116.0
1238.019287	236.0
1238.286743	156.0
1238.368164	128.0
1238.924072	104.0
1239.120239	160.0
1239.260376	176.0
1239.652832	168.0
1240.045288	144.0
1241.77002	88.0
1242.534546	128.0
1242.590698	184.0
1243.392578	144.0
1244.064453	208.0
1244.47168	192.0
1244.619141	184.0
1245.09668	188.0
1245.251099	168.0
1245.532104	136.0
1245.588257	176.0
1245.637451	236.0
1246.677368	152.0
1247.007568	172.0
1247.077881	124.0
1247.527832	148.0
1248.041016	140.0
1248.209717	92.0
1248.448853	168.0
1248.554321	188.0
1248.730103	68.0
1249.799438	136.0
1250.144287	152.0
1250.200562	196.0
1250.742432	56.0
1251.319702	120.0
1251.967529	220.0
1252.770508	136.0
1253.28479	124.0
1254.208008	156.0
1254.440552	156.0
1254.581543	200.0
1255.893188	136.0
1256.711548	44.0
1257.085449	124.0
1257.240723	160.0
1257.353638	152.0
1257.883057	104.0
1257.981812	128.0
1258.052368	124.0
1258.402222	224.0
1258.518433	244.0
1259.210449	180.0
1259.415283	176.0
1259.754272	204.0
1259.88147	160.0
1260.651611	208.0
1260.785889	160.0
1261.761353	148.0
1262.008789	180.0
1262.553223	228.0
1262.857422	156.0
1264.321899	152.0
1264.477661	220.0
1265.256226	76.0
1265.730591	196.0
1265.794312	172.0
1266.453003	188.0
1266.523804	172.0
1266.599976	164.0
1266.679688	180.0
1266.934692	196.0
1267.423462	164.0
1267.607788	236.0
1267.791992	176.0
1267.855835	72.0
1268.118042	200.0
1268.394409	124.0
1268.663818	152.0
1269.188477	132.0
1269.486328	152.0
1269.578491	196.0
1269.78418	216.0
1270.089111	156.0
1270.223877	60.0
1271.1604	124.0
1271.266846	316.0
1272.377808	184.0
1272.942139	152.0
1273.204956	192.0
1273.425049	148.0
1273.758911	156.0
1274.014648	160.0
1274.540405	220.0
1274.845947	240.0
1275.371826	168.0
1275.862305	164.0
1276.706177	148.0
1276.907593	124.0
1277.185059	152.0
1277.498047	152.0
1278.472778	116.0
1278.821533	172.0
1280.081543	120.0
1280.964722	136.0
1281.484863	184.0
1281.862427	172.0
1282.268677	180.0
1282.37561	136.0
1282.503906	144.0
1283.01001	120.0
1283.337891	108.0
1283.501953	176.0
1283.65918	180.0
1283.879883	144.0
1284.193726	196.0
1284.279297	88.0
1284.675537	204.0
1285.435059	176.0
1286.113037	168.0
1286.369995	124.0
1286.484253	172.0
1287.233887	132.0
1287.31958	160.0
1288.953613	188.0
1289.05542	204.0
1289.112549	144.0
1289.627197	188.0
1289.748657	244.0
1291.01416	120.0
1291.357422	176.0
1291.602783	184.0
1291.664917	176.0
1292.087036	160.0
1292.294556	144.0
1292.552124	260.0
1293.095947	184.0
1293.539795	108.0
1293.740234	156.0
1294.134033	136.0
1294.284302	96.0
1295.637939	352.0
1295.788452	156.0
1296.118042	212.0
1296.261353	116.0
1296.712769	84.0
1296.841797	60.0
1297.028198	172.0
1297.22168	248.0
1297.80249	160.0
1298.820068	84.0
1298.957031	124.0
1299.021606	128.0
1299.33728	152.0
1299.452148	168.0
1299.595581	216.0
1299.947144	168.0
1300.133789	200.0
1300.356201	188.0
1301.167358	88.0
1301.885376	108.0
1302.273193	172.0
1302.337891	168.0
1302.402588	132.0
1302.467163	152.0
1302.560547	200.0
1302.862305	148.0
1302.94751	152.0
1303.666992	196.0
1303.983276	196.0
1304.292236	40.0
1304.472046	132.0
1305.026367	152.0
1305.536133	184.0
1305.751831	212.0
1305.931641	44.0
1306.061157	184.0
1306.737305	204.0
1307.173462	200.0
1307.507324	260.0
1307.564819	192.0
1307.931885	204.0
1308.054321	124.0
1308.277466	64.0
1310.058838	156.0
1310.44519	192.0
1310.646973	200.0
1310.985718	120.0
1311.28833	88.0
1311.57666	220.0
1312.016357	204.0
1312.614746	176.0
1312.782227	208.0
1312.843994	208.0
1313.675049	184.0
1313.869995	192.0
1314.100708	196.0
1314.237793	124.0
1314.418091	152.0
1314.74292	124.0
1314.822266	112.0
1316.056641	192.0
1316.331055	236.0
1317.009888	156.0
1317.224731	224.0
1317.30603	160.0
1317.356567	132.0
1318.071899	164.0
1318.845215	148.0
1319.05481	192.0
1320.028076	168.0
1320.117554	168.0
1320.797485	220.0
1321.122925	176.0
1321.368896	140.0
1322.468872	212.0
1322.599121	180.0
1323.134766	196.0
1323.344727	192.0
1323.829956	144.0
1324.612183	128.0
1324.662842	84.0
1324.735229	116.0
1325.01062	168.0
1325.16272	200.0
1325.974365	140.0
1326.112061	204.0
1326.16272	124.0
1327.590942	140.0
1327.736084	272.0
1329.172363	148.0
1329.296631	188.0
1329.680298	168.0
1329.767456	176.0
1330.297363	128.0
1330.471558	136.0
1330.682129	204.0
1330.761963	132.0
1331.328369	204.0
1331.53894	164.0
1331.960205	216.0
1332.069214	124.0
1332.40332	152.0
1333.086304	184.0
1333.286621	184.0
1333.47876	52.0
1333.94397	72.0
1334.111206	172.0
1334.452881	60.0
1334.787354	68.0
1334.932739	156.0
1335.234741	156.0
1335.310913	180.0
1335.376343	380.0
1335.492798	108.0
1335.630981	184.0
1335.732788	144.0
1336.249268	200.0
1336.394775	48.0
1337.027832	144.0
1337.857666	200.0
1338.032349	168.0
1338.119751	136.0
1338.36731	184.0
1338.520264	160.0
1338.687744	180.0
1338.767822	152.0
1339.029663	220.0
1339.204834	204.0
1339.692871	152.0
1340.10083	164.0
1340.610718	152.0
1341.106445	120.0
1341.405273	180.0
1341.769775	188.0
1342.2948	168.0
1342.542725	172.0
1342.59375	140.0
1343.490967	120.0
1344.264282	32.0
1344.439453	144.0
1344.599976	64.0
1344.804321	144.0
1344.964966	28.0
1345.118286	164.0
1345.5271	140.0
1346.162231	112.0
1346.59314	72.0
1347.126343	172.0
1347.184814	60.0
1347.38208	124.0
1347.477051	148.0
1347.572021	156.0
1348.068848	180.0
1348.310059	220.0
1348.434326	144.0
1348.617065	184.0
1348.734009	204.0
1349.07019	120.0
1349.377319	132.0
1349.801392	148.0
1350.196289	252.0
1350.935059	64.0
1351.603394	132.0
1352.281372	164.0
1353.174438	100.0
1353.225708	160.0
1353.577148	84.0
1353.672363	172.0
1353.738281	140.0
1353.811523	172.0
1354.24353	152.0
1354.338745	216.0
1354.661133	168.0
1354.822266	108.0
1355.071289	164.0
1355.518311	108.0
1356.559082	64.0
1356.646973	68.0
1356.754517	168.0
1357.01355	196.0
1357.915527	180.0
1357.988892	152.0
1358.245605	164.0
1358.502319	136.0
1359.419434	100.0
1359.507568	48.0
1359.683716	148.0
1360.050659	108.0
1360.579224	52.0
1360.714233	236.0
1360.828735	240.0
1360.946289	96.0
1362.310547	216.0
1363.149902	128.0
1363.539429	216.0
1363.70105	120.0
1364.414062	152.0
1364.693481	44.0
1364.943481	172.0
1365.208252	112.0
1365.366089	180.0
1365.943726	160.0
1366.326172	172.0
1366.973755	176.0
1367.400513	52.0
1367.76123	44.0
1367.856934	212.0
1368.718262	196.0
1369.381104	184.0
1369.668335	168.0
1369.933472	140.0
1370.014526	176.0
1370.323975	160.0
1370.503418	144.0
1370.721802	152.0
1370.928223	148.0
1371.444092	204.0
1371.554565	180.0
1371.724121	168.0
1372.68335	164.0
1372.844849	176.0
1373.058716	144.0
1373.139893	140.0
1373.442261	124.0
1373.870117	172.0
1374.157837	168.0
1374.374268	224.0
1374.541504	176.0
1374.718628	180.0
1374.958862	100.0
1375.220459	148.0
1375.333862	164.0
1375.486206	196.0
1376.541992	196.0
1377.11792	384.0
1377.199219	144.0
1377.583374	104.0
1377.87146	152.0
1378.122681	196.0
1378.698975	136.0
1379.829956	184.0
1379.920166	160.0
1380.251343	120.0
1380.517578	164.0
1380.643311	196.0
1381.449463	232.0
1381.745483	160.0
1381.856445	152.0
1381.915649	120.0
1382.041382	176.0
1382.100586	152.0
1382.433594	32.0
1383.89917	152.0
1384.150879	120.0
1384.499023	144.0
1384.632324	188.0
1384.921143	136.0
1385.617432	144.0
1386.743774	156.0
1386.939819	136.0
1387.292358	184.0
1387.729736	172.0
1388.404541	192.0
1388.649292	176.0
1388.797607	140.0
1388.86438	96.0
1389.101685	120.0
1389.442993	220.0
1389.710083	52.0
1390.170166	192.0
1390.806274	96.0
1390.919678	208.0
1391.105347	172.0
1391.610107	180.0
1391.706665	228.0
1391.855103	112.0
1391.973999	148.0
1392.026001	148.0
1392.077881	180.0
1392.427002	224.0
1392.738892	172.0
1392.813232	160.0
1392.883301	180.0
1392.998901	108.0
1393.065796	140.0
1393.400024	172.0
1393.459473	68.0
1393.719482	108.0
1393.884399	156.0
1394.373535	68.0
1394.945801	188.0
1395.451294	120.0
1395.585205	236.0
1395.838013	252.0
1396.061035	260.0
1396.80481	52.0
1397.065186	36.0
1397.228882	196.0
1397.496704	80.0
1397.749634	172.0
1398.121704	164.0
1398.315308	144.0
1398.531128	176.0
1399.100342	252.0
1399.178711	176.0
1399.856323	196.0
1399.960571	156.0
1400.12439	192.0
1400.288208	132.0
1400.414795	128.0
1400.831909	60.0
1401.080322	180.0
1401.15979	212.0
1402.612915	196.0
1402.940918	144.0
1403.231689	112.0
1403.33606	152.0
1403.760986	184.0
1404.081665	160.0
1405.260254	204.0
1405.469238	180.0
1405.596069	240.0
1405.872192	160.0
1406.461792	52.0
1407.238159	152.0
1407.424805	144.0
1407.499512	160.0
1407.768311	60.0
1408.082031	120.0
1408.328491	48.0
1408.380737	132.0
1408.470337	168.0
1408.88562	68.0
1408.948486	168.0
1409.404175	172.0
1409.613403	144.0
1410.465454	148.0
1410.779419	152.0
1410.936401	208.0
1411.564453	84.0
1411.73645	256.0
1411.785645	164.0
1411.998169	112.0
1412.925659	144.0
1413.008057	144.0
1413.165161	180.0
1413.367188	188.0
1413.456909	168.0
1413.509277	204.0
1413.988281	252.0
1415.365723	112.0
1415.440552	136.0
1415.97229	216.0
1416.792358	364.0
1416.916016	128.0
1417.088379	160.0
1417.455566	128.0
1417.605347	128.0
1417.657837	156.0
1417.732788	208.0
1417.88269	232.0
1418.14502	224.0
1418.332397	48.0
1418.42981	92.0
1418.572266	112.0
1418.624756	336.0
1419.269531	220.0
1419.344482	32.0
1419.509399	84.0
1419.876953	164.0
1420.304443	116.0
1420.490845	172.0
1420.649536	156.0
1421.047119	172.0
1421.445557	200.0
1421.512329	120.0
1422.179565	48.0
1423.082153	168.0
1423.403931	176.0
1423.681763	140.0
1423.824463	176.0
1423.974731	216.0
1424.298584	168.0
1424.472412	172.0
1425.31189	208.0
1425.687622	144.0
1425.785278	48.0
1426.251343	188.0
1426.326416	212.0
1426.717407	180.0
1427.333862	128.0
1427.484253	212.0
1427.597046	96.0
1427.702393	180.0
1427.860229	248.0
1428.004395	100.0
1428.108521	212.0
1428.176147	164.0
1428.334106	124.0
1428.681641	164.0
1429.026245	168.0
1429.109009	176.0
1429.300415	168.0
1429.598145	140.0
1429.914185	196.0
1430.162598	272.0
1430.70459	140.0
1431.796387	164.0
1431.924316	128.0
1432.142822	188.0
1432.941284	112.0
1433.171753	144.0
1433.890747	96.0
1434.101807	232.0
1434.214844	168.0
1434.433472	184.0
1435.609619	204.0
1436.016846	52.0
1436.167725	172.0
1437.261597	192.0
1437.684204	104.0
1437.8125	140.0
1438.023804	176.0
1438.091675	144.0
1438.831543	168.0
1439.269409	112.0
1440.757324	172.0
1441.05188	60.0
1441.346558	184.0
1441.558228	48.0
1441.656372	132.0
1441.988892	164.0
1442.192993	164.0
1442.329102	144.0
1443.18335	128.0
1443.606812	156.0
1443.969849	192.0
1444.143799	124.0
1444.393311	180.0
1444.746704	112.0
1445.460083	116.0
1445.52063	160.0
1445.639282	236.0
1445.914185	128.0
1446.080688	112.0
1446.179077	164.0
1446.285034	128.0
1446.527222	220.0
1446.746826	200.0
1446.890625	160.0
1446.943604	128.0
1447.131226	236.0
1447.458496	200.0
1447.875	224.0
1448.056763	204.0
1448.155151	132.0
1448.837158	172.0
1449.041504	128.0
1449.161743	132.0
1449.731079	84.0
1449.950806	204.0
1450.746704	144.0
1450.807373	32.0
1450.9021	268.0
1451.201538	188.0
1451.815796	32.0
1452.160034	128.0
1452.240479	196.0
1452.809326	44.0
1453.42395	184.0
1454.463623	248.0
1455.230347	148.0
1455.594849	184.0
1455.731567	188.0
1456.779663	116.0
1457.866211	192.0
1458.124512	148.0
1458.375366	144.0
1458.626221	172.0
1459.067139	180.0
1459.325562	120.0
1459.971924	160.0
1460.253296	136.0
1460.671631	164.0
1461.097656	44.0
1461.531372	144.0
1461.819702	176.0
1462.665283	112.0
1463.609375	116.0
1464.269775	104.0
1464.622192	232.0
1465.178345	136.0
1465.269775	124.0
1465.620239	44.0
1465.726929	152.0
1465.994873	188.0
1466.153564	176.0
1466.245117	112.0
1467.138184	204.0
1467.47644	148.0
1468.006104	76.0
1468.16626	212.0
1468.39502	112.0
1468.471313	184.0
1468.677246	68.0
1469.272217	124.0
1469.49646	228.0
1469.661377	68.0
1469.844482	160.0
1469.905518	204.0
1470.325195	124.0
1471.004517	72.0
1471.248779	140.0
1471.666382	180.0
1471.936035	164.0
1472.348389	160.0
1473.043457	124.0
1473.303101	180.0
1473.51709	76.0
1473.684692	160.0
1473.815063	324.0
1473.86853	148.0
1474.105347	308.0
1474.380493	92.0
1474.450195	152.0
1474.617432	144.0
1474.670898	164.0
1475.320679	136.0
1475.672363	104.0
1475.809937	160.0
1475.978149	204.0
1476.21521	204.0
1476.368164	204.0
1476.674072	112.0
1476.865234	164.0
1477.630249	36.0
1477.722046	208.0
1477.844482	52.0
1477.901367	164.0
1478.188843	164.0
1478.295898	152.0
1478.548462	132.0
1478.625	140.0
1478.877563	160.0
1479.084229	88.0
1479.352173	136.0
1479.673706	140.0
1480.186646	144.0
1480.291748	212.0
1480.362793	172.0
1480.937256	92.0
1481.335571	192.0
1481.588257	188.0
1481.871826	308.0
1482.280884	216.0
1482.990601	224.0
1484.048462	196.0
1484.316895	208.0
1484.784668	216.0
1484.884399	140.0
1485.160522	164.0
1485.298584	96.0
1485.497925	220.0
1485.705078	192.0
1486.104004	180.0
1486.272827	224.0
1486.510742	52.0
1486.633545	188.0
1487.078613	212.0
1487.462402	160.0
1488.353027	160.0
1488.445068	188.0
1488.52356	132.0
1488.575684	220.0
1489.074829	156.0
1489.312988	44.0
1489.42041	212.0
1489.597168	132.0
1490.035034	172.0
1490.265503	196.0
1490.672729	184.0
1490.857178	252.0
1491.610352	100.0
1492.210083	220.0
1493.317383	68.0
1493.509644	128.0
1493.925049	180.0
1494.025024	172.0
1494.094238	256.0
1494.217407	136.0
1494.355835	176.0
1494.528564	168.0
1494.58667	164.0
1494.702148	136.0
1495.04834	172.0
1495.217651	232.0
1495.379272	160.0
1496.557129	188.0
1496.657227	208.0
1496.757324	200.0
1497.358032	136.0
1497.881714	84.0
1498.821655	64.0
1499.098999	192.0
1499.75415	212.0
1499.908325	156.0
1500.193481	124.0
1500.887329	148.0
1501.244507	372.0
1501.434937	64.0
1501.697144	216.0
1501.897705	156.0
1502.244751	212.0
1502.607422	132.0
1502.699951	40.0
1502.946899	200.0
1503.263184	164.0
1503.479248	148.0
1503.703125	196.0
1503.919189	180.0
1504.119873	172.0
1504.559937	196.0
1504.791504	116.0
1505.223877	200.0
END IONS

BEGIN IONS
PEPMASS=315.163
CHARGE=1
MSLEVEL=2
SOURCE_INSTRUMENT=LC-ESI-qTof
FILENAME=mmv_positive.mgf
SEQ=*..*
IONMODE=Positive
ORGANISM=MMV_POSITIVE
NAME=MMV004168 M+H
PI=Sirenas MD
DATACOLLECTOR=Sirenas MD
SMILES=CN1CCCN(CC1)C(c2ccccc2)c3ccc(Cl)cc3
INCHI=N/A
INCHIAUX=N/A
PUBMED=N/A
SUBMITUSER=mwang87
LIBRARYQUALITY=3
SPECTRUMID=CCMSLIB00004722096
USI=mzspec:GNPS:MMV_POSITIVE:accession:CCMSLIB00004722096
SCANS=101
113.107498	2873.152344
113.151886	71.480766
113.169296	33.333332
113.264961	39.41346
113.472542	19.595589
139.055893	65.657608
149.012421	30.333334
152.446243	28.923077
162.665314	20.020834
162.689621	21.799999
163.050446	75.265625
163.780655	45.511364
164.062897	311.579468
164.154785	25.941177
164.193298	58.53125
164.230499	40.01907
164.252792	40.833332
164.319336	19.041666
164.355698	47.668652
164.375778	73.142242
164.453766	23.446428
164.497467	20.086538
164.560593	43.063774
164.600769	19.005434
164.960617	74.66848
165.069244	12698.62793
165.137756	207.357147
165.155579	142.189392
165.190002	117.272728
165.233826	189.482147
165.277847	42.361111
165.307556	101.145348
165.336197	110.010872
165.376709	31.571428
165.401489	98.086266
165.455399	78.049606
165.48056	25.556818
165.505096	65.440475
165.526718	42.164474
165.563736	63.30682
165.589935	30.625
165.674805	34.142857
165.71817	22.322369
165.763641	26.183823
165.835007	25.680555
165.859924	30.163462
165.958511	39.30682
166.036148	255.888885
166.050125	291.0354
166.077499	22248.171875
166.133606	619.246948
166.190216	101.08654
166.229782	121.837212
166.261536	40.852272
166.298264	53.25
166.341339	129.001083
166.353699	148.28006
166.377441	133.228653
166.406296	69.32692
166.457062	70.686401
166.476395	91.009956
166.494843	70.324997
166.525818	128.338852
166.553619	64.408333
166.581009	54.470589
166.601639	22.568182
166.673859	20.416666
166.69722	45.219593
166.769547	33.692307
166.86618	19.125
166.94342	33.017857
167.028931	57.142857
167.05545	33.782406
167.082184	1381.491943
167.144409	52.969826
167.225174	23.778847
167.276855	40.102272
167.691101	50.398586
167.798065	23.020834
167.929352	20.03409
168.425003	31.102272
169.863068	18.556818
198.383545	36.113636
198.446091	39.266666
199.030289	51.308823
199.528458	18.15
199.710327	20.076923
199.791718	39.693966
199.847168	177.163635
199.886688	175.003616
199.909592	186.507812
199.937241	184.215515
199.991165	288.243927
200.039093	598.735352
200.065414	241.125
200.124435	190.125
200.152206	154.691895
200.194153	115.070312
200.229309	215.664719
200.250702	76.307693
200.273605	51.361111
200.328476	67.449997
200.384308	39.140625
200.428818	41.336113
200.458206	50.198528
200.473831	47.799999
200.501846	86.541664
200.523849	46.025002
200.552521	23.272728
200.59053	45.487904
200.611816	77.77594
200.660675	65.030403
200.721161	45.344513
200.750595	53.462837
200.786179	187.116882
200.85556	36.796051
200.897018	60.27174
200.931671	73.059212
200.961197	69.0
201.046875	164810.78125
201.108688	9715.837891
201.494781	110.508827
201.519531	36.190788
201.559097	213.127762
201.625412	180.410461
201.6595	149.209015
201.683823	152.0
201.713547	145.183136
201.758789	193.255325
201.786255	123.144234
201.830887	117.1875
201.906082	131.887375
201.929092	67.166664
201.963318	46.75
201.993423	40.179295
202.049438	9670.587891
202.146088	106.377068
202.167648	89.929817
202.212708	56.418388
202.255768	75.455811
202.304352	29.173868
202.323273	20.85
202.349045	48.952778
202.395111	66.144814
202.420242	100.162788
202.459167	43.191326
202.497406	48.240383
202.564209	33.671295
202.596863	41.264706
202.639618	59.597828
202.664398	61.608883
202.700836	81.001663
202.725677	63.424999
202.770065	52.533333
202.783981	29.200001
202.840729	75.964287
202.879227	32.002453
202.971436	70.578949
203.009293	131.242645
203.044998	525.172852
203.131104	24.5
203.146896	30.002777
203.172241	102.177635
203.262177	40.041668
203.280487	29.199751
203.3069	73.130318
203.375565	37.41346
203.509048	20.041666
203.518982	17.03125
203.553299	17.017857
203.628174	29.063776
203.707947	18.918478
203.782104	17.004999
203.885239	18.013889
203.996017	27.48077
204.022705	44.841217
204.166916	44.926281
204.41507	61.054825
204.686996	22.5625
205.140198	18.014706
205.454987	24.142857
205.86409	43.55682
206.552826	25.803572
207.704361	23.025
208.019211	34.666668
209.336212	44.44643
219.644653	18.005953
279.355286	36.125
315.160767	163.461533
316.16275	32.266666
882.228394	17.0
END IONS

BEGIN IONS
PEPMASS=265.196
CHARGE=1
MSLEVEL=2
SOURCE_INSTRUMENT=ESI-QQQ
FILENAME=MSV000078710/ccms_peak/NIH_Pharmacologically_Active_mzXMLs/ML00106590/p5-B04_GB4_01_18443.mzXML
SEQ=*..*
IONMODE=Positive
ORGANISM=GNPS-NIST14-MATCHES
NAME=Spectral Match to Tetracaine from NIST14 M+H
PI=Data from Pieter Dorrestein
DATACOLLECTOR=Data deposited by vphelan
SMILES=CCCCNC1=CC=C(C=C1)C(=O)OCCN(C)C
INCHI=InChI=1S/C15H24N2O2/c1-4-5-10-16-14-8-6-13(7-9-14)15(18)19-12-11-17(2)3/h6-9,16H,4-5,10-12H2,1-3H3
INCHIAUX=N/A
PUBMED=N/A
SUBMITUSER=mwang87
LIBRARYQUALITY=3
SPECTRUMID=CCMSLIB00003135439
USI=mzspec:GNPS:GNPS-NIST14-MATCHES:accession:CCMSLIB00003135439
SCANS=1580
44.892529	128.0
44.908531	204.0
44.969238	144.0
45.142242	156.0
45.203773	164.0
45.309547	216.0
45.376556	148.0
45.418129	176.0
45.438251	192.0
45.584602	184.0
45.594009	60.0
45.779655	92.0
45.789082	132.0
45.802547	112.0
45.814144	204.0
45.869957	156.0
45.935997	112.0
45.945438	136.0
45.987244	228.0
46.012917	100.0
46.260307	72.0
46.292801	164.0
46.34021	112.0
46.451374	200.0
46.555222	256.0
46.572178	192.0
46.614292	224.0
46.657784	144.0
46.667301	140.0
46.683617	188.0
46.716259	140.0
46.743473	76.0
46.78294	144.0
46.793831	48.0
46.898724	144.0
46.980537	164.0
46.998272	132.0
47.127983	132.0
47.227776	244.0
47.275375	96.0
47.300297	192.0
47.335892	144.0
47.389309	156.0
47.45784	200.0
47.486637	148.0
47.497608	148.0
47.540142	160.0
47.566219	28.0
47.589554	136.0
47.644489	224.0
47.761333	140.0
47.795727	156.0
47.811199	180.0
47.914131	108.0
47.988556	140.0
48.079594	172.0
48.26672	328.0
48.408604	140.0
48.425224	48.0
48.468166	76.0
48.631805	144.0
48.647076	164.0
48.715118	84.0
48.7304	212.0
48.916363	188.0
49.083931	164.0
49.09927	96.0
49.352016	196.0
49.456936	180.0
49.54007	184.0
49.804665	132.0
49.828785	208.0
49.865078	72.0
49.973354	148.0
49.983204	144.0
50.029648	168.0
50.07048	216.0
50.080341	88.0
50.159245	148.0
50.170521	176.0
50.279129	80.0
50.303123	128.0
50.435902	144.0
50.470791	212.0
50.567024	232.0
50.585838	68.0
50.618401	204.0
50.64389	148.0
50.711899	32.0
50.726074	160.0
50.792721	160.0
50.846634	288.0
50.91478	148.0
51.039829	204.0
51.09103	248.0
51.105255	32.0
51.133717	92.0
51.189236	108.0
51.411613	48.0
51.424458	248.0
51.474422	152.0
51.507248	240.0
51.578495	180.0
51.690266	120.0
51.783318	136.0
51.799076	176.0
51.949589	180.0
51.972542	144.0
51.986893	168.0
51.999809	136.0
52.051487	124.0
52.10894	228.0
52.154926	124.0
52.187988	152.0
52.20668	52.0
52.236885	144.0
52.308834	112.0
52.610111	140.0
52.848576	76.0
52.967281	124.0
53.006401	188.0
53.025238	124.0
53.253017	148.0
53.289333	164.0
53.318398	136.0
53.372181	44.0
53.421631	188.0
53.567913	136.0
53.641514	176.0
53.669212	44.0
53.708588	212.0
53.727551	152.0
53.775703	92.0
53.813656	120.0
53.842861	200.0
53.860386	184.0
53.927597	180.0
54.089314	128.0
54.113377	160.0
54.232029	160.0
54.308273	260.0
54.355217	76.0
54.36549	100.0
54.384567	156.0
54.481483	180.0
54.535851	124.0
54.579952	104.0
54.615246	68.0
54.635841	176.0
54.687344	204.0
54.826752	216.0
54.858208	204.0
54.869999	72.0
54.900963	112.0
54.98653	64.0
55.061821	160.0
55.1283	156.0
55.154903	208.0
55.1987	416.0
55.212563	216.0
55.234749	68.0
55.249542	172.0
55.333897	180.0
55.381283	124.0
55.45092	124.0
55.504284	208.0
55.560646	176.0
55.582901	172.0
55.686817	148.0
55.715038	168.0
55.73584	188.0
55.765694	132.0
55.810158	160.0
55.859234	92.0
55.917259	176.0
55.933632	64.0
55.994678	200.0
56.042347	172.0
56.169064	68.0
56.228745	64.0
56.256439	144.0
56.318325	132.0
56.36314	212.0
56.403492	168.0
56.581505	156.0
56.591984	144.0
56.669868	164.0
56.726814	212.0
56.930187	160.0
57.021	156.0
57.040543	136.0
57.081135	156.0
57.096172	216.0
57.221062	160.0
57.249672	224.0
57.347343	144.0
57.445606	32.0
57.472759	100.0
57.546719	208.0
57.679657	128.0
57.771896	160.0
57.797619	184.0
57.861187	140.0
57.930847	168.0
58.061195	248.0
58.100632	120.0
58.117321	228.0
58.208393	156.0
58.249397	124.0
58.285862	108.0
58.462254	164.0
58.524101	240.0
58.612732	156.0
58.618908	128.0
58.632812	164.0
58.670921	68.0
58.826519	196.0
58.84026	128.0
58.905926	192.0
59.046543	144.0
59.057247	184.0
59.11433	128.0
59.155174	248.0
59.211826	64.0
59.297623	200.0
59.342075	160.0
59.510845	44.0
59.553841	152.0
59.650642	180.0
59.678314	204.0
59.745987	104.0
59.85218	136.0
59.961555	124.0
60.012424	184.0
60.04018	152.0
60.216114	196.0
60.242371	64.0
60.271725	184.0
60.295746	148.0
60.336998	224.0
60.53159	208.0
60.55172	144.0
60.633831	176.0
60.674133	160.0
60.686535	92.0
60.710999	144.0
60.729954	108.0
60.922432	128.0
61.037441	184.0
61.051437	228.0
61.197704	224.0
61.208603	132.0
61.253765	188.0
61.269344	60.0
61.390919	156.0
61.695187	160.0
61.814247	136.0
61.865898	124.0
62.092171	200.0
62.10564	152.0
62.246883	64.0
62.289288	176.0
62.361565	228.0
62.385143	180.0
62.43074	204.0
62.477924	204.0
62.558182	76.0
62.668423	224.0
62.747227	116.0
62.762993	164.0
62.807148	52.0
62.879726	136.0
62.908134	72.0
62.941292	68.0
63.007626	136.0
63.028107	224.0
63.032524	216.0
63.072414	144.0
63.191017	124.0
63.251152	180.0
63.298649	40.0
63.323986	176.0
63.385769	84.0
63.425388	232.0
63.461849	156.0
63.555428	184.0
63.577644	144.0
63.625259	212.0
63.668133	224.0
63.758015	152.0
63.796829	88.0
63.822269	84.0
63.855663	192.0
63.887474	144.0
63.904976	168.0
63.973408	124.0
64.003654	156.0
64.066536	300.0
64.142258	132.0
64.190086	156.0
64.247505	180.0
64.328888	176.0
64.362411	148.0
64.427895	160.0
64.574951	116.0
64.717377	164.0
64.816681	76.0
64.858345	156.0
64.948135	128.0
65.005898	156.0
65.086151	148.0
65.152	132.0
65.185745	72.0
65.225922	80.0
65.393196	192.0
65.675156	144.0
65.755821	368.0
65.828468	204.0
65.85788	76.0
65.875305	88.0
65.893074	132.0
66.092842	180.0
66.111359	272.0
66.15992	140.0
66.313797	168.0
66.341354	180.0
66.380264	124.0
66.427299	196.0
66.448387	152.0
66.644836	260.0
66.82531	180.0
66.872505	152.0
66.9132	192.0
66.952278	128.0
66.970192	48.0
67.028625	180.0
67.071213	176.0
67.226151	128.0
67.271202	212.0
67.337158	168.0
67.60527	132.0
67.847679	152.0
68.062607	204.0
68.080673	144.0
68.113518	188.0
68.157875	124.0
68.225258	148.0
68.297615	168.0
68.317352	116.0
68.330513	56.0
68.351898	348.0
68.445724	140.0
68.518196	208.0
68.658295	156.0
68.669846	164.0
68.69458	144.0
68.724281	100.0
68.763916	192.0
68.803093	196.0
68.824959	144.0
68.839027	100.0
68.856339	156.0
68.891022	160.0
68.930672	140.0
68.960419	180.0
69.137383	80.0
69.221802	136.0
69.477051	52.0
69.528481	148.0
69.55806	132.0
69.636398	44.0
69.665466	104.0
69.752701	132.0
70.028908	160.0
70.172493	168.0
70.447578	160.0
70.616394	168.0
70.641487	88.0
70.708412	208.0
70.773697	68.0
70.785416	236.0
70.800491	228.0
70.825615	64.0
70.882576	156.0
71.142532	120.0
71.221458	184.0
71.421471	100.0
71.586403	168.0
71.653778	200.0
71.723732	272.0
71.753212	244.0
71.815605	120.0
71.849335	156.0
71.866211	92.0
71.918526	196.0
71.980988	224.0
72.035034	236.0
72.187141	116.0
72.288635	144.0
72.332642	92.0
72.390198	276.0
72.459648	172.0
72.498619	140.0
72.556244	216.0
72.568115	176.0
72.814575	196.0
72.904198	112.0
72.995995	204.0
73.007896	196.0
73.109367	124.0
73.154221	188.0
73.218918	72.0
73.379089	140.0
73.474594	184.0
73.527496	60.0
73.597015	192.0
73.633339	180.0
73.734138	208.0
73.768326	200.0
73.788834	164.0
73.802513	140.0
73.862373	184.0
74.088326	188.0
74.263168	152.0
74.369545	232.0
74.426193	84.0
74.539558	256.0
74.594559	132.0
74.630661	40.0
74.706329	136.0
74.73214	108.0
74.780319	132.0
74.850899	192.0
75.003387	212.0
75.070564	160.0
75.244011	140.0
75.494553	128.0
75.523949	128.0
75.722992	220.0
75.81134	144.0
75.840805	224.0
75.882408	136.0
75.932693	144.0
76.036789	148.0
76.085388	76.0
76.113167	200.0
76.18264	228.0
76.30603	212.0
76.415596	192.0
76.47998	116.0
76.492165	152.0
76.551361	168.0
76.600128	192.0
76.751747	204.0
76.831978	232.0
76.870361	168.0
76.893044	152.0
76.955887	232.0
77.078156	84.0
77.242493	160.0
77.383499	132.0
77.417511	236.0
77.53138	100.0
77.589218	144.0
77.608505	56.0
77.687424	92.0
77.710228	244.0
77.768143	136.0
77.829582	216.0
77.843582	144.0
77.941994	128.0
78.09494	200.0
78.255074	300.0
78.432999	164.0
78.457672	208.0
78.565247	128.0
78.582893	188.0
78.625237	100.0
78.637596	112.0
78.775322	144.0
78.814186	128.0
78.833626	156.0
78.88311	160.0
78.914932	132.0
78.996284	196.0
79.185669	200.0
79.201614	136.0
79.323875	188.0
79.385925	140.0
79.511879	132.0
79.540283	148.0
79.563354	248.0
79.612679	180.0
79.666359	156.0
79.785423	188.0
79.817421	168.0
79.829117	160.0
79.905426	192.0
79.952621	156.0
80.041626	228.0
80.131752	192.0
80.353531	216.0
80.36898	176.0
80.517754	200.0
80.553474	64.0
80.67141	128.0
80.701805	208.0
80.791229	120.0
80.852058	196.0
80.866379	168.0
80.896805	204.0
80.927238	216.0
80.952309	168.0
80.964844	204.0
80.977379	48.0
81.120186	172.0
81.126724	264.0
81.381699	196.0
81.585663	196.0
81.616226	176.0
81.633408	368.0
81.662987	248.0
81.819534	144.0
82.015877	204.0
82.033905	48.0
82.060944	164.0
82.091599	28.0
82.308136	52.0
82.34967	180.0
82.414703	196.0
82.481339	188.0
82.487785	164.0
82.521339	104.0
82.676895	208.0
82.727577	200.0
82.901451	116.0
82.926819	104.0
83.155342	112.0
83.227959	36.0
83.300598	52.0
83.355103	180.0
83.453255	132.0
83.535095	124.0
83.913361	196.0
84.151062	140.0
84.165672	112.0
84.242378	148.0
84.353844	184.0
84.366638	40.0
84.432465	72.0
84.462303	216.0
84.501968	152.0
84.61544	100.0
84.653893	68.0
84.697845	284.0
84.714333	124.0
84.822449	148.0
84.840775	56.0
85.077423	36.0
85.090279	112.0
85.108635	124.0
85.273964	196.0
85.319923	176.0
85.454178	144.0
85.538826	116.0
85.557236	64.0
85.726685	108.0
85.774605	80.0
85.789352	144.0
85.897881	136.0
85.920288	100.0
85.953453	168.0
86.007011	208.0
86.040237	160.0
86.058701	176.0
86.086403	68.0
86.112251	240.0
86.21756	132.0
86.234192	160.0
86.261917	176.0
86.463524	200.0
86.480179	140.0
86.494987	160.0
86.513496	116.0
86.593117	156.0
86.686996	160.0
86.706131	140.0
86.743202	200.0
86.895264	56.0
87.058609	120.0
87.101326	96.0
87.212807	276.0
87.238831	204.0
87.272293	176.0
87.316925	140.0
87.382027	156.0
87.441574	176.0
87.510445	196.0
87.547684	208.0
87.624054	160.0
87.657593	124.0
87.804863	72.0
87.834702	188.0
88.023201	120.0
88.187592	144.0
88.30912	196.0
88.361069	156.0
88.39518	108.0
88.43261	152.0
88.479401	52.0
88.56929	180.0
88.672333	108.0
88.689201	104.0
88.777321	156.0
88.884239	120.0
89.165924	88.0
89.227951	68.0
89.259918	144.0
89.301285	48.0
89.318214	188.0
89.352074	204.0
89.466873	60.0
89.604347	140.0
89.66465	120.0
89.713654	188.0
89.906036	180.0
89.932716	176.0
90.013641	228.0
90.104301	192.0
90.338715	156.0
90.437111	140.0
90.457932	240.0
90.567757	148.0
90.895721	256.0
90.916595	224.0
90.936432	200.0
90.975433	108.0
90.994423	132.0
91.053711	744.0
91.087471	164.0
91.104568	144.0
91.210983	176.0
91.406868	132.0
91.435417	204.0
91.561256	200.0
91.578201	160.0
91.751602	64.0
91.765564	84.0
91.787834	68.0
91.827881	84.0
91.86412	192.0
91.879379	144.0
91.902275	120.0
91.936623	56.0
92.0187	204.0
92.051659	4520.0
92.137108	68.0
92.167671	60.0
92.494698	112.0
92.542557	96.0
92.575111	172.0
92.628738	184.0
92.642143	76.0
92.883675	140.0
92.994957	160.0
93.021828	160.0
93.057045	676.0
93.09671	160.0
93.152405	164.0
93.208122	160.0
93.346519	180.0
93.392677	156.0
93.419601	140.0
93.461929	224.0
93.475403	136.0
93.607506	76.0
93.631325	180.0
93.683334	156.0
93.735352	132.0
93.758293	188.0
93.785461	156.0
93.951057	168.0
93.999527	216.0
94.026543	108.0
94.067398	460.0
94.115341	80.0
94.262138	220.0
94.335579	80.0
94.414856	172.0
94.430321	192.0
94.488358	112.0
94.523178	152.0
94.544464	128.0
94.679977	212.0
94.850906	216.0
94.879555	160.0
94.9067	136.0
94.974571	60.0
95.056053	88.0
95.085159	136.0
95.160866	144.0
95.191933	132.0
95.44648	240.0
95.481483	176.0
95.588478	204.0
95.676064	216.0
95.820175	132.0
95.837708	180.0
95.855247	260.0
96.002739	248.0
96.046402	152.0
96.194603	184.0
96.216072	172.0
96.319572	136.0
96.378174	176.0
96.432892	160.0
96.462212	140.0
96.546288	112.0
96.597137	152.0
96.632347	76.0
96.907196	188.0
96.975037	132.0
97.214294	32.0
97.233917	76.0
97.39209	156.0
97.506905	104.0
97.569801	152.0
97.68779	128.0
97.711403	148.0
97.764526	172.0
97.778305	124.0
97.876724	188.0
97.955505	188.0
97.988991	200.0
98.069786	212.0
98.192024	136.0
98.272903	136.0
98.308418	188.0
98.333191	188.0
98.347893	60.0
98.363678	248.0
98.379471	128.0
98.39724	172.0
98.474251	216.0
98.707443	188.0
98.847885	72.0
99.022087	68.0
99.105286	120.0
99.166252	204.0
99.322517	208.0
99.376915	184.0
99.563507	136.0
99.601242	104.0
99.714493	112.0
99.950165	196.0
100.044678	140.0
100.076714	172.0
100.108391	188.0
100.227097	108.0
100.279716	128.0
100.443214	164.0
100.546967	108.0
100.616829	128.0
100.648773	136.0
100.66275	132.0
100.814568	148.0
100.830551	148.0
100.854752	184.0
100.9645	256.0
100.986496	120.0
101.092529	188.0
101.20462	176.0
101.226646	56.0
101.280724	192.0
101.374878	44.0
101.473099	172.0
101.52523	172.0
101.547287	52.0
101.585403	76.0
101.649605	164.0
101.852371	44.0
101.916656	188.0
102.180038	144.0
102.310844	240.0
102.570709	112.0
102.919716	196.0
102.939911	56.0
102.960098	188.0
103.055626	376.0
103.13385	156.0
103.325958	168.0
103.37249	68.0
103.402847	184.0
103.420036	144.0
103.459526	116.0
103.495964	72.0
103.532417	152.0
103.589127	188.0
103.85466	160.0
104.049896	1800.0
104.17334	236.0
104.295258	204.0
104.403008	196.0
104.42131	168.0
104.757156	164.0
104.793823	36.0
104.851448	188.0
104.871262	188.0
104.965042	120.0
105.003784	192.0
105.033897	168.0
105.058739	8600.0
105.123848	76.0
105.150673	28.0
105.209244	104.0
105.234367	164.0
105.264999	120.0
105.358574	220.0
105.446808	80.0
105.510178	208.0
105.565384	212.0
105.710953	220.0
105.870293	164.0
105.931732	92.0
105.962463	184.0
106.066154	6756.0
106.140778	160.0
106.192047	52.0
106.241272	192.0
106.302826	156.0
106.34182	72.0
106.366447	148.0
106.386978	56.0
106.475266	132.0
106.584137	144.0
106.625237	208.0
106.668404	112.0
106.758865	116.0
106.882286	140.0
106.906975	124.0
107.003716	160.0
107.038536	180.0
107.070625	668.0
107.131401	256.0
107.164368	208.0
107.256607	168.0
107.27771	208.0
107.339561	116.0
107.413811	52.0
107.504585	92.0
107.576828	148.0
107.593338	32.0
107.607788	196.0
107.636696	64.0
107.777153	156.0
107.830879	92.0
107.86602	148.0
107.893753	144.0
108.043037	432.0
108.083252	196.0
108.310898	92.0
108.443497	96.0
108.541931	240.0
108.619743	56.0
108.677826	208.0
108.752533	92.0
108.796127	156.0
108.821037	124.0
108.858414	232.0
108.94149	144.0
109.093185	248.0
109.121384	184.0
109.153481	72.0
109.23027	156.0
109.261383	168.0
109.519753	128.0
109.619751	96.0
109.667686	144.0
109.721725	160.0
109.858505	140.0
109.880386	192.0
109.909592	176.0
109.945068	156.0
110.059822	768.0
110.316849	76.0
110.36911	204.0
110.712288	72.0
110.764648	48.0
110.793976	64.0
111.018242	68.0
111.063789	240.0
111.106339	156.0
111.142006	216.0
111.196564	236.0
111.221748	192.0
111.240639	104.0
111.341423	172.0
111.482178	156.0
111.646149	200.0
111.740799	160.0
111.867065	224.0
111.957603	68.0
112.06292	168.0
112.145103	192.0
112.162605	184.0
112.303772	204.0
112.330658	44.0
112.347534	200.0
112.487541	228.0
112.624054	180.0
112.678619	188.0
112.742363	220.0
112.774063	164.0
112.850166	160.0
113.023605	128.0
113.065926	184.0
113.112488	100.0
113.137894	196.0
113.574409	160.0
113.652901	204.0
113.850311	104.0
113.869423	164.0
114.057709	180.0
114.200981	112.0
114.247772	148.0
114.341393	180.0
114.392479	72.0
114.456345	160.0
114.654457	40.0
114.757622	160.0
114.916733	136.0
114.955139	156.0
114.978615	192.0
115.057014	332.0
115.181442	228.0
115.258354	140.0
115.309639	144.0
115.343834	124.0
115.411064	144.0
115.457153	160.0
115.617599	128.0
115.769592	164.0
115.891685	168.0
116.061127	408.0
116.142502	100.0
116.201218	152.0
116.378563	48.0
116.541794	128.0
116.629906	136.0
116.733101	128.0
116.79332	172.0
117.014961	140.0
117.032188	188.0
117.069443	192.0
117.13987	168.0
117.230354	152.0
117.26915	76.0
117.342438	104.0
117.439476	160.0
117.672531	188.0
117.717873	196.0
117.761574	152.0
117.802101	124.0
117.925262	156.0
117.976578	168.0
118.000923	156.0
118.022545	164.0
118.067055	3608.0
118.117699	36.0
118.140976	200.0
118.173943	160.0
118.223709	64.0
118.39257	200.0
118.442383	184.0
118.474876	92.0
118.540855	88.0
118.641739	136.0
118.661247	136.0
118.806549	52.0
118.881775	220.0
118.96714	204.0
119.030098	96.0
119.049644	64.0
119.073311	1216.0
119.134354	196.0
119.232124	124.0
119.410339	148.0
119.443024	60.0
119.47348	148.0
119.519165	128.0
119.782585	176.0
119.824158	96.0
119.852303	400.0
120.014908	332.0
120.045532	28000.0
120.079964	1944.0
120.111732	112.0
120.128571	100.0
120.168449	148.0
120.185905	176.0
120.21209	48.0
120.248604	60.0
120.287605	104.0
120.33432	68.0
120.380173	28.0
120.398117	148.0
120.421669	80.0
120.460983	68.0
120.500305	144.0
120.62487	136.0
120.646729	204.0
120.669167	144.0
120.739365	76.0
120.754662	84.0
120.858871	96.0
120.896072	168.0
120.950783	156.0
120.973579	136.0
120.987999	248.0
121.003326	56.0
121.049385	2584.0
121.084457	432.0
121.101357	60.0
121.130341	84.0
121.24427	48.0
121.294678	80.0
121.546883	156.0
121.634666	60.0
121.704918	140.0
121.764633	208.0
121.781624	116.0
121.854271	116.0
121.903709	152.0
121.93557	128.0
121.950958	188.0
122.012283	120.0
122.051529	672.0
122.096062	120.0
122.19944	164.0
122.221443	52.0
122.311096	152.0
122.382927	196.0
122.389038	228.0
122.468002	64.0
122.545105	168.0
122.703789	180.0
122.747887	180.0
122.853752	56.0
123.072243	192.0
123.24231	188.0
123.286507	100.0
123.364037	204.0
123.421341	40.0
123.489899	32.0
123.573959	180.0
123.629272	188.0
123.671326	148.0
123.728874	148.0
123.824089	184.0
123.866173	148.0
123.906044	80.0
123.968086	132.0
124.096649	92.0
124.114388	212.0
124.140991	132.0
124.302925	120.0
124.322899	204.0
124.524918	208.0
124.658211	180.0
124.756004	152.0
124.771568	212.0
124.893867	172.0
124.929459	144.0
124.949486	176.0
124.985085	168.0
125.036263	176.0
125.05629	140.0
125.131981	116.0
125.192093	144.0
125.31015	52.0
125.637871	84.0
125.742744	252.0
125.832031	148.0
125.874451	160.0
125.901245	84.0
125.983887	180.0
126.073265	80.0
126.104553	72.0
126.368416	76.0
126.576576	224.0
126.592247	128.0
126.639282	64.0
126.663918	192.0
126.740089	148.0
126.852142	184.0
126.982185	216.0
127.02256	48.0
127.078644	48.0
127.24192	128.0
127.271835	164.0
127.458099	136.0
127.5952	56.0
127.664902	208.0
127.809532	160.0
127.933334	108.0
127.959663	148.0
128.15094	176.0
128.281815	232.0
128.34494	76.0
128.378754	112.0
128.401306	168.0
128.55246	160.0
128.584045	152.0
128.667572	132.0
128.705948	168.0
128.814346	188.0
128.879868	112.0
128.988342	148.0
129.022247	196.0
129.042603	160.0
129.073105	204.0
129.291412	196.0
129.409119	144.0
129.468231	156.0
129.492905	188.0
129.608444	160.0
129.633316	188.0
129.812439	240.0
129.975754	220.0
129.993912	164.0
130.073624	164.0
130.250458	156.0
130.279984	68.0
130.309525	220.0
130.451263	176.0
130.516357	116.0
130.54364	212.0
130.630066	112.0
130.65509	120.0
130.693298	184.0
130.807999	84.0
130.932785	188.0
131.04895	184.0
131.084137	572.0
131.21077	132.0
131.233566	212.0
131.345306	184.0
131.427429	52.0
131.443405	204.0
131.46167	164.0
131.715088	76.0
131.735641	36.0
131.772202	192.0
131.808746	100.0
131.95961	192.0
132.019058	100.0
132.080963	2056.0
132.110535	144.0
132.206635	68.0
132.373749	152.0
132.392059	144.0
132.431	164.0
132.618881	148.0
132.646378	52.0
132.731201	124.0
132.793121	32.0
133.015686	124.0
133.053207	564.0
133.088837	1732.0
133.151154	28.0
133.277496	28.0
133.511963	48.0
133.714401	120.0
133.74202	64.0
133.896286	188.0
133.963074	152.0
133.997635	136.0
134.048325	144.0
134.065765	180.0
134.093048	472.0
134.281158	140.0
134.328339	96.0
134.372742	140.0
134.463425	160.0
134.523438	156.0
134.539597	56.0
134.636566	240.0
134.724335	128.0
134.960068	152.0
135.008636	140.0
135.066452	144.0
135.098831	176.0
135.297852	188.0
135.321716	236.0
135.536407	92.0
135.652283	220.0
135.689377	124.0
135.76358	176.0
136.036942	156.0
136.058243	140.0
136.313736	208.0
136.3974	148.0
136.429474	144.0
136.606674	140.0
136.993103	212.0
137.047989	7452.0
137.135239	56.0
137.160873	240.0
137.270447	176.0
137.305435	76.0
137.342743	136.0
137.395782	180.0
137.468735	348.0
137.606445	200.0
137.762909	112.0
137.812225	148.0
137.871078	136.0
137.896088	192.0
137.945175	84.0
137.966217	200.0
138.051163	724.0
138.141602	140.0
138.216461	136.0
138.258591	56.0
138.434158	160.0
138.54425	180.0
138.570007	188.0
138.671387	260.0
138.77861	168.0
138.832535	48.0
138.851303	52.0
138.924011	108.0
138.961548	128.0
139.036636	80.0
139.061691	236.0
139.139908	120.0
139.268753	212.0
139.370071	124.0
139.78392	160.0
139.835693	140.0
139.981644	160.0
140.026382	164.0
140.097046	112.0
140.191299	176.0
140.273788	136.0
140.318573	152.0
140.738541	196.0
141.215897	188.0
141.324783	132.0
141.468094	164.0
141.566147	144.0
141.582718	168.0
141.667984	148.0
141.694046	56.0
141.760391	108.0
141.798309	100.0
141.964249	44.0
141.987976	200.0
142.210983	136.0
142.296326	172.0
142.322556	176.0
142.381927	164.0
142.44368	148.0
142.510193	180.0
142.538712	260.0
142.857285	140.0
142.888214	128.0
143.142899	160.0
143.722107	128.0
143.860535	172.0
143.919159	236.0
144.022903	228.0
144.469055	136.0
144.668518	80.0
145.145294	48.0
145.205231	128.0
145.550797	148.0
145.644455	200.0
145.711716	144.0
145.803024	64.0
145.827057	180.0
145.966492	136.0
146.095917	1232.0
146.488754	160.0
146.633316	100.0
146.811707	160.0
146.855118	232.0
147.028824	116.0
147.071182	208.0
147.09758	108.0
147.229202	96.0
147.403122	200.0
147.470795	176.0
147.528809	116.0
147.550568	164.0
147.623108	220.0
147.736771	200.0
147.877121	128.0
147.941986	216.0
148.03447	120.0
148.11319	3512.0
148.393082	176.0
148.446426	100.0
148.701141	188.0
149.116501	540.0
149.20639	120.0
149.357162	152.0
149.425278	84.0
149.585876	168.0
149.644318	152.0
149.943924	212.0
149.990234	188.0
150.109695	216.0
150.170654	200.0
150.207245	40.0
150.280441	168.0
150.395126	144.0
150.785904	204.0
150.822571	168.0
150.905685	156.0
150.974152	40.0
151.063461	264.0
151.167404	152.0
151.28978	84.0
151.542023	208.0
151.608185	132.0
151.769974	188.0
152.10524	520.0
152.39093	188.0
152.590012	136.0
152.658859	148.0
152.759689	176.0
152.78183	240.0
152.991013	148.0
153.313675	136.0
153.338318	52.0
153.678604	56.0
154.06868	108.0
154.226837	144.0
154.256485	132.0
154.292603	256.0
154.412262	196.0
154.508728	224.0
154.533463	112.0
154.59285	248.0
154.667099	188.0
154.738159	164.0
154.798309	188.0
154.887466	184.0
154.924622	228.0
155.063385	196.0
155.095612	112.0
155.34108	212.0
155.44281	220.0
155.524704	144.0
155.564423	140.0
155.654099	148.0
155.897232	140.0
155.939484	232.0
156.033936	176.0
156.05632	68.0
156.076202	228.0
156.210495	152.0
156.436951	72.0
156.474289	164.0
156.50914	108.0
156.528702	192.0
156.718369	176.0
156.977493	92.0
157.062393	180.0
157.079849	176.0
157.334381	172.0
157.601624	152.0
157.759064	220.0
157.816574	208.0
157.85907	136.0
157.914093	304.0
158.031662	80.0
158.075226	224.0
158.124786	204.0
158.345993	172.0
158.404678	212.0
158.507401	132.0
158.916092	212.0
159.18718	188.0
159.679733	224.0
159.717453	144.0
159.805511	188.0
159.898605	196.0
159.981674	176.0
160.01944	188.0
160.090927	112.0
160.127716	176.0
160.147858	184.0
160.356979	144.0
160.565964	188.0
160.611023	180.0
160.669647	88.0
160.697403	112.0
160.841248	196.0
160.934647	144.0
160.97757	80.0
160.997772	112.0
161.045761	156.0
161.083649	60.0
161.103867	216.0
161.515884	188.0
161.928436	60.0
162.260391	28.0
162.278137	148.0
162.557144	188.0
162.585709	188.0
162.795761	88.0
162.824875	232.0
162.864334	192.0
163.113342	180.0
163.339645	200.0
163.433136	176.0
163.459213	56.0
163.522842	148.0
163.647568	172.0
163.864059	64.0
164.050095	80.0
164.103638	144.0
164.149521	104.0
164.407166	156.0
164.463318	224.0
164.544998	144.0
164.790192	48.0
164.871948	100.0
164.999756	192.0
165.068558	136.0
165.084396	156.0
165.306686	172.0
165.367905	160.0
165.485855	140.0
165.680496	116.0
165.849609	92.0
165.882935	188.0
165.928772	200.0
166.121872	212.0
166.614304	260.0
166.753052	68.0
166.922897	188.0
166.994736	72.0
167.041031	120.0
167.066757	208.0
167.087341	144.0
167.300934	164.0
167.354996	196.0
167.396194	100.0
167.458008	112.0
167.90387	196.0
167.991562	188.0
168.042587	164.0
168.46138	120.0
168.536301	168.0
168.668091	184.0
168.962891	200.0
169.048279	192.0
169.102615	84.0
169.141449	88.0
169.193222	128.0
169.299377	96.0
169.410751	180.0
169.465149	128.0
169.662125	44.0
169.687317	184.0
169.937027	132.0
170.186188	204.0
170.258133	48.0
170.300446	72.0
170.698059	168.0
170.776077	136.0
170.815094	148.0
170.833313	144.0
170.929565	108.0
170.973801	164.0
170.994629	28.0
171.080521	176.0
171.677185	184.0
171.799759	196.0
171.917175	96.0
172.196518	108.0
172.220016	116.0
172.477036	164.0
172.742783	52.0
172.787262	88.0
172.889313	116.0
173.394745	232.0
173.531052	216.0
173.730362	128.0
173.853683	152.0
174.049316	140.0
174.103073	140.0
174.121933	112.0
174.29483	68.0
174.381546	60.0
174.405212	168.0
174.515625	104.0
174.557693	144.0
174.633957	144.0
174.776398	140.0
174.93129	124.0
174.952347	100.0
174.981308	76.0
175.07872	128.0
175.122253	228.0
175.220963	284.0
175.252579	116.0
175.344803	176.0
175.365891	148.0
175.395508	220.0
175.487152	136.0
175.508972	248.0
175.558624	76.0
175.594254	208.0
175.634827	76.0
175.672058	148.0
175.706924	108.0
175.728806	208.0
175.769012	220.0
175.814819	152.0
175.857758	268.0
175.899033	216.0
175.920074	276.0
175.956558	208.0
176.004089	156.0
176.007965	428.0
176.04216	328.0
176.050934	120.0
176.108658	173108.0
176.188629	224.0
176.196167	92.0
176.262772	128.0
176.269608	140.0
176.30043	160.0
176.339584	284.0
176.368103	76.0
176.396912	104.0
176.427567	184.0
176.444626	116.0
176.481552	84.0
176.487518	80.0
176.503357	216.0
176.543381	1620.0
176.604553	140.0
176.63768	56.0
176.656647	244.0
176.686081	164.0
176.719482	164.0
176.765549	56.0
176.794662	204.0
176.815826	96.0
176.852875	252.0
176.878098	76.0
176.899078	140.0
176.941193	44.0
176.972	368.0
177.042831	212.0
177.076752	172.0
177.111237	26528.0
177.165634	280.0
177.183884	140.0
177.217575	92.0
177.237366	152.0
177.27916	128.0
177.308426	92.0
177.358643	84.0
177.385284	100.0
177.427032	96.0
177.452423	220.0
177.544144	144.0
177.580612	48.0
177.703217	156.0
177.743317	60.0
177.767197	176.0
177.785767	92.0
177.820557	116.0
177.86937	56.0
177.905869	48.0
177.944046	140.0
178.002258	184.0
178.024689	44.0
178.043274	116.0
178.067184	104.0
178.1147	1688.0
178.162796	80.0
178.19368	144.0
178.250473	208.0
178.272049	140.0
178.314056	256.0
178.351883	104.0
178.373413	172.0
178.393387	128.0
178.42218	120.0
178.461761	180.0
178.503815	60.0
178.555191	84.0
178.608932	92.0
178.667908	140.0
178.731766	80.0
178.779663	48.0
178.845215	96.0
178.891449	48.0
178.981964	48.0
179.00592	60.0
179.032562	104.0
179.075165	68.0
179.120453	140.0
179.23233	36.0
179.331863	116.0
179.35759	112.0
179.3983	104.0
179.461563	216.0
179.47908	84.0
179.557556	76.0
179.749634	56.0
179.835022	40.0
179.891083	80.0
179.947144	108.0
179.971161	68.0
180.011215	72.0
180.240936	124.0
180.363434	72.0
180.420013	44.0
180.457443	32.0
180.920273	44.0
181.131821	212.0
181.209503	64.0
181.54187	64.0
182.102768	60.0
182.629562	28.0
182.731781	120.0
182.75061	48.0
182.949768	148.0
183.092468	44.0
183.240616	68.0
183.693512	160.0
183.828415	80.0
183.917465	60.0
184.246902	48.0
184.463089	112.0
184.492828	72.0
185.106995	40.0
185.128662	80.0
186.254181	96.0
186.360123	104.0
186.460678	56.0
186.650955	124.0
186.727097	80.0
186.811417	68.0
186.849503	100.0
187.157059	96.0
187.222412	108.0
187.267487	116.0
187.309555	100.0
187.364044	100.0
187.481201	76.0
187.538437	108.0
187.772903	32.0
187.857468	48.0
188.168564	136.0
189.607361	104.0
189.741669	72.0
190.848114	64.0
191.070892	120.0
191.530594	116.0
192.090149	88.0
192.393692	104.0
192.429581	64.0
192.487564	180.0
192.515182	76.0
192.794189	116.0
192.976624	56.0
194.702942	48.0
194.972412	192.0
195.078033	64.0
196.815781	144.0
197.428436	80.0
197.50116	48.0
198.924591	172.0
201.348831	176.0
208.10051	148.0
208.335999	136.0
208.867798	64.0
210.008392	72.0
210.539429	84.0
212.438126	88.0
214.123947	48.0
214.339523	60.0
216.36647	104.0
218.473557	208.0
219.012238	96.0
219.746262	168.0
219.846588	100.0
219.93869	172.0
220.038437	124.0
220.08551	136.0
220.133636	9548.0
220.233337	52.0
220.280594	92.0
220.30127	48.0
220.45845	180.0
220.543564	40.0
220.848114	60.0
220.919098	68.0
220.978271	196.0
221.007858	204.0
221.137375	1000.0
221.211273	152.0
221.807297	76.0
221.911209	108.0
222.142517	144.0
222.323502	196.0
222.400665	128.0
222.899597	132.0
222.967941	88.0
223.009552	96.0
227.502075	56.0
233.043991	68.0
235.939301	104.0
241.263901	88.0
242.703552	116.0
248.238342	68.0
257.453674	76.0
259.033661	76.0
264.938446	152.0
273.141937	72.0
275.687164	56.0
278.755707	104.0
280.69635	128.0
281.707611	40.0
283.722168	60.0
287.323944	88.0
289.565002	120.0
291.777374	100.0
293.370605	32.0
293.977692	48.0
294.43515	72.0
298.244995	80.0
299.518097	108.0
300.324646	52.0
303.107574	68.0
304.682739	84.0
314.258301	84.0
315.112701	156.0
318.04834	72.0
326.882996	124.0
328.489838	32.0
331.613861	72.0
334.163025	100.0
335.06955	100.0
335.678223	68.0
339.72699	116.0
342.111938	68.0
345.18158	132.0
348.060699	76.0
355.736694	124.0
358.768707	40.0
364.521667	96.0
370.439117	100.0
377.474579	56.0
380.252167	60.0
382.740082	80.0
383.565979	60.0
383.686829	80.0
391.338379	36.0
392.232635	60.0
394.545837	60.0
396.635956	104.0
402.496033	60.0
404.006775	52.0
414.16687	60.0
414.717896	88.0
417.324066	148.0
429.482727	104.0
442.012604	120.0
444.589722	104.0
445.383209	48.0
448.475769	44.0
454.404419	36.0
462.05603	68.0
462.394073	56.0
465.0513	92.0
468.766998	88.0
470.034729	80.0
470.349762	36.0
476.19928	52.0
476.74231	56.0
478.712921	108.0
478.808716	84.0
488.31015	48.0
500.150177	132.0
502.467377	56.0
513.58783	32.0
513.741211	104.0
544.405396	36.0
545.26947	88.0
577.578735	80.0
588.965637	88.0
602.352539	100.0
614.487915	104.0
624.464417	44.0
627.058289	112.0
640.712769	64.0
643.26947	28.0
665.877136	76.0
670.290894	88.0
684.921326	196.0
729.733276	76.0
731.487061	144.0
750.486511	144.0
772.017273	60.0
795.878113	200.0
813.066956	128.0
829.000427	152.0
859.614746	124.0
861.862793	164.0
862.914856	144.0
864.371216	44.0
864.868652	88.0
866.039673	128.0
866.268127	52.0
885.309937	20.0
885.754089	96.0
889.151428	176.0
890.392212	224.0
891.812134	256.0
892.614685	156.0
895.494995	60.0
900.821411	176.0
901.388977	96.0
904.630554	176.0
910.596558	184.0
912.555481	140.0
918.921509	160.0
921.143066	120.0
923.173828	152.0
924.55304	180.0
928.642456	240.0
942.387756	48.0
944.013672	168.0
945.153809	184.0
948.636169	136.0
952.280823	196.0
960.263367	156.0
962.305847	100.0
963.479248	168.0
968.941956	140.0
972.364685	132.0
979.060242	136.0
983.056152	168.0
985.460083	36.0
988.1297	224.0
992.407349	204.0
992.83374	168.0
997.517517	188.0
1001.267456	156.0
1002.080017	236.0
1002.798401	48.0
1004.475586	168.0
1005.081177	172.0
1005.421936	120.0
1008.118469	212.0
1010.059387	208.0
1012.711426	124.0
1014.929443	80.0
1017.365662	236.0
1017.473572	188.0
1019.531494	136.0
1030.548706	172.0
1031.711914	156.0
1034.577881	164.0
1037.037476	148.0
1039.115112	60.0
1040.835205	216.0
1041.348999	44.0
1041.700317	220.0
1043.48877	200.0
1046.042725	72.0
1048.509521	184.0
1048.99939	200.0
1050.424438	184.0
1054.233643	116.0
1057.732666	160.0
1059.046997	216.0
1059.36438	200.0
1059.597656	156.0
1062.099854	176.0
1067.035034	136.0
1070.981689	160.0
1072.183716	112.0
1073.148438	200.0
1073.996216	152.0
1076.019165	120.0
1076.85498	92.0
1077.580078	164.0
1077.717285	172.0
1078.658325	136.0
1079.567017	164.0
1079.848267	140.0
1080.399414	200.0
1083.186401	168.0
1084.8573	92.0
1085.13916	140.0
1085.683472	112.0
1088.905762	152.0
1089.161865	144.0
1089.772827	160.0
1090.712524	208.0
1092.839722	228.0
1092.994629	44.0
1095.252686	208.0
1096.952637	48.0
1098.515503	212.0
1100.442505	184.0
1103.065186	220.0
1104.414062	148.0
1108.280029	88.0
1110.368164	172.0
1111.084473	236.0
1115.20813	124.0
1116.098877	104.0
1116.338257	68.0
1117.668579	252.0
1117.894897	148.0
1119.425537	164.0
1120.271729	232.0
1126.174927	216.0
1127.397461	212.0
1130.587402	116.0
1131.069214	172.0
1132.682983	164.0
1132.9375	140.0
1133.352905	60.0
1135.538208	132.0
1136.276001	148.0
1136.53772	180.0
1138.175415	56.0
1143.459229	216.0
1144.549683	204.0
1146.051758	120.0
1146.341431	84.0
1147.649048	204.0
1149.456787	148.0
1150.610962	140.0
1154.090332	136.0
1156.417603	224.0
1156.911499	152.0
1159.858154	172.0
1160.197021	136.0
1162.028198	216.0
1162.231689	204.0
1163.772461	152.0
1166.272339	164.0
1169.008789	200.0
1169.292114	124.0
1169.85022	148.0
1171.116699	260.0
1171.661621	152.0
1171.77063	172.0
1173.126831	144.0
1173.965454	204.0
1176.872192	220.0
1178.60022	132.0
1178.98291	184.0
1179.099121	188.0
1180.220215	132.0
1180.51416	172.0
1181.560669	196.0
1182.628174	160.0
1184.209717	156.0
1184.716553	168.0
1185.6073	128.0
1185.833496	160.0
1186.642334	176.0
1187.259399	140.0
1188.658813	148.0
1188.823486	156.0
1190.883057	124.0
1193.102539	164.0
1193.501343	168.0
1194.010132	152.0
1195.454834	144.0
1196.828125	136.0
1198.629272	176.0
1199.421753	124.0
1200.793823	168.0
1202.15979	212.0
1202.780884	92.0
1205.432861	144.0
1205.778442	148.0
1207.071167	188.0
1208.658203	172.0
1209.056519	136.0
1210.794189	176.0
1212.311279	136.0
1212.422119	216.0
1214.488159	180.0
1214.911255	156.0
1215.9104	196.0
1216.479614	144.0
1217.07666	80.0
1217.819702	256.0
1217.944702	176.0
1218.347656	132.0
1218.49353	220.0
1220.203125	144.0
1221.315796	144.0
1221.566162	80.0
1222.644653	196.0
1223.229248	36.0
1223.424194	292.0
1224.099487	124.0
1225.945435	164.0
1229.725342	56.0
1229.830078	160.0
1229.920776	132.0
1230.220947	244.0
1231.757202	140.0
1232.574585	184.0
1232.747681	232.0
1233.573975	132.0
1233.818604	172.0
1234.545776	156.0
1234.699707	188.0
1235.049316	180.0
1235.86084	204.0
1236.32959	252.0
1237.568604	60.0
1241.226074	76.0
1241.464478	144.0
1241.752075	188.0
1242.649902	148.0
1243.611328	168.0
1243.88501	176.0
1243.990356	188.0
1245.415771	68.0
1245.928467	152.0
1246.132202	108.0
1246.66626	220.0
1246.92627	152.0
1249.141113	160.0
1250.273804	132.0
1250.604614	144.0
1251.723999	156.0
1252.808594	116.0
1253.477905	128.0
1253.795044	196.0
1254.612549	140.0
1255.529175	204.0
1255.64209	180.0
1256.114624	148.0
1256.460327	176.0
1257.702271	188.0
1257.808105	172.0
1258.274048	156.0
1261.629639	172.0
1263.560303	196.0
1263.772583	88.0
1264.862427	176.0
1265.34375	188.0
1265.754395	128.0
1267.14978	204.0
1267.291382	180.0
1269.963867	120.0
1271.31189	208.0
1273.569458	160.0
1274.144897	84.0
1274.557007	224.0
1274.61377	208.0
1275.708252	224.0
1276.390747	140.0
1279.61145	208.0
1280.190674	124.0
1281.123657	196.0
1282.912354	188.0
1284.003296	112.0
1285.115967	168.0
1285.572632	152.0
1286.229248	200.0
1287.47876	220.0
1289.128906	212.0
1289.958008	204.0
1290.301025	148.0
1290.815918	200.0
1291.495239	168.0
1291.631226	152.0
1292.239258	188.0
1292.418091	172.0
1292.46814	36.0
1292.639893	40.0
1294.780273	204.0
1294.859131	192.0
1294.980835	36.0
1296.127075	176.0
1299.009033	172.0
1300.22168	76.0
1301.449097	144.0
1302.741821	172.0
1302.993286	136.0
1303.740479	104.0
1305.257324	116.0
1306.933228	160.0
1307.85437	188.0
1309.294189	180.0
1310.050537	228.0
1312.306274	144.0
1312.443237	152.0
1312.760498	144.0
1313.799072	140.0
1316.094116	60.0
1316.476807	68.0
1317.112427	84.0
1319.244019	136.0
1322.231201	196.0
1322.578613	160.0
1323.498047	172.0
1323.910767	148.0
1324.309082	140.0
1324.671265	192.0
1326.758301	184.0
1327.751587	180.0
1328.963013	184.0
1329.979004	192.0
1330.087891	192.0
1334.104858	40.0
1335.217285	176.0
1335.668213	148.0
1336.854126	172.0
1337.531006	152.0
1337.618286	148.0
1338.87793	112.0
1339.693604	200.0
1339.977783	100.0
1341.479004	156.0
1341.683105	100.0
1341.93103	272.0
1342.069458	176.0
1342.666016	216.0
1342.762207	216.0
1342.835205	228.0
1343.761597	100.0
1345.10437	180.0
1348.939209	84.0
1349.246216	176.0
1351.220825	112.0
1352.547119	180.0
1355.240356	172.0
1355.767944	140.0
1356.478882	152.0
1356.999268	72.0
1357.981934	188.0
1360.498779	176.0
1360.608887	148.0
1361.041992	200.0
1361.511963	200.0
1361.7323	164.0
1362.121582	64.0
1362.290527	176.0
1362.366455	208.0
1364.34082	112.0
1364.421631	208.0
1365.127563	28.0
1365.208374	172.0
1367.091553	224.0
1368.269287	52.0
1368.836182	196.0
1369.351685	176.0
1369.594727	136.0
1370.47876	136.0
1372.623657	216.0
1373.899536	192.0
1374.047119	124.0
1374.585693	88.0
1375.235229	228.0
1375.83313	140.0
1376.047119	176.0
1378.395874	228.0
1379.108643	164.0
1379.186646	160.0
1379.822388	104.0
1379.918457	156.0
1380.051636	176.0
1381.545532	176.0
1382.773804	124.0
1383.166016	80.0
1383.617554	72.0
1383.921143	36.0
1384.098877	236.0
1384.869019	72.0
1385.209717	196.0
1385.953369	116.0
1386.209961	200.0
1387.810913	184.0
1387.929565	144.0
1388.061768	160.0
1389.286865	40.0
1389.680054	152.0
1390.013916	204.0
1391.023193	108.0
1391.231079	136.0
1393.109863	160.0
1393.704224	148.0
1393.808228	188.0
1394.647949	112.0
1394.699951	64.0
1395.844849	104.0
1396.744751	164.0
1397.674683	124.0
1398.083984	136.0
1398.411377	172.0
1399.684326	104.0
1400.071655	148.0
1400.391846	164.0
1400.548218	124.0
1400.905762	144.0
1401.248535	232.0
1401.352783	116.0
1401.948853	188.0
1402.932739	152.0
1404.893921	152.0
1404.946167	164.0
1405.438599	168.0
1406.06543	128.0
1406.348999	216.0
1406.752075	208.0
1408.760864	124.0
1409.044678	164.0
1410.987793	148.0
1411.286865	156.0
1411.503662	192.0
1412.820068	68.0
1413.568237	144.0
1415.252319	196.0
1415.424561	128.0
1415.476929	188.0
1416.068604	184.0
1416.562988	176.0
1416.832642	140.0
1417.596802	56.0
1418.74353	228.0
1418.856079	136.0
1419.013428	152.0
1419.328369	44.0
1419.388306	116.0
1420.093262	272.0
1420.205811	184.0
1420.393311	184.0
1420.498291	176.0
1420.71582	216.0
1422.434326	220.0
1423.087402	164.0
1423.883301	164.0
1425.223267	224.0
1426.618286	196.0
1427.422852	96.0
1427.678467	124.0
1428.475708	224.0
1429.092651	80.0
1429.273193	160.0
1429.988037	156.0
1432.043457	136.0
1432.36731	180.0
1432.683716	156.0
1432.879639	160.0
1433.226196	96.0
1433.286377	160.0
1433.512451	204.0
1435.864502	148.0
1436.279297	100.0
1438.029785	48.0
1438.105225	68.0
1438.844971	156.0
1439.788818	100.0
1440.491211	220.0
1441.118286	180.0
1441.390259	52.0
1442.297119	84.0
1442.720459	188.0
1443.151367	144.0
1443.279907	140.0
1443.930298	152.0
1444.17981	156.0
1444.610962	112.0
1445.458374	176.0
1445.904785	308.0
1446.275635	148.0
1449.19873	156.0
1450.524902	172.0
1451.442261	192.0
1451.654541	52.0
1452.739136	192.0
1452.792236	156.0
1452.981934	200.0
1453.209473	208.0
1453.657227	176.0
1454.211182	36.0
1454.575562	180.0
1454.871582	88.0
1456.709229	176.0
1457.233398	108.0
1457.818481	116.0
1458.358032	180.0
1458.487305	124.0
1458.624146	132.0
1458.844604	160.0
1459.855713	168.0
1460.471802	172.0
1461.042236	184.0
1463.287354	44.0
1464.20105	204.0
1464.642822	184.0
1464.764648	100.0
1464.924683	220.0
1465.61792	192.0
1466.83728	124.0
1468.011353	68.0
1468.552856	136.0
1470.196899	196.0
1470.651001	92.0
1470.834229	216.0
1471.147217	160.0
1471.612915	132.0
1471.811401	176.0
1471.971802	148.0
1472.636108	180.0
1472.794678	176.0
1474.446777	140.0
1474.688965	200.0
1474.836548	148.0
1474.905396	188.0
1475.050659	208.0
1475.532227	204.0
1475.860962	132.0
1476.108643	208.0
1476.495605	152.0
1476.694458	168.0
1477.031006	176.0
1477.092163	180.0
1477.450195	156.0
1478.974487	60.0
1479.602173	104.0
1480.153442	204.0
1480.429077	156.0
1481.82312	220.0
1482.022339	104.0
1484.62085	192.0
1485.733032	212.0
1486.101318	160.0
1486.477295	196.0
1486.937744	104.0
1488.196533	160.0
1488.38855	228.0
1488.956787	148.0
1489.210205	204.0
1489.325439	188.0
1489.555908	48.0
1490.255005	180.0
1492.007202	60.0
1492.402344	184.0
1493.160645	184.0
1494.691406	156.0
1495.360962	128.0
1495.992065	148.0
1496.161499	168.0
1496.546387	168.0
1497.639893	192.0
1497.793945	116.0
1497.8479	124.0
1498.256104	168.0
1499.026611	204.0
1500.228882	248.0
1500.861084	204.0
1500.999878	184.0
1501.092407	236.0
1502.017944	108.0
1502.351685	192.0
1502.503906	176.0
1502.557861	128.0
1502.997681	212.0
1503.289185	112.0
1504.240234	176.0
1504.796021	204.0
END IONS

BEGIN IONS
PEPMASS=916.528
CHARGE=1
MSLEVEL=2
SOURCE_INSTRUMENT=ESI-Ion Trap
FILENAME=MSV000081123/ccms_peak/peaks/20100126_PLpos-42.mzXML
SEQ=*..*
IONMODE=Positive
ORGANISM=GNPS-NIST14-MATCHES
NAME=Spectral Match to Tylosin from NIST14 M+H
PI=Data from Kofeler
DATACOLLECTOR=Data deposited by rsilva
SMILES=CC[C@@H]1[C@H](/C=C(/C=C/C(=O)[C@@H](C[C@@H]([C@@H]([C@H]([C@@H](CC(=O)O1)O)C)O[C@H]2[C@@H]([C@H]([C@@H]([C@H](O2)C)O[C@H]3C[C@@]([C@H]([C@@H](O3)C)O)(C)O)N(C)C)O)CC=O)C)\C)CO[C@H]4[C@@H]([C@@H]([C@@H]([C@H](O4)C)O)OC)OC
INCHI=InChI=1S/C46H77NO17/c1-13-33-30(22-58-45-42(57-12)41(56-11)37(52)26(5)60-45)18-23(2)14-15-31(49)24(3)19-29(16-17-48)39(25(4)32(50)20-34(51)62-33)64-44-38(53)36(47(9)10)40(27(6)61-44)63-35-21-46(8,55)43(54)28(7)59-35/h14-15,17-18,24-30,32-33,35-45,50,52-55H,13,16,19-22H2,1-12H3/b15-14+,23-18+/t24-,25+,26-,27-,28+,29+,30-,32-,33-,35+,36-,37-,38-,39-,40-,41-,42-,43+,44+,45-,46-/m1/s1
INCHIAUX=N/A
PUBMED=N/A
SUBMITUSER=mwang87
LIBRARYQUALITY=3
SPECTRUMID=CCMSLIB00003136011
USI=mzspec:GNPS:GNPS-NIST14-MATCHES:accession:CCMSLIB00003136011
SCANS=41
206.181824	1.378213
211.318954	2.711643
215.271057	11.267171
219.092636	6.646619
220.217834	3.651749
221.051498	2.911263
225.194305	5.987737
227.181824	1.201262
229.136902	3.730883
232.187561	6.124108
232.995453	5.011895
235.090912	1.345439
237.208618	11.133792
241.22789	3.299915
243.065536	11.461356
245.047211	3.352556
247.0	1.160988
249.093079	4.348027
251.181824	1.269964
255.125626	13.148232
257.28833	7.081104
261.317169	5.493576
262.993988	4.548657
266.818176	1.11191
272.850433	2.873815
275.088501	4.431723
276.320679	11.301373
279.261383	4.839642
281.282928	10.385421
287.407288	3.069529
289.32309	8.677567
293.17688	4.501294
295.301178	12.177522
295.909088	1.02665
297.27005	6.935809
305.142944	2.354583
307.051636	3.40932
309.134094	7.84023
311.17749	7.110944
313.201691	14.568681
317.248077	7.072505
318.217194	64.978699
319.317139	3.525171
323.262115	9.085258
324.579041	2.783095
325.109192	5.637537
327.196198	7.108478
329.222595	6.688076
331.087952	27.807987
335.257355	9.010605
336.315186	2.198342
337.207062	9.668275
341.044434	3.841955
343.090912	1.083615
345.293854	22.77895
347.454559	1.13172
348.203583	24.81694
353.291321	18.062765
355.286652	16.677309
359.268127	28.250349
363.163635	16.905869
371.159332	57.04604
371.818176	1.236687
373.151062	72.165375
377.224762	19.73531
379.594604	3.784813
389.064178	105.26339
391.16217	86.967743
407.202301	198.262497
409.236206	37.167381
425.057953	38.330757
441.372101	5.910506
443.181824	1.416647
473.141083	3.301832
481.361664	4.444819
505.235046	11.265985
521.363647	1.52849
549.259766	9.030278
564.545471	1.356289
571.689087	2.695943
580.409058	13.177985
581.591492	4.170606
582.302307	20.910175
598.215393	195.653717
615.416687	2.712517
631.224731	2.169014
726.272766	1.295467
754.320007	160.84404
770.337036	25.372379
770.919617	6.632702
772.250488	4665.196777
772.757812	275.360199
785.047302	2.655314
811.636353	1.132172
870.584839	2.624944
880.949341	2.805908
881.463196	4.723564
884.363647	1.215032
898.592529	25.529058
899.471497	4.950284
END IONS

BEGIN IONS
PEPMASS=200.611
CHARGE=1
MSLEVEL=2
SOURCE_INSTRUMENT=ESI-Ion Trap
FILENAME=MSV000079598/ccms_peak/AMG_UKG/30116.mzXML
SEQ=*..*
IONMODE=Positive
ORGANISM=GNPS-NIST14-MATCHES
NAME=Spectral Match to Quinacrine from NIST14 M+2H
PI=Data from Rob Knight 
DATACOLLECTOR=Data deposited by amelnik
SMILES=CCN(CC)CCCC(C)NC1=C2C=C(C=CC2=NC3=C1C=CC(=C3)Cl)OC
INCHI=InChI=1S/C23H30ClN3O/c1-5-27(6-2)13-7-8-16(3)25-23-19-11-9-17(24)14-22(19)26-21-12-10-18(28-4)15-20(21)23/h9-12,14-16H,5-8,13H2,1-4H3,(H,25,26)
INCHIAUX=N/A
PUBMED=N/A
SUBMITUSER=mwang87
LIBRARYQUALITY=3
SPECTRUMID=CCMSLIB00003136029
USI=mzspec:GNPS:GNPS-NIST14-MATCHES:accession:CCMSLIB00003136029
SCANS=2576
81.07093	6906.754883
86.097031	405768.9375
114.12838	44380.632812
128.143585	24808.517578
136.036087	20306.429688
142.158646	40808.386719
172.579865	5336.605469
185.590393	17080.945312
186.59462	145017.28125
187.095978	7642.057129
200.102646	5569.737305
200.611038	4063238.25
201.113297	218229.671875
216.045303	9784.892578
228.044418	19475.388672
229.054077	60365.011719
244.053055	5257.333496
257.048462	258193.421875
258.056061	151316.5
259.062012	154057.90625
260.033447	20045.847656
271.063629	19283.867188
274.176117	4395.985352
285.080078	18624.289062
315.787903	4662.084961
323.826721	5300.622559
327.123932	18789.556641
344.154236	6454.621582
372.179749	6097.741211
423.781158	9693.495117
END IONS

BEGIN IONS
PEPMASS=481.1
CHARGE=1
MSLEVEL=2
SOURCE_INSTRUMENT=ESI-qTof
FILENAME=MSV000079485/ccms_peak/FermentationFestival2016_MzXML/15_41064.mzXML
SEQ=*..*
IONMODE=Positive
ORGANISM=GNPS-NIST14-MATCHES
NAME=Spectral Match to Gossypin from NIST14 M+H
PI=Data from Dorrestein/Knight
DATACOLLECTOR=Data deposited by quinnr
SMILES=C1=CC(=C(C=C1C2=C(C(=O)C3=C(O2)C(=C(C=C3O)O)O[C@H]4[C@@H]([C@H]([C@@H]([C@H](O4)CO)O)O)O)O)O)O
INCHI=InChI=1S/C21H20O13/c22-5-11-13(27)15(29)17(31)21(32-11)34-19-10(26)4-9(25)12-14(28)16(30)18(33-20(12)19)6-1-2-7(23)8(24)3-6/h1-4,11,13,15,17,21-27,29-31H,5H2/t11-,13-,15+,17-,21+/m1/s1
INCHIAUX=N/A
PUBMED=N/A
SUBMITUSER=mwang87
LIBRARYQUALITY=3
SPECTRUMID=CCMSLIB00003137147
USI=mzspec:GNPS:GNPS-NIST14-MATCHES:accession:CCMSLIB00003137147
SCANS=1507
109.028404	17553.294922
127.03891	41016.175781
137.060165	37431.40625
145.049271	20642.398438
151.038925	4812.462402
153.017426	17776.601562
153.299377	4263.661133
169.593536	4917.973633
181.049683	4576.13916
201.968842	3596.669434
245.045013	8116.677246
263.055359	5285.652344
273.038971	24543.226562
297.109528	4740.20166
301.03244	5621.941406
305.05777	4979.867188
318.254425	3973.099365
319.044281	2502514.75
447.347382	15751.608398
449.200195	7984.293457
451.595337	4213.67041
463.215576	5218.015137
481.261414	2618668.0
END IONS

BEGIN IONS
PEPMASS=305.152
CHARGE=1
MSLEVEL=2
SOURCE_INSTRUMENT=LC-ESI-Orbitrap
FILENAME=tharwood/spectral_libraries/BERKELEY-LAB.mgf
SEQ=*..*
IONMODE=Positive
ORGANISM=BERKELEY-LAB
NAME=tubocurarine CollisionEnergy:102040 M+H]
PI=Trent Northen
DATACOLLECTOR=JGI
SMILES=COc1cc2c3cc1Oc1cc(ccc1O)CC1c4c(cc(OC)c(O)c4Oc4ccc(cc4)CC3N(C)CC2)CC[N+]1(C)C
INCHI="InChI=1S/C37H40N2O6/c1-38-14-12-24-19-32(42-4)33-21-27(24)28(38)16-22-6-9-26(10-7-22)44-37-35-25(20-34(43-5)36(37)41)13-15-39(2,3)29(35)17-23-8-11-30(40)31(18-23)45-33/h6-11,18-21,28-29H,12-17H2,1-5H3,(H-,40,41)/p+1/t28-,29+/m0/s1"
INCHIAUX=N/A
PUBMED=N/A
SUBMITUSER=mwang87
LIBRARYQUALITY=3
SPECTRUMID=CCMSLIB00010112220
USI=mzspec:GNPS:BERKELEY-LAB:accession:CCMSLIB00010112220
SCANS=9786
52.201519	2802.0
56.04974	3183.0
58.06562	1380420.0
59.06884	15734.0
89.784058	3250.0
92.054604	2765.0
103.216263	2479.0
107.049278	4724.0
116.573471	3058.0
118.657463	2988.0
121.063843	3098.0
133.06398	5122.0
137.059631	4678.0
147.080551	11074.0
158.071945	3798.0
159.080109	3440.0
174.06749	3257.0
174.090958	10683.0
175.099609	5220.0
176.107071	6571.0
191.759583	3198.0
192.348587	3139.0
207.079636	3277.0
207.690521	16755.0
219.290039	2809.0
229.084885	4826.0
235.075638	3416.0
241.08493	18144.0
253.085159	4122.0
254.093094	25399.0
255.10083	16693.0
265.085144	3203.0
266.609161	5405.0
267.101776	21004.0
267.989227	2941.0
279.098816	4507.0
282.622345	63805.0
283.125031	12839.0
283.629425	51013.0
284.131195	7073.0
285.073364	3133.0
289.628448	5696.0
290.637634	11431.0
297.640259	12130.0
305.151276	3500793.0
305.652679	718807.0
343.13327	3009.0
355.129364	3336.0
367.128632	3860.0
385.141663	3730.0
386.149475	4346.0
387.158417	11605.0
397.142151	3068.0
399.156952	14987.0
400.166534	3235.0
401.171997	5947.0
412.162811	6860.0
430.199677	15742.0
489.16629	5233.0
495.16983	4871.0
506.17392	4519.0
509.195404	37338.0
510.205627	3705.0
521.194641	90567.0
521.282166	3829.0
522.198669	17367.0
523.211914	17365.0
552.237549	619409.0
553.14679	5217.0
553.239868	120531.0
566.252197	76342.0
567.254639	13904.0
END IONS

BEGIN IONS
PEPMASS=415.234
CHARGE=1
MSLEVEL=2
SOURCE_INSTRUMENT=LC-ESI-Orbitrap
FILENAME=tharwood/spectral_libraries/BERKELEY-LAB.mgf
SEQ=*..*
IONMODE=Negative
ORGANISM=BERKELEY-LAB
NAME=HMS1361D15 CollisionEnergy:102040 M+formate
PI=Trent Northen
DATACOLLECTOR=JGI
SMILES=CC1(O)CC23CC(O)C4(O)C(CC(O)C4(C)C)C(C)(O)C2CCC1C3O
INCHI="InChI=1S/C20H34O6/c1-16(2)13(21)7-12-18(4,25)11-6-5-10-15(23)19(11,9-17(10,3)24)8-14(22)20(12,16)26/h10-15,21-26H,5-9H2,1-4H3/t10?,11-,12-,13-,14+,15+,17?,18+,19-,20-/m0/s1"
INCHIAUX=N/A
PUBMED=N/A
SUBMITUSER=mwang87
LIBRARYQUALITY=3
SPECTRUMID=CCMSLIB00010113272
USI=mzspec:GNPS:BERKELEY-LAB:accession:CCMSLIB00010113272
SCANS=10838
57.033958	6194.0
57.138939	2617.0
82.399002	2556.0
104.285973	2697.0
113.427719	2406.0
129.164017	2627.0
132.789398	2563.0
149.096741	27807.0
187.151184	2836.0
208.934067	5244.0
208.953583	3549.0
257.15451	13091.0
278.913116	4658.0
279.175507	40713.0
285.993164	3188.0
296.81311	2688.0
297.186462	49425.0
315.19635	41066.0
333.206696	30402.0
351.217987	152518.0
369.22821	1945467.0
415.233734	259653.0
END IONS

BEGIN IONS
PEPMASS=528.186
CHARGE=1
MSLEVEL=2
SOURCE_INSTRUMENT=LC-ESI-Orbitrap
FILENAME=tharwood/spectral_libraries/BERKELEY-LAB.mgf
SEQ=*..*
IONMODE=Positive
ORGANISM=BERKELEY-LAB
NAME=AC1MJ3VH CollisionEnergy:102040 M+H
PI=Trent Northen
DATACOLLECTOR=JGI
SMILES=COc1cccc2c1C(=O)c1c(O)c3c(c(O)c1C2=O)CC(O)(C(C)=O)CC3OC1CC(N)C(O)C(C)O1
INCHI="InChI=1S/C27H29NO10/c1-10-22(30)14(28)7-17(37-10)38-16-9-27(35,11(2)29)8-13-19(16)26(34)21-20(24(13)32)23(31)12-5-4-6-15(36-3)18(12)25(21)33/h4-6,10,14,16-17,22,30,32,34-35H,7-9,28H2,1-3H3/t10?,14?,16-,17?,22?,27-/m0/s1"
INCHIAUX=N/A
PUBMED=N/A
SUBMITUSER=mwang87
LIBRARYQUALITY=3
SPECTRUMID=CCMSLIB00010113575
USI=mzspec:GNPS:BERKELEY-LAB:accession:CCMSLIB00010113575
SCANS=11141
52.725441	2917.0
60.044762	4363.0
69.033829	27467.0
72.044769	36130.0
86.06028	72693.0
95.048782	6147.0
109.98259	2622.0
112.07489	5812.0
113.059624	46500.0
114.044983	2962.0
118.534126	2788.0
130.086182	129107.0
131.181046	2881.0
136.202469	3069.0
148.096176	15937.0
192.560837	2833.0
293.076813	3933.0
306.051483	63977.0
321.075104	1116778.0
345.074982	3903.0
355.290497	3582.0
363.08551	445053.0
365.136963	2880.0
381.095703	85958.0
399.108398	11272.0
528.18573	270808.0
END IONS

BEGIN IONS
PEPMASS=247.181
CHARGE=1
MSLEVEL=2
SOURCE_INSTRUMENT=LC-ESI-qTof
FILENAME=DMIM_centroided_library_abundance_filtered.mgf
SEQ=*..*
IONMODE=Positive
ORGANISM=DMIM-DRUG-METABOLITE-LIBRARY
NAME=MEPIVACAINE [M+H]+
PI=Libin Xu
DATACOLLECTOR=Dylan H. Ross
SMILES=O=C(C1N(C)CCCC1)NC2=C(C)C=CC=C2C
INCHI=N/A
INCHIAUX=N/A
PUBMED=N/A
SUBMITUSER=jzemlin
LIBRARYQUALITY=3
SPECTRUMID=CCMSLIB00012465354
USI=mzspec:GNPS:DMIM-DRUG-METABOLITE-LIBRARY:accession:CCMSLIB00012465354
SCANS=332
55.044209	3551.0
56.05101	7522.0
57.018524	2463.0
58.998009	44051.0
60.023426	1173.0
61.004417	2484.0
67.053398	4730.0
68.051239	4379.0
69.053474	4122.0
70.067604	89922.0
71.041618	6632.0
72.077286	1814.0
73.021721	1817.0
74.030907	1274.0
76.024582	199745.0
77.034355	8416.0
78.020493	7225.0
79.040459	5318.0
80.051559	11195.0
81.051903	7824.0
82.05896	2840.0
83.054459	9939.0
84.048126	222660.0
85.014824	18462.0
86.054245	5302.0
86.996552	13555.0
88.025307	10021.0
89.014732	1841.0
91.053207	7049.0
92.056091	1197.0
93.065933	5266.0
94.06221	1463.0
95.065536	9182.0
96.07402	8763.0
97.029236	18775.0
97.972107	1342.0
98.102737	909886.0
98.300247	35842.0
98.830887	4324.0
98.945793	16354.0
99.098045	77801.0
99.569641	3265.0
100.068512	4176.0
101.02549	2377.0
102.058075	5865.0
103.041801	1821.0
104.060837	1747.0
105.064865	10992.0
106.057022	2477.0
107.07077	9776.0
108.054291	10589.0
109.061653	11307.0
110.071411	4859.0
111.034599	8509.0
112.041916	4124.0
113.01899	9498.0
114.040565	9328.0
115.05246	4670.0
116.021652	78413.0
117.033333	8938.0
118.025414	4606.0
118.937653	10323.0
119.077919	7224.0
120.070206	4253.0
121.047577	14958.0
122.071068	4536.0
122.958046	1374.0
123.058296	25110.0
124.040207	9006.0
125.030441	9884.0
126.034012	2162.0
127.04055	5023.0
128.056915	3000.0
129.083725	7077.0
130.055908	40403.0
131.062775	8145.0
132.068649	4377.0
133.062622	7233.0
134.083115	2214.0
135.064468	8997.0
136.066605	21205.0
136.947784	25382.0
137.077744	8978.0
138.055374	3104.0
139.019547	16965.0
140.038879	2885.0
140.923187	1114.0
141.048813	11106.0
142.037704	76591.0
143.043228	10348.0
144.023483	25086.0
145.065002	7906.0
146.054626	4703.0
147.057663	9186.0
148.056381	3114.0
149.059677	7873.0
150.084579	7450.0
151.060532	6618.0
152.052567	4070.0
152.906982	1466.0
153.036057	10960.0
154.061462	3287.0
155.036041	6508.0
156.082794	2562.0
157.060394	4943.0
158.095551	3599.0
158.917038	1296.0
159.076202	5864.0
160.074265	3102.0
161.059921	9908.0
162.028336	36085.0
163.048309	8856.0
164.044205	4321.0
164.934372	2394.0
165.057877	7955.0
166.058411	2625.0
167.055603	6277.0
168.054245	2849.0
169.045624	6371.0
170.040665	8759.0
171.065231	5024.0
172.076447	2470.0
173.065521	5414.0
174.075897	2149.0
174.887482	4228.0
175.072083	6097.0
176.054672	3505.0
177.053543	7784.0
178.073746	2238.0
179.056992	12674.0
180.080231	2914.0
180.907669	2611.0
181.046463	9560.0
182.088211	1852.0
182.925858	1183.0
183.07045	4635.0
184.077515	2421.0
185.070389	4700.0
186.085648	2045.0
186.914246	1246.0
187.066376	11530.0
188.055573	5138.0
189.054337	5230.0
190.080811	1702.0
191.072021	6158.0
192.078613	1736.0
192.938538	1387.0
193.0746	6743.0
194.078613	1811.0
195.07576	5399.0
196.095673	1636.0
196.904984	1537.0
197.084061	4436.0
198.06485	1591.0
198.894714	1652.0
199.058029	5637.0
200.073532	1532.0
200.919846	2240.0
201.04303	11933.0
202.07222	2574.0
202.918716	2140.0
203.086716	4039.0
204.077225	2550.0
204.921219	1513.0
205.077438	3647.0
206.064148	1819.0
207.079086	5432.0
208.103485	1511.0
209.07843	6244.0
210.08725	1403.0
211.098114	3160.0
212.094452	1246.0
213.064163	2479.0
214.088455	1887.0
214.881638	2150.0
215.05835	5881.0
216.054901	2283.0
216.905304	4301.0
217.07341	2154.0
218.942383	2781.0
219.097458	3295.0
220.933334	1982.0
221.104141	4164.0
222.093521	1678.0
222.920212	1148.0
223.085281	5088.0
224.082138	1127.0
225.115997	2546.0
226.110123	1666.0
227.065277	3017.0
228.091354	1176.0
229.07872	1840.0
231.064697	2592.0
232.102158	1419.0
232.886383	1466.0
233.083023	5435.0
234.087372	1578.0
235.098495	4599.0
236.112946	1364.0
237.090897	4147.0
238.120209	1566.0
238.889801	1450.0
239.082001	3049.0
240.094131	1157.0
241.063416	1396.0
243.067505	1273.0
245.070572	5480.0
246.073578	1266.0
247.131775	2159.0
249.1035	2924.0
END IONS

BEGIN IONS
PEPMASS=266.166
CHARGE=1
MSLEVEL=2
SOURCE_INSTRUMENT=LC-ESI-qTof
FILENAME=DMIM_centroided_library_abundance_filtered.mgf
SEQ=*..*
IONMODE=Positive
ORGANISM=DMIM-DRUG-METABOLITE-LIBRARY
NAME=ANTAZOLINE [M+H]+
PI=Libin Xu
DATACOLLECTOR=Dylan H. Ross
SMILES=C1CN=C(N1)CN(CC2=CC=CC=C2)C3=CC=CC=C3
INCHI=N/A
INCHIAUX=N/A
PUBMED=N/A
SUBMITUSER=jzemlin
LIBRARYQUALITY=3
SPECTRUMID=CCMSLIB00012465453
USI=mzspec:GNPS:DMIM-DRUG-METABOLITE-LIBRARY:accession:CCMSLIB00012465453
SCANS=431
55.041191	2586.0
56.052425	9178.0
57.018101	2784.0
58.050415	1185.0
58.998035	59410.0
60.018997	2068.0
61.002621	3057.0
65.040268	10518.0
67.051773	3730.0
68.050934	2235.0
69.054558	3477.0
70.062195	6408.0
71.057549	19219.0
72.05188	13896.0
73.027267	4248.0
74.038857	1425.0
76.024315	322988.0
77.034248	18122.0
78.022636	13496.0
79.0467	7168.0
80.051025	15249.0
81.054199	8832.0
82.051262	2065.0
83.051575	9796.0
84.047546	335492.0
85.029648	22488.0
86.070824	7052.0
86.996681	17876.0
88.024361	14540.0
89.027527	2737.0
90.017952	1374.0
91.060493	1274975.0
91.250122	52139.0
91.825623	20633.0
91.932686	1351.0
92.059891	112817.0
92.47023	4091.0
93.067848	11082.0
94.064827	1450.0
95.069389	10747.0
96.057587	2951.0
97.030472	19217.0
98.028572	8735.0
99.011169	10879.0
100.033424	2545.0
101.04171	2352.0
102.055862	7941.0
103.039276	2839.0
104.051788	5170.0
105.061249	12052.0
106.067589	60855.0
107.070564	13242.0
108.058098	6185.0
109.065804	12881.0
110.06279	5232.0
111.04528	8909.0
112.036026	4459.0
113.01915	9966.0
114.037041	11613.0
115.054939	4817.0
116.020187	117689.0
117.038284	11542.0
118.063507	59854.0
118.922302	5096.0
119.068085	13129.0
120.065582	7233.0
121.058441	14373.0
122.063942	5171.0
123.056793	29618.0
124.031982	11165.0
125.02977	9486.0
126.032654	2047.0
127.031425	5981.0
128.065308	2771.0
129.08844	9192.0
130.054749	59780.0
131.061615	9112.0
132.063446	4412.0
133.058044	9898.0
134.078186	3797.0
135.06633	9205.0
136.067383	11253.0
136.951004	22438.0
137.080673	10907.0
138.065353	3561.0
139.024612	21906.0
140.032272	2913.0
141.050766	13568.0
142.036301	102813.0
143.040115	12621.0
144.02034	34155.0
145.058945	11257.0
146.054459	7459.0
147.062424	10559.0
148.070221	3283.0
149.059326	7690.0
150.062958	2621.0
151.05452	8907.0
152.060135	15092.0
152.92778	1297.0
153.052902	17455.0
154.063141	4190.0
155.046509	7606.0
156.081802	3030.0
157.07132	6319.0
158.081375	3088.0
158.954178	1429.0
159.086823	7355.0
160.083542	3265.0
161.092377	22181.0
162.029434	56657.0
163.047562	12880.0
164.042419	5819.0
164.932266	3741.0
165.05864	12021.0
166.065826	4026.0
167.06366	8655.0
168.055496	5638.0
169.057419	6773.0
170.037384	10547.0
171.068558	5572.0
172.078598	2658.0
173.071564	9703.0
174.10173	14395.0
174.887802	2875.0
175.098267	16961.0
176.081787	5287.0
177.069016	7989.0
178.082245	6590.0
179.072647	27373.0
180.078674	7647.0
180.913223	3635.0
181.077255	18008.0
182.081772	4320.0
183.066391	7634.0
184.072784	2550.0
185.064072	6288.0
186.089218	2681.0
186.914505	1197.0
187.062302	13872.0
188.056625	5292.0
189.060181	6512.0
190.085297	2484.0
191.06929	8435.0
192.082581	2620.0
192.951126	1743.0
193.07486	10388.0
194.091217	5772.0
195.084152	7864.0
196.116837	240466.0
196.287659	3826.0
196.491714	1672.0
196.902313	1775.0
197.115128	49847.0
197.285706	1052.0
198.11293	4627.0
198.887985	1531.0
199.067871	7177.0
200.001053	1747.0
200.920761	1905.0
201.051743	11523.0
202.063187	2569.0
202.897171	1460.0
203.069962	11146.0
204.074722	2717.0
205.081528	5513.0
206.013092	2406.0
207.072296	7820.0
208.074829	2043.0
209.078979	10515.0
210.0867	2551.0
211.088959	4357.0
212.107285	3735.0
213.095139	3985.0
214.092361	1307.0
215.039505	11816.0
216.049255	3873.0
216.915421	3161.0
217.078781	3555.0
218.099777	1322.0
218.956131	1147.0
219.091599	3930.0
220.080231	2043.0
220.93042	1893.0
221.098404	5339.0
222.087555	1606.0
222.925873	1648.0
223.080948	7661.0
224.099731	1501.0
225.079437	4315.0
226.102036	1862.0
227.067947	5203.0
228.096313	3533.0
229.085541	3415.0
230.14415	1110.0
231.083817	2354.0
232.08046	1575.0
232.882706	1109.0
233.073792	9365.0
234.092163	2238.0
235.100006	5702.0
236.098724	1629.0
237.101013	4586.0
238.101212	1433.0
238.89357	1010.0
239.087601	4113.0
240.130829	1805.0
241.034012	1336.0
243.078003	1994.0
244.130386	1161.0
245.071442	6323.0
246.093567	1820.0
247.108658	3095.0
248.931091	1223.0
249.112808	4688.0
250.096191	1215.0
251.07428	11562.0
252.079681	1644.0
253.124939	4132.0
254.136887	1394.0
254.848007	2392.0
255.064911	2436.0
256.05069	1514.0
257.087036	1846.0
259.122223	2361.0
261.130829	3967.0
262.1203	1084.0
263.119476	3965.0
264.12796	1473.0
265.12207	4374.0
266.160675	3942.0
267.117218	5294.0
268.092285	1206.0
END IONS

BEGIN IONS
PEPMASS=419.035
CHARGE=1
MSLEVEL=2
SOURCE_INSTRUMENT=LC-ESI-qTof
FILENAME=DMIM_centroided_library_abundance_filtered.mgf
SEQ=*..*
IONMODE=Positive
ORGANISM=DMIM-DRUG-METABOLITE-LIBRARY
NAME=CEPHALOTHIN [M+Na]+
PI=Libin Xu
DATACOLLECTOR=Dylan H. Ross
SMILES=CC(=O)OCC1=C(N2[C@@H]([C@@H](C2=O)NC(=O)CC3=CC=CS3)SC1)C(=O)O
INCHI=N/A
INCHIAUX=N/A
PUBMED=N/A
SUBMITUSER=jzemlin
LIBRARYQUALITY=3
SPECTRUMID=CCMSLIB00012465910
USI=mzspec:GNPS:DMIM-DRUG-METABOLITE-LIBRARY:accession:CCMSLIB00012465910
SCANS=888
55.049324	2388.0
57.060818	1402.0
58.065262	1293.0
59.026115	1614.0
67.054855	2736.0
69.06057	4882.0
70.067207	5315.0
71.04525	1557.0
72.077858	3274.0
73.049835	1167.0
74.061668	1008.0
76.025757	2743.0
77.034187	1855.0
79.035637	2710.0
80.036041	2531.0
81.059334	7980.0
82.041176	1151.0
83.059044	4969.0
84.06353	11097.0
85.021729	5351.0
86.093033	6622.0
87.036346	2090.0
88.056313	2658.0
89.045753	1139.0
91.053062	6956.0
92.055901	1120.0
93.062981	4583.0
95.078697	10814.0
96.059776	2234.0
97.035759	35322.0
98.045609	3706.0
99.024788	7387.0
100.043465	3099.0
101.058731	3227.0
102.057785	1878.0
103.037315	1796.0
105.071495	55898.0
106.071968	5253.0
107.077965	8440.0
108.060005	3267.0
109.076187	16380.0
110.074554	5377.0
111.052658	10124.0
112.053215	3524.0
113.03714	7744.0
114.047646	2026.0
115.066399	3617.0
116.033157	4137.0
117.054321	2423.0
118.926338	1705.0
119.066376	6353.0
120.075798	5803.0
121.07312	23197.0
122.061722	4349.0
123.055992	61414.0
124.054153	6576.0
125.035324	15108.0
126.082336	8142.0
127.059891	4938.0
128.064636	1389.0
129.099503	11373.0
130.064056	6659.0
131.062943	3431.0
132.06105	1063.0
133.054718	8109.0
134.058701	2767.0
135.075211	10111.0
136.065201	29131.0
136.932388	13609.0
137.066467	27072.0
138.065399	6236.0
139.039291	25969.0
140.04071	3894.0
141.051224	5613.0
142.036987	10472.0
142.973465	6038.0
143.094482	3173.0
144.033585	3459.0
145.069046	4540.0
146.06012	1323.0
147.067902	8499.0
148.066849	2296.0
149.075638	9636.0
150.049438	3033.0
151.068619	10513.0
152.058243	5230.0
153.052643	15048.0
154.082581	14398.0
155.067596	10159.0
156.056168	3146.0
156.916275	1004.0
157.077148	4472.0
158.092316	2540.0
158.934662	2679.0
159.088486	5868.0
160.074692	2303.0
161.079041	8226.0
162.045105	5574.0
163.078766	14041.0
164.080276	5059.0
164.933945	5792.0
165.064514	16072.0
166.064087	4273.0
167.057343	13049.0
168.051605	4276.0
169.05925	9342.0
170.043549	3318.0
171.074692	6475.0
172.094711	1618.0
173.080307	7138.0
174.057953	2559.0
174.929367	2361.0
175.088455	6784.0
176.06955	2173.0
177.078445	13654.0
178.048843	6387.0
179.074493	27801.0
180.086609	4653.0
180.917221	3680.0
181.078262	22681.0
182.052063	3943.0
183.068756	15151.0
184.07338	4314.0
185.056229	6647.0
186.076981	2612.0
186.95575	1414.0
187.094421	4708.0
188.069077	2541.0
189.080048	5850.0
190.056458	2179.0
190.945572	1413.0
191.075424	13079.0
192.064468	4036.0
192.955643	3323.0
193.081665	22530.0
194.076889	4378.0
194.957428	1424.0
195.084808	16879.0
196.088791	3059.0
196.920319	2329.0
197.082138	37205.0
198.088547	4239.0
198.899033	2885.0
199.073029	6114.0
199.97052	1070.0
200.093338	3330.0
200.953888	9308.0
201.110001	4871.0
202.082016	1589.0
202.942062	1294.0
203.093475	8393.0
204.027283	5779.0
205.089523	11516.0
206.078873	2908.0
207.089935	16344.0
208.093246	3556.0
209.082932	31019.0
210.084961	4325.0
211.091095	10846.0
212.10141	2711.0
213.090378	7545.0
214.060303	2420.0
214.979416	5344.0
215.10051	4058.0
216.077133	2250.0
216.907684	25956.0
217.080917	7084.0
218.086212	2310.0
218.949921	2277.0
219.094925	9165.0
219.973358	1139.0
220.091202	2293.0
220.928711	1950.0
221.105103	14289.0
222.112	3855.0
222.929779	2007.0
223.095306	24128.0
224.099442	3655.0
225.090515	13138.0
225.991562	1690.0
226.128006	3684.0
227.071335	7642.0
228.09697	3217.0
229.091492	4947.0
230.118561	1921.0
230.938675	1936.0
231.086502	6468.0
232.090485	2039.0
232.889084	6095.0
233.09935	11877.0
234.115952	2371.0
234.942291	1723.0
235.110138	15353.0
236.113403	2652.0
236.970093	1035.0
237.111771	18255.0
237.977966	1220.0
238.105927	3634.0
238.909103	2798.0
239.09465	12968.0
239.987228	1672.0
240.105057	1802.0
240.212357	3364.0
240.918259	1035.0
241.091721	5551.0
242.090897	1952.0
242.22934	1754.0
242.999039	1144.0
243.109894	3671.0
244.007889	1822.0
244.13858	1693.0
244.904617	1186.0
245.078766	6110.0
246.061295	2136.0
246.933853	1285.0
247.110703	6724.0
248.005997	1745.0
248.136826	1398.0
248.947739	3017.0
249.111649	14126.0
250.108139	3477.0
250.985901	1113.0
251.114182	21316.0
252.103195	4568.0
253.007034	1764.0
253.119827	14237.0
254.11438	2923.0
254.856354	3276.0
255.119904	11674.0
256.092682	2374.0
256.953003	1670.0
257.109802	4417.0
258.141144	1614.0
258.978577	1385.0
259.127258	4267.0
260.019775	1513.0
261.009125	1223.0
261.133728	7667.0
262.109558	1591.0
262.945038	1503.0
263.13089	8550.0
264.113922	2299.0
264.936493	1614.0
265.118774	11443.0
266.126556	2787.0
266.941437	1015.0
267.120117	18744.0
268.121368	3772.0
269.131042	11261.0
270.139404	2293.0
270.305603	1364.0
270.954895	1720.0
271.123199	5045.0
272.137299	1680.0
273.134949	4176.0
274.201813	1241.0
275.022339	1558.0
275.14505	7964.0
276.149628	2607.0
277.000946	1204.0
277.140564	11901.0
278.143494	2255.0
279.006256	1720.0
279.138428	11491.0
280.140594	2992.0
280.955414	1292.0
281.132294	9905.0
282.131012	2544.0
282.994293	1250.0
283.129242	8515.0
283.992615	1253.0
284.12915	2439.0
284.319977	1084.0
285.122192	4660.0
286.058289	2060.0
287.003906	1300.0
287.143433	4384.0
288.012054	1519.0
288.875061	1430.0
288.984039	1379.0
289.14743	7639.0
290.153625	2571.0
291.030212	1342.0
291.158081	10451.0
292.155579	2934.0
292.987305	1005.0
293.147461	13613.0
294.144592	3150.0
294.949738	1862.0
295.150238	12090.0
296.155457	1924.0
296.945435	1485.0
297.132385	5628.0
298.138977	1830.0
298.940033	4637.0
299.135071	4314.0
300.168701	1258.0
301.012909	1417.0
301.155548	4363.0
302.016357	2115.0
303.056793	1503.0
303.179291	6093.0
304.160797	1941.0
305.010651	1187.0
305.167664	10748.0
306.178802	2815.0
307.159241	12937.0
308.167084	2806.0
309.154999	11259.0
310.164795	1889.0
311.158508	6924.0
312.059998	3401.0
312.932648	3035.0
313.156921	3427.0
314.136383	1510.0
314.974396	2388.0
315.155518	3305.0
316.164642	1363.0
317.177612	6283.0
318.175232	1617.0
318.95108	1684.0
319.184143	11553.0
320.166351	2856.0
320.922241	1363.0
321.172424	10256.0
322.16333	2111.0
323.170837	11312.0
324.173126	2720.0
325.164001	6048.0
326.175079	1547.0
327.093567	8427.0
327.241425	3661.0
328.085876	3183.0
328.241699	1016.0
328.89975	2490.0
329.036926	1818.0
329.174469	4355.0
330.083923	3301.0
331.036163	1001.0
331.18045	7264.0
332.062469	1585.0
332.206909	1608.0
333.185883	11190.0
334.071625	1374.0
334.21463	1819.0
335.013062	1153.0
335.186005	10707.0
336.186981	2742.0
337.174469	7941.0
338.171387	2186.0
339.163696	4750.0
341.160889	3082.0
342.173889	1495.0
343.181396	4559.0
344.164246	1358.0
344.905792	1603.0
345.194397	5940.0
346.046173	4759.0
346.212433	1717.0
347.031311	4080.0
347.195038	9435.0
348.198303	2601.0
349.196198	11312.0
350.199524	2602.0
351.179749	10792.0
352.188782	2324.0
352.99527	1368.0
353.187622	5301.0
354.18811	1739.0
355.177887	3233.0
357.24585	7191.0
358.240967	2408.0
358.99942	1714.0
359.196381	5389.0
360.203827	2127.0
361.212372	11322.0
362.216522	2717.0
363.005554	1361.0
363.19928	12113.0
364.192047	3115.0
365.174835	11657.0
366.194305	3028.0
366.917755	1307.0
367.191772	6476.0
368.042236	1931.0
368.203979	1569.0
369.018097	1227.0
369.194275	4179.0
370.206665	1252.0
371.215118	4007.0
372.19281	1649.0
373.206818	5490.0
374.052155	2449.0
374.21521	1457.0
375.2146	9566.0
376.220642	2337.0
377.213196	13060.0
378.213074	3655.0
379.208862	12158.0
380.215118	3375.0
381.198608	9947.0
382.203094	2896.0
383.199524	6122.0
383.992615	1220.0
384.213257	1727.0
385.001587	1053.0
385.22287	3968.0
386.217773	1059.0
387.215973	4770.0
388.218201	2084.0
389.117065	1291.0
389.226349	13274.0
390.2229	3515.0
391.213867	12712.0
392.225098	3279.0
393.213165	13652.0
394.21405	3575.0
395.209167	11973.0
396.209991	2849.0
397.210205	7914.0
398.198914	2098.0
399.208771	4431.0
400.226776	1141.0
401.163513	1838.0
401.277344	5484.0
402.240723	2040.0
403.218079	6374.0
404.227936	1688.0
405.052704	1289.0
405.221008	10773.0
406.217499	2615.0
407.215576	13505.0
408.213745	2878.0
409.175018	79585.0
409.333435	1747.0
410.176392	19594.0
411.201569	11617.0
412.202271	2824.0
413.205841	3844.0
414.203552	1332.0
415.211761	2615.0
417.216431	3953.0
419.212616	7274.0
420.206024	1431.0
END IONS

BEGIN IONS
PEPMASS=239.155
CHARGE=1
MSLEVEL=2
SOURCE_INSTRUMENT=LC-ESI-qTof
FILENAME=DMIM_centroided_library_abundance_filtered.mgf
SEQ=*..*
IONMODE=Positive
ORGANISM=DMIM-DRUG-METABOLITE-LIBRARY
NAME=NOMIFENSINE [M+H]+
PI=Libin Xu
DATACOLLECTOR=Dylan H. Ross
SMILES=CN1CC(C2=C(C1)C(=CC=C2)N)C3=CC=CC=C3
INCHI=N/A
INCHIAUX=N/A
PUBMED=N/A
SUBMITUSER=jzemlin
LIBRARYQUALITY=3
SPECTRUMID=CCMSLIB00012467280
USI=mzspec:GNPS:DMIM-DRUG-METABOLITE-LIBRARY:accession:CCMSLIB00012467280
SCANS=2258
52.700851	1010.0
55.052696	2577.0
56.050949	6540.0
57.033512	1348.0
58.063705	2799.0
58.999786	32357.0
60.040447	2713.0
61.006802	2291.0
62.979362	2428.0
64.992676	1709.0
66.175095	1489.0
67.055969	2769.0
68.04686	1666.0
69.049263	5604.0
70.066628	38993.0
71.031166	3728.0
72.078285	11987.0
72.708633	1440.0
73.026123	3006.0
74.061691	5852.0
75.012131	1121.0
76.0252	105547.0
77.037056	8639.0
78.032677	6955.0
78.163277	1017.0
78.302849	4209.0
78.491806	2473.0
78.685402	1899.0
79.041824	6147.0
79.275307	1203.0
79.643394	1005.0
80.051582	12505.0
80.865265	3708.0
81.042023	13209.0
81.271553	5106.0
81.439995	1875.0
81.624077	1918.0
81.913948	1360.0
82.060966	3887.0
82.683006	1199.0
82.882111	1409.0
83.055069	6804.0
84.058769	182125.0
84.266678	1455.0
84.477135	2629.0
84.728645	2400.0
85.046936	15353.0
86.089073	20064.0
86.994583	5218.0
88.027077	9936.0
88.983406	1746.0
90.027771	1181.0
91.053856	21296.0
92.055725	2985.0
92.717049	2010.0
93.066643	6941.0
94.062637	2100.0
94.944939	5220.0
95.08934	4371.0
96.042816	3729.0
96.912834	1488.0
97.031982	31124.0
98.032761	9210.0
99.002769	7010.0
100.039948	3030.0
101.089233	2601.0
102.059555	3524.0
102.92627	1091.0
103.059204	3170.0
103.907471	1009.0
104.074364	3082.0
105.067314	8861.0
106.058968	5556.0
107.069962	3334.0
108.052643	8120.0
109.063309	4268.0
110.072876	23766.0
110.974327	1524.0
111.078644	5563.0
112.076126	10671.0
112.902184	87921.0
113.047302	8714.0
114.037247	8548.0
114.898712	38880.0
115.065681	9813.0
116.025848	32591.0
116.90126	4341.0
117.059303	8297.0
118.064934	21022.0
118.927422	34045.0
119.06604	6863.0
120.069305	22358.0
120.950851	2359.0
121.060692	7579.0
122.053108	4504.0
122.927658	4097.0
123.059052	46818.0
124.04097	13683.0
124.968849	7536.0
125.084305	3854.0
126.086708	1861.0
127.036263	9755.0
128.062897	3955.0
129.10408	45879.0
129.924759	1623.0
130.065643	42928.0
131.069199	9620.0
132.069031	7947.0
133.056061	6072.0
134.005203	3449.0
134.921188	1943.0
135.076813	3719.0
136.067093	91527.0
136.937729	136763.0
137.074707	11514.0
137.924973	1783.0
138.076004	5294.0
139.025345	10982.0
140.036835	7399.0
140.924545	4315.0
141.060028	12466.0
142.039139	53867.0
142.983871	18356.0
143.107391	5138.0
144.022507	18529.0
144.210144	1157.0
144.929199	1183.0
145.064392	6986.0
146.069122	7094.0
147.080719	10745.0
148.060867	4357.0
149.042587	5447.0
150.055435	6951.0
150.92421	1848.0
151.0466	6570.0
151.910934	1920.0
152.065216	9891.0
152.930161	8606.0
153.065338	7031.0
154.037888	5788.0
154.93248	2373.0
155.085876	10849.0
155.939774	1317.0
156.061264	8634.0
156.900864	10486.0
157.090469	9764.0
158.079941	6989.0
158.935791	32788.0
159.093094	7868.0
160.058807	4731.0
160.963028	4898.0
161.076187	3624.0
162.031982	40530.0
163.041931	9426.0
164.039551	5336.0
164.936005	187522.0
165.079224	13967.0
165.935059	1642.0
166.06749	10740.0
166.936203	4326.0
167.076126	12003.0
168.061722	6548.0
168.884842	4286.0
169.103699	14084.0
169.897583	3262.0
170.04332	9478.0
170.154037	1293.0
170.921997	2170.0
171.076202	10252.0
171.57991	1335.0
171.933533	1703.0
172.070251	5439.0
172.869278	2063.0
173.068954	14438.0
173.834198	1103.0
174.039902	7602.0
174.720444	1165.0
174.903046	954969.0
175.08847	17481.0
175.271301	1970.0
175.935638	4107.0
176.090897	5179.0
176.902527	146543.0
177.066406	14182.0
177.881042	1232.0
178.083252	11697.0
178.903107	7596.0
179.066528	22487.0
179.922379	1625.0
180.082489	13814.0
180.91124	375946.0
181.082306	28287.0
181.929184	1853.0
182.085175	7031.0
182.91272	30967.0
183.090668	11609.0
183.96582	1857.0
184.083282	6095.0
184.894638	3169.0
185.070267	12861.0
185.179749	2307.0
185.990692	1550.0
186.116776	9089.0
186.919876	173144.0
187.085495	15009.0
187.908325	1493.0
188.066757	6752.0
188.907883	2642.0
189.042953	11054.0
189.867035	1721.0
190.05632	4970.0
190.890549	6336.0
191.061859	11081.0
191.872269	1673.0
192.063248	4225.0
192.924438	4210.0
193.083862	12043.0
193.923019	1243.0
194.101105	8561.0
194.936935	3467.0
195.085602	13604.0
195.871704	1110.0
195.995087	3846.0
196.114929	12754.0
196.885956	547373.0
196.999176	1751.0
197.107315	11613.0
197.889114	2578.0
198.013824	1013.0
198.119324	4637.0
198.644943	1153.0
198.885803	89284.0
199.070679	12698.0
199.972534	6693.0
200.142975	3897.0
200.906189	10558.0
201.05069	17289.0
201.897675	1951.0
202.0867	5794.0
202.894684	201791.0
203.063843	14228.0
203.568359	1007.0
203.876541	1785.0
204.076874	6263.0
204.898865	27264.0
205.076233	5928.0
205.993134	11624.0
206.119858	3004.0
206.854233	1219.0
206.967682	3013.0
207.088516	6888.0
207.856064	1053.0
207.976227	1499.0
208.10553	6175.0
208.923233	3691.0
209.078476	9626.0
209.87851	1875.0
210.097549	4553.0
211.036652	9083.0
211.143188	3389.0
211.951309	2418.0
212.117325	5418.0
212.860443	694719.0
213.050797	12127.0
213.1595	1802.0
213.874786	4502.0
214.083908	13324.0
214.861435	164147.0
215.056778	12378.0
215.888367	4314.0
216.091461	7000.0
216.890198	32907.0
217.088959	5931.0
217.883102	2938.0
218.088959	3018.0
218.868973	197098.0
219.057022	6268.0
219.879471	3610.0
220.076675	3434.0
220.879929	49727.0
220.982376	1032.0
221.09285	5657.0
221.963867	1602.0
222.118622	4240.0
222.875946	4906.0
223.025482	14853.0
223.147507	3260.0
223.932846	2582.0
224.111496	4263.0
224.835037	2879.0
225.037521	8212.0
225.158539	3844.0
225.838394	1367.0
225.981384	1076.0
226.128448	10193.0
226.896606	4554.0
227.06102	11627.0
227.196442	1276.0
227.891846	3301.0
228.021881	2125.0
228.14444	4966.0
228.912964	5400.0
229.096222	3666.0
229.874985	4374.0
230.027664	1256.0
230.133896	4089.0
230.886215	4846.0
231.063751	8661.0
231.874084	9790.0
232.084366	11056.0
232.884628	14487.0
233.068253	9780.0
233.860504	1750.0
233.986572	1168.0
234.111099	3125.0
234.848648	101608.0
234.997498	3024.0
235.102509	6090.0
235.867767	3030.0
236.120682	3460.0
236.844604	22485.0
237.003571	4208.0
237.127731	5933.0
237.841232	1833.0
238.010651	1473.0
238.121353	5242.0
238.871918	7752.0
239.018356	4774.0
239.142059	9463.0
239.833832	1124.0
240.005219	1723.0
240.140594	6683.0
240.866394	4179.0
241.064346	7220.0
END IONS

BEGIN IONS
PEPMASS=304.191
CHARGE=1
MSLEVEL=2
SOURCE_INSTRUMENT=LC-ESI-qTof
FILENAME=DMIM_centroided_library_abundance_filtered.mgf
SEQ=*..*
IONMODE=Positive
ORGANISM=DMIM-DRUG-METABOLITE-LIBRARY
NAME=METHYLATROPINE [M]+
PI=Libin Xu
DATACOLLECTOR=Dylan H. Ross
SMILES=C[N+]1([C@@H]2CC[C@H]1CC(C2)OC(=O)C(CO)C3=CC=CC=C3)C
INCHI=N/A
INCHIAUX=N/A
PUBMED=N/A
SUBMITUSER=jzemlin
LIBRARYQUALITY=3
SPECTRUMID=CCMSLIB00012467331
USI=mzspec:GNPS:DMIM-DRUG-METABOLITE-LIBRARY:accession:CCMSLIB00012467331
SCANS=2309
50.386234	2105.0
50.560455	1447.0
50.777691	1602.0
51.014713	1111.0
51.165718	2266.0
51.329762	1338.0
51.849033	1221.0
52.265079	1275.0
52.659775	1203.0
52.854897	2086.0
53.112556	1591.0
53.347744	1130.0
53.739208	1789.0
54.152847	1543.0
54.688324	1058.0
55.04768	5750.0
55.210064	1182.0
55.396893	1006.0
55.575642	1432.0
55.839909	1188.0
56.054504	9747.0
56.226219	1079.0
56.931381	1256.0
57.061222	7970.0
57.2794	1699.0
57.803211	1372.0
58.06403	7455.0
58.352058	1241.0
58.641407	1180.0
59.003857	10761.0
59.471874	1195.0
60.046761	3053.0
60.328503	1096.0
60.547455	1187.0
61.020741	2826.0
61.494171	1525.0
62.011326	1258.0
62.509262	1067.0
62.768978	1107.0
62.990047	3250.0
63.336704	1459.0
63.523029	1057.0
63.861721	1366.0
64.227455	1232.0
64.435158	1161.0
64.992966	5210.0
65.775085	1005.0
66.08609	1458.0
66.694633	1174.0
67.05732	11766.0
68.053932	3620.0
68.249146	1041.0
68.44072	1543.0
68.70179	1245.0
69.044899	28039.0
70.066032	73416.0
70.362717	1056.0
70.521408	1042.0
70.765671	1639.0
70.923866	1231.0
71.071121	9617.0
71.830597	1218.0
72.083351	30230.0
73.04892	5357.0
74.06002	4706.0
75.045235	1798.0
76.026497	31652.0
76.378357	1014.0
76.530663	1919.0
76.7379	1747.0
76.898834	1123.0
77.041641	14428.0
77.221581	1102.0
77.812866	1165.0
78.041504	4179.0
78.149254	1238.0
78.282463	4216.0
78.474014	2391.0
78.696854	1411.0
78.850975	1999.0
79.040764	10163.0
79.272568	1281.0
79.595215	1607.0
80.049683	8576.0
80.825493	1521.0
80.927925	6024.0
81.067932	24873.0
81.224968	2723.0
81.359909	4089.0
81.535103	2278.0
81.704704	1441.0
81.888435	1140.0
82.0653	10857.0
82.670242	1184.0
82.932861	1185.0
83.054344	8912.0
83.280647	1301.0
83.764709	1488.0
83.919495	1228.0
84.068489	166764.0
84.261887	3351.0
84.441368	1134.0
84.583511	2315.0
84.791779	1236.0
84.952324	3913.0
85.06089	16065.0
85.310089	1475.0
85.618042	1172.0
86.096779	47710.0
86.429283	1099.0
86.803551	1101.0
87.045959	8991.0
87.340797	1126.0
87.572838	1467.0
88.021057	9183.0
89.010117	5438.0
89.786713	1079.0
90.099533	1352.0
90.453926	1122.0
91.050407	41309.0
92.054321	3875.0
93.072052	43057.0
94.073059	7251.0
94.264984	2054.0
94.931442	2207.0
95.083138	28000.0
95.257812	1428.0
96.058968	10122.0
96.661194	1793.0
96.914429	2037.0
97.032906	404424.0
98.03289	28694.0
98.999443	20133.0
99.110756	1226.0
99.642395	1172.0
99.920311	1256.0
100.062164	5455.0
100.368713	1134.0
101.06781	4455.0
102.056503	6434.0
102.940758	1774.0
103.056625	8565.0
103.217712	1238.0
103.806175	1147.0
104.085297	6039.0
105.058235	13998.0
106.056564	2618.0
106.942795	1240.0
107.067749	8961.0
108.05735	9739.0
108.312996	1320.0
108.975365	1295.0
109.082878	11055.0
109.465927	1247.0
109.884331	1078.0
110.074684	52952.0
111.043747	15544.0
112.070656	15621.0
112.90313	85948.0
113.043045	43247.0
113.287735	1250.0
114.039406	10899.0
114.439941	1117.0
114.900063	41071.0
115.075142	12202.0
116.040154	23291.0
116.261673	1419.0
116.900696	4325.0
117.058777	6289.0
118.032516	4502.0
118.252731	1104.0
118.958908	14261.0
119.068367	9145.0
120.072144	44933.0
121.027946	28646.0
122.044678	9020.0
122.926247	3659.0
123.061256	94258.0
124.052834	18682.0
124.963997	18763.0
125.083702	5475.0
126.064789	7412.0
127.032112	14021.0
128.070221	4865.0
128.962677	1010.0
129.105408	114216.0
129.907593	1061.0
130.070755	51767.0
131.066406	11742.0
132.06308	9494.0
133.041138	15696.0
133.59848	1144.0
134.047455	6186.0
135.048141	16169.0
136.06871	221078.0
136.941666	81041.0
137.074844	26560.0
137.582382	1553.0
137.984818	3334.0
138.131256	251696.0
138.331009	1050.0
138.825302	1091.0
138.998764	13360.0
139.123383	33246.0
140.065918	14202.0
140.94751	5667.0
141.085831	14043.0
142.039215	51302.0
142.968887	34933.0
143.109467	12000.0
144.033707	13524.0
144.151077	1111.0
144.948349	1958.0
145.069855	12820.0
146.043167	6636.0
146.992584	5202.0
147.097992	19152.0
148.058151	9767.0
148.95192	1564.0
149.06105	14386.0
150.061127	6836.0
150.945984	2274.0
151.074219	11703.0
151.920044	2677.0
152.068329	15328.0
152.920502	3600.0
153.057938	22067.0
153.992432	3533.0
154.095123	9496.0
154.980042	3161.0
155.09343	25571.0
156.085617	18832.0
156.904327	13732.0
157.088577	21799.0
158.072327	11432.0
158.936371	52766.0
159.096634	19305.0
159.936081	1261.0
160.066727	7063.0
160.933563	6597.0
161.076218	15224.0
162.036636	18737.0
163.040421	15570.0
163.142334	1370.0
164.067657	7159.0
164.938538	145098.0
165.080566	13874.0
166.070343	26966.0
166.939957	5113.0
167.07634	29847.0
168.046371	14193.0
168.968155	2178.0
169.094437	27447.0
170.052994	15149.0
170.938873	1917.0
171.084732	29704.0
171.59761	1178.0
171.719131	2246.0
171.964691	1861.0
172.093857	9804.0
172.40332	1275.0
173.000198	12964.0
173.108047	28988.0
174.044662	11566.0
174.147736	2230.0
174.756546	2175.0
174.903519	1791115.0
175.086227	38409.0
175.277267	4196.0
175.917114	6118.0
176.095093	9092.0
176.711685	1543.0
176.904205	279119.0
177.054657	38438.0
177.461426	1033.0
177.611542	1531.0
177.896713	1388.0
178.075531	14858.0
178.600311	1190.0
178.965439	37391.0
179.092377	12651.0
179.214951	1449.0
179.972794	3011.0
180.094498	8099.0
180.911789	303511.0
181.07637	26038.0
182.070572	11606.0
182.91925	29694.0
183.097824	37669.0
183.945496	1075.0
184.078476	21709.0
184.915649	1301.0
185.066132	29506.0
185.172455	6330.0
185.987427	2420.0
186.113968	12841.0
186.921936	89429.0
187.103485	25367.0
188.055099	14250.0
188.164673	1032.0
188.458038	1115.0
188.904953	2658.0
189.05072	24504.0
190.036758	10739.0
190.935806	11007.0
191.07341	17149.0
191.915161	1083.0
192.073456	7997.0
192.951645	7383.0
193.075394	22687.0
193.950241	1133.0
194.083862	15235.0
194.947754	5326.0
195.085312	26908.0
196.027466	13054.0
196.129379	3651.0
196.886856	586380.0
196.9944	2279.0
197.106079	25575.0
197.927933	3943.0
198.097488	11301.0
198.888763	100101.0
199.067444	27685.0
199.193115	2492.0
199.976349	9389.0
200.124542	14473.0
200.945145	112183.0
201.11618	23562.0
201.947067	2559.0
202.088791	8472.0
202.698868	1030.0
202.898514	92569.0
203.066147	49917.0
204.082581	11149.0
204.580994	1406.0
204.905594	16510.0
205.076889	13963.0
206.01355	16801.0
206.123795	3411.0
207.029861	17363.0
207.134262	6624.0
208.079269	10203.0
208.927338	4024.0
209.085144	28891.0
209.915482	1712.0
210.090454	11545.0
210.911926	1344.0
211.013351	7498.0
211.117874	18469.0
211.976242	4337.0
212.122238	12524.0
212.654297	2272.0
212.860992	757458.0
213.081375	30331.0
213.578659	1120.0
213.898285	4462.0
214.088577	16712.0
214.690262	1042.0
214.864182	185132.0
214.994904	12275.0
215.116699	16471.0
215.925415	4709.0
216.091003	13529.0
216.918945	51326.0
217.075714	22550.0
217.950546	2169.0
218.087051	8311.0
218.873627	103469.0
219.047211	16840.0
219.159927	3539.0
219.893448	2289.0
220.066544	9900.0
220.919907	73072.0
221.100006	17413.0
221.935394	2524.0
222.092224	9935.0
222.942734	27212.0
223.101868	19251.0
223.927399	2748.0
224.105743	9284.0
224.977249	8973.0
225.11496	17081.0
226.003433	3173.0
226.137039	17703.0
226.91774	11902.0
227.075638	39489.0
227.203018	1398.0
227.977585	7621.0
228.123672	15522.0
228.942764	8168.0
229.104355	18229.0
229.963257	3558.0
230.111343	9478.0
230.89888	4136.0
231.066528	27987.0
231.176224	1672.0
231.89006	5560.0
232.091476	24962.0
232.89238	19030.0
233.076187	24144.0
233.859482	1017.0
233.975983	2441.0
234.110123	7271.0
234.643707	1522.0
234.865845	90018.0
235.016617	22717.0
235.130005	12332.0
235.899902	2603.0
236.096954	7247.0
236.854446	19760.0
237.000977	8661.0
237.119232	15313.0
237.918976	3496.0
238.090714	10108.0
238.927139	18960.0
239.108932	17823.0
239.991333	3890.0
240.144852	20331.0
240.257523	1071.0
240.882141	3192.0
241.047333	18326.0
241.164734	4910.0
242.002106	2254.0
242.159149	9380.0
242.903992	9085.0
243.088928	17227.0
243.939957	3046.0
244.133026	13492.0
244.559799	1111.0
244.897842	11994.0
245.078232	23277.0
245.192642	1894.0
245.912323	2380.0
246.085068	5845.0
246.196609	1255.0
246.690125	1166.0
246.884598	3141.0
247.013626	14092.0
247.147064	5219.0
247.937378	4116.0
248.116821	5981.0
248.902512	18956.0
249.060791	47543.0
249.174316	2554.0
249.885941	16124.0
250.093857	16081.0
250.834076	17580.0
250.983215	5438.0
251.122498	19262.0
251.855606	1308.0
251.994904	3516.0
252.124756	8707.0
252.841614	6470.0
253.037338	17315.0
253.166489	7182.0
253.896622	1440.0
254.010315	2871.0
254.147186	16054.0
254.876709	54455.0
255.000885	10242.0
255.13829	11300.0
255.918243	2508.0
256.111115	11639.0
256.848053	2462.0
256.981934	21588.0
257.157684	10840.0
257.874146	1028.0
258.005676	4112.0
258.13269	11473.0
258.859497	6211.0
259.008118	11932.0
259.14267	6222.0
260.042175	4780.0
260.179718	4296.0
260.874664	21819.0
261.082153	17137.0
261.928864	2070.0
262.144379	8374.0
262.668518	1336.0
262.922455	9769.0
263.120087	11102.0
263.918365	3997.0
264.115692	6616.0
264.89035	14798.0
265.05365	15715.0
265.154388	3891.0
265.875977	1313.0
266.016632	3320.0
266.133331	8224.0
266.893982	38625.0
267.081848	18121.0
267.188507	3549.0
267.86438	1833.0
268.002625	4011.0
268.133911	10775.0
268.914795	6415.0
269.101105	15523.0
269.230713	1195.0
269.846252	2142.0
269.997803	5246.0
270.161621	9558.0
270.88385	22618.0
271.035919	9498.0
271.199768	12937.0
271.88208	3321.0
272.015198	1481.0
272.135345	9183.0
272.243591	1443.0
272.892914	13760.0
273.06543	11516.0
273.171997	3009.0
273.643463	1347.0
273.863464	1065.0
273.998871	3551.0
274.159332	9594.0
274.833374	3240.0
274.959747	7215.0
275.120667	12432.0
275.22876	1332.0
275.889648	2071.0
276.03067	3523.0
276.149017	7738.0
276.671631	1202.0
276.859955	21639.0
277.020264	6673.0
277.133118	11359.0
277.836334	2894.0
278.014191	4594.0
278.135834	5937.0
278.881317	17470.0
279.012421	4504.0
279.127441	10075.0
279.852692	2669.0
279.977356	1845.0
280.120575	6435.0
280.624542	1235.0
280.863373	6403.0
280.968658	3345.0
281.109772	9998.0
281.833588	2050.0
282.00415	2427.0
282.150146	6896.0
282.608887	1076.0
282.864624	126167.0
283.013672	6503.0
283.146667	10963.0
283.863647	2717.0
284.039185	4028.0
284.144806	8408.0
284.677673	1061.0
284.888855	28475.0
285.026794	2805.0
285.128632	13677.0
285.891174	2266.0
286.069183	15344.0
286.184418	2987.0
286.872284	13100.0
287.00589	6129.0
287.132477	12919.0
287.684113	1002.0
287.879822	4977.0
288.091675	8634.0
288.206055	2246.0
288.870789	106020.0
289.059418	12339.0
289.174194	4047.0
289.879395	1571.0
290.009766	2481.0
290.135193	6366.0
290.908691	10564.0
291.109711	15285.0
291.848236	2504.0
291.999359	5141.0
292.160645	5136.0
292.835693	20294.0
293.008972	5533.0
293.160645	13148.0
293.850006	2859.0
294.042969	2969.0
294.16629	7168.0
294.653748	1451.0
294.86084	26044.0
295.050537	6126.0
295.177917	14547.0
295.839203	5072.0
296.097107	11643.0
296.218842	1819.0
296.820251	5090.0
296.933472	15270.0
297.147919	10774.0
297.850677	4247.0
297.999481	1522.0
298.128632	8516.0
298.595764	1213.0
298.843506	155726.0
298.983398	9863.0
299.143036	9526.0
299.865875	3618.0
300.00827	2748.0
300.14563	7086.0
300.870819	86734.0
301.057404	14688.0
301.175903	6022.0
301.886353	1541.0
302.075989	10286.0
302.212616	1998.0
302.641449	1642.0
302.867737	11198.0
303.011871	2351.0
303.152527	10474.0
303.834351	2640.0
304.037598	8220.0
304.200775	98503.0
304.650269	1314.0
304.847198	171967.0
305.025452	6099.0
305.19455	27002.0
305.652252	1120.0
305.859924	3929.0
306.099884	7006.0
END IONS

BEGIN IONS
PEPMASS=324.196
CHARGE=1
MSLEVEL=2
SOURCE_INSTRUMENT=LC-ESI-qTof
FILENAME=DMIM_centroided_library_abundance_filtered.mgf
SEQ=*..*
IONMODE=Positive
ORGANISM=DMIM-DRUG-METABOLITE-LIBRARY
NAME=PIPERIDOLATE [M+H]+
PI=Libin Xu
DATACOLLECTOR=Dylan H. Ross
SMILES=CCN1CCCC(C1)OC(=O)C(C2=CC=CC=C2)C3=CC=CC=C3
INCHI=N/A
INCHIAUX=N/A
PUBMED=N/A
SUBMITUSER=jzemlin
LIBRARYQUALITY=3
SPECTRUMID=CCMSLIB00012467422
USI=mzspec:GNPS:DMIM-DRUG-METABOLITE-LIBRARY:accession:CCMSLIB00012467422
SCANS=2400
50.12989	1320.0
50.292133	1790.0
50.473984	2359.0
50.764	2177.0
51.015732	1311.0
51.282555	1913.0
51.471939	1477.0
51.648712	1646.0
51.808231	1395.0
51.964821	1994.0
52.234364	1630.0
52.723324	1657.0
52.888981	1127.0
53.053383	2862.0
53.570564	1885.0
53.762825	2001.0
53.967194	1406.0
54.357185	1860.0
54.57235	1757.0
54.738899	1706.0
54.891998	1230.0
55.053204	6739.0
55.391922	1191.0
55.666809	1736.0
55.888195	1779.0
56.050907	6753.0
56.195454	1028.0
56.341057	1244.0
56.667366	1822.0
56.928013	1064.0
57.062096	4619.0
57.436321	1155.0
57.622318	1673.0
57.833946	1398.0
58.066448	11036.0
58.272018	1516.0
58.459057	2057.0
58.647568	1426.0
58.824482	1569.0
59.004734	8357.0
59.192551	1683.0
59.469997	2023.0
59.854809	1889.0
60.052666	4184.0
60.214169	1163.0
60.379532	1646.0
60.551449	2350.0
60.718227	1597.0
60.866798	1005.0
61.0089	3451.0
61.356579	1330.0
61.57362	1723.0
61.766941	1652.0
61.997623	1917.0
62.244495	1892.0
62.430199	1409.0
62.764252	1822.0
62.979877	3485.0
63.347439	1220.0
63.536278	1259.0
63.678684	1036.0
63.861351	1637.0
64.21386	1729.0
64.412064	1811.0
64.716583	1645.0
64.98848	6419.0
65.157768	1263.0
65.435608	1848.0
65.615234	1172.0
65.795319	2014.0
65.988861	1184.0
66.160103	1094.0
66.330704	1446.0
66.710632	1613.0
67.051262	7403.0
67.297729	1466.0
67.458168	1679.0
67.636795	1048.0
68.038353	3482.0
68.33947	1183.0
68.49855	1299.0
68.699768	1656.0
68.865868	1093.0
69.047089	18918.0
69.226089	1365.0
69.406929	1975.0
69.64386	1900.0
69.864357	1693.0
70.067642	65228.0
70.375771	1406.0
70.555779	1316.0
70.755707	1292.0
71.067513	5508.0
71.281868	1642.0
71.593529	1915.0
71.832825	2143.0
72.082535	31805.0
72.385582	2136.0
72.652115	1677.0
72.833794	1435.0
73.050568	5451.0
73.234032	1897.0
73.594872	1395.0
73.77903	1365.0
74.059639	7203.0
74.274704	1737.0
74.630356	1020.0
74.806351	1042.0
75.050804	2394.0
75.499084	2229.0
75.685066	1093.0
76.026176	14678.0
76.249809	1260.0
76.584053	1294.0
76.769241	1557.0
77.042137	6221.0
77.340927	1875.0
77.616478	1062.0
77.813019	1631.0
78.059166	2896.0
78.173965	1458.0
78.332619	3483.0
78.499664	2424.0
78.720154	2311.0
79.059845	9534.0
79.23558	1885.0
79.423088	1634.0
79.693687	2164.0
79.857346	1535.0
80.054436	7565.0
80.375809	2828.0
80.602478	1022.0
80.799721	1937.0
80.930305	5154.0
81.065056	18536.0
81.25058	2518.0
81.437279	2625.0
81.63958	2242.0
81.856834	1936.0
82.059219	6408.0
82.240562	1316.0
82.54615	1275.0
82.772995	1171.0
82.926796	1566.0
83.058502	9731.0
83.316231	1800.0
83.707115	1002.0
83.84021	2485.0
84.07386	129528.0
84.364639	2189.0
84.558205	1790.0
84.739578	1363.0
84.943123	3392.0
85.065735	12567.0
85.316711	1386.0
85.494797	1023.0
85.831207	1433.0
86.098305	49525.0
86.371941	1440.0
86.56469	1130.0
86.815567	1270.0
87.059181	7937.0
87.304047	1457.0
87.481483	1590.0
87.849991	1410.0
88.023796	6576.0
88.84848	1310.0
89.031815	2657.0
89.240021	1380.0
89.453758	1122.0
90.057587	1679.0
90.390533	1426.0
90.588417	1602.0
90.824181	1605.0
91.042427	10538.0
91.306732	1229.0
91.773079	1068.0
92.024742	1270.0
92.147629	4836.0
92.558861	1237.0
92.826118	1182.0
93.072769	7149.0
93.503578	1363.0
94.063019	3416.0
94.301193	1440.0
94.601959	1171.0
94.941864	2038.0
95.0783	13016.0
95.365326	1099.0
95.697716	1249.0
96.055435	6148.0
96.232628	1199.0
96.494019	1068.0
96.91777	2659.0
97.034264	214137.0
97.291176	1038.0
97.547668	1040.0
97.716919	1400.0
97.873611	1161.0
98.035416	18867.0
98.355675	1125.0
98.563332	1510.0
99.000282	17274.0
99.117767	1251.0
99.662407	1678.0
99.869148	1950.0
100.077385	5261.0
100.26165	1188.0
100.490608	1104.0
100.690041	1366.0
100.911018	1258.0
101.064964	5906.0
101.429504	1102.0
101.63575	1052.0
101.801598	1380.0
102.058777	7198.0
102.281105	1016.0
102.872627	1164.0
103.05555	5015.0
103.333778	1095.0
104.090111	5066.0
104.685707	1579.0
104.931992	1073.0
105.073738	132321.0
105.315475	1057.0
106.075409	16517.0
106.945389	1408.0
107.074593	9991.0
107.423027	1618.0
108.054779	20437.0
108.422394	1256.0
108.970284	1233.0
109.083115	14432.0
109.581413	1293.0
109.91378	1128.0
110.075699	45997.0
110.301613	1063.0
110.662338	1311.0
110.966209	1808.0
111.067215	12775.0
111.494484	1292.0
111.663689	1279.0
111.971184	2114.0
112.111214	77706.0
112.906555	46938.0
113.060844	30962.0
113.782433	1241.0
114.044182	7727.0
114.901016	23582.0
115.080055	10266.0
116.03949	18269.0
116.896545	4604.0
117.060997	6767.0
118.052361	4945.0
118.916862	4718.0
119.050941	18515.0
120.074524	44884.0
120.95417	4657.0
121.06826	20239.0
122.06208	7499.0
122.921776	3196.0
123.062172	91148.0
124.051178	17258.0
124.743736	1297.0
124.99691	24772.0
125.108063	1734.0
126.062729	9238.0
126.731308	1013.0
126.954231	2043.0
127.061516	12040.0
127.679413	1263.0
128.090881	7868.0
128.958099	1164.0
129.106445	115062.0
129.505142	1299.0
130.078064	56843.0
130.237717	1344.0
130.90448	1707.0
131.077972	12617.0
132.067368	7903.0
133.048141	18230.0
133.555939	1179.0
134.052307	6446.0
134.950714	1560.0
135.064178	13024.0
136.068695	374339.0
136.943878	67863.0
137.074417	42856.0
137.348709	1112.0
137.64975	1143.0
137.900238	1158.0
138.072983	11713.0
138.564194	1176.0
138.947617	2643.0
139.056595	22266.0
139.922653	2240.0
140.06015	11246.0
140.951523	5083.0
141.086487	15725.0
141.32959	1087.0
142.042297	41007.0
142.966324	47135.0
143.108551	13700.0
144.028854	14369.0
144.922607	1017.0
145.064407	15521.0
146.060699	7414.0
146.990356	5261.0
147.096436	19307.0
148.074387	9638.0
149.066818	14482.0
150.065063	12699.0
150.937027	1541.0
151.059036	16981.0
151.916458	1436.0
152.0681	38621.0
152.490234	1060.0
152.914062	3005.0
153.063065	24785.0
154.071365	12534.0
154.366913	1006.0
154.991669	4839.0
155.104935	31955.0
155.954361	1466.0
156.066238	18200.0
156.909363	10817.0
157.090637	20917.0
158.07193	13200.0
158.937073	65801.0
159.095383	25764.0
159.666702	1188.0
159.949356	1203.0
160.074066	9654.0
160.937042	6483.0
161.079239	14453.0
162.035629	30424.0
162.954926	2122.0
163.075928	18061.0
163.94722	1142.0
164.070602	10092.0
164.939133	205914.0
165.078598	51403.0
165.259186	1063.0
165.944489	1410.0
166.076782	37759.0
166.951904	4398.0
167.091995	293449.0
167.979889	4921.0
168.086761	58721.0
168.968063	2296.0
169.09317	32656.0
169.721695	1116.0
170.050964	18000.0
170.172729	1418.0
170.928909	1666.0
171.087006	29805.0
171.616608	1398.0
172.075897	12233.0
173.03537	35902.0
173.13707	15983.0
174.040634	13321.0
174.14389	2807.0
174.610764	1063.0
174.766449	1949.0
174.904816	1300610.0
175.090317	29441.0
175.293213	1618.0
175.643158	1601.0
175.920883	4917.0
176.093079	8333.0
176.731293	1186.0
176.907761	209019.0
177.067657	35746.0
177.557785	1317.0
178.072906	14955.0
178.907883	9886.0
179.065186	43737.0
180.066925	12356.0
180.913437	298804.0
181.071198	40193.0
182.076141	14381.0
182.920532	28345.0
183.09256	48131.0
183.946609	1541.0
184.079391	32768.0
184.892181	1074.0
185.068069	41417.0
185.173172	7728.0
186.002716	2571.0
186.110229	16333.0
186.926331	42190.0
187.097656	30854.0
188.057465	14456.0
188.157791	1303.0
189.051941	22951.0
189.153229	2106.0
190.017242	8328.0
190.120453	1636.0
190.92836	8439.0
191.075974	25587.0
192.076309	11702.0
192.956467	8443.0
193.072235	36590.0
193.94075	1491.0
194.07547	21716.0
194.942932	2890.0
195.085663	40287.0
196.058304	16042.0
196.891266	589104.0
197.091736	41476.0
197.92305	3587.0
198.100632	11954.0
198.890396	89966.0
199.073502	32306.0
199.20015	2871.0
199.984558	19530.0
200.135651	12106.0
200.960114	52295.0
201.112534	30479.0
201.951355	3335.0
202.092651	11432.0
202.724075	1032.0
202.89682	27279.0
203.068146	50614.0
203.212311	1131.0
204.078796	15117.0
204.916412	8146.0
205.083176	19234.0
206.014755	15627.0
206.117981	3003.0
206.975296	7111.0
207.083481	29739.0
207.984955	2583.0
208.097	11686.0
208.946579	4541.0
209.084839	40348.0
209.941666	1051.0
210.082474	15446.0
210.965561	3888.0
211.095993	28378.0
211.946762	3151.0
212.108429	16581.0
212.676407	1463.0
212.862961	609352.0
213.080933	38526.0
213.889465	3077.0
214.092819	21444.0
214.86293	141490.0
215.007446	9493.0
215.112564	21405.0
215.932617	3212.0
216.094406	19126.0
216.925476	61868.0
217.065018	39785.0
218.018494	6412.0
218.143539	4171.0
218.877167	27245.0
219.071121	28824.0
219.92865	2065.0
220.070587	14464.0
220.931015	24613.0
221.099777	24349.0
221.977844	2415.0
222.091934	12378.0
222.933807	12096.0
223.084671	36787.0
223.258469	1136.0
223.978043	2274.0
224.105026	10569.0
224.984268	8003.0
225.106369	28326.0
226.016632	3460.0
226.13916	24593.0
226.897644	4675.0
227.037613	51852.0
227.160797	6187.0
227.986145	7827.0
228.133804	18433.0
228.965973	9829.0
229.107498	23000.0
229.970566	2280.0
230.114639	10758.0
230.908585	1825.0
231.062683	36423.0
231.171814	2834.0
231.912521	3920.0
232.090668	31031.0
232.904327	13723.0
233.078613	43907.0
233.189453	1426.0
233.578156	1054.0
233.897812	1462.0
234.098068	14793.0
234.873962	27606.0
234.991272	6719.0
235.102203	27992.0
235.987167	1363.0
236.100739	7721.0
236.8517	4742.0
236.991379	8328.0
237.108688	33562.0
237.936981	1632.0
238.073593	14654.0
238.181137	1517.0
238.922485	16757.0
239.092178	31388.0
240.014694	3640.0
240.130234	22970.0
240.945938	5507.0
241.084183	27050.0
242.096817	15351.0
242.199951	5215.0
242.881424	2664.0
243.008316	9583.0
243.122574	18486.0
243.98291	2165.0
244.129944	15861.0
244.906097	11390.0
245.077026	38560.0
245.92395	1404.0
246.08493	8783.0
246.191208	1451.0
246.938614	6948.0
247.092957	18938.0
247.956512	4694.0
248.119507	7190.0
248.910812	10180.0
249.086273	36940.0
249.907104	5972.0
250.10318	16532.0
250.842407	5710.0
250.974152	4430.0
251.109985	35903.0
252.009964	3362.0
252.131851	12602.0
252.842987	1834.0
253.010437	15401.0
253.126129	28174.0
253.865219	1027.0
254.014801	5034.0
254.149796	25364.0
254.904434	40936.0
255.123703	25587.0
255.914017	1637.0
256.086029	16012.0
256.187195	1597.0
256.862701	2064.0
256.993256	25287.0
257.160797	13511.0
258.003326	5498.0
258.134979	15714.0
258.856323	3140.0
258.978119	10338.0
259.112183	17343.0
259.984161	3257.0
260.135834	8248.0
260.881622	16852.0
261.024567	10242.0
261.128967	16792.0
261.908783	1069.0
262.014496	2283.0
262.13504	10848.0
262.933167	11482.0
263.12088	17710.0
264.006592	3057.0
264.128418	8468.0
264.869629	3227.0
264.972778	9314.0
265.108276	20895.0
265.980408	2747.0
266.124023	12352.0
266.899841	38553.0
267.100403	34739.0
267.923126	1208.0
268.087036	15974.0
268.197205	3979.0
268.971497	8965.0
269.130768	21892.0
269.971344	3263.0
270.135345	13901.0
270.888855	23841.0
271.039001	17651.0
271.177185	11401.0
271.692169	1007.0
272.020264	7039.0
272.156158	8555.0
272.889618	10575.0
273.073975	17473.0
273.187897	3043.0
274.066589	9988.0
274.188843	2165.0
274.825195	1052.0
274.96347	7468.0
275.137024	17514.0
275.69873	1728.0
275.872437	1638.0
276.01181	3499.0
276.154449	9418.0
276.688629	2195.0
276.858948	17917.0
277.021881	7866.0
277.14624	20026.0
277.890594	1592.0
278.075165	12457.0
278.196045	2172.0
278.898254	15686.0
279.008301	2991.0
279.124939	20797.0
280.026764	2743.0
280.153992	9102.0
280.853912	2100.0
280.971771	7115.0
281.119629	17041.0
282.067902	9950.0
282.18808	5321.0
282.865753	114855.0
283.043091	20975.0
283.164581	10413.0
283.870575	1517.0
284.070099	18596.0
284.189392	3967.0
284.895203	30257.0
285.082977	19878.0
285.184845	4944.0
285.640747	1118.0
285.901154	1705.0
286.074677	18120.0
286.182861	4279.0
286.876953	11355.0
287.01767	7023.0
287.144073	11032.0
287.653015	1580.0
287.857971	2247.0
288.013397	3478.0
288.143433	9574.0
288.876862	68991.0
288.99765	2546.0
289.115173	49784.0
289.953278	2265.0
290.116547	16623.0
290.901825	6605.0
291.117249	26389.0
291.820129	1070.0
291.959961	4222.0
292.126434	7721.0
292.834564	16713.0
293.013458	6400.0
293.160736	21666.0
294.025879	3558.0
294.161346	8460.0
294.867279	20741.0
295.021088	4954.0
295.154968	27294.0
295.905548	1432.0
296.103241	16896.0
296.2164	3127.0
296.832153	2392.0
296.953674	18298.0
297.144867	17328.0
297.975586	2466.0
298.128021	10091.0
298.236969	1005.0
298.842468	197854.0
299.008942	19979.0
299.169464	13074.0
299.855225	1817.0
300.016541	4940.0
300.147125	8716.0
300.662048	1454.0
300.86792	91196.0
301.055054	18935.0
301.176117	10428.0
301.896881	1914.0
302.064392	21366.0
302.181549	3021.0
302.863373	11020.0
303.02002	4675.0
303.157959	14745.0
303.916046	1337.0
304.079376	9348.0
304.195038	2072.0
304.690796	1266.0
304.849304	140434.0
305.009766	3520.0
305.147827	19951.0
305.868195	2740.0
306.075592	8345.0
306.191315	2713.0
306.873047	32198.0
307.042847	6160.0
307.159058	23209.0
307.983673	2067.0
308.11853	22079.0
308.283783	1497.0
308.874512	3515.0
309.021301	4070.0
309.16156	19260.0
309.85083	1401.0
310.021362	4399.0
310.164795	11438.0
310.846924	23122.0
311.023895	6661.0
311.183716	17536.0
311.885071	1720.0
312.066223	57441.0
312.199036	6994.0
312.880219	14602.0
313.074127	20117.0
313.19342	7143.0
313.926178	1729.0
314.074188	7640.0
314.198822	5443.0
314.671478	1156.0
314.815765	130709.0
314.984314	19903.0
315.171234	15677.0
315.839264	1167.0
315.995148	4393.0
316.150238	9164.0
316.841919	91134.0
317.020325	13144.0
317.186127	12480.0
317.682648	1160.0
317.887634	1452.0
318.057617	5609.0
318.178009	7383.0
318.864136	19918.0
318.977814	5443.0
319.08136	4840.0
319.187012	20296.0
319.708466	1328.0
319.922455	1962.0
320.059357	3057.0
320.184387	9266.0
320.824402	250821.0
320.95993	5099.0
321.062805	3155.0
321.174042	18233.0
321.865601	2470.0
322.064575	8192.0
322.203644	6381.0
322.849548	89060.0
323.090607	16916.0
323.215118	12626.0
323.727905	1287.0
323.913269	2823.0
324.072021	3803.0
324.192932	17311.0
324.859955	8607.0
325.058136	6436.0
325.192017	17723.0
325.875	1068.0
325.998932	3076.0
326.145752	7143.0
END IONS

BEGIN IONS
PEPMASS=287.187
CHARGE=1
MSLEVEL=2
SOURCE_INSTRUMENT=LC-ESI-qTof
FILENAME=DMIM_centroided_library_abundance_filtered.mgf
SEQ=*..*
IONMODE=Positive
ORGANISM=DMIM-DRUG-METABOLITE-LIBRARY
NAME=THONZYLAMINE [M+H]+
PI=Libin Xu
DATACOLLECTOR=Dylan H. Ross
SMILES=CN(C)CCN(CC1=CC=C(C=C1)OC)C2=NC=CC=N2
INCHI=N/A
INCHIAUX=N/A
PUBMED=N/A
SUBMITUSER=jzemlin
LIBRARYQUALITY=3
SPECTRUMID=CCMSLIB00012467849
USI=mzspec:GNPS:DMIM-DRUG-METABOLITE-LIBRARY:accession:CCMSLIB00012467849
SCANS=2827
55.045464	1828.0
56.054905	3973.0
57.057293	1392.0
58.06953	1317.0
59.000244	9713.0
60.041164	1420.0
61.007969	1187.0
62.987156	1032.0
64.983597	1608.0
67.052696	2226.0
68.056023	1083.0
69.044609	7670.0
70.067413	25766.0
71.068787	1727.0
72.085564	9724.0
73.060257	1683.0
73.950356	1617.0
74.065552	1580.0
76.026718	39347.0
77.033638	2080.0
78.029709	2402.0
79.03508	2076.0
80.053131	4342.0
80.933395	1247.0
81.060349	4182.0
82.05629	1748.0
83.056938	2448.0
84.063339	85217.0
85.052536	7144.0
86.099213	17191.0
87.040321	3322.0
88.030602	5328.0
88.985649	1295.0
91.037857	3891.0
93.064156	2476.0
94.938751	1387.0
95.073891	3592.0
96.044678	2259.0
97.033249	90742.0
98.035645	7008.0
99.010094	5553.0
100.048409	1894.0
100.425819	1062.0
101.085213	1591.0
102.058304	2147.0
103.068207	1352.0
104.07476	1334.0
105.059921	2614.0
106.04644	1011.0
107.069885	1955.0
108.055695	2856.0
109.075882	3302.0
110.075027	19676.0
111.064934	4089.0
112.068207	5496.0
112.902916	31156.0
113.046532	11318.0
114.042519	4115.0
114.899323	14185.0
115.077438	4086.0
116.029533	14660.0
116.905899	1952.0
117.053825	2889.0
118.019203	2176.0
118.941444	7038.0
119.066193	2410.0
120.071266	21244.0
121.042534	14358.0
122.050316	3139.0
122.929695	1434.0
123.061989	25738.0
124.038345	6096.0
124.963142	5057.0
125.0858	1927.0
126.059227	2618.0
126.959091	1210.0
127.059677	4137.0
128.081635	1538.0
129.105896	43606.0
130.068466	23374.0
131.072479	3655.0
132.048004	4578.0
133.039108	4318.0
134.037842	1815.0
135.051147	4001.0
136.071152	45102.0
136.939697	42423.0
137.076355	5866.0
138.073273	2718.0
139.052017	5873.0
140.064667	2895.0
140.942398	1909.0
141.083572	5738.0
142.036819	22564.0
142.972809	12731.0
143.107315	4624.0
144.029099	7927.0
145.059875	4092.0
146.052002	2933.0
147.096466	4996.0
148.064178	3016.0
149.037506	4004.0
150.058792	2357.0
151.059967	3344.0
152.070114	5034.0
153.054077	4749.0
154.074738	2021.0
155.086258	7289.0
156.050034	5329.0
156.895401	5792.0
157.105804	5345.0
158.07933	3811.0
158.93399	22112.0
159.098099	7421.0
160.070938	2471.0
160.959885	3108.0
161.075668	3340.0
162.034302	13512.0
163.050644	4032.0
164.061523	2454.0
164.939224	63098.0
165.081497	5621.0
166.066254	8537.0
167.07103	8802.0
168.048737	4631.0
169.10556	7711.0
170.058212	5707.0
170.992661	1320.0
171.096619	7176.0
172.088013	2847.0
173.075272	12406.0
174.034637	4154.0
174.904739	751762.0
175.088409	9874.0
175.922241	1890.0
176.088379	2876.0
176.904938	110332.0
177.055511	8383.0
178.077194	4336.0
178.908432	5708.0
179.034821	11188.0
180.085342	2657.0
180.913162	159636.0
181.076553	9675.0
182.088348	3190.0
182.914352	14373.0
183.103806	8873.0
184.083344	8531.0
185.070816	9761.0
185.173767	1554.0
186.117279	5977.0
186.922119	38754.0
187.091751	9985.0
188.072433	5112.0
189.043137	8673.0
190.01326	2947.0
190.916199	3336.0
191.062714	6727.0
192.074783	2341.0
193.033386	7306.0
194.075577	3141.0
194.947739	1493.0
195.088303	7686.0
196.017731	5226.0
196.13266	1299.0
196.888107	340052.0
197.015533	1264.0
197.128525	5957.0
197.913284	1356.0
198.105499	3734.0
198.888336	52461.0
199.065521	9027.0
199.998367	3777.0
200.140427	3751.0
200.942947	35040.0
201.118652	7484.0
201.949249	1091.0
202.103271	2649.0
202.898438	51651.0
203.066452	19320.0
204.087296	3543.0
204.913254	6804.0
205.08902	4805.0
206.006195	9011.0
207.069748	6868.0
208.100784	2845.0
209.091187	8499.0
210.103027	3551.0
211.003983	2999.0
211.127853	5571.0
211.997177	1082.0
212.128693	4405.0
212.86235	404367.0
213.048782	8193.0
213.151917	2306.0
213.996811	1233.0
214.111038	5527.0
214.863281	92991.0
215.005341	4365.0
215.130737	4422.0
216.01178	1266.0
216.115906	3245.0
216.884903	13037.0
217.027496	8337.0
217.129761	2585.0
218.127563	1584.0
218.872147	63401.0
219.047714	3525.0
220.083344	2053.0
220.913513	31626.0
221.107086	4786.0
221.976273	1341.0
222.117752	2898.0
222.892273	2377.0
223.005524	12000.0
223.149826	2515.0
224.018784	1384.0
224.145187	1979.0
224.983063	1341.0
225.107407	6062.0
226.142105	7711.0
226.917526	2281.0
227.076141	12004.0
228.003067	3214.0
228.149643	3901.0
228.934219	3331.0
229.11084	4918.0
230.113983	3573.0
231.078979	7190.0
231.87764	1973.0
232.088898	5795.0
232.893951	3200.0
233.07515	6653.0
234.118469	2595.0
234.860001	45685.0
235.021408	7485.0
235.132278	2651.0
236.103561	2717.0
236.849258	8348.0
236.995407	1992.0
237.115128	5050.0
237.978821	1166.0
238.13031	2635.0
238.858643	1616.0
238.978195	6470.0
239.139816	3793.0
240.144379	6973.0
240.88353	1088.0
241.005997	2176.0
241.117813	3568.0
242.164993	3210.0
242.885788	1567.0
243.06221	4301.0
243.165878	2090.0
244.14418	4153.0
244.898926	3427.0
245.079453	7547.0
246.140152	2115.0
246.913406	1554.0
247.082352	3947.0
248.120575	2193.0
248.903717	4348.0
249.061172	13277.0
249.888153	5835.0
250.101334	5228.0
250.830597	6725.0
251.000671	1760.0
251.133698	4804.0
252.136551	2224.0
252.843445	2721.0
253.046097	5908.0
253.165588	2510.0
254.004837	1402.0
254.155197	3810.0
254.873062	20317.0
255.009079	3453.0
255.141571	3033.0
256.046143	1545.0
256.1521	2103.0
256.995056	5724.0
257.167694	3750.0
257.999481	1069.0
258.136475	3940.0
258.873199	2124.0
259.095642	4319.0
260.140747	2411.0
260.880035	8489.0
261.076233	4557.0
262.145264	2205.0
262.926727	2552.0
263.116913	2585.0
264.129669	1916.0
264.890106	1991.0
265.044434	3324.0
265.16214	1511.0
266.121307	3508.0
266.895111	9867.0
267.079346	5954.0
268.045166	1472.0
268.158356	3228.0
268.877289	1555.0
269.023407	1489.0
269.142303	2772.0
270.029907	1250.0
270.174011	2526.0
270.874634	5577.0
271.058563	2774.0
271.205261	2669.0
272.156311	2690.0
272.878296	2729.0
273.062805	4476.0
274.096375	1968.0
274.841431	1698.0
274.978455	1283.0
275.15329	3182.0
276.146057	3086.0
276.857025	7183.0
277.043152	2871.0
277.162323	1973.0
278.04245	2319.0
278.88382	6224.0
279.033539	2262.0
279.157593	2641.0
280.156097	1969.0
280.858276	1574.0
280.967743	1043.0
281.123138	2095.0
282.175323	1663.0
282.866486	32206.0
283.019958	1643.0
283.157806	3315.0
284.084473	3057.0
284.879791	4480.0
285.087402	4852.0
285.199493	1270.0
286.035919	2804.0
286.169708	2550.0
286.874298	2970.0
287.025452	1328.0
287.152252	2922.0
288.092194	2334.0
288.874176	33312.0
289.059631	3887.0
END IONS

BEGIN IONS
PEPMASS=262.138
CHARGE=1
MSLEVEL=2
SOURCE_INSTRUMENT=LC-ESI-qTof
FILENAME=DMIM_centroided_library_abundance_filtered.mgf
SEQ=*..*
IONMODE=Positive
ORGANISM=DMIM-DRUG-METABOLITE-LIBRARY
NAME=METHAPYRILENE [M+H]+
PI=Libin Xu
DATACOLLECTOR=Dylan H. Ross
SMILES=CN(C)CCN(CC1=CC=CS1)C2=CC=CC=N2
INCHI=N/A
INCHIAUX=N/A
PUBMED=N/A
SUBMITUSER=jzemlin
LIBRARYQUALITY=3
SPECTRUMID=CCMSLIB00012468052
USI=mzspec:GNPS:DMIM-DRUG-METABOLITE-LIBRARY:accession:CCMSLIB00012468052
SCANS=3030
55.046833	2089.0
56.051754	4501.0
57.022686	2147.0
58.06654	1857.0
58.999191	24549.0
60.040466	1663.0
61.005424	2017.0
62.993183	1177.0
67.054398	2539.0
68.057007	1034.0
69.044479	5111.0
70.067429	18231.0
71.052948	2708.0
72.08448	6569.0
73.032982	2728.0
74.058151	2404.0
76.026123	101953.0
77.034958	5078.0
78.026131	5659.0
78.442726	1322.0
79.01548	4243.0
80.053925	11183.0
80.903381	1268.0
81.056374	5547.0
82.057922	1726.0
83.050232	5147.0
84.055367	138583.0
85.04808	9694.0
86.088654	10352.0
87.004387	4966.0
88.027802	9874.0
89.030052	1141.0
91.054901	6542.0
92.037628	1495.0
93.069778	5462.0
94.063705	1954.0
94.940681	2366.0
95.070137	3905.0
96.052269	3228.0
97.027382	29436.0
98.02169	5954.0
98.998863	11655.0
100.032196	1906.0
101.063248	1423.0
102.059349	2826.0
103.052017	1874.0
104.095261	1721.0
105.074486	36901.0
106.067963	3783.0
107.04985	3054.0
108.056145	6136.0
109.05867	4228.0
110.068985	12803.0
111.010918	6960.0
112.062851	6576.0
112.903732	64287.0
113.044006	6544.0
114.033783	6347.0
114.899559	27690.0
115.080032	4051.0
116.025337	27885.0
116.892883	2672.0
117.049034	4512.0
118.035286	2632.0
118.929306	19520.0
119.065933	12869.0
120.057831	14928.0
120.949791	1744.0
121.062889	9384.0
122.044739	4024.0
122.924347	2659.0
123.05854	20259.0
124.037437	6371.0
125.002968	15781.0
126.048271	2835.0
127.024765	7273.0
128.056885	2759.0
128.966675	1017.0
129.104034	29985.0
130.063812	33824.0
131.073044	7004.0
132.04245	4350.0
133.042618	3145.0
134.075119	1574.0
135.055511	4413.0
136.069031	57152.0
136.939865	94348.0
137.075073	7782.0
138.056946	2910.0
139.022751	6749.0
140.027267	4701.0
140.931747	1885.0
141.045471	11883.0
142.038666	46807.0
142.986511	12900.0
143.113327	3391.0
144.024109	21257.0
145.064224	5598.0
146.044464	3632.0
146.992355	1006.0
147.097031	6408.0
148.060455	3025.0
149.042664	4715.0
150.056747	5322.0
151.047531	3854.0
151.922119	1497.0
152.065338	6619.0
152.941254	5241.0
153.064682	6513.0
154.059082	3918.0
155.068619	8627.0
156.043045	6189.0
156.897888	7103.0
157.080215	4618.0
158.077637	4589.0
158.932632	27449.0
159.091965	4782.0
160.040787	2705.0
160.952438	4010.0
161.090378	2750.0
162.031448	32417.0
163.036392	6500.0
164.046631	3936.0
164.93837	111332.0
165.073288	7779.0
166.058823	9744.0
166.94455	2146.0
167.072189	8934.0
167.966461	1414.0
168.070969	3603.0
168.890137	1416.0
169.085602	6668.0
169.890762	1365.0
170.041199	7828.0
171.062775	5953.0
172.055191	3378.0
173.066299	10809.0
174.031784	4583.0
174.904587	818265.0
175.083588	9090.0
175.916153	1777.0
176.089462	3171.0
176.904465	122014.0
177.057388	7565.0
178.070679	3355.0
178.902451	5758.0
179.056458	12819.0
180.071701	3626.0
180.913086	327027.0
181.059464	8551.0
181.924759	1243.0
182.065399	2829.0
182.915527	26791.0
183.093246	6581.0
184.074844	4853.0
184.892365	1152.0
185.039581	15051.0
185.152466	1604.0
186.110107	6588.0
186.922104	55923.0
187.076065	13895.0
188.04892	4417.0
189.040634	8842.0
190.045593	2769.0
190.90596	1633.0
191.052612	5546.0
192.068665	2348.0
192.988998	6567.0
193.10733	2206.0
194.078766	3132.0
194.952499	1017.0
195.076782	6813.0
196.015625	5910.0
196.134766	1260.0
196.887604	517230.0
197.009964	1390.0
197.116684	5518.0
197.899734	1930.0
198.084808	2473.0
198.887451	81020.0
199.061554	8115.0
199.993546	4447.0
200.131332	1915.0
200.90332	6227.0
201.044388	12396.0
201.924454	1131.0
202.072479	3318.0
202.896469	139813.0
203.067657	14724.0
204.072311	5455.0
204.899826	13110.0
205.076599	4518.0
206.002502	10710.0
207.016418	4354.0
207.12677	1196.0
208.017487	2781.0
208.141632	1075.0
208.966537	1046.0
209.082367	5576.0
210.084366	3038.0
211.033157	4754.0
211.144958	2611.0
212.092911	3305.0
212.862335	563297.0
213.048141	10252.0
213.154083	1484.0
213.880447	2372.0
214.075058	6545.0
214.862823	127292.0
215.048141	8485.0
216.085342	4058.0
216.886856	17624.0
217.063583	6959.0
217.941467	1395.0
218.117401	1525.0
218.871414	171598.0
219.050217	5135.0
219.925171	1141.0
220.078995	3076.0
220.885803	31619.0
221.07135	5154.0
221.96994	1437.0
222.098129	2886.0
222.874451	1990.0
223.015015	12434.0
223.156326	1781.0
224.100784	2408.0
225.042633	5920.0
225.175339	1671.0
226.105164	7750.0
226.885162	2361.0
227.054001	11241.0
227.99173	3114.0
228.133621	2222.0
228.99144	3772.0
229.113113	2467.0
230.089447	2317.0
230.886093	1881.0
231.056519	6706.0
231.876602	3866.0
232.077072	5655.0
232.890335	5438.0
233.065674	8528.0
233.928741	1035.0
234.081238	3378.0
234.849533	77052.0
235.072754	4460.0
236.087311	2398.0
236.845871	15722.0
237.054214	3750.0
238.083282	3234.0
238.885452	5430.0
239.034439	5699.0
239.146652	2154.0
240.016632	1287.0
240.150772	3613.0
240.873749	2288.0
241.015869	2047.0
241.140045	1718.0
242.046783	1285.0
242.161407	1862.0
242.883942	2440.0
243.062225	3880.0
244.120499	3155.0
244.900208	3110.0
245.068314	8267.0
245.898529	1202.0
246.084625	2269.0
246.906982	2328.0
247.06778	3255.0
248.146011	1562.0
248.888916	1208.0
249.043716	3654.0
249.886627	3669.0
250.095383	3925.0
250.828293	8758.0
251.083038	4439.0
252.084381	2984.0
252.835403	3209.0
253.029297	5661.0
253.166809	1782.0
254.019119	1705.0
254.146576	2274.0
254.861496	10162.0
255.045013	4176.0
256.062195	3974.0
256.884674	1811.0
257.04306	5445.0
258.062469	2538.0
258.875244	3943.0
259.025696	2092.0
259.151672	1235.0
260.017761	1530.0
260.196655	1643.0
260.877441	9228.0
261.062622	6099.0
261.980316	1438.0
262.133087	2921.0
262.888519	1700.0
263.081421	2840.0
264.083405	1041.0
END IONS

BEGIN IONS
PEPMASS=326.142
CHARGE=1
MSLEVEL=2
SOURCE_INSTRUMENT=LC-ESI-qTof
FILENAME=DMIM_centroided_library_abundance_filtered.mgf
SEQ=*..*
IONMODE=Positive
ORGANISM=DMIM-DRUG-METABOLITE-LIBRARY
NAME=CLEMIZOLE [M+H]+
PI=Libin Xu
DATACOLLECTOR=Dylan H. Ross
SMILES=C1CCN(C1)CC2=NC3=CC=CC=C3N2CC4=CC=C(C=C4)Cl
INCHI=N/A
INCHIAUX=N/A
PUBMED=N/A
SUBMITUSER=jzemlin
LIBRARYQUALITY=3
SPECTRUMID=CCMSLIB00012468157
USI=mzspec:GNPS:DMIM-DRUG-METABOLITE-LIBRARY:accession:CCMSLIB00012468157
SCANS=3135
55.054424	12914.0
56.052185	9487.0
57.06152	5707.0
58.06274	3062.0
59.00975	6606.0
61.011234	1368.0
62.991631	1871.0
65.021347	3314.0
67.054886	10717.0
68.053154	2481.0
69.046463	18085.0
70.06572	25707.0
71.050827	4268.0
72.083397	17981.0
73.054405	3716.0
74.062119	2386.0
76.025925	13919.0
77.03849	8011.0
78.035492	1500.0
79.052719	8323.0
80.052597	12299.0
80.951233	1385.0
81.068146	17645.0
82.066956	11337.0
82.527496	1200.0
83.053741	9623.0
84.084732	1298155.0
84.281731	30862.0
84.820305	9148.0
84.955994	3086.0
85.081627	76378.0
85.427582	2336.0
86.092728	17664.0
87.023987	3978.0
88.042694	8869.0
89.045784	6376.0
90.042953	1995.0
91.056679	36610.0
92.054123	5887.0
93.069756	10937.0
94.066452	2333.0
94.977463	2260.0
95.079552	25088.0
96.064781	7013.0
97.034149	185443.0
98.039352	16076.0
99.020958	15996.0
100.114395	94036.0
101.098946	7659.0
102.106407	9152.0
103.043365	3935.0
104.062607	2876.0
105.067795	20514.0
106.072815	3985.0
107.081169	16142.0
108.065979	7643.0
109.081467	30438.0
110.072472	18526.0
111.057724	21706.0
112.04464	11438.0
113.038147	26994.0
114.050301	8875.0
115.064545	7486.0
116.034485	15989.0
117.060684	6616.0
118.065681	2316.0
118.929718	4900.0
119.066635	20572.0
120.073723	17899.0
120.971138	15989.0
121.087242	26977.0
122.073662	8666.0
123.065575	83812.0
124.054405	13522.0
125.017319	462619.0
125.143913	1069.0
126.056259	52807.0
127.019989	133788.0
128.033417	11377.0
129.101501	38549.0
130.061523	42012.0
131.066406	37229.0
132.068741	8280.0
133.058487	21553.0
134.076553	7315.0
135.071091	26462.0
136.067184	148757.0
136.949844	37536.0
137.077576	43066.0
138.068207	11811.0
139.045929	37830.0
140.055984	6949.0
140.943039	7247.0
141.080658	9350.0
142.038086	92515.0
142.972672	42014.0
143.084351	13148.0
144.049774	19609.0
145.078354	11939.0
146.069611	3988.0
147.077667	18167.0
148.064941	9244.0
148.975357	2326.0
149.08342	20734.0
150.059113	7393.0
151.076431	21772.0
152.066528	13328.0
152.912094	1526.0
153.059036	30360.0
154.087952	69118.0
154.957047	1789.0
155.079605	25276.0
155.980331	1014.0
156.094467	9158.0
156.887833	4413.0
157.060226	18531.0
158.106857	7644.0
158.937286	13992.0
159.097214	17551.0
160.044067	20012.0
160.936203	3022.0
161.087463	18912.0
162.041458	17135.0
162.143631	1057.0
162.937912	2732.0
163.081528	37626.0
164.078918	11768.0
164.941544	40358.0
165.076477	26664.0
166.067352	16659.0
167.064713	27666.0
168.065048	9173.0
169.069702	21118.0
170.048325	14653.0
171.081589	37802.0
172.08847	8340.0
173.006332	7468.0
173.107315	17150.0
173.982315	1131.0
174.085724	5954.0
174.912109	27112.0
175.08757	20550.0
176.081924	6539.0
176.937576	7262.0
177.066162	37949.0
178.080673	9581.0
178.952393	5218.0
179.085281	50305.0
180.061996	16428.0
180.911942	28331.0
181.078903	48893.0
182.081879	10595.0
182.915344	3199.0
183.075546	36678.0
184.063751	13667.0
184.201904	11545.0
185.063446	18508.0
185.179779	3757.0
185.971313	1344.0
186.088791	6776.0
186.226562	109241.0
186.93367	8370.0
187.084412	11595.0
187.209335	18105.0
188.052216	10162.0
188.200073	1958.0
188.935638	1807.0
189.08049	16511.0
189.972992	1151.0
190.08757	5229.0
190.942535	3043.0
191.079926	30273.0
191.921387	1909.0
192.082581	9157.0
192.950638	7096.0
193.08374	51468.0
194.087875	14190.0
194.944031	3612.0
195.089249	38294.0
195.952164	1205.0
196.084641	9637.0
196.912567	30113.0
197.08876	72607.0
197.960648	1368.0
198.092743	11930.0
198.914337	15065.0
199.078491	20147.0
199.191605	1093.0
199.96962	5237.0
200.107162	19715.0
200.940277	129583.0
201.111618	16201.0
201.962616	3175.0
202.096252	6466.0
202.913437	5393.0
203.083954	28289.0
204.08609	9930.0
204.912994	7874.0
205.089752	24817.0
206.065384	12462.0
206.958923	3699.0
207.091232	32666.0
208.096695	8538.0
208.920334	2122.0
209.085983	71217.0
210.090073	13581.0
210.96225	2513.0
211.090958	27262.0
211.939041	1161.0
212.101868	9187.0
212.871368	11444.0
212.995117	2279.0
213.103149	19646.0
214.088409	10194.0
214.877396	5575.0
215.029861	25464.0
215.155045	3711.0
215.890228	1111.0
216.049408	8326.0
216.167618	1547.0
216.922318	58517.0
217.075272	22099.0
217.963425	1884.0
218.089401	13756.0
218.944672	7535.0
219.100281	482242.0
219.254715	4509.0
219.496796	2522.0
219.965424	2038.0
220.107071	504848.0
220.268555	7202.0
220.374146	1201.0
220.500412	2429.0
220.927368	12714.0
221.109863	106298.0
221.281189	1572.0
221.960434	1746.0
222.108002	14604.0
222.922806	27901.0
223.09729	49946.0
223.948364	1334.0
224.101959	9936.0
224.946228	3991.0
225.098099	31351.0
226.014343	2631.0
226.126099	10458.0
226.904587	4549.0
227.07338	30267.0
227.945602	1843.0
228.099533	12383.0
228.945145	4457.0
229.092667	16625.0
229.979568	1182.0
230.118805	5746.0
230.899109	4126.0
231.066452	28831.0
231.180176	1471.0
231.924927	2180.0
232.089539	9083.0
232.888321	16139.0
232.997147	2277.0
233.105728	29884.0
233.9599	3666.0
234.11055	7181.0
234.864395	2044.0
235.028336	29281.0
235.133301	21954.0
235.979904	1163.0
236.100647	13671.0
236.865845	1790.0
236.980377	4226.0
237.112595	44008.0
237.978928	1888.0
238.098572	11889.0
238.930618	16425.0
239.096985	32343.0
240.064301	17728.0
240.217239	11256.0
240.892822	4278.0
241.072342	17591.0
241.205887	2757.0
242.069489	8207.0
242.235168	4604.0
242.899094	5167.0
243.08812	18275.0
243.232269	1808.0
243.974716	2832.0
244.113495	7321.0
244.90332	8502.0
245.088165	27102.0
245.91658	1482.0
246.084854	5897.0
246.95195	6541.0
247.120697	15208.0
247.940231	2194.0
248.114594	5589.0
248.923813	5815.0
249.075516	59659.0
249.179138	4842.0
249.907089	1482.0
250.085907	11948.0
250.201111	1527.0
250.870682	1586.0
250.991043	3643.0
251.114471	49486.0
251.995987	1850.0
252.103729	13230.0
252.902878	2011.0
253.075607	116825.0
253.182816	3444.0
253.917953	1775.0
254.075378	54172.0
254.202728	1371.0
254.869263	12452.0
255.079193	459690.0
255.242294	4458.0
255.516449	2177.0
255.927536	1668.0
256.081177	82327.0
256.261414	3214.0
256.900574	5987.0
257.068604	152834.0
257.213531	2310.0
257.928131	1287.0
258.063354	34362.0
258.865448	2538.0
258.990326	6325.0
259.12027	11972.0
259.965942	2783.0
260.134094	5037.0
260.885101	8496.0
261.016632	3935.0
261.134857	16222.0
261.969025	2494.0
262.136078	5798.0
262.913513	4616.0
263.137299	19073.0
263.957703	3442.0
264.134491	6223.0
264.943481	7788.0
265.122467	26057.0
266.086121	19069.0
266.226929	1201.0
266.907684	8228.0
267.010376	1321.0
267.114838	45542.0
268.078278	12301.0
268.202911	2273.0
268.892151	1863.0
269.001373	4199.0
269.133301	21139.0
269.981384	3336.0
270.138245	6801.0
270.32663	160769.0
270.510864	2669.0
270.797455	3188.0
270.975464	6156.0
271.129059	12154.0
271.328033	34063.0
271.690735	1639.0
271.874542	1112.0
271.99231	2310.0
272.140076	4942.0
272.323212	2611.0
272.898102	6052.0
273.007751	3542.0
273.138763	11886.0
273.935852	1813.0
274.107239	6507.0
274.262573	1545.0
274.950775	4592.0
275.14267	17971.0
275.911743	1220.0
276.030853	1835.0
276.159119	5025.0
276.864929	6275.0
277.00351	2708.0
277.150024	24940.0
277.965881	3138.0
278.146576	6592.0
278.881622	5444.0
279.005066	1262.0
279.141663	23219.0
279.996155	2916.0
280.15451	6391.0
280.922272	3908.0
281.128601	20617.0
281.998016	4575.0
282.14801	5360.0
282.867981	12696.0
283.004425	3058.0
283.128235	19170.0
283.963745	1844.0
284.089874	11866.0
284.213806	1022.0
284.326019	1143.0
284.905121	5208.0
285.125305	10860.0
285.92691	1222.0
286.053467	16252.0
286.193481	1682.0
286.851196	1437.0
286.961731	4811.0
287.136414	12598.0
287.965546	2228.0
288.135101	4992.0
288.878815	12920.0
289.010406	2539.0
289.157227	17079.0
289.983856	3075.0
290.141998	5105.0
290.900726	1792.0
291.034363	3094.0
291.154144	26544.0
291.925232	1097.0
292.039917	1486.0
292.161407	5743.0
292.839905	2117.0
292.985291	2896.0
293.157227	29647.0
294.007538	1532.0
294.153107	8446.0
294.871277	5425.0
294.994934	2977.0
295.152954	25020.0
295.979492	3523.0
296.150116	7210.0
296.825317	1209.0
296.956299	10849.0
297.146667	11751.0
297.954712	2112.0
298.138	4251.0
298.335419	1544.0
298.897095	23760.0
299.1427	7644.0
299.958344	2790.0
300.094574	2279.0
300.196167	1781.0
300.885193	9415.0
301.021454	3035.0
301.147339	9630.0
301.904388	1786.0
302.054291	10450.0
302.203094	1459.0
302.910278	4687.0
303.049835	2017.0
303.166534	14102.0
303.872467	1729.0
304.026642	8479.0
304.178009	3785.0
304.855835	9597.0
305.020142	3548.0
305.172607	22167.0
305.947937	2692.0
306.165161	6140.0
306.883209	4821.0
307.026733	1296.0
307.162079	28408.0
308.008301	11133.0
308.172974	6796.0
308.85614	1555.0
308.994934	3333.0
309.161987	23639.0
309.983856	3173.0
310.164368	6765.0
310.844971	3373.0
310.998535	5669.0
311.161011	15073.0
311.93634	1583.0
312.064819	13887.0
312.199585	2918.0
312.941772	7551.0
313.065277	3027.0
313.179962	8651.0
314.057129	4681.0
314.200806	3000.0
314.814026	5060.0
314.966125	9183.0
315.164764	9578.0
315.993835	2640.0
316.165466	3824.0
316.847992	6379.0
317.003784	3706.0
317.178833	15353.0
317.896057	1100.0
318.029449	1411.0
318.188904	5828.0
318.826202	1557.0
318.939636	7644.0
319.172394	23968.0
319.946167	2417.0
320.18573	6824.0
320.83255	9996.0
320.953094	2377.0
321.171356	23036.0
321.964111	2285.0
322.170898	5328.0
322.85733	7752.0
323.009766	1829.0
323.176697	25253.0
323.952881	4676.0
324.149719	13543.0
324.864624	2840.0
325.00705	2045.0
325.16391	16546.0
325.988678	5138.0
326.154541	12806.0
326.901245	3728.0
327.104095	31181.0
327.238678	6608.0
328.067535	9254.0
END IONS

BEGIN IONS
PEPMASS=354.207
CHARGE=1
MSLEVEL=2
SOURCE_INSTRUMENT=LC-ESI-qTof
FILENAME=DMIM_centroided_library_abundance_filtered.mgf
SEQ=*..*
IONMODE=Positive
ORGANISM=DMIM-DRUG-METABOLITE-LIBRARY
NAME=PIPENZOLATE [M]+
PI=Libin Xu
DATACOLLECTOR=Dylan H. Ross
SMILES=CC[N+]1(CCCC(C1)OC(=O)C(C2=CC=CC=C2)(C3=CC=CC=C3)O)C
INCHI=N/A
INCHIAUX=N/A
PUBMED=N/A
SUBMITUSER=jzemlin
LIBRARYQUALITY=3
SPECTRUMID=CCMSLIB00012468712
USI=mzspec:GNPS:DMIM-DRUG-METABOLITE-LIBRARY:accession:CCMSLIB00012468712
SCANS=3690
55.054028	3388.0
56.054832	2488.0
57.065678	5408.0
58.068855	15779.0
59.017914	3634.0
60.082779	11090.0
63.003288	1357.0
65.037216	6237.0
67.058167	51561.0
68.05674	4482.0
69.060181	7869.0
70.067986	25054.0
71.064354	2770.0
72.08532	501757.0
72.323395	1291.0
73.083397	17282.0
74.067207	1739.0
76.027046	8764.0
77.042831	52544.0
78.045372	3116.0
79.055229	5568.0
80.049828	4806.0
80.949203	1041.0
81.066994	9155.0
82.069633	13849.0
83.061401	6906.0
84.071762	55048.0
85.066544	22016.0
86.095352	13255.0
87.045433	3195.0
88.049789	4424.0
89.054703	2702.0
91.05822	17532.0
92.063606	1308.0
93.07061	6862.0
94.069611	2647.0
95.081528	16552.0
96.084785	27503.0
97.06337	74439.0
98.100685	181769.0
98.977158	4070.0
99.089851	16490.0
100.084801	3247.0
101.06852	2563.0
102.108635	5839.0
103.056023	3659.0
104.08709	2002.0
105.046303	438871.0
105.160545	2204.0
105.31694	1260.0
106.051956	28933.0
107.08223	11514.0
108.073074	5806.0
109.090538	20511.0
110.079124	12977.0
111.07666	16334.0
112.000832	1082.0
112.109634	18626.0
113.052177	10354.0
114.095207	48055.0
115.093292	12715.0
116.0765	20177.0
117.07029	5069.0
118.064026	1534.0
118.93293	1313.0
119.071365	11991.0
120.078766	10855.0
120.97551	2839.0
121.08696	22165.0
122.078323	9288.0
123.06456	70898.0
124.09481	19929.0
124.98188	11706.0
125.088097	8831.0
126.131882	248586.0
126.999832	2453.0
127.127312	23376.0
128.146973	71146.0
129.112411	29976.0
130.069504	22505.0
131.079071	6871.0
132.082199	2108.0
133.060074	17065.0
134.075638	4004.0
135.081909	15348.0
136.06958	162303.0
136.937607	14045.0
137.072968	47628.0
138.073349	7716.0
139.053696	29404.0
140.059219	6000.0
140.943542	2109.0
141.073608	7917.0
141.453903	6802.0
142.07402	58423.0
142.461456	1008.0
142.974503	16604.0
143.108078	8040.0
143.417679	1188.0
143.647598	1685.0
143.837616	2927.0
144.005478	9221.0
144.148834	3059198.0
144.304596	405803.0
144.449539	133502.0
145.016754	69898.0
145.147858	777820.0
145.269577	34384.0
145.814346	11946.0
145.948532	113337.0
146.124771	48370.0
146.541367	1121.0
146.663727	9095.0
146.782883	59788.0
146.963333	4581.0
147.097397	11040.0
147.438965	1243.0
147.582565	31297.0
147.698593	3716.0
148.077118	4649.0
148.396561	14908.0
148.499878	2186.0
148.974884	1419.0
149.099838	17211.0
149.253143	3792.0
150.067719	6273.0
151.080627	16114.0
152.070877	8360.0
153.064621	22440.0
154.091156	48360.0
155.082214	20901.0
156.077209	6682.0
156.911514	2368.0
157.079666	8957.0
158.092407	4703.0
158.942749	8111.0
159.10112	11414.0
160.061386	8068.0
160.944168	1464.0
161.092651	14043.0
162.040009	18427.0
163.084	24624.0
164.083893	8287.0
164.945969	28909.0
165.077362	35659.0
166.081253	22344.0
166.953613	1024.0
167.089417	69841.0
168.08139	12495.0
169.071243	17527.0
170.047592	8236.0
171.082901	14417.0
172.138947	58905.0
173.014023	7627.0
173.122025	14843.0
174.084442	4850.0
174.911316	14487.0
175.098145	14222.0
176.104004	3927.0
176.93103	3054.0
177.080002	29161.0
178.091141	8355.0
178.956467	1703.0
179.087845	50101.0
180.079575	10852.0
180.917923	17707.0
181.08194	48777.0
182.087524	8437.0
182.929642	2047.0
183.088394	271912.0
184.092361	38522.0
184.216827	3844.0
185.072739	16467.0
185.184082	2365.0
186.094604	4968.0
186.229156	45104.0
186.934814	5970.0
187.082947	11054.0
187.208694	8296.0
188.066818	7022.0
189.088394	11387.0
189.982132	1104.0
190.084625	3495.0
190.944107	1375.0
191.085129	28801.0
192.084488	6856.0
192.953217	2508.0
193.088898	49184.0
194.087555	13858.0
194.968689	1604.0
195.09642	37834.0
195.994461	1209.0
196.09668	7277.0
196.91272	18052.0
197.092148	82095.0
198.100098	9416.0
198.899979	5093.0
199.070633	16514.0
199.19603	1153.0
199.975571	5410.0
200.103989	14110.0
200.95311	20683.0
201.114517	11321.0
201.969238	1468.0
202.106934	4197.0
202.918121	1922.0
203.097397	19826.0
204.104385	5221.0
204.928421	2080.0
205.098297	21949.0
206.093399	6017.0
206.983612	1688.0
207.099731	30205.0
208.106705	6641.0
208.945923	1599.0
209.089615	69353.0
210.097275	11455.0
210.974823	1291.0
211.101364	25885.0
212.107208	7645.0
212.248962	1604.0
212.869736	7696.0
212.999084	1358.0
213.102356	15769.0
214.099625	6285.0
214.885513	2369.0
215.04834	14206.0
215.158463	2309.0
216.076385	7213.0
216.924606	35127.0
217.089081	16704.0
217.954178	1152.0
218.091629	4357.0
218.955933	3895.0
219.111008	17545.0
220.105362	4830.0
220.941925	6389.0
221.113434	30470.0
222.109772	7530.0
222.939438	6120.0
223.10199	46896.0
223.974701	1018.0
224.105072	8327.0
224.926682	1286.0
225.097626	29241.0
226.124893	8895.0
226.898239	2522.0
227.054855	18354.0
227.16507	3034.0
228.003799	1746.0
228.139557	5502.0
229.087418	12718.0
230.112946	3934.0
230.919724	1364.0
231.06897	19247.0
231.178558	1504.0
232.096008	7328.0
232.893555	5714.0
233.09761	34599.0
233.970047	1344.0
234.11412	6287.0
234.994873	4632.0
235.122681	29612.0
235.983887	1301.0
236.125763	6435.0
236.989548	2720.0
237.119568	41251.0
237.982727	1292.0
238.112106	9096.0
238.92894	9644.0
239.109177	29552.0
240.083023	8465.0
240.233002	8911.0
240.936401	2602.0
241.096252	14304.0
241.238876	1456.0
242.095688	5820.0
242.237503	3891.0
242.894043	2180.0
243.013718	3095.0
243.129959	8141.0
243.996094	1651.0
244.132004	3946.0
244.909958	5134.0
245.087585	18760.0
245.202499	1146.0
245.955917	1417.0
246.115479	4024.0
246.94165	2481.0
247.114777	13408.0
248.03006	1475.0
248.163467	5304.0
248.952408	4138.0
249.118866	32687.0
249.583023	1162.0
249.950928	1201.0
250.117523	7712.0
251.000259	2651.0
251.122604	50477.0
251.99086	1173.0
252.127014	8989.0
253.004562	4925.0
253.131836	31995.0
254.006241	1732.0
254.144608	8423.0
254.864746	7846.0
254.995911	2603.0
255.128464	24443.0
256.096802	7552.0
256.248627	2549.0
256.875854	1094.0
257.00116	11224.0
257.139404	5803.0
258.033875	7274.0
258.163269	2730.0
258.855927	1175.0
258.982819	4941.0
259.129547	9708.0
259.913971	1065.0
260.100128	3942.0
260.895294	5951.0
261.024841	2676.0
261.142761	19395.0
261.976746	1818.0
262.144562	4790.0
262.932983	3359.0
263.140778	21529.0
263.969971	1440.0
264.137939	5361.0
264.956482	3771.0
265.130005	27874.0
265.99881	1635.0
266.147217	6947.0
266.909851	5921.0
267.014221	1429.0
267.129333	42617.0
268.001801	1027.0
268.116699	10756.0
268.28421	2088.0
269.002014	3358.0
269.143188	23772.0
269.996094	1531.0
270.146271	5245.0
270.329895	97126.0
270.510681	1450.0
270.795105	1674.0
270.982727	5800.0
271.126801	14648.0
271.330963	21262.0
272.008453	1583.0
272.139923	4028.0
272.331604	1863.0
272.882843	3840.0
273.019012	2957.0
273.142334	11496.0
274.004395	1741.0
274.120148	2802.0
274.269562	1997.0
274.904602	1546.0
275.026581	2766.0
275.157684	15247.0
276.009125	1137.0
276.153503	5422.0
276.873322	3930.0
277.016754	3076.0
277.151886	26697.0
277.998077	2689.0
278.144897	6883.0
278.908478	2659.0
279.016846	1022.0
279.147583	26008.0
279.986115	1287.0
280.151917	7305.0
280.967133	2972.0
281.138824	23395.0
281.990295	2209.0
282.137054	5332.0
282.876495	6085.0
283.010071	3390.0
283.130493	20434.0
284.073242	7001.0
284.181427	2211.0
284.338348	5179.0
284.890869	2086.0
285.007355	1669.0
285.124207	11345.0
285.324036	1100.0
286.067047	9734.0
286.183685	1356.0
286.990173	4922.0
287.150909	10401.0
288.019501	3235.0
288.155762	2565.0
288.885864	7837.0
289.140778	19463.0
289.249664	1426.0
290.02771	1325.0
290.155792	4470.0
290.917786	1069.0
291.033478	2372.0
291.158905	25249.0
292.172333	5595.0
292.840363	1203.0
292.994873	2119.0
293.157806	27809.0
294.01413	1410.0
294.154877	7421.0
294.885925	3023.0
295.004578	1402.0
295.158691	28383.0
295.983734	1798.0
296.157806	6834.0
296.960999	5019.0
297.144135	12489.0
297.98584	1362.0
298.148224	3513.0
298.356628	4020.0
298.827179	2337.0
298.940582	9092.0
299.146301	9415.0
299.358948	1094.0
300.077423	3490.0
300.200775	1171.0
300.877014	3966.0
301.007996	3513.0
301.15451	8300.0
302.063202	8877.0
302.205536	1766.0
302.884399	1931.0
303.027466	2035.0
303.165192	14442.0
304.006378	2130.0
304.15567	4517.0
304.868561	4951.0
305.032318	1590.0
305.177582	22040.0
306.040253	1010.0
306.176971	5105.0
306.900299	3008.0
307.035187	1626.0
307.168854	27487.0
307.948669	1188.0
308.12442	8862.0
308.229431	1036.0
308.99704	2502.0
309.171417	24745.0
310.004395	1966.0
310.176483	5986.0
310.870697	1666.0
311.022186	3717.0
311.174866	15231.0
311.93988	1219.0
312.073914	12390.0
312.19693	1976.0
312.925751	4212.0
313.08548	8452.0
313.201447	5637.0
314.06604	2905.0
314.195007	2282.0
314.813568	3316.0
314.976257	7184.0
315.173035	7591.0
315.986237	2236.0
316.159973	3479.0
316.850616	2835.0
317.018433	3793.0
317.191956	14705.0
318.031647	1726.0
318.179382	4823.0
318.946289	4160.0
319.075928	1425.0
319.191376	23565.0
319.955444	1579.0
320.198334	5834.0
320.848572	5760.0
320.952698	2633.0
321.179413	22068.0
321.967743	1414.0
322.167847	5130.0
322.867981	3865.0
323.046967	2231.0
323.181641	26055.0
323.965149	1886.0
324.17627	5526.0
324.884644	1450.0
325.019531	1292.0
325.171173	17603.0
326.00296	2479.0
326.178894	4517.0
326.923157	1910.0
327.109375	18871.0
327.234375	5494.0
328.065552	7536.0
328.213196	3524.0
328.892395	3839.0
329.020233	5440.0
329.182861	8765.0
329.897095	1239.0
330.086121	15468.0
330.223022	1497.0
330.77243	1447.0
330.940521	2565.0
331.066376	3036.0
331.192444	15831.0
331.912415	1062.0
332.073792	10380.0
332.217957	2868.0
332.867645	2171.0
333.057251	3331.0
333.197815	22564.0
334.062012	6733.0
334.218628	5444.0
334.874908	2744.0
335.039001	3015.0
335.196899	25299.0
336.013031	2206.0
336.209656	19321.0
336.817444	3532.0
336.956543	2509.0
337.083618	1220.0
337.192352	22774.0
338.003754	2250.0
338.193329	6226.0
338.843811	4289.0
338.97757	1444.0
339.18631	12595.0
340.042664	1179.0
340.184845	4392.0
340.878876	3451.0
341.008789	1519.0
341.184235	9694.0
342.006836	1026.0
342.192352	3550.0
342.881012	2124.0
343.020508	1101.0
343.192291	10501.0
344.027954	3281.0
344.192749	2624.0
344.911011	3805.0
345.194122	13781.0
346.059937	33744.0
346.230286	3051.0
346.859589	1262.0
347.046722	12459.0
347.207214	23226.0
347.548248	1891.0
348.056122	5224.0
348.219788	5712.0
348.963135	2288.0
349.202911	30088.0
349.34494	1021.0
350.030579	4595.0
350.203278	6870.0
350.879486	1833.0
351.012848	6379.0
351.197113	23467.0
352.073456	7189.0
352.220642	4852.0
352.755768	1050.0
352.900299	3592.0
353.063477	2437.0
353.196808	15286.0
353.764069	1510.0
353.906433	1338.0
354.048492	4863.0
354.227081	961074.0
354.439789	73701.0
354.598816	48134.0
354.745758	21011.0
354.926208	1604.0
355.082458	1380.0
355.229126	377423.0
355.414185	4430.0
355.5625	27236.0
355.744934	47557.0
355.896576	11706.0
356.020447	2232.0
356.168304	3192.0
END IONS

BEGIN IONS
PEPMASS=573.268
CHARGE=1
MSLEVEL=2
SOURCE_INSTRUMENT=LC-ESI-qTof
FILENAME=DMIM_centroided_library_abundance_filtered.mgf
SEQ=*..*
IONMODE=Positive
ORGANISM=DMIM-DRUG-METABOLITE-LIBRARY
NAME=CONVALLATOXIN [M+Na]+
PI=Libin Xu
DATACOLLECTOR=Dylan H. Ross
SMILES=C[C@H]1[C@@H]([C@H]([C@H]([C@@H](O1)O[C@H]2CC[C@@]3([C@H]4CC[C@@]5([C@H](CC[C@@]5([C@@H]4CC[C@@]3(C2)O)O)C6=CC(=O)OC6)C)C=O)O)O)O
INCHI=N/A
INCHIAUX=N/A
PUBMED=N/A
SUBMITUSER=jzemlin
LIBRARYQUALITY=3
SPECTRUMID=CCMSLIB00012471055
USI=mzspec:GNPS:DMIM-DRUG-METABOLITE-LIBRARY:accession:CCMSLIB00012471055
SCANS=6033
55.058098	1540.0
56.051563	2734.0
69.069656	2514.0
70.066742	21282.0
71.069824	1309.0
72.083916	15969.0
74.063454	2471.0
83.064056	1023.0
84.064789	41564.0
85.059746	2900.0
86.099449	45442.0
87.082993	3175.0
91.048744	1238.0
95.092545	1412.0
97.05043	1761.0
98.056847	1136.0
99.051659	1319.0
101.080109	3098.0
102.059982	4121.0
103.058533	1186.0
104.098831	7468.0
105.066116	1931.0
109.091995	1517.0
110.075409	20917.0
111.075615	2101.0
112.084122	1516.0
113.069366	1425.0
115.082069	1797.0
116.068893	1312.0
119.058601	1950.0
120.08474	49125.0
121.085732	4390.0
122.084694	5624.0
123.058983	5529.0
125.058449	2136.0
126.073135	1272.0
127.076729	2223.0
128.097488	1064.0
129.105042	55405.0
130.080917	11238.0
131.08313	3040.0
132.078735	1988.0
133.065567	1813.0
135.078033	1206.0
136.075607	53072.0
137.074387	8782.0
138.073135	2920.0
139.075073	3943.0
140.083038	1936.0
141.093933	4590.0
142.07431	1738.0
142.962601	1530.0
143.110001	6052.0
144.086365	1516.0
145.078995	2708.0
146.07991	1238.0
146.99353	12118.0
147.112411	1107.0
148.061157	1383.0
149.084915	1141.0
150.061737	2908.0
151.087265	1684.0
152.09581	1947.0
153.088852	3453.0
154.079376	1047.0
155.093521	7132.0
156.087708	3026.0
157.107452	7979.0
158.095566	3266.0
159.0961	23922.0
160.095261	3135.0
161.093292	2382.0
162.053207	2639.0
163.081314	2621.0
164.089478	1630.0
164.93512	6280.0
165.084473	3522.0
166.079498	2866.0
167.091919	4813.0
168.070984	2625.0
169.115448	10582.0
170.091537	2974.0
171.111084	7877.0
172.09877	3105.0
173.119095	12707.0
174.114868	1973.0
175.094528	3518.0
176.107559	1295.0
177.092636	5021.0
178.100891	2612.0
179.069702	9926.0
180.083496	2047.0
180.910522	2028.0
181.088181	11840.0
182.093674	2599.0
183.13031	12625.0
184.086151	19492.0
185.126678	14952.0
186.119064	9825.0
187.11554	12874.0
188.109848	2618.0
189.094131	4113.0
190.088501	1190.0
191.099731	3405.0
192.096939	1182.0
193.098953	4984.0
194.098801	1912.0
195.100266	10856.0
196.101624	2285.0
197.110626	13242.0
198.110504	4879.0
199.123367	11670.0
200.138245	7018.0
200.943909	3446.0
201.120987	14273.0
202.117142	3789.0
203.100159	5929.0
204.092789	3324.0
205.100891	4573.0
206.096176	1576.0
207.110748	6186.0
208.104691	2603.0
209.100983	9945.0
210.110199	2204.0
211.126678	10085.0
212.117386	7469.0
213.114365	13125.0
214.131165	5641.0
215.131927	7978.0
216.118011	6773.0
217.105469	9159.0
218.111069	2144.0
219.125305	4812.0
220.120987	1557.0
221.117889	7038.0
222.113571	3729.0
223.113907	7809.0
224.119476	2649.0
225.112518	6728.0
226.137085	12149.0
227.120514	12137.0
228.141052	8270.0
229.125412	7311.0
230.125473	6030.0
231.11618	8310.0
232.09584	10335.0
233.120926	10641.0
234.128677	3216.0
235.125229	10233.0
236.134018	2910.0
237.128769	10566.0
238.128784	4328.0
239.122925	8667.0
240.136948	9827.0
241.105011	5340.0
242.15448	7907.0
243.134811	7283.0
244.119781	7349.0
245.109146	6765.0
246.116531	2398.0
247.131775	4124.0
248.138428	2253.0
249.136948	7709.0
250.120117	4577.0
251.130264	9939.0
252.131287	3678.0
253.127014	10898.0
254.138214	4911.0
254.919174	1079.0
255.13063	5178.0
256.146301	5755.0
257.155334	6371.0
258.128204	6457.0
259.117859	5912.0
260.13623	3226.0
261.139008	4787.0
262.132507	2827.0
263.131134	4973.0
264.143768	2369.0
265.133698	5968.0
266.140839	3815.0
267.133698	9019.0
268.149323	5090.0
269.135345	8411.0
270.138855	6365.0
271.136627	6148.0
272.14798	4724.0
273.144012	2836.0
274.131653	3604.0
275.14798	3546.0
276.133698	3883.0
277.148376	6580.0
278.142883	3204.0
278.940521	1054.0
279.141083	6826.0
280.15152	3587.0
281.143646	5760.0
282.158173	4235.0
283.146851	8417.0
284.147583	7748.0
285.14212	7130.0
286.147339	4832.0
287.145569	4634.0
288.138885	3448.0
289.146545	2849.0
290.140869	1774.0
291.155273	4103.0
292.155334	3870.0
293.163086	5817.0
294.166107	3501.0
295.154663	7730.0
296.158356	4026.0
296.962097	7267.0
297.154877	6400.0
298.147949	7455.0
299.163208	7167.0
300.160339	5732.0
301.150665	4957.0
302.075348	7928.0
302.17984	1581.0
303.149536	3585.0
304.152771	2327.0
305.173615	3402.0
306.157532	1917.0
307.159302	4298.0
308.103699	109369.0
309.124329	17824.0
310.119019	8594.0
310.22644	1718.0
311.16095	8854.0
312.084473	6100.0
312.184509	3776.0
312.938965	1256.0
313.180023	5626.0
314.164978	4812.0
314.977478	3149.0
315.157501	5139.0
316.161346	4390.0
317.171021	4691.0
318.17038	2013.0
318.944946	1749.0
319.161743	4345.0
320.092468	2801.0
320.197968	1403.0
321.16745	5037.0
322.176727	2527.0
323.182404	7017.0
324.17395	3686.0
325.178253	8623.0
326.178619	6302.0
327.185638	9163.0
328.184174	4934.0
329.182068	4868.0
330.082794	29666.0
330.198517	1936.0
330.938171	1039.0
331.101532	5396.0
331.210419	1855.0
332.125	4641.0
333.180756	4291.0
334.045624	9230.0
334.186584	1664.0
335.041046	1118.0
335.19046	4646.0
336.177856	2417.0
337.150238	3904.0
337.251617	5215.0
338.189209	3473.0
339.160004	4479.0
339.272308	5660.0
340.187225	3992.0
341.190796	8435.0
342.190582	4495.0
343.185699	7580.0
344.175476	4685.0
345.176727	4399.0
346.060272	65342.0
346.194427	1396.0
347.07135	8454.0
347.21283	2242.0
348.062439	7298.0
348.20755	2108.0
349.153198	6195.0
349.262848	1061.0
350.030914	2587.0
350.201263	3318.0
351.191803	7731.0
352.077789	6215.0
352.209625	2097.0
353.183014	7173.0
354.179108	4226.0
355.191162	7784.0
356.187134	5378.0
357.183929	7216.0
358.178467	4210.0
359.186157	5350.0
360.179169	2938.0
361.148529	1464.0
361.252502	3032.0
362.19101	2651.0
363.196503	5361.0
364.173859	2877.0
365.17984	7668.0
366.18692	3940.0
367.197021	6966.0
368.040527	12915.0
368.204987	3013.0
369.043915	2116.0
369.200439	7518.0
370.051636	2062.0
370.216644	3844.0
371.189362	7815.0
372.196991	4015.0
373.185577	5401.0
374.060669	3776.0
374.203583	2579.0
375.207001	4061.0
376.202637	2559.0
376.933929	2354.0
377.218323	4630.0
378.208832	2949.0
379.198822	5375.0
380.19516	2829.0
381.11615	5979.0
381.221985	4439.0
382.203705	3861.0
383.209015	7615.0
384.015625	7212.0
384.218414	3495.0
385.021881	1087.0
385.208923	6810.0
386.007935	1357.0
386.212646	3292.0
387.205414	5612.0
388.201294	2508.0
389.198883	3492.0
390.026001	8290.0
390.205475	2421.0
391.024689	1293.0
391.207336	4294.0
392.026184	1384.0
392.209015	2208.0
392.904602	1322.0
393.214874	4165.0
394.208435	2547.0
394.944458	12017.0
395.187714	9619.0
396.210602	4338.0
397.211456	5338.0
398.218781	3875.0
398.892853	1418.0
399.183411	8908.0
400.030121	1541.0
400.202942	4276.0
401.213715	4189.0
402.203461	2763.0
403.204376	3382.0
404.238434	2141.0
405.217377	4585.0
406.001038	9736.0
406.214508	2581.0
407.00354	1307.0
407.217468	4880.0
407.999512	1788.0
408.221039	2563.0
409.199554	9026.0
410.043427	2524.0
410.21109	3830.0
410.928528	2580.0
411.224579	5958.0
412.232452	3648.0
413.223724	4517.0
414.222473	4289.0
414.861633	1530.0
415.203613	4721.0
416.198547	2192.0
416.919006	1897.0
417.221008	3565.0
418.230927	2166.0
419.240479	3386.0
420.231415	1911.0
420.71698	1429.0
421.224365	4689.0
421.981049	3127.0
422.225403	2478.0
423.218658	5302.0
424.247833	2868.0
425.215607	6733.0
426.229034	3770.0
427.013245	2716.0
427.224579	6277.0
428.050049	3464.0
428.238495	4268.0
429.230438	4485.0
430.224365	2998.0
430.805969	1523.0
431.23053	3376.0
432.022308	24871.0
432.232635	2268.0
432.868896	1207.0
433.029053	2744.0
433.242706	3364.0
434.243042	4930.0
435.239288	3946.0
436.243958	1972.0
437.227478	4776.0
438.228333	2779.0
439.247894	5595.0
440.239014	3724.0
441.240601	4728.0
442.247131	3430.0
442.978699	1561.0
443.23642	5246.0
444.232758	2720.0
445.257812	3135.0
446.23465	2061.0
447.256622	3428.0
447.992676	7666.0
448.222748	1694.0
448.986481	1818.0
449.248505	3701.0
450.027985	2645.0
450.23587	2769.0
451.245361	4010.0
452.256683	2465.0
453.250885	3836.0
454.008667	2114.0
454.245636	3239.0
455.230865	4187.0
456.228577	19333.0
457.238129	7053.0
458.242615	3268.0
459.25296	5249.0
460.257904	3023.0
461.259705	3790.0
462.249146	2920.0
463.24118	3385.0
464.262665	2449.0
464.954773	2280.0
465.24881	3978.0
465.994659	2029.0
466.261719	2517.0
467.251434	4578.0
468.256805	2750.0
469.259918	4296.0
469.9841	1431.0
470.262512	3075.0
470.980072	1133.0
471.253357	3733.0
472.215851	7075.0
473.245789	4871.0
474.239807	2871.0
475.095673	1007.0
475.252625	3347.0
476.266815	2774.0
476.776917	1088.0
477.26123	4828.0
477.980743	1107.0
478.261841	2638.0
479.257477	3533.0
480.255096	2256.0
480.932495	1412.0
481.26416	3119.0
482.27301	2499.0
483.263916	10971.0
484.269653	4156.0
485.27359	10342.0
486.262421	4369.0
487.261169	3983.0
487.989929	1473.0
488.25882	2398.0
488.927887	1366.0
489.256714	2885.0
490.0047	1604.0
490.257996	2530.0
490.968658	5278.0
491.260132	3235.0
492.28125	2464.0
492.964783	1102.0
493.273163	3328.0
494.283691	2497.0
495.273315	4270.0
496.271545	2978.0
497.276337	4029.0
498.276031	3250.0
499.274994	4048.0
500.262756	3050.0
501.265167	4129.0
502.265961	2734.0
503.283081	2971.0
503.963104	1957.0
504.27948	2297.0
505.27063	3431.0
505.790649	1139.0
506.273468	2430.0
506.945343	1616.0
507.271637	6005.0
508.020142	16188.0
508.278687	2905.0
508.787567	1040.0
509.01355	3535.0
509.278503	4835.0
509.992371	1837.0
510.279144	2843.0
511.265961	4153.0
511.994446	1602.0
512.282654	3117.0
512.780762	1022.0
512.9552	1305.0
513.292236	4115.0
514.270874	3152.0
514.799316	1037.0
515.277588	3900.0
516.274292	2842.0
516.938477	1173.0
517.286621	3111.0
518.287048	3106.0
518.814758	1197.0
519.279846	3730.0
519.926758	1054.0
520.273682	2789.0
521.288391	2975.0
522.289551	3018.0
523.291626	3488.0
524.054688	1042.0
524.293457	3425.0
524.805664	1316.0
525.287048	4608.0
525.960449	2346.0
526.286865	3349.0
526.814575	1137.0
527.285583	6481.0
527.976868	5201.0
528.288635	3651.0
528.800537	1434.0
528.976135	1525.0
529.278198	3788.0
530.003357	45535.0
530.279358	3121.0
531.003845	5544.0
531.282593	4556.0
531.987	2670.0
532.281555	3826.0
532.810913	1510.0
532.991821	1183.0
533.28949	4194.0
534.291565	2063.0
534.801392	1681.0
535.287415	3495.0
536.31073	2389.0
537.111328	2444.0
537.271484	2342.0
537.413208	65017.0
537.80072	1148.0
538.270874	2517.0
538.411865	19974.0
539.249512	3476.0
539.408875	6695.0
540.300842	3138.0
540.427734	1116.0
541.286438	5867.0
541.917664	1743.0
542.332764	9771.0
542.808655	1050.0
543.320862	5759.0
543.941345	2499.0
544.34198	5520.0
545.296997	10648.0
545.973999	14612.0
546.28479	5536.0
546.794861	1039.0
546.969177	2639.0
547.29425	2979.0
547.966003	1582.0
548.297302	2227.0
548.81781	1023.0
549.320618	3179.0
549.953796	1694.0
550.309448	2681.0
550.788574	1078.0
551.326538	3454.0
551.984802	3456.0
552.320496	2385.0
553.310669	3825.0
554.310974	2812.0
555.314636	3827.0
556.315552	2475.0
556.805786	1001.0
557.197876	8117.0
557.327759	2213.0
557.846619	1018.0
558.21167	3505.0
558.333679	1928.0
559.112244	1457.0
559.297668	6809.0
560.314026	3541.0
561.297302	6387.0
561.461609	1223.0
561.929749	1436.0
562.30542	3875.0
562.856689	1146.0
563.305664	3779.0
563.903748	1203.0
564.312561	3339.0
565.32135	3579.0
565.938477	1445.0
566.331116	3149.0
566.818054	1082.0
567.311768	3160.0
567.797241	1063.0
567.955627	3781.0
568.334961	3156.0
568.799988	1061.0
569.31012	3717.0
570.310059	4212.0
570.838806	1232.0
571.331726	4629.0
571.8349	1172.0
572.289124	2599.0
573.082764	1224.0
573.287292	247435.0
573.401428	1708.0
573.52002	3800.0
573.676392	2085.0
573.943481	3391.0
574.291199	75030.0
574.838806	1267.0
575.019104	1751.0
575.224121	2472.0
END IONS

BEGIN IONS
PEPMASS=604.312
CHARGE=1
MSLEVEL=2
SOURCE_INSTRUMENT=ESI-Orbitrap
FILENAME=gnps_msn_lib_pos.mgf
SEQ=*..*
IONMODE=Positive
ORGANISM=MSNLIB-POSITIVE
NAME=Benzoylaconine [M+H]+
PI=Tomas Pluskal
DATACOLLECTOR=Corinna Brungs
SMILES=CCN1C[C@]2(COC)[C@H](O)C[C@H](OC)[C@]34C1[C@H]([C@H](OC)[C@H]23)[C@]1(O)[C@H]2[C@@H](OC(=O)c3ccccc3)[C@](O)(C[C@H]24)[C@@H](OC)[C@@H]1O
INCHI=InChI=1S/C32H45NO10/c1-6-33-14-29(15-39-2)18(34)12-19(40-3)31-17-13-30(37)26(43-28(36)16-10-8-7-9-11-16)20(17)32(38,25(35)27(30)42-5)21(24(31)33)22(41-4)23(29)31/h7-11,17-27,34-35,37-38H,6,12-15H2,1-5H3/t17-,18-,19+,20-,21+,22+,23-,24?,25+,26-,27+,29+,30-,31+,32-/m1/s1
INCHIAUX=DHJXZSFKLJCHLH-KYSNEVMMSA-N
PUBMED=N/A
SUBMITUSER=jzemlin
LIBRARYQUALITY=1
SPECTRUMID=CCMSLIB00012280966
USI=mzspec:GNPS:MSNLIB-POSITIVE:accession:CCMSLIB00012280966
SCANS=6665
41.038628	0.681
50.015133	2.888
51.022942	91.475998
53.038593	5.343
56.049313	3.059
58.064957	12.504
63.02293	1.042
65.038567	0.936
67.05426	0.736
74.015091	0.657
75.043861	2.144
77.038521	68.758003
79.053917	1.873
84.080673	1.788
85.028152	2.718
89.038536	1.103
94.065041	1.389
95.049065	73.082001
102.046356	1.069
105.033363	100.0
105.0448	13.039
105.069786	2.645
108.080444	2.625
109.064743	1.566
115.054169	4.662
122.09623	2.101
125.023201	1.978
129.06955	2.379
141.070129	1.558
146.096008	1.388
152.10675	2.73
155.085327	2.551
159.080704	1.665
165.069733	1.362
167.085327	2.16
172.112778	1.36
179.085999	1.924
184.112366	1.568
185.096451	1.388
190.122421	1.693
205.101578	1.768
209.096542	1.327
233.096039	1.423
604.314087	8.015
END IONS

BEGIN IONS
PEPMASS=500.285
CHARGE=1
MSLEVEL=2
SOURCE_INSTRUMENT=ESI-Orbitrap
FILENAME=gnps_msn_lib_pos.mgf
SEQ=*..*
IONMODE=Positive
ORGANISM=MSNLIB-POSITIVE
NAME=Aconine [M+H]+
PI=Tomas Pluskal
DATACOLLECTOR=Corinna Brungs
SMILES=CCN1C[C@]2(COC)[C@H](O)C[C@H](OC)[C@]34C1[C@H]([C@H](OC)[C@H]23)[C@]1(O)[C@H]2[C@@H](O)[C@](O)(C[C@H]24)[C@@H](OC)[C@@H]1O
INCHI=InChI=1S/C25H41NO9/c1-6-26-9-22(10-32-2)12(27)7-13(33-3)24-11-8-23(30)19(28)14(11)25(31,20(29)21(23)35-5)15(18(24)26)16(34-4)17(22)24/h11-21,27-31H,6-10H2,1-5H3/t11-,12-,13+,14-,15+,16+,17-,18?,19-,20+,21+,22+,23-,24+,25-/m1/s1
INCHIAUX=SQMGCPHFHQGPIF-JIOYIOPFSA-N
PUBMED=N/A
SUBMITUSER=jzemlin
LIBRARYQUALITY=1
SPECTRUMID=CCMSLIB00012298003
USI=mzspec:GNPS:MSNLIB-POSITIVE:accession:CCMSLIB00012298003
SCANS=16846
56.049309	8.33
58.064945	37.804001
65.03862	1.709
75.043747	6.061
77.038551	1.873
78.046402	2.055
84.080559	4.043
85.028114	6.612
87.022888	2.132
89.038528	1.715
93.057274	6.373
94.065071	2.949
95.04908	3.443
102.046349	6.229
107.049057	3.607
108.080635	4.408
111.022896	1.828
113.038597	1.743
115.054184	7.068
117.07019	3.571
121.088562	2.835
122.096298	3.464
124.075668	3.352
125.023201	7.621
126.046326	9.941
127.054169	1.843
128.06192	3.024
129.069595	5.795
139.054184	8.244
141.069778	4.633
143.085556	5.006
145.064774	2.612
150.046356	13.085
151.05426	6.746
152.062012	93.516998
152.106873	21.124001
153.069839	42.23
154.065155	2.843
155.08548	7.02
156.080902	1.897
159.080765	3.932
161.038635	4.879
162.046448	5.492
163.054184	16.184
164.062119	6.471
165.069901	42.323002
166.065125	4.086
166.077744	9.041
167.073013	9.783
167.085556	36.101002
168.057037	2.391
168.080795	6.303
169.064819	5.744
170.096512	1.808
171.080551	3.779
172.111725	4.022
174.046478	3.565
176.062119	22.351
177.069946	11.171
178.077759	64.165001
178.122787	2.54
179.085526	51.112999
180.080795	9.199
180.093307	3.235
181.064804	5.36
181.088715	1.851
181.101395	5.593
182.096436	1.963
184.112015	2.353
185.038635	2.623
185.096085	4.318
186.046478	4.028
187.054245	25.275
188.062088	21.382
189.069901	100.0
190.06514	2.9
190.077744	6.271
191.08577	2.133
193.101257	5.325
195.08078	4.056
197.096405	4.427
198.04657	2.079
199.054443	1.642
200.062241	7.783
201.070084	2.784
202.07785	11.311
203.085571	5.586
204.080872	2.623
204.09346	6.188
205.06488	3.794
205.101303	21.355
206.07283	3.322
206.096954	1.666
207.080521	1.982
209.096542	5.065
213.070084	4.281
215.085785	10.393
217.101837	3.51
221.096817	3.782
233.096451	3.943
251.106049	3.644
418.224243	3.716
450.248901	8.861
500.285126	72.248001
END IONS

BEGIN IONS
PEPMASS=427.249
CHARGE=1
MSLEVEL=2
SOURCE_INSTRUMENT=ESI-Orbitrap
FILENAME=gnps_msn_lib_pos.mgf
SEQ=*..*
IONMODE=Positive
ORGANISM=MSNLIB-POSITIVE
NAME=oxatomide [M+H]+
PI=Tomas Pluskal
DATACOLLECTOR=Corinna Brungs
SMILES=O=c1[nH]c2ccccc2n1CCCN1CCN(C(c2ccccc2)c2ccccc2)CC1
INCHI=InChI=1S/C27H30N4O/c32-27-28-24-14-7-8-15-25(24)31(27)17-9-16-29-18-20-30(21-19-29)26(22-10-3-1-4-11-22)23-12-5-2-6-13-23/h1-8,10-15,26H,9,16-21H2,(H,28,32)
INCHIAUX=BAINIUMDFURPJM-UHFFFAOYSA-N
PUBMED=N/A
SUBMITUSER=jzemlin
LIBRARYQUALITY=1
SPECTRUMID=CCMSLIB00012343725
USI=mzspec:GNPS:MSNLIB-POSITIVE:accession:CCMSLIB00012343725
SCANS=37974
41.267612	0.089
41.77153	0.221
50.015182	0.351
51.022999	0.38
52.030891	0.061
62.015202	0.078
63.022968	0.862
65.038597	0.95
74.015137	0.928
75.02298	0.574
76.030785	0.89
77.038605	0.772
78.046417	1.068
83.060387	0.108
84.068192	0.324
86.015144	0.289
87.02298	1.376
88.030746	0.126
89.038605	0.909
91.054237	0.304
92.049469	0.322
95.049179	0.622
98.015152	1.307
99.022964	0.764
100.030777	0.334
101.038605	0.078
102.046432	1.946
105.044815	0.128
110.015152	0.535
111.022995	0.931
112.030861	0.084
113.038589	0.675
115.054276	4.081
119.06041	1.461
122.01516	0.541
123.022987	0.326
124.030838	0.288
125.038635	0.508
125.107208	0.176
126.04644	3.704
127.054199	0.205
128.062073	6.048
128.064392	0.067
134.015152	0.117
135.02301	0.196
136.030823	0.09
137.038666	0.544
138.046478	0.12
139.054321	2.782
141.069946	3.715
143.049286	0.082
145.064789	0.225
147.055313	1.387
149.038696	0.488
150.043961	0.1
150.046509	8.578
150.049438	0.159
151.054337	3.476
152.050461	0.06
152.05484	0.261
152.062073	40.907001
152.064774	0.623
152.069092	0.278
152.071548	0.158
155.060547	0.077
161.038681	0.816
162.046524	1.623
163.054367	0.111
164.06221	1.5
165.061783	0.24
165.070007	40.823002
165.077606	0.273
165.080734	0.092
166.077866	11.598
167.052292	0.257
167.059311	0.23
167.072281	0.174
167.077271	0.715
167.085617	100.0
167.094025	0.606
167.096436	0.345
167.101273	0.074
167.112442	0.216
167.118774	0.286
167.12854	0.126
168.088837	0.089
169.064926	1.602
175.086746	1.756
259.155731	1.182
427.251587	1.052
END IONS

BEGIN IONS
PEPMASS=1131.56
CHARGE=1
MSLEVEL=2
SOURCE_INSTRUMENT=ESI-Orbitrap
FILENAME=gnps_msn_lib_pos.mgf
SEQ=*..*
IONMODE=Positive
ORGANISM=MSNLIB-POSITIVE
NAME=Escin [M+H]+
PI=Tomas Pluskal
DATACOLLECTOR=Corinna Brungs
SMILES=C/C=C(\C)C(=O)OC1[C@H](OC(C)=O)C2(CO)C(CC1(C)C)C1=CCC3C4(C)CCC(O[C@@H]5O[C@H](C(=O)O)[C@@H](O[C@@H]6O[C@H](CO)[C@@H](O)[C@H](O)[C@H]6O)[C@H](O)[C@H]5O[C@H]5O[C@H](CO)[C@@H](O)[C@H](O)[C@H]5O)[C@](C)(CO)C4CCC3(C)[C@]1(C)C[C@H]2O
INCHI=InChI=1S/C55H86O24/c1-10-23(2)46(71)79-43-44(72-24(3)60)55(22-59)26(17-50(43,4)5)25-11-12-30-51(6)15-14-32(52(7,21-58)29(51)13-16-53(30,8)54(25,9)18-31(55)61)75-49-41(77-48-38(67)36(65)34(63)28(20-57)74-48)39(68)40(42(78-49)45(69)70)76-47-37(66)35(64)33(62)27(19-56)73-47/h10-11,26-44,47-49,56-59,61-68H,12-22H2,1-9H3,(H,69,70)/b23-10+/t26?,27-,28-,29?,30?,31-,32?,33-,34-,35+,36+,37-,38-,39+,40+,41-,42+,43?,44+,47+,48-,49-,51?,52-,53?,54-,55?/m1/s1
INCHIAUX=AXNVHPCVMSNXNP-YSYFQUGBSA-N
PUBMED=N/A
SUBMITUSER=jzemlin
LIBRARYQUALITY=1
SPECTRUMID=CCMSLIB00012352091
USI=mzspec:GNPS:MSNLIB-POSITIVE:accession:CCMSLIB00012352091
SCANS=42118
83.048866	100.0
119.085587	87.936996
END IONS

BEGIN IONS
PEPMASS=563.222
CHARGE=1
MSLEVEL=2
SOURCE_INSTRUMENT=ESI-Orbitrap
FILENAME=gnps_msn_lib_pos_second_batch.mgf
SEQ=*..*
IONMODE=Positive
ORGANISM=MSNLIB-POSITIVE
NAME=thiamine disulfide [M+H]+
PI=Tomas Pluskal
DATACOLLECTOR=Corinna Brungs
SMILES=C/C(=C(/CCO)SS/C(CCO)=C(\C)N(C=O)Cc1cnc(C)nc1N)N(C=O)Cc1cnc(C)nc1N
INCHI=InChI=1S/C24H34N8O4S2/c1-15(31(13-35)11-19-9-27-17(3)29-23(19)25)21(5-7-33)37-38-22(6-8-34)16(2)32(14-36)12-20-10-28-18(4)30-24(20)26/h9-10,13-14,33-34H,5-8,11-12H2,1-4H3,(H2,25,27,29)(H2,26,28,30)/b21-15+,22-16+
INCHIAUX=GFEGEDUIIYDMOX-YHARCJFQSA-N
PUBMED=N/A
SUBMITUSER=jzemlin
LIBRARYQUALITY=1
SPECTRUMID=CCMSLIB00013052194
USI=mzspec:GNPS:MSNLIB-POSITIVE:accession:CCMSLIB00013052194
SCANS=103208
40.018169	0.443
41.038574	2.301
42.033817	18.722
43.01783	1.228
43.029072	0.751
44.979324	0.413
52.01812	0.905
54.033764	22.27
55.017864	0.18
55.041592	24.263
56.049408	4.067
58.994904	0.362
59.060291	1.399
64.018074	0.345
66.033707	11.441
69.044586	17.478001
71.060234	0.688
80.049385	0.713
81.044678	3.478
82.05246	10.198
83.060272	5.538
84.044289	8.446
85.010551	0.798
85.06488	0.474
87.99762	0.212
93.044647	3.339
95.06028	0.532
96.055862	0.804
96.068138	0.253
97.010559	0.246
97.075912	0.281
99.026161	0.188
100.021484	0.554
105.044632	0.185
106.039925	0.217
107.060303	12.303
108.05555	0.668
110.063805	0.522
110.071152	59.223
110.074318	0.755
110.079018	0.476
112.021454	1.409
113.029221	0.208
115.021141	3.193
120.055573	0.236
122.071259	9.007
122.081604	0.342
123.058258	0.478
123.070374	0.713
123.079048	51.578999
123.081367	0.288
123.084259	0.391
123.088364	0.36
124.077812	0.51
124.0868	100.0
124.089661	1.546
124.092155	1.107
124.096161	0.869
124.10305	0.64
124.107597	0.583
126.037125	0.463
127.044937	0.342
131.060303	0.254
132.055573	0.298
133.063354	0.795
134.071152	0.6
137.082626	4.774
139.098038	1.591
144.048065	4.51
145.075623	0.172
146.071167	1.249
147.066391	1.275
147.078979	4.03
148.074234	0.441
148.086761	0.186
149.082062	2.01
150.036911	0.214
151.01976	0.446
154.043488	0.646
155.039719	0.173
158.071182	1.031
159.078979	0.358
160.086838	0.257
162.090195	0.312
164.027481	0.467
164.040176	0.169
165.035553	0.394
165.048019	0.251
167.092621	2.504
170.071259	0.231
171.078995	0.186
172.086914	0.727
173.082138	2.174
173.541855	1.384
174.024628	0.217
174.102951	0.309
175.03241	0.712
176.040115	0.217
178.030685	1.084
183.07901	0.211
184.0867	0.209
185.082092	0.406
187.097427	0.169
189.047867	0.18
190.043152	0.753
191.05101	0.723
192.058823	0.631
195.058502	0.173
198.089905	0.162
199.097672	6.623
200.105545	1.365
201.113434	0.227
204.058792	0.226
204.113968	2.024
207.05835	0.225
211.097839	0.376
212.105606	0.411
213.11351	0.297
215.050964	0.376
216.058914	1.33
217.054062	0.475
218.062057	0.201
219.069885	0.882
221.140015	3.275
222.069427	0.572
223.101486	0.428
231.069733	1.956
231.123917	0.684
232.07756	5.508
233.08551	5.338
234.093216	0.678
245.085358	1.242
246.092987	0.305
247.101288	0.693
249.080124	0.381
249.134354	1.908
253.111801	2.585
254.119049	0.916
263.079193	0.245
263.095734	35.258999
263.112152	0.215
264.103516	10.621
265.11145	4.381
281.106903	2.26
282.114288	1.615
283.122284	5.344
442.157471	0.441
545.212341	0.599
563.225037	2.665
END IONS

BEGIN IONS
PEPMASS=421.021
CHARGE=1
MSLEVEL=2
SOURCE_INSTRUMENT=ESI-Orbitrap
FILENAME=gnps_msn_lib_neg.mgf
SEQ=*..*
IONMODE=Negative
ORGANISM=MSNLIB-NEGATIVE
NAME=CHLORAMPHENICOL SUCCINATE [M-H]-
PI=Tomas Pluskal
DATACOLLECTOR=Corinna Brungs
SMILES=O=C(O)CCC(=O)OC[C@@H](NC(=O)C(Cl)Cl)[C@H](O)c1ccc([N+](=O)[O-])cc1
INCHI=InChI=1S/C15H16Cl2N2O8/c16-14(17)15(24)18-10(7-27-12(22)6-5-11(20)21)13(23)8-1-3-9(4-2-8)19(25)26/h1-4,10,13-14,23H,5-7H2,(H,18,24)(H,20,21)/t10-,13-/m1/s1
INCHIAUX=LIRCDOVJWUGTMW-ZWNOBZJWSA-N
PUBMED=N/A
SUBMITUSER=jzemlin
LIBRARYQUALITY=1
SPECTRUMID=CCMSLIB00012332232
USI=mzspec:GNPS:MSNLIB-NEGATIVE:accession:CCMSLIB00012332232
SCANS=25691
41.998287	1.772
45.993195	7.789
73.029007	5.806
78.034554	1.295
82.945885	1.073
106.029594	0.806
112.985291	1.059
117.018776	3.149
118.042236	0.588
121.029221	7.814
126.935837	0.75
148.040207	1.927
151.027206	7.939
152.035065	18.743
176.034805	2.407
194.044983	5.359
237.049072	1.075
249.049438	1.265
257.032104	11.34
321.00351	100.0
END IONS

BEGIN IONS
PEPMASS=1099.53
CHARGE=-1
MSLEVEL=2
SOURCE_INSTRUMENT=ESI-Orbitrap
FILENAME=gnps_msn_lib_neg_second_batch.mgf
SEQ=*..*
IONMODE=Negative
ORGANISM=MSNLIB-NEGATIVE
NAME=Sodium aescinate [M-H]-
PI=Tomas Pluskal
DATACOLLECTOR=Corinna Brungs
SMILES=CC(=O)OC(C)C(C)C(=O)OC[C@@]12[C@H]3C[C@]4(C)C(=CC[C@@H]5[C@@]6(C)CC[C@H](O[C@@H]7O[C@H](C(=O)O)[C@@H](O[C@@H]8O[C@H](CO)[C@@H](O)[C@H](O)[C@H]8O)[C@H](O)[C@H]7O[C@@H]7OC[C@@H](O)[C@H](O)[C@H]7O)[C@@](C)(CO)[C@@H]6CC[C@]54C)[C@@H]1CC(C)(C)[C@H](O3)[C@@H]2O
INCHI=InChI=1S/C54H84O23/c1-22(23(2)71-24(3)57)45(68)70-21-54-26-16-49(4,5)43(42(54)65)73-32(54)17-53(9)25(26)10-11-30-50(6)14-13-31(51(7,20-56)29(50)12-15-52(30,53)8)74-48-40(76-46-36(62)33(59)27(58)19-69-46)38(64)39(41(77-48)44(66)67)75-47-37(63)35(61)34(60)28(18-55)72-47/h10,22-23,26-43,46-48,55-56,58-65H,11-21H2,1-9H3,(H,66,67)/t22?,23?,26-,27+,28+,29+,30+,31-,32+,33-,34+,35-,36+,37+,38-,39-,40+,41-,42-,43+,46-,47-,48+,50-,51-,52+,53+,54-/m0/s1
INCHIAUX=MDECBZJUSDTBAX-KCCOBPJVSA-N
PUBMED=N/A
SUBMITUSER=jzemlin
LIBRARYQUALITY=1
SPECTRUMID=CCMSLIB00012863529
USI=mzspec:GNPS:MSNLIB-NEGATIVE:accession:CCMSLIB00012863529
SCANS=66256
41.003006	4.572
44.997887	10.426
51.023735	4.789
55.018623	46.362
57.034279	16.615999
59.013378	41.652
68.997932	81.288002
71.013283	47.987999
83.013588	4.887
84.021393	6.494
85.028954	65.162003
89.023743	73.210999
95.013504	100.0
99.044449	20.750999
101.023796	48.818001
113.02375	53.743
119.034462	35.896
139.002899	44.970001
173.542786	62.075001
179.055298	14.122
END IONS

BEGIN IONS
PEPMASS=248.032
CHARGE=1
MSLEVEL=2
SOURCE_INSTRUMENT=ESI-Orbitrap
FILENAME=output_folder/converted_library.mgf
SEQ=*..*
IONMODE=Positive
ORGANISM=WFSR-LIBRARY
NAME=Paraoxon-methyl_CE15 M+H
PI=Federico Padilla-Gonzalez
DATACOLLECTOR="Sjors Rasker, Wout Bergkamp"
SMILES=COP(=O)(OC)OC1=CC=C(C=C1)[N+]([O-])=O
INCHI="InChI=1S/C8H10NO6P/c1-13-16(12,14-2)15-8-5-3-7(4-6-8)9(10)11/h3-6H,1-2H3"
INCHIAUX=N/A
PUBMED=N/A
SUBMITUSER=jzemlin
LIBRARYQUALITY=1
SPECTRUMID=CCMSLIB00013940187
USI=mzspec:GNPS:WFSR-LIBRARY:accession:CCMSLIB00013940187
SCANS=6406
52.917599	10443.139648
52.919201	13294.019531
78.046303	954.159973
79.0541	1506.819946
90.046204	35338.148438
91.053902	5767.709961
92.025497	1654.300049
95.996902	7311.339844
97.004898	753.400024
104.061897	12284.620117
106.040901	788.789978
107.049004	27606.589844
108.056801	3068.030029
110.012604	3087.280029
122.023598	2590.98999
123.031303	9789.799805
127.015297	51186.058594
129.065903	5085.680176
130.049393	962.669983
130.069107	688.73999
154.663895	986.609985
174.007599	11133.669922
174.972504	1301.569946
181.054306	2021.800049
190.038101	1696.050049
201.031097	1852.209961
202.038803	147304.453125
202.998093	2077.830078
204.018494	2283.040039
211.064499	3050.090088
218.033997	5197.799805
219.041794	1413.609985
220.000702	32900.449219
231.029007	39777.921875
234.028793	732.119995
238.011398	7017.160156
248.031799	504678.6875
END IONS

BEGIN IONS
PEPMASS=278.025
CHARGE=1
MSLEVEL=2
SOURCE_INSTRUMENT=ESI-Orbitrap
FILENAME=output_folder/converted_library.mgf
SEQ=*..*
IONMODE=Positive
ORGANISM=WFSR-LIBRARY
NAME=Fenitrothion_CE30 M+H
PI=Federico Padilla-Gonzalez
DATACOLLECTOR="Sjors Rasker, Wout Bergkamp"
SMILES=COP(=S)(OC)OC1=CC=C(C(C)=C1)[N+]([O-])=O
INCHI="InChI=1S/C9H12NO5PS/c1-7-6-8(4-5-9(7)10(11)12)15-16(17,13-2)14-3/h4-6H,1-3H3"
INCHIAUX=N/A
PUBMED=N/A
SUBMITUSER=jzemlin
LIBRARYQUALITY=1
SPECTRUMID=CCMSLIB00013940292
USI=mzspec:GNPS:WFSR-LIBRARY:accession:CCMSLIB00013940292
SCANS=6511
46.994801	6655.27002
52.918301	5091.529785
53.038399	9054.719727
65.0383	98461.171875
78.046097	6392.839844
78.994102	25125.890625
80.049202	29080.730469
91.041397	3903.719971
92.049301	16472.150391
97.010498	19854.880859
105.033302	3157.169922
105.069801	3716.52002
106.0411	7525.180176
108.044197	24418.519531
109.052101	24384.75
120.044197	15809.19043
124.0214	24940.839844
124.981903	50095.171875
127.015297	29440.5
136.0392	12161.790039
137.046997	17275.669922
142.992493	267652.28125
152.016403	22554.519531
184.028305	13867.769531
213.054504	5687.950195
264.009796	6024.060059
END IONS

BEGIN IONS
PEPMASS=262.181
CHARGE=1
MSLEVEL=2
SOURCE_INSTRUMENT=LC-ESI-ToF
FILENAME=reframe_merged.mgf
SEQ=*..*
IONMODE=Positive
ORGANISM=GNPS-REFRAME-DRUG-CCS-LIBRARY
NAME=HEXYLCAINE [CCS=171.955] [M+H]+
PI=Pieter Dorrestein
DATACOLLECTOR=victoriadeleray
SMILES=CC(CNC1CCCCC1)OC(=O)c1ccccc1
INCHI=NA
INCHIAUX=NA
PUBMED=NA
SUBMITUSER=jzemlin
LIBRARYQUALITY=1
SPECTRUMID=CCMSLIB00016267323
USI=mzspec:GNPS:GNPS-REFRAME-DRUG-CCS-LIBRARY:accession:CCMSLIB00016267323
SCANS=3405
36.001942	39.635693
37.008633	175.774963
39.024334	851.062683
41.039894	1589.589233
42.034988	474.227539
50.015045	29.288568
51.023766	265.032593
53.039047	70.640396
55.054588	8670.276367
55.059563	98.384628
55.066044	49.252907
55.082012	14.561548
56.050209	32.473553
57.44561	33.932911
58.042519	32.01442
58.065399	8858.317383
58.074295	92.381714
72.080406	74.278473
77.03833	10039.55957
77.050026	22.84996
77.501495	21.352844
79.054176	125.013786
81.069366	196.122116
83.085419	1930.581909
91.055626	109.259773
95.048592	252.33136
96.694885	11.221389
98.095284	169.963211
105.003494	18.39176
105.03299	17510.013672
105.044891	481.038818
105.051743	15.108587
105.646591	10.757293
123.043053	23.848034
140.143265	3414.558105
140.153931	12.506975
163.075073	2649.19751
164.074982	42.813755
262.180237	38.931984
END IONS

BEGIN IONS
PEPMASS=391.21
CHARGE=1
MSLEVEL=2
SOURCE_INSTRUMENT=LC-ESI-ToF
FILENAME=merged_updated.mgf
SEQ=*..*
IONMODE=Positive
ORGANISM=GNPS-ION-MOBILITY-LIBRARY
NAME=Rhomotoxin [CCS=196.9233856201172] [M+Na]+
PI=Pieter Dorrestein
DATACOLLECTOR=victoriadeleray
SMILES=CC1(O)CC23CC(O)C4(O)C(C5OC5C4(C)C)C(C)(O)C2CCC1C3O
INCHI=NA
INCHIAUX=NA
PUBMED=NA
SUBMITUSER=jzemlin
LIBRARYQUALITY=1
SPECTRUMID=CCMSLIB00016217216
USI=mzspec:GNPS:GNPS-ION-MOBILITY-LIBRARY:accession:CCMSLIB00016217216
SCANS=5733
43.017513	131.0
78.778412	11.0
95.036324	11.0
146.999588	99.0
187.929916	11.0
203.285797	11.0
204.858582	25.0
246.150757	71.0
304.060852	11.0
363.921478	11.0
381.506775	11.0
391.203369	223.0
524.418396	11.0
551.71106	11.0
694.215332	11.0
727.987	11.0
765.252136	11.0
802.254761	11.0
836.783875	11.0
840.586365	11.0
1029.574097	11.0
1204.494873	11.0
END IONS

BEGIN IONS
PEPMASS=365.117
CHARGE=1
MSLEVEL=2
SOURCE_INSTRUMENT=LC-ESI-Orbitrap
FILENAME=reframe_drugs_pos_P1_A10_id.mzML
SEQ=*..*
IONMODE=Positive
ORGANISM=REFRAME-POSITIVE-LIBRARY
NAME=phenethicillin [M+H]+
PI=Pieter Dorrestein
DATACOLLECTOR=Nina Zhao
SMILES=CC(Oc1ccccc1)C(=O)NC1C(=O)N2C1SC(C)(C)C2C(=O)O
INCHI="InChI=1S/C17H20N2O5S/c1-9(24-10-7-5-4-6-8-10)13(20)18-11-14(21)19-12(16(22)23)17(2,3)25-15(11)19/h4-9,11-12,15H,1-3H3,(H,18,20)(H,22,23)"
INCHIAUX=
PUBMED=N/A
SUBMITUSER=jzemlin
LIBRARYQUALITY=1
SPECTRUMID=CCMSLIB00016147498
USI=mzspec:GNPS:REFRAME-POSITIVE-LIBRARY:accession:CCMSLIB00016147498
SCANS=1782
52.404243	1357.085449
53.422291	1392.231567
55.021778	1297.751709
55.026741	1271.761475
57.033939	6086.994141
70.065582	2980.929932
87.026276	10098.217773
87.436241	1479.165161
89.881706	1466.10144
89.991982	1549.729004
90.97654	2007.132446
93.069801	2297.078369
95.049072	11788.469727
112.039291	32397.628906
114.037163	68189.765625
121.064529	8722.55957
140.746429	1422.316895
142.031998	2714.516846
145.774124	1456.651001
160.042725	147122.125
206.081573	5793.780762
288.692871	1578.97583
337.126648	2448.145508
END IONS

BEGIN IONS
PEPMASS=262.18
CHARGE=1
MSLEVEL=2
SOURCE_INSTRUMENT=LC-ESI-Orbitrap
FILENAME=reframe_drugs_pos_P2_H6_id.mzML
SEQ=*..*
IONMODE=Positive
ORGANISM=REFRAME-POSITIVE-LIBRARY
NAME=Piperocaine [M+H]+
PI=Pieter Dorrestein
DATACOLLECTOR=Nina Zhao
SMILES=CC1CCCCN1CCCOC(=O)c1ccccc1
INCHI="InChI=1S/C16H23NO2/c1-14-8-5-6-11-17(14)12-7-13-19-16(18)15-9-3-2-4-10-15/h2-4,9-10,14H,5-8,11-13H2,1H3"
INCHIAUX=
PUBMED=N/A
SUBMITUSER=jzemlin
LIBRARYQUALITY=1
SPECTRUMID=CCMSLIB00016148308
USI=mzspec:GNPS:REFRAME-POSITIVE-LIBRARY:accession:CCMSLIB00016148308
SCANS=1232
51.450863	87109.59375
55.054722	376730.15625
58.065613	128497.726562
60.402641	89828.585938
70.065384	305531.375
70.542953	87126.640625
72.08123	104627.898438
77.038643	221163.59375
83.050476	117573.109375
83.085548	218776.96875
84.080818	377038.15625
95.049126	820761.5625
98.096313	1386885.875
105.033478	26477642.0
107.684319	112710.007812
112.112015	14206064.0
136.045593	96727.367188
140.14325	14209378.0
148.292374	97728.828125
163.075302	16991034.0
232.066467	102496.304688
247.307266	118255.15625
262.180115	69992024.0
END IONS

BEGIN IONS
PEPMASS=232.17
CHARGE=1
MSLEVEL=2
SOURCE_INSTRUMENT=LC-ESI-Orbitrap
FILENAME=reframe_drugs_pos_P1_G4_id.mzML
SEQ=*..*
IONMODE=Positive
ORGANISM=REFRAME-POSITIVE-LIBRARY
NAME=Eptazocine [M+H]+
PI=Pieter Dorrestein
DATACOLLECTOR=Nina Zhao
SMILES=CN1CCC2(C)CC(Cc3c2cc(O)cc3)C1
INCHI="InChI=1S/C15H21NO/c1-15-5-6-16(2)10-11(9-15)7-12-3-4-13(17)8-14(12)15/h3-4,8,11,17H,5-7,9-10H2,1-2H3"
INCHIAUX=
PUBMED=N/A
SUBMITUSER=jzemlin
LIBRARYQUALITY=1
SPECTRUMID=CCMSLIB00016152962
USI=mzspec:GNPS:REFRAME-POSITIVE-LIBRARY:accession:CCMSLIB00016152962
SCANS=980
55.054676	37116.246094
55.513943	34222.28125
58.06554	557934.6875
60.117607	37682.152344
67.262772	53153.703125
67.941948	45299.855469
68.436287	65293.246094
69.070152	88905.015625
72.081047	64354.441406
73.465874	39587.324219
78.691681	40252.203125
89.159691	44059.320312
91.026245	37994.90625
102.157112	37485.085938
105.069931	77822.179688
105.967468	40898.597656
107.049164	263932.9375
110.284035	38863.082031
116.171059	42693.832031
117.069572	103933.984375
125.042816	44081.40625
131.049332	45937.03125
131.085632	269930.53125
133.064682	1668635.875
141.070129	58740.917969
144.057007	180947.796875
145.064621	1547812.875
145.10112	807451.8125
146.072891	82369.085938
147.080322	174266.5625
155.085342	272613.53125
157.06456	55020.828125
158.072556	706966.875
159.080429	2084540.5
160.088287	101310.140625
173.096024	4022331.25
174.099686	46095.496094
175.111694	2249807.25
201.127548	117849.210938
232.169601	44400624.0
END IONS

BEGIN IONS
PEPMASS=74.0606
CHARGE=1
MSLEVEL=2
SOURCE_INSTRUMENT=ESI-LC-ESI-QTOF
FILENAME=Massbank_ESI_positive_8_1_2014_peaks.mgf
SEQ=*..*
IONMODE=Positive
ORGANISM=MASSBANK
NAME=Massbank:PR100423 N,N-Dimethylformamide|DMF|DMFA|N,N-Dimethylmethanamide|Formyldimethylamine|Formic acid dimethylamide|N,N-Dimethylformamide(DMF) [M+H]+
PI=Putative Massbank Match
DATACOLLECTOR=Massbank
SMILES=[H]C(=O)N(C)C
INCHI=1S/C3H7NO/c1-4(2)3-5/h3H,1-2H3
INCHIAUX=N/A
PUBMED=N/A
SUBMITUSER=mwang87
LIBRARYQUALITY=3
SPECTRUMID=CCMSLIB00000223247
USI=mzspec:GNPS:MASSBANK:accession:CCMSLIB00000223247
SCANS=11379
74.0606	116.1
90.5199	2.641
99.5101	3.762
END IONS

BEGIN IONS
PEPMASS=264.009
CHARGE=1
MSLEVEL=2
SOURCE_INSTRUMENT=ESI-qTof
FILENAME=massbank-gnps.mgf
SEQ=*..*
IONMODE=Positive
ORGANISM=MASSBANK
NAME=Massbank:AU261605 Parathion-methyl|Methyl parathion|dimethoxy-(4-nitrophenoxy)-sulfanylidene-lambda5-phosphane M+H
PI=Massbank
DATACOLLECTOR=Massbank
SMILES=COP(=S)(OC)OC1=CC=C(C=C1)[N+]([O-])=O
INCHI=1S/C8H10NO5PS/c1-12-15(16,13-2)14-8-5-3-7(4-6-8)9(10)11/h3-6H,1-2H3
INCHIAUX=N/A
PUBMED=N/A
SUBMITUSER=mwang87
LIBRARYQUALITY=3
SPECTRUMID=CCMSLIB00005773621
USI=mzspec:GNPS:MASSBANK:accession:CCMSLIB00005773621
SCANS=48070
124.981598	432.0
153.960495	548.0
154.969101	1052.0
185.9534	308.0
END IONS
