BEGIN IONS
PEPMASS=219.177
CHARGE=1
MSLEVEL=2
SOURCE_INSTRUMENT=DI-ESI-qTof
FILENAME=gnps_2_6_di_tert_butyl_4_methylphenol_neg.mgf
SEQ=*..*
IONMODE=Negative
ORGANISM=GNPS-LIBRARY
NAME=2,6-di-tert-butyl-4-methylphenol M-H
PI=Norberto Lopes
DATACOLLECTOR=Norberto Lopes
SMILES=CC1=CC(C(C)(C)C)=C(O)C(C(C)(C)C)=C1
INCHI=InChI=1S/C15H24O/c1-10-8-11(14(2,3)4)13(16)12(9-10)15(5,6)7/h8-9,16H,1-7H3
INCHIAUX=N/A
PUBMED=N/A
SUBMITUSER=rsilva
LIBRARYQUALITY=3
SPECTRUMID=CCMSLIB00000081568
USI=mzspec:GNPS:GNPS-LIBRARY:accession:CCMSLIB00000081568
SCANS=1
203.142914	687.0
219.17691	1274.0
END IONS

BEGIN IONS
PEPMASS=376.98
CHARGE=1
MSLEVEL=2
SOURCE_INSTRUMENT=DI-ESI-qTof
FILENAME=gnps_Ambroxol_pos_MplusH.mgf
SEQ=*..*
IONMODE=Negative
ORGANISM=GNPS-LIBRARY
NAME=Ambroxol M-H
PI=Norberto Lopes
DATACOLLECTOR=Norberto Lopes
SMILES=BrC1=CC(Br)=C(N)C(CN[C@H]2CC[C@H](O)CC2)=C1
INCHI=InChI=1S/C13H18Br2N2O/c14-9-5-8(13(16)12(15)6-9)7-17-10-1-3-11(18)4-2-10/h5-6,10-11,17-18H,1-4,7,16H2/t10-,11-
INCHIAUX=N/A
PUBMED=N/A
SUBMITUSER=rsilva
LIBRARYQUALITY=3
SPECTRUMID=CCMSLIB00000081576
USI=mzspec:GNPS:GNPS-LIBRARY:accession:CCMSLIB00000081576
SCANS=1
116.104912	18590.0
155.952332	3629.0
157.951385	3636.0
181.954971	8455.0
182.961533	68673.0
183.958237	11537.0
184.961014	65369.0
185.964493	4601.0
236.868225	3594.0
261.881958	1147609.0
263.883209	1271846.0
265.877869	1124543.0
END IONS

BEGIN IONS
PEPMASS=147.044
CHARGE=1
MSLEVEL=2
SOURCE_INSTRUMENT=DI-ESI-qTof
FILENAME=f.10mauriz/17_br_pos_H_35eV.mgf;
SEQ=*..*
IONMODE=Positive
ORGANISM=GNPS-LIBRARY
NAME=Coumarin M+H
PI=Norberto Lopes
DATACOLLECTOR=Lucas Marques
SMILES=O=C1OC2=CC=CC=C2C=C1
INCHI=InChI=1S/C9H6O2/c10-9-6-5-7-3-1-2-4-8(7)11-9/h1-6H
INCHIAUX= 
PUBMED= 
SUBMITUSER=10mauriz
LIBRARYQUALITY=3
SPECTRUMID=CCMSLIB00000424787
USI=mzspec:GNPS:GNPS-LIBRARY:accession:CCMSLIB00000424787
SCANS=1
115.05304	446.0
132.079346	396.0
133.096115	163.0
147.043961	474.0
765.726501	261.0
1081.162354	105.0
END IONS

BEGIN IONS
PEPMASS=325.19
CHARGE=1
MSLEVEL=2
SOURCE_INSTRUMENT=DI-ESI-qTof
FILENAME=f.10mauriz/19_br_pos_25eV.mgf;
SEQ=*..*
IONMODE=Positive
ORGANISM=GNPS-LIBRARY
NAME=Quinidine M+H
PI=Norberto Lopes
DATACOLLECTOR=Lucas Marques
SMILES=COC1=CC=C(N=CC=C2[C@@](O)([H])C3N4CC(C=C)C(CC4)C3)C2=C1
INCHI=InChI=1S/C20H24N2O2/c1-3-13-12-22-9-7-14(13)10-19(22)20(23)16-6-8-21-18-5-4-15(24-2)11-17(16)18/h3-6,8,11,13-14,19-20,23H,1,7,9-10,12H2,2H3/t13?,14?,19?,20-/m0/s1
INCHIAUX= 
PUBMED= 
SUBMITUSER=10mauriz
LIBRARYQUALITY=3
SPECTRUMID=CCMSLIB00000424789
USI=mzspec:GNPS:GNPS-LIBRARY:accession:CCMSLIB00000424789
SCANS=1
160.073349	521.0
166.119553	226.0
172.074692	257.0
184.075607	610.0
186.091843	127.0
198.091644	148.0
199.09346	200.0
227.114899	114.0
239.114304	119.0
253.126221	312.0
264.139465	192.0
279.142059	172.0
307.179169	1028.0
325.190338	7498.0
326.191589	776.0
330.719849	103.0
331.214111	251.0
765.730042	411.0
END IONS

BEGIN IONS
PEPMASS=153.054
CHARGE=1
MSLEVEL=2
SOURCE_INSTRUMENT=DI-ESI-qTof
FILENAME=f.10mauriz/26_br_pos_H_10eV.mgf;
SEQ=*..*
IONMODE=Positive
ORGANISM=GNPS-LIBRARY
NAME=Vanillin M+H
PI=Norberto Lopes
DATACOLLECTOR=Lucas Marques
SMILES=O=CC1=CC(OC)=C(C=C1)O
INCHI=InChI=1S/C8H8O3/c1-11-8-4-6(5-9)2-3-7(8)10/h2-5,10H,1H3
INCHIAUX= 
PUBMED= 
SUBMITUSER=10mauriz
LIBRARYQUALITY=3
SPECTRUMID=CCMSLIB00000424792
USI=mzspec:GNPS:GNPS-LIBRARY:accession:CCMSLIB00000424792
SCANS=1
125.059212	5674.0
126.065361	197.0
153.054123	14024.0
154.057526	466.0
765.732483	271.0
1259.239258	112.0
END IONS

BEGIN IONS
PEPMASS=481.305
CHARGE=1
MSLEVEL=2
SOURCE_INSTRUMENT=DI-ESI-qTof
FILENAME=f.10mauriz/29_br_pos_35.mgf;
SEQ=*..*
IONMODE=Positive
ORGANISM=GNPS-LIBRARY
NAME=Emetine M+H
PI=Norberto Lopes
DATACOLLECTOR=Lucas Marques
SMILES=COC1=C(C=C2C([C@@](C[C@@]3([H])C[C@@]4([H])C5=C(CCN4C[C@@H]3CC)C=C(C(OC)=C5)OC)([H])NCC2)=C1)OC
INCHI=InChI=1S/C29H40N2O4/c1-6-18-17-31-10-8-20-14-27(33-3)29(35-5)16-23(20)25(31)12-21(18)11-24-22-15-28(34-4)26(32-2)13-19(22)7-9-30-24/h13-16,18,21,24-25,30H,6-12,17H2,1-5H3/t18-,21-,24-,25-/m0/s1
INCHIAUX= 
PUBMED= 
SUBMITUSER=10mauriz
LIBRARYQUALITY=3
SPECTRUMID=CCMSLIB00000424795
USI=mzspec:GNPS:GNPS-LIBRARY:accession:CCMSLIB00000424795
SCANS=1
160.083557	160.0
162.092667	214.0
165.090454	681.0
176.079773	102.0
177.095047	457.0
179.104416	576.0
183.601028	213.0
188.082977	108.0
189.094193	132.0
191.102768	833.0
192.104385	983.0
193.10965	107.0
194.11705	1603.0
195.128403	109.0
198.785675	124.0
201.089539	205.0
203.103241	120.0
204.10141	113.0
205.107651	295.0
206.12001	754.0
220.133102	430.0
230.115585	148.0
244.129074	152.0
246.149063	4640.0
247.150116	437.0
257.155365	272.0
258.151581	100.0
272.164215	719.0
274.178955	3000.0
275.181366	291.0
275.638031	136.0
279.246124	103.0
279.706543	154.0
286.18515	259.0
288.192902	165.0
300.199463	208.0
448.245605	105.0
464.274628	1052.0
465.277771	207.0
479.292084	147.0
481.304504	5404.0
482.311707	714.0
488.687622	121.0
765.730591	381.0
END IONS

BEGIN IONS
PEPMASS=207.137
CHARGE=1
MSLEVEL=2
SOURCE_INSTRUMENT=LC-ESI-qTof
FILENAME=f.MSV000078993/spectrum/Trace detection_Volunteers 12-39/Vol 35 Hand/vol35_Hand_GC4_01_24653.mzXML;
SEQ=*..*
IONMODE=Positive
ORGANISM=GNPS-LIBRARY
NAME=Ibuprofen M+H
PI=Pieter Dorrestein
DATACOLLECTOR=abouslimani
SMILES=CC(C)CC1=CC=C(C=C1)C(C)C(=O)O
INCHI= 
INCHIAUX= 
PUBMED= 
SUBMITUSER=abouslimani
LIBRARYQUALITY=3
SPECTRUMID=CCMSLIB00000424946
USI=mzspec:GNPS:GNPS-LIBRARY:accession:CCMSLIB00000424946
SCANS=2267
81.71212	20.0
82.059425	20.0
98.040413	20.0
105.070702	368.0
108.291985	20.0
109.591309	20.0
111.739731	20.0
113.180077	200.0
117.069679	156.0
119.084305	196.0
120.090462	140.0
121.169418	112.0
124.293297	20.0
125.980957	140.0
129.75946	120.0
129.94754	148.0
143.995544	152.0
147.814743	20.0
156.636749	20.0
157.48909	20.0
158.073608	20.0
161.017441	84.0
161.131973	1540.0
161.48967	80.0
162.135193	544.0
163.441391	20.0
164.062317	20.0
169.087524	20.0
170.42186	80.0
171.717148	80.0
173.540878	20.0
177.053146	124.0
178.360062	20.0
185.979599	20.0
186.454498	20.0
203.479996	20.0
203.684296	20.0
204.767044	20.0
206.323715	20.0
207.089951	112.0
207.144821	376.0
209.181396	248.0
211.427917	20.0
228.510452	20.0
240.896698	20.0
260.547791	20.0
271.369354	20.0
291.55722	20.0
299.8909	20.0
313.545868	20.0
319.144836	76.0
356.026917	20.0
368.039978	20.0
388.035767	20.0
402.553375	20.0
402.653107	20.0
409.67865	20.0
423.690979	20.0
450.901001	20.0
456.942688	20.0
467.898407	20.0
472.672333	20.0
474.827881	20.0
488.127625	20.0
496.196533	20.0
519.24469	20.0
521.70813	20.0
579.091858	20.0
581.381592	20.0
584.574585	20.0
675.056519	20.0
675.769714	20.0
679.807983	20.0
699.332703	20.0
742.702881	20.0
754.324036	20.0
802.904907	20.0
808.295166	20.0
853.588379	20.0
861.041382	20.0
862.827942	20.0
881.816345	20.0
901.399475	20.0
902.546143	20.0
906.798889	20.0
907.481689	20.0
923.166382	20.0
939.253601	20.0
954.840576	20.0
959.029846	20.0
984.901001	20.0
993.275269	20.0
1053.914185	20.0
1081.896484	20.0
1100.051392	20.0
1142.796265	20.0
1202.892944	20.0
1204.804199	20.0
1246.105103	20.0
1295.012817	20.0
1425.459961	20.0
1438.682129	20.0
1447.520752	20.0
1504.459106	20.0
1515.153198	20.0
1533.967041	20.0
1554.025513	20.0
1557.822021	20.0
1628.083618	20.0
1629.11084	20.0
1653.069092	20.0
1729.382324	20.0
1788.554565	20.0
1830.410034	20.0
1843.723633	20.0
1848.568359	20.0
1862.951782	20.0
1975.984131	20.0
END IONS

BEGIN IONS
PEPMASS=335.05
CHARGE=1
MSLEVEL=2
SOURCE_INSTRUMENT=LC-ESI-Ion Trap
FILENAME=f.l2sanchez/Peanuts/Af_A2_ft_it.mzXML;
SEQ=*..*
IONMODE=Positive
ORGANISM=GNPS-LIBRARY
NAME=Aflatoxin B1 (putative_Observed from A. flavus)  M+Na
PI=Dorrestein
DATACOLLECTOR=Laura
SMILES=COC1=C2C3=C(C(OC2=C4C5C=COC5OC4=C1)=O)C(CC3)=O
INCHI= 
INCHIAUX= 
PUBMED= 
SUBMITUSER=l2sanchez
LIBRARYQUALITY=3
SPECTRUMID=CCMSLIB00000427294
USI=mzspec:GNPS:GNPS-LIBRARY:accession:CCMSLIB00000427294
SCANS=5
99.894455	5.741997
108.846771	6.6182
115.005066	6.307602
121.026718	3.855318
122.784531	12.142102
123.882858	5.188992
126.142487	4.299791
128.754684	11.459816
130.018616	44.265377
133.00177	20.797928
134.915314	8.115513
136.714188	9.893542
140.099396	13.554832
141.015503	13.742006
142.224197	4.334204
142.940369	16.86697
147.095276	13.034082
149.016464	14.185863
150.15535	9.240704
153.045624	6.207516
154.856293	11.35408
156.009109	8.682114
156.955811	11.097305
158.955017	25.69075
160.978485	7.871523
164.71344	5.690763
166.064423	11.183825
167.207748	21.740673
168.865021	9.649452
170.189941	7.746323
171.104584	30.108118
173.006165	45.462173
175.044464	26.580425
177.163925	10.03069
178.055817	3.879011
180.911438	17.659431
182.982285	11.628479
183.983948	17.749212
184.969543	52.771446
187.08548	7.15691
188.164749	14.930737
189.035751	9.031071
192.041351	7.370814
193.185974	14.690693
194.168121	28.187733
195.112885	32.654659
195.971252	7.193213
199.05452	31.000288
201.058533	7.732588
202.505112	18.646111
203.292603	16.5425
205.201477	26.439697
206.112549	21.836536
207.121155	103.043907
208.048904	32.282257
209.936188	21.105198
211.06723	6.759144
211.929932	16.968105
213.048584	60.207222
214.196793	22.157061
215.170563	87.294495
218.319305	40.741394
219.2117	55.774803
220.093674	78.138481
221.043686	55.754814
223.367966	58.31057
224.209885	53.365299
225.196426	16.16188
226.894775	12.090978
228.263214	27.174194
229.126877	9.51809
230.232559	7.567091
231.201157	15.989746
232.167526	8.623075
233.232971	16.119007
234.419159	24.44964
235.153412	56.743195
236.72226	25.695774
237.454163	12.120223
240.96701	16.862705
242.244629	75.15139
243.285126	38.014339
244.142426	8.096531
244.931076	41.830288
246.096115	4.0249
246.97731	58.918152
248.192429	26.339672
249.066132	6.608843
250.206406	18.30171
251.17424	5.270506
252.034317	17.657022
253.261337	20.203186
255.109985	12.544927
257.080627	6.180519
257.909912	5.733118
259.070557	21.128845
260.190491	20.555706
261.263336	123.7005
262.221008	123.124702
263.314301	3.914594
264.078979	29.673618
265.090515	15.936379
266.699402	24.425829
268.119843	18.495275
270.802216	23.147612
272.204437	54.430794
273.205933	63.831066
274.93158	242.843811
276.15744	56.676849
277.228027	55.540909
278.209778	36.623386
279.069031	97.099037
281.885223	38.32497
285.238892	3.859735
288.145508	60.740524
289.092285	265.632263
290.147156	48.004761
291.079437	155.314026
292.17511	4.204196
293.36087	47.573742
295.342346	19.95315
296.562683	12.132836
298.540405	78.452751
299.327271	65.499306
302.507751	41.259521
303.286255	427.465912
304.304199	171.098175
305.999725	2358.888184
307.086975	2391.941162
308.476776	22.254023
310.211395	16.907398
311.054047	25.312294
312.036987	13.498232
314.160522	9.335643
316.089294	248.697311
317.086517	861.732849
318.181915	64.688087
319.932129	2002.768066
320.977753	27.878815
325.574585	33.248718
326.292419	60.823586
327.022888	4.005517
331.03598	4.8341
335.050049	4.59183
347.294952	6.454664
357.010498	9.782061
382.17572	10.683718
391.340424	18.553762
408.875977	8.903012
414.910889	5.806198
418.080017	5.604445
427.283295	7.575726
447.431335	7.991607
455.707489	5.463116
473.3125	21.588144
481.380615	10.645596
512.242065	16.470932
530.474121	6.092163
540.297058	13.776306
555.254028	5.804716
END IONS

BEGIN IONS
PEPMASS=391.284
CHARGE=0
MSLEVEL=2
SOURCE_INSTRUMENT=LC-ESI-qTof
FILENAME=f.amelnik/Rotten_Apple_new_mzXML/P1-A-4_P1-A-4_01_3642.mzXML;
SEQ=*..*
IONMODE=Positive
ORGANISM=GNPS-LIBRARY
NAME=Bis(2-ethylhexyl) phthalate M+H
PI=PDorrestein
DATACOLLECTOR=AMelnik
SMILES=CCCCC(CC)COC(=O)C1=CC=CC=C1C(=O)OCC(CC)CCCC
INCHI= 
INCHIAUX= 
PUBMED= 
SUBMITUSER=amelnik
LIBRARYQUALITY=3
SPECTRUMID=CCMSLIB00000574967
USI=mzspec:GNPS:GNPS-LIBRARY:accession:CCMSLIB00000574967
SCANS=907
149.030518	7948.0
150.03241	492.0
167.040543	1808.0
168.034271	252.0
279.162323	15100.0
280.164917	1664.0
391.094971	464.0
391.287079	183296.0
391.734436	412.0
392.100128	332.0
392.287445	32180.0
392.530914	292.0
393.289062	4580.0
394.288605	484.0
409.298218	924.0
410.285004	296.0
432.304962	760.0
END IONS

BEGIN IONS
PEPMASS=549.32
CHARGE=1
MSLEVEL=2
SOURCE_INSTRUMENT=LC-ESI-qTof
FILENAME=f.chenliangyu/B2-2 light/EtOAC/B2-2LE-C9.mzXML;
SEQ=*..*
IONMODE=Positive
ORGANISM=GNPS-LIBRARY
NAME=Antimycin A1 M+H
PI=Dorrestein
DATACOLLECTOR=Liangyu Chen
SMILES=CCCCCCC1C(C(OC(=O)C(C(OC1=O)C)NC(=O)C2=C(C(=CC=C2)NC=O)O)C)OC(=O)CC(C)C
INCHI=InChI=1S/C28H40N2O9/c1-6-7-8-9-11-20-25(39-22(32)14-16(2)3)18(5)38-28(36)23(17(4)37-27(20)35)30-26(34)19-12-10-13-21(24(19)33)29-15-31/h10,12-13,15-18,20,23,25,33H,6-9,11,14H2,1-5H3,(H,29,31)(H,30,34)
INCHIAUX= 
PUBMED=12550
SUBMITUSER=chenliangyu
LIBRARYQUALITY=3
SPECTRUMID=CCMSLIB00000578442
USI=mzspec:GNPS:GNPS-LIBRARY:accession:CCMSLIB00000578442
SCANS=1161
136.034912	656.0
164.032791	1716.0
191.084702	912.0
219.08017	372.0
237.091583	12872.0
238.096054	2112.0
239.098724	336.0
247.07431	592.0
265.089203	6352.0
266.092621	1068.0
463.30722	3020.0
464.306519	624.0
549.382996	46632.0
550.382874	12812.0
551.375977	4176.0
552.373291	696.0
END IONS

BEGIN IONS
PEPMASS=335.108
CHARGE=0
MSLEVEL=2
SOURCE_INSTRUMENT=LC-ESI-qTof
FILENAME=f.mice/SC_-Fe_+Fe_YEME_Langzeit_Anfang_2015/160113_Penicillin_G_V.mzXML;
SEQ=*..*
IONMODE=Positive
ORGANISM=GNPS-LIBRARY
NAME=Penicillin G M+H
PI=Bandow
DATACOLLECTOR=Senges
SMILES=CC1(C(N2C(S1)C(C2=O)NC(=O)CC3=CC=CC=C3)C(=O)O)C
INCHI=1S/C16H18N2O4S/c1-16(2)12(15(21)22)18-13(20)11(14(18)23-16)17-10(19)8-9-6-4-3-5-7-9/h3-7,11-12,14H,8H2,1-2H3,(H,17,19)(H,21,22)/t11-,12+,14-/m1/s1
INCHIAUX= 
PUBMED= 
SUBMITUSER=mice
LIBRARYQUALITY=3
SPECTRUMID=CCMSLIB00003739952
USI=mzspec:GNPS:GNPS-LIBRARY:accession:CCMSLIB00003739952
SCANS=4527
74.106209	36.0
91.114227	99.0
95.133118	34.0
98.080933	24.0
100.0886	27.0
113.095016	37.0
115.142357	36.0
120.132797	5.0
120.137581	5.0
121.15416	44.0
122.141251	8.0
122.146072	8.0
128.113251	209.0
128.202209	13.0
129.123276	35.0
136.080276	12.0
136.161758	8.0
145.127838	9.0
146.118271	14.0
146.123535	14.0
153.113098	16.0
159.162476	59.0
160.105698	208.0
161.107086	51.0
161.633926	10.0
162.106033	42.0
163.175003	43.0
165.037308	11.0
173.120239	20.0
173.131729	41.0
174.126907	69.0
175.124954	52.0
175.136505	29.0
176.137421	342.0
177.135391	65.0
178.118698	44.0
184.134872	25.0
185.131439	49.0
185.149261	8.0
189.120621	26.0
189.138626	17.0
194.057388	31.0
194.16687	22.0
200.100037	8.0
208.088959	15.0
213.170197	13.0
215.958282	25.0
217.95166	11.0
220.103119	38.0
229.078888	28.0
234.736359	5.0
234.743042	5.0
234.943756	11.0
237.063019	12.0
237.520325	37.0
238.9758	6.0
240.083893	37.0
240.110947	66.0
243.021759	30.0
243.164703	124.0
243.26001	20.0
245.177078	41.0
245.963821	22.0
247.170303	28.0
248.035843	26.0
252.858109	15.0
252.934479	20.0
255.844971	29.0
255.872894	8.0
255.935745	12.0
261.193542	12.0
261.200592	12.0
263.15863	17.0
268.983521	32.0
271.171722	27.0
273.159454	37.0
273.274902	14.0
274.937317	39.0
275.886383	22.0
278.117004	41.0
280.927002	11.0
281.490692	25.0
281.937653	27.0
282.994202	11.0
283.163116	8.0
284.95105	28.0
285.511414	47.0
286.981232	33.0
289.181885	454.0
289.939636	68.0
289.96936	9.0
290.162659	64.0
290.184967	105.0
290.348602	17.0
291.182343	93.0
291.197235	14.0
292.509888	23.0
292.928131	19.0
293.892792	33.0
293.94516	25.0
294.978973	17.0
295.286438	6.0
295.293945	6.0
295.931946	47.0
296.164795	18.0
297.880249	23.0
297.963135	9.0
298.958649	9.0
301.955231	31.0
306.699799	46.0
309.297058	12.0
318.173798	10.0
318.18158	10.0
328.575287	9.0
328.670227	39.0
331.160095	8.0
332.432404	12.0
332.766815	12.0
332.886261	7.0
334.01825	12.0
334.305542	25.0
334.36142	13.0
334.688812	27.0
334.760681	8.0
334.872528	7.0
335.048309	25.0
335.184143	10635.0
335.232117	31.0
335.264069	36.0
335.312042	28.0
335.336029	69.0
335.384003	29.0
335.40799	34.0
335.455963	14.0
335.487946	11.0
335.535919	15.0
335.663879	9.0
335.695862	37.0
335.743866	9.0
335.911865	12.0
336.023865	5.0
336.031891	5.0
336.18396	2490.0
336.231964	58.0
336.320038	5.0
336.328033	5.0
336.688446	9.0
336.904755	7.0
337.008911	7.0
337.040985	17.0
337.097076	14.0
337.185272	586.0
337.217316	43.0
337.257416	104.0
337.698486	10.0
337.770691	8.0
337.923157	13.0
337.963287	10.0
338.188019	121.0
338.220154	15.0
338.268311	39.0
338.364655	32.0
338.589539	8.0
338.742188	8.0
338.782379	20.0
338.870789	15.0
339.176239	22.0
339.224487	11.0
339.24057	90.0
339.353149	15.0
339.497894	10.0
340.181976	15.0
340.310791	16.0
340.769989	8.0
340.947296	9.0
341.26178	8.0
342.529083	12.0
343.531677	6.0
346.109558	6.0
346.832794	8.0
348.966156	10.0
357.201965	20.0
392.80835	20.0
457.406586	13.0
596.093201	16.0
610.946594	51.0
625.687988	28.0
633.981689	24.0
648.974487	39.0
668.266602	77.0
694.831665	8.0
719.312927	12.0
749.778137	12.0
985.887329	10.0
1229.252197	8.0
1921.208008	9.0
2799.421631	6.0
2799.444824	6.0
END IONS

BEGIN IONS
PEPMASS=272.202
CHARGE=0
MSLEVEL=2
SOURCE_INSTRUMENT=LC-ESI-qTof
FILENAME=f.alan_jarmusch/GNPS_library_additions/Dextromethorphan.mzXML;
SEQ=*..*
IONMODE=Positive
ORGANISM=GNPS-LIBRARY
NAME=Dextromethorphan M+H
PI=Pieter Dorrestein
DATACOLLECTOR=alan jarmusch
SMILES=CN1CCC23CCCCC2C1CC4=C3C=C(C=C4)OC
INCHI=InChI=1S/C18H25NO/c1-19-10-9-18-8-4-3-5-15(18)17(19)11-13-6-7-14(20-2)12-16(13)18/h6-7,12,15,17H,3-5,8-11H2,1-2H3/t15-,17+,18+/m1/s1
INCHIAUX= 
PUBMED= 
SUBMITUSER=alan_jarmusch
LIBRARYQUALITY=3
SPECTRUMID=CCMSLIB00004679246
USI=mzspec:GNPS:GNPS-LIBRARY:accession:CCMSLIB00004679246
SCANS=1201
95.084061	22.0
102.045013	28.0
102.399208	17.0
103.116669	27.0
107.083504	25.0
108.734322	19.0
115.051682	270.0
116.835388	18.0
117.06871	82.0
119.044472	28.0
121.062149	1022.0
122.0672	131.0
123.04557	25.0
123.067535	27.0
127.050446	61.0
128.060898	265.0
129.060135	28.0
131.048645	67.0
131.082657	21.0
132.056152	160.0
133.097977	51.0
134.108673	34.0
135.078812	345.0
136.079117	35.0
136.114136	26.0
138.055008	18.0
138.128128	17.0
141.068008	153.0
141.540756	18.0
142.074936	27.0
142.616135	19.0
144.053329	213.0
145.062134	245.0
146.070389	77.0
146.937653	35.0
147.079117	5801.0
147.117477	26.0
147.714844	19.0
148.083038	593.0
148.234055	29.0
149.090363	19.0
149.8013	28.0
150.525528	17.0
150.578339	31.0
150.777863	19.0
150.935333	19.0
151.051682	28.0
153.068588	37.0
154.077515	27.0
155.059082	58.0
156.05748	100.0
156.091614	37.0
157.062561	107.0
157.099838	24.0
158.07196	350.0
159.079239	2378.0
160.082642	420.0
161.093307	282.0
162.098755	50.0
163.05751	43.0
164.125137	20.0
164.548492	25.0
165.068939	166.0
165.090668	62.0
166.046524	27.0
166.077148	96.0
167.086945	75.0
167.438736	19.0
168.053177	18.0
169.067581	72.0
169.097473	18.0
169.752533	22.0
170.069	195.0
170.102661	21.0
170.61705	16.0
170.7211	23.0
171.079697	9091.0
171.13205	24.0
172.05423	47.0
172.082916	1085.0
173.094772	3954.0
173.447678	18.0
173.508163	22.0
174.099442	575.0
174.515762	18.0
176.058075	21.0
177.861298	21.0
178.083511	21.0
179.083145	78.0
180.091324	40.0
180.286545	18.0
181.067276	77.0
181.100937	109.0
182.059097	26.0
182.107864	133.0
183.077499	111.0
183.124481	32.0
183.654022	19.0
184.086365	182.0
185.092758	431.0
185.220917	24.0
185.649551	20.0
186.101456	133.0
187.112305	253.0
188.113571	20.0
191.206711	16.0
195.116699	31.0
195.769089	25.0
196.287537	17.0
197.096985	139.0
198.103348	1968.0
198.149094	30.0
199.048157	17.0
199.109955	1408.0
200.118622	235.0
201.118027	21.0
201.581955	16.0
202.672745	26.0
202.89653	16.0
203.678909	24.0
206.07988	19.0
208.767365	20.0
209.10733	18.0
209.131577	50.0
210.114044	30.0
211.111496	143.0
211.971329	18.0
212.091263	23.0
212.117432	72.0
212.405396	17.0
212.759811	17.0
212.781754	16.0
212.965485	28.0
213.026093	18.0
213.127747	23022.0
213.199127	28.0
213.271149	16.0
213.327728	17.0
213.6371	34.0
213.709732	26.0
213.754364	16.0
213.997406	26.0
214.047623	33.0
214.087082	26.0
214.130325	3807.0
214.226562	45.0
214.274918	21.0
214.503372	24.0
214.537552	19.0
214.709656	30.0
214.811127	30.0
214.930344	45.0
214.957108	19.0
215.036057	32.0
215.143143	33358.0
215.241547	51.0
215.422714	18.0
215.450729	39.0
215.560822	37.0
215.640045	36.0
215.661835	27.0
215.735352	16.0
215.889465	27.0
215.911179	26.0
215.950256	20.0
216.107407	78.0
216.146805	4753.0
216.657043	24.0
216.902283	21.0
216.97612	20.0
217.067154	18.0
217.151093	351.0
217.510757	17.0
217.647812	30.0
217.797562	19.0
217.843628	20.0
218.288757	19.0
220.272324	36.0
224.714539	17.0
226.137817	27.0
227.218018	16.0
227.601959	27.0
228.321579	20.0
229.158615	149.0
230.171097	21.0
230.292282	16.0
230.75235	16.0
232.346039	20.0
233.281113	61.0
235.057999	32.0
238.016861	30.0
238.275436	35.0
239.032959	27.0
239.683929	22.0
239.988022	27.0
240.15274	17.0
240.684586	17.0
241.159454	1559.0
241.202316	30.0
241.449432	19.0
241.49469	33.0
241.939484	17.0
242.163361	324.0
243.161407	38.0
243.743835	32.0
244.159637	20.0
244.967987	21.0
245.781967	20.0
248.149109	16.0
248.387177	39.0
249.952881	25.0
250.769516	27.0
250.927521	34.0
251.159119	23.0
252.138611	22.0
252.21077	16.0
252.82756	32.0
254.661148	16.0
255.352753	19.0
255.707123	22.0
256.379395	21.0
256.663147	34.0
257.333771	19.0
257.546539	16.0
257.610016	35.0
258.137238	17.0
258.208893	20.0
258.457275	20.0
259.125214	28.0
260.182251	21.0
264.009003	29.0
265.184845	23.0
267.665649	37.0
267.698151	39.0
267.901978	22.0
268.212616	23.0
268.307312	20.0
268.470215	17.0
268.682373	24.0
268.709991	21.0
268.73407	23.0
269.25473	19.0
269.281464	41.0
269.395294	19.0
269.538757	29.0
269.643097	28.0
269.736389	41.0
269.893066	18.0
269.931213	22.0
270.126862	63.0
270.182495	75.0
270.252167	18.0
270.310486	46.0
270.369476	30.0
270.411469	30.0
270.433502	26.0
270.464813	38.0
270.517151	18.0
270.629822	18.0
270.680054	16.0
270.761261	29.0
270.797516	55.0
270.832275	35.0
270.866425	21.0
270.899536	49.0
270.970062	107.0
271.05426	84.0
271.1315	82.0
271.18573	53.0
271.215271	79.0
271.256927	77.0
271.302063	35.0
271.331726	46.0
271.354156	64.0
271.417816	57.0
271.474579	68.0
271.506744	42.0
271.546509	96.0
271.594452	55.0
271.640137	42.0
271.67865	84.0
271.716888	87.0
271.7547	55.0
271.80661	76.0
271.829407	53.0
271.895355	140.0
271.927856	152.0
272.00415	108.0
272.049957	252.0
272.088837	243.0
272.201721	449710.0
272.319977	46.0
272.354095	17.0
272.420532	3989.0
272.481232	1521.0
272.523926	47.0
272.55542	61.0
272.670563	3763.0
272.76004	56.0
272.784454	41.0
272.820526	90.0
272.86322	1851.0
272.923187	21.0
272.973389	45.0
273.018066	109.0
273.058777	270.0
273.101135	98.0
273.204956	117746.0
273.423584	350.0
273.476593	61.0
273.640228	58.0
273.756561	29.0
273.781189	33.0
273.839233	46.0
273.901001	31.0
274.034149	56.0
274.064697	48.0
274.134186	27.0
274.209351	8848.0
274.33316	31.0
274.386993	17.0
274.417694	36.0
274.526672	22.0
274.567657	36.0
274.652405	37.0
274.692139	41.0
274.72464	22.0
274.828766	92.0
274.86615	60.0
274.930969	38.0
274.963501	18.0
275.040009	151.0
275.128357	50.0
275.22052	12955.0
275.284729	68.0
275.326385	59.0
275.376587	37.0
275.397583	26.0
275.424225	42.0
275.525269	20.0
275.561188	32.0
275.689087	29.0
275.76004	26.0
276.023224	21.0
276.061035	29.0
276.091675	22.0
276.15271	16.0
276.180939	22.0
276.221436	85.0
276.274475	38.0
276.297729	43.0
276.351349	28.0
276.408478	36.0
276.520782	19.0
276.641327	17.0
276.82016	22.0
276.911957	17.0
277.035858	31.0
277.386261	18.0
277.907318	16.0
283.384674	22.0
283.88858	20.0
284.105988	17.0
284.187317	26.0
285.018646	33.0
285.184143	16.0
285.873932	21.0
286.171814	26.0
287.14267	18.0
288.92691	29.0
289.418854	52.0
289.461487	16.0
289.659821	17.0
289.74942	18.0
289.964996	23.0
291.574677	19.0
292.528564	17.0
295.399231	20.0
302.393463	20.0
304.186462	17.0
304.630371	32.0
313.213257	27.0
318.170502	23.0
320.158295	18.0
326.607941	17.0
339.214844	18.0
358.079041	32.0
377.043701	21.0
440.311615	17.0
558.878052	16.0
580.391846	17.0
658.335266	19.0
718.57373	19.0
812.024719	21.0
968.068054	28.0
1004.641907	17.0
1394.080933	21.0
1455.877808	18.0
1475.3927	16.0
END IONS

BEGIN IONS
PEPMASS=300.159
CHARGE=1
MSLEVEL=2
SOURCE_INSTRUMENT=LC-ESI-Orbitrap
FILENAME=f.Francesca90/drug_RIS 2/180523_MIX60.mzXML;
SEQ=*..*
IONMODE=Positive
ORGANISM=GNPS-LIBRARY
NAME=Codeine M+H
PI=Manuel Sergi
DATACOLLECTOR=23.05.2018
SMILES=CN1CCC23C4C1CC5=C2C(=C(C=C5)OC)OC3C(C=C4)O
INCHI= 
INCHIAUX= 
PUBMED= 
SUBMITUSER=Francesca90
LIBRARYQUALITY=3
SPECTRUMID=CCMSLIB00004679363
USI=mzspec:GNPS:GNPS-LIBRARY:accession:CCMSLIB00004679363
SCANS=279
50.488258	749.618347
50.488598	1135.176147
50.488937	1167.42688
50.489277	827.030151
50.489616	350.886322
56.049194	611.103699
56.049591	1057.417236
56.049992	1273.127686
56.050388	1080.581665
56.050785	594.62616
58.062691	255.08345
58.06311	2010.846558
58.06353	1806.320679
58.064144	3313.541504
58.064564	7329.07959
58.064983	19435.777344
58.065403	34291.378906
58.065823	47116.585938
58.066242	39366.4375
58.066662	22981.583984
58.067081	7427.108398
64.402374	524.234436
64.402863	960.4552
64.403358	1173.065674
64.403847	995.949097
64.404335	546.922241
89.057976	542.402649
89.058769	1247.63562
89.05957	1788.852783
89.060364	1750.986694
89.061157	1154.353516
89.061958	446.940643
93.068825	821.066284
93.069672	1339.704102
93.070526	1462.237183
93.071381	1056.000366
93.072227	440.520966
121.060661	701.522217
121.061928	1795.008057
121.063194	4170.495605
121.064453	5719.065918
121.06572	4662.67334
121.066978	1985.264771
121.068245	794.534058
137.054901	961.180969
137.056412	2925.914795
137.057938	5450.696777
137.059464	7550.036621
137.060989	6319.54248
137.0625	3777.81665
137.064026	1190.81311
137.065552	346.635895
144.053421	660.260132
144.055054	1255.255981
144.056702	1685.614136
144.058334	1631.416016
144.059982	1060.824097
153.065979	652.566956
153.06778	1417.127441
153.06958	1892.540894
153.071381	1752.39856
153.073166	1150.009644
153.074966	488.936829
155.079254	751.38916
155.081085	1532.196777
155.082916	3910.0354
155.084747	6524.830078
155.086578	6484.006348
155.088409	3924.348145
155.09024	1673.115112
155.092072	683.50946
158.068909	684.811157
158.070801	1177.546265
158.072678	1456.322632
158.07457	1293.16272
158.076447	787.856262
159.074524	602.173035
159.076431	1614.71521
159.078339	2945.418213
159.080231	5620.647949
159.082138	4568.098633
159.084045	2216.81543
159.085953	957.172607
161.052536	656.129639
161.054474	3393.26709
161.056412	7676.882812
161.05835	12181.370117
161.060287	12602.629883
161.062225	8251.969727
161.064163	3968.989014
161.066101	990.334656
162.08699	625.134094
162.088943	1271.173462
162.090897	1664.026733
162.092865	1494.827393
162.094818	895.302124
164.912399	426.377563
164.914413	1153.85437
164.916412	3452.940186
164.918427	5915.779785
164.920441	7608.358887
164.92244	5849.70166
164.924454	3257.207764
164.926468	712.262817
165.062561	404.655457
165.064575	3087.611572
165.066574	6737.664062
165.068588	10328.245117
165.070602	9471.512695
165.072617	5782.982422
165.074631	2416.698486
165.076645	589.131775
168.053757	881.892578
168.055817	1326.257324
168.057892	1492.918335
168.059952	1294.906372
168.062027	808.557312
171.073318	388.733093
171.075439	1133.83313
171.07756	2146.341797
171.079681	2754.469971
171.081802	2559.249512
171.083923	1731.320068
171.086044	812.648987
174.061752	798.546997
174.063934	1398.833862
174.066116	1821.32019
174.068298	1816.047363
174.070465	1338.702393
174.072647	661.82428
175.067291	400.330475
175.069489	2941.059814
175.071686	6387.807617
175.073883	10116.942383
175.07608	9995.737305
175.078278	6378.077637
175.080475	3054.722412
175.082672	992.144348
177.238724	702.510254
177.240967	1265.217041
177.24321	1505.64856
177.245438	1328.223755
177.247681	926.515564
178.080933	429.677368
178.083191	1097.74707
178.085434	1519.736328
178.087692	1376.031982
178.089951	833.708984
180.097061	895.925293
180.099365	1771.889282
180.101654	2251.853027
180.103943	1909.626221
180.106232	995.155212
181.056747	247.667297
181.059067	2313.47583
181.061371	5401.860352
181.06369	8684.529297
181.065994	9101.526367
181.068314	6074.34082
181.070618	3126.563477
181.072922	719.443665
181.096039	1068.210815
181.098358	1832.024048
181.100662	2141.073975
181.102982	1849.088135
181.105286	1226.180542
181.10759	605.48938
183.062759	960.693298
183.065109	2585.459473
183.067459	1371.27002
183.069809	1156.000732
183.072159	2964.1875
183.074509	10805.588867
183.076859	23001.421875
183.079208	35999.121094
183.081558	36813.789062
183.083908	23922.902344
183.086258	11603.969727
183.088608	3022.076416
183.090958	814.775757
184.079437	829.425842
184.081802	1464.832642
184.084183	1814.464966
184.086548	1585.785645
184.088913	945.46637
186.061325	647.320557
186.063721	1384.509888
186.066132	1944.974121
186.068542	1988.808838
186.070953	1475.744019
186.073349	718.531616
187.06456	688.272705
187.066986	1767.845215
187.069412	6251.072266
187.071838	13625.624023
187.074265	21689.248047
187.076691	22580.160156
187.079117	14616.621094
187.081543	6893.844238
187.083969	1602.964966
187.086395	348.623474
187.103119	754.514954
187.105545	2063.166992
187.107971	4308.978516
187.110397	6697.571289
187.112823	6693.229492
187.11525	4339.67334
187.117676	2046.891968
187.120102	663.941162
191.078156	462.069702
191.080658	1358.734741
191.08316	2308.284668
191.085678	2652.129639
191.088181	2186.688477
191.090683	1270.365845
191.093185	449.13916
192.094238	862.012512
192.096756	3280.987549
192.099289	5853.360352
192.101807	7560.412109
192.10434	5740.466309
192.106857	3250.018799
192.10939	806.771973
193.054611	446.828979
193.057159	3190.156494
193.059708	9146.243164
193.062256	15592.370117
193.064789	18675.083984
193.067337	13473.162109
193.069885	7451.585938
193.072433	2260.589844
193.074966	521.876526
194.066299	965.472351
194.068863	1987.036377
194.071426	2774.230713
194.07399	2743.091064
194.076553	1930.638672
194.079117	939.518921
195.075317	872.840332
195.077911	1536.997192
195.08049	1817.408325
195.083069	1453.028076
195.085663	711.782288
197.088257	550.69928
197.090881	1530.246826
197.093506	2542.173096
197.09613	2869.90918
197.098755	2294.460938
197.101379	1270.90979
197.104004	433.364594
199.063095	355.742706
199.06575	2767.262451
199.06842	11546.628906
199.071091	25157.150391
199.073746	39769.785156
199.076416	41596.113281
199.079071	27667.677734
199.081741	14103.80957
199.084396	3885.216797
199.087067	713.949097
200.073944	761.727356
200.07663	1779.233521
200.079315	2761.270264
200.082001	3264.303467
200.084686	3054.398193
200.087372	2220.791504
200.090057	1200.16333
200.092743	517.150208
201.084274	1122.424316
201.086975	2197.689697
201.089676	2875.029053
201.092392	2581.720947
201.095093	1555.270508
201.097794	587.944763
207.072525	775.003967
207.075348	1808.296387
207.078186	2928.143555
207.081009	3454.493164
207.083832	2947.716797
207.086655	1734.780518
207.089478	681.728821
208.079437	653.275696
208.082291	1181.614868
208.085144	1396.642822
208.087982	1208.941406
208.090836	805.062439
209.050339	1299.245117
209.053207	4842.927734
209.056076	8478.970703
209.058945	11292.509766
209.061813	9262.75293
209.064682	5506.692871
209.067551	1876.226929
209.070404	150.531021
209.087982	753.175232
209.090851	1820.466675
209.093719	3032.331543
209.096588	5748.068848
209.099457	4715.184082
209.102325	2163.172852
209.105194	954.291565
211.066116	1010.502991
211.069016	3756.667725
211.07193	6973.465332
211.074844	9650.448242
211.077744	7709.986328
211.080658	4377.23584
211.083572	1309.17395
211.086472	106.904495
212.075974	943.783691
212.078903	1813.016357
212.081833	2306.881592
212.084763	2112.442139
212.087692	1455.952637
212.090622	750.478027
213.066544	776.663269
213.069489	1260.021606
213.072449	1397.346313
213.075394	1149.125244
213.080231	981.550964
213.083176	4276.831055
213.086136	8068.868652
213.089081	11522.62207
213.092026	9732.647461
213.094986	5749.192871
213.097931	2261.323975
213.100876	732.485229
215.089676	1057.043945
215.092667	2008.533447
215.095657	7831.425293
215.098648	28872.699219
215.101639	66767.9375
215.10463	107974.984375
215.10762	119538.234375
215.110611	82170.703125
215.113602	43183.433594
215.116608	12446.185547
215.119598	3220.702393
215.122589	1894.55481
215.12558	1342.766968
215.12851	2839.562744
216.099396	779.186951
216.102417	2892.107178
216.105423	5965.178711
216.108444	9313.736328
216.11145	9781.333984
216.114471	6387.146484
216.117477	3065.060547
216.120483	462.726166
219.072296	1412.036987
219.075378	4241.708496
219.078445	7298.809082
219.081528	8072.034668
219.084595	5482.40918
219.087677	2879.369385
219.090759	676.286926
221.084991	650.91217
221.088104	2783.794434
221.091217	5776.354492
221.094345	9015.693359
221.097458	8961.429688
221.100571	5588.73877
221.103699	2341.062988
221.106812	303.218475
223.065491	815.998779
223.068649	3539.790039
223.071808	6579.666016
223.074966	9097.269531
223.078125	7755.766602
223.081284	4699.49707
223.084442	1726.07312
223.087616	248.403275
224.076874	594.205261
224.080048	1166.362793
224.083237	1518.103027
224.086411	1299.89978
224.0896	667.446228
225.079071	3541.709717
225.082275	13306.496094
225.085464	31517.304688
225.088669	51238.578125
225.091873	57155.886719
225.095078	39261.144531
225.098282	20430.363281
225.101486	5968.356445
225.104691	1804.995361
225.107895	1071.816406
226.0849	402.692413
226.088135	1138.503296
226.091354	2145.338623
226.094574	2811.55957
226.097809	2566.190918
226.101028	1569.033936
226.104248	568.803894
236.073273	508.312408
236.076706	1260.886963
236.080139	1949.785889
236.083588	2078.805664
236.087021	1537.422241
236.090469	724.617004
237.080994	560.311646
237.084457	1243.654419
237.087921	1725.348267
237.091385	1704.793701
237.094833	1198.351318
237.098297	506.650085
241.070114	376.583435
241.073654	1496.635132
241.077209	6113.521973
241.080765	12079.734375
241.084305	17711.025391
241.08786	15966.948242
241.091415	9792.839844
241.094955	4120.632812
241.098511	863.848267
243.078171	450.476685
243.081772	1496.310059
243.085373	2348.093262
243.088959	7877.414062
243.09256	27983.775391
243.096146	57959.425781
243.099747	89835.578125
243.103333	90024.757812
243.106934	58281.726562
243.110535	28329.609375
243.11412	7946.002441
243.117722	2469.021973
243.121323	2076.276855
243.124908	1533.020264
243.128464	1558.337524
243.132065	0.546349
244.094925	1083.949585
244.098541	2876.788086
244.102158	5285.176758
244.105774	6649.078613
244.10939	4537.648438
244.113007	2177.86377
244.116623	763.509583
251.092499	322.566864
251.096283	1839.542358
251.100052	5243.447266
251.103821	8752.998047
251.107605	10466.924805
251.111374	7627.822754
251.115143	4033.9021
251.118927	1107.468994
253.109787	690.654236
253.113602	3121.62085
253.117432	6445.353516
253.121246	9921.594727
253.125061	10389.272461
253.128891	6938.416992
253.132706	3487.49585
253.13652	640.739502
266.107391	868.291565
266.111511	1882.397095
266.115631	2682.766357
266.119751	2731.53125
266.123871	1979.746704
266.127991	932.467468
267.110657	942.20105
267.114807	2908.87915
267.118958	5729.775879
267.123077	8509.805664
267.127228	8015.268066
267.131378	4963.622559
267.135498	2067.506836
267.139648	134.7939
282.128143	828.964539
282.13266	3785.898438
282.137146	14508.253906
282.141632	31941.392578
282.146118	50933.558594
282.150635	53490.355469
282.155121	35285.660156
282.159607	17653.0625
282.164124	5027.547852
282.16861	1414.581421
282.173096	658.337158
283.137726	878.84137
283.142242	2344.419922
283.146759	4352.06543
283.151276	5810.620117
283.155792	4567.614746
283.160309	1888.592041
283.164825	634.448425
285.122711	589.534973
285.127258	1377.233398
285.131836	2320.033447
285.136414	2882.161377
285.140961	2618.395508
285.145538	1681.184692
285.150116	715.635254
300.103699	21168.578125
300.118561	8585.131836
300.123505	20405.316406
300.128448	53633.511719
300.133362	72702.664062
300.138306	106489.953125
300.143219	342334.3125
300.148163	1146496.25
300.153107	2190713.75
300.15802	3207917.75
300.162964	2922711.0
300.167877	1813433.625
300.172821	790913.75
300.177765	219823.8125
300.182678	77180.070312
300.187622	66612.046875
300.192566	38485.757812
300.197479	18891.111328
300.202423	5890.543945
300.706146	642.822571
300.71109	1408.271973
300.716034	1915.576782
300.720978	1820.928223
300.725922	1272.143555
300.730896	620.662231
301.126984	1181.079468
301.131958	4412.871094
301.136902	5887.258301
301.141846	11337.760742
301.14682	40590.152344
301.151764	132373.890625
301.156738	243107.515625
301.161682	343402.875
301.166656	297791.125
301.1716	181336.328125
301.176544	74084.585938
301.181519	20432.072266
301.186462	6668.605469
301.191437	5142.424316
301.196381	1512.888062
301.201324	1623.250488
END IONS

BEGIN IONS
PEPMASS=489.209
CHARGE=1
MSLEVEL=2
SOURCE_INSTRUMENT=LC-ESI-Orbitrap
FILENAME=f.rmenezes/MS2_spectra/140717_RM_Fusarium_T-2_toxin_1ul_ms2.mzXML;
SEQ=*..*
IONMODE=Positive
ORGANISM=GNPS-LIBRARY
NAME=T-2 Toxin M+Na
PI=Ales Svatos
DATACOLLECTOR=Riya Menezes
SMILES=CC1=CC2C(CC1OC(=O)CC(C)C)(C3(C(C(C(C34CO4)O2)O)OC(=O)C)C)COC(=O)C
INCHI= 
INCHIAUX= 
PUBMED= 
SUBMITUSER=rmenezes
LIBRARYQUALITY=3
SPECTRUMID=CCMSLIB00004681488
USI=mzspec:GNPS:GNPS-LIBRARY:accession:CCMSLIB00004681488
SCANS=630
133.30603	6165.550781
135.934799	6756.661133
165.070282	7379.993164
168.774887	6856.581055
171.115906	10784.728516
181.266953	6464.345703
185.094086	10968.8125
187.229614	6678.282227
199.112045	17615.451172
200.623795	6726.394043
203.106659	8260.850586
203.589401	7437.962402
215.108826	10882.65918
222.026535	6102.856934
224.729416	5722.325684
225.801773	5910.231934
227.105759	18823.423828
232.725311	7587.973145
241.119659	29547.242188
245.117096	657976.6875
247.425812	7135.506348
267.099274	474760.15625
291.39209	15885.421875
298.832611	91535.421875
299.125885	13911.193359
326.983765	11130.460938
327.002289	10860.271484
327.037964	26194.542969
327.119629	2609482.75
327.19455	11929.512695
327.215485	23766.013672
327.248291	8152.73877
345.130157	79535.234375
369.167328	13509.230469
386.785034	10781.495117
386.825989	12471.301758
386.873322	9909.709961
386.894958	9115.106445
386.94342	18567.095703
386.965363	16378.255859
386.986725	15170.448242
387.011475	18629.212891
387.034393	27495.255859
387.055878	23079.134766
387.1409	3778840.75
387.221252	22393.539062
387.236206	17437.066406
387.265625	32482.226562
387.309357	15157.614258
387.333771	17289.626953
387.356598	14477.461914
387.373444	9351.458984
387.403625	12663.736328
387.422089	8141.885254
403.298492	9029.883789
409.977356	7656.572754
429.187683	75968.9375
489.208282	656207.1875
END IONS

BEGIN IONS
PEPMASS=442.244
CHARGE=1
MSLEVEL=2
SOURCE_INSTRUMENT=LC-ESI-Orbitrap
FILENAME=f.rmenezes/MS2_spectra/250717_RM_T2_HT-2_DON_FumonisinB1_NIV_rubrofusarin_1ul_ms2top10.mzXML;
SEQ=*..*
IONMODE=Positive
ORGANISM=GNPS-LIBRARY
NAME=HT-2 Toxin M+NH4
PI=Ales Svatos
DATACOLLECTOR=Riya Menezes
SMILES=CC1=CC2C(CC1OC(=O)CC(C)C)(C3(C(C(C(C34CO4)O2)O)O)C)COC(=O)C
INCHI= 
INCHIAUX= 
PUBMED= 
SUBMITUSER=rmenezes
LIBRARYQUALITY=3
SPECTRUMID=CCMSLIB00004681490
USI=mzspec:GNPS:GNPS-LIBRARY:accession:CCMSLIB00004681490
SCANS=814
122.518608	4946.691895
143.085205	5342.51416
145.101181	21926.712891
157.101349	62894.742188
169.101257	39615.835938
173.096268	14571.993164
174.828918	4063.230957
185.096359	12827.211914
187.111053	8779.834961
188.881012	5896.881836
189.090698	13584.545898
195.267868	4428.389648
197.096008	25724.625
199.111923	18056.546875
203.926895	4561.536133
209.095016	5379.871094
215.106476	58277.835938
227.105591	12461.214844
232.315903	5110.239746
233.117188	20434.679688
245.116714	30167.058594
263.126862	37302.0625
275.125793	6958.5
287.12735	4691.665527
291.450409	7795.381348
298.810181	7890.213867
298.8526	65599.859375
298.891296	7924.379395
298.916595	5158.556152
298.974548	4172.706055
305.138092	20106.757812
323.147888	14759.955078
327.215942	4348.812012
353.440338	5640.14209
407.205963	52504.675781
413.738831	4310.744141
425.216522	136603.0625
END IONS

BEGIN IONS
PEPMASS=150.277
CHARGE=1
MSLEVEL=2
SOURCE_INSTRUMENT=LC-ESI-Orbitrap
FILENAME=f.Francesca90/rette droga triplicata/file convertiti/180813_MIX60-100PPB.mzXML;
SEQ=*..*
IONMODE=Positive
ORGANISM=GNPS-LIBRARY
NAME=Methamphetamine M+H
PI=Manuel Sergi
DATACOLLECTOR= 
SMILES=CC(CC1=CC=CC=C1)NC
INCHI= 
INCHIAUX= 
PUBMED= 
SUBMITUSER=Francesca90
LIBRARYQUALITY=3
SPECTRUMID=CCMSLIB00004722181
USI=mzspec:GNPS:GNPS-LIBRARY:accession:CCMSLIB00004722181
SCANS=67
50.015751	10973.793945
50.99334	5241.273926
51.021328	5807.335938
51.023746	35039.894531
52.031544	5849.785645
57.070404	5141.273926
58.065842	96149.414062
59.464088	5343.697266
59.781525	5561.769531
63.023735	11676.470703
65.039055	91666.335938
67.054794	29902.509766
69.033775	10674.737305
69.070786	11033.178711
70.065742	33386.648438
71.16996	6023.976074
71.871529	12351.764648
76.152046	8097.652344
77.039581	38573.542969
78.046593	6284.961426
78.452301	6902.416504
79.054817	32410.951172
81.070587	59435.140625
88.075836	13968.155273
89.038506	14626.337891
89.060188	78391.421875
90.047028	9081.487305
90.959953	49254.851562
91.032402	9675.462891
91.054665	28577170.0
91.146187	60631.78125
92.057495	1296078.25
92.064186	12511.133789
93.034424	7818.708984
93.070107	103098.054688
95.049583	26869.943359
95.085716	72508.796875
104.062553	9172.192383
105.069389	56745.71875
106.086067	10024.580078
107.049088	44748.167969
107.086082	105188.84375
109.010582	12101.390625
109.027855	15090.317383
109.064705	97839.742188
109.101212	73459.234375
111.044228	10823.654297
112.007103	7253.565918
114.053925	7107.302734
114.090897	9930.632812
118.94577	13081.651367
119.071358	66795.757812
119.086166	12613283.0
119.22184	24377.365234
120.088318	802027.0
120.098297	12628.180664
121.028427	86235.359375
121.065262	44085.382812
121.102036	61019.859375
122.032448	15015.514648
123.079948	140467.171875
123.117439	40274.632812
131.084564	14664.02832
132.101196	62042.789062
133.065353	32249.068359
133.100296	16689.466797
135.043716	1211958.125
136.047897	67049.648438
149.023544	512303.25
149.035614	14740.297852
149.059128	47510.652344
149.096222	105417.21875
149.132294	11384.085938
150.025833	106376.546875
150.067703	1733621.375
150.09314	74312.8125
150.127014	4431019.0
151.040039	13943.628906
151.074524	187646.90625
151.113113	119608.109375
151.13176	328698.21875
164.143204	9270.899414
169.049301	12831.026367
END IONS

BEGIN IONS
PEPMASS=169.047
CHARGE=1
MSLEVEL=2
SOURCE_INSTRUMENT=ESI-Orbitrap
FILENAME=GNPS00001_B11_p.mzXML
SEQ=*..*
IONMODE=Positive
ORGANISM=GNPS-LIBRARY
NAME=ADIPATE M+Na
PI=Dorrestein
DATACOLLECTOR=Fernando Vargas
SMILES=OC(=O)CCCCC(O)=O
INCHI="InChI=1S/C6H10O4/c7-5(8)3-1-2-4-6(9)10/h1-4H2,(H,7,8)(H,9,10)"
INCHIAUX=N/A
PUBMED=na
SUBMITUSER=mpanitchpakdi
LIBRARYQUALITY=1
SPECTRUMID=CCMSLIB00005436137
USI=mzspec:GNPS:GNPS-LIBRARY:accession:CCMSLIB00005436137
SCANS=31
56.965359	4006.241699
59.282822	1637.142822
64.870293	2159.782715
67.05468	2053.488281
67.935303	1940.865112
68.346504	2173.745605
69.033867	5247.484375
69.070419	2030.737915
79.054527	8835.305664
81.070107	65535.878906
93.083839	1845.128418
95.085609	7497.851074
97.229141	2270.880615
99.080582	11772.646484
107.960091	2894.167725
109.064941	185067.109375
109.101295	3265.35498
110.114059	2140.407959
111.044197	30513.291016
113.963722	2808.333496
116.181488	1900.916016
122.943977	1883.284668
123.075974	4783.4375
123.080521	89713.03125
125.019012	26616.021484
127.075584	18257.158203
130.016922	1941.699829
130.982117	8512.296875
132.392624	1846.663696
135.141708	1803.629395
136.241241	2370.889404
137.018921	5557.086914
137.217499	1967.717285
141.091202	8002.725098
142.710602	1929.988647
151.039291	2939.070312
151.075638	7177.483887
151.111877	5632.124023
151.31543	2608.092773
154.907211	11184.344727
155.029617	37043.226562
155.974976	2252.888672
159.050583	2320.685303
161.065979	3196.493652
163.105408	1958.276978
163.978378	2264.765381
168.92337	8752.015625
169.047211	11566.362305
169.086151	26829.658203
173.040268	5596.181641
175.485794	2091.266113
187.045578	2385.297119
END IONS

BEGIN IONS
PEPMASS=138.055
CHARGE=1
MSLEVEL=2
SOURCE_INSTRUMENT=ESI-Orbitrap
FILENAME=GNPS00001_C12_p.mzXML
SEQ=*..*
IONMODE=Positive
ORGANISM=GNPS-LIBRARY
NAME=SALICYLAMIDE M+H
PI=Dorrestein
DATACOLLECTOR=Fernando Vargas
SMILES=NC(=O)C1=CC=CC=C1O
INCHI="InChI=1S/C7H7NO2/c8-7(10)5-3-1-2-4-6(5)9/h1-4,9H,(H2,8,10)"
INCHIAUX=N/A
PUBMED=na
SUBMITUSER=mpanitchpakdi
LIBRARYQUALITY=1
SPECTRUMID=CCMSLIB00005436155
USI=mzspec:GNPS:GNPS-LIBRARY:accession:CCMSLIB00005436155
SCANS=22
51.023224	2484.716553
53.002541	2618.260986
57.466774	1989.701782
57.95034	1825.067261
63.023159	2198.359131
64.927773	3219.166504
65.03894	53018.683594
68.9431	2695.689209
68.952431	2063.778076
71.973297	2342.647949
72.624825	2202.870361
86.793533	2488.105957
88.952713	3570.879883
93.031219	2406.157715
93.033638	30180.246094
94.304855	2122.58374
95.04921	318470.21875
95.085617	3290.805664
95.221977	2629.030762
96.937767	4592.316406
97.007652	5879.085449
98.036285	4932.949219
105.0448	3236.263672
105.962807	3449.461914
106.969032	7387.010254
111.023308	33776.511719
111.044189	26527.228516
113.019226	3669.578369
115.014671	6594.601562
120.01973	4530.46875
120.04467	5940.799316
120.992393	6992.851562
121.028481	3921823.0
122.019402	4454.598633
122.031845	37074.265625
123.964554	24206.763672
124.014999	16069.036133
125.019089	2603.049561
125.038986	39765.90625
132.95871	4187.642578
138.055038	2060351.875
138.091125	12810.09375
139.039032	29111.990234
139.058258	11135.923828
139.075363	5883.860352
158.945236	4899.940918
END IONS

BEGIN IONS
PEPMASS=109.065
CHARGE=1
MSLEVEL=2
SOURCE_INSTRUMENT=ESI-Orbitrap
FILENAME=GNPS00001_C3_p.mzXML
SEQ=*..*
IONMODE=Positive
ORGANISM=GNPS-LIBRARY
NAME=BENZYL ALCOHOL M+H
PI=Dorrestein
DATACOLLECTOR=Fernando Vargas
SMILES=OCC1=CC=CC=C1
INCHI="InChI=1S/C7H8O/c8-6-7-4-2-1-3-5-7/h1-5,8H,6H2"
INCHIAUX=N/A
PUBMED=na
SUBMITUSER=mpanitchpakdi
LIBRARYQUALITY=1
SPECTRUMID=CCMSLIB00005436190
USI=mzspec:GNPS:GNPS-LIBRARY:accession:CCMSLIB00005436190
SCANS=48
52.339085	1342.598755
53.039188	7640.556641
55.054813	3578.650146
56.965355	4392.339355
57.622292	1571.54187
60.309277	1437.472534
60.987034	2176.119629
62.797333	1905.702393
64.392212	1462.549927
65.039032	2132.677002
67.054672	42036.34375
69.033943	5709.527344
78.764969	1678.31604
78.997353	8131.941406
79.018181	6713.770996
79.054543	58768.820312
79.953125	1616.648804
80.992867	3830.117432
81.033783	3514.625732
81.070152	111447.84375
85.773262	1709.092407
86.992928	3345.188965
87.991615	1642.208862
88.023178	2644.568848
90.230652	2018.968872
91.054398	2018.343384
94.041649	3217.719238
95.008591	1998.947876
95.049438	2938.101318
95.564346	1740.364258
96.910149	1661.948242
96.977882	1974.858032
97.00779	34547.417969
99.003426	64388.382812
100.024696	4004.070068
105.003403	8777.418945
107.085609	2204.363037
108.08062	1989.424194
109.06501	83007.984375
109.07618	4880.009766
109.084511	3396.440674
109.101364	54358.703125
111.023445	23154.027344
113.019081	99844.609375
125.039169	2439.324219
127.034828	2740.927734
END IONS

BEGIN IONS
PEPMASS=129.019
CHARGE=-1
MSLEVEL=2
SOURCE_INSTRUMENT=ESI-Orbitrap
FILENAME=GNPS00001_C9_n.mzXML
SEQ=*..*
IONMODE=Negative
ORGANISM=GNPS-LIBRARY
NAME=2-METHYLMALEATE M-H
PI=Dorrestein
DATACOLLECTOR=Fernando Vargas
SMILES=CC(=CC(=O)O)C(=O)O
INCHI="InChI=1S/C5H6O4/c1-3(5(8)9)2-4(6)7/h2H,1H3,(H,6,7)(H,8,9)"
INCHIAUX=N/A
PUBMED=na
SUBMITUSER=mpanitchpakdi
LIBRARYQUALITY=1
SPECTRUMID=CCMSLIB00005436233
USI=mzspec:GNPS:GNPS-LIBRARY:accession:CCMSLIB00005436233
SCANS=26
50.293369	1526.546631
53.485821	1463.059448
53.631702	1246.309937
54.481777	1456.027344
61.389687	1688.504028
61.986946	74383.054688
62.476753	1464.678589
63.600372	1571.720459
71.012215	1563.394165
72.87883	1870.033081
82.683479	1882.539307
84.425819	1708.54126
84.95594	2103.474365
84.983643	32432.666016
85.028053	46218.472656
85.030548	3244.169434
87.638405	1775.722778
99.9244	4494.853027
100.950867	2005.319336
111.123924	2042.86377
114.950424	2156.087891
115.919319	2883.704102
116.945816	8980.040039
117.505226	1732.601562
128.870285	3832.553223
128.876663	4671.397461
128.966095	1960.184448
128.97374	4355.04248
129.017899	1979.534302
129.054581	2159.673828
129.868912	2232.031494
133.688828	1815.502686
137.871002	1975.241699
138.421921	2176.934082
END IONS

BEGIN IONS
PEPMASS=290.174
CHARGE=1
MSLEVEL=2
SOURCE_INSTRUMENT=LC-ESI-qTof
FILENAME=f.pilepoga/Alkalo ANGERS/Atropine.mgf;
SEQ=*..*
IONMODE=Positive
ORGANISM=GNPS-LIBRARY
NAME=Atropine M+H
PI=Le Pogam
DATACOLLECTOR=Le Pogam
SMILES=CN1[C@@H]2CC[C@H]1CC(C2)OC(=O)C(CO)C3=CC=CC=C3
INCHI=InChI=1S/C17H23NO3/c1-18-13-7-8-14(18)10-15(9-13)21-17(20)16(11-19)12-5-3-2-4-6-12/h2-6,13-16,19H,7-11H2,1H3/t13-,14+,15?,16?
INCHIAUX= 
PUBMED= 
SUBMITUSER=pilepoga
LIBRARYQUALITY=3
SPECTRUMID=CCMSLIB00005720151
USI=mzspec:GNPS:GNPS-LIBRARY:accession:CCMSLIB00005720151
SCANS=1
103.053085	7309.788086
108.079262	726.182922
121.063591	1047.139038
124.110825	24379.859375
124.211372	595.65802
125.117775	542.718018
142.12175	1866.359009
290.173615	2580.437012
END IONS

BEGIN IONS
PEPMASS=354.136
CHARGE=1
MSLEVEL=2
SOURCE_INSTRUMENT=LC-ESI-qTof
FILENAME=f.pilepoga/Alkalo ANGERS/Protopine.mgf;
SEQ=*..*
IONMODE=Positive
ORGANISM=GNPS-LIBRARY
NAME=Protopine M+H
PI=Le Pogam
DATACOLLECTOR=Le Pogam
SMILES=CN1CCC2=CC3=C(C=C2C(=O)CC4=C(C1)C5=C(C=C4)OCO5)OCO3
INCHI=1S/C20H19NO5/c1-21-5-4-13-7-18-19(25-10-24-18)8-14(13)16(22)6-12-2-3-17-20(15(12)9-21)26-11-23-17/h2-3,7-8H,4-6,9-11H2,1H3
INCHIAUX= 
PUBMED= 
SUBMITUSER=pilepoga
LIBRARYQUALITY=3
SPECTRUMID=CCMSLIB00005720176
USI=mzspec:GNPS:GNPS-LIBRARY:accession:CCMSLIB00005720176
SCANS=1
130.064789	6158.242188
149.059418	9936.302734
178.077469	5242.700195
188.070343	23818.800781
189.078049	24916.630859
275.069336	5209.310059
354.13327	6939.90918
END IONS

BEGIN IONS
PEPMASS=125.06
CHARGE=1
MSLEVEL=2
SOURCE_INSTRUMENT=LC-ESI-qTof
FILENAME=f.amoykang/LD-KY-F77-55-E-4-3-1.mzML;
SEQ=*..*
IONMODE=Positive
ORGANISM=GNPS-LIBRARY
NAME=Orcinol M+H
PI=Lin Wenhan
DATACOLLECTOR=Chen Dawei
SMILES= OC1=CC(O)=CC(C)=C1
INCHI= InChI=1S/C7H8O2/c1-5-2-6(8)4-7(9)3-5/h2-4,8-9H,1H3
INCHIAUX= 
PUBMED= 
SUBMITUSER=amoykang
LIBRARYQUALITY=3
SPECTRUMID=CCMSLIB00005721071
USI=mzspec:GNPS:GNPS-LIBRARY:accession:CCMSLIB00005721071
SCANS=595
53.891613	242.301483
53.891987	449.808777
53.892361	573.816528
53.892738	546.467957
53.893112	382.035889
55.016972	225.420105
55.017357	603.30658
55.017742	998.218262
55.018131	1148.130249
55.018517	934.627136
55.018906	508.075989
55.019291	144.839325
55.053356	245.791733
55.053745	740.260559
55.054131	1255.162842
55.05452	1444.707031
55.054905	1161.512939
55.055294	630.763123
55.055679	247.326523
56.048428	385.392517
56.048824	969.440247
56.049225	2223.95166
56.049622	3103.447998
56.050018	2547.974854
56.050419	1258.781982
56.050816	568.555054
56.051212	212.349106
56.963425	254.552399
56.963833	1010.71051
56.964237	2830.96875
56.964645	4775.621094
56.965054	6066.202148
56.965462	4613.403809
56.96587	2638.125977
56.966278	757.543945
56.966686	38.335278
58.503319	157.079086
58.503742	533.638611
58.504166	1146.39209
58.504589	1592.130371
58.505016	1544.497192
58.50544	1062.304199
58.505863	499.802917
58.506287	158.609421
58.557663	281.969513
58.558086	506.421539
58.55851	595.408813
58.558937	485.840546
58.559361	252.971512
58.686176	225.688858
58.686604	459.157959
58.687031	605.554077
58.687458	563.596375
58.687881	353.955505
60.499943	190.565369
60.500389	569.17334
60.500835	950.425537
60.501282	1062.29895
60.501728	826.692261
60.502174	427.890747
60.956253	360.371704
60.956707	957.477783
60.957157	2451.674072
60.957607	3741.763428
60.958061	3664.385498
60.958511	2268.133545
60.958961	908.013611
60.959412	407.242828
67.052574	163.807831
67.053093	539.028564
67.053619	1001.08075
67.054138	1235.268066
67.054657	1041.040527
67.055176	565.889832
67.055702	165.47673
67.507904	374.962006
67.50843	1176.522949
67.508957	3402.3396
67.509483	5896.94043
67.51001	7793.675781
67.510529	6175.54541
67.511055	3555.727295
67.511581	1075.77478
67.512108	23.503546
68.010696	468.881317
68.011223	877.787231
68.011757	1071.298828
68.012291	900.86792
68.012817	500.862823
68.013351	135.844254
68.047401	323.373749
68.047935	702.895813
68.048462	2071.986816
68.048996	3555.005371
68.04953	4347.566895
68.050064	3279.192871
68.050591	1893.716675
68.051125	548.657227
68.051659	170.763412
69.032433	480.87796
69.032974	868.430298
69.033524	1012.102844
69.034065	794.863708
69.034607	389.409698
69.043312	392.864288
69.043854	878.895569
69.044395	1328.141724
69.044945	1455.074219
69.045486	1179.019775
69.046028	697.796326
69.046577	294.423615
69.504135	212.991837
69.504684	539.826904
69.505234	1829.657104
69.505783	3179.554932
69.506332	3980.883789
69.506882	2883.851074
69.507439	1509.868286
69.507988	239.669159
70.01123	449.981415
70.011787	997.912048
70.012344	1431.984619
70.012901	1431.989868
70.013451	1009.950439
70.014008	475.917572
70.062912	162.713898
70.063469	507.716553
70.064026	1245.383179
70.064583	2852.05542
70.06514	3517.275146
70.065697	2508.919189
70.066254	1292.533691
70.066803	145.621628
70.067917	396.191162
70.068474	551.153076
70.069031	628.375854
70.069588	575.223755
70.070145	409.158661
71.009293	462.678162
71.009865	665.176941
71.010429	682.326477
71.010994	508.385071
71.011566	263.649445
71.014404	394.024017
71.014969	574.633118
71.015533	651.111511
71.016106	575.653381
71.01667	386.368805
71.047325	219.487854
71.04789	650.078857
71.048454	1108.344727
71.049026	1300.770142
71.049591	1088.791748
71.050163	633.484375
71.050728	243.596664
72.006836	200.701096
72.007416	607.876892
72.007996	1204.957886
72.008575	1682.167358
72.009155	1716.758423
72.009727	1287.875366
72.010307	696.820618
72.010887	263.039459
76.512856	294.82016
76.513489	815.591858
76.51413	1968.847656
76.514763	3104.735107
76.515396	2987.140381
76.516029	1814.168823
76.516663	654.082214
76.517303	196.145874
78.031395	294.223724
78.032043	794.908569
78.0327	1883.409058
78.033356	2976.875
78.034004	2973.27417
78.03466	1362.513794
78.035316	619.854126
78.035965	159.105576
78.510666	394.920197
78.51133	688.52417
78.511986	783.280273
78.512642	621.849609
78.513306	337.478271
79.015015	434.847473
79.015678	1498.896484
79.016342	5080.553711
79.017014	9373.255859
79.017677	13103.113281
79.018341	11106.411133
79.019005	6681.344727
79.019676	2547.499268
79.02034	701.610291
79.021004	302.148071
79.026993	322.999756
79.027664	554.285156
79.028328	668.067139
79.028992	598.684082
79.029663	394.360809
79.051643	193.975525
79.052315	629.34137
79.052979	1801.484009
79.053642	3026.848389
79.054314	3460.646729
79.054977	2389.85791
79.055649	1199.693604
79.056313	367.273712
79.517212	255.843582
79.517883	1784.603271
79.518555	3705.054199
79.519226	5982.943848
79.519897	6971.61377
79.520569	4854.932129
79.52124	2486.326904
79.521912	398.197601
80.013947	365.307037
80.014626	754.575073
80.015305	1020.738892
80.015984	965.404785
80.016663	619.840027
80.017342	221.842682
80.046585	223.377777
80.047264	1392.831787
80.047951	4479.96582
80.04863	8063.555176
80.049309	11136.96875
80.049988	9440.720703
80.050667	5664.734863
80.051346	2162.541992
80.052025	385.757538
81.011162	163.607422
81.011856	1120.297852
81.01255	4075.556152
81.013237	7828.911621
81.013931	11429.699219
81.014626	10380.162109
81.015312	6502.443848
81.016006	2949.881348
81.016693	967.529053
81.017387	297.516144
81.030678	339.814911
81.031372	1056.411743
81.032059	3156.018799
81.032753	5422.25293
81.033447	7075.902344
81.034134	5471.907227
81.034828	3135.377197
81.035522	887.558411
81.036209	62.980171
81.042366	178.77887
81.04306	1234.665894
81.043747	2699.195068
81.044441	4155.774902
81.045135	3857.521729
81.045822	2260.419678
81.046516	809.704834
81.047211	402.102417
81.067276	121.927986
81.067963	1059.950684
81.068657	2621.225586
81.069351	4281.524414
81.070045	4603.415039
81.070732	3076.661133
81.071426	1531.750732
81.072121	468.951416
82.062332	161.681412
82.063042	1322.188477
82.063744	3031.453369
82.064453	4885.735352
82.065155	5215.883301
82.065857	3546.794434
82.066566	1855.93811
82.067268	540.89386
83.04673	369.624481
83.047455	973.216248
83.048172	2201.093506
83.048889	2943.964111
83.049606	2239.920898
83.050323	1171.84082
83.051041	501.610382
83.05751	350.221893
83.058228	1419.108398
83.058945	3840.527344
83.059662	6425.043457
83.060379	7793.030273
83.061096	5708.224609
83.061813	3170.592285
83.062531	887.907104
83.063248	25.55287
84.040848	189.853088
84.04158	853.883667
84.042313	3257.216553
84.043045	7818.760254
84.04377	12802.624023
84.044502	14707.256836
84.045235	10342.988281
84.045967	5548.544922
84.046692	1473.008789
84.047424	69.787048
84.078064	509.310822
84.078796	2393.102295
84.079529	5539.672363
84.080261	8955.685547
84.080994	9550.510742
84.081726	6328.11084
84.082451	3124.778076
84.083183	765.03125
84.083916	152.624069
84.956161	102.268425
84.956909	712.128845
84.957649	2812.407715
84.958389	6133.601562
84.959137	9710.628906
84.959877	10102.435547
84.960617	6676.466309
84.961365	3330.621338
84.962105	941.281555
84.962845	254.86969
85.026741	253.744476
85.027481	615.556091
85.028229	887.585999
85.028969	857.528809
85.029716	551.793396
85.049789	453.69809
85.050529	853.765076
85.051277	951.509521
85.052017	689.041687
85.052765	320.766235
85.055779	382.241882
85.056526	657.627075
85.057266	2459.125732
85.058006	4410.276367
85.058754	5921.63916
85.059494	4719.89502
85.060242	2770.565674
85.060982	909.598328
85.061729	155.169785
86.058136	345.131531
86.058891	756.613464
86.059654	1020.508301
86.06041	935.025818
86.061165	563.525879
88.01973	78.046631
88.020515	644.395081
88.021294	2419.460449
88.022079	4620.206543
88.022865	6671.789551
88.023643	5956.118652
88.024429	3614.043945
88.025208	1467.127563
88.025993	176.433701
88.278664	286.264801
88.279449	582.356384
88.280235	760.488098
88.281021	708.080261
88.281807	491.935669
88.522163	236.938873
88.522949	737.231323
88.523743	1430.250854
88.524529	3083.06665
88.525322	2796.643555
88.526108	1654.66626
88.526901	747.496643
88.527687	300.486053
90.017548	504.040955
90.018364	1078.206665
90.019173	1489.793091
90.019981	1438.418335
90.02079	976.170532
90.021599	440.399231
90.524155	298.243439
90.524971	682.295776
90.525787	935.616272
90.526604	873.371948
90.52742	547.074463
91.522041	304.246399
91.522873	573.058716
91.523705	720.180237
91.524536	632.091187
91.525368	371.028595
95.021233	180.129623
95.02211	559.766113
95.022987	1068.160034
95.023872	1395.217041
95.02475	1338.639404
95.025627	969.474426
95.026505	529.30896
95.04583	448.109161
95.046707	1479.085938
95.047585	3133.951172
95.048462	4860.12793
95.049347	4852.456055
95.050224	3039.094238
95.051102	1313.633789
95.051979	137.234863
96.038429	530.750305
96.039322	962.04248
96.040215	1348.202759
96.041107	4055.82666
96.042	13709.171875
96.042892	28493.490234
96.043785	44297.949219
96.044678	45090.230469
96.04557	29359.054688
96.046463	14309.121094
96.047356	3789.810791
96.048248	840.484619
96.049133	549.816223
96.050026	269.187164
96.065132	448.955383
96.066025	1793.718872
96.066917	3555.678467
96.06781	5254.438477
96.068703	4705.312988
96.069595	2814.78418
96.070488	1110.723877
96.071381	409.37381
97.025757	494.459381
97.026665	1092.351685
97.027573	1608.084106
97.028481	1685.320068
97.029381	1262.241333
97.030289	641.721863
97.031197	195.252136
97.035728	255.616837
97.036636	579.384705
97.037544	1436.960815
97.038445	2746.475098
97.039352	3860.143311
97.04026	3240.912354
97.041168	1885.170288
97.042068	674.593628
97.042976	419.159027
97.044792	544.285339
97.0457	925.661865
97.0466	1353.727417
97.047508	1572.824829
97.048416	1394.561646
97.049324	907.918274
97.050232	408.930542
97.062012	155.782791
97.06292	578.869019
97.063828	1056.62561
97.064735	1286.278809
97.065643	1127.320435
97.066551	705.335754
97.067451	280.685699
97.072052	75.912033
97.07296	806.82074
97.073868	3255.924805
97.074776	6514.432617
97.075684	9675.761719
97.076584	8739.336914
97.077492	5318.519531
97.0784	2156.637939
97.079308	433.102142
98.056931	381.814819
98.057846	1421.388794
98.058769	2707.24707
98.059692	3803.868652
98.060608	3082.290527
98.061531	1720.666382
98.062454	438.76062
99.041985	359.424164
99.042915	645.763672
99.043854	747.73291
99.044785	595.84314
99.045723	301.845795
100.022034	264.06604
100.02298	608.499756
100.023926	785.523132
100.024879	647.787109
100.025826	314.305389
101.525002	268.780609
101.52597	644.315002
101.526939	989.2854
101.527908	1070.203613
101.528877	836.805054
101.529846	450.32193
102.967865	550.372803
102.968857	815.930542
102.969849	863.440002
102.97084	649.325989
102.971832	314.752838
106.026115	485.034607
106.027153	983.471069
106.028183	1289.966675
106.029221	1165.100342
106.030258	707.314087
106.031288	245.246658
107.046783	362.527283
107.047836	699.592102
107.048882	867.397522
107.049934	735.307251
107.05098	413.833282
107.057281	496.089355
107.058334	996.007446
107.059387	1392.641968
107.060432	1404.498535
107.061485	1011.798401
107.062538	490.601166
107.082497	379.251312
107.083542	906.538513
107.084595	1376.899902
107.085648	1459.399658
107.0867	1088.870483
107.087746	540.183044
108.007721	218.524277
108.008789	576.381836
108.00985	1044.386963
108.010918	1341.317383
108.011978	1252.926514
108.013046	832.873352
108.014107	358.905304
108.039642	290.886322
108.04071	1201.437378
108.041771	4164.506348
108.042839	7792.043457
108.043907	11178.336914
108.044968	9885.899414
108.046036	6015.893066
108.047096	2473.816895
108.048164	532.188171
109.023613	183.191864
109.024689	1309.579834
109.025772	4839.689453
109.026848	8806.539062
109.027931	12156.103516
109.029007	10143.373047
109.03009	6070.009766
109.031166	2346.419678
109.032249	572.411011
109.033325	20.899416
109.036751	324.626801
109.037834	698.675964
109.03891	1006.475891
109.039993	941.864136
109.041069	551.300232
109.073463	411.395508
109.074547	805.785583
109.075623	1047.863892
109.076706	945.13147
109.077789	571.12561
109.078865	192.37468
112.036728	326.233704
112.037849	783.995056
112.038979	1113.916138
112.0401	1068.227295
112.041229	691.470581
112.042351	269.450134
112.996292	115.510025
112.997437	556.080688
112.998573	1092.504639
112.99971	1346.934814
113.000847	1128.852417
113.001991	632.481201
113.003128	204.957306
113.02951	9.692459
113.030655	758.596313
113.031792	2766.946533
113.032928	5306.138672
113.034073	7800.653809
113.03521	7186.344727
113.036346	4448.295898
113.037491	1890.199463
113.038628	355.883484
118.827194	509.245544
118.828423	770.059753
118.829651	791.047424
118.830879	561.274597
118.832108	251.423355
120.383583	391.050842
120.384834	665.575378
120.386086	761.376038
120.387337	623.550293
120.388596	355.241577
123.049484	586.976135
123.050781	2638.269287
123.052071	9350.337891
123.053368	18467.923828
123.054657	27967.0625
123.055954	26841.464844
123.057251	16972.306641
123.05854	7863.893555
123.059837	1970.661621
123.061134	389.398804
123.074722	127.70887
123.076019	658.938477
123.077316	2348.028809
123.078606	5661.619629
123.079903	9438.320312
123.0812	11108.398438
123.082489	7939.480469
123.083786	3660.200928
123.085083	925.457092
123.088219	1574.151978
123.089516	6574.452637
123.090805	10344.998047
123.092102	10633.807617
123.093399	7143.91748
123.094696	5729.166992
123.095985	12779.166992
123.097282	31667.416016
123.098579	51679.566406
123.099869	60121.519531
123.101166	42398.835938
123.102463	22591.195312
123.10376	6162.01416
123.105049	1520.032715
123.106346	417.028046
124.029755	371.938751
124.031059	1406.130981
124.032372	1746.632324
124.033684	4595.605469
124.034988	17455.914062
124.036301	55555.710938
124.037613	99094.109375
124.038918	135845.515625
124.04023	113314.84375
124.041542	67988.710938
124.042847	26195.716797
124.044159	6757.491699
124.045471	1612.167236
124.046776	1093.313477
124.048088	816.369629
124.053329	81.166107
124.054642	944.148193
124.055954	2108.306396
124.057259	3970.061523
124.058571	4888.785645
124.059883	3198.511963
124.061188	1322.436035
124.0625	85.515587
124.070366	168.097763
124.071671	1679.014038
124.072983	4939.530762
124.074295	9386.423828
124.075607	12931.148438
124.076912	11439.037109
124.078224	7068.328613
124.079536	3742.025391
124.080849	3434.653076
124.082146	10369.15332
124.083458	35361.0
124.08477	70165.796875
124.086082	106767.609375
124.087395	103787.40625
124.088699	66385.578125
124.090012	31366.060547
124.091324	9051.863281
124.092636	3115.134521
124.093941	2644.204346
124.095253	1577.201416
124.096565	1167.787109
124.09919	60.888813
124.100502	2699.715332
124.101814	5897.435059
124.103127	6364.287109
124.104439	5162.844238
124.105751	3224.370605
124.107056	930.951599
124.108368	378.121246
124.10968	951.943604
124.110992	1829.373779
124.112305	1725.173218
124.113609	1038.185913
124.114922	402.455841
125.02182	588.27594
125.02314	822.78894
125.024467	871.071167
125.025795	781.700867
125.027115	637.624146
125.028442	502.773407
125.031097	532.049866
125.032417	2377.188965
125.033745	4167.219238
125.035072	4388.668457
125.0364	2817.116943
125.03772	1477.828491
125.039047	2120.707275
125.040375	5131.493652
125.041702	8163.689453
125.043022	9052.927734
125.04435	6204.310547
125.045677	3096.465576
125.047005	571.812256
125.054955	643.061279
125.056282	2923.545898
125.05761	6239.651367
125.058937	9596.973633
125.060265	9802.768555
125.061584	6404.786133
125.062912	2950.746826
125.06424	1181.904419
125.065567	2412.991211
125.066895	8946.505859
125.068214	23374.382812
125.069542	39342.917969
125.070869	47850.375
125.072197	34939.027344
125.073524	19584.994141
125.074852	6101.160156
125.076172	1734.677368
125.077499	1369.866821
125.078827	2822.180176
125.080154	4274.884277
125.081482	4929.661133
125.082809	3578.548096
125.084129	1471.371826
125.085457	609.427795
125.086784	1574.012451
125.088112	4129.961426
125.089439	6804.530273
125.090767	7114.574219
125.092094	4335.037109
125.093414	2015.629395
125.094742	322.562958
125.102402	392.836975
125.103729	3397.774414
125.105057	7105.776855
125.106384	11011.707031
125.107712	10523.196289
125.109039	6635.058594
125.110359	2985.167236
125.111687	786.645447
125.113014	291.333923
126.017784	435.652527
126.019127	1107.948975
126.020462	2518.340088
126.021805	3284.525635
126.023148	2518.446045
126.02449	1414.25061
126.025833	472.061615
126.047295	563.736633
126.048637	600.668945
126.04998	2195.976562
126.051323	8101.67627
126.052658	17079.087891
126.054001	26961.773438
126.055344	27638.080078
126.056686	17748.25
126.058029	8844.470703
126.059372	2483.512695
126.060715	1197.324951
126.062057	3043.045654
126.0634	7628.455566
126.064735	12929.890625
126.066078	14829.719727
126.067421	10687.668945
126.068764	5576.332031
126.070107	1856.37793
126.071449	1069.577759
126.072792	1974.974243
126.074135	3472.897461
126.075478	4492.639648
126.07682	4107.601562
126.078163	2514.523438
126.079498	1228.328979
126.080841	623.286377
126.086212	1652.062866
126.087555	7142.787109
126.088898	16326.461914
126.09024	26541.929688
126.091583	28620.736328
126.092926	19148.169922
126.094269	9847.15625
126.095612	2830.492432
126.096954	939.786499
126.098297	1110.743896
126.09964	2032.179565
126.100983	3063.419922
126.102325	3253.924561
126.103668	1520.136963
126.105011	895.21875
126.106354	405.933624
126.122215	28.758924
126.123558	894.932434
126.124901	2910.766357
126.126244	5081.868164
126.127586	6287.13916
126.128929	4640.805664
126.130272	2627.464355
126.131622	824.462036
126.132965	199.856857
126.88871	434.755585
126.890068	739.722046
126.891426	825.354492
126.892776	641.401428
126.894135	335.817352
127.008102	439.135559
127.00946	825.681458
127.010818	3162.248779
127.012177	10604.160156
127.013535	19769.220703
127.014893	28222.261719
127.016251	24952.5625
127.017609	15405.611328
127.018959	6602.187012
127.020317	1736.435181
127.021675	357.757385
127.02977	154.882416
127.031128	732.722168
127.032486	770.7995
127.033844	2767.856201
127.035202	9959.488281
127.036552	21617.560547
127.03791	34554.429688
127.039268	36756.070312
127.040627	24257.095703
127.041985	12612.945312
127.043343	3811.676514
127.044701	2115.770752
127.046059	5114.430664
127.047417	12165.730469
127.048775	20082.328125
127.050133	23053.380859
127.051491	16764.785156
127.052849	8936.588867
127.054207	2864.621338
127.055565	843.82251
127.056923	763.317688
127.058281	1276.526489
127.059639	1514.682007
127.060997	584.121704
127.082726	503.515594
127.084084	1108.842529
127.085442	1681.2771
127.0868	1799.689819
127.088158	1361.807861
127.089516	712.209839
127.090874	308.476501
127.092232	328.44577
127.09359	606.865173
127.094948	853.655762
127.096306	877.801208
127.097664	668.927063
127.09903	353.615082
140.029297	336.915863
140.030869	701.532288
140.03244	1044.077271
140.034012	1115.08374
140.035583	830.494202
140.037155	389.890381
172.709579	388.884735
172.711731	635.883423
172.713882	743.677307
172.716034	645.359436
172.718185	397.960175
245.172791	460.848541
245.176437	750.876465
245.180069	830.525757
245.183716	661.99176
245.187363	373.352844
273.81601	527.540771
273.820312	869.984436
273.824585	970.888489
273.828888	756.263489
273.833191	388.833588
END IONS

BEGIN IONS
PEPMASS=384.201
CHARGE=1
MSLEVEL=2
SOURCE_INSTRUMENT=LC-ESI-Orbitrap
FILENAME=DAS_MS2.mzXML
SEQ=*..*
IONMODE=Positive
ORGANISM=GNPS-LIBRARY
NAME=Diacetoxyscirpenol M+NH3
PI=D Overy
DATACOLLECTOR=T Witte
SMILES=CC1=CC2C(CC1)(C3(C(C(C(C34CO4)O2)O)OC(=O)C)C)COC(=O)C
INCHI="InChI=1S/C19H26O7/c1-10-5-6-18(8-23-11(2)20)13(7-10)26-16-14(22)15(25-12(3)21)17(18,4)19(16)9-24-19/h7,13-16,22H,5-6,8-9H2,1-4H3/t13-,14-,15-,16-,17-,18-,19-/m1/s1"
INCHIAUX=N/A
PUBMED=N/A
SUBMITUSER=mpanitchpakdi
LIBRARYQUALITY=1
SPECTRUMID=CCMSLIB00005723555
USI=mzspec:GNPS:GNPS-LIBRARY:accession:CCMSLIB00005723555
SCANS=420
97.906555	38573.113281
101.416405	41360.988281
102.406807	44695.75
105.069603	129621.765625
107.939026	42764.429688
108.099686	42040.890625
108.965431	38133.800781
109.064766	59207.289062
112.134468	43067.503906
113.059441	139799.3125
115.098671	43091.871094
115.959518	43730.902344
118.690018	42515.535156
119.085442	50264.332031
120.54435	39822.015625
120.761635	45953.542969
121.064598	109768.59375
123.080383	78581.929688
125.059494	335096.34375
127.075165	60714.707031
128.335175	38459.324219
128.49295	38560.921875
128.700684	44964.984375
130.306854	39134.765625
131.085373	147168.015625
132.605515	42461.726562
133.064484	51707.519531
133.100815	56299.9375
134.743561	44963.613281
135.080322	65599.046875
137.059601	69662.835938
139.454895	38316.917969
140.110718	37729.039062
141.054443	618976.125
143.070084	118379.265625
143.085403	255439.484375
145.064682	47561.082031
145.100983	344541.125
147.023819	47208.621094
147.080246	121346.492188
149.216797	45550.917969
151.075104	96903.851562
155.066605	42058.8125
155.070053	147355.140625
155.085358	92411.992188
155.719498	36960.050781
157.100952	1641832.125
158.689575	39112.09375
159.0802	139248.078125
159.116638	507203.3125
161.095993	207224.234375
162.176239	38628.324219
163.111374	308084.09375
163.304398	48170.296875
163.736176	42784.65625
165.502487	44629.054688
166.258804	39604.886719
167.069916	179946.765625
169.100876	778189.8125
170.10881	108178.625
170.217133	45468.25
171.080154	62351.046875
171.116577	800891.0625
173.095795	404308.125
173.132233	643013.75
175.111542	337360.28125
175.311417	43576.300781
177.039978	46526.234375
181.100891	610398.625
182.30217	44511.980469
183.064896	151499.84375
183.116608	1831386.875
185.080521	272380.25
185.09581	197355.09375
185.132111	226950.515625
187.075348	66660.28125
187.111465	1014147.9375
187.904846	41182.960938
187.913712	37650.71875
187.927933	75197.125
187.933884	70490.703125
187.945236	113088.296875
187.949478	109303.0
187.958176	116487.429688
187.966721	111376.757812
187.973511	88958.867188
187.976791	88364.992188
187.984818	66254.476562
187.987396	67861.226562
187.997849	55883.828125
188.038574	46478.179688
188.051239	45564.75
189.09111	56237.777344
189.127228	107120.617188
190.298737	42343.839844
191.106491	131469.9375
191.722412	42286.476562
193.100906	445831.875
193.121902	97228.523438
197.517334	36302.554688
199.111526	5133514.0
199.916122	43164.722656
201.075516	320936.875
201.127151	5423745.0
203.10643	203238.6875
203.142776	88805.734375
204.625046	42084.804688
205.122055	770250.375
207.567627	42015.914062
208.783035	53882.960938
211.111481	3382691.25
213.07547	144426.390625
215.143005	50597.140625
215.447083	43714.082031
215.685867	44608.175781
217.12204	2217254.0
219.137711	893107.5
223.605911	37283.285156
225.127167	70957.96875
229.122055	11183850.0
229.39418	44494.398438
233.382233	39868.886719
235.132233	123470.09375
239.091263	73880.851562
241.121887	116332.296875
243.138077	94704.5625
247.095779	71453.421875
247.101746	95099.726562
247.104523	108153.023438
247.110413	123964.007812
247.113205	112247.953125
247.116531	166841.4375
247.122208	181737.625
247.132538	20694858.0
247.145737	228390.5
247.151459	146221.25
247.153549	75144.578125
247.156799	53959.824219
247.16037	124732.515625
253.121796	309781.53125
258.225586	40533.359375
259.132568	648877.875
261.148346	125671.132812
265.143036	1650148.375
269.529602	49653.234375
271.132446	807437.5
273.483307	43109.441406
276.55423	44219.777344
277.142975	622104.1875
277.68277	67829.179688
277.708832	44368.007812
277.908234	53298.132812
277.925415	55475.007812
278.209473	64373.777344
278.231415	39998.792969
278.312988	54153.589844
278.37619	43033.269531
278.444183	55853.355469
279.158844	67271.289062
282.72113	39178.636719
283.7995	140606.625
289.143036	9595656.0
289.163818	51825.691406
289.166992	72758.398438
307.049744	96094.476562
307.082153	116628.15625
307.086029	121003.34375
307.090424	152042.078125
307.094208	118620.828125
307.102661	194125.953125
307.106293	157032.8125
307.11087	218842.234375
307.114441	186736.59375
307.118652	260498.609375
307.122955	286756.46875
307.126923	251452.75
307.131165	402066.5
307.134094	256945.109375
307.139313	445710.0625
307.153534	49637928.0
307.166229	229854.859375
307.171844	526525.125
307.174805	255230.859375
307.179718	354299.90625
307.183746	262694.3125
307.187653	161245.171875
307.192108	303522.25
307.195587	170050.78125
307.200195	213475.640625
307.203918	136824.234375
307.212402	158466.453125
307.216034	97681.15625
307.224548	91559.882812
307.228607	150936.953125
307.232605	110555.078125
307.23645	75438.15625
307.253174	118025.75
307.256561	54587.859375
308.816833	66595.976562
309.485748	59621.25
319.153198	296170.03125
319.413757	39404.105469
320.056671	46760.800781
325.164062	914017.0
331.153534	169291.109375
337.164154	174010.59375
349.077728	149841.484375
349.082397	105895.890625
349.112518	236148.9375
349.116547	117725.59375
349.12204	281823.21875
349.127167	247178.5625
349.131927	267855.96875
349.137054	371353.5
349.141266	214368.265625
349.146851	407201.71875
349.164093	45908328.0
349.180603	189914.25
349.186279	485434.53125
349.190765	244607.3125
349.195984	332680.4375
349.200836	237253.296875
349.206024	172151.28125
349.210846	258888.734375
349.215576	169304.859375
349.250488	99933.265625
349.255188	127144.625
349.259888	98854.859375
367.174652	4287352.0
374.663422	44869.632812
379.082001	53381.746094
386.096008	48876.75
391.771881	53572.34375
END IONS

BEGIN IONS
PEPMASS=299.149
CHARGE=1
MSLEVEL=2
SOURCE_INSTRUMENT=LC-ESI-Orbitrap
FILENAME=T2_toxintetraol_100ugmL_MS2_butmethod.mzXML
SEQ=*..*
IONMODE=Positive
ORGANISM=GNPS-LIBRARY
NAME=T-2 Toxin tetraol M+H
PI=D Overy
DATACOLLECTOR=T Witte
SMILES=CC1=CC2C(CC1O)(C3(C(C(C(C34CO4)O2)O)O)C)CO
INCHI="InChI=1S/C15H22O6/c1-7-3-9-14(5-16,4-8(7)17)13(2)11(19)10(18)12(21-9)15(13)6-20-15/h3,8-12,16-19H,4-6H2,1-2H3/t8-,9+,10+,11+,12+,13+,14+,15?/m0/s1"
INCHIAUX=N/A
PUBMED=N/A
SUBMITUSER=mpanitchpakdi
LIBRARYQUALITY=1
SPECTRUMID=CCMSLIB00005723565
USI=mzspec:GNPS:GNPS-LIBRARY:accession:CCMSLIB00005723565
SCANS=33
71.245758	367.104675
75.667526	353.189148
79.974571	400.570007
80.058922	389.432861
83.471512	409.247681
84.759491	356.754822
87.119408	356.681396
87.745941	362.040253
90.549164	325.266937
92.283752	283.091553
94.241104	366.312408
94.643356	360.265411
94.784927	443.952118
94.793259	310.149017
94.802505	373.702362
95.048698	501.364471
95.604088	337.819977
97.064247	394.43985
99.360275	352.884155
100.263	345.242279
104.223259	333.750793
104.525764	397.70871
105.069435	1429.716431
105.889313	360.684418
105.889824	355.206696
109.51384	337.838806
118.574585	341.460205
119.588829	317.764099
121.064323	1154.130981
123.08004	671.547729
131.960587	334.736572
134.608566	334.582001
137.559799	340.834137
139.016281	331.742798
141.054062	4445.06543
141.090363	1106.117188
141.843918	407.854279
143.892883	342.378235
144.356766	342.515747
145.100342	553.582214
147.587143	351.822601
149.09581	614.852722
156.085739	360.634369
157.100296	461.610046
159.064331	750.958496
161.095367	530.272766
163.111115	1177.606445
163.594833	399.716217
173.095535	1559.267944
175.110962	1869.787476
182.306259	417.847412
183.631592	332.102417
185.095047	662.925232
187.110641	531.038086
187.701157	310.593353
187.743378	318.638306
187.76004	572.62915
187.771164	938.909302
187.778183	1103.025879
187.788727	1258.973145
187.794968	1170.943481
187.802704	1422.089355
187.807831	985.188171
187.813217	964.189026
187.820999	962.410217
187.827423	677.450439
187.838669	614.301697
189.12677	980.87561
191.105942	9164.633789
191.296036	380.604218
193.121429	3544.761475
194.274414	350.472839
196.256058	355.941406
198.957977	312.63324
199.110809	1563.782104
199.636063	384.484741
201.125641	512.512817
202.944534	358.615112
203.105713	1190.321655
205.121475	915.531067
207.33197	342.995728
208.884552	520.46106
209.11705	540.846313
210.102722	412.703796
215.105408	896.246338
217.121368	3809.129395
220.605865	434.310516
221.116333	1470.809326
223.130569	435.224121
227.105698	2021.465576
231.951538	324.878326
233.116394	1679.931396
235.132172	2274.811279
245.116287	13436.453125
247.434631	399.053101
249.905304	397.072876
251.127167	1107.677612
257.796387	343.540039
257.843384	343.890472
258.338348	353.138916
259.072784	382.930145
263.126862	20915.882812
263.598541	348.722534
271.386322	329.523926
273.546844	829.221436
277.326996	360.739868
277.422607	624.687622
277.496399	458.238617
277.588684	420.701294
277.597992	314.905914
277.614777	510.730408
277.766144	409.820984
277.806732	326.051941
277.811523	332.357941
277.968018	485.297424
278.714966	319.028687
280.504669	346.756226
281.137329	28971.359375
283.796814	1023.183289
294.326416	354.359222
303.655182	403.342224
END IONS

BEGIN IONS
PEPMASS=133.064
CHARGE=1
MSLEVEL=2
SOURCE_INSTRUMENT=LC-ESI-qTof
FILENAME=t.26a548a5e13c475598f60fbc49510d9f/spectra/specs_ms.mgf;
SEQ=*..*
IONMODE=Positive
ORGANISM=GNPS-LIBRARY
NAME=Cinnamaldehyde M+H
PI=Aldo Moreno Ulloa
DATACOLLECTOR=Rommel A. Carballo-Castaneda
SMILES=C1=CC=C(C=C1)/C=C/C=O
INCHI=1S/C9H8O/c10-8-4-7-9-5-2-1-3-6-9/h1-8H/b7-4+
INCHIAUX= 
PUBMED= 
SUBMITUSER=Rommelio_coli
LIBRARYQUALITY=3
SPECTRUMID=CCMSLIB00005724011
USI=mzspec:GNPS:GNPS-LIBRARY:accession:CCMSLIB00005724011
SCANS=983
50.020302	21.0
53.042	21.0
53.048199	21.0
53.050301	21.0
55.0186	21.0
55.0228	42.0
55.030102	21.0
55.061501	21.0
57.071701	21.0
57.0728	21.0
59.048599	21.0
59.049702	21.0
59.051899	42.0
59.053001	42.0
59.056198	42.0
60.4193	21.0
61.027199	21.0
61.030499	63.0
61.033798	63.0
61.037102	21.0
61.0382	21.0
61.042599	21.0
63.033901	21.0
64.5812	21.0
67.054604	21.0
67.062698	21.0
67.069603	21.0
69.070503	21.0
72.934998	21.0
73.062698	21.0
73.065201	42.0
73.066399	42.0
73.068802	63.0
73.154404	21.0
75.0429	42.0
75.046501	21.0
75.047798	21.0
75.051399	21.0
75.0783	21.0
77.039597	21.0
77.042	21.0
77.044502	21.0
77.048203	21.0
78.496498	21.0
79.054901	63.0
79.058701	21.0
79.059998	21.0
79.07	21.0
87.042099	63.0
87.044701	42.0
87.048599	21.0
87.052597	21.0
87.076302	21.0
88.0215	21.0
88.022797	21.0
89.058296	42.0
89.060898	21.0
89.063599	21.0
90.937401	21.0
91.053101	63.0
91.055801	21.0
91.131203	21.0
91.384598	21.0
94.041702	21.0
102.7313	21.0
103.050499	21.0
103.056198	21.0
103.1092	21.0
104.567001	42.0
104.740196	43.0
105.062401	22.0
105.069603	340.0
105.073997	280.0
105.824402	21.0
111.981003	22.0
112.953499	21.0
113.963402	21.0
113.964897	21.0
114.953499	21.0
114.956596	21.0
114.962601	42.0
114.967102	21.0
115.051903	42.0
115.056396	44.0
115.0625	21.0
115.0746	21.0
115.978401	43.0
118.076897	44.0
123.077499	43.0
132.642899	43.0
133.049393	42.0
133.064102	2100.0
133.0755	45.0
133.078705	47.0
133.082001	45.0
133.086899	45.0
133.099899	69.0
133.103104	48.0
133.108002	23.0
133.802307	21.0
133.910095	21.0
134.0914	21.0
134.498505	22.0
134.576996	21.0
134.652298	21.0
135.017593	21.0
135.030701	21.0
135.183304	21.0
135.258698	21.0
135.2948	21.0
135.386703	21.0
135.610107	21.0
136.939194	21.0
137.272903	21.0
137.506104	21.0
138.065796	21.0
138.156998	21.0
139.648499	21.0
141.995804	42.0
147.585907	21.0
150.979904	21.0
153.978104	21.0
154.972397	21.0
154.975906	21.0
154.9776	21.0
154.989899	21.0
155.955704	21.0
155.969803	22.0
155.973297	21.0
155.978607	21.0
159.968307	21.0
162.077301	21.0
290.035309	21.0
1439.202393	21.0
END IONS

BEGIN IONS
PEPMASS=138.055
CHARGE=1
MSLEVEL=2
SOURCE_INSTRUMENT=ESI-Orbitrap
FILENAME=madeleine.mgf
SEQ=*..*
IONMODE=Positive
ORGANISM=GNPS-LIBRARY
NAME=4-AMINOBENZOATE - 20.0 eV M+H
PI=Madeleine Ernst
DATACOLLECTOR=Anna Abrahamsson
SMILES=NC1=CC=C(C=C1)C(O)=O
INCHI=N/A
INCHIAUX=N/A
PUBMED=N/A
SUBMITUSER=mwang87
LIBRARYQUALITY=1
SPECTRUMID=CCMSLIB00005883526
USI=mzspec:GNPS:GNPS-LIBRARY:accession:CCMSLIB00005883526
SCANS=373
50.014301	58.029999
50.014599	64.339996
50.015202	474.540009
50.0424	372.880005
50.102299	50.240002
50.453899	404.029999
50.477402	37.0
50.946899	26.25
51.023201	882.669983
51.2752	24.9
51.484798	25.5
51.590401	26.719999
51.610699	35.189999
51.685902	28.52
51.745098	25.17
51.9403	30.559999
51.970402	25.940001
51.973099	31.08
52.018299	68.489998
52.0951	73.739998
52.134102	33.959999
52.388199	30.0
52.5238	27.73
52.645302	62.060001
52.6614	258.839996
52.9063	107.370003
53.002201	71.419998
53.027401	54.610001
53.039001	662.219971
53.1427	34.82
53.1604	24.360001
53.358101	60.669998
53.402599	429.059998
53.415699	29.07
53.7896	24.52
53.797298	24.379999
53.805401	26.07
54.4487	28.17
54.454899	40.34
54.492599	45.799999
54.600899	26.09
54.6423	109.519997
54.7159	39.389999
55.086102	136.919998
55.1297	46.450001
55.387901	46.66
55.469299	60.110001
55.7733	26.08
55.898998	155.490005
55.9347	3141.179932
55.9604	498.48999
56.082199	28.91
56.2262	30.23
56.408901	25.23
56.425499	24.209999
56.564499	27.879999
56.652802	57.16
56.670101	171.889999
56.794601	51.529999
56.8377	137.949997
56.935101	32.34
56.936199	459.410004
56.942501	1060.089966
56.965099	9241.870117
56.9827	29.030001
57.1399	31.18
57.2728	89.589996
57.633701	28.17
57.935101	855.969971
57.936401	73.709999
58.4949	97.620003
58.533798	39.759998
58.770599	54.68
58.787102	218.669998
58.789398	53.389999
58.824799	60.150002
58.887501	27.15
58.967701	28.049999
58.971001	26.9
58.992901	48.41
59.0107	57.990002
59.434601	36.98
59.467499	30.91
59.490799	63.810001
59.6646	49.77
59.914101	61.5
59.9711	27.889999
60.207901	440.25
60.305801	55.740002
60.307201	128.399994
60.358299	61.240002
60.359798	101.900002
60.3615	90.940002
60.751999	27.059999
60.962601	44.189999
61.013401	29.48
61.104	32.630001
61.150002	39.0
61.163101	28.66
61.528099	28.450001
61.988998	205.020004
62.014999	81.300003
62.244701	30.120001
62.410599	54.07
62.430199	27.08
62.520599	30.66
62.5793	26.440001
62.648201	32.84
62.9151	148.300003
63.022999	44.84
63.083698	70.459999
63.178299	42.580002
63.256901	27.059999
63.5098	32.279999
63.7201	114.120003
63.739601	26.610001
64.018097	67.419998
64.4664	135.919998
64.7127	30.15
64.727699	32.189999
64.8955	423.369995
65.038696	36194.699219
65.389	27.959999
65.633499	55.060001
65.637703	40.689999
65.720703	200.850006
65.980301	29.26
66.041901	1316.949951
66.046501	112.339996
66.147598	30.879999
66.207298	45.66
66.281601	29.110001
66.286697	29.9
66.302299	63.34
66.327904	45.43
66.403	422.170013
66.485298	335.5
66.606003	49.669998
66.659897	30.139999
67.042503	189.899994
67.054298	6340.180176
67.107498	62.610001
67.405098	47.470001
67.413002	28.07
67.661499	30.950001
68.003098	31.66
68.0495	232.860001
68.057602	298.980011
68.500702	48.5
68.534203	30.91
68.586899	29.299999
68.717697	27.17
69.031197	504.339996
69.210403	30.309999
69.692497	27.389999
69.757401	144.539993
69.959	33.139999
70.080399	27.469999
70.177597	30.98
70.193802	110.970001
70.319801	28.610001
70.508102	29.969999
70.655701	42.18
70.733803	44.110001
70.779999	35.130001
70.917999	32.77
71.394402	50.740002
71.6408	63.279999
71.670601	49.48
71.953903	59.900002
72.063797	99.620003
72.648804	28.07
72.7136	59.939999
72.937202	3871.219971
72.940903	76.169998
74.0149	236.270004
74.021202	39.610001
74.043098	126.900002
74.096298	287.970001
74.120399	30.99
74.164703	29.309999
74.3592	56.630001
74.975403	38.25
74.995598	31.639999
75.022797	1424.410034
75.106903	52.029999
75.267097	156.220001
76.026604	101.169998
76.030602	575.219971
76.818802	615.890015
77.024498	31.799999
77.036201	167.419998
77.038498	14802.94043
77.740799	71.110001
78.041901	1354.880005
78.0812	29.030001
78.3778	36.330002
79.017799	156.229996
79.054298	30.950001
79.145599	30.23
79.875099	476.709991
80.264999	68.720001
80.655701	31.6
81.033401	1342.540039
81.227699	34.32
81.568802	28.969999
81.601501	56.790001
82.027	31.790001
82.0467	33.82
82.2603	34.23
82.953796	36.779999
83.384598	43.27
83.431396	34.650002
83.735497	243.020004
83.986	57.689999
84.052101	31.120001
84.116402	30.93
84.503899	32.459999
84.988197	45.470001
85.705803	40.380001
85.803001	139.300003
86.820297	106.910004
86.966599	45.279999
88.023201	51.91
88.093498	35.529999
88.121803	34.5
88.193497	33.220001
88.361	127.540001
88.458504	53.990002
88.968399	498.359985
89.211403	32.869999
89.716003	37.389999
90.5783	35.369999
90.730904	29.620001
90.947701	2330.48999
90.951897	55.75
91.138298	32.330002
91.230103	45.380001
91.737801	221.820007
92.0495	54703.171875
93.0336	1199.47998
93.052902	2718.76001
93.057297	48131.589844
93.07	112.0
93.208801	32.060001
93.264099	46.119999
93.582802	45.790001
93.904198	32.630001
94.041	1189.579956
94.061699	1143.290039
94.065102	584688.75
94.088303	956.719971
94.090698	291.399994
94.124702	328.559998
94.5513	113.82
94.631203	32.060001
94.803902	34.630001
95.0243	188.039993
95.049103	130604.75
95.062202	2920.02002
95.068398	65060.859375
95.896004	153.770004
96.044403	1166.359985
96.049202	113.790001
96.052299	10716.0
96.585999	37.27
96.856796	61.59
96.9375	67.279999
97.007599	224.460007
97.064598	82.589996
97.908401	363.790009
97.969002	72.519997
97.991402	954.880005
98.054199	35.779999
98.084999	103.349998
98.961304	126.300003
98.978401	31.08
99.758003	32.060001
99.986504	28.93
100.862	164.029999
101.363403	32.619999
101.489197	548.780029
102.047897	60.029999
102.4049	56.330002
102.5718	33.900002
102.916801	31.200001
102.948097	76.650002
103.0177	340.73999
103.354797	32.990002
105.044701	52847.488281
105.609497	157.410004
106.042198	120.510002
106.048103	4410.370117
106.147202	37.650002
106.5214	45.200001
106.566704	31.59
107.065903	38.049999
107.178299	31.290001
107.180702	342.209991
107.767502	29.200001
108.036903	34.330002
108.338203	34.939999
108.958298	230.419998
109.010803	471.119995
109.051498	97.57
109.366302	32.759998
110.059998	5428.700195
110.202103	500.209991
110.211502	32.43
111.0233	393.929993
111.044197	1317.329956
111.063301	68.110001
111.080399	31.92
112.266602	33.290001
112.323898	33.18
113.018997	63.259998
113.218002	109.279999
113.233002	40.07
113.963799	16189.849609
114.115196	36.439999
114.288803	34.990002
114.971603	1682.109985
115.014603	2391.850098
115.964104	4576.060059
115.999901	301.049988
116.001999	516.659973
116.677498	62.09
116.817299	28.43
116.972	20536.830078
117.165298	519.469971
117.833603	151.0
118.007103	32.990002
118.500198	29.73
119.994102	29.74
120.008797	2357.110107
120.037804	415.119995
120.044403	1235657.75
120.055801	236.220001
120.0616	53.400002
120.078697	2712.159912
120.927902	61.5
121.028397	8198.0
121.041298	6639.399902
121.047699	162539.953125
121.084	91.989998
121.101196	41.599998
121.127899	31.620001
122.019203	138.979996
122.031799	341.279999
122.525902	34.790001
122.629501	36.509998
122.698402	34.330002
124.015099	6886.589844
125.039101	35.84
125.472198	62.970001
126.256401	34.869999
126.475197	158.550003
127.012001	35.77
127.548798	31.65
128.287704	31.52
128.528107	86.620003
128.950806	12426.799805
129.951004	102.669998
129.954498	108.779999
130.204407	332.299988
131.1707	31.940001
131.974304	6993.339844
132.702301	31.68
132.766907	58.439999
132.958801	81.540001
133.025299	293.850006
133.901001	54.990002
134.012604	51.880001
134.328201	57.259998
136.035095	204.729996
136.110504	65.790001
137.047501	678.849976
137.124207	30.780001
137.300903	30.620001
137.916702	164.5
138.011993	6473.240234
138.0215	107.830002
138.036804	205.449997
138.046097	5428.689941
138.054901	2952139.0
138.075302	713.599976
138.0914	158.559998
138.097595	4381.779785
138.101196	1583.430054
138.128799	310.350006
138.184006	148.860001
138.271194	107.43
139.013901	619.940002
139.039597	1550.619995
139.052399	11461.709961
139.058105	375764.375
139.0755	589.809998
139.100403	562.960022
139.111893	586.119995
139.558395	167.479996
140.826096	49.09
141.480606	330.730011
141.927902	33.779999
142.025696	615.880005
142.211899	36.849998
143.510498	60.189999
144.838898	357.309998
144.909393	33.139999
144.968201	32.669998
145.903397	38.959999
146.417801	57.380001
146.721497	36.68
146.961304	8274.740234
147.949005	165.919998
147.964005	142.850006
148.321899	35.630001
148.391205	540.940002
148.961594	120.889999
149.0345	13427.19043
149.841507	71.830002
150.037506	1108.780029
150.210907	31.370001
151.460495	109.160004
151.698593	32.34
152.070496	90.459999
154.150604	107.410004
155.758606	62.82
155.823196	31.93
156.065704	976.890015
156.756805	30.700001
157.512894	37.150002
158.210495	37.099998
158.319	128.729996
158.394806	554.75
158.666504	36.59
159.534393	56.5
END IONS

BEGIN IONS
PEPMASS=91.039
CHARGE=1
MSLEVEL=2
SOURCE_INSTRUMENT=ESI-Orbitrap
FILENAME=madeleine.mgf
SEQ=*..*
IONMODE=Positive
ORGANISM=GNPS-LIBRARY
NAME=(S)-LACTATE - 20.0 eV M+H
PI=Madeleine Ernst
DATACOLLECTOR=Anna Abrahamsson
SMILES=C[C@H](O)C(O)=O
INCHI=N/A
INCHIAUX=N/A
PUBMED=N/A
SUBMITUSER=mwang87
LIBRARYQUALITY=1
SPECTRUMID=CCMSLIB00005883766
USI=mzspec:GNPS:GNPS-LIBRARY:accession:CCMSLIB00005883766
SCANS=613
50.067501	48.16
50.365002	44.669998
50.405399	48.560001
50.670601	41.48
50.897701	41.490002
51.888901	40.959999
52.016102	42.639999
52.226601	52.34
53.227402	53.360001
53.299099	49.439999
53.810799	48.52
54.282501	52.130001
54.981499	51.580002
55.618	65.849998
56.144299	52.599998
56.418598	54.939999
56.592701	52.349998
56.601101	42.709999
56.965	53.599998
57.123402	54.02
57.3451	57.57
57.495998	50.02
57.633301	45.360001
58.1078	50.16
58.360199	46.380001
58.388401	57.639999
58.416199	53.400002
59.090698	46.869999
59.368198	45.279999
59.379501	43.66
59.577999	44.560001
60.075699	53.310001
60.318699	48.540001
60.745998	56.459999
61.105701	57.060001
61.419701	52.740002
61.659901	55.040001
63.211498	45.849998
63.2742	42.939999
63.609299	46.299999
63.750999	46.400002
64.073601	45.18
64.202003	50.509998
64.485497	51.459999
67.016403	56.369999
67.281197	44.66
67.378899	47.810001
67.3908	54.470001
67.5177	47.299999
67.535301	47.700001
67.630898	48.77
68.071503	47.25
68.212097	46.330002
68.9748	56.59
70.110001	52.84
70.450104	53.240002
70.468597	49.59
70.560799	52.02
71.055603	51.93
72.1464	53.869999
72.1847	54.200001
72.500603	49.02
72.511002	48.0
72.532097	47.91
72.737701	46.25
72.937202	556.75
73.139397	55.509998
73.196999	47.650002
73.789902	47.630001
74.312798	48.330002
74.3172	57.380001
75.309998	56.049999
76.335403	50.34
76.515404	60.41
76.5504	48.91
76.975403	58.209999
77.474503	49.599998
78.039703	51.549999
78.611198	50.59
78.623596	59.860001
78.671997	51.32
78.718102	56.610001
81.141403	47.790001
81.158897	55.380001
81.624702	59.52
82.7938	51.400002
83.324898	59.59
83.621101	52.150002
83.871201	74.720001
84.328796	52.400002
84.6968	58.369999
84.975304	60.18
85.051498	47.060001
85.996399	51.259998
86.971802	57.200001
88.013603	48.040001
88.953499	48.560001
88.967903	56.349998
89.942596	58.740002
90.947899	906.429993
91.039101	14330.030273
91.054398	2657.429932
91.057297	74.559998
91.481499	172.350006
91.928001	63.759998
92.008499	56.169998
92.042397	94.389999
94.336502	54.959999
94.710503	53.34
94.7136	56.290001
95.387802	61.060001
96.115601	64.800003
96.698502	53.09
97.232803	51.34
97.237297	49.349998
97.499702	60.869999
97.9189	53.580002
99.5047	52.240002
99.832703	51.970001
99.922699	55.57
100.4487	58.139999
100.4869	51.439999
100.5438	52.310001
100.932404	62.970001
101.0466	64.040001
101.360298	57.740002
102.790802	58.43
104.453796	53.360001
105.448997	68.849998
106.570503	51.32
107.691803	55.740002
108.565399	57.330002
108.958702	115.519997
109.645203	57.84
END IONS

BEGIN IONS
PEPMASS=132.15
CHARGE=1
MSLEVEL=2
SOURCE_INSTRUMENT=ESI-Orbitrap
FILENAME=madeleine.mgf
SEQ=*..*
IONMODE=Positive
ORGANISM=GNPS-LIBRARY
NAME=BIS(3-AMINOPROPYL)AMINE - 20.0 eV M+H
PI=Madeleine Ernst
DATACOLLECTOR=Anna Abrahamsson
SMILES=NCCCNCCCN
INCHI=N/A
INCHIAUX=N/A
PUBMED=N/A
SUBMITUSER=mwang87
LIBRARYQUALITY=1
SPECTRUMID=CCMSLIB00005883922
USI=mzspec:GNPS:GNPS-LIBRARY:accession:CCMSLIB00005883922
SCANS=769
50.0411	25.620001
50.2533	217.610001
50.655602	34.209999
51.241199	295.720001
51.2757	33.060001
51.287399	227.529999
51.291901	230.429993
51.4874	233.130005
51.6777	228.330002
51.963799	41.880001
52.258202	354.730011
52.291401	263.589996
52.416401	35.720001
52.590401	318.309998
52.787399	231.020004
53.142101	26.459999
53.305599	33.400002
53.435101	34.25
53.689701	37.25
54.142399	31.360001
54.334599	253.820007
54.378899	346.980011
55.008499	224.399994
55.054401	106.32
55.107399	34.220001
55.132702	28.34
55.322899	32.57
55.462299	64.93
55.951	226.199997
56.067902	62.560001
56.163101	34.57
56.2071	26.6
56.4384	37.209999
56.5196	226.160004
56.5359	352.320007
57.020401	29.889999
57.157902	249.309998
57.228802	43.700001
57.256802	236.660004
57.302299	30.02
57.4048	30.540001
57.4813	39.970001
57.7808	41.150002
57.8815	38.490002
58.065399	92274.226562
58.185799	238.429993
58.267899	183.960007
58.372002	30.42
58.622501	34.73
59.042599	27.059999
59.062401	113.529999
59.068802	3370.040039
59.1301	29.440001
59.202202	257.790009
59.610401	30.049999
59.645599	179.380005
59.9711	229.399994
60.300499	32.450001
60.3204	275.859985
60.765598	111.839996
60.8461	29.709999
60.851398	34.049999
61.125301	36.299999
61.484901	291.190002
61.8839	31.719999
61.976898	70.470001
62.1091	30.969999
62.292301	75.650002
62.5117	39.16
62.7061	29.93
62.861401	33.23
63.092701	31.440001
63.128101	35.98
63.1306	35.950001
63.180599	32.369999
63.192902	31.27
63.2155	34.48
63.4618	94.169998
63.469501	33.709999
63.664501	37.48
63.722	35.419998
63.931801	39.650002
63.985401	39.5
64.0755	92.309998
64.508301	37.540001
64.930298	254.889999
65.001602	99.629997
65.367302	31.700001
65.471397	34.970001
65.681396	107.559998
66.248901	321.100006
66.458504	239.830002
66.513603	43.720001
66.517998	291.660004
66.528	34.84
66.730202	31.35
66.919899	38.889999
66.932701	41.720001
67.166603	44.27
67.191498	30.639999
67.539299	272.649994
67.618301	29.620001
67.876198	38.09
67.899002	87.489998
68.639999	34.470001
68.7994	227.850006
69.008598	29.92
69.070099	602.98999
69.931099	31.370001
70.065201	10709.419922
70.286903	77.699997
70.3367	30.49
70.368896	248.339996
70.698997	35.349998
71.054398	257.890015
71.068497	750.210022
71.621399	176.020004
72.202499	31.700001
72.2883	311.630005
72.528099	108.300003
72.806198	408.160004
72.937202	604.0
73.459099	243.190002
73.588097	278.700012
73.740097	303.559998
73.748199	32.990002
74.307999	422.820007
74.605598	36.299999
74.751404	262.25
74.763	241.039993
75.091698	36901.328125
75.426003	244.380005
75.579697	32.689999
76.0951	1002.559998
76.5522	264.700012
76.702103	270.160004
76.747299	37.189999
76.987396	31.23
77.087601	40.75
77.313004	79.080002
77.523102	273.540009
77.746201	33.07
79.219902	37.509998
79.278702	33.880001
79.493896	340.519989
80.125198	40.91
80.494904	406.450012
81.331398	42.009998
81.478302	39.130001
81.500999	69.410004
81.770699	35.59
81.848	44.099998
82.048599	29.32
83.509399	77.220001
83.656197	35.400002
83.667503	35.400002
83.733803	37.540001
83.740097	42.740002
84.081001	43.25
84.299896	111.239998
84.647797	260.390015
84.7472	355.589996
84.9254	391.089996
85.4048	81.419998
85.853302	409.700012
86.0755	2586.389893
86.092201	2249.570068
86.096497	1316322.375
86.117699	2311.02002
86.149101	46.389999
86.536102	42.48
86.854301	34.299999
87.030701	32.610001
87.091797	2357.959961
87.093697	5217.060059
87.0998	106703.359375
87.102402	4048.820068
87.212097	291.130005
87.457703	308.549988
88.0215	94.190002
88.138	268.529999
88.738403	37.610001
89.2416	39.099998
89.404503	31.17
89.504097	30.219999
89.531799	43.189999
89.787102	34.119999
90.234596	191.630005
90.393402	34.689999
90.903099	88.620003
90.927696	250.179993
90.931	264.73999
90.9478	836.599976
91.054398	41.849998
91.231903	124.480003
91.510399	34.93
91.730301	34.080002
91.948196	80.190002
92.104897	262.769989
92.165703	36.290001
92.456802	34.02
92.930496	326.059998
93.547897	34.369999
93.565598	279.609985
93.874001	271.410004
94.493401	37.029999
95.026497	329.450012
95.109901	122.110001
95.357002	45.59
96.219902	34.07
96.640297	355.959991
96.680099	285.769989
96.746902	190.800003
97.007698	452.079987
97.696999	35.630001
98.007401	55.360001
98.069603	173.539993
98.096497	297669.25
98.122101	279.26001
98.673798	77.120003
99.003304	1689.420044
99.056503	241.470001
99.0933	617.909973
99.096497	370.940002
99.0998	29393.310547
100.704201	275.559998
101.102203	83.830002
101.266502	92.730003
101.469299	41.419998
101.828201	40.259998
102.1642	45.310001
102.167397	45.330002
102.5933	36.290001
103.514297	115.470001
103.594902	315.649994
104.064499	37.490002
104.291397	37.240002
104.472603	293.880005
104.907898	786.960022
104.922699	34.549999
105.003403	378.890015
105.066597	35.799999
105.07	768.359985
107.3908	110.720001
107.808502	190.360001
107.920097	453.890015
108.958298	91.550003
109.338699	230.970001
109.342598	48.900002
110.638702	35.349998
111.225098	41.790001
111.264999	40.720001
111.827797	33.380001
113.107201	105.269997
113.823303	40.360001
113.889198	281.269989
113.963699	291.600006
113.9739	311.320007
114.661903	251.880005
114.964203	39.959999
115.089897	855.5
115.123001	390838.3125
115.155098	502.769989
115.156097	472.660004
116.120201	4927.470215
116.126404	36306.230469
116.376297	406.880005
117.334	319.859985
117.846397	33.0
118.636703	43.080002
118.679802	266.140015
119.127403	258.950012
120.204597	278.700012
120.215797	291.100006
121.088303	35.630001
121.822098	36.5
122.019302	2423.790039
122.329201	41.900002
122.378197	351.450012
123.022598	426.290009
125.0942	43.540001
126.009003	313.290009
127.1548	36.639999
128.2556	44.279999
128.476303	39.099998
129.092499	38.59
129.975693	441.399994
130.010193	42.380001
130.497894	34.07
131.974197	276.660004
132.102097	58235.980469
132.107193	715.080017
132.109299	462.350006
132.149597	479664.96875
132.189407	620.22998
132.358795	83.150002
132.714798	37.880001
132.902802	2867.139893
132.958496	52.290001
132.965195	290.790009
133.028	33.669998
133.065002	584.599976
133.076096	36.73
133.101196	711.080017
133.105392	4704.109863
133.146805	8680.019531
133.152893	51178.519531
133.820999	282.709991
136.734497	35.560001
139.444901	267.76001
141.068695	37.240002
142.385803	34.32
143.286697	34.939999
146.316299	45.130001
149.052307	40.799999
149.296799	38.950001
150.014496	98.43
150.267899	188.229996
150.396194	38.779999
150.913193	178.270004
150.955002	272.100006
150.980499	99.669998
151.008804	56.68
151.017593	77.190002
151.557007	40.240002
152.156097	122.870003
152.465393	33.009998
154.077194	329.869995
END IONS

BEGIN IONS
PEPMASS=122.096
CHARGE=1
MSLEVEL=2
SOURCE_INSTRUMENT=ESI-Orbitrap
FILENAME=madeleine.mgf
SEQ=*..*
IONMODE=Positive
ORGANISM=GNPS-LIBRARY
NAME=PHENETHYLAMINE - 20.0 eV M+H
PI=Madeleine Ernst
DATACOLLECTOR=Anna Abrahamsson
SMILES=NCCC1=CC=CC=C1
INCHI=N/A
INCHIAUX=N/A
PUBMED=N/A
SUBMITUSER=mwang87
LIBRARYQUALITY=1
SPECTRUMID=CCMSLIB00005884849
USI=mzspec:GNPS:GNPS-LIBRARY:accession:CCMSLIB00005884849
SCANS=1696
50.035599	56.450001
50.175301	64.529999
50.597198	57.849998
50.861599	64.580002
51.004002	64.760002
51.1021	53.529999
51.411999	66.5
51.450401	55.689999
51.461899	57.700001
51.560299	60.169998
51.698601	53.849998
51.962299	53.889999
51.969002	50.84
52.063202	63.130001
52.221901	53.09
52.370201	68.949997
52.721199	63.09
53.008598	52.970001
53.2724	56.209999
53.4636	53.619999
53.570801	62.98
53.768501	64.900002
53.9482	57.349998
54.148102	62.41
54.348202	61.09
54.556599	55.549999
54.659199	57.950001
55.0172	55.700001
55.922298	54.049999
56.0177	70.540001
56.183998	61.389999
56.218399	61.400002
56.3993	56.310001
56.433701	54.709999
56.518398	61.0
56.965199	11616.669922
56.9664	227.330002
57.110298	77.660004
57.239498	56.299999
57.4506	52.639999
58.504902	2307.97998
59.708801	71.029999
60.0149	64.190002
60.2873	58.09
61.007599	150.210007
62.180302	65.269997
62.242001	53.279999
62.4491	57.259998
62.740601	63.869999
63.457298	62.040001
63.489498	61.869999
63.686401	53.849998
63.696098	58.650002
63.8904	58.439999
64.3134	61.369999
64.319298	61.009998
64.386101	68.410004
64.427803	59.75
64.475304	65.43
64.636398	74.889999
66.201698	66.330002
66.211098	61.0
66.8937	63.209999
67.054497	406.709991
67.064102	69.410004
67.510101	6743.52002
67.960403	74.540001
68.243103	63.650002
68.264801	69.370003
69.089104	80.449997
69.337997	53.669998
69.8909	69.959999
70.012802	4700.439941
70.514198	90.980003
70.704697	70.0
70.794998	73.699997
70.839203	66.489998
72.227303	57.119999
72.937401	226.210007
74.091797	57.580002
76.439003	63.32
76.515297	5990.419922
77.012299	74.980003
78.233803	59.650002
78.9972	157.759995
79.017998	59882.378906
79.054398	1394.859985
79.519798	2013.280029
79.530403	71.209999
79.756401	64.660004
81.07	4837.759766
81.514801	71.43
82.013901	379.170013
82.113197	67.690002
82.552597	62.330002
84.481598	69.25
84.960098	76.190002
85.017899	194.110001
85.520599	445.589996
85.594299	66.800003
85.721802	66.209999
86.023399	64.779999
86.025803	1163.060059
88.004402	244.320007
88.0233	68737.6875
88.361702	76.169998
88.522003	285.880005
88.525101	2292.909912
89.025299	89.18
90.5261	1956.650024
90.664703	73.940002
90.947899	168.0
93.0336	114.809998
94.023499	85.379997
95.031197	1169.670044
95.0494	1437.290039
95.0858	1044.800049
97.007797	2502.23999
97.028603	6968.790039
99.003502	3205.300049
99.531303	1582.47998
99.736	75.940002
100.024498	11675.660156
100.943901	74.75
103.054398	114.110001
105.070099	26048.740234
106.073402	4187.180176
108.088898	62.619999
108.733498	62.529999
109.717903	65.239998
110.237602	87.910004
111.023499	95.970001
113.019096	2151.120117
113.825798	64.019997
114.222603	71.879997
115.0942	65.160004
115.726402	64.410004
116.130203	74.480003
116.551498	67.769997
116.748001	68.360001
118.035103	6551.209961
118.293404	79.220001
120.096497	73.739998
121.320702	70.519997
122.019302	9844.169922
122.060303	686.22998
122.096603	6120.069824
123.016701	114.120003
123.022697	843.840027
123.044403	586.909973
123.055901	556.409973
123.080597	5429.5
123.091904	4228.189941
123.099899	240.240005
123.117104	2964.76001
124.9953	71.830002
126.429703	66.730003
127.896599	68.43
127.974197	74.610001
130.430405	77.970001
130.4543	73.370003
130.631104	76.989998
130.928696	76.919998
131.382706	76.940002
133.810898	67.779999
141.367599	69.059998
144.329102	69.489998
END IONS

BEGIN IONS
PEPMASS=322.986
CHARGE=1
MSLEVEL=2
SOURCE_INSTRUMENT=LC-ESI-qTof
FILENAME=f.trevorclark/IMS_PAPER/EV_pure_compounds_mgf/MSMS_PROCESSING_TEST_1/MSMS_PROCESSING_TEST_1/20180306_STD_CHLO_MSMS_30V [15] [57].mgf;
SEQ=*..*
IONMODE=Positive
ORGANISM=GNPS-LIBRARY
NAME=chloramphenicol M+H
PI=Roger Linington
DATACOLLECTOR=Trevor Clark
SMILES=C1=CC(=CC=C1C(C(CO)NC(=O)C(Cl)Cl)O)[N+](=O)[O-]
INCHI= 
INCHIAUX= 
PUBMED= 
SUBMITUSER=trevorclark
LIBRARYQUALITY=1
SPECTRUMID=CCMSLIB00006718020
USI=mzspec:GNPS:GNPS-LIBRARY:accession:CCMSLIB00006718020
SCANS=1
118.064003	129.419998
119.072197	380.089996
164.025406	1545.290039
165.066101	2086.409912
170.057495	327.160004
192.022598	251.690002
205.026703	130.759995
206.035904	404.320007
208.030899	130.229996
227.995499	5788.740234
239.995804	2385.850098
248.986298	119.0
250.961899	158.610001
257.994202	17860.960938
274.998199	289.209991
276.989502	158.5
END IONS

BEGIN IONS
PEPMASS=282.134
CHARGE=1
MSLEVEL=2
SOURCE_INSTRUMENT=LC-ESI-qTof
FILENAME=f.trevorclark/IMS_PAPER/EV_pure_compounds_mgf/MSMS_PROCESSING_TEST_1/MSMS_PROCESSING_TEST_1/20180306_STD_CYCH_MSMS_30V [116] [77].mgf;
SEQ=*..*
IONMODE=Positive
ORGANISM=GNPS-LIBRARY
NAME=Cycloheximide M+H
PI=Roger Linington
DATACOLLECTOR=Trevor Clark
SMILES=C[C@H]1C[C@@H](C(=O)[C@H](C1)[C@@H](CC2CC(=O)NC(=O)C2)O)C
INCHI= 
INCHIAUX= 
PUBMED= 
SUBMITUSER=trevorclark
LIBRARYQUALITY=1
SPECTRUMID=CCMSLIB00006718022
USI=mzspec:GNPS:GNPS-LIBRARY:accession:CCMSLIB00006718022
SCANS=1
178.9673	291.170013
180.946503	116.25
201.047302	115.0
203.058304	241.880005
207.001205	228.889999
222.940598	705.840027
224.923904	262.75
250.971207	2119.310059
252.949097	191.050003
270.11441	150.800003
END IONS

BEGIN IONS
PEPMASS=472.194
CHARGE=1
MSLEVEL=2
SOURCE_INSTRUMENT=LC-ESI-qTof
FILENAME=f.trevorclark/IMS_PAPER/EV_pure_compounds_mgf/MSMS_PROCESSING_TEST_1/MSMS_PROCESSING_TEST_1/20180306_STD_PUR_MSMS_30V [111] [161].mgf;
SEQ=*..*
IONMODE=Positive
ORGANISM=GNPS-LIBRARY
NAME=Puromycin M+H
PI=Roger Linington
DATACOLLECTOR=Trevor Clark
SMILES=O=C(N[C@@H]3[C@H](O[C@@H](n2cnc1c2ncnc1N(C)C)[C@@H]3O)CO)[C@@H](N)Cc4ccc(OC)cc4
INCHI= 
INCHIAUX= 
PUBMED= 
SUBMITUSER=trevorclark
LIBRARYQUALITY=1
SPECTRUMID=CCMSLIB00006718030
USI=mzspec:GNPS:GNPS-LIBRARY:accession:CCMSLIB00006718030
SCANS=1
150.091995	175.600006
292.114685	237.289993
309.138489	414.920013
351.116211	101.0
END IONS

BEGIN IONS
PEPMASS=142.009
CHARGE=1
MSLEVEL=2
SOURCE_INSTRUMENT=LC-ESI-Orbitrap
FILENAME=t.48fb7fca50674e6e86b3465f15d10203/spectra/specs_ms.mgf;
SEQ=*..*
IONMODE=Positive
ORGANISM=GNPS-LIBRARY
NAME=Methamidophos M+H
PI=Jonathan W. Martin
DATACOLLECTOR=Stefano Papazian
SMILES=COP(=O)(N)SC
INCHI= 
INCHIAUX= 
PUBMED= 
SUBMITUSER=montmasis
LIBRARYQUALITY=3
SPECTRUMID=CCMSLIB00006718059
USI=mzspec:GNPS:GNPS-LIBRARY:accession:CCMSLIB00006718059
SCANS=635
51.023338	42085.0
55.05444	895.0
60.044701	685720.0
63.994759	457232.0
64.003227	457232.0
65.038834	12508.0
65.925552	6940.0
67.054314	6707.0
69.033577	7498.0
71.049026	288.0
78.998993	946297.0
94.009331	848510.0
97.961342	9341.0
100.079247	105213.0
101.081718	8512.0
108.039787	68552.0
109.982323	463614.0
112.01577	10229750.0
112.087112	32200.0
124.981743	969764.0
127.992928	62155.0
END IONS

BEGIN IONS
PEPMASS=399.25
CHARGE=1
MSLEVEL=2
SOURCE_INSTRUMENT=LC-ESI-Orbitrap
FILENAME=t.48fb7fca50674e6e86b3465f15d10203/spectra/specs_ms.mgf;
SEQ=*..*
IONMODE=Positive
ORGANISM=GNPS-LIBRARY
NAME=Tris(2-butoxyethyl) phosphate (TBOEP) M+H
PI=Jonathan W. Martin
DATACOLLECTOR=Stefano Papazian
SMILES=CCCCOCCOP(=O)(OCCOCCCC)OCCOCCCC
INCHI= 
INCHIAUX= 
PUBMED= 
SUBMITUSER=montmasis
LIBRARYQUALITY=3
SPECTRUMID=CCMSLIB00006718060
USI=mzspec:GNPS:GNPS-LIBRARY:accession:CCMSLIB00006718060
SCANS=8970
53.00248	198177.0
53.997601	101927.0
55.017979	450073.0
55.054379	6368529.0
56.049759	321897.0
56.05788	321897.0
57.03376	452937.0
57.070068	13066929.0
58.06525	326829.0
58.07336	326829.0
59.049412	1878833.0
59.060619	21906616.0
60.044552	39046.0
60.057541	626640.0
60.063808	578753.0
61.039711	108772.0
62.989868	43031.0
65.038681	263371.0
66.041924	130499.0
67.054153	1160056.0
67.989159	85443.0
68.049393	187009.0
68.057617	190416.0
68.997078	39581.0
69.033363	71114.0
69.069771	590347.0
71.049202	176094.0
73.046837	2980648.0
73.064598	23311.0
74.046432	145936.0
75.028511	48862.0
77.040863	159553.0
80.062248	121601.0
80.066841	124452.0
81.077293	2040262.0
82.072433	164149.0
82.080467	165006.0
83.056381	569999.0
83.092972	6492357.0
84.095322	511251.0
85.035011	55685.0
85.071289	546686.0
85.107857	916081.0
87.086121	35342.0
89.065613	47220.0
92.062859	233222.0
92.067123	378525.0
93.07412	782084.0
95.089531	2104150.0
96.048492	145039.0
96.084892	406505.0
96.09304	390565.0
97.067841	388252.0
97.104248	958818.0
98.107521	75289.0
99.047081	111150.0
99.083603	318013.0
101.061813	196315.0
101.098396	17593688.0
102.101753	899484.0
103.056633	111897.0
103.077454	32816.0
106.066063	144959.0
106.07428	31980.0
107.070847	39162.0
107.086647	548745.0
108.090157	81786.0
108.094383	57276.0
109.064507	541191.0
109.101212	2365527.0
110.060066	53762.0
110.103958	108287.0
111.080048	360670.0
111.116524	134790.0
113.095757	328324.0
114.091026	128640.0
115.054176	432226.0
117.069962	477406.0
118.065086	46351.0
118.072662	115172.0
118.077477	97959.0
119.04924	87448.0
119.060448	41273.0
119.085587	781672.0
121.064827	166137.0
121.08844	72056.0
121.101341	1250328.0
122.104179	97643.0
123.079903	465526.0
123.116608	686944.0
124.075699	71206.0
124.120216	23856.0
124.999443	1087218.0
125.059471	4060.0
125.132263	216211.0
127.053993	27005.0
127.075607	200671.0
127.111687	130573.0
129.054108	163754.0
129.090317	73241.0
131.072876	64524.0
133.013214	153136.0
133.064392	85290.0
133.100586	659162.0
135.116653	681510.0
136.119781	82851.0
137.059097	26041.0
137.096146	146094.0
137.132385	581684.0
138.13533	43366.0
139.054245	100049.0
139.075638	142249.0
139.111526	232256.0
139.148483	25578.0
141.069839	436840.0
141.12738	130926.0
143.010345	3535367.0
143.085739	187634.0
143.10675	157411.0
145.100784	580902.0
147.11647	658638.0
148.075287	44763.0
149.016266	13103.0
149.044601	223928.0
149.096313	108861.0
149.132538	632804.0
150.135895	134858.0
151.023972	472290.0
151.075592	136001.0
151.111542	226426.0
151.148315	349585.0
153.070236	421478.0
153.090469	78361.0
153.127243	341012.0
154.077728	296813.0
155.106354	149870.0
155.142639	2060215.0
157.08847	605.0
157.101303	434661.0
158.097656	29718.0
159.080719	218043.0
159.116226	237665.0
161.041977	41829.0
161.059448	140620.0
161.132034	496821.0
162.128189	146956.0
162.135941	147965.0
163.111496	199195.0
163.148163	487652.0
164.150848	106436.0
165.069214	86064.0
165.090775	135325.0
165.127243	179176.0
165.163925	339622.0
167.05452	317888.0
167.107101	14503.0
167.142838	173726.0
168.057098	100213.0
169.100739	240187.0
170.109772	29221.0
172.11174	77743.0
173.095673	67051.0
173.132263	204519.0
174.091385	32127.0
174.135788	73136.0
175.057297	91373.0
175.074707	98771.0
175.111954	220633.0
175.148087	358957.0
176.023758	6786.0
176.151718	172453.0
177.053879	129401.0
177.090485	38122.0
177.127151	57886.0
177.163864	220842.0
178.077728	254055.0
178.167099	41129.0
178.963928	214335.0
179.085541	137100.0
179.142853	110013.0
179.178772	216146.0
181.064682	32689.0
181.101501	159797.0
181.122086	148702.0
181.158737	72009.0
182.072083	20165.0
183.117371	169947.0
183.137207	121907.0
183.174469	83776.0
184.034393	78312.0
184.07486	18190.0
184.111069	100709.0
185.041351	52707.0
185.095688	33716.0
185.131866	124874.0
187.075882	218413.0
187.148331	149561.0
189.090515	118502.0
189.126816	89175.0
189.163116	186472.0
191.000732	589955.0
191.085815	124558.0
191.10553	13172.0
192.093277	97260.0
193.101517	64019.0
193.123047	134158.0
193.158737	201232.0
193.194839	49288.0
194.99501	240786.0
195.101761	64415.0
195.138611	22869.0
195.174942	56650.0
196.112274	38688.0
196.974716	293790.0
197.041519	25916.0
197.096725	130694.0
197.13266	198251.0
197.190109	116689.0
198.127045	67488.0
199.072189	26584764.0
199.111481	92556.0
200.075592	1736123.0
201.091339	55555.0
201.126709	79518.0
201.163483	8798.0
202.077957	288769.0
203.085754	156137.0
203.105957	98305.0
203.143585	3181.0
203.179108	380399.0
205.122528	96010.0
205.158936	36106.0
205.195435	131742.0
206.108688	62824.0
207.031586	171133.0
207.116379	129812.0
207.138779	38383.0
207.210831	43322.0
208.033173	95866.0
209.011276	1016916.0
209.131317	58597.0
209.189789	55168.0
210.01088	174787.0
210.126938	48647.0
211.075348	24867.0
211.148132	139624.0
211.205475	20823.0
212.554962	145896.0
212.936462	20902.0
213.163727	50099.0
215.08606	97146.0
215.106659	10124.0
215.141754	38760.0
215.179642	117615.0
217.101547	9030.0
217.122772	162737.0
217.159225	99280.0
217.194916	254621.0
219.102936	117396.0
219.116852	42997.0
219.21106	281140.0
221.080292	730055.0
221.132172	19013.0
221.152664	96431.0
221.189743	127139.0
222.048813	30769.0
223.063828	998320.0
223.147156	101851.0
224.064484	299564.0
225.041824	327609.0
225.061768	102247.0
225.088959	518231.0
225.127045	47760.0
226.076691	54092.0
227.142578	83338.0
227.179337	148836.0
229.122086	23360.0
229.159332	100002.0
229.194412	6970.0
231.116165	128375.0
231.136917	35209.0
231.159561	608323.0
231.174652	129569.0
233.089798	35462.0
233.132568	89497.0
233.189911	69644.0
233.226212	35002.0
234.048752	16969.0
235.057968	134096.0
235.132874	33701.0
235.148361	76689.0
235.204697	150275.0
235.241318	108381.0
237.12767	25136.0
237.162964	29001.0
237.18454	97823.0
237.221802	44970.0
239.143997	119580.0
240.183792	40833.0
241.121811	33841.0
241.15799	167188.0
241.193924	76312.0
243.09993	715862.0
243.116211	50257.0
243.138596	129913.0
243.197647	160822.0
243.209579	333808.0
245.153915	18772.0
245.18895	6121.0
245.226135	372520.0
247.169342	39474.0
247.242386	86253.0
251.14296	58459.0
251.179291	94846.0
251.200668	54326.0
252.092239	28033.0
253.122559	109034.0
253.159317	107217.0
253.193878	55295.0
253.252335	161613.0
255.136581	102684.0
255.21109	190074.0
257.152618	4583.0
257.190399	147472.0
257.225677	4742.0
259.168091	78332.0
259.206085	99258.0
259.242035	60223.0
261.164185	83801.0
261.220856	27830.0
263.178864	67992.0
263.236176	320063.0
265.019928	129486.0
266.997467	129096.0
267.173218	63862.0
267.210724	92226.0
269.153595	85226.0
269.189178	37286.0
269.227112	61218.0
271.20401	132783.0
273.183441	57902.0
275.179688	88139.0
275.199402	109204.0
275.236176	161220.0
277.158386	29294.0
277.195526	103491.0
277.215363	110259.0
279.17337	168361.0
279.210938	4161.0
281.051178	1166326.0
281.131989	38032.0
281.225647	28858.0
282.052887	290002.0
283.029419	268186.0
283.205902	1740.0
285.008789	581421.0
285.256317	108350.0
286.187164	61091.0
287.161774	43730.0
287.180054	11776.0
287.200958	79298.0
287.234955	36860.0
290.110352	121576.0
291.230469	146228.0
293.190826	47491.0
293.24472	32613.0
295.168427	159152.0
295.241943	50477.0
296.200256	90378.0
297.044037	597630.0
297.185486	154344.0
297.221008	101554.0
298.216614	149675.0
299.061676	3047353.0
299.161865	5588272.0
299.200653	281977.0
299.236694	5029.0
300.060577	677271.0
300.164124	359294.0
301.059723	438463.0
301.160706	142846.0
301.250519	18500.0
302.249542	89241.0
303.178528	105770.0
303.230652	307292.0
305.153503	152096.0
305.247955	210223.0
306.243927	137540.0
307.169617	134741.0
307.204315	17024.0
307.262146	5382.0
309.185547	536371.0
310.191864	182514.0
311.182678	94757.0
311.235748	151229.0
312.204895	76798.0
312.925842	140477.0
313.160736	122848.0
313.252991	113454.0
314.923584	324158.0
315.139709	151426.0
315.175873	68360.0
315.193909	96337.0
315.230347	367011.0
317.246796	163336.0
318.24115	91798.0
319.1698	112344.0
319.206512	53196.0
320.253174	88973.0
321.144257	284686.0
321.187653	467203.0
321.240051	122722.0
322.191132	155815.0
322.215973	118963.0
324.206299	50106.0
325.214661	129603.0
327.230896	153592.0
329.209015	123556.0
329.248291	127256.0
331.170746	57355.0
331.225739	126877.0
331.261353	119661.0
332.257324	176977.0
333.10434	118178.0
333.221893	57372.0
333.241486	71891.0
334.272644	65764.0
335.236115	67016.0
337.215881	226366.0
337.252014	72273.0
339.19574	113157.0
339.232208	176709.0
339.266174	49781.0
341.210297	78936.0
341.247528	102954.0
343.171204	131037.0
343.2258	52064.0
343.246307	132809.0
345.18689	103433.0
345.242004	99694.0
347.119537	82094.0
347.199585	25544.0
348.121857	72074.0
349.180878	52683.0
349.215607	185629.0
351.196838	29009.0
351.233337	114167.0
353.249542	52046.0
355.069458	273762.0
355.263489	30578.0
357.147552	188839.0
357.241791	35152.0
358.27356	81848.0
361.215118	100862.0
363.232269	84762.0
365.248474	166995.0
367.22702	46802.0
367.264801	41890.0
369.241455	26733.0
373.215851	20090.0
373.273926	82063.0
377.211487	17624.0
377.246887	46768.0
379.225464	41813.0
379.261169	78646.0
381.243652	146340.0
381.279633	77607.0
383.257843	78986.0
387.289398	56724.0
389.211548	50633.0
391.226959	73213.0
393.241333	23571.0
395.292542	61401.0
397.270416	130380.0
399.250305	359759.0
END IONS

BEGIN IONS
PEPMASS=183.005
CHARGE=1
MSLEVEL=2
SOURCE_INSTRUMENT=LC-ESI-Orbitrap
FILENAME=t.3f45c88e02d64b73b9c0ad25b2a77857/spectra/specs_ms.mgf;
SEQ=*..*
IONMODE=Negative
ORGANISM=GNPS-LIBRARY
NAME=2,4-Dinitrophenol M-H
PI=Jonathan W. Martin
DATACOLLECTOR=Stefano Papazian
SMILES=C1=CC(=C(C=C1[N+](=O)[O-])[N+](=O)[O-])O
INCHI= 
INCHIAUX= 
PUBMED= 
SUBMITUSER=montmasis
LIBRARYQUALITY=3
SPECTRUMID=CCMSLIB00006718064
USI=mzspec:GNPS:GNPS-LIBRARY:accession:CCMSLIB00006718064
SCANS=2154
50.003281	56071.0
51.02375	90799.0
53.003071	39974.0
55.01865	39260.0
57.0345	53826.0
59.013809	498655.0
59.967232	135327.0
61.988239	35483.0
62.016022	37757.0
64.019157	66904.0
65.003258	121801.0
65.99855	69273.0
66.011124	35138.0
67.01899	243294.0
68.014053	63986.0
68.998466	122719.0
69.034729	123017.0
71.880142	18870.0
72.99295	48159.0
73.029449	49926.0
75.008713	21323.0
75.962517	86645.0
76.970306	498494.0
78.918747	33735.0
78.959137	99583.0
79.019096	219167.0
79.957382	26976.0
80.916878	27420.0
81.034607	21988.0
83.01384	20907.0
83.049988	26159.0
85.029381	51357.0
87.009048	94314.0
93.034416	77404.0
94.029732	44549.0
94.980499	32907.0
95.013939	1570424.0
96.017517	85240.0
96.960083	33697.0
96.969818	18902.0
97.029404	106168.0
98.929443	96313.0
107.013733	26621.0
107.050003	25734.0
108.009422	42864.0
108.021584	758464.0
108.045578	30198.0
109.017189	398178.0
109.025108	48560.0
109.029388	50581.0
110.020569	23359.0
110.024902	68348.0
111.009117	87884.0
111.020302	17446.0
114.960487	23700.0
116.940331	97680.0
118.992912	18794.0
120.008957	26825.0
121.029503	32270.0
123.008957	4725644.0
124.012337	303458.0
125.011673	250916.0
125.024399	21424.0
125.06118	40914.0
126.015511	17678.0
126.995407	25923.0
130.992813	35066.0
135.045486	40356.0
136.004059	20167.0
137.011795	985541.0
137.024597	49464.0
138.020264	1172281.0
139.02301	86149.0
151.040329	29723.0
153.00737	4021091.0
154.009659	265877.0
154.947769	1026164.0
155.010849	19494.0
155.947311	96612.0
156.944107	58434.0
158.950424	48620.0
160.040283	16586.0
168.962631	46734.0
172.958984	17485.0
176.906784	38660.0
182.009842	32010.0
183.005081	8977709.0
END IONS

BEGIN IONS
PEPMASS=111.044
CHARGE=1
MSLEVEL=2
SOURCE_INSTRUMENT=LC-ESI-Orbitrap
FILENAME=t.b30033a26b48478bba2e4cfd095044ce/spectra/specs_ms.mgf;
SEQ=*..*
IONMODE=Positive
ORGANISM=GNPS-LIBRARY
NAME=Hydroquinone M+H
PI=Jonathan W. Martin
DATACOLLECTOR=Stefano Papazian
SMILES=C1=CC(=CC=C1O)O
INCHI= 
INCHIAUX= 
PUBMED= 
SUBMITUSER=montmasis
LIBRARYQUALITY=3
SPECTRUMID=CCMSLIB00006718073
USI=mzspec:GNPS:GNPS-LIBRARY:accession:CCMSLIB00006718073
SCANS=324
52.018539	91211.0
53.997929	73197.0
54.034119	113259.0
55.018261	5085969.0
55.054661	1058820.0
56.021679	373609.0
56.049809	586036.0
56.057941	71884.0
57.033741	190138.0
57.070122	244490.0
58.029148	106841.0
59.060612	496197.0
60.04475	14554.0
62.92942	451214.0
63.023338	213762.0
64.927368	202651.0
65.038773	26416.0
66.033974	43824.0
66.046654	26173.0
67.029182	88845.0
67.054489	792734.0
67.98954	196698.0
68.013283	3923.0
69.044807	307594.0
69.992393	27458.0
70.028862	158762.0
70.065353	739344.0
72.044647	5475.0
72.937317	137491.0
73.028687	118435.0
73.064903	52753.0
75.046593	228692.0
79.059273	161394.0
81.040993	402858.0
81.05233	138439.0
82.036247	189245.0
83.020233	36121.0
83.05687	2579020.0
83.092987	107014.0
84.051079	205237.0
84.087479	89682.0
85.035103	767104.0
85.071587	173367.0
87.049927	64474.0
92.05471	112801.0
93.037827	63261.0
93.06192	55629.0
93.074463	128912.0
94.032913	179422.0
94.069656	51651.0
95.028603	305481.0
95.089813	31191.0
97.067978	14207.0
97.079353	1143997.0
98.063454	244116.0
98.082764	201970.0
98.979019	405790.0
99.047752	294052.0
100.115837	931362.0
101.026047	272169.0
101.110046	442192.0
101.117699	120429.0
102.057678	313124.0
105.034439	126155.0
105.046181	70998.0
105.071426	95349.0
106.066483	49566.0
107.050507	66063.0
109.07621	59359.0
110.035316	395650.0
110.047707	124668.0
110.060066	561544.0
111.044212	13637038.0
111.055473	1577884.0
111.09198	218544.0
END IONS

BEGIN IONS
PEPMASS=109.03
CHARGE=1
MSLEVEL=2
SOURCE_INSTRUMENT=LC-ESI-qTof
FILENAME=f.stephane/Standards/Catechol_120-80-9_NEG_MS2_20-40eV.mgf;
SEQ=*..*
IONMODE=Negative
ORGANISM=GNPS-LIBRARY
NAME=Catechol M-H
PI=Stephane GREFF
DATACOLLECTOR=Stephane GREFF
SMILES=C1=CC=C(C(=C1)O)O
INCHI=1S/C6H6O2/c7-5-3-1-2-4-6(5)8/h1-4,7-8H
INCHIAUX=YCIMNLLNPGFGHC-UHFFFAOYSA-N
PUBMED=289
SUBMITUSER=stephane
LIBRARYQUALITY=3
SPECTRUMID=CCMSLIB00010011999
USI=mzspec:GNPS:GNPS-LIBRARY:accession:CCMSLIB00010011999
SCANS=1
49.009129	646.0
51.02504	1358.0
53.003601	742.0
53.040161	4726.0
55.01963	498.0
63.024189	3466.0
65.003471	32148.0
65.039864	2908.0
67.019073	770.0
69.034622	2002.0
79.019493	752.0
80.026756	4842.0
81.034378	16212.0
91.018799	47402.0
97.029671	512.0
107.9925	450.0
108.023689	495864.0
108.034988	3882.0
108.10202	500.0
108.148369	526.0
108.160294	436.0
108.17231	406.0
108.265381	390.0
108.274033	388.0
108.300423	574.0
108.331429	404.0
108.368599	442.0
108.413017	538.0
108.473663	392.0
108.544067	404.0
108.616898	468.0
108.628464	464.0
108.719109	384.0
108.741982	406.0
108.825813	434.0
108.958801	554.0
108.968239	396.0
109.042343	2872.0
109.094757	386.0
109.10611	484.0
109.157051	442.0
109.170319	434.0
109.204826	506.0
109.221489	410.0
109.243401	498.0
109.27388	388.0
109.319191	398.0
109.375267	406.0
109.38176	394.0
109.513222	426.0
109.551689	454.0
109.617081	396.0
109.667938	412.0
109.732147	450.0
END IONS

BEGIN IONS
PEPMASS=117.07
CHARGE=1
MSLEVEL=2
SOURCE_INSTRUMENT=LC-ESI-qTof
FILENAME=f.stephane/Standards/Cinnamic alcohol_104-54-1_POS_MS2_20-40eV.mgf;
SEQ=*..*
IONMODE=Positive
ORGANISM=GNPS-LIBRARY
NAME=Cinnamic alcohol M+H-H2O
PI=Stephane GREFF
DATACOLLECTOR=Stephane GREFF
SMILES=C1=CC=C(C=C1)/C=C/CO
INCHI=1S/C9H10O/c10-8-4-7-9-5-2-1-3-6-9/h1-7,10H,8H2/b7-4+
INCHIAUX=OOCCDEMITAIZTP-QPJJXVBHSA-N
PUBMED=5315892
SUBMITUSER=stephane
LIBRARYQUALITY=3
SPECTRUMID=CCMSLIB00010012154
USI=mzspec:GNPS:GNPS-LIBRARY:accession:CCMSLIB00010012154
SCANS=1
51.022861	544.0
53.038342	170.0
55.052929	100.0
58.065289	380.0
59.072639	536.0
60.04409	640.0
63.023129	208.0
65.038521	2294.0
72.079887	232.0
74.931259	216.0
76.928772	126.0
87.021049	158.0
87.092697	140.0
89.038612	1088.0
91.053917	13814.0
102.046333	196.0
105.045349	188.0
108.961723	104.0
115.054024	18508.0
117.069794	9760.0
118.085152	216.0
END IONS

BEGIN IONS
PEPMASS=217.05
CHARGE=1
MSLEVEL=2
SOURCE_INSTRUMENT=LC-ESI-qTof
FILENAME=f.stephane/Standards/Bergapten_484-20-8_POS_MS2_20-40eV.mgf;
SEQ=*..*
IONMODE=Positive
ORGANISM=GNPS-LIBRARY
NAME=Bergapten M+H
PI=Elnur GARAYEV
DATACOLLECTOR=Stephane GREFF
SMILES=COC1=C2C=CC(=O)OC2=CC3=C1C=CO3
INCHI=1S/C12H8O4/c1-14-12-7-2-3-11(13)16-10(7)6-9-8(12)4-5-15-9/h2-6H,1H3
INCHIAUX=BGEBZHIAGXMEMV-UHFFFAOYSA-N
PUBMED=2355
SUBMITUSER=stephane
LIBRARYQUALITY=3
SPECTRUMID=CCMSLIB00010012776
USI=mzspec:GNPS:GNPS-LIBRARY:accession:CCMSLIB00010012776
SCANS=1
53.038849	2188.0
55.018002	3138.0
65.039032	2474.0
66.046692	10534.0
68.025681	2108.0
68.997002	1152.0
74.015266	1418.0
76.030998	2166.0
77.038559	4304.0
78.04644	1438.0
79.05423	3934.0
81.03373	1098.0
82.005188	2806.0
89.041603	205954.0
90.046562	133396.0
92.025597	8168.0
93.033043	1104.0
94.041344	4850.0
95.048981	2256.0
100.0308	9596.0
102.047951	24774.0
105.033508	3658.0
105.070358	7404.0
108.020088	1382.0
115.054443	44666.0
117.033791	5546.0
117.070068	7996.0
118.041473	232880.0
118.053612	1444.0
119.012802	2430.0
120.020828	2300.0
121.028427	2228.0
122.03598	2962.0
127.017693	1360.0
128.025391	2562.0
129.033325	5208.0
130.041031	2478.0
131.05011	34506.0
133.029465	1140.0
135.007645	1318.0
143.049576	2882.0
145.028473	25258.0
145.064941	3840.0
146.036163	80394.0
149.023712	1964.0
156.020615	20738.0
158.036087	5818.0
159.042526	1226.0
161.059692	11134.0
162.030838	1814.0
171.044449	1112.0
171.055374	1778.0
173.022964	8442.0
173.059814	25714.0
174.031219	272804.0
174.046799	4000.0
178.026337	23736.0
189.055435	3750.0
202.026077	642998.0
202.042847	16838.0
202.134476	1104.0
217.049484	634948.0
217.066757	27346.0
END IONS

BEGIN IONS
PEPMASS=152.143
CHARGE=1
MSLEVEL=2
SOURCE_INSTRUMENT=LC-ESI-qTof
FILENAME=f.fronkey/MJH/WUXI20230418/C/C_1.mzXML;
SEQ=*..*
IONMODE=Positive
ORGANISM=GNPS-LIBRARY
NAME=Amantadine M+H
PI=Xiang-Rong Cheng
DATACOLLECTOR=Xiang-Rong Cheng
SMILES=C1C2CC3CC1CC(C2)(C3)N
INCHI=1S/C10H17N/c11-10-4-7-1-8(5-10)3-9(2-7)6-10/h7-9H,1-6,11H2
INCHIAUX= 
PUBMED=2130
SUBMITUSER=fronkey
LIBRARYQUALITY=3
SPECTRUMID=CCMSLIB00011427523
USI=mzspec:GNPS:GNPS-LIBRARY:accession:CCMSLIB00011427523
SCANS=534888
50.014198	608.531616
50.071045	23.208334
50.143612	31.889706
50.384571	27.625
50.96019	24.266304
51.02309	21751.871094
51.089615	340.623322
51.108055	115.806252
51.138031	65.777779
51.177464	46.532894
51.236187	30.560184
51.297638	35.035713
51.326042	72.409088
51.413574	28.03125
51.443951	46.16346
51.466164	34.920456
51.545708	22.041666
51.633354	38.041668
51.80764	31.408333
51.901257	42.852272
51.993328	24.005953
52.028244	1555.413086
52.092407	30.245689
52.13562	41.692307
52.741474	31.361111
53.038765	12580.994141
53.106163	208.467636
53.127872	84.958336
53.160839	34.375
53.199608	53.391129
53.237999	39.075001
53.255314	38.013889
53.377678	41.049999
53.474545	31.204546
53.79409	36.57143
53.851826	23.875
53.939213	31.4
53.976963	28.035715
54.041985	822.109436
54.107967	25.007353
54.192253	28.35
54.338535	27.5625
54.367882	102.061272
54.437481	32.6875
54.455925	25.048914
54.668488	28.245001
54.958389	39.048912
55.054665	38966.78125
55.12344	608.576599
55.208187	61.683483
55.227058	46.646152
55.259289	23.119898
55.285557	49.673264
55.304214	51.516483
55.340717	55.375
55.408115	33.349205
55.431828	132.580353
55.4865	54.969826
55.540718	48.575138
55.559879	26.902927
55.607628	27.277027
55.726788	59.049419
55.790619	26.007353
55.854828	34.004631
55.882534	26.148809
55.965668	24.78125
56.057598	2348.09082
56.107796	45.271317
56.278896	65.736115
56.310265	27.041666
56.541706	38.0
56.717052	57.625
56.965363	56.5
56.994652	34.920456
57.069496	703.363464
57.110355	24.025
57.377647	31.923077
57.454887	47.004631
57.491814	58.387821
58.072227	31.006578
58.816593	29.333334
59.992313	157.858521
60.462994	27.25
60.98867	69.333336
63.024418	209.35556
64.209206	29.066177
64.658173	39.0
65.038788	18060.541016
65.112961	272.147797
65.138313	85.306816
65.155609	59.450001
65.229927	115.881096
65.281326	46.032143
65.303673	32.005001
65.382607	46.055557
65.480339	29.03125
65.56427	44.273647
65.602638	34.25
65.645981	24.25
65.930176	57.728447
66.045784	1814.534058
66.093758	40.284092
66.11998	22.083334
66.166779	47.5625
66.26136	39.016666
66.493752	26.75
66.524292	26.005953
66.538666	23.444445
66.585312	30.020834
66.6856	30.9
66.768021	28.28125
66.985817	70.047623
67.054382	50151.792969
67.261131	29.636364
67.281601	62.863636
67.327431	69.594849
67.371353	36.982143
67.397049	21.613094
67.418549	53.116737
67.465363	67.714287
67.5056	65.136108
67.545753	44.231953
67.566933	52.914627
67.580833	35.455807
67.623901	44.005951
67.659355	66.01786
67.676888	42.135868
67.720146	67.51136
67.768105	34.39423
67.857536	28.556818
67.941101	29.008333
67.976639	26.140957
67.996399	26.361111
68.018707	34.222828
68.057884	3841.633789
68.134598	51.583588
68.15947	21.826748
68.198761	36.160713
68.268112	29.359423
68.292809	40.076923
68.37896	22.291666
68.577644	26.6
68.696457	37.961956
68.85421	39.0
69.069611	6450.821289
69.123184	165.986938
69.147133	98.681
69.196129	24.28125
69.246193	36.125
69.374458	29.125
69.496544	27.78125
70.072014	351.640106
70.315399	46.041668
70.403893	29.266666
70.457741	70.165543
70.631119	24.053572
70.863388	22.568182
71.073814	118.777779
71.098679	28.480263
71.133408	35.53125
71.169449	27.446428
72.939301	27.035715
74.012436	33.91848
74.711288	23.035715
75.070023	40.5625
75.128433	48.923077
75.143082	29.166666
76.519196	66.3125
76.589844	22.360294
76.717285	22.444445
76.740906	29.28409
76.946358	33.375
76.982208	113.165817
77.038849	215550.125
77.468719	111.247658
77.537506	129.315887
77.58432	72.591927
77.620735	83.501701
77.65332	70.71981
77.702255	126.263824
77.778458	84.140198
77.816574	109.59436
77.85009	77.139709
77.889717	52.792015
77.93795	97.338028
78.00444	27.136948
78.043015	21473.710938
78.146263	245.219742
78.179657	101.623207
78.208237	77.410408
78.249512	83.79409
78.27977	88.779427
78.312813	77.058884
78.354256	90.552444
78.392853	57.407181
78.448067	84.062073
78.495438	70.407669
78.509857	46.163864
78.546341	68.334427
78.579697	44.662498
78.599846	58.25
78.649696	47.107143
78.679008	58.542213
78.732948	44.283112
78.765343	31.380596
78.839859	31.553024
78.858444	31.25491
78.910286	30.159826
78.964134	28.304255
79.054359	153769.703125
79.522491	162.572098
79.565155	115.782944
79.599091	59.313953
79.638901	78.461113
79.676926	71.703094
79.700447	89.236961
79.746819	61.464233
79.803658	49.417774
79.832756	55.259968
79.875847	102.986435
79.9104	104.909447
79.961952	68.125
79.987251	47.004166
80.057648	12789.0625
80.135338	216.175522
80.162743	173.307129
80.211937	150.518631
80.283676	61.449581
80.308517	63.016743
80.350639	51.600536
80.383049	88.191963
80.416313	65.363098
80.43782	98.619644
80.472031	33.873627
80.529663	48.919006
80.563774	40.038712
80.615234	41.733131
80.652298	67.964035
80.726936	38.826157
80.767319	47.722118
80.85215	51.091442
80.896774	43.238304
80.916962	52.29327
80.961647	48.864849
81.003723	46.325611
81.020729	31.850962
81.070053	48598.96875
81.313141	51.559898
81.352188	84.267944
81.384644	54.786095
81.459007	88.122894
81.500809	30.440615
81.525101	57.953487
81.556725	60.31358
81.614792	91.571426
81.663757	79.560188
81.704338	63.647915
81.768707	78.896027
81.804588	78.276787
81.900597	85.919205
81.933136	34.527725
81.980576	115.130318
82.006805	25.785715
82.073631	4077.342529
82.158112	41.341213
82.180115	70.79464
82.302811	66.709236
82.3377	29.868303
82.412971	36.283123
82.434715	27.389568
82.461792	44.650059
82.477699	27.699863
82.503731	23.875
82.540581	66.453629
82.577873	22.292093
82.639587	32.727886
82.703712	50.883915
82.743988	82.038795
82.775314	30.273535
82.822487	30.896612
82.856216	52.655674
82.878052	22.8281
82.949295	32.183823
82.969688	24.471079
83.077682	131.53334
83.161308	47.04631
83.194908	30.605877
83.313995	33.57143
83.338844	36.953087
83.362297	29.263405
83.421234	33.044998
83.47924	29.0
83.496506	24.78125
83.696938	32.570652
83.772491	28.450001
84.006889	23.142857
84.044296	24.166666
84.198082	33.785713
84.287193	33.307693
84.75808	28.405001
84.921143	27.240385
85.296074	33.0
86.069229	93.083336
86.327576	23.6
86.598488	33.232143
87.669434	29.326923
90.041557	71.32415
90.180252	23.680555
90.35704	33.148811
90.381264	27.111841
90.721275	46.778225
90.814735	28.163462
90.925858	57.016666
91.054245	92989.609375
91.514969	85.128929
91.584641	80.469246
91.655327	66.848213
91.693207	48.857143
91.735298	39.695953
91.761337	76.065002
91.79438	39.540401
91.829796	72.184502
91.856117	25.564682
91.894936	90.244667
91.991478	45.097778
92.057831	10360.350586
92.143875	234.496307
92.172997	81.124855
92.195274	49.89064
92.234879	69.17762
92.278229	53.578808
92.300209	42.801666
92.329803	89.615059
92.354645	30.463333
92.391693	44.985554
92.423447	34.880001
92.451714	63.918037
92.563286	52.222828
92.598251	39.321888
92.62278	62.346153
92.674309	44.454544
92.7089	44.44643
92.755569	35.950397
92.786385	42.064682
92.81485	37.896542
92.841835	31.431973
92.909187	59.266304
92.928665	36.333332
93.069702	71946.007812
93.443893	55.93092
93.525085	134.377945
93.560822	96.02282
93.58651	84.576355
93.61657	56.420788
93.636612	66.990387
93.66935	71.77858
93.708366	67.627342
93.74575	62.9011
93.807755	25.680632
93.847832	40.563763
93.866966	50.219078
93.898842	45.78434
93.958839	59.019634
93.988022	32.3046
94.022621	29.651205
94.074234	7656.831543
94.139297	158.146179
94.186859	78.897209
94.208054	44.375
94.245682	41.579342
94.324936	25.261976
94.360039	48.662792
94.402298	45.311554
94.446144	56.564785
94.51178	28.353682
94.585464	46.1875
94.634766	68.094231
94.671066	64.215729
94.755829	44.847309
94.8041	40.596474
94.842651	46.408783
94.900772	71.926285
94.933289	22.034861
94.968391	64.603569
94.993423	34.06015
95.083603	1034.105347
95.142815	42.565437
95.290939	24.440218
95.370102	27.115633
95.43428	59.400002
95.537369	30.333334
95.780594	44.107758
95.886223	38.889706
95.927727	22.0
96.09333	152.441177
96.17749	44.520832
96.266548	27.038794
96.566315	36.004311
96.615746	33.222828
97.569206	26.347221
98.407539	33.900864
98.432022	24.0
99.044502	25.030405
100.415703	25.961956
102.044579	34.083332
103.053925	1156.262939
103.150894	26.390625
104.061272	370.333923
104.097305	36.111843
104.848778	27.173077
105.069328	12545.533203
105.164444	184.203125
105.20591	42.5
105.237206	64.816666
105.257095	37.142857
105.351044	60.017857
105.373787	34.066177
105.582962	31.408333
105.664268	23.0625
105.687843	35.367645
105.895279	25.245001
105.962341	86.257812
106.073952	1316.150879
106.150276	55.030407
106.191238	32.482143
107.085419	21897.855469
107.180794	319.716827
107.208549	153.032257
107.238647	71.321426
107.2761	43.889706
107.330902	58.722221
107.452339	50.025002
107.515602	44.455647
107.535065	28.75
107.598534	28.166666
107.636856	46.449074
107.656639	33.164474
107.699959	23.408333
107.729416	24.013889
107.786293	44.557693
107.846321	25.049999
107.887047	22.680555
107.93708	33.25
107.999435	26.892857
108.030106	24.049999
108.088181	3028.661133
108.167244	42.532894
108.23233	22.017857
108.679352	57.333332
108.818199	42.875
108.850555	35.204544
108.916229	24.007353
108.934158	36.0
109.09597	210.59314
109.143494	32.160713
109.298599	29.408333
109.742966	23.25
110.915245	24.245001
110.944145	33.240383
114.652969	31.004311
115.053078	60.416668
116.060783	121.637192
117.067505	164.313721
117.439362	25.025
117.839233	36.038792
118.073135	25.680555
119.084213	288.449829
119.748665	24.23077
120.090088	281.232147
123.105202	41.05357
131.085449	184.165695
132.087524	92.951271
133.102295	682.247192
135.047394	29.347221
135.116241	17505.716797
135.222549	226.041
135.255142	113.664154
135.364838	66.388161
135.495377	59.0
135.555664	41.125
135.582184	43.059212
135.656601	25.022728
135.703278	24.148809
135.75061	36.066666
135.81366	35.242645
135.889587	23.075001
136.119995	2750.296631
136.279526	25.25
136.321671	32.0
136.455246	34.520832
136.519226	24.892857
136.646698	41.23077
136.671127	31.1
137.121033	153.882812
137.145111	52.654411
138.455582	30.307692
138.48175	22.208334
139.555618	22.005953
143.916855	28.48077
164.375534	25.020834
187.357956	34.222221
193.361053	29.6875
210.498566	26.674999
212.38916	25.125
225.566971	29.245001
283.255066	24.125
301.55484	38.025002
309.500061	28.008333
327.8479	23.0
346.798553	96.764832
347.085022	37.005951
348.490204	43.375
353.451385	48.272728
368.373413	25.657608
397.932373	28.160715
400.077667	32.520832
449.882202	32.265625
460.428833	23.009615
483.970642	39.349136
518.002502	25.049999
518.433289	41.845001
520.582703	26.285715
530.709595	23.5
549.81543	31.25
583.988159	41.041668
586.097412	60.512501
602.627319	46.722221
643.372375	91.025002
650.309265	36.004032
668.304504	28.84091
681.8172	113.25528
681.900391	29.0
688.397461	33.333332
712.838013	27.102272
816.061218	34.777779
852.894409	24.164474
898.353699	23.28125
905.682739	25.796053
920.184387	28.011364
960.562927	26.4
972.312073	33.048912
988.835876	22.027779
992.203918	33.91848
1001.586792	150.070404
1017.529297	47.23077
1021.4823	54.490383
1044.067749	34.961956
1056.319092	54.150002
1080.25	42.197582
1096.690918	33.089287
1142.795166	25.125
1307.362305	24.125
1331.684204	52.367645
1343.547852	24.013889
1371.447266	37.515625
1379.803833	23.654411
1518.477417	24.322369
1526.05127	126.15625
1579.151245	41.025002
1678.539551	48.142242
1691.536499	25.920454
END IONS

BEGIN IONS
PEPMASS=139.113
CHARGE=1
MSLEVEL=2
SOURCE_INSTRUMENT=LC-ESI-qTof
FILENAME=f.loi032/B.haynesii and S.marcescens/MS-DIAL/GnpsMgf_0_20239241853.mgf;
SEQ=*..*
IONMODE=Positive
ORGANISM=GNPS-LIBRARY
NAME=Isophorone M+H
PI=LL
DATACOLLECTOR= 
SMILES=CC1=CC(=O)CC(C1)(C)C
INCHI=InChI=1S/C9H14O/c1-7-4-8(10)6-9(2,3)5-7/h4H,5-6H2,1-3H3
INCHIAUX= 
PUBMED=-
SUBMITUSER=loi032
LIBRARYQUALITY=3
SPECTRUMID=CCMSLIB00012052585
USI=mzspec:GNPS:GNPS-LIBRARY:accession:CCMSLIB00012052585
SCANS=66
53.045712	7.0
55.017799	28.0
55.054428	641.0
56.44352	8.0
56.964512	79.0
57.032909	403.0
57.06995	1890.0
58.073471	79.0
60.04409	450.0
60.051151	451.0
62.03191	1.0
63.03289	322.0
67.05452	344.0
69.032593	12.0
69.070198	890.0
69.9925	222.0
71.049637	1113.0
71.085167	1486.0
72.081383	157.0
72.090378	160.0
72.93779	44.0
73.029747	1.0
73.065048	915.0
75.044662	1.0
77.038467	69.0
78.022171	25.0
79.054909	178.0
81.069603	1390.0
82.014999	24.0
82.074829	93.0
83.049797	314.0
83.08577	977.0
84.079536	83.0
84.995621	30.0
85.027496	268.0
85.065338	983.0
85.101387	762.0
86.068619	43.0
86.102959	43.0
86.365227	14.0
87.028069	451.0
87.044731	428.0
87.080681	384.0
87.759712	14.0
88.083252	9.0
89.043869	1.0
89.060143	1.0
89.236519	167.0
89.255577	184.0
89.287193	173.0
89.30838	50.0
89.362671	56.0
90.06385	1.0
91.038887	175.0
91.06414	389.0
92.040657	26.0
93.070084	634.0
94.065773	1.0
95.049179	1185.0
95.059334	1185.0
95.085899	4651.0
96.089363	246.0
97.064857	3013.0
97.101807	2041.0
98.065773	118.0
98.104477	72.0
99.044533	1667.0
99.0811	7279.0
99.146072	20.0
99.169312	16.0
99.367767	21.0
100.046753	80.0
100.114792	8.0
100.515388	31.0
101.060333	2352.0
102.03595	279.0
102.055923	316.0
102.09182	1.0
102.127983	1079.0
102.970413	56.0
103.039391	263.0
103.061317	1366.0
103.075981	1249.0
103.133087	52.0
103.956902	233.0
103.972076	236.0
104.07547	243.0
105.070213	323.0
105.090446	281.0
105.53717	16.0
105.953903	133.0
106.90522	48.0
107.049828	2142.0
107.070534	3445.0
107.085587	1600.0
108.032089	632.0
108.052437	616.0
108.081642	754.0
109.064957	517.0
109.086212	3909.0
109.101593	3419.0
110.105637	352.0
111.080643	1963.0
111.116997	1516.0
111.561462	9.0
113.060173	2623.0
113.096901	2165.0
113.541542	27.0
113.963188	1.0
114.040817	325.0
114.053528	266.0
114.662407	8.0
115.039818	173.0
115.075546	1973.0
115.112053	2328.0
115.96492	182.0
116.111977	439.0
116.143532	30.0
117.038933	409.0
117.055153	575.0
117.092194	336.0
117.958687	72.0
118.089561	142.0
118.123901	76.0
119.086479	1217.0
119.106789	1255.0
119.231117	7.0
120.044533	35.0
120.068352	93.0
120.558128	20.0
121.050552	3050.0
121.065536	3000.0
121.100899	2141.0
121.965446	62.0
122.096611	3106.0
122.964272	86.0
122.984154	33.0
123.037613	195.0
123.056297	3366.0
123.081108	3084.0
123.117569	2363.0
124.086441	734.0
124.119537	396.0
124.896797	5.0
125.02597	45.0
125.060478	695.0
125.096764	1836.0
125.133797	591.0
126.099037	194.0
126.968224	147.0
127.016022	837.0
127.040321	815.0
127.112457	2520.0
127.458069	1.0
127.542976	85.0
128.02536	1.0
128.108429	332.0
128.143509	259.0
128.548004	563.0
128.564728	557.0
129.055939	165.0
129.069489	1293.0
129.091599	1124.0
129.127014	1589.0
130.046082	1353.0
130.065567	1379.0
130.095795	120.0
130.123611	448.0
130.260605	104.0
130.272842	105.0
130.299118	15.0
130.340729	113.0
130.391357	169.0
130.432846	51.0
130.446274	47.0
130.637466	7.0
130.650421	10.0
131.054977	1195.0
131.070724	1170.0
131.106613	42.0
132.074463	229.0
132.086136	110.0
132.1091	68.0
133.064697	519.0
133.085373	1691.0
133.100266	1641.0
134.061096	30.0
134.098557	116.0
135.117477	753.0
136.024307	213.0
136.077454	441.0
136.116318	474.0
137.055618	1216.0
137.096939	2214.0
137.132935	3577.0
137.554382	219.0
138.045685	312.0
138.092361	168.0
138.135803	395.0
139.052185	2525.0
139.075439	2573.0
139.112595	3341.0
139.149384	293.0
END IONS

BEGIN IONS
PEPMASS=223.096
CHARGE=1
MSLEVEL=2
SOURCE_INSTRUMENT=LC-ESI-qTof
FILENAME=t.2e9b0b1860924355ad6daf8a7f6087dc/spectra/specs_ms.mgf;
SEQ=*..*
IONMODE=Positive
ORGANISM=GNPS-LIBRARY
NAME=Diethyl Phthalate M+H
PI=Aldo Moreno-Ulloa
DATACOLLECTOR=Alan G. Hernandez-Melgar
SMILES=CCOC(=O)C1=CC=CC=C1C(=O)OCC
INCHI=1S/C12H14O4/c1-3-15-11(13)9-7-5-6-8-10(9)12(14)16-4-2/h5-8H,3-4H2,1-2H3
INCHIAUX= 
PUBMED=6781
SUBMITUSER=froz9
LIBRARYQUALITY=3
SPECTRUMID=CCMSLIB00012194725
USI=mzspec:GNPS:GNPS-LIBRARY:accession:CCMSLIB00012194725
SCANS=139
51.846699	17.0
53.579201	14.0
54.986599	38.0
55.290298	12.0
55.592999	27.0
55.935501	27.0
57.3615	16.0
62.231098	66.0
62.473598	46.0
65.0411	460.0
66.025299	14.0
67.049896	83.0
67.0924	13.0
68.045799	16.0
69.725197	17.0
70.366997	14.0
72.385902	15.0
77.040802	230.0
77.143097	10.0
77.228699	11.0
78.0457	36.0
79.051697	32.0
81.640198	11.0
84.970802	26.0
85.229797	20.0
87.172401	17.0
87.606499	27.0
88.401604	25.0
89.8927	16.0
91.039497	74.0
91.067497	17.0
93.033096	270.0
93.1614	53.0
93.734497	24.0
94.393204	21.0
95.076599	120.0
96.8563	24.0
99.865501	40.0
99.9869	20.0
102.131302	10.0
104.985199	210.0
105.068703	25.0
105.093697	10.0
105.570396	16.0
106.039001	140.0
107.083199	22.0
108.123703	33.0
109.008598	73.0
109.099602	14.0
113.047501	29.0
116.442596	15.0
117.933197	110.0
120.147102	18.0
121.028702	71.0
121.036697	1200.0
121.183403	65.0
121.460403	30.0
121.577599	29.0
121.8619	34.0
125.492699	13.0
130.537201	14.0
132.264893	18.0
133.025696	130.0
133.119904	18.0
135.1082	260.0
135.197403	13.0
139.218307	34.0
140.945496	17.0
144.095596	73.0
144.133896	11.0
146.084702	17.0
146.952805	22.0
147.775803	22.0
148.175293	12.0
148.605301	66.0
148.794006	11.0
149.021698	10000.0
149.137405	260.0
149.292892	200.0
149.387299	130.0
149.498199	280.0
149.610504	28.0
149.705505	19.0
149.726593	17.0
149.854202	60.0
149.961105	24.0
150.076294	27.0
150.249405	98.0
150.471298	12.0
150.673401	28.0
151.239197	15.0
151.399902	18.0
156.309799	10.0
159.115601	460.0
159.742401	29.0
159.763	13.0
162.022705	38.0
163.6819	17.0
168.620407	27.0
172.416397	32.0
173.604706	19.0
176.253098	13.0
176.640396	62.0
177.061005	150.0
177.120605	19.0
177.824493	53.0
179.285599	58.0
191.600098	31.0
197.366302	11.0
202.427902	12.0
205.381195	37.0
206.210205	41.0
210.558594	25.0
212.710602	17.0
212.903793	26.0
213.995605	17.0
215.979095	13.0
224.776505	11.0
228.280396	30.0
230.537994	10.0
234.182404	20.0
240.133698	22.0
241.005798	30.0
256.311615	12.0
256.419006	13.0
260.374207	20.0
261.890106	18.0
286.492096	10.0
287.696106	16.0
302.472198	28.0
311.588593	12.0
313.822998	33.0
320.354004	12.0
332.548004	41.0
335.378998	19.0
340.322998	10.0
345.7547	13.0
345.872711	11.0
373.257996	10.0
374.646088	21.0
410.673615	32.0
420.741913	16.0
426.568787	29.0
437.255005	27.0
468.129913	16.0
470.521912	14.0
472.977997	26.0
478.161804	19.0
478.515106	28.0
491.772797	19.0
494.291687	39.0
506.045288	14.0
516.231873	10.0
521.060791	34.0
528.849915	17.0
530.586426	13.0
532.131226	20.0
538.645081	35.0
555.18689	33.0
561.055481	27.0
563.444885	49.0
563.505127	13.0
601.462524	10.0
603.172729	13.0
607.861023	30.0
620.287415	19.0
633.847778	15.0
641.692078	15.0
659.439026	23.0
666.488281	30.0
680.170593	40.0
680.230286	15.0
692.703491	14.0
719.609924	13.0
722.83313	11.0
723.928711	20.0
728.094177	14.0
754.141418	16.0
765.454224	23.0
766.535095	12.0
768.771301	26.0
774.55127	10.0
799.879883	32.0
827.210388	24.0
841.291199	34.0
851.234192	10.0
861.331177	19.0
867.77478	20.0
870.801086	24.0
878.835083	39.0
879.493225	14.0
884.997925	21.0
907.430786	29.0
908.092896	26.0
924.691406	16.0
936.7901	12.0
960.749817	22.0
970.045715	16.0
976.479187	18.0
986.588928	35.0
1001.747925	75.0
1017.973389	10.0
1029.107422	11.0
1029.770752	12.0
1037.964233	45.0
1038.387939	17.0
1083.404663	15.0
1089.828369	30.0
1105.382935	14.0
1130.871582	15.0
1134.148193	15.0
1144.256104	14.0
1156.749146	14.0
1165.699463	18.0
1170.629883	15.0
1172.889282	12.0
1178.834351	32.0
1188.693481	44.0
1199.63623	10.0
1214.101196	22.0
1229.561646	16.0
1254.824341	11.0
1259.498657	13.0
1269.19165	11.0
1276.60791	31.0
1282.404175	14.0
1294.213379	29.0
1298.239502	43.0
1304.977173	55.0
1305.100464	13.0
1382.172119	10.0
1395.341187	10.0
1396.851807	10.0
1400.615601	14.0
1415.035156	25.0
1417.311035	16.0
1419.872437	13.0
1451.733643	34.0
1451.834839	11.0
1453.351685	11.0
1473.583984	10.0
1493.970337	71.0
1505.980835	12.0
1509.707764	20.0
1521.027344	16.0
1536.095093	49.0
1570.423828	31.0
1578.088257	30.0
1586.755493	48.0
1588.38147	11.0
1604.787231	33.0
1608.470215	11.0
1619.885498	25.0
1626.807373	16.0
1629.708252	11.0
1648.512207	24.0
1650.802124	17.0
1651.477295	15.0
1666.911743	16.0
1685.057373	21.0
1690.385742	18.0
1691.533569	39.0
1698.687378	17.0
1719.171143	20.0
1750.054077	11.0
1752.762329	29.0
1773.331421	37.0
1808.79895	27.0
1817.605225	15.0
1836.203491	33.0
1839.214844	30.0
1884.275757	14.0
1920.570923	13.0
1920.778687	19.0
1923.046021	42.0
1971.531128	15.0
1973.749146	20.0
1983.169312	14.0
1995.652588	33.0
END IONS

BEGIN IONS
PEPMASS=106.086
CHARGE=1
MSLEVEL=2
SOURCE_INSTRUMENT=ESI-Orbitrap
FILENAME=SP1_E_1_3.mzML
SEQ=*..*
IONMODE=Positive
ORGANISM=GNPS-LIBRARY
NAME=DIETHANOLAMINE M+H
PI=Aron
DATACOLLECTOR=David Hattan
SMILES=OCCNCCO
INCHI=InChI=1S/C4H11NO2/c6-3-1-5-2-4-7/h5-7H,1-4H2
INCHIAUX=N/A
PUBMED=N/A
SUBMITUSER=jzemlin
LIBRARYQUALITY=1
SPECTRUMID=CCMSLIB00013583122
USI=mzspec:GNPS:GNPS-LIBRARY:accession:CCMSLIB00013583122
SCANS=468
53.461159	7719.203613
55.750019	7918.22998
60.912453	7804.430664
62.061123	12469.027344
64.927948	10289.290039
68.050308	18806.251953
70.065842	780741.1875
77.326012	8708.591797
88.076233	511742.125
100.139328	9639.019531
106.086624	219759.609375
106.808647	8819.709961
112.020386	12465.213867
122.545235	8440.641602
END IONS

BEGIN IONS
PEPMASS=121.065
CHARGE=1
MSLEVEL=2
SOURCE_INSTRUMENT=ESI-Orbitrap
FILENAME=SP6_B_1_3.mzML
SEQ=*..*
IONMODE=Positive
ORGANISM=GNPS-LIBRARY
NAME=PHENYLACETALDEHYDE M+H
PI=Aron
DATACOLLECTOR=David Hattan
SMILES=O=CCC1=CC=CC=C1
INCHI=InChI=1S/C8H8O/c9-7-6-8-4-2-1-3-5-8/h1-5,7H,6H2
INCHIAUX=N/A
PUBMED=N/A
SUBMITUSER=jzemlin
LIBRARYQUALITY=1
SPECTRUMID=CCMSLIB00013583437
USI=mzspec:GNPS:GNPS-LIBRARY:accession:CCMSLIB00013583437
SCANS=335
52.439404	707.542725
52.792118	718.698975
53.039375	3916.164062
56.239517	637.285645
61.358212	814.724609
64.930725	835.8526
65.039253	1716.746216
77.039299	867.980225
78.046921	5322.924316
91.054703	9063.885742
92.280502	675.308533
93.045189	1244.178223
93.070435	864.647095
95.049583	1436.033203
103.054527	1396.030029
105.07029	1569.333618
106.04158	1204.862305
121.029457	936.628906
121.039757	1520.398315
121.064972	20402.609375
122.951195	684.67627
139.907578	706.999146
END IONS

BEGIN IONS
PEPMASS=516.133
CHARGE=1
MSLEVEL=2
SOURCE_INSTRUMENT=LC-ESI-Orbitrap
FILENAME=all_ms2.mgf
SEQ=*..*
IONMODE=Positive
ORGANISM=GNPS-LIBRARY
NAME=Glyburide [M+Na]+
PI=Pieter Dorrestein
DATACOLLECTOR=Minions
SMILES=COc1ccc(Cl)cc1C(=O)NCCc1ccc(S(=O)(=O)NC(=O)NC2CCCCC2)cc1
INCHI="InChI=1S/C23H28ClN3O5S/c1-32-21-12-9-17(24)15-20(21)22(28)25-14-13-16-7-10-19(11-8-16)33(30,31)27-23(29)26-18-5-3-2-4-6-18/h7-12,15,18H,2-6,13-14H2,1H3,(H,25,28)(H2,26,27,29)"
INCHIAUX=
PUBMED=drug_mix_all_combined.mzML:scan:3122
SUBMITUSER=jzemlin
LIBRARYQUALITY=1
SPECTRUMID=CCMSLIB00015625744
USI=mzspec:GNPS:GNPS-LIBRARY:accession:CCMSLIB00015625744
SCANS=173
52.476669	2699.780273
57.347721	4729.110352
60.621929	3093.188477
80.132683	3352.966064
81.142326	3518.67627
92.54731	12342.239258
92.553864	17856.556641
101.462097	3342.674561
106.497627	3637.486328
130.963181	3965.836426
141.246964	3577.528809
147.083801	3747.432129
171.001801	40657.359375
172.005188	29791.773438
173.007874	5652.499512
176.106964	48851.914062
213.424545	4621.916992
261.707153	4166.475098
276.136169	7245.060547
277.138306	6294.327148
306.068298	3870.529785
373.063782	8531.337891
374.064056	22550.044922
376.113708	22621.820312
377.114807	48262.253906
385.446655	4211.47998
391.048706	639924.6875
402.092285	8309.324219
403.09256	12539.179688
417.02832	253351.625
464.994354	3831.781494
498.236176	14336.241211
516.134277	111580.242188
516.240723	18054.775391
END IONS

BEGIN IONS
PEPMASS=309.112
CHARGE=1
MSLEVEL=2
SOURCE_INSTRUMENT=LC-ESI-Orbitrap
FILENAME=all_ms2.mgf
SEQ=*..*
IONMODE=Positive
ORGANISM=GNPS-LIBRARY
NAME=Warfarin [M+H]+
PI=Pieter Dorrestein
DATACOLLECTOR=Minions
SMILES=CC(=O)CC(c1ccccc1)c1c(O)c2ccccc2oc1=O
INCHI="InChI=1S/C19H16O4/c1-12(20)11-15(13-7-3-2-4-8-13)17-18(21)14-9-5-6-10-16(14)23-19(17)22/h2-10,15,21H,11H2,1H3"
INCHIAUX=
PUBMED=drug_mix_all_combined.mzML:scan:3046
SUBMITUSER=jzemlin
LIBRARYQUALITY=1
SPECTRUMID=CCMSLIB00015625754
USI=mzspec:GNPS:GNPS-LIBRARY:accession:CCMSLIB00015625754
SCANS=60
55.091572	205172.28125
59.272221	206064.375
62.766499	380884.90625
68.997833	399557.8125
77.039558	392497.8125
82.072121	219328.84375
91.054817	1137859.25
92.552643	1136084.875
95.049767	1719606.0
103.054733	777891.75
105.045036	361029.34375
105.070099	325070.28125
121.028641	11488084.0
121.037308	509258.71875
128.061981	411898.21875
129.033646	323240.125
129.069916	4201317.0
131.049301	4043058.5
141.069077	238605.890625
147.080475	29463038.0
153.070358	304201.75
155.085571	8675399.0
157.028137	842607.0
163.010971	995549.9375
163.038956	167019264.0
163.060745	814134.0625
163.067459	1252072.25
165.07016	1006093.5
167.085526	2060252.625
171.079575	1572597.125
173.023514	1226728.5
175.038742	981638.75
177.069962	281118.21875
178.07814	1448028.125
179.08522	752570.0
181.064178	371715.90625
183.080368	12333812.0
189.054962	1882025.125
191.016068	631986.25
191.033875	23521344.0
195.080536	1238941.625
205.065338	1656056.5
207.080002	595785.5625
223.075287	6108886.5
233.060059	2462307.25
243.197968	309707.71875
249.054611	590798.625
251.070145	136731264.0
251.123505	865026.0625
291.101044	3288839.5
309.076538	525267.0625
309.111938	8442696.0
END IONS

BEGIN IONS
PEPMASS=455.291
CHARGE=1
MSLEVEL=2
SOURCE_INSTRUMENT=LC-ESI-Orbitrap
FILENAME=all_ms2.mgf
SEQ=*..*
IONMODE=Positive
ORGANISM=GNPS-LIBRARY
NAME=Verapamil [M+H]+
PI=Pieter Dorrestein
DATACOLLECTOR=Minions
SMILES=COc1ccc(CCN(C)CCCC(C#N)(c2ccc(OC)c(OC)c2)C(C)C)cc1OC
INCHI="InChI=1S/C27H38N2O4/c1-20(2)27(19-28,22-10-12-24(31-5)26(18-22)33-7)14-8-15-29(3)16-13-21-9-11-23(30-4)25(17-21)32-6/h9-12,17-18,20H,8,13-16H2,1-7H3"
INCHIAUX=
PUBMED=drug_mix_all_combined.mzML:scan:2600
SUBMITUSER=jzemlin
LIBRARYQUALITY=1
SPECTRUMID=CCMSLIB00015625781
USI=mzspec:GNPS:GNPS-LIBRARY:accession:CCMSLIB00015625781
SCANS=148
50.319221	16092.602539
50.807911	54636.128906
50.810589	448029.3125
51.482559	17087.166016
51.71891	17839.511719
58.066109	182998.140625
59.069481	30712.357422
64.436783	21710.246094
77.039513	21419.4375
79.05497	133697.046875
80.058128	79314.648438
84.081192	38951.191406
86.096779	28452.972656
91.054657	55490.003906
92.549263	252803.546875
92.555428	44888.8125
96.080994	51768.40625
97.084328	38182.636719
99.589653	22416.720703
103.054703	207295.203125
104.057732	81179.421875
104.063591	34305.949219
105.063423	32754.101562
105.07045	563492.5
106.067192	30403.490234
106.073677	339361.5625
107.049278	88598.507812
107.077133	58467.601562
108.052834	62041.125
115.054817	24818.789062
118.041069	110002.898438
119.049843	38841.332031
120.058006	39639.71875
121.064552	139568.0625
122.068169	71640.0
122.096733	97861.34375
123.099777	31447.080078
131.049255	62773.558594
132.055588	24149.972656
133.065033	408034.90625
134.071976	358278.625
135.044403	245136.828125
135.076782	174716.5
136.047119	182821.328125
136.076492	20603.685547
136.083557	87147.953125
137.048264	53380.945312
137.059189	40607.800781
137.086288	47770.972656
137.095734	31403.369141
138.065735	33781.207031
139.074982	48719.8125
140.078903	34346.59375
143.710526	20382.054688
144.314804	26810.423828
146.072342	25982.482422
149.059753	84889.8125
150.067642	2205626.0
150.076706	38830.019531
150.080124	41671.820312
151.070847	1817097.125
152.053482	24416.957031
152.072189	656481.75
153.080399	64069.65625
164.081955	28013.472656
165.091095	7319639.0
165.119736	34759.199219
166.094482	7154646.5
167.096771	3059884.5
168.116257	21093.748047
177.090622	193792.828125
178.094513	156564.859375
179.096756	68150.335938
187.097305	25284.585938
188.101471	26754.263672
191.107101	35723.679688
192.110321	28278.896484
202.08812	23893.087891
218.116013	47685.015625
219.119675	93855.75
220.123642	34743.652344
231.642136	22684.476562
234.155197	28209.763672
244.141724	39272.371094
245.143005	43634.429688
246.141876	24070.876953
260.164825	223052.390625
261.16745	509173.03125
262.170227	418918.71875
263.166138	119368.640625
303.206543	574618.125
303.24115	29854.509766
304.1745	35906.160156
304.209808	1258681.75
304.245209	31903.712891
305.21286	1494482.875
442.276428	26919.640625
457.163513	61425.996094
457.2966	8606871.0
END IONS

BEGIN IONS
PEPMASS=531.156
CHARGE=1
MSLEVEL=2
SOURCE_INSTRUMENT=LC-ESI-Orbitrap
FILENAME=all_ms2.mgf
SEQ=*..*
IONMODE=Positive
ORGANISM=GNPS-LIBRARY
NAME=Ketoconazole [M+H]+
PI=Pieter Dorrestein
DATACOLLECTOR=Minions
SMILES=CC(=O)N1CCN(c2ccc(OC[C@H]3CO[C@](Cn4ccnc4)(c4ccc(Cl)cc4Cl)O3)cc2)CC1
INCHI="InChI=1S/C26H28Cl2N4O4/c1-19(33)31-10-12-32(13-11-31)21-3-5-22(6-4-21)34-15-23-16-35-26(36-23,17-30-9-8-29-18-30)24-7-2-20(27)14-25(24)28/h2-9,14,18,23H,10-13,15-17H2,1H3/t23-,26-/m0/s1"
INCHIAUX=
PUBMED=drug_mix_all_combined.mzML:scan:2504
SUBMITUSER=jzemlin
LIBRARYQUALITY=1
SPECTRUMID=CCMSLIB00015625787
USI=mzspec:GNPS:GNPS-LIBRARY:accession:CCMSLIB00015625787
SCANS=133
51.95797	155803.171875
54.34679	165523.65625
54.349232	391133.5625
54.355228	129576.75
56.0504	325598.15625
58.065708	145118.328125
59.014	489006.375
59.017239	4356495.0
62.553669	150035.171875
66.533302	151618.859375
68.037727	265231.375
69.045547	872589.625
70.06601	832572.0625
71.061172	973921.9375
81.045441	4125588.5
82.053261	16255309.0
82.057419	183164.78125
82.058487	214802.0625
83.060806	292001.46875
86.060791	749330.875
92.547867	172425.703125
92.552841	416062.15625
101.123947	159605.015625
106.065742	200685.890625
107.049477	346681.0
107.060432	176064.28125
112.076027	6777929.0
113.071228	174131.703125
117.069817	254458.9375
118.065353	346001.4375
119.073723	167811.53125
120.044693	1754281.375
120.081047	649658.5
122.060242	1710820.0
122.458366	180492.140625
127.050293	742054.4375
129.070343	256156.546875
130.065109	383191.5625
131.048752	219684.59375
131.073242	360868.28125
132.080826	356390.875
132.786331	479063.28125
134.060196	1639491.625
135.067947	6404891.5
136.07576	2323307.25
139.03093	289146.0625
143.072403	190213.0625
144.080978	1477327.0
145.064667	180799.78125
145.088623	696921.9375
146.06015	953215.125
146.096497	2150451.25
147.068497	214861.3125
148.066757	135509.78125
148.075699	5722423.5
149.015594	339830.8125
150.023483	486034.03125
151.030975	189138.671875
156.080948	453176.3125
157.088516	195248.09375
157.968628	373118.8125
158.096573	743014.4375
158.976181	3407876.5
159.068512	201643.78125
160.075623	877952.5625
161.083786	281146.75
162.091629	687285.8125
163.030746	431085.75
163.123138	598527.5
167.026154	842129.0
167.067291	204209.90625
167.069534	107638.148438
167.081543	4392972.5
169.968491	2692662.75
170.97641	278466.8125
172.075516	1136126.125
172.955536	1986725.125
173.083862	225139.75
174.091385	5669813.0
176.093918	289325.0625
177.102234	6787074.0
178.085861	238235.140625
178.109818	1382069.125
179.026169	161522.90625
184.991638	2028359.75
185.963425	5631314.0
186.971771	542298.6875
188.107605	353377.1875
189.139206	467995.78125
190.086472	244008.484375
191.092621	162552.125
192.101822	1006450.875
200.107773	597821.8125
202.966934	397592.5625
203.036972	1307078.375
204.101868	319825.59375
205.029785	173259.0
205.097626	214028.65625
205.133835	653423.8125
209.036575	765599.6875
215.118851	363201.71875
216.102264	1684703.5
216.123398	369013.46875
217.133438	4538794.0
218.117142	447583.25
219.112808	6090198.0
220.120392	3027981.25
220.140762	212002.546875
224.996063	234217.09375
233.048447	212342.625
234.112488	659948.875
234.13591	324603.65625
235.144394	1757280.75
238.006104	1784455.0
239.0121	177186.90625
244.005356	7421508.5
247.06424	880976.375
247.145142	239590.578125
255.008591	7127573.5
255.035919	349030.875
259.144684	490766.0
266.561981	201234.609375
267.008606	3647432.5
268.016052	418918.84375
277.153198	202153.25
281.023865	751674.0
282.031982	600579.8125
295.039612	162690.484375
297.018433	190417.109375
311.035614	534297.25
378.066467	618523.25
420.07666	427058.40625
421.108978	663250.5625
446.102844	693482.3125
489.145599	8255893.0
530.94281	244918.15625
531.156128	81246608.0
531.285645	372788.75
531.323181	548252.5
531.371582	255221.125
END IONS

BEGIN IONS
PEPMASS=781.437
CHARGE=1
MSLEVEL=2
SOURCE_INSTRUMENT=LC-ESI-Orbitrap
FILENAME=all_ms2.mgf
SEQ=*..*
IONMODE=Positive
ORGANISM=GNPS-LIBRARY
NAME=Digoxin [M+H]+
PI=Pieter Dorrestein
DATACOLLECTOR=Minions
SMILES=C[C@H]1O[C@@H](O[C@H]2[C@@H](O)C[C@H](O[C@H]3[C@@H](O)C[C@H](O[C@H]4CC[C@@]5(C)[C@H](CC[C@@H]6[C@@H]5C[C@@H](O)[C@]5(C)[C@@H](C7=CC(=O)OC7)CC[C@]65O)C4)O[C@@H]3C)O[C@@H]2C)C[C@H](O)[C@@H]1O
INCHI="InChI=1S/C41H64O14/c1-19-36(47)28(42)15-34(50-19)54-38-21(3)52-35(17-30(38)44)55-37-20(2)51-33(16-29(37)43)53-24-8-10-39(4)23(13-24)6-7-26-27(39)14-31(45)40(5)25(9-11-41(26,40)48)22-12-32(46)49-18-22/h12,19-21,23-31,33-38,42-45,47-48H,6-11,13-18H2,1-5H3/t19-,20-,21-,23-,24+,25-,26-,27+,28+,29+,30+,31-,33+,34+,35+,36-,37-,38-,39+,40+,41+/m1/s1"
INCHIAUX=
PUBMED=drug_mix_all_combined.mzML:scan:2490
SUBMITUSER=jzemlin
LIBRARYQUALITY=1
SPECTRUMID=CCMSLIB00015625789
USI=mzspec:GNPS:GNPS-LIBRARY:accession:CCMSLIB00015625789
SCANS=169
55.0186	3360.974609
56.349171	2179.404053
57.034309	4129.320312
61.478168	2076.661621
64.914642	2165.298828
67.055168	27168.328125
67.335953	2625.717041
69.030724	5050.796387
69.03434	78862.25
69.070847	15396.262695
71.049896	8656.108398
73.029282	3191.833252
74.615623	2342.332031
79.055031	44371.949219
81.03418	2596.094238
81.070396	2602.350098
83.049797	7643.764648
85.065453	10582.827148
87.044662	4410.680664
91.054901	4220.02832
92.550346	38956.640625
93.07048	3475.937988
95.043633	5828.548828
95.049751	110422.96875
96.730667	2188.343018
97.065353	618380.875
97.078362	3668.875977
100.076233	5920.579102
100.922813	2887.762207
103.341133	2357.523438
105.070107	6622.3125
107.085861	3332.365234
111.044456	12733.230469
113.06012	181831.09375
115.075844	3000.834473
119.086258	3641.50293
122.771446	2627.951416
125.060211	8058.806152
128.854813	2589.011963
129.05513	5661.418457
131.070419	121803.234375
131.086227	6022.963379
133.102203	2788.731445
143.085846	3497.771729
145.101196	6407.879883
147.065277	25850.380859
147.117401	2765.636475
153.054825	7466.635742
155.070374	10207.108398
157.101257	2841.884277
159.117126	4095.410156
159.651611	2436.613037
161.132355	6703.969238
163.075378	5104.455566
166.07814	9296.844727
169.101685	3176.688232
189.090652	3273.238281
189.163635	2986.278809
194.096924	2845.773682
197.134476	2708.41333
199.148315	4586.025391
201.046555	34368.90625
201.164078	4126.436035
222.091064	3914.618408
224.129486	4028.393066
286.027924	3796.726074
291.212555	3558.90332
337.215912	30287.011719
355.227509	42277.496094
373.237976	26273.179688
375.18103	3172.963135
391.248474	9860.989258
407.195923	29862.248047
408.800781	3022.236816
467.277618	2862.978516
485.28772	3849.233887
720.744507	3596.005859
END IONS

BEGIN IONS
PEPMASS=285.142
CHARGE=1
MSLEVEL=2
SOURCE_INSTRUMENT=LC-ESI-Orbitrap
FILENAME=all_ms2.mgf
SEQ=*..*
IONMODE=Positive
ORGANISM=GNPS-LIBRARY
NAME=Promethazine [M+H]+
PI=Pieter Dorrestein
DATACOLLECTOR=Minions
SMILES=CC(CN1c2ccccc2Sc2ccccc21)N(C)C
INCHI="InChI=1S/C17H20N2S/c1-13(18(2)3)12-19-14-8-4-6-10-16(14)20-17-11-7-5-9-15(17)19/h4-11,13H,12H2,1-3H3"
INCHIAUX=
PUBMED=drug_mix_all_combined.mzML:scan:2332
SUBMITUSER=jzemlin
LIBRARYQUALITY=1
SPECTRUMID=CCMSLIB00015625804
USI=mzspec:GNPS:GNPS-LIBRARY:accession:CCMSLIB00015625804
SCANS=155
50.384289	317575.9375
56.05043	2639450.5
56.313461	314337.15625
58.066002	1283400.0
60.372581	345526.90625
62.433609	302363.6875
63.920551	438550.6875
69.217857	356700.78125
69.943619	326457.625
70.065826	1081531.5
71.073769	18495070.0
84.081413	3791751.0
86.083183	814812.75
86.086433	2345354.0
86.097122	333380064.0
86.108139	2362096.25
86.328979	349775.5625
92.548592	782535.8125
92.553879	564505.0625
105.070663	2433281.5
106.066162	447804.5625
109.011307	813024.5625
130.065353	432196.0625
136.021469	982018.6875
154.065765	1187927.625
162.037064	6555992.0
168.656601	379706.25
171.026794	482467.1875
197.028671	514456.96875
198.023315	3000196.0
198.037262	176109664.0
198.075424	1019838.8125
206.096588	1712776.25
207.103851	3650630.25
208.111267	713126.625
224.052521	1508656.625
225.060745	5580708.5
239.077225	672057.1875
240.084045	45471608.0
278.677673	376474.25
285.141998	30089992.0
END IONS

BEGIN IONS
PEPMASS=342.17
CHARGE=1
MSLEVEL=2
SOURCE_INSTRUMENT=LC-ESI-Orbitrap
FILENAME=all_ms2.mgf
SEQ=*..*
IONMODE=Positive
ORGANISM=GNPS-LIBRARY
NAME=Naltrexone [M+H]+
PI=Pieter Dorrestein
DATACOLLECTOR=Minions
SMILES=O=C1CC[C@@]2(O)[C@H]3Cc4ccc(O)c5c4[C@@]2(CCN3CC2CC2)[C@H]1O5
INCHI="InChI=1S/C20H23NO4/c22-13-4-3-12-9-15-20(24)6-5-14(23)18-19(20,16(12)17(13)25-18)7-8-21(15)10-11-1-2-11/h3-4,11,15,18,22,24H,1-2,5-10H2/t15-,18+,19+,20-/m1/s1"
INCHIAUX=
PUBMED=drug_mix_all_combined.mzML:scan:1088
SUBMITUSER=jzemlin
LIBRARYQUALITY=1
SPECTRUMID=CCMSLIB00015625859
USI=mzspec:GNPS:GNPS-LIBRARY:accession:CCMSLIB00015625859
SCANS=177
51.927898	5908.326172
53.039322	11886.912109
55.05526	260366.625
61.830231	6428.384277
70.065689	15083.782227
77.656151	7138.933105
81.038094	13302.580078
82.065422	11393.62207
85.54039	7483.778809
92.553513	21107.28125
94.065453	11575.49707
96.080856	7719.057129
98.096588	14353.161133
105.82103	7837.532227
110.096657	14651.380859
122.096809	7854.840332
134.09613	23903.648438
137.059372	17819.455078
141.070587	8195.032227
144.860916	7321.661133
145.064697	14315.213867
146.059814	34478.863281
147.044037	17847.626953
147.06781	53664.261719
147.643494	7812.14502
148.075455	39027.195312
153.06958	18316.796875
157.064438	31415.378906
159.080154	13245.236328
160.075378	23141.921875
161.047592	10583.417969
161.059738	123519.125
167.084991	11811.086914
169.065033	13634.448242
171.079987	9347.77832
172.111694	10759.693359
173.059769	128258.984375
174.05423	22307.041016
175.075638	12691.827148
179.085419	15610.388672
179.101028	7705.672363
181.06488	83040.742188
181.101013	14437.825195
182.097076	15078.732422
183.080261	19478.730469
184.075897	21510.128906
185.05954	54783.445312
187.075409	31306.724609
194.072876	9178.755859
195.0802	22553.636719
196.075027	19276.6875
197.059753	17334.056641
198.067902	12022.493164
198.092026	18252.275391
199.075348	109576.578125
200.106888	46035.542969
201.09198	14738.481445
201.114807	51179.402344
202.086823	10611.154297
202.122574	22851.228516
207.08139	14485.083008
209.058914	18962.367188
209.096375	24969.007812
210.091095	75770.234375
211.075806	100476.875
212.070206	237132.46875
212.104034	10602.547852
213.07785	45178.507812
213.09256	24508.162109
214.086273	18655.677734
215.069901	47629.316406
215.106705	11103.552734
222.091461	17266.347656
223.076553	9338.776367
224.107422	22405.210938
225.055878	9703.487305
225.092682	41798.371094
226.086304	93571.117188
227.070374	123167.039062
227.107254	53429.019531
228.080902	12470.488281
228.101685	363669.40625
234.091156	11023.487305
236.10704	18189.898438
237.092422	19516.224609
238.12352	22890.847656
239.070892	12906.064453
239.09314	12806.332031
239.130173	11669.390625
240.10199	62432.417969
241.085358	26723.476562
241.109192	19981.839844
242.11824	28382.197266
252.100906	77971.75
252.139999	12753.74707
253.085175	22193.105469
253.122101	25570.876953
254.08075	18952.044922
254.11673	58530.53125
264.101196	10951.623047
264.137756	15499.167969
266.117157	19375.587891
267.125275	932039.375
268.133026	17072.052734
269.106659	29657.605469
270.112366	1020636.6875
278.117279	20043.919922
278.151764	12435.614258
280.134521	16101.365234
282.082489	9153.260742
282.113037	163400.09375
282.148834	542379.375
296.129456	17693.082031
296.165161	37764.300781
306.149078	32652.787109
324.07901	36689.070312
324.159302	5803710.0
324.239563	35392.066406
342.083496	42157.125
342.169922	5848684.5
342.23642	23206.337891
342.256836	39324.394531
354.712036	9491.767578
END IONS

BEGIN IONS
PEPMASS=358.085
CHARGE=1
MSLEVEL=2
SOURCE_INSTRUMENT=LC-ESI-qTof
FILENAME=Indomethacin.mgf
SEQ=*..*
IONMODE=Positive
ORGANISM=GNPS-SELLECKCHEM-FDA-PART1
NAME=Indomethacin M+H
PI=Sirenas
DATACOLLECTOR=Ed Esquenazi 
SMILES=CC1=C(C2=C(N1C(=O)C3=CC=C(C=C3)Cl)C=CC(=C2)OC)CC(=O)O
INCHI=InChI=1S/C19H16ClNO4/c1-11-15(10-18(22)23)16-9-14(25-2)7-8-17(16)21(11)19(24)12-3-5-13(20)6-4-12/h3-9H,10H2,1-2H3,(H,22,23)
INCHIAUX=N/A
PUBMED=N/A
SUBMITUSER=mwang87
LIBRARYQUALITY=3
SPECTRUMID=CCMSLIB00000004233
USI=mzspec:GNPS:GNPS-SELLECKCHEM-FDA-PART1:accession:CCMSLIB00000004233
SCANS=1
110.998291	161.331604
129.010971	14.73157
138.279495	11.42102
138.328445	19.595039
138.360397	21.70916
138.43457	11.36193
138.801941	17.568821
138.878281	12.68091
138.972351	62.437649
138.994843	10913.179688
139.045288	50.878979
139.062317	34.907181
139.10495	50.703861
139.147369	17.10577
139.159027	16.34083
139.191559	49.648041
139.2258	23.478861
139.266663	45.473492
139.280441	31.411421
139.386154	29.501419
139.420517	56.778019
139.442749	37.35981
139.493011	18.688299
139.501801	11.66955
139.67363	23.50378
139.997437	114.714401
140.024307	15.71902
174.091599	1498.514038
174.151306	13.35232
174.240555	13.67493
175.096542	12.15504
202.084778	158.307907
279.865845	13.42253
312.0802	110.617699
313.191864	11.24747
317.042053	42.409241
355.834381	17.55201
356.009857	11.96314
356.112213	12.73518
356.134613	18.944309
358.084808	4801.604004
358.172028	56.155449
358.29715	23.666719
358.394104	21.52022
358.441895	20.16386
358.497467	35.600491
358.536987	33.604462
358.638519	51.013729
358.915833	25.07869
358.940399	53.315048
358.99057	27.70833
END IONS

BEGIN IONS
PEPMASS=281.071
CHARGE=1
MSLEVEL=2
SOURCE_INSTRUMENT=LC-ESI-qTof
FILENAME=Sulfameter.mgf
SEQ=*..*
IONMODE=Positive
ORGANISM=GNPS-SELLECKCHEM-FDA-PART1
NAME=Sulfameter M+H
PI=Sirenas
DATACOLLECTOR=Ed Esquenazi 
SMILES=COC1=CN=C(N=C1)NS(=O)(=O)C2=CC=C(C=C2)N
INCHI=InChI=1S/C11H12N4O3S/c1-18-9-6-13-11(14-7-9)15-19(16,17)10-4-2-8(12)3-5-10/h2-7H,12H2,1H3,(H,13,14,15)
INCHIAUX=N/A
PUBMED=N/A
SUBMITUSER=mwang87
LIBRARYQUALITY=3
SPECTRUMID=CCMSLIB00000004311
USI=mzspec:GNPS:GNPS-SELLECKCHEM-FDA-PART1:accession:CCMSLIB00000004311
SCANS=1
108.043983	2805.253906
111.043098	81.183861
124.0504	279.655914
125.057838	276.723785
126.066261	4185.421875
156.011337	14870.25
172.071869	84.403297
188.012375	5425.542969
190.095245	79.498962
215.092361	4441.321777
217.107651	588.679504
263.060516	310.812012
279.32486	82.689934
279.359619	70.675522
279.46106	108.648201
279.504578	95.254303
279.543671	78.757347
279.595032	110.703598
281.013092	120.614304
281.070557	70093.953125
281.704926	92.813141
281.730377	74.017387
281.775513	91.50415
281.900574	85.08876
END IONS

BEGIN IONS
PEPMASS=477.232
CHARGE=1
MSLEVEL=2
SOURCE_INSTRUMENT=LC-ESI-qTof
FILENAME=LoperamideHCl.mgf
SEQ=*..*
IONMODE=Positive
ORGANISM=GNPS-SELLECKCHEM-FDA-PART1
NAME=LoperamideHCl M+H
PI=Sirenas
DATACOLLECTOR=Ed Esquenazi 
SMILES=CN(C)C(=O)C(CCN1CCC(CC1)(C2=CC=C(C=C2)Cl)O)(C3=CC=CC=C3)C4=CC=CC=C4
INCHI=InChI=1S/C29H33ClN2O2/c1-31(2)27(33)29(24-9-5-3-6-10-24,25-11-7-4-8-12-25)19-22-32-20-17-28(34,18-21-32)23-13-15-26(30)16-14-23/h3-16,34H,17-22H2,1-2H3
INCHIAUX=N/A
PUBMED=N/A
SUBMITUSER=mwang87
LIBRARYQUALITY=3
SPECTRUMID=CCMSLIB00000004395
USI=mzspec:GNPS:GNPS-SELLECKCHEM-FDA-PART1:accession:CCMSLIB00000004395
SCANS=4
112.073875	38.429089
115.050652	14.88971
152.059174	11.09412
152.507034	5.815244
160.108566	8.883333
165.064789	9.271078
167.062592	22.62645
167.085342	25.55089
178.080444	17.027781
180.414139	8.341666
193.096344	21.407761
195.087997	21.09804
209.558563	10.2223
209.752533	9.95862
210.126617	651.993225
210.504013	12.45405
210.651428	17.74419
210.922195	7.834322
224.077194	28.329029
238.122162	174.487106
238.31955	23.71026
240.134033	14.77619
264.456146	16.09878
264.481934	6.98
264.515015	57.006611
264.540314	20.857889
264.56076	15.70658
264.587219	61.531349
264.613556	72.145721
264.647827	56.595379
264.690613	90.178383
264.715515	20.20645
264.735413	79.543022
264.77475	42.690731
264.818604	28.32806
264.853607	25.548691
264.903015	23.009859
264.929352	17.70471
264.958801	16.35
264.982941	23.161289
265.134766	5.833108
265.214111	16.61792
265.255341	23.807409
265.299957	11.14167
265.373016	11.35357
265.553314	22.032261
265.837952	54.327709
265.87149	13.40441
265.946136	13.24
266.099792	95.550957
266.154449	41270.660156
266.195099	1.608333
266.234833	1.0125
266.454346	37.262371
266.489716	21.7159
266.531891	24.147289
266.562531	42.65712
266.658508	36.695301
266.676086	24.57979
266.702698	103.542198
266.767548	32.265591
266.789032	12.37534
266.80481	19.85404
266.847107	7.32047
266.87146	22.911551
266.888184	51.778889
266.91922	32.536308
266.934357	20.588921
266.964935	25.753361
267.00415	80.587448
267.073395	17.938101
267.086761	29.932051
267.249756	20.957279
267.291626	12.20606
267.308136	24.161091
267.332306	30.362129
267.470581	47.757099
267.54126	17.321951
267.872559	11.23333
267.905823	16.63788
268.76767	12.50227
268.832672	8.279348
268.88974	13.96364
268.932251	5.45
269.440247	8.008333
269.648712	6.275
273.518372	15.19754
284.22229	6.656396
336.580475	25.44776
363.122101	3.05
382.901123	19.066669
397.985168	22.08762
432.169952	77.688858
436.854767	30.139099
437.532471	3.075
458.892914	16.10125
459.215515	19.1063
460.22699	22.92111
462.515167	5.625
471.37674	16.98333
471.990204	6.33913
473.487885	6.677564
473.745575	17.79855
473.967987	13.47217
474.01181	41.27393
474.048615	17.093491
474.106018	38.808331
474.136993	236.6129
474.180573	245.679703
474.239441	165.183594
474.29361	292.68399
474.321228	101.821198
474.372131	62.182758
474.407043	269.41629
474.471039	123.189499
474.52121	48.317791
474.558319	148.891098
474.600525	134.762405
474.710419	84.80864
474.735382	13.20833
474.763184	27.67108
474.853363	103.360703
474.934082	13.50833
475.068176	37.146599
475.451599	98.860168
475.503906	109.9002
475.617706	30.82353
475.659637	32.26075
475.762299	23.081079
475.7854	37.157108
475.830994	17.880671
475.933655	39.257721
475.968842	13.47348
476.086731	25.75872
476.15152	43.927261
476.345398	58.17181
476.384552	30.44907
476.536407	20.35062
476.91571	14.4828
476.961884	17.58045
476.990112	16.19516
477.113129	28.36845
477.173218	14.81552
477.23172	179321.5
477.309753	10.40833
477.504608	17.190149
477.58429	4.696154
477.633881	11.22893
477.706146	7.201786
477.739105	11.26944
477.792328	30.45038
477.906128	151.2621
477.946136	159.436707
478.027161	392.259399
478.074005	352.468811
478.130249	113.2798
478.177948	178.8022
478.346893	146.582993
478.478577	173.206604
478.611633	168.449005
478.715759	79.112183
478.735504	105.6632
478.829132	50.000511
478.873535	87.883057
478.974243	22.71137
479.265961	9.317846
479.319946	45.307949
479.404572	59.927502
479.435394	61.24894
479.63324	32.577831
479.800903	36.679081
479.949219	16.989059
480.070831	35.572128
480.123779	18.256069
480.167725	16.88965
480.230927	48.02562
480.279968	12.33889
480.383362	10.5225
480.61438	22.65744
480.929565	16.70104
481.038727	10.32803
481.153809	13.20488
481.383118	13.11889
481.535461	14.01731
481.943573	12.30085
481.982849	17.04615
482.064789	1.405
482.210541	8.362
482.33429	19.404779
484.156494	10.78351
484.643097	13.9486
485.286377	7.000609
489.148865	7.02402
489.852051	28.375
490.146149	25.08176
491.737366	11.01136
492.007721	9.45606
507.201111	7.128947
652.252502	12.40812
776.987854	21.709431
END IONS

BEGIN IONS
PEPMASS=666.313
CHARGE=1
MSLEVEL=2
SOURCE_INSTRUMENT=LC-ESI-qTof
FILENAME=Natamycin.mgf
SEQ=*..*
IONMODE=Positive
ORGANISM=GNPS-SELLECKCHEM-FDA-PART1
NAME=Natamycin M+H
PI=Sirenas
DATACOLLECTOR=Ed Esquenazi 
SMILES=C[C@@H]1C/C=C/C=C/C=C/C=C/[C@@H](C[C@H]2[C@@H]([C@H](C[C@](O2)(C[C@H](C[C@@H]3[C@H](O3)/C=C/C(=O)O1)O)O)O)C(=O)O)O[C@H]4[C@H]([C@H]([C@@H]([C@H](O4)C)O)N)O
INCHI=InChI=1S/C33H47NO13/c1-18-10-8-6-4-3-5-7-9-11-21(45-32-30(39)28(34)29(38)19(2)44-32)15-25-27(31(40)41)22(36)17-33(42,47-25)16-20(35)14-24-23(46-24)12-13-26(37)43-18/h3-9,11-13,18-25,27-30,32,35-36,38-39,42H,10,14-17,34H2,1-2H3,(H,40,41)/b4-3+,7-5+,8-6+,11-9+,13-12+/t18-,19-,20+,21+,22+,23-,24-,25+,27-,28+,29-,30+,32+,33-/m1/s1
INCHIAUX=N/A
PUBMED=N/A
SUBMITUSER=mwang87
LIBRARYQUALITY=3
SPECTRUMID=CCMSLIB00000004692
USI=mzspec:GNPS:GNPS-SELLECKCHEM-FDA-PART1:accession:CCMSLIB00000004692
SCANS=1
105.066742	26.504169
119.083008	46.955681
135.044434	3.007813
157.098907	20.981939
163.520325	4.004167
167.084457	36.481129
181.083389	25.01042
182.202362	8.822322
183.114853	15.48532
185.131271	10.16736
203.142685	109.573799
205.714294	3.264803
215.334854	1.836806
231.065933	22.698891
231.093384	25.452829
243.132584	10.61343
243.172379	14.12247
245.092087	6.28125
259.135803	14.36736
271.172028	8.264706
273.06604	6.025
277.063568	35.027889
323.822052	5.104167
329.916626	7.052802
339.157257	24.759701
343.164917	28.52857
345.175842	29.82008
355.113037	6.3375
367.113495	22.32143
386.48349	10.14349
392.146393	1.760417
401.174286	3.75
405.071075	2.25625
405.205322	14.53846
406.354218	4.322917
423.316284	8.05
423.574402	9.184028
423.616943	6.03125
431.198914	34.419079
441.226807	92.101707
443.565674	1.765625
449.190674	49.976662
449.208313	37.396969
449.79303	6.84375
450.000183	3.398897
465.330719	3.55625
467.204712	268.719086
467.291443	1.502841
468.006134	13.53204
468.533112	6.420139
468.630798	13.27889
468.962433	6.002976
482.201141	1.520833
482.384247	5.572321
483.210052	3.060096
484.817139	14.75231
484.947296	9.674569
485.21875	307.509308
485.573456	9.974457
485.646881	2.53125
485.744324	4.322917
485.862152	9.541881
485.97467	6.793478
486.182007	12.66716
486.965363	6.389009
487.335022	4.620066
488.039764	5.195602
500.094696	4.27694
500.872986	3.005682
503.22702	390.672211
503.492432	4.755208
503.556122	23.12326
503.913727	5.65125
504.344086	12.53561
546.901672	29.32654
567.000244	26.972321
604.530029	5.3125
604.863647	7.253472
605.248779	8.521739
630.277832	54.779499
639.252747	5.05
647.9422	17.29495
648.30304	250.741501
648.632019	8.250947
648.887024	5.266667
649.32135	10.29002
649.68927	1.375
664.066467	4.620066
666.311584	85.594437
666.372437	3.291118
666.651917	14.1509
667.064087	9.863426
668.034851	3.25
668.510864	3.560096
670.121948	11.9712
847.304077	3.142857
1462.457397	1.265625
END IONS

BEGIN IONS
PEPMASS=366.068
CHARGE=1
MSLEVEL=2
SOURCE_INSTRUMENT=LC-ESI-qTof
FILENAME=Indapamide.mgf
SEQ=*..*
IONMODE=Positive
ORGANISM=GNPS-SELLECKCHEM-FDA-PART1
NAME=Indapamide M+H
PI=Sirenas
DATACOLLECTOR=Ed Esquenazi 
SMILES=CC1CC2=CC=CC=C2N1NC(=O)C3=CC(=C(C=C3)Cl)S(=O)(=O)N
INCHI=InChI=1S/C16H16ClN3O3S/c1-10-8-11-4-2-3-5-14(11)20(10)19-16(21)12-6-7-13(17)15(9-12)24(18,22)23/h2-7,9-10H,8H2,1H3,(H,19,21)(H2,18,22,23)
INCHIAUX=N/A
PUBMED=N/A
SUBMITUSER=mwang87
LIBRARYQUALITY=3
SPECTRUMID=CCMSLIB00000005620
USI=mzspec:GNPS:GNPS-SELLECKCHEM-FDA-PART1:accession:CCMSLIB00000005620
SCANS=1
106.06501	118.827904
117.056602	310.895599
118.063705	92.94561
131.419098	61.252529
131.470062	40.49506
131.493576	82.217278
132.080933	40391.101562
132.447754	68.830353
132.578369	86.16626
132.642731	48.672329
217.966873	195.145004
234.99353	519.224426
348.056549	92.613632
366.066406	2735.074951
END IONS

BEGIN IONS
PEPMASS=255.102
CHARGE=1
MSLEVEL=2
SOURCE_INSTRUMENT=LC-ESI-qTof
FILENAME=Ketoprofen.mgf
SEQ=*..*
IONMODE=Positive
ORGANISM=GNPS-SELLECKCHEM-FDA-PART1
NAME=Ketoprofen M+H
PI=Sirenas
DATACOLLECTOR=Ed Esquenazi 
SMILES=CC(C1=CC(=CC=C1)C(=O)C2=CC=CC=C2)C(=O)O
INCHI=InChI=1S/C16H14O3/c1-11(16(18)19)13-8-5-9-14(10-13)15(17)12-6-3-2-4-7-12/h2-11H,1H3,(H,18,19)
INCHIAUX=N/A
PUBMED=N/A
SUBMITUSER=mwang87
LIBRARYQUALITY=3
SPECTRUMID=CCMSLIB00000005667
USI=mzspec:GNPS:GNPS-SELLECKCHEM-FDA-PART1:accession:CCMSLIB00000005667
SCANS=1
101.003464	42.00338
103.053833	116.026604
105.033226	7953.575195
105.068321	198.855103
105.07518	27.918381
105.091568	62.55965
131.048569	108.259598
143.466492	42.847519
149.058868	68.331093
177.007126	40.945518
177.05365	1706.250977
191.083405	63.950001
194.070465	93.088203
207.840332	53.41473
207.88324	24.435459
207.912552	50.623981
208.104691	29.659189
208.155457	40.18771
208.236023	33.090271
208.276505	32.18108
208.31369	37.459431
209.011139	45.540588
209.065094	110.676003
209.095993	24416.740234
209.373077	31.192711
209.472626	63.845982
209.554367	24.95393
209.623138	50.59317
209.686844	48.265362
209.784622	63.945831
209.925079	39.529942
253.57695	24.864771
253.710785	54.82262
255.054001	93.052269
255.101196	13191.599609
255.282516	84.839706
255.345367	35.231689
255.381302	40.79924
255.423355	56.978619
255.457001	45.250191
255.484055	32.225769
255.502014	45.549179
255.589478	26.676439
255.637283	25.3016
255.671387	54.548241
255.736343	36.106319
256.026642	25.69858
525.188171	40.959431
END IONS

BEGIN IONS
PEPMASS=327.138
CHARGE=1
MSLEVEL=2
SOURCE_INSTRUMENT=LC-ESI-qTof
FILENAME=Clozapine.mgf
SEQ=*..*
IONMODE=Positive
ORGANISM=GNPS-SELLECKCHEM-FDA-PART1
NAME=Clozapine M+H
PI=Sirenas
DATACOLLECTOR=Ed Esquenazi 
SMILES=CN1CCN(CC1)C2=NC3=C(C=CC(=C3)Cl)NC4=CC=CC=C42
INCHI=InChI=1S/C18H19ClN4/c1-22-8-10-23(11-9-22)18-14-4-2-3-5-15(14)20-16-7-6-13(19)12-17(16)21-18/h2-7,12,20H,8-11H2,1H3
INCHIAUX=N/A
PUBMED=N/A
SUBMITUSER=mwang87
LIBRARYQUALITY=3
SPECTRUMID=CCMSLIB00000005799
USI=mzspec:GNPS:GNPS-SELLECKCHEM-FDA-PART1:accession:CCMSLIB00000005799
SCANS=1
113.025703	23.75392
118.063683	30.8866
123.990089	16.99194
135.991119	19.286461
152.94516	14.8734
155.94603	25.66684
164.04895	17.76833
165.06015	12.53125
166.062469	24.500509
173.757248	9.580504
178.058807	15.80104
179.564682	9.023648
182.079895	16.611111
188.961609	7.442803
191.058578	120.452301
192.067535	1213.813965
192.269958	11.98162
194.080917	13.70435
198.678238	42.68708
200.022858	13.58523
205.182465	9.894817
206.082489	16.127451
206.200333	13.03146
208.099182	17.832041
213.030884	13.92754
215.036255	32.290112
218.087738	13.98512
219.085098	12.31485
225.781616	11.53353
226.027374	92.590721
227.035339	878.498474
227.27626	11.84375
229.052567	115.635902
232.083054	19.229919
233.094147	9.256299
234.102875	86.060791
234.396698	15.88068
235.109787	66.18808
240.044876	27.553711
242.905869	15.83333
243.067352	11.78009
244.063934	175.418106
245.383194	5.80303
246.095123	14.93599
246.908661	9.592628
246.928818	25.575251
248.932495	39.53286
249.977646	7.9375
253.050217	126.873299
255.062653	37.354172
256.063446	33.5056
258.418152	21.283951
265.840942	14.52493
268.014496	13.16789
268.06424	70.431847
268.385986	8.968333
268.408417	21.17374
268.431458	12.82189
268.452271	31.902399
268.469696	9.595239
268.488129	14.70732
268.54187	30.398569
268.594391	9.818561
268.623932	16.838289
268.696777	61.017811
268.744659	52.776199
268.810181	19.140829
269.018097	8.425245
269.09198	8.220109
269.456604	15.68056
269.727478	30.482611
269.849548	12.29637
269.959564	22.440599
269.976318	14.46959
270.079865	32659.699219
270.379883	18.182899
270.394592	5.461436
270.41098	20.014299
270.432617	11.68017
270.463593	97.587807
270.523621	27.60327
270.552795	67.217117
270.568207	29.35129
270.58371	18.878969
270.603271	32.35347
270.631165	22.43219
270.652954	34.593521
270.680603	58.528931
270.704437	12.5
270.730621	53.761341
270.753876	23.05426
270.77182	22.87039
270.817352	57.63039
270.844147	40.654259
270.889069	72.324913
270.935455	34.96838
271.13327	30.49091
271.772003	14.44233
272.153748	14.6976
272.570496	11.25347
280.289307	22.57707
284.088379	30.140011
284.160217	11.98491
287.17392	18.66667
289.176178	13.86231
290.039429	2.463542
292.692993	40.087959
295.690491	17.5506
296.09491	2453.87207
296.424164	21.181061
296.606201	8.900278
298.07785	19.94709
316.983093	14.54833
324.08847	9.707108
324.738403	12.13355
324.85202	9.502315
324.907257	13.55533
324.937744	18.871929
324.984314	46.46468
325.006287	31.42708
325.051361	84.342056
325.073273	193.019104
325.100525	261.649597
325.136261	295.778107
325.160675	361.286713
325.196136	113.0075
325.22113	74.474167
325.241791	352.94989
325.284515	69.0028
325.318085	212.310394
325.344788	215.269104
325.379486	319.087189
325.405853	91.566116
325.432526	171.286896
325.463074	187.129395
325.483002	53.610291
325.509308	52.189308
325.540588	135.7397
325.763489	149.466904
325.804291	17.507139
325.83078	9.333333
325.989624	49.309479
326.044037	248.2733
326.146637	10.60606
326.214355	60.42445
326.326202	137.1091
326.496094	64.76902
326.587433	23.52083
326.694702	70.817932
326.741791	294.375702
326.787689	34.197788
326.805634	47.4002
326.850616	82.78862
326.904877	10.97917
326.944733	119.098801
327.080292	241.651505
327.138489	312895.09375
327.602905	12.8358
327.629364	32.431759
327.705994	103.890099
327.783234	135.069504
327.805756	52.736801
327.834351	148.259995
327.874756	125.802101
327.901947	191.079697
327.95697	140.024094
327.993774	177.922897
328.011658	53.174839
328.048859	304.769592
328.188812	6.041325
328.257874	23.91506
328.423279	143.883102
328.504272	93.921494
328.606689	15.34476
328.631042	49.168892
328.652618	16.590281
328.670074	25.35911
328.721222	69.64463
328.769073	46.122959
328.79187	102.879898
328.814545	55.671909
328.939514	23.417259
329.05658	35.763931
329.080444	47.3713
329.16922	45.59848
329.208221	9.326755
329.239258	33.394192
329.363556	39.09634
329.398499	25.56262
329.472992	31.81167
329.517365	63.21793
329.534607	13.19271
329.690613	12.67426
329.993042	12.125
330.284912	15.34673
330.38382	12.28259
330.576019	14.29953
330.714966	15.33778
330.743896	16.32074
330.889862	10.33373
333.168671	9.338384
333.600739	12.69225
334.074799	2.075
334.20932	12.04167
337.595886	10.36227
365.416443	19.96096
367.126312	11.8951
368.098846	13.93212
378.79541	9.426678
431.771484	28.26716
648.927429	14.00024
921.611267	20.188129
947.106934	4.763889
END IONS

BEGIN IONS
PEPMASS=309.16
CHARGE=1
MSLEVEL=2
SOURCE_INSTRUMENT=LC-ESI-qTof
FILENAME=Phenylbutazone.mgf
SEQ=*..*
IONMODE=Positive
ORGANISM=GNPS-SELLECKCHEM-FDA-PART1
NAME=Phenylbutazone M+H
PI=Sirenas
DATACOLLECTOR=Ed Esquenazi 
SMILES=CCCCC1C(=O)N(N(C1=O)C2=CC=CC=C2)C3=CC=CC=C3
INCHI=InChI=1S/C19H20N2O2/c1-2-3-14-17-18(22)20(15-10-6-4-7-11-15)21(19(17)23)16-12-8-5-9-13-16/h4-13,17H,2-3,14H2,1H3
INCHIAUX=N/A
PUBMED=N/A
SUBMITUSER=mwang87
LIBRARYQUALITY=3
SPECTRUMID=CCMSLIB00000006293
USI=mzspec:GNPS:GNPS-SELLECKCHEM-FDA-PART1:accession:CCMSLIB00000006293
SCANS=1
101.001984	45.761909
104.048424	41.440479
120.043655	692.418274
125.060616	27.17391
132.045258	60.010071
133.049469	30.215
134.061676	14.72727
145.058411	48.98148
146.057602	50.50005
148.111038	50.385761
160.110703	93.453484
162.126663	94.411011
163.136917	38.477509
168.98735	78.918419
174.058228	22.70709
187.164398	12.52365
188.105667	580.720581
189.370056	15.42857
190.120834	561.831726
190.192444	18.310829
190.328201	13.42014
190.406525	40.646259
190.463028	12.30682
191.041748	15.92157
200.105881	15.55254
211.086609	285.016815
216.100922	164.598602
230.95697	61.53487
231.103821	65.096733
253.092148	114.641098
260.102142	10.75788
263.149811	17.52355
265.167206	58.506721
272.87793	16.471149
281.159973	21.760559
291.146881	27.798401
307.229919	14.96333
309.130463	14.99322
309.158539	3769.616943
309.239685	23.27648
309.274628	41.994061
309.373108	15.81944
309.429443	16.800871
309.527405	25.440861
309.57486	35.929871
309.61142	21.91468
309.642029	11.9616
309.69101	10.71204
309.755798	28.36006
309.802826	13.27083
309.830109	17.40909
309.853363	16.45833
309.892273	13.0997
309.935944	23.05426
309.973602	12.0375
310.110504	19.12855
310.328033	26.110661
310.665283	21.04623
310.910797	11.5126
311.395294	10.33772
END IONS

BEGIN IONS
PEPMASS=256.17
CHARGE=1
MSLEVEL=2
SOURCE_INSTRUMENT=LC-ESI-qTof
FILENAME=Diphenylhydramine.mgf
SEQ=*..*
IONMODE=Positive
ORGANISM=GNPS-SELLECKCHEM-FDA-PART1
NAME=Diphenylhydramine M+H
PI=Sirenas
DATACOLLECTOR=Ed Esquenazi 
SMILES=CN(C)CCOC(C1=CC=CC=C1)C2=CC=CC=C2
INCHI=InChI=1S/C17H21NO/c1-18(2)13-14-19-17(15-9-5-3-6-10-15)16-11-7-4-8-12-16/h3-12,17H,13-14H2,1-2H3
INCHIAUX=N/A
PUBMED=N/A
SUBMITUSER=mwang87
LIBRARYQUALITY=3
SPECTRUMID=CCMSLIB00000006568
USI=mzspec:GNPS:GNPS-SELLECKCHEM-FDA-PART1:accession:CCMSLIB00000006568
SCANS=1
100.999283	31.52371
101.92038	56.4767
113.367065	84.561829
115.056763	79.322762
128.059677	40.105919
134.952316	25.000879
141.070404	173.019897
150.041504	42.8064
151.053146	286.692688
152.061172	1956.753052
152.739227	39.00066
155.988358	113.719101
164.168503	57.889832
165.036087	44.220242
165.069504	2154.041016
165.099854	2.5
165.133438	109.863602
165.250595	42.24004
165.601196	52.708328
165.975098	51.290321
166.077057	810.8797
166.111053	259.0513
166.13768	333.47879
166.167923	490.733795
166.227188	381.820709
166.253128	202.252808
166.273819	381.537994
166.337311	450.229797
166.358932	314.244995
166.396286	204.565704
166.410858	155.295105
166.450516	85.615387
166.49324	79.520416
166.547104	75.840279
166.59314	61.951611
166.803406	67.617729
166.933395	68.855072
166.963577	57.368061
166.993546	60.420609
167.086197	392689.8125
167.241653	18.04167
167.329041	21.33333
167.486786	51.864639
167.523193	246.631195
167.568817	174.719604
167.597275	151.565598
167.63945	235.916107
167.648163	16.595591
167.671112	243.925903
167.73204	316.268402
167.781967	127.822098
167.822372	107.857201
167.87384	69.356323
167.929871	64.533577
167.99559	136.144394
168.045914	136.746094
168.205231	73.780838
168.29483	124.879799
168.422302	127.347298
168.468903	47.43578
168.545105	97.043213
168.605728	72.586433
168.701965	45.796799
168.74176	43.169701
168.791748	87.406578
168.823914	52.512798
169.066376	69.530937
169.452942	39.050301
169.551025	43.75
169.899994	62.776409
170.271652	49.743919
170.529404	51.180481
178.945984	148.027496
179.038559	8.640625
256.169739	2695.955078
256.258026	58.851849
256.395935	44.07692
715.434021	50.65094
END IONS

BEGIN IONS
PEPMASS=311.038
CHARGE=1
MSLEVEL=2
SOURCE_INSTRUMENT=LC-ESI-qTof
FILENAME=Plate1_21_40_GG2_01_16489.mzXML
SEQ=*..*
IONMODE=Positive
ORGANISM=GNPS-SELLECKCHEM-FDA-PART2
NAME=Malotilate [M+Na]
PI=Dorrestein
DATACOLLECTOR=Garg_Neha
SMILES=C(C(C(=O)OC(C)C)=C1SC=CS1)(=O)OC(C)C
INCHI=N/A
INCHIAUX=N/A
PUBMED=N/A
SUBMITUSER=negarg
LIBRARYQUALITY=1
SPECTRUMID=CCMSLIB00000078021
USI=mzspec:GNPS:GNPS-SELLECKCHEM-FDA-PART2:accession:CCMSLIB00000078021
SCANS=2270
46.770901	176.0
47.30875	180.0
47.459461	144.0
47.506096	144.0
48.414452	180.0
50.33884	212.0
50.440567	160.0
50.526833	244.0
51.161228	144.0
51.252384	140.0
51.895607	160.0
51.928589	156.0
52.807194	188.0
53.046116	168.0
53.414963	160.0
57.131603	184.0
57.179756	156.0
57.194809	292.0
57.70472	184.0
57.952946	156.0
58.213856	140.0
58.688629	144.0
58.786255	156.0
60.585308	140.0
60.596153	148.0
61.477833	168.0
61.591808	152.0
61.679317	144.0
62.266895	192.0
62.675919	160.0
63.363239	144.0
63.418705	184.0
63.548744	140.0
63.726578	144.0
64.207329	144.0
64.712296	140.0
65.600754	144.0
66.232597	208.0
67.09063	156.0
67.121605	160.0
68.511536	160.0
68.750626	196.0
68.773735	168.0
68.919067	160.0
69.604836	168.0
69.722786	148.0
70.365784	188.0
70.430916	160.0
70.807251	160.0
70.926216	240.0
71.771873	180.0
72.183899	168.0
72.754906	172.0
72.84491	204.0
73.456047	180.0
74.014923	168.0
74.302879	244.0
76.176056	184.0
76.464706	172.0
76.525635	164.0
77.687881	160.0
78.721085	160.0
79.102997	180.0
81.055069	228.0
81.47493	164.0
83.206955	176.0
83.973068	192.0
84.124519	144.0
89.513237	180.0
90.026176	144.0
91.134346	208.0
91.223671	200.0
91.402458	244.0
93.036667	144.0
94.056953	228.0
94.4086	268.0
94.720222	148.0
95.702942	172.0
97.56559	224.0
97.659981	160.0
97.984802	328.0
99.539505	196.0
100.790489	156.0
101.424919	156.0
101.581329	220.0
101.765968	156.0
102.707825	180.0
102.977852	144.0
103.184425	196.0
103.437302	212.0
103.741173	160.0
103.884567	192.0
104.712463	204.0
104.865273	164.0
105.038597	148.0
105.081436	216.0
106.596695	212.0
107.457405	224.0
109.359818	144.0
110.371651	188.0
110.476227	188.0
111.709763	148.0
112.149864	184.0
112.257393	180.0
112.869789	220.0
114.203773	244.0
114.985733	196.0
115.032692	164.0
116.216232	168.0
116.295631	148.0
117.315269	140.0
118.896461	180.0
118.911652	192.0
119.193977	188.0
120.07785	172.0
120.838058	148.0
121.164284	160.0
121.363739	180.0
121.591881	164.0
121.974075	152.0
123.066818	144.0
125.643692	160.0
127.17659	292.0
128.960526	272.0
129.001221	148.0
130.111313	196.0
130.536209	148.0
130.816071	200.0
131.447418	172.0
132.813278	148.0
132.856873	184.0
132.964722	172.0
133.104752	176.0
133.125427	192.0
133.325287	164.0
134.017944	224.0
134.437637	232.0
134.751678	176.0
135.849075	220.0
135.948853	168.0
136.146179	184.0
136.464539	232.0
138.410568	160.0
139.748886	156.0
139.835587	224.0
140.153519	220.0
140.252502	160.0
140.776871	176.0
140.972351	168.0
141.170929	172.0
142.393845	204.0
142.55777	168.0
142.9216	156.0
143.493256	228.0
144.001358	160.0
144.558594	176.0
144.620819	184.0
144.831528	172.0
145.459793	160.0
145.601456	216.0
145.906631	208.0
146.809601	180.0
147.478104	204.0
147.770996	176.0
148.044525	140.0
148.344986	148.0
149.000244	216.0
149.102295	196.0
149.561996	156.0
149.793335	156.0
150.127258	144.0
150.427368	140.0
150.791321	168.0
152.033035	180.0
153.691635	172.0
154.887344	144.0
155.436157	188.0
156.457718	176.0
156.485107	180.0
156.502533	148.0
156.736679	212.0
157.120667	260.0
157.49762	172.0
158.774109	164.0
158.968491	156.0
160.703568	176.0
162.081635	152.0
162.185547	180.0
163.117142	152.0
163.801666	172.0
164.449341	172.0
164.807068	108.0
164.880981	152.0
164.944504	39584.0
165.112366	96.0
165.654556	176.0
165.946442	3044.0
166.265518	120.0
166.941635	3320.0
167.102982	144.0
167.350372	228.0
167.629562	152.0
167.799683	160.0
167.941528	280.0
169.82341	192.0
169.915344	224.0
169.943893	148.0
170.203461	152.0
171.116119	184.0
171.968567	140.0
172.449158	144.0
173.742767	168.0
173.873978	164.0
174.457108	144.0
175.11496	168.0
175.942978	180.0
177.888794	240.0
178.916275	196.0
179.645187	164.0
182.954453	1204.0
183.958984	240.0
184.950836	220.0
185.963623	164.0
187.097183	160.0
187.672073	172.0
188.490967	148.0
189.484222	164.0
191.016113	176.0
192.024261	144.0
193.79628	144.0
194.300903	156.0
194.320328	140.0
195.515213	188.0
196.521194	148.0
196.722137	172.0
197.110367	156.0
197.817993	188.0
198.493225	140.0
198.964615	164.0
198.993454	160.0
199.492767	164.0
204.747406	152.0
204.82431	216.0
205.893906	148.0
206.983475	152.0
207.009247	224.0
208.933411	5700.0
209.660889	180.0
209.936584	288.0
210.468628	176.0
210.927368	372.0
212.051086	176.0
213.793671	144.0
213.997437	228.0
214.591827	172.0
214.650146	196.0
214.804718	176.0
217.015747	140.0
218.175461	148.0
218.710861	168.0
220.049271	168.0
220.79985	152.0
220.927048	172.0
222.112	172.0
225.0047	300.0
225.237579	204.0
225.386948	156.0
225.990967	144.0
226.945099	2580.0
227.411453	212.0
227.465485	144.0
227.501511	156.0
227.942627	324.0
228.857468	144.0
228.939941	504.0
229.828064	156.0
229.988007	164.0
230.141983	200.0
231.275681	168.0
233.691376	140.0
234.492279	204.0
234.583725	176.0
234.977249	124.0
235.930038	160.0
236.141022	140.0
237.307785	140.0
238.480499	160.0
240.599884	208.0
242.121246	148.0
242.300903	196.0
243.46579	172.0
244.262939	220.0
244.502518	152.0
244.798279	140.0
245.861359	164.0
246.014297	148.0
246.934341	172.0
247.49942	192.0
249.601822	148.0
249.683594	240.0
251.258606	144.0
252.873383	180.0
253.709656	140.0
254.106094	184.0
254.973007	228.0
255.516769	148.0
256.051544	200.0
256.526337	152.0
257.170685	144.0
258.346619	208.0
260.404572	156.0
261.230682	188.0
262.096771	200.0
262.125763	152.0
262.554535	168.0
264.162048	224.0
265.834961	200.0
266.123871	176.0
266.980316	140.0
267.274536	172.0
267.713989	144.0
267.766113	188.0
267.821472	200.0
267.98764	156.0
268.036926	160.0
268.175354	176.0
268.365723	240.0
268.991272	17040.0
269.06723	140.0
269.307495	132.0
269.63327	112.0
269.992462	1568.0
270.090088	236.0
270.987488	1548.0
271.173889	144.0
271.989319	208.0
272.88092	232.0
273.746338	164.0
275.184021	140.0
275.646484	140.0
276.956635	148.0
277.516693	188.0
279.083923	228.0
279.62619	156.0
280.125641	184.0
280.305573	200.0
281.760345	192.0
282.151398	144.0
282.442322	144.0
282.827148	176.0
282.99118	180.0
285.265869	168.0
285.46759	168.0
285.692963	156.0
287.002808	216.0
287.178497	148.0
287.455139	160.0
287.883881	164.0
287.998352	216.0
289.000305	340.0
289.710388	144.0
290.832855	220.0
292.035675	192.0
293.593048	188.0
293.817322	156.0
296.457062	152.0
297.943298	164.0
298.100861	156.0
298.864258	212.0
300.338776	180.0
302.162811	144.0
304.349915	144.0
304.538788	104.0
305.576874	164.0
305.844849	160.0
306.478668	164.0
306.994598	140.0
308.364929	176.0
308.597534	96.0
308.712799	148.0
309.048615	208.0
309.132904	168.0
309.168915	192.0
309.198883	136.0
309.516144	204.0
309.656219	120.0
309.769836	148.0
309.94278	120.0
310.102722	104.0
310.129608	132.0
310.292023	196.0
310.316559	176.0
310.409393	152.0
310.528778	100.0
310.622314	128.0
310.733215	136.0
310.783875	220.0
310.842285	168.0
310.902008	152.0
310.93396	220.0
310.989349	268.0
311.039368	108356.0
311.11377	172.0
311.212524	156.0
311.254425	124.0
311.351898	140.0
311.447266	204.0
311.502106	168.0
311.618347	504.0
311.834656	176.0
311.881256	208.0
311.94101	260.0
311.984222	140.0
312.041412	15248.0
312.153259	200.0
312.34726	212.0
312.441162	128.0
312.652557	148.0
312.749603	184.0
313.034668	10476.0
313.311462	164.0
313.625458	124.0
313.702209	172.0
313.829498	152.0
313.872833	132.0
313.975403	176.0
314.035492	1052.0
314.154449	120.0
314.331726	148.0
314.425323	100.0
315.402527	140.0
328.289886	156.0
329.045502	372.0
331.0495	136.0
352.052246	148.0
433.634308	160.0
456.517273	156.0
629.710632	168.0
1350.157227	160.0
1467.985107	220.0
1563.975586	152.0
1758.801392	164.0
1785.403687	160.0
1830.826172	160.0
1912.442139	148.0
1926.360474	176.0
1971.47998	224.0
1989.505371	152.0
1990.67749	164.0
END IONS

BEGIN IONS
PEPMASS=261.058
CHARGE=1
MSLEVEL=2
SOURCE_INSTRUMENT=LC-ESI-qTof
FILENAME=Plate4_61_88_GH5_01_16506.mzXML
SEQ=*..*
IONMODE=Positive
ORGANISM=GNPS-SELLECKCHEM-FDA-PART2
NAME=Suprofen (Profenal) [M+H]
PI=Dorrestein
DATACOLLECTOR=Garg_Neha
SMILES=C1(=CC=C(C=C1)C(C(O)=O)C)C(C2SC=CC=2)=O
INCHI=N/A
INCHIAUX=N/A
PUBMED=N/A
SUBMITUSER=negarg
LIBRARYQUALITY=1
SPECTRUMID=CCMSLIB00000078278
USI=mzspec:GNPS:GNPS-SELLECKCHEM-FDA-PART2:accession:CCMSLIB00000078278
SCANS=1308
45.113152	192.0
45.984917	244.0
46.379864	196.0
46.461224	164.0
46.515507	176.0
46.538586	164.0
47.150219	172.0
47.31847	168.0
47.814003	200.0
48.137966	208.0
48.478268	156.0
48.648869	208.0
48.680801	200.0
48.785007	208.0
48.910473	204.0
49.14386	204.0
49.72366	172.0
50.027271	172.0
50.402431	164.0
50.659924	156.0
50.848511	164.0
51.127064	156.0
51.362148	276.0
51.396389	188.0
52.284855	152.0
52.828823	148.0
52.99966	176.0
53.061985	196.0
53.397419	208.0
53.909126	156.0
53.957363	160.0
54.361626	140.0
54.445301	180.0
54.717327	152.0
54.804226	176.0
55.868732	216.0
56.262165	176.0
56.332352	296.0
56.610542	156.0
56.718414	180.0
56.787388	156.0
57.138893	168.0
57.453758	188.0
58.464409	176.0
58.57251	236.0
60.315678	160.0
60.694977	200.0
60.907593	144.0
60.993053	152.0
61.215534	144.0
61.689842	176.0
62.118912	144.0
62.818932	164.0
62.91835	172.0
62.93256	156.0
63.796005	228.0
63.902561	144.0
64.756592	212.0
64.772614	180.0
64.841507	160.0
64.924873	244.0
65.05484	140.0
65.281387	156.0
65.308723	148.0
65.932671	164.0
65.971466	160.0
66.275734	240.0
66.449219	196.0
67.000359	168.0
67.12912	188.0
68.29026	180.0
68.905128	160.0
69.005943	184.0
69.356895	148.0
70.637405	232.0
70.886864	196.0
71.303055	208.0
71.516655	188.0
71.966759	224.0
72.25647	208.0
72.95108	164.0
73.093948	192.0
73.12458	176.0
73.225029	164.0
73.979744	152.0
74.051666	204.0
74.164749	172.0
74.398041	144.0
74.638573	156.0
74.986313	192.0
76.364487	152.0
76.693565	200.0
77.115952	144.0
77.985291	160.0
78.018692	188.0
78.194588	140.0
79.029274	140.0
79.048737	164.0
79.529015	160.0
79.653305	196.0
79.699501	192.0
79.905746	156.0
80.133636	176.0
80.27623	164.0
80.611885	132.0
80.658302	148.0
81.105789	192.0
81.572495	180.0
81.586876	216.0
81.824348	152.0
82.520767	192.0
82.848343	176.0
82.940758	172.0
82.957069	176.0
83.365448	200.0
83.984451	172.0
84.678993	156.0
84.777924	164.0
84.922752	180.0
86.726006	156.0
87.037674	152.0
87.450378	260.0
87.911438	228.0
88.812477	192.0
88.874382	200.0
89.013283	152.0
89.082779	148.0
89.82634	204.0
89.979195	208.0
90.177536	164.0
90.351509	140.0
90.39502	212.0
90.440445	184.0
90.453697	152.0
90.9674	184.0
91.024361	144.0
91.052841	168.0
91.149727	192.0
91.225754	152.0
91.330338	248.0
91.882767	236.0
92.272369	176.0
92.371819	148.0
92.544052	184.0
93.367271	252.0
93.912315	228.0
94.147774	164.0
94.457016	140.0
94.613762	140.0
95.345024	184.0
95.446114	200.0
95.520012	152.0
95.767212	148.0
96.125931	148.0
96.149345	188.0
96.178627	144.0
96.998207	144.0
97.037415	236.0
97.055061	248.0
97.200218	152.0
97.524254	168.0
98.069458	196.0
98.410736	192.0
98.562828	140.0
98.718987	208.0
98.974251	200.0
99.07328	208.0
99.638687	156.0
99.895134	240.0
99.964767	180.0
100.267471	188.0
100.934227	176.0
101.516937	160.0
102.08725	152.0
102.137535	232.0
103.053726	1392.0
103.311554	160.0
104.057777	176.0
104.112183	156.0
104.240158	140.0
104.38652	164.0
104.48822	144.0
104.973579	220.0
105.013771	144.0
105.070427	716.0
105.097412	216.0
105.13414	248.0
105.197411	160.0
105.31176	180.0
105.814812	140.0
106.077034	184.0
106.431961	148.0
107.034431	172.0
107.289909	172.0
107.46315	168.0
107.77079	196.0
107.86586	172.0
108.058182	184.0
108.319023	148.0
108.858269	144.0
109.13765	204.0
110.630516	168.0
110.892349	176.0
110.989532	25344.0
111.114624	228.0
111.258057	128.0
111.924805	120.0
111.991638	1532.0
112.834167	164.0
112.985939	980.0
113.521324	140.0
113.77594	176.0
114.258362	176.0
114.403076	164.0
114.490372	196.0
115.365181	160.0
115.778137	180.0
115.872383	148.0
116.660965	168.0
116.860001	188.0
117.234673	152.0
119.312592	188.0
119.959145	192.0
120.013649	164.0
120.113968	196.0
121.02919	712.0
121.064064	344.0
121.997208	188.0
122.338188	200.0
122.668625	160.0
123.607269	156.0
123.784355	232.0
125.811737	172.0
127.444809	208.0
128.450089	140.0
128.482727	140.0
128.579758	176.0
129.085785	196.0
129.266754	164.0
129.385925	264.0
130.132614	148.0
131.045868	316.0
131.103897	152.0
132.055634	588.0
132.440445	196.0
132.628342	160.0
132.69252	180.0
132.866821	180.0
133.061035	348.0
133.346741	172.0
133.437805	104.0
134.031174	180.0
134.101654	160.0
134.219223	152.0
135.41629	260.0
135.708282	148.0
135.750015	236.0
136.028427	176.0
136.051636	184.0
138.90097	212.0
139.222504	152.0
139.52092	196.0
139.598511	176.0
140.361465	144.0
142.655655	144.0
143.217209	200.0
145.356903	168.0
148.47612	160.0
148.692047	228.0
149.05748	192.0
149.978683	184.0
150.789001	156.0
151.290436	144.0
152.055191	148.0
152.809586	140.0
152.954773	260.0
153.073807	204.0
154.075775	296.0
155.393921	152.0
156.888611	176.0
157.422562	148.0
157.509964	140.0
157.629883	252.0
160.045456	160.0
160.380508	152.0
161.319519	160.0
161.96225	220.0
162.03064	152.0
162.461624	172.0
163.043076	196.0
163.625565	172.0
163.87262	164.0
166.058258	148.0
166.81572	184.0
167.072876	148.0
168.020935	212.0
168.067383	148.0
169.113998	180.0
169.367737	212.0
169.974396	148.0
170.527542	156.0
170.883789	180.0
171.027359	360.0
171.177917	160.0
171.498367	164.0
172.029221	132.0
172.309921	144.0
174.1436	152.0
175.884018	168.0
176.026581	216.0
176.153351	148.0
176.364746	144.0
176.946716	196.0
176.967896	148.0
177.054306	13900.0
178.057785	2264.0
178.706375	164.0
179.043259	216.0
179.06282	420.0
180.381165	180.0
182.586685	204.0
183.417099	160.0
184.332016	164.0
185.476822	240.0
186.603409	144.0
186.995117	200.0
187.053711	372.0
187.51532	180.0
188.287415	160.0
189.282822	160.0
190.099701	172.0
191.03096	152.0
192.177185	152.0
195.9646	176.0
196.522232	160.0
197.424469	160.0
198.684921	200.0
199.955002	164.0
200.023712	368.0
200.571823	168.0
201.036301	348.0
203.431671	144.0
203.908859	204.0
205.306717	212.0
205.803223	152.0
206.357513	212.0
206.921143	140.0
209.64415	172.0
210.096832	140.0
213.642761	160.0
214.977219	168.0
215.053375	1108.0
215.310013	168.0
216.065872	220.0
216.491501	156.0
216.913406	204.0
217.049606	236.0
217.852432	188.0
220.140961	144.0
221.300064	152.0
222.257431	204.0
222.94339	200.0
223.017685	248.0
223.041473	164.0
225.342072	144.0
227.168259	160.0
227.789642	148.0
227.918839	168.0
231.375275	140.0
232.645508	140.0
232.827698	152.0
236.480148	268.0
237.016068	196.0
237.055908	148.0
237.248993	144.0
238.055939	148.0
240.053085	144.0
241.52626	240.0
243.050491	184.0
243.718063	172.0
244.047531	184.0
245.6483	164.0
246.072723	236.0
246.888275	152.0
247.633133	140.0
249.946793	144.0
251.184937	148.0
251.412094	180.0
251.55098	176.0
254.830475	184.0
255.556839	204.0
256.598328	144.0
257.753754	160.0
258.063782	148.0
258.108551	144.0
258.185303	196.0
259.071899	168.0
259.124725	172.0
260.035004	204.0
260.15509	220.0
260.193878	192.0
260.33075	152.0
260.513489	184.0
260.561401	276.0
260.69104	144.0
260.72229	112.0
260.801483	144.0
260.875427	184.0
260.914001	196.0
260.964417	436.0
261.058228	65948.0
261.131012	404.0
261.15625	180.0
261.277191	184.0
261.405548	184.0
261.428467	156.0
261.59259	116.0
261.785767	144.0
262.061584	9036.0
262.123383	200.0
262.207123	104.0
262.554993	128.0
262.959442	176.0
263.011078	144.0
263.056976	2968.0
263.115356	136.0
263.163208	100.0
263.319611	152.0
263.543945	140.0
263.752075	100.0
263.797852	156.0
263.850983	328.0
263.932739	96.0
264.009094	116.0
264.051971	204.0
264.21814	120.0
264.398529	160.0
264.953003	124.0
309.156921	160.0
402.330841	156.0
486.477722	156.0
552.002014	156.0
1261.573853	164.0
1312.25	152.0
1331.011597	148.0
1339.404175	188.0
1339.870361	152.0
1388.45874	148.0
1396.278931	164.0
1436.373291	176.0
1437.754028	168.0
1473.663818	148.0
1479.430176	172.0
1531.78833	148.0
1542.806885	204.0
1548.59729	192.0
1563.356812	184.0
1580.313965	168.0
1591.719849	184.0
1615.390503	184.0
1615.718506	156.0
1642.880127	268.0
1648.047119	156.0
1653.732056	152.0
1695.24292	192.0
1702.8479	180.0
1706.315552	220.0
1717.234375	180.0
1719.107178	140.0
1722.459106	144.0
1725.665527	204.0
1730.455933	168.0
1738.869629	164.0
1744.393188	160.0
1756.458862	200.0
1758.202637	200.0
1763.5979	148.0
1784.673096	152.0
1785.959717	168.0
1804.528931	224.0
1814.519165	180.0
1824.639038	204.0
1836.014893	196.0
1848.88916	204.0
1849.856445	176.0
1853.933228	224.0
1855.193237	156.0
1866.904541	180.0
1869.123901	204.0
1869.347656	208.0
1869.52832	184.0
1874.204102	176.0
1878.230103	176.0
1881.025757	180.0
1882.467651	180.0
1886.995239	160.0
1887.263306	152.0
1892.818237	176.0
1893.337891	156.0
1900.003418	164.0
1904.152466	172.0
1911.851685	184.0
1915.581543	176.0
1917.271851	180.0
1921.09082	164.0
1922.408325	180.0
1931.380737	204.0
1938.375732	164.0
1939.725464	212.0
1944.496826	192.0
1945.594116	204.0
1947.18335	156.0
1951.172607	180.0
1960.634888	296.0
1961.040283	168.0
1976.69812	160.0
1980.522583	148.0
1984.803101	164.0
1986.168823	156.0
1987.65918	220.0
1988.457886	168.0
2002.442871	172.0
END IONS

BEGIN IONS
PEPMASS=314.094
CHARGE=1
MSLEVEL=2
SOURCE_INSTRUMENT=LC-ESI-qTof
FILENAME=Plate5_1_20_GH6_01_16508.mzXML
SEQ=*..*
IONMODE=Positive
ORGANISM=GNPS-SELLECKCHEM-FDA-PART2
NAME=Flubendazole (Flutelmium) [M+H]
PI=Dorrestein
DATACOLLECTOR=Garg_Neha
SMILES=C1(C(=O)C2=CC3=C(C=C2)N=C(N3)NC(=O)OC)=CC=C(C=C1)F
INCHI=N/A
INCHIAUX=N/A
PUBMED=N/A
SUBMITUSER=negarg
LIBRARYQUALITY=1
SPECTRUMID=CCMSLIB00000078310
USI=mzspec:GNPS:GNPS-SELLECKCHEM-FDA-PART2:accession:CCMSLIB00000078310
SCANS=1198
44.891262	156.0
44.944622	144.0
44.997284	128.0
45.08884	264.0
45.127605	144.0
45.150337	144.0
45.217232	200.0
45.250896	108.0
45.266582	148.0
45.44772	176.0
45.500256	140.0
45.88768	164.0
45.915852	140.0
45.930687	428.0
45.948734	148.0
45.988297	132.0
46.085968	176.0
46.130569	156.0
46.156223	204.0
46.174564	128.0
46.204914	156.0
46.282063	180.0
46.305084	144.0
46.410782	160.0
46.481316	164.0
46.559639	184.0
46.596725	168.0
46.689159	184.0
46.742012	160.0
46.846127	160.0
46.866119	140.0
47.067993	244.0
47.142262	216.0
47.154057	164.0
47.200535	204.0
47.375721	152.0
47.409977	200.0
47.423683	176.0
47.512814	204.0
47.567707	216.0
47.57983	144.0
47.596535	172.0
47.608894	156.0
47.631603	160.0
47.687366	168.0
47.72707	156.0
47.74147	216.0
47.769707	216.0
47.870178	184.0
47.881195	144.0
47.91563	160.0
47.932163	160.0
47.982365	104.0
48.06316	152.0
48.074474	180.0
48.126652	188.0
48.178375	248.0
48.324299	148.0
48.392117	296.0
48.483994	148.0
48.607483	212.0
48.688862	252.0
48.748024	128.0
48.772224	164.0
48.815323	144.0
48.832012	156.0
48.841747	172.0
48.904362	176.0
48.939163	140.0
49.002037	140.0
49.080929	204.0
49.137241	268.0
49.198479	188.0
49.233189	168.0
49.273895	144.0
49.287865	200.0
49.317215	140.0
49.383396	132.0
49.439785	144.0
49.497684	236.0
49.522892	184.0
49.63224	144.0
49.665859	188.0
49.768684	148.0
49.81184	152.0
49.940243	148.0
50.064644	156.0
50.105854	180.0
50.170681	176.0
50.328167	160.0
50.353699	176.0
50.430168	192.0
50.474236	144.0
50.515251	152.0
50.593082	144.0
50.679592	148.0
50.715626	204.0
50.795727	164.0
50.890812	140.0
50.926033	184.0
50.988533	116.0
51.065601	176.0
51.082558	152.0
51.125053	152.0
51.150719	180.0
51.256054	240.0
51.289139	180.0
51.304821	152.0
51.350979	140.0
51.383259	156.0
51.411797	184.0
51.441071	196.0
51.470322	148.0
51.498886	172.0
51.508884	140.0
51.58033	140.0
51.601467	168.0
51.683338	140.0
51.762608	108.0
51.773483	164.0
51.796398	204.0
51.889545	208.0
51.908184	152.0
51.972733	140.0
52.02153	172.0
52.078968	144.0
52.147076	208.0
52.1978	168.0
52.255783	180.0
52.27161	188.0
52.293198	172.0
52.324512	164.0
52.354633	160.0
52.442986	164.0
52.481911	196.0
52.523731	436.0
52.614643	148.0
52.641018	180.0
52.688297	168.0
52.773571	180.0
52.788029	160.0
52.948662	168.0
53.006611	148.0
53.022839	140.0
53.042725	148.0
53.113892	228.0
53.301174	212.0
53.317158	208.0
53.347683	200.0
53.541069	180.0
53.645962	120.0
53.781765	144.0
53.821182	140.0
53.832264	156.0
53.846004	208.0
53.863201	176.0
54.156071	140.0
54.222004	176.0
54.241055	144.0
54.28944	164.0
54.31144	172.0
54.33931	176.0
54.353985	220.0
54.467026	140.0
54.491646	132.0
54.556667	160.0
54.651684	112.0
54.712605	140.0
54.787712	216.0
54.848129	168.0
54.859924	140.0
55.005371	140.0
55.221687	156.0
55.278721	268.0
55.308983	148.0
55.372204	160.0
55.527527	168.0
55.572769	196.0
55.655033	188.0
55.673706	156.0
55.715298	204.0
55.801537	140.0
55.81451	212.0
55.836395	212.0
56.19091	180.0
56.2514	220.0
56.329948	176.0
56.390308	160.0
56.417923	152.0
56.442009	148.0
56.55685	184.0
56.584774	172.0
56.614719	180.0
56.79607	152.0
56.811069	156.0
56.874092	160.0
57.019779	172.0
57.125771	196.0
57.234898	148.0
57.248451	180.0
57.371716	212.0
57.395	172.0
57.416615	204.0
57.440048	128.0
57.457962	156.0
57.513832	164.0
57.536442	172.0
57.571716	188.0
57.672741	208.0
57.717747	152.0
57.855427	168.0
57.915997	212.0
57.95084	188.0
57.996304	176.0
58.011459	144.0
58.157787	120.0
58.208576	152.0
58.231476	172.0
58.275528	188.0
58.340881	156.0
58.364456	140.0
58.421371	168.0
58.456135	144.0
58.535629	184.0
58.653667	148.0
58.681904	176.0
58.692577	156.0
58.716549	128.0
58.755989	168.0
58.793255	172.0
58.848171	164.0
58.95063	152.0
58.968143	164.0
59.133617	116.0
59.253799	188.0
59.333969	148.0
59.346161	184.0
59.412949	168.0
59.443634	144.0
59.606087	136.0
59.706532	120.0
59.770935	168.0
59.781708	172.0
59.807869	164.0
59.858261	164.0
59.927986	184.0
59.948021	156.0
60.025093	160.0
60.153149	196.0
60.221088	172.0
60.335438	152.0
60.425137	156.0
60.445251	140.0
60.49025	160.0
60.52729	156.0
60.596989	164.0
60.634178	196.0
60.686199	232.0
60.879295	140.0
60.902592	208.0
60.94408	164.0
60.961662	180.0
60.975594	152.0
61.021969	200.0
61.041817	164.0
61.177734	144.0
61.264412	212.0
61.360992	160.0
61.424629	188.0
61.472401	152.0
61.644173	160.0
61.689495	196.0
61.713909	192.0
61.749886	148.0
61.775505	176.0
61.811531	148.0
61.845997	160.0
62.011944	140.0
62.037022	312.0
62.088764	220.0
62.12516	176.0
62.14053	164.0
62.171909	172.0
62.283302	156.0
62.409328	204.0
62.440033	120.0
62.451565	240.0
62.60265	148.0
62.636387	228.0
62.700325	216.0
62.711357	148.0
62.747612	148.0
62.816776	140.0
62.858021	204.0
62.946419	160.0
62.959053	204.0
62.99287	160.0
63.144733	220.0
63.318047	180.0
63.371906	156.0
63.46225	208.0
63.484447	196.0
63.542965	148.0
63.630428	152.0
63.644718	152.0
63.687595	156.0
63.719761	144.0
63.872669	312.0
63.934025	200.0
64.043884	172.0
64.123543	156.0
64.192093	148.0
64.244728	184.0
64.334091	240.0
64.35804	152.0
64.457077	160.0
64.500229	200.0
64.514809	200.0
64.532196	256.0
64.547638	104.0
64.648697	192.0
64.827316	216.0
64.918472	188.0
65.007927	236.0
65.109062	164.0
65.211472	140.0
65.36145	212.0
65.418297	112.0
65.448364	160.0
65.473572	184.0
65.539879	128.0
65.575218	172.0
65.740128	192.0
65.780182	180.0
65.808105	140.0
65.882217	208.0
65.990494	248.0
66.043861	144.0
66.119904	180.0
66.14904	184.0
66.183037	160.0
66.219826	200.0
66.266769	128.0
66.283463	188.0
66.392075	164.0
66.405518	180.0
66.433266	224.0
66.45858	212.0
66.473183	208.0
66.513756	184.0
66.672928	172.0
66.725639	204.0
66.833916	152.0
66.858322	148.0
66.905014	128.0
67.06842	148.0
67.167885	176.0
67.247833	168.0
67.285378	264.0
67.484062	164.0
67.51741	204.0
67.604111	140.0
67.684746	156.0
67.739357	172.0
67.790794	152.0
67.825691	220.0
67.907936	124.0
68.077873	216.0
68.120575	220.0
68.275635	188.0
68.324013	144.0
68.345146	204.0
68.403412	152.0
68.44223	152.0
68.498924	168.0
68.520088	184.0
68.54464	128.0
68.556587	184.0
68.58625	156.0
68.655502	188.0
68.723129	156.0
68.850426	136.0
68.933464	176.0
69.005562	140.0
69.076668	144.0
69.169418	164.0
69.197479	160.0
69.222313	176.0
69.242188	144.0
69.268692	152.0
69.291885	288.0
69.341782	176.0
69.470337	180.0
69.497475	220.0
69.515213	208.0
69.582115	212.0
69.642891	208.0
69.714088	136.0
69.769852	184.0
69.901245	172.0
69.939522	128.0
69.999512	124.0
70.044426	140.0
70.074409	220.0
70.099403	192.0
70.13855	296.0
70.18206	184.0
70.22274	196.0
70.267807	144.0
70.29615	308.0
70.332893	152.0
70.386314	172.0
70.454796	172.0
70.620453	156.0
70.779312	128.0
70.871384	140.0
70.911606	204.0
71.080986	196.0
71.116844	164.0
71.129654	144.0
71.201851	140.0
71.311058	196.0
71.369347	160.0
71.489326	212.0
71.501106	140.0
71.652	156.0
71.678154	148.0
71.762199	144.0
71.794235	244.0
71.817848	228.0
71.848213	160.0
71.941032	152.0
72.123466	200.0
72.18602	140.0
72.254463	136.0
72.292587	244.0
72.312141	268.0
72.336082	256.0
72.396049	140.0
72.427277	140.0
72.515289	168.0
72.549545	192.0
72.566994	168.0
72.617867	156.0
72.633133	144.0
72.759827	164.0
72.815132	224.0
72.94136	192.0
73.057808	204.0
73.119064	208.0
73.148582	164.0
73.166725	200.0
73.190559	160.0
73.233131	304.0
73.304688	164.0
73.37603	140.0
73.488838	192.0
73.505905	196.0
73.53038	152.0
73.594032	216.0
73.635643	160.0
73.75354	152.0
73.850296	224.0
73.869812	144.0
73.922852	244.0
74.052185	220.0
74.076942	156.0
74.173676	136.0
74.330681	216.0
74.389038	140.0
74.412964	128.0
74.440544	192.0
74.456001	144.0
74.535019	188.0
74.846359	144.0
74.963333	132.0
75.030373	232.0
75.055901	208.0
75.092789	160.0
75.20623	176.0
75.272263	140.0
75.344803	180.0
75.446976	168.0
75.552261	160.0
75.566101	140.0
75.589096	220.0
75.643074	184.0
75.694183	200.0
75.73748	168.0
75.751343	140.0
75.768661	204.0
75.784737	172.0
75.867882	144.0
75.885109	148.0
75.913254	180.0
75.979103	156.0
76.005371	176.0
76.053055	148.0
76.15416	208.0
76.209343	228.0
76.232819	228.0
76.297981	164.0
76.313629	132.0
76.377975	204.0
76.468452	180.0
76.518929	176.0
76.546318	176.0
76.559128	240.0
76.682678	196.0
76.712303	220.0
76.727417	192.0
76.928131	136.0
76.974014	196.0
77.108528	192.0
77.159988	164.0
77.29039	196.0
77.475716	132.0
77.537308	160.0
77.627663	296.0
77.670563	308.0
77.705643	200.0
77.809731	188.0
77.921486	128.0
77.928268	120.0
78.081551	152.0
78.174789	192.0
78.20295	188.0
78.232819	160.0
78.270332	192.0
78.313423	172.0
78.340294	164.0
78.450127	132.0
78.463654	272.0
78.488808	180.0
78.503693	96.0
78.64888	148.0
78.704628	208.0
78.763649	168.0
78.788284	140.0
78.821419	172.0
79.024841	164.0
79.073067	228.0
79.152733	196.0
79.168671	184.0
79.210548	116.0
79.283264	192.0
79.547241	224.0
79.680801	192.0
79.705475	176.0
79.775177	116.0
79.86953	148.0
79.885269	332.0
79.92131	152.0
79.938141	104.0
79.975182	252.0
80.035225	224.0
80.074402	172.0
80.190208	148.0
80.259094	144.0
80.313232	156.0
80.339989	224.0
80.441521	192.0
80.599686	212.0
80.742966	448.0
80.79554	148.0
80.812698	156.0
80.857674	172.0
80.905014	144.0
81.00605	264.0
81.101753	152.0
81.125053	188.0
81.140457	196.0
81.196777	156.0
81.232651	292.0
81.279297	180.0
81.350067	332.0
81.409622	332.0
81.56768	284.0
81.625237	144.0
81.665535	136.0
81.86335	188.0
81.89592	160.0
81.958977	164.0
82.152283	256.0
82.242111	172.0
82.256546	144.0
82.292656	168.0
82.344208	160.0
82.357666	220.0
82.476921	156.0
82.554077	224.0
82.576363	148.0
82.708893	144.0
82.864426	148.0
82.880257	124.0
83.02272	112.0
83.0896	120.0
83.113716	140.0
83.127548	128.0
83.219818	144.0
83.243271	188.0
83.303207	152.0
83.340614	156.0
83.468597	144.0
83.581367	160.0
83.654167	156.0
83.723358	160.0
83.827194	152.0
83.847244	292.0
83.861824	204.0
83.891968	164.0
83.942039	160.0
84.069099	128.0
84.106232	148.0
84.161812	144.0
84.223091	240.0
84.272415	148.0
84.299461	192.0
84.332687	216.0
84.394875	140.0
84.49913	156.0
84.556114	140.0
84.614426	172.0
84.698494	128.0
84.734177	156.0
84.788277	180.0
84.90654	356.0
84.92778	288.0
84.94062	152.0
84.961296	148.0
84.999329	192.0
85.038239	180.0
85.234367	148.0
85.281334	192.0
85.410355	204.0
85.502853	240.0
85.515732	196.0
85.641296	184.0
85.714622	144.0
85.73394	116.0
85.77729	156.0
85.867638	168.0
85.896126	168.0
85.915596	188.0
85.966949	168.0
86.074318	172.0
86.148193	160.0
86.191864	164.0
86.279404	176.0
86.467537	176.0
86.525459	220.0
86.566193	440.0
86.595825	208.0
86.668076	156.0
86.718941	164.0
86.738495	164.0
86.783035	152.0
86.844002	160.0
86.877579	260.0
86.898376	152.0
86.922104	168.0
86.953865	140.0
87.014908	184.0
87.058189	180.0
87.157265	204.0
87.175461	164.0
87.295723	212.0
87.340706	252.0
87.354996	152.0
87.378029	136.0
87.434998	204.0
87.49411	180.0
87.687721	368.0
87.712517	184.0
87.757263	176.0
87.785233	156.0
88.003548	152.0
88.025955	208.0
88.068909	148.0
88.108131	144.0
88.184532	172.0
88.296921	196.0
88.349449	400.0
88.618195	140.0
88.633881	196.0
88.708847	144.0
88.775009	112.0
88.802147	148.0
88.841995	196.0
88.855125	184.0
88.894524	144.0
88.968369	152.0
89.046486	140.0
89.23262	240.0
89.268349	164.0
89.304077	160.0
89.326118	152.0
89.35675	208.0
89.486618	216.0
89.53746	176.0
89.574539	192.0
89.676872	148.0
89.701378	176.0
89.716652	160.0
89.778679	156.0
89.804878	144.0
89.817657	192.0
89.854492	232.0
89.893753	156.0
90.019455	200.0
90.043282	156.0
90.063141	228.0
90.099518	168.0
90.140968	144.0
90.281158	160.0
90.322624	176.0
90.508492	192.0
90.597107	144.0
90.640678	164.0
90.670135	192.0
90.702553	204.0
90.790436	144.0
90.805611	204.0
90.877693	172.0
90.902359	224.0
90.938423	172.0
91.154915	216.0
91.18013	224.0
91.236649	192.0
91.322517	100.0
91.398308	140.0
91.437302	188.0
91.516319	200.0
91.542976	148.0
91.594398	324.0
91.641075	148.0
91.757126	132.0
91.833649	100.0
91.973732	188.0
92.009163	112.0
92.092232	160.0
92.111328	304.0
92.23745	140.0
92.272156	152.0
92.328148	228.0
92.410805	228.0
92.463142	272.0
92.540543	192.0
92.566193	148.0
92.675179	268.0
92.752769	184.0
92.777275	156.0
92.812424	156.0
92.834793	168.0
93.112495	136.0
93.161148	172.0
93.196762	224.0
93.214882	176.0
93.228333	168.0
93.28791	140.0
93.443787	152.0
93.464088	252.0
93.489868	168.0
93.574562	144.0
93.65731	164.0
93.688316	176.0
93.732498	192.0
93.784538	144.0
93.892502	156.0
93.927223	168.0
93.963799	200.0
94.114685	168.0
94.143127	152.0
94.185875	192.0
94.227287	164.0
94.277496	152.0
94.315331	160.0
94.331268	264.0
94.363663	180.0
94.396576	180.0
94.435005	300.0
94.512291	156.0
94.591438	308.0
94.644211	244.0
94.662209	352.0
94.717178	136.0
94.748795	160.0
94.764297	172.0
94.799179	140.0
94.817688	296.0
94.853439	232.0
94.886398	148.0
94.903847	152.0
95.028305	2236.0
95.130836	180.0
95.173546	144.0
95.213432	200.0
95.245407	160.0
95.264862	224.0
95.293388	240.0
95.385162	156.0
95.440216	132.0
95.507889	96.0
95.706306	156.0
95.91671	148.0
95.941124	184.0
96.018097	144.0
96.032486	352.0
96.061012	144.0
96.14296	176.0
96.159706	192.0
96.386391	156.0
96.494446	152.0
96.521866	128.0
96.555168	160.0
96.673203	144.0
96.729408	156.0
96.783745	104.0
96.810913	176.0
97.036873	188.0
97.080009	140.0
97.11393	172.0
97.191826	160.0
97.438988	176.0
97.561546	144.0
97.700684	212.0
97.718391	148.0
97.758202	224.0
97.803009	216.0
97.846085	168.0
97.929024	184.0
98.027527	148.0
98.098175	248.0
98.277946	148.0
98.325302	140.0
98.379028	148.0
98.473381	192.0
98.676125	168.0
98.706573	168.0
98.732277	156.0
98.872742	240.0
98.902245	456.0
99.021225	140.0
99.078667	228.0
99.212044	160.0
99.28476	160.0
99.36985	160.0
99.392067	116.0
99.43956	144.0
99.489769	176.0
99.534843	180.0
99.558678	156.0
99.689331	140.0
99.783211	180.0
100.014282	124.0
100.098579	168.0
100.175255	144.0
100.194084	156.0
100.211113	160.0
100.280861	180.0
100.330696	180.0
100.36795	140.0
100.434387	152.0
100.534142	144.0
100.569473	148.0
100.594826	188.0
100.649872	164.0
100.6828	160.0
100.719818	144.0
100.781746	160.0
100.813721	176.0
100.8377	216.0
100.879066	184.0
100.947212	216.0
100.966309	140.0
101.016281	180.0
101.156685	176.0
101.183426	240.0
101.199333	216.0
101.222359	224.0
101.23864	156.0
101.418129	160.0
101.470253	156.0
101.514366	184.0
101.536423	192.0
101.57489	180.0
101.624214	168.0
101.647911	160.0
101.731056	176.0
101.841492	152.0
101.855553	160.0
101.875641	156.0
102.100761	204.0
102.151039	184.0
102.316933	152.0
102.33461	148.0
102.356323	148.0
102.419731	108.0
102.481209	376.0
102.495316	220.0
102.696907	212.0
102.749359	164.0
102.799698	180.0
102.886253	120.0
102.9366	192.0
102.959282	184.0
103.053017	228.0
103.090591	144.0
103.120232	96.0
103.203789	160.0
103.489075	144.0
103.517509	184.0
103.568054	188.0
103.622749	164.0
103.699753	140.0
103.783745	172.0
103.935669	132.0
103.968925	288.0
104.041267	184.0
104.087891	148.0
104.155167	432.0
104.245926	128.0
104.317841	132.0
104.338821	232.0
104.385933	184.0
104.462082	164.0
104.485596	152.0
104.636444	136.0
104.664703	252.0
104.727837	152.0
104.773544	124.0
104.871483	124.0
104.912865	156.0
104.957428	376.0
104.978836	152.0
105.053978	172.0
105.073578	184.0
105.125389	200.0
105.376541	148.0
105.471443	236.0
105.582993	200.0
105.654488	164.0
105.680397	168.0
105.752808	208.0
105.976021	184.0
106.024818	172.0
106.04789	164.0
106.072342	284.0
106.088188	252.0
106.193436	136.0
106.219009	148.0
106.3554	148.0
106.396461	140.0
106.439575	216.0
106.586197	168.0
106.844208	240.0
106.873276	148.0
106.940689	168.0
107.035889	188.0
107.202744	160.0
107.306488	144.0
107.47699	164.0
107.494514	292.0
107.568428	196.0
107.621475	148.0
107.724739	152.0
107.748184	200.0
107.887993	172.0
108.096008	112.0
108.17968	148.0
108.538857	252.0
108.627281	152.0
108.652176	216.0
108.689522	328.0
108.743477	184.0
108.936584	136.0
108.996834	160.0
109.046707	164.0
109.175606	164.0
109.273369	180.0
109.295959	140.0
109.360489	180.0
109.481522	144.0
109.561424	144.0
109.67701	140.0
109.739906	160.0
109.885902	160.0
109.924118	228.0
110.012161	144.0
110.134224	176.0
110.157562	168.0
110.222061	156.0
110.261765	160.0
110.29039	132.0
110.345375	172.0
110.385818	212.0
110.448044	208.0
110.491776	152.0
110.571289	156.0
110.592216	192.0
110.613152	196.0
110.741592	152.0
110.807556	160.0
110.851913	152.0
110.914787	164.0
110.983429	140.0
111.020714	168.0
111.078339	168.0
111.3022	180.0
111.335052	116.0
111.376404	140.0
111.395309	244.0
111.497215	168.0
111.531891	196.0
111.580238	152.0
111.617554	172.0
111.761604	192.0
111.788475	260.0
111.852219	220.0
111.875191	440.0
112.089867	156.0
112.130592	168.0
112.15493	252.0
112.235039	160.0
112.291977	160.0
112.34584	164.0
112.372139	148.0
112.426994	192.0
112.547188	132.0
112.566322	180.0
112.617012	176.0
112.642357	152.0
112.915016	172.0
112.961548	152.0
112.993507	112.0
113.021065	184.0
113.039139	176.0
113.06279	324.0
113.132057	244.0
113.167488	168.0
113.228241	192.0
113.24942	156.0
113.276955	376.0
113.32151	124.0
113.378654	156.0
113.512207	184.0
113.586441	176.0
113.652206	176.0
113.681908	224.0
113.742409	204.0
113.896339	144.0
114.031708	196.0
114.093971	200.0
114.195061	200.0
114.261978	176.0
114.283257	156.0
114.308784	176.0
114.327942	176.0
114.379066	172.0
114.400307	188.0
114.459923	144.0
114.489731	180.0
114.515289	144.0
114.568542	184.0
114.5905	156.0
114.717712	228.0
114.764618	140.0
114.857468	268.0
114.8815	144.0
115.072403	124.0
115.125069	152.0
115.197525	256.0
115.250755	284.0
115.26622	172.0
115.403023	140.0
115.478058	176.0
115.55648	160.0
115.574135	188.0
115.640083	176.0
115.673737	140.0
115.79248	232.0
115.809616	176.0
115.877045	176.0
115.917328	144.0
115.966026	220.0
116.027649	240.0
116.045723	132.0
116.239326	184.0
116.267601	136.0
116.297005	164.0
116.317787	176.0
116.347847	144.0
116.385345	156.0
116.470245	168.0
116.516075	184.0
116.62925	336.0
116.675522	152.0
116.738892	156.0
116.801262	148.0
116.837837	188.0
116.905365	176.0
116.960495	144.0
117.238327	208.0
117.258453	204.0
117.30191	176.0
117.319923	196.0
117.36335	148.0
117.42157	176.0
117.473343	148.0
117.516487	244.0
117.562393	292.0
117.599663	140.0
117.706429	140.0
117.732346	200.0
117.790657	180.0
117.825226	160.0
117.846832	216.0
118.043526	148.0
118.112732	144.0
118.140701	172.0
118.283676	192.0
118.320068	164.0
118.363777	148.0
118.483932	160.0
118.513237	144.0
118.669289	148.0
118.706154	236.0
118.752495	108.0
118.85582	164.0
118.873184	172.0
118.893929	228.0
118.992561	172.0
119.025429	176.0
119.108704	108.0
119.129379	204.0
119.172104	156.0
119.233673	164.0
119.270088	228.0
119.401909	156.0
119.477203	140.0
119.494614	188.0
119.510681	124.0
119.55481	96.0
119.572945	208.0
119.596886	172.0
119.656967	160.0
119.691872	152.0
119.740181	204.0
119.788506	144.0
119.827721	180.0
119.845146	144.0
119.864761	204.0
119.898071	148.0
119.965012	144.0
119.989471	180.0
120.069672	200.0
120.115479	188.0
120.146385	140.0
120.190514	112.0
120.233299	160.0
120.375191	164.0
120.399818	116.0
120.513336	132.0
120.561127	168.0
120.647369	168.0
120.680687	136.0
120.702965	208.0
120.748886	172.0
120.777321	184.0
120.853073	236.0
120.885712	196.0
120.974258	168.0
121.062263	164.0
121.134117	148.0
121.208084	168.0
121.291885	204.0
121.326958	220.0
121.414665	140.0
121.467308	156.0
121.494316	180.0
121.513374	144.0
121.594566	212.0
121.634552	368.0
121.673584	228.0
121.777031	220.0
121.801117	108.0
121.821381	140.0
121.941574	324.0
121.986061	184.0
122.056007	144.0
122.119659	304.0
122.14386	204.0
122.266167	172.0
122.295319	196.0
122.347809	200.0
122.443192	144.0
122.459816	180.0
122.489449	140.0
122.505913	128.0
122.572441	208.0
122.612831	208.0
122.639282	196.0
122.659119	144.0
122.76329	144.0
122.791763	100.0
122.834373	192.0
122.860123	160.0
122.884834	148.0
122.914055	296.0
122.9814	428.0
123.000023	152.0
123.023979	58528.0
123.093742	176.0
123.117798	264.0
123.153374	144.0
123.224442	188.0
123.339302	244.0
123.384552	196.0
123.471542	196.0
123.507072	140.0
123.534424	144.0
123.557899	216.0
123.639961	180.0
123.690674	160.0
123.792984	288.0
123.838783	160.0
123.875267	144.0
123.899353	120.0
123.989685	220.0
124.02739	3668.0
124.074783	132.0
124.139503	228.0
124.21122	144.0
124.344528	200.0
124.379601	220.0
124.4422	144.0
124.535469	176.0
124.567268	164.0
124.592575	96.0
124.803513	168.0
124.831047	156.0
124.853287	248.0
124.921364	112.0
124.937943	192.0
125.032494	308.0
125.235191	152.0
125.345314	148.0
125.392052	172.0
125.45372	180.0
125.518059	152.0
125.557472	120.0
125.63063	256.0
125.647278	148.0
125.689079	164.0
125.715416	172.0
125.747002	160.0
125.78907	164.0
125.811394	160.0
125.901176	212.0
125.918213	248.0
125.927452	208.0
126.031197	204.0
126.059952	168.0
126.103966	176.0
126.153191	208.0
126.180016	168.0
126.273521	160.0
126.343277	196.0
126.431938	96.0
126.571297	200.0
126.64547	188.0
126.67907	176.0
126.696548	164.0
126.776291	112.0
126.811272	140.0
126.943535	192.0
127.006401	140.0
127.066902	164.0
127.100517	128.0
127.130424	196.0
127.15416	104.0
127.266655	156.0
127.572678	196.0
127.619415	168.0
127.699066	152.0
127.71611	164.0
127.77813	164.0
127.996826	196.0
128.037964	140.0
128.148331	168.0
128.188004	152.0
128.25	176.0
128.299332	160.0
128.354019	188.0
128.48877	216.0
128.60611	156.0
128.645508	300.0
128.733215	176.0
128.843216	168.0
129.148392	144.0
129.259232	140.0
129.342972	260.0
129.361084	144.0
129.512772	364.0
129.559692	148.0
129.682724	144.0
129.859573	152.0
129.875458	140.0
129.898132	140.0
130.004776	184.0
130.039215	172.0
130.061905	188.0
130.113495	160.0
130.159134	160.0
130.288589	160.0
130.322678	216.0
130.383957	140.0
130.422668	148.0
130.443649	140.0
130.511322	164.0
130.530655	112.0
130.597977	216.0
130.697845	208.0
130.861359	128.0
130.957367	192.0
130.977341	176.0
131.029633	160.0
131.070328	192.0
131.154846	192.0
131.173553	132.0
131.229721	112.0
131.253616	212.0
131.427231	176.0
131.461197	180.0
131.509125	172.0
131.566193	148.0
131.627838	200.0
131.665405	244.0
131.769699	148.0
131.790009	172.0
131.819717	200.0
131.999969	140.0
132.082642	176.0
132.110641	132.0
132.455734	200.0
132.552872	216.0
132.574753	152.0
132.764099	260.0
132.812408	240.0
132.859192	148.0
133.10672	204.0
133.159897	192.0
133.240295	168.0
133.320709	140.0
133.373566	172.0
133.493362	156.0
133.575928	140.0
133.746201	168.0
133.806046	196.0
133.936874	168.0
133.999512	220.0
134.052505	152.0
134.18158	196.0
134.223083	240.0
134.391464	184.0
134.544525	268.0
134.596954	136.0
134.666168	172.0
134.728928	164.0
134.77475	184.0
134.811722	152.0
134.911102	212.0
134.968903	140.0
135.007065	288.0
135.057251	156.0
135.144684	164.0
135.199509	192.0
135.306702	296.0
135.417847	120.0
135.445206	160.0
135.501007	196.0
135.607834	180.0
135.623688	176.0
135.640884	200.0
135.749252	140.0
135.896606	144.0
136.027664	164.0
136.076416	140.0
136.13829	152.0
136.182831	116.0
136.23201	260.0
136.25293	248.0
136.304047	204.0
136.355515	136.0
136.41095	128.0
136.47139	148.0
136.545807	308.0
136.569519	124.0
136.613266	272.0
136.662125	144.0
136.677536	172.0
136.694687	140.0
136.797104	164.0
136.829697	196.0
136.869278	140.0
136.918182	232.0
136.965515	136.0
137.029984	148.0
137.110764	132.0
137.258408	160.0
137.316696	192.0
137.357422	132.0
137.380417	152.0
137.408157	196.0
137.452652	144.0
137.473007	144.0
137.503387	204.0
137.561707	280.0
137.670105	132.0
137.753998	164.0
137.9133	152.0
137.940125	192.0
137.956482	140.0
137.989929	184.0
138.028961	144.0
138.089767	144.0
138.134766	136.0
138.155258	156.0
138.206741	196.0
138.252655	224.0
138.314392	152.0
138.344818	160.0
138.415054	148.0
138.47374	168.0
138.627151	96.0
138.648224	132.0
138.670761	160.0
138.691498	172.0
138.750107	148.0
138.784241	128.0
138.806381	144.0
138.871567	188.0
138.950806	204.0
138.972916	180.0
139.005768	164.0
139.132507	156.0
139.388519	204.0
139.475708	120.0
139.537842	136.0
139.585968	404.0
139.738861	196.0
139.898895	168.0
139.957993	156.0
139.980652	148.0
140.023315	176.0
140.049591	140.0
140.114914	192.0
140.156723	168.0
140.1819	148.0
140.216873	160.0
140.300598	176.0
140.365387	212.0
140.437805	164.0
140.503616	212.0
140.589493	172.0
140.620163	140.0
140.679184	172.0
140.811401	204.0
140.905899	196.0
140.927155	164.0
140.948639	128.0
140.977249	120.0
141.016953	212.0
141.094482	156.0
141.165634	148.0
141.270981	212.0
141.291245	156.0
141.322006	152.0
141.343307	192.0
141.460526	156.0
141.52948	128.0
141.638031	188.0
141.681641	120.0
141.735977	144.0
141.833542	140.0
141.884964	172.0
141.923615	260.0
141.940216	152.0
141.963928	240.0
142.008041	156.0
142.023026	196.0
142.052414	136.0
142.153702	200.0
142.183136	176.0
142.307999	216.0
142.341476	160.0
142.444519	152.0
142.500931	188.0
142.571655	180.0
142.660492	128.0
142.71666	180.0
142.752335	172.0
142.792755	188.0
142.837143	228.0
142.854599	156.0
142.962814	152.0
142.985474	156.0
143.016403	168.0
143.052109	172.0
143.088989	328.0
143.195648	156.0
143.248291	156.0
143.266434	156.0
143.297256	184.0
143.383194	140.0
143.480026	188.0
143.522369	176.0
143.643265	144.0
143.702728	216.0
143.781464	156.0
143.857849	152.0
144.042953	132.0
144.082321	168.0
144.136948	144.0
144.190231	160.0
144.240051	188.0
144.304001	180.0
144.359589	160.0
144.377747	164.0
144.424164	152.0
144.529419	252.0
144.603607	168.0
144.671692	188.0
144.735275	164.0
144.838257	156.0
144.862198	160.0
144.893341	208.0
144.96283	268.0
145.02063	148.0
145.053391	296.0
145.137955	136.0
145.308105	144.0
145.356094	196.0
145.4953	148.0
145.538513	204.0
145.60556	144.0
145.668564	164.0
145.689819	180.0
145.708115	216.0
145.751907	152.0
146.01088	196.0
146.05423	168.0
146.115082	192.0
146.168274	168.0
146.216415	164.0
146.264999	148.0
146.353012	156.0
146.381042	228.0
146.415939	164.0
146.594498	144.0
146.690903	148.0
146.707779	176.0
146.727066	168.0
146.76564	160.0
146.804169	172.0
146.908707	164.0
146.94397	144.0
147.00061	216.0
147.04776	148.0
147.103912	208.0
147.225128	192.0
147.262772	144.0
147.381134	168.0
147.465363	160.0
147.527069	156.0
147.651886	200.0
147.707138	132.0
147.729279	168.0
147.92308	180.0
147.993561	160.0
148.039078	280.0
148.11235	96.0
148.135971	248.0
148.240143	228.0
148.300735	172.0
148.317703	208.0
148.368607	172.0
148.592194	124.0
148.676651	148.0
148.759171	164.0
148.810165	160.0
148.929764	160.0
149.080521	104.0
149.115601	200.0
149.167282	152.0
149.184296	156.0
149.218048	140.0
149.246933	188.0
149.286407	192.0
149.344772	144.0
149.374069	204.0
149.437225	168.0
149.563766	300.0
149.61261	180.0
149.739059	148.0
149.772125	188.0
149.933975	216.0
150.122055	104.0
150.159943	208.0
150.23143	172.0
150.267349	156.0
150.399811	168.0
150.455307	168.0
150.487686	176.0
150.551178	220.0
150.590256	192.0
150.611557	128.0
150.708847	228.0
150.762863	144.0
150.861481	152.0
150.915268	160.0
150.939926	144.0
150.970718	260.0
151.022873	164.0
151.092041	156.0
151.25531	152.0
151.3508	224.0
151.385071	200.0
151.437927	172.0
151.514893	160.0
151.555374	140.0
151.581039	224.0
151.653091	180.0
151.718307	180.0
151.858063	156.0
151.888077	152.0
151.950119	236.0
152.0177	180.0
152.094315	212.0
152.119736	212.0
152.259964	144.0
152.376282	188.0
152.441132	200.0
152.457794	212.0
152.619339	160.0
152.773178	124.0
152.837067	124.0
152.904694	160.0
153.119385	156.0
153.277435	152.0
153.298721	204.0
153.3591	136.0
153.417038	144.0
153.437729	192.0
153.525513	200.0
153.584717	200.0
153.614304	144.0
153.640472	204.0
153.685852	156.0
153.704895	172.0
153.711609	100.0
153.763855	168.0
153.796906	140.0
153.923203	100.0
153.982132	200.0
154.189606	164.0
154.331772	120.0
154.390396	148.0
154.41954	284.0
154.441238	124.0
154.624878	144.0
154.669434	148.0
154.713394	216.0
154.753601	144.0
154.790741	212.0
154.991379	372.0
155.021652	168.0
155.070694	308.0
155.177277	164.0
155.21199	324.0
155.261581	164.0
155.30127	200.0
155.355835	160.0
155.390579	216.0
155.415024	136.0
155.460052	204.0
155.500977	212.0
155.534454	192.0
155.606033	324.0
155.642395	236.0
155.755859	164.0
155.844925	168.0
155.877228	156.0
155.894623	188.0
155.924454	144.0
155.954269	244.0
156.108414	192.0
156.127975	148.0
156.165619	252.0
156.265121	164.0
156.503937	156.0
156.563705	316.0
156.596283	112.0
156.719315	172.0
156.760406	144.0
156.788544	216.0
156.855331	180.0
156.872971	156.0
156.972275	180.0
157.015381	208.0
157.05658	232.0
157.228256	208.0
157.271881	144.0
157.377533	200.0
157.58403	140.0
157.616959	156.0
157.646652	200.0
157.739685	156.0
157.748077	144.0
157.781479	176.0
157.88649	148.0
157.939011	148.0
157.974823	164.0
158.034286	556.0
158.191742	296.0
158.343094	240.0
158.382675	192.0
158.482452	148.0
158.52655	160.0
158.610062	224.0
158.659683	156.0
158.712799	172.0
158.845215	216.0
158.888412	144.0
158.967499	208.0
159.042587	1136.0
159.189621	156.0
159.332779	152.0
159.442276	160.0
159.468475	208.0
159.546585	164.0
159.59166	220.0
159.641937	160.0
159.700943	140.0
159.753891	180.0
159.972397	224.0
160.048645	3220.0
160.118881	160.0
160.176819	116.0
160.213303	140.0
160.247894	164.0
160.287994	160.0
160.355392	112.0
160.469055	124.0
160.621674	220.0
160.646957	144.0
160.675919	132.0
160.707596	128.0
160.785675	244.0
160.838669	160.0
160.868958	248.0
160.906433	180.0
160.974747	156.0
161.031494	172.0
161.197296	172.0
161.343887	256.0
161.462418	188.0
161.495621	144.0
161.548096	160.0
161.628693	176.0
161.795654	240.0
161.89711	188.0
161.953735	156.0
161.978241	180.0
162.024323	148.0
162.113342	140.0
162.195862	136.0
162.273041	180.0
162.306	188.0
162.359253	200.0
162.455002	144.0
162.502808	212.0
162.524139	160.0
162.562195	236.0
162.589859	120.0
162.643417	156.0
162.821136	144.0
162.838913	200.0
162.90242	148.0
162.946732	152.0
163.019974	104.0
163.057404	152.0
163.148911	160.0
163.185379	128.0
163.235367	160.0
163.271179	140.0
163.38797	176.0
163.419846	204.0
163.530472	144.0
163.608871	376.0
163.757065	188.0
163.880722	348.0
163.911285	180.0
163.971085	176.0
164.087372	160.0
164.126572	164.0
164.224442	140.0
164.249283	168.0
164.280502	240.0
164.316971	248.0
164.374008	184.0
164.413605	216.0
164.488708	144.0
164.542465	160.0
164.695358	140.0
164.78508	212.0
164.852707	120.0
164.90007	156.0
164.945404	196.0
164.994659	140.0
165.093689	120.0
165.127625	144.0
165.183899	200.0
165.23761	172.0
165.304138	156.0
165.328201	136.0
165.526367	152.0
165.608795	408.0
165.626724	236.0
165.674118	104.0
165.715332	184.0
165.736877	220.0
166.158875	176.0
166.221512	204.0
166.303497	164.0
166.398605	204.0
166.5681	184.0
166.596176	276.0
166.631485	160.0
166.8405	168.0
166.902191	240.0
166.957855	216.0
167.002487	184.0
167.084808	152.0
167.125977	140.0
167.168198	156.0
167.19545	256.0
167.222961	248.0
167.277817	188.0
167.337021	184.0
167.378403	176.0
167.502426	140.0
167.549637	152.0
167.599747	164.0
167.780151	140.0
167.799805	144.0
167.843536	212.0
167.872269	184.0
167.94519	152.0
168.054688	116.0
168.100052	144.0
168.259369	240.0
168.292801	148.0
168.366837	140.0
168.409775	168.0
168.497574	368.0
168.579651	212.0
168.619049	152.0
168.654678	128.0
168.682388	256.0
168.781921	172.0
168.821594	116.0
168.895706	160.0
168.917618	204.0
168.970718	216.0
168.994019	164.0
169.045761	140.0
169.089752	176.0
169.113052	220.0
169.302048	156.0
169.412827	228.0
169.483368	424.0
169.529678	152.0
169.63887	176.0
169.778061	176.0
169.821564	176.0
169.971985	164.0
170.022415	160.0
170.116989	220.0
170.194077	164.0
170.264847	140.0
170.385544	144.0
170.521393	144.0
170.555176	140.0
170.682556	164.0
170.74498	140.0
170.767426	208.0
170.885437	200.0
170.911453	148.0
170.974731	152.0
171.064026	372.0
171.104965	160.0
171.160797	152.0
171.190826	148.0
171.25769	208.0
171.286346	160.0
171.343658	148.0
171.369705	164.0
171.393158	224.0
171.481766	140.0
171.501312	192.0
171.656433	200.0
171.724243	172.0
171.760498	164.0
171.776932	212.0
171.799881	160.0
171.899979	168.0
172.031662	264.0
172.052597	136.0
172.081741	140.0
172.10524	144.0
172.142792	104.0
172.201859	164.0
172.272873	212.0
172.30867	212.0
172.40303	148.0
172.492447	188.0
172.53894	200.0
172.56459	104.0
172.690872	120.0
172.783585	140.0
172.80571	300.0
173.002747	136.0
173.023834	152.0
173.13028	192.0
173.170074	144.0
173.456528	140.0
173.604614	144.0
173.747482	180.0
173.790848	152.0
173.817093	152.0
173.943069	168.0
174.025818	324.0
174.061478	160.0
174.110947	128.0
174.229309	176.0
174.31076	140.0
174.339661	148.0
174.358063	140.0
174.40274	200.0
174.428299	144.0
174.484222	384.0
174.537109	180.0
174.577621	192.0
174.66304	172.0
174.692474	128.0
174.748383	236.0
174.936707	176.0
175.038239	148.0
175.098099	220.0
175.189514	200.0
175.245178	156.0
175.285049	124.0
175.337067	104.0
175.486816	144.0
175.511047	216.0
175.678329	284.0
175.729965	180.0
175.77681	140.0
175.810898	204.0
175.872467	196.0
175.895187	204.0
175.922623	196.0
175.9543	176.0
176.00325	112.0
176.037842	444.0
176.087479	152.0
176.150467	172.0
176.506516	176.0
176.532959	144.0
176.63739	132.0
176.674805	188.0
176.752792	152.0
176.784271	160.0
176.861023	176.0
176.938477	200.0
177.027817	152.0
177.051651	188.0
177.077087	152.0
177.136398	164.0
177.16774	188.0
177.197327	156.0
177.239716	252.0
177.258926	160.0
177.316895	132.0
177.548218	176.0
177.600266	280.0
177.631516	184.0
177.72229	152.0
177.75679	148.0
177.801392	164.0
177.945953	164.0
178.070053	156.0
178.104584	180.0
178.194901	152.0
178.314484	128.0
178.428772	288.0
178.447388	364.0
178.580353	152.0
178.649094	156.0
178.682648	172.0
178.743881	136.0
178.812119	176.0
178.862381	176.0
178.948517	200.0
179.003006	132.0
179.070984	156.0
179.141983	308.0
179.198517	164.0
179.245895	156.0
179.291199	140.0
179.596298	164.0
179.655548	160.0
179.720886	176.0
179.776077	112.0
179.934036	196.0
179.969925	192.0
180.041809	208.0
180.107605	172.0
180.153015	168.0
180.174393	216.0
180.33728	224.0
180.374374	164.0
180.492447	152.0
180.644897	148.0
180.788361	180.0
180.866989	188.0
180.909164	148.0
180.941193	200.0
180.994705	96.0
181.102615	192.0
181.149872	224.0
181.228516	144.0
181.281891	96.0
181.310272	204.0
181.4617	196.0
181.539459	188.0
181.624329	168.0
181.700439	220.0
181.754059	144.0
181.805038	324.0
181.836075	156.0
181.884308	164.0
181.983276	220.0
182.038452	240.0
182.108414	212.0
182.128036	144.0
182.165955	176.0
182.217621	104.0
182.36586	176.0
182.493637	160.0
182.541092	148.0
182.721298	144.0
182.784363	228.0
182.861221	268.0
182.932632	160.0
183.006592	172.0
183.133163	140.0
183.188324	172.0
183.216965	144.0
183.257675	160.0
183.324432	140.0
183.370255	388.0
183.405289	184.0
183.42897	236.0
183.5578	196.0
183.620697	112.0
183.71138	164.0
183.795364	120.0
184.057541	856.0
184.26619	196.0
184.385025	360.0
184.483109	200.0
184.539108	228.0
184.59761	144.0
184.641861	156.0
184.733826	184.0
184.828522	144.0
184.936768	176.0
185.058334	128.0
185.135712	124.0
185.23288	212.0
185.310471	256.0
185.351639	284.0
185.397171	228.0
185.600479	196.0
185.67897	216.0
185.747711	112.0
185.881744	104.0
185.904831	296.0
185.981766	212.0
186.030197	3224.0
186.180389	108.0
186.283768	188.0
186.302521	168.0
186.37677	176.0
186.427399	172.0
186.523529	140.0
186.55072	224.0
186.916351	236.0
187.035599	752.0
187.209015	156.0
187.277237	168.0
187.33989	148.0
187.428497	160.0
187.666794	344.0
187.727051	188.0
187.756912	164.0
187.935608	144.0
188.03331	128.0
188.174408	160.0
188.259521	164.0
188.30188	168.0
188.374451	192.0
188.442062	164.0
188.467056	164.0
188.623642	280.0
188.693497	140.0
188.717957	208.0
188.853165	144.0
188.934555	144.0
189.087402	168.0
189.202011	152.0
189.258484	112.0
189.317368	168.0
189.372833	264.0
189.468018	260.0
189.510361	148.0
189.683853	136.0
189.700714	192.0
189.862717	180.0
189.972427	208.0
190.01358	196.0
190.104126	184.0
190.134583	160.0
190.180969	172.0
190.205673	148.0
190.244019	132.0
190.301254	184.0
190.356674	324.0
190.408859	256.0
190.48407	208.0
190.532455	160.0
190.603897	164.0
190.628632	212.0
190.749557	176.0
190.777039	232.0
190.839249	96.0
190.941376	152.0
190.978058	192.0
191.031479	772.0
191.068207	184.0
191.109818	152.0
191.184113	148.0
191.217148	152.0
191.285172	184.0
191.334976	188.0
191.379562	176.0
191.781128	140.0
191.842407	204.0
191.903732	196.0
191.938934	196.0
192.038177	180.0
192.352737	204.0
192.391373	168.0
192.432785	172.0
192.496292	152.0
192.573624	192.0
192.62886	148.0
192.651291	168.0
192.738129	192.0
192.831848	140.0
192.864853	248.0
192.905792	224.0
193.062561	144.0
193.082916	168.0
193.141281	128.0
193.190445	228.0
193.242599	344.0
193.295853	144.0
193.344437	124.0
193.37265	208.0
193.403091	144.0
193.42247	224.0
193.511063	212.0
193.537415	184.0
193.569199	176.0
193.643982	320.0
193.671875	172.0
193.724304	168.0
193.744766	176.0
193.804382	164.0
193.833191	120.0
193.908737	200.0
193.968155	248.0
194.095688	184.0
194.148376	172.0
194.198303	208.0
194.2621	144.0
194.366257	152.0
194.447998	140.0
194.615341	212.0
194.700638	220.0
194.753403	176.0
194.798599	248.0
194.842575	160.0
194.93399	140.0
194.995132	168.0
195.035873	212.0
195.320435	264.0
195.440704	156.0
195.486176	160.0
195.65094	156.0
195.671066	248.0
195.721191	192.0
195.777283	168.0
195.899429	140.0
195.928726	228.0
196.144653	160.0
196.18367	164.0
196.331451	240.0
196.37886	152.0
196.424881	272.0
196.452759	180.0
196.487656	152.0
196.561981	112.0
196.720215	244.0
196.793793	108.0
196.872849	172.0
196.914734	208.0
197.067932	192.0
197.110291	144.0
197.252823	284.0
197.277985	144.0
197.303131	168.0
197.348282	120.0
197.53804	164.0
197.567154	128.0
197.596603	172.0
197.632462	112.0
197.812836	160.0
197.892792	216.0
197.946121	124.0
197.973434	192.0
198.04483	152.0
198.111908	244.0
198.240799	140.0
198.294037	196.0
198.324875	164.0
198.371475	192.0
198.445419	176.0
198.515518	172.0
198.580017	208.0
198.603729	160.0
198.681	140.0
198.746643	112.0
198.758331	184.0
198.79921	124.0
198.990112	140.0
199.045258	184.0
199.064148	220.0
199.152328	172.0
199.323959	188.0
199.413879	168.0
199.512268	184.0
199.564117	208.0
199.672531	140.0
199.709106	424.0
199.735962	144.0
199.807556	144.0
199.830063	180.0
199.94313	176.0
200.050949	204.0
200.090302	376.0
200.220215	164.0
200.290436	232.0
200.407242	272.0
200.457397	160.0
200.501694	132.0
200.562439	176.0
200.640335	200.0
200.699051	176.0
200.969421	176.0
201.078735	320.0
201.148956	192.0
201.237976	180.0
201.28447	188.0
201.362183	164.0
201.388962	176.0
201.42363	212.0
201.522003	204.0
201.568695	232.0
201.614975	140.0
201.640411	144.0
201.680756	176.0
201.80072	220.0
201.841125	140.0
201.8694	144.0
201.894852	176.0
201.925964	184.0
201.951416	144.0
202.038773	168.0
202.091492	172.0
202.130035	144.0
202.165268	196.0
202.285309	144.0
202.447144	196.0
202.497665	160.0
202.571304	232.0
202.676132	216.0
202.705826	160.0
202.764984	180.0
202.786652	180.0
202.880188	152.0
202.970917	388.0
203.026688	176.0
203.114319	144.0
203.183731	116.0
203.338623	168.0
203.362381	352.0
203.391983	276.0
203.424698	148.0
203.462402	196.0
203.490158	160.0
203.558304	160.0
203.640656	156.0
203.74292	148.0
203.814606	156.0
203.870682	120.0
204.141815	184.0
204.334259	252.0
204.394699	132.0
204.673035	300.0
204.749115	172.0
204.874908	136.0
204.953033	212.0
205.051834	152.0
205.168701	180.0
205.194351	184.0
205.277039	156.0
205.409393	252.0
205.721786	168.0
205.867752	312.0
205.899521	180.0
205.942001	232.0
206.014481	204.0
206.070862	332.0
206.113403	168.0
206.16098	216.0
206.253677	100.0
206.277969	124.0
206.461655	160.0
206.509628	200.0
206.550949	172.0
206.595245	144.0
206.708176	136.0
206.865585	264.0
206.902802	176.0
207.013992	168.0
207.057266	208.0
207.113251	160.0
207.134766	240.0
207.429901	188.0
207.476013	192.0
207.553177	164.0
207.584976	184.0
207.637619	160.0
207.768585	136.0
207.819931	192.0
207.868881	196.0
208.061707	180.0
208.190842	204.0
208.224808	188.0
208.305099	192.0
208.509109	252.0
208.531143	168.0
208.829575	124.0
208.887497	156.0
208.928909	116.0
208.96785	120.0
208.995087	152.0
209.051392	208.0
209.116425	148.0
209.14473	204.0
209.229004	116.0
209.324677	340.0
209.405334	112.0
209.49028	160.0
209.545013	140.0
209.666031	180.0
209.717682	152.0
209.747925	184.0
209.79715	180.0
209.879959	152.0
209.983017	160.0
210.037964	236.0
210.08989	200.0
210.258789	164.0
210.296783	308.0
210.361145	140.0
210.518204	188.0
210.670135	156.0
210.705338	108.0
210.758896	192.0
210.794373	152.0
210.814606	192.0
210.855057	212.0
210.904633	160.0
210.933105	156.0
210.976456	144.0
211.002487	180.0
211.030548	164.0
211.089218	184.0
211.110382	164.0
211.153259	140.0
211.215942	184.0
211.342178	168.0
211.373917	176.0
211.4711	132.0
211.497147	188.0
211.540558	148.0
211.649139	152.0
211.673752	220.0
211.749603	144.0
211.954239	336.0
211.980804	148.0
212.056152	148.0
212.110229	164.0
212.135147	188.0
212.218475	188.0
212.379379	108.0
212.499817	160.0
212.635712	120.0
212.778442	220.0
212.86554	176.0
213.055832	132.0
213.095596	220.0
213.132782	204.0
213.252991	132.0
213.284042	160.0
213.356567	168.0
213.386673	112.0
213.464142	172.0
213.73175	144.0
213.861603	156.0
214.125778	124.0
214.276215	164.0
214.317017	164.0
214.646393	144.0
214.768875	172.0
214.813751	260.0
214.984924	152.0
215.074982	180.0
215.167358	172.0
215.218292	172.0
215.252121	164.0
215.297134	156.0
215.359406	200.0
215.454865	296.0
215.519135	196.0
215.646927	352.0
215.887451	444.0
215.913559	168.0
215.961243	120.0
216.098053	140.0
216.237213	140.0
216.340958	164.0
216.372864	156.0
216.420013	212.0
216.455139	148.0
216.67775	140.0
216.766724	160.0
216.812393	160.0
216.821167	152.0
216.906967	128.0
216.940491	236.0
217.014786	140.0
217.116852	204.0
217.154922	148.0
217.210693	220.0
217.294525	160.0
217.334793	232.0
217.399048	268.0
217.450699	120.0
217.484161	152.0
217.539932	220.0
217.5793	156.0
217.622131	160.0
217.684998	132.0
217.712433	116.0
217.783646	160.0
217.82605	220.0
217.895279	176.0
218.133316	160.0
218.257263	124.0
218.419373	184.0
218.444641	188.0
218.492081	168.0
218.550919	248.0
218.695129	216.0
218.730438	164.0
218.831131	188.0
218.86293	144.0
218.888992	108.0
219.054352	300.0
219.15184	136.0
219.244797	164.0
219.394287	236.0
219.472687	152.0
219.528381	236.0
219.632095	176.0
219.788788	252.0
220.089523	164.0
220.368713	160.0
220.405579	168.0
220.467636	156.0
220.535599	180.0
220.576981	148.0
220.678085	200.0
220.86676	144.0
220.920609	140.0
220.976227	188.0
221.053146	148.0
221.174225	148.0
221.221848	156.0
221.339798	148.0
221.369888	176.0
221.432022	216.0
221.523911	156.0
221.590149	188.0
221.621674	196.0
221.728348	228.0
221.901779	132.0
222.056152	316.0
222.193878	176.0
222.298019	104.0
222.330383	180.0
222.351822	176.0
222.42218	124.0
222.451096	196.0
222.534531	144.0
222.602783	204.0
222.729065	152.0
222.801453	184.0
222.848801	320.0
222.921341	152.0
223.013458	152.0
223.055267	184.0
223.149323	216.0
223.256256	180.0
223.376221	160.0
223.545807	136.0
223.575577	156.0
223.708649	152.0
223.739273	152.0
223.791153	180.0
223.864441	164.0
223.960739	204.0
224.024323	140.0
224.055359	176.0
224.078613	148.0
224.140869	188.0
224.200958	156.0
224.229156	164.0
224.251633	376.0
224.532257	124.0
224.576614	164.0
224.631882	196.0
224.72493	128.0
224.825012	172.0
224.883926	140.0
224.9496	208.0
225.052307	256.0
225.081818	140.0
225.116791	224.0
225.200409	272.0
225.247284	116.0
225.288467	200.0
225.308853	120.0
225.364716	148.0
225.444656	128.0
225.506638	116.0
225.53804	168.0
225.787491	152.0
225.860977	312.0
225.900864	180.0
225.965683	192.0
226.077637	3832.0
226.258972	176.0
226.345795	204.0
226.36676	160.0
226.518295	172.0
226.690277	144.0
226.762817	176.0
226.894241	340.0
227.008789	160.0
227.040863	156.0
227.077911	504.0
227.287979	148.0
227.353012	204.0
227.417694	124.0
227.447495	152.0
227.543686	164.0
227.622467	324.0
227.917557	184.0
227.96051	324.0
228.013519	120.0
228.059708	200.0
228.087143	168.0
228.109848	204.0
228.193634	164.0
228.718445	104.0
228.829361	132.0
228.883102	212.0
228.902634	172.0
229.003036	212.0
229.073318	272.0
229.190323	144.0
229.216553	348.0
229.338242	144.0
229.439987	196.0
229.540436	108.0
229.567123	188.0
229.599609	160.0
229.796204	152.0
229.885483	292.0
229.926117	152.0
230.040878	188.0
230.086716	136.0
230.135773	120.0
230.206863	156.0
230.242355	160.0
230.291428	164.0
230.372986	140.0
230.697464	196.0
230.724991	144.0
230.756805	196.0
230.92009	140.0
230.989655	152.0
231.052689	192.0
231.152252	172.0
231.180267	164.0
231.215225	168.0
231.262817	148.0
231.319138	140.0
231.349762	152.0
231.487656	144.0
231.560532	136.0
231.62294	176.0
231.69722	164.0
231.76561	236.0
231.888931	180.0
231.96167	292.0
231.998047	160.0
232.064926	176.0
232.167847	200.0
232.361664	156.0
232.552032	228.0
232.644211	220.0
232.700592	140.0
232.723145	200.0
232.762619	172.0
232.91304	128.0
232.983566	188.0
233.048141	196.0
233.190399	156.0
233.243439	196.0
233.300385	148.0
233.321671	140.0
233.361191	148.0
233.386047	188.0
233.449371	184.0
233.475311	204.0
233.550201	232.0
233.672699	124.0
233.752716	276.0
233.78096	144.0
234.066605	284.0
234.243744	172.0
234.291306	176.0
234.382187	108.0
234.531204	152.0
234.604462	180.0
234.746628	176.0
234.825211	144.0
235.060043	212.0
235.085236	288.0
235.106598	196.0
235.19957	224.0
235.245377	148.0
235.286575	236.0
235.317352	176.0
235.349426	128.0
235.498047	148.0
235.52034	208.0
235.800888	176.0
235.842545	120.0
235.879318	140.0
235.987885	180.0
236.068008	156.0
236.1698	192.0
236.196518	152.0
236.260834	116.0
236.325714	120.0
236.390076	292.0
236.432358	152.0
236.463516	160.0
236.518616	176.0
236.739044	156.0
236.777557	168.0
236.822296	164.0
236.922821	180.0
236.975647	156.0
237.064041	300.0
237.21701	148.0
237.345779	276.0
237.501358	136.0
237.588074	204.0
237.616135	164.0
237.66687	152.0
237.727982	124.0
237.853363	124.0
237.919037	152.0
238.048477	192.0
238.077072	280.0
238.228226	152.0
238.312393	188.0
238.435333	228.0
238.51944	188.0
238.690689	188.0
238.889404	144.0
238.9534	136.0
239.042313	144.0
239.133682	308.0
239.194595	152.0
239.253738	188.0
239.275284	160.0
239.320953	144.0
239.41272	152.0
239.437546	208.0
239.464905	152.0
239.614059	144.0
239.688004	156.0
239.734238	156.0
239.783539	140.0
239.886703	164.0
239.986679	116.0
240.058029	112.0
240.107254	148.0
240.202179	180.0
240.30159	176.0
240.335526	180.0
240.375641	212.0
240.429565	220.0
240.474396	140.0
240.520691	156.0
240.546539	168.0
240.624924	136.0
240.801666	152.0
240.851089	188.0
241.076614	180.0
241.139755	112.0
241.255493	160.0
241.488586	156.0
241.691971	208.0
241.855988	148.0
241.918945	212.0
241.945755	164.0
242.078033	256.0
242.181488	192.0
242.248108	120.0
242.307053	224.0
242.372726	168.0
242.456833	144.0
242.502274	176.0
242.635941	188.0
242.875183	176.0
242.928131	152.0
242.975815	108.0
243.049133	144.0
243.207397	148.0
243.299347	128.0
243.340881	220.0
243.527206	256.0
243.555161	208.0
243.698486	260.0
243.854309	100.0
243.978607	164.0
244.061935	172.0
244.092804	216.0
244.11293	196.0
244.13826	208.0
244.20166	156.0
244.291855	176.0
244.338516	148.0
244.371216	204.0
244.665298	156.0
244.758698	292.0
244.817871	196.0
244.849899	196.0
244.969574	216.0
245.015579	160.0
245.166382	176.0
245.230988	172.0
245.284637	108.0
245.33197	172.0
245.378723	208.0
245.447327	248.0
245.499466	168.0
245.628204	144.0
245.801407	128.0
245.888565	116.0
245.9245	188.0
245.997421	236.0
246.02829	152.0
246.099609	148.0
246.371155	152.0
246.416061	140.0
246.46489	168.0
246.49614	140.0
246.614899	160.0
246.784195	148.0
246.846237	140.0
246.96817	192.0
247.040436	176.0
247.080826	140.0
247.104492	184.0
247.190323	200.0
247.246078	152.0
247.368729	172.0
247.463364	140.0
247.650528	180.0
247.681854	224.0
247.712997	140.0
247.754822	136.0
247.973679	144.0
248.007721	140.0
248.099564	164.0
248.148788	148.0
248.224045	268.0
248.358231	152.0
248.443588	140.0
248.513107	176.0
248.580353	284.0
248.686676	204.0
248.829605	168.0
248.93248	320.0
249.083969	140.0
249.201172	196.0
249.291336	216.0
249.351044	212.0
249.429504	108.0
249.47049	156.0
249.568726	128.0
249.609909	276.0
249.681152	268.0
249.775513	188.0
249.900635	180.0
249.942764	160.0
249.986404	128.0
250.193268	236.0
250.414841	132.0
250.49086	108.0
250.73085	140.0
250.83667	164.0
251.050491	176.0
251.180374	192.0
251.248413	232.0
251.35704	188.0
251.451828	124.0
251.530716	140.0
251.660736	168.0
251.850037	128.0
251.909561	192.0
251.937988	184.0
252.06752	200.0
252.124405	172.0
252.149643	160.0
252.222748	140.0
252.36322	176.0
252.412079	168.0
252.471542	144.0
252.521118	116.0
252.582947	296.0
252.810654	220.0
252.864975	168.0
253.035385	180.0
253.066101	364.0
253.253891	156.0
253.288727	148.0
253.680695	172.0
253.906769	148.0
253.92897	140.0
254.07019	3588.0
254.174606	228.0
254.357315	160.0
254.395416	188.0
254.457733	120.0
254.497009	180.0
254.567535	224.0
254.677032	220.0
254.728836	156.0
254.786011	160.0
254.868622	316.0
254.897125	264.0
254.940186	316.0
254.978149	172.0
255.080185	1392.0
255.167999	168.0
255.220825	144.0
255.348633	156.0
255.38681	216.0
255.414444	168.0
255.454742	156.0
255.47905	180.0
255.738174	164.0
255.783859	148.0
255.992462	156.0
256.022888	196.0
256.083954	216.0
256.16983	160.0
256.262238	272.0
256.324768	360.0
256.491669	340.0
256.515686	136.0
256.743561	156.0
256.772247	200.0
256.817963	156.0
256.903046	192.0
256.953888	168.0
256.990875	148.0
257.068268	888.0
257.175873	192.0
257.512177	96.0
257.551178	160.0
257.678802	224.0
257.744354	172.0
257.784302	232.0
257.849548	152.0
257.908905	140.0
258.014984	104.0
258.074982	152.0
258.198547	120.0
258.283813	156.0
258.311798	140.0
258.462158	208.0
258.504242	228.0
258.586945	232.0
258.670685	156.0
258.746552	192.0
258.777435	112.0
258.911407	196.0
258.989502	176.0
259.035217	192.0
259.144135	164.0
259.240265	200.0
259.438995	140.0
259.474731	164.0
259.5112	100.0
259.54715	180.0
259.689117	180.0
259.835144	176.0
259.910461	200.0
260.027435	196.0
260.226379	200.0
260.249115	144.0
260.335114	136.0
260.368805	184.0
260.435577	144.0
260.552582	172.0
260.645874	192.0
260.697174	148.0
260.743164	128.0
260.88031	152.0
260.902893	324.0
260.976135	256.0
261.043243	216.0
261.13562	148.0
261.229431	164.0
261.31778	200.0
261.504669	192.0
261.545654	156.0
261.581238	156.0
261.6203	172.0
261.648163	128.0
261.843109	136.0
261.904419	136.0
262.029938	136.0
262.060486	140.0
262.112671	196.0
262.328766	116.0
262.34021	108.0
262.448273	140.0
262.481445	172.0
262.551483	168.0
262.621918	232.0
262.633362	204.0
262.701447	184.0
262.732086	232.0
262.783722	312.0
262.812744	308.0
262.858459	196.0
263.068268	260.0
263.195068	152.0
263.351868	156.0
263.536011	148.0
263.631317	140.0
263.743469	416.0
263.897034	172.0
264.052643	852.0
264.179352	172.0
264.253784	144.0
264.339905	188.0
264.379028	168.0
264.427582	196.0
264.50943	160.0
264.573639	188.0
264.781403	176.0
264.888275	184.0
264.989014	180.0
265.059845	308.0
265.154266	320.0
265.212677	208.0
265.25296	296.0
265.32901	144.0
265.37085	208.0
265.395172	312.0
265.429535	196.0
265.568329	100.0
265.587433	256.0
265.65979	176.0
265.757111	200.0
265.78775	192.0
265.870697	144.0
265.959625	212.0
266.016754	264.0
266.070251	268.0
266.110626	136.0
266.179077	140.0
266.208313	176.0
266.236328	152.0
266.27652	220.0
266.425934	204.0
266.482788	208.0
266.591339	140.0
266.682434	140.0
266.812653	144.0
266.836914	140.0
266.969879	148.0
267.020752	344.0
267.143921	148.0
267.294037	180.0
267.326569	144.0
267.538544	128.0
267.632751	252.0
267.788849	180.0
267.904388	156.0
267.936584	148.0
268.11792	172.0
268.18457	184.0
268.245026	176.0
268.376709	112.0
268.416901	196.0
268.48288	240.0
268.557281	308.0
268.61676	144.0
268.650757	152.0
268.817291	200.0
269.021393	152.0
269.101257	180.0
269.15918	176.0
269.23761	180.0
269.312531	128.0
269.364288	156.0
269.412201	160.0
269.554443	116.0
269.626678	128.0
269.661957	148.0
269.779297	208.0
269.821777	184.0
269.91333	188.0
269.974945	148.0
269.983063	124.0
269.994263	188.0
270.051514	128.0
270.103058	1264.0
270.152649	132.0
270.181122	164.0
270.297607	168.0
270.344696	180.0
270.504913	196.0
270.538879	208.0
270.570343	148.0
270.672485	140.0
270.707672	204.0
270.786621	260.0
270.838715	156.0
270.878693	132.0
270.933868	228.0
271.07785	148.0
271.106812	484.0
271.165192	296.0
271.235016	196.0
271.269196	204.0
271.353973	204.0
271.392151	156.0
271.427765	240.0
271.544189	392.0
271.586823	156.0
271.704773	104.0
271.759277	188.0
271.832855	156.0
271.875519	204.0
271.969391	148.0
272.100067	168.0
272.148285	172.0
272.203491	288.0
272.318481	160.0
272.385376	152.0
272.535736	280.0
272.621521	196.0
272.688629	316.0
272.737854	208.0
272.775452	168.0
272.992462	152.0
273.068085	168.0
273.091766	340.0
273.143738	220.0
273.17334	216.0
273.390503	196.0
273.459869	156.0
273.485962	164.0
273.541901	208.0
273.614319	160.0
273.643951	144.0
273.686279	164.0
273.776947	192.0
273.820435	108.0
273.862091	148.0
273.891144	192.0
273.916595	156.0
274.015472	224.0
274.026001	208.0
274.09848	364.0
274.124695	168.0
274.164398	144.0
274.197266	144.0
274.251007	260.0
274.457794	140.0
274.543793	140.0
274.569885	140.0
274.595001	164.0
274.667114	252.0
274.728821	108.0
274.764313	144.0
274.812347	144.0
274.880005	156.0
274.912994	168.0
275.090698	172.0
275.132477	120.0
275.19577	124.0
275.224915	108.0
275.262909	184.0
275.295929	224.0
275.37616	136.0
275.523834	152.0
275.622253	152.0
275.68573	140.0
275.747101	112.0
276.009674	288.0
276.07251	172.0
276.112579	212.0
276.194885	208.0
276.251556	152.0
276.320007	208.0
276.345947	96.0
276.392944	180.0
276.472809	144.0
276.701202	148.0
276.752258	132.0
276.847931	280.0
276.925781	200.0
276.956177	140.0
277.009155	196.0
277.217651	324.0
277.251038	200.0
277.280853	164.0
277.355499	232.0
277.412018	336.0
277.439514	204.0
277.47644	280.0
277.571198	168.0
277.838043	172.0
277.87442	156.0
277.908997	104.0
278.086792	144.0
278.200409	248.0
278.362335	204.0
278.418793	156.0
278.503448	140.0
278.5336	184.0
278.598145	164.0
278.662689	380.0
278.687866	148.0
278.735291	144.0
278.783173	140.0
278.843018	180.0
278.882355	144.0
278.925568	108.0
278.96701	160.0
279.042358	140.0
279.113831	196.0
279.157776	160.0
279.283051	180.0
279.31076	284.0
279.386261	116.0
279.63559	180.0
279.781586	164.0
279.908569	172.0
279.978516	156.0
280.054138	184.0
280.11731	196.0
280.194489	124.0
280.243774	108.0
280.291534	184.0
280.367432	148.0
280.442444	292.0
280.494171	120.0
280.597473	120.0
280.651123	184.0
280.707397	204.0
280.816284	284.0
280.83725	312.0
280.906372	292.0
280.985077	380.0
281.030243	180.0
281.054779	804.0
281.135376	292.0
281.169464	152.0
281.202728	224.0
281.230438	252.0
281.278503	348.0
281.300659	172.0
281.381134	276.0
281.42041	156.0
281.47467	204.0
281.538147	464.0
281.560242	296.0
281.588013	300.0
281.628845	264.0
281.659424	260.0
281.668793	192.0
281.701874	476.0
281.756714	360.0
281.78598	316.0
281.818512	264.0
281.859039	280.0
281.911316	932.0
281.940216	692.0
281.977753	764.0
282.025085	1044.0
282.068939	364620.0
282.163544	152.0
282.187042	364.0
282.304504	608.0
282.387756	376.0
282.426697	308.0
282.451599	548.0
282.505127	208.0
282.573029	188.0
282.618073	10108.0
282.664551	252.0
282.697083	628.0
282.72345	196.0
282.783508	268.0
282.818481	232.0
282.885345	256.0
282.933441	340.0
283.016541	296.0
283.070679	105876.0
283.195526	352.0
283.270782	232.0
283.319946	180.0
283.392761	256.0
283.486725	184.0
283.51532	180.0
283.572021	324.0
283.612244	268.0
283.648346	160.0
283.710693	380.0
283.768402	228.0
283.816101	140.0
283.847809	184.0
283.996826	152.0
284.021606	160.0
284.072449	8512.0
284.130859	232.0
284.204285	180.0
284.268799	236.0
284.320648	116.0
284.34613	96.0
284.374634	176.0
284.414764	180.0
284.492126	316.0
284.520447	196.0
284.565765	160.0
284.620239	296.0
284.660034	156.0
284.716705	232.0
284.766571	244.0
284.777252	284.0
284.815979	276.0
284.850067	320.0
284.907196	244.0
284.957611	316.0
284.993134	324.0
285.075623	924.0
285.130035	264.0
285.168915	352.0
285.194489	204.0
285.22644	232.0
285.283936	128.0
285.330505	136.0
285.379425	168.0
285.444946	168.0
285.520447	104.0
285.544739	216.0
285.572723	152.0
285.650909	128.0
285.709106	164.0
285.752838	228.0
285.868713	152.0
285.934204	136.0
285.98349	188.0
286.004059	120.0
286.039062	168.0
286.176025	168.0
286.214691	148.0
286.272797	136.0
286.427277	164.0
286.477814	196.0
286.508881	140.0
286.602051	228.0
286.742462	124.0
286.77774	160.0
287.095428	152.0
287.184357	124.0
287.329346	292.0
287.450958	152.0
287.492981	176.0
287.591431	152.0
287.76239	188.0
287.819794	168.0
287.851959	160.0
287.874939	184.0
287.926849	196.0
287.954651	156.0
288.011292	164.0
288.044922	164.0
288.115997	136.0
288.245697	200.0
288.322113	172.0
288.474213	204.0
288.497894	200.0
288.637451	184.0
288.82251	152.0
289.094849	168.0
289.157074	172.0
289.48468	128.0
289.970306	160.0
290.036896	184.0
290.161743	160.0
290.214355	200.0
290.241486	352.0
290.284241	184.0
290.723389	132.0
290.800232	176.0
290.930237	204.0
291.004913	120.0
291.195068	220.0
291.227448	132.0
291.263	140.0
291.299042	204.0
291.375122	188.0
291.754974	176.0
291.798218	176.0
291.955353	144.0
292.03418	108.0
292.180847	152.0
292.227448	160.0
292.25708	108.0
292.453064	208.0
292.493927	180.0
292.541565	184.0
292.616455	196.0
292.711792	316.0
292.888885	220.0
292.982361	128.0
293.264923	144.0
293.347656	196.0
293.515961	140.0
293.671661	152.0
293.7005	112.0
293.757599	156.0
293.779053	100.0
294.022644	136.0
294.444916	132.0
294.691437	144.0
294.852844	200.0
294.935638	204.0
295.154968	204.0
295.192596	200.0
295.244904	108.0
295.370422	204.0
295.468048	120.0
295.525696	196.0
295.584106	360.0
295.644135	228.0
295.762817	196.0
296.12262	200.0
296.168976	216.0
296.205505	224.0
296.231232	160.0
296.431885	100.0
296.465759	176.0
296.51059	176.0
296.661377	176.0
296.809479	144.0
296.885559	240.0
296.973419	164.0
297.25473	168.0
297.31308	288.0
297.426331	156.0
297.455597	236.0
297.594543	212.0
297.742889	160.0
298.099487	256.0
298.189209	108.0
298.286438	224.0
298.333191	184.0
298.388214	168.0
298.656433	144.0
298.957733	180.0
299.010803	224.0
299.065796	144.0
299.252136	108.0
299.391327	152.0
299.426239	132.0
299.572052	144.0
299.802887	272.0
299.982117	184.0
300.069458	120.0
300.227539	220.0
300.361969	204.0
300.730621	144.0
300.763092	176.0
300.880127	116.0
300.927399	156.0
301.252014	164.0
301.331207	144.0
301.400696	112.0
301.512146	156.0
301.587189	196.0
302.132294	416.0
302.229248	128.0
302.27417	192.0
302.513	204.0
302.597321	180.0
302.868958	96.0
302.923767	180.0
302.974792	112.0
303.070312	148.0
303.227753	180.0
303.25412	148.0
303.364197	144.0
303.525879	168.0
303.591766	160.0
303.703369	184.0
303.768646	176.0
303.879669	176.0
304.216736	132.0
304.379486	144.0
304.410736	164.0
304.959656	228.0
305.213409	192.0
305.585571	244.0
305.771088	208.0
305.870941	188.0
306.007965	168.0
306.133118	144.0
306.29187	176.0
306.35498	248.0
306.442078	184.0
306.550079	144.0
306.655518	172.0
306.705688	256.0
306.945374	176.0
307.006744	184.0
307.185394	156.0
307.31839	176.0
307.387482	144.0
307.770966	180.0
307.895203	200.0
308.176117	180.0
308.225037	164.0
308.267334	196.0
308.319397	240.0
308.419861	124.0
308.836823	172.0
308.869995	148.0
308.884979	140.0
309.036224	208.0
309.162201	140.0
309.291687	172.0
309.561279	172.0
309.649139	172.0
309.86261	264.0
309.939575	156.0
310.01535	128.0
310.041199	152.0
310.132782	124.0
310.18634	108.0
310.412781	248.0
310.51297	148.0
310.593933	184.0
310.743134	224.0
310.892212	96.0
310.929565	176.0
311.012177	132.0
311.04483	332.0
311.382294	120.0
311.609833	104.0
311.67215	124.0
311.743195	144.0
311.80014	192.0
311.86972	208.0
311.980713	288.0
312.017365	144.0
312.098236	176.0
312.128326	200.0
312.221313	108.0
312.319672	120.0
312.404053	364.0
312.455566	420.0
312.543335	124.0
312.617279	156.0
312.667023	140.0
312.688904	276.0
312.72113	168.0
312.775177	392.0
312.833527	332.0
312.865784	216.0
312.934387	244.0
312.984375	280.0
313.030212	280.0
313.053772	276.0
313.096588	256.0
313.123962	484.0
313.14975	296.0
313.177979	432.0
313.233734	468.0
313.276764	188.0
313.307556	512.0
313.399506	456.0
313.439178	440.0
313.500366	296.0
313.562531	136.0
313.671112	536.0
313.727631	256.0
313.756714	600.0
313.783813	536.0
313.872864	508.0
313.905548	484.0
313.944824	468.0
314.006836	928.0
314.015259	916.0
314.042786	1888.0
314.095612	228664.0
314.223877	276.0
314.33371	220.0
314.346161	232.0
314.423645	1416.0
314.481384	632.0
314.528961	672.0
314.631561	940.0
314.67923	14420.0
314.718994	1092.0
314.764404	464.0
314.792725	304.0
314.930176	136.0
314.955505	420.0
314.989227	492.0
315.018158	544.0
315.097229	134164.0
315.218567	124.0
315.268829	148.0
315.317932	208.0
315.409027	124.0
315.477783	152.0
315.519226	288.0
315.555908	268.0
315.627899	252.0
315.683105	208.0
315.739868	160.0
315.829285	284.0
316.032501	216.0
316.098328	14832.0
316.229462	200.0
316.279907	100.0
316.348389	124.0
316.415466	220.0
316.459717	204.0
316.491791	172.0
316.525177	144.0
316.570221	172.0
316.617584	196.0
316.664398	280.0
316.699219	184.0
316.73288	196.0
316.797119	232.0
316.854889	232.0
316.961212	340.0
317.00238	220.0
317.100098	864.0
317.166687	468.0
317.224487	340.0
317.260437	316.0
317.288116	360.0
317.329834	356.0
317.374481	260.0
317.401093	504.0
317.438171	204.0
317.468536	272.0
317.565094	168.0
317.634674	148.0
317.790619	132.0
317.858093	228.0
317.983246	144.0
318.062408	164.0
318.123108	236.0
318.217682	96.0
318.677368	104.0
318.945648	96.0
319.82608	108.0
319.872345	100.0
320.369995	96.0
320.399109	112.0
323.088379	368.0
324.100128	136.0
326.692963	100.0
327.080841	164.0
327.253601	112.0
327.532684	100.0
328.398163	100.0
328.514313	168.0
331.680054	112.0
344.015015	120.0
345.769226	164.0
348.846161	108.0
355.12735	184.0
366.686737	144.0
385.728455	144.0
394.820221	112.0
411.82135	148.0
432.892944	152.0
453.413177	160.0
453.749207	132.0
459.734711	132.0
466.104614	140.0
473.784515	160.0
541.616821	112.0
544.807739	108.0
582.042114	116.0
605.997131	132.0
613.697388	140.0
630.261047	96.0
634.28009	96.0
637.742798	160.0
641.790833	108.0
662.424438	140.0
693.426941	144.0
699.235596	144.0
706.813538	152.0
719.772766	160.0
740.73175	172.0
840.746094	144.0
863.661682	188.0
923.937195	180.0
926.699402	244.0
926.766052	100.0
933.795654	152.0
954.687012	152.0
996.603821	152.0
1029.901489	164.0
1033.481445	200.0
1043.467651	172.0
1058.727905	188.0
1068.685425	216.0
1084.147949	144.0
1099.457642	156.0
1135.865967	148.0
1191.920288	184.0
1212.962891	172.0
1225.165405	144.0
1227.925659	160.0
1287.808228	212.0
1294.974854	184.0
1307.668457	172.0
1332.849121	164.0
1340.096069	160.0
1342.537842	200.0
1353.725952	140.0
1353.806519	168.0
1361.550659	228.0
1370.56189	168.0
1382.753784	192.0
1383.412598	180.0
1392.599731	204.0
1393.253418	176.0
1410.878296	144.0
1413.091919	204.0
1417.704468	276.0
1422.654663	152.0
1423.127686	144.0
1424.885132	156.0
1442.285034	160.0
1450.300659	224.0
1461.053101	160.0
1462.171631	196.0
1466.253784	172.0
1466.901611	200.0
1467.442871	164.0
1468.075684	144.0
1472.051514	176.0
1478.80188	148.0
1482.493286	172.0
1482.876465	160.0
1484.578369	168.0
1487.509277	140.0
1492.372192	176.0
1493.58728	204.0
1493.879517	172.0
1497.250854	148.0
1518.620483	204.0
1536.488159	156.0
1552.805176	184.0
1554.736694	164.0
1561.090454	200.0
1564.103638	180.0
1569.247803	224.0
1570.343872	184.0
1572.29541	156.0
1576.256836	144.0
1586.165405	228.0
1586.545898	256.0
1591.496582	256.0
1595.755249	156.0
1596.932129	172.0
1599.175781	168.0
1605.023071	176.0
1605.549316	232.0
1605.884277	192.0
1611.008789	224.0
1613.486206	156.0
1614.469604	260.0
1614.629639	176.0
1619.383545	144.0
1622.276123	160.0
1629.111084	132.0
1629.209595	220.0
1634.009155	204.0
1636.359253	180.0
1637.132202	144.0
1639.170166	200.0
1640.653198	164.0
1640.878906	176.0
1642.879028	160.0
1647.779297	180.0
1653.148193	200.0
1659.571655	176.0
1663.425049	144.0
1674.393433	212.0
1680.498901	216.0
1681.616821	168.0
1683.829346	192.0
1703.782959	140.0
1704.859253	208.0
1705.344238	220.0
1705.763428	144.0
1707.629883	208.0
1708.337158	172.0
1711.868042	168.0
1720.492432	224.0
1727.483521	148.0
1733.146362	216.0
1736.122192	164.0
1738.90979	160.0
1744.549683	180.0
1755.565063	164.0
1756.440674	188.0
1758.710327	144.0
1761.42395	192.0
1771.72998	192.0
1774.898071	220.0
1779.56311	180.0
1784.705078	164.0
1785.344238	236.0
1787.270508	180.0
1789.450439	140.0
1792.162476	164.0
1793.384399	140.0
1794.04187	144.0
1799.192749	144.0
1802.557861	188.0
1810.450317	164.0
1820.533325	148.0
1824.53772	180.0
1824.592529	196.0
1824.866821	164.0
1828.499023	212.0
1829.997192	196.0
1835.143311	184.0
1841.799683	180.0
1843.422974	252.0
1844.260498	172.0
1847.689453	220.0
1848.724854	164.0
1856.932007	176.0
1857.909912	196.0
1860.304077	140.0
1861.070068	204.0
1861.600586	152.0
1863.593384	152.0
1865.91394	164.0
1867.762695	152.0
1869.535034	164.0
1870.318237	224.0
1872.298462	164.0
1873.263184	164.0
1875.391479	168.0
1876.572388	144.0
1877.012207	144.0
1879.763794	184.0
1885.212769	148.0
1885.869507	184.0
1889.311035	212.0
1899.003906	160.0
1907.599976	180.0
1908.738892	228.0
1911.322266	140.0
1912.810425	148.0
1912.949707	148.0
1917.200073	140.0
1920.050781	180.0
1922.345093	184.0
1922.61084	140.0
1922.97522	180.0
1924.536011	140.0
1924.710693	148.0
1925.077393	164.0
1925.295776	172.0
1926.5448	184.0
1929.280029	140.0
1930.801392	156.0
1934.528809	176.0
1934.625122	208.0
1936.096069	176.0
1937.331055	212.0
1937.401123	196.0
1939.074707	172.0
1940.031982	232.0
1940.284302	172.0
1942.44165	164.0
1943.643555	184.0
1945.50415	200.0
1949.228149	168.0
1952.023438	168.0
1956.316895	216.0
1956.968384	220.0
1957.390991	152.0
1962.05188	180.0
1964.671021	148.0
1965.032837	252.0
1969.888184	172.0
1970.400635	148.0
1974.546265	188.0
1977.058716	172.0
1980.839233	180.0
1981.485962	180.0
1990.381958	168.0
1990.781616	184.0
1995.846558	176.0
1998.336914	160.0
2000.695312	220.0
2003.375854	148.0
END IONS

BEGIN IONS
PEPMASS=308.11
CHARGE=1
MSLEVEL=2
SOURCE_INSTRUMENT=LC-ESI-qTof
FILENAME=Plate6_41_60_GD9_01_15776.mzXML
SEQ=*..*
IONMODE=Positive
ORGANISM=GNPS-SELLECKCHEM-FDA-PART2
NAME=Tolnaftate [M+H]
PI=Dorrestein
DATACOLLECTOR=Garg_Neha
SMILES=C1(N(C(OC2=CC=C3C(=C2)C=CC=C3)=S)C)=CC(=CC=C1)C
INCHI=N/A
INCHIAUX=N/A
PUBMED=N/A
SUBMITUSER=negarg
LIBRARYQUALITY=1
SPECTRUMID=CCMSLIB00000078410
USI=mzspec:GNPS:GNPS-SELLECKCHEM-FDA-PART2:accession:CCMSLIB00000078410
SCANS=2974
45.234623	156.0
45.517525	180.0
47.186958	172.0
47.639233	236.0
49.458698	208.0
50.641506	168.0
51.31369	184.0
53.827473	208.0
56.111744	188.0
56.885216	140.0
56.98584	156.0
58.069759	176.0
61.535702	184.0
62.007336	196.0
62.030079	184.0
63.529835	168.0
63.699699	224.0
63.971634	160.0
65.229034	140.0
65.264404	160.0
65.834862	172.0
66.21331	140.0
67.692078	184.0
67.857574	172.0
68.587509	244.0
69.761192	160.0
69.94252	220.0
70.155746	200.0
70.872772	164.0
71.02533	212.0
71.173027	144.0
73.047401	160.0
73.17675	220.0
73.515968	184.0
73.702103	180.0
73.909004	200.0
74.291084	176.0
75.13063	200.0
75.555634	168.0
76.217979	156.0
76.487556	144.0
77.712669	156.0
79.069321	200.0
80.160034	164.0
81.091164	160.0
81.365623	160.0
81.410515	168.0
83.95874	180.0
84.093758	172.0
84.972153	208.0
85.049225	160.0
85.291695	160.0
85.31559	200.0
85.359718	152.0
87.610489	148.0
87.716713	220.0
88.759987	160.0
89.462692	148.0
89.884888	156.0
90.311867	352.0
90.499222	176.0
90.764503	164.0
91.054382	868.0
91.625771	128.0
91.961151	152.0
92.0569	212.0
92.150215	152.0
93.065903	236.0
93.072685	180.0
93.078209	344.0
93.092659	160.0
93.758301	152.0
94.48629	204.0
95.088951	228.0
95.526146	140.0
96.6343	176.0
97.784264	204.0
99.17083	176.0
100.124519	144.0
100.994751	144.0
101.726158	160.0
101.973228	208.0
102.877678	176.0
103.052246	120.0
103.55307	188.0
103.954147	212.0
104.049774	140.0
104.712814	200.0
105.05619	136.0
106.080269	148.0
106.256203	196.0
107.049904	404.0
108.001091	152.0
108.050735	192.0
108.078957	260.0
108.297081	148.0
111.031685	336.0
111.535599	228.0
111.607086	172.0
111.630211	176.0
113.073257	144.0
113.321022	140.0
114.717346	200.0
114.747192	180.0
115.052284	264.0
115.218872	240.0
115.451866	164.0
115.745041	180.0
116.208031	244.0
117.207893	144.0
118.065735	204.0
118.25531	184.0
119.066025	200.0
119.566246	164.0
119.657677	224.0
119.916901	148.0
119.9496	180.0
119.988838	228.0
120.080261	13048.0
120.471161	152.0
121.015747	196.0
121.05954	148.0
121.083618	1944.0
121.638374	176.0
121.910728	144.0
122.089844	180.0
122.936981	168.0
123.026024	2656.0
123.394226	168.0
123.779236	144.0
124.028099	436.0
124.562157	172.0
125.019936	292.0
127.544197	212.0
127.87603	188.0
127.900795	152.0
129.073975	196.0
129.964188	160.0
130.561646	168.0
130.784607	168.0
130.896164	160.0
131.037399	148.0
132.080704	156.0
132.185944	204.0
132.86647	152.0
132.967422	212.0
133.049866	264.0
135.631516	168.0
136.000336	144.0
136.023026	248.0
136.146606	168.0
136.411484	184.0
136.548676	176.0
137.035599	120.0
137.959427	176.0
138.928986	148.0
139.166031	192.0
139.4832	160.0
140.031448	156.0
141.079147	168.0
147.26619	148.0
147.502991	252.0
147.604538	200.0
147.811829	144.0
147.959076	160.0
148.015121	244.0
148.075455	50180.0
148.155045	244.0
148.205704	148.0
148.501602	128.0
149.02739	4560.0
149.078506	3540.0
150.032593	572.0
150.081192	420.0
151.027328	208.0
152.050079	464.0
153.048492	124.0
153.857452	172.0
154.051422	184.0
154.453018	144.0
157.290802	212.0
158.358505	168.0
159.025589	620.0
160.030991	360.0
160.666168	172.0
161.022079	236.0
162.033691	164.0
162.759354	148.0
163.051498	144.0
163.082001	148.0
163.619888	104.0
163.725708	224.0
163.795929	196.0
163.847977	164.0
163.877853	160.0
164.052795	40712.0
164.129623	96.0
165.020966	776.0
165.05513	3736.0
166.048035	1508.0
166.342499	116.0
167.053268	184.0
179.069458	104.0
180.003281	144.0
180.047867	12656.0
180.318527	160.0
180.349335	176.0
181.04805	1664.0
182.043015	476.0
203.871582	172.0
214.4086	176.0
218.890869	140.0
224.211578	176.0
252.354935	196.0
280.116333	524.0
306.848389	144.0
307.215179	184.0
307.657806	148.0
307.710297	120.0
307.804443	148.0
308.111023	21136.0
308.221954	124.0
308.439209	112.0
308.886505	220.0
309.113861	3436.0
309.20575	140.0
310.109375	968.0
311.108002	260.0
322.459564	140.0
1391.650757	192.0
1416.448486	172.0
1423.708984	156.0
1484.783936	224.0
1496.926392	196.0
1521.654785	148.0
1521.887695	156.0
1557.210083	184.0
1564.326416	180.0
1601.584473	144.0
1617.682983	168.0
1623.965332	196.0
1640.917358	212.0
1644.418457	156.0
1697.439331	180.0
1712.775635	148.0
1717.746338	176.0
1728.47876	212.0
1764.219238	156.0
1771.709473	172.0
1781.550171	176.0
1788.319458	156.0
1803.76416	152.0
1818.69812	160.0
1829.851562	164.0
1844.268799	232.0
1851.019165	188.0
1857.369995	160.0
1860.090088	160.0
1865.59668	168.0
1865.889038	152.0
1892.974487	176.0
1902.911621	212.0
1915.478394	172.0
1952.609131	140.0
1986.768066	204.0
1997.606323	176.0
END IONS

BEGIN IONS
PEPMASS=353.127
CHARGE=1
MSLEVEL=2
SOURCE_INSTRUMENT=LC-ESI-qTof
FILENAME=Plate7_61_80_GD5_01_15771.mzXML
SEQ=*..*
IONMODE=Positive
ORGANISM=GNPS-SELLECKCHEM-FDA-PART2
NAME=Itraconazole (Sporanox) [M+2H]
PI=Dorrestein
DATACOLLECTOR=Garg_Neha
SMILES=C1=CC(=CC=C1N2CCN(CC2)C3=CC=C(C=C3)N4C(N(N=C4)C(CC)C)=O)OC[C@@H]5O[C@@](OC5)(CN6C=NC=N6)C7=CC=C(C=C7Cl)Cl
INCHI=N/A
INCHIAUX=N/A
PUBMED=N/A
SUBMITUSER=negarg
LIBRARYQUALITY=1
SPECTRUMID=CCMSLIB00000078480
USI=mzspec:GNPS:GNPS-SELLECKCHEM-FDA-PART2:accession:CCMSLIB00000078480
SCANS=2312
45.026829	140.0
45.149788	168.0
45.84927	220.0
45.962547	164.0
46.081371	208.0
46.131378	148.0
46.193584	156.0
46.220646	232.0
46.563633	216.0
47.137188	176.0
47.216476	216.0
47.805035	216.0
47.920704	208.0
48.077908	164.0
48.383392	184.0
48.450623	184.0
48.799625	160.0
49.507114	144.0
49.544933	184.0
49.650063	180.0
51.487167	140.0
51.906479	168.0
52.024647	112.0
52.880383	204.0
52.941784	104.0
53.234135	184.0
53.933483	240.0
53.981728	228.0
54.416927	196.0
55.320694	264.0
55.473282	216.0
55.862362	220.0
56.366314	148.0
57.723766	232.0
57.834209	172.0
58.251217	140.0
58.880295	148.0
58.930706	204.0
59.180023	144.0
61.681725	132.0
62.032475	140.0
62.148533	184.0
63.235928	168.0
64.478111	176.0
64.892715	144.0
64.977722	152.0
65.006607	172.0
65.683968	220.0
65.763039	156.0
65.973038	184.0
66.312973	144.0
66.381065	140.0
67.432777	140.0
68.901886	140.0
69.072166	148.0
72.090248	160.0
72.149414	192.0
72.162941	156.0
72.448967	160.0
72.789886	192.0
75.442322	184.0
75.528786	204.0
75.54435	148.0
75.75209	172.0
77.042931	224.0
77.347214	148.0
77.522362	168.0
78.934204	212.0
79.625366	144.0
81.077644	192.0
81.280289	156.0
82.124054	172.0
82.845444	116.0
83.113655	140.0
83.155396	140.0
83.418777	152.0
84.358208	160.0
84.589943	164.0
84.844589	184.0
85.127159	180.0
85.358704	144.0
85.627388	212.0
85.970306	172.0
86.524841	172.0
87.045868	184.0
87.889114	148.0
88.048149	168.0
89.279106	196.0
89.343056	172.0
89.36187	184.0
89.414566	144.0
90.076393	148.0
90.507607	236.0
91.013885	272.0
91.034775	156.0
91.054855	364.0
91.350296	160.0
92.316734	156.0
92.338364	144.0
92.351753	160.0
93.062744	236.0
93.788025	164.0
94.036049	384.0
94.066269	212.0
94.550949	208.0
94.618698	196.0
94.816284	164.0
94.913216	160.0
95.052879	148.0
95.478325	244.0
96.052917	176.0
96.746658	168.0
96.774071	144.0
96.860245	180.0
97.045937	192.0
97.600143	216.0
98.1791	192.0
98.394188	144.0
98.520584	156.0
98.951729	184.0
99.779076	148.0
99.972023	140.0
100.520042	216.0
101.019547	164.0
102.045189	288.0
102.388481	176.0
102.96328	164.0
103.053238	296.0
103.399979	204.0
103.926872	144.0
103.941078	196.0
104.064896	172.0
105.057098	388.0
105.07769	324.0
105.589188	184.0
105.744682	192.0
106.06356	320.0
106.404755	184.0
106.421181	188.0
106.957291	176.0
107.050102	372.0
107.906738	148.0
107.956367	204.0
108.048058	560.0
108.556931	232.0
109.028183	140.0
109.096779	148.0
109.196587	164.0
109.269402	148.0
109.542122	148.0
110.572655	164.0
111.01358	144.0
111.912956	152.0
112.223854	124.0
112.363998	144.0
112.442078	164.0
113.352669	188.0
113.487114	140.0
113.601639	164.0
114.769279	196.0
115.054474	504.0
115.506096	184.0
115.553162	188.0
116.059158	268.0
116.195915	144.0
116.382652	220.0
116.556641	216.0
116.932991	152.0
117.019096	156.0
117.059448	448.0
117.294853	164.0
117.475998	148.0
118.064911	612.0
118.275543	144.0
118.470444	212.0
118.577919	228.0
118.594322	188.0
119.071976	2604.0
119.353806	148.0
119.49736	184.0
119.99395	184.0
120.045723	576.0
120.078926	1728.0
120.832634	140.0
121.003006	128.0
121.05291	1432.0
121.084213	236.0
121.55352	736.0
121.795029	140.0
122.058098	1268.0
122.21273	180.0
122.301422	228.0
122.34919	152.0
122.547417	156.0
122.834015	140.0
123.017967	112.0
123.463516	196.0
123.60067	196.0
124.26226	144.0
125.072113	160.0
125.584602	228.0
127.052063	168.0
128.047821	516.0
128.061813	616.0
128.340225	192.0
129.06749	512.0
130.065521	436.0
130.794434	152.0
131.048584	512.0
131.070297	1356.0
131.293411	160.0
131.667709	176.0
131.770493	160.0
132.057404	904.0
132.07959	1512.0
132.113434	232.0
132.195038	144.0
132.424744	156.0
132.498047	192.0
132.582077	368.0
133.062469	648.0
133.083191	428.0
133.445953	184.0
133.581635	184.0
134.058731	932.0
134.094116	204.0
134.279572	148.0
135.067474	772.0
135.412094	148.0
135.479263	228.0
135.520966	208.0
135.571487	396.0
136.073547	1240.0
136.105499	148.0
136.203049	144.0
136.674988	196.0
137.04657	280.0
137.077347	552.0
137.112793	140.0
138.020905	148.0
138.189316	156.0
138.34613	168.0
139.051682	152.0
139.074341	220.0
139.552048	220.0
140.087616	336.0
140.186768	144.0
140.590881	176.0
141.008911	144.0
141.576721	196.0
141.616989	208.0
141.868378	136.0
142.046021	188.0
142.067383	164.0
143.070999	400.0
143.094086	200.0
143.73764	164.0
143.856979	196.0
143.993088	152.0
144.079697	4680.0
144.134872	104.0
144.847	172.0
145.06517	812.0
145.086975	1376.0
145.200333	116.0
145.588135	208.0
146.056381	1848.0
146.094864	4636.0
146.564056	220.0
146.579895	168.0
147.062134	324.0
147.10051	832.0
147.143692	196.0
147.565048	192.0
148.03569	156.0
148.075912	3556.0
148.109024	156.0
148.306366	136.0
148.651672	180.0
149.05722	180.0
149.082321	644.0
149.11554	176.0
149.195755	180.0
149.237091	140.0
149.421936	184.0
149.492508	160.0
149.567947	256.0
150.008865	180.0
150.078049	296.0
150.123459	184.0
150.301544	204.0
150.413803	152.0
150.574951	184.0
151.019302	288.0
151.056488	160.0
151.090729	172.0
151.688278	148.0
152.968124	172.0
153.011826	128.0
153.059219	232.0
153.591843	480.0
153.929688	220.0
154.065491	328.0
154.085983	444.0
154.577164	248.0
155.063278	240.0
156.079239	492.0
156.304474	140.0
156.506088	152.0
157.066116	332.0
157.082764	520.0
157.209061	152.0
157.513672	148.0
157.54364	172.0
158.054779	500.0
158.072418	444.0
158.094666	752.0
158.299667	168.0
158.617203	156.0
158.938232	148.0
158.97551	8108.0
159.068497	512.0
159.103378	592.0
159.128983	148.0
159.309814	152.0
159.584732	332.0
159.978256	1080.0
160.041702	148.0
160.076187	1936.0
160.110031	284.0
160.578079	1068.0
160.74791	228.0
160.830795	144.0
160.893158	108.0
160.97348	5064.0
161.082199	2580.0
161.586624	4500.0
161.621307	320.0
161.976791	260.0
162.022751	148.0
162.063553	168.0
162.088104	1800.0
162.163773	176.0
162.589203	360.0
162.969376	444.0
163.026688	252.0
163.093826	436.0
163.149796	120.0
163.397919	156.0
163.810349	188.0
164.066132	328.0
164.09874	176.0
164.557602	184.0
165.01239	152.0
165.079468	152.0
165.575348	184.0
165.606094	160.0
166.005905	248.0
166.077713	192.0
166.573929	584.0
166.627075	164.0
167.079346	376.0
167.584824	2296.0
168.085709	348.0
168.125732	152.0
168.218643	216.0
168.342575	144.0
168.435562	216.0
168.478973	104.0
168.521606	252.0
168.575287	16772.0
168.744522	116.0
168.794464	304.0
169.078705	12000.0
169.178177	168.0
169.215469	132.0
169.353043	172.0
169.581345	3040.0
169.960464	184.0
170.053284	292.0
170.085754	1372.0
170.194962	132.0
170.498016	140.0
170.590256	468.0
170.642059	212.0
170.753555	112.0
170.790405	140.0
170.971344	144.0
171.003403	120.0
171.061783	140.0
171.10556	444.0
171.966766	108.0
172.024384	148.0
172.075455	1796.0
172.110397	1032.0
172.157547	204.0
172.669785	164.0
172.879074	300.0
172.952911	512.0
172.989014	160.0
173.082733	1848.0
173.11348	248.0
173.214218	164.0
173.585434	984.0
173.890717	140.0
173.936783	156.0
173.963684	120.0
174.001968	208.0
174.090088	7040.0
174.183655	128.0
174.321426	168.0
174.480286	168.0
174.594009	44148.0
174.642334	116.0
174.75412	204.0
174.778976	176.0
174.835861	156.0
174.859344	104.0
174.882217	224.0
174.952927	320.0
175.030975	112.0
175.095123	11184.0
175.188339	140.0
175.289368	128.0
175.335876	176.0
175.380966	96.0
175.583023	1388.0
175.780304	140.0
176.068939	1736.0
176.090347	520.0
176.532272	104.0
176.567154	180.0
176.586304	244.0
176.853882	112.0
176.910141	120.0
176.930481	216.0
176.984848	100.0
177.075531	1796.0
177.103989	228.0
177.420212	140.0
177.581665	580.0
177.697495	168.0
178.051743	180.0
178.081833	1116.0
178.328064	172.0
178.50618	160.0
178.591293	192.0
179.583145	564.0
179.694183	236.0
179.806259	164.0
180.092041	324.0
180.452713	140.0
180.490143	212.0
180.577362	560.0
180.746933	140.0
181.075958	372.0
181.580597	148.0
182.101471	376.0
182.366257	164.0
182.509262	192.0
182.529785	184.0
182.591202	5536.0
182.627594	160.0
182.71637	144.0
183.025894	156.0
183.090881	1020.0
183.262085	152.0
183.595581	380.0
184.034348	156.0
184.072159	144.0
184.098999	336.0
184.91716	164.0
185.048279	256.0
185.077423	332.0
185.641708	176.0
185.902145	232.0
185.961945	120.0
186.002563	172.0
186.089722	432.0
186.233368	204.0
186.268677	216.0
186.461945	96.0
186.970108	4340.0
187.059296	1192.0
187.093765	284.0
187.5849	448.0
187.973618	556.0
188.069778	2564.0
188.106201	1180.0
188.15593	176.0
188.352554	196.0
188.591385	17236.0
188.632263	212.0
188.803543	156.0
188.898254	108.0
188.966873	2260.0
189.039948	224.0
189.085373	3196.0
189.193924	120.0
189.338028	100.0
189.35939	100.0
189.412018	108.0
189.464233	140.0
189.486816	144.0
189.5905	576.0
189.809845	156.0
189.851578	200.0
190.038986	160.0
190.080658	600.0
190.25032	148.0
190.442535	180.0
190.535172	200.0
190.737411	152.0
190.880844	116.0
190.96347	388.0
190.989517	260.0
191.090073	564.0
191.136337	132.0
191.950394	140.0
192.100861	2996.0
192.16861	224.0
192.544037	176.0
192.602051	180.0
193.016602	148.0
193.048248	432.0
193.108231	328.0
193.135529	228.0
194.016144	224.0
195.536057	160.0
196.109344	160.0
196.371429	156.0
196.606339	2596.0
196.991104	176.0
197.109314	3008.0
197.278946	200.0
197.603348	1128.0
198.040085	196.0
198.101059	176.0
200.060654	144.0
200.105774	2172.0
200.295639	200.0
200.996628	164.0
201.076065	1576.0
201.110092	204.0
201.754608	176.0
201.890335	176.0
201.979218	104.0
202.048737	184.0
202.081696	300.0
202.114044	144.0
202.368561	156.0
202.620941	204.0
202.750977	172.0
202.997589	324.0
203.091904	11540.0
203.258606	148.0
203.613007	1812.0
204.034149	168.0
204.062439	180.0
204.095886	1248.0
204.295654	148.0
205.107437	6900.0
205.177292	112.0
206.111237	932.0
206.602478	140.0
206.97403	228.0
207.116119	268.0
207.253555	164.0
207.781464	136.0
208.48175	216.0
208.821014	152.0
208.875656	212.0
209.112854	284.0
209.644409	184.0
210.065369	164.0
210.11441	164.0
210.177887	212.0
210.463806	152.0
210.621735	7776.0
210.662933	192.0
211.035599	144.0
211.123169	3280.0
211.623123	664.0
211.860626	168.0
213.077072	136.0
214.583847	144.0
214.960129	232.0
215.091507	5316.0
216.023132	176.0
216.092865	796.0
216.622589	8984.0
216.74292	164.0
217.069275	100.0
217.121277	3072.0
217.291199	212.0
217.378799	140.0
217.500565	164.0
217.622818	168.0
218.114182	628.0
219.120087	176.0
219.229263	100.0
219.623535	148.0
220.028015	228.0
220.121902	184.0
220.26265	168.0
220.739044	128.0
221.028381	152.0
221.134918	208.0
221.667999	164.0
222.08046	128.0
222.322067	108.0
222.920288	164.0
223.07782	156.0
223.50795	148.0
224.051041	180.0
225.094925	164.0
225.32193	184.0
225.584915	208.0
225.628326	3088.0
225.996201	124.0
226.131317	692.0
226.637726	348.0
227.09227	192.0
228.027863	224.0
228.085571	160.0
228.554138	152.0
228.986328	356.0
229.106827	1228.0
230.050095	304.0
230.104675	784.0
230.368439	264.0
230.559525	184.0
231.045288	216.0
231.118683	772.0
231.988205	168.0
232.045807	216.0
232.118317	140.0
232.990921	148.0
233.100464	132.0
236.093765	164.0
236.389465	172.0
237.286942	168.0
237.796173	140.0
237.823792	172.0
237.995712	148.0
238.147705	196.0
238.275208	140.0
238.43808	244.0
239.99884	164.0
240.211639	164.0
241.713196	160.0
242.101883	1044.0
242.347977	216.0
242.509125	168.0
243.111664	492.0
243.635559	148.0
243.682159	200.0
244.006851	164.0
244.119705	668.0
244.633835	228.0
244.963928	140.0
245.069855	176.0
245.134613	368.0
245.453247	148.0
245.627899	160.0
245.99826	136.0
246.131775	220.0
246.505234	188.0
247.129974	156.0
250.147812	132.0
250.313522	152.0
251.208649	160.0
251.502106	152.0
252.109451	308.0
252.563797	200.0
252.61441	180.0
253.130859	204.0
253.29184	228.0
254.139374	120.0
254.719315	248.0
254.790298	104.0
255.024353	160.0
255.324951	132.0
255.784576	152.0
255.813339	116.0
256.003845	66420.0
256.078583	132.0
256.237518	108.0
256.285614	104.0
256.614838	204.0
256.743042	304.0
256.895691	236.0
257.005951	7340.0
257.44574	184.0
257.83548	172.0
257.963013	176.0
258.000153	33908.0
258.064636	352.0
258.297699	196.0
258.394196	116.0
258.429108	108.0
258.531525	100.0
258.620392	100.0
258.696869	180.0
258.741608	164.0
258.801575	180.0
258.891327	152.0
259.000122	4388.0
259.155426	948.0
259.738403	100.0
259.819275	176.0
259.997955	4372.0
260.057373	196.0
260.153656	220.0
260.997955	752.0
261.118561	172.0
262.01123	152.0
262.139099	140.0
264.164795	112.0
265.134888	148.0
265.306671	172.0
265.601776	172.0
266.020813	120.0
266.117798	176.0
267.096008	168.0
267.997803	172.0
268.123657	160.0
268.407104	196.0
268.992432	156.0
269.136627	172.0
270.134705	184.0
271.013885	140.0
271.043182	188.0
271.15506	556.0
272.109192	152.0
275.099152	292.0
276.010406	284.0
276.569519	204.0
278.11084	144.0
279.086365	648.0
279.656433	196.0
280.091614	96.0
280.141541	468.0
280.855957	180.0
281.099274	956.0
281.148041	224.0
281.643707	176.0
282.017944	168.0
282.140076	104.0
283.077484	168.0
283.100922	204.0
283.565918	172.0
283.591095	176.0
284.010559	160.0
284.089172	192.0
285.173431	292.0
286.012878	148.0
286.38327	144.0
288.009094	184.0
288.536255	140.0
288.627563	152.0
289.808868	148.0
290.144409	192.0
290.354645	144.0
290.577148	484.0
291.580292	132.0
292.158295	240.0
293.103516	268.0
293.130798	164.0
293.82431	140.0
294.110901	120.0
294.159576	180.0
295.129395	236.0
295.631897	256.0
296.033813	208.0
296.116211	120.0
296.141388	144.0
297.033752	104.0
299.150055	144.0
300.187561	132.0
300.294067	220.0
300.882355	116.0
300.970459	188.0
301.007263	304.0
302.003784	144.0
302.111023	184.0
303.004242	180.0
303.081879	200.0
304.006348	140.0
304.197235	148.0
304.575745	168.0
305.636108	140.0
305.949341	236.0
306.137543	152.0
307.130615	112.0
307.185638	156.0
308.144745	304.0
308.178009	144.0
308.803772	152.0
309.157135	248.0
309.608734	144.0
310.165497	224.0
311.443085	152.0
312.030457	168.0
312.114349	172.0
312.51535	220.0
312.670166	140.0
316.146423	156.0
317.173553	184.0
318.607361	656.0
319.126038	148.0
319.180786	120.0
319.613068	148.0
320.118103	120.0
320.144257	204.0
320.610809	168.0
321.113251	172.0
321.15509	2048.0
321.259491	188.0
322.130798	516.0
322.164307	1732.0
322.666626	208.0
322.727386	168.0
322.96344	216.0
323.159119	308.0
323.299744	184.0
323.328369	184.0
323.775116	212.0
323.987244	144.0
324.025635	128.0
324.082001	184.0
324.130554	176.0
324.398682	152.0
324.437073	192.0
324.576385	140.0
324.625244	156.0
324.678986	224.0
324.772369	268.0
324.82724	416.0
324.902985	276.0
324.939941	132.0
325.011475	120.0
325.095825	67060.0
325.193634	188.0
325.281067	172.0
325.318817	184.0
325.365265	144.0
325.422607	216.0
325.488861	228.0
325.520752	128.0
325.596832	27736.0
325.864502	232.0
325.936523	184.0
326.094391	49900.0
326.200684	320.0
326.242798	148.0
326.272705	196.0
326.297119	168.0
326.358612	196.0
326.45932	320.0
326.505493	144.0
326.594635	14776.0
326.714355	168.0
326.751434	256.0
326.836945	144.0
326.94043	132.0
327.092621	9264.0
327.167206	280.0
327.237946	132.0
327.27179	96.0
327.541565	116.0
327.594604	2336.0
327.699371	220.0
327.757996	164.0
327.893188	124.0
327.944977	160.0
328.092316	588.0
328.137634	108.0
328.187286	100.0
328.240784	196.0
328.329041	112.0
328.411865	164.0
328.531799	156.0
328.602448	164.0
328.839386	172.0
328.948181	120.0
329.032135	180.0
329.176544	196.0
329.216034	104.0
329.265747	184.0
329.354156	124.0
329.670807	108.0
329.84552	148.0
329.890076	128.0
330.053284	188.0
330.867218	100.0
331.097809	196.0
331.311523	248.0
331.612305	164.0
332.114532	132.0
332.127075	144.0
332.303314	136.0
332.569855	216.0
332.603668	100.0
333.115448	172.0
334.077881	192.0
334.166748	288.0
334.45639	228.0
335.053558	152.0
335.14856	400.0
335.642151	172.0
335.680481	188.0
336.031586	140.0
336.144501	4224.0
336.31897	228.0
337.078613	148.0
337.151642	2756.0
337.558105	192.0
338.093475	184.0
338.159515	3096.0
338.524048	192.0
339.161682	1800.0
339.24173	176.0
339.619415	216.0
340.672302	136.0
340.926483	160.0
341.466919	148.0
341.720276	128.0
342.895447	148.0
342.958099	144.0
343.621918	264.0
344.079956	148.0
344.30481	152.0
344.50235	176.0
345.099304	168.0
345.151062	144.0
345.467712	144.0
345.598846	148.0
346.112152	308.0
346.160706	128.0
346.316833	192.0
346.402039	176.0
346.596863	116.0
346.6651	164.0
346.943085	220.0
347.113647	140.0
347.171356	464.0
347.983795	144.0
348.179749	3520.0
348.78064	148.0
349.183441	484.0
349.472351	172.0
349.693298	208.0
350.158569	212.0
350.206451	172.0
350.453949	96.0
350.541046	168.0
350.637939	144.0
350.689484	164.0
350.802856	132.0
350.829468	148.0
350.950531	96.0
351.164642	124.0
351.210938	148.0
351.442871	104.0
351.508057	172.0
351.580933	236.0
351.721863	180.0
351.771393	456.0
351.811005	124.0
351.866608	172.0
351.955353	164.0
352.007629	144.0
352.05484	144.0
352.17215	204.0
352.213043	276.0
352.308228	292.0
352.389404	240.0
352.508636	200.0
352.561157	148.0
352.625885	444.0
352.680145	308.0
352.705383	324.0
352.755646	188.0
352.796204	340.0
352.832184	316.0
352.859528	364.0
352.925842	444.0
352.965454	360.0
353.013245	216.0
353.060791	432.0
353.079163	392.0
353.128357	168592.0
353.314758	156.0
353.378876	304.0
353.405151	304.0
353.454163	164.0
353.497864	360.0
353.54718	344.0
353.628784	89128.0
353.74939	628.0
353.829956	176.0
353.887451	324.0
353.920868	256.0
353.961456	308.0
353.979919	248.0
354.025238	384.0
354.050201	612.0
354.126831	118892.0
354.267822	272.0
354.32666	212.0
354.37973	508.0
354.469727	292.0
354.518524	212.0
354.627716	62092.0
354.721191	236.0
354.749298	200.0
354.760315	172.0
354.77359	224.0
354.850067	144.0
354.860596	256.0
354.895081	272.0
354.937042	152.0
354.962708	324.0
354.988373	248.0
355.021393	220.0
355.063324	200.0
355.125366	29776.0
355.220917	328.0
355.27829	224.0
355.352722	216.0
355.372131	112.0
355.400421	256.0
355.441528	236.0
355.475281	264.0
355.555084	184.0
355.625275	6792.0
355.687286	164.0
355.786652	356.0
355.823944	152.0
355.875946	100.0
355.905457	128.0
355.952484	200.0
355.972168	140.0
355.984009	236.0
356.077057	192.0
356.092102	280.0
356.122894	1588.0
356.201813	168.0
356.208374	148.0
356.250244	188.0
356.291534	244.0
356.326538	232.0
356.362366	232.0
356.447754	280.0
356.493256	188.0
356.530426	236.0
356.628357	288.0
356.670959	224.0
356.726227	192.0
356.821655	256.0
356.889954	184.0
356.941986	228.0
356.975647	216.0
357.059174	108.0
357.156464	348.0
357.321716	168.0
357.426727	196.0
357.498016	116.0
357.572296	276.0
357.633209	152.0
357.749542	120.0
357.827026	96.0
357.926819	104.0
358.053802	128.0
358.084351	120.0
358.159393	344.0
358.483002	152.0
358.540222	104.0
358.731232	116.0
358.796967	112.0
359.167084	372.0
359.262329	120.0
359.464752	156.0
359.622711	112.0
360.708923	112.0
362.183411	184.0
362.825012	168.0
363.185547	204.0
363.747864	112.0
364.173737	1448.0
364.449463	148.0
365.177673	468.0
365.22052	160.0
365.594818	192.0
366.14566	108.0
367.549713	104.0
367.711395	136.0
368.308716	196.0
368.408051	164.0
369.159546	264.0
369.308075	116.0
369.34256	164.0
370.833496	104.0
372.704346	116.0
373.273926	100.0
373.52829	140.0
373.64621	208.0
373.993988	100.0
374.156952	404.0
374.640228	120.0
375.141113	120.0
375.320496	252.0
375.649048	256.0
376.176483	7136.0
376.536102	204.0
377.179626	1892.0
377.220551	492.0
377.343719	176.0
378.058258	276.0
378.181976	416.0
379.169281	148.0
379.201843	212.0
379.409576	116.0
379.554626	140.0
379.585663	164.0
380.401886	160.0
381.223846	160.0
382.825836	188.0
385.065216	152.0
390.23407	308.0
391.670349	100.0
391.993561	148.0
392.20697	3232.0
392.375916	312.0
393.212036	1400.0
393.348907	112.0
393.516144	156.0
393.80838	156.0
394.18808	6412.0
394.220703	4956.0
394.294342	192.0
394.515686	144.0
394.561615	156.0
394.659515	204.0
394.801514	224.0
394.993347	160.0
395.191071	2140.0
395.213745	1448.0
395.314667	196.0
395.62738	140.0
396.142181	152.0
396.19104	452.0
396.224976	316.0
397.238251	144.0
398.824677	144.0
399.618164	152.0
403.232574	160.0
404.244049	7180.0
404.319305	212.0
405.245728	1844.0
406.087708	156.0
406.252472	364.0
407.215302	140.0
408.75531	172.0
411.48645	104.0
414.231384	240.0
415.235596	132.0
417.229126	180.0
418.971008	144.0
420.238647	2392.0
421.059235	132.0
421.241455	1084.0
422.199738	160.0
422.245758	176.0
422.805237	156.0
424.204865	180.0
426.159607	148.0
429.219482	128.0
430.23291	116.0
430.658264	172.0
431.096191	156.0
432.072998	172.0
432.239044	23680.0
432.404602	204.0
432.794067	124.0
432.882263	96.0
433.153534	180.0
433.241699	7340.0
433.410461	172.0
433.849274	148.0
434.097504	168.0
434.242371	1224.0
435.109924	220.0
435.238647	208.0
435.994049	100.0
436.119507	128.0
436.238983	156.0
438.425171	148.0
441.819916	144.0
447.101807	160.0
448.106812	148.0
448.24826	152.0
449.00708	148.0
449.150482	204.0
449.219147	132.0
449.981873	152.0
450.148499	156.0
450.249786	20160.0
450.358765	176.0
450.38797	320.0
451.047333	152.0
451.099945	116.0
451.155212	172.0
451.253235	5204.0
451.750702	120.0
452.257751	724.0
453.253387	272.0
453.767853	116.0
454.062897	168.0
454.287445	232.0
457.332764	160.0
463.221222	160.0
464.23703	148.0
473.316772	144.0
494.608673	156.0
503.17981	152.0
511.657959	148.0
544.295959	136.0
550.137512	148.0
565.883057	156.0
580.14856	204.0
583.13324	148.0
636.221191	400.0
638.204224	236.0
679.173523	108.0
705.32605	140.0
707.240234	136.0
731.663452	140.0
733.781738	152.0
834.463989	144.0
856.839844	144.0
980.088745	192.0
1025.24292	144.0
1138.91687	188.0
1203.291016	168.0
1228.553711	160.0
1293.982422	160.0
1368.174438	160.0
1393.52063	204.0
1402.055908	144.0
1427.487061	176.0
1446.931763	172.0
1471.856079	140.0
1509.440552	148.0
1530.866455	172.0
1543.821045	168.0
1552.02771	200.0
1578.106323	164.0
1583.550903	168.0
1589.322266	156.0
1615.567017	140.0
1625.470215	140.0
1643.309326	212.0
1667.34375	180.0
1669.376221	156.0
1670.474243	204.0
1674.527954	172.0
1676.344727	172.0
1690.505127	176.0
1720.094116	168.0
1750.00647	176.0
1750.123047	200.0
1757.68335	172.0
1778.027466	152.0
1785.91687	140.0
1795.746338	208.0
1803.27771	184.0
1822.311035	144.0
1835.385132	168.0
1836.553467	200.0
1841.521118	160.0
1849.986694	172.0
1850.123657	140.0
1854.646729	160.0
1856.524414	152.0
1860.299683	152.0
1864.860962	208.0
1877.249878	168.0
1879.208008	152.0
1879.397827	188.0
1895.828003	168.0
1896.261353	188.0
1901.022583	192.0
1901.239502	156.0
1914.358154	160.0
1923.050415	176.0
1925.38147	212.0
1933.103149	156.0
1935.017944	212.0
1940.502686	164.0
1946.434204	144.0
1947.681274	160.0
1948.471924	172.0
1952.075806	156.0
1959.777954	204.0
1974.794556	180.0
1978.52002	168.0
1984.970337	228.0
1985.404907	188.0
1985.937012	204.0
1987.037109	164.0
1988.856323	168.0
1990.108032	152.0
1991.990845	164.0
1998.952637	236.0
1999.068237	176.0
END IONS

BEGIN IONS
PEPMASS=180.102
CHARGE=1
MSLEVEL=2
SOURCE_INSTRUMENT=LC-ESI-qTof
FILENAME=Plate8_41_60_GC11_01_15764.mzXML
SEQ=*..*
IONMODE=Positive
ORGANISM=GNPS-SELLECKCHEM-FDA-PART2
NAME=Phenacetin [M+H]
PI=Dorrestein
DATACOLLECTOR=Garg_Neha
SMILES=C1=C(C=CC(=C1)NC(C)=O)OCC
INCHI=N/A
INCHIAUX=N/A
PUBMED=N/A
SUBMITUSER=negarg
LIBRARYQUALITY=1
SPECTRUMID=CCMSLIB00000078517
USI=mzspec:GNPS:GNPS-SELLECKCHEM-FDA-PART2:accession:CCMSLIB00000078517
SCANS=1120
45.283855	204.0
45.372295	160.0
45.562874	172.0
45.584373	224.0
45.991108	148.0
46.542118	188.0
47.037689	160.0
47.688335	204.0
48.131401	148.0
48.339294	180.0
48.790085	232.0
49.685314	176.0
49.990223	148.0
50.305946	184.0
51.267628	164.0
52.087231	164.0
52.216839	252.0
53.755436	212.0
53.815285	172.0
54.700798	180.0
55.635101	140.0
56.208134	176.0
56.490517	240.0
56.706139	204.0
57.165703	220.0
57.474617	164.0
57.640717	160.0
57.801006	160.0
57.823708	148.0
57.849438	148.0
58.310562	232.0
60.165638	184.0
60.371143	284.0
60.471706	164.0
60.572353	200.0
61.7491	192.0
61.969826	172.0
63.837238	152.0
64.168442	180.0
64.399834	144.0
64.596443	140.0
64.774132	148.0
66.265968	172.0
66.582283	164.0
67.411415	208.0
67.710892	176.0
67.732185	208.0
68.949768	140.0
69.615753	256.0
69.737038	164.0
69.83181	140.0
70.617393	172.0
71.078102	156.0
71.299774	168.0
71.617767	164.0
72.759232	184.0
73.945663	160.0
74.621544	212.0
75.771019	140.0
75.973854	152.0
76.326439	160.0
77.168625	208.0
77.77652	140.0
78.051491	100.0
78.080482	152.0
78.150848	160.0
79.229614	144.0
80.817787	156.0
81.116875	160.0
81.328545	232.0
81.447502	144.0
81.574638	160.0
81.783295	180.0
81.932762	152.0
82.490402	216.0
84.783844	168.0
85.016754	168.0
85.161797	168.0
85.654755	240.0
85.979263	140.0
86.779381	152.0
86.963898	212.0
87.510445	148.0
88.320374	192.0
88.968758	188.0
89.188431	132.0
89.229904	224.0
89.323929	204.0
90.401268	164.0
90.414513	232.0
90.47509	200.0
90.77256	164.0
92.04879	604.0
92.076172	160.0
92.297844	160.0
92.571487	168.0
92.669174	184.0
93.033966	1784.0
93.054451	460.0
93.067963	180.0
93.500221	280.0
93.700928	172.0
94.073135	184.0
94.256615	148.0
95.264908	176.0
95.33989	200.0
96.709045	156.0
97.973663	172.0
98.908806	96.0
99.494507	176.0
100.443756	264.0
100.465698	168.0
100.917068	168.0
101.005058	188.0
101.203186	152.0
102.216866	160.0
103.033463	184.0
104.027824	196.0
104.102943	172.0
104.853645	164.0
104.984123	136.0
105.053726	160.0
105.335182	220.0
105.566139	208.0
107.046097	168.0
107.867928	96.0
107.997147	188.0
108.045547	728.0
108.794945	144.0
108.830238	192.0
108.986023	168.0
109.050896	1688.0
109.34787	172.0
109.443626	160.0
109.975235	160.0
110.016502	140.0
110.059731	22928.0
110.226158	108.0
111.0439	616.0
111.062843	1132.0
111.093735	188.0
111.36763	172.0
111.670303	356.0
111.69133	240.0
112.061928	108.0
112.880844	160.0
113.454636	224.0
113.961884	160.0
114.178711	144.0
114.559723	188.0
114.668907	100.0
114.757927	152.0
116.045074	216.0
116.332558	184.0
116.979622	184.0
117.43428	160.0
117.492523	160.0
117.803398	176.0
119.368263	196.0
119.490074	156.0
119.905983	216.0
120.473312	180.0
120.676567	148.0
120.85463	132.0
121.037598	156.0
121.125206	192.0
121.831573	176.0
121.908478	140.0
122.060158	140.0
124.71759	208.0
125.409828	144.0
125.655128	164.0
126.061516	184.0
126.381279	144.0
126.611847	248.0
128.931366	304.0
129.764389	156.0
131.064499	196.0
131.137436	164.0
131.176178	164.0
132.513123	176.0
133.019958	156.0
133.132462	168.0
133.942062	196.0
134.06015	768.0
134.629379	168.0
134.816498	216.0
135.079987	804.0
135.594116	192.0
135.962875	188.0
136.076157	144.0
136.274033	140.0
137.080673	528.0
137.190491	144.0
137.818909	128.0
137.905304	212.0
137.954391	144.0
138.038559	140.0
138.090897	36736.0
138.247498	128.0
138.851196	236.0
138.956757	152.0
139.092987	3160.0
139.27475	168.0
139.805023	160.0
140.120544	160.0
140.137039	148.0
140.613388	224.0
140.640442	156.0
140.842422	160.0
140.94989	172.0
141.554352	176.0
141.959106	292.0
142.07338	268.0
142.467453	216.0
142.498352	152.0
142.541107	152.0
142.807388	196.0
143.839127	176.0
147.06282	152.0
147.282547	212.0
147.551056	184.0
148.255173	184.0
148.830078	164.0
149.240723	200.0
149.413406	176.0
149.983231	208.0
151.006302	148.0
152.069046	6992.0
152.236588	144.0
152.369232	148.0
153.074097	512.0
154.046921	200.0
154.247086	152.0
154.272537	188.0
155.229996	152.0
156.041946	200.0
156.880478	148.0
157.013092	140.0
158.400314	176.0
158.870178	148.0
158.971954	144.0
159.977341	184.0
160.221634	272.0
160.963165	244.0
161.059143	144.0
161.962158	160.0
162.089966	2120.0
162.129379	224.0
162.899826	172.0
163.093033	252.0
165.871063	312.0
166.350754	160.0
166.548767	160.0
167.204117	212.0
168.627792	240.0
168.979477	160.0
170.223648	212.0
171.740952	220.0
172.587082	172.0
174.172638	160.0
174.213699	164.0
176.018845	148.0
177.384918	168.0
177.415848	148.0
178.299759	140.0
178.565628	144.0
178.781113	204.0
179.08345	100.0
179.112549	128.0
179.142624	280.0
179.475693	124.0
179.580383	200.0
179.60173	192.0
179.663086	292.0
179.688904	112.0
179.718628	176.0
179.756256	104.0
179.788254	224.0
179.841873	144.0
179.873108	300.0
179.915558	148.0
180.016357	164.0
180.06012	220.0
180.102386	129492.0
180.188156	184.0
180.259613	144.0
180.282547	112.0
180.359451	264.0
180.475967	100.0
180.540497	1844.0
180.57605	128.0
180.687775	116.0
180.866898	140.0
180.89679	104.0
180.993515	100.0
181.104187	13564.0
181.421295	172.0
181.687042	164.0
181.987854	136.0
182.015732	196.0
182.106171	1504.0
182.187637	140.0
182.215134	128.0
182.31929	156.0
182.370224	172.0
182.416138	256.0
182.467865	140.0
182.61235	196.0
183.112961	232.0
183.309616	152.0
189.245941	120.0
198.113297	164.0
235.989395	188.0
246.021301	148.0
1166.003052	140.0
1282.606201	200.0
1284.838257	220.0
1370.549194	204.0
1375.719238	196.0
1401.797852	160.0
1442.818481	156.0
1491.540039	140.0
1502.814697	176.0
1526.47876	172.0
1528.687988	156.0
1548.987915	160.0
1588.053467	152.0
1601.072021	172.0
1605.160156	196.0
1639.286621	160.0
1652.285522	168.0
1662.129883	164.0
1686.137329	160.0
1688.688232	204.0
1690.365356	256.0
1700.91333	144.0
1705.266724	140.0
1706.00647	144.0
1709.518555	184.0
1710.00415	188.0
1711.420044	140.0
1728.531494	152.0
1730.228271	196.0
1735.663574	164.0
1763.920654	164.0
1769.241211	160.0
1781.552368	152.0
1804.476074	160.0
1823.804443	200.0
1829.597412	156.0
1843.842529	152.0
1843.945068	212.0
1849.153687	172.0
1853.889771	160.0
1860.863525	176.0
1861.172607	200.0
1862.606812	196.0
1866.749512	212.0
1869.99292	152.0
1873.618164	200.0
1879.386108	192.0
1880.223145	144.0
1886.935059	164.0
1890.420898	200.0
1890.741089	252.0
1891.46814	176.0
1891.779785	168.0
1895.174805	200.0
1900.654785	164.0
1907.368164	232.0
1908.802734	144.0
1917.612915	260.0
1923.77124	160.0
1924.22522	172.0
1924.548218	140.0
1931.61853	200.0
1933.946045	236.0
1947.378662	192.0
1947.712524	140.0
1949.7948	200.0
1972.473511	180.0
1975.312012	148.0
1990.387695	188.0
1990.698486	156.0
1995.141113	144.0
END IONS

BEGIN IONS
PEPMASS=416.09
CHARGE=1
MSLEVEL=2
SOURCE_INSTRUMENT=LC-ESI-qTof
FILENAME=Plate8_61_80_GD1_01_15765.mzXML
SEQ=*..*
IONMODE=Positive
ORGANISM=GNPS-SELLECKCHEM-FDA-PART2
NAME=Acemetacin (Emflex) [M+H]
PI=Dorrestein
DATACOLLECTOR=Garg_Neha
SMILES=CC1N(C2=C(C=1CC(OCC(O)=O)=O)C=C(C=C2)OC)C(=O)C3=CC=C(C=C3)Cl
INCHI=N/A
INCHIAUX=N/A
PUBMED=N/A
SUBMITUSER=negarg
LIBRARYQUALITY=1
SPECTRUMID=CCMSLIB00000078527
USI=mzspec:GNPS:GNPS-SELLECKCHEM-FDA-PART2:accession:CCMSLIB00000078527
SCANS=2020
45.22517	148.0
45.27047	120.0
45.798523	148.0
46.834755	152.0
46.951969	148.0
47.75045	152.0
48.483566	172.0
48.762531	148.0
49.800674	208.0
49.838608	160.0
49.861092	200.0
50.266682	160.0
50.407894	164.0
50.496964	192.0
51.471886	152.0
52.35527	140.0
52.863434	148.0
54.235428	160.0
54.640739	164.0
55.100739	188.0
56.958508	156.0
57.111832	188.0
58.735672	188.0
59.470146	228.0
59.606831	160.0
60.600548	184.0
60.743179	184.0
61.499424	164.0
62.392338	196.0
62.954861	224.0
63.642113	196.0
64.020576	148.0
64.510422	188.0
64.703995	208.0
65.737549	216.0
66.373283	144.0
68.669441	152.0
69.295967	176.0
69.385468	140.0
70.178551	160.0
70.828659	156.0
71.93515	160.0
72.391655	188.0
72.932877	148.0
73.387428	156.0
75.837257	164.0
76.77961	140.0
77.254715	200.0
78.209328	200.0
78.829773	192.0
79.16626	176.0
80.972153	144.0
81.557076	224.0
84.997002	212.0
85.07592	220.0
87.71582	148.0
88.003128	172.0
88.197418	148.0
88.438713	156.0
88.785324	172.0
89.50695	220.0
89.883949	140.0
90.273094	168.0
90.896324	228.0
91.803726	160.0
92.3423	208.0
92.778893	152.0
93.035973	164.0
93.343391	196.0
93.595467	160.0
93.867165	144.0
93.880669	188.0
93.952034	204.0
94.073616	232.0
94.222321	160.0
94.328606	220.0
94.731117	208.0
95.57373	176.0
95.721672	232.0
96.193497	196.0
96.408348	204.0
97.181831	148.0
97.558922	176.0
98.143669	176.0
98.400642	116.0
99.344193	168.0
100.031776	260.0
100.272789	156.0
102.539604	180.0
103.292755	148.0
104.249741	156.0
104.286324	244.0
104.762489	228.0
104.882713	204.0
105.08461	160.0
105.362274	140.0
106.791069	168.0
107.114235	168.0
109.028137	176.0
110.99939	840.0
112.003433	144.0
112.996567	692.0
113.686417	160.0
113.841393	212.0
114.434654	184.0
114.992683	176.0
115.05294	168.0
116.863998	200.0
116.988831	188.0
118.216652	164.0
119.486328	160.0
119.926216	176.0
120.187912	200.0
121.285782	148.0
121.766296	156.0
122.401855	264.0
123.142853	144.0
123.748772	152.0
124.331772	180.0
124.476067	172.0
125.134232	152.0
126.386398	172.0
126.990273	156.0
127.422272	168.0
127.689774	168.0
128.534576	168.0
129.007339	536.0
129.932877	144.0
130.059967	180.0
131.010498	408.0
131.072891	176.0
132.399261	148.0
132.447693	140.0
133.832199	140.0
134.193939	144.0
134.276962	208.0
134.491531	148.0
136.126068	144.0
136.523453	168.0
136.798004	164.0
136.863205	140.0
138.233429	164.0
138.437088	176.0
138.488617	188.0
138.70462	108.0
138.833145	292.0
138.870667	224.0
138.93869	140.0
138.994568	88724.0
139.044174	108.0
139.152832	148.0
139.288544	152.0
139.381012	260.0
139.425537	156.0
139.447861	120.0
139.613937	144.0
139.997711	7048.0
140.701447	196.0
140.880524	140.0
140.938324	124.0
140.991425	26624.0
141.048874	228.0
141.088226	112.0
141.99501	1300.0
142.991318	200.0
145.34285	156.0
147.633759	172.0
150.887634	148.0
151.75531	124.0
156.092468	160.0
159.070663	188.0
162.084595	164.0
162.302582	172.0
174.091293	11892.0
175.094559	1712.0
176.095718	208.0
176.130661	168.0
181.606064	144.0
188.108582	152.0
193.901474	152.0
201.790268	184.0
202.081955	236.0
203.084427	156.0
204.274612	180.0
208.049713	144.0
211.795654	168.0
218.081772	152.0
220.095535	276.0
232.089996	304.0
233.103653	304.0
241.059113	144.0
254.187317	188.0
255.967438	168.0
257.05127	180.0
258.246094	140.0
259.921173	128.0
260.091248	9280.0
261.095276	1844.0
261.137756	144.0
262.091797	156.0
262.617676	128.0
276.079163	156.0
286.603424	224.0
297.044403	140.0
298.045197	156.0
303.185455	144.0
306.333435	164.0
310.261475	152.0
312.024323	192.0
312.078613	11168.0
313.083649	3564.0
314.075165	3784.0
315.079102	956.0
315.284454	152.0
316.083649	156.0
316.712372	96.0
333.329651	208.0
340.068512	376.0
342.068695	128.0
345.717712	212.0
365.488007	220.0
371.586121	148.0
375.53299	176.0
393.165039	148.0
414.080261	140.0
414.861481	156.0
415.080658	512.0
415.212219	136.0
415.336761	160.0
415.656189	132.0
415.74115	148.0
416.09024	19996.0
416.476318	108.0
416.922241	128.0
417.091339	4792.0
417.218811	152.0
418.087494	5572.0
419.029816	108.0
419.086151	1724.0
419.154327	144.0
419.274017	164.0
420.086212	264.0
420.357269	152.0
421.480225	172.0
1202.887817	168.0
1247.592407	140.0
1249.484253	152.0
1265.286255	152.0
1281.786133	192.0
1299.877808	228.0
1320.156494	172.0
1408.833496	160.0
1434.747681	144.0
1440.075195	164.0
1448.266724	160.0
1489.43457	144.0
1515.960083	140.0
1558.913086	144.0
1564.655029	224.0
1581.999756	188.0
1587.435059	140.0
1599.758423	160.0
1607.601318	200.0
1613.040527	204.0
1629.083618	140.0
1629.356812	172.0
1639.43103	144.0
1640.825439	192.0
1656.876221	168.0
1666.913086	140.0
1668.449341	184.0
1672.410889	180.0
1678.276489	164.0
1693.984619	212.0
1712.557129	204.0
1714.913574	164.0
1715.647217	152.0
1716.43042	140.0
1725.091431	160.0
1731.71106	164.0
1734.544922	200.0
1742.478516	188.0
1747.417114	144.0
1748.440674	180.0
1757.882812	196.0
1762.717773	148.0
1767.12439	156.0
1767.735229	152.0
1773.991821	176.0
1780.452637	284.0
1781.141357	200.0
1793.696167	244.0
1807.259521	204.0
1813.526245	188.0
1821.060791	236.0
1826.704834	168.0
1827.342896	164.0
1828.806641	164.0
1830.72998	228.0
1836.219238	144.0
1841.775635	260.0
1848.923462	148.0
1852.031494	184.0
1854.764893	148.0
1862.272827	144.0
1863.939453	176.0
1891.339233	160.0
1895.704346	192.0
1898.764648	184.0
1901.393433	144.0
1902.105225	184.0
1907.873413	152.0
1911.483032	152.0
1913.641602	152.0
1920.438965	168.0
1921.067017	184.0
1923.973145	148.0
1932.310791	164.0
1945.290039	200.0
1950.841919	188.0
1973.155396	260.0
1974.216553	232.0
1978.499146	180.0
1985.002686	148.0
1986.528198	180.0
1999.581055	192.0
2000.070679	224.0
END IONS

BEGIN IONS
PEPMASS=232.144
CHARGE=1
MSLEVEL=2
SOURCE_INSTRUMENT=LC-ESI-qTof
FILENAME=Plate9_81_88_Plate8_81_88_GC8_01_15759.mzXML
SEQ=*..*
IONMODE=Positive
ORGANISM=GNPS-SELLECKCHEM-FDA-PART2
NAME=Amidopyrine [M+H]
PI=Dorrestein
DATACOLLECTOR=Garg_Neha
SMILES=N1(N(C(C(=C1C)N(C)C)=O)C2C=CC=CC=2)C
INCHI=N/A
INCHIAUX=N/A
PUBMED=N/A
SUBMITUSER=negarg
LIBRARYQUALITY=1
SPECTRUMID=CCMSLIB00000078610
USI=mzspec:GNPS:GNPS-SELLECKCHEM-FDA-PART2:accession:CCMSLIB00000078610
SCANS=944
45.186512	152.0
48.479519	252.0
49.286625	188.0
49.364906	188.0
49.495045	172.0
52.567245	160.0
55.457401	196.0
63.878826	180.0
66.611732	196.0
81.228127	204.0
82.859642	144.0
84.965408	212.0
86.524582	144.0
91.778427	224.0
92.263382	144.0
97.075562	912.0
98.083931	1336.0
98.247589	176.0
99.090118	148.0
99.44812	164.0
105.028801	140.0
106.064796	220.0
106.599121	172.0
106.874657	148.0
107.777786	176.0
111.091682	2108.0
111.987854	168.0
112.095383	196.0
113.106903	5724.0
114.108025	444.0
114.817329	140.0
114.956001	184.0
117.926224	192.0
118.06562	384.0
120.071312	176.0
120.086578	232.0
121.333008	172.0
127.087791	164.0
128.95282	188.0
133.074524	176.0
134.061325	196.0
136.066757	148.0
139.085098	612.0
140.09166	180.0
146.062164	168.0
147.08989	124.0
149.106888	228.0
150.089767	152.0
150.11171	148.0
157.017242	152.0
159.089828	532.0
160.062073	148.0
171.8573	172.0
172.060883	156.0
174.11116	184.0
175.085968	476.0
175.107925	176.0
177.100739	532.0
177.619064	156.0
178.10733	148.0
187.086334	904.0
188.091263	128.0
188.980896	148.0
189.098572	140.0
197.043549	212.0
198.987244	172.0
199.926086	144.0
201.107849	180.0
204.145889	252.0
206.946182	164.0
214.140015	128.0
216.107376	180.0
222.221207	144.0
229.932877	196.0
230.01738	144.0
231.014587	176.0
231.132812	272.0
231.166031	152.0
232.14386	8820.0
233.147476	780.0
233.687393	140.0
234.163513	128.0
395.470703	152.0
511.46347	160.0
1338.757568	188.0
1456.253296	188.0
1468.247925	140.0
1531.988037	176.0
1556.80603	148.0
1663.62854	172.0
1740.563843	184.0
1833.400146	196.0
1865.153687	256.0
1889.143555	160.0
1926.96167	212.0
1944.659424	208.0
END IONS

BEGIN IONS
PEPMASS=231.102
CHARGE=1
MSLEVEL=2
SOURCE_INSTRUMENT=LC-ESI-qTOF
FILENAME=p1-A02_GA2_01_17875.mzXML
SEQ=*..*
IONMODE=Positive
ORGANISM=GNPS-PRESTWICKPHYTOCHEM
NAME=NCGC00021127-04!NAPROXEN M+H
PI=Dorrestein
DATACOLLECTOR=VVP/LMS
SMILES=COC1=CC=C2C=C(C=CC2=C1)C(C)C(O)=O
INCHI=N/A
INCHIAUX=N/A
PUBMED=N/A
SUBMITUSER=vphelan
LIBRARYQUALITY=1
SPECTRUMID=CCMSLIB00000078683
USI=mzspec:GNPS:GNPS-PRESTWICKPHYTOCHEM:accession:CCMSLIB00000078683
SCANS=2120
95.151199	136.0
95.376526	220.0
95.479568	168.0
96.003403	144.0
96.313698	112.0
96.589294	120.0
97.114197	128.0
98.489944	156.0
99.426376	160.0
101.170364	168.0
102.055077	68.0
102.077194	108.0
102.238113	220.0
102.324661	156.0
102.994125	208.0
103.055695	272.0
103.12748	76.0
103.943573	168.0
104.162819	100.0
104.335541	152.0
104.553169	180.0
105.708145	100.0
106.037834	108.0
107.194771	164.0
107.937843	136.0
108.109528	168.0
108.20681	132.0
108.745735	76.0
108.920135	156.0
109.656654	136.0
109.675407	60.0
110.042542	132.0
110.910652	208.0
111.076294	148.0
111.237854	204.0
111.344933	208.0
111.401642	128.0
111.63282	160.0
111.731674	164.0
111.893715	152.0
112.201286	212.0
112.426964	244.0
112.671883	136.0
112.735268	176.0
114.576904	140.0
115.007629	124.0
115.053932	2584.0
115.169891	120.0
115.411362	136.0
116.012932	196.0
116.058807	388.0
116.878418	172.0
116.951584	184.0
117.069984	168.0
117.369492	184.0
118.380714	132.0
118.6884	60.0
119.583366	56.0
121.41629	116.0
121.918991	156.0
122.779724	120.0
123.03125	136.0
123.418167	128.0
123.563835	188.0
123.678894	156.0
124.135254	136.0
127.052864	184.0
127.182663	172.0
128.063339	736.0
128.093277	204.0
128.388519	116.0
128.435883	72.0
128.869293	156.0
129.069046	380.0
130.038742	300.0
130.070007	188.0
130.217056	128.0
131.051865	160.0
133.011642	140.0
133.096588	180.0
133.163177	168.0
133.2229	156.0
133.72644	180.0
134.219406	76.0
134.482376	120.0
134.745605	168.0
135.397873	144.0
136.144577	92.0
137.179901	124.0
138.420441	44.0
139.052231	132.0
140.066681	244.0
140.351822	188.0
140.675034	180.0
140.715164	180.0
140.887558	132.0
141.043503	200.0
141.069885	2284.0
141.095505	72.0
141.500046	132.0
141.736877	52.0
142.041687	256.0
142.076447	2740.0
142.118607	212.0
142.496094	68.0
142.517471	236.0
142.564987	64.0
142.724243	156.0
143.016846	120.0
143.05101	440.0
143.080917	320.0
143.178741	44.0
143.839142	108.0
144.051575	580.0
144.132874	152.0
144.639847	208.0
145.05983	148.0
145.142929	252.0
145.988129	40.0
146.05307	180.0
148.104614	176.0
150.143646	172.0
150.538971	60.0
150.756378	80.0
151.054489	512.0
151.194092	108.0
152.061508	2312.0
152.110703	72.0
152.179443	48.0
152.496323	88.0
152.845505	180.0
152.98085	128.0
153.070053	4292.0
153.4711	104.0
153.725143	80.0
154.076904	3200.0
154.112793	164.0
154.347595	64.0
154.649399	68.0
154.827637	136.0
155.056717	376.0
155.084122	1236.0
155.335709	88.0
155.477127	48.0
156.058624	420.0
156.089523	256.0
157.06543	272.0
158.07254	1800.0
158.762512	256.0
158.830231	144.0
159.073868	192.0
159.525757	224.0
160.079239	188.0
160.144714	40.0
161.057724	196.0
162.003723	152.0
163.766464	156.0
164.15892	84.0
164.301743	148.0
165.067932	180.0
166.829239	136.0
166.998932	200.0
168.051468	132.0
168.088608	176.0
169.062958	1840.0
169.275024	28.0
169.32164	148.0
169.505554	68.0
169.985245	164.0
170.042328	128.0
170.07254	5964.0
170.125381	92.0
170.198074	60.0
170.275986	112.0
170.338318	92.0
170.87381	84.0
170.951859	184.0
171.075577	500.0
172.237122	52.0
172.720657	40.0
173.283463	176.0
173.383026	32.0
173.479996	76.0
176.594849	104.0
176.87265	88.0
178.078995	32.0
179.057999	420.0
180.204651	136.0
181.076111	484.0
182.047409	148.0
182.076889	208.0
183.077301	132.0
183.467972	96.0
183.837463	220.0
184.0867	256.0
184.910294	196.0
185.095398	4424.0
185.297501	52.0
185.435684	56.0
185.476349	84.0
185.672226	80.0
185.812592	156.0
186.056824	212.0
186.100006	260.0
186.456085	56.0
187.108871	32.0
187.550156	128.0
193.262085	72.0
196.777817	124.0
197.048721	132.0
219.156052	104.0
253.329498	40.0
281.230011	20.0
313.77356	48.0
326.075348	116.0
330.821899	48.0
341.443146	76.0
379.002777	80.0
473.154572	84.0
481.258331	88.0
499.178467	20.0
753.337708	68.0
763.746582	124.0
828.965393	80.0
844.468262	168.0
853.677246	160.0
879.749329	236.0
931.332275	212.0
933.422729	164.0
940.513672	176.0
952.526733	228.0
985.015381	168.0
987.796875	188.0
990.225281	96.0
1048.157715	224.0
1049.865967	172.0
1067.888794	80.0
1072.380981	32.0
1080.9552	48.0
1098.674438	84.0
1099.624512	52.0
1110.739746	192.0
1117.468872	200.0
1123.411133	220.0
1142.408325	152.0
1166.997559	204.0
1171.046265	160.0
1182.105225	96.0
1190.852417	224.0
1213.277466	76.0
1215.850708	172.0
1224.359497	144.0
1239.405518	124.0
1242.693726	232.0
1246.014282	156.0
1251.866089	220.0
1254.219116	112.0
1258.578613	184.0
1268.716553	52.0
1270.276611	196.0
1279.08728	196.0
1284.031738	128.0
1289.950562	164.0
1296.262695	136.0
1299.632568	164.0
1317.024414	180.0
1320.507935	232.0
1324.068481	176.0
1330.586792	40.0
1334.684448	244.0
1348.571167	160.0
1360.965454	52.0
1368.206909	176.0
1372.745361	140.0
1373.82959	132.0
1381.87439	176.0
1383.731934	164.0
1383.79126	200.0
1384.961182	164.0
1388.837402	128.0
1400.670044	72.0
1406.896362	48.0
1415.583862	136.0
1418.760498	128.0
1429.568115	204.0
1432.029785	172.0
1435.360596	188.0
1446.723145	136.0
1448.631348	160.0
1469.399536	160.0
1481.018311	160.0
1495.436768	192.0
1501.877686	112.0
1502.116821	76.0
1503.119751	68.0
1503.613525	216.0
END IONS

BEGIN IONS
PEPMASS=303.16
CHARGE=1
MSLEVEL=2
SOURCE_INSTRUMENT=LC-ESI-qTOF
FILENAME=p1-H03_GH3_01_17959.mzXML
SEQ=*..*
IONMODE=Positive
ORGANISM=GNPS-PRESTWICKPHYTOCHEM
NAME=NCGC00015741-06!NORDIHYDROGUAIARETIC ACID M+H
PI=Dorrestein
DATACOLLECTOR=VVP/LMS
SMILES=OC1=C(O)C=CC(C[C@@H](C)[C@@H](C)CC2=CC=C(O)C(O)=C2)=C1
INCHI=N/A
INCHIAUX=N/A
PUBMED=N/A
SUBMITUSER=vphelan
LIBRARYQUALITY=1
SPECTRUMID=CCMSLIB00000078777
USI=mzspec:GNPS:GNPS-PRESTWICKPHYTOCHEM:accession:CCMSLIB00000078777
SCANS=2046
95.054237	208.0
96.959534	196.0
97.06736	172.0
101.066818	164.0
103.061462	200.0
104.875755	148.0
105.040985	220.0
105.067627	356.0
105.251129	80.0
105.340996	144.0
107.086571	164.0
108.956573	248.0
113.7873	180.0
116.056358	168.0
119.044914	172.0
119.085251	180.0
122.689331	148.0
123.043716	5432.0
123.148308	88.0
123.269814	36.0
123.435608	36.0
124.048111	408.0
124.421585	72.0
124.83931	92.0
125.030632	104.0
125.509575	56.0
126.405312	112.0
132.088943	124.0
133.037659	148.0
133.063919	644.0
133.085876	156.0
133.130035	156.0
137.060181	412.0
137.08075	28.0
140.348419	76.0
140.438034	68.0
142.06955	212.0
143.180267	68.0
144.081909	140.0
145.063095	56.0
145.101456	196.0
146.076462	128.0
146.912384	120.0
147.08371	132.0
147.117798	168.0
151.071579	248.0
155.053055	140.0
157.091965	152.0
160.084625	144.0
161.090973	176.0
166.349701	72.0
173.070007	224.0
174.003418	224.0
174.061172	136.0
175.111084	540.0
179.000595	196.0
180.139709	156.0
180.158417	92.0
193.123901	332.0
198.016968	148.0
201.971573	180.0
208.104523	108.0
212.07695	172.0
216.095703	124.0
225.147369	172.0
230.05368	136.0
239.519501	104.0
240.02803	40.0
240.227859	280.0
241.3125	44.0
241.377426	88.0
247.175751	120.0
248.203171	112.0
253.128372	116.0
265.174774	156.0
303.125824	148.0
305.16333	124.0
305.205048	60.0
628.701782	20.0
848.127502	132.0
937.532166	20.0
946.297729	84.0
1132.831665	168.0
1166.111572	60.0
1301.908325	204.0
1302.698486	188.0
1304.602783	224.0
1308.408569	204.0
1337.342529	216.0
1362.387695	152.0
1378.641968	156.0
1385.738159	168.0
1398.399292	132.0
1453.623901	128.0
1464.503174	168.0
1468.474121	88.0
1475.147705	76.0
1479.515869	220.0
END IONS

BEGIN IONS
PEPMASS=194.081
CHARGE=1
MSLEVEL=2
SOURCE_INSTRUMENT=LC-ESI-qTof
FILENAME=NCP003352_A2_B11_BC4_01_15718.mzXML
SEQ=*..*
IONMODE=Positive
ORGANISM=GNPS-NIH-CLINICALCOLLECTION1
NAME=ACTARIT [M+H]
PI=Dorrestein
DATACOLLECTOR=Garg_Neha
SMILES=CC(=O)Nc1ccc(CC(=O)O)cc1
INCHI=N/A
INCHIAUX=N/A
PUBMED=N/A
SUBMITUSER=negarg
LIBRARYQUALITY=1
SPECTRUMID=CCMSLIB00000078977
USI=mzspec:GNPS:GNPS-NIH-CLINICALCOLLECTION1:accession:CCMSLIB00000078977
SCANS=1036
45.167953	180.0
45.683064	148.0
45.945763	184.0
46.192982	156.0
46.573879	176.0
47.118778	180.0
47.658787	272.0
48.833675	168.0
48.911594	216.0
49.680168	152.0
51.250965	164.0
51.712227	176.0
52.044811	140.0
52.169807	172.0
52.329498	164.0
52.630844	156.0
53.096813	192.0
53.583771	160.0
53.999798	176.0
54.932522	184.0
55.540482	144.0
55.977425	212.0
59.829811	252.0
59.871387	192.0
61.466564	168.0
61.539925	148.0
62.188019	172.0
63.532459	168.0
63.745216	140.0
64.033165	148.0
64.889671	200.0
65.009972	160.0
65.479408	196.0
66.071808	140.0
66.092842	180.0
67.996254	144.0
68.333115	164.0
68.637825	156.0
69.653999	204.0
71.661568	160.0
72.103676	204.0
72.693008	292.0
73.145096	160.0
76.890747	196.0
77.741272	148.0
77.906319	148.0
78.280945	232.0
78.645889	192.0
79.33931	164.0
80.055359	144.0
81.436035	188.0
81.734459	164.0
82.064072	264.0
82.596817	152.0
83.509171	156.0
83.990028	180.0
84.388138	152.0
84.746872	180.0
85.10453	140.0
87.301643	188.0
87.789551	152.0
87.989204	152.0
89.53241	152.0
90.538994	156.0
90.769516	216.0
91.751274	144.0
92.777893	140.0
93.388519	192.0
94.043961	180.0
97.986786	224.0
98.367393	160.0
98.663719	192.0
98.96048	140.0
101.641396	180.0
102.826698	160.0
103.238823	172.0
103.422935	168.0
103.945801	228.0
104.676056	180.0
105.052605	196.0
105.252617	160.0
105.710503	168.0
105.72892	204.0
105.8927	208.0
106.004898	204.0
106.065788	36872.0
106.17659	108.0
106.22802	108.0
106.268997	116.0
106.295639	184.0
106.407318	104.0
106.97068	140.0
107.050079	664.0
107.069115	4016.0
107.149849	152.0
107.218437	152.0
107.626282	156.0
107.711082	136.0
107.836998	156.0
107.884964	116.0
108.054123	184.0
108.239365	144.0
111.320801	148.0
113.286125	164.0
113.945045	196.0
116.767555	168.0
116.786919	176.0
117.07962	152.0
119.177887	172.0
119.432243	160.0
119.652023	156.0
120.070389	208.0
124.238747	184.0
126.973427	272.0
128.812332	204.0
130.805542	144.0
131.003662	152.0
131.637711	176.0
134.7547	200.0
134.95578	172.0
136.544235	176.0
138.854034	212.0
140.387375	176.0
141.753723	148.0
142.546295	184.0
143.00766	148.0
143.079071	148.0
144.992355	180.0
146.224411	160.0
147.352921	144.0
147.802643	192.0
147.869095	180.0
148.004959	232.0
148.076843	42200.0
148.161652	128.0
148.78833	116.0
148.948502	124.0
149.079819	4388.0
150.082138	144.0
150.224197	112.0
151.06279	120.0
151.557327	192.0
152.072052	2684.0
152.105682	180.0
153.078171	324.0
154.08017	348.0
156.457535	180.0
156.91095	208.0
157.048111	204.0
160.002548	184.0
160.400101	216.0
160.53923	188.0
160.57959	168.0
161.848175	224.0
161.979858	168.0
163.124283	216.0
166.083771	332.0
168.922379	164.0
172.973999	188.0
176.06987	456.0
177.076279	336.0
184.09407	140.0
192.102432	152.0
193.456512	140.0
194.024414	188.0
194.082687	50552.0
194.200897	140.0
194.235519	128.0
194.347839	96.0
194.940353	164.0
194.968155	144.0
195.084457	4832.0
195.12381	140.0
195.155991	132.0
195.318268	120.0
196.086792	548.0
196.450241	108.0
196.690781	96.0
197.125763	160.0
210.229202	152.0
212.088348	196.0
232.032211	156.0
232.117111	168.0
238.043152	156.0
312.880096	144.0
434.800659	160.0
1256.329956	204.0
1380.457031	200.0
1397.56958	212.0
1405.385498	184.0
1415.311646	184.0
1451.510498	192.0
1471.430054	176.0
1474.370728	180.0
1482.199097	172.0
1489.810059	232.0
1495.84668	192.0
1496.66272	160.0
1507.508179	184.0
1512.759766	140.0
1549.063843	228.0
1549.894287	188.0
1573.56897	184.0
1574.761353	152.0
1576.673218	140.0
1599.627197	140.0
1605.754517	180.0
1630.485107	208.0
1652.321045	244.0
1655.858276	164.0
1658.613159	240.0
1700.020874	200.0
1700.505005	180.0
1708.557739	176.0
1714.016479	164.0
1715.862793	188.0
1722.803223	192.0
1745.562744	160.0
1746.460938	160.0
1761.581543	192.0
1766.797974	140.0
1769.492798	180.0
1772.55835	140.0
1788.052124	144.0
1807.562988	144.0
1809.128662	148.0
1814.915283	152.0
1819.411865	148.0
1823.455078	180.0
1827.775146	176.0
1840.842651	168.0
1843.747192	236.0
1855.002441	140.0
1858.175415	164.0
1861.6604	160.0
1881.420776	140.0
1890.392456	160.0
1903.603394	144.0
1905.088623	164.0
1910.443604	148.0
1914.403809	188.0
1917.566284	164.0
1920.993042	160.0
1924.431519	168.0
1927.174072	204.0
1940.959839	140.0
1947.52417	148.0
1955.217163	172.0
1960.449463	148.0
1962.057373	256.0
1967.327881	176.0
1978.626099	188.0
1982.186646	220.0
1991.954712	176.0
1993.198608	156.0
2001.515381	184.0
2001.95166	164.0
END IONS

BEGIN IONS
PEPMASS=382.168
CHARGE=1
MSLEVEL=2
SOURCE_INSTRUMENT=LC-ESI-qTof
FILENAME=NCP003352_C2_D11_BC5_01_15719.mzXML
SEQ=*..*
IONMODE=Positive
ORGANISM=GNPS-NIH-CLINICALCOLLECTION1
NAME=azelastine hydrochloride [M+H]
PI=Dorrestein
DATACOLLECTOR=Garg_Neha
SMILES=CN1CCCC(CC1)n2nc(Cc3ccc(Cl)cc3)c4ccccc4c2=O
INCHI=N/A
INCHIAUX=N/A
PUBMED=N/A
SUBMITUSER=negarg
LIBRARYQUALITY=1
SPECTRUMID=CCMSLIB00000078987
USI=mzspec:GNPS:GNPS-NIH-CLINICALCOLLECTION1:accession:CCMSLIB00000078987
SCANS=1167
45.030243	188.0
45.081013	156.0
45.196011	160.0
45.288383	208.0
45.568752	200.0
45.680336	204.0
46.510242	172.0
46.683926	244.0
46.938572	228.0
47.40197	156.0
47.454056	208.0
47.522636	148.0
48.057865	144.0
48.46714	176.0
48.51981	176.0
48.676594	184.0
48.759949	160.0
48.819729	196.0
49.496525	140.0
49.757313	220.0
49.819107	152.0
49.982201	144.0
50.539555	168.0
51.226704	152.0
51.467728	160.0
51.563442	168.0
51.780907	160.0
52.31506	148.0
52.415878	196.0
52.994476	176.0
53.347965	224.0
53.401764	148.0
53.76162	148.0
53.897423	176.0
54.113895	212.0
54.205612	148.0
54.307331	200.0
54.344006	160.0
54.50552	144.0
54.637844	212.0
55.364063	156.0
55.488533	140.0
55.629467	172.0
56.138317	152.0
56.790382	156.0
56.913441	228.0
57.006573	144.0
57.553406	168.0
57.637959	148.0
58.624313	156.0
58.932549	200.0
59.30658	108.0
59.336605	160.0
60.134972	160.0
60.935566	200.0
61.14082	176.0
62.524303	144.0
62.743248	160.0
63.264584	256.0
63.300232	132.0
63.594292	152.0
64.02037	156.0
64.115952	196.0
64.182907	156.0
65.167282	224.0
65.37793	252.0
65.672157	204.0
65.898758	152.0
65.94239	188.0
66.431396	224.0
66.525513	156.0
66.631073	168.0
66.785507	168.0
66.879875	160.0
66.891273	152.0
66.980835	148.0
67.080231	216.0
67.691277	168.0
67.997841	204.0
68.759842	172.0
68.773048	200.0
68.872116	196.0
69.067162	144.0
69.217766	192.0
69.27076	188.0
69.524437	168.0
69.582367	176.0
69.605782	152.0
69.801857	172.0
70.224861	172.0
70.52874	140.0
70.670891	192.0
71.811539	184.0
71.827736	152.0
72.286972	256.0
72.560646	156.0
73.12291	196.0
73.461861	184.0
74.27623	240.0
75.052795	168.0
75.490448	336.0
76.484573	180.0
76.547249	176.0
78.131271	192.0
79.303795	140.0
79.475807	152.0
81.297729	208.0
81.564117	124.0
81.595894	196.0
82.356354	144.0
82.482834	168.0
82.717987	184.0
85.66539	168.0
85.718819	172.0
86.364983	156.0
86.650063	140.0
86.97644	164.0
87.033989	148.0
87.433655	176.0
87.608681	168.0
87.918198	140.0
88.671883	224.0
88.731865	140.0
88.893173	192.0
89.174873	148.0
89.306488	144.0
89.409966	192.0
89.805611	168.0
90.243729	140.0
90.39505	156.0
91.288521	164.0
92.079399	208.0
93.700294	260.0
93.798569	160.0
93.997223	200.0
94.028099	148.0
94.352608	148.0
94.797783	168.0
95.158562	184.0
95.327553	208.0
95.387802	144.0
95.706863	164.0
96.087029	152.0
96.123993	172.0
96.149361	164.0
96.190353	228.0
96.53421	156.0
96.835594	172.0
97.088409	180.0
97.282661	172.0
97.306213	144.0
97.831123	204.0
98.097069	468.0
98.635956	148.0
98.695267	140.0
99.001984	204.0
99.138672	184.0
99.188225	204.0
99.684387	180.0
99.964775	192.0
100.114075	172.0
100.280556	164.0
101.346962	140.0
102.649078	256.0
102.921486	220.0
102.955818	148.0
102.986115	160.0
103.03257	140.0
103.053864	208.0
103.461311	164.0
103.557869	140.0
104.063446	140.0
104.555359	164.0
104.771385	216.0
104.795647	160.0
105.532455	208.0
106.518204	188.0
106.565453	192.0
106.721657	140.0
107.26722	148.0
107.543617	244.0
107.996109	144.0
108.337212	132.0
108.414314	192.0
108.528328	172.0
109.957443	152.0
110.097359	1144.0
110.519569	148.0
110.643059	164.0
110.659805	144.0
110.909096	144.0
111.055199	164.0
111.108498	176.0
111.601868	208.0
111.837479	196.0
111.899773	204.0
111.956413	196.0
112.02829	384.0
112.052742	144.0
112.077171	384.0
112.09153	388.0
112.113091	99900.0
112.192162	148.0
112.260979	256.0
112.281403	200.0
112.458435	112.0
112.719353	248.0
113.094841	156.0
113.116173	7332.0
113.158966	196.0
113.794487	96.0
113.908615	116.0
113.923454	148.0
113.946434	108.0
113.970985	100.0
113.996849	112.0
114.03923	112.0
114.116669	132.0
114.526543	160.0
114.755112	140.0
115.818794	216.0
116.018074	208.0
116.208954	152.0
118.100945	196.0
118.180412	176.0
118.457573	184.0
119.414742	164.0
119.768066	108.0
121.375816	164.0
121.942192	236.0
122.441612	140.0
122.603767	128.0
122.915382	236.0
124.933983	168.0
125.01577	2408.0
125.629028	196.0
126.017494	360.0
126.365761	120.0
126.444595	160.0
126.780525	180.0
127.013481	592.0
127.606552	192.0
128.010635	192.0
128.230087	232.0
128.92067	204.0
129.259872	156.0
129.549667	164.0
129.921463	196.0
130.032639	192.0
130.338547	136.0
131.050385	448.0
132.092422	148.0
132.914902	184.0
133.30986	172.0
134.703766	172.0
136.077057	200.0
136.409271	140.0
136.839645	140.0
137.163467	148.0
137.903366	164.0
138.464874	144.0
138.600754	160.0
138.694489	164.0
138.807022	172.0
139.198059	212.0
139.800674	148.0
141.549881	180.0
143.097992	160.0
145.397537	148.0
146.742188	172.0
148.864227	184.0
149.993118	148.0
150.559158	232.0
151.361252	172.0
153.053055	152.0
153.072754	176.0
153.237778	180.0
153.274734	228.0
153.368393	140.0
155.94426	164.0
156.375259	140.0
156.457413	180.0
156.636703	180.0
157.599686	140.0
158.152344	168.0
158.723541	172.0
158.818832	160.0
159.055786	5020.0
159.112442	200.0
160.061798	668.0
160.529007	140.0
161.079514	164.0
161.62529	160.0
162.618683	180.0
163.719528	140.0
164.428421	116.0
164.944183	168.0
164.977417	148.0
165.020874	176.0
165.629944	148.0
166.389008	192.0
167.02887	244.0
167.275894	176.0
168.746384	124.0
169.067123	152.0
169.258377	172.0
169.763977	176.0
171.018814	140.0
171.385315	136.0
171.49025	172.0
172.388321	168.0
172.994797	148.0
173.358307	196.0
174.106506	140.0
174.582169	188.0
175.166473	164.0
175.780762	148.0
176.692322	148.0
177.089081	180.0
177.529434	96.0
177.659286	148.0
179.265198	176.0
179.363449	148.0
179.467789	160.0
179.622467	168.0
179.710495	140.0
180.423584	168.0
180.996216	164.0
181.811066	168.0
182.071472	140.0
182.388504	212.0
183.053024	148.0
183.405945	228.0
183.435608	148.0
183.853653	224.0
184.212753	180.0
184.25058	228.0
184.458664	148.0
184.631699	148.0
184.726364	196.0
184.831879	152.0
185.074921	208.0
185.10257	152.0
185.210892	200.0
185.37886	156.0
186.021652	140.0
186.21225	164.0
186.244324	168.0
186.420914	144.0
186.619339	208.0
186.768906	172.0
186.89801	184.0
187.490402	160.0
187.632141	148.0
187.96489	152.0
188.265167	144.0
188.666824	228.0
188.825638	100.0
188.929352	148.0
189.934677	176.0
190.280457	164.0
191.67218	156.0
191.796204	156.0
192.485901	156.0
192.751083	172.0
193.293045	204.0
194.04921	148.0
194.271072	176.0
194.739166	112.0
194.871017	156.0
195.62439	144.0
195.788666	212.0
196.147766	140.0
196.340469	184.0
196.650345	172.0
197.075699	212.0
197.24707	164.0
197.41983	128.0
198.074921	164.0
199.119537	160.0
200.019257	176.0
200.072754	172.0
200.092453	152.0
200.57135	184.0
200.822296	160.0
200.923843	152.0
201.30629	184.0
201.502594	156.0
202.78447	184.0
202.842484	128.0
203.079025	188.0
203.201309	140.0
203.681061	144.0
203.982269	168.0
204.07608	172.0
204.716309	300.0
205.985489	152.0
207.021042	116.0
207.416214	228.0
208.282776	232.0
208.630478	152.0
208.983383	152.0
209.459229	172.0
210.70256	180.0
210.725677	148.0
211.04071	140.0
211.086975	168.0
211.115891	204.0
211.655029	104.0
212.779831	200.0
213.997269	176.0
214.13208	176.0
214.306	148.0
214.614944	180.0
214.781174	140.0
214.843643	136.0
215.014587	192.0
215.125504	180.0
215.296539	116.0
215.717422	128.0
215.75943	140.0
216.811752	148.0
217.361542	156.0
217.464249	240.0
217.555252	164.0
218.28978	152.0
218.339767	156.0
218.495667	164.0
219.069031	344.0
219.110962	180.0
219.162827	116.0
219.37619	168.0
219.508865	164.0
219.843338	140.0
220.068954	252.0
220.358932	192.0
220.610138	144.0
220.965027	172.0
221.080948	140.0
221.207687	140.0
221.31723	232.0
222.136841	144.0
222.562546	180.0
222.725891	164.0
223.528595	160.0
224.120346	260.0
224.308884	204.0
224.893509	164.0
224.953217	220.0
225.138336	212.0
225.238785	132.0
225.278702	176.0
226.032013	104.0
227.055573	404.0
227.338638	140.0
227.455688	188.0
227.52774	140.0
227.94223	176.0
228.060974	160.0
228.609802	268.0
229.300873	128.0
229.950882	188.0
232.070328	152.0
232.180603	180.0
232.520386	220.0
232.653946	148.0
233.507782	140.0
233.702469	148.0
234.356781	156.0
234.421082	184.0
236.499405	108.0
236.623322	144.0
236.92038	140.0
237.134872	140.0
237.23909	140.0
237.315735	152.0
237.924942	116.0
238.041626	152.0
238.537598	140.0
238.98967	196.0
239.302582	204.0
239.454498	140.0
240.052368	148.0
241.045242	224.0
241.417282	144.0
242.044891	112.0
242.42337	192.0
243.804321	144.0
243.847824	140.0
244.295578	164.0
245.058319	152.0
246.825455	152.0
247.106461	224.0
248.321869	152.0
249.059448	232.0
249.452225	140.0
249.939697	216.0
250.200928	160.0
252.267242	140.0
252.355759	232.0
252.694183	172.0
252.833405	172.0
253.426636	176.0
253.59848	176.0
254.036972	580.0
255.053177	364.0
255.272919	148.0
255.546463	156.0
255.638733	168.0
256.05246	340.0
257.050415	252.0
257.079132	160.0
257.522888	160.0
257.569885	200.0
258.05899	120.0
258.251617	196.0
258.385956	156.0
259.056396	256.0
259.253052	180.0
259.338287	204.0
259.378693	144.0
259.907837	184.0
262.687531	140.0
263.90506	148.0
264.267303	168.0
264.383789	168.0
265.041077	192.0
265.161041	140.0
265.264771	176.0
265.462524	144.0
265.793396	196.0
266.208893	156.0
267.395996	128.0
267.890411	200.0
268.017487	156.0
268.135498	184.0
268.555359	196.0
269.08728	140.0
269.129425	192.0
270.054535	156.0
270.077423	172.0
270.388489	164.0
270.426849	156.0
270.506073	168.0
270.659943	180.0
270.803925	96.0
270.908875	140.0
271.063965	20192.0
271.129974	108.0
271.181488	160.0
271.616913	176.0
271.823608	140.0
272.008575	180.0
272.066711	2264.0
272.611694	148.0
272.802246	152.0
273.016052	168.0
273.061768	6252.0
273.275909	184.0
273.614899	140.0
274.06311	856.0
274.114075	160.0
274.868103	112.0
275.293182	156.0
276.126007	152.0
276.397247	140.0
276.589203	144.0
276.729095	140.0
276.797791	244.0
277.397461	192.0
277.516785	184.0
278.097321	192.0
278.13385	152.0
278.990875	176.0
279.210327	156.0
279.455444	156.0
280.092804	136.0
280.912323	140.0
281.222656	220.0
281.256927	160.0
281.633331	168.0
281.763611	168.0
282.065125	328.0
282.295044	148.0
282.321808	220.0
282.392029	188.0
282.485687	180.0
282.686432	192.0
283.063812	10704.0
283.162659	164.0
283.457672	152.0
283.671875	124.0
283.771667	220.0
283.97287	176.0
284.066345	2128.0
284.480377	132.0
284.959778	148.0
285.061859	3836.0
285.211823	148.0
285.329468	140.0
285.379578	116.0
285.735016	124.0
285.874176	128.0
285.958496	200.0
286.06424	824.0
286.217285	156.0
286.254761	156.0
286.386108	152.0
286.589417	168.0
287.192566	164.0
287.552673	192.0
288.735138	144.0
289.43222	192.0
290.480927	128.0
290.806427	144.0
290.985107	140.0
291.012268	148.0
291.623718	164.0
292.130371	176.0
292.163971	132.0
292.463837	164.0
293.165405	144.0
293.196075	160.0
293.26767	192.0
293.584717	156.0
293.646118	240.0
294.035034	160.0
294.345703	140.0
294.434479	176.0
294.496613	192.0
295.093964	196.0
295.37439	140.0
295.641266	204.0
295.93222	164.0
296.106842	252.0
296.514557	152.0
296.620819	144.0
297.078644	764.0
297.612274	164.0
298.082855	152.0
298.337189	152.0
298.388763	164.0
298.729218	164.0
298.767059	152.0
299.072876	300.0
299.768982	152.0
300.565521	212.0
301.211487	108.0
301.459869	148.0
301.560089	168.0
301.83667	160.0
301.992279	192.0
303.030792	176.0
304.07074	128.0
304.237671	192.0
304.546722	232.0
304.753967	128.0
304.848969	168.0
305.697479	148.0
305.926239	120.0
305.959198	164.0
306.338104	140.0
306.961945	164.0
307.537598	228.0
308.016235	144.0
308.06485	160.0
308.187469	124.0
308.466705	140.0
308.659973	100.0
309.079529	1856.0
309.223175	148.0
309.941803	156.0
310.079742	436.0
310.140106	168.0
310.371246	208.0
310.964081	152.0
311.076385	404.0
311.329224	156.0
312.007355	140.0
312.08136	232.0
312.153168	116.0
313.529266	156.0
314.953308	176.0
315.3172	200.0
315.546967	160.0
315.702545	144.0
315.893555	144.0
316.020905	164.0
316.095215	216.0
316.417297	160.0
316.738617	144.0
317.756958	144.0
317.945038	188.0
318.415009	156.0
318.587708	148.0
318.640228	132.0
318.914612	160.0
320.434082	188.0
320.459045	172.0
321.246918	168.0
321.629578	136.0
321.925049	144.0
322.578888	204.0
322.859894	128.0
323.094727	304.0
323.405151	148.0
323.774719	340.0
324.10257	172.0
324.53717	168.0
324.759521	140.0
326.127472	152.0
326.587708	252.0
326.940308	140.0
327.512756	160.0
327.743317	168.0
328.132568	168.0
328.568939	160.0
328.619446	144.0
329.426636	96.0
329.558197	188.0
330.766083	164.0
331.182922	100.0
331.240417	148.0
331.802124	164.0
332.288116	160.0
332.600189	176.0
333.104919	148.0
333.453735	176.0
333.712708	148.0
333.853638	156.0
333.943665	180.0
334.141968	164.0
336.22525	244.0
336.772888	156.0
337.22229	196.0
338.28302	100.0
338.792053	188.0
339.124756	1144.0
339.44812	192.0
339.668152	148.0
340.128754	296.0
340.607849	160.0
341.074493	172.0
341.127106	364.0
342.131104	304.0
342.162048	120.0
343.276123	148.0
343.545349	224.0
344.217072	228.0
345.262878	168.0
345.288757	172.0
346.34729	140.0
346.380646	140.0
346.741669	184.0
347.084778	152.0
347.233124	156.0
347.485352	176.0
348.502655	160.0
348.73233	164.0
349.110748	108.0
351.054413	112.0
351.127197	3700.0
351.989044	172.0
352.129272	1292.0
352.624115	168.0
352.715485	124.0
352.810181	124.0
352.89328	172.0
353.123383	812.0
353.208557	236.0
353.349548	208.0
354.128662	216.0
354.294678	132.0
354.555267	192.0
355.419067	192.0
355.71048	140.0
355.988312	152.0
356.762299	164.0
357.322662	160.0
357.356506	140.0
357.721558	172.0
358.011475	144.0
358.561493	168.0
358.610504	160.0
358.957336	140.0
359.225098	152.0
359.659027	152.0
359.927094	184.0
360.108337	156.0
360.229218	168.0
360.312317	156.0
360.618408	208.0
360.852783	160.0
361.624451	188.0
362.309845	172.0
362.446228	140.0
362.515961	108.0
362.980682	140.0
363.667358	180.0
364.096375	188.0
364.483826	164.0
365.09967	148.0
365.400146	148.0
365.836121	180.0
365.971039	200.0
366.163422	116.0
367.262939	160.0
367.579559	236.0
367.797119	184.0
368.156006	140.0
369.115143	140.0
369.608582	148.0
369.738678	144.0
370.561951	152.0
370.588776	152.0
371.327911	200.0
371.442963	108.0
371.838867	140.0
372.030792	144.0
372.160339	188.0
372.470612	188.0
372.791656	200.0
373.452545	168.0
375.844849	212.0
376.15744	236.0
377.043091	148.0
377.106476	172.0
377.335571	220.0
377.464996	128.0
377.613434	136.0
378.320007	140.0
378.477081	188.0
378.592102	136.0
378.721069	236.0
378.848663	140.0
378.949615	172.0
378.982666	128.0
379.138092	140.0
379.326813	120.0
379.370697	220.0
379.42691	232.0
379.498322	208.0
379.523468	340.0
379.56723	116.0
379.612	188.0
379.730835	112.0
379.7789	152.0
379.855408	112.0
379.887146	120.0
379.928528	136.0
380.039276	148.0
380.084595	188.0
380.151154	440.0
380.20694	112.0
380.265686	232.0
380.3396	224.0
380.376343	264.0
380.458496	132.0
380.525543	192.0
380.594849	232.0
380.746674	256.0
380.770935	308.0
380.836151	224.0
380.944336	208.0
381.00882	260.0
381.044098	432.0
381.073517	468.0
381.112671	116.0
381.150513	384.0
381.181366	408.0
381.215393	144.0
381.26712	392.0
381.306915	180.0
381.351257	200.0
381.408508	320.0
381.454529	104.0
381.492981	240.0
381.537689	272.0
381.616089	340.0
381.668365	428.0
381.694611	528.0
381.733398	280.0
381.793121	336.0
381.838348	188.0
381.902466	316.0
381.954071	356.0
382.030426	460.0
382.09436	1092.0
382.171387	237704.0
382.312317	300.0
382.398773	108.0
382.44455	304.0
382.53598	576.0
382.59375	740.0
382.638763	224.0
382.65036	276.0
382.727905	148.0
382.764679	584.0
382.813293	11120.0
382.859528	924.0
382.921967	180.0
382.979431	412.0
383.027802	116.0
383.073853	220.0
383.17334	149040.0
383.292023	248.0
383.332336	192.0
383.384674	136.0
383.436035	268.0
383.4617	236.0
383.511017	256.0
383.552643	216.0
383.703735	288.0
383.748474	416.0
383.815216	924.0
383.955872	156.0
384.027374	156.0
384.096039	476.0
384.167938	172884.0
384.307831	112.0
384.360687	312.0
384.430603	436.0
384.515198	256.0
384.562134	208.0
384.609253	160.0
384.738678	224.0
384.809082	956.0
384.863678	384.0
384.936005	312.0
384.976929	348.0
385.00592	312.0
385.022736	248.0
385.033752	244.0
385.052338	180.0
385.062866	268.0
385.104614	148.0
385.168976	34708.0
385.259521	304.0
385.288727	276.0
385.357056	272.0
385.407257	376.0
385.472076	252.0
385.57132	124.0
385.617767	172.0
385.647583	160.0
385.67923	344.0
385.729431	272.0
385.835846	204.0
385.877441	300.0
386.001678	176.0
386.047302	212.0
386.176483	848.0
386.302063	216.0
386.423035	104.0
386.477081	352.0
386.537903	104.0
386.628479	172.0
386.670563	164.0
386.683502	228.0
386.855774	124.0
386.931885	144.0
387.001099	104.0
387.068756	152.0
387.270538	160.0
387.330902	260.0
387.371735	108.0
387.523071	156.0
387.618622	164.0
387.685059	432.0
387.73233	124.0
387.788513	188.0
387.850342	200.0
388.190094	128.0
388.512543	184.0
388.561798	268.0
389.045715	108.0
389.300873	156.0
393.43811	96.0
394.408569	124.0
395.437683	100.0
395.98056	96.0
396.545532	104.0
397.188934	128.0
397.33844	148.0
397.625977	100.0
397.692719	168.0
398.358612	216.0
398.586639	128.0
400.103241	168.0
402.945374	108.0
403.301666	96.0
406.899261	96.0
408.32428	148.0
409.159271	104.0
415.039001	140.0
426.337219	124.0
449.877472	168.0
521.231995	192.0
522.327637	144.0
526.781189	152.0
529.287415	148.0
536.083923	96.0
555.312317	132.0
559.765259	152.0
575.450623	148.0
599.536133	140.0
633.277649	152.0
653.734924	144.0
660.390442	100.0
745.435974	148.0
927.663757	168.0
930.922424	184.0
1210.560547	156.0
1215.710205	136.0
1216.377441	168.0
1250.213135	176.0
1276.74231	192.0
1294.969971	172.0
1300.397339	220.0
1356.226807	152.0
1366.095703	148.0
1383.778076	168.0
1384.985229	148.0
1392.483765	184.0
1392.647095	144.0
1403.713501	192.0
1412.331909	160.0
1415.302979	156.0
1476.594238	148.0
1477.695801	176.0
1482.565674	148.0
1484.014404	172.0
1484.367188	156.0
1484.949951	172.0
1486.154419	160.0
1488.579956	176.0
1518.399292	144.0
1519.151611	144.0
1521.425415	188.0
1525.115112	176.0
1534.316162	188.0
1539.044189	212.0
1547.637207	152.0
1552.919067	164.0
1556.953003	172.0
1557.919067	148.0
1561.267456	196.0
1573.093994	188.0
1579.795166	140.0
1582.351318	184.0
1583.380737	188.0
1588.842041	180.0
1590.087891	156.0
1596.530884	164.0
1611.7323	180.0
1612.683228	180.0
1613.138916	156.0
1618.947632	140.0
1621.326904	224.0
1621.920654	216.0
1632.429199	140.0
1635.124268	184.0
1638.771973	160.0
1640.061401	204.0
1641.109375	164.0
1647.929565	172.0
1654.595459	184.0
1655.476318	144.0
1659.544067	196.0
1662.050293	168.0
1670.288086	252.0
1683.777222	192.0
1689.220825	176.0
1692.265259	148.0
1697.058228	152.0
1697.632202	172.0
1712.071045	144.0
1725.7771	188.0
1728.879028	168.0
1729.739746	144.0
1737.695435	156.0
1738.292847	164.0
1762.173218	164.0
1768.536987	160.0
1773.495483	216.0
1775.004517	140.0
1781.626587	260.0
1786.208008	196.0
1786.90625	196.0
1793.938354	144.0
1794.056396	164.0
1797.556519	144.0
1803.99231	204.0
1804.753174	140.0
1805.962524	160.0
1809.474243	228.0
1814.752686	176.0
1815.558228	256.0
1818.332397	268.0
1823.89563	140.0
1826.352905	144.0
1829.543945	256.0
1831.545044	236.0
1831.613159	200.0
1841.661011	148.0
1857.050171	152.0
1858.457031	160.0
1860.585571	156.0
1862.695312	192.0
1863.711792	160.0
1870.437012	172.0
1870.944824	228.0
1872.684204	156.0
1876.303345	180.0
1883.111694	140.0
1883.921753	216.0
1884.165527	176.0
1886.213623	180.0
1895.447998	224.0
1895.846558	192.0
1897.493408	160.0
1897.66687	164.0
1898.577271	148.0
1903.393433	152.0
1906.685791	168.0
1909.815796	156.0
1912.661011	148.0
1919.142456	148.0
1921.061157	140.0
1925.442871	184.0
1925.888306	152.0
1930.231689	144.0
1932.287109	188.0
1932.724609	192.0
1933.77478	140.0
1944.098633	164.0
1944.748047	204.0
1952.49707	200.0
1953.25354	144.0
1957.847778	184.0
1962.147827	172.0
1967.175293	144.0
1970.576294	160.0
1973.6521	144.0
1975.5802	172.0
1979.031738	168.0
1979.403564	140.0
1983.567627	212.0
1987.522949	160.0
1993.534546	140.0
1995.490112	140.0
2001.121948	140.0
2002.626831	168.0
END IONS

BEGIN IONS
PEPMASS=264.196
CHARGE=1
MSLEVEL=2
SOURCE_INSTRUMENT=LC-ESI-qTof
FILENAME=NCP003432_A2_B11_BC8_01_15722.mzXML
SEQ=*..*
IONMODE=Positive
ORGANISM=GNPS-NIH-CLINICALCOLLECTION1
NAME=Tramadol [M+H]
PI=Dorrestein
DATACOLLECTOR=Garg_Neha
SMILES=COc1cccc(c1)[C@@]2(O)CCCC[C@@H]2CN(C)C
INCHI=N/A
INCHIAUX=N/A
PUBMED=N/A
SUBMITUSER=negarg
LIBRARYQUALITY=1
SPECTRUMID=CCMSLIB00000079046
USI=mzspec:GNPS:GNPS-NIH-CLINICALCOLLECTION1:accession:CCMSLIB00000079046
SCANS=1050
56.775269	168.0
58.082935	264.0
60.317108	148.0
63.337296	144.0
63.71484	148.0
66.00692	156.0
71.082939	156.0
75.694489	160.0
80.794075	204.0
87.18541	188.0
88.673576	156.0
93.076927	172.0
94.97789	156.0
97.655792	208.0
98.444107	204.0
99.737846	188.0
104.57753	168.0
106.158813	192.0
106.222397	144.0
108.105537	200.0
108.820648	144.0
116.466316	220.0
117.834236	144.0
117.91851	168.0
121.06369	292.0
122.025475	200.0
122.875603	144.0
123.016838	220.0
125.381271	224.0
127.127853	192.0
127.718727	208.0
129.807785	180.0
133.070694	180.0
133.102844	184.0
133.339462	196.0
133.781082	184.0
134.447205	192.0
135.080276	152.0
135.779755	204.0
136.962784	148.0
142.087631	152.0
143.245346	160.0
144.05545	272.0
144.25235	220.0
146.409348	140.0
147.081085	280.0
148.968353	184.0
150.019623	140.0
150.053757	140.0
153.126297	140.0
156.141068	148.0
156.424713	192.0
158.137009	216.0
158.537704	144.0
159.082748	260.0
161.086349	196.0
161.857834	144.0
167.460938	172.0
167.690247	156.0
172.074203	192.0
172.094101	200.0
173.094086	152.0
178.405136	216.0
183.637451	152.0
185.497726	172.0
189.117767	148.0
192.270187	192.0
194.134766	224.0
200.11174	160.0
201.12439	152.0
207.791458	152.0
214.792404	160.0
218.159958	148.0
221.479645	156.0
241.283829	216.0
243.514893	176.0
243.682632	144.0
244.158218	168.0
245.553818	152.0
246.185745	4452.0
247.189224	684.0
251.114212	156.0
251.142609	160.0
253.998825	140.0
254.608215	180.0
255.4823	168.0
261.18808	148.0
262.174835	184.0
262.87735	164.0
263.137421	132.0
263.165833	336.0
263.39621	180.0
263.519897	152.0
263.560364	136.0
263.724243	136.0
263.877228	200.0
264.13504	152.0
264.158905	152.0
264.19693	83600.0
264.279541	108.0
264.382874	152.0
264.444366	268.0
264.484741	200.0
264.559204	304.0
264.627472	268.0
264.726746	188.0
264.964294	132.0
265.017273	108.0
265.157257	188.0
265.199585	10556.0
265.522644	148.0
265.688171	112.0
265.731201	156.0
266.202759	1184.0
266.580872	160.0
266.806183	160.0
266.857849	252.0
267.045044	144.0
267.205383	420.0
267.270294	144.0
268.147705	132.0
328.157593	148.0
355.146912	152.0
1816.903076	140.0
1837.389038	172.0
END IONS

BEGIN IONS
PEPMASS=288.175
CHARGE=1
MSLEVEL=2
SOURCE_INSTRUMENT=LC-ESI-qTof
FILENAME=NCP003432_A2_B11_BC8_01_15722.mzXML
SEQ=*..*
IONMODE=Positive
ORGANISM=GNPS-NIH-CLINICALCOLLECTION1
NAME="4-(dibenzo[1,2-a:1',2'-e][7]annulen-11-ylidene)-1-methylpiperidine" [M+H]
PI=Dorrestein
DATACOLLECTOR=Garg_Neha
SMILES=CN1CCC(=C2c3ccccc3C=Cc4ccccc24)CC1
INCHI=N/A
INCHIAUX=N/A
PUBMED=N/A
SUBMITUSER=negarg
LIBRARYQUALITY=1
SPECTRUMID=CCMSLIB00000079057
USI=mzspec:GNPS:GNPS-NIH-CLINICALCOLLECTION1:accession:CCMSLIB00000079057
SCANS=1181
45.461235	172.0
46.417667	160.0
47.251255	144.0
47.714817	240.0
50.611633	212.0
51.374851	168.0
53.944077	168.0
56.03833	140.0
56.220371	216.0
57.096649	208.0
58.529743	140.0
59.001198	144.0
59.178673	200.0
59.499104	168.0
60.402149	264.0
61.379032	164.0
64.036156	188.0
64.396614	168.0
64.658813	252.0
65.392273	156.0
65.521095	140.0
67.279106	188.0
70.386589	180.0
72.808235	192.0
75.006866	188.0
75.117638	204.0
77.04068	140.0
79.200859	176.0
81.003517	164.0
82.047607	224.0
83.367119	216.0
85.085922	160.0
85.554718	180.0
85.950974	176.0
87.362762	140.0
87.908684	144.0
88.143967	148.0
91.056473	160.0
91.083061	280.0
91.294029	160.0
92.04483	168.0
94.064888	256.0
95.071014	180.0
96.049652	184.0
96.081429	2788.0
97.088684	700.0
97.11174	148.0
98.090942	240.0
99.057228	140.0
100.850052	148.0
102.177551	180.0
102.48333	144.0
105.070656	172.0
108.080917	168.0
108.505287	156.0
110.097534	416.0
110.254372	152.0
114.468605	216.0
115.05426	424.0
115.465393	244.0
116.285957	140.0
117.068413	704.0
118.072884	176.0
121.011841	252.0
124.889229	164.0
125.796127	160.0
126.055206	168.0
126.706306	144.0
128.062653	328.0
129.070923	1080.0
130.452576	160.0
131.080734	168.0
132.085281	192.0
133.084473	176.0
133.245239	144.0
134.096649	236.0
134.359512	164.0
140.104126	152.0
141.069229	868.0
141.097672	168.0
141.336548	160.0
141.819656	152.0
142.072388	364.0
143.066742	200.0
143.085785	200.0
144.738007	160.0
144.960785	140.0
147.540985	204.0
149.247833	168.0
152.058578	252.0
153.068481	904.0
154.074142	280.0
155.078445	140.0
155.480225	144.0
156.611465	140.0
157.072586	140.0
157.844299	212.0
158.174545	176.0
159.893829	180.0
161.182449	180.0
165.070923	328.0
165.931976	160.0
167.084488	1028.0
168.085175	108.0
169.092651	156.0
170.093124	152.0
171.641083	216.0
171.797562	204.0
175.3927	160.0
178.07782	1036.0
179.085922	896.0
180.062485	156.0
180.092926	436.0
181.104202	132.0
182.100693	192.0
182.358551	208.0
182.928787	160.0
183.103882	144.0
184.108353	268.0
185.115707	148.0
189.06781	864.0
189.649124	164.0
190.077164	244.0
190.76355	168.0
191.086105	13608.0
192.089218	1916.0
193.09613	404.0
194.097	272.0
194.245697	152.0
195.034271	140.0
195.100983	144.0
195.242798	140.0
196.11348	1072.0
197.116745	972.0
198.116699	276.0
198.641953	144.0
198.709274	152.0
199.126495	184.0
202.079178	1008.0
202.979645	180.0
203.085312	2272.0
204.093613	2748.0
205.098999	2012.0
205.246719	124.0
206.104538	516.0
207.106064	132.0
213.574844	148.0
215.085953	2904.0
216.093582	3116.0
216.525604	168.0
217.101913	4472.0
217.801453	264.0
217.886642	176.0
218.103409	604.0
219.886002	148.0
226.046616	172.0
226.079529	144.0
226.133392	240.0
227.088669	228.0
228.094238	1264.0
229.103119	1548.0
230.110413	1748.0
231.050293	156.0
231.115143	628.0
231.495224	180.0
232.121078	204.0
233.122208	144.0
236.95665	176.0
237.076141	140.0
237.425629	140.0
238.761536	144.0
239.080887	104.0
240.002518	144.0
241.099564	648.0
241.255981	216.0
242.044937	172.0
242.106903	576.0
243.117691	796.0
244.122559	236.0
244.223511	180.0
245.133453	1068.0
245.176208	184.0
245.450531	152.0
246.134644	520.0
250.512177	196.0
250.928162	160.0
254.306595	140.0
257.132507	420.0
258.132629	128.0
259.142242	132.0
260.14801	168.0
265.964844	140.0
269.365692	116.0
269.87085	176.0
272.145508	412.0
274.161102	160.0
275.411499	144.0
275.705536	236.0
280.961761	168.0
282.699219	140.0
284.445374	140.0
285.932129	128.0
285.97583	148.0
286.092529	248.0
286.158081	176.0
286.994843	160.0
287.058777	340.0
287.503265	212.0
287.534729	216.0
287.744476	156.0
287.775848	124.0
287.842377	168.0
287.872772	144.0
288.013123	328.0
288.114868	148.0
288.176361	91520.0
288.352478	140.0
288.438568	96.0
288.477692	96.0
288.548462	236.0
288.582886	232.0
288.67099	132.0
288.731934	344.0
288.795563	188.0
288.854065	144.0
288.933472	168.0
288.97821	104.0
289.060638	148.0
289.179626	17204.0
289.272491	156.0
289.314423	216.0
289.564484	116.0
289.765594	140.0
290.182098	1772.0
290.565186	96.0
290.632843	104.0
290.811737	140.0
290.932587	140.0
291.127106	192.0
291.178162	176.0
291.2565	112.0
291.289581	180.0
291.337677	144.0
291.371643	168.0
291.93927	156.0
292.147247	140.0
1020.65332	200.0
1144.110474	212.0
1180.800293	140.0
1219.055786	144.0
1223.173096	180.0
1298.694214	184.0
1337.510498	188.0
1380.689575	176.0
1409.21167	160.0
1426.741455	172.0
1429.479248	156.0
1471.70813	160.0
1491.803711	212.0
1579.688965	220.0
1582.617188	180.0
1606.834595	156.0
1609.723877	196.0
1616.726685	140.0
1751.166626	220.0
1751.974609	176.0
1781.967285	156.0
1808.141479	196.0
1820.756592	144.0
1845.52832	164.0
1879.240356	176.0
1913.527466	224.0
1946.297729	148.0
1962.355225	212.0
1964.083618	140.0
1997.504517	168.0
END IONS

BEGIN IONS
PEPMASS=256.181
CHARGE=1
MSLEVEL=2
SOURCE_INSTRUMENT=LC-ESI-qTof
FILENAME=NCP003592_G2_H11_BE3_01_15737.mzXML
SEQ=*..*
IONMODE=Positive
ORGANISM=GNPS-NIH-CLINICALCOLLECTION1
NAME="N'-benzyl-N,N-dimethyl-N'-pyridin-2-ylethane-1,2-diamine" [M+H]
PI=Dorrestein
DATACOLLECTOR=Garg_Neha
SMILES=CN(C)CCN(Cc1ccccc1)c2ccccn2
INCHI=N/A
INCHIAUX=N/A
PUBMED=N/A
SUBMITUSER=negarg
LIBRARYQUALITY=1
SPECTRUMID=CCMSLIB00000079210
USI=mzspec:GNPS:GNPS-NIH-CLINICALCOLLECTION1:accession:CCMSLIB00000079210
SCANS=1068
44.887539	156.0
44.966251	172.0
45.168007	216.0
45.692535	168.0
45.882431	180.0
45.922886	196.0
46.144524	156.0
46.690819	168.0
46.852798	160.0
47.530964	148.0
48.038647	172.0
48.13802	148.0
48.256851	176.0
48.439529	192.0
48.778114	172.0
49.066284	180.0
49.405647	180.0
50.604763	168.0
50.779163	112.0
50.830135	200.0
50.845745	204.0
51.931503	192.0
52.089394	192.0
52.305088	144.0
52.32571	172.0
52.385727	168.0
52.541477	104.0
52.821678	228.0
52.87521	148.0
53.726707	152.0
54.182838	160.0
54.383736	148.0
54.430714	156.0
54.626186	176.0
54.796959	196.0
54.925213	160.0
54.960621	152.0
56.237713	136.0
56.98415	200.0
57.37093	200.0
57.521782	156.0
57.536877	176.0
57.958858	180.0
58.093792	192.0
58.300289	148.0
58.55283	156.0
58.909748	188.0
59.022846	152.0
59.143707	156.0
59.154423	196.0
59.639137	148.0
60.233913	204.0
60.412079	172.0
60.605209	192.0
60.993187	164.0
61.067822	172.0
61.102043	148.0
61.946617	184.0
61.960716	140.0
62.726227	164.0
62.798569	192.0
63.087532	164.0
63.123898	152.0
63.553158	144.0
63.715103	148.0
63.969547	148.0
64.136803	184.0
64.593483	180.0
64.71991	156.0
64.828835	152.0
64.982773	164.0
65.558426	200.0
65.598717	184.0
65.676117	192.0
65.842354	176.0
66.024979	180.0
66.076736	144.0
66.473709	152.0
66.606842	144.0
66.631523	144.0
66.847466	224.0
67.007034	196.0
67.210838	244.0
67.35614	188.0
67.517944	172.0
67.897316	180.0
68.244385	188.0
68.608231	168.0
68.621422	228.0
68.799599	156.0
69.411774	188.0
69.649101	144.0
69.925102	208.0
70.048317	192.0
70.111633	148.0
70.13163	156.0
70.186646	164.0
70.330116	184.0
70.488777	152.0
70.686089	164.0
70.972527	200.0
71.084908	208.0
71.133583	224.0
71.419235	200.0
71.446152	144.0
71.855537	152.0
72.274559	144.0
72.978462	196.0
73.180931	164.0
73.598671	172.0
73.689194	224.0
73.743874	140.0
73.819099	140.0
74.367325	148.0
74.442863	168.0
74.465187	160.0
74.724754	152.0
75.115814	244.0
75.134789	228.0
75.793739	148.0
75.838585	152.0
75.901001	192.0
75.921806	196.0
76.324677	232.0
76.382072	140.0
76.837135	152.0
76.89782	168.0
77.382034	164.0
77.608047	144.0
77.623833	192.0
78.340927	156.0
78.497787	164.0
78.515762	144.0
78.533058	140.0
78.563049	172.0
79.256104	144.0
79.268509	176.0
79.705025	140.0
80.003822	168.0
80.303177	196.0
80.426292	220.0
80.63504	140.0
80.724648	164.0
81.961433	152.0
82.010094	196.0
82.41613	152.0
82.560745	200.0
83.449265	148.0
83.665764	156.0
84.046677	148.0
84.101425	196.0
84.249336	160.0
84.302322	144.0
84.80378	160.0
85.159729	216.0
85.49617	184.0
85.577164	164.0
86.165512	144.0
86.198769	192.0
86.31707	188.0
86.631706	168.0
86.991463	144.0
87.09359	160.0
87.36499	140.0
87.498985	188.0
88.187317	176.0
88.913994	196.0
89.334885	156.0
89.540047	184.0
89.561058	156.0
89.792137	148.0
89.847298	188.0
90.032272	160.0
90.113495	152.0
90.561829	200.0
90.597816	148.0
90.935341	184.0
91.055229	8640.0
91.543701	140.0
91.612267	208.0
91.944038	168.0
92.056778	588.0
92.073792	232.0
92.61129	216.0
92.693665	140.0
92.931427	140.0
93.057625	316.0
93.779488	152.0
94.068871	156.0
94.136398	216.0
94.318001	188.0
94.372131	208.0
94.631393	156.0
94.646889	156.0
94.673996	148.0
94.881325	184.0
95.071411	176.0
96.07151	152.0
96.233498	236.0
96.626335	184.0
97.25341	140.0
97.502846	160.0
98.111061	168.0
98.8834	160.0
99.232033	140.0
99.267723	148.0
100.090385	148.0
100.399254	160.0
100.612755	160.0
100.686249	144.0
100.734573	228.0
101.088455	192.0
101.412895	200.0
101.553246	168.0
101.578026	180.0
102.011055	148.0
102.087463	196.0
102.141762	172.0
102.177971	144.0
102.441696	228.0
102.459824	152.0
102.500122	184.0
103.698517	200.0
103.889114	192.0
104.09005	180.0
104.134727	180.0
104.70826	196.0
104.74826	144.0
104.832535	152.0
104.996857	128.0
105.071091	300.0
105.105782	176.0
105.320137	176.0
105.563339	152.0
105.649246	200.0
105.97477	200.0
106.33773	208.0
106.401367	168.0
106.495827	164.0
106.541016	188.0
106.580055	176.0
106.979042	180.0
107.395279	196.0
107.438599	152.0
108.238457	188.0
109.059021	128.0
109.19722	212.0
109.471924	172.0
109.609406	164.0
109.655251	180.0
109.807449	160.0
110.403679	180.0
110.521889	164.0
110.703239	176.0
111.583168	160.0
111.991409	152.0
112.079887	144.0
112.788986	192.0
113.085106	184.0
113.26931	148.0
113.710335	168.0
114.703629	184.0
114.767586	140.0
115.183746	208.0
115.395432	140.0
115.564278	140.0
115.994728	140.0
116.12767	140.0
116.445312	176.0
116.974258	244.0
117.172379	156.0
118.288857	160.0
118.537926	160.0
118.553093	176.0
118.603348	128.0
118.698952	140.0
118.795929	156.0
118.848	208.0
119.061081	37352.0
119.153893	160.0
119.213867	124.0
119.256523	100.0
119.409378	132.0
119.537247	120.0
119.852547	232.0
120.01384	140.0
120.06826	20552.0
120.138062	128.0
120.290245	176.0
120.358589	232.0
120.430656	184.0
120.533333	184.0
120.63446	172.0
120.806625	168.0
120.868835	156.0
120.904449	152.0
121.07032	1400.0
121.117455	156.0
121.205086	152.0
121.433434	148.0
121.819397	224.0
122.07325	264.0
122.589035	208.0
123.760178	152.0
124.218933	188.0
124.283272	204.0
126.451561	140.0
126.69339	184.0
127.146324	172.0
127.516098	180.0
128.451309	148.0
128.715363	164.0
128.810226	156.0
129.502365	148.0
129.617905	216.0
129.821915	188.0
129.951218	204.0
130.616837	160.0
131.222595	148.0
132.001205	184.0
132.187393	104.0
132.532242	144.0
133.074875	144.0
133.326218	200.0
133.576828	204.0
134.028061	140.0
134.602417	164.0
134.849609	160.0
134.997559	184.0
135.488251	168.0
136.33284	152.0
137.014603	144.0
137.905991	196.0
138.158524	164.0
138.476868	160.0
138.788544	172.0
139.250839	192.0
139.318954	164.0
140.201309	144.0
140.425278	220.0
140.871384	152.0
141.382095	144.0
141.488617	176.0
142.790009	124.0
142.876953	188.0
143.243561	160.0
144.152557	160.0
144.594971	168.0
145.05246	240.0
145.121979	160.0
145.148346	168.0
145.525055	176.0
145.77594	152.0
145.938324	160.0
146.337723	184.0
146.479797	224.0
147.087448	152.0
147.614136	144.0
148.750427	168.0
149.058868	160.0
149.084396	204.0
149.666962	196.0
151.375946	164.0
151.586914	244.0
151.650635	168.0
152.812149	236.0
152.868744	184.0
153.452515	180.0
153.568405	164.0
154.333954	168.0
155.322083	140.0
155.34317	160.0
155.567749	176.0
155.714508	152.0
156.228775	188.0
156.383041	156.0
157.330261	140.0
158.779022	164.0
159.324402	204.0
160.272232	156.0
160.345306	176.0
161.294327	184.0
162.296844	164.0
162.322205	152.0
162.707855	204.0
162.8526	156.0
163.40596	164.0
164.99054	140.0
165.074905	188.0
165.236801	220.0
165.389587	140.0
166.440689	144.0
166.533142	164.0
167.665161	196.0
167.794037	164.0
167.969406	204.0
168.090927	156.0
168.261002	224.0
168.441772	140.0
168.692429	172.0
168.72345	220.0
169.033829	140.0
169.062286	172.0
169.380753	144.0
170.496399	140.0
171.170151	176.0
171.342056	140.0
171.451492	148.0
171.772186	192.0
173.48764	176.0
173.705292	184.0
173.996582	176.0
174.561493	208.0
174.874557	164.0
174.96669	140.0
175.282745	264.0
175.382889	156.0
175.493607	180.0
175.886688	228.0
177.084442	208.0
177.503159	204.0
177.521713	140.0
177.633118	140.0
180.397217	144.0
181.141144	172.0
181.234909	144.0
182.450699	140.0
183.088394	152.0
183.368591	248.0
184.075546	144.0
184.834961	212.0
185.138138	148.0
185.260025	192.0
186.114334	216.0
186.551743	148.0
186.712173	156.0
188.798447	156.0
189.995407	148.0
190.168289	144.0
191.611954	148.0
191.689102	188.0
191.950974	176.0
192.563614	172.0
192.931122	160.0
194.071777	192.0
194.224304	192.0
194.501785	152.0
196.215393	140.0
196.909271	120.0
197.393661	204.0
197.869308	172.0
198.395996	168.0
198.515182	140.0
198.558624	180.0
198.951462	196.0
199.133972	140.0
199.38121	176.0
199.513321	160.0
200.456207	144.0
200.912964	144.0
201.406952	148.0
201.910049	140.0
202.646027	168.0
202.834213	104.0
202.983322	156.0
203.059891	216.0
203.8349	148.0
204.608521	204.0
205.041489	152.0
205.808838	272.0
206.302979	180.0
206.391724	200.0
207.664352	152.0
207.798035	220.0
207.858292	144.0
207.918564	180.0
208.217133	160.0
208.475693	188.0
208.685516	164.0
209.384766	168.0
209.490997	164.0
209.767883	116.0
209.935211	156.0
210.018845	168.0
210.075653	184.0
210.121078	308.0
210.157318	176.0
210.247177	140.0
210.334457	208.0
210.367889	116.0
210.406586	120.0
210.447998	140.0
210.456573	228.0
210.494553	96.0
210.567902	260.0
210.592178	128.0
210.648911	184.0
210.735794	244.0
210.771332	140.0
210.825378	244.0
210.864105	156.0
210.918808	220.0
210.944885	136.0
210.982986	176.0
211.033234	332.0
211.125061	276312.0
211.228775	128.0
211.276291	196.0
211.332306	324.0
211.39035	424.0
211.430908	184.0
211.480209	212.0
211.512695	156.0
211.559769	152.0
211.599838	7128.0
211.640015	196.0
211.688599	272.0
211.750793	172.0
211.81398	208.0
211.867508	148.0
211.917297	192.0
211.969833	364.0
212.041763	108.0
212.068283	140.0
212.127106	60008.0
212.217102	104.0
212.251251	116.0
212.397278	112.0
212.434875	248.0
212.486862	96.0
212.595184	172.0
212.746384	136.0
212.824371	152.0
212.917511	228.0
212.9729	196.0
213.037537	96.0
213.129227	3944.0
213.276245	112.0
213.337112	96.0
213.418869	148.0
213.443832	104.0
213.491119	236.0
213.514313	284.0
213.536942	208.0
213.572449	224.0
213.629669	184.0
213.673141	276.0
213.725769	372.0
213.771606	284.0
213.80629	268.0
213.829712	272.0
213.895401	204.0
214.12973	316.0
214.280212	328.0
214.449326	104.0
214.561325	200.0
214.844162	172.0
215.716934	120.0
222.984833	144.0
223.053192	144.0
233.873352	160.0
236.097504	176.0
239.541229	144.0
241.773529	160.0
246.231705	168.0
246.978699	140.0
252.349945	148.0
254.153824	192.0
254.641022	164.0
255.082672	156.0
255.15712	184.0
255.235275	164.0
255.553345	156.0
255.819641	148.0
255.872864	132.0
256.026001	180.0
256.181793	46900.0
256.508575	156.0
256.720032	148.0
256.986206	244.0
257.183533	6016.0
257.265442	204.0
257.509033	160.0
258.015167	120.0
258.055267	100.0
258.185883	856.0
258.249878	136.0
259.114838	172.0
259.196533	348.0
274.09964	184.0
329.894958	144.0
365.104187	208.0
1016.395447	148.0
1112.566895	188.0
1122.427124	164.0
1213.60498	152.0
1227.253662	216.0
1277.463257	180.0
1298.814331	192.0
1300.622559	196.0
1313.149048	164.0
1323.707397	176.0
1324.743042	156.0
1332.99231	220.0
1338.74646	240.0
1361.857178	176.0
1399.096924	172.0
1403.395752	140.0
1406.439453	200.0
1437.170898	172.0
1449.170166	160.0
1457.523926	160.0
1467.571777	228.0
1476.604858	160.0
1494.593994	228.0
1508.468262	140.0
1515.689087	176.0
1522.437866	148.0
1525.996704	140.0
1539.281616	204.0
1549.825684	148.0
1560.075439	192.0
1582.077393	168.0
1590.456177	168.0
1593.545288	156.0
1603.651489	176.0
1605.533081	144.0
1619.647583	192.0
1623.366333	232.0
1626.013794	164.0
1646.107422	188.0
1646.745361	196.0
1661.964355	212.0
1675.020752	148.0
1676.185791	204.0
1693.365967	244.0
1699.046509	176.0
1700.113159	172.0
1707.284912	176.0
1708.699707	188.0
1721.359985	184.0
1725.565552	188.0
1728.369507	196.0
1730.935425	152.0
1733.130493	140.0
1734.008911	184.0
1736.139526	216.0
1737.574463	160.0
1738.503784	172.0
1740.375244	268.0
1743.968628	160.0
1754.206909	248.0
1762.243652	188.0
1762.828491	160.0
1762.970581	188.0
1763.338257	144.0
1764.859741	208.0
1765.210938	152.0
1766.214478	160.0
1767.343872	160.0
1772.845337	236.0
1774.697876	156.0
1777.566528	160.0
1781.033813	144.0
1783.865601	168.0
1783.941284	144.0
1795.425903	156.0
1798.944336	188.0
1801.148315	148.0
1801.908569	220.0
1807.72583	172.0
1808.07959	136.0
1808.927734	148.0
1810.477173	168.0
1817.843872	160.0
1818.709473	232.0
1821.808838	216.0
1830.254272	148.0
1830.535278	148.0
1831.012207	156.0
1836.859131	144.0
1838.4375	180.0
1849.727905	216.0
1852.425293	232.0
1856.290649	160.0
1857.276978	164.0
1858.134766	152.0
1860.941284	180.0
1861.044312	212.0
1862.341064	140.0
1865.546143	196.0
1866.440308	184.0
1866.845825	124.0
1870.526855	188.0
1871.439331	208.0
1875.134888	184.0
1875.376221	216.0
1875.557251	176.0
1879.757202	192.0
1881.164062	140.0
1882.631836	196.0
1888.87207	196.0
1894.602661	172.0
1898.060913	144.0
1898.442383	196.0
1907.584961	140.0
1930.445435	160.0
1942.242554	140.0
1947.807617	220.0
1965.220947	168.0
1965.918091	144.0
1966.853638	168.0
1970.924805	144.0
1975.018066	196.0
1978.74353	164.0
1985.052246	140.0
1990.145386	240.0
1990.811401	208.0
1993.289795	168.0
1993.902954	164.0
2000.128906	144.0
2000.565063	144.0
2001.25061	168.0
END IONS

BEGIN IONS
PEPMASS=585.291
CHARGE=1
MSLEVEL=2
SOURCE_INSTRUMENT=LC-ESI-qTof
FILENAME=p1-H07_GH7_01_17963.mzXML
SEQ=*..*
IONMODE=Positive
ORGANISM=GNPS-NIH-NATURALPRODUCTSLIBRARY
NAME=MLS002702983-01! M+H
PI=Dorrestein
DATACOLLECTOR=VVP/LMS
SMILES=CC1OC(OC2CC(O)C3(CO)C4C(O)CC5(C)C(CCC5(O)C4CCC3(O)C2)C6=CC(=O)OC6)C(O)C(O)C1O
INCHI=N/A
INCHIAUX=N/A
PUBMED=N/A
SUBMITUSER=vphelan
LIBRARYQUALITY=1
SPECTRUMID=CCMSLIB00000079543
USI=mzspec:GNPS:GNPS-NIH-NATURALPRODUCTSLIBRARY:accession:CCMSLIB00000079543
SCANS=1322
94.988625	148.0
95.056526	228.0
95.083694	200.0
95.66877	148.0
95.818726	144.0
97.06575	140.0
97.259094	160.0
97.45047	156.0
97.69622	104.0
98.336632	188.0
99.528381	136.0
100.081154	164.0
100.891182	172.0
100.959167	168.0
101.057182	132.0
101.311447	176.0
101.519897	48.0
101.608116	188.0
101.971611	144.0
102.767052	152.0
103.056007	212.0
103.467201	160.0
104.036018	164.0
104.186302	128.0
104.837418	208.0
105.066643	220.0
105.280106	224.0
105.308693	76.0
105.402672	116.0
106.981941	184.0
107.084076	156.0
107.559135	212.0
107.585976	156.0
107.959961	184.0
109.050476	240.0
109.064583	516.0
109.41243	240.0
110.100525	200.0
110.144386	36.0
110.644859	200.0
110.702812	180.0
110.791718	332.0
111.042526	492.0
111.080078	156.0
111.283646	80.0
111.661896	120.0
112.125076	144.0
112.627228	148.0
113.454636	116.0
113.518448	208.0
113.683708	136.0
114.49794	92.0
114.61084	48.0
115.051369	184.0
115.169785	168.0
115.404854	136.0
115.7258	104.0
115.777191	172.0
116.51722	176.0
117.068962	628.0
118.075554	176.0
118.333206	268.0
119.044418	176.0
119.08606	348.0
119.400826	160.0
119.535706	228.0
119.616234	248.0
119.825294	116.0
120.09343	176.0
120.554085	156.0
120.809906	172.0
121.059662	440.0
121.101036	148.0
121.33989	212.0
121.688736	68.0
121.728264	88.0
123.697128	152.0
124.084816	216.0
124.617485	124.0
124.659706	188.0
124.824203	188.0
124.875351	64.0
124.937637	152.0
125.060318	184.0
125.699638	148.0
126.237999	176.0
127.659752	124.0
127.86673	108.0
128.056808	196.0
128.211304	148.0
128.660172	116.0
128.74115	204.0
129.069107	1568.0
129.093994	104.0
129.112091	92.0
129.521759	196.0
129.743835	88.0
129.80278	164.0
130.07193	584.0
131.083801	1420.0
131.604935	48.0
131.986511	40.0
132.804092	92.0
133.018097	196.0
133.054214	228.0
133.079468	132.0
133.101715	504.0
133.681717	112.0
133.994858	104.0
134.100906	200.0
134.156189	196.0
134.68924	148.0
134.978134	136.0
135.042877	200.0
135.07991	376.0
135.116898	128.0
135.693588	144.0
135.872177	144.0
136.26918	240.0
136.783142	192.0
136.801758	140.0
137.056992	216.0
137.09523	188.0
137.256073	116.0
138.197403	48.0
139.073853	108.0
139.10907	196.0
139.156021	192.0
140.165085	64.0
140.389023	128.0
140.71701	128.0
140.91304	228.0
140.976837	144.0
141.069351	1260.0
141.97113	208.0
142.070755	164.0
142.089905	236.0
142.343704	120.0
142.367447	72.0
142.802368	60.0
143.084641	1528.0
143.230804	36.0
143.276062	44.0
143.836472	208.0
144.103943	164.0
144.831192	128.0
145.063965	188.0
145.099808	1004.0
145.17392	168.0
145.269852	36.0
145.633072	64.0
146.057755	124.0
146.098862	184.0
146.792328	152.0
147.00943	100.0
147.077118	496.0
147.118515	380.0
147.270172	184.0
148.07074	184.0
148.090118	136.0
148.264557	68.0
148.924484	116.0
149.058502	120.0
149.095749	180.0
149.639435	196.0
150.182861	80.0
151.030426	152.0
151.079346	132.0
151.196808	104.0
152.236252	176.0
152.393463	152.0
153.053833	444.0
153.284195	172.0
153.372925	36.0
153.821854	180.0
154.039169	108.0
154.076218	220.0
154.400024	144.0
154.954514	208.0
155.084427	836.0
155.14534	52.0
156.071411	176.0
156.087875	236.0
156.434647	160.0
156.686188	96.0
157.062897	200.0
157.100662	4820.0
157.234604	64.0
158.101837	764.0
158.174561	220.0
158.252167	92.0
158.994156	128.0
159.079147	916.0
159.117477	1104.0
159.20755	72.0
159.58699	32.0
159.639786	120.0
160.083755	304.0
160.120621	176.0
160.269089	124.0
161.05368	348.0
161.097733	200.0
161.604782	72.0
162.382477	116.0
163.075134	340.0
163.106003	176.0
163.744766	172.0
164.076019	188.0
164.4944	48.0
164.747208	128.0
165.043686	176.0
165.0905	408.0
165.168991	128.0
166.068054	172.0
166.365707	276.0
167.080399	700.0
167.226822	164.0
167.273148	68.0
167.878632	156.0
168.089767	180.0
168.410294	184.0
168.971237	148.0
169.002289	76.0
169.056625	160.0
169.100433	788.0
170.069992	176.0
170.102707	172.0
170.904205	56.0
171.07605	264.0
171.117188	312.0
171.750885	72.0
172.087524	108.0
173.031372	152.0
173.057556	132.0
173.094513	208.0
173.130875	172.0
173.57637	60.0
173.812439	100.0
174.098572	184.0
174.340271	56.0
175.075378	308.0
175.110733	308.0
176.523026	100.0
177.052292	224.0
177.092102	388.0
177.558487	84.0
178.092056	152.0
178.190262	96.0
178.31781	72.0
179.085327	364.0
179.21994	76.0
179.323868	104.0
179.9561	52.0
180.075073	352.0
180.428986	92.0
180.629562	188.0
180.854324	68.0
181.09642	268.0
182.106476	280.0
183.080048	212.0
183.115509	508.0
184.242599	188.0
184.73732	96.0
184.799545	104.0
184.8293	148.0
185.094925	184.0
185.127228	368.0
185.753159	128.0
186.095108	148.0
186.141266	152.0
186.807159	168.0
186.981293	160.0
187.077499	220.0
187.110886	884.0
187.269897	60.0
188.110916	176.0
188.131577	208.0
188.153412	176.0
188.54129	40.0
189.019852	228.0
189.090698	360.0
190.387772	88.0
191.08049	216.0
191.10556	304.0
191.281357	84.0
191.421768	92.0
191.711014	108.0
192.092926	160.0
192.251526	108.0
192.433716	112.0
192.513794	108.0
193.093613	308.0
194.041183	280.0
194.108002	180.0
194.565536	128.0
195.113846	300.0
195.215729	144.0
196.119659	348.0
196.170731	160.0
196.69516	160.0
197.095062	216.0
197.131073	276.0
197.421585	172.0
197.457947	112.0
198.10112	220.0
198.142014	168.0
199.115417	324.0
199.150818	112.0
200.149185	128.0
200.921448	44.0
201.093582	128.0
201.118988	328.0
201.794144	120.0
202.640411	164.0
203.042938	124.0
203.109955	224.0
204.031082	124.0
205.099991	484.0
205.120636	120.0
205.386581	168.0
205.614838	96.0
205.843216	132.0
206.10054	192.0
206.200317	56.0
207.104385	768.0
207.150269	224.0
207.241959	136.0
207.59166	32.0
207.829742	48.0
208.08519	128.0
208.108932	200.0
209.094528	148.0
209.130646	520.0
209.474228	44.0
210.140671	212.0
211.111984	320.0
211.14299	260.0
212.113861	128.0
212.173386	136.0
212.196579	64.0
212.42569	40.0
212.704254	76.0
213.081787	208.0
213.123199	140.0
214.872314	188.0
215.10083	300.0
215.137878	188.0
215.704605	148.0
216.485794	160.0
216.825638	168.0
217.094086	400.0
218.099442	104.0
218.590591	168.0
219.116226	276.0
219.813492	72.0
220.120499	160.0
220.888916	120.0
221.076218	584.0
221.128189	508.0
221.164108	176.0
221.19371	116.0
222.082901	168.0
222.106369	96.0
222.76535	172.0
223.102646	188.0
223.151703	132.0
224.101166	208.0
225.087326	188.0
225.12294	264.0
225.15715	56.0
225.707001	128.0
226.131805	28.0
226.239563	152.0
226.512085	192.0
227.10321	152.0
227.141281	152.0
227.168564	184.0
228.102478	196.0
228.13855	156.0
228.201675	156.0
228.52652	156.0
228.905777	196.0
229.017212	152.0
229.119247	156.0
229.130051	288.0
229.152771	184.0
230.105835	168.0
230.749374	168.0
230.891495	128.0
231.11232	320.0
232.117416	244.0
232.142227	68.0
232.221069	148.0
232.384888	84.0
232.515366	224.0
232.551788	108.0
232.837189	168.0
233.084961	192.0
233.125107	616.0
233.183533	36.0
233.514938	48.0
233.670074	84.0
233.740051	176.0
233.90744	148.0
234.099258	264.0
234.138733	232.0
234.684311	64.0
235.107727	184.0
235.140015	652.0
236.124466	132.0
236.149109	556.0
236.909271	172.0
237.093384	176.0
237.123428	440.0
237.157486	144.0
238.093246	92.0
238.176178	120.0
238.243759	192.0
238.670975	104.0
239.080093	164.0
239.110306	300.0
239.137665	412.0
240.031982	56.0
240.099823	72.0
240.121414	104.0
240.14418	148.0
240.383652	216.0
241.116089	328.0
241.879517	212.0
242.117767	160.0
243.119675	160.0
244.11824	324.0
245.125076	144.0
246.135803	564.0
246.241913	116.0
246.320007	204.0
247.147644	148.0
248.106888	132.0
248.157043	220.0
248.715454	240.0
248.762543	160.0
248.822189	192.0
249.107224	152.0
249.160324	444.0
250.022934	152.0
250.167725	108.0
251.108887	128.0
252.104355	136.0
252.145432	128.0
253.113586	192.0
253.153442	128.0
253.328827	68.0
254.105545	116.0
254.156311	52.0
254.197571	76.0
254.238815	52.0
254.619781	120.0
254.775436	56.0
255.126785	136.0
255.487549	88.0
256.098724	188.0
256.121033	132.0
257.108124	168.0
257.120178	168.0
257.129364	220.0
257.176422	200.0
258.133148	112.0
258.499542	172.0
259.148773	500.0
259.40274	72.0
259.793976	60.0
260.146179	144.0
261.084503	128.0
261.123779	136.0
261.164276	448.0
261.917419	148.0
262.126099	248.0
262.869904	32.0
263.095825	300.0
263.140411	128.0
263.171112	188.0
264.11673	164.0
264.129333	152.0
264.139343	148.0
264.181671	128.0
265.016968	52.0
265.11142	156.0
265.166016	128.0
266.009369	72.0
266.126251	128.0
267.147552	48.0
267.169525	124.0
267.465637	52.0
267.856384	112.0
268.123566	92.0
268.29306	52.0
268.834503	216.0
269.148438	120.0
269.869995	120.0
270.130859	96.0
270.153534	276.0
271.139984	124.0
271.799255	220.0
272.148712	152.0
273.106781	152.0
273.128235	140.0
273.160065	932.0
273.244934	36.0
273.788055	68.0
273.985687	60.0
274.162964	284.0
275.083862	152.0
275.106964	108.0
275.166382	124.0
275.285248	108.0
276.144531	164.0
276.174286	192.0
276.395935	92.0
276.925629	256.0
277.11322	152.0
277.157593	360.0
277.555298	136.0
277.707825	60.0
278.03299	44.0
278.166656	160.0
278.621277	140.0
279.136871	276.0
279.173798	236.0
280.183014	212.0
281.149933	436.0
281.98291	108.0
282.150055	204.0
282.200195	132.0
282.4711	108.0
282.819092	80.0
283.136292	232.0
283.144226	276.0
283.156403	196.0
283.168976	312.0
283.492279	84.0
283.871063	232.0
285.118713	192.0
285.158539	120.0
285.193848	184.0
285.745361	188.0
286.085266	168.0
286.137451	172.0
286.168671	264.0
287.092712	148.0
287.126434	124.0
287.173645	184.0
288.141632	176.0
288.182434	116.0
288.872681	148.0
289.150635	124.0
289.851166	152.0
290.135864	184.0
290.671753	88.0
291.045135	124.0
291.113068	200.0
291.141907	344.0
291.173096	672.0
291.204742	168.0
292.180328	188.0
292.784912	144.0
293.116669	120.0
293.149536	316.0
293.184265	248.0
293.859985	104.0
294.145874	136.0
295.116913	152.0
295.165649	208.0
295.205811	120.0
295.308411	160.0
296.165009	120.0
296.873535	148.0
297.127014	120.0
297.138306	108.0
297.148743	140.0
297.185699	132.0
297.752106	196.0
298.11969	168.0
298.938141	124.0
299.881775	60.0
301.157227	796.0
301.220581	96.0
301.313843	48.0
301.365662	76.0
301.448608	60.0
301.49353	84.0
301.649078	128.0
302.162506	192.0
303.172577	404.0
303.359131	40.0
304.073669	44.0
304.171509	148.0
304.858551	132.0
305.154297	212.0
305.867188	88.0
306.062134	136.0
306.149323	120.0
306.173584	140.0
307.128571	124.0
307.160522	244.0
307.460022	76.0
307.711334	152.0
308.130432	152.0
308.158386	128.0
308.207306	96.0
308.465942	84.0
308.62326	224.0
309.146545	264.0
309.183563	228.0
309.470001	72.0
309.697632	80.0
310.142609	112.0
310.191681	280.0
310.615997	32.0
311.19928	220.0
311.915222	180.0
312.003113	120.0
312.03476	36.0
312.171906	124.0
313.15921	508.0
313.678802	112.0
314.159058	228.0
315.171661	124.0
316.162964	148.0
317.142853	136.0
318.015411	128.0
318.16095	156.0
318.910461	148.0
318.985107	72.0
319.088196	140.0
319.167175	1800.0
319.974091	36.0
320.172852	380.0
320.315979	84.0
320.832703	48.0
320.996704	144.0
321.185944	2148.0
321.332001	88.0
322.189209	300.0
322.23526	144.0
322.288879	152.0
322.342468	136.0
322.58194	40.0
323.159729	400.0
323.202454	256.0
323.708954	100.0
324.106567	76.0
324.173584	424.0
324.300079	112.0
324.859467	156.0
325.1716	196.0
326.195312	136.0
327.152222	156.0
327.191803	156.0
329.348267	128.0
329.684265	96.0
330.64624	120.0
331.166595	1180.0
332.164215	228.0
332.886658	80.0
333.173615	112.0
334.184326	160.0
334.224335	156.0
335.1492	112.0
335.659515	36.0
335.838226	80.0
336.133728	120.0
336.838348	96.0
337.105072	184.0
337.176788	2888.0
337.225677	120.0
338.182098	656.0
338.224213	212.0
338.901733	160.0
339.190857	628.0
339.258759	72.0
339.46933	108.0
340.192169	316.0
340.313843	116.0
340.40564	48.0
341.175415	260.0
341.611176	96.0
342.176544	160.0
342.553558	52.0
343.519379	72.0
344.205872	120.0
347.574341	136.0
348.933746	68.0
349.179413	2620.0
349.633057	36.0
350.180115	684.0
350.595642	76.0
350.959198	60.0
351.190247	432.0
352.213135	132.0
352.493347	108.0
353.113922	36.0
353.626495	116.0
354.083282	120.0
355.187836	3792.0
355.258636	112.0
355.410309	40.0
356.146149	156.0
356.195648	684.0
356.890228	44.0
356.957916	52.0
357.161011	144.0
357.202759	304.0
357.578644	40.0
358.222534	120.0
358.365692	128.0
358.716156	64.0
359.185242	152.0
359.825287	40.0
360.195374	184.0
361.187103	144.0
362.908875	112.0
363.003662	116.0
364.009277	192.0
365.164581	116.0
366.066528	96.0
366.542694	152.0
366.683685	156.0
366.779663	132.0
367.064911	64.0
367.188019	2576.0
367.331879	48.0
367.644043	84.0
367.820312	48.0
367.889038	112.0
368.037933	32.0
368.191345	508.0
368.324371	40.0
368.385468	120.0
368.839966	120.0
368.882263	44.0
368.95108	56.0
368.981659	40.0
369.193146	392.0
369.551544	88.0
370.195282	160.0
371.601349	28.0
373.199585	884.0
373.545288	124.0
374.206909	132.0
374.249573	44.0
374.715607	60.0
375.058594	148.0
376.200378	120.0
381.527161	72.0
384.909088	208.0
384.995026	88.0
385.197723	1200.0
385.327026	108.0
385.706085	84.0
385.999329	60.0
386.151825	68.0
386.201355	484.0
387.203003	284.0
387.22937	168.0
387.279053	76.0
388.019714	112.0
388.721802	112.0
388.800293	120.0
391.186127	124.0
394.626312	140.0
396.2966	116.0
397.20047	136.0
403.06488	212.0
403.164795	144.0
403.207733	1436.0
404.084473	124.0
404.214905	308.0
405.201508	140.0
405.229553	136.0
406.195709	40.0
406.552795	64.0
439.233154	180.0
452.259308	116.0
456.803894	64.0
476.594452	88.0
480.273132	36.0
483.287476	180.0
484.228668	112.0
495.222198	128.0
498.669647	56.0
585.303955	160.0
586.305969	188.0
630.207153	48.0
646.09491	84.0
681.406494	44.0
686.220825	112.0
691.083435	68.0
695.753235	36.0
707.89624	56.0
714.876953	96.0
737.802246	96.0
888.460449	56.0
914.340088	60.0
922.682373	88.0
948.825378	32.0
973.059937	84.0
1034.573486	92.0
1101.648804	192.0
1108.112305	92.0
1109.656616	160.0
1178.532227	116.0
1179.632446	116.0
1184.436157	40.0
1185.258301	184.0
1219.273315	192.0
1227.704102	140.0
1228.729492	108.0
1247.329468	92.0
1259.533936	108.0
1261.958008	88.0
1262.325684	136.0
1262.57312	56.0
1295.1427	128.0
1297.378418	36.0
1330.608765	156.0
1331.29126	76.0
1333.463501	200.0
1350.195679	164.0
1366.965942	236.0
1386.750977	188.0
1389.101562	152.0
1389.902832	184.0
1391.468872	164.0
1400.772217	216.0
1434.614624	56.0
1438.36377	40.0
1444.575195	136.0
1453.667114	188.0
1467.81604	108.0
1468.609131	176.0
1471.623535	208.0
1496.126831	112.0
1503.001709	132.0
END IONS

BEGIN IONS
PEPMASS=531.295
CHARGE=1
MSLEVEL=2
SOURCE_INSTRUMENT=LC-ESI-Maxis II HD Q-TOF Bruker
FILENAME=G4_GG4_01_2721.mzXML
SEQ=*..*
IONMODE=positive
ORGANISM=GNPS-NIH-NATURALPRODUCTSLIBRARY_ROUND2_POSITIVE
NAME=NCGC00169458-03!5-[(3S,8R,10R,13R,14S,17R)-14-hydroxy-10,13-dimethyl-3-[(2R,3R,4R,5R,6S)-3,4,5-trihydroxy-6-methyloxan-2-yl]oxy-1,2,3,6,7,8,9,11,12,15,16,17-dodecahydrocyclopenta[a]phenanthren-17-yl]pyran-2-one M+H
PI=Jadhav/Dorrestein
DATACOLLECTOR=lfnothias
SMILES=C[C@@H]1O[C@@H](O[C@H]2CC[C@]3(C)C4CC[C@]5(C)[C@H](CC[C@]5(O)[C@@H]4CCC3=C2)C6=COC(=O)C=C6)[C@H](O)[C@H](O)[C@H]1O
INCHI=InChI=1S/C30H42O8/c1-16-24(32)25(33)26(34)27(37-16)38-19-8-11-28(2)18(14-19)5-6-22-21(28)9-12-29(3)20(10-13-30(22,29)35)17-4-7-23(31)36-15-17/h4,7,14-16,19-22,24-27,32-35H,5-6,8-13H2,1-3H3/t16-,19-,20+,21?,22+,24-,25+,26+,27-,28-,29+,30-/m0/s1
INCHIAUX=N/A
PUBMED=n/a
SUBMITUSER=mwang87
LIBRARYQUALITY=1
SPECTRUMID=CCMSLIB00000848836
USI=mzspec:GNPS:GNPS-NIH-NATURALPRODUCTSLIBRARY_ROUND2_POSITIVE:accession:CCMSLIB00000848836
SCANS=415
79.017296	117.0
79.043343	289.0
83.046761	133.0
85.029243	456.0
95.049896	138.0
103.03804	206.0
105.070602	150.0
107.084755	125.0
115.026566	213.0
121.102119	148.0
129.074158	400.0
135.113968	129.0
136.974289	139.0
137.052795	172.0
144.092163	136.0
147.087418	217.0
149.059143	184.0
157.059387	171.0
157.097229	444.0
159.114029	356.0
161.096756	256.0
167.032776	150.0
171.111969	105.0
173.09903	193.0
173.130478	129.0
176.150345	125.0
178.056229	103.0
183.083389	212.0
183.116348	265.0
185.130249	197.0
199.147598	363.0
201.091736	192.0
201.129486	194.0
203.142654	151.0
206.105316	127.0
207.053818	231.0
211.095016	194.0
213.162903	487.0
219.192947	157.0
231.129517	124.0
235.00856	170.0
236.107452	192.0
239.104309	210.0
239.523666	85.0
248.077164	192.0
252.095963	153.0
253.20488	267.0
254.177673	154.0
255.130417	148.0
259.359802	175.0
265.124329	165.0
266.121582	241.0
269.163361	297.0
271.16452	101.0
275.174011	160.0
276.161713	160.0
277.188843	111.0
279.131561	131.0
287.166107	398.0
293.148804	126.0
297.227875	174.0
303.215759	104.0
304.212738	164.0
307.160339	192.0
334.901978	163.0
349.213531	747.0
349.93869	102.0
350.215881	111.0
354.170776	127.0
367.221039	362.0
368.207123	217.0
411.050201	151.0
411.562408	179.0
432.238739	199.0
453.223267	202.0
471.630341	257.0
512.642517	74.0
514.178223	103.0
530.343628	197.0
531.295288	4279.0
532.203613	183.0
532.302368	1124.0
532.384338	280.0
663.325928	136.0
796.288208	159.0
1580.924805	152.0
END IONS

BEGIN IONS
PEPMASS=327.207
CHARGE=1
MSLEVEL=2
SOURCE_INSTRUMENT=LC-ESI-Maxis II HD Q-TOF Bruker
FILENAME=G11_RG11_01_8146.mzXML
SEQ=*..*
IONMODE=positive
ORGANISM=GNPS-NIH-NATURALPRODUCTSLIBRARY_ROUND2_POSITIVE
NAME=NCGC00385350-01_C20H26N2O2_(17R,21alpha)-Ajmalan-17,21-diol M+H
PI=Jadhav/Dorrestein
DATACOLLECTOR=lfnothias
SMILES=CC[C@@H]1[C@@H](O)N2C3CC1[C@@H]4[C@@H](O)[C@@]5(C[C@H]24)[C@H]3N(C)C6=C5C=CC=C6
INCHI=InChI=1S/C20H26N2O2/c1-3-10-11-8-14-17-20(12-6-4-5-7-13(12)21(17)2)9-15(16(11)18(20)23)22(14)19(10)24/h4-7,10-11,14-19,23-24H,3,8-9H2,1-2H3/t10-,11?,14?,15-,16-,17-,18+,19+,20+/m0/s1
INCHIAUX=N/A
PUBMED=n/a
SUBMITUSER=mwang87
LIBRARYQUALITY=1
SPECTRUMID=CCMSLIB00000851035
USI=mzspec:GNPS:GNPS-NIH-NATURALPRODUCTSLIBRARY_ROUND2_POSITIVE:accession:CCMSLIB00000851035
SCANS=465
70.028229	162.0
70.064156	265.0
70.100243	135.0
70.283867	100.0
70.442947	179.0
70.51413	132.0
70.530296	338.0
70.786102	105.0
70.949188	190.0
71.011597	130.0
71.047806	301.0
71.067024	131.0
71.175682	191.0
71.259796	411.0
71.28421	107.0
71.414803	347.0
71.432945	171.0
71.531387	120.0
71.558052	205.0
72.04364	883.0
72.079208	564.0
72.098122	143.0
72.207352	118.0
72.454651	343.0
72.792725	105.0
72.877419	102.0
72.902657	172.0
72.96875	208.0
73.384247	133.0
73.72625	187.0
73.912292	175.0
73.976021	199.0
74.030174	214.0
74.17585	170.0
74.392616	91.0
74.894287	233.0
75.246574	318.0
75.350166	130.0
75.388771	165.0
75.506721	84.0
75.522079	141.0
75.614143	170.0
75.73024	74.0
75.834358	80.0
75.898956	253.0
76.09198	56.0
76.336334	270.0
76.975922	350.0
77.036972	937.0
77.350761	169.0
77.37442	83.0
77.439857	218.0
77.768509	183.0
77.817459	166.0
77.867432	241.0
77.898247	231.0
78.043831	79.0
78.423103	330.0
78.445709	168.0
78.833801	150.0
78.863525	245.0
79.02816	134.0
79.053169	6241.0
79.179085	181.0
79.242783	129.0
79.349213	137.0
79.872406	161.0
80.048431	19186.0
80.087715	70.0
80.437836	128.0
80.583069	70.0
80.910416	65.0
80.963036	133.0
81.032181	1202.0
81.06871	9241.0
81.407898	57.0
81.643829	104.0
81.770447	108.0
81.8451	271.0
81.984917	214.0
82.027931	99.0
82.063744	8881.0
82.144623	147.0
82.215378	253.0
82.625793	65.0
82.714653	103.0
82.914986	226.0
82.999321	305.0
83.048592	1525.0
83.081558	684.0
83.113976	209.0
83.142265	256.0
83.18232	258.0
83.199196	268.0
83.298996	250.0
83.352737	264.0
83.488434	269.0
83.589882	257.0
83.637733	198.0
83.65097	179.0
83.66806	158.0
83.698204	223.0
83.996666	124.0
84.042343	3562.0
84.078514	1350.0
84.133873	186.0
84.169136	70.0
84.378975	312.0
84.717194	324.0
84.759041	113.0
85.029312	233.0
85.045372	344.0
85.063759	269.0
85.26165	202.0
85.391891	63.0
85.546585	171.0
85.811111	140.0
86.057137	386.0
86.192856	198.0
86.324623	112.0
86.367165	68.0
86.587173	308.0
86.799423	207.0
86.835876	153.0
87.44593	143.0
87.480049	252.0
88.024017	224.0
88.07357	285.0
88.540436	257.0
88.633049	136.0
88.813622	127.0
88.849419	137.0
88.955132	240.0
89.037575	136.0
89.157112	163.0
89.252632	192.0
89.506027	231.0
89.689323	214.0
89.851402	198.0
90.0439	292.0
90.106873	300.0
90.224609	196.0
90.320534	209.0
90.369987	94.0
90.391212	161.0
90.438606	159.0
90.493073	218.0
90.590553	93.0
90.756874	90.0
91.05378	12143.0
91.286362	214.0
91.308479	186.0
91.374969	72.0
91.398056	366.0
91.934029	230.0
92.052628	1041.0
92.1119	197.0
92.816811	148.0
92.984879	66.0
93.042076	757.0
93.069138	6852.0
93.177498	246.0
93.203644	281.0
93.493492	100.0
93.557388	98.0
93.921181	210.0
94.041687	471.0
94.065239	6425.0
94.093407	269.0
94.128929	199.0
94.311661	102.0
94.367447	218.0
94.519104	227.0
94.538681	165.0
94.632172	195.0
94.669006	100.0
94.80938	78.0
95.048981	1558.0
95.072227	2236.0
95.085403	3067.0
95.198242	167.0
95.228653	175.0
95.424225	165.0
95.570312	77.0
95.600578	136.0
95.68911	174.0
95.710236	151.0
95.834694	360.0
95.906212	248.0
95.956596	130.0
96.046288	924.0
96.081749	3619.0
96.174911	94.0
96.368111	122.0
96.497391	225.0
96.522026	164.0
96.716103	79.0
96.793724	167.0
96.890091	155.0
97.064819	1572.0
97.264305	157.0
97.40461	108.0
97.540695	168.0
97.602188	102.0
97.626213	207.0
97.71106	216.0
97.769096	160.0
97.93	139.0
97.954872	178.0
98.041992	334.0
98.061836	702.0
98.09626	5105.0
98.135948	175.0
98.251755	106.0
98.323311	213.0
98.463524	175.0
98.682816	179.0
98.747269	425.0
98.780342	210.0
99.061729	105.0
99.080025	135.0
99.102043	259.0
99.19146	204.0
99.350082	184.0
99.376236	263.0
99.514771	295.0
99.59079	190.0
99.832542	374.0
100.039169	121.0
100.075912	1085.0
100.448151	144.0
100.633133	111.0
100.84037	158.0
100.992508	213.0
101.586098	198.0
101.758255	245.0
101.949677	176.0
102.092216	132.0
102.449982	243.0
102.787285	114.0
102.925674	118.0
103.053947	2672.0
103.274956	214.0
103.35907	233.0
103.494041	124.0
103.524933	177.0
104.048035	322.0
104.224159	118.0
104.354263	203.0
104.463623	132.0
104.715118	419.0
105.014984	453.0
105.045433	5398.0
105.070076	5990.0
105.338951	153.0
105.41642	247.0
105.517624	218.0
105.712303	200.0
105.752907	87.0
105.815193	241.0
105.866249	201.0
106.065559	13968.0
106.170776	204.0
106.194855	294.0
106.34021	127.0
106.597084	81.0
106.788643	199.0
106.877975	165.0
106.975403	131.0
107.05249	1592.0
107.084976	9526.0
107.150169	66.0
107.192245	114.0
107.231163	185.0
107.456589	261.0
107.472862	241.0
107.575691	169.0
107.759094	151.0
108.043007	1926.0
108.080673	23968.0
108.120369	438.0
108.269737	148.0
108.634857	193.0
108.696686	273.0
108.744087	74.0
108.851646	108.0
109.026329	127.0
109.065094	9644.0
109.086197	2991.0
109.099174	2250.0
109.571716	105.0
109.596268	83.0
109.687439	69.0
109.819382	180.0
109.89093	156.0
109.966293	188.0
109.989136	157.0
110.060768	19165.0
110.096359	46509.0
110.160675	98.0
110.423126	118.0
110.57003	125.0
110.594223	171.0
110.652519	71.0
110.692039	209.0
110.882088	70.0
110.925308	172.0
111.024803	149.0
111.043129	179.0
111.080193	6508.0
111.099754	2104.0
111.189613	109.0
111.610886	172.0
111.674873	224.0
111.693947	204.0
111.940697	155.0
112.07814	933.0
112.113159	1066.0
112.629959	181.0
112.75721	165.0
112.815559	258.0
112.934944	83.0
113.095245	228.0
113.118698	173.0
113.260429	87.0
113.684052	143.0
113.785378	250.0
113.853775	133.0
114.090553	430.0
114.151794	228.0
114.398682	589.0
114.696358	310.0
114.729584	150.0
114.908875	144.0
115.054077	4420.0
115.209251	253.0
115.394279	190.0
115.471184	151.0
115.620323	247.0
115.636909	167.0
115.717392	163.0
116.061691	1001.0
116.22226	127.0
116.43866	145.0
116.833519	117.0
116.988579	133.0
117.059921	11451.0
117.257645	284.0
117.297523	237.0
117.331657	137.0
117.507233	237.0
118.065605	20315.0
118.129112	355.0
118.349434	161.0
118.480927	118.0
118.518585	240.0
118.545479	231.0
118.652611	150.0
118.726151	119.0
118.798393	205.0
118.825294	163.0
118.973671	162.0
118.999443	67.0
119.025864	92.0
119.071266	5093.0
119.154984	207.0
119.261826	219.0
119.361526	110.0
119.401711	106.0
119.674263	112.0
119.857819	105.0
119.950684	133.0
120.042984	575.0
120.081673	18746.0
120.164932	96.0
120.185532	114.0
120.363716	167.0
120.410172	114.0
120.486984	156.0
120.503242	330.0
120.587463	60.0
121.063957	1184.0
121.087433	3029.0
121.237808	349.0
121.481461	215.0
121.509018	96.0
121.582535	282.0
121.696373	115.0
121.752563	113.0
121.787949	189.0
121.825958	161.0
122.026558	137.0
122.062592	1115.0
122.095329	6459.0
122.156265	99.0
122.416679	151.0
122.467987	186.0
122.513359	119.0
122.694305	158.0
123.077805	1912.0
123.102798	1045.0
123.229324	117.0
123.338715	279.0
123.489967	114.0
123.647476	168.0
123.797646	184.0
123.967163	113.0
124.039909	138.0
124.077538	1857.0
124.11203	2188.0
124.148575	196.0
124.25428	111.0
124.887405	80.0
125.040993	336.0
125.066315	138.0
125.095016	835.0
125.307968	201.0
125.399773	163.0
125.442116	211.0
125.648911	248.0
125.791603	252.0
125.858261	174.0
125.8871	114.0
125.911224	164.0
126.035454	162.0
126.059998	600.0
126.092445	5098.0
126.144379	143.0
126.740814	219.0
127.075111	1231.0
127.178444	271.0
127.256233	251.0
127.62365	134.0
127.662041	215.0
127.875343	166.0
128.058426	2958.0
128.105972	223.0
128.242691	198.0
128.296616	326.0
128.411865	76.0
128.605423	79.0
128.629532	95.0
128.688354	91.0
128.975235	161.0
129.070374	5281.0
129.121109	374.0
129.348373	78.0
129.464172	161.0
129.534729	139.0
129.677063	232.0
129.855988	55.0
130.066132	29464.0
130.208359	242.0
130.247482	287.0
130.319427	78.0
130.465805	131.0
130.615051	280.0
130.650101	165.0
130.682785	91.0
130.718155	302.0
130.90062	104.0
130.931351	122.0
131.073532	30888.0
131.183853	380.0
131.211426	87.0
131.365662	270.0
131.425522	331.0
131.666794	155.0
131.821716	324.0
132.009888	220.0
132.045135	1228.0
132.081039	32613.0
132.146591	119.0
132.201752	76.0
132.303558	66.0
132.399704	201.0
132.788132	176.0
132.97821	213.0
133.064056	1057.0
133.08667	3382.0
133.100967	3044.0
133.139603	382.0
133.226532	147.0
133.390198	118.0
133.450226	99.0
133.584137	83.0
133.634872	78.0
133.669678	170.0
133.70694	75.0
133.831039	119.0
133.898727	238.0
133.942505	282.0
134.03717	167.0
134.059875	2121.0
134.096786	11823.0
134.169525	231.0
134.197784	164.0
134.220215	128.0
134.270096	243.0
134.329819	73.0
134.765366	104.0
134.841309	234.0
134.88092	82.0
134.917282	211.0
135.081573	1546.0
135.101929	1571.0
135.212494	142.0
135.253036	185.0
135.362686	229.0
135.719055	128.0
135.824829	177.0
135.963364	207.0
136.076218	15322.0
136.113297	5666.0
136.246597	285.0
136.318573	169.0
136.825455	71.0
136.877151	115.0
136.904419	167.0
136.919037	194.0
136.96965	192.0
137.019043	63.0
137.061218	1779.0
137.092682	2078.0
137.146286	206.0
137.445328	105.0
137.540375	63.0
138.091797	41646.0
138.128601	1563.0
138.1604	128.0
138.218216	93.0
138.263351	76.0
138.388901	91.0
138.479385	347.0
138.549774	288.0
138.726074	233.0
139.093231	2440.0
139.338943	162.0
139.423325	72.0
139.650879	97.0
139.687653	55.0
139.947205	212.0
140.060226	308.0
140.106857	1343.0
140.160233	141.0
140.41713	89.0
140.602905	151.0
140.639221	243.0
140.766403	63.0
140.814545	256.0
140.958023	144.0
141.069366	1891.0
141.135345	285.0
141.212463	145.0
141.608612	147.0
141.692673	146.0
141.777817	121.0
141.915207	96.0
141.992249	213.0
142.066757	5173.0
142.25354	202.0
142.436295	80.0
142.480667	132.0
142.581467	228.0
142.611191	218.0
142.654694	116.0
142.725037	86.0
142.867508	64.0
143.002441	143.0
143.035416	420.0
143.073715	23629.0
143.172516	232.0
143.250961	81.0
143.294113	121.0
143.31517	297.0
143.377884	100.0
143.411255	218.0
143.78801	331.0
143.845139	235.0
143.879486	221.0
143.979614	82.0
144.000305	125.0
144.081635	297827.0
144.136383	259.0
144.209061	73.0
144.281143	183.0
144.311707	80.0
144.34082	219.0
144.359039	270.0
144.399216	160.0
144.507233	452.0
144.536484	98.0
144.649719	70.0
144.67807	282.0
144.738647	148.0
144.914642	222.0
145.017532	153.0
145.086746	51163.0
145.204071	275.0
145.302139	304.0
145.329163	248.0
145.535477	190.0
145.561203	128.0
145.684738	76.0
145.913315	116.0
146.06192	9933.0
146.097183	41089.0
146.139847	130.0
146.187134	154.0
146.214645	140.0
146.296356	213.0
146.35405	124.0
146.446228	292.0
146.522842	365.0
146.809662	70.0
147.067429	3162.0
147.098755	4747.0
147.174362	142.0
147.250519	161.0
147.36264	284.0
147.448883	218.0
147.59404	161.0
147.627472	231.0
147.738388	184.0
147.95842	254.0
148.043716	250.0
148.077209	4365.0
148.111984	2906.0
148.633194	84.0
148.814789	177.0
149.098877	1174.0
149.259171	262.0
149.298279	137.0
149.350906	96.0
149.401184	233.0
149.586487	153.0
149.752563	74.0
149.818893	75.0
149.954712	222.0
150.032272	113.0
150.092926	2278.0
150.129974	1162.0
150.165543	107.0
150.267136	87.0
150.488464	130.0
150.990967	193.0
151.076172	583.0
151.092957	760.0
151.36882	131.0
151.6996	204.0
151.779572	139.0
151.936264	245.0
152.067245	723.0
152.107254	3736.0
152.142303	189.0
152.434143	214.0
152.5784	130.0
152.843445	258.0
153.0513	242.0
153.071411	1374.0
153.094315	772.0
153.268875	91.0
153.324432	186.0
153.667236	195.0
154.067169	3002.0
154.086777	1948.0
154.123535	1288.0
154.154816	122.0
154.270401	247.0
154.437561	152.0
154.533005	91.0
154.669724	89.0
154.752655	246.0
154.825699	55.0
154.884338	201.0
154.910004	334.0
155.034744	96.0
155.073334	6257.0
155.126892	366.0
155.187454	86.0
155.455414	144.0
155.509857	194.0
155.877838	72.0
156.080978	10471.0
156.103302	3425.0
156.154831	165.0
156.17543	162.0
156.354691	118.0
156.476776	348.0
156.623062	114.0
156.704788	215.0
156.74379	219.0
156.857086	149.0
156.932068	205.0
157.022858	132.0
157.089355	70524.0
157.193268	113.0
157.284576	153.0
157.317566	152.0
157.425079	175.0
157.565033	305.0
157.615067	144.0
157.646667	166.0
157.665222	200.0
157.698227	58.0
157.771896	115.0
157.832779	274.0
157.881409	292.0
157.944016	138.0
157.977509	215.0
158.097382	326561.0
158.188568	217.0
158.243073	211.0
158.266205	169.0
158.323883	81.0
158.351807	78.0
158.387573	137.0
158.414871	135.0
158.442368	91.0
158.52684	255.0
158.66124	192.0
158.710098	228.0
158.742203	64.0
158.872787	347.0
158.945023	87.0
159.002167	95.0
159.070419	4159.0
159.100113	33981.0
159.217285	126.0
159.267258	91.0
159.294403	165.0
159.3479	65.0
159.368759	61.0
159.392059	128.0
159.599579	62.0
159.785385	112.0
159.868637	77.0
159.946365	192.0
160.002686	134.0
160.077301	13245.0
160.113342	7535.0
160.152283	71.0
160.181717	86.0
160.330185	198.0
160.378387	255.0
160.421494	137.0
160.471649	57.0
160.526367	102.0
160.600067	199.0
160.687347	88.0
160.853592	187.0
160.911057	73.0
160.998016	244.0
161.085571	2527.0
161.115051	1624.0
161.23465	113.0
161.384109	64.0
161.480957	151.0
161.577271	108.0
161.606308	175.0
161.922836	79.0
161.985245	306.0
162.027786	388.0
162.092255	17717.0
162.127441	996.0
162.190994	181.0
162.38002	247.0
162.42659	86.0
162.563782	65.0
162.589294	145.0
162.661896	144.0
162.748016	211.0
162.825638	255.0
162.947235	199.0
163.007233	180.0
163.069077	281.0
163.095474	2202.0
163.129272	476.0
163.163925	138.0
163.180466	160.0
163.243301	190.0
163.428329	112.0
163.541077	199.0
163.567642	90.0
163.660538	57.0
163.750809	395.0
163.90834	332.0
164.041946	97.0
164.07222	342.0
164.107574	8812.0
164.141342	287.0
164.442566	181.0
164.568634	109.0
164.728027	217.0
164.855164	108.0
165.072205	1075.0
165.111481	980.0
165.146881	319.0
165.295898	168.0
165.482437	213.0
165.543503	96.0
165.567963	87.0
165.790115	205.0
165.915359	225.0
165.959579	155.0
166.034927	112.0
166.078033	890.0
166.124435	541.0
166.171524	187.0
166.30867	98.0
166.519073	236.0
166.545944	76.0
166.962479	283.0
167.022934	510.0
167.07431	31247.0
167.155319	84.0
167.277313	225.0
167.521866	226.0
167.701355	71.0
167.801437	282.0
167.904694	278.0
167.967239	81.0
168.08136	35299.0
168.140198	548.0
168.323746	140.0
168.35672	99.0
168.391037	131.0
168.446594	130.0
168.65004	115.0
168.709747	181.0
168.800125	99.0
168.873337	153.0
168.909332	152.0
169.03717	495.0
169.089127	34828.0
169.134979	451.0
169.31105	210.0
169.409714	232.0
169.65123	55.0
169.783859	202.0
169.8414	190.0
169.930954	129.0
169.999039	219.0
170.042221	774.0
170.096191	70984.0
170.33049	154.0
170.400665	293.0
170.500107	187.0
170.607666	86.0
170.688461	91.0
170.82959	61.0
170.91275	246.0
170.962082	108.0
171.038055	190.0
171.099945	24153.0
171.216431	149.0
171.370743	131.0
171.428894	307.0
171.532944	268.0
171.634491	71.0
171.829102	214.0
171.862854	69.0
171.910431	157.0
171.972305	63.0
172.048904	1037.0
172.077271	22646.0
172.111816	29807.0
172.263885	61.0
172.317276	178.0
172.34642	185.0
172.398468	195.0
172.440384	66.0
172.632294	393.0
172.747391	179.0
173.030838	386.0
173.084045	16637.0
173.109146	6055.0
173.184937	138.0
173.223465	171.0
173.317627	140.0
173.517227	70.0
173.628357	138.0
173.729355	86.0
173.783997	145.0
173.899994	308.0
173.942566	107.0
174.008133	144.0
174.091858	34605.0
174.543777	294.0
174.661423	227.0
174.839203	258.0
175.059341	104.0
175.095291	3922.0
175.360641	83.0
175.389542	177.0
175.430984	106.0
175.74173	79.0
175.779221	275.0
176.061844	194.0
176.107849	3308.0
176.162903	133.0
176.214523	256.0
176.378006	91.0
176.433548	234.0
176.530991	76.0
176.631729	248.0
176.683884	61.0
176.874054	417.0
176.9328	113.0
176.972626	284.0
177.068573	275.0
177.103348	212.0
177.371994	91.0
177.708191	94.0
177.990646	98.0
178.078278	800.0
178.12413	2848.0
178.405884	106.0
178.426575	260.0
178.47084	246.0
178.589371	145.0
178.814163	152.0
179.08197	2605.0
179.123444	240.0
179.337631	124.0
179.377945	147.0
179.914917	146.0
180.083054	12576.0
180.13652	421.0
180.29718	55.0
180.431244	70.0
180.732605	119.0
181.088898	31358.0
181.136093	157.0
181.345169	102.0
181.454849	212.0
181.55191	186.0
181.578064	175.0
181.673935	130.0
181.858749	208.0
181.876968	307.0
181.909653	203.0
181.948456	442.0
181.985214	196.0
182.013901	144.0
182.097351	124399.0
182.187119	130.0
182.426117	208.0
182.525696	63.0
182.621582	236.0
182.802155	113.0
182.832458	138.0
182.919113	146.0
182.991486	75.0
183.070312	4476.0
183.101471	36770.0
183.185989	227.0
183.246124	245.0
183.47464	75.0
183.975189	199.0
184.022781	283.0
184.113007	79611.0
184.17717	85.0
184.213684	166.0
184.2686	152.0
184.350418	100.0
184.47554	320.0
184.501114	134.0
184.538055	158.0
184.847443	73.0
184.903625	109.0
184.996658	75.0
185.109436	36839.0
185.371368	104.0
185.500458	145.0
185.623154	182.0
185.718765	209.0
186.057816	323.0
186.092743	12157.0
186.113678	5927.0
186.305557	228.0
186.378738	218.0
186.436371	140.0
186.486511	98.0
186.598083	68.0
186.929184	105.0
186.980118	70.0
187.011597	110.0
187.053329	222.0
187.093292	2607.0
187.121429	1024.0
187.425766	178.0
187.512802	86.0
187.642059	261.0
187.685715	126.0
187.761002	267.0
187.977585	292.0
188.013046	106.0
188.072449	236.0
188.106262	2883.0
188.232346	138.0
188.348679	63.0
188.444931	352.0
188.533096	203.0
188.560455	158.0
188.674362	154.0
188.907104	197.0
188.926102	331.0
188.981201	193.0
189.082596	222.0
189.111542	623.0
189.264389	225.0
189.343231	70.0
189.61499	233.0
189.65416	108.0
189.759705	230.0
189.863998	176.0
189.930313	128.0
189.958267	336.0
190.067505	119.0
190.125763	133.0
190.229111	239.0
190.494766	200.0
190.84668	138.0
191.048096	162.0
191.082092	653.0
191.130707	179.0
191.323502	324.0
191.428329	144.0
191.50441	183.0
191.560059	172.0
191.884155	129.0
192.084656	816.0
192.13945	597.0
192.549973	142.0
192.708527	204.0
192.872803	116.0
192.962723	79.0
193.088776	7492.0
193.178726	151.0
193.265518	79.0
193.551865	181.0
193.76152	94.0
193.854477	439.0
193.919708	234.0
194.097198	90198.0
194.147385	383.0
194.28038	102.0
194.301712	183.0
194.350082	135.0
194.418045	157.0
194.453049	177.0
194.497086	81.0
194.605103	81.0
194.887177	161.0
195.051086	321.0
195.103561	43697.0
195.463409	336.0
195.765594	201.0
196.02948	483.0
196.076157	7555.0
196.112366	46262.0
196.162903	231.0
196.214081	105.0
196.254715	87.0
196.353348	59.0
196.374954	101.0
196.481613	75.0
196.516571	127.0
196.557541	266.0
196.625977	155.0
196.722626	239.0
196.92952	87.0
197.050812	260.0
197.084076	7021.0
197.112701	12635.0
197.231827	204.0
197.286148	103.0
197.310837	126.0
197.365585	90.0
197.38826	194.0
197.585541	330.0
197.677277	249.0
197.759476	76.0
197.806229	156.0
197.842453	89.0
197.870163	105.0
197.940002	177.0
198.023376	172.0
198.050644	255.0
198.093124	8734.0
198.124603	12228.0
198.392609	84.0
198.445526	84.0
198.494888	239.0
198.716446	181.0
198.760468	170.0
198.891083	68.0
199.099533	4028.0
199.125122	6570.0
199.251755	93.0
199.390091	241.0
199.557938	114.0
199.655991	182.0
199.796249	172.0
199.833694	136.0
200.040543	248.0
200.107269	10328.0
200.229218	261.0
200.285736	181.0
200.324677	230.0
200.368118	71.0
200.609894	143.0
200.972382	92.0
201.079803	171.0
201.109085	973.0
201.143494	1631.0
201.40947	140.0
201.464203	143.0
201.858002	98.0
202.064133	259.0
202.122742	2226.0
202.202698	175.0
202.286591	226.0
202.380585	249.0
202.43924	129.0
202.485275	134.0
202.72049	184.0
202.991577	534.0
203.084732	756.0
203.305298	111.0
203.445709	57.0
203.645737	122.0
203.699234	136.0
203.911118	184.0
203.933563	315.0
204.080048	4446.0
204.143692	105.0
204.249634	94.0
204.588898	55.0
204.939865	94.0
205.009308	121.0
205.088669	10506.0
205.207413	236.0
205.621323	250.0
205.729248	196.0
206.058334	172.0
206.095627	7249.0
206.175537	136.0
206.310669	388.0
206.412369	188.0
206.490829	179.0
206.963715	121.0
207.029251	263.0
207.103897	10243.0
207.221176	203.0
207.420914	139.0
208.112732	37920.0
208.187057	156.0
208.244125	146.0
208.27774	166.0
208.618591	56.0
208.688126	236.0
208.726624	74.0
208.761688	103.0
208.823883	86.0
208.935791	129.0
208.957428	135.0
208.986969	173.0
209.005646	261.0
209.081726	1139.0
209.118225	20281.0
209.324768	287.0
209.367828	177.0
209.402695	145.0
209.521027	129.0
209.717911	56.0
209.868179	178.0
209.916656	96.0
209.95723	259.0
210.046494	140.0
210.092651	17775.0
210.128387	127114.0
210.188156	115.0
210.294449	166.0
210.422546	161.0
210.579514	314.0
210.769714	96.0
210.789795	133.0
210.842896	251.0
211.102463	12755.0
211.128525	25738.0
211.215378	174.0
211.254578	143.0
211.401352	309.0
211.48201	186.0
211.643112	61.0
211.674301	143.0
211.777832	186.0
211.844864	181.0
211.881287	212.0
212.008453	383.0
212.048065	656.0
212.107803	68634.0
212.143005	7707.0
212.205215	177.0
212.29332	244.0
212.510376	102.0
212.592651	125.0
212.647934	285.0
212.679382	182.0
212.754501	212.0
212.786545	133.0
212.813553	80.0
212.874985	199.0
212.931992	210.0
213.017029	382.0
213.111496	8114.0
213.14296	1475.0
213.417816	245.0
213.520081	58.0
213.553268	184.0
213.809586	142.0
213.843628	352.0
213.870743	215.0
214.006195	237.0
214.120621	4264.0
214.221771	134.0
214.311584	304.0
214.421402	102.0
214.720032	145.0
214.792435	124.0
214.820847	435.0
214.978531	252.0
215.071533	225.0
215.121338	587.0
215.159149	207.0
215.367584	114.0
215.537079	58.0
215.635178	272.0
216.079605	222.0
216.123703	325.0
216.17276	270.0
216.265274	135.0
216.392868	136.0
216.759033	87.0
216.791	74.0
217.088333	1153.0
217.196838	206.0
217.266296	110.0
218.097534	4691.0
218.145477	212.0
218.174118	122.0
218.214493	209.0
218.325134	130.0
218.501938	266.0
218.58963	102.0
218.737228	109.0
218.801178	164.0
218.866745	88.0
219.052917	293.0
219.10611	5149.0
219.352066	264.0
219.473145	95.0
219.699661	153.0
219.788757	202.0
219.885635	298.0
220.039886	232.0
220.112167	53991.0
220.167252	426.0
220.230865	296.0
220.374298	125.0
220.464569	83.0
221.00473	61.0
221.115234	22199.0
221.198837	91.0
221.485687	174.0
221.577744	83.0
221.639008	216.0
221.762421	135.0
222.03186	104.0
222.127045	32613.0
222.263626	65.0
222.436234	86.0
222.618866	308.0
222.759262	101.0
222.840073	57.0
222.872986	375.0
223.047607	199.0
223.099533	7091.0
223.131668	17351.0
223.202698	583.0
223.271652	111.0
223.306183	203.0
223.376129	261.0
223.432434	180.0
223.490463	129.0
223.540863	104.0
223.745453	167.0
223.842117	247.0
223.931412	155.0
224.066772	214.0
224.109253	7800.0
224.140594	8372.0
224.327942	125.0
224.534531	452.0
224.980713	74.0
225.112717	1715.0
225.148666	3202.0
225.195938	185.0
225.313477	68.0
225.387085	129.0
225.788834	357.0
225.951477	402.0
226.122803	26325.0
226.158554	12773.0
226.243546	66.0
226.30394	236.0
226.595688	175.0
226.698685	78.0
226.959854	231.0
227.020615	59.0
227.125778	4538.0
227.159836	2540.0
227.217758	198.0
227.889923	162.0
228.142105	5103.0
228.325577	407.0
228.365356	127.0
228.505066	217.0
228.627945	199.0
228.794098	97.0
229.144028	1239.0
229.550186	205.0
229.587448	159.0
230.096237	710.0
230.151581	111.0
230.179611	108.0
230.345886	192.0
230.415314	119.0
230.853302	227.0
231.103973	1976.0
231.299286	203.0
232.062866	87.0
232.109634	3052.0
232.166595	155.0
232.267136	79.0
232.590607	155.0
232.772812	108.0
232.855881	88.0
232.912994	155.0
233.11615	4139.0
233.287277	67.0
233.320694	170.0
233.400116	254.0
233.609604	75.0
233.657593	162.0
233.767822	202.0
233.801819	241.0
234.127426	9688.0
234.245331	138.0
234.387497	194.0
234.4198	274.0
234.588577	201.0
235.000732	108.0
235.031097	162.0
235.124466	28403.0
235.18428	187.0
235.456665	77.0
235.487274	210.0
236.111496	7861.0
236.141113	14802.0
236.296494	161.0
236.35231	187.0
236.566071	205.0
236.638275	137.0
236.730682	181.0
236.760422	92.0
236.797745	160.0
237.022507	391.0
237.140091	52426.0
237.260574	312.0
237.442108	119.0
237.635696	153.0
237.664719	175.0
237.883133	89.0
237.966599	215.0
238.123611	70898.0
238.157028	24176.0
238.223373	180.0
238.251968	87.0
238.365295	66.0
238.397507	161.0
238.456436	159.0
238.500366	112.0
238.533875	205.0
238.765167	186.0
238.868561	387.0
238.932678	161.0
238.999466	195.0
239.077316	402.0
239.154648	55750.0
239.38356	76.0
239.522491	69.0
239.726318	60.0
239.780685	190.0
239.820786	81.0
239.847763	85.0
239.88031	57.0
240.066681	187.0
240.156006	10631.0
240.299469	61.0
240.32135	188.0
240.40242	121.0
240.508194	66.0
240.763718	191.0
240.944565	85.0
241.027496	67.0
241.141708	1857.0
241.261917	116.0
241.420959	180.0
241.450134	144.0
241.534012	160.0
241.655945	163.0
241.753693	77.0
241.790527	70.0
242.117279	843.0
242.160568	514.0
242.281784	132.0
242.352066	130.0
242.469116	147.0
242.74025	64.0
242.853394	155.0
242.968719	78.0
243.102432	253.0
243.171951	137.0
243.295639	98.0
243.909149	202.0
244.071487	171.0
244.115768	2485.0
244.171463	357.0
244.226852	206.0
244.464294	95.0
244.518875	192.0
245.057816	176.0
245.12088	5170.0
245.319901	263.0
245.47583	215.0
245.787689	241.0
245.834366	111.0
245.921677	256.0
246.090744	332.0
246.12941	4351.0
246.189774	91.0
246.307678	234.0
246.748535	198.0
246.83699	143.0
246.885696	86.0
246.922501	157.0
246.998306	157.0
247.12558	4570.0
247.669235	179.0
247.756516	237.0
248.143433	8599.0
248.403702	71.0
248.73764	91.0
249.004807	113.0
249.077759	262.0
249.146729	3423.0
249.239288	237.0
249.745453	232.0
250.121719	2810.0
250.157166	6181.0
250.22908	223.0
250.622269	138.0
250.937805	59.0
250.9841	189.0
251.044739	84.0
251.130203	2868.0
251.156158	1536.0
251.389038	67.0
251.580322	180.0
251.988647	92.0
252.102402	117.0
252.139801	2358.0
252.175186	4882.0
252.7444	214.0
253.138107	1675.0
253.166626	945.0
253.309784	237.0
253.420822	240.0
253.736847	167.0
254.009888	158.0
254.095169	544.0
254.154236	6993.0
254.310425	162.0
254.792801	165.0
254.898499	226.0
255.046387	168.0
255.149033	24008.0
255.201584	227.0
255.273041	153.0
255.363052	118.0
255.477661	86.0
255.517197	135.0
255.573898	173.0
255.865829	196.0
255.965469	115.0
256.012268	191.0
256.06192	103.0
256.162262	5459.0
256.280975	200.0
256.869629	286.0
256.974243	181.0
257.131805	235.0
257.172516	140.0
257.981506	232.0
258.070282	80.0
258.130554	1047.0
258.24826	203.0
258.36084	170.0
258.471985	327.0
258.539032	124.0
258.950836	193.0
259.132812	2004.0
259.381592	77.0
259.597351	187.0
259.679382	214.0
259.805115	200.0
259.994049	199.0
260.084442	107.0
260.127899	630.0
260.340912	133.0
260.423889	143.0
260.69574	117.0
261.138214	5689.0
261.315369	88.0
261.437378	215.0
261.485992	141.0
261.521454	130.0
261.796906	137.0
261.900024	202.0
262.079529	132.0
262.117554	1963.0
262.154205	11823.0
262.250946	156.0
262.694153	287.0
262.865326	212.0
263.154541	7442.0
263.381897	165.0
263.449677	316.0
263.501617	104.0
263.734467	151.0
263.913696	164.0
264.019104	124.0
264.106598	723.0
264.137695	8347.0
264.175873	14830.0
264.23175	154.0
264.282776	164.0
264.31073	177.0
264.455933	196.0
264.54364	131.0
264.673828	75.0
265.081573	116.0
265.172516	5790.0
265.362396	153.0
265.466431	142.0
265.746246	109.0
265.799957	64.0
265.934082	196.0
266.000275	111.0
266.037842	269.0
266.153717	14632.0
266.235077	235.0
266.540131	251.0
266.673706	181.0
267.126465	661.0
267.159821	3381.0
267.225433	97.0
267.303162	356.0
267.679474	172.0
267.767609	300.0
268.003235	335.0
268.135559	443.0
268.163818	825.0
268.260529	251.0
268.281281	265.0
268.369904	190.0
268.947388	127.0
269.117401	123.0
269.159607	312.0
269.194305	150.0
269.806976	169.0
269.881012	120.0
270.150726	291.0
270.186096	622.0
270.366028	193.0
270.550629	113.0
270.618988	219.0
271.176819	294.0
271.847717	152.0
272.162689	1581.0
272.25705	113.0
272.355896	122.0
272.846466	156.0
272.907684	233.0
272.976685	179.0
273.078461	154.0
273.169098	153.0
273.405487	154.0
273.867065	108.0
273.94043	203.0
274.063751	70.0
274.109894	385.0
274.160034	11293.0
274.315399	162.0
274.411163	97.0
274.496552	211.0
274.890564	168.0
275.158508	3815.0
275.503967	117.0
275.686523	191.0
275.948273	150.0
275.980591	202.0
276.133972	790.0
276.162262	2111.0
276.231293	306.0
276.404785	68.0
276.430939	101.0
276.638092	77.0
276.816803	137.0
276.954834	152.0
277.046814	59.0
277.072754	129.0
277.142731	796.0
277.170441	635.0
277.268311	238.0
277.344208	228.0
277.409729	245.0
277.575745	216.0
278.051392	82.0
278.155029	1436.0
278.248444	160.0
278.721649	178.0
278.776306	70.0
278.851166	198.0
279.052216	255.0
279.112579	129.0
279.162811	1528.0
279.189087	2304.0
280.170624	10214.0
280.419922	350.0
280.621216	166.0
280.953949	122.0
281.034424	241.0
281.100159	184.0
281.128601	319.0
281.169769	3796.0
281.202026	4686.0
281.26004	296.0
281.361389	188.0
281.519836	128.0
281.600983	75.0
281.670624	72.0
281.715607	131.0
281.900848	282.0
282.005829	231.0
282.07666	73.0
282.184509	7942.0
282.833893	99.0
283.041595	127.0
283.076172	99.0
283.18866	1680.0
283.255768	140.0
283.28241	318.0
283.470367	237.0
283.549377	200.0
283.605774	101.0
284.101227	125.0
284.166229	4815.0
284.400757	232.0
284.681091	327.0
285.167358	1174.0
285.539642	97.0
285.730469	76.0
285.948456	161.0
286.129456	178.0
286.698608	92.0
286.762695	191.0
286.790222	143.0
286.886475	146.0
286.966125	87.0
287.21167	105.0
287.351135	182.0
287.410309	198.0
287.55954	197.0
287.676544	190.0
287.830414	141.0
288.189392	170.0
288.375031	148.0
288.559174	212.0
288.864716	145.0
288.909607	168.0
289.073883	199.0
289.165558	1216.0
289.22937	117.0
289.624817	423.0
289.822327	129.0
290.012054	141.0
290.177795	570.0
290.276978	95.0
290.309082	116.0
290.410431	166.0
290.446136	163.0
290.885193	99.0
290.943359	117.0
291.063843	104.0
291.117279	251.0
291.186005	29371.0
291.272858	227.0
291.449707	252.0
291.722473	258.0
291.782928	76.0
291.960541	138.0
292.087067	144.0
292.171204	20454.0
292.274536	83.0
292.568695	74.0
292.633087	145.0
292.664124	131.0
293.00119	142.0
293.132233	144.0
293.173004	2546.0
293.73761	82.0
293.855927	171.0
293.962891	215.0
294.101105	201.0
294.181366	545.0
294.268127	77.0
294.358856	163.0
294.438507	167.0
294.657166	55.0
294.855347	182.0
295.174561	100.0
295.21991	140.0
295.349609	191.0
295.374634	180.0
295.545197	149.0
296.09613	264.0
296.172729	256.0
296.232117	163.0
296.972717	152.0
297.133392	168.0
297.161346	290.0
297.194794	492.0
297.44281	95.0
297.567413	296.0
297.628357	137.0
297.683594	113.0
297.981476	242.0
298.05722	186.0
298.182922	1398.0
298.236023	177.0
298.397491	286.0
298.612061	96.0
298.636871	147.0
298.963684	185.0
299.064728	94.0
299.213196	1979.0
300.166565	156.0
300.216309	324.0
300.436096	234.0
300.752411	126.0
300.949982	78.0
301.106598	383.0
301.45932	257.0
302.282532	73.0
302.315887	232.0
302.473877	160.0
302.940826	220.0
303.086945	161.0
303.313477	203.0
303.59729	110.0
304.037262	143.0
304.40567	122.0
304.873718	132.0
305.150665	171.0
305.370636	130.0
306.154694	161.0
306.517639	192.0
306.949432	164.0
307.180023	2788.0
307.389862	80.0
307.500275	87.0
308.18335	604.0
308.305084	86.0
308.639252	72.0
309.002991	65.0
309.043091	157.0
309.11438	345.0
309.196228	58861.0
309.31662	191.0
309.751251	84.0
309.865051	63.0
309.897552	69.0
310.10376	293.0
310.181305	26030.0
310.287354	151.0
310.494873	121.0
310.628937	411.0
310.732086	122.0
310.783142	198.0
311.059906	380.0
311.186737	3020.0
311.231812	71.0
311.342712	63.0
311.483032	168.0
311.61795	55.0
311.733734	82.0
311.765533	246.0
311.990845	189.0
312.183411	866.0
312.370117	166.0
312.54129	163.0
312.577698	139.0
313.189362	379.0
313.268555	258.0
313.555237	128.0
313.631012	174.0
313.953583	99.0
314.201141	177.0
314.371307	228.0
314.563416	252.0
314.634644	71.0
314.937408	169.0
315.143982	179.0
315.179779	162.0
315.750793	205.0
316.081909	155.0
316.487488	256.0
317.123535	242.0
317.688171	90.0
317.757629	193.0
317.816681	183.0
318.215271	109.0
318.677948	95.0
318.975616	228.0
319.420654	137.0
319.44696	187.0
319.55249	148.0
319.604279	115.0
319.82962	350.0
320.039093	294.0
320.203888	121.0
320.361389	120.0
320.427277	158.0
320.680481	236.0
321.210449	299.0
321.482788	416.0
321.559723	191.0
321.608948	111.0
321.84314	271.0
322.497345	90.0
322.556427	204.0
322.628235	84.0
322.707062	126.0
322.960419	182.0
323.109406	267.0
323.319336	168.0
323.358551	60.0
323.493835	119.0
323.635651	142.0
323.752075	147.0
323.945404	188.0
323.982971	90.0
324.104797	62.0
324.136932	119.0
324.182983	325.0
324.316345	315.0
324.38028	119.0
324.416412	91.0
324.467346	276.0
324.499146	117.0
324.629883	179.0
324.715912	102.0
324.809723	479.0
324.861237	348.0
324.941223	351.0
325.01474	311.0
325.103119	514.0
325.191864	720.0
325.244537	477.0
325.382721	253.0
325.404541	261.0
325.452606	201.0
325.511536	307.0
325.544922	183.0
325.610962	290.0
325.637573	544.0
325.697327	499.0
325.740021	311.0
325.772736	332.0
325.806519	234.0
325.879456	387.0
325.928802	820.0
326.03714	908.0
326.067505	1034.0
326.105164	1331.0
326.166992	1427.0
326.196533	1275.0
326.228241	1490.0
326.281586	1037.0
326.346497	467.0
326.376801	1022.0
326.459076	1076.0
326.509644	1009.0
326.582062	894.0
326.625244	1119.0
326.672028	617.0
326.72934	1917.0
326.775604	1408.0
326.808167	2014.0
326.848145	1901.0
326.916626	2573.0
326.956207	1659.0
326.996155	2864.0
327.030731	2640.0
327.207092	4964479.0
327.26413	219.0
327.309387	316.0
327.337311	465.0
327.404114	1176.0
327.445465	5671.0
327.509247	1997.0
327.589203	514.0
327.722656	5253.0
327.793396	1118.0
327.857849	893.0
327.930695	1748.0
328.022644	440.0
328.210175	556530.0
328.27359	493.0
328.364594	1100.0
328.397278	617.0
328.447327	448.0
328.513916	514.0
328.551025	546.0
328.595856	427.0
328.624084	627.0
328.686981	369.0
328.732849	272.0
328.801605	668.0
328.897797	315.0
328.954742	221.0
329.02948	388.0
329.072327	199.0
329.16922	622.0
329.213959	9458.0
329.273346	480.0
329.368042	109.0
329.423645	130.0
329.477234	257.0
329.559937	66.0
329.600372	294.0
329.663239	404.0
329.721313	207.0
329.849976	290.0
329.922516	360.0
329.972961	345.0
330.056122	488.0
330.088623	307.0
330.126312	290.0
330.195068	499.0
330.248962	348.0
330.28006	705.0
330.307892	815.0
330.332001	959.0
330.366669	925.0
330.424011	1038.0
330.445129	1019.0
330.51651	1351.0
330.544342	967.0
330.615723	1474.0
330.696472	360.0
330.766052	240.0
330.805054	195.0
330.8367	322.0
331.011444	162.0
331.109497	79.0
331.15625	197.0
331.314697	238.0
331.412994	295.0
331.473694	88.0
331.526398	318.0
331.58963	344.0
331.619598	484.0
331.658356	252.0
331.907806	122.0
331.968872	140.0
332.071533	221.0
332.218262	102.0
332.802216	263.0
333.040405	70.0
333.140839	72.0
333.527618	155.0
334.687469	114.0
335.843445	146.0
335.962189	58.0
336.012238	57.0
338.662842	55.0
338.834564	89.0
339.455811	81.0
340.063263	104.0
340.401794	82.0
340.827423	86.0
340.868286	130.0
341.356384	62.0
341.919739	132.0
342.007172	81.0
342.120697	96.0
342.197205	56.0
342.834198	65.0
343.929443	84.0
344.337585	101.0
345.453369	82.0
345.631592	56.0
345.887451	72.0
346.422821	75.0
346.80188	121.0
347.183838	58.0
348.215149	73.0
348.362671	69.0
349.340393	118.0
349.761108	87.0
354.751465	207.0
355.593567	71.0
356.010468	166.0
358.732391	56.0
359.838196	78.0
380.614136	90.0
383.146057	145.0
385.658417	104.0
424.544312	100.0
470.769592	64.0
506.100372	156.0
577.172913	77.0
608.383667	93.0
678.249023	80.0
700.594116	72.0
708.136658	109.0
740.037292	65.0
766.659729	55.0
778.09668	83.0
802.141174	86.0
804.876343	93.0
823.813965	84.0
873.941406	148.0
958.974182	62.0
966.495972	66.0
1023.310791	72.0
1083.855103	68.0
1174.48291	57.0
1175.971069	89.0
1180.719482	130.0
1299.726685	201.0
1323.257935	272.0
1329.529297	80.0
1330.810425	190.0
1397.542358	190.0
1399.873535	143.0
1405.856689	122.0
1407.966553	155.0
1412.95813	123.0
1447.898804	95.0
1485.654785	182.0
1503.814941	55.0
1518.275269	80.0
1552.286255	120.0
1569.74292	156.0
1593.697266	208.0
1635.951294	112.0
1656.610107	96.0
1664.504028	179.0
1667.230835	154.0
1687.762207	64.0
1719.646606	85.0
1742.785767	141.0
1748.523682	151.0
1751.418091	234.0
1766.990601	180.0
1774.22998	195.0
1777.923584	57.0
1793.045654	112.0
1797.123535	218.0
1799.19165	143.0
1802.157593	129.0
1802.356812	121.0
1807.217407	212.0
1811.380737	209.0
1815.691772	248.0
1819.569458	103.0
1822.45752	259.0
1823.195435	63.0
1823.269287	235.0
1836.824097	257.0
1856.36145	194.0
1860.824341	169.0
1865.960571	139.0
1868.328735	140.0
1871.598755	222.0
1881.718994	222.0
1890.176147	197.0
1896.457764	121.0
1904.189209	130.0
1905.514526	191.0
1906.000244	309.0
1913.204956	171.0
1925.175781	317.0
1931.223633	186.0
1935.755981	76.0
1938.252686	196.0
1942.976807	219.0
1945.699219	203.0
1967.027222	228.0
1971.837769	236.0
1974.661133	69.0
1975.037354	129.0
1983.724487	115.0
1985.733765	90.0
1992.236206	239.0
END IONS

BEGIN IONS
PEPMASS=787.424
CHARGE=1
MSLEVEL=2
SOURCE_INSTRUMENT=LC-ESI-Maxis II HD Q-TOF Bruker
FILENAME=C12_GC12_01_8074.mzXML
SEQ=*..*
IONMODE=positive
ORGANISM=GNPS-NIH-NATURALPRODUCTSLIBRARY_ROUND2_POSITIVE
NAME=NCGC00142623-05_C41H64O13_Crystodigin M+Na
PI=Jadhav/Dorrestein
DATACOLLECTOR=lfnothias
SMILES=C[C@H]1O[C@H](C[C@H](O)[C@@H]1O)O[C@H]2[C@@H](O)C[C@@H](O[C@@H]2C)O[C@H]3[C@@H](O)C[C@@H](O[C@@H]3C)O[C@H]4CC[C@@]5(C)[C@H](CC[C@@H]6[C@@H]5CC[C@]7(C)[C@H](CC[C@]67O)/C8=C/C(=O)OC8)C4
INCHI=InChI=1S/C41H64O13/c1-20-36(46)29(42)16-34(49-20)53-38-22(3)51-35(18-31(38)44)54-37-21(2)50-33(17-30(37)43)52-25-8-11-39(4)24(15-25)6-7-28-27(39)9-12-40(5)26(10-13-41(28,40)47)23-14-32(45)48-19-23/h14,20-22,24-31,33-38,42-44,46-47H,6-13,15-19H2,1-5H3/t20-,21-,22-,24-,25+,26-,27+,28-,29+,30+,31+,33+,34+,35+,36-,37-,38-,39+,40-,41+/m1/s1
INCHIAUX=N/A
PUBMED=n/a
SUBMITUSER=mwang87
LIBRARYQUALITY=1
SPECTRUMID=CCMSLIB00000855149
USI=mzspec:GNPS:GNPS-NIH-NATURALPRODUCTSLIBRARY_ROUND2_POSITIVE:accession:CCMSLIB00000855149
SCANS=682
98.98983	127.0
127.031754	70.0
131.072708	95.0
147.034302	105.0
150.951569	74.0
154.983932	538.0
163.011017	228.0
232.99028	68.0
238.99202	129.0
283.113037	417.0
284.124115	126.0
298.956604	107.0
387.154175	321.0
415.18042	174.0
431.195068	101.0
446.84317	76.0
473.717896	94.0
474.485657	87.0
514.989319	116.0
545.318176	121.0
549.284058	107.0
587.286865	134.0
595.600525	217.0
615.968811	129.0
632.826721	182.0
641.059753	117.0
647.05011	191.0
659.333618	108.0
667.038574	81.0
713.039062	68.0
759.185303	118.0
773.158936	90.0
774.444519	92.0
775.332214	75.0
776.147583	59.0
781.429626	191.0
785.45166	55.0
785.510132	174.0
786.781738	207.0
787.271423	171.0
787.427063	26714.0
788.263245	55.0
788.333191	449.0
788.431458	10416.0
788.556458	100.0
788.909729	210.0
789.325256	246.0
789.433838	2959.0
789.87616	59.0
790.227661	119.0
790.452759	114.0
791.948608	62.0
792.235718	81.0
794.19873	102.0
1307.046997	136.0
END IONS

BEGIN IONS
PEPMASS=343.055
CHARGE=1
MSLEVEL=2
SOURCE_INSTRUMENT=LC-ESI-qTof
FILENAME=p3-A11_GA11_01_18232.mzXML
SEQ=*..*
IONMODE=Positive
ORGANISM=GNPS-NIH-SMALLMOLECULEPHARMACOLOGICALLYACTIVE
NAME=MLS002207244-01!Thiophanate M23564-05-8 M+H
PI=Dorrestein
DATACOLLECTOR=VP/LMS
SMILES=COC(=O)NC(=S)Nc1ccccc1NC(=S)NC(=O)OC
INCHI=N/A
INCHIAUX=N/A
PUBMED=N/A
SUBMITUSER=vphelan
LIBRARYQUALITY=1
SPECTRUMID=CCMSLIB00000084811
USI=mzspec:GNPS:GNPS-NIH-SMALLMOLECULEPHARMACOLOGICALLYACTIVE:accession:CCMSLIB00000084811
SCANS=1805
45.418777	156.0
45.50198	152.0
46.039249	148.0
46.684326	92.0
46.785011	124.0
46.968979	156.0
47.094559	176.0
47.328411	96.0
47.35854	40.0
47.405121	60.0
47.753834	44.0
47.996212	60.0
49.540382	188.0
49.754951	96.0
49.906689	144.0
50.39296	184.0
51.875946	124.0
52.019402	216.0
52.257969	276.0
52.394745	164.0
54.563343	180.0
56.772915	180.0
56.954517	280.0
58.139736	196.0
58.356956	132.0
58.460392	144.0
59.936596	164.0
60.334801	52.0
60.655243	160.0
61.345432	84.0
62.197964	160.0
62.452511	104.0
62.967903	48.0
63.317425	184.0
64.087868	132.0
64.156395	212.0
64.819695	136.0
65.356003	188.0
66.043243	116.0
66.461212	184.0
68.638397	124.0
69.087639	164.0
69.890648	112.0
71.083725	156.0
71.616661	144.0
71.717758	196.0
71.958992	140.0
72.522308	176.0
73.387596	180.0
73.534302	56.0
74.866409	88.0
75.707428	284.0
75.859901	200.0
75.937927	100.0
78.971603	188.0
79.416168	204.0
79.698433	116.0
80.46965	96.0
80.896927	200.0
81.474373	192.0
82.129616	212.0
82.169296	176.0
82.320915	196.0
82.434723	120.0
83.193619	164.0
83.771904	188.0
84.677879	100.0
85.386307	168.0
86.284309	176.0
87.784584	56.0
88.406647	232.0
88.571404	184.0
88.706322	168.0
89.578239	176.0
90.412781	128.0
91.851059	208.0
92.051216	288.0
92.080101	92.0
92.13549	224.0
92.366798	144.0
93.060295	560.0
93.287231	180.0
94.016617	176.0
94.061607	160.0
94.192917	188.0
94.411316	116.0
94.705498	128.0
94.980728	120.0
95.847809	164.0
95.888733	224.0
96.842171	120.0
97.195045	156.0
98.76123	148.0
98.903694	168.0
99.63343	176.0
99.724838	204.0
100.896942	172.0
101.026932	240.0
101.425415	152.0
101.557755	160.0
101.601883	176.0
101.939194	76.0
102.984787	120.0
103.727379	164.0
105.167488	180.0
105.216476	60.0
105.326744	136.0
105.745895	204.0
105.907646	176.0
106.054176	200.0
107.064018	204.0
107.874802	152.0
108.375633	188.0
108.956558	180.0
109.076027	812.0
109.757866	60.0
109.948204	164.0
110.756821	176.0
112.563385	92.0
113.259171	116.0
115.293144	156.0
116.110947	48.0
116.701469	136.0
117.045731	84.0
117.377563	164.0
117.785454	176.0
117.995552	316.0
118.051453	548.0
118.073181	196.0
118.45385	28.0
118.477684	136.0
119.058113	572.0
119.102417	96.0
119.347984	196.0
122.005554	188.0
122.074753	116.0
122.145126	164.0
122.973595	136.0
122.989044	200.0
123.019951	180.0
123.114891	148.0
123.745071	180.0
123.818146	184.0
124.024193	224.0
124.650032	220.0
126.391518	180.0
126.601936	48.0
127.070404	112.0
127.737617	148.0
127.892868	116.0
128.462952	176.0
129.888046	176.0
130.351196	40.0
130.37619	196.0
130.803772	204.0
130.940384	180.0
132.065582	136.0
132.926971	156.0
134.005356	180.0
134.069794	508.0
135.016388	124.0
135.058701	284.0
136.593552	132.0
138.013824	156.0
138.976471	228.0
140.015472	144.0
140.642624	112.0
141.401306	152.0
142.076614	168.0
142.551956	216.0
142.656052	160.0
143.046844	184.0
143.200943	216.0
145.679001	164.0
146.075638	128.0
146.366837	128.0
146.388519	196.0
146.619781	204.0
146.69931	196.0
146.880173	128.0
148.549225	196.0
148.71666	140.0
149.01799	1384.0
149.375137	136.0
149.922943	48.0
149.995895	120.0
150.024078	364.0
150.408005	152.0
150.469315	168.0
150.684235	140.0
150.789307	180.0
151.033234	16752.0
151.06282	372.0
151.118637	76.0
151.170807	48.0
151.205078	76.0
151.246674	52.0
151.280945	72.0
151.325012	68.0
151.381332	52.0
151.410721	140.0
151.538086	68.0
151.655716	100.0
151.671844	88.0
151.729263	60.0
151.846954	116.0
151.986786	48.0
152.035263	1092.0
152.180679	48.0
152.227341	40.0
152.281769	120.0
152.298553	152.0
152.386993	28.0
152.645081	56.0
152.750824	108.0
153.029373	616.0
153.092941	140.0
153.282608	168.0
153.307251	56.0
154.01532	68.0
154.198166	96.0
155.275116	156.0
159.042191	196.0
159.975159	104.0
160.051514	2308.0
160.501709	48.0
160.945786	52.0
161.056976	296.0
161.625717	48.0
162.152451	108.0
163.030533	160.0
163.076279	200.0
164.109802	180.0
164.857697	132.0
166.05838	152.0
174.007065	184.0
174.061768	292.0
175.017746	296.0
176.029495	148.0
176.989059	180.0
177.014008	408.0
180.985718	164.0
186.040894	220.0
188.306335	64.0
190.040131	192.0
192.077408	508.0
192.538544	120.0
192.988876	284.0
193.49527	116.0
193.99115	128.0
194.035889	192.0
198.014648	180.0
201.050903	160.0
201.991745	136.0
202.022858	140.0
204.039185	136.0
205.99411	88.0
209.036026	176.0
211.095642	152.0
219.035156	476.0
227.131454	192.0
234.033981	132.0
234.96965	112.0
235.039825	132.0
235.992233	256.0
236.999771	148.0
237.990463	128.0
243.266647	88.0
245.008118	152.0
250.858902	208.0
253.459946	68.0
266.328461	96.0
267.141083	140.0
268.023376	128.0
277.035522	152.0
278.056763	152.0
280.124847	116.0
284.123016	104.0
300.195404	128.0
318.103088	164.0
323.267853	172.0
340.228088	152.0
341.194275	136.0
343.160248	92.0
397.439301	88.0
400.488403	20.0
508.641174	28.0
526.429993	40.0
576.730896	92.0
590.757385	68.0
719.654175	148.0
730.700256	192.0
803.097351	168.0
804.880676	264.0
833.601929	44.0
867.668274	128.0
979.390625	144.0
985.285522	144.0
986.166565	172.0
1017.143494	204.0
1026.789673	56.0
1035.769653	132.0
1054.997314	96.0
1066.314575	176.0
1067.075073	116.0
1075.981079	160.0
1134.661499	176.0
1181.473877	228.0
1188.901245	124.0
1192.733643	196.0
1193.971191	120.0
1218.850342	120.0
1224.66626	180.0
1253.093262	152.0
1261.081299	148.0
1262.516479	172.0
1287.974854	208.0
1289.811157	208.0
1302.709473	152.0
1303.478149	248.0
1311.315063	160.0
1330.781372	148.0
1336.85083	196.0
1343.057983	232.0
1348.643677	184.0
1377.166626	132.0
1392.594604	156.0
1406.085205	200.0
1410.020996	180.0
1410.985229	288.0
1422.671997	72.0
1429.015015	188.0
1432.417725	120.0
1459.169434	168.0
1465.280762	192.0
1478.192139	196.0
1483.913696	188.0
1486.982056	160.0
1489.27002	144.0
1492.636108	212.0
1494.466675	40.0
1494.912964	192.0
1495.998169	224.0
1503.628906	40.0
1505.203735	132.0
END IONS

BEGIN IONS
PEPMASS=472.322
CHARGE=1
MSLEVEL=2
SOURCE_INSTRUMENT=LC-ESI-qTof
FILENAME=p3-E06_GE6_01_18275.mzXML
SEQ=*..*
IONMODE=Positive
ORGANISM=GNPS-NIH-SMALLMOLECULEPHARMACOLOGICALLYACTIVE
NAME=MLS001148415-01! M+H
PI=Dorrestein
DATACOLLECTOR=VP/LMS
SMILES=CC(C)(C)c1ccc(cc1)C(O)CCCN2CCC(CC2)C(O)(c3ccccc3)c4ccccc4
INCHI=N/A
INCHIAUX=N/A
PUBMED=N/A
SUBMITUSER=vphelan
LIBRARYQUALITY=1
SPECTRUMID=CCMSLIB00000085072
USI=mzspec:GNPS:GNPS-NIH-SMALLMOLECULEPHARMACOLOGICALLYACTIVE:accession:CCMSLIB00000085072
SCANS=2102
44.923069	212.0
45.035202	172.0
45.079292	144.0
45.146137	136.0
45.171551	140.0
45.219723	164.0
45.360374	124.0
45.393894	124.0
45.426865	172.0
45.456947	152.0
45.467682	184.0
45.587212	124.0
45.600655	76.0
45.643616	180.0
45.669228	188.0
45.682682	280.0
45.720356	188.0
45.739201	172.0
45.757786	184.0
45.842915	252.0
45.872566	68.0
45.890095	88.0
45.904926	152.0
45.973732	224.0
46.05069	156.0
46.102032	160.0
46.142586	132.0
46.18045	120.0
46.192627	32.0
46.245399	208.0
46.271122	80.0
46.280602	132.0
46.296852	120.0
46.352936	168.0
46.387634	116.0
46.429668	200.0
46.443233	136.0
46.509724	212.0
46.524658	148.0
46.7925	148.0
46.851067	168.0
46.894672	148.0
46.913696	176.0
46.962849	184.0
47.007874	128.0
47.113979	136.0
47.138977	168.0
47.189552	132.0
47.229214	180.0
47.252926	176.0
47.324978	144.0
47.364876	152.0
47.457928	176.0
47.530632	248.0
47.67519	196.0
47.703693	116.0
47.716064	120.0
47.75182	140.0
47.77108	120.0
47.8041	180.0
47.9576	152.0
48.02179	144.0
48.14967	184.0
48.216469	52.0
48.228909	168.0
48.277302	172.0
48.303581	204.0
48.363087	144.0
48.439247	156.0
48.479431	152.0
48.505764	80.0
48.59314	132.0
48.638939	132.0
48.650043	112.0
48.684757	216.0
48.716705	132.0
48.771347	196.0
48.782024	208.0
48.907223	168.0
48.951775	104.0
49.067432	200.0
49.139957	64.0
49.186016	172.0
49.226505	152.0
49.289368	144.0
49.371849	92.0
49.472599	116.0
49.51881	148.0
49.532204	128.0
49.555233	140.0
49.584663	128.0
49.60709	128.0
49.618305	172.0
49.663181	108.0
49.703869	32.0
49.733429	132.0
49.848511	160.0
49.862865	132.0
50.001083	140.0
50.039818	168.0
50.072208	144.0
50.121517	144.0
50.158161	120.0
50.169437	148.0
50.217384	148.0
50.241367	140.0
50.256886	208.0
50.423492	164.0
50.463112	212.0
50.710857	164.0
50.86689	164.0
50.899548	124.0
51.04734	144.0
51.090012	104.0
51.111355	168.0
51.147732	224.0
51.248055	120.0
51.325027	144.0
51.423466	184.0
51.476292	164.0
51.542004	156.0
51.556297	224.0
51.587742	72.0
51.66354	116.0
51.690727	176.0
51.725079	80.0
51.782352	184.0
51.829632	132.0
51.894135	120.0
51.91708	100.0
51.958679	108.0
52.03331	152.0
52.118057	176.0
52.139614	192.0
52.171238	164.0
52.188492	196.0
52.226913	184.0
52.384518	220.0
52.407284	272.0
52.42746	124.0
52.591885	140.0
52.606319	204.0
52.633057	108.0
52.723724	244.0
52.746449	168.0
52.769581	116.0
52.794163	152.0
52.848087	144.0
52.918613	48.0
52.972198	184.0
52.995792	240.0
53.041759	140.0
53.133125	156.0
53.159245	80.0
53.23328	168.0
53.295746	124.0
53.349525	148.0
53.377151	116.0
53.430969	184.0
53.529949	160.0
53.551796	160.0
53.564907	188.0
53.646515	88.0
53.67276	100.0
53.699013	132.0
53.723808	156.0
53.7677	152.0
53.780724	84.0
53.81284	136.0
53.828903	148.0
53.852558	228.0
53.972111	176.0
54.043785	132.0
54.159447	96.0
54.20047	92.0
54.235455	156.0
54.301624	156.0
54.383793	72.0
54.39954	172.0
54.496876	192.0
54.530678	172.0
54.540966	136.0
54.582134	36.0
54.608208	220.0
54.702782	168.0
54.754318	216.0
54.805882	40.0
54.89138	224.0
54.903179	132.0
54.969566	172.0
54.993179	156.0
55.005981	208.0
55.05962	152.0
55.07439	164.0
55.102463	164.0
55.117237	156.0
55.14975	188.0
55.231079	68.0
55.402805	168.0
55.416138	160.0
55.448742	96.0
55.46801	140.0
55.511841	200.0
55.539268	148.0
55.583698	216.0
55.61338	188.0
55.632679	144.0
55.70842	36.0
55.779751	148.0
55.791645	176.0
55.860054	136.0
55.870468	148.0
55.880886	284.0
55.928509	116.0
56.080441	152.0
56.098331	152.0
56.166927	188.0
56.183338	152.0
56.214672	64.0
56.241539	128.0
56.346077	188.0
56.364006	136.0
56.440243	132.0
56.453701	164.0
56.470688	236.0
56.550953	136.0
56.61084	60.0
56.7607	208.0
56.838703	108.0
56.865005	200.0
56.889736	200.0
57.134708	156.0
57.161793	196.0
57.220497	152.0
57.264168	156.0
57.280739	124.0
57.393494	192.0
57.453644	220.0
57.482777	120.0
57.535606	212.0
57.547688	212.0
57.582859	192.0
57.594505	160.0
57.627743	324.0
57.642853	268.0
57.653431	232.0
57.69878	180.0
57.774399	180.0
57.80088	156.0
57.850071	192.0
57.868237	236.0
57.878838	228.0
57.892467	128.0
57.919731	192.0
57.959122	184.0
57.978825	152.0
58.034912	116.0
58.045681	196.0
58.057381	108.0
58.086479	132.0
58.116821	104.0
58.131996	136.0
58.147064	164.0
58.182087	140.0
58.223087	128.0
58.296013	136.0
58.358337	120.0
58.396355	184.0
58.44656	48.0
58.470909	108.0
58.509365	184.0
58.536713	144.0
58.589687	136.0
58.64912	112.0
58.735218	328.0
58.760448	116.0
58.77113	160.0
58.873409	140.0
58.940624	148.0
58.962021	116.0
58.997177	212.0
59.030819	148.0
59.15707	156.0
59.185375	100.0
59.271156	324.0
59.29108	44.0
59.372337	92.0
59.409153	152.0
59.456718	124.0
59.500469	256.0
59.613369	208.0
59.651794	164.0
59.666195	208.0
59.831795	124.0
59.888775	92.0
59.922665	160.0
60.023277	128.0
60.090729	184.0
60.101528	164.0
60.144741	128.0
60.160179	148.0
60.20187	64.0
60.223492	176.0
60.282204	88.0
60.311569	172.0
60.34346	156.0
60.382698	48.0
60.456959	188.0
60.475533	132.0
60.548306	72.0
60.560696	188.0
60.576187	144.0
60.591679	192.0
60.633518	80.0
60.703281	52.0
60.777744	176.0
60.825855	144.0
60.853802	176.0
60.942337	148.0
60.957878	112.0
61.093151	140.0
61.124893	100.0
61.184364	204.0
61.209888	80.0
61.247269	40.0
61.287777	148.0
61.330746	176.0
61.423416	128.0
61.446819	160.0
61.481148	220.0
61.518612	212.0
61.588882	68.0
61.631065	176.0
61.677647	184.0
61.707657	144.0
61.739925	168.0
61.795246	132.0
61.83437	124.0
61.871937	260.0
61.884464	92.0
61.903255	216.0
61.933014	152.0
61.950245	140.0
61.965954	144.0
61.989338	160.0
62.020763	172.0
62.100731	108.0
62.132378	208.0
62.170837	176.0
62.234127	184.0
62.311092	172.0
62.356663	144.0
62.488762	176.0
62.50135	176.0
62.515511	164.0
62.543842	164.0
62.57848	100.0
62.724998	144.0
62.745491	172.0
62.786491	156.0
62.814884	120.0
62.904835	144.0
63.051735	176.0
63.10067	188.0
63.121296	148.0
63.132366	168.0
63.171909	104.0
63.208298	64.0
63.257366	208.0
63.268448	196.0
63.287445	172.0
63.322289	356.0
63.375187	204.0
63.450645	204.0
63.498219	44.0
63.518841	208.0
63.571201	120.0
63.626755	228.0
63.709343	136.0
63.722713	124.0
63.734764	200.0
63.920815	160.0
63.970158	176.0
64.092796	132.0
64.108734	152.0
64.215553	192.0
64.261818	120.0
64.421478	164.0
64.483795	56.0
64.510971	132.0
64.614922	140.0
64.722168	160.0
64.744583	160.0
64.802567	164.0
64.877586	108.0
64.900032	192.0
64.988251	176.0
65.018745	204.0
65.029976	176.0
65.071716	156.0
65.089378	116.0
65.11026	120.0
65.145599	100.0
65.168091	148.0
65.243011	228.0
65.269356	256.0
65.310371	164.0
65.389549	180.0
65.485016	120.0
65.684891	100.0
65.776871	188.0
65.881844	192.0
65.964264	188.0
65.98008	224.0
66.088799	144.0
66.182678	180.0
66.232887	216.0
66.291016	160.0
66.367401	216.0
66.381996	132.0
66.592987	180.0
66.617355	172.0
66.643349	96.0
66.6661	140.0
66.762016	104.0
66.779907	152.0
66.797623	144.0
66.822205	144.0
66.892189	140.0
67.009445	116.0
67.055077	176.0
67.16922	168.0
67.30468	80.0
67.345512	140.0
67.410858	132.0
67.451721	100.0
67.47625	184.0
67.649666	148.0
67.741379	44.0
67.772507	152.0
67.869385	156.0
67.954514	136.0
68.049706	172.0
68.062843	108.0
68.1269	152.0
68.146614	132.0
68.176193	148.0
68.209068	200.0
68.245239	212.0
68.312668	152.0
68.327477	168.0
68.500343	104.0
68.528351	148.0
68.574493	48.0
68.620193	116.0
68.658577	148.0
68.698166	240.0
68.782333	184.0
68.818649	136.0
68.839508	152.0
68.970642	176.0
68.983871	256.0
69.004295	112.0
69.048355	164.0
69.0662	168.0
69.145973	100.0
69.283417	156.0
69.308266	132.0
69.334511	120.0
69.674957	104.0
69.688248	56.0
69.761383	196.0
69.789642	264.0
69.812927	48.0
69.901093	196.0
69.925369	192.0
69.95269	68.0
70.000977	164.0
70.052612	60.0
70.089264	108.0
70.161911	172.0
70.197624	136.0
70.372833	160.0
70.404564	192.0
70.471382	160.0
70.509819	84.0
70.544685	172.0
70.595085	72.0
70.630203	152.0
70.689247	152.0
70.733955	60.0
70.81768	188.0
70.84951	160.0
70.881348	152.0
70.918213	68.0
71.008759	188.0
71.074188	160.0
71.102715	152.0
71.171547	172.0
71.208008	208.0
71.245445	156.0
71.268967	56.0
71.53302	196.0
71.607384	172.0
71.62059	156.0
71.664391	236.0
71.716057	152.0
71.76384	276.0
71.841423	212.0
71.898796	220.0
71.974762	156.0
71.991646	176.0
72.025429	232.0
72.077805	120.0
72.138649	48.0
72.17585	144.0
72.189377	172.0
72.338272	112.0
72.361977	124.0
72.385681	172.0
72.416168	168.0
72.468681	176.0
72.500877	196.0
72.597511	144.0
72.616898	204.0
72.675545	180.0
72.728157	176.0
72.773994	56.0
72.835136	136.0
72.850426	388.0
72.881004	140.0
72.962593	64.0
73.001701	204.0
73.045921	176.0
73.088455	72.0
73.180374	160.0
73.251907	208.0
73.287682	148.0
73.311539	96.0
73.333694	188.0
73.401894	212.0
73.504242	172.0
73.524727	176.0
73.569107	100.0
73.608376	160.0
73.640823	276.0
73.739929	40.0
73.760437	188.0
73.782661	176.0
73.83567	248.0
73.917786	64.0
73.939232	144.0
73.970848	200.0
73.993103	192.0
74.01194	76.0
74.051331	180.0
74.229568	124.0
74.493889	144.0
74.505913	232.0
74.526535	172.0
74.548874	84.0
74.562622	144.0
74.633102	172.0
74.646866	72.0
74.695023	120.0
74.717384	120.0
74.79483	180.0
74.820648	128.0
75.061882	160.0
75.110611	204.0
75.148125	164.0
75.170563	156.0
75.18692	156.0
75.251686	100.0
75.325951	120.0
75.385941	200.0
75.42791	244.0
75.52993	140.0
75.606064	144.0
75.625099	76.0
75.899094	132.0
75.928314	144.0
75.966476	112.0
76.044563	100.0
76.067596	164.0
76.13311	156.0
76.171318	108.0
76.219971	140.0
76.235611	116.0
76.277321	120.0
76.296448	120.0
76.374702	164.0
76.439896	112.0
76.465179	284.0
76.543526	172.0
76.560936	160.0
76.599258	96.0
76.668953	192.0
76.710785	124.0
76.738686	116.0
76.852058	260.0
76.879982	128.0
76.939629	140.0
76.969009	40.0
76.987915	208.0
77.00666	352.0
77.066826	148.0
77.088707	108.0
77.14373	60.0
77.203178	100.0
77.227669	132.0
77.407936	144.0
77.47168	224.0
77.500778	140.0
77.514793	96.0
77.532097	160.0
77.560364	48.0
77.651543	160.0
77.698906	148.0
77.711189	140.0
77.735756	108.0
77.784897	144.0
77.955269	120.0
78.009087	188.0
78.029099	56.0
78.068504	176.0
78.087395	132.0
78.157501	192.0
78.169815	60.0
78.326836	200.0
78.418144	144.0
78.511459	164.0
78.524208	180.0
78.556465	216.0
78.642151	180.0
78.775757	244.0
78.792252	32.0
78.822296	108.0
78.866478	188.0
78.928352	60.0
78.95665	232.0
78.983185	128.0
79.022102	160.0
79.046875	44.0
79.135384	196.0
79.147774	92.0
79.192055	132.0
79.217468	92.0
79.234192	152.0
79.310768	76.0
79.390556	48.0
79.454414	120.0
79.615944	160.0
79.639038	164.0
79.650337	140.0
79.688782	188.0
79.708328	96.0
79.745644	200.0
79.758087	188.0
79.774086	80.0
79.807869	180.0
79.864777	188.0
79.916374	148.0
79.935944	68.0
79.970093	192.0
80.024948	232.0
80.121124	112.0
80.142509	104.0
80.183495	180.0
80.242325	140.0
80.261932	56.0
80.356468	128.0
80.413574	236.0
80.465347	192.0
80.476517	128.0
80.533997	176.0
80.57608	152.0
80.692253	164.0
80.708351	216.0
80.742325	180.0
80.851463	176.0
80.919487	60.0
80.983955	136.0
81.00724	120.0
81.023369	188.0
81.114761	140.0
81.222359	148.0
81.242088	148.0
81.299507	188.0
81.34079	100.0
81.371315	128.0
81.47728	188.0
81.537575	108.0
81.542809	60.0
81.550163	136.0
81.653442	256.0
81.673225	132.0
81.788391	164.0
81.959541	140.0
81.9981	196.0
82.020493	160.0
82.065834	132.0
82.136169	80.0
82.229996	84.0
82.31485	160.0
82.400543	128.0
82.457573	104.0
82.47023	80.0
82.569672	140.0
82.604042	188.0
82.721664	44.0
82.761497	240.0
82.777794	160.0
82.855682	36.0
82.89373	156.0
82.968048	196.0
83.00975	148.0
83.040588	164.0
83.064163	124.0
83.120407	104.0
83.17849	112.0
83.198456	168.0
83.222061	148.0
83.280174	120.0
83.316505	128.0
83.374481	164.0
83.39283	148.0
83.438278	176.0
83.496468	124.0
83.520111	200.0
83.658417	192.0
83.71122	72.0
83.78772	96.0
83.906189	132.0
83.967361	168.0
83.98278	104.0
84.001022	144.0
84.021088	144.0
84.210938	152.0
84.269402	160.0
84.358955	104.0
84.490631	112.0
84.591286	168.0
84.605927	168.0
84.649872	172.0
84.790268	152.0
84.831268	168.0
84.957634	216.0
84.974319	232.0
85.074066	180.0
85.119331	156.0
85.260788	232.0
85.317772	132.0
85.407875	148.0
85.429955	96.0
85.474113	252.0
85.617706	136.0
85.632439	152.0
85.720871	136.0
85.733772	160.0
85.766945	172.0
85.792755	124.0
85.85601	144.0
85.905251	136.0
86.062134	208.0
86.18589	168.0
86.234985	184.0
86.254272	184.0
86.333778	164.0
86.407768	76.0
86.42997	108.0
86.467667	120.0
86.479942	180.0
86.69664	204.0
86.731857	128.0
86.813438	184.0
86.82827	80.0
86.869743	188.0
86.898766	180.0
86.926598	64.0
86.971138	136.0
87.122589	200.0
87.203323	196.0
87.251053	124.0
87.363243	88.0
87.399521	172.0
87.426506	104.0
87.525169	140.0
87.560555	164.0
87.601532	120.0
87.649979	152.0
87.679794	152.0
87.84388	124.0
87.875595	48.0
87.910469	116.0
87.972649	160.0
87.991318	148.0
88.023056	92.0
88.038002	248.0
88.056366	188.0
88.092422	228.0
88.252899	136.0
88.327705	76.0
88.365128	132.0
88.58979	120.0
88.782852	156.0
88.801613	136.0
88.961113	192.0
88.973259	184.0
89.002419	120.0
89.062515	144.0
89.124512	144.0
89.160217	220.0
89.180893	208.0
89.216614	164.0
89.289948	80.0
89.342613	212.0
89.391541	152.0
89.470596	268.0
89.495071	128.0
89.528969	160.0
89.593338	92.0
89.647652	232.0
89.711739	140.0
89.783394	168.0
89.804138	180.0
89.892815	140.0
89.913574	88.0
89.951324	116.0
90.032516	124.0
90.12886	168.0
90.177994	268.0
90.193115	212.0
90.233467	184.0
90.266853	136.0
90.312241	180.0
90.426117	152.0
90.492027	72.0
90.531792	140.0
90.65683	112.0
90.679573	152.0
90.694733	128.0
90.79953	148.0
90.910957	164.0
90.958405	104.0
90.975487	212.0
91.054092	3700.0
91.105446	140.0
91.205345	184.0
91.344162	120.0
91.532585	40.0
91.547005	212.0
91.573898	160.0
91.635445	116.0
91.654503	108.0
91.831802	68.0
91.850876	124.0
91.900482	156.0
91.991974	196.0
92.022636	196.0
92.056679	588.0
92.127678	148.0
92.162071	132.0
92.179268	60.0
92.219406	80.0
92.48719	148.0
92.535057	76.0
92.648796	196.0
92.69696	172.0
92.722786	64.0
92.755371	180.0
92.768791	68.0
92.824394	56.0
92.841652	72.0
92.856995	156.0
92.891525	116.0
92.960594	88.0
92.99514	172.0
93.069275	292.0
93.091141	184.0
93.190491	188.0
93.216003	108.0
93.259514	176.0
93.364998	120.0
93.524948	208.0
93.594963	180.0
93.644325	48.0
93.709496	196.0
93.835815	32.0
93.853172	120.0
93.870522	60.0
94.063126	588.0
94.119453	120.0
94.272064	148.0
94.39772	120.0
94.449944	72.0
94.569916	128.0
94.614433	68.0
94.709328	176.0
94.874046	152.0
94.901192	180.0
94.926399	96.0
94.945793	236.0
95.068817	172.0
95.213623	52.0
95.250526	176.0
95.295212	168.0
95.345734	72.0
95.408554	176.0
95.425438	212.0
95.470161	92.0
95.56353	176.0
95.611778	96.0
95.651115	212.0
95.670578	44.0
95.725098	136.0
95.806908	48.0
95.828339	152.0
95.90239	104.0
95.919762	180.0
96.080208	3132.0
96.11692	136.0
96.409851	128.0
96.462624	208.0
96.488037	136.0
96.501724	84.0
96.552567	172.0
96.577995	124.0
96.615166	68.0
96.675819	152.0
96.691475	156.0
96.705177	136.0
96.736496	228.0
96.795235	40.0
96.853996	176.0
96.877502	148.0
96.975609	176.0
97.085922	340.0
97.126465	104.0
97.175507	132.0
97.261856	72.0
97.316826	108.0
97.334503	144.0
97.367882	164.0
97.434464	148.0
97.483795	296.0
97.499519	148.0
97.530968	72.0
97.646973	108.0
97.678444	132.0
97.71386	116.0
97.727631	168.0
97.813499	216.0
97.826996	148.0
97.889046	136.0
97.922256	176.0
98.063461	432.0
98.094986	1812.0
98.131416	48.0
98.170853	132.0
98.185844	100.0
98.22805	148.0
98.329391	156.0
98.433319	212.0
98.512321	224.0
98.56369	292.0
98.585434	212.0
98.680313	224.0
98.702065	88.0
98.7258	156.0
98.818771	56.0
98.858345	164.0
99.000885	140.0
99.060303	156.0
99.167305	84.0
99.230743	80.0
99.246605	128.0
99.300148	160.0
99.322723	168.0
99.37355	204.0
99.452194	172.0
99.50058	112.0
99.647552	116.0
99.685303	136.0
99.777679	136.0
99.806564	112.0
99.876175	164.0
99.979637	212.0
100.021431	120.0
100.093109	76.0
100.14489	216.0
100.192703	288.0
100.224579	112.0
100.268425	132.0
100.360123	208.0
100.380066	180.0
100.429924	168.0
100.443886	180.0
100.552887	216.0
100.591553	164.0
100.613518	124.0
100.6894	136.0
100.797279	112.0
100.824028	224.0
100.877495	208.0
100.967201	164.0
100.983208	220.0
101.05722	184.0
101.1633	164.0
101.277443	160.0
101.331528	280.0
101.359581	200.0
101.42572	72.0
101.461807	104.0
101.508522	188.0
101.523964	92.0
101.540009	136.0
101.566086	128.0
101.598686	128.0
101.750717	68.0
101.814972	104.0
101.857155	260.0
101.923454	160.0
101.997818	156.0
102.043304	308.0
102.104385	48.0
102.182831	100.0
102.204964	92.0
102.223076	188.0
102.263329	120.0
102.396217	104.0
102.412331	140.0
102.459641	240.0
102.474785	132.0
102.5168	116.0
102.682419	80.0
102.700569	204.0
102.718727	168.0
102.805489	120.0
102.839798	136.0
102.890266	72.0
102.904396	80.0
102.999313	196.0
103.054184	1168.0
103.110443	128.0
103.213547	216.0
103.25602	108.0
103.363235	132.0
103.405739	148.0
103.434074	220.0
103.468491	128.0
103.731857	64.0
103.86322	128.0
103.908295	192.0
104.013832	124.0
104.044281	168.0
104.061737	388.0
104.133629	108.0
104.229111	268.0
104.286018	244.0
104.363274	188.0
104.412079	96.0
104.440552	164.0
104.509094	220.0
104.538208	156.0
104.556526	136.0
104.582985	124.0
104.611488	140.0
104.639992	172.0
104.664421	72.0
104.688858	56.0
104.727493	136.0
104.831467	52.0
104.880379	160.0
104.941536	204.0
104.988541	160.0
105.0317	464.0
105.068901	4132.0
105.12735	132.0
105.155739	168.0
105.247604	40.0
105.263947	156.0
105.323174	160.0
105.378334	40.0
105.425331	144.0
105.503006	40.0
105.528755	188.0
105.595024	96.0
105.617523	228.0
105.660484	136.0
105.846748	140.0
105.861084	132.0
105.887703	112.0
105.949158	164.0
106.000381	148.0
106.039322	136.0
106.070564	708.0
106.102867	216.0
106.139778	104.0
106.28952	140.0
106.316765	160.0
106.366737	148.0
106.445534	92.0
106.525635	248.0
106.551857	68.0
106.609879	108.0
106.650986	196.0
106.667427	100.0
106.749672	180.0
106.831947	112.0
106.852516	180.0
106.884453	92.0
106.918365	156.0
106.955414	128.0
107.004189	156.0
107.025414	112.0
107.083115	120.0
107.124275	128.0
107.163422	144.0
107.262344	132.0
107.322136	180.0
107.384003	100.0
107.479782	84.0
107.571777	188.0
107.659729	168.0
107.720459	168.0
107.796906	428.0
107.929207	168.0
107.950356	176.0
107.997452	176.0
108.08091	1376.0
108.263809	216.0
108.322441	164.0
108.380455	96.0
108.403687	208.0
108.436409	148.0
108.477867	124.0
108.496735	160.0
108.525551	136.0
108.556656	100.0
108.602287	172.0
108.616806	116.0
108.670746	76.0
108.741302	184.0
108.807732	164.0
108.849106	164.0
108.90741	140.0
108.932335	100.0
109.005058	172.0
109.026115	272.0
109.049492	116.0
109.086647	1040.0
109.183846	164.0
109.264969	164.0
109.319069	52.0
109.398163	76.0
109.44397	160.0
109.494881	152.0
109.533524	128.0
109.585609	132.0
109.79615	164.0
109.87542	96.0
109.949318	116.0
110.011078	96.0
110.027779	124.0
110.052834	220.0
110.09565	1064.0
110.203224	328.0
110.222031	140.0
110.236023	156.0
110.39135	172.0
110.408081	176.0
110.592201	136.0
110.606857	124.0
110.623604	168.0
110.650818	72.0
110.70945	100.0
110.728012	116.0
110.757622	132.0
110.868179	172.0
110.876167	132.0
110.882111	116.0
111.102737	2932.0
111.122398	132.0
111.229431	104.0
111.315514	152.0
111.357521	220.0
111.422638	172.0
111.458359	64.0
111.483574	56.0
111.544533	148.0
111.594986	40.0
111.609711	128.0
111.698036	220.0
111.824287	44.0
111.860077	84.0
111.904289	136.0
111.977989	124.0
112.020866	192.0
112.071465	432.0
112.106407	356.0
112.232307	112.0
112.360588	204.0
112.591736	48.0
112.669899	112.0
112.762871	176.0
112.779785	144.0
112.843208	116.0
112.868576	196.0
112.885498	64.0
112.929909	84.0
112.944717	144.0
113.084366	180.0
113.117172	336.0
113.181633	144.0
113.198654	200.0
113.368172	180.0
113.395233	208.0
113.573677	164.0
113.577904	152.0
113.635353	68.0
113.741463	192.0
113.817894	56.0
113.834885	48.0
114.096237	32.0
114.113243	116.0
114.277023	52.0
114.539734	220.0
114.643288	140.0
114.681648	184.0
114.794647	132.0
114.843697	152.0
114.871429	240.0
114.901299	92.0
114.948242	144.0
114.979195	172.0
115.053261	2120.0
115.110474	124.0
115.137093	164.0
115.159599	76.0
115.193779	180.0
115.227959	116.0
115.262146	264.0
115.285652	52.0
115.362602	120.0
115.467377	176.0
115.55722	176.0
115.646049	136.0
115.707047	144.0
115.741302	172.0
115.766998	28.0
115.976967	132.0
116.060898	796.0
116.153168	188.0
116.255791	132.0
116.326622	180.0
116.386734	68.0
116.41465	88.0
116.442574	152.0
116.498421	156.0
116.618759	124.0
116.681099	144.0
116.861923	168.0
116.891891	132.0
116.911621	168.0
116.967224	164.0
116.990906	124.0
117.023201	208.0
117.069275	8860.0
117.093498	192.0
117.165344	76.0
117.193359	136.0
117.225677	132.0
117.240768	200.0
117.254395	136.0
117.324829	64.0
117.378174	108.0
117.559944	156.0
117.626854	100.0
117.700256	164.0
117.71521	104.0
117.765053	44.0
117.80825	224.0
117.924942	132.0
118.037361	196.0
118.073456	760.0
118.100082	196.0
118.117386	120.0
118.141182	100.0
118.175797	52.0
118.219078	32.0
118.327309	124.0
118.416092	208.0
118.448586	320.0
118.50058	112.0
118.550415	124.0
118.626282	132.0
118.698875	124.0
118.76506	164.0
118.814957	140.0
118.830147	108.0
118.845329	176.0
118.942993	108.0
118.996918	224.0
119.060532	120.0
119.084595	1612.0
119.1493	132.0
119.186241	140.0
119.237839	188.0
119.603394	376.0
119.632111	76.0
119.743164	140.0
119.769302	112.0
119.965424	84.0
120.009254	116.0
120.028656	84.0
120.080757	1212.0
120.203163	136.0
120.388351	212.0
120.553436	192.0
120.624702	88.0
120.796707	164.0
120.914032	232.0
120.979095	112.0
120.998802	164.0
121.047646	196.0
121.062302	124.0
121.087708	564.0
121.136772	116.0
121.220032	44.0
121.247581	84.0
121.331818	36.0
121.553352	136.0
121.579689	116.0
121.67588	184.0
121.700424	44.0
121.720184	144.0
121.770699	56.0
121.799248	248.0
121.882996	172.0
122.032204	136.0
122.096436	2952.0
122.159767	160.0
122.201569	156.0
122.245934	168.0
122.271988	92.0
122.311607	176.0
122.410683	36.0
122.523018	240.0
122.548492	164.0
122.75666	164.0
122.829445	160.0
122.855919	168.0
122.94397	168.0
123.101028	564.0
123.181892	200.0
123.217995	116.0
123.297546	132.0
123.339539	56.0
123.381538	148.0
123.410286	108.0
123.458931	112.0
123.559715	192.0
123.598305	136.0
123.62043	76.0
123.672173	164.0
123.697899	64.0
123.757675	180.0
123.844048	120.0
123.879486	136.0
124.027954	80.0
124.050125	132.0
124.071465	204.0
124.111061	11676.0
124.155373	120.0
124.173798	160.0
124.205353	40.0
124.248238	192.0
124.266205	96.0
124.320381	156.0
124.358459	92.0
124.430641	108.0
124.447258	120.0
124.491669	104.0
124.669395	124.0
124.69162	72.0
124.738297	136.0
124.764977	224.0
124.80722	116.0
124.878883	196.0
124.896179	88.0
124.971817	40.0
125.000748	196.0
125.025223	156.0
125.114914	1324.0
125.154739	180.0
125.183289	204.0
125.310257	188.0
125.546547	84.0
125.585503	196.0
125.691544	100.0
125.922684	124.0
125.966164	144.0
126.0466	160.0
126.062752	188.0
126.095764	104.0
126.124825	144.0
126.200836	188.0
126.216484	172.0
126.453629	112.0
126.657387	176.0
126.735794	104.0
127.016037	148.0
127.050858	500.0
127.22699	104.0
127.402161	96.0
127.43586	132.0
127.460449	196.0
127.57296	184.0
127.734871	252.0
127.755119	140.0
127.777618	152.0
127.834	140.0
127.878883	144.0
127.992615	200.0
128.025223	160.0
128.060867	4528.0
128.097305	168.0
128.137177	160.0
128.214478	144.0
128.311401	340.0
128.35199	32.0
128.394836	28.0
128.412872	40.0
128.448975	172.0
128.48732	128.0
128.53244	128.0
128.627243	140.0
128.731094	100.0
128.803375	148.0
128.832733	252.0
128.880188	128.0
128.921997	176.0
128.947784	132.0
129.026703	292.0
129.069061	28892.0
129.10022	144.0
129.12207	32.0
129.137909	36.0
129.175537	124.0
129.208038	172.0
129.228394	68.0
129.254272	92.0
129.307602	112.0
129.327972	52.0
129.358902	120.0
129.395889	80.0
129.420792	56.0
129.441177	64.0
129.524979	140.0
129.586136	40.0
129.685852	180.0
129.719849	64.0
129.762924	164.0
129.790146	240.0
129.806015	176.0
129.853638	72.0
129.911514	72.0
129.964798	40.0
129.992035	104.0
130.016998	36.0
130.071869	2448.0
130.114609	92.0
130.161377	212.0
130.220474	128.0
130.282669	84.0
130.341522	164.0
130.400833	128.0
130.432648	36.0
130.45993	136.0
130.585098	108.0
130.612717	224.0
130.636017	56.0
130.673477	112.0
130.766815	180.0
130.814819	172.0
130.846695	80.0
130.901337	96.0
130.929626	132.0
130.949158	192.0
131.019669	76.0
131.055527	172.0
131.08493	23924.0
131.128387	200.0
131.151947	176.0
131.171555	76.0
131.188721	132.0
131.206665	28.0
131.29332	44.0
131.336655	48.0
131.354019	128.0
131.379288	80.0
131.410736	84.0
131.450729	104.0
131.507782	80.0
131.589966	48.0
131.621933	104.0
131.640198	44.0
131.70401	136.0
131.75441	72.0
131.852097	112.0
131.875519	140.0
131.946014	168.0
131.986465	312.0
132.039719	192.0
132.088593	3808.0
132.171707	164.0
132.20311	104.0
132.417786	172.0
132.440689	72.0
132.511169	152.0
132.550659	168.0
132.607956	268.0
132.676727	112.0
132.713409	156.0
132.73175	132.0
132.750107	28.0
132.892319	152.0
132.917557	168.0
132.940506	100.0
133.009766	204.0
133.039215	92.0
133.073654	168.0
133.096542	524.0
133.121872	92.0
133.2005	248.0
133.296463	68.0
133.418274	60.0
133.441269	132.0
133.466568	120.0
133.631042	268.0
133.657486	136.0
133.678192	80.0
133.837021	168.0
133.915329	196.0
134.012085	104.0
134.067383	48.0
134.094818	440.0
134.127319	184.0
134.157288	148.0
134.205704	36.0
134.242599	148.0
134.279495	56.0
134.311783	72.0
134.38562	144.0
134.422531	144.0
134.533325	96.0
134.637238	60.0
134.669571	48.0
134.810501	128.0
134.868286	136.0
134.907578	96.0
134.928391	124.0
135.030136	164.0
135.09938	124.0
135.143494	132.0
135.19902	52.0
135.256882	208.0
135.361069	120.0
135.386551	80.0
135.409714	108.0
135.45372	252.0
135.488464	60.0
135.516266	96.0
135.699371	104.0
135.747711	176.0
135.802094	164.0
135.898773	124.0
135.952225	116.0
136.003281	208.0
136.109726	212.0
136.219238	124.0
136.357346	212.0
136.402817	60.0
136.474899	216.0
136.526047	180.0
136.726135	64.0
136.877457	136.0
137.031189	104.0
137.082443	160.0
137.118256	396.0
137.157028	68.0
137.19899	164.0
137.239151	212.0
137.332672	148.0
137.378571	208.0
137.399567	228.0
137.439224	188.0
137.481232	168.0
137.581604	88.0
137.623627	176.0
137.705368	64.0
137.796463	180.0
137.81282	152.0
137.868912	124.0
137.932022	132.0
137.952133	124.0
138.129913	368.0
138.156509	176.0
138.353104	160.0
138.381195	160.0
138.437393	52.0
138.458481	148.0
138.580292	56.0
138.596695	236.0
138.613098	120.0
138.731293	176.0
138.795929	124.0
138.866287	168.0
138.89444	156.0
138.915543	172.0
138.985931	88.0
139.039902	176.0
139.201889	164.0
139.248871	232.0
139.537903	176.0
139.606094	144.0
139.707794	156.0
139.82489	96.0
140.286575	72.0
140.319351	204.0
140.370667	108.0
140.55545	168.0
140.657074	136.0
140.707703	120.0
140.812775	168.0
140.841125	152.0
140.919449	104.0
140.946198	196.0
140.985245	128.0
141.001801	48.0
141.032516	168.0
141.068024	1772.0
141.091614	212.0
141.254791	184.0
141.34314	236.0
141.406235	184.0
141.508026	136.0
141.543549	160.0
141.607849	160.0
141.666702	156.0
141.863403	112.0
142.004272	188.0
142.047455	328.0
142.076309	584.0
142.121918	88.0
142.194565	144.0
142.228714	144.0
142.353256	204.0
142.424896	208.0
142.450256	136.0
142.513702	112.0
142.68959	136.0
142.760803	156.0
142.894135	296.0
142.915558	152.0
143.055191	184.0
143.084229	6268.0
143.117874	92.0
143.142456	192.0
143.165497	152.0
143.186142	96.0
143.203369	208.0
143.251251	140.0
143.306046	188.0
143.515793	144.0
143.649353	80.0
143.68071	140.0
143.735245	124.0
143.85936	136.0
143.93576	68.0
144.087158	1208.0
144.1651	92.0
144.200943	40.0
144.272659	96.0
144.341995	156.0
144.373093	136.0
144.463974	108.0
144.4879	156.0
144.575119	160.0
144.610321	76.0
144.648499	76.0
144.722458	156.0
144.758377	36.0
144.844604	120.0
144.867676	184.0
145.017136	136.0
145.061111	312.0
145.097931	1608.0
145.139389	120.0
145.180161	236.0
145.208939	124.0
145.232361	168.0
145.307297	284.0
145.367279	136.0
145.43689	140.0
145.607361	68.0
145.640991	204.0
145.777924	200.0
145.8284	92.0
145.866867	140.0
145.888504	128.0
145.958221	128.0
145.975052	108.0
146.005188	100.0
146.071121	380.0
146.103806	876.0
146.138626	80.0
146.167496	124.0
146.227661	96.0
146.297241	128.0
146.383652	172.0
146.422134	156.0
146.509399	120.0
146.697617	160.0
146.750412	132.0
146.796234	104.0
146.854111	104.0
146.945786	164.0
146.963501	224.0
146.98439	180.0
147.003693	196.0
147.030243	124.0
147.078125	720.0
147.115906	18272.0
147.174377	164.0
147.20842	148.0
147.219269	108.0
147.26445	88.0
147.290146	56.0
147.375565	160.0
147.482864	176.0
147.504028	132.0
147.520233	136.0
147.544754	56.0
147.567337	132.0
147.600372	176.0
147.626968	92.0
147.690475	140.0
147.728561	140.0
147.762436	40.0
147.87616	96.0
147.939102	256.0
147.985107	216.0
148.011734	184.0
148.028687	28.0
148.090393	196.0
148.101044	260.0
148.1203	2812.0
148.157059	172.0
148.28064	48.0
148.363068	112.0
148.441177	56.0
148.461853	92.0
148.569199	64.0
148.692963	192.0
148.809479	108.0
148.842331	128.0
148.932175	200.0
148.941498	144.0
149.017059	176.0
149.112	148.0
149.125168	80.0
149.131226	144.0
149.154465	112.0
149.259003	152.0
149.373306	80.0
149.40007	172.0
149.417099	140.0
149.672668	184.0
149.697021	220.0
149.894348	196.0
150.023529	104.0
150.07045	180.0
150.11438	168.0
150.262527	104.0
150.365677	104.0
150.516663	156.0
150.658051	220.0
150.677582	152.0
150.71669	216.0
150.912231	76.0
150.963577	156.0
151.052704	136.0
151.107895	108.0
151.193542	108.0
151.337982	112.0
151.3992	184.0
151.465332	96.0
151.555969	148.0
151.578033	188.0
151.602539	208.0
151.671158	80.0
151.690765	64.0
151.721909	200.0
151.774124	132.0
151.825623	108.0
151.857513	192.0
151.986588	160.0
152.039062	128.0
152.061249	608.0
152.097977	124.0
152.144623	156.0
152.235474	44.0
152.260025	144.0
152.427078	128.0
152.463943	148.0
152.497314	188.0
152.527847	104.0
152.667999	124.0
152.781143	112.0
152.822968	124.0
152.941101	108.0
152.960785	36.0
153.005112	320.0
153.023956	164.0
153.066406	612.0
153.246475	156.0
153.290833	80.0
153.379562	40.0
153.411606	104.0
153.512695	104.0
153.534897	44.0
153.564484	180.0
153.594086	44.0
153.681381	224.0
153.877899	148.0
153.998901	80.0
154.042175	148.0
154.07634	160.0
154.208923	36.0
154.226227	112.0
154.286453	88.0
154.312744	168.0
154.369614	96.0
154.589783	84.0
154.663757	176.0
154.725204	204.0
154.795258	108.0
154.876984	80.0
154.941391	136.0
154.990356	168.0
155.059769	444.0
155.084503	2628.0
155.157013	148.0
155.189255	232.0
155.380234	160.0
155.427368	156.0
155.495453	156.0
155.620987	188.0
155.697968	204.0
155.717834	88.0
155.813202	216.0
155.861923	156.0
155.879318	120.0
155.968796	172.0
156.083588	1444.0
156.22493	152.0
156.374222	164.0
156.390732	88.0
156.421524	160.0
156.441437	88.0
156.466339	104.0
156.488739	148.0
156.516129	124.0
156.653107	88.0
156.797638	144.0
156.997681	168.0
157.09938	828.0
157.149246	88.0
157.178619	224.0
157.185928	172.0
157.279022	100.0
157.31897	180.0
157.491272	140.0
157.508759	124.0
157.551224	76.0
157.788651	192.0
157.836151	164.0
157.858658	212.0
157.886169	156.0
157.961212	180.0
157.991226	32.0
158.061279	108.0
158.098328	396.0
158.32164	156.0
158.406799	200.0
158.494492	140.0
158.569382	176.0
158.587219	144.0
158.654892	100.0
158.687485	216.0
158.870575	36.0
158.910721	236.0
158.934586	140.0
158.97345	148.0
159.076355	148.0
159.110825	668.0
159.186569	116.0
159.246994	168.0
159.425491	188.0
159.546143	92.0
159.593918	168.0
159.649231	92.0
159.66684	92.0
159.810226	168.0
159.873138	28.0
159.961243	36.0
160.004028	168.0
160.02417	124.0
160.059433	272.0
160.086853	108.0
160.117126	452.0
160.202988	120.0
160.336533	36.0
160.371826	148.0
160.419724	168.0
160.459976	136.0
160.568497	32.0
160.596237	96.0
160.70723	168.0
160.767792	192.0
160.87886	220.0
160.89653	120.0
160.937347	144.0
161.095474	11148.0
161.134338	1212.0
161.172455	180.0
161.197113	92.0
161.251251	76.0
161.299957	144.0
161.343704	132.0
161.506241	192.0
161.702911	148.0
161.781387	160.0
161.832016	96.0
161.90799	100.0
162.004242	124.0
162.021973	144.0
162.099533	1696.0
162.129944	144.0
162.168961	152.0
162.190796	136.0
162.23233	140.0
162.269531	124.0
162.348969	120.0
162.369247	88.0
162.387009	52.0
162.432663	184.0
162.463104	160.0
162.498627	144.0
162.559525	44.0
162.658508	260.0
162.708771	60.0
162.749908	188.0
162.808319	40.0
162.907379	136.0
163.047134	140.0
163.08429	252.0
163.110825	316.0
163.196198	136.0
163.250366	132.0
163.301376	28.0
163.34462	92.0
163.383423	128.0
163.559387	140.0
163.598923	164.0
163.693314	124.0
163.782455	112.0
163.838501	112.0
163.942963	104.0
164.004135	104.0
164.021973	188.0
164.057663	100.0
164.146912	156.0
164.180054	52.0
164.197906	68.0
164.361176	76.0
164.40712	128.0
164.467102	128.0
164.573044	112.0
164.634323	144.0
164.713516	156.0
164.733948	144.0
164.881042	148.0
165.066437	340.0
165.183502	112.0
165.281082	96.0
165.383453	36.0
165.570557	160.0
165.716385	132.0
165.903473	92.0
166.076218	496.0
166.115158	140.0
166.170197	80.0
166.213821	284.0
166.272018	136.0
166.493637	88.0
166.614365	44.0
166.72229	184.0
166.855957	128.0
167.023117	116.0
167.049545	188.0
167.083954	5356.0
167.190353	168.0
167.208374	52.0
167.275589	184.0
167.391159	180.0
167.592072	180.0
167.718353	128.0
167.754456	108.0
167.7957	92.0
167.875076	148.0
167.960739	180.0
168.002014	136.0
168.057526	164.0
168.087341	1224.0
168.167175	120.0
168.226547	100.0
168.278183	100.0
168.298828	184.0
168.440872	164.0
168.505463	80.0
168.634674	132.0
168.743256	204.0
168.912903	140.0
168.920837	84.0
168.927521	112.0
169.022598	256.0
169.045883	96.0
169.090958	200.0
169.120941	160.0
169.216736	144.0
169.33844	48.0
169.359161	88.0
169.405792	76.0
169.42392	132.0
169.545715	124.0
169.674591	100.0
169.716797	124.0
169.734955	48.0
169.771255	144.0
169.83139	220.0
170.095871	1884.0
170.204636	104.0
170.230591	44.0
170.272156	76.0
170.326691	48.0
170.526764	128.0
170.65155	140.0
170.680161	304.0
170.734772	132.0
170.919464	76.0
171.106262	1280.0
171.273544	132.0
171.3022	84.0
171.33606	124.0
171.513275	124.0
171.543045	152.0
171.581055	144.0
171.677521	108.0
171.721588	112.0
171.753159	132.0
171.804611	128.0
171.83403	36.0
171.862732	76.0
171.925369	92.0
172.079376	120.0
172.111206	1588.0
172.199509	68.0
172.296158	140.0
172.369324	160.0
172.494766	156.0
172.664734	136.0
172.774597	28.0
172.842621	68.0
173.028458	176.0
173.065643	140.0
173.125076	348.0
173.12941	240.0
173.167252	68.0
173.227493	116.0
173.266785	92.0
173.340164	108.0
173.431885	68.0
173.555099	136.0
173.586578	176.0
173.673126	128.0
173.730835	248.0
173.766617	244.0
173.878937	216.0
173.91597	160.0
174.022156	132.0
174.085175	160.0
174.125809	1480.0
174.190231	60.0
174.560822	132.0
174.583328	140.0
174.643066	180.0
174.681824	56.0
174.829163	124.0
174.858109	104.0
174.934448	176.0
175.131989	416.0
175.218872	96.0
175.32428	180.0
175.566818	168.0
175.703995	132.0
175.743561	252.0
175.843842	140.0
175.888718	108.0
176.142822	156.0
176.213547	172.0
176.549255	124.0
176.588928	172.0
176.607452	64.0
176.639191	60.0
176.692093	172.0
176.803238	96.0
176.86676	148.0
176.940216	128.0
177.038849	108.0
177.062698	168.0
177.203094	164.0
177.220474	152.0
177.264038	144.0
177.311737	92.0
177.393906	124.0
177.41777	52.0
177.478745	184.0
177.513214	168.0
177.537094	252.0
177.664413	64.0
177.789124	144.0
177.879364	48.0
177.919189	88.0
177.99884	164.0
178.043991	168.0
178.076767	1528.0
178.115707	144.0
178.163513	176.0
178.264481	104.0
178.318924	216.0
178.384094	176.0
178.546295	148.0
178.570221	140.0
178.602142	224.0
178.687271	168.0
179.004028	136.0
179.082108	1548.0
179.238449	140.0
179.302399	140.0
179.385025	136.0
179.430359	72.0
179.510345	48.0
179.758438	88.0
179.883881	184.0
179.984879	140.0
180.091568	308.0
180.150925	92.0
180.219498	284.0
180.348679	152.0
180.367386	220.0
180.403	136.0
180.460953	124.0
180.55455	128.0
180.581299	128.0
180.62944	124.0
180.697266	192.0
180.929169	128.0
180.947906	56.0
181.004135	76.0
181.055023	140.0
181.100571	1252.0
181.146088	108.0
181.285416	60.0
181.384583	76.0
181.473053	232.0
181.521332	156.0
181.574966	164.0
181.607147	52.0
181.687622	160.0
181.91037	116.0
182.100433	296.0
182.186981	128.0
182.283707	168.0
182.332077	100.0
182.63591	220.0
182.687012	136.0
182.837692	84.0
183.077332	492.0
183.105453	176.0
183.155411	116.0
183.206589	104.0
183.594742	96.0
183.645981	128.0
183.753891	112.0
183.921616	132.0
184.076508	100.0
184.110855	420.0
184.172897	172.0
184.207443	180.0
184.361465	152.0
184.429031	176.0
184.499313	88.0
184.629105	116.0
184.742706	168.0
184.844254	196.0
184.918594	128.0
185.018402	180.0
185.055771	196.0
185.115341	488.0
185.136017	208.0
185.224564	108.0
185.438629	156.0
185.524124	96.0
185.758591	84.0
185.964828	188.0
185.989258	124.0
186.126633	1712.0
186.201035	76.0
186.282516	64.0
186.350449	148.0
186.60321	132.0
186.791153	156.0
186.87793	104.0
186.916016	128.0
186.970444	200.0
187.005829	140.0
187.046661	160.0
187.084778	88.0
187.146637	6088.0
187.20845	60.0
187.253601	48.0
187.327148	64.0
187.545135	72.0
187.575119	200.0
187.697815	124.0
187.929672	128.0
187.973938	232.0
188.008804	120.0
188.073547	72.0
188.119904	376.0
188.148529	812.0
188.243576	188.0
188.268158	36.0
188.344635	44.0
188.424393	180.0
188.45665	108.0
188.4785	148.0
188.593292	116.0
188.639755	132.0
188.725006	176.0
188.762802	152.0
189.113541	196.0
189.153824	508.0
189.21701	104.0
189.241653	76.0
189.271774	40.0
189.447067	92.0
189.567627	72.0
189.589539	68.0
189.710861	248.0
189.803375	100.0
189.924042	180.0
190.077103	456.0
190.121674	1744.0
190.161987	304.0
190.207153	160.0
190.253342	132.0
190.303818	136.0
190.327469	76.0
190.516983	212.0
190.789062	180.0
190.82695	164.0
190.907303	60.0
190.945801	80.0
190.994705	348.0
191.083817	2016.0
191.124039	168.0
191.143875	188.0
191.391296	204.0
191.429703	280.0
191.522598	92.0
191.543091	176.0
191.636765	132.0
191.774368	164.0
191.809982	164.0
191.837952	144.0
192.058563	156.0
192.08783	1060.0
192.226852	156.0
192.287567	132.0
192.312408	36.0
192.35881	188.0
192.693512	104.0
192.76535	132.0
192.861099	180.0
192.884201	48.0
192.922897	192.0
192.961609	112.0
193.050095	152.0
193.099396	624.0
193.315659	168.0
193.337799	64.0
193.393158	124.0
193.456833	28.0
193.49559	124.0
193.564804	100.0
193.62851	100.0
193.650665	156.0
193.677032	184.0
193.737518	112.0
193.742813	136.0
193.861221	144.0
193.926041	144.0
193.958221	80.0
194.030304	136.0
194.10321	196.0
194.182816	144.0
194.205017	72.0
194.241074	152.0
194.35759	88.0
194.399216	44.0
194.41864	96.0
194.482483	160.0
194.560211	108.0
194.626846	192.0
194.657394	176.0
194.768478	128.0
194.793488	124.0
194.854599	104.0
195.054703	156.0
195.076935	176.0
195.109833	168.0
195.125092	300.0
195.146439	112.0
195.207611	144.0
195.366165	216.0
195.460754	224.0
195.516418	192.0
195.729492	152.0
195.948029	156.0
195.973114	148.0
196.026047	124.0
196.059494	124.0
196.078995	112.0
196.112656	592.0
196.158081	140.0
196.178772	212.0
196.338287	128.0
196.514023	96.0
196.68985	124.0
196.896469	156.0
196.927185	128.0
196.97467	168.0
197.058487	116.0
197.124634	396.0
197.251328	184.0
197.349167	100.0
197.399506	84.0
197.43306	92.0
197.528168	164.0
197.617691	96.0
197.673645	72.0
197.725464	152.0
197.801331	168.0
197.900391	256.0
198.009598	124.0
198.041611	328.0
198.125793	432.0
198.188889	524.0
198.230927	80.0
198.343033	116.0
198.390686	204.0
198.505142	132.0
198.637466	48.0
198.693573	204.0
198.749695	132.0
198.777756	156.0
198.822662	120.0
198.923706	236.0
199.146545	460.0
199.212952	44.0
199.243851	200.0
199.271957	96.0
199.32814	160.0
199.409653	156.0
199.518631	156.0
199.575989	212.0
199.738632	240.0
199.884933	76.0
199.986252	64.0
200.143005	348.0
200.380341	136.0
200.487579	140.0
200.524216	104.0
200.620056	196.0
200.659531	116.0
200.718735	80.0
200.871048	124.0
200.95285	124.0
201.085495	84.0
201.144958	304.0
201.188034	160.0
201.274643	152.0
201.322647	120.0
201.415848	44.0
201.523209	132.0
201.721039	112.0
201.788895	152.0
201.811508	120.0
201.907654	228.0
202.037781	100.0
202.076813	384.0
202.120529	172.0
202.160934	84.0
202.26416	120.0
202.59549	212.0
202.669159	136.0
202.734329	92.0
202.836365	148.0
202.946945	52.0
202.994415	216.0
203.033279	164.0
203.056366	304.0
203.08429	1432.0
203.142349	21308.0
203.200043	196.0
203.232712	48.0
203.264633	108.0
203.301529	112.0
203.329819	132.0
203.336288	128.0
203.398132	116.0
203.443298	72.0
203.505905	68.0
203.542831	28.0
203.579742	148.0
203.6241	148.0
203.683929	152.0
203.730286	204.0
203.846985	56.0
203.918091	132.0
203.988892	48.0
204.091171	2808.0
204.145264	3108.0
204.182236	148.0
204.218643	160.0
204.270416	112.0
204.358612	44.0
204.381378	188.0
204.445862	176.0
204.543594	40.0
204.634705	136.0
204.75145	72.0
204.774246	76.0
204.814911	144.0
204.835159	72.0
204.936615	76.0
204.962265	64.0
205.059158	116.0
205.099915	4948.0
205.148438	612.0
205.218796	56.0
205.255875	200.0
205.298416	152.0
205.461227	64.0
205.481201	48.0
205.552536	64.0
205.58107	44.0
205.706665	48.0
205.926529	208.0
205.953873	128.0
205.977951	56.0
206.000793	104.0
206.037933	108.0
206.10498	776.0
206.152237	148.0
206.197098	132.0
206.243683	40.0
206.291061	120.0
206.344986	140.0
206.522751	152.0
206.749039	244.0
206.816101	140.0
206.918823	108.0
207.050552	76.0
207.113678	884.0
207.17659	196.0
207.259048	188.0
207.319855	92.0
207.430145	124.0
207.457428	116.0
207.701187	168.0
207.784302	152.0
207.819962	80.0
208.02005	136.0
208.119064	356.0
208.303711	200.0
208.344223	156.0
208.393066	56.0
208.484512	184.0
208.525253	188.0
208.565491	148.0
208.628738	128.0
208.709244	132.0
208.75238	132.0
208.922073	124.0
208.956604	184.0
209.188934	88.0
209.371124	140.0
209.426712	236.0
209.592941	180.0
209.745682	132.0
210.059998	180.0
210.124359	480.0
210.212921	192.0
210.46405	108.0
210.544922	136.0
210.787766	196.0
210.929199	56.0
210.958115	244.0
211.131454	340.0
211.203903	100.0
211.235733	32.0
211.348557	124.0
211.475891	172.0
211.519318	132.0
211.597473	116.0
211.727783	100.0
211.791565	184.0
211.979828	112.0
212.142151	844.0
212.287109	88.0
212.371216	32.0
212.400223	44.0
212.556274	200.0
212.661377	32.0
212.707825	124.0
212.783295	76.0
212.826859	80.0
212.931396	32.0
212.9953	176.0
213.145447	176.0
213.179977	232.0
213.201584	164.0
213.335297	68.0
213.364365	92.0
213.538849	168.0
213.742493	132.0
213.783234	76.0
213.914215	148.0
213.995728	132.0
214.065613	120.0
214.153595	376.0
214.388977	44.0
214.422195	292.0
214.645691	120.0
214.721329	88.0
214.822601	224.0
214.899277	164.0
215.083954	976.0
215.136765	176.0
215.161087	444.0
215.421875	120.0
215.48616	168.0
215.740417	60.0
215.897186	124.0
216.090454	2620.0
216.122437	228.0
216.173035	4428.0
216.223068	116.0
216.29039	56.0
216.395782	32.0
216.483627	64.0
216.662292	108.0
216.712112	156.0
216.7883	148.0
216.808807	36.0
217.027008	92.0
217.097321	1064.0
217.176422	328.0
217.319473	224.0
217.357193	188.0
217.380676	68.0
217.498062	148.0
217.574402	244.0
217.610107	112.0
217.636047	136.0
217.740204	160.0
217.815201	88.0
217.864456	132.0
217.900406	64.0
217.923904	128.0
218.014999	180.0
218.054352	184.0
218.107056	1484.0
218.189117	856.0
218.262985	212.0
218.300156	96.0
218.376633	40.0
218.43251	60.0
218.472794	104.0
218.526657	52.0
218.567856	100.0
218.617874	224.0
218.641418	48.0
218.782715	288.0
218.906372	124.0
218.982956	172.0
219.06543	36.0
219.114395	4256.0
219.19577	332.0
219.318848	52.0
219.361984	164.0
219.411545	236.0
219.469208	100.0
219.507538	124.0
219.54689	92.0
219.569473	36.0
219.598969	132.0
219.74646	60.0
219.781876	64.0
219.843842	68.0
219.893677	120.0
219.920578	192.0
220.023895	112.0
220.059326	60.0
220.117691	1176.0
220.20108	92.0
220.273438	120.0
220.401199	128.0
220.46106	44.0
220.496521	180.0
220.599976	100.0
220.643448	108.0
220.731522	112.0
220.759644	152.0
220.809921	84.0
220.842453	96.0
220.86908	60.0
220.925278	68.0
220.948959	112.0
221.014038	272.0
221.123413	472.0
221.164978	40.0
221.252014	100.0
221.27037	100.0
221.389999	120.0
221.425537	64.0
221.523285	148.0
221.600311	148.0
221.650681	44.0
221.709961	140.0
221.739594	136.0
221.843338	176.0
221.86409	100.0
221.893738	104.0
221.985657	88.0
222.083527	76.0
222.129639	288.0
222.413605	100.0
222.552429	156.0
222.650421	208.0
222.671219	36.0
222.712799	180.0
222.748444	108.0
222.879166	136.0
223.066406	120.0
223.149643	140.0
223.33403	68.0
223.411377	144.0
223.973999	136.0
224.114029	152.0
224.140839	96.0
224.242172	132.0
224.409103	208.0
224.489624	32.0
224.731232	120.0
224.784943	144.0
224.877472	160.0
224.907318	132.0
224.934174	156.0
225.026733	136.0
225.074417	168.0
225.184998	148.0
225.301498	92.0
225.322418	68.0
225.432968	100.0
225.471817	176.0
225.586395	156.0
225.606323	196.0
225.754471	176.0
225.857529	44.0
225.965225	152.0
226.034042	104.0
226.111847	92.0
226.153854	340.0
226.331955	184.0
226.387283	156.0
226.510086	164.0
226.546036	172.0
226.608948	220.0
226.641907	116.0
226.728806	156.0
226.800751	152.0
226.854706	60.0
226.875687	92.0
227.019608	148.0
227.170776	588.0
227.208588	124.0
227.274597	120.0
227.352615	116.0
227.406631	96.0
227.487686	144.0
227.550735	88.0
227.784988	136.0
227.911163	180.0
228.17244	1940.0
228.295944	120.0
228.428284	84.0
228.569687	96.0
228.611816	124.0
228.729202	120.0
228.894791	128.0
228.964066	136.0
229.006943	100.0
229.0336	140.0
229.102112	688.0
229.178757	1016.0
229.288803	188.0
229.313553	180.0
229.334656	208.0
229.440155	264.0
229.518555	176.0
229.542679	196.0
229.566544	188.0
229.618073	124.0
229.696503	196.0
229.726669	104.0
229.799072	196.0
229.904678	132.0
229.980133	68.0
230.070694	136.0
230.107117	708.0
230.188889	6060.0
230.266983	84.0
230.336456	124.0
230.431732	156.0
230.486435	112.0
230.702103	120.0
230.83522	168.0
230.874451	124.0
230.90773	172.0
231.008957	172.0
231.037796	176.0
231.115356	2680.0
231.190414	1560.0
231.238251	124.0
231.290298	76.0
231.428223	44.0
231.534225	72.0
231.682648	132.0
231.718994	100.0
231.758392	128.0
231.820297	176.0
232.073624	184.0
232.115997	756.0
232.201675	300.0
232.262634	148.0
232.307159	76.0
232.428513	160.0
232.47403	124.0
232.562042	56.0
232.701691	168.0
232.739517	148.0
232.795822	136.0
232.849823	144.0
232.960876	152.0
232.988892	128.0
233.038834	68.0
233.129623	1452.0
233.204208	144.0
233.251572	200.0
233.275894	184.0
233.357971	128.0
233.434616	136.0
233.653	136.0
233.762543	64.0
233.963425	136.0
233.999969	88.0
234.087982	168.0
234.131561	780.0
234.17659	60.0
234.353271	144.0
234.42337	144.0
234.45079	56.0
234.545273	28.0
234.676376	152.0
234.725159	136.0
234.822754	176.0
234.871552	44.0
235.103882	184.0
235.128464	120.0
235.176682	36.0
235.210068	208.0
235.23468	136.0
235.265213	160.0
235.353745	88.0
235.468399	160.0
235.496246	212.0
235.543106	132.0
235.570602	124.0
235.712967	168.0
235.784485	168.0
235.877762	128.0
235.903702	88.0
236.000336	72.0
236.053513	108.0
236.512436	72.0
236.581421	156.0
236.607346	88.0
236.821701	156.0
236.901337	68.0
236.947296	108.0
237.11673	324.0
237.210861	96.0
237.26297	172.0
237.496033	168.0
237.548187	76.0
237.591125	184.0
237.805939	132.0
237.907227	168.0
237.944077	116.0
238.100677	244.0
238.364883	132.0
238.38797	140.0
238.490891	120.0
238.595413	156.0
238.635376	152.0
238.713486	124.0
238.789139	100.0
238.813736	116.0
238.872192	40.0
238.949097	132.0
239.253784	136.0
239.358475	112.0
239.62645	32.0
239.842178	180.0
239.897659	164.0
240.105255	160.0
240.171326	396.0
240.258484	156.0
240.301682	28.0
240.332535	60.0
240.356598	160.0
240.563461	224.0
240.63382	144.0
240.773972	144.0
240.801773	132.0
240.974762	48.0
241.0242	100.0
241.055099	100.0
241.173477	308.0
241.314758	124.0
241.555984	76.0
241.633331	44.0
241.665207	144.0
241.76947	76.0
242.09259	140.0
242.189148	2136.0
242.478714	124.0
242.697586	252.0
242.825958	124.0
242.928818	200.0
242.996567	124.0
243.114487	128.0
243.189667	420.0
243.216919	160.0
243.241745	204.0
243.549164	108.0
243.64093	200.0
243.878525	100.0
244.02774	100.0
244.078125	100.0
244.10112	132.0
244.125916	176.0
244.198898	472.0
244.262253	224.0
244.430191	52.0
244.469452	208.0
244.499161	184.0
244.534531	224.0
244.587723	108.0
244.625076	120.0
244.668106	112.0
244.755844	180.0
244.88353	132.0
244.919281	128.0
245.134521	316.0
245.21727	212.0
245.481369	208.0
245.528687	128.0
245.765778	144.0
246.054214	148.0
246.129669	592.0
246.184021	1796.0
246.221542	36.0
246.283386	160.0
246.442093	60.0
246.487091	48.0
246.512085	48.0
246.558975	148.0
246.759033	140.0
246.793427	148.0
246.830948	96.0
246.909134	156.0
247.074921	56.0
247.132843	1196.0
247.182297	316.0
247.221985	64.0
247.497452	192.0
247.668884	184.0
247.788742	72.0
247.832611	196.0
247.893036	112.0
247.989304	60.0
248.140228	2504.0
248.198517	440.0
248.241638	140.0
248.290298	52.0
248.349884	144.0
248.374985	116.0
248.456543	52.0
248.492767	228.0
248.71933	108.0
248.740662	172.0
248.792343	196.0
248.877121	140.0
248.899109	132.0
248.99646	156.0
249.034149	168.0
249.112198	132.0
249.144348	320.0
249.192841	108.0
249.225784	148.0
249.672165	52.0
249.753937	48.0
249.802567	272.0
249.867188	180.0
249.96788	108.0
249.988998	136.0
250.065445	92.0
250.157242	4620.0
250.192429	308.0
250.304703	84.0
250.340073	228.0
250.366409	128.0
250.436981	104.0
250.471634	60.0
250.633591	108.0
250.808792	100.0
250.890762	104.0
250.963272	180.0
250.985352	96.0
251.064178	104.0
251.160446	1212.0
251.297607	144.0
251.367035	108.0
251.445923	84.0
251.79007	172.0
251.853241	76.0
251.897461	120.0
252.045959	96.0
252.131271	108.0
252.170639	1296.0
252.270355	168.0
252.314621	108.0
252.43161	68.0
252.485367	64.0
252.681488	44.0
252.728958	124.0
252.757431	144.0
252.779587	64.0
252.91568	88.0
252.972656	104.0
252.994812	156.0
253.183426	140.0
253.314667	116.0
253.352585	128.0
253.399597	188.0
253.420395	96.0
253.526947	176.0
253.644226	192.0
254.188507	808.0
254.405579	152.0
254.438461	200.0
254.465897	180.0
254.523041	144.0
254.554794	104.0
254.677353	96.0
254.713608	140.0
254.955078	128.0
255.012283	152.0
255.114731	140.0
255.145798	48.0
255.192413	176.0
255.336594	80.0
255.400208	156.0
255.498825	72.0
255.594269	104.0
255.677017	184.0
255.888535	152.0
255.941238	108.0
255.979446	48.0
256.039948	56.0
256.090912	72.0
256.132935	144.0
256.204895	1504.0
256.32666	104.0
256.352173	180.0
256.438232	92.0
256.466919	56.0
256.495605	116.0
256.572113	88.0
256.681915	128.0
256.750671	100.0
256.811279	128.0
256.846344	52.0
256.945343	124.0
257.047363	196.0
257.165436	152.0
257.210175	576.0
257.39212	68.0
257.519867	176.0
257.650818	112.0
257.679565	176.0
257.778625	152.0
257.84256	184.0
257.954437	144.0
258.013184	232.0
258.328583	76.0
258.48996	164.0
258.546143	188.0
258.619781	116.0
258.831238	156.0
258.962372	184.0
259.013611	108.0
259.090515	168.0
259.122559	120.0
259.157776	148.0
259.519989	132.0
259.596954	196.0
259.670715	112.0
259.718811	104.0
259.965881	36.0
260.080872	280.0
260.140991	1404.0
260.200958	268.0
260.29248	92.0
260.323273	164.0
260.407471	88.0
260.575958	68.0
260.640228	92.0
260.669159	92.0
260.75592	120.0
260.871643	108.0
260.897369	104.0
260.9263	128.0
260.958435	148.0
261.042053	68.0
261.099945	184.0
261.145966	636.0
261.286499	100.0
261.325104	100.0
261.350861	88.0
261.402344	128.0
261.432861	108.0
261.550385	92.0
261.634094	180.0
261.659851	160.0
261.682373	80.0
261.733887	120.0
261.769318	124.0
261.861633	216.0
261.943237	148.0
261.981903	128.0
262.038513	252.0
262.063599	188.0
262.092896	164.0
262.158142	38872.0
262.208954	344.0
262.255127	68.0
262.330627	172.0
262.391785	68.0
262.420227	52.0
262.446014	80.0
262.475037	128.0
262.49762	76.0
262.526001	120.0
262.562103	44.0
262.634064	168.0
262.673737	92.0
262.723083	132.0
262.727356	120.0
262.772949	156.0
262.885651	96.0
262.916992	32.0
262.982513	168.0
263.008301	136.0
263.049316	192.0
263.099243	84.0
263.1604	6852.0
263.224579	240.0
263.285614	136.0
263.362549	60.0
263.419373	180.0
263.446533	132.0
263.469147	196.0
263.507935	44.0
263.551819	152.0
263.582245	52.0
263.610413	56.0
263.643646	92.0
263.710602	96.0
263.752838	56.0
263.795563	136.0
263.844055	120.0
263.890564	104.0
263.930389	120.0
264.012115	184.0
264.05423	156.0
264.167389	1420.0
264.348328	80.0
264.38623	52.0
264.481323	248.0
264.510468	44.0
264.5914	40.0
264.642029	120.0
264.665863	120.0
264.734924	136.0
264.764221	120.0
264.798645	96.0
264.840759	48.0
264.869904	36.0
264.900909	176.0
264.910065	100.0
264.965118	304.0
265.057831	68.0
265.09021	92.0
265.124481	140.0
265.17453	420.0
265.236084	176.0
265.303772	68.0
265.333313	40.0
265.479248	68.0
265.608978	140.0
265.644653	64.0
265.670624	188.0
265.751709	132.0
265.78418	72.0
265.81662	48.0
265.89209	128.0
265.956177	48.0
265.982147	196.0
266.011353	128.0
266.081146	136.0
266.148987	132.0
266.188629	192.0
266.232147	72.0
266.316589	136.0
266.427032	148.0
266.50177	116.0
266.735779	116.0
266.784546	48.0
266.835693	120.0
266.911346	124.0
266.950348	232.0
267.021912	152.0
267.191193	88.0
267.223602	32.0
267.248199	120.0
267.314697	160.0
267.467682	112.0
267.513245	184.0
267.560852	212.0
267.584869	88.0
267.728973	224.0
267.812836	80.0
267.86496	100.0
267.936615	60.0
267.969788	240.0
268.014801	152.0
268.085144	172.0
268.164734	180.0
268.203979	17088.0
268.288147	220.0
268.381927	192.0
268.415741	44.0
268.467926	32.0
268.490753	176.0
268.551605	128.0
268.617981	116.0
268.702789	60.0
268.73407	116.0
268.845398	148.0
268.931213	148.0
268.960602	176.0
269.033295	88.0
269.084656	80.0
269.135223	156.0
269.206787	3476.0
269.32959	80.0
269.450439	64.0
269.483124	56.0
269.538666	120.0
269.590973	192.0
269.661774	108.0
269.705353	72.0
269.864624	72.0
269.90152	136.0
270.032318	128.0
270.150085	36.0
270.219116	4068.0
270.297302	52.0
270.330048	60.0
270.369324	124.0
270.399658	104.0
270.434753	92.0
270.559174	80.0
270.595184	84.0
270.640503	176.0
270.677032	76.0
270.732697	76.0
270.758911	120.0
270.824402	64.0
270.897369	116.0
270.991486	56.0
271.04718	160.0
271.093079	140.0
271.130157	100.0
271.223969	936.0
271.417603	156.0
271.450378	68.0
271.503815	148.0
271.543488	136.0
271.591431	48.0
271.650452	52.0
271.710358	216.0
272.089996	56.0
272.195099	132.0
272.230835	784.0
272.405487	104.0
272.51062	280.0
272.707794	120.0
272.7341	80.0
273.247681	160.0
273.361481	132.0
273.46759	64.0
273.490631	56.0
273.516968	116.0
273.648651	116.0
273.68158	136.0
273.737579	136.0
273.846252	172.0
273.869293	80.0
274.001068	152.0
274.059052	80.0
274.117676	144.0
274.156281	1248.0
274.1922	180.0
274.39328	68.0
274.607635	124.0
274.699982	68.0
274.746155	116.0
275.115784	148.0
275.17038	316.0
275.363464	160.0
275.436127	168.0
275.609558	136.0
275.637665	260.0
275.720276	180.0
275.819427	60.0
275.91861	100.0
276.093872	100.0
276.127045	124.0
276.17099	1772.0
276.218109	164.0
276.279083	72.0
276.411438	116.0
276.434601	76.0
276.540527	180.0
276.639832	84.0
276.736267	152.0
276.774017	136.0
276.871613	192.0
276.915619	152.0
276.957703	124.0
277.176025	496.0
277.232697	80.0
277.385162	136.0
277.454803	160.0
277.511169	140.0
277.567535	144.0
277.706818	180.0
277.829559	84.0
278.068481	124.0
278.151459	144.0
278.175323	128.0
278.254364	132.0
278.383881	52.0
278.526672	104.0
278.785522	164.0
278.978638	164.0
279.065063	136.0
279.131561	88.0
279.430939	76.0
279.518555	284.0
279.583832	76.0
279.633301	172.0
279.679901	212.0
279.826996	56.0
279.943542	104.0
280.167084	4752.0
280.261108	72.0
280.349976	128.0
280.423309	88.0
280.469971	112.0
280.493286	152.0
280.556641	136.0
280.639984	156.0
280.733337	104.0
280.768829	200.0
280.806732	132.0
281.046906	160.0
281.169769	980.0
281.234802	108.0
281.305359	148.0
281.424103	56.0
281.489288	92.0
281.517609	156.0
281.554321	92.0
281.579224	76.0
281.631165	188.0
281.667908	100.0
281.915131	52.0
281.995361	44.0
282.042145	40.0
282.082245	36.0
282.167572	92.0
282.379852	188.0
282.430023	180.0
282.496918	80.0
282.567169	144.0
282.644135	116.0
282.690979	68.0
282.74118	96.0
282.839478	56.0
283.054657	128.0
283.146301	148.0
283.186493	92.0
283.353973	76.0
283.55957	148.0
283.598602	92.0
283.722656	132.0
283.752808	92.0
283.99231	260.0
284.121735	88.0
284.178772	164.0
284.205627	96.0
284.229126	40.0
284.306305	236.0
284.343201	92.0
284.370056	124.0
284.437195	144.0
284.910706	96.0
284.987976	152.0
285.018219	100.0
285.041748	52.0
285.086426	132.0
285.233307	72.0
285.266937	120.0
285.317352	64.0
285.411499	128.0
285.509033	148.0
285.609924	104.0
285.700745	76.0
285.986786	132.0
286.147949	196.0
286.212769	520.0
286.326843	68.0
286.454834	144.0
286.498627	88.0
286.652313	112.0
286.815399	124.0
286.931793	92.0
286.980591	116.0
287.085144	136.0
287.108734	40.0
287.152588	144.0
287.226776	128.0
287.449463	96.0
287.74649	184.0
287.775787	184.0
287.817413	148.0
288.02005	60.0
288.087952	156.0
288.173035	9012.0
288.247284	172.0
288.309113	76.0
288.381592	52.0
288.424133	144.0
288.461792	160.0
288.49527	96.0
288.534485	136.0
288.611481	100.0
288.63797	148.0
288.685883	128.0
288.79184	240.0
288.873871	96.0
288.895569	44.0
288.925049	192.0
288.957428	72.0
289.044464	136.0
289.091827	72.0
289.177521	2040.0
289.222961	232.0
289.281372	40.0
289.345703	48.0
289.382935	128.0
289.42099	68.0
289.46759	48.0
289.582733	52.0
289.657257	52.0
289.680969	236.0
289.737427	48.0
289.830048	60.0
289.860535	44.0
289.921539	128.0
289.968994	136.0
290.097809	188.0
290.135101	172.0
290.176392	536.0
290.233398	172.0
290.372955	184.0
290.548859	36.0
290.654022	140.0
290.726379	124.0
290.774506	104.0
291.047791	176.0
291.074951	124.0
291.098724	132.0
291.195862	204.0
291.234558	100.0
291.27533	48.0
291.302521	88.0
291.44519	148.0
291.825897	144.0
291.856506	120.0
292.016327	120.0
292.051544	136.0
292.160004	152.0
292.223694	92.0
292.261261	116.0
292.380371	220.0
292.581207	80.0
292.656097	240.0
292.686768	136.0
292.75827	144.0
292.865021	104.0
292.983063	172.0
293.028137	88.0
293.09552	128.0
293.165924	164.0
293.2966	180.0
293.320465	76.0
293.480682	32.0
293.565948	104.0
293.603455	140.0
293.770599	112.0
293.808105	164.0
293.871338	76.0
294.128906	104.0
294.183441	564.0
294.420441	84.0
294.477173	176.0
294.518158	48.0
294.627472	108.0
294.654816	100.0
294.849579	104.0
294.96579	96.0
295.176483	288.0
295.334442	168.0
295.420624	148.0
295.578003	116.0
295.879211	128.0
296.182098	152.0
296.269653	88.0
296.48996	136.0
296.618378	172.0
297.16449	60.0
297.198792	184.0
297.641602	152.0
297.788086	128.0
297.854523	156.0
297.967896	104.0
298.01944	60.0
298.273743	136.0
298.297821	120.0
298.335632	88.0
298.373444	224.0
298.431885	120.0
298.56601	156.0
299.185364	96.0
299.217926	140.0
299.385101	80.0
299.557312	204.0
299.96048	156.0
300.067352	40.0
300.177704	172.0
300.353607	56.0
300.432953	212.0
300.539886	192.0
300.691742	164.0
300.71936	56.0
300.876465	188.0
300.916107	196.0
301.337494	168.0
301.392792	144.0
301.575928	104.0
301.748779	108.0
301.992035	152.0
302.098083	156.0
302.187622	1280.0
302.233032	148.0
302.299011	164.0
302.595978	196.0
302.627625	116.0
302.676086	120.0
303.05365	204.0
303.116028	136.0
303.150665	100.0
303.193756	600.0
303.258118	88.0
303.313568	92.0
303.344788	36.0
303.431458	44.0
303.504272	172.0
303.642975	60.0
303.816406	160.0
303.840698	148.0
304.003784	144.0
304.087067	256.0
304.189728	160.0
304.240265	120.0
304.281464	104.0
304.54541	100.0
304.805969	140.0
304.910217	104.0
304.961914	136.0
305.017975	124.0
305.062744	168.0
305.285675	168.0
305.67334	92.0
305.772766	128.0
305.890076	132.0
305.943329	128.0
305.985107	152.0
306.051239	72.0
306.184967	568.0
306.212738	172.0
306.399536	144.0
306.483185	168.0
306.53894	76.0
306.563324	68.0
306.671356	164.0
306.758514	132.0
306.828217	64.0
306.904938	84.0
307.006073	164.0
307.044434	104.0
307.187439	140.0
307.253723	72.0
307.331055	144.0
307.361877	128.0
307.477051	112.0
307.515442	104.0
307.543365	48.0
307.857574	128.0
307.997284	152.0
308.074158	172.0
308.825714	144.0
308.962128	196.0
309.039093	124.0
309.294586	56.0
309.78833	120.0
309.858398	56.0
310.005585	184.0
310.086182	116.0
310.338593	168.0
310.394684	128.0
310.447296	212.0
310.541992	92.0
310.584076	60.0
310.737976	152.0
310.807587	68.0
310.90686	140.0
311.015656	148.0
311.103424	48.0
311.559967	152.0
311.602142	108.0
311.71106	156.0
311.749725	264.0
311.841095	104.0
311.891998	60.0
312.117371	136.0
312.265717	172.0
312.295776	152.0
312.340393	156.0
312.382599	40.0
312.488159	120.0
312.544464	156.0
312.762665	112.0
312.801361	108.0
312.945709	200.0
313.040802	148.0
313.088867	128.0
313.209839	248.0
313.407135	96.0
313.491699	120.0
313.671478	152.0
313.81955	144.0
313.946472	216.0
314.009979	32.0
314.112244	160.0
314.263947	116.0
314.468628	60.0
314.514526	84.0
314.669861	144.0
314.793457	152.0
314.858765	48.0
314.991241	80.0
315.02655	92.0
315.125488	128.0
315.569794	216.0
315.616364	164.0
315.66214	92.0
315.81485	136.0
315.97757	200.0
316.03418	200.0
316.14389	92.0
316.16864	200.0
316.201935	60.0
316.232361	176.0
316.363342	148.0
316.497864	152.0
316.543915	136.0
316.738708	120.0
316.82019	196.0
316.859161	64.0
317.107208	108.0
317.14975	136.0
317.295074	120.0
317.355347	80.0
317.42984	92.0
317.461731	48.0
317.649719	172.0
317.699402	124.0
317.727783	116.0
317.784546	52.0
318.157196	116.0
318.230713	340.0
318.67218	116.0
318.970703	200.0
319.04538	48.0
319.232483	148.0
319.258728	96.0
319.529053	52.0
319.60022	76.0
319.831543	200.0
319.856476	116.0
320.005981	224.0
320.066528	176.0
320.105682	84.0
320.209564	296.0
320.241028	128.0
320.333649	44.0
320.362122	156.0
320.550964	100.0
320.75412	148.0
320.853943	136.0
321.046509	112.0
321.149933	248.0
321.195038	216.0
321.306885	132.0
321.467468	76.0
321.528351	280.0
321.628052	132.0
321.657471	156.0
321.895844	44.0
321.952972	148.0
322.106567	80.0
322.153809	228.0
322.356659	180.0
322.520477	168.0
322.557678	164.0
322.757019	84.0
322.799927	112.0
322.889343	100.0
322.932251	104.0
323.10788	168.0
323.225616	164.0
323.476166	200.0
323.579987	68.0
323.640839	84.0
323.683807	144.0
323.780518	176.0
324.049164	192.0
324.21759	200.0
324.260712	128.0
324.300018	104.0
324.328705	140.0
324.371704	52.0
324.457764	88.0
324.531708	100.0
324.787659	80.0
324.902618	100.0
324.931152	184.0
325.000671	140.0
325.067505	140.0
325.146484	140.0
325.401337	148.0
325.53421	240.0
325.753296	112.0
325.835907	128.0
326.033539	44.0
326.083862	316.0
326.184509	228.0
326.331909	140.0
326.738342	40.0
326.795898	140.0
326.990234	88.0
327.04422	108.0
327.119812	84.0
327.173798	156.0
327.227814	160.0
327.364655	92.0
327.45108	96.0
327.512299	120.0
327.584351	48.0
327.652802	200.0
327.692444	40.0
328.005981	60.0
328.049225	120.0
328.092499	104.0
328.203461	164.0
328.453125	172.0
328.637115	144.0
328.752136	160.0
328.813934	176.0
328.896942	40.0
329.030518	136.0
329.149658	52.0
329.489197	104.0
329.75119	188.0
329.77829	196.0
329.893738	136.0
329.906738	128.0
329.955414	172.0
330.16153	132.0
330.222961	172.0
330.462799	168.0
330.550201	168.0
330.678894	144.0
331.07132	164.0
331.203918	132.0
331.327087	152.0
331.446655	184.0
331.809113	200.0
331.845367	60.0
331.87439	140.0
331.89975	124.0
331.939636	120.0
332.026672	76.0
332.088348	140.0
332.175385	40.0
332.256775	112.0
332.502411	128.0
332.578186	144.0
332.639893	132.0
332.708862	156.0
332.737915	148.0
332.792358	160.0
332.875885	184.0
333.122864	48.0
333.181	76.0
333.446259	160.0
333.475342	92.0
333.548035	204.0
333.649841	124.0
334.001038	124.0
334.056885	112.0
334.319122	72.0
334.366425	40.0
334.46106	184.0
334.486542	40.0
334.533875	152.0
334.734131	160.0
334.861572	156.0
334.989075	68.0
335.043732	160.0
335.092834	208.0
335.200409	88.0
335.433655	124.0
335.590424	104.0
335.697083	192.0
335.842041	176.0
335.878418	120.0
335.966095	132.0
336.040497	132.0
336.159454	64.0
336.243835	136.0
336.3237	116.0
336.363861	128.0
336.568298	172.0
336.677856	276.0
337.090668	112.0
337.119904	84.0
337.342865	80.0
337.452545	132.0
337.719513	108.0
337.960968	156.0
338.052429	176.0
338.191528	188.0
338.220795	104.0
338.462433	96.0
338.515717	80.0
338.594269	104.0
338.682159	156.0
338.894653	148.0
339.066895	44.0
339.213501	120.0
339.312592	132.0
339.510498	152.0
339.645355	140.0
339.693909	96.0
339.781952	132.0
339.847992	136.0
340.016785	188.0
340.130585	60.0
340.28476	176.0
340.36554	120.0
340.464691	272.0
340.582214	152.0
340.868805	112.0
341.000061	100.0
341.045197	164.0
341.320953	208.0
341.644592	128.0
342.204041	116.0
342.229797	184.0
342.485229	144.0
342.631256	128.0
342.998383	116.0
343.20993	56.0
343.23761	136.0
343.409088	72.0
343.482849	92.0
343.556641	64.0
343.619354	140.0
343.68576	152.0
343.711609	100.0
343.851837	108.0
343.921967	116.0
343.95517	128.0
344.003174	92.0
344.051147	124.0
344.139771	104.0
344.237244	356.0
344.427826	124.0
344.542358	164.0
344.590393	136.0
344.716003	140.0
344.75296	68.0
344.789917	140.0
344.83429	92.0
345.019104	148.0
345.144806	124.0
345.238983	504.0
345.267761	112.0
345.344513	68.0
345.392609	52.0
345.517426	152.0
345.621979	148.0
345.906952	60.0
346.053162	212.0
346.249847	192.0
346.403198	136.0
346.577301	180.0
346.603241	140.0
346.973907	108.0
347.025818	168.0
347.062897	140.0
347.185272	372.0
347.226044	160.0
347.271362	132.0
347.522827	80.0
347.548798	112.0
347.597046	184.0
347.641571	176.0
347.797455	164.0
347.96283	80.0
348.267975	112.0
348.30246	176.0
348.332184	152.0
348.361877	32.0
348.454773	192.0
348.48822	120.0
348.740906	136.0
348.792969	220.0
348.831512	140.0
349.097839	120.0
349.157349	84.0
349.358185	28.0
349.629822	256.0
349.655884	200.0
349.79361	88.0
349.886658	128.0
350.076691	184.0
350.092163	168.0
350.162231	156.0
350.27771	96.0
350.363373	60.0
350.393188	116.0
350.452789	128.0
350.504974	120.0
350.620483	200.0
350.754669	200.0
351.008209	164.0
351.213318	116.0
351.269287	124.0
351.403595	140.0
351.437164	184.0
351.504333	152.0
351.53418	328.0
351.686188	148.0
351.847717	36.0
351.896271	128.0
351.96347	96.0
352.127777	76.0
352.194092	192.0
352.322021	56.0
352.386353	120.0
352.46402	108.0
352.620972	160.0
352.89386	144.0
352.920044	260.0
353.080841	44.0
353.211761	132.0
353.245422	132.0
353.309021	112.0
353.398804	120.0
353.488617	96.0
353.634583	144.0
353.77182	120.0
353.829224	176.0
354.147522	132.0
354.208771	244.0
354.301117	116.0
354.368561	188.0
354.432251	128.0
354.507202	96.0
354.582153	176.0
354.615906	136.0
354.822083	120.0
354.863312	40.0
355.095825	128.0
355.369659	92.0
355.46347	96.0
355.846344	140.0
355.936462	204.0
356.069702	112.0
356.221893	48.0
356.454834	144.0
356.575104	164.0
356.702911	164.0
356.826965	124.0
356.947296	36.0
357.097717	128.0
357.287415	164.0
357.327179	124.0
357.398682	156.0
357.462646	96.0
357.498169	100.0
357.582092	168.0
357.635773	60.0
357.695984	76.0
357.74588	200.0
357.778809	128.0
357.978363	124.0
358.00473	112.0
358.038635	128.0
358.106415	80.0
358.147858	176.0
358.257355	856.0
358.332458	124.0
358.400269	152.0
358.486938	152.0
358.558563	288.0
358.637695	124.0
358.713104	96.0
359.0336	352.0
359.150513	128.0
359.254059	524.0
359.335358	188.0
359.440369	172.0
359.780701	104.0
359.859985	72.0
360.188568	108.0
360.259674	164.0
360.460571	84.0
360.573944	92.0
360.645782	92.0
360.721375	112.0
360.751617	156.0
361.016296	116.0
361.133545	92.0
361.277679	148.0
361.31134	156.0
361.421051	140.0
361.452148	164.0
361.49295	116.0
361.61026	96.0
361.644348	144.0
361.757904	76.0
361.973724	92.0
362.128998	120.0
362.230957	144.0
362.239716	120.0
362.322174	64.0
362.447205	104.0
362.531281	176.0
362.624084	172.0
362.78833	212.0
362.830017	108.0
362.970337	156.0
363.002167	164.0
363.269775	160.0
363.379974	124.0
363.505188	68.0
363.565918	144.0
363.668396	168.0
363.759247	120.0
363.987274	68.0
364.165771	148.0
364.237946	236.0
364.283539	132.0
364.321533	172.0
364.401306	128.0
364.469696	88.0
364.674927	84.0
364.728149	176.0
364.820312	148.0
364.880188	124.0
365.064362	84.0
365.180634	104.0
365.285278	132.0
365.36322	116.0
365.549652	196.0
365.626648	140.0
366.017883	100.0
366.212097	88.0
366.363831	116.0
366.433044	128.0
366.486206	156.0
366.551178	80.0
366.646454	132.0
366.886597	32.0
367.203094	76.0
367.363281	104.0
367.561676	112.0
367.626556	76.0
367.909027	176.0
367.966278	120.0
368.038818	104.0
368.107574	132.0
368.199219	164.0
368.225952	144.0
368.260345	120.0
368.409302	96.0
368.634735	108.0
368.768494	180.0
368.894653	200.0
368.936707	132.0
369.234955	208.0
369.694061	220.0
369.817413	152.0
370.318115	68.0
370.356415	76.0
370.731873	128.0
370.781708	108.0
371.207245	96.0
371.315643	272.0
371.690582	112.0
371.793518	228.0
371.870941	172.0
371.963074	148.0
372.143524	64.0
372.270233	128.0
372.347534	128.0
372.373932	188.0
372.430084	220.0
372.704315	180.0
372.884918	140.0
372.957977	100.0
373.234772	204.0
373.342438	56.0
373.423218	172.0
373.692505	128.0
373.922577	132.0
374.008057	108.0
374.085052	104.0
374.158203	108.0
374.258301	44.0
374.312225	124.0
374.381531	188.0
374.743622	36.0
374.786011	164.0
375.221558	144.0
375.287109	140.0
375.352661	148.0
375.433624	136.0
375.46637	148.0
375.522339	96.0
375.75766	120.0
375.815521	120.0
375.927429	108.0
375.99295	180.0
376.005402	176.0
376.024292	40.0
376.038483	180.0
376.09726	140.0
376.246918	100.0
376.348175	140.0
376.398376	168.0
376.479492	76.0
376.545135	108.0
376.630096	76.0
376.943054	148.0
376.981689	144.0
377.144012	124.0
377.269165	172.0
377.418518	92.0
377.561584	60.0
377.921356	104.0
378.091614	156.0
378.130341	104.0
378.220825	192.0
378.251221	220.0
378.308014	124.0
378.384766	148.0
378.474854	156.0
378.676239	184.0
378.711121	120.0
378.745972	128.0
378.899078	160.0
378.953949	164.0
379.226257	488.0
379.262909	208.0
379.583099	104.0
379.649323	164.0
379.718842	76.0
379.753754	156.0
380.056335	144.0
380.087402	80.0
380.168884	132.0
380.23645	1252.0
380.409546	124.0
380.444458	208.0
380.471649	140.0
380.541534	116.0
380.708496	56.0
380.739563	272.0
380.793945	60.0
380.840546	160.0
380.933777	124.0
381.042572	56.0
381.077545	152.0
381.135803	112.0
381.240204	444.0
381.337891	44.0
381.515015	184.0
381.602905	212.0
381.722778	144.0
381.837128	140.0
381.975586	68.0
382.092316	48.0
382.234497	136.0
382.329681	208.0
382.411407	76.0
382.469788	320.0
382.555634	76.0
382.593628	128.0
382.718933	84.0
382.995453	136.0
383.030518	84.0
383.074188	96.0
383.112335	216.0
383.205811	112.0
383.27597	168.0
383.494202	128.0
383.620209	172.0
383.669617	196.0
383.934784	196.0
384.125885	40.0
384.196106	72.0
384.246826	116.0
384.434143	168.0
384.473145	144.0
384.594147	156.0
384.707367	180.0
384.793243	104.0
384.886963	148.0
385.218933	56.0
385.250183	56.0
385.296722	140.0
385.406464	104.0
385.527618	120.0
385.594055	68.0
385.633148	172.0
385.764618	148.0
385.855957	152.0
385.988892	128.0
386.134369	164.0
386.176605	180.0
386.415253	144.0
386.532623	208.0
386.605499	176.0
386.704834	124.0
386.837921	124.0
386.951447	184.0
386.990601	112.0
387.076752	156.0
387.119812	156.0
387.239014	92.0
387.272583	100.0
387.311737	120.0
387.386169	128.0
387.444946	140.0
387.527222	116.0
387.570312	120.0
387.809357	32.0
387.891693	80.0
387.997528	128.0
388.158295	84.0
388.232788	152.0
388.322998	108.0
388.536804	112.0
388.699615	164.0
389.052887	144.0
389.15509	212.0
389.410217	140.0
389.450409	236.0
389.547211	100.0
389.561279	88.0
389.712982	168.0
389.7901	132.0
389.952423	100.0
390.211884	244.0
390.278717	152.0
390.337708	108.0
390.365234	168.0
390.555481	128.0
390.675964	108.0
390.750702	156.0
390.915955	184.0
390.99469	228.0
391.081268	88.0
391.12851	84.0
391.291229	216.0
391.380463	244.0
391.459229	212.0
391.486786	152.0
391.617767	80.0
391.671906	136.0
391.712921	156.0
391.967377	80.0
392.077728	156.0
392.215698	140.0
392.349701	148.0
392.420685	124.0
392.503479	68.0
392.554749	160.0
392.582367	72.0
392.799286	152.0
392.842682	88.0
392.907867	52.0
392.933411	148.0
393.114929	84.0
393.155914	156.0
393.245178	116.0
393.481415	104.0
393.521515	148.0
393.553101	184.0
393.588623	100.0
393.71106	132.0
393.746582	116.0
393.782135	84.0
393.833496	208.0
393.908539	120.0
393.971741	156.0
394.042847	112.0
394.103058	168.0
394.236481	140.0
394.26416	128.0
394.4776	92.0
394.51712	184.0
394.623871	180.0
394.683167	120.0
394.722717	92.0
394.754364	72.0
394.876953	92.0
395.050995	144.0
395.086609	44.0
395.184998	152.0
395.197876	132.0
395.210114	168.0
395.498169	40.0
395.723816	148.0
395.754028	172.0
395.810913	132.0
395.84259	156.0
395.886169	84.0
396.100647	156.0
396.232666	192.0
396.357574	116.0
396.531952	88.0
396.599335	136.0
396.93631	92.0
397.134613	208.0
397.309143	200.0
397.360718	92.0
397.900513	72.0
397.995789	52.0
398.087128	116.0
398.23703	368.0
398.865875	124.0
398.909576	168.0
398.941406	104.0
398.987091	148.0
399.215759	256.0
399.246613	304.0
399.454407	100.0
399.502136	136.0
399.645355	188.0
399.977966	104.0
400.007538	44.0
400.260284	144.0
400.306152	92.0
400.510406	140.0
400.776184	208.0
400.81604	244.0
401.174744	120.0
401.358154	92.0
401.557556	132.0
401.649292	28.0
401.733063	56.0
401.800873	64.0
401.828796	60.0
401.924561	32.0
402.016357	88.0
402.144073	92.0
402.307739	276.0
402.399567	64.0
402.471436	120.0
402.596497	248.0
402.72702	112.0
402.810913	136.0
402.946716	44.0
402.990692	112.0
403.022644	48.0
403.074585	192.0
403.234436	176.0
403.386353	108.0
403.426331	136.0
403.598236	160.0
403.626221	76.0
403.656952	128.0
403.778198	144.0
403.842194	132.0
403.882202	108.0
403.910187	140.0
403.946198	152.0
403.986206	136.0
404.038208	116.0
404.074219	192.0
404.246277	164.0
404.27829	88.0
404.399933	152.0
404.518433	88.0
404.570465	56.0
404.71463	136.0
404.750641	68.0
405.107117	156.0
405.223297	112.0
405.280975	152.0
405.426331	144.0
405.63208	104.0
405.71225	120.0
406.049072	368.0
406.109253	128.0
406.153381	304.0
406.250977	144.0
406.313843	80.0
406.365997	128.0
406.514465	168.0
406.570648	168.0
406.642883	72.0
406.703094	108.0
406.783386	144.0
406.96405	156.0
407.044342	140.0
407.11499	196.0
407.293365	84.0
407.3255	176.0
407.377716	160.0
407.514313	72.0
407.630829	112.0
407.80365	60.0
407.84787	160.0
407.908173	132.0
407.956421	96.0
408.121246	124.0
408.189606	88.0
408.268005	380.0
408.419098	128.0
408.487244	128.0
408.595856	120.0
408.644135	136.0
408.712555	104.0
408.929871	124.0
409.026459	164.0
409.262207	144.0
409.300232	148.0
409.606323	60.0
409.63855	128.0
409.682861	108.0
410.013275	148.0
410.178528	140.0
410.301239	132.0
410.351898	96.0
410.541412	104.0
410.618042	204.0
410.803436	216.0
410.911163	192.0
411.279755	88.0
411.489685	128.0
411.594666	60.0
411.735748	124.0
411.917755	148.0
412.010681	104.0
412.063202	180.0
412.358429	324.0
412.394562	104.0
412.515839	148.0
412.576477	180.0
412.635071	204.0
413.255951	60.0
413.314667	140.0
413.485229	140.0
413.567566	104.0
413.660675	132.0
413.737579	48.0
413.806396	152.0
414.251892	108.0
414.288361	120.0
414.373444	144.0
414.604401	160.0
414.636841	152.0
414.66925	164.0
414.786804	40.0
415.078735	44.0
415.188202	156.0
415.334229	96.0
415.610107	132.0
415.646637	220.0
415.926666	80.0
416.247406	156.0
416.298676	108.0
416.363922	116.0
416.442352	40.0
416.879028	108.0
416.958344	44.0
417.417725	120.0
417.503113	188.0
417.539734	112.0
417.621063	160.0
417.649536	56.0
417.763458	168.0
418.117462	132.0
418.288391	128.0
418.316895	216.0
418.589691	148.0
418.736298	176.0
418.809631	144.0
418.882935	180.0
419.017365	140.0
419.102936	112.0
419.13147	76.0
419.196655	136.0
419.245575	140.0
419.31076	132.0
419.477905	112.0
419.567596	144.0
419.636902	132.0
419.824463	148.0
419.910126	104.0
419.999847	132.0
420.103577	260.0
420.207916	140.0
420.26593	1648.0
420.313995	32.0
420.628265	80.0
420.677246	80.0
420.734406	92.0
421.012054	76.0
421.052887	44.0
421.095001	104.0
421.137146	172.0
421.271301	1204.0
421.404205	72.0
421.465485	136.0
421.52066	144.0
421.608521	140.0
421.684296	52.0
421.700195	28.0
421.713013	64.0
421.780182	72.0
421.870117	140.0
421.955963	252.0
422.123627	208.0
422.272644	536.0
422.33313	140.0
422.48764	84.0
422.553101	72.0
422.704498	116.0
422.839569	96.0
423.203888	84.0
423.270142	132.0
423.304413	316.0
423.461884	160.0
423.617554	96.0
423.662598	108.0
423.88797	204.0
423.998627	124.0
424.056	120.0
424.154358	168.0
424.182129	88.0
424.209167	108.0
424.248657	164.0
424.300446	180.0
424.392151	84.0
424.483704	196.0
424.732544	132.0
424.802277	136.0
424.83667	180.0
424.925354	80.0
425.237244	132.0
425.29364	140.0
425.323151	176.0
425.729889	124.0
426.029755	72.0
426.185883	112.0
426.35025	80.0
426.658997	136.0
426.835449	212.0
426.868225	128.0
426.929932	84.0
426.95871	92.0
427.016296	96.0
427.049194	148.0
427.082092	36.0
427.172607	76.0
427.304779	92.0
427.729156	192.0
427.839264	80.0
427.896912	88.0
428.156342	140.0
428.560211	104.0
428.671295	100.0
428.832031	132.0
429.029907	108.0
429.075256	84.0
429.227814	304.0
429.506226	276.0
429.552124	76.0
429.594879	132.0
429.724426	120.0
429.772308	128.0
429.834198	116.0
429.999268	104.0
430.041229	144.0
430.081818	152.0
430.205658	176.0
430.329498	136.0
430.688812	120.0
430.742493	108.0
430.800323	120.0
430.982117	56.0
431.015167	148.0
431.1633	124.0
431.208099	164.0
431.253784	212.0
431.440582	152.0
431.593872	84.0
431.660034	60.0
431.697266	84.0
431.862701	140.0
431.999207	92.0
432.032288	184.0
432.078278	176.0
432.123322	64.0
432.168823	84.0
432.236633	216.0
432.284698	80.0
432.32193	60.0
432.364227	260.0
432.421265	176.0
432.52475	56.0
432.574432	64.0
432.711029	104.0
432.764862	84.0
432.82605	164.0
432.889099	36.0
432.955353	76.0
433.050598	116.0
433.123047	76.0
433.150024	108.0
433.216309	136.0
433.259155	108.0
433.303314	72.0
433.364471	200.0
433.419312	120.0
433.477325	184.0
433.534454	92.0
433.601654	64.0
433.701141	108.0
433.730164	116.0
433.763306	132.0
433.833618	168.0
433.871368	64.0
433.883087	76.0
433.897736	132.0
433.932465	136.0
433.941589	32.0
434.000824	128.0
434.02887	124.0
434.080139	96.0
434.115723	36.0
434.172302	272.0
434.220367	52.0
434.274658	284.0
434.371002	124.0
434.406067	124.0
434.459991	92.0
434.497345	148.0
434.541168	128.0
434.592987	76.0
434.649689	84.0
434.673798	168.0
434.701202	108.0
434.74353	132.0
434.808563	120.0
434.878387	92.0
434.891235	148.0
434.906738	116.0
434.956543	232.0
434.990723	216.0
435.049316	220.0
435.078308	160.0
435.149658	144.0
435.200806	200.0
435.234589	288.0
435.285889	428.0
435.317688	136.0
435.353058	208.0
435.365326	260.0
435.422211	524.0
435.459961	300.0
435.501862	124.0
435.511932	96.0
435.527466	220.0
435.579956	148.0
435.655121	264.0
435.691376	136.0
435.730865	236.0
435.771576	108.0
435.842621	320.0
435.857544	280.0
435.874054	360.0
435.931854	124.0
435.961975	92.0
435.972687	176.0
436.016388	132.0
436.022583	328.0
436.033539	144.0
436.041534	180.0
436.076538	292.0
436.09314	144.0
436.145752	436.0
436.155579	308.0
436.209564	448.0
436.299866	249504.0
436.417664	336.0
436.458252	220.0
436.481903	160.0
436.497711	140.0
436.544708	140.0
436.573395	112.0
436.595642	216.0
436.625031	152.0
436.636383	68.0
436.702087	340.0
436.778534	380.0
436.831573	148.0
436.897858	272.0
436.928986	212.0
436.985718	1112.0
437.027283	488.0
437.107117	356.0
437.168854	204.0
437.302948	122412.0
437.451996	292.0
437.50116	112.0
437.566711	204.0
437.617798	400.0
437.632935	412.0
437.673828	188.0
437.71875	296.0
437.754303	140.0
437.832581	152.0
437.854462	132.0
437.89563	152.0
437.94342	136.0
437.975861	188.0
437.988739	132.0
438.005951	244.0
438.065826	200.0
438.082184	140.0
438.112946	232.0
438.160034	244.0
438.212189	196.0
438.303833	13208.0
438.396362	116.0
438.485809	72.0
438.533264	120.0
438.545166	112.0
438.563721	52.0
438.580719	80.0
438.615753	152.0
438.685852	96.0
438.765961	332.0
438.804382	92.0
438.849091	96.0
438.918213	228.0
438.963959	76.0
439.003937	80.0
439.033905	208.0
439.073883	224.0
439.113464	108.0
439.158295	100.0
439.188232	120.0
439.244049	168.0
439.311188	1708.0
439.402649	260.0
439.465271	124.0
439.483246	120.0
439.514282	256.0
439.56543	152.0
439.609436	264.0
439.680389	168.0
439.734344	240.0
439.768188	176.0
439.829315	192.0
439.906586	184.0
439.966888	232.0
440.023773	128.0
440.072235	364.0
440.148224	124.0
440.175232	392.0
440.215607	172.0
440.246338	168.0
440.306519	232.0
440.343506	168.0
440.397064	140.0
440.478119	260.0
440.539093	192.0
440.589294	96.0
440.641693	132.0
440.67218	104.0
440.702118	72.0
440.748566	88.0
440.807587	172.0
440.846313	124.0
440.927917	172.0
440.970245	160.0
441.015656	176.0
441.096039	120.0
441.137848	148.0
441.187408	164.0
441.266754	60.0
441.302734	140.0
441.408722	56.0
441.488159	84.0
441.549713	100.0
441.599884	84.0
441.637543	52.0
441.70752	132.0
441.761139	88.0
441.804871	124.0
441.891083	136.0
441.957733	112.0
442.039185	48.0
442.071228	84.0
442.122864	68.0
442.193176	40.0
442.302338	32.0
442.345947	60.0
442.484955	72.0
442.533112	116.0
442.629425	80.0
442.683868	108.0
442.77179	84.0
442.866302	64.0
443.081787	180.0
443.433777	64.0
443.475677	44.0
443.611938	128.0
443.693665	64.0
443.75238	48.0
443.819458	48.0
443.890747	84.0
443.926758	68.0
444.006714	80.0
444.05011	64.0
444.079468	84.0
444.332855	120.0
444.410889	104.0
444.52417	40.0
444.582947	68.0
444.633301	56.0
444.721436	60.0
444.776001	120.0
444.932068	156.0
445.035248	48.0
445.187469	60.0
445.355469	36.0
445.3909	100.0
445.446228	80.0
445.582306	100.0
445.632721	128.0
445.805023	136.0
445.85965	44.0
446.002167	88.0
446.04248	48.0
446.305237	84.0
446.334686	68.0
446.362427	72.0
446.53653	68.0
446.597992	144.0
446.671143	44.0
446.72583	160.0
446.797333	200.0
446.839417	176.0
446.920227	232.0
447.169464	140.0
447.256042	52.0
447.363464	124.0
447.576019	44.0
447.641724	112.0
447.946625	56.0
448.014038	64.0
448.094086	64.0
448.50708	44.0
448.594055	164.0
448.637756	116.0
448.755798	64.0
448.81485	100.0
448.865448	80.0
449.025696	132.0
449.104218	108.0
449.367401	112.0
449.510864	68.0
449.614594	56.0
449.685516	136.0
449.73877	52.0
449.785187	88.0
449.94754	264.0
450.00473	244.0
450.055389	156.0
450.118744	44.0
450.173615	28.0
450.363678	164.0
450.591797	44.0
450.629822	52.0
450.732819	128.0
450.795654	216.0
450.997498	44.0
451.041504	68.0
451.108795	96.0
451.20462	72.0
451.339935	144.0
451.390686	144.0
451.509094	60.0
451.566833	116.0
451.65799	136.0
451.733276	44.0
451.786957	104.0
451.855957	120.0
451.95105	160.0
452.045258	76.0
452.05661	132.0
452.207916	116.0
452.253754	96.0
452.282227	132.0
452.325714	52.0
452.414612	164.0
452.471649	84.0
452.562805	120.0
452.592438	60.0
452.632324	124.0
452.73172	112.0
452.747437	100.0
452.811432	140.0
452.893127	140.0
452.952423	40.0
452.994781	104.0
453.056915	108.0
453.089539	148.0
453.121887	180.0
453.163239	152.0
453.193237	152.0
453.208984	72.0
453.221985	248.0
453.260468	344.0
453.341156	96.0
453.403351	132.0
453.463715	152.0
453.502045	232.0
453.553833	164.0
453.608185	96.0
453.661713	32.0
453.691772	144.0
453.704926	56.0
453.722382	188.0
453.789246	96.0
453.82782	292.0
453.88678	148.0
453.914398	148.0
453.93457	120.0
453.967468	240.0
454.019531	172.0
454.03363	316.0
454.051697	228.0
454.068665	196.0
454.081482	152.0
454.120148	228.0
454.187805	264.0
454.230377	244.0
454.309662	101072.0
454.448456	132.0
454.48291	104.0
454.507751	184.0
454.56778	80.0
454.615417	196.0
454.695312	88.0
454.773499	116.0
454.835449	224.0
454.88559	148.0
454.91568	336.0
454.967194	116.0
455.003326	196.0
455.069946	172.0
455.111328	200.0
455.150757	104.0
455.190643	240.0
455.313293	36976.0
455.407043	60.0
455.421265	172.0
455.477478	200.0
455.533569	212.0
455.616974	100.0
455.6633	116.0
455.703583	188.0
455.742218	152.0
455.783844	132.0
455.819641	200.0
455.852844	92.0
455.892212	64.0
455.909729	40.0
455.976685	48.0
456.009125	80.0
456.038574	64.0
456.086426	100.0
456.152679	76.0
456.21579	68.0
456.315521	6032.0
456.417877	128.0
456.467346	292.0
456.496155	132.0
456.541077	56.0
456.611237	36.0
456.656921	92.0
456.697479	188.0
456.743652	72.0
456.776062	60.0
456.812012	60.0
456.84967	124.0
456.89325	40.0
456.976868	84.0
457.033234	64.0
457.102234	68.0
457.147278	64.0
457.177063	56.0
457.222717	88.0
457.234528	120.0
457.30896	1268.0
457.412354	72.0
457.449158	124.0
457.50705	152.0
457.550659	68.0
457.583801	160.0
457.628296	116.0
457.703461	100.0
457.786591	204.0
457.844574	116.0
457.886993	64.0
457.942139	212.0
457.98175	36.0
458.012817	136.0
458.076721	68.0
458.124084	136.0
458.171936	124.0
458.25531	192.0
458.300079	80.0
458.347229	56.0
458.380432	104.0
458.413605	104.0
458.480255	104.0
458.541931	124.0
458.646484	72.0
458.676331	172.0
458.737976	208.0
458.802002	116.0
458.883606	64.0
458.961975	60.0
459.013123	112.0
459.047241	112.0
459.084778	204.0
459.133484	144.0
459.187317	160.0
459.284454	120.0
459.328735	60.0
459.362885	120.0
459.390594	48.0
459.458862	52.0
459.520721	36.0
459.830658	108.0
459.874908	52.0
459.96582	108.0
460.11731	108.0
460.219208	56.0
460.280487	84.0
460.314667	108.0
460.400085	100.0
460.87851	48.0
461.091705	72.0
461.126373	144.0
461.199036	92.0
461.305908	132.0
461.508423	76.0
461.887482	48.0
462.193756	68.0
462.53363	68.0
462.623505	48.0
462.764801	96.0
463.163086	56.0
463.642975	76.0
464.371826	100.0
464.672119	88.0
464.714996	92.0
464.860901	60.0
465.011108	48.0
466.037476	64.0
466.1492	52.0
466.609131	68.0
467.060669	100.0
467.095093	152.0
467.224152	48.0
467.443573	68.0
467.508148	88.0
467.653259	128.0
467.917053	88.0
468.791473	84.0
469.317383	200.0
469.735718	80.0
469.865143	140.0
469.94281	52.0
470.093842	52.0
470.270782	104.0
470.388245	132.0
470.477997	96.0
470.529785	60.0
470.680908	84.0
470.944366	92.0
471.203552	188.0
471.271027	176.0
471.283417	108.0
471.445526	92.0
471.742279	152.0
471.881226	96.0
471.938324	152.0
472.018127	168.0
472.118835	172.0
472.193481	216.0
472.235138	112.0
472.318604	10876.0
472.427063	108.0
472.53418	84.0
472.591461	64.0
472.695312	48.0
472.723328	44.0
472.816498	68.0
472.862579	92.0
472.902649	84.0
472.937683	84.0
473.02948	172.0
473.115173	216.0
473.180115	68.0
473.322723	5960.0
473.395172	120.0
473.443146	80.0
473.453979	128.0
473.582672	112.0
473.704132	84.0
473.743103	32.0
473.799438	52.0
473.860077	40.0
473.906769	124.0
473.968414	80.0
474.050903	108.0
474.116638	136.0
474.180756	60.0
474.235291	48.0
474.323914	1376.0
474.388824	212.0
474.692322	56.0
474.735687	44.0
474.813751	40.0
474.857117	40.0
474.90918	32.0
475.095703	52.0
475.238892	64.0
475.334229	112.0
475.503601	44.0
475.625122	32.0
475.850891	100.0
476.124451	136.0
476.327454	92.0
476.402435	40.0
476.660461	136.0
476.967377	80.0
477.010834	72.0
477.045624	84.0
477.141266	120.0
477.249969	104.0
477.354309	84.0
477.397797	48.0
477.623962	52.0
477.671814	60.0
478.041656	80.0
478.281036	100.0
478.333252	108.0
478.537872	80.0
478.581421	80.0
479.012604	92.0
479.76651	44.0
480.128418	80.0
480.315979	112.0
480.403229	60.0
480.9487	56.0
481.376556	172.0
481.555603	132.0
481.765289	52.0
481.839539	104.0
482.433929	56.0
483.011169	56.0
483.212402	112.0
483.391815	80.0
485.354248	84.0
486.14386	72.0
486.490631	128.0
487.335052	104.0
487.768951	48.0
487.953613	84.0
488.362579	88.0
488.534149	72.0
489.225067	128.0
490.092712	36.0
490.145599	108.0
490.555481	80.0
490.753876	68.0
495.119873	140.0
496.826447	88.0
497.123718	104.0
497.350098	88.0
500.243927	48.0
503.213135	84.0
503.556976	120.0
503.664185	40.0
505.492798	40.0
506.742065	76.0
508.616669	48.0
510.009125	36.0
513.02063	68.0
513.683594	72.0
513.850525	76.0
515.683899	60.0
518.03241	116.0
518.277527	76.0
519.111145	44.0
519.233582	108.0
520.404358	72.0
521.19928	64.0
522.344971	68.0
524.120544	52.0
524.311951	68.0
524.827087	36.0
525.214722	156.0
529.250183	116.0
530.748535	64.0
532.014893	64.0
532.212341	108.0
533.328674	56.0
533.388428	84.0
534.961731	124.0
539.011292	76.0
539.991333	52.0
540.106995	52.0
540.139343	80.0
543.837036	92.0
543.962402	72.0
545.328003	112.0
546.53717	40.0
547.440247	112.0
549.449219	116.0
549.645203	56.0
550.527466	100.0
552.551453	60.0
552.626343	92.0
553.81073	64.0
554.33075	120.0
558.46228	92.0
559.638794	48.0
561.023926	56.0
561.420044	84.0
562.382507	108.0
562.774353	72.0
563.497009	76.0
563.879761	112.0
567.581848	100.0
567.913818	60.0
570.806091	56.0
571.695679	72.0
571.805176	76.0
574.716858	128.0
576.216125	120.0
580.193298	88.0
581.12854	80.0
581.646851	76.0
581.786072	100.0
583.679138	112.0
587.479248	36.0
588.294861	120.0
588.743896	48.0
589.091675	32.0
589.879395	64.0
591.15625	96.0
591.553162	108.0
591.906616	104.0
592.090637	104.0
595.373962	44.0
596.058899	48.0
596.99231	76.0
597.950684	44.0
598.062683	52.0
598.958618	56.0
600.235535	76.0
601.64563	92.0
602.749451	52.0
604.700806	132.0
606.547363	96.0
607.636108	112.0
607.753845	60.0
608.69635	124.0
609.27594	32.0
610.918274	56.0
612.035156	104.0
614.243103	124.0
614.652649	48.0
615.314026	144.0
615.531311	56.0
615.89679	52.0
615.960999	116.0
616.178345	64.0
617.844482	56.0
618.685791	132.0
619.468262	100.0
620.375183	88.0
621.496033	40.0
621.669739	52.0
622.190918	52.0
625.486877	32.0
626.876465	92.0
628.631836	84.0
630.119873	56.0
631.069519	76.0
632.695557	108.0
632.728699	80.0
636.019165	108.0
636.184875	120.0
637.133362	152.0
637.626465	76.0
638.164368	80.0
639.034485	144.0
639.744141	60.0
641.119263	48.0
647.211487	68.0
647.773682	92.0
648.513489	52.0
648.609802	92.0
648.858215	88.0
649.177612	104.0
649.309509	72.0
649.837036	76.0
650.217651	88.0
650.344543	48.0
650.390259	48.0
651.121399	76.0
651.969788	92.0
655.74115	136.0
655.924622	76.0
656.475281	100.0
656.572144	44.0
657.209839	112.0
658.843628	48.0
659.114441	108.0
659.165527	56.0
660.505066	72.0
660.883667	88.0
661.861328	88.0
662.286377	92.0
664.660095	48.0
665.322205	108.0
666.123352	116.0
666.198975	100.0
667.269409	44.0
667.325928	56.0
667.418518	64.0
668.442139	104.0
669.976501	80.0
670.012573	80.0
670.558777	144.0
671.352783	80.0
672.446533	100.0
673.448181	84.0
673.541138	72.0
673.64447	60.0
674.502319	100.0
674.626343	108.0
676.550842	116.0
677.047974	84.0
679.603577	96.0
680.51709	72.0
682.538391	96.0
684.10968	60.0
685.880798	60.0
686.355225	32.0
688.599304	236.0
689.168701	104.0
689.461365	104.0
689.895203	124.0
690.663879	76.0
691.338806	76.0
693.711548	92.0
694.498108	36.0
694.576782	64.0
696.939331	80.0
697.832886	104.0
698.579712	64.0
702.066589	60.0
702.351379	84.0
703.084778	60.0
705.134033	80.0
706.408325	72.0
706.840515	80.0
708.965759	40.0
709.612427	120.0
710.858948	48.0
711.124329	92.0
712.675049	96.0
713.440369	68.0
713.879822	180.0
716.94281	40.0
717.171997	116.0
718.499817	64.0
721.490601	132.0
722.089539	124.0
723.427246	112.0
724.567993	44.0
724.803711	92.0
724.996643	76.0
725.237854	60.0
725.881165	92.0
726.208313	80.0
727.404907	60.0
728.065369	112.0
728.199646	48.0
729.172119	100.0
734.281555	36.0
735.830261	44.0
738.364624	192.0
740.269653	112.0
742.187927	148.0
742.578369	184.0
745.118896	96.0
746.004761	192.0
750.289246	108.0
752.70636	96.0
753.219788	116.0
756.895081	28.0
757.097656	116.0
760.743958	68.0
765.01001	64.0
765.720337	48.0
765.869019	68.0
766.116943	76.0
766.227112	60.0
766.954529	96.0
771.204712	76.0
771.315308	184.0
772.000854	104.0
772.465515	76.0
774.491516	160.0
776.209595	32.0
776.991638	64.0
777.115479	100.0
777.269104	36.0
778.795837	124.0
780.474182	52.0
781.441895	180.0
782.432678	76.0
784.622253	108.0
784.733765	76.0
787.903931	160.0
789.597656	60.0
791.858765	52.0
794.914185	88.0
796.300903	112.0
796.559265	100.0
798.374756	92.0
799.438049	184.0
800.687866	68.0
801.369507	72.0
802.637756	108.0
803.624817	76.0
806.85553	68.0
810.030334	120.0
810.160645	196.0
810.455261	96.0
811.220398	112.0
811.95752	144.0
815.079834	124.0
815.761902	108.0
816.489685	156.0
817.177979	76.0
817.240601	72.0
817.343018	68.0
817.530823	192.0
819.71759	184.0
819.90564	64.0
821.268311	112.0
821.770386	56.0
823.985657	84.0
824.57428	56.0
824.957214	60.0
825.38031	60.0
827.007385	72.0
827.755066	160.0
828.917969	72.0
830.781433	84.0
831.544617	92.0
835.30249	92.0
835.475037	128.0
836.660583	168.0
837.512878	56.0
839.806946	180.0
841.422791	124.0
843.109497	52.0
843.635498	148.0
844.352478	48.0
844.826843	60.0
845.382263	88.0
845.683228	72.0
848.27832	64.0
849.020508	92.0
851.365112	72.0
853.538513	56.0
853.910706	52.0
856.675659	132.0
856.972778	60.0
858.23761	48.0
858.72168	60.0
858.902466	148.0
860.209595	144.0
861.202271	56.0
861.815674	76.0
866.367615	124.0
866.525757	52.0
867.68042	164.0
869.181946	48.0
871.842163	36.0
871.977356	92.0
873.844543	100.0
874.235718	152.0
876.567749	100.0
879.687866	64.0
880.455444	96.0
880.64447	192.0
880.863037	208.0
881.087524	116.0
881.306091	68.0
881.666565	116.0
882.647949	52.0
883.227539	56.0
883.487793	164.0
885.186523	120.0
886.075012	80.0
886.566833	160.0
886.916504	104.0
888.185486	136.0
894.758179	144.0
897.105469	80.0
897.266418	72.0
897.43335	36.0
898.226562	96.0
899.921509	124.0
902.502747	148.0
902.903381	60.0
903.26825	172.0
903.411804	88.0
903.812683	100.0
904.327393	44.0
904.614685	44.0
905.027832	36.0
906.447449	116.0
907.466492	56.0
910.617004	76.0
911.992981	88.0
916.844055	56.0
918.604736	244.0
918.707275	240.0
925.076904	64.0
925.494629	136.0
931.037292	144.0
931.140503	208.0
931.881653	168.0
932.252319	156.0
932.677734	168.0
933.711365	208.0
936.145752	64.0
942.59375	132.0
943.22937	72.0
946.263794	148.0
947.574524	208.0
948.058594	52.0
949.523865	140.0
953.201172	196.0
953.957153	100.0
954.36908	48.0
955.340881	108.0
955.623901	48.0
955.913086	144.0
956.559326	96.0
958.135925	128.0
958.795227	188.0
961.681702	100.0
962.583069	168.0
966.124756	192.0
967.158203	40.0
969.18335	144.0
971.384277	116.0
974.227539	120.0
975.41449	192.0
976.689209	140.0
977.037598	88.0
977.535339	96.0
980.780212	52.0
982.981812	176.0
987.286133	156.0
987.573792	152.0
990.553406	120.0
990.728821	88.0
991.104736	40.0
991.186157	192.0
992.251709	40.0
993.656616	100.0
995.288574	100.0
995.916626	216.0
996.130188	88.0
996.601379	64.0
997.31781	160.0
998.826965	232.0
1000.633118	104.0
1001.300598	128.0
1001.395081	184.0
1001.451782	192.0
1002.283386	216.0
1004.464783	168.0
1005.133545	92.0
1006.528625	144.0
1006.995972	232.0
1007.684509	184.0
1009.068726	204.0
1009.327942	140.0
1010.219727	152.0
1014.27887	180.0
1015.071411	112.0
1015.680237	64.0
1016.753601	100.0
1017.254028	120.0
1019.248291	164.0
1019.388123	148.0
1020.163574	140.0
1020.360657	184.0
1020.405151	68.0
1021.925232	184.0
1022.186157	148.0
1023.809509	196.0
1024.185303	124.0
1024.382812	56.0
1025.019897	56.0
1026.619995	176.0
1028.010742	160.0
1028.170288	104.0
1029.964478	112.0
1030.839722	80.0
1032.367554	52.0
1032.489136	56.0
1033.679077	76.0
1035.41394	148.0
1035.516357	104.0
1036.323608	96.0
1036.69519	200.0
1037.23999	124.0
1037.368286	36.0
1038.054321	104.0
1040.39624	164.0
1041.308105	160.0
1044.521973	152.0
1045.480713	48.0
1045.596558	96.0
1047.045166	60.0
1048.700928	108.0
1049.796997	128.0
1050.545166	104.0
1051.461548	168.0
1052.778564	176.0
1053.10791	204.0
1053.508423	100.0
1054.484131	80.0
1056.418213	216.0
1058.87085	216.0
1059.615723	216.0
1059.719482	168.0
1059.998047	48.0
1060.237793	204.0
1061.774414	164.0
1062.027344	148.0
1062.150635	168.0
1062.215454	92.0
1062.559326	40.0
1063.604126	152.0
1064.013062	140.0
1065.019653	52.0
1066.618164	100.0
1067.599976	28.0
1068.992065	136.0
1069.057129	152.0
1069.148315	220.0
1070.385132	156.0
1070.671753	76.0
1074.145874	184.0
1074.243652	36.0
1075.00708	56.0
1075.189819	136.0
1075.444336	100.0
1076.404053	136.0
1077.024536	144.0
1081.739258	196.0
1082.19104	128.0
1083.003052	40.0
1084.070923	52.0
1085.467285	120.0
1085.959229	196.0
1087.494507	172.0
1088.098511	180.0
1088.544922	44.0
1090.805176	172.0
1092.482056	200.0
1092.929443	236.0
1093.074219	68.0
1093.942993	172.0
1097.487671	128.0
1097.731567	64.0
1097.876709	148.0
1099.182861	48.0
1100.692383	152.0
1102.94751	180.0
1103.608521	240.0
1104.627075	52.0
1106.089478	132.0
1106.168945	108.0
1106.460205	156.0
1106.764771	64.0
1108.679321	196.0
1109.01062	164.0
1110.874023	116.0
1111.802979	168.0
1111.915771	160.0
1117.012207	112.0
1117.950317	168.0
1119.188477	36.0
1121.966797	132.0
1122.206909	108.0
1122.373535	208.0
1123.167236	208.0
1123.447388	164.0
1123.500732	164.0
1124.328125	128.0
1124.588501	68.0
1124.768677	84.0
1125.042358	144.0
1126.271118	184.0
1129.473022	168.0
1131.373535	128.0
1132.116699	160.0
1132.793213	172.0
1133.108154	140.0
1133.932373	132.0
1134.803833	68.0
1136.594727	136.0
1136.695435	92.0
1136.957153	244.0
1137.688721	96.0
1138.178955	64.0
1138.675903	216.0
1138.776611	280.0
1139.57605	184.0
1139.959106	136.0
1140.28833	48.0
1140.658081	160.0
1140.79248	164.0
1141.370728	184.0
1143.765869	180.0
1144.412109	252.0
1144.553589	72.0
1145.806396	64.0
1146.749756	128.0
1149.703857	76.0
1150.304565	76.0
1150.412598	152.0
1150.770386	172.0
1151.209351	124.0
1151.425415	144.0
1154.750732	136.0
1156.103882	192.0
1156.171509	40.0
1156.5979	244.0
1156.773926	196.0
1158.006348	168.0
1158.758301	144.0
1159.110596	128.0
1160.195068	132.0
1162.005981	192.0
1162.813477	108.0
1163.58728	160.0
1163.963623	176.0
1164.015137	124.0
1164.36145	96.0
1164.646729	180.0
1165.4552	116.0
1166.019287	168.0
1168.39917	132.0
1168.54895	48.0
1168.603394	156.0
1169.54248	208.0
1170.27771	188.0
1170.332153	112.0
1170.764893	216.0
1170.870239	56.0
1171.755737	152.0
1171.898804	56.0
1172.655273	136.0
1173.071045	188.0
1174.666748	132.0
1176.457031	180.0
1177.793213	84.0
1179.809204	108.0
1180.97168	176.0
1181.543945	176.0
1183.716064	180.0
1184.592773	160.0
1184.983276	156.0
1185.524658	208.0
1186.175781	200.0
1186.710449	220.0
1187.183716	176.0
1187.272339	116.0
1188.167236	152.0
1190.216797	180.0
1190.532715	136.0
1190.601318	92.0
1190.766235	152.0
1190.924194	228.0
1191.762329	136.0
1192.030273	84.0
1193.081909	40.0
1193.130005	60.0
1193.384399	172.0
1194.03772	104.0
1194.637207	212.0
1195.159058	188.0
1195.682129	180.0
1197.609985	208.0
1197.899292	188.0
1198.347046	132.0
1199.429077	188.0
1200.346069	152.0
1200.421875	344.0
1201.594482	168.0
1202.015381	60.0
1204.190063	168.0
1205.412964	172.0
1206.608765	220.0
1207.417725	176.0
1207.47998	64.0
1207.901978	148.0
1209.251221	80.0
1209.361938	52.0
1209.472778	44.0
1209.784302	136.0
1210.51123	120.0
1211.716553	28.0
1211.952148	60.0
1212.783691	92.0
1213.90686	180.0
1214.05249	140.0
1215.266479	52.0
1217.439209	180.0
1218.036499	96.0
1218.550659	240.0
1218.898071	48.0
1219.836304	160.0
1220.058838	208.0
1222.298462	124.0
1224.282471	56.0
1225.327393	200.0
1225.571167	252.0
1226.156616	164.0
1227.446289	28.0
1228.035645	112.0
1228.736694	196.0
1229.127441	156.0
1229.553101	148.0
1230.338501	156.0
1230.565308	152.0
1231.096069	148.0
1231.3125	204.0
1231.438232	104.0
1232.423218	124.0
1233.219971	144.0
1233.932983	204.0
1234.177734	196.0
1234.338501	164.0
1235.016968	144.0
1236.731201	204.0
1238.019531	188.0
1238.726929	136.0
1239.483643	184.0
1240.899536	76.0
1241.074829	100.0
1243.677612	128.0
1243.838989	68.0
1244.541138	56.0
1245.376831	120.0
1245.882568	208.0
1247.027954	156.0
1247.295044	68.0
1247.576294	176.0
1248.138794	116.0
1248.715454	84.0
1249.017944	212.0
1249.193726	96.0
1249.362549	196.0
1249.805908	176.0
1250.122559	124.0
1251.093872	80.0
1252.636108	176.0
1252.946045	120.0
1254.595215	116.0
1255.081787	192.0
1255.719604	124.0
1255.794067	160.0
1256.055054	88.0
1257.501465	48.0
1257.933716	160.0
1258.108643	140.0
1258.927612	224.0
1259.464478	52.0
1259.669312	192.0
1259.994263	52.0
1260.262817	140.0
1260.495972	192.0
1261.266357	216.0
1262.369263	116.0
1262.454102	100.0
1262.994141	244.0
1264.463379	128.0
1265.63147	184.0
1266.304199	152.0
1266.679688	196.0
1266.927612	168.0
1267.820435	164.0
1268.210205	216.0
1268.713501	164.0
1269.372925	120.0
1269.748779	180.0
1270.848389	120.0
1271.032837	152.0
1271.259888	44.0
1271.685791	72.0
1271.820679	120.0
1271.962646	116.0
1272.317505	132.0
1273.553223	84.0
1273.851562	112.0
1274.625977	152.0
1275.109253	156.0
1276.282227	56.0
1277.505493	80.0
1277.5625	80.0
1279.213501	64.0
1279.334473	176.0
1280.637573	36.0
1280.837036	104.0
1281.463989	164.0
1282.789551	176.0
1283.181763	200.0
1283.55957	184.0
1285.014771	72.0
1285.200195	220.0
1286.092285	160.0
1286.170898	40.0
1286.799072	196.0
1286.863281	100.0
1287.656006	136.0
1287.877441	192.0
1288.484619	176.0
1288.777588	72.0
1289.073608	228.0
1289.306396	184.0
1289.399292	168.0
1289.871094	104.0
1291.251099	172.0
1291.47998	184.0
1291.816162	184.0
1292.374146	216.0
1292.839355	188.0
1293.748413	136.0
1293.812866	48.0
1294.106323	148.0
1294.621948	96.0
1297.30896	168.0
1297.674561	160.0
1300.027344	108.0
1300.867188	136.0
1301.039429	48.0
1301.254883	144.0
1301.987305	188.0
1302.511597	56.0
1302.906738	196.0
1304.32251	160.0
1305.012573	212.0
1305.393799	176.0
1305.88623	108.0
1305.961914	144.0
1306.256836	120.0
1306.652466	208.0
1306.87561	152.0
1307.184937	184.0
1308.293457	136.0
1309.517578	132.0
1309.856079	148.0
1310.201904	140.0
1310.295532	128.0
1310.843262	140.0
1310.987305	272.0
1312.328125	72.0
1312.760742	44.0
1312.998779	120.0
1313.748901	200.0
1314.088013	228.0
1314.311768	76.0
1315.134399	148.0
1315.661377	116.0
1315.870483	104.0
1316.643433	132.0
1316.903442	276.0
1317.163452	132.0
1320.466797	148.0
1321.262451	184.0
1321.432129	204.0
1322.261108	164.0
1322.384155	60.0
1322.472534	56.0
1324.252197	184.0
1324.592651	128.0
1324.788208	108.0
1324.911377	56.0
1324.976562	140.0
1325.302612	168.0
1325.599731	180.0
1325.911377	92.0
1325.991089	180.0
1326.730469	180.0
1327.179932	92.0
1327.317749	136.0
1327.499023	120.0
1327.723877	160.0
1328.325928	152.0
1329.631958	136.0
1330.285278	136.0
1330.517578	196.0
1331.07666	40.0
1331.53418	160.0
1331.579834	156.0
1331.882812	124.0
1333.2052	180.0
1334.04834	128.0
1334.44812	136.0
1335.102661	52.0
1336.259277	148.0
1337.146973	172.0
1337.234375	220.0
1337.918579	120.0
1338.137085	144.0
1338.384644	160.0
1339.528076	120.0
1341.109253	68.0
1341.954956	188.0
1342.61853	172.0
1342.779053	184.0
1343.078003	228.0
1343.464722	184.0
1343.712769	120.0
1344.019165	164.0
1345.125854	192.0
1345.515503	156.0
1345.595825	180.0
1345.749146	144.0
1346.63269	176.0
1347.341309	180.0
1347.480103	168.0
1347.830811	120.0
1349.007568	160.0
1349.263428	156.0
1349.81189	64.0
1350.513916	188.0
1350.711426	152.0
1350.879761	168.0
1352.474976	128.0
1352.673462	192.0
1353.024048	268.0
1353.324219	220.0
1353.448608	216.0
1354.078491	204.0
1354.759644	144.0
1355.223633	136.0
1355.521729	188.0
1356.159302	196.0
1356.518555	144.0
1357.449707	220.0
1357.559692	140.0
1359.485596	140.0
1359.606445	84.0
1359.775269	128.0
1360.590088	188.0
1361.258301	116.0
1361.463867	192.0
1362.029541	168.0
1362.418823	172.0
1362.602539	140.0
1362.844971	124.0
1363.021362	148.0
1363.499023	240.0
1363.668091	116.0
1364.248779	148.0
1364.388428	76.0
1366.212402	164.0
1367.036499	156.0
1367.279297	164.0
1367.996826	152.0
1368.530762	172.0
1368.854736	208.0
1369.583862	144.0
1369.9375	168.0
1370.224854	92.0
1370.72583	148.0
1371.064819	76.0
1372.118896	104.0
1373.424194	148.0
1373.83728	144.0
1375.756104	32.0
1376.420654	108.0
1376.563721	160.0
1376.974487	192.0
1377.070557	144.0
1377.196045	120.0
1377.329102	224.0
1377.661499	180.0
1377.831421	168.0
1378.252563	160.0
1378.880737	156.0
1379.582886	140.0
1379.650879	244.0
1380.026489	164.0
1380.292725	288.0
1380.536743	148.0
1380.714233	200.0
1380.987915	160.0
1381.30603	220.0
1381.372559	76.0
1381.557495	188.0
1382.067993	160.0
1382.482422	104.0
1382.726685	144.0
1383.000488	196.0
1383.200439	116.0
1384.21167	180.0
1384.288818	148.0
1384.740601	36.0
1384.873901	144.0
1385.103516	132.0
1385.177612	100.0
1385.733154	132.0
1385.81189	188.0
1386.385254	236.0
1388.654053	180.0
1389.069336	36.0
1390.093262	104.0
1390.189697	188.0
1390.894897	152.0
1391.585327	224.0
1391.6521	48.0
1392.253662	176.0
1392.483887	76.0
1392.550659	76.0
1392.966675	144.0
1393.449585	356.0
1394.096069	148.0
1394.31897	204.0
1394.541992	140.0
1395.151489	104.0
1395.32251	132.0
1395.456299	144.0
1395.753784	168.0
1396.304077	120.0
1396.58667	192.0
1396.795044	132.0
1397.099976	120.0
1398.082153	188.0
1398.476685	56.0
1398.736816	164.0
1398.960571	176.0
1399.429565	156.0
1399.481689	132.0
1400.613647	132.0
1401.232056	48.0
1401.328857	176.0
1402.200806	48.0
1402.420166	196.0
1402.96106	196.0
1403.154907	92.0
1403.386108	92.0
1405.004517	124.0
1405.862671	144.0
1406.161255	184.0
1408.057617	192.0
1408.199463	32.0
1408.640259	188.0
1408.774658	80.0
1408.924072	216.0
1411.031738	228.0
1411.143921	156.0
1411.487793	144.0
1411.764526	56.0
1411.988892	92.0
1413.028687	76.0
1413.350464	56.0
1413.836792	148.0
1413.949097	140.0
1415.627197	200.0
1416.397583	164.0
1416.539917	136.0
1416.749634	156.0
1417.701172	176.0
1418.038452	180.0
1418.263306	96.0
1419.267944	204.0
1419.552856	264.0
1419.665405	92.0
1419.777954	160.0
1420.145386	164.0
1420.220459	164.0
1420.653076	188.0
1420.846924	128.0
1421.060669	152.0
1421.225708	128.0
1421.661011	120.0
1421.713501	280.0
1421.837036	128.0
1422.411499	168.0
1422.771851	128.0
1423.838135	156.0
1423.935791	204.0
1423.99585	236.0
1424.446533	52.0
1425.475952	120.0
1426.377808	220.0
1427.52063	148.0
1427.708618	124.0
1429.438965	140.0
1429.544312	128.0
1430.09375	124.0
1430.153931	184.0
1430.613159	164.0
1431.072388	244.0
1431.953491	108.0
1432.299927	136.0
1432.797119	88.0
1433.919922	128.0
1435.11853	144.0
1435.299561	172.0
1435.367432	104.0
1435.646362	144.0
1436.227173	212.0
1437.456909	164.0
1437.622925	112.0
1437.856934	140.0
1439.427246	208.0
1439.593384	84.0
1439.918091	68.0
1440.333496	220.0
1440.635742	112.0
1442.290649	172.0
1442.827393	104.0
1442.902954	144.0
1443.424683	172.0
1444.302002	148.0
1444.665161	132.0
1445.338501	160.0
1445.580688	108.0
1445.716919	56.0
1445.912598	144.0
1446.012085	176.0
1447.01123	188.0
1447.450439	48.0
1447.526123	116.0
1447.973022	132.0
1448.707764	124.0
1449.041138	100.0
1449.139648	164.0
1449.616943	208.0
1449.897339	104.0
1451.117798	120.0
1451.186035	128.0
1452.270508	112.0
1452.680054	188.0
1452.709229	184.0
1455.324707	192.0
1455.708618	224.0
1455.830078	208.0
1456.528931	124.0
1457.227783	36.0
1457.691284	200.0
1457.904175	188.0
1458.033325	156.0
1458.823853	128.0
1459.165894	144.0
1459.635132	40.0
1459.880737	120.0
1460.284668	180.0
1461.714111	184.0
1461.835815	104.0
1461.949951	148.0
1464.904297	160.0
1465.529053	240.0
1465.766357	132.0
1466.148804	60.0
1467.350708	144.0
1468.502197	260.0
1468.959839	232.0
1470.005127	104.0
1470.173096	124.0
1470.615723	116.0
1471.127197	148.0
1471.325684	156.0
1472.211426	136.0
1472.845337	216.0
1473.341919	212.0
1474.533936	184.0
1474.85498	160.0
1474.946655	112.0
1476.261719	148.0
1476.659424	204.0
1476.942505	148.0
1477.256104	172.0
1477.730469	220.0
1478.120728	192.0
1478.602783	168.0
1478.908936	148.0
1479.199829	104.0
1479.651489	124.0
1480.463257	116.0
1480.708252	184.0
1480.807861	164.0
1481.665771	208.0
1482.347778	60.0
1483.719849	132.0
1484.501953	152.0
1484.624634	180.0
1484.701294	224.0
1484.755005	96.0
1484.885376	128.0
1484.985107	232.0
1485.123169	228.0
1485.376221	232.0
1485.545044	272.0
1485.9823	160.0
1486.358276	164.0
1486.696045	128.0
1486.757446	144.0
1486.857178	188.0
1487.016846	232.0
1487.072021	220.0
1487.256226	60.0
1487.425171	256.0
1487.839722	84.0
1488.438599	252.0
1488.615234	132.0
1490.381958	88.0
1490.796997	160.0
1490.966064	172.0
1491.150513	52.0
1491.358032	116.0
1491.458008	188.0
1491.557861	180.0
1491.673218	156.0
1492.695801	100.0
1493.695679	184.0
1495.311523	160.0
1495.604004	200.0
1495.888794	120.0
1496.235229	52.0
1496.341797	224.0
1496.751099	192.0
1496.858887	128.0
1497.075806	168.0
1497.590576	132.0
1497.659912	56.0
1499.092896	80.0
1500.033203	156.0
1500.256836	208.0
1500.588379	216.0
1500.696289	52.0
1501.274658	176.0
1501.570557	212.0
1502.354492	168.0
1502.593628	160.0
1503.32666	112.0
1504.553955	80.0
1504.731567	124.0
END IONS

BEGIN IONS
PEPMASS=462.242
CHARGE=1
MSLEVEL=2
SOURCE_INSTRUMENT=LC-ESI-qTof
FILENAME=p3-F05_GF5_01_18286.mzXML
SEQ=*..*
IONMODE=Positive
ORGANISM=GNPS-NIH-SMALLMOLECULEPHARMACOLOGICALLYACTIVE
NAME=MLS001077311-01!2062-78-4 M+H
PI=Dorrestein
DATACOLLECTOR=VP/LMS
SMILES=Oc1nc2ccccc2n1C3CCN(CCCC(c4ccc(F)cc4)c5ccc(F)cc5)CC3
INCHI=N/A
INCHIAUX=N/A
PUBMED=N/A
SUBMITUSER=vphelan
LIBRARYQUALITY=1
SPECTRUMID=CCMSLIB00000085145
USI=mzspec:GNPS:GNPS-NIH-SMALLMOLECULEPHARMACOLOGICALLYACTIVE:accession:CCMSLIB00000085145
SCANS=1970
44.89209	96.0
44.904091	100.0
44.930447	196.0
44.942783	168.0
44.97081	132.0
44.980152	428.0
44.989498	120.0
45.024807	316.0
45.03624	168.0
45.065628	152.0
45.096367	168.0
45.127117	128.0
45.159897	188.0
45.171253	204.0
45.191517	180.0
45.23415	172.0
45.251556	104.0
45.263607	168.0
45.274578	84.0
45.291733	160.0
45.303791	136.0
45.331928	112.0
45.341312	112.0
45.357395	88.0
45.411034	128.0
45.445431	156.0
45.519691	356.0
45.549046	152.0
45.554451	124.0
45.578854	176.0
45.595959	132.0
45.609287	112.0
45.644947	168.0
45.655483	144.0
45.664898	140.0
45.685562	144.0
45.712746	156.0
45.729179	176.0
45.733322	160.0
45.767181	148.0
45.797653	160.0
45.81028	220.0
45.8251	184.0
45.860142	96.0
45.884407	64.0
45.911377	176.0
45.927998	180.0
45.932335	104.0
45.935944	132.0
45.955894	68.0
45.976139	104.0
45.999084	240.0
46.038242	156.0
46.054821	148.0
46.074715	76.0
46.105877	176.0
46.149757	192.0
46.162979	228.0
46.172047	132.0
46.19482	196.0
46.228867	80.0
46.251877	160.0
46.271885	144.0
46.312813	188.0
46.344032	184.0
46.358883	56.0
46.395481	148.0
46.407204	136.0
46.436508	204.0
46.471436	152.0
46.51894	184.0
46.551525	72.0
46.619453	80.0
46.673832	160.0
46.699673	196.0
46.713276	76.0
46.744572	160.0
46.763626	128.0
46.820301	224.0
46.856541	212.0
46.913471	176.0
46.947563	116.0
46.972115	144.0
47.004993	208.0
47.010906	204.0
47.032158	140.0
47.05127	140.0
47.07312	76.0
47.086777	232.0
47.095928	160.0
47.126354	156.0
47.155094	256.0
47.201576	148.0
47.219357	156.0
47.238506	196.0
47.2486	148.0
47.264503	128.0
47.285034	112.0
47.30172	188.0
47.332951	100.0
47.35178	208.0
47.411308	184.0
47.424744	160.0
47.445995	120.0
47.472088	212.0
47.521393	136.0
47.537212	156.0
47.559143	184.0
47.583885	284.0
47.596241	96.0
47.630413	144.0
47.641571	120.0
47.655807	48.0
47.659843	120.0
47.680992	64.0
47.692417	148.0
47.706161	160.0
47.72509	188.0
47.74604	216.0
47.783184	132.0
47.81287	140.0
47.840687	164.0
47.863018	112.0
47.890682	236.0
47.920872	164.0
47.951191	124.0
47.969112	176.0
48.029675	192.0
48.049103	164.0
48.060143	52.0
48.077126	104.0
48.089931	164.0
48.104961	200.0
48.131924	196.0
48.156525	256.0
48.159546	208.0
48.165524	140.0
48.177505	192.0
48.21896	80.0
48.251877	180.0
48.268784	104.0
48.279797	116.0
48.296394	168.0
48.344341	196.0
48.394657	140.0
48.422352	272.0
48.445782	136.0
48.47916	140.0
48.548477	168.0
48.641445	144.0
48.679913	144.0
48.696442	132.0
48.73172	156.0
48.78891	136.0
48.799618	132.0
48.823051	160.0
48.852116	268.0
48.874943	148.0
48.898762	208.0
48.943054	112.0
48.989117	148.0
49.009686	168.0
49.033707	172.0
49.049042	184.0
49.060043	112.0
49.072044	140.0
49.107605	60.0
49.163418	196.0
49.180164	112.0
49.199619	124.0
49.202503	116.0
49.217312	132.0
49.247192	172.0
49.270939	120.0
49.287708	96.0
49.305874	128.0
49.332436	208.0
49.357601	168.0
49.434685	120.0
49.45414	180.0
49.472336	184.0
49.49194	152.0
49.521885	136.0
49.559845	84.0
49.586704	236.0
49.590267	152.0
49.64048	140.0
49.656578	84.0
49.669937	124.0
49.68116	176.0
49.69519	120.0
49.721024	88.0
49.729214	164.0
49.787842	148.0
49.821556	176.0
49.841225	148.0
49.887611	160.0
49.908699	176.0
49.924168	236.0
49.945484	164.0
49.969116	168.0
49.990292	148.0
50.005775	152.0
50.024075	52.0
50.05505	232.0
50.08181	164.0
50.124077	200.0
50.138172	192.0
50.151237	192.0
50.17482	180.0
50.231236	160.0
50.274975	168.0
50.31839	160.0
50.337093	112.0
50.356865	220.0
50.374008	128.0
50.392185	184.0
50.427513	76.0
50.455788	164.0
50.491142	40.0
50.518894	116.0
50.547729	156.0
50.563297	168.0
50.592873	220.0
50.611435	164.0
50.63126	320.0
50.653923	160.0
50.697281	140.0
50.712513	220.0
50.744629	104.0
50.758808	132.0
50.775826	116.0
50.81271	184.0
50.860962	184.0
50.876579	164.0
50.892078	144.0
50.913498	272.0
50.970325	92.0
50.984539	192.0
50.99733	160.0
51.020073	176.0
51.035717	152.0
51.054203	200.0
51.073853	144.0
51.092609	176.0
51.108261	72.0
51.129494	152.0
51.132751	192.0
51.187645	204.0
51.249634	384.0
51.263485	196.0
51.287712	148.0
51.316132	120.0
51.351269	160.0
51.381836	116.0
51.391827	112.0
51.420368	80.0
51.435429	160.0
51.454731	212.0
51.477474	200.0
51.510254	152.0
51.560341	168.0
51.579823	232.0
51.608944	232.0
51.628796	168.0
51.660435	100.0
51.684761	168.0
51.694778	152.0
51.71159	224.0
51.72913	152.0
51.753468	128.0
51.807659	312.0
51.846588	216.0
51.862354	276.0
51.873138	132.0
51.89246	132.0
51.922607	176.0
51.945526	140.0
51.955566	28.0
52.034508	168.0
52.064663	216.0
52.076153	172.0
52.086208	192.0
52.121338	116.0
52.16444	128.0
52.19746	148.0
52.226376	128.0
52.258736	432.0
52.283787	180.0
52.297592	144.0
52.329266	200.0
52.345104	132.0
52.366707	208.0
52.376221	172.0
52.396362	196.0
52.412811	140.0
52.440193	192.0
52.453167	164.0
52.490654	240.0
52.509403	60.0
52.522385	140.0
52.546913	208.0
52.571102	204.0
52.585033	212.0
52.606358	148.0
52.644489	208.0
52.659515	100.0
52.676849	60.0
52.695633	144.0
52.714417	120.0
52.738987	128.0
52.750553	32.0
52.77224	196.0
52.804054	344.0
52.837326	320.0
52.867714	208.0
52.880741	148.0
52.90535	72.0
52.940334	208.0
52.95686	316.0
52.98349	164.0
53.011089	104.0
53.038628	136.0
53.06205	208.0
53.088219	60.0
53.094337	124.0
53.212883	180.0
53.278862	164.0
53.299877	208.0
53.315865	148.0
53.333469	176.0
53.416195	84.0
53.442383	308.0
53.511845	244.0
53.54842	148.0
53.56031	144.0
53.571739	260.0
53.631798	136.0
53.649208	72.0
53.67271	200.0
53.693192	196.0
53.734528	244.0
53.773201	128.0
53.795097	128.0
53.816898	176.0
53.822556	164.0
53.845463	112.0
53.887112	112.0
53.8988	128.0
53.948498	120.0
53.993828	104.0
54.011379	152.0
54.079407	172.0
54.091866	120.0
54.181202	172.0
54.200249	164.0
54.232491	152.0
54.266384	148.0
54.298203	172.0
54.332214	156.0
54.348354	152.0
54.373081	160.0
54.411469	248.0
54.434963	124.0
54.507221	160.0
54.526051	160.0
54.553982	156.0
54.602509	192.0
54.627514	148.0
54.649582	168.0
54.680489	40.0
54.720234	180.0
54.777676	168.0
54.808617	128.0
54.85368	160.0
54.87347	76.0
54.893421	192.0
54.921818	92.0
54.963451	184.0
54.982635	180.0
55.004128	148.0
55.0284	52.0
55.068272	152.0
55.085678	192.0
55.102249	224.0
55.155689	176.0
55.19981	144.0
55.21312	252.0
55.241226	184.0
55.254883	172.0
55.275257	156.0
55.290367	152.0
55.338909	184.0
55.381855	132.0
55.402973	236.0
55.436676	312.0
55.458626	168.0
55.495972	64.0
55.530083	292.0
55.540466	160.0
55.570137	252.0
55.589428	148.0
55.599815	144.0
55.6166	196.0
55.672142	252.0
55.711185	264.0
55.745983	128.0
55.766171	208.0
55.778061	192.0
55.788467	68.0
55.800362	232.0
55.834564	164.0
55.845856	156.0
55.864315	140.0
55.882168	104.0
55.955101	188.0
56.030121	272.0
56.047089	164.0
56.092167	216.0
56.127949	48.0
56.147373	168.0
56.166729	140.0
56.245815	40.0
56.260647	180.0
56.287624	56.0
56.308533	192.0
56.328197	152.0
56.380096	196.0
56.429577	124.0
56.44453	120.0
56.459488	208.0
56.472946	144.0
56.50901	152.0
56.640331	112.0
56.665169	228.0
56.693043	148.0
56.711029	48.0
56.735016	132.0
56.74551	144.0
56.7995	188.0
56.819004	176.0
56.849194	148.0
56.870026	140.0
56.882305	156.0
56.898552	152.0
56.93396	160.0
56.95562	36.0
57.002647	224.0
57.00964	168.0
57.014946	364.0
57.03075	128.0
57.066948	156.0
57.122482	56.0
57.141357	116.0
57.152573	60.0
57.167622	180.0
57.178158	212.0
57.245102	128.0
57.256447	132.0
57.268497	112.0
57.295612	92.0
57.348358	180.0
57.394512	124.0
57.432232	204.0
57.450905	72.0
57.476837	192.0
57.500023	116.0
57.535419	144.0
57.54882	128.0
57.567131	96.0
57.585255	128.0
57.59885	52.0
57.647202	172.0
57.681892	168.0
57.707664	144.0
57.727325	124.0
57.757576	152.0
57.772701	104.0
57.786644	168.0
57.851398	124.0
57.863514	184.0
57.936211	88.0
57.952877	116.0
57.974918	324.0
58.024593	140.0
58.03928	128.0
58.070408	160.0
58.089333	148.0
58.102985	156.0
58.14378	136.0
58.152721	160.0
58.177353	96.0
58.187981	44.0
58.206203	112.0
58.217377	156.0
58.271519	60.0
58.288235	176.0
58.307991	172.0
58.322918	156.0
58.33297	148.0
58.337143	180.0
58.349033	156.0
58.360256	84.0
58.390842	228.0
58.42601	144.0
58.455513	52.0
58.46769	196.0
58.485954	212.0
58.52998	144.0
58.559803	120.0
58.615414	208.0
58.636913	408.0
58.673336	60.0
58.7015	136.0
58.719086	152.0
58.750061	144.0
58.770954	132.0
58.795372	96.0
58.81216	120.0
58.841248	152.0
58.859489	168.0
58.876289	108.0
58.891563	104.0
58.916759	168.0
58.937397	160.0
59.022881	104.0
59.044411	36.0
59.05946	200.0
59.117847	212.0
59.131622	68.0
59.15152	180.0
59.164242	304.0
59.198986	192.0
59.228088	124.0
59.276497	112.0
59.289379	144.0
59.30164	144.0
59.375237	216.0
59.409283	184.0
59.442741	188.0
59.511818	132.0
59.524101	136.0
59.567108	180.0
59.580936	168.0
59.616177	220.0
59.670422	144.0
59.686993	64.0
59.708523	148.0
59.803814	176.0
59.846062	172.0
59.86689	196.0
59.894772	164.0
59.917881	56.0
59.961029	188.0
59.981068	156.0
60.002651	188.0
60.040211	168.0
60.055084	108.0
60.115669	132.0
60.160789	156.0
60.184723	160.0
60.19862	164.0
60.220245	164.0
60.246922	208.0
60.32996	180.0
60.384083	140.0
60.397083	328.0
60.421963	136.0
60.44574	192.0
60.451942	144.0
60.45742	200.0
60.495499	184.0
60.507141	292.0
60.524918	160.0
60.538857	204.0
60.591522	240.0
60.603916	132.0
60.641491	164.0
60.662815	92.0
60.752636	148.0
60.783794	172.0
60.796211	124.0
60.855202	220.0
60.889366	100.0
60.917397	176.0
60.932861	112.0
60.957726	152.0
60.998135	92.0
61.046337	140.0
61.062305	164.0
61.078999	144.0
61.094559	160.0
61.144352	208.0
61.159412	148.0
61.180954	148.0
61.215969	184.0
61.246441	156.0
61.264256	144.0
61.298534	108.0
61.321915	216.0
61.371799	196.0
61.387394	140.0
61.403511	132.0
61.406868	148.0
61.434189	40.0
61.464828	176.0
61.475445	200.0
61.493488	56.0
61.520439	160.0
61.584049	160.0
61.61998	144.0
61.638733	164.0
61.663876	188.0
61.687187	100.0
61.704384	112.0
61.758335	424.0
61.812313	172.0
61.827965	152.0
61.840485	156.0
61.889019	128.0
61.906158	156.0
62.011215	116.0
62.028458	268.0
62.039165	164.0
62.121025	144.0
62.18375	192.0
62.24498	156.0
62.272224	324.0
62.319881	176.0
62.357635	180.0
62.380104	116.0
62.391109	168.0
62.403687	176.0
62.466599	84.0
62.494919	100.0
62.533672	128.0
62.548431	156.0
62.570469	124.0
62.592514	176.0
62.609837	200.0
62.6399	188.0
62.663399	120.0
62.674427	44.0
62.697075	184.0
62.728016	304.0
62.743782	120.0
62.756371	144.0
62.791088	176.0
62.8027	240.0
62.836838	48.0
62.879444	252.0
62.913403	180.0
62.936279	104.0
62.969955	184.0
62.981361	384.0
63.019997	148.0
63.03896	112.0
63.10004	200.0
63.124329	72.0
63.198517	40.0
63.223469	176.0
63.235519	144.0
63.258995	108.0
63.2794	116.0
63.296818	212.0
63.346333	200.0
63.358074	232.0
63.383945	256.0
63.463203	160.0
63.49968	176.0
63.551197	124.0
63.564121	272.0
63.586945	72.0
63.599644	152.0
63.65255	152.0
63.672684	116.0
63.693573	132.0
63.7509	156.0
63.754208	128.0
63.774372	128.0
63.793812	176.0
63.812527	180.0
63.832329	164.0
63.850693	64.0
63.863419	176.0
63.896828	132.0
63.960484	136.0
64.013023	32.0
64.08754	180.0
64.129333	128.0
64.160118	128.0
64.194702	84.0
64.207458	64.0
64.223412	76.0
64.274467	116.0
64.291138	224.0
64.309647	180.0
64.326797	188.0
64.397171	56.0
64.422958	100.0
64.443008	172.0
64.49675	160.0
64.529884	168.0
64.562019	180.0
64.589211	148.0
64.610008	60.0
64.640411	124.0
64.698547	176.0
64.717247	180.0
64.731659	160.0
64.773308	136.0
64.85022	40.0
64.890297	148.0
64.920769	152.0
64.978516	64.0
65.032127	168.0
65.061974	36.0
65.08606	132.0
65.10051	144.0
65.156425	168.0
65.180664	292.0
65.19738	216.0
65.219406	160.0
65.253174	188.0
65.307846	176.0
65.324417	188.0
65.33989	148.0
65.35054	180.0
65.365059	172.0
65.383469	224.0
65.438202	132.0
65.479408	116.0
65.500969	140.0
65.524277	256.0
65.541298	200.0
65.567841	196.0
65.625114	292.0
65.646866	156.0
65.671883	136.0
65.686401	128.0
65.761452	204.0
65.776695	192.0
65.831665	140.0
65.855896	160.0
65.918907	88.0
65.939919	204.0
65.973976	188.0
66.012672	180.0
66.067665	188.0
66.123146	140.0
66.140488	168.0
66.168015	156.0
66.194565	120.0
66.240028	180.0
66.26033	220.0
66.299225	152.0
66.367966	208.0
66.389801	156.0
66.411095	184.0
66.4403	60.0
66.46788	184.0
66.544357	240.0
66.559113	128.0
66.573402	172.0
66.604263	80.0
66.623756	52.0
66.661133	220.0
66.742409	144.0
66.75502	236.0
66.784088	140.0
66.804932	164.0
66.830246	104.0
66.862793	180.0
66.909271	148.0
66.934425	48.0
66.953835	192.0
66.968628	212.0
66.988174	156.0
67.017029	124.0
67.038506	140.0
67.129982	216.0
67.147926	156.0
67.182182	180.0
67.209183	124.0
67.24276	160.0
67.278473	144.0
67.2948	196.0
67.337257	148.0
67.35849	168.0
67.375237	160.0
67.433662	112.0
67.45237	144.0
67.472893	164.0
67.494148	136.0
67.519951	160.0
67.579208	140.0
67.612724	120.0
67.633217	96.0
67.679054	136.0
67.703621	132.0
67.720001	276.0
67.749489	100.0
67.792908	128.0
67.805199	152.0
67.823235	124.0
67.840912	168.0
67.893738	160.0
67.908501	144.0
67.928185	164.0
67.939667	148.0
67.959351	160.0
67.990532	120.0
68.020081	132.0
68.044708	124.0
68.070976	244.0
68.149902	168.0
68.21228	180.0
68.225433	144.0
68.241875	164.0
68.261604	68.0
68.274765	96.0
68.302727	112.0
68.319176	148.0
68.330696	168.0
68.348793	164.0
68.3843	188.0
68.408051	108.0
68.459244	176.0
68.474251	136.0
68.479919	124.0
68.48436	188.0
68.500267	36.0
68.526772	184.0
68.557938	192.0
68.599144	132.0
68.661804	128.0
68.70977	176.0
68.769058	208.0
68.828117	160.0
68.845818	132.0
68.859871	128.0
68.882996	104.0
68.89621	120.0
68.925949	200.0
68.944702	220.0
68.959358	168.0
69.049942	112.0
69.075676	144.0
69.101227	152.0
69.119431	196.0
69.155075	216.0
69.174049	132.0
69.236504	328.0
69.266785	136.0
69.301086	144.0
69.391083	156.0
69.415955	40.0
69.44249	164.0
69.486397	148.0
69.56031	172.0
69.588531	140.0
69.620361	360.0
69.643761	140.0
69.680473	124.0
69.698158	72.0
69.753006	188.0
69.767899	180.0
69.836151	136.0
69.855171	184.0
69.877739	124.0
69.912689	112.0
69.930031	248.0
69.955963	152.0
69.987206	144.0
70.015907	144.0
70.047562	160.0
70.067551	148.0
70.089211	188.0
70.159218	176.0
70.170433	160.0
70.186546	164.0
70.277641	128.0
70.307678	132.0
70.327881	168.0
70.35376	172.0
70.37278	164.0
70.401772	156.0
70.433449	292.0
70.457962	184.0
70.478546	176.0
70.556572	168.0
70.609451	180.0
70.676147	312.0
70.698761	176.0
70.730263	156.0
70.755669	400.0
70.785812	120.0
70.80088	140.0
70.912506	200.0
70.93158	92.0
70.946671	84.0
71.003677	88.0
71.059631	204.0
71.075958	196.0
71.095955	212.0
71.137924	328.0
71.151352	140.0
71.168144	124.0
71.193329	164.0
71.212334	128.0
71.272232	160.0
71.277992	152.0
71.286377	156.0
71.291214	212.0
71.309258	116.0
71.336159	196.0
71.354652	148.0
71.376511	260.0
71.42865	140.0
71.447151	128.0
71.463982	204.0
71.475761	184.0
71.492584	116.0
71.615494	144.0
71.634026	96.0
71.654243	72.0
71.677834	200.0
71.70311	180.0
71.733452	180.0
71.751358	184.0
71.8144	84.0
71.851509	132.0
71.888634	176.0
71.954468	124.0
72.010193	108.0
72.064255	120.0
72.077774	144.0
72.10746	176.0
72.135239	152.0
72.172432	220.0
72.189346	188.0
72.207947	144.0
72.229935	112.0
72.241776	96.0
72.263771	132.0
72.378876	104.0
72.393501	44.0
72.422913	168.0
72.434715	136.0
72.47374	164.0
72.512718	164.0
72.553398	36.0
72.570351	136.0
72.585617	200.0
72.614403	164.0
72.639893	160.0
72.664078	172.0
72.680611	180.0
72.694183	124.0
72.709457	108.0
72.731529	220.0
72.75869	232.0
72.805153	176.0
72.838509	104.0
72.869003	156.0
72.904045	176.0
72.922951	64.0
72.93367	208.0
72.971069	64.0
72.985535	140.0
73.006401	144.0
73.00882	180.0
73.037399	100.0
73.053505	172.0
73.066315	112.0
73.095245	212.0
73.121544	208.0
73.141197	236.0
73.188866	136.0
73.245827	144.0
73.275734	148.0
73.333679	184.0
73.366066	124.0
73.379654	128.0
73.399117	220.0
73.412109	144.0
73.4394	172.0
73.476929	164.0
73.497406	260.0
73.541779	276.0
73.557137	124.0
73.589577	164.0
73.634735	100.0
73.668144	128.0
73.681808	148.0
73.767265	184.0
73.786064	232.0
73.81955	172.0
73.825531	100.0
73.831291	180.0
73.876823	188.0
73.912437	200.0
73.946449	196.0
74.04789	152.0
74.062469	168.0
74.099281	124.0
74.130249	220.0
74.13768	168.0
74.151154	164.0
74.184975	120.0
74.218216	176.0
74.244995	80.0
74.274712	172.0
74.292526	256.0
74.316994	152.0
74.343903	184.0
74.368347	116.0
74.418983	92.0
74.441757	160.0
74.48156	136.0
74.504196	60.0
74.521378	36.0
74.537849	132.0
74.573242	156.0
74.600433	204.0
74.636543	180.0
74.653305	160.0
74.676094	132.0
74.691574	112.0
74.719101	136.0
74.736313	216.0
74.762123	116.0
74.798271	148.0
74.810318	132.0
74.872139	200.0
74.876785	180.0
74.903366	124.0
74.939133	180.0
74.950119	204.0
75.020615	184.0
75.048088	124.0
75.064293	120.0
75.089478	168.0
75.10759	208.0
75.122147	132.0
75.146278	164.0
75.169586	184.0
75.239609	116.0
75.270683	304.0
75.301773	168.0
75.382973	144.0
75.408897	208.0
75.431374	220.0
75.450386	140.0
75.508705	160.0
75.543777	140.0
75.562042	144.0
75.581841	48.0
75.59742	180.0
75.628571	136.0
75.653107	116.0
75.706482	128.0
75.739395	88.0
75.79657	156.0
75.817368	148.0
75.833466	152.0
75.888443	160.0
75.92659	132.0
75.949142	116.0
75.961281	116.0
75.985573	256.0
76.00061	156.0
76.029831	140.0
76.061935	68.0
76.178284	112.0
76.223457	176.0
76.259956	64.0
76.282555	120.0
76.298203	176.0
76.341675	132.0
76.416138	248.0
76.486084	184.0
76.505234	180.0
76.527664	168.0
76.557724	180.0
76.564026	152.0
76.641312	344.0
76.671448	228.0
76.683792	192.0
76.698608	204.0
76.748611	360.0
76.771446	108.0
76.79451	148.0
76.80954	160.0
76.83812	204.0
76.859062	84.0
76.914909	108.0
76.979515	164.0
77.019684	140.0
77.093063	164.0
77.152496	124.0
77.180473	124.0
77.199486	220.0
77.267326	104.0
77.307602	232.0
77.36676	128.0
77.386826	172.0
77.406212	136.0
77.429993	212.0
77.436188	136.0
77.456711	144.0
77.474525	192.0
77.494507	168.0
77.598961	160.0
77.665604	192.0
77.688408	172.0
77.770889	136.0
77.791954	172.0
77.833374	224.0
77.861832	184.0
77.880196	136.0
77.889618	104.0
77.916649	132.0
77.928947	176.0
77.979912	56.0
78.020973	156.0
78.03968	84.0
78.055511	144.0
78.0942	68.0
78.126595	192.0
78.141701	44.0
78.182892	132.0
78.207726	240.0
78.222656	112.0
78.250397	232.0
78.270195	288.0
78.321266	176.0
78.367073	160.0
78.395271	156.0
78.411133	128.0
78.435806	220.0
78.462257	128.0
78.516273	228.0
78.536324	192.0
78.591011	312.0
78.603363	220.0
78.62101	168.0
78.668373	164.0
78.706299	168.0
78.767563	164.0
78.788765	124.0
78.855919	192.0
78.930168	148.0
78.949623	176.0
78.962006	140.0
78.983231	148.0
79.020859	164.0
79.045151	120.0
79.057541	84.0
79.07711	144.0
79.119499	192.0
79.175644	192.0
79.232941	144.0
79.247017	124.0
79.26651	164.0
79.287781	140.0
79.300186	156.0
79.318474	164.0
79.349823	228.0
79.374649	124.0
79.387062	136.0
79.415436	124.0
79.444817	236.0
79.461563	88.0
79.497017	180.0
79.525497	160.0
79.564507	116.0
79.61245	124.0
79.720375	140.0
79.733261	260.0
79.815041	212.0
79.852005	160.0
79.879066	148.0
79.905754	176.0
79.921768	172.0
79.952019	152.0
79.966263	236.0
80.021446	168.0
80.043129	68.0
80.067749	180.0
80.104546	196.0
80.140785	128.0
80.174644	160.0
80.193359	88.0
80.206726	52.0
80.242386	68.0
80.271446	196.0
80.303017	152.0
80.318893	160.0
80.386971	144.0
80.452629	176.0
80.478081	164.0
80.50042	116.0
80.533272	228.0
80.590096	188.0
80.620819	584.0
80.67981	168.0
80.704842	84.0
80.763855	144.0
80.776382	160.0
80.825203	108.0
80.853935	116.0
80.914185	128.0
80.935669	28.0
80.959892	176.0
80.975067	152.0
81.041351	128.0
81.113045	140.0
81.176964	240.0
81.193733	132.0
81.261902	148.0
81.295998	272.0
81.33548	144.0
81.38755	248.0
81.403709	196.0
81.421722	252.0
81.453949	132.0
81.472374	380.0
81.500717	140.0
81.525497	152.0
81.552834	152.0
81.655281	176.0
81.712883	168.0
81.736595	160.0
81.809662	156.0
81.837082	192.0
81.867645	204.0
81.894714	156.0
81.925339	200.0
81.939751	124.0
81.954163	112.0
81.970268	124.0
81.975227	116.0
82.009544	340.0
82.014275	124.0
82.055183	172.0
82.082146	64.0
82.116417	204.0
82.158455	196.0
82.181358	284.0
82.204697	128.0
82.274536	180.0
82.291466	136.0
82.305908	100.0
82.3452	164.0
82.373711	200.0
82.410675	80.0
82.434166	108.0
82.45224	44.0
82.477249	148.0
82.504662	176.0
82.523605	176.0
82.5354	332.0
82.576996	88.0
82.598701	36.0
82.621674	184.0
82.744293	224.0
82.767021	348.0
82.783318	160.0
82.820358	112.0
82.846718	108.0
82.868462	136.0
82.901695	140.0
82.930077	104.0
82.94989	292.0
82.977211	212.0
82.997154	76.0
83.00985	108.0
83.074066	168.0
83.109619	60.0
83.128319	340.0
83.173462	224.0
83.20134	208.0
83.234871	148.0
83.28199	140.0
83.310555	204.0
83.331139	188.0
83.360214	28.0
83.423294	104.0
83.442017	168.0
83.471581	276.0
83.555344	272.0
83.572914	204.0
83.602898	192.0
83.645775	128.0
83.671265	144.0
83.704041	272.0
83.720428	144.0
83.742287	164.0
83.762062	140.0
83.778717	160.0
83.793289	124.0
83.807869	76.0
83.822449	116.0
83.902756	132.0
83.940941	36.0
83.959526	248.0
83.986534	216.0
84.014771	132.0
84.048569	152.0
84.077087	420.0
84.092369	76.0
84.109802	116.0
84.126045	116.0
84.174522	148.0
84.194611	164.0
84.225662	164.0
84.285957	196.0
84.304863	344.0
84.357239	104.0
84.38781	144.0
84.410103	184.0
84.434036	160.0
84.54747	156.0
84.58007	172.0
84.633507	56.0
84.66098	64.0
84.688454	136.0
84.725365	188.0
84.747078	108.0
84.785561	132.0
84.835716	380.0
84.864388	80.0
84.882721	148.0
84.960136	176.0
85.016647	112.0
85.036835	172.0
85.068451	172.0
85.078903	48.0
85.084038	168.0
85.119446	152.0
85.224152	116.0
85.290314	152.0
85.309074	256.0
85.329826	284.0
85.352829	104.0
85.40741	136.0
85.454163	132.0
85.486855	140.0
85.512436	180.0
85.529449	124.0
85.568108	136.0
85.61599	108.0
85.634407	208.0
85.671249	152.0
85.696526	172.0
85.752327	120.0
85.776794	168.0
85.818054	184.0
85.834488	176.0
85.867569	136.0
85.912758	128.0
85.936356	208.0
85.997017	308.0
86.040108	196.0
86.053032	136.0
86.065956	88.0
86.093658	200.0
86.149071	116.0
86.222984	208.0
86.24147	140.0
86.289536	152.0
86.302475	56.0
86.339462	76.0
86.370903	184.0
86.431961	80.0
86.450462	124.0
86.476273	244.0
86.507843	316.0
86.524506	144.0
86.570267	256.0
86.61525	176.0
86.638718	180.0
86.681953	168.0
86.728287	140.0
86.744972	140.0
86.76722	168.0
86.783768	160.0
86.815849	208.0
86.820412	140.0
86.852272	148.0
86.871078	192.0
86.941589	176.0
86.983765	72.0
87.012123	104.0
87.062263	96.0
87.121239	176.0
87.149574	212.0
87.231354	124.0
87.260674	140.0
87.28904	156.0
87.331337	208.0
87.355949	204.0
87.39502	212.0
87.409904	116.0
87.438156	332.0
87.454575	108.0
87.50856	164.0
87.6045	104.0
87.622177	120.0
87.704178	104.0
87.726547	124.0
87.743324	116.0
87.761971	144.0
87.78994	124.0
87.812325	64.0
87.83638	152.0
87.935471	392.0
87.960938	224.0
88.004066	212.0
88.032555	176.0
88.046486	244.0
88.062439	92.0
88.102577	188.0
88.145149	132.0
88.168938	184.0
88.189491	184.0
88.206322	144.0
88.245583	36.0
88.259743	132.0
88.288589	168.0
88.315269	148.0
88.378334	148.0
88.41581	136.0
88.450142	212.0
88.506126	212.0
88.546867	148.0
88.567474	144.0
88.616035	148.0
88.635818	192.0
88.651848	124.0
88.773643	120.0
88.80056	160.0
88.835617	352.0
88.936584	156.0
88.968788	84.0
88.992516	188.0
89.040634	216.0
89.115807	248.0
89.149117	112.0
89.179184	128.0
89.244987	180.0
89.293877	120.0
89.35183	144.0
89.393593	184.0
89.429352	160.0
89.469368	140.0
89.493362	104.0
89.526146	264.0
89.557396	188.0
89.606377	104.0
89.625214	152.0
89.640289	160.0
89.653481	168.0
89.679871	104.0
89.725113	132.0
89.740196	128.0
89.764709	104.0
89.7798	152.0
89.796776	116.0
89.848289	168.0
89.934875	168.0
90.068581	168.0
90.080917	140.0
90.136597	168.0
90.161171	116.0
90.197914	208.0
90.250015	108.0
90.299271	188.0
90.329453	176.0
90.382431	136.0
90.409233	148.0
90.446777	40.0
90.489647	192.0
90.526299	368.0
90.571426	232.0
90.679764	116.0
90.742195	188.0
90.766304	160.0
90.785934	152.0
90.801109	176.0
90.82766	96.0
90.883316	112.0
90.918739	112.0
90.932281	116.0
90.949104	192.0
91.026947	128.0
91.080132	148.0
91.104828	100.0
91.149261	172.0
91.173233	96.0
91.201744	140.0
91.220749	116.0
91.26638	64.0
91.293007	128.0
91.323433	192.0
91.359581	44.0
91.376701	192.0
91.390022	164.0
91.451378	168.0
91.47567	172.0
91.496613	148.0
91.551834	164.0
91.633743	164.0
91.684517	188.0
91.746193	104.0
91.772888	188.0
91.797676	184.0
91.811028	180.0
91.830612	164.0
91.873268	172.0
91.898773	116.0
91.91964	184.0
91.934868	136.0
91.971245	140.0
92.005661	244.0
92.027542	208.0
92.049927	132.0
92.067429	328.0
92.084801	156.0
92.102432	220.0
92.118774	192.0
92.164192	308.0
92.192856	168.0
92.240585	136.0
92.30352	212.0
92.43956	168.0
92.452957	132.0
92.469254	188.0
92.521866	204.0
92.542923	112.0
92.579308	112.0
92.594475	148.0
92.680954	136.0
92.726837	120.0
92.756714	156.0
92.781158	176.0
92.818855	216.0
92.839333	308.0
92.842239	192.0
92.881432	160.0
92.895576	128.0
92.940575	124.0
92.948341	56.0
92.954353	152.0
93.008003	200.0
93.053627	308.0
93.081757	184.0
93.110565	204.0
93.139374	132.0
93.173958	140.0
93.194626	132.0
93.221992	80.0
93.256584	192.0
93.302727	104.0
93.352722	72.0
93.375801	312.0
93.393112	188.0
93.423889	192.0
93.45549	184.0
93.492531	196.0
93.519279	316.0
93.533577	128.0
93.564384	188.0
93.647621	160.0
93.694481	276.0
93.731956	132.0
93.763779	148.0
93.807129	160.0
93.857254	160.0
93.902115	168.0
93.91761	164.0
93.934219	192.0
93.953697	84.0
93.972992	148.0
93.992043	252.0
94.025093	148.0
94.065437	248.0
94.096947	180.0
94.141411	176.0
94.179558	80.0
94.201454	360.0
94.249115	208.0
94.264572	208.0
94.297424	96.0
94.316757	152.0
94.342529	144.0
94.362038	180.0
94.407486	108.0
94.45018	148.0
94.46566	124.0
94.488876	144.0
94.554665	160.0
94.568253	200.0
94.59404	152.0
94.639793	152.0
94.665909	140.0
94.699883	160.0
94.726418	160.0
94.756065	120.0
94.820007	64.0
94.87429	168.0
94.93634	124.0
94.954933	272.0
95.069679	400.0
95.145256	108.0
95.168427	120.0
95.175476	156.0
95.209496	128.0
95.249725	192.0
95.31675	184.0
95.371254	188.0
95.384857	204.0
95.398468	40.0
95.412079	188.0
95.437355	156.0
95.476242	32.0
95.493401	156.0
95.536545	144.0
95.550163	216.0
95.567673	176.0
95.622169	128.0
95.651367	164.0
95.674728	212.0
95.718208	108.0
95.749847	180.0
95.763565	116.0
95.769501	72.0
95.779121	164.0
95.824692	188.0
95.869514	184.0
95.894852	172.0
95.920189	112.0
95.961891	216.0
96.004669	160.0
96.034302	160.0
96.07885	1748.0
96.109375	124.0
96.124985	112.0
96.160118	40.0
96.17749	160.0
96.203369	152.0
96.292885	76.0
96.322182	108.0
96.348091	200.0
96.398384	72.0
96.417931	120.0
96.44529	48.0
96.48439	92.0
96.533745	248.0
96.550873	92.0
96.572388	140.0
96.611511	188.0
96.660431	148.0
96.674133	88.0
96.69957	144.0
96.723991	124.0
96.752213	236.0
96.800247	528.0
96.828796	128.0
96.850342	144.0
96.883644	160.0
96.930672	140.0
96.958107	132.0
96.979668	132.0
97.01413	200.0
97.042122	284.0
97.062012	228.0
97.086288	1036.0
97.118958	116.0
97.144386	384.0
97.192818	148.0
97.222878	200.0
97.270447	84.0
97.292679	128.0
97.304611	200.0
97.381912	124.0
97.434952	188.0
97.491936	120.0
97.545708	232.0
97.576462	48.0
97.590225	116.0
97.627586	116.0
97.662987	204.0
97.720039	148.0
97.739716	272.0
97.760536	76.0
97.788918	116.0
97.82238	108.0
97.847977	148.0
97.862434	340.0
97.888474	136.0
97.903114	124.0
97.918022	168.0
97.942505	136.0
97.989693	164.0
98.021317	140.0
98.052811	200.0
98.060013	132.0
98.066025	152.0
98.095428	21976.0
98.1455	104.0
98.160843	108.0
98.173904	184.0
98.212555	44.0
98.23896	104.0
98.271416	76.0
98.288818	92.0
98.299278	88.0
98.30529	132.0
98.360558	176.0
98.386215	204.0
98.40596	100.0
98.428902	168.0
98.445457	84.0
98.463226	152.0
98.477058	124.0
98.497246	216.0
98.541771	200.0
98.567932	120.0
98.583748	96.0
98.613388	164.0
98.63118	160.0
98.670723	116.0
98.7276	204.0
98.745041	200.0
98.807419	172.0
98.842285	164.0
98.85675	264.0
98.896774	104.0
98.918015	56.0
98.935837	124.0
98.95829	188.0
99.017021	140.0
99.034851	172.0
99.098358	2504.0
99.122383	176.0
99.151749	196.0
99.19883	172.0
99.227081	108.0
99.264908	152.0
99.290535	152.0
99.30442	36.0
99.318306	164.0
99.364548	128.0
99.399612	224.0
99.447281	176.0
99.4711	152.0
99.488968	160.0
99.517418	180.0
99.534637	192.0
99.562439	60.0
99.59819	156.0
99.630791	156.0
99.668915	160.0
99.690987	176.0
99.749153	132.0
99.775055	44.0
99.848885	288.0
99.920898	196.0
99.93338	160.0
99.962036	64.0
99.981934	64.0
100.037827	204.0
100.102425	284.0
100.155159	148.0
100.185043	148.0
100.202972	140.0
100.21891	104.0
100.289246	124.0
100.323349	120.0
100.368416	60.0
100.412285	144.0
100.44857	316.0
100.483788	152.0
100.521492	168.0
100.54303	176.0
100.583885	176.0
100.606979	120.0
100.630714	132.0
100.691711	164.0
100.721672	116.0
100.741104	132.0
100.774612	72.0
100.845955	164.0
100.880592	160.0
100.896156	156.0
100.922447	200.0
100.929443	92.0
100.93689	288.0
101.010811	100.0
101.041634	108.0
101.085564	172.0
101.10157	172.0
101.121338	196.0
101.152809	192.0
101.227692	180.0
101.243713	160.0
101.259735	96.0
101.273758	128.0
101.287781	116.0
101.305809	144.0
101.331856	216.0
101.361916	152.0
101.383026	112.0
101.445969	128.0
101.486221	272.0
101.506248	144.0
101.608543	44.0
101.650681	104.0
101.692825	148.0
101.735046	180.0
101.750198	160.0
101.783173	64.0
101.817924	184.0
101.863083	132.0
101.909805	188.0
101.976036	48.0
101.992119	108.0
102.016884	324.0
102.025444	104.0
102.035164	136.0
102.100693	160.0
102.122818	132.0
102.167076	204.0
102.201279	176.0
102.215363	120.0
102.254524	236.0
102.291847	104.0
102.401131	176.0
102.448929	140.0
102.516151	204.0
102.535576	56.0
102.55835	148.0
102.577911	172.0
102.630821	164.0
102.658562	128.0
102.700272	176.0
102.731171	192.0
102.749329	196.0
102.773781	172.0
102.836105	68.0
102.872437	84.0
102.910995	124.0
102.954002	172.0
102.989563	96.0
103.053368	3748.0
103.083305	192.0
103.115852	192.0
103.133026	28.0
103.151222	64.0
103.171165	148.0
103.188057	164.0
103.215919	164.0
103.23008	88.0
103.269699	192.0
103.3899	68.0
103.456696	140.0
103.48764	128.0
103.53347	236.0
103.554359	212.0
103.592384	252.0
103.606064	244.0
103.622078	128.0
103.665329	48.0
103.685593	60.0
103.720055	60.0
103.746407	432.0
103.799126	140.0
103.835632	120.0
103.877617	132.0
103.914742	180.0
103.935036	184.0
103.963448	208.0
103.98983	76.0
104.011505	124.0
104.046623	544.0
104.052498	128.0
104.14415	172.0
104.194939	192.0
104.255898	80.0
104.280289	152.0
104.328056	136.0
104.336365	68.0
104.340485	176.0
104.391212	180.0
104.418549	160.0
104.489746	108.0
104.519798	264.0
104.533607	140.0
104.560966	72.0
104.581322	160.0
104.629906	180.0
104.650536	124.0
104.664795	128.0
104.703484	196.0
104.730263	164.0
104.758324	152.0
104.888908	124.0
104.940773	192.0
104.999977	152.0
105.046227	192.0
105.070412	160.0
105.103058	80.0
105.127541	132.0
105.204147	136.0
105.234375	168.0
105.258194	92.0
105.272491	140.0
105.30925	136.0
105.343369	148.0
105.372581	200.0
105.393013	32.0
105.433884	124.0
105.460457	76.0
105.491119	184.0
105.52803	152.0
105.583649	144.0
105.622444	220.0
105.639618	104.0
105.660866	108.0
105.695648	176.0
105.727325	176.0
105.766388	156.0
105.795944	160.0
105.810272	132.0
105.849693	32.0
105.922913	200.0
105.961838	200.0
105.975517	136.0
106.023315	188.0
106.091957	164.0
106.160675	132.0
106.195541	164.0
106.245239	176.0
106.312485	104.0
106.361748	156.0
106.384331	212.0
106.403534	124.0
106.421402	208.0
106.439766	100.0
106.505486	152.0
106.523422	192.0
106.575607	168.0
106.597946	120.0
106.612328	88.0
106.704834	172.0
106.723335	164.0
106.752129	180.0
106.766525	84.0
106.807655	180.0
106.821365	172.0
106.868889	168.0
106.883781	176.0
106.927147	164.0
106.982903	128.0
107.025818	140.0
107.059258	724.0
107.091225	396.0
107.124054	132.0
107.159698	40.0
107.182365	184.0
107.229767	200.0
107.293671	244.0
107.355774	208.0
107.440102	100.0
107.456612	148.0
107.517891	184.0
107.565208	200.0
107.618225	160.0
107.696083	108.0
107.751862	208.0
107.781929	188.0
107.87368	216.0
107.941177	188.0
107.956505	216.0
107.975418	136.0
108.01442	208.0
108.05658	264.0
108.079514	332.0
108.113731	120.0
108.13868	156.0
108.188255	184.0
108.239456	352.0
108.292809	220.0
108.325912	160.0
108.34565	184.0
108.360153	172.0
108.401596	76.0
108.446701	152.0
108.478287	160.0
108.523903	164.0
108.557076	112.0
108.596329	164.0
108.63797	180.0
108.653236	56.0
108.666771	168.0
108.681541	164.0
108.703522	176.0
108.732605	192.0
108.74588	396.0
108.766632	96.0
108.785789	176.0
108.814384	76.0
108.834991	236.0
108.858818	140.0
108.91758	172.0
108.931725	168.0
108.955849	192.0
108.984032	376.0
109.044243	115560.0
109.094147	252.0
109.116592	208.0
109.160568	100.0
109.192436	268.0
109.22654	100.0
109.250702	112.0
109.278358	148.0
109.29821	224.0
109.301788	172.0
109.312523	308.0
109.3647	244.0
109.385498	1060.0
109.424362	172.0
109.458984	176.0
109.473557	232.0
109.493484	120.0
109.548546	52.0
109.566063	88.0
109.579796	132.0
109.608307	76.0
109.651512	192.0
109.711388	204.0
109.726929	204.0
109.732887	124.0
109.740799	208.0
109.756035	156.0
109.783035	112.0
109.812157	160.0
109.867516	32.0
109.893837	156.0
109.952942	156.0
109.98027	240.0
110.004463	148.0
110.019005	216.0
110.047272	8824.0
110.09481	4316.0
110.126999	132.0
110.155174	96.0
110.170235	64.0
110.246948	208.0
110.262009	148.0
110.270119	120.0
110.291443	80.0
110.34182	112.0
110.367416	176.0
110.380997	72.0
110.41317	184.0
110.434677	128.0
110.471283	96.0
110.493332	104.0
110.524529	88.0
110.547104	220.0
110.601028	144.0
110.620392	112.0
110.667091	108.0
110.705086	204.0
110.721687	148.0
110.76078	124.0
110.803116	80.0
110.843407	148.0
110.875938	336.0
110.912506	220.0
110.933067	252.0
110.958717	124.0
110.984421	164.0
111.046967	160.0
111.05764	92.0
111.099602	320.0
111.135445	184.0
111.183716	176.0
111.204704	100.0
111.224129	164.0
111.261383	116.0
111.288673	32.0
111.309677	140.0
111.345375	96.0
111.366379	172.0
111.389488	44.0
111.418098	136.0
111.458824	36.0
111.512764	156.0
111.538689	128.0
111.570328	156.0
111.635406	176.0
111.653633	168.0
111.717438	72.0
111.734268	360.0
111.748604	172.0
111.80014	216.0
111.831505	116.0
111.893417	136.0
111.919495	80.0
111.957397	120.0
111.986885	132.0
112.00795	76.0
112.025948	100.0
112.039551	128.0
112.110619	1652.0
112.138588	144.0
112.16449	280.0
112.199722	84.0
112.273529	208.0
112.338188	104.0
112.364235	172.0
112.377853	136.0
112.432182	200.0
112.524643	108.0
112.552094	184.0
112.571098	352.0
112.623741	208.0
112.628975	208.0
112.706291	136.0
112.723198	144.0
112.737991	120.0
112.780144	140.0
112.805626	144.0
112.827667	132.0
112.888092	204.0
112.945595	240.0
113.003716	200.0
113.019241	164.0
113.074265	264.0
113.111412	512.0
113.161964	168.0
113.190704	148.0
113.237297	188.0
113.259186	84.0
113.299736	168.0
113.345345	88.0
113.414398	172.0
113.474648	172.0
113.502213	148.0
113.548866	104.0
113.576111	208.0
113.608261	100.0
113.707993	168.0
113.731346	152.0
113.784721	140.0
113.820511	180.0
113.852364	176.0
113.869354	132.0
113.941582	116.0
113.971329	128.0
113.988327	192.0
114.007454	124.0
114.043587	56.0
114.079727	148.0
114.096405	128.0
114.125587	196.0
114.22023	56.0
114.271141	112.0
114.300926	124.0
114.320084	72.0
114.403198	80.0
114.522346	172.0
114.585266	172.0
114.648048	160.0
114.677887	264.0
114.693054	216.0
114.711998	156.0
114.743599	180.0
114.775955	156.0
114.814034	216.0
114.872681	220.0
114.974358	184.0
115.022453	172.0
115.052299	216.0
115.089638	144.0
115.104584	200.0
115.11953	172.0
115.149429	324.0
115.175064	144.0
115.217789	188.0
115.251289	212.0
115.349319	88.0
115.467896	208.0
115.485001	184.0
115.519234	148.0
115.544899	144.0
115.57058	212.0
115.617661	184.0
115.63308	216.0
115.707565	216.0
115.754669	64.0
115.778229	176.0
115.941055	172.0
116.022507	212.0
116.063797	356.0
116.088387	392.0
116.142967	164.0
116.19838	104.0
116.239151	188.0
116.279922	160.0
116.319336	276.0
116.357201	172.0
116.421623	376.0
116.465607	192.0
116.484161	152.0
116.526711	148.0
116.556961	48.0
116.606544	168.0
116.657524	132.0
116.690231	140.0
116.73539	92.0
116.781891	148.0
116.803452	364.0
116.822693	88.0
116.861526	200.0
116.896729	148.0
116.962944	172.0
117.008659	168.0
117.066254	340.0
117.088341	160.0
117.182785	184.0
117.208977	220.0
117.267166	144.0
117.315247	132.0
117.364182	152.0
117.39653	148.0
117.415939	336.0
117.431038	116.0
117.482811	152.0
117.514168	224.0
117.536751	96.0
117.597588	212.0
117.655464	128.0
117.672737	120.0
117.707283	124.0
117.748314	132.0
117.763435	120.0
117.864975	108.0
117.936028	148.0
117.968719	164.0
117.996826	196.0
118.0271	172.0
118.063034	188.0
118.076759	108.0
118.101997	368.0
118.15255	68.0
118.206642	148.0
118.230453	164.0
118.25692	188.0
118.282402	44.0
118.317039	136.0
118.344666	200.0
118.374443	148.0
118.418816	124.0
118.440475	136.0
118.462944	140.0
118.569176	212.0
118.588882	180.0
118.609497	164.0
118.631172	168.0
118.70845	144.0
118.776466	204.0
118.809982	160.0
118.841553	108.0
118.863251	104.0
118.896812	224.0
118.916954	416.0
118.960922	124.0
118.982635	116.0
119.010864	168.0
119.039093	28.0
119.059334	944.0
119.088799	176.0
119.115112	168.0
119.134659	180.0
119.152908	140.0
119.168159	96.0
119.199844	124.0
119.251213	396.0
119.275917	132.0
119.312767	332.0
119.356361	152.0
119.388977	80.0
119.47599	44.0
119.495567	160.0
119.541267	176.0
119.569557	136.0
119.584793	112.0
119.606964	108.0
119.645744	164.0
119.695824	116.0
119.724136	204.0
119.745865	168.0
119.752716	164.0
119.798195	64.0
119.835236	164.0
119.853653	176.0
119.859962	80.0
119.867065	204.0
119.900612	44.0
119.941444	196.0
119.963875	172.0
119.994347	140.0
120.011787	176.0
120.03141	156.0
120.054741	176.0
120.070671	124.0
120.135605	104.0
120.157928	160.0
120.208115	80.0
120.232117	128.0
120.378387	80.0
120.41552	184.0
120.491974	128.0
120.537857	116.0
120.584709	156.0
120.62529	76.0
120.657318	292.0
120.680801	112.0
120.723679	164.0
120.78595	280.0
120.815552	144.0
120.843994	148.0
120.90818	204.0
120.955605	176.0
120.99501	216.0
121.019829	132.0
121.043472	3244.0
121.08905	204.0
121.115417	204.0
121.163658	132.0
121.187759	148.0
121.255692	144.0
121.273224	108.0
121.288567	56.0
121.343376	328.0
121.366302	188.0
121.458817	200.0
121.464546	128.0
121.575897	156.0
121.606628	116.0
121.640808	56.0
121.662979	164.0
121.743484	340.0
121.768944	140.0
121.835007	192.0
121.85038	68.0
121.867004	184.0
121.981834	128.0
122.044708	428.0
122.098183	616.0
122.138374	48.0
122.175774	148.0
122.293571	136.0
122.338631	132.0
122.354042	72.0
122.371658	188.0
122.45314	124.0
122.533195	188.0
122.558884	152.0
122.596344	160.0
122.622795	72.0
122.756622	148.0
122.796974	100.0
122.812973	248.0
122.86676	200.0
122.885216	216.0
122.909492	44.0
122.929352	200.0
122.955742	276.0
123.00219	156.0
123.026474	112.0
123.059082	8400.0
123.102432	620.0
123.145714	176.0
123.170013	328.0
123.223038	92.0
123.238503	44.0
123.260597	116.0
123.321838	124.0
123.346794	116.0
123.367691	112.0
123.408699	64.0
123.435234	44.0
123.463982	124.0
123.519279	108.0
123.55571	172.0
123.594505	224.0
123.616631	132.0
123.640007	56.0
123.720665	136.0
123.747231	196.0
123.810051	176.0
123.833603	156.0
123.934601	196.0
123.993126	188.0
124.061455	1344.0
124.110992	7076.0
124.157188	52.0
124.241486	128.0
124.289558	192.0
124.348	76.0
124.527847	188.0
124.545616	96.0
124.616356	176.0
124.623253	148.0
124.657921	180.0
124.678925	144.0
124.730049	160.0
124.750053	108.0
124.776733	128.0
124.800652	148.0
124.830101	168.0
124.850113	152.0
124.875694	104.0
124.89238	48.0
124.925743	112.0
124.954285	192.0
124.988045	168.0
125.004921	164.0
125.036507	144.0
125.077065	160.0
125.116455	1444.0
125.164925	148.0
125.217346	128.0
125.241844	44.0
125.257439	96.0
125.273033	104.0
125.287842	68.0
125.329651	224.0
125.369934	312.0
125.391136	204.0
125.431259	88.0
125.482529	200.0
125.543816	120.0
125.584221	184.0
125.602959	100.0
125.623039	52.0
125.719589	148.0
125.739716	208.0
125.756927	160.0
125.774284	196.0
125.808014	176.0
125.832825	72.0
125.861275	216.0
125.947777	236.0
125.955864	128.0
125.964592	212.0
125.99041	60.0
126.039162	212.0
126.069611	116.0
126.125916	316.0
126.161255	116.0
126.206268	180.0
126.275299	108.0
126.293823	184.0
126.311882	152.0
126.337929	112.0
126.369255	120.0
126.398346	144.0
126.416901	192.0
126.505775	164.0
126.557274	136.0
126.582474	204.0
126.718544	176.0
126.850349	148.0
126.857719	120.0
126.864784	160.0
126.946121	152.0
126.974098	124.0
127.017181	116.0
127.052864	1696.0
127.097488	160.0
127.117683	132.0
127.136322	164.0
127.229912	152.0
127.265411	128.0
127.326469	116.0
127.351173	52.0
127.375885	160.0
127.425308	160.0
127.526436	152.0
127.546669	140.0
127.562401	168.0
127.611862	148.0
127.692825	176.0
127.740059	252.0
127.780556	108.0
127.809807	100.0
127.857903	140.0
127.895042	156.0
127.935852	96.0
127.970169	196.0
127.992142	160.0
128.053909	496.0
128.13179	208.0
128.17807	140.0
128.208405	100.0
128.225983	276.0
128.306152	196.0
128.325623	112.0
128.365112	156.0
128.397781	156.0
128.465454	160.0
128.492523	116.0
128.512833	200.0
128.539917	64.0
128.574844	216.0
128.603287	148.0
128.630188	72.0
128.700867	120.0
128.724915	176.0
128.730515	168.0
128.772446	184.0
128.802887	172.0
128.876373	100.0
128.907089	160.0
128.96225	128.0
128.991638	100.0
129.029404	124.0
129.069534	1236.0
129.096588	268.0
129.112473	348.0
129.14241	320.0
129.163498	168.0
129.181595	144.0
129.222321	100.0
129.247208	128.0
129.274368	108.0
129.303787	120.0
129.340225	160.0
129.392853	184.0
129.498505	48.0
129.54155	124.0
129.581009	152.0
129.623108	148.0
129.683624	176.0
129.755463	216.0
129.793121	104.0
129.811264	144.0
129.83168	200.0
129.867966	224.0
129.890656	116.0
130.040176	160.0
130.063614	4100.0
130.12764	180.0
130.142563	224.0
130.189331	156.0
130.244766	104.0
130.306107	160.0
130.383606	188.0
130.417465	136.0
130.488953	116.0
130.52887	36.0
130.560699	72.0
130.603912	196.0
130.634171	120.0
130.660797	132.0
130.685822	48.0
130.739609	156.0
130.798508	140.0
130.888412	144.0
130.936234	88.0
131.009125	124.0
131.071152	2184.0
131.157242	84.0
131.225647	172.0
131.278091	84.0
131.325989	132.0
131.389862	244.0
131.419525	196.0
131.458313	124.0
131.549606	124.0
131.588425	152.0
131.655548	112.0
131.730026	56.0
131.76886	156.0
131.800858	92.0
131.831375	192.0
131.872437	196.0
131.903702	160.0
131.949524	208.0
131.997437	204.0
132.030548	100.0
132.04776	128.0
132.075623	332.0
132.101883	300.0
132.106705	200.0
132.115173	168.0
132.132401	144.0
132.168488	232.0
132.248917	200.0
132.283447	44.0
132.326935	156.0
132.342972	88.0
132.358994	420.0
132.468002	168.0
132.546677	220.0
132.608185	204.0
132.651627	244.0
132.706024	160.0
132.849487	56.0
132.883911	184.0
132.945862	156.0
133.010864	212.0
133.043396	1288.0
133.074844	148.0
133.143845	168.0
133.168564	312.0
133.214508	136.0
133.237488	184.0
133.267349	84.0
133.290619	448.0
133.340897	160.0
133.36618	52.0
133.506424	116.0
133.522522	112.0
133.543228	204.0
133.580032	164.0
133.635239	84.0
133.711182	140.0
133.743774	124.0
133.837082	232.0
133.865616	160.0
134.050552	1720.0
134.105042	80.0
134.127029	156.0
134.159256	132.0
134.204178	392.0
134.303345	168.0
134.384094	132.0
134.436203	172.0
134.492554	176.0
134.538727	128.0
134.561813	176.0
134.610306	180.0
134.716553	196.0
134.752441	128.0
134.887451	172.0
134.934875	300.0
134.977737	196.0
135.024704	192.0
135.056015	19704.0
135.097031	100.0
135.121643	228.0
135.141586	48.0
135.1651	64.0
135.189514	220.0
135.236847	248.0
135.267471	140.0
135.303986	64.0
135.331772	160.0
135.357239	168.0
135.415146	156.0
135.457886	144.0
135.479996	188.0
135.494888	96.0
135.512436	84.0
135.53447	204.0
135.554138	164.0
135.581955	172.0
135.612091	180.0
135.639908	132.0
135.679306	120.0
135.727997	136.0
135.75351	108.0
135.809174	68.0
135.846298	160.0
135.878769	132.0
135.897339	152.0
135.931976	116.0
135.994247	184.0
136.02774	168.0
136.06044	1496.0
136.088684	284.0
136.116592	140.0
136.141083	188.0
136.168289	184.0
136.201263	92.0
136.227768	176.0
136.274963	176.0
136.357147	148.0
136.378723	436.0
136.484009	216.0
136.531509	148.0
136.604599	180.0
136.694992	148.0
136.724625	44.0
136.747894	136.0
136.792114	64.0
136.824707	144.0
136.845398	176.0
136.848587	156.0
136.857956	216.0
136.878265	52.0
136.983078	144.0
137.063156	216.0
137.084045	144.0
137.104736	164.0
137.167175	156.0
137.195145	76.0
137.23558	288.0
137.31041	112.0
137.435379	136.0
137.456268	80.0
137.498398	192.0
137.520767	176.0
137.559082	164.0
137.589432	180.0
137.619781	140.0
137.647476	56.0
137.7202	96.0
137.757584	176.0
137.783279	76.0
137.812164	192.0
137.827682	252.0
137.878448	220.0
137.915939	168.0
137.946869	120.0
138.014679	156.0
138.052948	196.0
138.076584	128.0
138.180374	168.0
138.213501	88.0
138.241592	64.0
138.261597	180.0
138.288391	136.0
138.319412	80.0
138.351593	36.0
138.37178	232.0
138.396088	104.0
138.534027	112.0
138.59285	116.0
138.627991	88.0
138.660812	164.0
138.766296	72.0
138.787399	180.0
138.88356	184.0
138.919754	168.0
138.953934	60.0
138.972702	192.0
139.00087	152.0
139.021988	108.0
139.094742	144.0
139.141693	108.0
139.18631	88.0
139.285965	216.0
139.468689	148.0
139.53186	124.0
139.575729	144.0
139.632828	148.0
139.685104	124.0
139.710449	124.0
139.736328	156.0
139.755157	148.0
139.778687	156.0
139.811493	180.0
139.841446	168.0
139.879135	168.0
139.896378	128.0
139.915207	116.0
139.952881	148.0
139.99292	152.0
140.055374	228.0
140.091843	124.0
140.149506	160.0
140.223801	132.0
140.268585	220.0
140.303955	308.0
140.367233	148.0
140.410065	168.0
140.442184	116.0
140.463104	164.0
140.492615	100.0
140.528015	128.0
140.612961	180.0
140.743484	140.0
140.82486	172.0
140.84436	124.0
140.919968	64.0
141.012924	200.0
141.052841	304.0
141.068268	144.0
141.139786	160.0
141.170532	188.0
141.22966	204.0
141.260406	192.0
141.279343	156.0
141.300629	160.0
141.32193	168.0
141.41658	132.0
141.440262	152.0
141.56337	164.0
141.598907	116.0
141.627319	64.0
141.724457	136.0
141.741043	124.0
141.766144	156.0
141.871216	148.0
141.959137	136.0
142.03978	200.0
142.096725	164.0
142.129944	160.0
142.210632	100.0
142.276947	184.0
142.280899	172.0
142.300598	80.0
142.338837	64.0
142.400574	152.0
142.505112	140.0
142.526489	112.0
142.555008	120.0
142.626587	68.0
142.74176	136.0
142.792755	152.0
142.880768	100.0
142.904556	180.0
142.930664	144.0
142.97081	352.0
143.056702	168.0
143.160339	208.0
143.223572	144.0
143.286667	128.0
143.306961	152.0
143.485123	128.0
143.502411	148.0
143.52626	148.0
143.562027	164.0
143.60257	144.0
143.65744	164.0
143.707535	60.0
143.808807	220.0
143.885376	148.0
143.962311	172.0
144.039383	172.0
144.076416	448.0
144.140579	260.0
144.260437	176.0
144.285538	120.0
144.311844	108.0
144.342926	272.0
144.359665	168.0
144.40303	60.0
144.430298	188.0
144.534851	104.0
144.555832	184.0
144.582153	44.0
144.632263	176.0
144.680298	240.0
144.721008	104.0
144.742249	216.0
144.764099	196.0
144.872604	336.0
144.905426	156.0
144.993881	172.0
145.038986	496.0
145.073441	3484.0
145.128342	296.0
145.144501	136.0
145.205078	160.0
145.269852	140.0
145.300674	160.0
145.316269	208.0
145.346146	160.0
145.399429	104.0
145.43782	192.0
145.481033	92.0
145.517044	136.0
145.560272	156.0
145.579147	176.0
145.661148	192.0
145.693069	324.0
145.733215	212.0
145.766861	80.0
145.786087	108.0
145.838959	64.0
145.879837	124.0
145.911621	180.0
145.936676	156.0
145.973602	216.0
146.002457	92.0
146.021698	96.0
146.051422	4104.0
146.114944	100.0
146.141678	64.0
146.25029	144.0
146.293671	164.0
146.368027	116.0
146.42186	200.0
146.449265	100.0
146.464767	152.0
146.505539	92.0
146.544388	96.0
146.573013	32.0
146.616394	88.0
146.633255	156.0
146.667389	172.0
146.747803	368.0
146.789963	188.0
146.828278	248.0
146.859909	88.0
146.879196	120.0
146.897797	220.0
146.926117	380.0
146.949173	196.0
146.965195	124.0
147.000458	208.0
147.02301	220.0
147.059723	99228.0
147.143829	208.0
147.162506	44.0
147.188126	156.0
147.21936	116.0
147.225876	108.0
147.240463	204.0
147.267746	108.0
147.295517	112.0
147.302719	60.0
147.342712	80.0
147.367706	160.0
147.387787	172.0
147.410446	68.0
147.45752	408.0
147.492554	104.0
147.537949	72.0
147.564011	100.0
147.60022	60.0
147.647003	132.0
147.668152	192.0
147.687042	100.0
147.722092	152.0
147.748093	144.0
147.790939	224.0
147.82814	224.0
147.860199	132.0
147.906998	72.0
147.935806	172.0
147.976395	92.0
148.015091	188.0
148.062134	11512.0
148.119995	124.0
148.194473	124.0
148.249054	124.0
148.273102	280.0
148.305862	60.0
148.334412	160.0
148.377853	144.0
148.423645	188.0
148.450684	160.0
148.486237	176.0
148.525208	176.0
148.566772	116.0
148.634979	120.0
148.679382	60.0
148.70726	124.0
148.757401	200.0
148.777634	144.0
148.804489	172.0
148.837189	140.0
148.870041	128.0
148.889145	116.0
148.910034	288.0
148.940796	260.0
148.969635	284.0
148.996384	96.0
149.018936	188.0
149.075378	46892.0
149.109329	372.0
149.139648	320.0
149.161377	128.0
149.179596	288.0
149.219406	184.0
149.246002	188.0
149.323227	76.0
149.340393	72.0
149.369446	128.0
149.393936	120.0
149.417801	64.0
149.440002	36.0
149.468658	124.0
149.477234	144.0
149.517868	48.0
149.571808	296.0
149.594452	84.0
149.613525	96.0
149.648117	48.0
149.668396	140.0
149.687439	124.0
149.724823	108.0
149.752991	156.0
149.810074	164.0
149.839584	72.0
149.870178	232.0
149.892914	76.0
149.935669	148.0
149.969513	100.0
149.981735	72.0
150.002594	144.0
150.021103	208.0
150.078049	5848.0
150.120789	48.0
150.139145	40.0
150.190979	156.0
150.210693	88.0
150.229385	212.0
150.27034	296.0
150.292831	40.0
150.31723	112.0
150.341629	180.0
150.363266	224.0
150.42218	128.0
150.458801	76.0
150.541565	112.0
150.558182	172.0
150.67128	88.0
150.733994	192.0
150.795914	56.0
150.857849	172.0
150.888184	172.0
150.940155	88.0
150.976837	100.0
150.998367	104.0
151.052658	136.0
151.076797	248.0
151.108932	108.0
151.155655	164.0
151.190186	192.0
151.228836	152.0
151.252792	212.0
151.290039	128.0
151.358597	144.0
151.412476	184.0
151.478607	104.0
151.495758	220.0
151.517807	216.0
151.569336	152.0
151.628082	120.0
151.667297	212.0
151.711426	32.0
151.760452	140.0
151.823669	108.0
151.862442	220.0
151.976303	80.0
152.037659	120.0
152.089203	132.0
152.133896	140.0
152.178482	124.0
152.270905	124.0
152.351089	168.0
152.393723	48.0
152.424454	172.0
152.519058	216.0
152.571762	164.0
152.617783	156.0
152.66597	364.0
152.701019	92.0
152.72316	140.0
152.762512	116.0
152.819397	100.0
152.863953	264.0
152.932266	264.0
152.96431	120.0
152.984009	168.0
153.02832	148.0
153.068176	152.0
153.163773	144.0
153.198257	96.0
153.257385	172.0
153.296814	164.0
153.327774	172.0
153.363831	104.0
153.397675	152.0
153.444717	168.0
153.523621	140.0
153.54335	172.0
153.593704	176.0
153.642029	64.0
153.66423	164.0
153.697296	124.0
153.804901	168.0
153.846863	176.0
153.878967	224.0
153.906998	68.0
153.980621	120.0
154.002441	144.0
154.041122	240.0
154.057602	168.0
154.090179	200.0
154.209991	240.0
154.280029	120.0
154.368225	144.0
154.392944	196.0
154.415207	196.0
154.444885	92.0
154.486938	144.0
154.519104	88.0
154.536423	144.0
154.590866	52.0
154.627991	156.0
154.650269	116.0
154.729675	184.0
154.832153	192.0
154.846786	140.0
154.887985	84.0
154.922668	120.0
155.016815	100.0
155.059326	2548.0
155.11348	72.0
155.171555	132.0
155.331696	92.0
155.372025	316.0
155.455704	156.0
155.560013	152.0
155.608917	184.0
155.651123	236.0
155.751221	88.0
155.808365	184.0
155.910233	40.0
155.927628	36.0
155.979828	192.0
156.059143	392.0
156.089233	228.0
156.114105	32.0
156.17688	148.0
156.235977	176.0
156.370361	156.0
156.42511	88.0
156.477402	172.0
156.497314	140.0
156.51973	80.0
156.654221	48.0
156.719009	120.0
156.773819	208.0
156.81868	128.0
156.838623	192.0
156.8741	192.0
156.907547	152.0
156.945831	132.0
157.018158	172.0
157.068039	136.0
157.135391	180.0
157.157852	116.0
157.192795	112.0
157.265244	132.0
157.335205	208.0
157.354965	156.0
157.407471	172.0
157.435852	208.0
157.702286	224.0
157.737274	244.0
157.877289	156.0
157.897308	164.0
157.927322	136.0
158.019882	80.0
158.046295	948.0
158.091675	196.0
158.11998	32.0
158.165024	132.0
158.187561	124.0
158.22261	72.0
158.301865	172.0
158.330292	48.0
158.372864	176.0
158.416504	152.0
158.436417	196.0
158.503143	108.0
158.547729	76.0
158.570816	224.0
158.625961	192.0
158.680588	192.0
158.845947	280.0
158.877701	308.0
158.901825	52.0
158.929428	120.0
159.000809	72.0
159.056061	388.0
159.081558	144.0
159.101105	148.0
159.119308	120.0
159.172913	156.0
159.293472	196.0
159.313568	132.0
159.333664	76.0
159.3927	112.0
159.43483	172.0
159.474823	164.0
159.521011	172.0
159.567413	52.0
159.65744	160.0
159.705719	56.0
159.740936	40.0
159.789444	172.0
159.831512	92.0
159.89444	172.0
159.924637	132.0
159.987564	140.0
160.04361	212.0
160.052704	152.0
160.098358	208.0
160.155914	132.0
160.20668	116.0
160.236908	68.0
160.272186	116.0
160.299896	104.0
160.34404	188.0
160.38559	176.0
160.405762	196.0
160.452454	92.0
160.473831	64.0
160.514175	116.0
160.533569	128.0
160.570175	248.0
160.630203	160.0
160.662994	44.0
160.704071	144.0
160.774017	84.0
160.810471	136.0
160.872467	40.0
160.935577	176.0
160.963348	100.0
160.998993	140.0
161.029022	120.0
161.070236	1104.0
161.097214	152.0
161.117432	144.0
161.167969	180.0
161.324661	156.0
161.381836	112.0
161.440979	152.0
161.7117	88.0
161.744598	156.0
161.772446	120.0
161.857407	136.0
161.934509	120.0
161.981293	136.0
162.008865	136.0
162.035843	88.0
162.079529	468.0
162.20192	112.0
162.22084	128.0
162.312119	84.0
162.334946	176.0
162.366409	176.0
162.411026	140.0
162.504898	136.0
162.53569	160.0
162.574707	188.0
162.593643	128.0
162.647568	92.0
162.677475	96.0
162.69606	200.0
162.763809	168.0
162.7892	168.0
162.839996	140.0
162.898422	176.0
162.923828	88.0
162.946686	344.0
162.98735	236.0
163.088501	400.0
163.13063	64.0
163.147476	104.0
163.204315	112.0
163.220749	220.0
163.252914	108.0
163.373016	140.0
163.501038	152.0
163.669067	100.0
163.722534	112.0
163.74292	152.0
163.771286	116.0
163.885574	380.0
163.926346	108.0
163.956924	124.0
164.008835	132.0
164.058044	180.0
164.086487	348.0
164.132828	124.0
164.155777	196.0
164.199615	108.0
164.258804	204.0
164.290771	104.0
164.406723	176.0
164.446396	128.0
164.52861	172.0
164.56662	68.0
164.601837	176.0
164.691757	132.0
164.763275	52.0
164.801605	108.0
164.842484	156.0
164.914047	112.0
164.951233	140.0
165.023987	156.0
165.070007	140.0
165.146729	36.0
165.182541	204.0
165.205566	152.0
165.278671	196.0
165.300247	32.0
165.34787	156.0
165.434586	156.0
165.548553	112.0
165.566483	108.0
165.648453	328.0
165.753494	172.0
165.791611	184.0
165.820129	140.0
165.937393	208.0
165.978439	144.0
166.021271	176.0
166.074326	176.0
166.103668	180.0
166.140091	124.0
166.189423	176.0
166.207382	88.0
166.251007	116.0
166.268967	188.0
166.328003	180.0
166.357361	476.0
166.443542	76.0
166.667023	100.0
166.767242	224.0
166.83136	132.0
166.844833	152.0
166.87941	324.0
166.903503	192.0
167.065536	64.0
167.104614	152.0
167.14389	124.0
167.165161	168.0
167.227661	92.0
167.263702	172.0
167.294586	168.0
167.342636	200.0
167.387924	192.0
167.454239	152.0
167.528946	156.0
167.626846	108.0
167.755722	184.0
167.790009	108.0
167.870743	124.0
167.954285	196.0
168.029099	120.0
168.096191	116.0
168.201477	152.0
168.239685	52.0
168.258804	164.0
168.300125	204.0
168.442169	196.0
168.480911	72.0
168.516006	192.0
168.599777	168.0
168.641129	140.0
168.770401	208.0
168.88678	60.0
168.920288	168.0
168.97258	144.0
169.074005	220.0
169.171432	176.0
169.241333	272.0
169.313843	128.0
169.352692	68.0
169.413055	212.0
169.456314	132.0
169.497772	92.0
169.531464	152.0
169.557388	88.0
169.575531	176.0
169.59436	176.0
169.640335	116.0
169.70015	56.0
169.763184	168.0
169.824448	176.0
169.855576	156.0
169.873734	44.0
169.920425	116.0
170.050995	316.0
170.076141	176.0
170.105179	192.0
170.13324	136.0
170.164398	148.0
170.278656	132.0
170.322815	128.0
170.409653	124.0
170.481308	128.0
170.525497	280.0
170.641098	136.0
170.689285	112.0
170.761673	120.0
170.83493	220.0
170.868759	84.0
170.897202	124.0
170.993668	168.0
171.027496	156.0
171.053345	1728.0
171.085648	188.0
171.134247	148.0
171.161514	212.0
171.227997	136.0
171.296799	180.0
171.341278	156.0
171.399933	136.0
171.462479	176.0
171.527634	124.0
171.595428	152.0
171.626709	180.0
171.644958	108.0
171.668732	104.0
171.746674	116.0
171.766373	160.0
171.834061	128.0
171.926651	164.0
171.98674	96.0
172.028503	304.0
172.060837	968.0
172.224365	132.0
172.253738	172.0
172.280518	184.0
172.305344	316.0
172.341919	188.0
172.372787	168.0
172.43573	76.0
172.499405	200.0
172.603317	76.0
172.640289	204.0
172.649002	180.0
172.677322	120.0
172.739319	156.0
172.773331	36.0
172.793823	120.0
172.8358	240.0
172.852676	160.0
172.889191	100.0
172.915253	160.0
172.943222	208.0
172.974457	428.0
172.993439	196.0
173.042511	492.0
173.070145	102640.0
173.143982	160.0
173.175751	88.0
173.217667	104.0
173.2341	92.0
173.267258	152.0
173.31337	140.0
173.350677	228.0
173.368378	112.0
173.405502	164.0
173.445099	160.0
173.458694	68.0
173.500397	492.0
173.538986	160.0
173.604416	136.0
173.634354	80.0
173.677948	76.0
173.704315	188.0
173.725494	244.0
173.750198	144.0
173.767593	188.0
173.799484	72.0
173.818787	52.0
173.865372	112.0
173.922623	192.0
173.947388	216.0
173.97049	348.0
174.011017	204.0
174.072449	12600.0
174.154205	116.0
174.193527	224.0
174.233643	68.0
174.266678	144.0
174.300034	76.0
174.354523	104.0
174.387955	128.0
174.425491	212.0
174.459671	68.0
174.500275	252.0
174.570099	76.0
174.593765	124.0
174.643738	124.0
174.662155	44.0
174.685837	32.0
174.767395	172.0
174.821274	168.0
174.872437	92.0
174.907043	172.0
174.943985	168.0
174.967422	56.0
174.98793	112.0
175.032181	188.0
175.078491	1080.0
175.119217	112.0
175.159668	32.0
175.211548	192.0
175.233337	160.0
175.250565	72.0
175.272812	212.0
175.301956	124.0
175.358719	308.0
175.408951	328.0
175.449982	172.0
175.506866	100.0
175.519958	140.0
175.543549	56.0
175.620972	136.0
175.673737	156.0
175.764755	160.0
175.829407	184.0
175.882202	56.0
175.927078	48.0
175.968338	64.0
176.022125	52.0
176.085571	272.0
176.114563	60.0
176.201752	60.0
176.241379	104.0
176.259872	44.0
176.294235	172.0
176.376465	192.0
176.508362	96.0
176.555969	240.0
176.577118	160.0
176.755814	176.0
176.780838	212.0
176.804657	92.0
176.831116	116.0
176.85759	68.0
176.876114	152.0
176.923767	48.0
176.97673	76.0
177.021744	112.0
177.068405	964.0
177.201859	112.0
177.254852	268.0
177.435104	124.0
177.487427	120.0
177.522598	144.0
177.561874	84.0
177.56691	68.0
177.576935	132.0
177.602585	152.0
177.623398	132.0
177.644623	76.0
177.684418	64.0
177.79274	184.0
177.835678	160.0
177.861252	88.0
177.90065	84.0
177.984344	144.0
178.02417	116.0
178.077805	208.0
178.10141	1800.0
178.215439	100.0
178.281876	88.0
178.430725	136.0
178.505188	52.0
178.542419	152.0
178.598267	140.0
178.638168	140.0
178.675415	124.0
178.71756	176.0
178.763229	52.0
178.811127	124.0
178.835083	168.0
178.890991	144.0
178.938904	176.0
178.96553	56.0
178.984177	260.0
179.073151	196.0
179.083267	148.0
179.112061	212.0
179.215118	172.0
179.261215	144.0
179.311859	88.0
179.426483	72.0
179.479813	144.0
179.643204	196.0
179.757233	172.0
179.810608	124.0
179.853317	216.0
179.884918	320.0
179.938736	192.0
179.972137	148.0
179.99205	244.0
180.069595	104.0
180.098969	32.0
180.118362	280.0
180.135925	168.0
180.272324	168.0
180.36084	108.0
180.39949	184.0
180.410233	140.0
180.459763	156.0
180.498688	164.0
180.596146	172.0
180.681747	40.0
180.751312	132.0
180.863724	116.0
180.930649	204.0
180.986542	156.0
181.002945	240.0
181.037766	140.0
181.074188	192.0
181.150253	196.0
181.230637	100.0
181.260101	32.0
181.27887	68.0
181.305054	136.0
181.424316	168.0
181.571091	104.0
181.654236	152.0
181.782639	108.0
181.858185	188.0
181.969849	148.0
181.974274	196.0
182.005844	160.0
182.027313	156.0
182.044922	144.0
182.10701	196.0
182.148621	148.0
182.193848	144.0
182.2435	176.0
182.27446	132.0
182.309387	76.0
182.330902	180.0
182.43573	200.0
182.492691	128.0
182.518478	180.0
182.54866	160.0
182.578247	152.0
182.618591	132.0
182.640106	144.0
182.658936	96.0
182.718124	68.0
182.736954	240.0
182.761002	192.0
182.788071	184.0
182.863434	136.0
182.898422	92.0
182.919952	156.0
182.944183	156.0
182.973801	72.0
183.019577	52.0
183.058914	7924.0
183.13269	132.0
183.163574	140.0
183.203644	140.0
183.325027	196.0
183.360504	72.0
183.382324	164.0
183.418304	140.0
183.477615	44.0
183.531418	176.0
183.615143	52.0
183.65419	252.0
183.690674	64.0
183.82515	124.0
183.938934	120.0
183.971329	80.0
184.02533	188.0
184.063385	1252.0
184.11174	124.0
184.130646	148.0
184.180557	200.0
184.244095	108.0
184.328537	160.0
184.35759	172.0
184.380737	192.0
184.425156	192.0
184.452194	116.0
184.473816	32.0
184.492737	96.0
184.636047	160.0
184.692856	196.0
184.736237	104.0
184.814606	52.0
184.897003	168.0
184.925552	168.0
184.952621	132.0
185.026276	136.0
185.06662	520.0
185.117783	264.0
185.230133	108.0
185.280304	56.0
185.299271	84.0
185.411697	156.0
185.434769	92.0
185.470001	56.0
185.526932	36.0
185.559464	132.0
185.635391	132.0
185.743546	100.0
185.792709	120.0
185.844254	124.0
185.896088	124.0
185.921387	180.0
186.078354	516.0
186.115692	128.0
186.159149	48.0
186.18631	108.0
186.21347	76.0
186.297668	56.0
186.332993	176.0
186.364731	152.0
186.436249	136.0
186.547699	140.0
186.642853	60.0
186.727158	88.0
186.792435	112.0
186.855942	176.0
186.947525	72.0
186.977463	100.0
187.085236	5692.0
187.114807	408.0
187.151688	44.0
187.173477	152.0
187.192535	112.0
187.223221	120.0
187.391388	132.0
187.437714	192.0
187.470413	60.0
187.514023	132.0
187.601242	220.0
187.680313	120.0
187.729401	72.0
187.756668	48.0
187.816681	204.0
187.838501	64.0
187.877426	148.0
187.901245	88.0
187.969467	168.0
188.040009	260.0
188.088211	884.0
188.138687	212.0
188.187836	52.0
188.220596	92.0
188.257584	172.0
188.31073	180.0
188.329849	76.0
188.463715	164.0
188.541367	48.0
188.562088	176.0
188.592163	140.0
188.633163	200.0
188.705139	208.0
188.790146	184.0
188.795486	76.0
188.806625	136.0
188.93399	160.0
189.010834	140.0
189.043442	136.0
189.097412	364.0
189.28981	64.0
189.330887	144.0
189.358276	184.0
189.391144	140.0
189.451416	132.0
189.470596	184.0
189.522659	76.0
189.5802	76.0
189.629532	144.0
189.769348	96.0
189.848862	140.0
189.870804	164.0
189.917435	152.0
190.102234	204.0
190.196487	196.0
190.326355	160.0
190.425232	252.0
190.471924	52.0
190.504883	148.0
190.53511	96.0
190.587311	144.0
190.631897	212.0
190.708237	140.0
190.760468	164.0
190.826447	200.0
190.892441	180.0
190.951721	180.0
191.000473	128.0
191.073975	80.0
191.110229	116.0
191.241852	56.0
191.302414	184.0
191.324432	72.0
191.467621	120.0
191.531036	160.0
191.553009	180.0
191.597092	44.0
191.664917	188.0
191.704544	196.0
191.751404	168.0
191.778961	220.0
191.831345	212.0
191.963684	164.0
191.991272	236.0
192.113602	752.0
192.147751	132.0
192.173325	132.0
192.206436	168.0
192.228516	184.0
192.275436	80.0
192.375259	120.0
192.532196	164.0
192.757523	92.0
192.802261	80.0
192.84993	212.0
192.888626	80.0
192.954987	40.0
192.985397	100.0
193.065582	216.0
193.101776	140.0
193.126434	180.0
193.237091	152.0
193.342255	108.0
193.364395	128.0
193.397598	100.0
193.422974	120.0
193.488068	136.0
193.530487	196.0
193.641266	76.0
193.699432	124.0
193.729904	164.0
193.804718	108.0
193.824112	116.0
193.868454	100.0
193.914749	164.0
193.969315	148.0
194.031998	176.0
194.059723	124.0
194.120728	156.0
194.17897	220.0
194.29953	156.0
194.353348	148.0
194.400909	136.0
194.556351	52.0
194.617432	104.0
194.672974	144.0
194.73407	140.0
194.809082	216.0
194.847977	120.0
194.917435	128.0
194.945221	64.0
195.055328	160.0
195.112	108.0
195.137024	196.0
195.198196	164.0
195.353958	144.0
195.559875	144.0
195.621124	168.0
195.68515	112.0
195.79097	88.0
195.829956	84.0
196.064346	464.0
196.133102	96.0
196.191452	204.0
196.222885	96.0
196.309326	96.0
196.33165	92.0
196.381851	148.0
196.462738	116.0
196.501801	164.0
196.577148	64.0
196.700577	72.0
196.733444	156.0
196.758575	52.0
196.831177	76.0
196.888351	168.0
196.941437	116.0
197.00769	328.0
197.036362	104.0
197.074524	4772.0
197.186859	264.0
197.294998	204.0
197.386871	56.0
197.447678	120.0
197.527115	68.0
197.574661	96.0
197.633423	180.0
197.681	228.0
197.736969	116.0
197.864365	188.0
197.888138	160.0
197.932938	72.0
197.958145	116.0
198.07576	824.0
198.110825	156.0
198.148621	120.0
198.185043	112.0
198.224274	124.0
198.299942	140.0
198.327972	240.0
198.428894	60.0
198.46785	148.0
198.524231	116.0
198.56987	132.0
198.619598	36.0
198.639236	104.0
198.672897	232.0
198.692535	156.0
198.743042	144.0
198.765488	200.0
198.810394	72.0
198.870682	116.0
198.900208	148.0
199.084198	160.0
199.116409	52.0
199.139542	168.0
199.265289	192.0
199.299011	168.0
199.490128	108.0
199.606659	108.0
199.644775	200.0
199.698212	92.0
199.720718	96.0
199.751389	192.0
199.875458	200.0
199.909225	184.0
199.957062	28.0
200.009125	348.0
200.096466	232.0
200.148499	140.0
200.168213	136.0
200.20929	116.0
200.252701	128.0
200.312363	200.0
200.356384	184.0
200.404831	112.0
200.434891	132.0
200.450912	136.0
200.489365	168.0
200.509094	180.0
200.568283	104.0
200.599304	144.0
200.620178	148.0
200.669785	124.0
200.697983	60.0
200.74028	144.0
200.803894	164.0
200.831497	140.0
200.867203	96.0
200.962021	152.0
201.011185	124.0
201.049194	2768.0
201.101196	82184.0
201.186203	136.0
201.218277	240.0
201.286407	196.0
201.320984	192.0
201.349869	208.0
201.384445	148.0
201.510468	48.0
201.540375	72.0
201.570358	152.0
201.591278	116.0
201.634735	160.0
201.663483	132.0
201.728287	152.0
201.792068	140.0
201.84726	180.0
201.912292	156.0
201.937759	104.0
201.969193	148.0
202.007309	116.0
202.058594	1536.0
202.103745	8388.0
202.171173	160.0
202.195312	120.0
202.218948	84.0
202.257492	84.0
202.285797	84.0
202.313278	124.0
202.350433	124.0
202.410507	124.0
202.450027	52.0
202.484009	48.0
202.508118	188.0
202.560486	204.0
202.582565	116.0
202.622818	56.0
202.645477	100.0
202.702148	236.0
202.721802	184.0
202.747498	108.0
202.782486	128.0
202.803635	104.0
202.82518	236.0
202.849213	172.0
202.87413	312.0
202.913254	144.0
202.940765	360.0
202.975266	152.0
203.001419	332.0
203.007996	320.0
203.018021	296.0
203.065765	54384.0
203.102051	948.0
203.148819	96.0
203.168427	36.0
203.214859	156.0
203.271194	132.0
203.282166	128.0
203.334579	76.0
203.365799	64.0
203.388504	196.0
203.431091	80.0
203.464355	56.0
203.516891	276.0
203.55574	72.0
203.579987	128.0
203.613678	40.0
203.636963	184.0
203.676392	116.0
203.707809	172.0
203.749176	76.0
203.789764	148.0
203.819336	52.0
203.862946	104.0
203.886963	108.0
203.935501	148.0
203.97937	44.0
204.068085	6456.0
204.116837	424.0
204.150284	36.0
204.200089	64.0
204.219589	72.0
204.231125	52.0
204.245422	144.0
204.280807	72.0
204.320633	64.0
204.363007	128.0
204.396393	96.0
204.44014	96.0
204.537933	112.0
204.59581	212.0
204.619476	44.0
204.650787	220.0
204.678314	144.0
204.703659	148.0
204.782684	64.0
204.835922	184.0
204.912842	76.0
204.982864	180.0
205.042862	116.0
205.072144	240.0
205.132278	268.0
205.168335	80.0
205.204926	188.0
205.259018	124.0
205.291962	128.0
205.329025	132.0
205.360413	60.0
205.387283	104.0
205.467758	76.0
205.505905	60.0
205.548706	164.0
205.575867	100.0
205.614746	112.0
205.668564	100.0
205.698074	152.0
205.724869	104.0
205.751358	64.0
205.791748	136.0
205.835251	116.0
205.908417	164.0
205.943985	136.0
206.01709	84.0
206.036957	168.0
206.091248	144.0
206.13295	212.0
206.159073	160.0
206.256775	152.0
206.311325	36.0
206.376221	200.0
206.423843	152.0
206.508636	200.0
206.548676	96.0
206.58873	48.0
206.654541	108.0
206.768997	116.0
206.854874	128.0
206.890823	56.0
206.945953	64.0
206.97226	140.0
207.132645	136.0
207.213379	332.0
207.275894	136.0
207.299683	112.0
207.347549	76.0
207.422073	52.0
207.456467	140.0
207.637115	76.0
207.751862	136.0
207.823593	152.0
207.878113	88.0
207.994858	136.0
208.054825	268.0
208.214737	188.0
208.235168	76.0
208.673782	68.0
208.739914	148.0
208.860718	128.0
208.892365	104.0
209.000534	168.0
209.065002	164.0
209.168625	92.0
209.204117	204.0
209.231949	40.0
209.374374	140.0
209.600479	228.0
209.633255	172.0
209.664032	156.0
209.744736	36.0
209.790863	60.0
209.886017	100.0
209.913681	208.0
210.073669	188.0
210.145615	128.0
210.296906	132.0
210.336334	48.0
210.358154	124.0
210.402481	116.0
210.615051	92.0
210.697083	28.0
210.769318	180.0
210.931168	248.0
210.954285	96.0
210.996429	152.0
211.067017	288.0
211.086212	140.0
211.153809	172.0
211.17984	168.0
211.205872	96.0
211.255051	160.0
211.411301	44.0
211.590759	160.0
211.663147	176.0
211.695007	116.0
211.741348	60.0
211.764511	140.0
211.81665	68.0
211.98053	136.0
212.079926	168.0
212.149918	104.0
212.236893	140.0
212.270813	132.0
212.344193	44.0
212.419617	96.0
212.637238	372.0
212.674973	128.0
212.786804	92.0
212.850876	80.0
212.901489	236.0
212.965332	144.0
212.991486	96.0
213.051956	108.0
213.110596	92.0
213.136749	132.0
213.232208	52.0
213.264618	160.0
213.441971	164.0
213.770691	264.0
213.872559	292.0
213.921555	100.0
214.057297	912.0
214.271515	64.0
214.420135	132.0
214.592133	312.0
214.691269	136.0
214.73468	168.0
214.850372	148.0
214.872131	168.0
214.957489	268.0
215.063065	1408.0
215.102676	144.0
215.136948	212.0
215.250076	120.0
215.272034	240.0
215.2948	180.0
215.443512	164.0
215.499878	120.0
215.572922	148.0
215.625534	188.0
215.722946	144.0
215.774612	152.0
215.79509	160.0
215.912048	52.0
215.955933	128.0
216.070206	704.0
216.211258	148.0
216.269012	116.0
216.438812	128.0
216.45932	160.0
216.55011	140.0
216.608688	152.0
216.784317	136.0
216.837234	180.0
216.863617	148.0
216.898788	192.0
216.954117	156.0
216.980881	112.0
217.028458	140.0
217.080414	13788.0
217.183228	72.0
217.216202	132.0
217.267136	172.0
217.286835	152.0
217.325348	208.0
217.365128	128.0
217.438492	56.0
217.582336	236.0
217.652802	152.0
217.695648	168.0
217.717407	112.0
217.737961	28.0
217.75853	200.0
217.811401	56.0
217.842239	136.0
217.899536	132.0
217.943604	44.0
218.00238	76.0
218.083954	1924.0
218.125839	3612.0
218.185959	132.0
218.281647	320.0
218.335449	124.0
218.372818	44.0
218.44342	76.0
218.466949	140.0
218.500549	96.0
218.555222	156.0
218.578766	84.0
218.608185	180.0
218.696487	72.0
218.735565	172.0
218.770081	108.0
218.879013	148.0
218.951111	216.0
219.041	52.0
219.092224	332.0
219.131485	716.0
219.236679	88.0
219.338623	44.0
219.421173	72.0
219.457993	132.0
219.502686	80.0
219.558716	112.0
219.589432	144.0
219.645309	168.0
219.727905	108.0
219.760162	116.0
219.822327	68.0
219.934494	176.0
219.984665	144.0
220.132294	144.0
220.309525	144.0
220.540024	32.0
220.640533	224.0
220.676407	120.0
220.702621	156.0
220.815002	124.0
220.86232	128.0
220.920395	140.0
220.986572	60.0
221.020599	96.0
221.076157	384.0
221.167099	88.0
221.318085	180.0
221.341782	176.0
221.403976	140.0
221.528381	144.0
221.593552	84.0
221.646896	108.0
221.715057	28.0
221.928482	108.0
222.01152	76.0
222.032288	140.0
222.183563	116.0
222.298813	100.0
222.4655	112.0
222.575363	120.0
222.628815	152.0
222.748764	128.0
222.815948	116.0
222.869431	160.0
222.893204	164.0
222.943726	184.0
222.994247	116.0
223.032898	164.0
223.089951	144.0
223.128021	184.0
223.148834	164.0
223.169647	28.0
223.368912	56.0
223.422455	128.0
223.470062	148.0
223.609924	144.0
223.937454	64.0
224.071503	160.0
224.154938	148.0
224.217514	180.0
224.238373	188.0
224.295013	48.0
224.319077	108.0
224.38147	104.0
224.414261	120.0
224.45845	88.0
224.49173	204.0
224.599167	176.0
224.630722	160.0
224.685684	196.0
224.721481	224.0
224.751328	140.0
224.876663	124.0
224.927414	196.0
224.948303	84.0
225.031906	64.0
225.070724	128.0
225.104294	432.0
225.229004	128.0
225.318634	60.0
225.425156	184.0
225.447113	148.0
225.539764	368.0
225.656357	48.0
225.745346	180.0
225.769989	116.0
225.821625	152.0
225.862717	40.0
225.961441	136.0
226.034363	152.0
226.084122	120.0
226.106613	176.0
226.185898	160.0
226.227951	180.0
226.332596	120.0
226.421707	148.0
226.467361	336.0
226.488327	164.0
226.677078	68.0
226.79245	108.0
226.904892	100.0
227.066376	160.0
227.201202	256.0
227.25882	120.0
227.389465	284.0
227.55896	120.0
227.610016	48.0
227.72113	104.0
227.748169	140.0
227.790222	68.0
227.946457	176.0
227.97879	116.0
228.030609	156.0
228.071884	376.0
228.108765	184.0
228.168884	208.0
228.212372	164.0
228.358337	148.0
228.490692	124.0
228.529816	156.0
228.803711	208.0
228.833817	72.0
228.884995	236.0
229.031097	204.0
229.065552	324.0
229.122314	152.0
229.156097	48.0
229.266052	164.0
229.306763	72.0
229.403229	68.0
229.454483	128.0
229.584137	108.0
229.623352	136.0
229.700943	248.0
229.805511	156.0
229.836609	124.0
229.88475	112.0
229.909973	208.0
229.993576	80.0
230.042068	140.0
230.067688	176.0
230.127579	11876.0
230.293411	48.0
230.31456	32.0
230.360504	144.0
230.400436	140.0
230.444092	128.0
230.486771	276.0
230.507919	156.0
230.607651	56.0
230.642197	140.0
230.707413	128.0
230.78299	60.0
230.825333	104.0
230.967484	108.0
231.04628	164.0
231.091522	124.0
231.130997	1860.0
231.200165	168.0
231.235291	120.0
231.260986	116.0
231.354828	56.0
231.444565	144.0
231.462875	140.0
231.533478	132.0
231.578918	156.0
231.615982	136.0
231.678879	40.0
231.79248	156.0
231.821289	200.0
231.925629	132.0
231.972839	124.0
232.147614	3048.0
232.213226	160.0
232.305145	44.0
232.378967	44.0
232.430817	112.0
232.464203	232.0
232.491516	168.0
232.527939	176.0
232.588638	104.0
232.615067	148.0
232.670609	80.0
232.737411	76.0
232.764099	132.0
232.831543	40.0
232.933609	120.0
233.001663	84.0
233.05275	196.0
233.088943	264.0
233.11821	112.0
233.151321	404.0
233.208298	208.0
233.267242	164.0
233.293411	144.0
233.424164	96.0
233.530609	56.0
233.606659	92.0
233.673584	104.0
233.740524	128.0
233.801392	228.0
233.822693	204.0
233.847046	216.0
233.917053	168.0
233.993164	96.0
234.06929	212.0
234.111923	128.0
234.13324	76.0
234.158615	144.0
234.356308	124.0
234.498856	104.0
234.549576	144.0
234.58725	112.0
234.697006	256.0
234.718353	104.0
234.761047	48.0
234.822052	136.0
234.901352	172.0
234.925766	40.0
234.950165	168.0
234.995926	152.0
235.061127	120.0
235.141251	136.0
235.203461	128.0
235.359161	136.0
235.380539	160.0
235.44902	132.0
235.490479	116.0
235.551575	156.0
235.679886	184.0
235.716568	52.0
235.780746	64.0
235.879623	204.0
236.003906	88.0
236.049774	148.0
236.095169	132.0
236.159866	124.0
236.199631	204.0
236.230225	80.0
236.30365	116.0
236.337311	176.0
236.401566	152.0
236.422989	132.0
236.545425	156.0
236.713821	204.0
236.753632	148.0
236.906143	76.0
237.145813	116.0
237.188629	144.0
237.216309	196.0
237.415619	176.0
237.450851	188.0
237.544434	72.0
237.602722	152.0
237.697845	144.0
237.826752	200.0
237.903488	64.0
237.980255	160.0
238.032455	124.0
238.106155	124.0
238.130722	84.0
238.253601	152.0
238.401093	168.0
238.551697	44.0
238.582443	128.0
238.61319	176.0
238.668533	216.0
238.840759	76.0
238.862289	168.0
238.982285	212.0
239.120758	132.0
239.210037	160.0
239.323944	152.0
239.422485	48.0
239.517975	180.0
239.607315	160.0
239.628876	124.0
239.659683	100.0
239.715164	76.0
239.767822	180.0
239.844604	132.0
239.992584	124.0
240.043884	132.0
240.055801	104.0
240.183792	144.0
240.322632	132.0
240.353485	84.0
240.375092	52.0
240.427002	136.0
240.473846	136.0
240.498245	188.0
240.668335	160.0
240.705399	56.0
240.764923	72.0
240.785202	128.0
240.811066	128.0
240.9216	68.0
240.97876	144.0
241.014297	144.0
241.075562	160.0
241.246094	108.0
241.289383	100.0
241.363586	136.0
241.533691	148.0
241.654343	136.0
241.739441	96.0
241.81218	96.0
242.087723	112.0
242.151337	148.0
242.322601	152.0
242.399689	312.0
242.450195	144.0
242.55867	192.0
242.602081	100.0
242.710587	204.0
242.788116	56.0
242.930801	124.0
242.985153	316.0
243.045593	84.0
243.096848	7636.0
243.138702	272.0
243.22049	136.0
243.266312	36.0
243.315643	168.0
243.377731	140.0
243.411896	116.0
243.52092	192.0
243.638641	196.0
243.679031	40.0
243.779907	112.0
243.836685	120.0
244.100662	1628.0
244.181442	124.0
244.204391	136.0
244.266602	116.0
244.34024	180.0
244.419067	96.0
244.447067	92.0
244.490631	52.0
244.513809	108.0
244.574677	96.0
244.61203	60.0
244.651413	104.0
244.836212	44.0
244.927704	140.0
245.07608	168.0
245.107803	236.0
245.169571	164.0
245.247482	68.0
245.284897	136.0
245.447021	48.0
245.49379	156.0
245.549927	136.0
245.618561	104.0
245.68718	76.0
245.714218	112.0
245.776779	248.0
245.846329	108.0
245.955566	212.0
246.102295	128.0
246.127274	192.0
246.205353	104.0
246.361526	164.0
246.399017	192.0
246.424011	192.0
246.477127	116.0
246.502136	68.0
246.586517	164.0
246.611526	184.0
246.727188	132.0
246.761581	168.0
246.852249	160.0
246.889786	136.0
246.977356	112.0
247.002274	120.0
247.118134	156.0
247.143173	68.0
247.16507	208.0
247.559509	120.0
247.816376	152.0
247.99501	116.0
248.082779	120.0
248.120392	116.0
248.161163	112.0
248.317963	120.0
248.342361	92.0
248.415192	92.0
248.540695	140.0
248.572083	168.0
248.656815	180.0
248.727325	60.0
248.785507	128.0
248.957397	156.0
248.995895	260.0
249.061859	140.0
249.087906	164.0
249.112122	168.0
249.467239	136.0
249.508102	88.0
249.570984	104.0
249.593002	140.0
249.630737	48.0
249.737671	140.0
249.87294	120.0
249.961044	104.0
250.020828	120.0
250.158096	92.0
250.197281	148.0
250.272675	132.0
250.420029	172.0
250.445343	116.0
250.452057	96.0
250.609711	72.0
250.732605	132.0
250.779892	124.0
250.972198	128.0
251.026382	144.0
251.053207	180.0
251.259216	148.0
251.369659	84.0
251.445251	88.0
251.536942	152.0
251.622177	72.0
251.672562	92.0
251.742172	100.0
251.775055	164.0
251.871658	184.0
251.922211	108.0
251.975906	112.0
252.051743	144.0
252.175003	128.0
252.209763	140.0
252.415268	92.0
252.459549	136.0
252.557602	120.0
252.649338	128.0
252.696793	88.0
252.858185	192.0
252.889832	172.0
252.943649	60.0
253.022797	128.0
253.146408	192.0
253.203293	100.0
253.236603	116.0
253.269806	164.0
253.377518	176.0
253.418701	140.0
253.478912	84.0
253.52327	56.0
253.577148	188.0
253.790222	208.0
253.84346	224.0
253.944519	120.0
253.954956	104.0
253.961548	136.0
254.002045	156.0
254.062317	108.0
254.144806	124.0
254.236847	56.0
254.332062	216.0
254.386017	172.0
254.457901	156.0
254.506546	204.0
254.563828	132.0
254.837006	56.0
255.046539	112.0
255.097	204.0
255.132599	148.0
255.196182	172.0
255.310654	32.0
255.336105	104.0
255.533325	248.0
255.623825	108.0
255.682892	48.0
255.749741	48.0
255.775192	168.0
255.963043	216.0
256.020355	164.0
256.342133	204.0
256.619446	168.0
256.660889	132.0
256.683228	88.0
256.759766	116.0
256.823547	96.0
256.873077	144.0
256.932007	128.0
257.108215	136.0
257.171356	52.0
257.229614	176.0
257.337738	136.0
257.479584	96.0
257.525787	120.0
257.642395	100.0
257.679108	164.0
257.717468	88.0
257.784546	148.0
257.93158	176.0
257.966736	116.0
258.075439	204.0
258.158081	244.0
258.273743	156.0
258.328125	264.0
258.374359	116.0
258.468903	224.0
258.494507	116.0
258.542511	108.0
258.622528	152.0
258.867462	260.0
258.968323	52.0
259.109283	140.0
259.166962	176.0
259.216644	172.0
259.240662	160.0
259.343201	140.0
259.387573	168.0
259.452209	148.0
259.562225	140.0
259.747253	76.0
259.90918	212.0
259.987885	132.0
260.036041	136.0
260.10022	56.0
260.160553	76.0
260.202972	196.0
260.389221	144.0
260.540192	128.0
260.588379	140.0
260.614075	104.0
260.667572	148.0
260.733002	152.0
260.758698	188.0
260.823517	144.0
261.025543	152.0
261.048035	128.0
261.18634	188.0
261.308594	84.0
261.430878	136.0
261.756012	160.0
261.785004	48.0
261.826874	188.0
262.174805	156.0
262.271515	160.0
262.36499	116.0
262.423035	148.0
262.448822	168.0
262.555237	72.0
262.645569	88.0
262.726196	80.0
262.81424	208.0
262.9198	124.0
263.003723	160.0
263.045685	156.0
263.11026	144.0
263.190979	124.0
263.333069	136.0
263.407379	180.0
263.501068	128.0
263.54306	124.0
263.608673	184.0
263.63678	72.0
263.80484	104.0
263.848602	156.0
263.879211	156.0
263.943878	212.0
263.995636	116.0
264.086182	124.0
264.228516	168.0
264.647736	124.0
264.710815	136.0
264.778809	140.0
264.810791	60.0
264.853333	56.0
264.953735	200.0
265.00235	92.0
265.203278	176.0
265.323212	308.0
265.401031	136.0
265.439941	44.0
265.585876	160.0
265.645721	216.0
265.696198	152.0
265.752258	144.0
265.829224	108.0
265.93161	160.0
265.981781	132.0
266.014221	156.0
266.069427	156.0
266.196045	128.0
266.37793	112.0
266.430023	132.0
266.592377	76.0
266.680145	144.0
266.768005	140.0
266.829681	116.0
266.914215	172.0
267.131531	212.0
267.285065	60.0
267.478699	176.0
267.6008	96.0
267.685455	136.0
267.896271	96.0
267.972107	104.0
268.024231	160.0
268.209991	48.0
268.493683	80.0
268.51651	236.0
268.588257	108.0
268.640442	136.0
268.695923	192.0
268.793793	204.0
268.831177	284.0
268.855927	124.0
268.957001	156.0
269.014771	132.0
269.081055	200.0
269.259094	120.0
269.311829	232.0
269.474487	148.0
269.550873	148.0
269.682129	84.0
269.731171	116.0
269.76059	64.0
269.816162	148.0
270.03894	124.0
270.097412	116.0
270.182465	160.0
270.313354	136.0
270.388611	104.0
270.442291	72.0
270.506287	84.0
270.614502	116.0
270.748749	128.0
270.807709	140.0
270.856842	140.0
270.90271	328.0
270.958405	124.0
271.043121	144.0
271.07309	116.0
271.458679	172.0
271.51239	132.0
271.679688	204.0
271.774811	204.0
271.801727	204.0
271.866699	144.0
271.906097	168.0
271.9422	116.0
272.073486	56.0
272.125458	112.0
272.23111	64.0
272.2771	96.0
272.50705	168.0
272.549744	108.0
272.635193	112.0
272.677917	112.0
272.75351	52.0
272.819275	168.0
272.875153	64.0
272.950775	184.0
273.072479	100.0
273.102478	128.0
273.134979	180.0
273.19223	168.0
273.230927	116.0
273.342255	72.0
273.404755	56.0
273.431091	96.0
273.495575	156.0
273.559479	72.0
273.607391	180.0
273.733978	124.0
273.766907	140.0
273.859131	88.0
273.895355	88.0
273.951355	148.0
274.060089	120.0
274.139252	10300.0
274.230255	164.0
274.264435	148.0
274.349304	204.0
274.37265	48.0
274.429688	92.0
274.483521	124.0
274.55246	56.0
274.622498	60.0
274.672791	132.0
274.798676	116.0
274.878174	128.0
274.902466	148.0
274.96405	136.0
274.993378	96.0
275.049683	140.0
275.075897	96.0
275.141479	1980.0
275.207855	140.0
275.322937	128.0
275.369781	72.0
275.424622	180.0
275.492004	100.0
275.535889	168.0
275.58783	176.0
275.652588	160.0
275.736511	100.0
275.809235	152.0
275.835693	92.0
275.882599	164.0
275.944794	104.0
276.001007	56.0
276.093689	156.0
276.143158	552.0
276.232513	184.0
276.421112	80.0
276.46347	132.0
276.530334	128.0
276.553497	172.0
276.581696	92.0
276.623016	140.0
276.685242	60.0
276.732544	140.0
276.801788	100.0
276.848145	116.0
276.881287	148.0
276.908966	144.0
276.995819	288.0
277.030334	128.0
277.140076	184.0
277.229126	72.0
277.274475	176.0
277.388245	128.0
277.434662	160.0
277.474426	184.0
277.590485	92.0
277.766266	172.0
277.882385	120.0
277.945435	116.0
278.141235	80.0
278.38031	68.0
278.450043	92.0
278.632751	368.0
278.732422	232.0
278.768982	128.0
278.890594	116.0
278.945129	52.0
279.014954	116.0
279.051544	84.0
279.147949	68.0
279.174408	88.0
279.271027	36.0
279.31427	112.0
279.364166	140.0
279.417389	184.0
279.47229	96.0
279.561188	152.0
279.676971	220.0
279.860077	156.0
279.966644	28.0
280.011108	180.0
280.13446	144.0
280.210266	216.0
280.289764	104.0
280.453064	140.0
280.546814	148.0
280.636444	68.0
280.876099	180.0
280.901703	104.0
280.939941	176.0
281.045624	124.0
281.256958	80.0
281.307037	88.0
281.33374	140.0
281.588684	168.0
281.70932	148.0
281.888275	176.0
282.078705	172.0
282.19574	192.0
282.312775	76.0
282.536865	124.0
282.577026	132.0
282.607147	64.0
282.657318	120.0
282.82132	184.0
282.899628	204.0
282.985352	84.0
283.065735	156.0
283.095551	132.0
283.226501	212.0
283.259979	120.0
283.501221	144.0
283.60849	120.0
283.72583	100.0
283.772766	116.0
284.041046	148.0
284.139832	268.0
284.239014	124.0
284.322906	152.0
284.403442	68.0
284.645172	260.0
284.6922	92.0
284.725769	100.0
284.819824	100.0
285.09198	192.0
285.406647	180.0
285.438232	144.0
285.468506	176.0
285.53241	144.0
285.646759	184.0
285.68042	104.0
285.740967	76.0
285.787689	172.0
285.838531	168.0
285.935699	120.0
285.998596	144.0
286.023651	140.0
286.138336	644.0
286.316589	208.0
286.417633	108.0
286.625732	156.0
286.683807	168.0
286.711243	172.0
286.855713	144.0
286.896149	160.0
287.141144	304.0
287.435822	212.0
287.564087	168.0
287.604584	140.0
287.665344	116.0
287.753113	88.0
287.856567	144.0
288.013153	132.0
288.063812	192.0
288.090851	148.0
288.155243	132.0
288.182068	148.0
288.236145	48.0
288.273315	176.0
288.347656	92.0
288.455841	88.0
288.506531	108.0
288.566223	164.0
288.712799	72.0
288.894226	188.0
288.986816	152.0
289.017242	108.0
289.139099	160.0
289.206787	144.0
289.274475	84.0
289.352356	176.0
289.376038	84.0
289.501343	80.0
289.531525	224.0
289.674072	56.0
289.982422	132.0
290.470703	88.0
290.518219	164.0
290.552124	228.0
290.616608	76.0
290.725189	120.0
290.806641	156.0
290.986572	76.0
291.037079	132.0
291.18692	244.0
291.224274	128.0
291.258789	188.0
291.292206	160.0
291.380554	144.0
291.448517	188.0
291.489288	144.0
291.54364	68.0
291.598022	112.0
291.657684	388.0
291.684418	84.0
291.723816	148.0
291.839386	176.0
291.910797	192.0
291.938019	100.0
291.989044	160.0
292.060455	80.0
292.131897	144.0
292.302002	148.0
292.397308	120.0
292.45517	208.0
292.479004	156.0
292.516449	156.0
292.584534	96.0
292.618561	140.0
292.690094	112.0
292.83313	140.0
292.914856	52.0
293.092041	160.0
293.177216	156.0
293.227295	196.0
293.383484	148.0
293.456757	140.0
293.492859	136.0
293.620422	52.0
293.682343	156.0
293.715942	52.0
293.756866	172.0
293.789673	144.0
294.005676	100.0
294.228943	196.0
294.319366	204.0
294.36969	220.0
294.705994	36.0
294.757263	168.0
294.805756	172.0
295.0401	160.0
295.205078	224.0
295.315033	132.0
295.426727	140.0
295.485565	184.0
295.543732	80.0
295.724792	156.0
295.779877	216.0
295.882599	136.0
295.91684	80.0
295.971619	52.0
296.077789	144.0
296.101746	108.0
296.197662	184.0
296.235352	168.0
296.447784	128.0
296.584869	104.0
296.78714	112.0
296.830597	296.0
296.903748	128.0
296.996338	116.0
297.414978	148.0
297.441284	108.0
297.524811	160.0
297.579742	144.0
297.648438	68.0
297.68277	180.0
297.830444	136.0
297.863251	160.0
297.895721	60.0
297.930084	132.0
297.954132	104.0
298.05722	200.0
298.146545	96.0
298.232483	188.0
298.33905	180.0
298.42157	128.0
298.46283	116.0
298.493774	100.0
298.538483	200.0
298.565979	72.0
298.610718	116.0
298.645111	192.0
298.73111	136.0
298.786133	140.0
298.875824	60.0
299.028046	240.0
299.06366	176.0
299.106201	120.0
299.140625	96.0
299.199127	144.0
299.274902	168.0
299.305878	148.0
299.422974	100.0
299.519409	76.0
299.581421	112.0
299.681335	300.0
299.73645	148.0
299.764038	156.0
299.82608	108.0
299.87088	52.0
299.991516	124.0
300.105286	208.0
300.148743	140.0
300.253571	88.0
300.284607	128.0
300.332916	164.0
300.567505	84.0
300.629639	116.0
300.722809	240.0
300.861755	176.0
300.895416	136.0
300.950653	44.0
301.00592	136.0
301.057709	140.0
301.112976	176.0
301.213135	160.0
301.403168	132.0
301.524109	144.0
301.641632	164.0
301.771912	152.0
301.911346	184.0
301.990875	140.0
302.052734	132.0
302.09726	340.0
302.181915	184.0
302.312653	120.0
302.361084	120.0
302.551483	276.0
302.603424	236.0
302.849304	164.0
302.970673	124.0
303.036377	92.0
303.272034	116.0
303.344818	196.0
303.396057	184.0
303.497375	96.0
303.532043	92.0
303.68811	156.0
303.722809	148.0
303.806061	128.0
303.979553	132.0
304.021179	104.0
304.052429	188.0
304.0802	100.0
304.122742	176.0
304.160034	48.0
304.199524	84.0
304.288483	152.0
304.323181	168.0
304.350983	276.0
304.406525	124.0
304.434326	168.0
304.569763	160.0
304.670502	32.0
304.739471	132.0
304.771271	132.0
304.802551	64.0
304.869263	160.0
304.913757	124.0
304.971008	160.0
305.011078	200.0
305.07016	148.0
305.167511	192.0
305.226624	152.0
305.268372	104.0
305.316284	184.0
305.449219	116.0
305.538879	148.0
305.61792	264.0
305.65799	104.0
305.713654	124.0
305.82251	72.0
305.8508	128.0
305.923462	160.0
305.957306	120.0
306.131409	112.0
306.16275	136.0
306.225464	128.0
306.377258	132.0
306.389862	164.0
306.434479	92.0
306.598236	36.0
306.723724	100.0
306.829987	132.0
306.894562	144.0
307.196991	196.0
307.309631	112.0
307.347107	76.0
307.410828	136.0
307.557404	108.0
307.672607	112.0
307.697052	108.0
307.721497	148.0
307.745941	116.0
307.983429	156.0
308.182556	128.0
308.241943	96.0
308.276886	164.0
308.438354	184.0
308.596863	108.0
308.937744	148.0
309.039215	128.0
309.221191	120.0
309.389221	168.0
309.532776	108.0
309.651825	124.0
309.721893	152.0
309.851501	96.0
309.942627	144.0
310.005676	144.0
310.058258	144.0
310.11084	380.0
310.183899	104.0
310.207306	192.0
310.36676	176.0
310.466003	160.0
310.551453	120.0
310.724518	144.0
310.752594	224.0
310.822784	160.0
310.889435	124.0
310.956116	152.0
311.173767	172.0
311.222931	180.0
311.535522	88.0
311.572479	116.0
311.637421	136.0
311.735809	160.0
311.785004	40.0
311.929108	200.0
312.326477	120.0
312.430817	152.0
312.477753	104.0
312.576263	104.0
312.637909	112.0
312.681854	116.0
312.706482	132.0
312.798004	148.0
312.893066	264.0
312.93634	176.0
313.037415	88.0
313.086731	80.0
313.162994	104.0
313.192383	140.0
313.227631	76.0
313.296173	208.0
313.37558	144.0
313.400238	60.0
313.470734	48.0
313.601135	124.0
313.638916	144.0
313.728027	76.0
313.946655	164.0
314.04541	220.0
314.167358	124.0
314.295898	124.0
314.365051	168.0
314.599426	76.0
314.804199	212.0
314.864258	116.0
314.927826	96.0
314.977295	96.0
315.002014	68.0
315.033813	188.0
315.072662	140.0
315.097382	80.0
315.16098	136.0
315.277618	132.0
315.447266	148.0
315.574554	128.0
315.687714	140.0
315.751373	32.0
315.889313	168.0
315.980286	140.0
316.04245	112.0
316.108673	124.0
316.147614	96.0
316.225464	208.0
316.342285	104.0
316.367065	92.0
316.448486	108.0
316.498077	64.0
316.537018	172.0
316.597229	120.0
316.705048	100.0
316.742432	132.0
316.912506	36.0
317.04007	148.0
317.100311	76.0
317.128662	128.0
317.206665	132.0
317.266937	76.0
317.380371	172.0
317.446625	176.0
317.500946	188.0
317.597351	136.0
317.64856	176.0
317.735077	116.0
317.827332	76.0
317.869904	80.0
318.047363	176.0
318.132568	56.0
318.292328	164.0
318.434387	72.0
318.516083	176.0
318.583588	100.0
318.663605	160.0
318.764801	176.0
318.904694	120.0
319.017151	160.0
319.052704	116.0
319.143463	124.0
319.212708	144.0
319.256897	112.0
319.344299	208.0
319.500824	68.0
319.710754	92.0
319.803314	52.0
319.828217	140.0
320.13797	120.0
320.173584	140.0
320.454285	240.0
320.522705	188.0
320.618927	128.0
320.658142	48.0
320.704468	160.0
320.779327	160.0
320.87851	132.0
321.018219	188.0
321.132355	140.0
321.207245	192.0
321.528381	84.0
321.679626	136.0
321.740631	148.0
321.822968	108.0
321.853241	316.0
322.053223	108.0
322.131836	96.0
322.185425	104.0
322.213135	244.0
322.410522	112.0
322.499878	76.0
322.635712	124.0
322.73584	132.0
322.800385	148.0
322.882446	144.0
323.036865	168.0
323.089935	72.0
323.117065	96.0
323.170197	184.0
323.277588	108.0
323.318939	144.0
323.359558	148.0
323.381348	92.0
323.422729	124.0
323.516846	96.0
323.683441	148.0
323.741394	80.0
323.77005	168.0
323.798706	112.0
323.852417	68.0
323.877502	152.0
323.924072	144.0
324.011078	124.0
324.156982	200.0
324.217865	156.0
324.273407	136.0
324.399536	152.0
324.522583	156.0
324.556915	124.0
324.611328	148.0
324.673187	148.0
324.773621	92.0
324.832672	168.0
324.938629	72.0
325.019073	164.0
325.114929	224.0
325.146759	56.0
325.18924	120.0
325.264526	164.0
325.378418	172.0
325.415985	188.0
325.481812	280.0
325.548248	148.0
325.638275	120.0
325.71048	144.0
325.757202	128.0
325.797607	176.0
325.844238	256.0
325.855072	164.0
325.911346	340.0
325.976349	56.0
326.01947	64.0
326.06311	252.0
326.113708	132.0
326.170135	57264.0
326.266327	196.0
326.316162	160.0
326.35144	92.0
326.381165	92.0
326.449097	132.0
326.50174	336.0
326.561951	120.0
326.59671	96.0
326.6297	212.0
326.695801	172.0
326.748505	132.0
326.795746	220.0
326.819733	180.0
326.844818	96.0
326.891693	136.0
326.960052	152.0
327.05719	188.0
327.172943	13816.0
327.242523	160.0
327.278168	88.0
327.314545	76.0
327.339661	112.0
327.36496	92.0
327.412567	200.0
327.459747	252.0
327.515594	148.0
327.559631	144.0
327.594055	268.0
327.617859	192.0
327.652679	180.0
327.692413	136.0
327.733826	196.0
327.779327	92.0
327.807373	396.0
327.857513	144.0
327.891785	180.0
327.936676	172.0
327.96756	376.0
327.996613	232.0
328.11441	588.0
328.186737	191684.0
328.343994	196.0
328.411713	148.0
328.441284	104.0
328.486176	508.0
328.566071	404.0
328.6008	228.0
328.672638	128.0
328.721924	180.0
328.779327	596.0
328.805603	280.0
328.817871	168.0
328.830994	208.0
328.880432	220.0
328.894409	184.0
328.919861	104.0
328.969269	212.0
328.996948	136.0
329.022125	236.0
329.05368	340.0
329.099457	108.0
329.189178	44240.0
329.307007	76.0
329.337891	164.0
329.387177	128.0
329.426392	224.0
329.477112	80.0
329.545532	48.0
329.586304	148.0
329.616852	168.0
329.670563	80.0
329.721405	124.0
329.762604	184.0
329.799774	292.0
329.831116	224.0
329.876129	152.0
329.883148	148.0
329.932831	152.0
329.976898	252.0
330.004242	112.0
330.061737	156.0
330.111633	304.0
330.193054	4036.0
330.334595	144.0
330.345551	36.0
330.361786	128.0
330.392365	80.0
330.45755	76.0
330.498322	40.0
330.547485	104.0
330.569366	172.0
330.612793	44.0
330.684021	76.0
330.728516	112.0
330.770691	96.0
330.810791	96.0
330.848755	128.0
330.889038	148.0
330.918274	148.0
330.962189	80.0
331.006287	84.0
331.03595	192.0
331.088287	132.0
331.127838	104.0
331.193054	236.0
331.244934	208.0
331.279816	104.0
331.305054	108.0
331.361206	88.0
331.405884	280.0
331.44693	176.0
331.476471	124.0
331.522095	164.0
331.566315	92.0
331.625488	132.0
331.693329	92.0
331.72403	104.0
331.762573	172.0
331.812347	208.0
331.835815	156.0
331.88562	72.0
331.911011	100.0
331.950897	76.0
331.974365	72.0
332.008942	104.0
332.037933	72.0
332.103973	92.0
332.19931	116.0
332.250519	80.0
332.319275	108.0
332.364441	32.0
332.461365	68.0
332.499451	184.0
332.63797	164.0
332.667816	68.0
332.704376	100.0
332.748566	68.0
332.756195	56.0
332.769287	120.0
332.800018	136.0
332.865387	56.0
332.930756	104.0
332.963867	68.0
333.043335	116.0
333.072418	36.0
333.097839	44.0
333.125183	76.0
333.25769	80.0
333.352173	80.0
333.450287	152.0
333.476715	148.0
333.50174	144.0
333.562988	40.0
333.617493	176.0
333.709747	88.0
333.777496	84.0
333.80899	168.0
333.85022	60.0
333.970245	68.0
333.999329	104.0
334.032074	44.0
334.13031	224.0
334.206726	60.0
334.25766	96.0
334.381378	188.0
334.548828	44.0
334.643494	68.0
334.763672	32.0
334.872925	84.0
335.10434	100.0
335.18988	128.0
335.407166	116.0
335.420898	72.0
335.428619	144.0
335.466888	44.0
335.499695	76.0
335.594482	96.0
335.671082	56.0
335.711182	76.0
335.930023	64.0
336.024872	88.0
336.165192	124.0
336.236542	104.0
336.298584	144.0
336.371582	36.0
336.466522	140.0
336.535889	60.0
336.809784	132.0
336.849976	32.0
336.889465	84.0
336.974182	72.0
337.018036	92.0
337.109375	116.0
337.22998	132.0
337.259247	64.0
337.495453	88.0
337.588287	52.0
337.807739	188.0
337.869934	64.0
337.932129	116.0
338.170013	76.0
338.334747	104.0
338.558105	112.0
338.766022	188.0
338.865814	136.0
338.927643	160.0
339.074677	148.0
339.206635	64.0
339.353302	224.0
339.432434	176.0
339.496307	56.0
339.576996	60.0
339.678345	164.0
339.852142	108.0
339.91452	68.0
339.987915	60.0
340.029327	112.0
340.087006	100.0
340.123718	156.0
340.296265	128.0
340.432129	68.0
340.472534	44.0
340.531281	72.0
340.663513	96.0
340.755371	180.0
340.795807	108.0
340.828857	104.0
340.921112	76.0
340.994232	84.0
341.03833	140.0
341.211121	124.0
341.336151	52.0
341.383942	124.0
341.531067	48.0
341.579529	68.0
341.607758	108.0
341.641418	72.0
341.983643	116.0
342.123535	88.0
342.156677	76.0
342.230316	168.0
342.451263	104.0
342.506531	136.0
342.587555	104.0
342.62442	108.0
342.69809	68.0
342.779175	208.0
342.878662	152.0
342.926575	172.0
342.970825	104.0
343.011353	184.0
343.059296	124.0
343.110901	92.0
343.324768	84.0
343.372711	100.0
343.409607	196.0
343.478271	220.0
343.627258	128.0
343.782227	128.0
343.837585	120.0
344.025848	160.0
344.092285	116.0
344.180908	76.0
344.276917	180.0
344.432068	152.0
344.5784	240.0
344.631561	208.0
344.675903	144.0
344.735016	160.0
344.767365	80.0
344.834808	192.0
345.057922	124.0
345.208221	124.0
345.252594	144.0
345.3573	144.0
345.456024	116.0
345.705292	176.0
345.8927	44.0
345.922333	80.0
346.003754	40.0
346.28891	104.0
346.388916	192.0
346.614929	156.0
346.748352	164.0
346.800232	52.0
346.993011	204.0
347.033783	92.0
347.113983	108.0
347.426941	72.0
347.588745	144.0
347.708557	112.0
347.760895	80.0
347.861145	124.0
347.916809	36.0
348.087616	188.0
348.176758	112.0
348.269592	192.0
348.295593	72.0
348.523865	64.0
348.826996	172.0
348.873566	128.0
349.035187	68.0
349.278168	152.0
349.369965	132.0
349.433197	108.0
349.474121	140.0
349.637878	76.0
349.742065	92.0
349.809937	160.0
349.861206	120.0
350.095795	200.0
350.171722	52.0
350.352814	220.0
350.591278	184.0
350.770203	68.0
350.796295	32.0
350.83728	100.0
350.952881	120.0
351.001343	144.0
351.086761	160.0
351.150513	136.0
351.254974	136.0
351.284058	100.0
351.340759	184.0
351.575836	112.0
351.792328	32.0
351.915558	44.0
352.213165	192.0
352.259155	48.0
352.449677	36.0
352.520691	124.0
352.595428	100.0
352.636536	96.0
352.86084	128.0
352.894501	96.0
352.995453	84.0
353.118866	72.0
353.186188	104.0
353.249786	196.0
353.657684	112.0
353.691345	148.0
353.978485	168.0
354.043304	72.0
354.305511	120.0
354.384216	128.0
354.417938	112.0
354.489136	144.0
354.530334	96.0
354.676514	160.0
354.77774	148.0
354.897705	192.0
354.983948	80.0
355.032715	128.0
355.066467	104.0
355.133972	80.0
355.212769	132.0
355.246521	200.0
355.302795	128.0
355.385345	172.0
355.456635	116.0
355.497925	132.0
355.779419	132.0
355.8461	148.0
355.853882	72.0
355.959656	132.0
356.026428	72.0
356.100067	124.0
356.154968	108.0
356.320251	124.0
356.696075	104.0
356.748688	168.0
356.887817	76.0
357.218781	80.0
357.2854	152.0
357.625183	148.0
357.881165	176.0
357.930115	140.0
358.043091	36.0
358.303009	120.0
358.355774	108.0
358.630859	132.0
358.781647	88.0
359.045624	116.0
359.166321	88.0
359.230438	120.0
359.264404	216.0
359.347382	100.0
359.721039	160.0
359.894684	156.0
359.940002	68.0
360.015533	120.0
360.121277	80.0
360.147736	140.0
360.238403	88.0
360.276154	196.0
360.397064	96.0
360.588226	132.0
360.756134	172.0
361.096436	156.0
361.296936	108.0
361.323425	200.0
361.78653	164.0
361.853302	196.0
361.9328	140.0
362.300201	180.0
362.33429	120.0
362.403564	100.0
362.497223	104.0
362.56546	112.0
362.622284	92.0
362.664001	128.0
362.762543	96.0
362.927856	212.0
363.001434	200.0
363.035553	188.0
363.284393	172.0
363.298431	104.0
363.361755	76.0
363.407288	84.0
363.468018	64.0
363.612213	228.0
363.69574	136.0
363.828583	160.0
363.953888	160.0
364.177948	116.0
364.212128	60.0
364.269135	180.0
364.310913	60.0
364.417297	124.0
364.611084	172.0
364.717529	124.0
365.033081	88.0
365.074921	72.0
365.261292	44.0
365.736938	96.0
365.803009	180.0
365.853577	112.0
366.191284	468.0
366.361481	156.0
366.41098	48.0
366.677734	120.0
366.738739	92.0
366.773041	120.0
366.799713	88.0
366.975098	136.0
367.036102	76.0
367.169556	208.0
367.204041	116.0
367.30307	112.0
367.474762	164.0
367.63501	128.0
367.883118	120.0
368.197876	148.0
368.303162	172.0
368.337555	132.0
368.42923	116.0
368.513306	144.0
368.574432	124.0
368.807556	128.0
368.868713	172.0
369.350555	88.0
369.576263	208.0
369.652802	152.0
369.687225	88.0
369.967712	88.0
369.993469	156.0
370.26535	104.0
370.372589	120.0
370.57431	176.0
370.644592	68.0
370.924377	88.0
371.020233	48.0
371.411377	112.0
371.468933	88.0
371.518799	140.0
371.887177	32.0
371.971619	188.0
372.034485	160.0
372.067596	120.0
372.155914	128.0
372.311768	164.0
372.443939	116.0
372.501556	84.0
372.532288	104.0
372.563049	68.0
372.724396	120.0
372.80127	76.0
372.951172	132.0
372.993439	144.0
373.135681	68.0
373.447174	172.0
373.474091	144.0
373.761475	104.0
373.808838	48.0
373.858856	100.0
373.905029	128.0
374.139252	264.0
374.263062	132.0
374.367035	84.0
374.401703	124.0
374.517242	180.0
374.676056	88.0
374.725281	176.0
374.783051	28.0
374.944916	124.0
375.180054	160.0
375.261017	124.0
375.303436	60.0
375.365143	88.0
375.415253	88.0
375.530975	164.0
375.654419	196.0
375.777863	164.0
376.090454	92.0
376.283478	160.0
376.360687	80.0
376.928528	120.0
377.187469	196.0
377.280273	64.0
377.450378	128.0
377.504517	116.0
377.575867	144.0
377.96875	156.0
378.065491	96.0
378.189331	124.0
378.371277	316.0
378.510681	76.0
378.603607	76.0
378.704315	108.0
379.07666	120.0
379.138245	120.0
379.173126	140.0
379.285553	136.0
379.661652	148.0
379.878845	140.0
379.944794	104.0
380.030151	76.0
380.29895	124.0
380.545563	132.0
380.624054	132.0
380.837646	44.0
381.082397	136.0
381.272827	128.0
381.369995	140.0
381.541687	144.0
381.599365	200.0
381.638245	160.0
381.751007	168.0
381.809357	220.0
381.92215	136.0
381.961029	112.0
382.027161	212.0
382.132202	108.0
382.198364	152.0
382.283966	112.0
382.381256	116.0
382.544769	164.0
382.665436	96.0
382.696594	200.0
382.722748	140.0
382.879608	176.0
382.922455	160.0
383.015961	144.0
383.179565	84.0
383.510803	36.0
383.572296	176.0
383.658936	140.0
383.811005	172.0
383.928009	68.0
383.970886	136.0
384.060608	108.0
384.162048	32.0
384.345398	44.0
384.638123	112.0
385.239502	76.0
385.317657	100.0
385.391876	140.0
385.423157	144.0
385.538147	168.0
385.602905	92.0
385.747528	124.0
386.019409	180.0
386.271545	120.0
386.518036	80.0
386.730133	144.0
387.109131	124.0
387.171814	208.0
387.46167	124.0
387.696686	144.0
387.971161	124.0
388.088776	100.0
388.116241	124.0
388.198578	144.0
388.237793	116.0
388.465302	120.0
388.516296	368.0
388.89386	148.0
389.115173	108.0
389.167816	68.0
389.34848	104.0
389.471069	92.0
389.537018	156.0
389.6745	180.0
390.138275	160.0
390.209045	128.0
390.287689	160.0
390.42926	128.0
390.478149	168.0
390.570862	136.0
390.8974	112.0
391.027283	156.0
391.142426	156.0
391.21228	136.0
391.424347	168.0
391.468231	192.0
391.82666	84.0
391.90152	160.0
392.465179	104.0
392.575592	168.0
392.97403	336.0
393.001648	76.0
393.155548	56.0
393.254211	148.0
393.353149	120.0
393.416046	128.0
393.467377	84.0
393.656921	140.0
393.704315	64.0
393.897858	204.0
393.929443	188.0
393.992645	56.0
394.134888	92.0
394.233704	176.0
394.458984	120.0
394.549896	104.0
394.628998	252.0
394.680389	80.0
394.806946	148.0
394.861755	176.0
394.941406	128.0
395.07196	92.0
395.139221	44.0
395.226257	64.0
395.3013	116.0
395.347321	168.0
395.467682	96.0
395.527039	116.0
395.561676	432.0
395.64978	112.0
395.721039	112.0
396.109161	136.0
396.208191	112.0
396.562775	96.0
396.600525	36.0
396.913727	128.0
396.98114	140.0
397.028717	136.0
397.25943	120.0
397.294495	88.0
397.385742	96.0
397.441864	164.0
397.50592	168.0
397.814362	40.0
397.953339	136.0
398.036133	140.0
398.151886	80.0
398.214691	196.0
398.294861	68.0
398.394196	136.0
398.561646	180.0
398.615173	208.0
398.675629	96.0
398.855042	128.0
398.954529	60.0
399.03009	152.0
399.197083	160.0
399.344238	196.0
399.578949	84.0
399.833618	160.0
399.986816	172.0
400.343231	76.0
400.626038	148.0
400.75351	188.0
400.853149	136.0
400.881042	112.0
400.968719	124.0
401.092285	80.0
401.156067	144.0
401.207886	112.0
401.355408	220.0
401.494995	152.0
401.754272	52.0
401.869965	56.0
402.25708	228.0
402.476685	84.0
402.576508	84.0
402.832153	100.0
403.091858	132.0
403.263702	128.0
403.379639	140.0
403.445374	144.0
403.499573	148.0
403.547424	156.0
403.644653	112.0
403.675507	108.0
403.739471	108.0
403.803467	140.0
404.049835	224.0
404.543762	184.0
404.844055	164.0
404.936157	56.0
405.176514	152.0
405.220581	52.0
405.36084	148.0
405.533173	132.0
405.95816	168.0
405.986237	44.0
406.523743	120.0
406.828857	92.0
406.858673	112.0
407.009552	164.0
407.073792	52.0
407.13916	128.0
407.230408	76.0
407.330841	60.0
407.459412	108.0
407.796967	148.0
407.929596	148.0
407.96579	128.0
408.182922	124.0
408.363892	144.0
408.428253	60.0
408.476501	92.0
408.806458	204.0
408.862793	32.0
408.93927	84.0
409.015747	200.0
409.088196	132.0
409.144562	140.0
409.253265	124.0
409.28952	80.0
409.615753	140.0
409.704376	164.0
409.760773	132.0
410.050903	56.0
410.079132	180.0
410.155701	100.0
410.40567	172.0
410.52832	136.0
410.611328	168.0
410.776733	76.0
410.950195	176.0
410.998627	140.0
411.160034	168.0
411.313416	80.0
411.474915	96.0
411.632385	120.0
411.660645	180.0
411.692963	120.0
411.765656	132.0
411.842407	156.0
411.955505	116.0
411.983795	76.0
412.092865	40.0
412.222168	112.0
412.282806	112.0
412.371704	96.0
412.424255	56.0
412.452545	160.0
413.120483	144.0
413.245209	184.0
413.370667	80.0
413.56897	196.0
413.738983	264.0
414.224976	120.0
414.46402	44.0
414.504517	60.0
414.57605	160.0
414.68689	68.0
414.715271	72.0
414.930115	132.0
415.027435	136.0
415.11261	140.0
415.222107	96.0
415.753571	124.0
415.810394	160.0
415.972748	92.0
416.07019	128.0
416.131104	156.0
416.187927	140.0
416.252899	60.0
416.309753	80.0
416.399109	64.0
416.43161	148.0
416.472229	176.0
416.500671	112.0
416.638916	112.0
416.780975	132.0
416.971985	140.0
417.045166	212.0
417.130524	64.0
417.175232	204.0
417.415131	108.0
417.585938	132.0
417.915436	56.0
417.969147	104.0
418.131134	156.0
418.200317	112.0
418.269531	128.0
418.456787	144.0
418.501587	124.0
418.548737	136.0
418.766296	144.0
418.900726	136.0
419.014801	196.0
419.251129	156.0
419.446777	160.0
419.681366	152.0
419.764801	48.0
419.796814	160.0
419.858582	96.0
420.42569	88.0
420.507294	324.0
420.695068	64.0
420.723663	116.0
420.795105	104.0
420.929382	136.0
421.087189	108.0
421.156525	144.0
421.340363	100.0
421.516052	232.0
421.577362	172.0
421.679535	80.0
421.926117	160.0
422.370544	108.0
422.476898	120.0
422.722412	100.0
422.801941	140.0
422.882019	68.0
422.914764	136.0
423.041656	120.0
423.258667	208.0
423.31601	60.0
423.373322	108.0
423.422485	108.0
423.475739	128.0
423.543823	160.0
423.684631	120.0
423.776306	128.0
423.844452	112.0
424.14682	144.0
424.205109	136.0
424.266602	28.0
424.340393	196.0
424.406006	128.0
424.623352	68.0
424.661835	304.0
424.869476	88.0
425.0336	60.0
425.144409	52.0
425.230591	144.0
425.304474	72.0
425.435852	76.0
425.657562	152.0
425.875214	48.0
425.92041	116.0
425.957367	136.0
426.031342	112.0
426.076508	32.0
426.162811	120.0
426.278503	52.0
426.355927	192.0
426.59433	132.0
426.816376	52.0
426.976746	88.0
427.059021	56.0
427.104248	152.0
427.157745	112.0
427.202972	212.0
427.359314	120.0
427.622711	136.0
427.980865	124.0
428.083801	112.0
428.192993	180.0
428.236206	180.0
428.281525	124.0
428.471863	76.0
428.572571	80.0
428.631714	132.0
428.730621	140.0
428.808075	176.0
429.122223	128.0
429.221191	100.0
429.31604	96.0
429.505768	120.0
429.885345	128.0
429.988525	60.0
430.021545	132.0
430.122925	204.0
430.182526	116.0
430.310516	76.0
430.343536	36.0
430.459167	204.0
430.628479	176.0
430.66153	88.0
431.008575	148.0
431.054016	160.0
431.25238	164.0
431.450806	84.0
431.698914	136.0
431.827118	80.0
431.8685	180.0
432.021545	124.0
432.075317	212.0
432.108429	128.0
432.542969	156.0
432.580231	76.0
432.683716	60.0
432.807953	128.0
432.870056	124.0
433.031555	112.0
433.072998	76.0
433.292542	108.0
433.450012	64.0
433.495575	148.0
433.710724	132.0
433.770111	84.0
434.046936	160.0
434.153992	200.0
434.279175	176.0
434.544678	68.0
434.860077	88.0
435.015717	120.0
435.04071	124.0
435.159332	276.0
435.237854	160.0
435.412262	68.0
435.453796	176.0
435.736298	44.0
435.890015	216.0
435.964813	144.0
436.064575	204.0
436.279694	160.0
436.526062	96.0
436.800568	108.0
436.852448	164.0
436.950317	124.0
437.04187	92.0
437.070984	140.0
437.204163	80.0
437.262421	44.0
437.308197	200.0
437.428925	36.0
437.605072	156.0
437.861969	132.0
437.916107	140.0
438.095245	208.0
438.14566	160.0
438.774567	104.0
438.895477	340.0
439.016418	200.0
439.049774	156.0
439.170715	176.0
439.204102	144.0
439.265045	124.0
439.325073	164.0
439.448517	164.0
439.617157	156.0
439.817505	80.0
439.876343	124.0
439.967773	128.0
440.070618	120.0
440.138977	136.0
440.388428	108.0
440.554047	112.0
440.694519	52.0
440.846954	92.0
440.941071	136.0
441.296387	224.0
441.434387	224.0
441.509674	200.0
441.627899	136.0
441.702087	92.0
441.823395	124.0
441.877777	56.0
442.246033	156.0
442.426056	140.0
442.488861	136.0
442.651367	188.0
442.702423	60.0
442.828064	140.0
442.865753	100.0
442.899261	92.0
442.983032	172.0
443.279388	176.0
443.294006	128.0
443.360138	100.0
443.457458	148.0
443.812897	216.0
443.846436	100.0
443.930298	228.0
443.959656	176.0
444.078613	144.0
444.358154	28.0
444.505035	168.0
444.635132	144.0
444.752655	48.0
444.899567	108.0
444.987915	96.0
445.075928	88.0
445.188263	124.0
445.239685	92.0
445.432922	64.0
445.684998	228.0
445.76062	104.0
446.668793	96.0
446.800964	124.0
446.900177	44.0
446.954895	88.0
447.013794	120.0
447.114807	112.0
447.321045	84.0
447.684906	172.0
447.919037	132.0
448.011688	88.0
448.129669	96.0
448.21817	168.0
448.271729	168.0
448.517395	88.0
448.614349	96.0
448.652283	80.0
448.760498	144.0
448.829041	96.0
448.86734	124.0
449.099304	80.0
449.183655	44.0
449.390381	52.0
449.449463	96.0
449.677338	92.0
449.749115	144.0
449.934845	176.0
450.040405	188.0
450.086853	76.0
450.227661	140.0
450.509216	204.0
450.919098	52.0
451.24884	180.0
451.278412	84.0
451.565887	148.0
451.579773	200.0
451.798645	112.0
451.853638	76.0
451.946747	88.0
451.993286	176.0
452.157837	140.0
452.251434	124.0
452.369965	72.0
452.399597	124.0
452.433472	124.0
452.666351	140.0
452.776459	160.0
452.835754	40.0
452.958588	180.0
453.013672	56.0
453.378082	116.0
453.450134	180.0
453.53064	168.0
453.589996	108.0
453.700226	164.0
453.806213	124.0
453.869812	72.0
453.97583	140.0
454.074249	188.0
454.153595	188.0
454.49762	116.0
454.556366	128.0
454.612183	132.0
454.837128	116.0
455.155548	48.0
455.251434	164.0
455.333923	224.0
455.533569	32.0
455.586609	132.0
455.652527	140.0
455.748352	116.0
455.869232	104.0
455.981506	180.0
456.094482	136.0
456.130493	204.0
456.226257	56.0
456.260284	112.0
456.430359	192.0
456.655762	200.0
456.813141	88.0
456.893982	120.0
456.932281	120.0
457.00885	160.0
457.081207	124.0
457.115234	112.0
457.213104	52.0
457.255676	100.0
457.315277	108.0
457.498322	88.0
457.545135	108.0
457.574951	76.0
457.609009	104.0
457.656982	104.0
457.736755	128.0
457.785156	192.0
457.846497	120.0
457.919891	48.0
458.175476	136.0
458.273468	124.0
458.384247	140.0
458.443909	52.0
458.543671	88.0
458.708191	148.0
458.760956	136.0
458.831818	124.0
458.874451	48.0
458.940674	188.0
458.994446	192.0
459.038879	100.0
459.083405	84.0
459.153961	88.0
459.205353	228.0
459.266602	96.0
459.313721	192.0
459.373138	120.0
459.407562	96.0
459.486084	168.0
459.569092	112.0
459.657379	116.0
459.704956	80.0
459.759338	136.0
459.814209	120.0
459.878845	72.0
459.919647	212.0
459.953796	96.0
459.987946	80.0
460.020477	204.0
460.07077	112.0
460.145203	96.0
460.218414	624.0
460.280609	156.0
460.328705	160.0
460.38504	328.0
460.437775	284.0
460.515594	328.0
460.586517	132.0
460.646057	388.0
460.71933	320.0
460.749084	268.0
460.823547	256.0
460.872192	104.0
460.913208	348.0
460.969788	236.0
461.018707	436.0
461.096497	272.0
461.154175	180.0
461.21225	400.0
461.257599	144.0
461.267731	224.0
461.317627	388.0
461.375244	260.0
461.434875	384.0
461.467194	300.0
461.513062	128.0
461.579742	92.0
461.627075	344.0
461.670258	124.0
461.706421	172.0
461.729736	164.0
461.777649	596.0
461.852478	180.0
461.889099	1256.0
461.928833	312.0
461.995239	452.0
462.01236	368.0
462.038422	568.0
462.110291	724.0
462.235443	250540.0
462.350983	164.0
462.381165	168.0
462.434753	116.0
462.472504	184.0
462.530426	244.0
462.564911	204.0
462.614655	368.0
462.655975	656.0
462.731476	332.0
462.738739	348.0
462.757202	524.0
462.79361	244.0
462.880829	248.0
462.942261	3928.0
462.993256	432.0
463.0914	432.0
463.156128	476.0
463.237915	131416.0
463.338623	272.0
463.36795	180.0
463.43103	144.0
463.505402	236.0
463.542877	284.0
463.584137	252.0
463.63443	136.0
463.678955	580.0
463.725494	104.0
463.762115	112.0
463.805328	168.0
463.877197	208.0
463.945953	564.0
464.007965	260.0
464.074219	200.0
464.115295	104.0
464.154114	452.0
464.240265	13520.0
464.38382	192.0
464.448486	212.0
464.502594	136.0
464.53949	208.0
464.577728	136.0
464.632507	196.0
464.664337	120.0
464.708038	232.0
464.782623	128.0
464.829956	80.0
464.870972	92.0
464.92746	116.0
464.971893	152.0
465.022064	188.0
465.071777	256.0
465.125092	136.0
465.18454	76.0
465.190826	84.0
465.242462	1924.0
465.319489	116.0
465.368347	172.0
465.398193	168.0
465.484314	92.0
465.516907	332.0
465.57486	320.0
465.615234	204.0
465.657715	256.0
465.675934	152.0
465.7435	220.0
465.762329	96.0
465.776886	108.0
465.804657	264.0
465.864746	344.0
465.96225	140.0
465.995239	220.0
466.030426	272.0
466.116608	104.0
466.17984	132.0
466.221741	344.0
466.274567	236.0
466.316467	200.0
466.386963	56.0
466.459076	104.0
466.523682	128.0
466.581024	132.0
466.594055	132.0
466.668182	204.0
466.806213	208.0
466.861938	80.0
466.948517	28.0
466.989441	76.0
467.053925	152.0
467.097778	124.0
467.129822	176.0
467.197296	180.0
467.245728	112.0
467.280579	300.0
467.346741	92.0
467.393829	116.0
467.458374	64.0
467.494171	68.0
467.62677	124.0
467.732849	28.0
467.784454	160.0
467.815186	100.0
467.830841	84.0
467.850616	56.0
467.864807	88.0
467.901978	52.0
467.987061	84.0
468.016998	184.0
468.053314	56.0
468.08313	136.0
468.151733	120.0
468.195831	84.0
468.242188	140.0
468.272339	48.0
468.312622	56.0
468.352448	100.0
468.461853	48.0
468.535583	72.0
468.61264	48.0
468.654144	120.0
468.703125	72.0
468.793976	52.0
468.862579	48.0
468.910004	36.0
468.948792	72.0
469.009125	64.0
469.086182	64.0
469.142761	52.0
469.215515	64.0
469.315216	92.0
469.378937	36.0
469.431641	60.0
469.565796	76.0
469.625732	40.0
469.744995	80.0
469.785339	76.0
469.837128	56.0
469.960297	104.0
470.1521	28.0
470.216858	68.0
470.292267	104.0
470.350647	64.0
470.385193	44.0
470.441315	56.0
470.516052	128.0
470.596741	36.0
470.674469	56.0
470.7565	108.0
470.844666	68.0
471.03891	52.0
471.146973	84.0
471.339691	104.0
471.426117	68.0
471.473663	36.0
471.512543	84.0
471.642212	84.0
471.750305	60.0
471.962158	80.0
472.044312	60.0
472.295166	104.0
472.400208	112.0
472.572052	76.0
472.700775	48.0
472.758118	84.0
473.0784	76.0
473.130371	88.0
473.203979	56.0
473.48111	52.0
473.632721	72.0
473.751617	80.0
474.096313	60.0
474.152649	88.0
474.187317	44.0
474.33905	100.0
474.373718	52.0
474.491211	116.0
474.542816	104.0
474.698914	80.0
474.802979	88.0
475.067596	64.0
475.123993	88.0
475.440765	88.0
475.544922	116.0
475.633911	72.0
476.291748	52.0
476.427979	68.0
476.508972	56.0
476.613251	40.0
476.656708	108.0
476.860962	140.0
476.921814	112.0
476.98703	140.0
477.139191	140.0
477.195709	88.0
477.247894	132.0
477.304413	76.0
477.756775	68.0
477.883362	40.0
477.931976	176.0
477.992645	76.0
478.064392	80.0
478.204956	76.0
478.47052	76.0
478.531464	52.0
478.932129	56.0
478.997467	176.0
479.04538	56.0
479.189148	72.0
479.341675	32.0
479.435028	104.0
479.549561	108.0
479.585724	32.0
479.620605	76.0
479.8255	176.0
479.877808	64.0
480.00293	104.0
480.046509	116.0
480.095856	28.0
480.343384	112.0
480.470978	52.0
480.545135	60.0
480.59314	124.0
480.68042	72.0
480.977203	104.0
481.357056	52.0
481.780731	64.0
481.959869	144.0
482.51059	140.0
482.554321	68.0
482.702972	88.0
482.759827	80.0
482.969788	60.0
483.074768	60.0
483.332886	84.0
483.424805	60.0
483.459808	36.0
483.788086	52.0
483.818726	132.0
483.954468	88.0
484.086884	100.0
484.147156	80.0
484.234741	108.0
484.707886	56.0
484.797729	96.0
484.918243	40.0
484.984009	40.0
485.040985	92.0
485.084808	52.0
485.634888	72.0
485.70752	108.0
485.843506	36.0
486.260376	44.0
486.778412	72.0
486.945312	48.0
487.476898	100.0
488.013184	44.0
488.052765	56.0
488.149506	100.0
488.26825	44.0
488.743347	92.0
489.055817	96.0
489.165863	44.0
489.20108	88.0
490.024658	56.0
490.117188	76.0
490.293488	44.0
490.628479	84.0
490.721069	108.0
491.091522	68.0
491.351776	108.0
492.124176	120.0
493.038605	48.0
493.679657	52.0
495.981995	52.0
497.050842	88.0
497.521332	124.0
498.765198	140.0
498.822968	64.0
499.031952	52.0
499.730255	96.0
499.903809	72.0
500.75415	56.0
501.734497	40.0
502.175537	80.0
502.336578	84.0
503.014862	136.0
503.090759	68.0
503.255951	68.0
504.256653	104.0
504.726044	68.0
506.803009	64.0
507.600922	64.0
508.637329	72.0
508.97406	80.0
510.510925	132.0
511.891632	84.0
513.672852	116.0
513.71344	64.0
513.754028	44.0
515.424622	68.0
515.971558	72.0
516.930481	72.0
517.15802	72.0
517.650269	72.0
517.777039	48.0
519.186584	48.0
519.594788	48.0
519.685547	44.0
520.225647	124.0
521.943115	104.0
522.097717	80.0
522.200317	100.0
522.461609	116.0
522.757385	32.0
525.240479	64.0
525.477722	100.0
526.121277	68.0
526.774292	100.0
528.282898	104.0
530.371094	60.0
530.426086	60.0
530.999268	52.0
531.636963	48.0
531.806763	80.0
532.683838	76.0
533.198486	72.0
534.983215	60.0
536.02417	100.0
538.090576	48.0
538.224487	96.0
538.298401	88.0
539.638428	108.0
540.262817	80.0
540.961609	40.0
542.504272	76.0
542.773193	84.0
542.856689	100.0
544.546021	48.0
546.754456	72.0
547.410889	76.0
547.657776	44.0
549.63916	64.0
554.615356	84.0
555.844116	108.0
556.853516	68.0
557.703979	88.0
558.112976	88.0
558.277588	108.0
558.959656	108.0
559.444458	100.0
559.632812	92.0
559.863525	80.0
560.637024	112.0
560.994385	92.0
561.352783	80.0
561.494263	256.0
561.777283	44.0
564.100708	108.0
564.460022	120.0
565.59082	80.0
565.623962	112.0
566.391052	100.0
567.097107	84.0
567.206116	44.0
567.343567	108.0
568.183044	84.0
568.648071	52.0
569.44574	68.0
569.904724	116.0
571.832581	68.0
573.065979	100.0
576.979736	80.0
577.027527	76.0
578.088806	132.0
579.133179	60.0
580.527893	64.0
581.051697	100.0
581.271423	72.0
582.889771	100.0
583.307922	80.0
584.077271	36.0
585.463501	68.0
585.954834	40.0
586.176453	36.0
587.285339	88.0
589.259827	96.0
589.298462	72.0
590.860168	64.0
591.958923	60.0
592.201111	128.0
592.462708	144.0
594.2323	56.0
594.712769	92.0
595.946289	60.0
596.00946	100.0
596.490601	116.0
596.685059	92.0
598.78241	64.0
599.147766	88.0
600.278564	60.0
600.898071	48.0
602.269897	84.0
602.401794	128.0
604.748962	136.0
605.199341	40.0
605.640076	96.0
605.943848	108.0
606.193726	48.0
606.242737	100.0
606.438782	80.0
606.830994	60.0
607.218384	60.0
607.704041	40.0
609.206421	136.0
609.51593	128.0
610.651611	60.0
612.581177	68.0
612.869263	120.0
613.665405	60.0
614.424988	116.0
614.464478	60.0
614.503906	92.0
615.960327	60.0
616.21228	68.0
617.101929	72.0
617.270081	60.0
619.096191	92.0
620.716675	100.0
620.979492	148.0
622.458435	72.0
622.637268	148.0
624.60553	100.0
625.506226	52.0
625.770081	124.0
626.113708	52.0
626.786255	48.0
626.94574	40.0
627.005493	132.0
627.324524	80.0
627.868042	96.0
628.237183	120.0
628.95575	112.0
629.040588	100.0
629.509949	88.0
629.764648	60.0
629.874573	76.0
631.044006	72.0
631.634155	44.0
631.669189	120.0
633.005554	120.0
633.125732	84.0
635.426575	96.0
638.375122	128.0
638.50592	128.0
638.950562	112.0
640.332886	40.0
640.539429	124.0
641.073486	124.0
641.638062	48.0
641.683411	48.0
642.732605	48.0
644.424133	116.0
644.954773	52.0
645.40979	28.0
645.531128	28.0
645.677795	68.0
648.107727	88.0
648.345947	68.0
650.440735	84.0
651.309021	60.0
652.757507	84.0
654.243286	116.0
657.699585	96.0
662.609009	132.0
663.116333	128.0
663.577698	116.0
666.574341	80.0
666.688416	120.0
666.929993	48.0
667.341309	76.0
667.660095	52.0
668.009888	80.0
668.189941	120.0
669.430481	68.0
669.832214	40.0
670.502075	48.0
671.084595	84.0
671.533264	44.0
672.336365	60.0
673.164124	60.0
673.339722	112.0
673.814941	68.0
673.964783	72.0
674.259338	72.0
674.774597	108.0
675.241699	40.0
675.412415	68.0
676.022949	52.0
676.400757	48.0
678.566284	80.0
678.861877	92.0
678.9552	128.0
681.77948	48.0
682.008179	80.0
682.580078	64.0
683.615295	44.0
683.734985	92.0
684.245117	108.0
684.672119	40.0
684.995056	60.0
685.797546	80.0
686.511841	68.0
688.202576	60.0
689.45105	80.0
690.161987	68.0
690.847168	92.0
691.009338	80.0
691.585022	60.0
691.76825	76.0
693.00946	44.0
693.538818	84.0
694.755432	44.0
695.175171	64.0
697.21283	136.0
697.675415	44.0
698.921936	44.0
699.932617	68.0
701.486938	88.0
703.892822	120.0
705.768738	96.0
706.160095	168.0
706.593872	72.0
708.828369	36.0
710.318237	80.0
710.519836	116.0
711.299927	40.0
712.207947	72.0
712.585144	68.0
716.128113	52.0
717.23114	132.0
717.396362	28.0
717.540344	116.0
718.121582	84.0
718.569702	68.0
719.781372	56.0
719.845459	72.0
720.598633	76.0
720.876465	96.0
721.261292	56.0
721.373535	64.0
721.576721	76.0
722.935364	60.0
723.208374	44.0
723.781189	40.0
723.936462	116.0
724.134644	92.0
724.188232	132.0
725.179443	128.0
725.715576	48.0
726.219666	52.0
728.221741	36.0
728.388245	84.0
728.737488	52.0
728.866455	32.0
728.963135	40.0
729.909302	56.0
730.269592	72.0
730.307251	56.0
730.716125	48.0
731.313477	84.0
732.902161	28.0
733.953308	116.0
735.183228	52.0
735.604248	116.0
736.219788	44.0
736.538452	60.0
738.780457	104.0
742.888367	44.0
745.902283	232.0
747.517639	32.0
747.572083	84.0
747.680908	76.0
748.110962	64.0
748.15448	44.0
748.666321	40.0
748.82666	116.0
749.554321	88.0
749.979431	76.0
750.573669	80.0
751.11908	108.0
752.024841	56.0
752.123108	68.0
753.635925	44.0
753.985657	100.0
754.379211	116.0
756.534668	64.0
757.279419	92.0
757.394409	44.0
757.788879	64.0
759.170227	52.0
760.882263	184.0
765.198242	184.0
769.95166	52.0
770.040039	64.0
771.034546	108.0
771.952271	80.0
772.682434	148.0
772.986755	44.0
773.307739	72.0
774.326477	84.0
775.916931	116.0
776.532471	140.0
777.397949	64.0
777.908569	76.0
778.025146	52.0
778.263916	112.0
778.419373	84.0
778.530457	112.0
779.808289	80.0
781.231873	76.0
781.309753	44.0
784.651428	56.0
785.627441	116.0
785.923157	104.0
786.103088	128.0
788.117554	68.0
788.195801	80.0
788.972717	184.0
790.169617	48.0
794.141418	184.0
794.837097	116.0
797.785828	104.0
800.497864	116.0
802.351685	68.0
804.100403	84.0
804.444763	56.0
804.919006	52.0
805.122314	176.0
810.241577	168.0
813.413086	156.0
813.513367	196.0
813.775085	64.0
813.928406	204.0
814.484985	76.0
814.752014	60.0
815.752197	88.0
816.753052	144.0
816.838379	168.0
817.077332	96.0
817.208191	48.0
818.551514	60.0
821.007751	60.0
822.439819	76.0
822.56543	176.0
823.381958	104.0
823.610413	156.0
823.958923	176.0
824.267456	92.0
824.776123	40.0
824.85614	64.0
825.279236	240.0
826.434631	64.0
826.686401	72.0
827.367554	64.0
829.424194	200.0
829.894287	56.0
830.002625	164.0
830.255554	200.0
831.690002	148.0
831.844971	264.0
832.057373	84.0
832.361694	100.0
832.734985	104.0
832.838379	100.0
836.271118	76.0
836.77771	108.0
837.249939	56.0
838.246582	104.0
839.468689	52.0
840.108948	144.0
840.264709	32.0
841.984924	48.0
843.03064	140.0
843.313843	44.0
843.73584	64.0
845.41333	36.0
846.003723	96.0
846.322144	48.0
847.544373	80.0
848.680481	184.0
849.86377	68.0
850.159729	208.0
851.663452	72.0
851.79126	164.0
852.906982	132.0
853.354614	96.0
853.587219	176.0
853.912903	160.0
854.610962	48.0
857.05658	192.0
857.208069	84.0
857.930847	88.0
858.064941	220.0
858.846375	128.0
859.634033	64.0
859.797424	88.0
860.311096	100.0
860.667297	88.0
862.273804	88.0
862.560242	128.0
862.758972	92.0
863.788269	104.0
865.210327	52.0
867.254822	252.0
867.577209	72.0
867.630005	52.0
868.42749	204.0
868.703186	36.0
868.826416	108.0
869.01416	80.0
869.565796	168.0
870.710693	68.0
873.567383	104.0
877.189087	228.0
877.283447	124.0
879.552551	80.0
880.948242	124.0
881.060486	60.0
881.515503	48.0
884.005127	72.0
884.401672	76.0
886.036133	128.0
887.172791	240.0
887.950867	200.0
888.027954	48.0
888.733948	212.0
889.618286	120.0
890.330811	48.0
890.378296	64.0
891.031738	100.0
891.168396	76.0
891.417969	40.0
893.380127	156.0
894.135803	140.0
895.034729	136.0
895.261047	140.0
896.86377	100.0
899.112366	120.0
899.321289	116.0
899.960083	112.0
901.788147	144.0
901.830017	176.0
902.344116	136.0
902.493591	76.0
902.936096	44.0
903.522339	108.0
906.238464	192.0
906.911804	148.0
907.859131	152.0
907.949097	44.0
908.608948	100.0
908.908936	60.0
908.99292	192.0
909.737183	168.0
910.782104	120.0
910.850525	256.0
910.968323	68.0
911.058411	168.0
911.725403	116.0
913.144287	40.0
914.305481	80.0
914.949585	120.0
915.919189	64.0
916.431274	68.0
916.877197	188.0
917.256897	100.0
919.530945	200.0
920.219116	196.0
920.895508	148.0
921.131104	52.0
921.233765	48.0
922.067627	64.0
922.829346	124.0
923.609497	172.0
925.037598	44.0
925.2677	72.0
925.770264	44.0
927.703125	92.0
928.734009	148.0
928.812866	48.0
930.469666	32.0
930.773254	168.0
931.423096	180.0
931.89093	60.0
931.994202	92.0
932.978821	204.0
933.106506	88.0
934.899719	96.0
935.55835	96.0
936.088074	124.0
936.307312	196.0
936.80072	60.0
937.080994	192.0
937.16626	108.0
937.720825	212.0
938.617065	100.0
942.077759	216.0
942.450439	60.0
943.10437	52.0
943.176086	104.0
943.856384	144.0
944.602539	76.0
944.737122	40.0
945.397949	148.0
946.150879	76.0
947.9823	112.0
948.840454	136.0
948.938599	124.0
949.815552	148.0
950.37384	172.0
951.28833	224.0
952.154114	120.0
952.307678	72.0
952.965027	124.0
954.981445	64.0
956.132019	172.0
956.31665	108.0
957.11084	60.0
957.197021	132.0
958.348938	164.0
959.076172	56.0
960.543762	96.0
960.889221	96.0
961.73468	152.0
961.907532	188.0
962.852234	112.0
962.907837	112.0
963.099304	132.0
963.593506	140.0
964.359802	164.0
964.724548	136.0
964.934753	108.0
966.245972	120.0
966.740967	184.0
967.359924	96.0
967.649292	180.0
967.880005	168.0
969.459717	164.0
969.521667	152.0
969.62085	184.0
970.680969	136.0
970.891785	44.0
971.133667	156.0
971.344604	288.0
971.505859	44.0
971.707092	168.0
971.934021	164.0
972.480103	132.0
973.119568	52.0
973.218872	100.0
973.299622	56.0
974.467346	48.0
975.785034	152.0
976.313599	148.0
976.437988	204.0
977.147156	88.0
977.800537	68.0
978.012146	76.0
979.519104	128.0
979.880432	136.0
980.142151	76.0
981.126953	52.0
981.962524	168.0
982.099792	124.0
982.698669	256.0
983.150635	168.0
983.859558	44.0
984.103088	68.0
985.00238	48.0
985.127319	96.0
985.356262	344.0
985.708618	120.0
985.833374	180.0
987.890503	188.0
988.178345	188.0
988.628845	196.0
988.678955	68.0
988.804138	164.0
989.148376	140.0
989.574097	196.0
990.479797	104.0
990.688904	160.0
990.952087	144.0
991.052307	112.0
991.190186	196.0
991.490967	136.0
992.688416	32.0
993.108582	164.0
993.227783	196.0
994.344666	160.0
994.389343	172.0
994.489014	44.0
994.595764	192.0
994.928467	132.0
995.493591	92.0
996.272461	116.0
996.460938	232.0
996.567749	92.0
996.96991	44.0
997.221313	56.0
998.075806	192.0
998.648621	52.0
999.227356	112.0
999.988831	144.0
1000.234314	96.0
1000.290955	52.0
1000.654541	168.0
1000.863892	136.0
1000.977234	76.0
1001.361389	92.0
1001.487366	88.0
1001.63855	164.0
1002.690857	208.0
1003.163147	108.0
1004.084229	140.0
1004.500488	56.0
1006.450745	120.0
1008.491333	160.0
1008.95282	156.0
1009.642029	104.0
1011.033875	104.0
1011.483276	200.0
1011.856812	104.0
1012.381165	272.0
1012.718079	96.0
1013.161499	88.0
1013.319885	168.0
1013.605042	40.0
1014.067688	132.0
1015.076843	184.0
1015.291321	192.0
1015.849548	180.0
1016.014465	112.0
1016.445923	152.0
1017.429749	120.0
1017.575806	108.0
1017.867859	132.0
1018.109192	140.0
1018.312439	96.0
1019.042969	180.0
1019.570435	56.0
1019.653625	168.0
1019.837341	76.0
1020.600281	44.0
1021.253845	188.0
1021.306213	80.0
1022.025085	56.0
1022.873962	140.0
1022.954346	224.0
1023.883972	76.0
1024.259766	84.0
1024.501831	160.0
1024.973389	216.0
1025.617065	228.0
1025.661621	184.0
1025.891113	148.0
1026.10791	196.0
1026.41394	48.0
1026.854004	160.0
1026.955078	148.0
1029.196167	200.0
1029.279175	144.0
1029.3302	196.0
1029.636841	100.0
1029.700684	88.0
1030.588623	100.0
1031.464233	160.0
1031.560059	72.0
1031.675171	236.0
1031.918091	260.0
1032.065186	240.0
1033.158936	228.0
1034.163574	136.0
1034.205444	132.0
1034.516846	84.0
1034.605347	156.0
1035.015015	260.0
1035.168701	52.0
1035.402466	224.0
1035.501831	96.0
1035.847656	116.0
1036.427612	148.0
1036.962646	116.0
1037.180542	140.0
1038.418091	168.0
1038.604126	156.0
1039.027466	100.0
1039.655396	120.0
1040.163452	144.0
1040.985229	164.0
1041.177856	144.0
1041.306396	96.0
1042.539917	144.0
1043.092651	96.0
1044.082886	148.0
1044.314453	124.0
1044.526733	224.0
1044.925537	104.0
1045.311646	112.0
1045.858765	100.0
1046.135498	180.0
1046.264282	140.0
1046.322266	48.0
1046.553955	44.0
1046.714966	48.0
1047.197998	192.0
1047.391235	200.0
1047.442749	140.0
1047.558716	40.0
1048.273926	36.0
1048.460815	132.0
1049.814697	152.0
1050.608032	192.0
1051.750244	92.0
1051.814819	188.0
1052.034302	76.0
1052.111816	56.0
1052.428223	116.0
1052.546753	196.0
1052.822144	88.0
1053.151489	144.0
1053.524902	176.0
1054.831543	296.0
1055.28418	228.0
1055.814453	156.0
1056.118408	176.0
1056.3125	212.0
1056.661865	112.0
1056.78479	148.0
1057.050049	168.0
1057.690796	112.0
1057.800903	124.0
1058.001587	148.0
1058.687866	148.0
1058.746216	152.0
1058.914551	96.0
1059.044189	76.0
1059.536499	184.0
1060.339966	136.0
1060.625244	148.0
1060.683472	172.0
1061.1698	36.0
1061.831177	128.0
1062.973022	128.0
1063.206665	196.0
1063.303955	152.0
1063.725952	132.0
1063.829834	224.0
1063.979126	184.0
1064.27124	172.0
1064.446655	80.0
1064.553467	176.0
1065.48584	228.0
1065.927734	60.0
1066.525635	176.0
1066.675171	204.0
1067.123779	116.0
1067.175781	196.0
1068.307495	172.0
1068.984009	148.0
1069.342041	144.0
1069.433228	152.0
1069.621948	120.0
1070.331665	148.0
1070.468384	104.0
1070.950317	124.0
1071.862427	152.0
1072.129639	44.0
1073.009644	88.0
1073.520752	216.0
1074.131348	256.0
1074.190063	180.0
1074.340088	120.0
1074.809937	104.0
1076.245972	152.0
1076.513672	216.0
1077.480469	116.0
1078.166504	176.0
1078.336548	180.0
1079.238647	136.0
1079.971191	140.0
1080.067505	120.0
1080.324341	128.0
1080.409424	124.0
1081.233887	188.0
1082.752808	152.0
1083.466919	180.0
1084.29248	148.0
1085.151245	192.0
1085.406982	116.0
1085.60376	156.0
1085.774292	40.0
1085.910522	124.0
1086.541748	152.0
1087.259155	196.0
1087.467041	60.0
1087.585205	168.0
1087.795288	208.0
1088.044678	168.0
1088.202271	156.0
1088.412354	176.0
1089.05603	236.0
1089.634155	172.0
1089.739258	192.0
1090.074341	172.0
1090.46875	108.0
1090.633057	64.0
1091.757324	148.0
1092.526978	144.0
1093.369141	164.0
1093.84314	64.0
1094.376343	108.0
1095.357666	156.0
1095.581665	152.0
1095.878174	124.0
1096.31311	136.0
1096.846924	76.0
1097.644775	32.0
1097.94812	156.0
1098.297729	136.0
1098.469238	80.0
1098.733032	144.0
1098.93103	116.0
1099.062988	136.0
1099.227905	60.0
1099.643677	128.0
1100.706665	160.0
1100.917969	132.0
1100.977417	100.0
1101.710571	204.0
1103.587646	84.0
1104.222534	84.0
1104.288696	52.0
1104.335815	144.0
1104.917114	140.0
1105.330322	152.0
1105.552368	144.0
1106.32019	196.0
1106.618042	156.0
1107.909058	148.0
1108.028809	128.0
1108.081909	164.0
1108.181274	164.0
1108.340332	148.0
1109.407349	116.0
1110.687256	136.0
1111.808594	188.0
1113.501587	172.0
1113.793823	64.0
1113.993164	148.0
1114.278809	212.0
1115.0896	104.0
1115.275635	168.0
1115.501709	216.0
1115.687866	48.0
1116.026123	160.0
1116.246338	48.0
1116.492432	176.0
1116.758423	140.0
1117.17749	60.0
1117.609985	164.0
1117.995972	172.0
1118.355347	220.0
1118.548462	96.0
1118.594971	140.0
1119.920166	68.0
1120.192261	116.0
1120.286499	136.0
1120.493042	88.0
1120.799561	140.0
1121.032837	132.0
1121.158569	148.0
1121.672607	184.0
1121.965942	88.0
1122.372681	196.0
1123.219727	140.0
1124.000366	124.0
1124.44751	76.0
1124.727783	156.0
1125.088257	100.0
1125.188477	192.0
1125.675903	192.0
1125.822754	204.0
1126.109985	116.0
1126.357178	104.0
1126.477417	180.0
1126.811401	132.0
1126.858154	160.0
1127.192261	128.0
1127.670654	200.0
1127.807129	116.0
1128.535889	104.0
1128.830078	72.0
1128.937134	180.0
1129.151123	224.0
1129.385254	44.0
1129.485596	196.0
1129.592529	60.0
1130.415527	100.0
1130.837158	92.0
1131.352661	180.0
1132.069092	128.0
1132.36377	124.0
1132.993408	80.0
1133.060425	172.0
1133.315063	100.0
1133.516113	156.0
1133.831055	128.0
1134.018677	120.0
1134.307007	64.0
1134.805786	172.0
1134.856689	164.0
1135.010986	172.0
1135.567627	160.0
1135.634644	112.0
1136.030396	140.0
1136.459839	116.0
1136.547119	188.0
1136.640991	120.0
1137.251709	228.0
1137.72168	184.0
1137.782104	188.0
1138.050659	176.0
1138.10437	148.0
1138.74231	64.0
1139.004272	248.0
1139.353638	196.0
1139.400635	132.0
1139.542847	156.0
1139.609009	224.0
1139.823975	412.0
1140.146606	144.0
1140.207031	168.0
1140.334717	92.0
1140.435547	88.0
1140.697754	196.0
1140.845581	144.0
1141.081299	192.0
1141.316284	136.0
1141.444092	84.0
1142.035889	160.0
1142.183838	48.0
1143.575073	100.0
1143.792114	232.0
1143.839233	72.0
1143.933472	140.0
1144.270142	200.0
1144.546143	168.0
1145.145508	32.0
1145.22644	148.0
1145.279907	192.0
1145.44873	184.0
1145.940552	156.0
1146.681763	116.0
1146.85022	144.0
1147.039062	116.0
1147.382812	48.0
1147.537964	152.0
1147.955933	124.0
1148.374146	100.0
1148.792358	180.0
1149.163452	144.0
1149.522583	180.0
1149.804565	152.0
1149.953003	144.0
1150.088013	136.0
1150.945435	88.0
1150.992676	44.0
1151.532959	124.0
1151.870728	132.0
1152.262573	128.0
1152.411133	124.0
1152.762573	180.0
1152.972046	208.0
1153.607422	184.0
1153.817017	120.0
1153.87793	104.0
1154.107788	104.0
1154.378296	152.0
1154.4729	180.0
1154.723145	168.0
1155.156128	48.0
1155.568848	192.0
1155.832642	112.0
1155.920654	152.0
1156.204834	156.0
1156.306396	236.0
1156.71936	100.0
1156.915649	180.0
1157.071289	112.0
1157.572388	88.0
1157.619873	80.0
1157.897461	184.0
1158.222656	144.0
1158.90686	80.0
1159.950562	64.0
1160.079346	112.0
1160.227661	144.0
1160.254395	124.0
1160.384521	216.0
1160.789429	180.0
1160.893066	148.0
1160.940552	60.0
1161.015137	120.0
1161.150757	148.0
1161.218628	140.0
1161.951172	144.0
1162.100464	88.0
1162.270142	220.0
1162.806274	228.0
1163.023438	40.0
1163.267212	200.0
1163.342529	92.0
1163.437622	144.0
1163.614136	196.0
1164.109741	168.0
1164.170898	100.0
1164.517334	156.0
1165.114136	144.0
1165.400391	196.0
1165.583862	204.0
1165.719849	156.0
1166.052856	132.0
1166.688721	144.0
1166.992065	152.0
1167.093018	168.0
1167.174561	144.0
1168.255981	60.0
1168.643799	60.0
1168.779907	156.0
1169.018066	156.0
1169.195068	164.0
1169.460449	96.0
1169.521729	100.0
1169.882568	188.0
1170.243408	160.0
1170.393188	160.0
1170.63147	128.0
1170.692749	184.0
1171.302368	172.0
1171.448853	104.0
1172.177856	128.0
1173.410522	148.0
1173.50708	144.0
1173.738892	124.0
1173.834351	224.0
1175.996948	172.0
1176.324829	188.0
1176.461304	48.0
1176.642456	168.0
1177.055298	60.0
1177.403687	144.0
1177.547119	160.0
1177.635864	176.0
1177.806641	184.0
1178.202881	124.0
1178.359985	60.0
1178.93396	172.0
1179.350952	184.0
1179.518555	176.0
1179.610718	160.0
1180.082397	196.0
1180.383301	32.0
1180.916748	180.0
1181.162964	184.0
1181.265625	168.0
1181.388672	168.0
1181.744507	136.0
1182.09668	136.0
1182.408325	184.0
1182.777954	176.0
1183.179932	184.0
1183.318726	172.0
1183.626831	148.0
1184.044678	132.0
1184.777588	84.0
1184.996216	172.0
1185.2229	68.0
1185.29834	172.0
1185.709351	176.0
1186.107056	160.0
1186.285278	256.0
1186.570679	220.0
1186.628052	44.0
1187.128662	148.0
1187.272705	120.0
1187.505859	148.0
1187.842041	160.0
1188.795654	168.0
1189.152588	168.0
1189.406616	152.0
1189.461426	216.0
1189.835083	152.0
1189.955811	156.0
1190.05188	132.0
1190.395264	220.0
1191.054565	88.0
1191.288208	88.0
1191.528564	228.0
1191.782837	156.0
1192.263916	76.0
1192.449463	196.0
1192.504639	144.0
1192.607544	136.0
1192.889404	116.0
1193.70752	60.0
1193.948242	36.0
1194.670532	232.0
1195.213135	148.0
1195.233398	128.0
1195.803345	148.0
1196.067505	128.0
1196.260254	60.0
1197.017578	120.0
1197.072754	116.0
1197.182861	136.0
1197.685669	72.0
1198.27124	204.0
1198.912109	96.0
1199.201538	148.0
1199.256714	196.0
1199.339478	184.0
1199.580688	108.0
1199.918579	152.0
1200.035767	160.0
1200.111572	72.0
1200.525391	196.0
1200.61499	184.0
1200.7323	208.0
1200.904663	156.0
1200.966797	120.0
1201.201294	156.0
1201.477295	148.0
1201.732544	148.0
1201.870483	140.0
1201.918823	184.0
1201.973999	156.0
1202.043091	64.0
1202.236328	208.0
1202.450195	172.0
1202.657349	56.0
1202.712524	128.0
1202.781494	160.0
1202.947266	56.0
1203.168091	124.0
1203.720581	164.0
1204.231567	160.0
1204.818726	208.0
1204.894775	116.0
1206.435913	232.0
1206.546631	116.0
1207.307251	128.0
1207.355591	136.0
1207.5354	132.0
1208.192627	128.0
1208.286987	148.0
1208.44165	148.0
1209.618286	136.0
1209.673584	124.0
1210.026733	220.0
1210.179077	172.0
1210.359009	104.0
1210.483643	136.0
1211.335571	176.0
1211.924561	200.0
1212.340332	120.0
1212.555176	128.0
1213.518799	156.0
1213.608887	132.0
1214.087402	192.0
1214.808716	140.0
1215.280518	148.0
1215.433228	196.0
1215.724609	140.0
1215.917114	196.0
1216.314575	172.0
1216.464111	68.0
1216.988037	172.0
1217.161621	96.0
1217.467163	72.0
1217.534546	188.0
1217.717285	152.0
1217.786743	216.0
1218.060059	196.0
1218.342407	32.0
1218.469971	192.0
1218.557861	184.0
1218.801025	116.0
1219.857422	96.0
1219.920044	260.0
1220.288452	100.0
1220.949097	52.0
1221.051636	188.0
1221.234253	156.0
1222.020386	164.0
1222.173462	84.0
1222.291748	68.0
1222.396118	108.0
1222.938965	52.0
1223.154785	168.0
1223.354248	148.0
1223.746582	160.0
1224.052979	68.0
1224.194336	208.0
1224.90271	72.0
1225.090698	156.0
1225.292847	140.0
1226.289307	156.0
1226.713013	192.0
1226.805176	176.0
1227.077026	160.0
1227.272339	76.0
1227.383911	96.0
1228.074341	52.0
1228.395142	144.0
1228.69519	236.0
1229.057983	168.0
1229.316162	180.0
1229.438721	216.0
1229.688477	172.0
1229.763184	192.0
1230.328247	144.0
1230.391113	164.0
1230.614502	56.0
1231.019531	144.0
1231.197021	196.0
1232.123169	164.0
1232.556396	180.0
1233.143433	216.0
1233.534912	164.0
1233.926392	168.0
1234.164185	156.0
1234.380005	120.0
1234.702637	160.0
1234.772583	112.0
1235.283203	172.0
1235.430054	52.0
1235.640015	200.0
1235.709961	104.0
1235.898804	216.0
1236.087769	84.0
1236.489136	144.0
1236.619751	88.0
1236.682739	200.0
1237.046631	216.0
1237.711792	136.0
1237.865845	152.0
1239.007568	128.0
1239.163574	184.0
1239.224854	144.0
1239.421021	84.0
1239.645264	252.0
1240.009644	140.0
1240.086792	196.0
1240.352051	172.0
1240.437256	176.0
1240.7948	112.0
1241.033203	120.0
1241.152466	136.0
1241.292725	148.0
1241.538086	124.0
1241.860718	136.0
1242.148315	148.0
1242.428467	164.0
1243.291992	188.0
1243.348145	84.0
1243.586792	88.0
1244.148438	164.0
1244.578979	188.0
1244.759277	144.0
1245.089355	148.0
1245.21582	152.0
1245.286011	160.0
1245.623169	152.0
1245.876099	180.0
1246.189575	188.0
1246.487427	188.0
1246.7052	120.0
1246.782593	80.0
1247.162109	96.0
1247.223267	152.0
1247.365967	392.0
1247.415161	188.0
1247.478394	184.0
1247.851074	220.0
1247.977661	112.0
1248.111206	168.0
1248.230713	144.0
1248.526123	204.0
1248.94812	136.0
1249.011475	136.0
1249.328003	128.0
1249.398315	184.0
1249.591675	188.0
1250.185669	72.0
1250.482056	204.0
1250.55896	156.0
1250.635986	160.0
1250.688599	216.0
1250.77063	156.0
1250.918457	132.0
1251.129639	64.0
1251.481689	128.0
1251.716187	192.0
1251.777466	164.0
1251.883057	216.0
1252.10144	144.0
1252.481812	44.0
1252.848145	96.0
1253.02417	192.0
1253.112549	156.0
1253.439941	56.0
1253.771118	136.0
1253.954468	124.0
1254.299805	112.0
1254.511353	256.0
1254.638184	152.0
1254.955444	136.0
1255.166992	104.0
1255.484375	124.0
1255.547852	164.0
1255.646606	144.0
1256.006348	136.0
1256.055664	204.0
1256.189697	148.0
1256.376221	228.0
1256.517822	136.0
1256.775269	224.0
1257.18457	116.0
1257.622192	192.0
1257.932739	116.0
1258.047607	208.0
1258.158691	108.0
1258.780029	180.0
1258.935425	32.0
1259.175537	184.0
1259.479248	72.0
1259.825439	48.0
1259.966675	192.0
1260.093872	184.0
1260.232178	120.0
1261.295288	100.0
1261.514404	88.0
1261.88208	168.0
1261.988159	136.0
1262.164917	388.0
1262.872192	32.0
1263.21167	144.0
1263.890869	124.0
1264.11731	164.0
1264.237671	160.0
1264.329712	244.0
1265.370239	248.0
1266.212891	160.0
1266.326294	188.0
1266.496216	124.0
1267.7323	172.0
1268.161377	160.0
1269.040527	136.0
1269.302856	128.0
1269.756714	120.0
1269.990723	132.0
1270.246094	112.0
1270.402222	292.0
1270.686035	84.0
1270.827881	108.0
1271.42395	104.0
1271.479492	156.0
1272.020264	148.0
1272.069946	72.0
1272.467529	156.0
1272.566895	152.0
1272.80835	116.0
1273.29126	44.0
1273.890747	196.0
1273.954834	180.0
1274.598389	124.0
1275.14563	260.0
1275.39978	164.0
1275.658936	156.0
1275.728516	64.0
1276.233276	120.0
1276.361328	144.0
1276.411133	124.0
1276.581787	160.0
1276.744751	144.0
1276.880493	264.0
1277.243286	172.0
1277.52063	164.0
1277.598877	120.0
1277.648682	144.0
1278.040039	192.0
1278.111206	204.0
1278.232178	148.0
1279.192993	152.0
1279.463623	180.0
1279.520508	132.0
1279.677124	144.0
1279.904175	144.0
1280.026123	220.0
1280.240601	196.0
1280.353638	176.0
1280.47644	152.0
1280.595825	128.0
1280.645752	180.0
1281.07312	120.0
1281.208496	176.0
1281.293945	116.0
1281.422241	140.0
1282.113403	224.0
1282.161011	112.0
1282.298706	180.0
1282.41272	312.0
1282.662231	164.0
1282.812012	100.0
1282.947388	184.0
1283.161987	168.0
1283.3396	104.0
1283.610474	140.0
1283.674683	216.0
1284.081177	76.0
1284.544922	112.0
1284.669067	196.0
1284.922974	160.0
1284.98584	220.0
1285.087036	132.0
1285.456421	232.0
1285.829224	136.0
1286.086182	108.0
1286.193237	76.0
1286.243286	144.0
1286.429932	192.0
1286.714478	168.0
1286.907227	112.0
1286.958984	160.0
1287.035767	124.0
1287.728516	236.0
1287.821289	124.0
1287.985596	152.0
1288.442871	196.0
1288.585693	112.0
1288.963257	156.0
1289.736328	164.0
1290.30188	176.0
1290.42981	188.0
1291.180664	108.0
1291.502441	164.0
1292.097778	116.0
1292.446899	116.0
1293.62793	184.0
1293.778076	128.0
1293.899902	180.0
1294.021606	76.0
1294.08606	172.0
1294.179077	144.0
1294.537109	160.0
1295.199829	196.0
1295.403809	220.0
1295.86853	152.0
1296.055786	72.0
1296.171875	120.0
1296.363892	148.0
1296.557373	156.0
1296.715088	48.0
1297.023315	120.0
1297.532349	116.0
1297.625488	148.0
1297.711548	412.0
1297.819092	132.0
1298.701294	108.0
1298.808838	152.0
1298.959473	244.0
1299.052979	132.0
1299.210571	120.0
1299.382812	224.0
1299.777344	180.0
1300.030762	156.0
1300.143433	88.0
1300.216431	152.0
1300.55249	152.0
1300.846802	180.0
1300.918579	168.0
1301.013306	216.0
1301.191406	160.0
1301.374634	232.0
1301.593506	260.0
1302.125	164.0
1302.466309	152.0
1302.656494	176.0
1302.749878	120.0
1302.83606	140.0
1303.094727	148.0
1303.281616	196.0
1303.353394	180.0
1303.461182	60.0
1303.540283	144.0
1303.705566	164.0
1303.834961	148.0
1304.036133	132.0
1304.25061	196.0
1304.359619	152.0
1304.460327	180.0
1304.532104	208.0
1305.071411	88.0
1305.229614	108.0
1305.300903	184.0
1305.430908	140.0
1306.01355	152.0
1306.207764	128.0
1306.404907	212.0
1307.150269	124.0
1307.301392	156.0
1307.385498	128.0
1307.949219	156.0
1308.21106	252.0
1308.280273	316.0
1308.633057	64.0
1309.007568	64.0
1309.274048	164.0
1309.410889	140.0
1309.857422	156.0
1309.994263	108.0
1310.138428	156.0
1310.54187	184.0
1310.592285	92.0
1310.862427	184.0
1311.034546	188.0
1311.300415	152.0
1311.810303	184.0
1311.940063	124.0
1312.286133	124.0
1312.581787	176.0
1312.646729	132.0
1312.902954	176.0
1312.963989	224.0
1313.245361	200.0
1313.339111	180.0
1313.483398	44.0
1313.613159	264.0
1313.670898	148.0
1313.721436	168.0
1314.111084	152.0
1314.4646	200.0
1314.529541	92.0
1314.738892	124.0
1315.200806	120.0
1315.857666	140.0
1315.929932	88.0
1316.796509	312.0
1316.955444	56.0
1317.338257	156.0
1317.52478	192.0
1317.612793	144.0
1317.909058	140.0
1318.010254	136.0
1318.234253	352.0
1318.465454	84.0
1318.780518	136.0
1319.021973	156.0
1319.231689	180.0
1320.186157	200.0
1320.381348	164.0
1320.540527	148.0
1320.960083	60.0
1321.010742	96.0
1321.285645	220.0
1321.423096	108.0
1321.697998	176.0
1321.763184	52.0
1321.828247	52.0
1322.04541	136.0
1322.689575	160.0
1322.928467	192.0
1322.979126	188.0
1323.073242	168.0
1323.135986	144.0
1323.254272	272.0
1323.514893	112.0
1324.043579	52.0
1324.282593	144.0
1324.405762	192.0
1324.709961	260.0
1324.862305	136.0
1324.970825	124.0
1325.33313	276.0
1325.499756	76.0
1325.654419	160.0
1326.159302	148.0
1326.543457	144.0
1326.905884	116.0
1327.043701	36.0
1327.312012	152.0
1327.652832	200.0
1328.021973	156.0
1328.124268	72.0
1328.233032	168.0
1328.450684	176.0
1328.740967	124.0
1329.081909	76.0
1329.451172	104.0
1330.039917	52.0
1330.16333	188.0
1330.356323	124.0
1330.475464	156.0
1330.542358	224.0
1331.52124	148.0
1331.804443	152.0
1331.898926	100.0
1332.094971	268.0
1332.67627	164.0
1333.192139	196.0
1333.788208	168.0
1333.969971	60.0
1334.202515	136.0
1334.435181	164.0
1334.627197	176.0
1335.344238	68.0
1335.569702	228.0
1336.333618	112.0
1336.675659	128.0
1336.923096	100.0
1337.10498	76.0
1337.22876	160.0
1337.337891	164.0
1337.403442	320.0
1337.519897	144.0
1338.116821	152.0
1338.895996	292.0
1338.968872	88.0
1339.056274	260.0
1339.333008	172.0
1339.397583	116.0
1339.580688	236.0
1339.682495	124.0
1339.856934	132.0
1340.010498	128.0
1340.331177	100.0
1340.593506	92.0
1341.344238	116.0
1341.453613	116.0
1341.555664	84.0
1341.876465	76.0
1341.934814	136.0
1342.117065	112.0
1342.437866	84.0
1342.637451	204.0
1342.78064	176.0
1342.948486	184.0
1343.188721	176.0
1343.313232	160.0
1344.057373	196.0
1344.188721	248.0
1344.254395	112.0
1344.353638	80.0
1345.181396	184.0
1345.371216	84.0
1346.539551	228.0
1347.284668	108.0
1347.430786	136.0
1347.671875	124.0
1347.737671	184.0
1347.788818	132.0
1347.869141	84.0
1348.008057	124.0
1348.175659	120.0
1348.263794	196.0
1348.388062	252.0
1348.895264	164.0
1348.95813	128.0
1349.235962	180.0
1349.294434	64.0
1349.572266	168.0
1349.623535	184.0
1349.99646	164.0
1350.054932	192.0
1350.252441	84.0
1350.396729	112.0
1350.545044	188.0
1350.705933	92.0
1351.020508	168.0
1351.174194	116.0
1351.56189	148.0
1351.832642	164.0
1352.126831	148.0
1352.213257	36.0
1352.322998	168.0
1352.451904	184.0
1352.945312	148.0
1353.003906	132.0
1353.150269	168.0
1353.208862	180.0
1354.138916	52.0
1355.071655	144.0
1355.486938	184.0
1355.587891	200.0
1355.973389	188.0
1356.212524	192.0
1356.337158	144.0
1356.395752	52.0
1356.571655	112.0
1357.407593	156.0
1357.649536	208.0
1358.096924	120.0
1358.15564	140.0
1358.808594	204.0
1359.420166	148.0
1359.441895	52.0
1359.466675	164.0
1359.541504	184.0
1359.755249	164.0
1359.843262	168.0
1360.423218	152.0
1360.599365	168.0
1360.658081	160.0
1360.705933	156.0
1360.914307	112.0
1361.054565	164.0
1361.1427	120.0
1361.304321	216.0
1361.392456	80.0
1361.614502	84.0
1361.670166	152.0
1361.939453	116.0
1362.104858	136.0
1362.288574	124.0
1362.466919	260.0
1362.677856	536.0
1362.72937	172.0
1362.92041	156.0
1363.049927	208.0
1363.287842	124.0
1363.368652	204.0
1364.390381	104.0
1364.449219	188.0
1364.574219	144.0
1364.927124	96.0
1365.117554	180.0
1365.368408	172.0
1365.537598	136.0
1365.714111	156.0
1365.91272	180.0
1366.096191	144.0
1366.167358	180.0
1366.229004	84.0
1366.331177	140.0
1366.40564	156.0
1367.045776	132.0
1367.178223	140.0
1367.399048	176.0
1367.53894	204.0
1367.840698	44.0
1367.951172	208.0
1368.135132	184.0
1368.297119	172.0
1368.598999	100.0
1368.687378	124.0
1368.754028	168.0
1368.878906	128.0
1369.129272	152.0
1369.616577	196.0
1369.806885	124.0
1369.887939	172.0
1370.013184	196.0
1370.086792	68.0
1370.226807	136.0
1370.307861	128.0
1370.587891	104.0
1370.88269	64.0
1371.818726	204.0
1372.895264	164.0
1373.138672	120.0
1373.418945	168.0
1373.839355	120.0
1374.09021	132.0
1374.292969	320.0
1374.392822	184.0
1375.342285	360.0
1375.713989	184.0
1376.068359	76.0
1376.238159	196.0
1376.422729	96.0
1377.109619	200.0
1377.161255	180.0
1377.279419	104.0
1377.486328	132.0
1377.589722	176.0
1377.818726	324.0
1377.951782	228.0
1378.023315	212.0
1378.106934	204.0
1378.358154	184.0
1378.602051	144.0
1378.665649	208.0
1378.764648	184.0
1378.860718	208.0
1379.47644	176.0
1379.666382	188.0
1379.755127	140.0
1379.932617	220.0
1380.043457	144.0
1380.280151	104.0
1380.49231	160.0
1380.738647	116.0
1380.834717	156.0
1380.947754	148.0
1381.024048	192.0
1381.196655	160.0
1381.381226	132.0
1381.581909	196.0
1381.700317	176.0
1381.907471	244.0
1381.959229	124.0
1382.092407	52.0
1382.380981	136.0
1382.839844	188.0
1383.206177	176.0
1383.728271	208.0
1384.016968	80.0
1384.187256	92.0
1384.239136	152.0
1384.750122	120.0
1385.053833	148.0
1385.431641	148.0
1385.751343	84.0
1386.044434	132.0
1386.224731	204.0
1386.557983	188.0
1386.854492	180.0
1386.913574	128.0
1387.062012	148.0
1387.173218	56.0
1387.620361	180.0
1387.843872	164.0
1387.964111	196.0
1388.389282	312.0
1388.500488	152.0
1388.589478	156.0
1388.715576	148.0
1388.805786	96.0
1389.123535	168.0
1389.234863	160.0
1389.290405	152.0
1389.368408	160.0
1389.553833	108.0
1389.806152	92.0
1389.95459	104.0
1390.13269	136.0
1390.875366	132.0
1390.993652	128.0
1391.090088	192.0
1391.149536	144.0
1391.340088	160.0
1391.409424	188.0
1391.535645	68.0
1392.192383	180.0
1392.594116	172.0
1392.760986	232.0
1393.01355	104.0
1393.065552	120.0
1393.243896	116.0
1393.637573	144.0
1393.858521	148.0
1394.239502	140.0
1394.473877	176.0
1394.953125	188.0
1395.296753	184.0
1395.454346	156.0
1395.518188	204.0
1396.380859	212.0
1396.497803	164.0
1396.827148	168.0
1396.886597	152.0
1397.154419	180.0
1397.26355	200.0
1397.638062	128.0
1397.801758	164.0
1397.861328	112.0
1397.957153	132.0
1398.248291	148.0
1398.449219	44.0
1399.476685	148.0
1399.627441	204.0
1400.425049	180.0
1400.639404	208.0
1400.891724	184.0
1400.973633	176.0
1401.182251	60.0
1401.636841	164.0
1402.329956	176.0
1402.583374	44.0
1402.668091	152.0
1403.313965	60.0
1403.403442	324.0
1403.574951	112.0
1403.634644	132.0
1403.873169	220.0
1404.067139	160.0
1404.126831	320.0
1404.365479	96.0
1404.581787	156.0
1405.021973	144.0
1405.096558	112.0
1405.215942	172.0
1405.387573	168.0
1405.454712	116.0
1405.827759	144.0
1405.924805	140.0
1406.195557	176.0
1406.46228	164.0
1406.589111	124.0
1406.738403	128.0
1407.134155	88.0
1407.395508	164.0
1407.4552	176.0
1407.559692	148.0
1407.641846	44.0
1408.022705	140.0
1408.127319	108.0
1408.583008	180.0
1408.739868	184.0
1408.814575	172.0
1408.904175	152.0
1409.143311	144.0
1409.404785	168.0
1409.943481	156.0
1410.050659	196.0
1410.40625	52.0
1410.533325	108.0
1410.630493	152.0
1410.767456	188.0
1410.922119	84.0
1411.079102	96.0
1411.318359	112.0
1411.460449	160.0
1411.692261	132.0
1412.11853	112.0
1412.170898	152.0
1412.275635	236.0
1412.462646	220.0
1412.544922	168.0
1412.799316	136.0
1412.911499	204.0
1413.061157	192.0
1413.95166	92.0
1414.670044	228.0
1414.992188	152.0
1415.182495	144.0
1415.261719	180.0
1415.366577	164.0
1415.868286	156.0
1416.446777	140.0
1416.699829	128.0
1416.971558	144.0
1417.276733	156.0
1417.33667	144.0
1417.56665	144.0
1417.966187	152.0
1418.041138	84.0
1418.318481	124.0
1418.438354	176.0
1418.498413	128.0
1418.640747	152.0
1418.910645	192.0
1419.120605	156.0
1419.233154	176.0
1419.983032	180.0
1420.065552	200.0
1420.268066	128.0
1420.320557	112.0
1420.876587	164.0
1420.980713	60.0
1421.10083	160.0
1421.276123	136.0
1421.378418	60.0
1421.798706	180.0
1422.249023	48.0
1422.505737	228.0
1422.699463	204.0
1423.104858	184.0
1423.315186	124.0
1423.367676	208.0
1423.465332	148.0
1423.593018	116.0
1424.148804	160.0
1424.329102	192.0
1424.516846	32.0
1424.937622	172.0
1425.057861	156.0
1425.230591	120.0
1425.358398	48.0
1425.478638	80.0
1425.636475	60.0
1425.704102	152.0
1425.771729	128.0
1425.959595	180.0
1426.012207	52.0
1426.170044	132.0
1426.39563	140.0
1426.628662	172.0
1426.944336	48.0
1427.042114	160.0
1427.342896	40.0
1427.523438	44.0
1427.718872	192.0
1427.94458	144.0
1428.013916	164.0
1428.102539	164.0
1428.275513	188.0
1428.538818	88.0
1428.65918	168.0
1429.020264	136.0
1429.072754	116.0
1429.128662	188.0
1429.276123	152.0
1429.38147	124.0
1429.584717	224.0
1429.780396	124.0
1429.968506	80.0
1430.053467	252.0
1430.108765	88.0
1430.128906	128.0
1430.478638	168.0
1430.623413	224.0
1430.706177	172.0
1430.789062	224.0
1431.316162	152.0
1431.45166	36.0
1431.655029	164.0
1431.881104	172.0
1431.993896	132.0
1432.265015	164.0
1432.438354	164.0
1432.656738	64.0
1432.837646	128.0
1433.086304	140.0
1433.256104	140.0
1433.349976	188.0
1433.681519	148.0
1433.794678	172.0
1434.261963	172.0
1434.367432	120.0
1434.457886	176.0
1434.744385	148.0
1435.08374	136.0
1435.619141	256.0
1436.026367	176.0
1436.207397	200.0
1436.260254	232.0
1436.312988	168.0
1436.373291	180.0
1436.479004	128.0
1436.569458	256.0
1436.63269	144.0
1436.697754	100.0
1436.924072	196.0
1437.00708	96.0
1437.08252	128.0
1437.256104	120.0
1437.541382	168.0
1437.563721	136.0
1438.161743	164.0
1438.418335	148.0
1438.516479	168.0
1438.622192	148.0
1438.682617	88.0
1438.961914	164.0
1439.316772	40.0
1439.437622	124.0
1439.505615	100.0
1439.656616	132.0
1439.928589	180.0
1440.140015	88.0
1440.404419	124.0
1440.56311	132.0
1440.643555	208.0
1440.835083	176.0
1441.008789	168.0
1441.175049	124.0
1441.545288	240.0
1441.983643	152.0
1442.210449	92.0
1442.338867	196.0
1442.527954	88.0
1442.625366	144.0
1442.951294	172.0
1443.079834	132.0
1443.268799	160.0
1443.813354	248.0
1443.881348	104.0
1443.989746	132.0
1444.205078	192.0
1444.39502	212.0
1444.826904	136.0
1445.114502	288.0
1445.417114	156.0
1445.545776	120.0
1445.62146	240.0
1445.787964	52.0
1445.871216	212.0
1445.954468	136.0
1446.204224	200.0
1446.365112	144.0
1446.514648	132.0
1446.798096	212.0
1447.147339	228.0
1447.272705	160.0
1447.567627	108.0
1447.688232	148.0
1447.88208	120.0
1448.278931	160.0
1448.347168	52.0
1448.506226	160.0
1448.752075	308.0
1449.036499	212.0
1449.241089	224.0
1449.422974	224.0
1449.544189	172.0
1449.741211	128.0
1450.203613	108.0
1450.43103	140.0
1450.499268	180.0
1450.59021	180.0
1450.794922	140.0
1450.931274	188.0
1450.984375	148.0
1451.090576	156.0
1451.712402	104.0
1451.795776	156.0
1451.87915	172.0
1452.068848	204.0
1452.121948	96.0
1452.262573	160.0
1452.853394	196.0
1453.051147	208.0
1453.417114	196.0
1453.578491	180.0
1453.639282	208.0
1453.866943	196.0
1453.920044	132.0
1454.026245	124.0
1454.284302	124.0
1454.337524	156.0
1454.887207	140.0
1455.002441	60.0
1455.142212	204.0
1455.468018	124.0
1455.493408	112.0
1455.508667	152.0
1455.620605	156.0
1455.714355	216.0
1455.810425	84.0
1456.083862	136.0
1456.213013	88.0
1456.668701	112.0
1456.972656	116.0
1457.056152	136.0
1457.139771	128.0
1457.24231	160.0
1457.304688	136.0
1457.990845	216.0
1458.044067	92.0
1458.431641	172.0
1458.606445	184.0
1458.674927	156.0
1459.033447	220.0
1459.273804	188.0
1459.354248	124.0
1459.549316	148.0
1460.142456	204.0
1460.241333	172.0
1461.169434	152.0
1461.424438	112.0
1461.667358	176.0
1462.234741	148.0
1462.301758	180.0
1462.70166	144.0
1463.186279	156.0
1463.422363	196.0
1463.643188	132.0
1463.932495	112.0
1464.237183	148.0
1464.564697	168.0
1464.686523	132.0
1464.838867	112.0
1464.998901	188.0
1465.249756	180.0
1465.338135	168.0
1465.864136	364.0
1466.018188	140.0
1466.324829	188.0
1466.759277	136.0
1466.82019	72.0
1467.064209	176.0
1467.414917	172.0
1467.651245	136.0
1467.895264	92.0
1468.181519	192.0
1468.261353	96.0
1468.673218	124.0
1468.940186	140.0
1469.34082	128.0
1469.434204	124.0
1469.489502	120.0
1469.608887	180.0
1469.970215	116.0
1470.473999	128.0
1470.550293	128.0
1470.977783	28.0
1471.229736	176.0
1471.321289	120.0
1471.521118	188.0
1471.580933	120.0
1471.664917	136.0
1471.79834	52.0
1471.932129	228.0
1472.261353	184.0
1472.428589	156.0
1472.627075	48.0
1472.925049	76.0
1473.123657	192.0
1473.673706	148.0
1474.028687	276.0
1474.178101	144.0
1474.262085	112.0
1474.510132	172.0
1474.690186	84.0
1475.217651	116.0
1475.500488	160.0
1475.553955	136.0
1475.68396	196.0
1475.836914	144.0
1475.959229	168.0
1476.028076	192.0
1476.196289	56.0
1476.502197	132.0
1476.601685	144.0
1476.674683	268.0
1476.961182	336.0
1477.160034	168.0
1477.557861	160.0
1478.789917	84.0
1478.996582	148.0
1479.06543	140.0
1479.172607	168.0
1479.379272	124.0
1479.700928	208.0
1480.121948	104.0
1480.178589	256.0
1480.267456	76.0
1480.512573	120.0
1480.640015	124.0
1480.75	212.0
1481.056396	136.0
1481.125366	148.0
1481.240234	120.0
1481.600342	212.0
1481.68457	148.0
1482.117554	148.0
1482.481689	176.0
1482.565796	128.0
1482.772705	192.0
1482.956665	172.0
1483.063965	164.0
1483.125244	184.0
1483.232544	116.0
1484.038818	172.0
1484.175659	196.0
1484.33667	128.0
1484.41333	32.0
1484.666382	204.0
1484.743164	136.0
1484.896484	136.0
1484.994385	144.0
1485.425781	224.0
1486.455444	160.0
1486.722534	112.0
1486.829956	48.0
1486.914307	188.0
1487.288208	152.0
1487.315796	108.0
1487.332031	184.0
1487.469849	144.0
1487.574463	236.0
1487.751099	112.0
1488.18103	196.0
1488.586792	224.0
1488.687866	40.0
1488.772339	128.0
1489.109375	164.0
1489.202393	164.0
1489.540405	128.0
1489.65564	100.0
1489.709473	44.0
1489.863037	120.0
1490.262573	136.0
1490.539185	160.0
1490.67749	136.0
1490.969604	144.0
1491.077148	48.0
1491.261597	104.0
1491.392334	192.0
1491.576782	36.0
1491.899658	176.0
1491.999634	136.0
1492.237915	68.0
1492.530151	164.0
1493.076172	140.0
1493.337646	188.0
1493.445312	120.0
1493.499146	108.0
1493.63855	136.0
1493.768433	36.0
1493.994995	156.0
1494.068481	184.0
1494.50708	268.0
1494.637817	128.0
1494.799805	152.0
1494.922607	124.0
1495.210693	172.0
1495.368896	116.0
1495.438232	132.0
1495.499756	180.0
1495.753784	152.0
1496.069458	192.0
1496.170532	192.0
1496.261963	132.0
1496.419922	168.0
1496.662354	116.0
1496.939575	192.0
1497.039673	192.0
1497.401611	188.0
1497.478638	168.0
1498.025513	216.0
1498.380005	132.0
1498.441528	184.0
1498.782104	216.0
1498.873047	116.0
1499.011841	72.0
1499.165894	156.0
1499.240845	200.0
1499.443359	140.0
1499.66687	156.0
1500.525269	196.0
1500.68457	164.0
1500.761597	132.0
1501.039185	184.0
1501.116333	80.0
1501.517334	184.0
1501.814331	136.0
1501.949341	52.0
1502.088135	108.0
1502.145874	160.0
1502.289673	192.0
1502.535645	60.0
1503.484741	152.0
1503.546509	352.0
1503.600464	96.0
1503.886108	120.0
1504.250854	140.0
1504.588623	208.0
1504.80481	72.0
1504.920654	52.0
1505.152222	172.0
END IONS

BEGIN IONS
PEPMASS=186.092
CHARGE=1
MSLEVEL=2
SOURCE_INSTRUMENT=LC-ESI-qTof
FILENAME=p3-F06_GF6_01_18287.mzXML
SEQ=*..*
IONMODE=Positive
ORGANISM=GNPS-NIH-SMALLMOLECULEPHARMACOLOGICALLYACTIVE
NAME=MLS000860042-01!Pirfenidone M+H
PI=Dorrestein
DATACOLLECTOR=VP/LMS
SMILES=Cc1ccc(=O)n(c1)c2ccccc2
INCHI=N/A
INCHIAUX=N/A
PUBMED=N/A
SUBMITUSER=vphelan
LIBRARYQUALITY=1
SPECTRUMID=CCMSLIB00000085154
USI=mzspec:GNPS:GNPS-NIH-SMALLMOLECULEPHARMACOLOGICALLYACTIVE:accession:CCMSLIB00000085154
SCANS=1575
44.932301	180.0
44.962994	88.0
45.048458	148.0
45.186165	180.0
45.410267	128.0
45.615341	200.0
45.643578	112.0
45.68124	180.0
45.817215	120.0
45.852253	36.0
45.946651	48.0
45.984436	192.0
46.197948	176.0
46.42009	224.0
46.429585	152.0
46.661797	68.0
46.849621	84.0
47.002335	188.0
47.063763	164.0
47.10474	160.0
47.122501	152.0
47.242817	232.0
47.493515	216.0
47.810913	232.0
47.831562	200.0
48.094856	136.0
48.254421	196.0
48.405945	116.0
48.417023	72.0
48.458584	176.0
48.515411	204.0
48.527889	36.0
48.598629	180.0
48.672199	152.0
48.769455	168.0
49.091084	136.0
49.28373	184.0
49.459953	164.0
49.541176	284.0
49.625271	108.0
49.771206	148.0
50.350021	68.0
50.487118	84.0
50.613068	248.0
50.638561	44.0
50.71933	164.0
50.756191	112.0
50.841312	220.0
50.905201	204.0
51.02314	224.0
51.068649	96.0
51.196747	136.0
51.278812	180.0
52.118046	228.0
52.130978	148.0
52.341011	144.0
52.410156	128.0
52.443306	148.0
52.612087	60.0
52.636635	352.0
52.759457	108.0
52.892551	128.0
52.902683	184.0
53.162148	84.0
53.188416	204.0
53.307377	80.0
53.647984	104.0
53.700481	68.0
53.891727	220.0
53.901958	140.0
54.00869	180.0
54.330982	232.0
54.596863	96.0
54.608627	160.0
54.621868	192.0
54.673367	152.0
55.137955	140.0
55.148304	40.0
55.392467	208.0
55.450256	164.0
55.678749	204.0
55.808041	160.0
55.837784	180.0
56.138634	168.0
56.852264	156.0
56.891293	148.0
57.28833	140.0
57.583996	104.0
57.597588	188.0
57.706406	224.0
57.726063	156.0
57.751774	184.0
57.871334	156.0
58.404037	164.0
58.553204	120.0
58.608047	140.0
58.632431	164.0
59.237537	148.0
59.718014	156.0
59.774937	148.0
59.890411	156.0
60.350323	168.0
60.922253	168.0
61.001816	184.0
61.52029	204.0
61.632751	140.0
61.704651	172.0
61.781288	192.0
61.818844	196.0
61.873631	112.0
62.471588	228.0
63.074005	116.0
63.232185	224.0
63.271759	128.0
63.295509	136.0
63.401653	160.0
63.857334	160.0
63.911423	48.0
64.292297	44.0
64.567101	192.0
64.860123	212.0
64.988426	228.0
65.007683	112.0
65.08313	188.0
65.113647	232.0
65.37571	152.0
65.420776	268.0
65.609276	164.0
65.723793	128.0
66.179634	72.0
66.369217	148.0
66.430855	184.0
66.476288	28.0
66.827286	204.0
66.859833	48.0
66.890762	172.0
67.188995	184.0
67.329384	116.0
67.411072	160.0
67.676079	148.0
67.913712	152.0
68.191208	140.0
68.372131	192.0
68.545052	152.0
68.723145	52.0
68.802368	188.0
68.903122	120.0
68.957649	128.0
69.773262	184.0
69.784904	168.0
70.134514	124.0
70.256256	184.0
70.490021	72.0
70.533478	216.0
70.81292	196.0
70.915123	160.0
71.106339	124.0
71.19532	180.0
71.853508	176.0
72.079773	140.0
72.552017	192.0
72.591019	112.0
72.663956	116.0
72.874504	124.0
72.922089	72.0
73.073441	172.0
73.17897	100.0
73.279465	180.0
73.424362	148.0
73.444832	152.0
73.641129	164.0
74.019096	128.0
74.036224	52.0
74.513107	148.0
74.544037	208.0
74.643745	160.0
74.991524	144.0
75.190086	164.0
75.224396	28.0
75.407501	196.0
75.552757	196.0
75.6064	152.0
75.698158	156.0
76.133453	204.0
76.338524	152.0
76.455086	196.0
76.812286	168.0
77.196548	216.0
77.371529	116.0
77.56073	192.0
77.681732	192.0
77.701027	208.0
77.960915	176.0
78.078712	136.0
78.152596	136.0
78.191315	220.0
78.441437	196.0
78.492569	168.0
78.573708	60.0
78.611572	176.0
78.646065	176.0
78.665482	172.0
79.408691	136.0
79.508049	200.0
79.70517	72.0
79.821381	260.0
80.462189	220.0
80.665855	136.0
80.717705	132.0
80.801781	216.0
80.925278	216.0
81.163597	220.0
81.40406	156.0
81.979752	148.0
82.004982	184.0
82.062668	116.0
82.216003	228.0
82.344193	220.0
82.499596	188.0
82.778244	80.0
82.805412	152.0
83.66938	232.0
84.03981	176.0
84.251602	212.0
84.536858	188.0
84.861092	60.0
85.334808	132.0
86.347237	188.0
86.817665	92.0
86.875168	116.0
87.055382	196.0
87.179688	176.0
87.453316	148.0
87.840683	116.0
88.188011	176.0
88.444275	132.0
88.744026	228.0
88.813416	176.0
88.999214	156.0
89.179573	192.0
89.469276	156.0
90.697212	224.0
90.712379	104.0
90.87738	120.0
90.966583	124.0
91.058006	220.0
91.455124	200.0
91.599846	192.0
91.767563	244.0
91.899178	148.0
91.969788	180.0
92.007965	180.0
92.048965	2732.0
92.075996	244.0
92.528008	244.0
92.844193	56.0
93.040672	204.0
93.052872	316.0
93.184792	204.0
93.455078	148.0
93.537834	76.0
93.653374	224.0
94.137482	148.0
94.483482	232.0
94.502831	184.0
94.646065	68.0
94.785538	144.0
94.917358	44.0
95.033745	176.0
95.113312	212.0
95.249245	176.0
96.199577	156.0
96.240578	176.0
96.334328	240.0
96.690689	196.0
96.717613	72.0
97.429482	72.0
97.569023	232.0
97.814934	100.0
97.855118	224.0
98.1203	116.0
98.161705	204.0
98.222847	176.0
98.376778	152.0
98.981804	124.0
99.029335	164.0
99.209663	136.0
99.419922	184.0
99.49337	164.0
99.769531	100.0
99.817245	152.0
100.075935	156.0
100.097839	104.0
100.434662	188.0
100.610275	108.0
101.037979	156.0
101.32428	104.0
101.462578	96.0
101.701302	108.0
101.731415	116.0
101.948341	288.0
102.046913	416.0
102.149414	236.0
102.261276	156.0
102.32048	144.0
102.568275	228.0
102.615654	168.0
102.630775	124.0
102.695312	196.0
102.806274	196.0
103.052322	512.0
103.317505	216.0
103.481445	108.0
103.86245	232.0
103.961868	128.0
104.048683	1548.0
104.40699	212.0
104.875092	60.0
105.050461	224.0
105.311752	148.0
105.354652	128.0
105.39756	144.0
105.647003	156.0
105.823021	232.0
105.855782	68.0
106.064766	160.0
106.13858	100.0
106.255493	52.0
106.315002	40.0
106.475143	148.0
106.847214	180.0
106.956284	188.0
107.137505	200.0
107.232292	136.0
107.715141	148.0
107.793655	136.0
107.861862	100.0
108.040642	216.0
108.312973	104.0
108.406212	148.0
108.563774	128.0
108.796173	68.0
109.018425	240.0
109.047409	148.0
109.2742	140.0
109.803329	236.0
109.949371	76.0
109.997383	200.0
110.024521	176.0
110.058891	4876.0
110.112228	144.0
110.149826	164.0
110.179649	188.0
110.23967	120.0
110.266838	48.0
110.423653	52.0
110.448753	52.0
110.54081	76.0
110.561737	32.0
110.815125	184.0
110.97023	156.0
110.995392	40.0
111.061317	336.0
111.453003	184.0
111.673744	156.0
111.865234	168.0
111.983162	196.0
112.040039	48.0
112.328857	216.0
112.685654	160.0
112.784981	236.0
112.899155	156.0
112.922424	76.0
113.192719	184.0
113.411537	116.0
113.443336	168.0
113.663925	60.0
113.7658	220.0
113.916588	96.0
113.986702	180.0
114.156769	172.0
114.362038	108.0
114.61232	104.0
114.633629	168.0
114.780724	104.0
115.052475	5260.0
115.188377	144.0
116.060127	1112.0
116.166702	96.0
116.233215	188.0
116.261116	192.0
116.327652	148.0
116.407097	200.0
116.611198	168.0
117.056129	872.0
117.722916	164.0
117.770432	116.0
117.934647	44.0
118.014641	148.0
118.061859	276.0
118.508148	180.0
118.649033	148.0
118.82254	132.0
119.631027	48.0
119.809608	44.0
120.051559	76.0
120.652046	212.0
120.857643	72.0
121.017433	148.0
121.429428	164.0
121.734489	36.0
122.290733	128.0
122.81736	48.0
123.062332	116.0
123.429138	144.0
123.506546	40.0
123.882874	140.0
124.29306	140.0
125.035324	180.0
125.211212	116.0
125.304771	228.0
125.985245	164.0
126.045723	168.0
126.398895	152.0
126.443649	204.0
126.537674	164.0
126.918587	160.0
127.05378	512.0
127.282104	192.0
127.497772	76.0
128.061584	1376.0
128.083298	140.0
128.193192	72.0
128.21347	176.0
128.782043	168.0
128.881454	48.0
128.928909	84.0
129.049683	300.0
129.066055	724.0
129.431122	160.0
129.619141	144.0
129.75061	32.0
129.850388	92.0
130.064148	896.0
130.336212	120.0
130.697769	188.0
130.725067	148.0
131.07225	1688.0
131.640778	144.0
131.719177	148.0
132.046036	140.0
132.07605	800.0
132.119247	64.0
133.049728	144.0
133.079575	80.0
133.150772	80.0
133.205902	136.0
133.668045	116.0
133.944321	200.0
133.97197	160.0
134.80957	172.0
135.08934	204.0
135.3694	176.0
135.475952	196.0
135.863129	196.0
136.269424	160.0
136.334488	156.0
136.450714	156.0
136.715469	196.0
136.855576	52.0
137.11882	204.0
137.433655	136.0
137.989563	132.0
138.069061	200.0
138.361572	156.0
138.434158	172.0
138.607513	156.0
138.684845	144.0
139.052155	588.0
139.12352	144.0
139.236237	176.0
140.050507	292.0
140.894592	140.0
141.031647	240.0
141.067505	3644.0
141.093811	172.0
141.642151	60.0
142.062927	3312.0
142.353699	96.0
142.439209	64.0
142.750565	160.0
142.909943	148.0
142.969437	208.0
143.012268	200.0
143.040833	212.0
143.071381	9500.0
143.240875	104.0
143.262314	160.0
143.29567	64.0
143.367157	212.0
143.393372	92.0
143.507797	72.0
143.715317	164.0
143.872849	136.0
143.899109	72.0
143.918213	32.0
143.980301	108.0
144.018509	72.0
144.05481	344.0
144.07637	1424.0
144.185776	28.0
144.220627	144.0
144.743179	32.0
144.872528	72.0
145.023483	108.0
145.070236	336.0
145.143356	68.0
145.229706	132.0
145.284882	176.0
145.85643	104.0
145.952591	76.0
146.089691	152.0
146.161865	144.0
146.720673	208.0
147.447266	160.0
148.105392	80.0
148.238647	108.0
148.97142	156.0
149.747391	100.0
150.043442	188.0
150.786789	48.0
151.028854	212.0
151.05069	536.0
151.528259	240.0
152.046585	364.0
152.06337	152.0
152.16597	120.0
152.428787	116.0
152.928055	56.0
153.056259	1784.0
153.874695	148.0
154.061401	828.0
154.366425	156.0
154.693024	108.0
154.764816	48.0
155.059326	176.0
155.3423	88.0
155.769287	124.0
155.876129	56.0
155.948196	216.0
156.079544	1080.0
156.1297	140.0
156.423309	192.0
156.709717	120.0
156.974152	188.0
157.033798	160.0
157.087326	2292.0
157.365707	72.0
157.428131	44.0
157.458939	40.0
158.067581	172.0
158.094727	7844.0
158.138184	300.0
158.233307	68.0
158.528885	48.0
158.641693	52.0
158.774582	108.0
159.073181	144.0
159.097549	796.0
159.31929	44.0
159.341904	164.0
159.457489	48.0
159.60582	76.0
159.849823	64.0
160.077454	124.0
160.1026	140.0
160.217453	72.0
160.364273	76.0
161.267227	156.0
161.307678	152.0
162.322968	104.0
162.680725	136.0
162.949936	208.0
163.40506	156.0
163.471222	280.0
163.593384	40.0
164.097839	172.0
165.055389	200.0
165.597946	136.0
165.946472	148.0
166.064285	888.0
166.246597	152.0
166.300491	84.0
166.564972	120.0
167.071228	3992.0
167.151184	108.0
167.488449	56.0
167.831223	152.0
168.079468	2140.0
168.176926	172.0
168.213074	136.0
168.280197	44.0
168.324097	40.0
168.422241	140.0
168.923721	120.0
169.065353	300.0
169.07373	144.0
169.080368	460.0
169.490738	100.0
169.954895	160.0
170.057434	1432.0
170.101395	36.0
170.523636	132.0
170.560028	36.0
170.786255	156.0
171.066055	1360.0
171.140198	208.0
171.215714	56.0
171.248505	68.0
171.353775	124.0
171.679611	56.0
172.240784	84.0
173.014862	164.0
173.407791	56.0
173.441864	76.0
173.567719	216.0
174.61557	92.0
174.710266	216.0
174.815521	180.0
175.257919	128.0
177.141693	136.0
177.30864	220.0
177.425262	180.0
177.555206	208.0
177.613556	156.0
178.545853	128.0
179.039597	208.0
179.365936	44.0
179.915497	80.0
179.94754	184.0
180.006287	196.0
180.059097	152.0
180.33757	64.0
182.299438	196.0
183.074234	160.0
183.233154	152.0
183.926239	104.0
183.94783	132.0
184.071426	664.0
185.004868	144.0
185.080872	164.0
185.356979	132.0
185.416595	204.0
185.525024	108.0
185.55484	204.0
185.642715	160.0
185.831497	140.0
185.850494	144.0
185.959488	100.0
186.01062	140.0
186.040451	180.0
186.090347	31972.0
186.164307	80.0
186.203415	100.0
186.233292	56.0
186.289856	132.0
186.312073	44.0
186.33606	152.0
186.363693	40.0
186.409882	68.0
186.453369	84.0
186.5186	104.0
186.546509	60.0
186.564819	104.0
186.59201	68.0
186.678558	72.0
186.733414	56.0
186.755173	52.0
186.774216	76.0
186.994614	60.0
187.019104	180.0
187.049057	68.0
187.09314	3504.0
187.215134	40.0
187.247818	144.0
187.62114	72.0
187.741119	60.0
187.847504	88.0
187.891144	84.0
188.093704	288.0
188.303345	80.0
188.327927	108.0
188.357864	96.0
188.401688	56.0
188.472733	72.0
188.494583	88.0
188.535583	152.0
188.658035	40.0
188.811707	112.0
189.337189	60.0
189.381012	52.0
191.058304	104.0
196.667313	84.0
197.044312	124.0
197.115341	48.0
198.435364	44.0
198.684982	88.0
200.287369	72.0
200.760895	48.0
202.278183	124.0
203.403595	56.0
207.847443	64.0
208.556824	40.0
208.919159	136.0
210.386078	40.0
215.039398	132.0
220.52916	48.0
244.641113	64.0
247.075409	76.0
249.308014	76.0
262.291992	56.0
288.703918	84.0
309.957977	104.0
322.99115	64.0
337.644623	68.0
365.418854	88.0
367.064392	92.0
373.995178	76.0
416.498413	84.0
428.827271	52.0
467.357391	88.0
482.976257	68.0
493.527008	56.0
505.11734	52.0
553.942993	68.0
586.926208	108.0
639.308594	68.0
649.951233	160.0
665.951477	44.0
728.439758	164.0
737.190002	124.0
740.002869	172.0
765.036438	48.0
836.188416	188.0
842.271606	196.0
844.479675	144.0
850.337524	128.0
850.639343	180.0
859.509399	188.0
915.393127	148.0
930.856262	176.0
936.609863	276.0
954.063171	192.0
955.028625	196.0
962.312988	128.0
962.664978	208.0
966.175903	160.0
969.123108	212.0
972.72644	144.0
972.782349	76.0
981.436707	212.0
985.837708	144.0
996.270508	192.0
1014.972351	168.0
1015.321106	148.0
1021.132568	176.0
1024.646484	172.0
1028.096191	148.0
1029.845703	64.0
1031.50061	136.0
1038.518799	232.0
1046.249512	160.0
1061.129028	40.0
1064.185059	168.0
1068.708984	156.0
1069.80896	180.0
1073.764282	220.0
1075.05603	228.0
1082.076538	212.0
1086.500488	152.0
1087.360107	100.0
1090.992798	128.0
1102.455444	160.0
1110.950806	44.0
1116.530518	132.0
1122.330933	116.0
1122.764404	124.0
1128.079468	252.0
1128.754761	132.0
1134.352173	144.0
1135.129883	184.0
1138.270508	144.0
1143.743286	208.0
1144.349121	176.0
1146.019531	224.0
1146.875488	204.0
1150.53186	128.0
1152.436523	72.0
1155.61438	224.0
1156.331787	156.0
1163.069214	172.0
1171.835449	152.0
1174.814941	204.0
1177.948364	164.0
1178.064453	84.0
1187.50415	88.0
1190.352295	212.0
1194.111694	236.0
1195.68042	104.0
1196.045166	84.0
1196.864502	208.0
1207.893433	100.0
1208.834473	192.0
1209.20813	176.0
1215.507812	168.0
1216.840576	56.0
1218.375488	128.0
1220.106079	172.0
1224.148804	60.0
1225.277222	92.0
1225.528076	244.0
1226.001953	144.0
1226.817505	148.0
1229.105225	188.0
1232.862305	184.0
1239.916992	244.0
1242.329102	124.0
1245.143921	148.0
1248.229126	144.0
1249.692261	204.0
1250.191895	236.0
1250.747925	60.0
1251.057617	180.0
1253.078979	164.0
1254.460327	164.0
1254.523804	176.0
1255.369873	88.0
1256.3927	112.0
1260.975586	128.0
1266.175903	96.0
1267.83374	212.0
1268.230713	88.0
1274.0	140.0
1275.926025	160.0
1276.672607	76.0
1285.392334	240.0
1285.570801	28.0
1288.405518	156.0
1295.710327	204.0
1298.305176	172.0
1301.039185	156.0
1301.599243	56.0
1302.310181	108.0
1302.640625	152.0
1305.868164	156.0
1306.918457	116.0
1309.351685	52.0
1310.230591	52.0
1319.071167	140.0
1319.439819	252.0
1320.300293	152.0
1322.934204	160.0
1324.498413	200.0
1326.324463	124.0
1327.187256	216.0
1331.87561	168.0
1332.151611	144.0
1341.583374	192.0
1341.65625	124.0
1344.997437	224.0
1345.245605	60.0
1345.435425	176.0
1347.202759	156.0
1347.889648	236.0
1348.035767	192.0
1351.062988	184.0
1352.707153	192.0
1353.815186	116.0
1356.189087	184.0
1357.076172	76.0
1357.970825	80.0
1359.291382	156.0
1361.368896	204.0
1368.34729	212.0
1370.306519	184.0
1370.608521	140.0
1373.941284	128.0
1374.531616	156.0
1378.002075	212.0
1380.212158	148.0
1386.260132	280.0
1388.73645	156.0
1389.901245	132.0
1390.175781	88.0
1391.801514	188.0
1393.955811	220.0
1394.758423	128.0
1396.781128	164.0
1398.336304	152.0
1403.431885	248.0
1405.132446	176.0
1405.490601	200.0
1405.86377	164.0
1410.315186	144.0
1410.666626	244.0
1414.279663	40.0
1416.046753	156.0
1417.245361	124.0
1418.092285	204.0
1418.654419	136.0
1425.913208	204.0
1432.820312	220.0
1433.424072	112.0
1440.811035	212.0
1446.35437	52.0
1451.104492	160.0
1451.347046	188.0
1453.275635	236.0
1453.364746	172.0
1453.911133	112.0
1457.298096	184.0
1460.460693	132.0
1461.335571	132.0
1461.594238	88.0
1462.512573	164.0
1462.563721	176.0
1463.88562	196.0
1466.437866	216.0
1466.971436	92.0
1467.489868	220.0
1468.077026	196.0
1469.175537	76.0
1469.228882	204.0
1469.595093	184.0
1469.862183	140.0
1470.862061	80.0
1471.136841	68.0
1471.694214	188.0
1472.511353	168.0
1473.810059	204.0
1474.024048	40.0
1475.728638	240.0
1476.500977	160.0
1484.872314	192.0
1484.987305	128.0
1487.10498	40.0
1489.231934	216.0
1489.900269	168.0
1490.069336	204.0
1494.475098	168.0
1495.598633	188.0
1495.883545	244.0
1498.116821	224.0
1500.282349	180.0
1500.398071	168.0
1500.752686	40.0
1500.853027	128.0
1503.576172	56.0
END IONS

BEGIN IONS
PEPMASS=303.017
CHARGE=1
MSLEVEL=2
SOURCE_INSTRUMENT=LC-ESI-qTof
FILENAME=p3-G03_GG3_01_18296.mzXML
SEQ=*..*
IONMODE=Positive
ORGANISM=GNPS-NIH-SMALLMOLECULEPHARMACOLOGICALLYACTIVE
NAME=MLS002701928-01! M+H
PI=Dorrestein
DATACOLLECTOR=VP/LMS
SMILES=CCC(=C)C(=O)c1ccc(OCC(=O)O)c(Cl)c1Cl
INCHI=N/A
INCHIAUX=N/A
PUBMED=N/A
SUBMITUSER=vphelan
LIBRARYQUALITY=1
SPECTRUMID=CCMSLIB00000085228
USI=mzspec:GNPS:GNPS-NIH-SMALLMOLECULEPHARMACOLOGICALLYACTIVE:accession:CCMSLIB00000085228
SCANS=2180
44.967606	164.0
45.015671	140.0
45.208187	188.0
45.224247	268.0
45.457458	176.0
45.80307	188.0
46.502121	176.0
46.730816	176.0
46.840717	112.0
47.084885	36.0
47.520222	128.0
47.562767	180.0
48.301403	196.0
48.430141	96.0
49.102901	132.0
49.84071	60.0
50.162674	156.0
51.750095	112.0
52.575268	132.0
52.669121	128.0
53.235455	188.0
53.284843	44.0
53.360424	208.0
53.482632	176.0
53.893917	144.0
53.917297	84.0
54.182167	248.0
54.594658	172.0
54.960003	172.0
55.24052	84.0
55.504375	48.0
56.072296	116.0
56.327461	100.0
56.83202	128.0
57.817616	168.0
58.278637	148.0
58.295353	156.0
58.528103	172.0
59.037815	140.0
59.172478	204.0
59.410042	112.0
59.591217	168.0
59.681908	160.0
59.726509	164.0
59.774204	240.0
60.368149	216.0
61.178131	148.0
61.600769	116.0
61.628891	100.0
61.69923	192.0
61.849415	180.0
62.65506	108.0
63.005322	208.0
63.480194	120.0
63.523796	188.0
64.202225	160.0
64.238914	148.0
64.468849	124.0
64.817719	180.0
64.905891	100.0
65.019791	144.0
65.095253	52.0
65.540848	96.0
65.673058	164.0
65.95887	160.0
68.287498	180.0
68.859444	216.0
68.922226	140.0
69.513412	164.0
70.404099	60.0
70.420799	148.0
70.599632	208.0
71.717873	140.0
72.444534	176.0
72.749802	156.0
74.128021	156.0
74.806488	132.0
76.508339	152.0
76.621552	188.0
76.822044	292.0
77.096191	172.0
78.558891	120.0
78.823746	168.0
78.915665	152.0
79.793343	156.0
79.8965	140.0
80.372246	188.0
81.109116	144.0
82.696083	188.0
82.946053	188.0
83.567184	164.0
84.536163	200.0
84.629524	20.0
85.078735	88.0
85.834976	112.0
86.015793	164.0
86.13398	136.0
86.906021	188.0
87.301704	88.0
87.67778	252.0
88.387444	140.0
88.428619	184.0
88.563431	152.0
88.673981	144.0
89.042946	248.0
89.165741	156.0
89.363197	168.0
90.094749	160.0
90.446495	140.0
91.05706	144.0
91.850807	180.0
92.749573	60.0
92.841606	144.0
92.979744	36.0
93.410164	180.0
93.448639	104.0
93.714355	124.0
93.781815	180.0
94.366768	208.0
95.240814	148.0
95.456558	72.0
95.643333	184.0
97.234421	184.0
97.934402	120.0
98.8228	136.0
99.572159	80.0
99.824562	152.0
100.463943	52.0
100.847359	148.0
101.219482	216.0
101.237511	136.0
101.407814	96.0
102.044197	176.0
102.428596	244.0
102.491051	144.0
103.05368	212.0
103.784752	192.0
103.985596	184.0
104.41227	36.0
104.792946	196.0
105.068199	244.0
105.650475	148.0
105.855164	100.0
105.976021	104.0
106.671783	180.0
106.764313	52.0
106.832191	176.0
107.605072	144.0
107.766182	68.0
107.80751	156.0
108.610863	124.0
108.776878	136.0
108.982491	60.0
109.069778	188.0
109.252785	176.0
109.927895	156.0
110.820808	128.0
111.032539	224.0
111.133232	160.0
111.498634	240.0
112.480202	136.0
112.617455	132.0
112.701965	216.0
113.042419	152.0
113.116501	84.0
113.504234	196.0
113.81617	52.0
114.028618	180.0
114.058372	192.0
114.464752	48.0
114.547821	132.0
114.660751	156.0
114.927322	172.0
114.946526	128.0
115.052895	1196.0
116.060249	596.0
116.316338	136.0
116.599876	220.0
117.027977	180.0
117.067459	476.0
117.267105	180.0
117.709381	148.0
118.073448	156.0
118.180618	184.0
118.325638	152.0
119.049896	136.0
120.465721	116.0
120.968704	204.0
121.060669	164.0
121.13076	100.0
122.735207	148.0
123.123611	200.0
123.209763	132.0
123.548027	148.0
124.001984	108.0
125.013939	704.0
126.054649	212.0
126.933754	244.0
127.012253	220.0
127.04879	308.0
127.324249	164.0
127.974152	124.0
128.06189	1048.0
128.28508	32.0
128.853806	256.0
129.068466	1196.0
129.125076	76.0
129.475891	36.0
129.530258	60.0
129.743286	164.0
130.042725	152.0
130.078812	504.0
130.149429	152.0
130.292526	212.0
130.603973	116.0
131.046646	448.0
131.086655	392.0
132.056976	492.0
132.148483	280.0
132.960541	412.0
133.001022	120.0
133.067596	168.0
133.145676	52.0
133.883942	160.0
134.109741	176.0
134.954071	224.0
136.009399	164.0
136.085449	244.0
136.657242	124.0
137.014236	536.0
137.491516	128.0
137.596558	36.0
137.989075	180.0
138.796906	112.0
138.96814	132.0
138.992722	176.0
139.011703	128.0
139.031509	176.0
139.054001	260.0
139.950668	168.0
140.974457	72.0
141.002823	160.0
141.026459	124.0
141.06929	1824.0
141.591949	104.0
141.715134	168.0
142.070114	156.0
143.078476	176.0
143.712479	116.0
143.748276	204.0
144.053894	128.0
144.099289	176.0
144.345505	80.0
144.957245	196.0
144.991882	152.0
145.027847	368.0
145.062393	976.0
145.32283	180.0
145.582077	160.0
146.036331	196.0
146.072021	436.0
147.039459	144.0
147.079697	152.0
147.123154	124.0
148.006744	136.0
148.955444	172.0
149.015015	328.0
149.060898	168.0
149.688522	188.0
150.023361	388.0
150.6642	172.0
151.009918	328.0
151.030991	560.0
151.114059	188.0
151.278046	156.0
151.393127	224.0
151.736191	124.0
152.000412	356.0
152.018066	468.0
152.035706	232.0
152.337479	84.0
152.990585	140.0
153.023941	176.0
153.041656	180.0
153.555954	36.0
153.997772	112.0
154.420441	60.0
155.012604	192.0
155.033844	148.0
155.059235	200.0
155.299744	172.0
155.649689	136.0
156.064789	240.0
156.303452	164.0
156.76915	196.0
157.028427	128.0
157.062439	316.0
158.071243	804.0
158.112778	148.0
158.164734	132.0
158.74913	200.0
158.791779	56.0
158.862015	184.0
158.974655	424.0
159.042114	144.0
159.078308	876.0
159.102936	100.0
159.404358	44.0
159.474731	188.0
159.731216	80.0
159.945114	132.0
159.972946	144.0
160.043289	176.0
160.078552	116.0
160.948547	112.0
160.974915	172.0
161.059677	40.0
161.097565	108.0
162.021439	204.0
162.102081	116.0
162.781952	108.0
162.972458	172.0
162.99942	244.0
163.028748	284.0
163.07666	172.0
163.924179	56.0
164.035065	288.0
165.011292	944.0
165.043579	792.0
165.1241	188.0
165.144562	148.0
165.303192	88.0
165.920502	116.0
166.016006	672.0
166.074371	100.0
167.00325	200.0
167.025787	504.0
167.086533	160.0
167.253799	52.0
167.547394	208.0
167.830902	124.0
167.980499	140.0
168.015015	348.0
168.037262	296.0
168.055313	160.0
168.362518	128.0
168.447754	100.0
168.913071	172.0
169.027405	148.0
169.073486	148.0
169.296143	40.0
169.581146	108.0
170.510345	192.0
170.981339	128.0
171.173752	176.0
171.945435	144.0
172.053131	468.0
172.920334	188.0
172.955383	1156.0
172.992783	172.0
173.011963	160.0
173.058365	200.0
173.289581	88.0
173.958191	208.0
174.021378	140.0
174.06665	712.0
174.402313	188.0
174.951828	784.0
174.988983	148.0
175.030838	332.0
175.06662	120.0
175.094315	252.0
175.363068	152.0
175.392059	80.0
175.766571	40.0
175.798233	132.0
175.997894	76.0
176.037399	1600.0
176.963989	132.0
177.009766	428.0
177.472733	48.0
177.711456	72.0
178.027908	308.0
178.282394	104.0
178.70787	144.0
178.960739	196.0
179.02475	4644.0
179.091232	60.0
179.128525	52.0
179.165817	52.0
179.1978	124.0
179.229767	60.0
179.408356	48.0
179.856522	200.0
179.989746	156.0
180.030045	500.0
180.323959	36.0
180.810745	100.0
181.020889	736.0
181.199036	56.0
181.290131	84.0
181.410751	136.0
181.432205	148.0
181.984909	140.0
182.011627	160.0
182.028778	288.0
182.189041	176.0
182.264267	112.0
182.74559	148.0
182.972031	212.0
183.00267	132.0
183.082077	48.0
184.004303	132.0
184.06102	52.0
184.109619	160.0
184.972168	228.0
184.991699	292.0
185.465179	96.0
186.966446	352.0
187.001923	168.0
187.070633	164.0
187.416519	68.0
187.972809	352.0
188.952896	588.0
188.989334	176.0
189.01123	176.0
189.621948	180.0
189.948257	364.0
190.014099	164.0
190.063492	256.0
190.947021	492.0
191.027145	348.0
191.069138	56.0
191.652847	108.0
192.044327	176.0
192.135727	152.0
192.858902	128.0
192.975006	124.0
193.004349	644.0
193.040222	432.0
193.210098	52.0
194.010834	1116.0
194.048691	720.0
194.079819	48.0
194.759766	200.0
194.834778	184.0
194.979279	100.0
195.019394	3540.0
195.096024	52.0
195.132156	72.0
195.485428	120.0
195.510483	60.0
195.727615	160.0
195.980347	252.0
196.021057	212.0
196.043182	156.0
196.859818	68.0
197.016602	892.0
197.185226	144.0
197.818863	100.0
197.97287	176.0
198.163361	84.0
198.272644	128.0
198.841995	172.0
198.973785	152.0
199.011414	172.0
199.836807	156.0
199.983337	196.0
200.007721	132.0
200.104202	148.0
200.205582	40.0
200.631073	80.0
200.957657	136.0
200.986343	224.0
201.021301	196.0
201.093704	168.0
201.435364	84.0
201.984772	184.0
202.702927	208.0
202.981476	452.0
203.03746	104.0
203.559647	124.0
203.988693	144.0
204.022797	180.0
204.073975	108.0
204.848114	92.0
205.012207	188.0
205.042847	260.0
207.017807	232.0
207.101959	212.0
207.296783	172.0
208.018555	320.0
208.981842	168.0
209.019699	168.0
209.040619	160.0
210.007217	260.0
210.034836	208.0
211.00798	280.0
211.031158	168.0
211.977905	984.0
212.006699	544.0
212.046448	36.0
212.101517	64.0
212.145004	80.0
212.417603	144.0
212.987045	472.0
213.131836	84.0
213.597015	124.0
213.742477	112.0
213.976028	136.0
214.00737	152.0
214.15007	120.0
214.96637	308.0
215.001358	332.0
215.033539	196.0
215.993973	180.0
216.082642	52.0
216.838165	92.0
216.943695	140.0
216.991516	276.0
217.052185	84.0
217.471725	64.0
219.015457	148.0
221.030731	236.0
221.111847	56.0
222.046417	284.0
222.119293	148.0
222.612	96.0
223.036865	160.0
223.069565	92.0
224.0457	132.0
224.967239	116.0
225.028778	276.0
225.950516	232.0
226.022324	180.0
226.833984	156.0
226.971909	148.0
226.992279	300.0
227.974365	152.0
228.600082	108.0
228.792725	120.0
228.980392	1360.0
229.431442	52.0
229.975586	120.0
230.669189	80.0
230.9785	1168.0
231.056305	44.0
231.141022	48.0
231.980347	176.0
232.041748	84.0
232.310562	48.0
233.075012	160.0
233.428314	108.0
234.134369	152.0
234.359802	68.0
234.6707	132.0
235.018433	288.0
235.693268	184.0
235.962234	164.0
237.024384	116.0
238.377686	64.0
239.009506	420.0
239.045013	156.0
240.024612	140.0
240.095551	52.0
240.848663	148.0
241.000549	148.0
241.040222	144.0
241.986313	172.0
242.987183	196.0
243.338608	84.0
243.919571	208.0
243.970001	788.0
244.006943	380.0
244.915329	56.0
244.964981	160.0
245.011902	124.0
245.594864	56.0
245.962952	576.0
246.006775	148.0
246.481522	36.0
248.024506	160.0
248.639267	116.0
248.95636	196.0
251.850876	168.0
253.024384	4536.0
253.705307	52.0
253.733841	32.0
254.027466	472.0
254.266754	104.0
254.598618	84.0
255.021469	1092.0
256.020813	96.0
256.305267	44.0
256.678223	68.0
256.895111	152.0
256.995056	548.0
258.0065	104.0
258.204773	52.0
259.00708	328.0
259.05304	184.0
259.799988	80.0
261.001251	196.0
263.515442	76.0
267.039307	136.0
268.050598	456.0
268.117004	116.0
269.046661	220.0
272.79126	64.0
274.312164	56.0
276.124969	120.0
292.998444	64.0
301.23233	176.0
315.841888	100.0
344.124268	148.0
345.946991	212.0
383.170807	64.0
409.445801	56.0
417.491699	112.0
428.919617	56.0
455.291077	44.0
501.22641	56.0
738.010803	116.0
809.344116	132.0
938.426453	164.0
952.760803	168.0
979.455566	220.0
997.697998	148.0
1053.163818	124.0
1080.317505	176.0
1092.125366	252.0
1122.286011	196.0
1125.609131	136.0
1171.55835	88.0
1176.038574	212.0
1189.029663	204.0
1203.949219	68.0
1220.755249	192.0
1245.44165	168.0
1257.94812	56.0
1259.946777	152.0
1288.601562	224.0
1288.901611	176.0
1314.119995	108.0
1333.048828	216.0
1353.826172	148.0
1360.109741	172.0
1361.761841	104.0
1369.720825	160.0
1372.079102	144.0
1379.67627	124.0
1387.57605	160.0
1388.562378	228.0
1390.098022	112.0
1394.911133	152.0
1415.286987	144.0
1429.700439	144.0
1430.60376	160.0
1435.312866	116.0
1444.247559	188.0
1445.314209	192.0
1455.600952	60.0
1460.875854	136.0
1464.895508	188.0
1473.509033	44.0
1476.811523	156.0
1478.364746	92.0
1482.722534	188.0
1485.774414	180.0
1485.843506	152.0
1494.526001	104.0
1498.460571	120.0
1501.960693	176.0
END IONS

BEGIN IONS
PEPMASS=363.095
CHARGE=1
MSLEVEL=2
SOURCE_INSTRUMENT=LC-ESI-qTof
FILENAME=p3-H03_GH3_01_18308.mzXML
SEQ=*..*
IONMODE=Positive
ORGANISM=GNPS-NIH-SMALLMOLECULEPHARMACOLOGICALLYACTIVE
NAME=MLS002154123-01!Piretanide55837-27-9 M+H
PI=Dorrestein
DATACOLLECTOR=VP/LMS
SMILES=NS(=O)(=O)c1cc(cc(N2CCCC2)c1Oc3ccccc3)C(=O)O
INCHI=N/A
INCHIAUX=N/A
PUBMED=N/A
SUBMITUSER=vphelan
LIBRARYQUALITY=1
SPECTRUMID=CCMSLIB00000085312
USI=mzspec:GNPS:GNPS-NIH-SMALLMOLECULEPHARMACOLOGICALLYACTIVE:accession:CCMSLIB00000085312
SCANS=1982
45.081238	36.0
45.535431	96.0
45.664467	172.0
45.906898	184.0
46.054016	252.0
46.286644	112.0
46.495422	144.0
46.544296	180.0
46.616295	212.0
46.685631	172.0
46.703312	132.0
46.884403	164.0
47.031925	152.0
47.191559	120.0
47.383183	112.0
47.535389	108.0
47.56284	168.0
47.755219	116.0
47.981068	120.0
48.077629	132.0
48.690971	184.0
48.902317	156.0
49.383709	204.0
50.063026	292.0
50.119377	92.0
50.533104	196.0
50.999691	44.0
51.305759	88.0
51.441292	188.0
51.617126	128.0
52.767403	132.0
52.873005	188.0
52.900505	188.0
52.967121	156.0
52.987404	156.0
53.803349	124.0
54.286228	172.0
54.543175	144.0
54.942272	180.0
54.968834	256.0
55.168236	172.0
55.507313	204.0
55.534008	148.0
55.624523	128.0
55.636402	156.0
55.841473	144.0
56.170673	112.0
56.674522	212.0
56.743473	184.0
56.798962	148.0
56.917534	172.0
57.200195	196.0
57.317673	220.0
57.869022	136.0
58.097885	116.0
58.52346	140.0
59.065266	112.0
59.411488	196.0
59.643379	172.0
59.909611	116.0
60.448494	132.0
61.326008	160.0
61.360306	92.0
62.071774	164.0
62.23497	56.0
62.258526	68.0
62.388947	104.0
62.590347	172.0
62.763687	140.0
62.885166	156.0
63.047844	128.0
63.088943	216.0
63.130054	204.0
63.304138	96.0
63.502796	140.0
63.6562	36.0
63.749928	64.0
64.203667	132.0
64.447906	164.0
64.955437	128.0
65.254158	40.0
65.703529	164.0
66.139862	148.0
66.332634	216.0
66.540298	188.0
66.626373	224.0
66.67025	100.0
67.209282	136.0
67.776703	128.0
68.239586	220.0
68.407402	100.0
68.633125	156.0
68.644669	136.0
68.712296	168.0
68.85096	28.0
69.562973	164.0
69.742378	220.0
70.607742	160.0
70.786819	144.0
70.914146	148.0
70.940964	116.0
71.113747	36.0
71.438065	220.0
72.417145	184.0
72.544235	112.0
72.556107	44.0
72.695198	100.0
72.735931	84.0
72.895584	196.0
73.867462	164.0
73.959869	160.0
74.318054	148.0
74.740768	164.0
74.952568	160.0
75.143967	140.0
75.382263	76.0
76.016083	120.0
76.346169	216.0
76.433151	232.0
78.031914	140.0
78.088188	176.0
78.248322	104.0
78.290588	160.0
78.317009	132.0
78.435066	92.0
78.468567	160.0
78.524994	148.0
79.016098	164.0
79.505173	136.0
79.61525	32.0
80.298691	176.0
80.493217	152.0
80.59861	124.0
81.236015	196.0
81.347282	196.0
81.780495	64.0
82.23111	240.0
82.361122	188.0
82.386406	132.0
83.741493	108.0
84.027702	204.0
84.106171	100.0
84.979141	164.0
85.685181	196.0
86.523689	64.0
86.558868	152.0
86.577393	132.0
86.877678	68.0
86.912926	52.0
86.994591	132.0
87.172905	68.0
87.353264	132.0
87.59713	216.0
87.91597	88.0
87.990639	60.0
88.076546	60.0
88.276535	156.0
88.59848	172.0
89.528297	100.0
89.745003	192.0
89.795921	60.0
90.054512	140.0
90.464851	220.0
90.506508	124.0
90.84008	144.0
90.952042	148.0
91.705292	180.0
91.880737	168.0
92.004791	44.0
92.092628	144.0
92.153763	32.0
92.222565	120.0
92.34111	140.0
92.586098	236.0
92.616737	216.0
93.284538	156.0
93.9123	56.0
94.058945	196.0
94.259811	232.0
94.350662	180.0
94.433815	148.0
94.883087	104.0
95.195488	148.0
95.244049	152.0
95.401451	144.0
95.428673	112.0
95.551208	136.0
95.625153	168.0
95.755608	132.0
95.790665	112.0
96.079597	176.0
96.153351	68.0
96.411156	176.0
96.516716	144.0
96.904282	152.0
96.921913	168.0
97.059128	172.0
97.076782	64.0
98.020386	148.0
98.450447	208.0
98.525513	196.0
98.568977	144.0
98.66188	132.0
98.752846	172.0
99.025986	160.0
99.442368	120.0
99.490013	160.0
99.652878	196.0
99.927261	48.0
99.941193	208.0
100.126328	188.0
100.200035	216.0
100.249847	32.0
100.535034	180.0
100.578941	88.0
101.437119	144.0
101.499268	172.0
101.603569	228.0
101.748077	196.0
102.097717	96.0
102.544685	96.0
102.853302	148.0
102.907806	208.0
104.033508	156.0
104.047714	172.0
104.767677	148.0
104.851227	196.0
105.057175	200.0
105.124512	204.0
105.342979	216.0
105.455368	120.0
105.772423	180.0
106.067406	168.0
106.251976	160.0
107.049515	80.0
107.325645	92.0
107.527817	208.0
107.717789	104.0
108.036148	100.0
108.788437	220.0
109.760422	156.0
110.091911	168.0
110.685822	64.0
111.722694	164.0
111.897377	128.0
112.221855	80.0
112.453911	188.0
113.041451	184.0
113.107063	68.0
113.59446	60.0
114.034004	228.0
114.106285	32.0
114.276443	112.0
114.5383	152.0
114.80899	184.0
114.979675	76.0
115.052773	868.0
115.118439	60.0
115.30645	212.0
115.329956	128.0
115.49247	168.0
115.871384	152.0
116.060005	232.0
116.461334	148.0
116.889168	76.0
117.044159	180.0
117.066772	156.0
117.941666	152.0
118.056259	144.0
118.080048	192.0
118.554192	120.0
119.029282	108.0
119.046654	140.0
119.181335	100.0
119.372627	208.0
119.690338	168.0
120.043556	208.0
120.646004	100.0
120.726913	72.0
120.860352	120.0
121.039848	196.0
121.073219	152.0
121.25235	176.0
121.792114	156.0
121.862411	48.0
122.165817	164.0
122.372704	200.0
123.012062	164.0
123.054008	140.0
123.195358	120.0
123.49157	212.0
123.637596	124.0
123.81028	232.0
123.845718	156.0
124.051804	120.0
124.238091	172.0
124.406754	176.0
124.880798	196.0
125.267395	152.0
125.878532	172.0
126.046066	140.0
126.166771	188.0
127.078331	212.0
127.096283	124.0
127.201767	188.0
127.221977	184.0
128.057571	348.0
128.572556	168.0
128.836746	148.0
128.988159	176.0
129.068604	164.0
129.182632	52.0
129.927994	144.0
130.002869	212.0
130.063828	364.0
130.261703	128.0
131.050613	332.0
131.142334	92.0
131.347549	88.0
131.573486	168.0
131.710495	196.0
132.080994	152.0
132.172333	68.0
132.398972	128.0
132.48143	172.0
132.770248	196.0
132.834473	172.0
132.949188	216.0
132.969849	100.0
132.985916	112.0
133.043304	112.0
133.709915	124.0
134.696793	100.0
134.96489	128.0
135.25177	140.0
135.318909	88.0
135.884445	124.0
136.070129	80.0
137.033035	156.0
137.452759	136.0
137.508759	144.0
137.793655	176.0
138.053131	216.0
138.312836	124.0
138.535309	128.0
139.05162	752.0
139.951553	164.0
140.044571	164.0
140.063766	224.0
140.142349	120.0
140.479492	128.0
140.975342	168.0
141.001694	132.0
141.068924	4796.0
141.391586	136.0
141.533615	136.0
141.929337	212.0
142.072052	1252.0
142.128586	68.0
142.396851	100.0
142.520386	112.0
143.07457	140.0
143.150772	132.0
143.684708	92.0
143.765839	88.0
144.043732	208.0
144.083786	152.0
144.234665	208.0
144.848953	88.0
145.357254	72.0
145.508469	152.0
145.571335	132.0
145.681396	44.0
146.054001	152.0
146.09729	176.0
147.172256	240.0
147.271271	148.0
147.454773	164.0
147.791046	116.0
147.931427	140.0
148.036514	276.0
148.355377	180.0
148.522705	136.0
148.830917	160.0
149.024323	232.0
149.042252	64.0
149.711227	180.0
149.840332	184.0
149.918304	140.0
149.935364	112.0
149.962173	188.0
150.025558	60.0
150.157227	184.0
150.41832	164.0
150.877594	108.0
150.938721	132.0
151.019424	232.0
151.05368	156.0
151.308197	152.0
151.969955	156.0
152.043076	176.0
152.064041	160.0
152.259628	80.0
152.296478	140.0
153.067749	248.0
153.177109	48.0
153.667709	52.0
154.071533	412.0
155.047546	408.0
155.084274	128.0
155.575912	108.0
155.70256	68.0
156.050461	200.0
156.083069	212.0
156.515762	244.0
156.814713	52.0
156.89946	148.0
157.062271	156.0
157.281143	136.0
157.32753	172.0
157.793289	240.0
158.015884	144.0
158.065933	164.0
158.872726	100.0
159.018265	136.0
159.040863	132.0
159.073486	224.0
159.364822	112.0
159.651398	36.0
159.958359	148.0
160.041443	132.0
160.071289	132.0
160.275711	128.0
161.013519	224.0
161.64183	248.0
161.98111	72.0
162.013916	444.0
162.090042	156.0
162.665787	172.0
162.909576	144.0
163.018845	136.0
163.044601	148.0
164.034973	140.0
164.37616	176.0
164.917603	116.0
165.037766	120.0
165.063599	280.0
165.127274	124.0
165.244949	60.0
165.439453	140.0
165.646881	184.0
165.669937	160.0
166.047852	800.0
166.068588	452.0
166.185272	176.0
166.765671	36.0
166.963638	212.0
167.045853	552.0
167.070663	1316.0
167.12056	148.0
167.43721	124.0
167.591766	164.0
167.756714	172.0
168.006882	112.0
168.055832	1992.0
168.078522	1764.0
168.135895	60.0
168.246887	52.0
168.306274	168.0
168.605942	132.0
168.626617	80.0
168.68866	48.0
169.063644	3316.0
169.265625	60.0
169.338135	76.0
169.39772	72.0
169.656876	56.0
169.895462	48.0
169.968124	124.0
170.025208	144.0
170.066879	620.0
170.28627	168.0
170.500488	180.0
170.924377	272.0
171.002457	88.0
171.042908	156.0
171.424362	136.0
171.961624	124.0
172.07431	144.0
173.043884	196.0
173.481415	124.0
174.043686	184.0
174.062851	140.0
174.373901	168.0
174.915756	128.0
175.086899	232.0
175.949173	120.0
176.028397	176.0
176.060074	192.0
177.039978	348.0
177.067734	168.0
177.651886	192.0
177.892395	232.0
178.049057	204.0
178.069687	476.0
178.647125	44.0
178.785492	164.0
178.987808	152.0
179.068665	196.0
179.08754	344.0
179.758194	164.0
179.830261	108.0
179.886322	164.0
179.985107	240.0
180.080475	876.0
180.161377	136.0
180.947678	136.0
181.009262	196.0
181.03479	136.0
181.062485	1340.0
181.089661	420.0
181.11908	52.0
181.228912	124.0
181.446014	96.0
181.58815	56.0
181.649841	120.0
181.923569	96.0
182.070435	788.0
182.135712	172.0
182.251236	56.0
182.366791	236.0
182.444748	100.0
182.990921	92.0
183.067596	692.0
183.098801	320.0
183.171356	120.0
183.365372	52.0
184.067215	372.0
184.106186	232.0
184.263977	140.0
184.977951	80.0
185.054703	256.0
185.153946	176.0
186.054703	168.0
186.081421	168.0
186.812439	64.0
186.921265	212.0
187.152649	72.0
187.446838	52.0
188.101425	140.0
188.738007	164.0
188.989655	112.0
189.074432	208.0
189.271591	64.0
189.35376	184.0
189.452362	164.0
189.929352	136.0
190.08992	196.0
190.313568	44.0
190.60199	196.0
191.084335	544.0
191.61731	120.0
192.06813	740.0
192.146683	60.0
192.237732	156.0
192.5	172.0
192.737564	256.0
193.051407	308.0
193.087585	588.0
193.143967	184.0
193.188232	160.0
193.337646	196.0
193.958084	172.0
194.06012	800.0
194.095444	348.0
194.296402	56.0
195.00174	44.0
195.061234	1144.0
195.092651	284.0
196.007278	124.0
196.075867	4840.0
196.137405	236.0
196.170853	64.0
196.282379	88.0
196.304688	28.0
196.324203	148.0
196.393936	44.0
196.533432	40.0
196.625519	40.0
196.999695	120.0
197.077667	1076.0
197.226044	184.0
197.553207	64.0
197.875061	68.0
198.034683	144.0
198.075455	216.0
198.096313	144.0
198.133514	144.0
198.443832	28.0
198.560654	128.0
199.051376	132.0
199.127487	52.0
199.277451	88.0
199.35614	252.0
199.842606	136.0
200.06778	72.0
200.798004	140.0
201.073486	184.0
201.602234	188.0
202.072189	120.0
203.03476	200.0
203.086044	176.0
203.704636	64.0
204.064728	1468.0
204.150879	184.0
204.202072	192.0
204.569138	196.0
205.030579	176.0
205.066452	192.0
205.084549	372.0
205.438339	172.0
206.079559	732.0
206.443756	108.0
206.684052	220.0
207.024704	176.0
207.066681	976.0
207.374252	132.0
208.011032	124.0
208.072617	876.0
208.112595	568.0
208.220642	56.0
208.341293	56.0
209.0802	1588.0
209.116364	304.0
209.149368	176.0
209.425797	72.0
209.772263	64.0
210.048737	144.0
210.085632	420.0
210.126144	3524.0
210.168152	56.0
210.233078	28.0
210.305237	40.0
210.380295	96.0
210.513107	48.0
211.04747	168.0
211.088181	168.0
211.132217	384.0
211.597443	72.0
211.675629	52.0
211.884171	60.0
211.913147	76.0
212.039902	152.0
212.069641	316.0
212.140305	260.0
212.176895	92.0
212.281281	128.0
212.466919	56.0
212.736832	56.0
212.803604	56.0
213.052689	152.0
213.091141	156.0
214.0159	60.0
214.855515	192.0
214.922623	144.0
215.083267	176.0
215.76088	144.0
215.991913	128.0
216.088455	156.0
217.089844	548.0
218.026764	184.0
218.055649	184.0
218.093765	176.0
218.099838	312.0
218.338409	164.0
218.561981	192.0
218.812164	160.0
219.074341	132.0
219.368988	100.0
219.569489	28.0
220.05658	128.0
220.080933	348.0
220.109406	432.0
220.697571	76.0
221.025909	196.0
221.048798	136.0
221.084518	812.0
221.118927	420.0
221.295273	124.0
221.455185	156.0
221.490738	76.0
221.579605	44.0
221.75444	28.0
222.021286	164.0
222.050064	452.0
222.089249	1628.0
222.414566	68.0
222.499023	108.0
222.528717	132.0
223.096909	524.0
223.185379	76.0
223.390594	68.0
223.750702	164.0
224.196213	128.0
224.525467	36.0
225.050674	356.0
225.247787	144.0
225.863571	104.0
226.043091	156.0
226.070023	176.0
226.120895	156.0
226.570068	204.0
226.908737	136.0
227.013687	144.0
227.046677	140.0
227.071899	172.0
227.8181	80.0
228.02243	160.0
228.066574	144.0
228.11261	32.0
228.338135	56.0
229.024384	148.0
229.069946	160.0
229.102783	152.0
229.238297	120.0
229.521667	44.0
230.034561	208.0
230.983444	48.0
232.8992	128.0
233.266891	140.0
234.025848	260.0
234.039139	92.0
234.049576	204.0
234.088669	392.0
234.161484	68.0
234.194992	72.0
235.057785	176.0
235.080566	124.0
235.10051	212.0
235.442444	64.0
235.476044	108.0
235.7724	140.0
235.92218	124.0
235.968033	184.0
236.00473	148.0
236.038361	84.0
236.067169	284.0
236.105347	13980.0
236.171463	164.0
236.308411	136.0
236.338135	76.0
236.399338	80.0
236.442184	152.0
236.469727	60.0
236.592163	120.0
236.782028	56.0
236.841034	188.0
236.907608	56.0
236.935181	80.0
236.956635	72.0
237.035065	80.0
237.057755	124.0
237.110748	4980.0
237.232452	64.0
237.345901	40.0
237.505386	92.0
237.600479	36.0
237.667984	44.0
237.815292	72.0
237.870544	148.0
237.935013	56.0
237.979172	136.0
238.045761	332.0
238.064911	200.0
238.120316	4032.0
238.214478	68.0
238.257492	84.0
238.478745	84.0
238.574036	132.0
238.737	68.0
238.903107	112.0
238.9431	92.0
239.02002	104.0
239.060532	244.0
239.122223	584.0
239.364792	48.0
239.423309	68.0
239.638931	96.0
239.709808	96.0
239.842331	64.0
239.944061	40.0
240.062424	1212.0
240.095657	184.0
240.132172	144.0
240.687683	48.0
241.008926	164.0
241.068085	428.0
241.102722	204.0
241.144897	28.0
241.364395	72.0
242.066849	104.0
242.308456	32.0
243.176743	56.0
243.536926	60.0
244.077682	112.0
244.551605	108.0
245.419754	104.0
245.700455	40.0
246.093918	316.0
246.124954	68.0
246.190521	132.0
246.340454	72.0
246.56543	92.0
248.074295	184.0
248.168213	216.0
248.23407	96.0
248.908752	56.0
249.077072	244.0
249.91777	136.0
250.07019	184.0
251.125473	224.0
251.989334	104.0
252.046204	144.0
252.068329	312.0
252.125793	264.0
253.045731	120.0
253.074219	132.0
253.123184	164.0
253.172394	108.0
253.340271	32.0
254.080414	148.0
254.107864	316.0
254.555069	108.0
255.047531	144.0
255.079819	164.0
255.103027	140.0
256.064301	152.0
256.129425	36.0
257.906769	56.0
258.021851	204.0
258.856995	92.0
259.033142	140.0
260.024445	264.0
261.911346	68.0
262.036987	136.0
262.084015	172.0
262.749542	140.0
262.984039	204.0
264.101898	1368.0
265.102173	344.0
266.085388	180.0
267.089783	148.0
267.139374	32.0
267.380157	64.0
267.50058	64.0
267.891388	44.0
268.015045	208.0
268.064056	52.0
268.096649	236.0
268.148804	156.0
269.05661	392.0
269.71228	84.0
269.833221	224.0
270.06369	292.0
270.109222	192.0
270.693787	144.0
271.053772	180.0
272.041382	152.0
272.507751	100.0
273.484467	60.0
274.090454	132.0
274.901672	36.0
277.011139	32.0
278.065582	140.0
280.050568	120.0
280.093567	1556.0
281.096619	412.0
281.167511	76.0
281.240936	100.0
281.431244	64.0
281.604889	40.0
281.695099	80.0
282.058838	164.0
282.110229	5656.0
282.27832	72.0
282.808594	68.0
282.955902	80.0
283.036255	120.0
283.113983	1408.0
283.213776	60.0
284.038361	76.0
284.122223	152.0
284.273224	116.0
284.521606	64.0
284.692871	156.0
284.917908	88.0
285.001923	172.0
285.028809	148.0
285.126251	180.0
285.213654	84.0
285.469177	40.0
285.52298	76.0
286.002136	128.0
286.030151	192.0
286.373138	64.0
287.321777	80.0
287.963135	40.0
288.027313	124.0
288.061096	168.0
289.529083	80.0
292.013489	148.0
293.68927	88.0
294.385529	108.0
295.010803	88.0
298.102509	164.0
300.150726	144.0
303.026581	92.0
304.029633	1164.0
305.008179	184.0
305.042419	184.0
306.042969	132.0
309.050293	172.0
326.96225	164.0
329.053009	192.0
329.17218	148.0
332.706116	72.0
340.014038	60.0
341.248352	128.0
346.059326	280.0
347.086121	120.0
348.470642	88.0
350.085022	144.0
351.919678	56.0
352.352936	52.0
353.706726	68.0
361.244324	92.0
362.080872	116.0
363.102783	740.0
364.093842	248.0
365.097961	276.0
371.657227	64.0
387.019348	144.0
388.622498	112.0
411.73349	196.0
412.097046	48.0
415.128937	72.0
428.788361	172.0
438.091095	140.0
443.552948	96.0
455.125763	72.0
460.615601	100.0
462.5784	28.0
511.059387	132.0
550.950623	76.0
551.99762	52.0
565.4245	44.0
575.71759	72.0
587.617493	40.0
657.928162	52.0
673.570923	72.0
683.520386	112.0
721.805176	88.0
732.873657	88.0
772.287842	72.0
815.227234	76.0
823.09436	48.0
835.256226	84.0
854.05896	20.0
880.668213	104.0
911.248108	124.0
925.246826	44.0
926.936768	172.0
942.490417	156.0
957.286499	220.0
984.031311	88.0
998.626587	76.0
1047.780762	164.0
1062.800781	120.0
1072.569214	112.0
1087.758667	184.0
1112.382202	204.0
1115.697266	96.0
1117.053833	48.0
1121.768677	152.0
1125.578369	56.0
1161.146606	120.0
1174.703125	136.0
1190.088745	192.0
1196.159424	200.0
1196.290283	92.0
1223.86731	84.0
1224.758667	44.0
1229.269653	168.0
1239.962891	96.0
1258.273926	76.0
1261.332886	48.0
1275.19751	124.0
1275.332642	124.0
1279.067017	180.0
1284.625488	144.0
1291.855103	40.0
1292.928345	208.0
1298.9104	160.0
1300.303345	132.0
1301.868408	116.0
1325.465454	52.0
1329.591919	80.0
1342.170044	168.0
1356.397583	96.0
1357.475342	148.0
1376.572144	180.0
1377.591431	136.0
1378.241699	192.0
1393.446167	140.0
1394.085205	152.0
1394.709473	160.0
1403.121704	136.0
1403.658569	188.0
1404.866943	108.0
1405.314575	128.0
1411.402222	140.0
1426.750488	168.0
1428.397461	184.0
1432.221436	224.0
1433.999634	132.0
1453.904053	192.0
1468.689819	152.0
1476.641235	188.0
1479.036133	148.0
1484.307251	164.0
1485.595825	140.0
1501.626587	56.0
1502.667969	48.0
1504.450806	120.0
END IONS

BEGIN IONS
PEPMASS=328.186
CHARGE=1
MSLEVEL=2
SOURCE_INSTRUMENT=LC-ESI-qTof
FILENAME=p4-E04_GE4_01_18376.mzXML
SEQ=*..*
IONMODE=Positive
ORGANISM=GNPS-NIH-SMALLMOLECULEPHARMACOLOGICALLYACTIVE
NAME=MLS002154163-01!Azaperone1649-18-9 M+H
PI=Dorrestein
DATACOLLECTOR=VP/LMS
SMILES=Fc1ccc(cc1)C(=O)CCCN2CCN(CC2)c3ccccn3
INCHI=N/A
INCHIAUX=N/A
PUBMED=N/A
SUBMITUSER=vphelan
LIBRARYQUALITY=1
SPECTRUMID=CCMSLIB00000085692
USI=mzspec:GNPS:GNPS-NIH-SMALLMOLECULEPHARMACOLOGICALLYACTIVE:accession:CCMSLIB00000085692
SCANS=1278
45.036278	160.0
45.147209	152.0
45.180649	156.0
45.216782	160.0
45.260643	188.0
45.264938	144.0
45.267944	184.0
45.283722	164.0
45.462036	160.0
45.483509	64.0
45.538563	140.0
45.588272	120.0
45.615154	56.0
45.66087	128.0
45.678356	200.0
45.769875	96.0
45.803543	228.0
45.900917	208.0
45.986923	196.0
46.027424	176.0
46.135513	220.0
46.147682	228.0
46.173374	200.0
46.234257	124.0
46.259972	164.0
46.42799	160.0
46.452404	196.0
46.489037	156.0
46.503967	136.0
46.516182	212.0
46.531116	104.0
46.72411	164.0
46.827564	188.0
46.841183	196.0
46.901142	148.0
46.962498	348.0
46.984325	124.0
47.003429	112.0
47.041645	164.0
47.063488	64.0
47.12632	128.0
47.154659	184.0
47.167316	184.0
47.321911	56.0
47.391762	84.0
47.431507	96.0
47.502384	204.0
47.53437	164.0
47.631851	96.0
47.767941	96.0
47.818851	144.0
47.835369	184.0
47.860149	124.0
47.871166	152.0
48.068295	132.0
48.087833	176.0
48.152508	184.0
48.195332	84.0
48.438828	164.0
48.589939	212.0
49.008442	328.0
49.226051	200.0
49.252586	172.0
49.287514	164.0
49.350414	144.0
49.420349	104.0
49.432941	160.0
49.460934	184.0
49.672527	52.0
49.771111	148.0
49.871922	196.0
49.956291	104.0
50.130882	212.0
50.267673	236.0
50.295898	220.0
50.413124	208.0
50.487823	124.0
50.604088	148.0
50.656487	180.0
50.707497	160.0
50.835136	240.0
51.056755	160.0
51.117928	88.0
51.130737	216.0
51.181984	168.0
51.200497	200.0
51.231834	144.0
51.254631	124.0
51.391518	140.0
51.437187	260.0
51.521442	244.0
51.651527	172.0
51.683002	188.0
51.700176	88.0
51.728802	112.0
51.771755	180.0
51.813297	180.0
51.826191	116.0
51.893559	176.0
51.950924	160.0
51.960968	256.0
51.978184	104.0
52.068626	128.0
52.262695	80.0
52.380749	128.0
52.438385	176.0
52.631699	112.0
52.668427	232.0
52.685139	204.0
52.738605	232.0
52.75037	172.0
52.893379	72.0
52.957088	168.0
53.000549	100.0
53.087524	136.0
53.225384	48.0
53.270409	64.0
53.302372	136.0
53.538036	188.0
53.554058	168.0
53.664814	148.0
53.715858	168.0
53.78149	184.0
53.799038	176.0
53.809258	196.0
53.848686	96.0
53.896893	40.0
53.934891	184.0
53.948048	200.0
54.008003	168.0
54.30534	148.0
54.387508	160.0
54.453583	188.0
54.600555	112.0
54.628502	148.0
54.688831	144.0
54.917213	88.0
55.021988	188.0
55.032322	368.0
55.050041	44.0
55.066288	68.0
55.078106	160.0
55.11504	156.0
55.132771	152.0
55.231834	192.0
55.253963	200.0
55.304337	304.0
55.335426	144.0
55.454594	252.0
55.547348	192.0
55.582958	320.0
55.621544	52.0
55.645298	184.0
55.662258	228.0
55.704704	156.0
55.726986	148.0
55.875668	84.0
55.985817	172.0
56.017097	60.0
56.063286	164.0
56.127384	152.0
56.213905	56.0
56.305183	168.0
56.366219	68.0
56.569836	144.0
56.610054	196.0
56.620537	176.0
56.637012	148.0
56.652809	184.0
56.719429	200.0
56.965527	156.0
57.004589	152.0
57.068142	168.0
57.201618	160.0
57.216675	212.0
57.336533	144.0
57.5061	160.0
57.574039	148.0
57.617847	136.0
57.639	44.0
57.747849	132.0
57.850746	184.0
57.937065	216.0
57.961308	184.0
57.984039	228.0
57.994648	152.0
58.062878	184.0
58.147839	252.0
58.246532	176.0
58.304272	148.0
58.352913	72.0
58.395493	116.0
58.459393	224.0
58.634529	132.0
58.666538	48.0
58.71262	180.0
58.756519	164.0
58.79314	232.0
58.809929	44.0
58.849621	112.0
58.906128	184.0
59.089581	164.0
59.107944	188.0
59.1367	164.0
59.326965	232.0
59.469624	56.0
59.510406	248.0
59.569435	168.0
59.587868	168.0
59.62936	36.0
59.657028	184.0
59.73595	112.0
59.849346	180.0
59.947933	124.0
60.103516	152.0
60.1577	100.0
60.190121	244.0
60.237999	124.0
60.335358	188.0
60.412685	152.0
60.431252	120.0
60.449818	160.0
60.480774	196.0
60.548897	164.0
60.63876	188.0
60.654259	140.0
60.765919	188.0
60.786091	108.0
60.928936	148.0
61.129517	204.0
61.183994	160.0
61.236938	120.0
61.260303	196.0
61.327309	184.0
61.514492	56.0
61.556648	164.0
61.59882	124.0
61.617565	220.0
61.786415	248.0
61.894413	196.0
61.919468	192.0
61.991535	224.0
62.014763	180.0
62.074619	120.0
62.157757	148.0
62.277073	180.0
62.360348	176.0
62.498737	180.0
62.513577	212.0
62.527065	132.0
62.542805	116.0
62.567368	208.0
62.64201	152.0
62.921146	156.0
63.031712	216.0
63.159771	220.0
63.235718	176.0
63.31488	144.0
63.346558	108.0
63.397263	180.0
63.472794	136.0
63.503487	204.0
63.544731	140.0
63.640812	92.0
63.687603	176.0
63.724144	164.0
63.860855	220.0
63.916538	168.0
63.927677	136.0
64.149071	140.0
64.244751	48.0
64.311775	168.0
64.380737	124.0
64.442726	140.0
64.724243	136.0
64.892479	160.0
65.065758	136.0
65.166939	136.0
65.189438	156.0
65.205505	192.0
65.29715	136.0
65.454865	120.0
65.567635	88.0
65.581306	148.0
65.590805	116.0
65.674042	200.0
65.691788	200.0
65.719215	176.0
65.772469	228.0
65.814445	116.0
65.86451	204.0
66.003502	240.0
66.039078	216.0
66.095703	188.0
66.221977	96.0
66.284462	176.0
66.343506	192.0
66.5317	112.0
66.617767	104.0
66.765221	212.0
66.820992	200.0
66.887711	124.0
66.985413	160.0
67.083191	128.0
67.107643	176.0
67.182671	152.0
67.212036	132.0
67.249573	52.0
67.290092	156.0
67.31324	140.0
67.331207	192.0
67.609131	152.0
67.628777	144.0
67.69754	164.0
67.822052	216.0
67.836807	164.0
67.848282	152.0
67.99263	184.0
68.00412	164.0
68.109207	172.0
68.204506	116.0
68.260406	76.0
68.36898	136.0
68.467766	160.0
68.616028	172.0
68.647392	184.0
68.797539	124.0
68.835518	280.0
68.88176	40.0
69.027206	232.0
69.136391	160.0
69.147972	168.0
69.194321	96.0
69.237373	168.0
69.295357	156.0
69.431763	136.0
69.517548	208.0
69.530823	168.0
69.586128	164.0
69.635422	156.0
69.684845	176.0
69.750069	224.0
69.779991	88.0
70.072922	204.0
70.301369	156.0
70.333076	164.0
70.359787	184.0
70.413223	216.0
70.697433	132.0
70.868233	216.0
70.879967	144.0
70.933594	152.0
71.009048	144.0
71.08622	44.0
71.109718	136.0
71.141609	156.0
71.165924	224.0
71.306221	156.0
71.42392	204.0
71.442429	172.0
71.486176	216.0
71.560234	192.0
71.615807	224.0
71.740509	156.0
71.760735	216.0
71.968269	192.0
72.127144	208.0
72.206543	160.0
72.262367	208.0
72.314827	164.0
72.562149	152.0
72.597763	212.0
72.864258	148.0
73.01384	196.0
73.064491	196.0
73.097198	232.0
73.138046	144.0
73.207848	152.0
73.257248	128.0
73.299843	204.0
73.422585	144.0
73.454987	136.0
73.514709	208.0
73.612015	212.0
73.632507	140.0
73.663246	104.0
73.702545	140.0
73.733307	140.0
73.76236	176.0
73.782875	204.0
74.150909	152.0
74.193977	216.0
74.242889	172.0
74.293228	144.0
74.396202	164.0
74.420235	156.0
74.511261	208.0
74.743385	136.0
74.978401	236.0
74.99482	104.0
75.094826	148.0
75.163834	88.0
75.251862	152.0
75.265678	200.0
75.336487	184.0
75.530098	108.0
75.594116	164.0
75.607956	156.0
75.663353	208.0
75.708366	84.0
75.758598	148.0
75.786324	76.0
75.80838	208.0
75.871246	184.0
76.023888	156.0
76.058601	128.0
76.124573	92.0
76.150627	216.0
76.475761	128.0
76.56282	160.0
76.760338	268.0
76.808571	196.0
76.836487	156.0
76.890579	172.0
76.92025	60.0
77.168327	136.0
77.422058	220.0
77.444824	160.0
77.465851	220.0
77.655159	180.0
77.754463	200.0
77.785004	52.0
77.804314	228.0
77.842941	52.0
77.969429	160.0
78.013374	180.0
78.175186	180.0
78.434097	32.0
78.478165	124.0
78.56459	132.0
78.608696	188.0
78.672241	140.0
78.802933	116.0
78.857712	168.0
78.884232	124.0
79.011559	188.0
79.481087	176.0
79.559181	212.0
79.605347	136.0
79.749252	164.0
79.875504	32.0
79.89151	132.0
79.928749	172.0
80.06472	168.0
80.247711	164.0
80.301208	192.0
80.333313	80.0
80.377914	76.0
80.581467	184.0
80.704796	164.0
80.890862	168.0
81.145256	152.0
81.568932	84.0
81.628265	68.0
81.68042	160.0
81.860634	156.0
81.88382	136.0
81.95948	176.0
82.026161	152.0
82.112709	240.0
82.260666	244.0
82.273308	76.0
82.414185	144.0
82.448517	184.0
82.461166	200.0
82.670959	160.0
82.908195	164.0
82.920883	212.0
83.212944	208.0
83.369156	152.0
83.420052	68.0
83.447319	168.0
83.523132	176.0
83.629234	128.0
83.753052	124.0
83.968124	160.0
83.996452	180.0
84.01738	232.0
84.112274	176.0
84.148781	68.0
84.243752	168.0
84.322319	152.0
84.389961	116.0
84.424706	120.0
84.536293	172.0
84.669937	152.0
84.729851	192.0
84.748711	148.0
84.81102	164.0
84.888023	180.0
84.941208	188.0
85.143112	152.0
85.227608	164.0
85.284584	64.0
85.3339	164.0
85.419167	188.0
85.553154	236.0
85.597343	32.0
85.763153	152.0
86.050934	204.0
86.365051	184.0
86.403938	152.0
86.446503	124.0
86.4991	188.0
86.670563	228.0
86.766945	136.0
86.848534	112.0
86.881927	188.0
86.900482	212.0
86.92646	168.0
86.943161	140.0
86.97657	92.0
87.112122	108.0
87.175293	92.0
87.221764	144.0
87.305428	156.0
87.351929	140.0
87.444962	160.0
87.469162	112.0
87.69268	228.0
87.737419	156.0
87.957542	152.0
87.99675	44.0
88.097603	148.0
88.164864	128.0
88.210915	188.0
88.383659	180.0
88.507195	168.0
88.540909	132.0
88.700165	48.0
88.891472	160.0
88.930885	132.0
89.261536	180.0
89.470383	180.0
89.549477	208.0
89.849197	148.0
89.996414	172.0
90.01152	176.0
90.041565	176.0
90.075737	236.0
90.245827	52.0
90.351738	228.0
90.375511	160.0
90.452034	176.0
90.569435	232.0
90.675545	164.0
90.787399	88.0
90.859474	156.0
90.963852	140.0
91.049294	120.0
91.111977	180.0
91.340103	208.0
91.383858	184.0
91.450462	208.0
91.494247	124.0
91.684723	176.0
91.856331	124.0
91.90593	52.0
91.972725	188.0
92.060555	152.0
92.073921	72.0
92.146507	144.0
92.270737	156.0
92.402702	140.0
92.636932	208.0
92.674583	160.0
92.768494	144.0
92.935349	204.0
92.977242	212.0
93.031311	168.0
93.055061	228.0
93.217621	184.0
93.232994	184.0
93.282967	76.0
93.438744	68.0
93.683243	172.0
93.777664	128.0
93.852844	92.0
94.064888	772.0
94.134575	68.0
94.157753	180.0
94.207893	196.0
94.246613	236.0
94.271736	172.0
94.341316	216.0
94.422531	116.0
94.507645	140.0
94.604416	124.0
94.905647	188.0
94.94738	80.0
95.029045	2292.0
95.06028	716.0
95.129768	252.0
95.156952	36.0
95.221031	116.0
95.252113	128.0
95.440628	72.0
95.502861	200.0
95.584572	112.0
95.621544	52.0
95.691628	124.0
95.851349	128.0
95.939056	164.0
96.029778	172.0
96.100929	112.0
96.151665	148.0
96.387962	164.0
96.552177	180.0
96.577599	152.0
96.593254	120.0
96.753723	184.0
96.809242	180.0
96.825226	132.0
97.116249	112.0
97.188835	176.0
97.253593	56.0
97.288933	44.0
97.491241	188.0
97.549271	244.0
97.597389	124.0
97.621307	148.0
97.648521	196.0
97.788216	172.0
97.809868	156.0
98.016663	324.0
98.097466	100.0
98.121124	180.0
98.223671	152.0
98.304565	56.0
98.324303	164.0
98.357857	160.0
98.523735	52.0
98.537567	124.0
98.57708	160.0
98.640327	164.0
98.796555	108.0
98.964783	192.0
99.026138	220.0
99.127213	80.0
99.154961	196.0
99.172798	144.0
99.234253	64.0
99.384995	108.0
99.436592	140.0
99.541145	216.0
99.641121	216.0
99.71862	128.0
99.829956	92.0
99.863998	168.0
99.907524	140.0
99.931396	228.0
99.971199	168.0
100.214134	116.0
100.240036	152.0
100.3078	160.0
100.459351	128.0
100.517212	236.0
100.549149	204.0
100.702881	172.0
100.724854	200.0
100.764809	196.0
100.816757	188.0
100.88472	200.0
101.005783	232.0
101.020706	196.0
101.164787	140.0
101.248886	188.0
101.282936	152.0
101.423203	220.0
101.531471	56.0
101.559547	160.0
101.585625	148.0
101.808418	240.0
101.842567	96.0
101.897621	220.0
101.930962	212.0
101.979195	108.0
102.017387	168.0
102.057594	164.0
102.240654	180.0
102.272858	88.0
102.288963	176.0
102.403732	112.0
102.460136	108.0
102.480286	204.0
102.544769	164.0
102.821083	104.0
102.847321	48.0
102.873558	172.0
103.122017	184.0
103.719124	88.0
103.783997	256.0
103.836723	192.0
103.879318	164.0
103.964539	176.0
103.984833	188.0
104.048622	536.0
104.1754	116.0
104.240715	120.0
104.279335	184.0
104.393181	144.0
104.480972	124.0
104.570946	160.0
104.586464	124.0
104.659752	188.0
104.686226	144.0
104.822708	240.0
104.93074	132.0
105.041916	472.0
105.067383	80.0
105.153091	180.0
105.181664	144.0
105.316429	76.0
105.432892	160.0
105.602585	148.0
105.782646	88.0
105.825645	160.0
106.057922	104.0
106.206818	148.0
106.518829	172.0
106.623619	136.0
106.695564	104.0
106.814835	240.0
106.905365	172.0
106.940353	192.0
107.059479	144.0
107.162758	156.0
107.288483	148.0
107.488548	160.0
107.701195	204.0
107.71772	200.0
107.965752	136.0
108.162308	260.0
108.20578	112.0
108.261688	204.0
108.29483	184.0
108.350754	116.0
108.394272	200.0
108.435715	148.0
108.50412	100.0
108.626976	252.0
108.898399	176.0
109.042831	1048.0
109.058388	164.0
109.075012	176.0
109.126991	180.0
109.47657	176.0
109.574471	132.0
109.866348	148.0
109.92894	72.0
109.972771	64.0
110.022865	180.0
110.164879	172.0
110.319519	204.0
110.612389	76.0
110.691948	120.0
110.79039	352.0
110.817627	200.0
111.02195	228.0
111.073395	96.0
111.182495	72.0
111.264542	140.0
111.363052	196.0
111.422859	136.0
111.636276	144.0
111.819305	192.0
111.935089	132.0
111.956154	140.0
112.002487	164.0
112.021027	120.0
112.162628	136.0
112.179497	132.0
112.211121	204.0
112.282814	48.0
112.324997	156.0
112.377739	236.0
112.569824	228.0
112.58461	100.0
112.605728	196.0
113.041687	224.0
113.085678	188.0
113.176704	148.0
113.240242	200.0
113.445778	152.0
113.617561	140.0
113.81282	116.0
114.040138	172.0
114.086899	212.0
114.103905	152.0
114.14431	180.0
114.214493	176.0
114.340027	216.0
114.427299	140.0
114.450722	192.0
114.546562	232.0
114.738358	220.0
114.757545	204.0
114.785263	92.0
114.940987	180.0
114.968727	212.0
115.009277	100.0
115.032761	136.0
115.182236	260.0
115.227097	180.0
115.39167	220.0
115.515709	140.0
115.763985	204.0
115.783257	168.0
115.91394	36.0
116.106873	188.0
116.158356	228.0
116.224861	124.0
116.293533	212.0
116.49968	172.0
116.521591	180.0
116.564133	156.0
116.615715	196.0
116.946945	164.0
117.020142	132.0
117.058899	200.0
117.121353	176.0
117.140739	176.0
117.173058	224.0
117.368713	196.0
117.481354	176.0
117.641045	152.0
117.7677	228.0
117.828934	152.0
117.932663	144.0
118.053734	180.0
118.172699	56.0
118.350189	196.0
118.689384	156.0
118.787979	212.0
118.805328	192.0
119.058754	1368.0
119.320038	332.0
119.4179	184.0
119.607201	144.0
119.65509	104.0
119.694283	236.0
119.777046	56.0
119.957909	160.0
120.027679	144.0
120.066612	464.0
120.10183	36.0
120.117775	80.0
120.21814	168.0
120.232735	132.0
120.274208	168.0
120.545029	164.0
120.623711	116.0
120.829079	180.0
120.877502	196.0
120.929939	156.0
120.968636	212.0
121.048607	136.0
121.076065	36992.0
121.099564	464.0
121.157333	464.0
121.174377	96.0
121.227791	68.0
121.273056	220.0
121.331749	84.0
121.347771	76.0
121.356964	56.0
121.425095	196.0
121.467789	104.0
121.491898	68.0
121.535149	72.0
121.575111	148.0
121.607201	124.0
121.626961	116.0
121.642326	272.0
121.71917	152.0
121.802628	180.0
121.962097	180.0
121.978416	56.0
122.013588	112.0
122.078026	2828.0
122.242348	80.0
122.290764	176.0
122.34359	164.0
122.535248	176.0
122.578316	144.0
122.61232	136.0
122.656403	56.0
122.696083	192.0
122.718498	116.0
122.759521	156.0
122.777672	160.0
122.793106	144.0
122.850464	104.0
122.868111	228.0
122.89695	228.0
122.924194	420.0
122.940514	216.0
122.960785	116.0
122.993782	360.0
123.024384	93616.0
123.080452	332.0
123.096718	56.0
123.102081	32.0
123.143982	148.0
123.166206	212.0
123.203377	116.0
123.237099	72.0
123.258575	104.0
123.316376	56.0
123.336273	140.0
123.370148	184.0
123.387581	936.0
123.408165	144.0
123.451164	128.0
123.46656	56.0
123.586174	84.0
123.604492	72.0
123.64592	128.0
123.697861	60.0
123.735626	84.0
123.76899	128.0
123.790977	48.0
123.880547	108.0
123.964828	144.0
123.99807	68.0
124.026909	7408.0
124.053482	44.0
124.073433	72.0
124.088951	136.0
124.125038	44.0
124.168785	72.0
124.184311	116.0
124.20327	124.0
124.281921	72.0
124.332962	28.0
124.352936	120.0
124.428406	36.0
124.455055	64.0
124.519455	40.0
124.634636	132.0
124.672745	132.0
124.706085	52.0
124.749199	120.0
124.795143	192.0
124.828362	104.0
124.849068	116.0
124.863441	160.0
124.897308	64.0
124.919548	104.0
124.934937	96.0
124.988968	256.0
125.031097	552.0
125.064934	108.0
125.140213	160.0
125.15992	108.0
125.179962	56.0
125.255684	60.0
125.289101	212.0
125.454018	44.0
125.581116	192.0
125.596733	72.0
125.612343	52.0
125.632423	108.0
125.650269	36.0
125.69043	184.0
125.717209	44.0
125.732834	80.0
125.833282	180.0
125.958344	88.0
125.973976	44.0
126.005753	180.0
126.347321	108.0
126.512932	196.0
126.563782	84.0
126.593536	84.0
126.609215	168.0
126.66745	72.0
126.694328	208.0
126.740463	108.0
126.875854	148.0
127.053947	196.0
127.104637	144.0
127.183182	168.0
127.533585	96.0
127.607773	68.0
127.672981	148.0
127.924988	88.0
128.024063	192.0
128.04657	160.0
128.080368	124.0
128.339539	256.0
128.355316	76.0
128.481628	172.0
128.648621	184.0
128.763779	156.0
128.890289	68.0
128.953568	104.0
129.073395	44.0
129.875107	184.0
130.067291	196.0
130.799927	236.0
130.934265	200.0
131.061661	488.0
131.248734	60.0
131.312592	188.0
131.330841	68.0
131.371902	272.0
131.497406	60.0
131.755432	148.0
131.833115	172.0
131.853683	92.0
131.940552	184.0
132.004578	52.0
132.067322	996.0
132.155548	76.0
132.201309	84.0
132.253952	100.0
132.670868	112.0
132.72818	132.0
132.779984	136.0
133.0728	160.0
133.145844	56.0
133.244614	56.0
133.458359	104.0
133.686096	140.0
133.773392	168.0
133.865646	232.0
133.978516	196.0
134.080551	184.0
134.262039	72.0
134.296631	288.0
134.649765	200.0
134.779129	68.0
135.094772	168.0
135.11438	136.0
135.688751	152.0
136.094376	184.0
136.162125	96.0
136.199295	204.0
136.49678	140.0
137.027466	88.0
137.088058	196.0
137.111359	104.0
138.080246	140.0
138.881287	156.0
139.015015	164.0
139.630524	92.0
140.29454	152.0
140.403015	164.0
140.627151	184.0
140.752274	156.0
141.012131	120.0
141.759995	152.0
141.859543	44.0
142.210602	64.0
142.956863	48.0
143.275925	120.0
143.430817	148.0
144.718506	168.0
145.068237	168.0
145.406494	120.0
145.836426	160.0
146.045609	140.0
146.082947	148.0
146.317535	184.0
146.481293	148.0
146.565628	92.0
146.760864	92.0
146.958191	148.0
147.01825	148.0
147.060806	468.0
147.091293	13776.0
147.163803	100.0
147.260406	28.0
147.364273	40.0
147.601151	64.0
147.63501	52.0
147.651947	80.0
147.678543	92.0
147.799515	64.0
147.983459	192.0
148.010101	124.0
148.058533	132.0
148.094345	1288.0
148.145721	100.0
148.167526	88.0
148.18692	188.0
148.611221	48.0
148.70343	60.0
148.720428	84.0
148.832108	96.0
148.943817	208.0
149.077377	140.0
149.106613	2280.0
149.147003	168.0
149.301102	48.0
149.371643	60.0
149.47139	40.0
149.624725	152.0
149.709961	140.0
149.733109	228.0
150.108734	188.0
150.605042	44.0
151.111084	100.0
151.370529	124.0
151.693939	56.0
151.742981	120.0
152.142883	40.0
152.162521	144.0
152.730362	180.0
152.843369	184.0
153.067368	196.0
153.523254	128.0
153.811935	148.0
154.00946	156.0
154.175003	200.0
154.407394	116.0
154.890045	80.0
155.095718	148.0
155.395782	136.0
155.728424	136.0
156.073868	188.0
156.706085	164.0
156.785828	136.0
157.11496	184.0
157.132431	136.0
157.214767	44.0
157.619308	148.0
157.896805	56.0
157.934326	120.0
158.007736	80.0
158.414932	140.0
159.152298	152.0
159.292938	168.0
159.893326	164.0
160.085205	144.0
160.218704	60.0
160.289246	176.0
160.642227	40.0
160.692688	192.0
160.876923	196.0
161.094833	148.0
162.068146	160.0
162.096024	144.0
162.121368	80.0
162.253174	228.0
162.656525	32.0
162.976532	96.0
163.055313	44.0
163.273956	176.0
164.035263	180.0
164.118057	336.0
164.272415	112.0
164.300476	160.0
164.50209	188.0
164.629745	180.0
164.714035	104.0
164.777908	212.0
164.854553	148.0
164.908234	200.0
164.964996	124.0
165.005371	48.0
165.070679	51980.0
165.176712	28.0
165.212524	88.0
165.250015	92.0
165.297699	96.0
165.332794	148.0
165.353256	64.0
165.456589	152.0
165.493103	32.0
165.530945	88.0
165.68103	220.0
165.716888	96.0
165.742508	48.0
165.791199	48.0
165.860245	64.0
165.952698	40.0
166.027054	60.0
166.073914	5112.0
166.142487	92.0
166.206635	56.0
166.237427	248.0
166.334946	152.0
166.43251	76.0
166.509552	56.0
166.533829	44.0
166.581467	52.0
166.753632	116.0
166.779327	48.0
166.85997	108.0
166.920731	96.0
167.070694	336.0
167.108505	108.0
167.152863	116.0
167.193161	116.0
167.241409	156.0
167.304108	52.0
167.329849	80.0
167.34787	152.0
167.389069	108.0
167.427704	104.0
167.456024	52.0
167.53331	48.0
167.577103	88.0
167.9767	72.0
168.454269	144.0
168.847153	80.0
169.419205	100.0
169.914368	148.0
171.057465	136.0
171.492844	72.0
171.975372	68.0
172.239105	72.0
172.552689	76.0
172.947708	64.0
173.775818	72.0
174.521759	84.0
175.013809	84.0
175.050674	48.0
176.462845	64.0
176.48085	104.0
176.988892	112.0
177.927475	92.0
178.108063	208.0
179.37468	144.0
179.697372	76.0
181.167801	52.0
182.076111	192.0
184.161758	92.0
184.259018	136.0
185.06073	332.0
186.068176	156.0
187.828903	64.0
188.079941	156.0
190.101257	184.0
191.113739	140.0
194.751892	232.0
195.892365	72.0
200.279083	76.0
204.529297	96.0
204.902344	248.0
205.952148	132.0
206.097839	132.0
208.112991	276.0
208.637222	96.0
209.114731	48.0
211.084412	156.0
211.886917	144.0
212.037598	72.0
212.771484	76.0
213.076447	208.0
213.489197	64.0
216.120392	152.0
216.301849	64.0
219.489548	44.0
224.352081	72.0
225.121902	124.0
225.432587	100.0
227.019196	96.0
228.740814	76.0
229.207626	112.0
234.124298	60.0
235.127319	172.0
243.694504	76.0
243.765976	40.0
244.736481	108.0
244.917114	76.0
245.079102	132.0
251.164337	180.0
256.443726	56.0
256.918854	64.0
277.705627	64.0
279.160278	180.0
283.118225	132.0
284.916107	60.0
287.232208	80.0
288.36673	28.0
290.530487	48.0
294.564545	76.0
294.639709	52.0
299.135284	148.0
301.840576	116.0
304.84256	32.0
308.151337	176.0
309.142395	140.0
310.996399	92.0
318.109222	52.0
328.180603	912.0
329.172455	156.0
332.121155	232.0
338.339478	76.0
351.084167	92.0
355.671234	72.0
359.24234	96.0
364.774994	84.0
367.677368	108.0
368.639771	124.0
368.97995	36.0
433.805206	88.0
438.231384	60.0
455.247192	40.0
460.75473	84.0
514.87915	92.0
514.915283	96.0
529.05719	48.0
539.639038	64.0
550.503113	232.0
573.203979	160.0
576.477539	40.0
576.687866	108.0
577.213745	96.0
605.668518	136.0
607.595032	48.0
615.198608	36.0
624.474792	96.0
705.241821	144.0
725.67395	48.0
753.516296	44.0
770.377197	184.0
778.730408	108.0
782.339233	204.0
783.653625	236.0
785.755554	132.0
799.529053	172.0
817.144592	128.0
820.69873	92.0
822.484436	112.0
825.706909	220.0
825.947144	184.0
827.881714	136.0
844.94873	132.0
857.684021	184.0
857.923035	124.0
871.348633	144.0
875.307129	208.0
878.206726	32.0
879.062195	88.0
885.292969	68.0
891.296265	148.0
898.608032	96.0
899.013794	168.0
902.466492	168.0
907.993713	52.0
908.527588	168.0
913.098755	60.0
915.801208	76.0
918.525696	208.0
920.72876	168.0
923.127991	180.0
923.351746	192.0
925.282043	180.0
941.004761	140.0
947.64093	168.0
948.560181	204.0
958.757141	128.0
959.428955	152.0
965.758545	236.0
966.216309	112.0
967.44165	148.0
969.033325	176.0
973.847229	240.0
974.828857	80.0
975.991272	192.0
977.148193	160.0
978.243469	116.0
987.440918	148.0
993.278625	152.0
997.397827	196.0
1004.229614	128.0
1007.032043	104.0
1007.48053	148.0
1008.87085	220.0
1014.44812	48.0
1018.591919	136.0
1020.047119	180.0
1023.361694	220.0
1024.731079	132.0
1035.027466	92.0
1038.250854	168.0
1038.520142	208.0
1040.798462	184.0
1040.952515	196.0
1041.312256	40.0
1042.674316	100.0
1043.522827	164.0
1048.125	84.0
1048.182983	160.0
1056.136841	176.0
1057.10083	184.0
1059.10144	160.0
1059.230957	148.0
1059.347534	44.0
1062.751221	136.0
1063.60791	200.0
1064.7052	172.0
1072.369385	196.0
1073.901611	120.0
1074.586548	116.0
1077.13269	152.0
1079.282837	112.0
1081.893433	124.0
1087.721191	216.0
1089.251221	192.0
1089.632324	76.0
1090.762573	148.0
1091.610718	80.0
1093.85437	176.0
1095.158081	128.0
1095.507202	144.0
1096.792236	60.0
1097.174561	180.0
1097.359131	180.0
1098.381348	196.0
1103.598633	244.0
1104.584106	196.0
1107.430298	188.0
1113.585449	180.0
1115.372803	176.0
1115.539062	80.0
1116.922119	136.0
1117.800415	184.0
1119.258179	188.0
1120.382935	224.0
1122.203247	200.0
1122.91687	120.0
1123.777344	124.0
1125.819946	144.0
1126.62146	148.0
1127.657227	168.0
1127.817627	140.0
1128.158569	108.0
1132.467896	48.0
1132.648804	180.0
1134.35083	160.0
1135.926758	164.0
1136.684937	204.0
1137.335938	180.0
1137.799072	88.0
1138.141479	88.0
1139.820801	192.0
1141.192017	132.0
1142.934082	168.0
1143.304199	36.0
1143.566772	168.0
1143.869629	152.0
1144.085083	164.0
1144.361084	196.0
1144.664062	224.0
1145.290405	188.0
1145.492554	180.0
1147.945801	204.0
1148.34375	244.0
1148.505615	176.0
1148.809204	152.0
1149.045288	136.0
1149.632324	116.0
1149.963013	188.0
1150.1521	40.0
1154.868408	228.0
1154.963135	196.0
1155.903442	212.0
1158.361206	232.0
1159.628296	168.0
1159.696045	184.0
1160.068848	124.0
1163.562744	92.0
1165.036499	188.0
1168.013916	48.0
1168.204468	228.0
1168.253174	124.0
1168.394897	176.0
1168.939209	244.0
1170.518555	164.0
1171.111084	184.0
1172.718994	180.0
1174.403198	112.0
1175.658569	180.0
1176.81897	136.0
1177.051147	204.0
1178.916016	116.0
1179.09375	152.0
1179.729492	156.0
1179.845703	164.0
1182.376587	164.0
1183.163696	196.0
1183.677246	168.0
1183.896362	68.0
1185.225342	176.0
1185.396729	40.0
1185.93811	172.0
1187.446533	164.0
1190.699707	44.0
1191.860718	136.0
1193.569824	264.0
1194.658936	108.0
1195.209351	192.0
1195.753052	172.0
1196.166016	264.0
1196.558472	104.0
1197.067993	32.0
1197.839355	172.0
1200.223999	144.0
1201.748291	136.0
1201.941528	172.0
1203.377197	92.0
1203.964233	144.0
1204.247314	160.0
1204.3302	104.0
1204.910522	104.0
1206.133667	84.0
1206.804321	164.0
1210.049316	156.0
1211.074219	164.0
1212.037109	208.0
1212.404419	48.0
1213.069824	144.0
1213.707642	212.0
1214.338745	148.0
1215.268311	144.0
1215.452759	180.0
1215.69165	160.0
1216.69812	176.0
1216.857788	160.0
1219.247314	76.0
1219.539185	172.0
1220.157959	140.0
1221.041016	212.0
1221.597534	184.0
1221.959229	216.0
1222.766479	44.0
1225.085205	108.0
1225.572876	160.0
1226.360352	64.0
1226.973877	144.0
1227.050537	184.0
1228.215088	208.0
1228.731323	160.0
1228.856934	64.0
1229.247681	176.0
1229.827026	188.0
1230.273682	168.0
1231.265259	208.0
1231.565552	144.0
1232.87915	116.0
1233.193604	192.0
1233.983521	208.0
1234.458984	132.0
1239.28894	52.0
1239.359009	164.0
1240.178955	180.0
1241.125366	156.0
1241.478149	192.0
1242.072144	164.0
1242.366821	124.0
1242.626343	152.0
1243.08252	100.0
1243.777344	124.0
1245.567871	224.0
1246.087769	132.0
1247.493286	168.0
1247.556641	188.0
1248.126099	168.0
1249.441406	164.0
1250.306885	144.0
1250.574341	168.0
1250.644653	160.0
1250.876953	224.0
1251.236084	144.0
1252.48645	204.0
1252.588135	100.0
1253.271484	188.0
1253.440674	160.0
1254.469604	212.0
1254.540161	180.0
1254.829224	100.0
1254.934937	152.0
1257.368652	56.0
1259.974365	144.0
1261.0625	204.0
1261.126099	208.0
1261.507812	172.0
1261.861328	148.0
1261.917969	180.0
1262.335083	120.0
1263.127197	88.0
1264.68396	48.0
1267.33252	128.0
1267.814453	64.0
1268.509033	144.0
1268.579956	92.0
1269.572632	120.0
1272.971802	192.0
1273.298584	164.0
1273.611084	88.0
1274.605713	72.0
1274.811768	116.0
1275.086304	192.0
1275.245239	188.0
1275.515381	172.0
1275.792603	160.0
1276.660034	156.0
1277.349976	132.0
1277.697998	196.0
1279.969116	204.0
1280.81665	132.0
1280.966187	168.0
1281.550415	368.0
1282.541016	164.0
1282.80481	144.0
1283.952759	108.0
1286.250244	176.0
1287.128418	216.0
1287.599731	204.0
1289.59314	152.0
1290.901367	220.0
1292.27478	172.0
1293.505737	68.0
1294.443604	124.0
1294.751587	168.0
1294.808838	148.0
1295.410522	208.0
1295.639771	104.0
1296.678833	176.0
1297.252319	136.0
1298.263306	180.0
1300.221802	196.0
1301.384766	148.0
1302.734985	132.0
1306.724976	184.0
1307.077637	100.0
1307.343872	64.0
1307.797241	164.0
1308.365967	176.0
1308.437988	60.0
1310.894165	216.0
1311.117554	36.0
1311.196777	96.0
1311.87439	200.0
1312.25647	208.0
1312.847778	212.0
1314.341064	124.0
1315.748535	164.0
1316.167236	112.0
1316.347778	140.0
1316.571655	116.0
1317.091675	108.0
1317.402344	112.0
1321.385864	200.0
1322.044312	172.0
1322.637817	196.0
1324.020752	152.0
1324.868164	128.0
1324.984131	172.0
1325.13623	180.0
1326.817749	148.0
1327.390503	160.0
1327.550049	148.0
1328.783203	100.0
1329.675659	200.0
1330.016846	124.0
1331.759521	176.0
1332.296997	228.0
1333.009155	180.0
1333.42334	184.0
1335.335449	28.0
1337.700317	244.0
1337.802246	168.0
1338.421143	200.0
1339.353271	256.0
1340.161987	220.0
1341.029175	140.0
1341.765381	168.0
1342.027954	148.0
1343.377197	212.0
1343.763794	192.0
1344.442383	104.0
1345.581177	180.0
1345.946289	168.0
1346.625366	176.0
1347.86731	180.0
1348.466553	164.0
1350.587646	188.0
1351.004028	200.0
1351.084473	172.0
1351.172241	168.0
1351.691772	180.0
1352.811523	156.0
1353.119019	160.0
1354.144287	64.0
1355.690063	144.0
1356.1698	208.0
1356.422974	88.0
1356.672241	136.0
1357.845459	176.0
1358.32959	140.0
1358.84314	120.0
1358.923828	124.0
1359.261353	128.0
1359.819092	228.0
1359.958618	300.0
1360.156738	184.0
1360.487061	176.0
1360.79541	132.0
1361.146484	248.0
1361.250732	196.0
1362.102661	176.0
1362.205566	176.0
1362.366089	268.0
1363.07251	196.0
1364.042603	216.0
1364.270508	152.0
1367.278931	132.0
1367.875122	228.0
1367.99292	108.0
1368.303711	196.0
1368.780762	128.0
1368.883789	132.0
1369.126831	172.0
1369.318359	176.0
1370.091797	160.0
1371.034912	176.0
1372.649414	164.0
1373.608154	156.0
1373.718872	164.0
1373.873779	180.0
1374.139404	144.0
1374.655884	184.0
1374.810913	120.0
1375.371826	168.0
1375.526855	56.0
1376.575195	248.0
1377.254761	196.0
1377.372925	180.0
1379.220215	216.0
1382.274658	200.0
1382.607666	164.0
1382.792725	152.0
1383.747681	136.0
1384.45105	132.0
1385.162109	216.0
1385.55481	120.0
1386.421753	344.0
1386.755249	124.0
1387.718994	180.0
1388.519775	208.0
1388.762329	156.0
1389.001953	152.0
1389.677002	152.0
1389.973877	196.0
1390.488037	216.0
1391.168823	52.0
1391.66626	192.0
1391.896484	48.0
1392.624268	56.0
1393.092163	184.0
1395.819946	128.0
1396.02063	240.0
1396.139648	188.0
1397.910278	136.0
1398.446045	208.0
1398.520508	172.0
1398.888428	176.0
1399.391479	272.0
1399.853149	72.0
1400.970459	204.0
1401.60376	212.0
1402.11792	148.0
1402.893066	164.0
1403.042236	208.0
1404.026489	32.0
1405.727417	140.0
1406.951538	44.0
1407.212769	276.0
1407.391968	184.0
1408.639282	220.0
1411.030762	160.0
1411.838257	68.0
1412.668579	172.0
1413.334351	92.0
1413.551392	160.0
1413.626221	176.0
1414.247437	252.0
1415.288086	88.0
1415.3479	80.0
1415.640015	68.0
1415.9021	136.0
1416.808472	204.0
1417.018188	128.0
1419.064331	208.0
1419.199341	160.0
1420.189209	208.0
1420.241699	136.0
1420.796875	168.0
1421.052002	224.0
1421.344604	188.0
1422.125122	108.0
1423.754272	244.0
1423.859497	244.0
1424.295044	156.0
1424.693237	184.0
1425.970703	188.0
1426.835083	168.0
1427.083252	64.0
1427.406616	120.0
1427.624634	172.0
1428.060913	140.0
1428.31665	112.0
1429.392456	156.0
1429.783813	108.0
1430.002075	152.0
1432.384399	232.0
1432.599854	148.0
1432.833496	156.0
1433.586914	132.0
1433.880859	156.0
1435.207642	156.0
1435.479126	168.0
1435.64502	56.0
1435.780762	144.0
1436.097534	180.0
1437.055664	112.0
1437.501709	176.0
1437.712158	152.0
1437.825317	168.0
1438.202637	144.0
1438.315918	172.0
1439.82605	112.0
1440.286743	140.0
1440.687134	128.0
1440.996826	176.0
1441.42749	156.0
1441.661865	52.0
1442.591553	164.0
1442.795654	140.0
1443.5896	176.0
1443.778564	168.0
1444.36853	160.0
1444.542603	140.0
1444.928345	164.0
1445.231445	160.0
1445.533691	148.0
1445.965088	32.0
1446.331787	264.0
1446.986938	164.0
1447.509399	176.0
1448.766724	148.0
1449.793335	140.0
1449.948853	100.0
1450.251953	116.0
1451.662109	156.0
1452.352295	112.0
1453.566162	160.0
1454.241577	96.0
1454.788208	148.0
1456.5271	120.0
1457.271606	144.0
1458.312744	208.0
1458.510376	208.0
1460.943848	180.0
1462.351562	164.0
1462.450439	124.0
1463.059448	96.0
1463.318359	168.0
1463.973145	212.0
1464.064575	160.0
1465.53479	124.0
1465.823853	176.0
1466.098633	132.0
1466.456909	164.0
1469.30127	64.0
1470.61377	180.0
1471.30835	124.0
1471.888672	116.0
1472.721191	140.0
1473.019043	192.0
1473.553833	152.0
1475.862061	192.0
1475.930908	208.0
1477.246338	84.0
1478.355835	188.0
1478.59314	128.0
1478.960449	168.0
1479.672363	204.0
1480.43811	176.0
1480.491699	124.0
1480.867065	104.0
1481.1427	136.0
1481.259033	140.0
1481.495117	104.0
1484.078003	40.0
1484.614746	184.0
1486.041504	212.0
1487.123535	116.0
1487.246338	164.0
1487.591797	208.0
1487.783691	140.0
1488.637573	176.0
1489.043091	208.0
1489.142944	152.0
1489.288818	196.0
1489.742065	148.0
1489.957153	152.0
1491.063721	144.0
1492.001465	196.0
1493.162598	260.0
1493.954834	164.0
1494.378052	128.0
1495.247559	188.0
1496.402222	168.0
1496.556274	196.0
1497.172241	192.0
1497.357056	172.0
1497.619019	184.0
1498.027222	220.0
1498.188965	188.0
1498.34314	148.0
1498.458618	124.0
1499.075073	164.0
1499.714722	196.0
1500.283447	136.0
1500.539673	168.0
1500.740112	216.0
1500.794067	124.0
1502.706909	152.0
1503.192993	104.0
1503.679199	176.0
1503.818115	164.0
1503.980225	220.0
1504.188721	100.0
1504.35083	228.0
1504.458862	180.0
1505.037964	124.0
END IONS

BEGIN IONS
PEPMASS=288.084
CHARGE=1
MSLEVEL=2
SOURCE_INSTRUMENT=LC-ESI-qTof
FILENAME=p4-E07_GE7_01_18379.mzXML
SEQ=*..*
IONMODE=Positive
ORGANISM=GNPS-NIH-SMALLMOLECULEPHARMACOLOGICALLYACTIVE
NAME=MLS002153927-01!Sulmazole73384-60-8 M+H
PI=Dorrestein
DATACOLLECTOR=VP/LMS
SMILES=COc1cc(ccc1c2nc3ccc[nH]c3n2)S(=O)C
INCHI=N/A
INCHIAUX=N/A
PUBMED=N/A
SUBMITUSER=vphelan
LIBRARYQUALITY=1
SPECTRUMID=CCMSLIB00000085721
USI=mzspec:GNPS:GNPS-NIH-SMALLMOLECULEPHARMACOLOGICALLYACTIVE:accession:CCMSLIB00000085721
SCANS=1233
44.893791	88.0
44.920467	120.0
44.9645	128.0
45.008553	156.0
45.040607	124.0
45.07267	80.0
45.090046	160.0
45.128811	184.0
45.151546	84.0
45.172947	96.0
45.182831	216.0
45.20372	76.0
45.230488	160.0
45.239857	192.0
45.288063	156.0
45.29744	96.0
45.31218	164.0
45.346733	168.0
45.364445	176.0
45.379192	92.0
45.38858	152.0
45.440979	120.0
45.45565	224.0
45.495914	176.0
45.516056	196.0
45.529217	200.0
45.538715	276.0
45.558544	252.0
45.602036	108.0
45.612789	184.0
45.688099	224.0
45.713661	200.0
45.775585	124.0
45.789055	92.0
45.806564	92.0
45.840248	244.0
45.867203	116.0
45.879604	100.0
45.942722	136.0
45.957561	128.0
45.966263	84.0
46.019341	192.0
46.069397	144.0
46.107456	384.0
46.158829	148.0
46.170998	148.0
46.226467	128.0
46.250378	120.0
46.254753	80.0
46.257984	112.0
46.284676	160.0
46.328014	152.0
46.36731	160.0
46.401878	272.0
46.422276	184.0
46.433743	32.0
46.467358	144.0
46.47987	200.0
46.492081	112.0
46.517872	164.0
46.576263	160.0
46.587132	120.0
46.623295	188.0
46.636253	212.0
46.663826	120.0
46.67392	140.0
46.68005	132.0
46.713558	208.0
46.727161	204.0
46.753017	108.0
46.776154	124.0
46.789219	180.0
46.804153	156.0
46.807716	88.0
46.812664	172.0
46.870697	124.0
46.886726	112.0
46.949196	100.0
46.981934	148.0
46.991482	132.0
47.026962	112.0
47.088406	100.0
47.113804	204.0
47.143051	176.0
47.183399	244.0
47.207306	96.0
47.220676	144.0
47.236027	112.0
47.254269	276.0
47.297737	124.0
47.356483	196.0
47.396214	112.0
47.414028	156.0
47.444473	132.0
47.467491	168.0
47.500408	68.0
47.539307	400.0
47.592361	56.0
47.610214	132.0
47.622353	148.0
47.626518	124.0
47.650047	164.0
47.700897	228.0
47.722893	144.0
47.741783	152.0
47.757275	120.0
47.774288	152.0
47.815063	180.0
47.85223	160.0
47.905685	172.0
47.936253	120.0
47.961063	208.0
47.988174	220.0
48.001465	184.0
48.01897	128.0
48.034145	204.0
48.0438	156.0
48.060978	116.0
48.163563	148.0
48.194294	44.0
48.256767	172.0
48.273087	92.0
48.286491	144.0
48.308384	208.0
48.356873	256.0
48.382397	196.0
48.426708	132.0
48.450256	192.0
48.4884	160.0
48.490578	192.0
48.504303	192.0
48.531815	204.0
48.554218	128.0
48.591671	148.0
48.614872	128.0
48.639263	216.0
48.681896	160.0
48.693008	204.0
48.70229	152.0
48.751358	168.0
48.794449	132.0
48.818085	52.0
48.83408	176.0
48.86977	144.0
48.887646	68.0
48.902954	48.0
48.922443	220.0
48.934971	100.0
48.95792	100.0
48.989288	152.0
49.004955	196.0
49.03109	172.0
49.048946	192.0
49.066532	204.0
49.081276	272.0
49.091038	168.0
49.156601	132.0
49.171589	168.0
49.19289	128.0
49.208248	168.0
49.218021	124.0
49.233383	128.0
49.268303	88.0
49.27948	196.0
49.346569	112.0
49.402512	200.0
49.4235	112.0
49.438892	164.0
49.475285	160.0
49.493488	144.0
49.557919	148.0
49.577538	112.0
49.619591	84.0
49.635014	52.0
49.658058	120.0
49.688313	100.0
49.733551	116.0
49.743046	112.0
49.784393	80.0
49.809044	124.0
49.842541	252.0
49.84581	212.0
49.856113	152.0
49.877899	144.0
49.898987	244.0
49.92289	164.0
49.955242	128.0
49.99242	160.0
50.01046	132.0
50.023163	240.0
50.0425	96.0
50.065029	112.0
50.093609	180.0
50.112923	172.0
50.156193	176.0
50.166477	252.0
50.187626	96.0
50.207367	164.0
50.236988	132.0
50.306442	168.0
50.317432	176.0
50.328728	136.0
50.344261	340.0
50.364037	160.0
50.379887	180.0
50.395931	180.0
50.41066	192.0
50.453064	80.0
50.515285	136.0
50.53368	156.0
50.545315	72.0
50.573303	168.0
50.608696	160.0
50.628521	204.0
50.665348	108.0
50.685074	152.0
50.687977	140.0
50.730541	192.0
50.78017	52.0
50.829823	160.0
50.89938	208.0
50.91642	124.0
50.927784	184.0
50.939148	140.0
50.975464	220.0
51.037823	96.0
51.091259	80.0
51.102642	176.0
51.112522	148.0
51.147678	192.0
51.169426	156.0
51.205135	120.0
51.236473	136.0
51.270672	112.0
51.314159	152.0
51.324844	132.0
51.339535	132.0
51.35907	132.0
51.379391	180.0
51.411053	152.0
51.422962	144.0
51.436123	92.0
51.448414	156.0
51.478336	184.0
51.507523	124.0
51.524921	204.0
51.563587	168.0
51.595226	356.0
51.636166	300.0
51.652966	164.0
51.666203	240.0
51.71629	124.0
51.746349	112.0
51.777855	156.0
51.822262	348.0
51.869556	140.0
51.912567	160.0
51.954163	184.0
51.998646	168.0
52.024487	160.0
52.043148	132.0
52.071873	160.0
52.104633	180.0
52.186295	128.0
52.196899	168.0
52.278896	140.0
52.292061	244.0
52.309124	160.0
52.340797	172.0
52.36816	132.0
52.378242	212.0
52.3964	192.0
52.425789	156.0
52.4575	192.0
52.533176	168.0
52.551243	184.0
52.575817	132.0
52.588764	116.0
52.624855	128.0
52.686275	160.0
52.697311	160.0
52.727123	176.0
52.755177	216.0
52.767258	168.0
52.7808	160.0
52.802795	176.0
52.821404	156.0
52.835606	132.0
52.853683	128.0
52.863052	188.0
52.907082	156.0
52.92271	96.0
52.95602	156.0
52.992233	136.0
53.048431	200.0
53.077755	180.0
53.101337	212.0
53.125618	176.0
53.141575	60.0
53.153324	208.0
53.169899	216.0
53.20108	80.0
53.257713	104.0
53.280956	208.0
53.318737	176.0
53.330364	28.0
53.340538	192.0
53.377602	268.0
53.408882	212.0
53.456913	164.0
53.487461	136.0
53.516575	156.0
53.541332	180.0
53.557354	140.0
53.580662	340.0
53.598145	192.0
53.633121	224.0
53.656448	116.0
53.675404	144.0
53.691444	92.0
53.705517	284.0
53.735207	160.0
53.751255	92.0
53.761471	148.0
53.781548	180.0
53.786972	136.0
53.81321	160.0
53.866596	148.0
53.883835	180.0
53.898739	140.0
53.918545	116.0
53.945511	100.0
53.974751	168.0
54.002537	144.0
54.01696	144.0
54.02887	232.0
54.083282	264.0
54.093258	264.0
54.119858	272.0
54.157688	240.0
54.174652	204.0
54.191383	108.0
54.208965	220.0
54.257336	44.0
54.274933	144.0
54.349739	204.0
54.365005	248.0
54.386429	176.0
54.437817	176.0
54.451035	284.0
54.464252	64.0
54.474533	216.0
54.489227	168.0
54.523529	140.0
54.560547	228.0
54.616428	152.0
54.646545	160.0
54.681862	220.0
54.718433	152.0
54.759899	176.0
54.799671	64.0
54.812935	140.0
54.876316	144.0
54.886635	136.0
54.901382	176.0
54.941208	120.0
54.964817	84.0
55.120594	144.0
55.143513	152.0
55.153858	184.0
55.211376	164.0
55.258858	152.0
55.294373	188.0
55.304523	220.0
55.349178	184.0
55.374321	184.0
55.399265	300.0
55.423428	136.0
55.475082	216.0
55.486942	40.0
55.497322	124.0
55.520092	156.0
55.583355	48.0
55.605663	156.0
55.618298	236.0
55.63139	176.0
55.65015	180.0
55.667969	128.0
55.708073	148.0
55.719955	208.0
55.766956	176.0
55.794266	136.0
55.84185	124.0
55.883503	128.0
55.9697	132.0
56.002598	84.0
56.021965	208.0
56.048664	200.0
56.053867	184.0
56.073185	136.0
56.079765	208.0
56.098587	192.0
56.111385	76.0
56.159103	156.0
56.202366	136.0
56.218784	180.0
56.325134	328.0
56.334862	156.0
56.347198	144.0
56.378578	64.0
56.39502	112.0
56.417442	124.0
56.438278	192.0
56.468662	220.0
56.493771	152.0
56.529621	132.0
56.552818	152.0
56.585003	36.0
56.65094	148.0
56.6656	212.0
56.694351	84.0
56.763802	176.0
56.779026	156.0
56.814342	168.0
56.847317	132.0
56.863827	148.0
56.877335	120.0
56.889149	184.0
56.922375	124.0
56.943794	152.0
57.0065	220.0
57.026039	104.0
57.03656	96.0
57.081661	96.0
57.107231	116.0
57.128288	56.0
57.156876	92.0
57.202026	160.0
57.232826	184.0
57.278431	152.0
57.296902	144.0
57.34877	268.0
57.375275	148.0
57.411118	192.0
57.436672	168.0
57.459732	104.0
57.482365	192.0
57.515846	152.0
57.548782	208.0
57.582005	184.0
57.594086	140.0
57.60466	172.0
57.615234	188.0
57.672661	200.0
57.711475	216.0
57.745892	172.0
57.769436	164.0
57.790619	160.0
57.859463	140.0
57.936752	160.0
57.948864	140.0
57.966267	216.0
57.993389	152.0
58.019318	200.0
58.043579	140.0
58.058743	108.0
58.085392	140.0
58.10273	196.0
58.154327	120.0
58.169506	140.0
58.204426	232.0
58.219433	276.0
58.239353	152.0
58.26062	120.0
58.29557	76.0
58.333431	136.0
58.365494	96.0
58.376141	204.0
58.404125	140.0
58.427856	100.0
58.456764	228.0
58.489487	168.0
58.512001	152.0
58.546585	144.0
58.659336	180.0
58.680679	152.0
58.71941	180.0
58.737106	152.0
58.752361	116.0
58.763039	132.0
58.782875	276.0
58.79356	144.0
58.807293	120.0
58.837826	108.0
58.870029	156.0
58.894329	168.0
58.909603	200.0
58.979664	164.0
59.001751	148.0
59.035233	144.0
59.049961	160.0
59.068623	300.0
59.094593	128.0
59.137444	144.0
59.149689	256.0
59.21553	120.0
59.240036	180.0
59.281406	88.0
59.307461	136.0
59.362801	168.0
59.374889	180.0
59.390263	140.0
59.430149	136.0
59.446575	176.0
59.545284	136.0
59.568321	180.0
59.592903	136.0
59.612881	76.0
59.62825	168.0
59.653957	160.0
59.664364	160.0
59.674366	236.0
59.69128	136.0
59.764019	152.0
59.791023	164.0
59.822926	200.0
59.857471	212.0
59.894436	128.0
59.915123	196.0
59.991516	176.0
60.020813	124.0
60.040859	44.0
60.080528	172.0
60.096394	172.0
60.116451	308.0
60.151951	216.0
60.190552	128.0
60.205994	152.0
60.22607	192.0
60.26474	132.0
60.277054	212.0
60.298691	140.0
60.33115	140.0
60.375992	140.0
60.413116	164.0
60.447155	208.0
60.464497	136.0
60.48373	228.0
60.532295	144.0
60.578758	140.0
60.631958	180.0
60.65004	60.0
60.661407	96.0
60.681046	172.0
60.699654	64.0
60.712059	188.0
60.727638	88.0
60.741528	164.0
60.7691	172.0
60.779625	144.0
60.837643	124.0
60.864136	148.0
60.906071	152.0
60.918495	128.0
60.948677	188.0
60.967575	232.0
60.985313	212.0
60.999149	120.0
61.017414	240.0
61.096973	164.0
61.114391	288.0
61.159523	180.0
61.192215	172.0
61.246719	136.0
61.268532	108.0
61.292126	140.0
61.376076	124.0
61.434635	264.0
61.450943	64.0
61.463428	68.0
61.500881	288.0
61.516064	204.0
61.549046	160.0
61.588825	236.0
61.612209	96.0
61.647694	132.0
61.741493	176.0
61.771214	72.0
61.784962	152.0
61.807198	120.0
61.81815	200.0
61.838497	176.0
61.88076	104.0
61.894855	172.0
61.917015	160.0
61.92931	164.0
61.946537	200.0
61.964489	192.0
62.045422	124.0
62.111134	96.0
62.135418	192.0
62.173893	108.0
62.301079	180.0
62.330933	144.0
62.378082	72.0
62.43626	136.0
62.46772	104.0
62.480305	100.0
62.494465	152.0
62.544823	168.0
62.575161	140.0
62.585758	188.0
62.607803	180.0
62.669083	204.0
62.732281	240.0
62.768543	332.0
62.800083	92.0
62.814026	172.0
62.837944	156.0
62.852146	136.0
62.901073	148.0
62.912121	184.0
62.931068	152.0
62.950016	156.0
62.96423	164.0
63.00214	180.0
63.111195	80.0
63.187115	168.0
63.207684	136.0
63.284012	216.0
63.297913	224.0
63.313747	80.0
63.347012	164.0
63.361271	144.0
63.397713	92.0
63.429775	192.0
63.472221	144.0
63.483322	80.0
63.496006	140.0
63.516232	112.0
63.545181	92.0
63.589615	148.0
63.614971	144.0
63.62109	140.0
63.648354	120.0
63.700768	144.0
63.75161	156.0
63.765915	112.0
63.799175	172.0
63.829506	44.0
63.842228	96.0
63.861313	140.0
63.89761	176.0
63.921768	180.0
63.964741	176.0
64.001358	140.0
64.100121	140.0
64.167061	148.0
64.217186	168.0
64.293167	152.0
64.315422	180.0
64.379921	200.0
64.410332	152.0
64.446571	136.0
64.463959	216.0
64.483955	148.0
64.495247	132.0
64.563057	180.0
64.59346	184.0
64.619057	156.0
64.635063	56.0
64.655869	148.0
64.675072	208.0
64.690857	172.0
64.735909	132.0
64.753525	204.0
64.769547	128.0
64.79808	108.0
64.838799	108.0
64.858475	120.0
64.884926	156.0
64.940582	136.0
65.021278	204.0
65.040535	312.0
65.061401	180.0
65.088699	108.0
65.101547	156.0
65.115997	76.0
65.127243	152.0
65.143517	152.0
65.156158	80.0
65.199547	96.0
65.217224	112.0
65.242279	164.0
65.248978	96.0
65.299225	120.0
65.364754	208.0
65.426346	48.0
65.484047	48.0
65.518143	172.0
65.553375	204.0
65.576157	168.0
65.608879	120.0
65.643867	76.0
65.677734	164.0
65.743889	124.0
65.782623	156.0
65.821373	168.0
65.835907	160.0
65.895073	172.0
65.91259	156.0
65.96032	108.0
66.011658	212.0
66.014198	160.0
66.044403	156.0
66.055725	120.0
66.079994	120.0
66.12854	148.0
66.162537	160.0
66.188438	224.0
66.220833	148.0
66.233788	144.0
66.25161	64.0
66.272667	116.0
66.298599	92.0
66.313904	224.0
66.327774	124.0
66.35685	128.0
66.384521	180.0
66.406998	172.0
66.441292	236.0
66.460762	148.0
66.489967	204.0
66.53714	136.0
66.578247	188.0
66.59713	152.0
66.610123	228.0
66.676743	164.0
66.704285	152.0
66.744743	144.0
66.761276	180.0
66.803566	184.0
66.918869	208.0
66.93866	148.0
66.950058	120.0
66.973152	136.0
67.024117	216.0
67.062477	156.0
67.078781	116.0
67.127861	188.0
67.143997	184.0
67.181519	144.0
67.230469	64.0
67.276169	152.0
67.311096	236.0
67.353088	76.0
67.369255	120.0
67.421539	104.0
67.485298	256.0
67.498375	160.0
67.517998	144.0
67.534149	188.0
67.563797	140.0
67.586708	124.0
67.601433	212.0
67.617439	144.0
67.631538	152.0
67.657089	176.0
67.698021	120.0
67.745522	188.0
67.797951	116.0
67.827423	220.0
67.868439	152.0
67.889351	224.0
67.901237	180.0
67.924202	152.0
67.958656	216.0
67.991478	72.0
68.004608	164.0
68.042358	216.0
68.055237	128.0
68.09333	180.0
68.108047	184.0
68.122833	96.0
68.145836	36.0
68.173767	160.0
68.240097	176.0
68.277344	140.0
68.31517	88.0
68.35466	180.0
68.382637	132.0
68.455078	120.0
68.466606	140.0
68.519318	248.0
68.532494	156.0
68.549873	256.0
68.585236	156.0
68.616554	124.0
68.641289	104.0
68.667389	164.0
68.70726	92.0
68.718811	196.0
68.73098	216.0
68.77327	192.0
68.83931	132.0
68.860779	168.0
68.872345	88.0
68.903732	128.0
68.988014	172.0
69.065918	144.0
69.085587	264.0
69.110405	160.0
69.169983	192.0
69.21965	160.0
69.281693	132.0
69.314072	132.0
69.337273	212.0
69.356018	216.0
69.375397	160.0
69.398613	164.0
69.416847	156.0
69.435089	144.0
69.4673	196.0
69.496475	72.0
69.513062	172.0
69.564514	132.0
69.589424	248.0
69.61599	116.0
69.652359	196.0
69.70237	128.0
69.742256	44.0
69.820404	144.0
69.877716	308.0
69.89193	144.0
69.911903	168.0
69.925217	128.0
69.951851	132.0
70.001801	172.0
70.075768	196.0
70.110085	120.0
70.137939	168.0
70.185318	108.0
70.21048	128.0
70.238464	168.0
70.256447	200.0
70.300201	152.0
70.320229	124.0
70.341927	168.0
70.405373	172.0
70.432098	76.0
70.448799	136.0
70.475533	40.0
70.523994	128.0
70.572945	100.0
70.586601	216.0
70.602577	288.0
70.620979	164.0
70.632683	124.0
70.654434	92.0
70.674507	140.0
70.728065	164.0
70.812263	128.0
70.823509	132.0
70.85434	208.0
70.871414	276.0
70.893875	116.0
70.911316	216.0
70.972618	148.0
70.986076	176.0
71.00708	144.0
71.021385	156.0
71.039749	124.0
71.096802	212.0
71.108543	192.0
71.14212	32.0
71.190529	96.0
71.207603	140.0
71.249603	148.0
71.282524	176.0
71.305779	176.0
71.311775	56.0
71.31768	156.0
71.346626	60.0
71.379021	92.0
71.417702	148.0
71.434525	76.0
71.535118	72.0
71.654037	132.0
71.672867	120.0
71.719101	208.0
71.737762	180.0
71.773613	180.0
71.79274	160.0
71.848953	188.0
71.87207	140.0
71.88945	80.0
71.913887	216.0
71.958656	228.0
71.977226	112.0
72.007629	80.0
72.024643	164.0
72.049858	216.0
72.075203	164.0
72.087029	200.0
72.125603	204.0
72.154045	240.0
72.186768	116.0
72.245964	272.0
72.288269	84.0
72.337349	156.0
72.350319	364.0
72.384758	128.0
72.42588	156.0
72.492226	284.0
72.506729	32.0
72.525375	168.0
72.613541	196.0
72.638985	192.0
72.662247	248.0
72.726593	172.0
72.731812	108.0
72.746819	264.0
72.769051	100.0
72.775131	128.0
72.795135	88.0
72.813812	168.0
72.835892	28.0
72.849487	124.0
72.899368	160.0
72.977707	144.0
72.988853	172.0
73.012711	132.0
73.053268	160.0
73.055901	276.0
73.073898	124.0
73.087509	56.0
73.108139	132.0
73.164101	144.0
73.223701	104.0
73.262878	180.0
73.33786	192.0
73.395821	92.0
73.417992	192.0
73.430908	168.0
73.443451	172.0
73.446617	112.0
73.455101	212.0
73.491341	108.0
73.515228	140.0
73.534004	208.0
73.580093	160.0
73.632462	104.0
73.653526	140.0
73.665482	152.0
73.733833	140.0
73.746048	136.0
73.786819	184.0
73.819061	168.0
73.847664	132.0
73.862068	88.0
73.894569	136.0
73.915108	120.0
73.943497	68.0
73.955566	112.0
73.972809	196.0
73.998375	160.0
74.0298	72.0
74.057205	200.0
74.08918	192.0
74.136009	116.0
74.154861	44.0
74.168579	180.0
74.230301	124.0
74.259453	196.0
74.280037	80.0
74.298904	156.0
74.316063	316.0
74.351875	152.0
74.356834	132.0
74.435135	204.0
74.453957	220.0
74.492897	60.0
74.515236	172.0
74.532417	68.0
74.555397	172.0
74.574074	116.0
74.60804	264.0
74.635551	228.0
74.678543	280.0
74.712944	112.0
74.755959	208.0
74.76973	204.0
74.781776	56.0
74.811043	84.0
74.848923	128.0
74.897949	148.0
74.928146	104.0
74.940208	152.0
74.999649	128.0
75.031555	56.0
75.097321	148.0
75.110886	108.0
75.133308	48.0
75.148209	120.0
75.171272	96.0
75.186226	156.0
75.216385	124.0
75.245529	200.0
75.278297	152.0
75.312843	72.0
75.337029	52.0
75.357758	128.0
75.406143	184.0
75.419106	164.0
75.432076	128.0
75.444176	120.0
75.47184	228.0
75.535828	92.0
75.560043	132.0
75.598114	400.0
75.642975	152.0
75.67601	80.0
75.689857	76.0
75.721031	152.0
75.740089	444.0
75.773003	128.0
75.789261	208.0
75.803192	180.0
75.828453	156.0
75.880867	220.0
75.915138	144.0
75.935951	236.0
75.979797	144.0
76.01049	128.0
76.043518	204.0
76.0896	220.0
76.146729	280.0
76.178963	152.0
76.206757	100.0
76.264107	116.0
76.298042	200.0
76.303352	104.0
76.308144	156.0
76.4039	256.0
76.457069	152.0
76.48951	172.0
76.528534	76.0
76.579041	204.0
76.606911	192.0
76.626595	176.0
76.65918	156.0
76.674805	120.0
76.692291	148.0
76.718765	300.0
76.744591	148.0
76.763771	168.0
76.805634	60.0
76.837036	96.0
76.866699	228.0
76.90509	232.0
76.92308	220.0
76.950478	172.0
76.982834	128.0
77.053528	88.0
77.090218	140.0
77.153145	272.0
77.18811	196.0
77.202103	116.0
77.25808	144.0
77.292702	148.0
77.317566	112.0
77.334793	204.0
77.396347	132.0
77.410355	208.0
77.485672	124.0
77.504944	116.0
77.539993	180.0
77.561028	192.0
77.590828	160.0
77.682022	56.0
77.76976	136.0
77.803116	160.0
77.815399	148.0
77.830147	172.0
77.887405	164.0
77.910858	96.0
77.933807	172.0
77.975258	204.0
77.996353	120.0
78.013931	172.0
78.036125	128.0
78.056129	132.0
78.08075	196.0
78.093056	152.0
78.133514	96.0
78.159134	172.0
78.189827	144.0
78.202148	48.0
78.263763	148.0
78.293701	144.0
78.30603	88.0
78.332451	180.0
78.353592	200.0
78.38002	352.0
78.42408	204.0
78.448753	444.0
78.466385	144.0
78.492836	148.0
78.528107	108.0
78.557312	200.0
78.592285	220.0
78.633965	160.0
78.711372	168.0
78.776993	56.0
78.822929	196.0
78.847672	224.0
78.868988	132.0
78.921387	304.0
78.946678	212.0
78.987045	132.0
79.015663	228.0
79.048347	236.0
79.068748	204.0
79.082909	140.0
79.105919	172.0
79.119354	144.0
79.228111	200.0
79.253273	180.0
79.275871	192.0
79.298988	132.0
79.311401	92.0
79.327354	132.0
79.340607	168.0
79.362808	116.0
79.398094	152.0
79.434044	144.0
79.475723	228.0
79.493233	220.0
79.514359	176.0
79.586128	140.0
79.622025	164.0
79.652588	144.0
79.740829	136.0
79.749924	136.0
79.783707	192.0
79.808487	160.0
79.845833	144.0
79.876068	252.0
79.899193	124.0
79.940125	140.0
79.992249	168.0
80.009537	132.0
80.022003	176.0
80.046547	192.0
80.07505	196.0
80.112831	92.0
80.135994	148.0
80.150246	140.0
80.173416	112.0
80.221535	152.0
80.251373	136.0
80.321396	228.0
80.396339	164.0
80.499878	204.0
80.55703	232.0
80.582047	44.0
80.6017	168.0
80.619568	88.0
80.635414	180.0
80.67498	132.0
80.689949	268.0
80.723251	172.0
80.735771	168.0
80.764931	92.0
80.7948	92.0
80.817223	188.0
80.847672	88.0
80.866379	152.0
80.882957	152.0
80.931854	212.0
80.946938	144.0
80.972015	192.0
81.016098	164.0
81.050568	180.0
81.099228	148.0
81.128281	96.0
81.217567	224.0
81.242683	156.0
81.278229	128.0
81.338577	112.0
81.35215	184.0
81.366432	180.0
81.407814	152.0
81.427567	112.0
81.443733	224.0
81.476997	192.0
81.513802	164.0
81.529976	128.0
81.612663	120.0
81.627052	152.0
81.650429	224.0
81.679893	232.0
81.71862	176.0
81.758484	128.0
81.776375	152.0
81.817406	136.0
81.82431	108.0
81.829742	204.0
81.889801	172.0
81.910599	220.0
81.95105	144.0
81.97448	76.0
82.001472	192.0
82.051987	248.0
82.095734	228.0
82.129532	72.0
82.196281	156.0
82.217934	44.0
82.230568	52.0
82.27636	164.0
82.291946	116.0
82.322372	160.0
82.328064	136.0
82.35154	300.0
82.38044	128.0
82.394897	144.0
82.421997	232.0
82.442596	216.0
82.451599	136.0
82.483444	188.0
82.537392	224.0
82.543518	168.0
82.568428	36.0
82.587418	176.0
82.634369	136.0
82.655632	184.0
82.673355	152.0
82.693268	176.0
82.717964	192.0
82.73011	192.0
82.749817	184.0
82.804184	152.0
82.842194	292.0
82.859184	128.0
82.874359	240.0
82.917854	220.0
82.932556	140.0
82.979485	96.0
82.992172	128.0
83.029976	156.0
83.037125	132.0
83.075607	180.0
83.10463	176.0
83.126404	96.0
83.171783	148.0
83.226349	284.0
83.287994	148.0
83.306511	188.0
83.337044	212.0
83.380157	220.0
83.455185	96.0
83.522476	144.0
83.600716	196.0
83.622551	132.0
83.638931	120.0
83.651672	100.0
83.691727	148.0
83.733452	92.0
83.769157	132.0
83.791908	168.0
83.804657	92.0
83.822884	176.0
83.868446	148.0
83.914017	188.0
83.990616	200.0
84.039871	132.0
84.080017	104.0
84.103745	100.0
84.126274	192.0
84.156425	188.0
84.168312	208.0
84.182251	80.0
84.228882	128.0
84.256622	156.0
84.273582	148.0
84.308304	236.0
84.328407	136.0
84.382896	144.0
84.390434	116.0
84.417992	136.0
84.5196	124.0
84.526489	180.0
84.546051	148.0
84.57299	172.0
84.593636	44.0
84.637581	388.0
84.662949	136.0
84.701096	164.0
84.719452	160.0
84.749313	168.0
84.768188	320.0
84.783997	180.0
84.834908	188.0
84.857452	112.0
84.878616	140.0
84.887489	224.0
84.916824	252.0
84.954659	148.0
84.984009	112.0
85.053749	76.0
85.092201	144.0
85.112495	80.0
85.141876	96.0
85.154739	156.0
85.168335	208.0
85.190178	176.0
85.213516	172.0
85.241081	144.0
85.281517	124.0
85.32563	112.0
85.346436	64.0
85.403175	144.0
85.43708	160.0
85.477356	172.0
85.540878	104.0
85.555603	84.0
85.583221	204.0
85.611435	144.0
85.65873	160.0
85.719719	196.0
85.734589	236.0
85.746796	196.0
85.784576	192.0
85.828804	144.0
85.880791	200.0
85.913078	276.0
85.929733	204.0
85.97657	240.0
85.999359	104.0
86.006401	140.0
86.011345	180.0
86.044167	172.0
86.062935	192.0
86.142296	216.0
86.169754	112.0
86.193771	148.0
86.210037	180.0
86.228889	144.0
86.304642	176.0
86.323174	212.0
86.386055	204.0
86.411957	124.0
86.426758	168.0
86.456367	120.0
86.474876	148.0
86.558182	112.0
86.579353	84.0
86.602631	112.0
86.634315	180.0
86.654503	160.0
86.691566	132.0
86.713081	232.0
86.741608	80.0
86.771782	136.0
86.812065	136.0
86.825043	160.0
86.862137	144.0
86.877464	184.0
86.89093	108.0
86.932648	48.0
87.014626	144.0
87.047188	244.0
87.096024	56.0
87.119522	228.0
87.144325	148.0
87.181496	200.0
87.211227	132.0
87.274437	164.0
87.309769	152.0
87.341042	216.0
87.371155	128.0
87.421394	196.0
87.480957	356.0
87.650444	124.0
87.706352	164.0
87.758553	236.0
87.803307	68.0
87.832092	204.0
87.859268	172.0
87.902184	208.0
87.918976	104.0
87.948837	96.0
87.989906	72.0
88.017914	124.0
88.036324	168.0
88.042656	144.0
88.068336	176.0
88.08889	260.0
88.101967	148.0
88.131859	204.0
88.156151	160.0
88.204742	336.0
88.226738	132.0
88.249275	132.0
88.275124	180.0
88.304871	168.0
88.344543	224.0
88.395515	116.0
88.461021	52.0
88.489105	104.0
88.502213	96.0
88.521027	212.0
88.571503	96.0
88.585831	136.0
88.610847	132.0
88.6427	132.0
88.661438	136.0
88.67643	124.0
88.69046	224.0
88.740173	152.0
88.777672	100.0
88.800179	48.0
88.862762	132.0
88.882721	160.0
88.912994	216.0
88.989716	184.0
89.00386	60.0
89.025391	132.0
89.040413	168.0
89.053566	144.0
89.089256	252.0
89.107315	196.0
89.132309	152.0
89.137108	136.0
89.144005	116.0
89.171928	188.0
89.20446	236.0
89.264053	152.0
89.35434	96.0
89.37632	164.0
89.399498	144.0
89.454369	156.0
89.472908	204.0
89.495499	172.0
89.516212	188.0
89.54258	224.0
89.602859	140.0
89.620094	520.0
89.636772	28.0
89.717819	144.0
89.753647	152.0
89.789474	68.0
89.812111	164.0
89.830971	128.0
89.857384	140.0
89.897301	164.0
89.97538	248.0
90.015938	232.0
90.044266	128.0
90.065041	88.0
90.095268	140.0
90.14817	120.0
90.167068	92.0
90.187859	116.0
90.212433	204.0
90.259705	140.0
90.293747	164.0
90.314552	152.0
90.339142	108.0
90.405365	200.0
90.423645	164.0
90.437622	180.0
90.486755	148.0
90.590919	132.0
90.617004	172.0
90.635582	172.0
90.665688	156.0
90.71209	132.0
90.769081	136.0
90.84874	84.0
90.873405	368.0
90.903763	156.0
90.926537	84.0
90.946175	208.0
90.972092	148.0
90.996811	156.0
91.011368	216.0
91.042961	260.0
91.059441	160.0
91.114525	124.0
91.143028	180.0
91.171532	176.0
91.200836	240.0
91.279892	120.0
91.297493	140.0
91.329338	196.0
91.346458	140.0
91.369286	148.0
91.395927	140.0
91.433983	208.0
91.460869	208.0
91.490089	228.0
91.495605	108.0
91.503227	268.0
91.531075	160.0
91.577362	184.0
91.590721	128.0
91.605354	100.0
91.645363	144.0
91.668228	180.0
91.691101	84.0
91.712021	188.0
91.719078	164.0
91.726501	236.0
91.778252	128.0
91.810326	172.0
91.841988	144.0
91.887505	148.0
91.906586	132.0
91.923759	88.0
91.942841	184.0
91.962662	136.0
91.984489	176.0
92.002014	188.0
92.037926	208.0
92.058601	276.0
92.173912	76.0
92.208313	112.0
92.233162	188.0
92.26757	164.0
92.292427	144.0
92.319916	192.0
92.342148	136.0
92.384232	116.0
92.409103	172.0
92.425133	148.0
92.441635	200.0
92.487564	112.0
92.532074	156.0
92.54538	180.0
92.562233	80.0
92.643562	140.0
92.65609	224.0
92.669495	184.0
92.685219	360.0
92.711655	152.0
92.82476	148.0
92.842018	152.0
92.869659	156.0
92.989746	140.0
93.031395	132.0
93.045616	852.0
93.081894	240.0
93.104431	176.0
93.107246	220.0
93.123138	160.0
93.156799	204.0
93.17025	196.0
93.188179	228.0
93.202911	192.0
93.243271	136.0
93.27018	160.0
93.291321	128.0
93.323036	152.0
93.341835	148.0
93.379776	144.0
93.406708	212.0
93.447105	96.0
93.461945	180.0
93.490311	172.0
93.51638	124.0
93.544472	76.0
93.58049	120.0
93.595818	160.0
93.618423	88.0
93.651161	96.0
93.692871	172.0
93.714737	152.0
93.762108	220.0
93.777321	84.0
93.813026	212.0
93.868126	180.0
93.960716	164.0
94.025208	180.0
94.050461	324.0
94.079254	168.0
94.105858	328.0
94.146835	156.0
94.227966	192.0
94.267387	224.0
94.293663	48.0
94.330391	188.0
94.384186	184.0
94.452217	76.0
94.469627	144.0
94.504723	84.0
94.533516	200.0
94.570709	84.0
94.612831	172.0
94.657364	280.0
94.746468	104.0
94.804825	168.0
94.829788	144.0
94.849174	176.0
94.898727	252.0
94.934479	132.0
94.97715	176.0
95.002365	104.0
95.062515	196.0
95.107155	264.0
95.130447	124.0
95.151802	56.0
95.212067	124.0
95.231049	248.0
95.270271	180.0
95.287758	152.0
95.310715	296.0
95.349945	120.0
95.365494	68.0
95.391045	152.0
95.408257	88.0
95.441307	160.0
95.463509	176.0
95.505486	112.0
95.636978	152.0
95.655518	116.0
95.674789	160.0
95.715378	188.0
95.756615	184.0
95.768867	192.0
95.793579	84.0
95.811111	120.0
95.851143	220.0
95.941689	184.0
95.967033	412.0
95.99823	184.0
96.032547	376.0
96.07235	388.0
96.086006	148.0
96.138695	144.0
96.195297	200.0
96.231941	184.0
96.259727	136.0
96.287064	128.0
96.354385	156.0
96.482468	228.0
96.559227	164.0
96.651756	188.0
96.683945	196.0
96.717216	124.0
96.730919	112.0
96.789658	124.0
96.824821	184.0
96.866669	148.0
96.969994	148.0
97.030655	260.0
97.062836	116.0
97.085556	132.0
97.112198	172.0
97.139671	224.0
97.155907	176.0
97.173683	160.0
97.230736	164.0
97.264107	100.0
97.281769	108.0
97.307716	160.0
97.322998	132.0
97.340675	84.0
97.382385	236.0
97.431023	152.0
97.457863	152.0
97.47818	128.0
97.511589	64.0
97.550903	168.0
97.564667	148.0
97.633636	208.0
97.681343	120.0
97.759628	168.0
97.836159	240.0
97.851906	132.0
97.873566	64.0
97.893257	240.0
97.90789	132.0
97.928703	124.0
97.942497	180.0
97.969681	120.0
98.00119	220.0
98.020081	136.0
98.052834	184.0
98.088463	128.0
98.145485	128.0
98.184929	160.0
98.202675	164.0
98.218452	160.0
98.281586	136.0
98.35762	152.0
98.392113	156.0
98.430023	180.0
98.4842	216.0
98.506935	172.0
98.524384	152.0
98.547913	168.0
98.610672	212.0
98.708252	96.0
98.733963	132.0
98.749786	132.0
98.834305	284.0
98.912041	80.0
98.951859	212.0
98.971428	192.0
99.030846	144.0
99.048668	100.0
99.077393	212.0
99.110085	160.0
99.130501	172.0
99.15963	196.0
99.189362	172.0
99.224594	160.0
99.268669	48.0
99.292465	172.0
99.371811	152.0
99.395622	32.0
99.43969	156.0
99.469055	140.0
99.492882	180.0
99.520676	112.0
99.568336	180.0
99.584221	96.0
99.617989	128.0
99.631897	132.0
99.64978	180.0
99.66304	172.0
99.714447	152.0
99.729271	44.0
99.751137	108.0
99.817055	204.0
99.861198	136.0
99.934105	144.0
99.959969	176.0
99.981857	124.0
100.007736	148.0
100.030159	212.0
100.073425	180.0
100.139595	196.0
100.201904	172.0
100.225754	132.0
100.2519	172.0
100.266655	176.0
100.300362	180.0
100.354012	112.0
100.360947	160.0
100.416191	132.0
100.450096	160.0
100.469185	148.0
100.493988	176.0
100.528671	200.0
100.584991	180.0
100.645683	120.0
100.713501	196.0
100.755539	156.0
100.797493	104.0
100.837868	200.0
100.894905	152.0
100.910126	200.0
100.945419	148.0
100.989418	160.0
101.02343	72.0
101.099457	140.0
101.125481	152.0
101.148933	156.0
101.25425	164.0
101.325287	72.0
101.351173	120.0
101.366714	176.0
101.391853	100.0
101.410934	208.0
101.414497	108.0
101.443214	244.0
101.502113	160.0
101.523239	120.0
101.603516	180.0
101.625099	128.0
101.687027	92.0
101.712776	120.0
101.777016	160.0
101.79509	128.0
101.822639	384.0
101.851326	136.0
101.8694	132.0
101.885475	172.0
101.905563	192.0
101.961311	124.0
101.993988	72.0
102.022133	164.0
102.105019	292.0
102.140778	204.0
102.166931	252.0
102.195099	184.0
102.210884	128.0
102.265533	424.0
102.340019	148.0
102.360153	140.0
102.412521	116.0
102.429115	84.0
102.454231	136.0
102.462296	96.0
102.509224	144.0
102.523094	136.0
102.543488	88.0
102.58783	224.0
102.631767	136.0
102.667419	76.0
102.749168	44.0
102.769348	192.0
102.801628	264.0
102.832062	152.0
102.909401	216.0
102.985352	152.0
103.001511	124.0
103.025566	152.0
103.045959	132.0
103.070206	148.0
103.114662	204.0
103.128815	176.0
103.161156	144.0
103.20977	92.0
103.233948	60.0
103.256187	100.0
103.270348	184.0
103.28653	260.0
103.316872	132.0
103.385674	168.0
103.418228	92.0
103.435982	188.0
103.527382	208.0
103.559792	160.0
103.62664	152.0
103.705673	168.0
103.723869	176.0
103.770546	120.0
103.808884	176.0
103.845573	64.0
103.875999	112.0
103.906433	176.0
103.934837	140.0
103.950417	236.0
103.958839	160.0
103.961769	192.0
103.987602	200.0
104.047897	684.0
104.083015	168.0
104.105354	140.0
104.147827	188.0
104.163803	36.0
104.181023	220.0
104.219109	192.0
104.25354	144.0
104.271942	164.0
104.290237	128.0
104.306503	108.0
104.324448	164.0
104.344376	228.0
104.389709	164.0
104.405952	140.0
104.432076	164.0
104.487038	180.0
104.492615	108.0
104.499977	236.0
104.564026	184.0
104.625885	136.0
104.653358	132.0
104.670677	136.0
104.684937	176.0
104.735069	188.0
104.764374	56.0
104.784744	132.0
104.803078	256.0
104.834541	164.0
104.868294	116.0
104.898872	128.0
104.941681	152.0
104.955956	216.0
105.026382	128.0
105.045692	140.0
105.062012	76.0
105.090576	300.0
105.137512	192.0
105.163307	100.0
105.186501	136.0
105.202019	172.0
105.218971	128.0
105.234497	156.0
105.282463	148.0
105.337608	132.0
105.394646	192.0
105.476562	160.0
105.501091	124.0
105.515404	112.0
105.594749	160.0
105.63105	176.0
105.65448	200.0
105.716843	208.0
105.805328	152.0
105.875542	132.0
105.923912	64.0
105.939041	72.0
105.975922	200.0
106.035957	328.0
106.144104	144.0
106.174759	64.0
106.20475	116.0
106.240402	168.0
106.310158	216.0
106.336838	144.0
106.421005	168.0
106.474396	176.0
106.519585	172.0
106.533966	164.0
106.575058	172.0
106.589439	144.0
106.62027	136.0
106.650116	84.0
106.664948	168.0
106.685341	232.0
106.702438	156.0
106.777596	84.0
106.811485	180.0
106.866432	152.0
106.885551	140.0
106.973976	220.0
106.996696	112.0
107.02964	144.0
107.101913	172.0
107.116142	280.0
107.139336	248.0
107.161461	120.0
107.241837	140.0
107.274811	184.0
107.313988	184.0
107.342339	160.0
107.380943	188.0
107.401291	180.0
107.431541	104.0
107.464554	136.0
107.483124	128.0
107.512016	152.0
107.538422	156.0
107.573936	192.0
107.604904	152.0
107.621422	136.0
107.697472	92.0
107.751541	44.0
107.774826	284.0
107.840973	156.0
107.856934	200.0
107.907684	168.0
107.945839	96.0
107.999611	172.0
108.055176	172.0
108.099388	160.0
108.134102	192.0
108.169289	176.0
108.198273	108.0
108.215897	172.0
108.23761	120.0
108.28524	128.0
108.300247	196.0
108.319763	192.0
108.334343	148.0
108.357742	164.0
108.376335	152.0
108.413696	164.0
108.432343	152.0
108.448929	92.0
108.469582	112.0
108.511116	220.0
108.562958	156.0
108.584526	160.0
108.606514	60.0
108.635551	68.0
108.656296	36.0
108.701942	180.0
108.733078	236.0
108.767159	164.0
108.811958	360.0
108.828568	112.0
108.849052	172.0
108.856506	132.0
108.86264	224.0
108.882675	184.0
108.9132	244.0
109.040016	488.0
109.061241	176.0
109.094498	144.0
109.161034	112.0
109.175591	144.0
109.198601	128.0
109.217194	120.0
109.251808	192.0
109.26712	156.0
109.296967	192.0
109.333237	200.0
109.3899	136.0
109.404472	204.0
109.429459	108.0
109.467995	176.0
109.600258	100.0
109.616928	84.0
109.654434	56.0
109.712807	148.0
109.736015	208.0
109.754501	184.0
109.874214	140.0
109.896339	168.0
109.921379	156.0
109.954773	104.0
110.002777	128.0
110.043694	160.0
110.107384	184.0
110.151039	88.0
110.169846	216.0
110.213715	160.0
110.236755	168.0
110.284775	104.0
110.320312	100.0
110.372581	284.0
110.420677	120.0
110.435318	148.0
110.483429	148.0
110.517113	124.0
110.55426	80.0
110.579689	180.0
110.6007	200.0
110.636208	100.0
110.659233	184.0
110.690643	192.0
110.738815	240.0
110.791534	164.0
110.816322	168.0
110.881287	36.0
110.900543	252.0
110.929489	136.0
110.953636	188.0
110.969322	180.0
110.984001	72.0
111.02594	140.0
111.044815	164.0
111.09726	132.0
111.113106	188.0
111.158218	152.0
111.187485	64.0
111.26725	216.0
111.297646	176.0
111.348763	192.0
111.386292	228.0
111.445778	196.0
111.49411	168.0
111.530762	128.0
111.546661	160.0
111.57399	140.0
111.610069	148.0
111.666512	364.0
111.767494	96.0
111.82431	48.0
111.927467	196.0
111.948524	168.0
111.963264	148.0
111.990646	256.0
112.042542	208.0
112.077019	108.0
112.106522	136.0
112.152893	104.0
112.192291	168.0
112.234024	132.0
112.270958	140.0
112.285721	100.0
112.377731	332.0
112.405975	136.0
112.457443	176.0
112.503059	276.0
112.575264	184.0
112.598083	168.0
112.621315	52.0
112.654175	144.0
112.716385	96.0
112.743858	136.0
112.775864	140.0
112.824181	36.0
112.859398	164.0
112.896072	136.0
112.921448	132.0
112.955292	240.0
113.061722	172.0
113.067764	204.0
113.137283	192.0
113.158455	124.0
113.232574	76.0
113.283409	172.0
113.297165	124.0
113.399956	92.0
113.42009	216.0
113.459305	176.0
113.504692	128.0
113.531296	192.0
113.624733	152.0
113.717232	244.0
113.783913	152.0
113.819313	160.0
113.837776	292.0
113.875221	104.0
113.902832	136.0
113.91983	336.0
113.958069	132.0
114.064178	164.0
114.147614	140.0
114.181274	132.0
114.206795	220.0
114.23658	184.0
114.270615	132.0
114.294022	168.0
114.321686	124.0
114.372765	156.0
114.472832	164.0
114.489868	164.0
114.558563	176.0
114.602196	104.0
114.626587	180.0
114.664398	152.0
114.692207	128.0
114.75016	208.0
114.790352	76.0
114.811676	136.0
114.835136	168.0
114.879929	140.0
114.918335	160.0
114.937538	172.0
114.952477	56.0
114.994934	156.0
115.018639	56.0
115.035713	148.0
115.065651	160.0
115.116844	164.0
115.161697	68.0
115.202286	112.0
115.217239	196.0
115.281342	148.0
115.296295	92.0
115.329826	140.0
115.359985	156.0
115.424561	60.0
115.452362	128.0
115.486588	100.0
115.506264	240.0
115.533646	228.0
115.567879	160.0
115.584991	148.0
115.601578	160.0
115.61438	104.0
115.639137	188.0
115.652306	336.0
115.697975	188.0
115.716133	196.0
115.745422	224.0
115.80336	192.0
115.818352	92.0
115.86425	208.0
115.895477	276.0
115.920082	300.0
115.961914	68.0
115.981201	160.0
116.004784	216.0
116.020981	180.0
116.045311	192.0
116.064064	340.0
116.080757	120.0
116.184921	180.0
116.199944	212.0
116.219254	184.0
116.277191	188.0
116.305099	152.0
116.336258	208.0
116.352325	244.0
116.380234	44.0
116.395264	156.0
116.439034	220.0
116.448479	252.0
116.463341	236.0
116.52816	156.0
116.601501	220.0
116.641441	112.0
116.655235	140.0
116.69075	232.0
116.787392	160.0
116.803612	128.0
116.918297	200.0
116.941322	136.0
116.999443	156.0
117.025284	204.0
117.048965	160.0
117.064041	228.0
117.098694	176.0
117.126228	164.0
117.206215	160.0
117.242844	168.0
117.278458	268.0
117.31398	104.0
117.348129	152.0
117.378662	132.0
117.393753	152.0
117.449211	128.0
117.477798	120.0
117.493935	152.0
117.51239	120.0
117.543945	148.0
117.570656	136.0
117.595604	204.0
117.64257	88.0
117.660103	164.0
117.687225	132.0
117.708359	132.0
117.721771	204.0
117.771446	48.0
117.797371	40.0
117.816811	180.0
117.831932	104.0
117.914047	288.0
117.987541	120.0
118.011436	160.0
118.02845	152.0
118.051003	316.0
118.080765	144.0
118.112968	136.0
118.193901	216.0
118.231972	156.0
118.267754	188.0
118.28653	160.0
118.309227	272.0
118.375946	200.0
118.390007	228.0
118.414139	196.0
118.476654	252.0
118.503311	176.0
118.54599	140.0
118.563324	184.0
118.584999	68.0
118.659363	224.0
118.729736	248.0
118.745438	216.0
118.797501	164.0
118.83625	116.0
118.894203	176.0
118.929871	192.0
118.949402	152.0
118.986107	128.0
119.044029	564.0
119.078239	108.0
119.101402	84.0
119.127113	120.0
119.1492	128.0
119.201347	136.0
119.227425	200.0
119.264374	104.0
119.345375	168.0
119.392883	268.0
119.414398	184.0
119.444847	112.0
119.514465	228.0
119.540443	124.0
119.543884	116.0
119.552269	184.0
119.601524	72.0
119.649414	132.0
119.697311	124.0
119.74762	160.0
119.797501	192.0
119.812752	140.0
119.851974	52.0
119.876762	180.0
119.902092	176.0
119.926071	324.0
119.958641	144.0
120.029739	168.0
120.053795	2724.0
120.083054	56.0
120.117691	132.0
120.153984	124.0
120.18013	128.0
120.227051	184.0
120.294708	112.0
120.331825	120.0
120.371124	144.0
120.420303	192.0
120.440338	116.0
120.454979	132.0
120.475967	84.0
120.512962	180.0
120.550255	144.0
120.596153	136.0
120.628021	152.0
120.648613	140.0
120.675888	160.0
120.742638	96.0
120.769043	284.0
120.783867	132.0
120.810448	112.0
120.878273	188.0
120.893593	240.0
120.935181	108.0
120.992844	152.0
121.011795	172.0
121.036888	388.0
121.144211	204.0
121.150604	148.0
121.178253	104.0
121.226349	160.0
121.376984	168.0
121.430351	196.0
121.480804	104.0
121.56221	152.0
121.590515	116.0
121.698792	160.0
121.720985	204.0
121.791359	260.0
121.904556	332.0
121.967896	176.0
121.976723	144.0
122.004364	128.0
122.018623	152.0
122.048462	224.0
122.091049	140.0
122.124245	104.0
122.153008	68.0
122.198738	168.0
122.214142	208.0
122.243217	116.0
122.28582	212.0
122.323532	112.0
122.4002	140.0
122.443054	164.0
122.459763	156.0
122.498619	324.0
122.562515	72.0
122.580139	112.0
122.60218	112.0
122.617607	268.0
122.637444	148.0
122.716545	376.0
122.758698	132.0
122.778549	116.0
122.818245	120.0
122.904289	284.0
122.924149	116.0
122.941803	120.0
122.979324	212.0
123.00753	180.0
123.070229	180.0
123.112358	140.0
123.160378	148.0
123.200142	176.0
123.262352	204.0
123.30722	140.0
123.383575	212.0
123.463181	216.0
123.508118	100.0
123.584839	84.0
123.706955	204.0
123.799561	96.0
123.817276	80.0
123.850502	48.0
123.877083	128.0
123.891769	176.0
123.929245	200.0
124.019806	108.0
124.078751	164.0
124.120605	128.0
124.169144	180.0
124.196289	192.0
124.211815	152.0
124.227341	112.0
124.282806	160.0
124.329407	160.0
124.351883	188.0
124.45372	188.0
124.555878	164.0
124.571426	40.0
124.595734	136.0
124.624748	72.0
124.662529	52.0
124.691414	204.0
124.713577	132.0
124.735214	176.0
124.758102	128.0
124.775124	168.0
124.793678	84.0
124.813683	120.0
124.879272	220.0
124.936874	176.0
124.996475	184.0
125.021194	156.0
125.085114	88.0
125.133247	252.0
125.185303	144.0
125.225395	136.0
125.269943	156.0
125.284821	176.0
125.369392	328.0
125.445076	204.0
125.499496	372.0
125.528358	212.0
125.535133	200.0
125.559708	56.0
125.615471	176.0
125.635551	580.0
125.662323	60.0
125.7248	144.0
125.778854	148.0
125.811852	180.0
125.829712	100.0
125.860977	228.0
125.9142	216.0
125.920876	180.0
125.990517	124.0
126.051826	204.0
126.093262	192.0
126.131065	228.0
126.151421	188.0
126.187195	32.0
126.202843	212.0
126.22744	216.0
126.247566	132.0
126.292297	132.0
126.316902	152.0
126.334801	116.0
126.36129	100.0
126.387985	140.0
126.393303	108.0
126.400375	156.0
126.503677	148.0
126.531746	124.0
126.59668	136.0
126.632515	216.0
126.672829	116.0
126.697472	152.0
126.72612	188.0
126.749008	164.0
126.784859	204.0
126.818481	76.0
126.838654	216.0
126.867798	128.0
126.928329	256.0
127.00811	128.0
127.038231	304.0
127.065155	144.0
127.08371	208.0
127.135735	140.0
127.154915	92.0
127.170624	192.0
127.188583	152.0
127.267159	116.0
127.387611	304.0
127.446846	80.0
127.462578	276.0
127.494041	116.0
127.549355	72.0
127.56971	120.0
127.610931	144.0
127.672729	116.0
127.73687	208.0
127.759369	120.0
127.775116	124.0
127.806618	100.0
127.835869	72.0
127.943909	136.0
127.971367	164.0
128.02272	172.0
128.050385	240.0
128.097046	220.0
128.128448	192.0
128.171387	112.0
128.21196	132.0
128.227737	96.0
128.28183	164.0
128.324402	104.0
128.32872	100.0
128.403549	224.0
128.437424	128.0
128.466751	212.0
128.509613	80.0
128.584091	148.0
128.62027	132.0
128.655853	136.0
128.692444	128.0
128.715027	156.0
128.744385	128.0
128.764709	176.0
128.798584	304.0
128.83699	176.0
128.893478	68.0
128.909286	100.0
128.943192	192.0
128.97258	152.0
129.004227	180.0
129.044098	632.0
129.068161	300.0
129.096924	184.0
129.123779	196.0
129.128265	172.0
129.207764	156.0
129.225357	180.0
129.253006	200.0
129.268845	96.0
129.290558	168.0
129.347214	192.0
129.379135	264.0
129.411453	116.0
129.474854	200.0
129.506088	152.0
129.574783	180.0
129.64122	136.0
129.712769	184.0
129.835205	184.0
129.860153	136.0
129.912323	88.0
129.997192	160.0
130.013321	368.0
130.048187	636.0
130.084793	136.0
130.123398	68.0
130.149841	228.0
130.193787	148.0
130.209686	176.0
130.36644	172.0
130.392715	132.0
130.44371	196.0
130.641785	204.0
130.66658	80.0
130.732574	124.0
130.784927	140.0
130.809967	92.0
130.842514	120.0
130.898758	152.0
130.936096	172.0
130.97847	176.0
131.001251	188.0
131.055832	200.0
131.117462	128.0
131.185654	144.0
131.191162	132.0
131.222321	272.0
131.239517	172.0
131.261078	144.0
131.313385	132.0
131.345459	156.0
131.367569	188.0
131.388809	240.0
131.423035	168.0
131.440125	164.0
131.461823	264.0
131.482361	132.0
131.531311	196.0
131.587372	72.0
131.627747	128.0
131.66272	340.0
131.683273	172.0
131.701553	144.0
131.728958	96.0
131.765518	108.0
131.783783	88.0
131.827209	132.0
131.868881	168.0
131.909485	172.0
131.950638	88.0
131.978622	196.0
132.021027	220.0
132.056274	488.0
132.108093	236.0
132.120193	232.0
132.138184	136.0
132.158768	144.0
132.190811	180.0
132.206833	176.0
132.267944	188.0
132.320084	200.0
132.369827	200.0
132.447235	100.0
132.470139	292.0
132.509277	140.0
132.527542	140.0
132.566116	328.0
132.58699	160.0
132.603043	188.0
132.621368	128.0
132.664932	312.0
132.681793	168.0
132.73349	124.0
132.79718	156.0
132.820908	248.0
132.913834	184.0
132.974594	176.0
133.034271	164.0
133.055832	164.0
133.091675	196.0
133.121521	148.0
133.220291	160.0
133.242828	208.0
133.252014	168.0
133.304565	200.0
133.365738	436.0
133.397476	196.0
133.454712	112.0
133.493805	188.0
133.514511	144.0
133.583511	152.0
133.601913	216.0
133.62262	124.0
133.652527	192.0
133.693512	148.0
133.724548	204.0
133.748856	56.0
133.80101	156.0
133.852798	124.0
133.942612	124.0
133.993942	156.0
134.002945	192.0
134.029938	176.0
134.050903	128.0
134.069336	80.0
134.12262	200.0
134.156921	184.0
134.215485	120.0
134.242233	156.0
134.295288	188.0
134.313736	132.0
134.426788	188.0
134.442932	116.0
134.463715	152.0
134.500641	148.0
134.523727	100.0
134.553741	152.0
134.603561	88.0
134.68425	140.0
134.717712	100.0
134.813278	208.0
134.860977	112.0
134.918762	116.0
134.951141	48.0
134.997559	172.0
135.024429	232.0
135.064453	64.0
135.092834	60.0
135.11998	156.0
135.163193	136.0
135.205597	152.0
135.221786	132.0
135.265762	124.0
135.302811	212.0
135.38385	208.0
135.420914	132.0
135.457977	180.0
135.486984	152.0
135.509918	208.0
135.615677	196.0
135.638718	144.0
135.671173	168.0
135.692032	184.0
135.733826	172.0
135.864792	180.0
135.889435	188.0
135.915024	144.0
135.935593	184.0
135.977356	136.0
136.004913	156.0
136.049454	324.0
136.163101	128.0
136.184998	160.0
136.200256	204.0
136.218185	380.0
136.316422	196.0
136.351288	56.0
136.393387	208.0
136.451981	140.0
136.482208	164.0
136.50473	136.0
136.568924	152.0
136.595428	100.0
136.645844	120.0
136.664398	136.0
136.704788	164.0
136.723404	140.0
136.825821	216.0
136.914307	40.0
136.930603	136.0
136.946915	184.0
136.965637	96.0
136.985443	164.0
137.033112	148.0
137.051743	136.0
137.084366	148.0
137.13797	88.0
137.175262	192.0
137.197067	160.0
137.252213	192.0
137.361282	172.0
137.408478	204.0
137.443176	280.0
137.494736	120.0
137.515823	176.0
137.560181	160.0
137.625549	396.0
137.644226	124.0
137.665237	156.0
137.699631	144.0
137.746994	136.0
137.779694	100.0
137.830551	136.0
137.877838	192.0
137.908218	128.0
137.943344	180.0
137.990036	144.0
138.015762	136.0
138.055511	128.0
138.118668	144.0
138.193527	244.0
138.2099	404.0
138.239929	192.0
138.26474	204.0
138.333939	360.0
138.358826	140.0
138.383102	260.0
138.451019	136.0
138.502548	208.0
138.554077	148.0
138.587799	276.0
138.613968	316.0
138.633743	168.0
138.675064	208.0
138.704056	68.0
138.732193	148.0
138.762665	44.0
138.788254	140.0
138.804947	124.0
138.849426	68.0
138.885086	140.0
138.910416	140.0
139.03067	192.0
139.046509	108.0
139.084061	148.0
139.100571	124.0
139.142746	72.0
139.16153	184.0
139.210709	140.0
139.219925	60.0
139.228561	132.0
139.257874	148.0
139.283661	208.0
139.32811	140.0
139.33754	124.0
139.368225	160.0
139.403473	144.0
139.419922	128.0
139.473984	176.0
139.54216	200.0
139.603302	100.0
139.619766	160.0
139.655045	168.0
139.742233	128.0
139.789139	124.0
139.812317	208.0
139.843857	192.0
139.858673	208.0
139.902115	180.0
139.925659	32.0
139.944504	108.0
139.982178	148.0
140.008072	120.0
140.042816	296.0
140.078735	204.0
140.10936	112.0
140.201263	240.0
140.254364	332.0
140.315979	216.0
140.359207	76.0
140.377029	148.0
140.395874	168.0
140.429962	152.0
140.516602	268.0
140.609268	148.0
140.654114	56.0
140.694244	160.0
140.767441	84.0
140.803986	164.0
140.831207	80.0
140.858368	200.0
140.876083	64.0
140.903015	120.0
140.944611	56.0
140.984772	276.0
141.024963	132.0
141.051926	128.0
141.095108	364.0
141.114487	92.0
141.1259	212.0
141.135056	176.0
141.175064	248.0
141.240128	192.0
141.262253	188.0
141.292175	124.0
141.313461	140.0
141.381256	192.0
141.472778	152.0
141.588058	148.0
141.608551	184.0
141.653961	184.0
141.685028	112.0
141.716827	144.0
141.73494	36.0
141.777588	180.0
141.795303	124.0
141.810776	200.0
141.829544	52.0
141.880219	176.0
141.903824	244.0
141.944321	204.0
141.992279	180.0
142.019424	136.0
142.050323	152.0
142.095337	132.0
142.140411	104.0
142.166519	140.0
142.218735	208.0
142.235352	212.0
142.318665	128.0
142.406311	188.0
142.423096	172.0
142.474762	220.0
142.540222	96.0
142.56311	128.0
142.599609	56.0
142.636795	144.0
142.682434	140.0
142.703354	84.0
142.789444	180.0
142.832092	92.0
142.926941	404.0
142.980804	144.0
142.998337	204.0
143.022141	180.0
143.059723	636.0
143.129898	212.0
143.155472	136.0
143.179291	104.0
143.219498	208.0
143.284088	48.0
143.340195	88.0
143.361862	132.0
143.410385	116.0
143.436615	176.0
143.455688	152.0
143.478836	124.0
143.54628	156.0
143.579666	144.0
143.629761	184.0
143.722809	160.0
143.743225	172.0
143.7677	192.0
143.808716	144.0
143.861237	168.0
143.898468	180.0
143.92569	104.0
143.954346	204.0
143.97345	188.0
144.018829	148.0
144.055145	1176.0
144.083328	104.0
144.108017	204.0
144.128723	44.0
144.15741	164.0
144.174133	144.0
144.195648	68.0
144.221085	124.0
144.276917	108.0
144.336685	168.0
144.366608	132.0
144.394089	160.0
144.415604	140.0
144.437134	40.0
144.472595	136.0
144.488693	160.0
144.511307	144.0
144.56633	56.0
144.661224	156.0
144.670975	100.0
144.674576	128.0
144.707565	136.0
144.784195	140.0
144.815323	112.0
144.839279	128.0
144.857681	296.0
144.889587	352.0
144.916718	136.0
144.942291	68.0
144.989624	216.0
145.065155	280.0
145.088501	132.0
145.119675	196.0
145.160873	308.0
145.237183	144.0
145.258774	72.0
145.280365	152.0
145.316116	128.0
145.342743	160.0
145.38269	136.0
145.477936	196.0
145.508362	204.0
145.552902	116.0
145.609207	152.0
145.645233	188.0
145.693283	100.0
145.789398	208.0
145.822235	152.0
145.851639	200.0
145.866821	224.0
145.89035	148.0
145.952591	292.0
145.991837	192.0
146.033997	10392.0
146.093399	84.0
146.113388	140.0
146.165939	192.0
146.208054	332.0
146.255997	180.0
146.289688	284.0
146.311844	80.0
146.368103	160.0
146.427963	76.0
146.447708	172.0
146.472702	148.0
146.581131	164.0
146.610474	176.0
146.63414	128.0
146.679443	492.0
146.696808	44.0
146.734543	148.0
146.771561	148.0
146.79567	104.0
146.846054	184.0
146.88768	160.0
146.907867	108.0
146.94603	200.0
146.988647	160.0
147.037338	1256.0
147.070709	96.0
147.092438	172.0
147.109329	204.0
147.163742	208.0
147.210739	116.0
147.234894	136.0
147.268707	144.0
147.319427	44.0
147.341171	136.0
147.409607	124.0
147.426895	84.0
147.448547	184.0
147.465256	184.0
147.520004	124.0
147.539352	168.0
147.590408	136.0
147.635635	156.0
147.667206	196.0
147.694107	152.0
147.720673	208.0
147.754593	148.0
147.788467	52.0
147.832016	108.0
147.873169	164.0
147.982101	104.0
148.01358	116.0
148.045746	184.0
148.075012	304.0
148.168594	104.0
148.215897	140.0
148.260727	152.0
148.349014	152.0
148.366135	152.0
148.40863	232.0
148.505539	76.0
148.530685	220.0
148.563751	212.0
148.612411	148.0
148.685089	132.0
148.733627	184.0
148.779175	184.0
148.796738	60.0
148.828979	200.0
148.850159	104.0
148.904739	76.0
148.932327	144.0
148.998505	160.0
149.044601	128.0
149.0858	188.0
149.107666	192.0
149.163574	68.0
149.190323	156.0
149.219498	80.0
149.286362	160.0
149.309464	180.0
149.341492	164.0
149.419067	140.0
149.478271	164.0
149.513779	184.0
149.614243	188.0
149.636322	200.0
149.706146	156.0
149.732941	88.0
149.76828	152.0
149.788956	136.0
149.810883	32.0
149.837692	160.0
149.867691	140.0
149.884155	168.0
149.952835	280.0
149.996094	228.0
150.035095	120.0
150.112549	120.0
150.165024	140.0
150.247269	120.0
150.308441	184.0
150.337555	132.0
150.364243	192.0
150.388809	196.0
150.422409	204.0
150.449829	132.0
150.488892	168.0
150.508423	204.0
150.553864	112.0
150.594223	188.0
150.613403	148.0
150.630539	196.0
150.683258	244.0
150.714188	204.0
150.734436	92.0
150.762482	208.0
150.821136	192.0
150.906708	100.0
150.928711	88.0
150.981415	196.0
150.999634	160.0
151.078751	128.0
151.171631	156.0
151.189941	208.0
151.203415	232.0
151.241852	216.0
151.281021	44.0
151.329285	168.0
151.364273	172.0
151.381409	168.0
151.410797	140.0
151.436951	112.0
151.455902	164.0
151.492737	196.0
151.545319	188.0
151.574936	72.0
151.592087	172.0
151.631302	180.0
151.665619	136.0
151.724442	244.0
151.761383	124.0
151.824982	200.0
151.842148	164.0
151.901245	208.0
151.940536	108.0
151.977066	72.0
152.01387	88.0
152.046524	172.0
152.125687	144.0
152.146423	92.0
152.189072	184.0
152.232361	168.0
152.27356	160.0
152.310959	136.0
152.34256	212.0
152.426422	120.0
152.478027	52.0
152.500153	192.0
152.568237	120.0
152.59111	220.0
152.638504	72.0
152.708221	224.0
152.743576	156.0
152.766983	288.0
152.862442	220.0
152.931473	224.0
152.952744	212.0
152.977936	204.0
153.040756	236.0
153.092514	172.0
153.122635	276.0
153.179291	164.0
153.212067	156.0
153.219208	196.0
153.259735	116.0
153.29509	300.0
153.33873	136.0
153.363327	160.0
153.38382	156.0
153.505493	136.0
153.549866	232.0
153.568741	168.0
153.667938	132.0
153.684692	168.0
153.763657	152.0
153.80069	124.0
153.831177	148.0
153.907501	180.0
153.98587	52.0
154.016373	160.0
154.049728	184.0
154.089615	100.0
154.12941	188.0
154.253967	200.0
154.268417	104.0
154.376343	132.0
154.416168	116.0
154.462921	148.0
154.488373	192.0
154.509918	172.0
154.535385	164.0
154.660873	172.0
154.73941	132.0
154.77475	124.0
154.794556	108.0
154.819321	124.0
154.844879	88.0
154.871338	240.0
154.905579	224.0
154.98085	136.0
155.006775	48.0
155.059647	12940.0
155.105118	180.0
155.161026	156.0
155.208389	100.0
155.240616	508.0
155.269394	176.0
155.314438	152.0
155.347275	100.0
155.396896	112.0
155.432938	144.0
155.453964	52.0
155.506088	160.0
155.530899	184.0
155.56813	40.0
155.61557	148.0
155.638718	84.0
155.664963	108.0
155.685471	220.0
155.764313	112.0
155.789154	124.0
155.832443	216.0
155.878601	132.0
155.915878	176.0
155.946808	180.0
156.014862	176.0
156.058319	1124.0
156.113739	232.0
156.176941	188.0
156.199326	108.0
156.241623	224.0
156.26384	176.0
156.313782	168.0
156.364273	180.0
156.395905	124.0
156.421997	224.0
156.446381	156.0
156.475571	184.0
156.527863	224.0
156.567703	240.0
156.585129	96.0
156.605057	144.0
156.624252	176.0
156.739594	192.0
156.791931	144.0
156.814362	140.0
156.856735	128.0
156.88913	204.0
156.937469	140.0
157.036255	124.0
157.062424	2084.0
157.103607	84.0
157.148514	192.0
157.270798	192.0
157.323227	168.0
157.388321	156.0
157.423096	148.0
157.453064	156.0
157.473709	288.0
157.531052	200.0
157.549225	88.0
157.573776	184.0
157.605453	40.0
157.62294	100.0
157.642929	124.0
157.667923	244.0
157.767899	68.0
157.807907	80.0
157.840408	136.0
157.867584	148.0
157.902939	164.0
157.938126	296.0
158.000488	176.0
158.069427	1300.0
158.123108	56.0
158.14563	84.0
158.218216	152.0
158.258286	112.0
158.28212	92.0
158.320892	116.0
158.368469	164.0
158.401031	176.0
158.421082	120.0
158.453461	164.0
158.488724	140.0
158.531326	208.0
158.548859	424.0
158.621216	180.0
158.68483	216.0
158.711807	88.0
158.74942	36.0
158.787033	88.0
158.829681	84.0
158.914825	192.0
158.921371	160.0
158.989609	128.0
159.023865	276.0
159.052231	148.0
159.073929	260.0
159.097397	172.0
159.122559	192.0
159.168442	184.0
159.253876	88.0
159.294128	88.0
159.320221	136.0
159.375763	148.0
159.414673	192.0
159.43428	184.0
159.490067	252.0
159.552917	116.0
159.600693	64.0
159.638412	92.0
159.693741	152.0
159.709991	104.0
159.745789	156.0
159.796875	108.0
159.865295	168.0
159.890518	132.0
160.046051	136.0
160.138184	184.0
160.1819	216.0
160.249054	168.0
160.289185	200.0
160.314743	156.0
160.332108	188.0
160.358444	72.0
160.413895	112.0
160.444183	160.0
160.522308	132.0
160.540375	124.0
160.565186	48.0
160.653458	124.0
160.691315	148.0
160.784668	124.0
160.82605	184.0
160.976837	168.0
161.049774	160.0
161.070236	160.0
161.130615	280.0
161.166046	180.0
161.20137	172.0
161.246857	96.0
161.298294	240.0
161.352661	168.0
161.416473	164.0
161.457794	120.0
161.484528	104.0
161.580643	208.0
161.621124	144.0
161.63884	92.0
161.679337	172.0
161.805893	144.0
161.823624	84.0
161.85907	164.0
161.88678	140.0
162.010971	144.0
162.061707	152.0
162.117462	160.0
162.14534	128.0
162.171448	172.0
162.228973	32.0
162.27774	156.0
162.331131	208.0
162.376663	148.0
162.409271	208.0
162.505417	132.0
162.551102	100.0
162.568863	156.0
162.617081	220.0
162.672928	212.0
162.710358	196.0
162.740768	252.0
162.796387	172.0
162.865845	180.0
163.086975	172.0
163.117477	208.0
163.154419	292.0
163.272568	164.0
163.320892	132.0
163.389587	140.0
163.412476	52.0
163.529541	44.0
163.572815	128.0
163.631363	188.0
163.68483	128.0
163.733368	136.0
163.760056	320.0
163.779068	112.0
163.817978	184.0
163.847855	176.0
163.87738	156.0
163.923157	168.0
163.940948	148.0
163.999695	148.0
164.045471	3704.0
164.087418	168.0
164.118729	244.0
164.153717	176.0
164.176331	120.0
164.202164	148.0
164.220016	76.0
164.268494	144.0
164.316956	204.0
164.366211	80.0
164.457321	176.0
164.506531	144.0
164.561981	172.0
164.62265	184.0
164.663757	140.0
164.695068	128.0
164.712662	156.0
164.732635	132.0
164.756088	156.0
164.77652	144.0
164.796967	188.0
164.819962	168.0
164.881287	108.0
164.899185	156.0
164.917068	208.0
164.973312	168.0
165.009872	212.0
165.045822	316.0
165.085815	148.0
165.144577	156.0
165.151978	152.0
165.18045	160.0
165.207489	208.0
165.236984	164.0
165.267426	164.0
165.310852	128.0
165.359558	272.0
165.377472	160.0
165.423553	108.0
165.441467	124.0
165.469635	148.0
165.625854	132.0
165.71843	116.0
165.751389	216.0
165.77179	156.0
165.838516	164.0
165.930801	168.0
165.956451	216.0
165.976959	112.0
165.994904	52.0
166.039383	288.0
166.074417	164.0
166.121384	180.0
166.15239	100.0
166.218079	148.0
166.287369	136.0
166.323303	192.0
166.348862	176.0
166.41217	188.0
166.436264	188.0
166.461533	148.0
166.527649	164.0
166.557434	140.0
166.610916	172.0
166.646881	152.0
166.670013	92.0
166.688004	112.0
166.734253	84.0
166.768539	176.0
166.806229	168.0
166.852509	48.0
166.976791	160.0
167.01709	124.0
167.043152	412.0
167.101974	152.0
167.166977	92.0
167.192047	140.0
167.246094	216.0
167.310181	232.0
167.34906	144.0
167.395416	68.0
167.413437	148.0
167.440247	156.0
167.48555	116.0
167.506165	112.0
167.5242	100.0
167.570572	160.0
167.616943	148.0
167.689102	136.0
167.720032	164.0
167.766434	148.0
167.801331	240.0
167.838776	204.0
167.898895	152.0
167.905121	56.0
167.926407	312.0
168.066986	668.0
168.087555	196.0
168.111633	188.0
168.143616	176.0
168.197235	204.0
168.215317	148.0
168.270691	200.0
168.314316	80.0
168.359894	48.0
168.445129	120.0
168.560364	180.0
168.601227	68.0
168.618256	160.0
168.648453	204.0
168.669952	208.0
168.706146	116.0
168.75267	136.0
168.776749	132.0
168.885605	324.0
168.933716	172.0
168.993225	64.0
169.027771	216.0
169.066574	596.0
169.158554	136.0
169.187332	180.0
169.226654	84.0
169.244293	200.0
169.277954	36.0
169.316803	372.0
169.345291	68.0
169.363419	152.0
169.386734	148.0
169.454086	200.0
169.474823	168.0
169.537003	140.0
169.617828	132.0
169.661423	108.0
169.702911	192.0
169.720016	120.0
169.762299	248.0
169.798019	224.0
169.835175	136.0
169.852234	148.0
169.89743	128.0
169.921951	284.0
169.963608	196.0
169.983047	144.0
170.011597	208.0
170.071121	2732.0
170.143845	160.0
170.18988	188.0
170.22966	56.0
170.279007	464.0
170.335495	64.0
170.3703	216.0
170.496048	176.0
170.520569	316.0
170.640213	124.0
170.748535	236.0
170.762848	196.0
170.813797	176.0
170.873474	168.0
170.956284	168.0
170.990387	208.0
171.073776	232.0
171.120972	128.0
171.23613	112.0
171.284729	188.0
171.334351	124.0
171.369781	196.0
171.408066	136.0
171.428055	220.0
171.45726	100.0
171.513504	88.0
171.567062	104.0
171.604675	196.0
171.621811	188.0
171.671356	112.0
171.705261	164.0
171.762634	124.0
171.851334	180.0
171.913971	44.0
171.962814	156.0
171.992264	116.0
172.013153	164.0
172.050049	336.0
172.078323	216.0
172.104523	196.0
172.152512	116.0
172.162643	140.0
172.186829	128.0
172.236572	156.0
172.304764	192.0
172.33699	44.0
172.364258	360.0
172.424652	184.0
172.446747	96.0
172.478119	192.0
172.499023	152.0
172.535629	180.0
172.56691	124.0
172.622513	156.0
172.653778	152.0
172.686737	152.0
172.773621	52.0
172.824097	96.0
172.837585	176.0
172.846298	180.0
172.875656	216.0
172.904449	224.0
172.949921	140.0
173.003922	144.0
173.065186	168.0
173.09436	176.0
173.136307	136.0
173.182678	120.0
173.231567	116.0
173.248962	244.0
173.302429	184.0
173.423035	108.0
173.452484	172.0
173.485947	224.0
173.542877	140.0
173.575089	92.0
173.613449	160.0
173.655792	88.0
173.683334	192.0
173.74295	216.0
173.885178	200.0
173.924026	68.0
173.971283	164.0
173.994904	144.0
174.063232	192.0
174.108704	188.0
174.144577	160.0
174.168228	80.0
174.239151	300.0
174.257538	136.0
174.289078	140.0
174.33374	168.0
174.367905	244.0
174.486206	176.0
174.530899	124.0
174.576309	176.0
174.62294	200.0
174.680817	160.0
174.707123	60.0
174.727051	104.0
174.73764	60.0
174.748077	140.0
174.914352	160.0
174.94133	152.0
174.975555	152.0
175.027344	120.0
175.036041	128.0
175.045914	228.0
175.171616	108.0
175.204681	144.0
175.225769	164.0
175.345535	256.0
175.381241	148.0
175.423416	200.0
175.452423	128.0
175.51944	160.0
175.541306	192.0
175.661346	180.0
175.697693	128.0
175.745178	144.0
175.766296	120.0
175.791626	164.0
175.840179	60.0
175.882416	180.0
176.001221	132.0
176.024979	116.0
176.048752	180.0
176.077713	204.0
176.122696	132.0
176.14119	188.0
176.165634	156.0
176.238937	180.0
176.270645	144.0
176.289688	204.0
176.34201	124.0
176.362717	172.0
176.447617	176.0
176.479477	248.0
176.525299	72.0
176.574677	200.0
176.60112	196.0
176.646088	124.0
176.690826	128.0
176.796906	168.0
176.828659	168.0
176.901184	240.0
176.929245	96.0
176.990143	136.0
177.019562	148.0
177.097702	104.0
177.125046	124.0
177.171799	208.0
177.255035	192.0
177.28949	72.0
177.395508	124.0
177.420456	196.0
177.569458	160.0
177.631699	172.0
177.72438	304.0
177.756226	124.0
177.798874	112.0
177.857117	152.0
177.922699	172.0
177.9543	148.0
177.975891	152.0
178.000443	252.0
178.023468	220.0
178.042923	92.0
178.091003	196.0
178.122604	160.0
178.170319	200.0
178.231537	140.0
178.282028	260.0
178.372391	144.0
178.477829	232.0
178.538437	160.0
178.561172	136.0
178.609055	196.0
178.683548	160.0
178.739517	108.0
178.861847	228.0
178.889206	188.0
178.955017	152.0
178.973663	88.0
179.007095	160.0
179.061157	356.0
179.120132	168.0
179.151062	228.0
179.224045	124.0
179.291351	108.0
179.364365	92.0
179.39537	184.0
179.474258	156.0
179.5466	52.0
179.618622	164.0
179.65596	120.0
179.677124	120.0
179.720001	148.0
179.749344	96.0
179.818665	148.0
179.840088	152.0
179.895828	104.0
179.95462	204.0
179.984253	180.0
180.029648	136.0
180.054962	324.0
180.095535	172.0
180.160522	176.0
180.277313	108.0
180.320847	136.0
180.414413	140.0
180.433121	188.0
180.513336	168.0
180.559677	180.0
180.631027	100.0
180.679169	156.0
180.703247	140.0
180.739502	320.0
180.796906	132.0
180.820999	108.0
180.903976	140.0
180.926468	208.0
180.985794	328.0
181.013245	328.0
181.063049	9388.0
181.108719	148.0
181.145554	132.0
181.174454	112.0
181.208908	256.0
181.246796	92.0
181.27948	180.0
181.287674	172.0
181.323013	132.0
181.371506	148.0
181.417114	124.0
181.487366	240.0
181.511963	152.0
181.554047	208.0
181.591385	188.0
181.6409	140.0
181.655777	96.0
181.671204	232.0
181.69632	140.0
181.75943	224.0
181.787552	164.0
181.798691	104.0
181.842697	156.0
181.889755	180.0
181.912735	172.0
181.956238	244.0
181.9841	296.0
182.017776	248.0
182.071091	101100.0
182.140182	84.0
182.16568	144.0
182.210037	128.0
182.237839	144.0
182.275284	140.0
182.297104	148.0
182.324722	300.0
182.359863	228.0
182.397293	100.0
182.401962	124.0
182.414505	308.0
182.434982	56.0
182.469086	176.0
182.493805	140.0
182.512939	932.0
182.549957	144.0
182.579895	208.0
182.621323	60.0
182.64241	144.0
182.694336	192.0
182.725204	188.0
182.756989	56.0
182.775421	220.0
182.840485	140.0
182.884827	60.0
182.894531	52.0
182.969635	248.0
182.992096	148.0
183.027161	220.0
183.073257	11448.0
183.147934	136.0
183.173553	188.0
183.242233	160.0
183.275513	48.0
183.317795	156.0
183.336212	68.0
183.387344	180.0
183.403137	360.0
183.445297	36.0
183.488434	48.0
183.51001	40.0
183.553146	220.0
183.600983	152.0
183.641388	156.0
183.663727	204.0
183.701202	156.0
183.72702	60.0
183.751404	56.0
183.774139	172.0
183.825958	268.0
183.879578	48.0
183.922516	68.0
183.982605	168.0
184.01828	104.0
184.053299	252.0
184.079758	692.0
184.114456	36.0
184.136063	104.0
184.174561	192.0
184.207581	92.0
184.221298	128.0
184.246872	112.0
184.273804	380.0
184.345673	252.0
184.408951	236.0
184.429855	144.0
184.474716	216.0
184.503036	260.0
184.540298	116.0
184.590988	96.0
184.616287	184.0
184.645813	92.0
184.656799	140.0
184.678848	384.0
184.706314	144.0
184.776718	172.0
184.800461	160.0
184.828125	92.0
184.875122	152.0
184.898483	404.0
185.020294	120.0
185.056961	1520.0
185.083328	136.0
185.10965	84.0
185.131317	104.0
185.17128	180.0
185.209229	208.0
185.250488	204.0
185.320938	64.0
185.360428	160.0
185.40564	168.0
185.44017	52.0
185.502518	96.0
185.526917	76.0
185.579926	188.0
185.605423	148.0
185.64621	200.0
185.684769	204.0
185.7547	168.0
185.79068	164.0
185.8246	156.0
185.888229	152.0
185.913406	180.0
185.941925	152.0
185.971786	248.0
185.997986	220.0
186.021271	108.0
186.065186	4176.0
186.131958	196.0
186.189438	48.0
186.220169	100.0
186.242096	108.0
186.294922	144.0
186.332413	40.0
186.348602	132.0
186.365936	288.0
186.419907	76.0
186.491089	84.0
186.527161	168.0
186.569397	128.0
186.58844	112.0
186.606781	96.0
186.652374	220.0
186.721558	112.0
186.743439	80.0
186.789673	172.0
186.890335	48.0
186.931152	180.0
186.97197	184.0
187.068161	1064.0
187.095062	180.0
187.151642	140.0
187.203384	124.0
187.26329	128.0
187.28508	108.0
187.334122	196.0
187.366806	132.0
187.489426	152.0
187.519409	64.0
187.568466	160.0
187.596191	188.0
187.622025	112.0
187.627228	72.0
187.640854	152.0
187.672852	152.0
187.721146	120.0
187.758041	148.0
187.805695	224.0
187.830246	168.0
187.890259	104.0
187.912094	156.0
187.983032	44.0
188.03215	160.0
188.067902	236.0
188.088638	156.0
188.127686	52.0
188.193222	160.0
188.217789	172.0
188.247025	172.0
188.277527	208.0
188.35199	144.0
188.398056	232.0
188.437164	140.0
188.482758	100.0
188.521011	168.0
188.583878	96.0
188.638809	164.0
188.698685	160.0
188.720566	128.0
188.75589	148.0
188.76358	136.0
188.849091	112.0
188.890121	68.0
188.909271	44.0
188.963989	120.0
189.036697	216.0
189.092789	168.0
189.149261	188.0
189.1884	220.0
189.22673	96.0
189.253387	60.0
189.339005	196.0
189.37735	52.0
189.427643	428.0
189.467743	72.0
189.498856	184.0
189.534256	264.0
189.571869	148.0
189.63559	60.0
189.701172	112.0
189.73085	56.0
189.752777	164.0
189.835037	172.0
189.86795	152.0
189.906342	180.0
189.96817	188.0
190.005096	136.0
190.028885	108.0
190.048065	164.0
190.093811	228.0
190.164261	228.0
190.192886	144.0
190.234879	148.0
190.26857	144.0
190.287796	128.0
190.32103	176.0
190.370804	132.0
190.409363	152.0
190.503525	116.0
190.614655	48.0
190.6828	176.0
190.727341	132.0
190.754822	184.0
190.785065	84.0
190.840744	96.0
190.862045	108.0
190.907883	60.0
190.9543	192.0
191.003784	112.0
191.061218	116.0
191.120605	136.0
191.170135	152.0
191.266464	316.0
191.293991	108.0
191.360077	132.0
191.381149	176.0
191.426163	384.0
191.45369	40.0
191.508026	132.0
191.558365	188.0
191.593018	180.0
191.618286	116.0
191.663055	160.0
191.729874	144.0
191.787064	180.0
191.839447	164.0
191.869766	136.0
191.894577	152.0
191.958008	152.0
191.991104	76.0
192.116028	124.0
192.170532	168.0
192.239563	120.0
192.311142	224.0
192.349777	168.0
192.393951	136.0
192.436478	188.0
192.495193	156.0
192.532013	172.0
192.576202	228.0
192.614868	100.0
192.661835	204.0
192.683945	64.0
192.725388	268.0
192.74472	80.0
192.795975	184.0
192.819336	176.0
192.848114	120.0
192.871857	148.0
192.910553	56.0
192.938644	124.0
192.961105	184.0
192.9935	112.0
193.037613	168.0
193.058044	348.0
193.087311	108.0
193.142838	124.0
193.162201	132.0
193.266327	164.0
193.313248	176.0
193.380798	108.0
193.410202	128.0
193.438919	220.0
193.483002	200.0
193.513672	164.0
193.557968	68.0
193.582901	180.0
193.632751	164.0
193.685379	96.0
193.740021	204.0
193.82547	120.0
193.859924	288.0
193.897522	184.0
194.004059	200.0
194.068344	1216.0
194.151016	140.0
194.202789	96.0
194.245316	176.0
194.314667	124.0
194.37294	176.0
194.411789	124.0
194.464523	192.0
194.486725	112.0
194.528366	84.0
194.548462	184.0
194.598984	168.0
194.658859	124.0
194.702011	176.0
194.720367	188.0
194.798492	204.0
194.818512	212.0
194.9422	68.0
194.989456	208.0
195.008911	132.0
195.028366	128.0
195.079117	9060.0
195.142181	172.0
195.186417	164.0
195.224838	60.0
195.256363	140.0
195.337112	120.0
195.364838	80.0
195.41864	260.0
195.461288	180.0
195.478638	248.0
195.529007	36.0
195.591721	128.0
195.612503	184.0
195.654266	140.0
195.793869	120.0
195.812988	152.0
195.888199	112.0
195.919434	168.0
195.941132	80.0
195.977524	252.0
196.013565	180.0
196.041336	204.0
196.085663	26476.0
196.12265	360.0
196.173874	88.0
196.219833	80.0
196.264267	64.0
196.32074	176.0
196.352325	164.0
196.390152	332.0
196.431778	188.0
196.456497	116.0
196.488876	112.0
196.51088	80.0
196.557327	40.0
196.619797	240.0
196.656815	172.0
196.685715	212.0
196.772568	288.0
196.822327	116.0
196.860153	92.0
196.914673	112.0
196.950989	60.0
196.978912	36.0
197.025513	324.0
197.057968	5024.0
197.088058	2728.0
197.14006	160.0
197.167511	104.0
197.216751	68.0
197.270706	48.0
197.347824	136.0
197.395081	184.0
197.402466	272.0
197.451065	200.0
197.475159	112.0
197.50972	148.0
197.600433	200.0
197.634552	144.0
197.716278	92.0
197.778641	32.0
197.897842	108.0
197.908615	132.0
198.006134	64.0
198.023788	196.0
198.065002	11632.0
198.160202	172.0
198.200333	56.0
198.218353	132.0
198.266907	172.0
198.286133	172.0
198.313629	112.0
198.42543	164.0
198.463852	144.0
198.487457	168.0
198.521103	160.0
198.570587	192.0
198.734283	68.0
198.762344	132.0
198.836243	180.0
198.86058	160.0
198.902679	52.0
198.936356	188.0
198.988708	168.0
199.069916	1504.0
199.138535	232.0
199.161011	128.0
199.228424	176.0
199.2509	60.0
199.338013	136.0
199.380234	140.0
199.467285	136.0
199.513535	188.0
199.53476	116.0
199.588181	124.0
199.621933	156.0
199.648849	188.0
199.713333	168.0
199.861023	144.0
199.889175	148.0
199.917679	216.0
199.980499	212.0
200.027893	128.0
200.055222	140.0
200.082947	860.0
200.14624	148.0
200.201645	104.0
200.236618	144.0
200.283325	76.0
200.310684	188.0
200.381332	172.0
200.406113	208.0
200.449539	164.0
200.508102	144.0
200.547852	100.0
200.559204	88.0
200.564514	116.0
200.592896	176.0
200.62384	100.0
200.66095	76.0
200.695221	160.0
200.784912	204.0
200.840057	172.0
200.872452	248.0
200.97966	88.0
201.042419	184.0
201.082748	108.0
201.153244	224.0
201.209167	128.0
201.244995	112.0
201.277069	156.0
201.309937	164.0
201.337234	60.0
201.363602	184.0
201.391846	116.0
201.50766	56.0
201.531555	140.0
201.583954	196.0
201.671936	124.0
201.787476	168.0
201.925934	228.0
201.953033	224.0
202.001373	132.0
202.043152	7988.0
202.099792	76.0
202.126892	52.0
202.189148	56.0
202.228775	132.0
202.254242	96.0
202.288223	168.0
202.375977	140.0
202.418716	176.0
202.475098	236.0
202.561691	164.0
202.647888	176.0
202.673111	40.0
202.695663	140.0
202.747787	204.0
202.806595	32.0
202.828018	300.0
202.866119	168.0
202.931778	100.0
202.993713	128.0
203.043365	1452.0
203.112823	180.0
203.165436	228.0
203.20845	192.0
203.263199	232.0
203.371567	236.0
203.416458	220.0
203.44899	208.0
203.569778	136.0
203.652145	140.0
203.672028	176.0
203.768616	144.0
203.802704	176.0
203.839645	192.0
203.870758	164.0
203.939117	120.0
203.964188	224.0
204.045578	244.0
204.098312	112.0
204.143814	160.0
204.223587	164.0
204.257584	128.0
204.392227	100.0
204.415955	144.0
204.448212	216.0
204.490265	108.0
204.544983	96.0
204.614731	160.0
204.646317	104.0
204.738464	160.0
204.784164	76.0
204.804108	112.0
204.843979	72.0
204.906662	132.0
205.020645	176.0
205.046295	148.0
205.091888	64.0
205.128952	96.0
205.157455	40.0
205.28006	120.0
205.357071	132.0
205.379883	144.0
205.417419	124.0
205.463806	152.0
205.493988	144.0
205.549896	144.0
205.580261	208.0
205.64238	236.0
205.719452	316.0
205.756577	52.0
205.780533	184.0
205.855972	136.0
205.927277	184.0
205.971954	208.0
206.013306	152.0
206.040024	348.0
206.070465	2732.0
206.109726	44.0
206.163788	164.0
206.213623	68.0
206.247925	148.0
206.302231	96.0
206.340088	280.0
206.365128	256.0
206.388	216.0
206.406967	156.0
206.473801	80.0
206.568192	92.0
206.590973	120.0
206.651978	140.0
206.67691	96.0
206.724945	192.0
206.825729	92.0
206.865799	196.0
206.917328	192.0
206.944107	124.0
207.022903	152.0
207.075439	612.0
207.117798	152.0
207.17157	176.0
207.229523	112.0
207.292557	236.0
207.321213	76.0
207.344147	140.0
207.369934	148.0
207.455933	176.0
207.491516	192.0
207.526489	244.0
207.590683	72.0
207.656647	112.0
207.688202	124.0
207.731369	172.0
207.754181	172.0
207.785736	220.0
207.83432	176.0
207.883301	300.0
207.97374	148.0
208.046906	104.0
208.07724	128.0
208.154358	216.0
208.21344	152.0
208.24791	120.0
208.30249	164.0
208.345978	116.0
208.472	156.0
208.493927	204.0
208.573044	184.0
208.634918	136.0
208.673218	132.0
208.768112	160.0
208.812439	260.0
208.840012	132.0
208.893112	148.0
208.925156	180.0
208.967026	132.0
209.050766	172.0
209.120178	176.0
209.135559	112.0
209.139893	144.0
209.197784	156.0
209.24971	108.0
209.284042	260.0
209.326385	64.0
209.346542	88.0
209.38974	140.0
209.431427	220.0
209.461761	212.0
209.522247	112.0
209.550766	100.0
209.598328	128.0
209.622711	88.0
209.653473	104.0
209.690857	196.0
209.726852	148.0
209.752792	116.0
209.806747	232.0
209.834534	136.0
209.844208	96.0
209.936157	156.0
209.986115	296.0
210.066299	132488.0
210.133972	192.0
210.156799	132.0
210.177216	288.0
210.224319	132.0
210.257431	188.0
210.283035	224.0
210.318161	112.0
210.345291	80.0
210.406311	60.0
210.432983	144.0
210.450699	92.0
210.481873	228.0
210.508514	180.0
210.540298	1036.0
210.58786	168.0
210.634277	180.0
210.692032	172.0
210.70282	80.0
210.714722	188.0
210.736481	168.0
210.761292	128.0
210.790161	216.0
210.807907	212.0
210.864365	148.0
210.896729	252.0
210.930908	192.0
210.990585	140.0
211.002335	72.0
211.006897	136.0
211.067978	17020.0
211.114075	108.0
211.133087	128.0
211.163879	40.0
211.207458	120.0
211.261124	128.0
211.314667	156.0
211.334229	212.0
211.400238	200.0
211.472626	88.0
211.532227	52.0
211.565002	168.0
211.608017	44.0
211.639343	92.0
211.696518	232.0
211.756989	144.0
211.804794	156.0
211.830795	116.0
211.853668	72.0
211.946381	112.0
211.991974	120.0
212.025223	568.0
212.074051	1680.0
212.124603	140.0
212.157394	132.0
212.189484	124.0
212.253922	264.0
212.277695	204.0
212.313309	132.0
212.324692	60.0
212.336487	92.0
212.383926	348.0
212.430115	52.0
212.438263	128.0
212.510345	136.0
212.532318	192.0
212.560898	104.0
212.605423	244.0
212.64325	176.0
212.684235	192.0
212.71933	144.0
212.742599	232.0
212.781723	124.0
212.849899	124.0
212.88916	168.0
212.938477	244.0
213.029449	312.0
213.085571	524.0
213.159317	148.0
213.192184	124.0
213.226166	160.0
213.246506	116.0
213.281693	184.0
213.310455	184.0
213.338409	136.0
213.425491	132.0
213.45401	112.0
213.541214	188.0
213.572159	164.0
213.617065	128.0
213.673965	160.0
213.699646	92.0
213.709641	124.0
213.732162	252.0
213.781631	88.0
213.818222	140.0
213.851486	124.0
213.904953	140.0
213.949265	160.0
213.975693	180.0
214.042511	7960.0
214.098145	144.0
214.118088	56.0
214.16098	136.0
214.183426	48.0
214.214478	200.0
214.266693	96.0
214.286453	184.0
214.334717	60.0
214.356689	68.0
214.389221	152.0
214.445663	156.0
214.466064	60.0
214.48938	140.0
214.517624	220.0
214.556427	152.0
214.611832	80.0
214.652649	276.0
214.709656	204.0
214.720459	112.0
214.731384	172.0
214.796555	188.0
214.85318	48.0
214.880157	92.0
214.929764	144.0
214.964783	128.0
215.047211	1252.0
215.119476	172.0
215.187592	36.0
215.231613	64.0
215.285904	36.0
215.320953	40.0
215.462418	168.0
215.497971	60.0
215.521713	132.0
215.640549	92.0
215.662796	144.0
215.753937	180.0
215.788498	136.0
215.825439	176.0
215.940552	32.0
215.995667	136.0
216.038956	316.0
216.104385	76.0
216.133636	132.0
216.162903	124.0
216.192673	140.0
216.248688	128.0
216.269562	244.0
216.332657	140.0
216.354523	128.0
216.382431	44.0
216.406601	360.0
216.451187	136.0
216.513855	100.0
216.526779	148.0
216.539261	144.0
216.549896	84.0
216.648941	128.0
216.707001	88.0
216.783722	60.0
216.815231	208.0
216.866882	168.0
216.906815	156.0
216.968384	140.0
216.988907	152.0
217.029709	280.0
217.06221	184.0
217.091537	148.0
217.120865	164.0
217.191254	96.0
217.252853	232.0
217.379028	136.0
217.411301	152.0
217.455322	168.0
217.478806	152.0
217.525772	168.0
217.565292	208.0
217.77243	72.0
217.807678	172.0
217.86348	136.0
218.016281	176.0
218.089752	284.0
218.141144	104.0
218.202026	124.0
218.234451	200.0
218.29686	152.0
218.330841	108.0
218.36319	104.0
218.410263	120.0
218.445557	132.0
218.469086	204.0
218.575012	144.0
218.610321	112.0
218.702072	116.0
218.781036	144.0
218.82225	168.0
218.85759	72.0
218.905197	168.0
218.940048	124.0
219.005676	184.0
219.020355	208.0
219.15213	188.0
219.18161	144.0
219.202225	112.0
219.231873	204.0
219.340759	44.0
219.429474	168.0
219.469833	116.0
219.600235	188.0
219.691666	88.0
219.731201	120.0
219.762482	124.0
219.80864	384.0
219.836258	124.0
219.870712	136.0
219.918884	36.0
219.989853	200.0
220.031067	64.0
220.057632	148.0
220.077087	136.0
220.119644	148.0
220.16098	156.0
220.181656	140.0
220.279129	224.0
220.314575	188.0
220.55722	148.0
220.58638	288.0
220.616028	240.0
220.678101	168.0
220.762772	120.0
220.770844	188.0
220.873291	128.0
220.923584	128.0
220.961365	156.0
221.044891	92.0
221.10408	112.0
221.124802	152.0
221.154388	60.0
221.195831	44.0
221.248093	128.0
221.332016	172.0
221.352753	128.0
221.39711	176.0
221.403305	172.0
221.443207	96.0
221.471222	156.0
221.574905	96.0
221.610458	168.0
221.669708	84.0
221.762115	220.0
221.811981	100.0
221.877197	416.0
221.915741	144.0
221.944946	164.0
222.065277	368.0
222.128555	140.0
222.181396	224.0
222.254272	148.0
222.275696	124.0
222.316193	188.0
222.366653	176.0
222.468933	96.0
222.474106	136.0
222.541794	84.0
222.562576	124.0
222.663544	312.0
222.719971	156.0
222.74968	132.0
222.832367	148.0
222.878723	120.0
222.960648	140.0
222.999283	128.0
223.023056	136.0
223.067307	140.0
223.156357	424.0
223.206284	140.0
223.305786	168.0
223.335266	56.0
223.357819	296.0
223.400711	120.0
223.434479	216.0
223.484512	120.0
223.540543	92.0
223.587387	108.0
223.614944	180.0
223.662582	160.0
223.698303	144.0
223.758804	144.0
223.780121	116.0
223.823349	144.0
223.853119	32.0
223.924591	144.0
223.963318	100.0
223.993103	104.0
224.015961	184.0
224.042725	340.0
224.08017	8844.0
224.139893	260.0
224.176285	208.0
224.22551	392.0
224.259613	56.0
224.317917	140.0
224.358047	156.0
224.404724	136.0
224.440155	200.0
224.467728	128.0
224.506134	188.0
224.534149	176.0
224.552673	104.0
224.580078	304.0
224.627548	96.0
224.64061	132.0
224.677261	208.0
224.729385	216.0
224.764114	176.0
224.771729	224.0
224.807709	160.0
224.841766	248.0
224.878906	272.0
224.904831	116.0
224.927643	312.0
224.954315	732.0
224.983688	304.0
225.012878	472.0
225.048126	796.0
225.089386	157360.0
225.1698	200.0
225.214142	156.0
225.27301	256.0
225.305405	268.0
225.361679	316.0
225.381592	204.0
225.405426	260.0
225.436508	144.0
225.45694	100.0
225.479767	60.0
225.515152	224.0
225.54129	76.0
225.581604	1268.0
225.613434	208.0
225.635559	132.0
225.659409	164.0
225.664902	108.0
225.732162	124.0
225.799637	140.0
225.821793	88.0
225.873703	144.0
225.923386	184.0
225.954895	56.0
225.983139	100.0
226.005341	64.0
226.048904	420.0
226.091812	27764.0
226.184402	144.0
226.189285	60.0
226.22142	60.0
226.269058	180.0
226.294922	48.0
226.343399	140.0
226.364532	220.0
226.409454	180.0
226.475525	132.0
226.500381	124.0
226.540207	56.0
226.579941	156.0
226.600586	212.0
226.644012	256.0
226.666901	124.0
226.709045	56.0
226.730026	244.0
226.755173	156.0
226.783203	312.0
226.83493	64.0
226.867157	96.0
226.888565	136.0
226.929138	56.0
226.970093	188.0
227.056793	956.0
227.091858	2004.0
227.138062	92.0
227.169724	56.0
227.211594	80.0
227.271545	172.0
227.328827	196.0
227.348938	80.0
227.403168	136.0
227.445221	112.0
227.478607	228.0
227.536041	136.0
227.584229	244.0
227.64917	156.0
227.6884	352.0
227.734741	284.0
227.748001	124.0
227.7603	172.0
227.786011	148.0
227.797134	136.0
227.808853	88.0
227.820801	276.0
227.841034	140.0
227.869888	152.0
227.918381	140.0
227.971207	124.0
227.976913	100.0
228.015839	236.0
228.075897	6732.0
228.140503	164.0
228.182877	140.0
228.215942	116.0
228.245224	244.0
228.297134	40.0
228.322327	204.0
228.36203	132.0
228.405411	76.0
228.440811	172.0
228.480621	216.0
228.512192	168.0
228.588943	128.0
228.631546	116.0
228.673203	60.0
228.706894	160.0
228.733902	120.0
228.769531	72.0
228.790604	32.0
228.818436	164.0
228.865875	120.0
228.895981	128.0
228.937164	184.0
228.962234	136.0
229.041763	860.0
229.076309	1140.0
229.13208	104.0
229.16188	220.0
229.185242	92.0
229.21228	56.0
229.242416	124.0
229.274872	104.0
229.329819	68.0
229.353928	48.0
229.384323	96.0
229.41568	84.0
229.471497	52.0
229.492599	148.0
229.546036	184.0
229.57402	132.0
229.643387	76.0
229.69165	168.0
229.712769	248.0
229.737061	164.0
229.810165	92.0
229.838837	176.0
229.947388	180.0
230.037857	85184.0
230.117584	188.0
230.1548	144.0
230.189987	140.0
230.216507	152.0
230.245239	260.0
230.306229	152.0
230.341843	108.0
230.39888	232.0
230.421143	144.0
230.447205	44.0
230.454025	68.0
230.479996	192.0
230.535919	100.0
230.575073	256.0
230.601517	144.0
230.682114	212.0
230.721924	204.0
230.797012	76.0
230.832489	272.0
230.888504	148.0
230.910019	68.0
230.947617	60.0
230.981766	112.0
231.041016	8748.0
231.09343	316.0
231.129745	112.0
231.160004	60.0
231.190262	180.0
231.259872	124.0
231.29216	48.0
231.36348	124.0
231.40274	164.0
231.48349	260.0
231.514191	228.0
231.544479	60.0
231.565674	60.0
231.589905	32.0
231.63736	228.0
231.67775	320.0
231.756531	164.0
231.805008	64.0
231.841217	80.0
231.886841	140.0
231.944427	60.0
232.034195	2332.0
232.144409	96.0
232.208221	60.0
232.234802	144.0
232.274948	68.0
232.321701	120.0
232.372025	120.0
232.431274	128.0
232.452225	188.0
232.472809	132.0
232.523758	116.0
232.562851	100.0
232.568909	160.0
232.623306	120.0
232.632141	96.0
232.644516	188.0
232.649582	168.0
232.695877	120.0
232.703644	108.0
232.725159	156.0
232.780731	148.0
232.818237	104.0
232.8638	196.0
232.929916	172.0
232.97316	100.0
233.032425	472.0
233.103806	136.0
233.158508	144.0
233.19194	92.0
233.213211	56.0
233.24057	172.0
233.365219	176.0
233.480774	80.0
233.541595	40.0
233.630966	168.0
233.672409	40.0
233.781952	228.0
233.847778	76.0
233.876297	108.0
233.945694	156.0
234.040695	136.0
234.112656	108.0
234.161591	172.0
234.214294	172.0
234.446167	76.0
234.48851	76.0
234.53215	164.0
234.592148	72.0
234.688049	132.0
234.727249	180.0
234.759842	28.0
234.790344	316.0
234.842194	148.0
234.900146	156.0
234.936752	188.0
235.025238	100.0
235.058792	124.0
235.084549	164.0
235.119827	60.0
235.190033	96.0
235.254135	176.0
235.381577	124.0
235.510635	100.0
235.583954	140.0
235.62291	112.0
235.721451	88.0
235.77034	60.0
235.852859	152.0
235.892609	148.0
235.987061	116.0
236.006042	116.0
236.043259	160.0
236.0867	100.0
236.167801	224.0
236.297668	116.0
236.311356	52.0
236.320663	164.0
236.349579	212.0
236.513565	140.0
236.587036	140.0
236.636017	32.0
236.660522	88.0
236.700317	136.0
236.721756	64.0
236.7677	96.0
236.859589	128.0
236.945358	172.0
236.995651	144.0
237.049789	196.0
237.086319	100.0
237.126633	52.0
237.190521	76.0
237.353012	100.0
237.417404	120.0
237.504639	172.0
237.529633	144.0
237.68277	88.0
237.720047	172.0
237.835312	136.0
237.883789	132.0
237.905289	80.0
237.960541	44.0
238.021591	168.0
238.039673	176.0
238.101044	196.0
238.176666	128.0
238.249237	200.0
238.350632	100.0
238.495071	152.0
238.536911	144.0
238.605743	152.0
238.658005	228.0
238.746445	164.0
238.947128	220.0
239.039948	144.0
239.063431	136.0
239.187164	188.0
239.211792	192.0
239.25798	212.0
239.334122	164.0
239.402695	208.0
239.448883	96.0
239.513565	80.0
239.559784	220.0
239.64296	116.0
239.701508	160.0
239.732849	208.0
239.794418	164.0
239.821701	296.0
239.864853	96.0
239.898758	148.0
239.923431	160.0
240.024887	212.0
240.072861	500.0
240.139282	64.0
240.197891	64.0
240.250336	128.0
240.2966	116.0
240.373749	48.0
240.43663	116.0
240.478668	100.0
240.526581	184.0
240.551086	140.0
240.589798	220.0
240.616562	112.0
240.861557	208.0
240.942688	196.0
240.966583	196.0
241.026764	152.0
241.036575	80.0
241.082733	8604.0
241.15509	48.0
241.201462	88.0
241.241653	108.0
241.294205	172.0
241.318939	76.0
241.340576	52.0
241.383865	44.0
241.479736	196.0
241.699387	192.0
241.783813	216.0
241.865692	120.0
241.934616	40.0
241.984146	108.0
242.055573	1120.0
242.085464	1560.0
242.189362	144.0
242.258728	176.0
242.364166	232.0
242.392731	196.0
242.417801	156.0
242.46875	100.0
242.544876	152.0
242.721588	204.0
242.802231	140.0
242.900238	240.0
242.99144	120.0
243.043793	1264.0
243.092285	408.0
243.154068	196.0
243.211777	100.0
243.249023	264.0
243.354584	136.0
243.437164	404.0
243.461685	92.0
243.533508	128.0
243.612366	64.0
243.735077	52.0
243.813812	132.0
243.932434	96.0
243.988403	144.0
244.053085	1372.0
244.094116	320.0
244.156311	168.0
244.193634	68.0
244.24028	32.0
244.308105	140.0
244.520309	56.0
244.607468	148.0
244.651047	156.0
244.710205	144.0
244.772476	108.0
244.803619	44.0
244.839493	196.0
244.865906	64.0
245.015427	176.0
245.053391	520.0
245.143173	60.0
245.205505	96.0
245.242905	52.0
245.294754	240.0
245.358978	220.0
245.445557	148.0
245.534164	116.0
245.617081	116.0
245.737	72.0
245.788681	136.0
245.924057	84.0
245.960327	228.0
245.985306	124.0
246.049896	144.0
246.313187	180.0
246.363159	136.0
246.4319	44.0
246.481888	184.0
246.57251	72.0
246.606903	160.0
246.65065	196.0
246.688171	140.0
246.831985	68.0
246.910172	148.0
247.013397	120.0
247.047806	116.0
247.335693	124.0
247.451523	164.0
247.492233	156.0
247.55925	240.0
247.664474	84.0
247.701874	200.0
247.749878	136.0
247.811722	68.0
247.896317	128.0
247.937057	108.0
247.964035	208.0
247.999741	56.0
248.162003	132.0
248.197922	168.0
248.224823	176.0
248.263107	28.0
248.294022	168.0
248.35405	164.0
248.37915	164.0
248.460709	124.0
248.542282	112.0
248.595642	216.0
248.631271	204.0
248.661545	160.0
248.796524	144.0
248.878143	188.0
248.918976	136.0
248.972351	136.0
249.064728	136.0
249.361938	84.0
249.399658	204.0
249.431091	160.0
249.458908	132.0
249.600861	136.0
249.662292	172.0
249.827316	68.0
249.931137	184.0
249.981491	128.0
250.066467	160.0
250.226227	128.0
250.299423	52.0
250.352966	128.0
250.429398	148.0
250.535645	132.0
250.680588	132.0
250.73732	188.0
250.876007	120.0
250.951675	112.0
251.033188	136.0
251.185043	152.0
251.229218	116.0
251.28772	132.0
251.323868	64.0
251.394226	104.0
251.640945	200.0
251.667908	52.0
251.828964	92.0
252.069077	144.0
252.120651	112.0
252.236588	56.0
252.325104	88.0
252.366196	140.0
252.400986	52.0
252.470551	180.0
252.606567	184.0
252.64769	112.0
252.679321	72.0
252.821716	76.0
252.856537	156.0
252.91983	136.0
252.954651	132.0
253.021133	84.0
253.043304	104.0
253.100021	184.0
253.188965	68.0
253.220627	136.0
253.258636	196.0
253.312485	120.0
253.348694	168.0
253.407532	208.0
253.496246	120.0
253.604004	88.0
253.740326	92.0
253.863983	68.0
253.902039	100.0
253.945648	176.0
254.034714	1004.0
254.1073	192.0
254.146301	188.0
254.285934	124.0
254.317429	152.0
254.368454	76.0
254.455765	136.0
254.517273	188.0
254.584366	144.0
254.692352	172.0
254.742599	156.0
254.778122	120.0
254.968781	216.0
255.041992	912.0
255.18811	120.0
255.274841	188.0
255.33049	160.0
255.366196	76.0
255.42569	272.0
255.483887	128.0
255.550705	216.0
255.576157	108.0
255.818039	220.0
255.85347	92.0
255.964203	148.0
256.051544	956.0
256.126251	212.0
256.155304	176.0
256.18042	172.0
256.223083	328.0
256.2854	328.0
256.307495	212.0
256.338928	236.0
256.370148	152.0
256.398834	164.0
256.422485	148.0
256.451508	208.0
256.489288	188.0
256.509979	172.0
256.520111	156.0
256.56839	192.0
256.604584	272.0
256.657257	196.0
256.700012	128.0
256.736511	296.0
256.768524	108.0
256.803406	172.0
256.849182	160.0
256.929321	416.0
256.965363	68.0
256.998077	240.0
257.006012	184.0
257.079071	190916.0
257.146637	84.0
257.158478	100.0
257.179749	440.0
257.210175	284.0
257.272491	272.0
257.332825	180.0
257.378906	292.0
257.44577	64.0
257.483276	220.0
257.529449	124.0
257.563446	132.0
257.605316	888.0
257.642242	288.0
257.666779	116.0
257.722015	168.0
257.760345	172.0
257.789185	84.0
257.8461	168.0
257.890656	124.0
257.937988	64.0
257.967438	196.0
258.031586	10608.0
258.081635	24792.0
258.198547	72.0
258.223206	48.0
258.250122	364.0
258.289825	116.0
258.320343	188.0
258.345856	76.0
258.364716	60.0
258.393311	64.0
258.428192	100.0
258.452301	144.0
258.47934	116.0
258.526093	128.0
258.56778	156.0
258.600555	108.0
258.636932	60.0
258.710175	68.0
258.783569	60.0
258.828613	64.0
258.886444	144.0
258.941956	60.0
258.976135	56.0
259.034576	1972.0
259.082092	2944.0
259.122559	120.0
259.153564	76.0
259.175537	84.0
259.232422	120.0
259.269287	92.0
259.336914	108.0
259.416321	136.0
259.453308	200.0
259.495087	68.0
259.556	120.0
259.597443	116.0
259.624176	92.0
259.644531	96.0
259.670319	96.0
259.693024	184.0
259.738464	148.0
259.806824	60.0
259.835022	84.0
259.860901	128.0
259.906799	252.0
259.969666	248.0
260.027649	952.0
260.08963	384.0
260.129852	252.0
260.181854	72.0
260.204346	40.0
260.262115	40.0
260.329559	76.0
260.38736	92.0
260.419495	128.0
260.464447	64.0
260.50943	84.0
260.551208	136.0
260.630981	220.0
260.699005	84.0
260.772919	116.0
260.812775	80.0
260.854706	108.0
260.900421	176.0
260.967865	56.0
260.989624	136.0
261.014038	60.0
261.067963	52.0
261.090057	268.0
261.161987	64.0
261.293854	80.0
261.316376	56.0
261.363556	108.0
261.393616	76.0
261.43866	52.0
261.570618	88.0
261.612488	92.0
261.673645	128.0
261.767029	124.0
261.82724	160.0
261.889404	152.0
262.027924	92.0
262.076263	64.0
262.10202	120.0
262.131042	72.0
262.166473	100.0
262.1987	204.0
262.366333	84.0
262.473663	84.0
262.566254	212.0
262.640442	76.0
262.740448	44.0
262.853363	40.0
262.968842	92.0
263.047028	64.0
263.243958	56.0
263.379608	44.0
263.495911	32.0
263.75766	124.0
263.799683	108.0
263.835266	140.0
264.016327	112.0
264.048676	60.0
264.300995	128.0
264.394836	32.0
264.453217	120.0
264.804565	88.0
264.897858	80.0
264.938843	80.0
264.961517	164.0
265.363403	204.0
265.402313	148.0
265.467163	184.0
265.713684	36.0
265.755859	100.0
265.950562	172.0
266.022003	80.0
266.081635	140.0
266.171326	84.0
266.254974	96.0
266.330475	132.0
266.509155	188.0
266.570892	68.0
266.626129	64.0
266.759399	192.0
266.863434	208.0
266.938232	36.0
267.097595	92.0
267.146393	136.0
267.488068	144.0
267.51413	148.0
267.60202	112.0
267.784393	92.0
268.015686	28.0
268.038483	100.0
268.234039	104.0
268.282928	112.0
268.305756	92.0
268.404572	144.0
268.550323	72.0
268.582947	168.0
268.824371	128.0
268.85376	100.0
268.954926	192.0
269.023499	200.0
269.069183	128.0
269.144287	44.0
269.180206	128.0
269.229187	144.0
269.268372	156.0
269.340546	132.0
269.531982	140.0
269.609283	112.0
269.856598	48.0
269.995453	112.0
270.026642	108.0
270.065887	140.0
270.102142	144.0
270.170563	104.0
270.343994	36.0
270.442169	92.0
270.481445	132.0
270.60257	84.0
270.713287	108.0
270.782684	88.0
270.884216	44.0
271.062378	160.0
271.139801	124.0
271.210205	124.0
271.222504	156.0
271.30368	176.0
271.346313	112.0
271.372528	196.0
271.395477	104.0
271.435608	104.0
271.506989	128.0
271.562744	48.0
271.605377	144.0
271.667328	140.0
271.699188	160.0
271.808258	164.0
271.883575	384.0
272.0047	196.0
272.049103	2944.0
272.101532	144.0
272.156738	156.0
272.216248	84.0
272.245026	308.0
272.269043	160.0
272.310455	104.0
272.346405	244.0
272.393188	112.0
272.443695	108.0
272.464783	96.0
272.506134	296.0
272.543945	168.0
272.557098	248.0
272.568695	152.0
272.611542	148.0
272.664337	236.0
272.705841	340.0
272.76532	160.0
272.792114	368.0
272.838623	204.0
272.870911	332.0
272.901215	276.0
272.946747	416.0
272.983154	444.0
273.017639	928.0
273.056854	219440.0
273.143158	180.0
273.192139	104.0
273.226501	188.0
273.294312	236.0
273.32962	48.0
273.340576	160.0
273.36792	308.0
273.400818	160.0
273.447021	80.0
273.493011	136.0
273.538116	76.0
273.598389	1764.0
273.627655	188.0
273.683929	172.0
273.744507	260.0
273.830902	212.0
273.868866	272.0
273.938232	160.0
273.974792	76.0
273.983887	60.0
274.001495	92.0
274.011322	116.0
274.058411	32280.0
274.109375	136.0
274.121216	328.0
274.152618	92.0
274.194458	164.0
274.220459	160.0
274.262421	80.0
274.289276	68.0
274.32843	152.0
274.349762	188.0
274.39212	60.0
274.439392	156.0
274.448212	120.0
274.515167	56.0
274.549591	52.0
274.573212	172.0
274.605133	56.0
274.648376	76.0
274.686432	68.0
274.718658	68.0
274.769531	96.0
274.815033	64.0
274.85257	68.0
274.887848	200.0
274.921906	324.0
274.991425	168.0
275.052612	11584.0
275.133118	48.0
275.197418	148.0
275.232758	96.0
275.290314	112.0
275.324249	108.0
275.372589	100.0
275.417511	144.0
275.429169	136.0
275.492157	132.0
275.514221	200.0
275.551331	72.0
275.585419	152.0
275.647614	224.0
275.67099	92.0
275.743073	80.0
275.777802	136.0
275.79776	112.0
275.80423	180.0
275.835449	196.0
275.883423	236.0
275.920654	148.0
275.952484	192.0
275.981201	52.0
276.007477	260.0
276.051819	752.0
276.137817	92.0
276.177002	220.0
276.216187	76.0
276.255035	148.0
276.289825	48.0
276.335693	116.0
276.34671	144.0
276.372528	72.0
276.508209	72.0
276.559814	68.0
276.600891	136.0
276.647644	100.0
276.703522	48.0
276.730011	128.0
276.761292	64.0
276.789612	84.0
276.834564	188.0
276.894043	60.0
276.941956	200.0
277.009552	108.0
277.031403	52.0
277.056122	128.0
277.100952	28.0
277.127472	136.0
277.170532	112.0
277.213623	76.0
277.282257	152.0
277.306427	116.0
277.357605	112.0
277.425751	48.0
277.448944	68.0
277.62738	156.0
277.764008	44.0
277.846924	36.0
277.923248	60.0
277.958466	52.0
278.212006	52.0
278.301636	80.0
278.32489	88.0
278.427826	44.0
278.484283	52.0
278.532318	76.0
278.660339	48.0
278.700226	128.0
278.733459	44.0
278.823181	44.0
278.936188	48.0
279.018799	104.0
279.055878	112.0
279.225464	36.0
279.341888	120.0
279.681305	72.0
279.804474	96.0
279.854401	48.0
279.927673	68.0
280.187469	72.0
280.250763	124.0
280.384064	40.0
280.48407	52.0
280.600739	84.0
280.727448	60.0
281.007385	128.0
281.085114	72.0
281.151123	168.0
281.451569	108.0
281.782227	84.0
282.059601	88.0
282.440796	44.0
282.994873	100.0
283.177185	44.0
283.901093	84.0
284.340607	96.0
284.384216	48.0
284.491638	84.0
284.63266	88.0
284.719971	132.0
285.479492	36.0
285.503021	40.0
285.560211	40.0
285.600555	84.0
285.819244	48.0
286.189484	40.0
286.398285	92.0
286.455566	80.0
286.883545	52.0
287.220764	120.0
287.355682	84.0
287.483917	60.0
287.618927	36.0
287.922791	60.0
288.077698	704.0
288.365387	80.0
288.767731	80.0
288.828613	60.0
288.906433	52.0
289.073608	156.0
289.153442	44.0
289.200836	80.0
289.759583	44.0
289.830719	80.0
290.56311	64.0
290.593628	40.0
290.861725	116.0
290.943207	36.0
291.06543	84.0
291.136749	92.0
291.456085	72.0
291.806152	88.0
292.172089	88.0
292.224518	92.0
292.510376	92.0
292.67041	108.0
293.191589	44.0
293.665497	72.0
293.743958	76.0
294.129547	132.0
294.440247	40.0
294.686218	40.0
294.853668	76.0
294.928864	52.0
295.657349	112.0
295.722382	36.0
296.075043	72.0
296.102417	104.0
296.13324	64.0
296.787811	108.0
297.326385	72.0
299.020752	128.0
299.206635	72.0
299.706055	172.0
301.303528	68.0
301.327728	72.0
301.421021	44.0
301.57309	108.0
303.106201	200.0
303.154724	88.0
303.80658	68.0
303.95282	80.0
304.025177	52.0
304.195251	52.0
305.390594	60.0
305.571472	72.0
305.926453	56.0
306.598724	72.0
307.540405	52.0
307.756866	100.0
309.347626	48.0
309.732819	100.0
312.26001	104.0
312.309235	120.0
312.911011	84.0
313.097626	56.0
313.502777	60.0
314.317383	40.0
314.423248	136.0
314.504425	48.0
315.848419	56.0
315.939117	40.0
316.438141	76.0
316.540833	88.0
317.774353	36.0
318.281921	56.0
319.849762	92.0
321.29303	68.0
322.285614	88.0
322.61084	40.0
323.680634	100.0
323.945679	64.0
326.619995	96.0
327.836945	140.0
329.308929	76.0
329.507599	108.0
329.937683	84.0
330.024475	80.0
332.651093	120.0
332.698303	56.0
332.814484	76.0
333.090485	56.0
334.876465	136.0
336.148804	72.0
338.089325	64.0
338.129578	32.0
338.25769	76.0
338.594543	100.0
339.122131	56.0
343.512604	72.0
344.10675	52.0
345.037811	120.0
345.14502	68.0
345.588898	68.0
346.27005	88.0
347.166901	32.0
347.908997	112.0
348.819153	100.0
348.848907	72.0
349.551849	84.0
350.41571	92.0
350.881592	60.0
351.702271	60.0
353.335327	108.0
353.627228	48.0
354.833435	60.0
355.977875	80.0
357.793976	80.0
358.004852	112.0
358.140411	64.0
359.248688	116.0
359.980896	40.0
360.471985	100.0
360.698761	60.0
360.759247	44.0
360.800842	108.0
360.970978	96.0
361.356812	44.0
361.508148	80.0
362.284363	112.0
362.974182	64.0
364.101257	104.0
364.655975	88.0
364.69397	132.0
364.973145	64.0
365.896057	104.0
366.455658	116.0
366.598572	92.0
367.306091	96.0
368.64621	72.0
368.680603	108.0
369.395599	40.0
369.713165	88.0
370.203186	100.0
370.958252	64.0
372.354706	108.0
372.646637	120.0
372.927185	56.0
373.150146	64.0
373.384705	104.0
374.027252	116.0
374.177399	80.0
374.955505	48.0
375.10199	132.0
375.491425	100.0
376.579834	92.0
377.012543	116.0
378.761383	128.0
379.916565	76.0
380.937561	80.0
381.139587	116.0
381.27948	72.0
382.134979	28.0
382.929108	44.0
382.983643	52.0
383.778656	104.0
384.215485	48.0
384.363739	32.0
384.74234	136.0
384.988342	72.0
385.41803	60.0
386.293823	92.0
386.532471	124.0
388.354218	100.0
390.711151	96.0
390.959045	80.0
391.348755	84.0
391.687439	28.0
392.179993	92.0
393.122589	80.0
394.2995	100.0
394.335052	48.0
394.876709	76.0
395.604797	56.0
397.376343	84.0
397.804962	76.0
399.858734	116.0
400.062988	76.0
400.337708	100.0
402.107849	88.0
402.690765	88.0
403.753876	64.0
404.502106	144.0
405.547577	108.0
405.844238	80.0
406.253326	76.0
406.57431	76.0
407.112274	48.0
407.232758	44.0
407.670685	116.0
408.269684	100.0
410.488617	120.0
411.703308	104.0
411.731567	68.0
413.271729	116.0
413.915314	60.0
416.023651	60.0
416.966034	48.0
417.384735	40.0
418.845825	68.0
420.076874	52.0
421.10553	100.0
422.233551	68.0
422.528076	68.0
422.867706	40.0
424.104675	68.0
424.301453	28.0
424.613098	40.0
426.740234	84.0
426.863586	64.0
429.606689	40.0
429.879028	48.0
431.291504	112.0
432.139282	68.0
432.736725	68.0
433.054169	84.0
433.319275	44.0
435.941711	60.0
436.270081	32.0
436.498749	104.0
437.355804	108.0
438.851379	64.0
439.652313	40.0
439.723236	108.0
442.385895	76.0
442.833954	56.0
445.077576	84.0
446.54422	124.0
447.503693	64.0
447.768982	112.0
448.472626	40.0
448.658112	96.0
448.687622	96.0
448.759277	104.0
449.054474	52.0
450.819214	100.0
450.962921	40.0
451.601379	44.0
453.087189	88.0
453.159241	40.0
454.083344	44.0
454.927765	80.0
456.117188	48.0
456.640198	36.0
456.954987	84.0
458.036316	64.0
458.08316	48.0
460.518799	72.0
461.030396	140.0
461.929382	68.0
462.695435	136.0
462.965179	40.0
463.055115	84.0
464.945831	56.0
465.108948	44.0
465.516815	48.0
465.903381	52.0
467.175903	80.0
470.705872	128.0
473.283051	40.0
473.720459	68.0
474.348816	40.0
475.120758	64.0
475.320343	60.0
477.740417	56.0
478.541199	60.0
478.650055	72.0
479.368835	44.0
480.345459	36.0
481.082947	64.0
482.223022	36.0
483.018829	36.0
483.241943	116.0
483.272583	88.0
485.835632	52.0
486.498291	100.0
486.893463	52.0
487.824982	104.0
488.273499	80.0
488.348267	36.0
488.436218	48.0
488.541809	52.0
488.94223	60.0
489.820984	124.0
491.643799	52.0
492.367828	80.0
492.82724	88.0
493.530029	108.0
495.619263	52.0
495.716766	88.0
498.165924	60.0
498.445831	52.0
498.503601	36.0
498.596924	64.0
498.805847	36.0
501.917908	80.0
502.14978	72.0
502.546814	152.0
504.529846	64.0
507.700043	32.0
509.913391	48.0
510.80368	32.0
511.798309	48.0
514.214661	176.0
514.264282	92.0
515.199036	48.0
516.27478	92.0
516.405945	76.0
516.537109	80.0
522.766602	108.0
525.195007	112.0
525.226929	56.0
528.937317	116.0
531.517639	60.0
533.911011	60.0
534.743774	100.0
537.568848	56.0
537.610413	32.0
538.344421	104.0
538.787842	56.0
540.716064	56.0
543.826843	124.0
544.007141	120.0
544.773376	92.0
545.149719	120.0
545.967896	132.0
546.051636	52.0
546.260925	92.0
547.447815	76.0
548.253784	72.0
548.640625	60.0
549.083618	80.0
550.259583	80.0
551.301208	72.0
551.754578	84.0
552.619873	76.0
552.849121	40.0
555.562134	96.0
555.651245	92.0
556.397461	40.0
556.444397	80.0
559.514526	40.0
561.715271	112.0
562.064453	32.0
562.295654	104.0
563.296692	176.0
564.629578	72.0
566.172729	76.0
567.224304	100.0
568.06842	152.0
568.253418	100.0
568.36731	56.0
569.212219	100.0
569.877258	40.0
570.685242	108.0
572.579224	80.0
573.074646	88.0
574.80072	36.0
579.16095	32.0
579.711914	104.0
581.908813	108.0
582.922302	40.0
583.071289	100.0
587.105713	60.0
589.833679	64.0
590.370361	44.0
591.033081	72.0
593.532532	60.0
598.707031	84.0
600.043091	104.0
601.67749	104.0
601.843506	72.0
606.344055	76.0
607.879089	44.0
608.860901	72.0
612.190369	60.0
624.389709	60.0
625.539062	84.0
628.709106	52.0
629.622742	44.0
630.821899	48.0
631.101868	60.0
632.407593	40.0
639.243164	144.0
642.150024	80.0
645.705688	64.0
645.832153	60.0
646.236877	44.0
646.672058	52.0
649.910339	68.0
650.938843	52.0
652.36853	68.0
654.938293	44.0
655.009583	104.0
659.229065	164.0
663.072449	172.0
665.370544	104.0
666.192749	84.0
668.238403	72.0
669.494446	56.0
670.133179	48.0
674.328613	136.0
675.362732	76.0
676.369568	116.0
679.060913	92.0
680.721619	80.0
681.490417	128.0
683.840942	44.0
689.540405	116.0
691.372192	84.0
693.28894	64.0
693.917969	40.0
694.384644	96.0
697.740112	80.0
698.634155	56.0
701.409363	72.0
702.748901	160.0
704.068604	48.0
710.208191	144.0
713.341125	64.0
715.458435	76.0
716.464966	80.0
719.104553	52.0
720.866943	76.0
722.561951	48.0
723.407532	72.0
724.280396	64.0
725.067993	108.0
725.632751	56.0
726.03302	172.0
727.492493	56.0
728.061646	52.0
728.28186	48.0
729.168396	32.0
729.227478	60.0
730.206055	48.0
731.142151	112.0
735.497131	56.0
740.30365	84.0
743.230896	68.0
745.680115	112.0
746.000793	40.0
748.781311	96.0
749.102661	40.0
749.832825	88.0
751.523315	112.0
752.205505	84.0
752.582214	68.0
755.446106	52.0
761.074768	92.0
761.48114	56.0
761.997559	104.0
762.926331	100.0
766.862183	184.0
767.198425	100.0
771.930298	40.0
782.04425	84.0
782.806946	96.0
789.101074	72.0
790.695374	36.0
794.056946	116.0
794.460815	52.0
798.077759	40.0
798.797668	88.0
801.17334	52.0
801.393066	56.0
806.03125	36.0
813.110168	176.0
820.881348	52.0
820.966919	188.0
821.839661	104.0
823.415283	104.0
826.2677	96.0
826.376404	60.0
829.818665	124.0
831.103455	68.0
840.22876	108.0
843.0755	76.0
845.105164	84.0
846.859253	76.0
847.450134	36.0
847.855774	112.0
855.709412	60.0
858.0224	52.0
865.202576	44.0
871.290222	56.0
872.547913	52.0
873.78302	64.0
876.090881	88.0
883.251465	92.0
890.150208	136.0
890.672852	72.0
891.813721	108.0
892.158447	152.0
892.324951	52.0
895.073914	56.0
895.318054	108.0
895.693298	124.0
896.152039	88.0
904.094055	68.0
904.183777	108.0
905.728577	156.0
907.010864	88.0
907.430542	168.0
909.002075	92.0
912.618164	136.0
913.261658	68.0
914.022827	176.0
914.832214	224.0
916.416199	52.0
917.868835	100.0
923.043823	124.0
924.035828	192.0
924.931458	96.0
926.094055	120.0
930.648438	96.0
934.721069	188.0
935.96283	52.0
938.906189	40.0
941.683167	136.0
942.813477	148.0
946.796204	76.0
947.788574	36.0
949.848572	48.0
951.794067	68.0
955.783447	28.0
958.837891	152.0
960.626038	60.0
962.681396	116.0
965.610779	76.0
968.668518	56.0
977.55957	128.0
978.101074	64.0
980.256042	280.0
980.897949	80.0
982.563049	144.0
989.913757	104.0
1008.264893	168.0
1011.408386	72.0
1014.842102	88.0
1016.535706	52.0
1018.57373	84.0
1022.235901	208.0
1022.414124	56.0
1027.881836	124.0
1039.220459	252.0
1042.296143	68.0
1043.594482	96.0
1047.533203	48.0
1050.053589	76.0
1050.105103	88.0
1050.479248	164.0
1054.282349	68.0
1058.914673	216.0
1061.954468	132.0
1062.570679	172.0
1064.894653	100.0
1066.922119	212.0
1070.025391	60.0
1074.783447	56.0
1075.005371	68.0
1075.155518	40.0
1077.323242	104.0
1083.466309	68.0
1089.771484	164.0
1090.119751	140.0
1090.606079	348.0
1093.171021	76.0
1096.127808	28.0
1097.182373	164.0
1098.38916	204.0
1099.095093	56.0
1101.88147	208.0
1103.527222	96.0
1103.771851	136.0
1103.963623	72.0
1105.412354	48.0
1105.736694	200.0
1106.848877	96.0
1107.451538	164.0
1108.080811	176.0
1111.734497	124.0
1112.736816	132.0
1114.018555	56.0
1118.853394	172.0
1119.585815	188.0
1122.131226	184.0
1124.472778	96.0
1127.030396	148.0
1127.692017	100.0
1128.27356	168.0
1129.082642	168.0
1130.98291	224.0
1132.388916	92.0
1134.486328	248.0
1134.881836	152.0
1136.364258	36.0
1138.055664	156.0
1138.65332	136.0
1146.046387	108.0
1146.848389	136.0
1148.561035	224.0
1149.95105	152.0
1151.855103	96.0
1152.760498	184.0
1154.112427	176.0
1155.769653	192.0
1156.033569	52.0
1156.087646	188.0
1157.170776	132.0
1159.324829	76.0
1159.636597	220.0
1160.063599	96.0
1161.412964	160.0
1161.487671	196.0
1161.887939	80.0
1162.722534	136.0
1163.387695	108.0
1165.894165	152.0
1168.396484	64.0
1168.968018	132.0
1169.512451	220.0
1171.50769	164.0
1177.735718	160.0
1179.067993	88.0
1179.22522	152.0
1181.17395	156.0
1181.570679	160.0
1182.754639	60.0
1185.192749	184.0
1185.507935	176.0
1185.734131	140.0
1186.179565	128.0
1188.195801	136.0
1189.142822	116.0
1189.897949	60.0
1190.460938	68.0
1191.168457	52.0
1193.94519	204.0
1195.03894	168.0
1195.376221	140.0
1197.00769	124.0
1197.971924	172.0
1201.260132	140.0
1201.715454	252.0
1204.62207	156.0
1205.216187	140.0
1207.110229	48.0
1211.387573	136.0
1214.604004	120.0
1216.956665	60.0
1220.124878	140.0
1220.542114	140.0
1221.905396	188.0
1223.297241	184.0
1223.345947	80.0
1225.135742	48.0
1225.755859	128.0
1226.864136	60.0
1227.589233	172.0
1228.537842	188.0
1229.437866	180.0
1231.965576	184.0
1232.140259	76.0
1232.685181	164.0
1234.572754	160.0
1235.279175	96.0
1235.586914	176.0
1236.272705	204.0
1237.350708	48.0
1238.53418	48.0
1239.150635	76.0
1240.363037	48.0
1240.692505	184.0
1240.748657	192.0
1241.344604	120.0
1241.526978	140.0
1241.653198	184.0
1243.021118	144.0
1245.878784	236.0
1246.539307	160.0
1246.630615	140.0
1247.902954	120.0
1249.372925	84.0
1251.111206	68.0
1251.259033	220.0
1253.012695	152.0
1253.069092	144.0
1253.942871	228.0
1255.148438	156.0
1255.719604	148.0
1255.910034	164.0
1257.187134	108.0
1257.349365	192.0
1257.660034	156.0
1258.429443	148.0
1259.955078	188.0
1260.661621	116.0
1264.317871	84.0
1264.700073	104.0
1265.245117	132.0
1266.165649	216.0
1268.014771	372.0
1268.064453	216.0
1268.886719	56.0
1270.383179	176.0
1270.63147	184.0
1271.404907	108.0
1271.947876	160.0
1272.334839	84.0
1272.732422	60.0
1275.20459	140.0
1275.368042	64.0
1275.460449	76.0
1275.936768	120.0
1276.135864	180.0
1276.605225	84.0
1279.30896	92.0
1279.373047	168.0
1282.949341	228.0
1284.211548	148.0
1284.347046	188.0
1285.360107	184.0
1286.073853	124.0
1289.831055	132.0
1292.047852	56.0
1292.19104	48.0
1292.834961	48.0
1293.178589	228.0
1293.24292	172.0
1294.094849	172.0
1295.061646	176.0
1295.391113	168.0
1296.379883	152.0
1296.508911	144.0
1300.589966	148.0
1301.336548	156.0
1303.189697	100.0
1303.671143	228.0
1305.755981	60.0
1306.216309	168.0
1306.547241	152.0
1307.105347	236.0
1307.684204	172.0
1309.354614	124.0
1310.413574	196.0
1311.407959	156.0
1311.624268	120.0
1311.948608	152.0
1312.604736	124.0
1314.855591	164.0
1315.09375	140.0
1315.187622	72.0
1316.075562	164.0
1317.910156	160.0
1318.365479	56.0
1318.423218	148.0
1318.560547	164.0
1318.734009	172.0
1319.196655	120.0
1319.464111	152.0
1320.187256	108.0
1320.252319	152.0
1320.736938	192.0
1320.816528	140.0
1321.265015	104.0
1321.416992	248.0
1322.068237	44.0
1322.126099	136.0
1322.307007	40.0
1323.653564	116.0
1323.765381	212.0
1325.49353	40.0
1325.797852	300.0
1326.959717	180.0
1327.813354	160.0
1328.61853	164.0
1328.807129	148.0
1332.095825	164.0
1333.679932	132.0
1333.948975	40.0
1335.919678	152.0
1336.428955	104.0
1336.501709	132.0
1336.552002	124.0
1337.433228	148.0
1338.525269	116.0
1339.297363	364.0
1340.200684	168.0
1341.097046	96.0
1341.250122	180.0
1341.585449	100.0
1341.796875	160.0
1341.913574	176.0
1343.526855	236.0
1346.116455	88.0
1347.255859	104.0
1347.891602	132.0
1348.673584	164.0
1349.207275	148.0
1350.852661	180.0
1352.594238	60.0
1355.267456	144.0
1355.721802	120.0
1357.048584	56.0
1357.693848	188.0
1357.877197	152.0
1357.987183	148.0
1358.185181	64.0
1359.85083	156.0
1361.796509	140.0
1362.847046	184.0
1363.104248	68.0
1364.442017	152.0
1364.787598	184.0
1365.236084	72.0
1365.486206	132.0
1368.083618	176.0
1370.013184	204.0
1370.44043	160.0
1370.668945	184.0
1371.571777	176.0
1371.907959	192.0
1372.231567	220.0
1372.821411	164.0
1373.411499	96.0
1374.887085	156.0
1375.248779	104.0
1375.425903	128.0
1375.758057	248.0
1375.898315	132.0
1377.748901	176.0
1377.892456	128.0
1378.077148	192.0
1378.963989	208.0
1379.244507	172.0
1379.311401	76.0
1379.873169	156.0
1380.213257	152.0
1380.834473	124.0
1382.121704	176.0
1382.513916	84.0
1382.780396	140.0
1382.884033	132.0
1383.002441	120.0
1383.718384	244.0
1384.54248	192.0
1384.631348	112.0
1385.742432	132.0
1385.816528	148.0
1386.424194	136.0
1386.572388	132.0
1389.212158	56.0
1390.265747	128.0
1390.51062	128.0
1390.985718	112.0
1392.411377	168.0
1392.515381	92.0
1392.745605	180.0
1394.39502	164.0
1395.339111	116.0
1395.539917	32.0
1396.87854	188.0
1397.243042	160.0
1397.335449	248.0
1397.414185	148.0
1397.50354	112.0
1397.949951	184.0
1398.314575	172.0
1398.96228	168.0
1399.714233	128.0
1399.855713	40.0
1399.915283	216.0
1400.935669	80.0
1401.144287	168.0
1401.889404	144.0
1402.209839	156.0
1402.537842	120.0
1403.842651	168.0
1404.648071	240.0
1405.871704	116.0
1406.01355	64.0
1406.110596	140.0
1407.499146	76.0
1407.902344	152.0
1407.977051	212.0
1408.245972	180.0
1408.320679	164.0
1408.850952	116.0
1408.978027	172.0
1409.067627	168.0
1409.306763	212.0
1410.166138	116.0
1410.977783	184.0
1411.085571	164.0
1411.437012	180.0
1412.618774	152.0
1413.770996	168.0
1414.67627	208.0
1415.140869	160.0
1415.86731	128.0
1416.204346	100.0
1416.44397	80.0
1417.103271	200.0
1418.077515	120.0
1418.212402	116.0
1418.2948	156.0
1420.994629	124.0
1421.557373	180.0
1422.240356	48.0
1422.337891	192.0
1423.043579	100.0
1424.387939	144.0
1425.041504	56.0
1425.432251	140.0
1426.334106	176.0
1426.777588	72.0
1427.236328	264.0
1427.40918	128.0
1427.552124	156.0
1427.740112	188.0
1428.68042	124.0
1428.932983	180.0
1430.095093	168.0
1430.727417	128.0
1430.802612	152.0
1431.013428	140.0
1432.067749	232.0
1432.53479	160.0
1432.858765	156.0
1433.182739	152.0
1434.433838	148.0
1434.886719	208.0
1434.961548	128.0
1436.02478	136.0
1437.126221	72.0
1437.775146	160.0
1438.628174	164.0
1438.839478	192.0
1440.229004	164.0
1441.422729	76.0
1441.641846	220.0
1442.155762	64.0
1442.768066	48.0
1443.093262	36.0
1443.751099	112.0
1443.993164	48.0
1444.159546	188.0
1444.310791	132.0
1444.401611	140.0
1444.658813	224.0
1446.240234	132.0
1446.512817	96.0
1446.697144	116.0
1446.838257	124.0
1448.314941	100.0
1448.466431	168.0
1448.678589	228.0
1449.981934	96.0
1450.034912	144.0
1450.307861	156.0
1450.406372	248.0
1451.869629	64.0
1452.051758	160.0
1453.136475	180.0
1453.546265	152.0
1454.373413	136.0
1454.479736	104.0
1454.593628	116.0
1454.722656	176.0
1455.303589	168.0
1455.626099	232.0
1456.112183	56.0
1456.651489	144.0
1457.183228	152.0
1457.30835	116.0
1457.684814	40.0
1457.965942	76.0
1458.12561	180.0
1458.619629	164.0
1458.68042	96.0
1460.28479	196.0
1460.482544	180.0
1460.794434	192.0
1460.946655	72.0
1461.098755	132.0
1461.182495	40.0
1462.133667	164.0
1462.384766	180.0
1462.910034	64.0
1463.46582	152.0
1463.636597	164.0
1464.250122	132.0
1464.424927	156.0
1465.697632	112.0
1466.223389	120.0
1468.907349	112.0
1469.281128	132.0
1469.967896	52.0
1470.629517	180.0
1471.143311	36.0
1472.426147	60.0
1472.640015	156.0
1473.121216	120.0
1473.192749	184.0
1473.411499	76.0
1473.495605	208.0
1473.549072	96.0
1473.900513	96.0
1474.786987	200.0
1474.916992	212.0
1475.360352	120.0
1476.285522	56.0
1476.627686	212.0
1476.950928	116.0
1478.473511	160.0
1479.261841	168.0
1479.81311	148.0
1480.065796	152.0
1480.119385	168.0
1480.862305	124.0
1480.984863	204.0
1481.11499	120.0
1481.658936	120.0
1482.294922	124.0
1483.07666	108.0
1484.410645	136.0
1484.594727	180.0
1484.686646	132.0
1485.699219	116.0
1486.405151	148.0
1486.642944	148.0
1487.072754	156.0
1487.172607	208.0
1487.272339	100.0
1488.431641	80.0
1488.976807	168.0
1489.276367	176.0
1489.814087	160.0
1489.998535	144.0
1490.459473	124.0
1490.974365	200.0
1492.10437	48.0
1492.534912	152.0
1492.942505	64.0
1493.742432	180.0
1494.642578	144.0
1495.204346	92.0
1495.55835	156.0
1495.70459	132.0
1497.791382	184.0
1498.076416	120.0
1498.292114	136.0
1498.561768	144.0
1498.708252	136.0
1499.68689	188.0
1500.241943	164.0
1500.388428	48.0
1500.92041	96.0
1501.946167	108.0
1502.007935	60.0
1502.06189	112.0
1502.293335	156.0
1502.601929	164.0
1502.717651	104.0
1502.7948	160.0
1503.088013	324.0
1503.489258	96.0
1503.558716	148.0
1503.674561	120.0
1504.199341	132.0
1504.315186	176.0
1504.875122	156.0
1505.118164	116.0
END IONS

BEGIN IONS
PEPMASS=325.156
CHARGE=1
MSLEVEL=2
SOURCE_INSTRUMENT=LC-ESI-qTof
FILENAME=p4-F03_GF3_01_18387.mzXML
SEQ=*..*
IONMODE=Positive
ORGANISM=GNPS-NIH-SMALLMOLECULEPHARMACOLOGICALLYACTIVE
NAME=MLS002154125-01!Oxyphenbutazone129-20-4 M+H
PI=Dorrestein
DATACOLLECTOR=VP/LMS
SMILES=CCCCC1C(=O)N(N(C1=O)c2ccc(O)cc2)c3ccccc3
INCHI=N/A
INCHIAUX=N/A
PUBMED=N/A
SUBMITUSER=vphelan
LIBRARYQUALITY=1
SPECTRUMID=CCMSLIB00000085768
USI=mzspec:GNPS:GNPS-NIH-SMALLMOLECULEPHARMACOLOGICALLYACTIVE:accession:CCMSLIB00000085768
SCANS=2015
44.977375	132.0
45.086899	124.0
45.500816	136.0
46.649178	168.0
46.719894	164.0
46.783859	256.0
47.006027	188.0
47.056641	228.0
47.58366	208.0
48.264332	72.0
48.462269	100.0
48.555149	176.0
48.742565	232.0
48.967937	196.0
49.054333	164.0
49.375484	128.0
49.647182	168.0
50.108246	164.0
50.363586	188.0
50.533234	180.0
50.755615	172.0
50.921658	104.0
50.968536	140.0
52.532051	32.0
53.075871	172.0
53.199196	144.0
54.116257	88.0
54.637295	224.0
55.032295	188.0
55.593323	136.0
55.735882	160.0
55.784927	224.0
56.06625	188.0
56.125877	152.0
56.298985	168.0
56.50676	140.0
56.59507	160.0
57.139915	216.0
57.218178	136.0
58.211613	184.0
58.985611	184.0
59.155415	196.0
59.262623	204.0
59.661671	132.0
59.709339	120.0
59.889507	144.0
60.845119	220.0
60.866856	192.0
62.052731	136.0
62.153114	196.0
62.242588	196.0
62.564915	48.0
62.752399	120.0
62.791824	120.0
64.144379	136.0
64.580307	140.0
64.703522	160.0
64.745155	208.0
64.860519	76.0
65.500069	188.0
65.537125	176.0
66.37606	184.0
67.368912	160.0
67.444084	136.0
67.963242	212.0
68.168503	184.0
68.2211	148.0
68.384621	176.0
68.441566	68.0
68.857147	164.0
68.916618	144.0
68.94471	128.0
69.449692	160.0
69.47789	160.0
69.969833	80.0
70.044777	180.0
70.284859	136.0
70.496933	88.0
70.675865	152.0
71.210648	240.0
71.414024	52.0
71.838516	144.0
71.924583	196.0
72.020828	100.0
72.259193	152.0
72.330269	140.0
72.896759	120.0
72.934151	152.0
72.974945	108.0
73.506401	132.0
73.707901	108.0
73.979851	136.0
74.99852	196.0
75.5961	92.0
75.876709	52.0
75.949547	36.0
76.109207	180.0
76.557861	160.0
77.053253	132.0
77.920517	140.0
78.900444	152.0
80.203468	220.0
80.265869	196.0
81.00222	160.0
81.15815	164.0
81.246033	224.0
82.398277	208.0
83.102592	260.0
83.416786	116.0
83.460426	156.0
84.119957	156.0
84.397667	172.0
85.171059	188.0
85.220665	196.0
85.376419	164.0
87.242645	208.0
87.391434	220.0
87.445404	112.0
87.462151	132.0
87.532898	144.0
87.8311	128.0
87.868416	120.0
88.14476	156.0
88.591934	164.0
89.459557	136.0
90.537727	148.0
91.055489	360.0
91.131477	216.0
91.357719	216.0
91.641403	256.0
92.050552	964.0
92.175682	120.0
92.198616	160.0
92.21199	124.0
92.535286	180.0
93.036179	232.0
93.056198	476.0
93.649109	152.0
94.034729	188.0
94.062408	800.0
95.173042	92.0
95.78373	164.0
95.98642	40.0
96.046883	192.0
96.078094	44.0
97.419136	104.0
97.466293	48.0
98.157227	108.0
99.050568	176.0
99.08226	212.0
99.179367	204.0
100.53582	88.0
101.20549	220.0
101.479996	176.0
102.036148	172.0
102.176941	216.0
102.325874	192.0
102.400383	180.0
102.702721	60.0
102.868187	172.0
102.914627	256.0
102.963089	152.0
103.426109	152.0
103.709686	248.0
103.731987	152.0
103.912483	204.0
104.047134	700.0
104.080948	56.0
104.809166	228.0
105.031387	124.0
105.063156	196.0
105.729774	104.0
106.028618	524.0
106.065033	1252.0
106.166542	92.0
106.992569	176.0
107.033623	168.0
107.048485	284.0
107.138794	92.0
107.79287	180.0
108.017815	220.0
108.043846	2172.0
108.103058	212.0
108.276962	72.0
108.696381	268.0
109.030647	320.0
109.048782	264.0
109.213043	56.0
109.381592	164.0
109.627357	40.0
110.040756	132.0
110.060432	396.0
110.839867	72.0
110.914848	128.0
111.189613	164.0
111.447914	236.0
111.519371	188.0
113.31736	192.0
114.089897	164.0
114.430305	164.0
114.933334	164.0
115.052834	188.0
115.428909	144.0
116.062752	164.0
116.399643	92.0
116.85318	204.0
117.059723	180.0
117.881729	88.0
117.981155	224.0
118.066559	312.0
118.671814	160.0
118.704338	204.0
118.927803	240.0
119.038528	204.0
119.067833	180.0
119.255791	60.0
119.40799	140.0
119.782372	180.0
119.958885	144.0
120.043076	1968.0
120.066452	84.0
120.075272	180.0
120.16243	104.0
120.290466	160.0
120.340683	156.0
120.393089	96.0
120.491386	36.0
120.7034	180.0
120.810577	204.0
121.030373	244.0
121.046921	388.0
121.156479	56.0
121.244125	284.0
121.643326	148.0
121.808022	160.0
122.034752	216.0
122.059334	900.0
122.131149	76.0
122.406258	48.0
122.542824	96.0
123.065567	200.0
123.653603	120.0
123.857307	152.0
124.012413	240.0
124.039009	184.0
124.189796	200.0
124.380623	196.0
124.556046	148.0
124.676025	148.0
125.058571	112.0
125.296852	136.0
125.517509	88.0
126.010803	180.0
126.381966	132.0
126.62822	40.0
127.058617	132.0
128.049942	496.0
128.302322	56.0
129.071686	156.0
130.065781	372.0
130.723694	180.0
131.044769	188.0
131.07399	232.0
131.138199	228.0
131.653824	216.0
132.042282	252.0
132.078949	496.0
132.332977	124.0
132.876175	180.0
133.046249	340.0
134.058975	676.0
134.094284	164.0
134.888992	168.0
135.030273	224.0
135.065353	148.0
135.917313	188.0
136.005493	180.0
136.034943	392.0
136.07045	204.0
136.10997	128.0
136.695297	40.0
137.038055	160.0
137.36911	192.0
138.039444	160.0
138.655151	76.0
139.063263	264.0
139.598923	172.0
140.057861	200.0
140.295883	168.0
140.501053	144.0
140.781952	156.0
141.020569	224.0
141.849045	180.0
142.057724	124.0
142.249939	80.0
142.34491	132.0
142.779816	224.0
143.066589	192.0
143.089157	148.0
143.732712	124.0
144.000092	116.0
144.044189	212.0
144.078262	168.0
145.073776	248.0
145.156021	44.0
145.271149	104.0
145.527954	116.0
146.027802	136.0
146.056229	536.0
146.620087	28.0
147.053406	168.0
147.230469	64.0
147.680008	48.0
147.701141	76.0
147.793716	112.0
147.880829	168.0
148.037613	6804.0
148.075302	440.0
148.11499	388.0
148.246536	52.0
148.576309	40.0
148.87001	276.0
148.955017	40.0
149.047333	5044.0
149.115387	208.0
149.185883	128.0
149.351242	36.0
149.516693	152.0
149.635971	28.0
149.945343	44.0
150.011154	56.0
150.048828	856.0
150.09404	128.0
151.048126	380.0
151.259445	120.0
151.333618	80.0
151.501877	48.0
152.036423	168.0
152.539948	144.0
153.872757	140.0
154.064377	244.0
154.258148	192.0
154.730667	96.0
155.060135	372.0
155.816986	112.0
156.043152	192.0
156.075974	224.0
156.877182	164.0
157.070816	168.0
157.089279	236.0
157.575989	160.0
157.723434	184.0
158.058792	620.0
158.085831	176.0
158.634613	116.0
159.066788	188.0
159.367462	140.0
160.04039	508.0
160.063095	600.0
160.111847	1492.0
160.135193	208.0
160.374115	128.0
160.558167	108.0
161.075394	308.0
161.143814	148.0
162.055496	1504.0
162.090164	552.0
162.126709	512.0
162.848709	44.0
163.060577	592.0
163.12822	116.0
163.369812	36.0
163.519943	48.0
164.06189	344.0
164.107315	176.0
164.20787	84.0
164.613647	96.0
166.069901	116.0
169.088501	232.0
170.095413	252.0
172.083176	100.0
172.109833	484.0
172.410843	40.0
173.06778	140.0
173.546951	192.0
174.050369	272.0
174.089157	140.0
174.28978	56.0
174.352859	96.0
175.059265	444.0
175.086868	220.0
175.339798	240.0
175.64566	40.0
176.03363	272.0
176.067627	208.0
176.105347	480.0
177.046494	176.0
177.102127	124.0
177.648193	68.0
178.052383	156.0
178.086182	28.0
178.122467	536.0
178.966446	76.0
179.070297	160.0
179.120911	128.0
180.123901	200.0
181.076141	148.0
181.802689	144.0
182.057175	368.0
182.083481	332.0
183.046021	144.0
183.067276	212.0
184.07077	188.0
185.063065	524.0
185.115906	120.0
186.093445	112.0
186.964676	92.0
188.076706	220.0
188.109009	360.0
189.074326	132.0
190.046112	1188.0
190.091049	136.0
190.121353	200.0
191.052734	104.0
191.125534	184.0
193.060791	180.0
196.074219	212.0
196.103729	124.0
197.070923	188.0
197.740448	128.0
197.799225	44.0
198.076309	672.0
198.80545	104.0
199.079285	428.0
200.072342	268.0
200.107056	388.0
200.12944	156.0
201.099228	152.0
201.534134	120.0
202.089752	176.0
203.088348	92.0
203.670242	40.0
204.062424	260.0
204.100082	3264.0
204.134216	144.0
204.398056	68.0
205.073013	188.0
205.104523	788.0
206.08519	148.0
206.113052	224.0
206.411972	56.0
206.689453	44.0
207.116028	76.0
207.809799	132.0
208.033661	88.0
209.105835	176.0
209.883667	172.0
210.049896	164.0
210.212509	44.0
212.141739	196.0
213.099472	144.0
214.084244	348.0
214.863861	180.0
215.953476	48.0
216.096817	208.0
216.169968	136.0
216.966675	180.0
217.139679	120.0
218.140961	176.0
220.002808	168.0
221.123108	176.0
222.078827	100.0
222.551987	92.0
222.837128	136.0
223.110626	208.0
224.065643	216.0
224.093643	168.0
227.081207	928.0
227.118729	184.0
228.054977	140.0
228.086945	128.0
231.034317	120.0
231.243118	128.0
232.094635	708.0
235.093826	216.0
236.0867	168.0
236.63443	112.0
237.098511	240.0
237.734879	120.0
241.138077	96.0
243.517624	76.0
248.095398	184.0
249.105911	164.0
251.09523	148.0
251.972794	76.0
253.098801	168.0
254.179733	56.0
254.910095	156.0
257.998688	156.0
262.132843	140.0
263.077881	112.0
263.119843	104.0
263.177979	160.0
264.07959	140.0
266.06604	196.0
267.936096	36.0
268.076202	148.0
269.082977	216.0
270.080872	132.0
278.094513	192.0
279.08783	160.0
280.116211	64.0
281.092072	196.0
281.156525	144.0
282.091766	168.0
283.139069	176.0
288.759735	80.0
294.688446	80.0
299.081573	92.0
324.263611	108.0
325.160248	176.0
327.158844	108.0
355.384094	124.0
376.332153	72.0
395.461945	40.0
442.27298	44.0
536.744202	60.0
604.509399	36.0
733.412964	56.0
791.348633	196.0
842.519592	80.0
845.289185	196.0
850.812927	168.0
867.210876	136.0
876.997437	204.0
885.630188	208.0
910.820679	108.0
913.892761	224.0
924.156372	72.0
925.687866	180.0
932.35199	40.0
941.695129	164.0
954.227112	152.0
971.607056	228.0
977.416504	108.0
1000.210693	60.0
1005.959778	96.0
1033.153687	64.0
1037.925415	104.0
1053.540039	76.0
1055.136353	172.0
1062.584595	240.0
1063.751953	216.0
1070.05896	56.0
1070.410522	156.0
1079.533569	108.0
1089.634644	132.0
1092.185303	124.0
1102.213135	116.0
1127.706909	176.0
1131.499878	120.0
1133.690308	144.0
1138.493774	144.0
1139.857422	140.0
1140.106079	136.0
1151.140991	136.0
1152.343384	188.0
1159.557129	168.0
1190.092407	120.0
1208.288452	124.0
1222.798584	100.0
1223.926392	128.0
1227.361694	40.0
1229.119507	128.0
1231.269653	160.0
1235.834595	264.0
1242.546753	156.0
1247.09729	164.0
1249.804932	152.0
1256.724243	116.0
1269.010254	192.0
1270.677124	136.0
1272.785156	208.0
1273.197021	60.0
1277.75354	232.0
1278.358398	164.0
1281.819214	116.0
1286.626709	124.0
1293.933472	172.0
1298.598633	208.0
1314.404419	176.0
1314.794189	224.0
1321.297607	216.0
1324.316284	204.0
1327.80249	196.0
1329.166382	164.0
1331.997925	152.0
1333.1604	236.0
1333.872681	200.0
1334.105347	128.0
1337.356934	152.0
1339.53418	56.0
1343.653198	128.0
1347.932007	124.0
1356.356079	120.0
1359.054932	124.0
1368.161377	156.0
1373.02478	132.0
1375.415283	204.0
1382.199951	104.0
1383.761841	64.0
1386.517456	184.0
1388.445068	236.0
1389.379761	272.0
1393.886719	196.0
1396.630127	184.0
1397.269897	124.0
1404.630249	176.0
1404.697388	192.0
1408.38501	152.0
1418.456909	132.0
1424.903442	96.0
1430.732178	180.0
1431.108643	56.0
1434.86084	168.0
1443.710693	152.0
1446.154419	156.0
1448.895752	152.0
1450.108154	136.0
1450.646362	172.0
1456.094482	152.0
1457.819092	164.0
1461.705078	196.0
1463.349121	120.0
1471.553223	156.0
1473.202881	152.0
1473.508545	56.0
1476.726807	64.0
1480.5	96.0
1481.817505	128.0
1490.956787	184.0
1493.48645	136.0
1494.15564	140.0
1503.610718	184.0
END IONS

BEGIN IONS
PEPMASS=305.112
CHARGE=1
MSLEVEL=2
SOURCE_INSTRUMENT=LC-ESI-qTof
FILENAME=p4-G05_GG5_01_18401.mzXML
SEQ=*..*
IONMODE=Positive
ORGANISM=GNPS-NIH-SMALLMOLECULEPHARMACOLOGICALLYACTIVE
NAME=MLS002207243-01!Diazinon333-41-5 M+H
PI=Dorrestein
DATACOLLECTOR=VP/LMS
SMILES=CCOP(=S)(OCC)Oc1cc(C)nc(n1)C(C)C
INCHI=N/A
INCHIAUX=N/A
PUBMED=N/A
SUBMITUSER=vphelan
LIBRARYQUALITY=1
SPECTRUMID=CCMSLIB00000085870
USI=mzspec:GNPS:GNPS-NIH-SMALLMOLECULEPHARMACOLOGICALLYACTIVE:accession:CCMSLIB00000085870
SCANS=2466
44.896957	168.0
44.908276	136.0
44.918301	172.0
44.950321	144.0
44.978348	160.0
44.99704	104.0
45.011726	124.0
45.022411	124.0
45.042915	192.0
45.05444	172.0
45.058952	168.0
45.094559	156.0
45.142689	92.0
45.173382	152.0
45.187756	156.0
45.202888	156.0
45.262978	144.0
45.284554	180.0
45.320728	140.0
45.341537	136.0
45.371735	216.0
45.381355	156.0
45.399879	172.0
45.421486	112.0
45.428467	168.0
45.452137	196.0
45.519257	52.0
45.534031	124.0
45.547462	36.0
45.572369	240.0
45.585083	76.0
45.644608	112.0
45.674557	204.0
45.68996	172.0
45.700726	184.0
45.722256	116.0
45.733025	88.0
45.746487	52.0
45.766682	196.0
45.777454	140.0
45.799004	60.0
45.808434	264.0
45.82999	96.0
45.842117	256.0
45.854248	376.0
45.878513	144.0
45.913723	248.0
45.937851	152.0
45.959438	232.0
45.977768	240.0
45.999702	192.0
46.026932	212.0
46.040436	168.0
46.056644	196.0
46.089069	152.0
46.114746	148.0
46.130306	188.0
46.142452	212.0
46.169041	184.0
46.179153	88.0
46.187763	172.0
46.209263	152.0
46.253017	272.0
46.264145	120.0
46.282501	136.0
46.346165	156.0
46.366493	140.0
46.390892	148.0
46.403137	124.0
46.422077	56.0
46.454121	180.0
46.463802	168.0
46.492622	100.0
46.509972	220.0
46.546925	160.0
46.559147	108.0
46.590874	168.0
46.602619	172.0
46.617565	276.0
46.627079	160.0
46.653553	180.0
46.66309	120.0
46.683384	232.0
46.698151	176.0
46.748543	144.0
46.765598	252.0
46.78487	240.0
46.817505	116.0
46.842068	44.0
46.854328	160.0
46.870888	156.0
46.88419	168.0
46.907413	84.0
46.922718	180.0
46.963387	124.0
46.984715	120.0
47.012505	140.0
47.022057	188.0
47.04697	192.0
47.067108	168.0
47.109451	132.0
47.158646	136.0
47.184616	172.0
47.201027	132.0
47.218803	104.0
47.246655	156.0
47.259342	152.0
47.280151	200.0
47.302273	108.0
47.322102	264.0
47.346951	140.0
47.352875	88.0
47.364254	168.0
47.394035	144.0
47.41185	192.0
47.462494	384.0
47.481216	168.0
47.497162	164.0
47.509209	284.0
47.525444	120.0
47.558609	200.0
47.579201	200.0
47.640045	184.0
47.661613	172.0
47.675354	124.0
47.70697	152.0
47.72546	160.0
47.767479	112.0
47.780617	196.0
47.806263	148.0
47.829403	172.0
47.840416	176.0
47.858315	308.0
47.880348	164.0
47.90694	196.0
47.926689	200.0
47.93457	200.0
47.945652	144.0
47.957504	144.0
47.981285	48.0
48.020519	160.0
48.024872	112.0
48.030663	144.0
48.040504	148.0
48.062634	116.0
48.10244	176.0
48.124435	112.0
48.150673	52.0
48.164486	152.0
48.18861	156.0
48.210197	140.0
48.222179	180.0
48.248756	208.0
48.287502	196.0
48.304932	156.0
48.327415	160.0
48.364319	132.0
48.394363	108.0
48.421757	60.0
48.454845	104.0
48.479946	200.0
48.499352	176.0
48.515987	176.0
48.572845	136.0
48.589493	172.0
48.604244	228.0
48.631462	136.0
48.661667	136.0
48.673595	88.0
48.701939	108.0
48.740723	140.0
48.788376	212.0
48.818687	96.0
48.828423	144.0
48.840942	208.0
48.853462	128.0
48.863201	148.0
48.879765	184.0
48.899384	60.0
48.910519	176.0
48.949501	312.0
48.962036	168.0
49.001041	140.0
49.014973	120.0
49.0256	188.0
49.054001	152.0
49.072769	200.0
49.087463	124.0
49.10257	144.0
49.11396	196.0
49.126682	168.0
49.138474	180.0
49.177006	152.0
49.192108	136.0
49.209576	180.0
49.213303	220.0
49.232601	112.0
49.256962	172.0
49.287083	108.0
49.301029	200.0
49.304821	196.0
49.325699	184.0
49.335361	272.0
49.373756	144.0
49.400333	328.0
49.409153	144.0
49.423626	228.0
49.438866	156.0
49.459332	148.0
49.476448	176.0
49.517483	376.0
49.531921	188.0
49.547333	124.0
49.558064	164.0
49.580963	180.0
49.592175	76.0
49.606018	160.0
49.672478	60.0
49.684483	228.0
49.698116	128.0
49.711388	120.0
49.742268	144.0
49.756306	132.0
49.76754	120.0
49.781582	240.0
49.808266	124.0
49.83215	132.0
49.847607	68.0
49.867634	144.0
49.920708	156.0
49.943211	144.0
49.967003	180.0
49.988235	68.0
49.999493	232.0
50.012161	192.0
50.023987	160.0
50.062847	152.0
50.087559	168.0
50.11356	128.0
50.182549	152.0
50.199207	200.0
50.260204	116.0
50.270081	172.0
50.287231	160.0
50.30732	368.0
50.322636	208.0
50.344906	172.0
50.368916	56.0
50.389481	176.0
50.402218	252.0
50.421196	164.0
50.4491	200.0
50.472088	176.0
50.481968	164.0
50.503204	204.0
50.51479	168.0
50.526943	164.0
50.588108	32.0
50.602264	148.0
50.623505	116.0
50.658081	224.0
50.704262	96.0
50.739956	180.0
50.763332	144.0
50.777985	284.0
50.809959	104.0
50.843174	152.0
50.85503	160.0
50.865356	244.0
50.875896	156.0
50.900036	152.0
50.929863	100.0
50.957638	168.0
50.992046	204.0
51.01228	168.0
51.039974	176.0
51.060627	200.0
51.093346	224.0
51.122276	176.0
51.160698	208.0
51.204525	152.0
51.229557	236.0
51.255665	176.0
51.279282	196.0
51.296997	140.0
51.319626	156.0
51.368298	124.0
51.399689	196.0
51.408714	160.0
51.443935	172.0
51.477058	140.0
51.498196	172.0
51.538029	172.0
51.568855	240.0
51.593941	164.0
51.603951	176.0
51.615391	132.0
51.629639	112.0
51.637501	164.0
51.658905	196.0
51.681393	168.0
51.69355	188.0
51.726986	152.0
51.745743	240.0
51.759808	132.0
51.772186	168.0
51.785698	188.0
51.795937	160.0
51.828674	304.0
51.858891	144.0
51.870239	196.0
51.8913	168.0
51.916122	140.0
51.927593	188.0
51.947678	64.0
51.967846	140.0
52.032352	200.0
52.073997	204.0
52.086926	196.0
52.108212	132.0
52.129028	92.0
52.189529	348.0
52.209099	152.0
52.218342	140.0
52.245495	180.0
52.26664	116.0
52.299744	220.0
52.334946	168.0
52.347256	96.0
52.363094	44.0
52.381229	136.0
52.385857	80.0
52.389503	120.0
52.400551	156.0
52.410637	48.0
52.428688	152.0
52.442341	204.0
52.462524	192.0
52.502872	236.0
52.546173	220.0
52.556274	48.0
52.570705	128.0
52.587578	152.0
52.617741	176.0
52.648663	72.0
52.659874	168.0
52.695465	120.0
52.698166	164.0
52.723789	136.0
52.735352	208.0
52.746918	216.0
52.765709	120.0
52.777279	104.0
52.866966	376.0
52.895454	396.0
52.916431	380.0
52.935005	148.0
52.957699	168.0
52.985703	120.0
53.004539	200.0
53.02338	416.0
53.080765	296.0
53.095074	176.0
53.113277	176.0
53.145195	184.0
53.185833	136.0
53.21051	160.0
53.275867	224.0
53.289471	188.0
53.300484	140.0
53.305939	132.0
53.309811	100.0
53.349678	132.0
53.371796	132.0
53.395061	112.0
53.411064	80.0
53.427616	116.0
53.452114	192.0
53.469265	88.0
53.486732	144.0
53.496922	132.0
53.542061	132.0
53.555241	196.0
53.566822	56.0
53.582848	140.0
53.609077	152.0
53.627182	180.0
53.648434	64.0
53.682632	120.0
53.707142	324.0
53.718433	148.0
53.730103	160.0
53.741776	188.0
53.786655	160.0
53.801617	184.0
53.839012	204.0
53.858875	192.0
53.885582	172.0
53.915321	176.0
53.963299	188.0
54.013935	168.0
54.032623	136.0
54.057659	212.0
54.092995	212.0
54.105717	160.0
54.132072	224.0
54.149647	120.0
54.173046	152.0
54.208668	168.0
54.234947	184.0
54.247822	160.0
54.284996	256.0
54.29768	40.0
54.371037	132.0
54.404884	132.0
54.437218	148.0
54.479698	164.0
54.500267	204.0
54.511864	148.0
54.531128	224.0
54.543991	176.0
54.552189	196.0
54.592037	224.0
54.633358	200.0
54.662018	120.0
54.672321	180.0
54.695869	148.0
54.715008	40.0
54.725315	268.0
54.762131	132.0
54.781281	172.0
54.866096	240.0
54.887402	152.0
54.920326	160.0
54.931084	52.0
54.972961	152.0
55.00396	212.0
55.031757	240.0
55.048252	76.0
55.067375	152.0
55.092564	188.0
55.145763	204.0
55.179764	144.0
55.204899	124.0
55.215252	144.0
55.235962	140.0
55.287148	336.0
55.305706	212.0
55.326893	144.0
55.336597	196.0
55.354591	188.0
55.373619	168.0
55.391396	80.0
55.453629	164.0
55.4729	88.0
55.489437	192.0
55.501534	140.0
55.533695	92.0
55.550014	168.0
55.560398	116.0
55.595715	160.0
55.606621	320.0
55.625698	96.0
55.642029	164.0
55.653252	76.0
55.6745	152.0
55.685093	188.0
55.704403	176.0
55.731144	180.0
55.761856	216.0
55.780437	172.0
55.803978	188.0
55.823307	216.0
55.8493	252.0
55.870907	192.0
55.90662	124.0
55.917038	324.0
55.949261	216.0
56.010983	128.0
56.022991	156.0
56.048092	92.0
56.064484	168.0
56.086254	192.0
56.121128	84.0
56.147972	340.0
56.171837	128.0
56.183773	84.0
56.207775	184.0
56.225555	160.0
56.253914	176.0
56.292648	204.0
56.332184	172.0
56.35099	140.0
56.391342	356.0
56.418667	128.0
56.443283	172.0
56.464603	52.0
56.492496	168.0
56.518372	140.0
56.537579	196.0
56.55368	172.0
56.58308	116.0
56.620258	204.0
56.632908	168.0
56.657707	156.0
56.67662	180.0
56.699665	124.0
56.801689	140.0
56.815125	48.0
56.829334	324.0
56.845135	104.0
56.860882	140.0
56.884159	148.0
56.927101	120.0
56.965588	144.0
56.978775	248.0
56.993797	164.0
57.017845	156.0
57.035881	164.0
57.076473	176.0
57.100311	160.0
57.110828	128.0
57.127613	192.0
57.140598	164.0
57.16222	216.0
57.177982	152.0
57.211082	440.0
57.229774	132.0
57.234993	116.0
57.259022	160.0
57.276829	148.0
57.300747	116.0
57.327595	196.0
57.335991	176.0
57.358017	44.0
57.397217	176.0
57.430824	212.0
57.448498	132.0
57.480183	120.0
57.496063	188.0
57.511669	224.0
57.533249	152.0
57.553944	176.0
57.569252	140.0
57.579823	152.0
57.616077	368.0
57.636494	148.0
57.650112	160.0
57.67347	200.0
57.689751	176.0
57.706444	172.0
57.730957	112.0
57.741543	208.0
57.796001	136.0
57.810078	328.0
57.828514	116.0
57.85722	72.0
57.885998	180.0
57.908031	120.0
57.920151	168.0
57.937473	176.0
57.975075	192.0
57.990017	192.0
58.021687	188.0
58.032299	108.0
58.072098	164.0
58.121792	128.0
58.139656	328.0
58.164288	164.0
58.207222	176.0
58.234138	68.0
58.24477	128.0
58.258442	100.0
58.320747	216.0
58.353916	176.0
58.369045	208.0
58.39373	152.0
58.423294	208.0
58.443932	180.0
58.460148	220.0
58.486546	96.0
58.516438	228.0
58.529083	132.0
58.562656	136.0
58.577419	172.0
58.58054	116.0
58.617527	192.0
58.632767	96.0
58.649979	220.0
58.687649	112.0
58.727299	184.0
58.739502	140.0
58.752377	164.0
58.765438	188.0
58.795959	212.0
58.80817	152.0
58.820381	136.0
58.836533	172.0
58.860077	84.0
58.871277	276.0
58.921005	216.0
58.962471	156.0
58.993004	228.0
59.025436	132.0
59.040405	132.0
59.052639	152.0
59.08371	180.0
59.139854	148.0
59.159756	124.0
59.233265	156.0
59.246983	176.0
59.259426	140.0
59.286892	124.0
59.299152	148.0
59.332985	212.0
59.364147	336.0
59.388084	96.0
59.40189	116.0
59.414635	148.0
59.444851	304.0
59.47094	164.0
59.484756	204.0
59.52314	144.0
59.561539	176.0
59.583813	140.0
59.627609	196.0
59.642979	192.0
59.65374	152.0
59.675209	112.0
59.744389	216.0
59.767555	64.0
59.836819	156.0
59.876953	256.0
59.892258	224.0
59.907661	96.0
59.927692	52.0
59.964195	128.0
60.009384	140.0
60.024803	120.0
60.035599	108.0
60.051022	144.0
60.091129	132.0
60.108105	48.0
60.135883	204.0
60.148232	212.0
60.202061	176.0
60.236252	108.0
60.251701	136.0
60.262516	128.0
60.282734	184.0
60.301308	160.0
60.327431	268.0
60.359684	116.0
60.373817	164.0
60.418503	144.0
60.472836	140.0
60.499989	200.0
60.584332	316.0
60.597515	120.0
60.61031	188.0
60.613556	144.0
60.643631	164.0
60.661819	156.0
60.692825	204.0
60.730896	140.0
60.750793	224.0
60.809109	172.0
60.84333	108.0
60.883705	132.0
60.967117	276.0
60.991264	124.0
61.009567	176.0
61.036518	72.0
61.052326	208.0
61.068657	88.0
61.087326	124.0
61.10461	144.0
61.121555	68.0
61.188061	236.0
61.242546	84.0
61.274147	232.0
61.301453	160.0
61.336483	108.0
61.352074	148.0
61.395592	176.0
61.428375	108.0
61.445576	164.0
61.472176	128.0
61.500271	176.0
61.51432	132.0
61.545094	208.0
61.559601	172.0
61.572094	132.0
61.601772	152.0
61.628643	140.0
61.662754	152.0
61.71854	180.0
61.730953	148.0
61.745815	132.0
61.76017	280.0
61.793365	328.0
61.811077	152.0
61.851974	180.0
61.870518	204.0
61.908276	96.0
61.939667	152.0
61.953072	200.0
61.975986	176.0
62.00391	160.0
62.025852	204.0
62.049004	144.0
62.083866	112.0
62.130924	124.0
62.146614	112.0
62.174725	136.0
62.197151	208.0
62.210964	196.0
62.229156	136.0
62.25029	176.0
62.273777	140.0
62.291447	128.0
62.302624	176.0
62.318607	148.0
62.333477	192.0
62.349194	228.0
62.36491	80.0
62.428612	180.0
62.44038	160.0
62.468697	160.0
62.5159	180.0
62.534786	172.0
62.549553	152.0
62.598347	172.0
62.622959	176.0
62.640285	128.0
62.6838	188.0
62.741146	164.0
62.760544	172.0
62.77869	148.0
62.82	164.0
62.849976	128.0
62.868763	208.0
62.906563	136.0
62.931583	80.0
62.962063	236.0
62.974972	160.0
62.992073	188.0
63.020512	196.0
63.035152	480.0
63.105865	312.0
63.174927	264.0
63.199188	348.0
63.226208	160.0
63.2435	184.0
63.254856	180.0
63.279995	140.0
63.311581	160.0
63.373363	144.0
63.384453	200.0
63.43993	164.0
63.466801	240.0
63.494076	188.0
63.524921	184.0
63.543774	176.0
63.558884	168.0
63.587448	204.0
63.599319	148.0
63.620785	188.0
63.666832	248.0
63.679096	232.0
63.701778	144.0
63.720974	144.0
63.742294	152.0
63.786003	100.0
63.806225	124.0
63.843243	112.0
63.870712	192.0
63.890961	132.0
63.905281	96.0
63.935516	220.0
63.949841	136.0
63.960983	172.0
63.992825	176.0
64.031044	192.0
64.05175	40.0
64.072456	60.0
64.0868	216.0
64.120911	228.0
64.152145	160.0
64.172913	156.0
64.192009	176.0
64.204956	192.0
64.237946	140.0
64.292374	184.0
64.305283	140.0
64.331749	144.0
64.367546	136.0
64.404274	168.0
64.415459	52.0
64.438782	280.0
64.463501	116.0
64.480225	128.0
64.499428	168.0
64.52301	148.0
64.549713	112.0
64.561806	164.0
64.610497	112.0
64.634193	168.0
64.67131	48.0
64.690514	224.0
64.724136	136.0
64.743355	184.0
64.785004	156.0
64.802444	140.0
64.810997	160.0
64.835533	172.0
64.884811	204.0
64.906815	184.0
64.927666	176.0
64.953957	112.0
64.97438	164.0
64.981613	108.0
65.078278	176.0
65.085419	92.0
65.098999	116.0
65.120262	76.0
65.157997	312.0
65.171677	228.0
65.189346	140.0
65.205452	204.0
65.211327	136.0
65.248825	116.0
65.260078	196.0
65.287415	176.0
65.306717	220.0
65.319542	144.0
65.333977	144.0
65.352913	184.0
65.372681	80.0
65.407898	196.0
65.465515	136.0
65.511154	132.0
65.537827	180.0
65.54744	108.0
65.577011	184.0
65.580727	160.0
65.587288	212.0
65.612686	228.0
65.647072	160.0
65.696548	164.0
65.716125	188.0
65.729439	308.0
65.746574	96.0
65.793381	184.0
65.828903	204.0
65.845055	132.0
65.860451	204.0
65.875748	180.0
65.896751	168.0
65.92099	88.0
65.945229	188.0
65.96463	104.0
65.98114	56.0
66.001816	212.0
66.024109	132.0
66.06813	132.0
66.081642	184.0
66.095634	168.0
66.116676	80.0
66.149048	68.0
66.17009	68.0
66.196716	144.0
66.249451	164.0
66.270515	112.0
66.291023	176.0
66.297783	164.0
66.302925	148.0
66.348312	104.0
66.380737	136.0
66.394218	320.0
66.421288	92.0
66.450493	168.0
66.474167	352.0
66.518654	148.0
66.536514	52.0
66.560867	180.0
66.572235	92.0
66.59343	160.0
66.610794	184.0
66.628944	232.0
66.653458	220.0
66.666458	188.0
66.689217	304.0
66.716812	188.0
66.741325	148.0
66.748199	128.0
66.753082	184.0
66.779129	120.0
66.804672	208.0
66.827446	180.0
66.840462	148.0
66.868134	140.0
66.923477	284.0
66.939766	192.0
66.95179	252.0
66.964195	140.0
66.983231	396.0
67.022446	180.0
67.026962	136.0
67.045654	136.0
67.065216	68.0
67.079803	156.0
67.105972	168.0
67.123909	148.0
67.151634	180.0
67.187523	260.0
67.211685	148.0
67.233955	176.0
67.251122	164.0
67.285843	148.0
67.324638	124.0
67.383438	104.0
67.408562	128.0
67.425652	140.0
67.461891	192.0
67.479004	120.0
67.499359	144.0
67.55674	168.0
67.579651	112.0
67.593544	164.0
67.606552	176.0
67.640205	104.0
67.653297	128.0
67.688675	224.0
67.71701	44.0
67.746651	220.0
67.764671	208.0
67.790886	164.0
67.812706	192.0
67.843018	124.0
67.857277	120.0
67.907402	288.0
67.940102	140.0
67.963066	332.0
67.984505	196.0
68.030365	164.0
68.049942	160.0
68.12397	48.0
68.140396	164.0
68.159004	148.0
68.16394	256.0
68.186409	96.0
68.230537	176.0
68.280037	148.0
68.405182	180.0
68.424911	244.0
68.454597	276.0
68.484222	92.0
68.50399	160.0
68.527664	184.0
68.544891	160.0
68.549873	132.0
68.584557	184.0
68.62925	172.0
68.645737	164.0
68.730347	192.0
68.748734	132.0
68.765732	344.0
68.794235	168.0
68.810745	44.0
68.833862	152.0
68.894241	304.0
68.92141	180.0
69.027206	128.0
69.048088	128.0
69.060287	164.0
69.093369	96.0
69.12236	308.0
69.140343	124.0
69.169304	172.0
69.182602	196.0
69.197151	188.0
69.200401	132.0
69.207436	144.0
69.239037	228.0
69.265541	152.0
69.288322	192.0
69.310272	140.0
69.350861	188.0
69.357155	264.0
69.381546	124.0
69.400742	180.0
69.430923	180.0
69.492668	136.0
69.5159	200.0
69.540794	172.0
69.56736	244.0
69.592262	192.0
69.635956	268.0
69.680222	188.0
69.728485	152.0
69.745972	368.0
69.768379	176.0
69.788963	168.0
69.81356	160.0
69.829903	156.0
69.864838	128.0
69.908096	176.0
69.932449	140.0
69.941788	116.0
69.955177	140.0
69.968201	112.0
69.984177	204.0
70.032967	116.0
70.074615	140.0
70.091278	148.0
70.112946	120.0
70.12542	156.0
70.167397	120.0
70.200188	296.0
70.21965	124.0
70.248009	120.0
70.27092	312.0
70.302231	128.0
70.314262	164.0
70.329773	188.0
70.374054	176.0
70.397705	204.0
70.463371	156.0
70.481377	212.0
70.484276	164.0
70.563652	108.0
70.575356	144.0
70.603378	324.0
70.630379	188.0
70.65744	160.0
70.688538	152.0
70.72921	212.0
70.754387	156.0
70.779503	176.0
70.798248	200.0
70.836334	288.0
70.863258	104.0
70.91185	76.0
70.963821	188.0
70.99736	76.0
71.030907	212.0
71.081238	160.0
71.098022	44.0
71.11422	196.0
71.144989	208.0
71.18158	264.0
71.215553	252.0
71.244255	128.0
71.267632	284.0
71.286308	180.0
71.308556	136.0
71.337395	136.0
71.361755	144.0
71.386978	152.0
71.403801	160.0
71.422882	288.0
71.447533	148.0
71.459312	180.0
71.48455	164.0
71.499702	184.0
71.515915	120.0
71.525833	160.0
71.540672	148.0
71.565353	164.0
71.58342	148.0
71.587364	108.0
71.592812	156.0
71.629349	136.0
71.651253	144.0
71.668098	148.0
71.696747	148.0
71.715683	120.0
71.744476	244.0
71.767548	128.0
71.791397	140.0
71.808022	124.0
71.824471	120.0
71.843742	192.0
71.880905	160.0
71.917702	172.0
71.932892	192.0
71.979324	124.0
72.007164	280.0
72.024323	140.0
72.047729	156.0
72.077293	192.0
72.099876	144.0
72.120567	172.0
72.134644	164.0
72.151268	168.0
72.204048	276.0
72.249138	180.0
72.268715	148.0
72.282753	188.0
72.296295	176.0
72.309174	156.0
72.338608	140.0
72.37117	308.0
72.400101	88.0
72.416504	164.0
72.435135	184.0
72.457161	312.0
72.485748	128.0
72.509689	160.0
72.523247	192.0
72.540199	156.0
72.584282	168.0
72.601242	160.0
72.616966	192.0
72.635963	340.0
72.66774	200.0
72.684013	152.0
72.714821	140.0
72.740379	152.0
72.76075	208.0
72.779427	224.0
72.794708	204.0
72.814796	116.0
72.855858	204.0
72.889839	156.0
72.915329	192.0
72.933281	224.0
72.949196	132.0
72.992966	156.0
73.047958	184.0
73.066559	176.0
73.102409	144.0
73.115623	172.0
73.12751	180.0
73.154633	176.0
73.171364	172.0
73.223282	212.0
73.24202	164.0
73.294304	180.0
73.321091	216.0
73.331032	116.0
73.381767	164.0
73.395409	172.0
73.407051	164.0
73.414116	136.0
73.456886	172.0
73.479553	144.0
73.543068	188.0
73.549088	104.0
73.553169	196.0
73.567734	192.0
73.582428	132.0
73.624664	152.0
73.647995	208.0
73.670197	292.0
73.694199	168.0
73.730835	156.0
73.75222	208.0
73.764511	148.0
73.782997	144.0
73.822556	588.0
73.838966	184.0
73.916061	196.0
73.993439	308.0
74.024353	144.0
74.063652	360.0
74.132187	128.0
74.177612	148.0
74.198242	304.0
74.214462	116.0
74.229836	116.0
74.269348	132.0
74.305374	288.0
74.340424	220.0
74.365433	56.0
74.377449	60.0
74.39917	172.0
74.427528	140.0
74.442589	136.0
74.466049	228.0
74.510719	148.0
74.533257	192.0
74.581863	100.0
74.603325	156.0
74.648529	144.0
74.683311	148.0
74.711914	224.0
74.734924	368.0
74.764786	204.0
74.789993	164.0
74.838196	120.0
74.854141	416.0
74.871941	236.0
74.894142	124.0
74.922592	80.0
74.991524	156.0
75.022552	116.0
75.058235	144.0
75.081177	156.0
75.157082	116.0
75.176064	212.0
75.189873	168.0
75.264107	128.0
75.277916	104.0
75.329735	184.0
75.357376	188.0
75.385025	120.0
75.438606	124.0
75.468002	180.0
75.508484	304.0
75.530563	184.0
75.563133	48.0
75.584999	88.0
75.587898	128.0
75.608894	104.0
75.677345	292.0
75.70507	136.0
75.733429	136.0
75.746193	200.0
75.760437	104.0
75.766182	144.0
75.788223	228.0
75.835655	232.0
75.876617	176.0
75.899757	208.0
75.918236	64.0
75.940956	192.0
75.965118	140.0
75.999763	136.0
76.015381	224.0
76.067451	220.0
76.090027	136.0
76.105652	152.0
76.145515	176.0
76.171646	128.0
76.21508	180.0
76.240372	116.0
76.294189	156.0
76.318825	164.0
76.336494	128.0
76.359375	228.0
76.37677	156.0
76.393524	120.0
76.398277	88.0
76.411583	288.0
76.425484	180.0
76.451584	160.0
76.481171	56.0
76.501877	188.0
76.517731	112.0
76.537148	184.0
76.602669	204.0
76.671021	120.0
76.693443	324.0
76.716652	136.0
76.751213	144.0
76.775909	148.0
76.790314	172.0
76.812256	64.0
76.82621	160.0
76.840172	124.0
76.91172	208.0
76.930923	124.0
77.021729	100.0
77.074631	144.0
77.117599	208.0
77.145805	200.0
77.197594	136.0
77.222443	140.0
77.250732	188.0
77.274727	252.0
77.281601	180.0
77.332977	152.0
77.356506	216.0
77.363243	96.0
77.367294	244.0
77.383385	196.0
77.400604	184.0
77.425774	180.0
77.454041	200.0
77.482758	140.0
77.532646	88.0
77.550171	160.0
77.585228	176.0
77.613281	152.0
77.649635	192.0
77.679947	208.0
77.702354	164.0
77.731384	148.0
77.767715	140.0
77.788345	308.0
77.825424	240.0
77.865005	92.0
77.903778	212.0
77.930992	148.0
77.955269	152.0
77.973167	196.0
77.994263	204.0
78.025421	160.0
78.045242	192.0
78.082085	152.0
78.127907	220.0
78.161339	148.0
78.191254	144.0
78.203575	180.0
78.244278	168.0
78.279282	132.0
78.291611	92.0
78.314507	112.0
78.348549	272.0
78.398277	44.0
78.409065	140.0
78.432564	368.0
78.451401	140.0
78.469589	172.0
78.513672	144.0
78.535896	180.0
78.569641	180.0
78.589531	168.0
78.656418	188.0
78.65947	184.0
78.685966	188.0
78.712791	212.0
78.736885	296.0
78.762825	208.0
78.778534	152.0
78.798149	128.0
78.838516	144.0
78.859207	136.0
78.86599	96.0
78.874252	188.0
78.921677	96.0
78.937515	132.0
78.951668	168.0
78.970787	148.0
79.062164	148.0
79.08197	216.0
79.099831	168.0
79.115082	192.0
79.137474	172.0
79.156952	136.0
79.187943	184.0
79.26947	168.0
79.317497	300.0
79.344238	172.0
79.355675	188.0
79.419258	152.0
79.523735	272.0
79.552345	140.0
79.577309	200.0
79.605614	152.0
79.618042	336.0
79.65992	292.0
79.676659	236.0
79.719223	84.0
79.738853	144.0
79.758408	124.0
79.774361	160.0
79.808189	80.0
79.834862	192.0
79.850067	196.0
79.888222	200.0
79.899681	108.0
79.927368	168.0
80.016365	132.0
80.028831	76.0
80.055542	144.0
80.081108	124.0
80.100204	156.0
80.130356	148.0
80.162376	140.0
80.187378	68.0
80.251556	132.0
80.362144	220.0
80.415115	152.0
80.428291	180.0
80.452347	252.0
80.484482	172.0
80.520668	208.0
80.558578	156.0
80.580582	188.0
80.597839	224.0
80.642517	172.0
80.657715	136.0
80.684319	188.0
80.717606	144.0
80.771202	280.0
80.786728	248.0
80.835678	168.0
80.856247	224.0
80.920639	112.0
80.991928	160.0
81.008957	164.0
81.029579	180.0
81.06131	256.0
81.118668	36.0
81.145645	176.0
81.180199	376.0
81.208176	312.0
81.244202	224.0
81.274704	140.0
81.345329	152.0
81.359062	240.0
81.398567	128.0
81.411133	108.0
81.430618	160.0
81.481827	192.0
81.49736	124.0
81.529709	140.0
81.560265	156.0
81.576439	184.0
81.598015	160.0
81.624985	144.0
81.650482	136.0
81.682541	128.0
81.720322	128.0
81.759712	184.0
81.788712	240.0
81.817261	144.0
81.902153	340.0
81.941788	124.0
81.959801	196.0
82.000496	152.0
82.007034	192.0
82.020378	232.0
82.059479	200.0
82.074226	156.0
82.120956	164.0
82.139229	200.0
82.16716	136.0
82.188812	112.0
82.210464	120.0
82.237534	156.0
82.275444	176.0
82.30468	168.0
82.334106	140.0
82.354813	168.0
82.361313	160.0
82.369354	96.0
82.37748	160.0
82.405487	208.0
82.423553	192.0
82.438683	140.0
82.447273	172.0
82.453323	144.0
82.477776	104.0
82.490425	204.0
82.526588	40.0
82.585747	168.0
82.615211	44.0
82.638321	176.0
82.651398	220.0
82.661385	108.0
82.668327	168.0
82.718361	64.0
82.771065	112.0
82.805275	148.0
82.855995	184.0
82.870453	176.0
82.928574	160.0
82.973015	220.0
83.030792	168.0
83.089302	176.0
83.120728	200.0
83.147041	232.0
83.215118	140.0
83.253937	172.0
83.280495	168.0
83.316826	180.0
83.333176	192.0
83.362251	164.0
83.379761	208.0
83.394539	188.0
83.418205	112.0
83.445869	304.0
83.458344	172.0
83.47496	128.0
83.487694	60.0
83.51886	256.0
83.540436	184.0
83.573921	188.0
83.621269	148.0
83.636681	212.0
83.639671	132.0
83.686043	160.0
83.715179	192.0
83.731522	156.0
83.764801	140.0
83.780746	188.0
83.815369	120.0
83.84613	264.0
83.857895	168.0
83.913795	56.0
83.928383	76.0
83.946617	76.0
83.972321	172.0
84.008636	192.0
84.023743	156.0
84.043549	176.0
84.049057	180.0
84.070671	108.0
84.08345	164.0
84.118126	132.0
84.132492	152.0
84.166618	200.0
84.181168	160.0
84.221146	300.0
84.245743	164.0
84.264236	120.0
84.306259	352.0
84.326363	148.0
84.366585	100.0
84.436066	164.0
84.467163	160.0
84.494522	188.0
84.534859	168.0
84.5495	136.0
84.569023	60.0
84.61174	128.0
84.644516	208.0
84.708321	200.0
84.747276	164.0
84.760735	104.0
84.782089	228.0
84.794922	156.0
84.840752	168.0
84.853584	500.0
84.871597	160.0
84.905991	152.0
84.92852	144.0
84.945282	168.0
84.969276	140.0
84.985031	156.0
84.995872	244.0
85.037025	104.0
85.055382	192.0
85.095772	164.0
85.112297	164.0
85.136169	124.0
85.175308	196.0
85.196785	164.0
85.216995	156.0
85.233536	132.0
85.283432	216.0
85.303375	136.0
85.322433	196.0
85.362213	148.0
85.423866	108.0
85.461395	148.0
85.507553	128.0
85.538841	204.0
85.568298	152.0
85.611298	160.0
85.665428	204.0
85.698029	176.0
85.71994	148.0
85.742165	188.0
85.761734	164.0
85.780167	172.0
85.794312	208.0
85.814613	480.0
85.846336	180.0
85.861298	116.0
85.881584	248.0
85.900032	184.0
85.946159	252.0
85.982956	136.0
86.029831	168.0
86.034355	188.0
86.066551	160.0
86.095688	128.0
86.121544	164.0
86.143707	176.0
86.160339	208.0
86.174118	148.0
86.177727	68.0
86.185043	108.0
86.219955	136.0
86.247192	148.0
86.293709	248.0
86.332245	160.0
86.365532	200.0
86.384033	152.0
86.39698	152.0
86.438675	140.0
86.458046	104.0
86.504318	52.0
86.524689	140.0
86.53833	216.0
86.563568	216.0
86.57798	184.0
86.632103	228.0
86.656494	144.0
86.695099	160.0
86.721046	176.0
86.738358	236.0
86.752563	136.0
86.79335	184.0
86.885658	184.0
86.951042	160.0
86.998062	180.0
87.031624	136.0
87.060577	232.0
87.101639	184.0
87.123734	180.0
87.131073	160.0
87.157173	120.0
87.181168	136.0
87.198059	208.0
87.237434	176.0
87.269905	136.0
87.302177	152.0
87.362701	244.0
87.413795	148.0
87.42868	168.0
87.465912	188.0
87.59626	192.0
87.63166	196.0
87.683838	252.0
87.750572	120.0
87.777054	132.0
87.803093	112.0
87.834869	284.0
87.874084	180.0
87.9095	196.0
87.937492	140.0
87.986336	156.0
88.014038	108.0
88.027107	128.0
88.071938	188.0
88.12117	188.0
88.148537	48.0
88.163483	128.0
88.180107	152.0
88.195259	80.0
88.274986	184.0
88.296227	180.0
88.309319	148.0
88.346733	340.0
88.371056	120.0
88.404739	156.0
88.422134	148.0
88.449654	144.0
88.493568	148.0
88.517059	288.0
88.529793	120.0
88.560928	216.0
88.578865	164.0
88.605095	156.0
88.61821	136.0
88.7099	224.0
88.760666	188.0
88.776001	172.0
88.796303	96.0
88.809433	148.0
88.826309	116.0
88.841316	132.0
88.859901	84.0
88.890106	224.0
88.922546	196.0
88.946411	140.0
88.959549	172.0
88.972137	96.0
89.004234	140.0
89.044342	104.0
89.080482	212.0
89.091728	136.0
89.122948	116.0
89.137985	172.0
89.16993	180.0
89.197021	136.0
89.212708	228.0
89.228706	136.0
89.259422	160.0
89.303818	212.0
89.335411	124.0
89.373039	456.0
89.405304	280.0
89.462639	180.0
89.483292	188.0
89.501228	156.0
89.51432	152.0
89.566444	208.0
89.592247	156.0
89.608398	220.0
89.649857	136.0
89.695419	336.0
89.723366	188.0
89.745995	184.0
89.774048	132.0
89.80587	244.0
89.827415	264.0
89.862938	168.0
89.891243	192.0
89.949753	48.0
89.967728	176.0
89.974625	92.0
89.979057	192.0
90.004868	292.0
90.031021	188.0
90.10083	224.0
90.127289	84.0
90.143433	172.0
90.204773	144.0
90.242004	324.0
90.256691	208.0
90.269058	208.0
90.314453	140.0
90.32769	244.0
90.348503	144.0
90.393181	340.0
90.455383	176.0
90.490448	96.0
90.511276	152.0
90.533348	116.0
90.546555	204.0
90.593857	60.0
90.599655	152.0
90.653358	120.0
90.685577	116.0
90.72728	128.0
90.780373	152.0
90.81205	188.0
90.880913	156.0
90.904709	340.0
90.926453	84.0
90.947334	156.0
90.993721	1048.0
91.040695	140.0
91.056953	136.0
91.098488	180.0
91.116348	148.0
91.163849	148.0
91.179054	156.0
91.232277	196.0
91.256996	40.0
91.274109	180.0
91.332245	212.0
91.380821	120.0
91.397751	204.0
91.416786	168.0
91.447235	124.0
91.46627	160.0
91.494431	212.0
91.51577	184.0
91.541351	304.0
91.590042	136.0
91.618614	180.0
91.645294	108.0
91.671967	200.0
91.688133	176.0
91.734589	136.0
91.769188	136.0
91.856918	120.0
91.877899	132.0
91.959961	144.0
91.97332	288.0
92.017227	48.0
92.034393	284.0
92.04969	208.0
92.102211	120.0
92.123314	144.0
92.139465	168.0
92.168198	216.0
92.233101	184.0
92.280899	156.0
92.294281	164.0
92.314682	84.0
92.337708	116.0
92.357391	152.0
92.384415	160.0
92.412872	148.0
92.443489	128.0
92.480362	212.0
92.500458	184.0
92.577499	84.0
92.622879	164.0
92.640709	112.0
92.656036	144.0
92.694542	208.0
92.746109	132.0
92.786552	268.0
92.820877	52.0
92.851562	200.0
92.891846	120.0
92.924454	132.0
92.964752	196.0
92.998238	360.0
93.049561	232.0
93.076096	208.0
93.091461	72.0
93.116425	96.0
93.152016	196.0
93.179817	184.0
93.193268	176.0
93.22123	116.0
93.254761	52.0
93.277832	100.0
93.315361	152.0
93.380356	212.0
93.422058	128.0
93.441299	184.0
93.478027	136.0
93.520119	180.0
93.553665	372.0
93.577957	148.0
93.63826	140.0
93.686882	204.0
93.757103	108.0
93.792557	132.0
93.813004	136.0
93.829025	372.0
93.911736	180.0
93.934494	208.0
93.963432	104.0
94.010574	232.0
94.036766	164.0
94.052155	160.0
94.066322	272.0
94.100471	184.0
94.114479	156.0
94.148743	164.0
94.172302	148.0
94.192497	184.0
94.223076	144.0
94.244225	132.0
94.260414	164.0
94.300926	172.0
94.307297	132.0
94.315384	180.0
94.353294	140.0
94.435234	192.0
94.471542	120.0
94.490891	160.0
94.510239	164.0
94.557365	160.0
94.615929	172.0
94.624214	160.0
94.656647	208.0
94.734833	112.0
94.75351	156.0
94.807816	192.0
94.829781	164.0
94.849167	92.0
94.879227	136.0
94.905388	152.0
94.944405	168.0
94.983978	132.0
95.01207	104.0
95.038521	120.0
95.069504	504.0
95.095512	68.0
95.112976	272.0
95.147926	120.0
95.192581	176.0
95.219772	128.0
95.237251	416.0
95.258949	164.0
95.277931	196.0
95.30719	100.0
95.320793	132.0
95.373566	104.0
95.421692	172.0
95.427155	156.0
95.447815	140.0
95.472427	124.0
95.519112	132.0
95.54837	192.0
95.563858	124.0
95.579422	160.0
95.602776	104.0
95.626129	136.0
95.647453	176.0
95.663055	256.0
95.728516	68.0
95.763123	156.0
95.798378	332.0
95.836189	176.0
95.854759	224.0
95.87738	56.0
95.941284	260.0
95.958214	120.0
96.027069	252.0
96.067505	196.0
96.099686	148.0
96.125053	168.0
96.165932	360.0
96.184982	176.0
96.215897	140.0
96.246727	132.0
96.293762	212.0
96.31781	140.0
96.348793	184.0
96.390144	208.0
96.394104	196.0
96.401787	164.0
96.417992	200.0
96.447311	236.0
96.486412	48.0
96.500092	100.0
96.517303	220.0
96.567909	148.0
96.576286	100.0
96.591156	328.0
96.633781	148.0
96.660492	64.0
96.703545	152.0
96.722458	236.0
96.768341	188.0
96.789055	160.0
96.804451	128.0
96.81823	164.0
96.839485	160.0
96.874107	320.0
96.890755	344.0
96.896736	484.0
96.906349	324.0
96.923019	308.0
96.951004	106752.0
97.014771	196.0
97.050896	328.0
97.077057	224.0
97.102318	304.0
97.123138	116.0
97.148071	80.0
97.173737	284.0
97.213631	120.0
97.23027	108.0
97.255722	96.0
97.273117	1204.0
97.295189	64.0
97.308319	64.0
97.346786	132.0
97.373764	48.0
97.38707	100.0
97.395058	48.0
97.405693	144.0
97.43042	108.0
97.442863	192.0
97.49086	140.0
97.495773	56.0
97.519302	160.0
97.5457	256.0
97.562752	168.0
97.607216	116.0
97.625671	52.0
97.643044	96.0
97.661072	256.0
97.674843	64.0
97.709885	180.0
97.728333	148.0
97.749603	244.0
97.792061	228.0
97.819321	172.0
97.840149	152.0
97.85984	144.0
97.912453	212.0
97.931877	124.0
97.949776	884.0
97.987862	160.0
98.005592	160.0
98.061462	184.0
98.096947	564.0
98.130226	52.0
98.14949	148.0
98.17942	144.0
98.241425	124.0
98.265869	140.0
98.289543	184.0
98.321693	96.0
98.345245	160.0
98.371361	132.0
98.390846	248.0
98.442085	132.0
98.470085	240.0
98.486862	204.0
98.519897	96.0
98.566536	192.0
98.599327	148.0
98.633202	100.0
98.656281	136.0
98.671005	156.0
98.687149	124.0
98.707336	136.0
98.728104	40.0
98.747879	388.0
98.77388	216.0
98.786041	132.0
98.831017	168.0
98.868568	128.0
98.894302	156.0
98.907753	124.0
98.946587	6748.0
98.982941	232.0
99.016563	240.0
99.028374	168.0
99.069473	208.0
99.103844	168.0
99.135002	96.0
99.15509	156.0
99.209267	208.0
99.249527	92.0
99.286598	208.0
99.324417	184.0
99.337944	288.0
99.361977	92.0
99.377853	192.0
99.397697	124.0
99.419525	308.0
99.435402	168.0
99.463188	56.0
99.490242	140.0
99.536652	192.0
99.550552	152.0
99.57637	68.0
99.593117	176.0
99.659805	364.0
99.696754	148.0
99.715446	168.0
99.75856	140.0
99.79673	104.0
99.828773	144.0
99.848663	68.0
99.868553	60.0
99.892502	192.0
99.932472	464.0
99.957558	396.0
100.000854	404.0
100.021637	70256.0
100.100746	136.0
100.108978	40.0
100.120552	280.0
100.153099	172.0
100.180183	124.0
100.206833	108.0
100.249619	140.0
100.269363	220.0
100.284035	36.0
100.316246	88.0
100.328896	172.0
100.349869	704.0
100.387581	104.0
100.399094	200.0
100.413017	160.0
100.436241	176.0
100.467926	160.0
100.483124	120.0
100.505981	184.0
100.561951	64.0
100.577919	72.0
100.605865	148.0
100.619843	172.0
100.659775	76.0
100.6875	156.0
100.709709	184.0
100.736015	164.0
100.776932	80.0
100.807892	128.0
100.831589	176.0
100.849579	52.0
100.868568	176.0
100.893555	92.0
100.913551	280.0
100.933884	308.0
100.956078	152.0
101.023376	3784.0
101.05864	148.0
101.096245	216.0
101.123604	140.0
101.14608	208.0
101.181656	140.0
101.20768	196.0
101.25631	228.0
101.281128	328.0
101.323853	108.0
101.367935	84.0
101.402008	288.0
101.460136	44.0
101.494415	168.0
101.542793	128.0
101.608185	180.0
101.652695	276.0
101.668755	52.0
101.728668	80.0
101.74704	192.0
101.7854	148.0
101.806442	112.0
101.820747	156.0
101.83551	132.0
101.855484	100.0
101.880104	176.0
101.92421	116.0
101.9534	208.0
102.016602	3520.0
102.048096	176.0
102.080589	48.0
102.138916	40.0
102.167625	148.0
102.190384	260.0
102.29351	184.0
102.313995	196.0
102.336143	196.0
102.361618	172.0
102.390518	208.0
102.415657	124.0
102.436844	100.0
102.467064	184.0
102.497002	168.0
102.543388	192.0
102.600983	188.0
102.608749	268.0
102.662003	124.0
102.727135	124.0
102.763451	120.0
102.804314	144.0
102.831261	160.0
102.856285	180.0
102.874458	160.0
102.893631	88.0
102.930992	100.0
102.955223	136.0
103.017769	116.0
103.046822	128.0
103.074409	148.0
103.098663	128.0
103.118874	44.0
103.159302	200.0
103.177498	168.0
103.195694	180.0
103.215378	120.0
103.244225	152.0
103.286697	68.0
103.323112	112.0
103.361557	180.0
103.400009	164.0
103.41925	300.0
103.450615	168.0
103.512413	284.0
103.549835	124.0
103.594398	116.0
103.617111	152.0
103.663292	172.0
103.685585	76.0
103.77681	192.0
103.80722	192.0
103.847786	168.0
103.874153	180.0
103.900528	108.0
103.985756	144.0
104.006058	148.0
104.031212	132.0
104.048683	108.0
104.067795	144.0
104.115692	44.0
104.138039	192.0
104.257469	188.0
104.272133	72.0
104.318886	184.0
104.345322	160.0
104.370461	164.0
104.376152	196.0
104.40332	424.0
104.463478	204.0
104.569847	256.0
104.61631	200.0
104.634354	128.0
104.674446	120.0
104.738091	132.0
104.764572	96.0
104.784943	80.0
104.801247	108.0
104.868118	300.0
104.884804	100.0
104.917419	172.0
104.963295	136.0
105.018196	192.0
105.03978	164.0
105.058144	220.0
105.090782	144.0
105.119354	128.0
105.16581	184.0
105.170059	192.0
105.233665	204.0
105.305138	68.0
105.329651	132.0
105.368469	64.0
105.386856	152.0
105.415466	104.0
105.444077	116.0
105.475838	252.0
105.515625	96.0
105.536072	88.0
105.556519	148.0
105.574921	96.0
105.613785	164.0
105.666267	104.0
105.693573	216.0
105.721954	124.0
105.726883	172.0
105.763161	36.0
105.824577	100.0
105.843002	192.0
105.871674	124.0
105.892151	104.0
106.029427	104.0
106.066322	128.0
106.080673	40.0
106.13974	188.0
106.164734	88.0
106.181145	176.0
106.22422	180.0
106.242683	88.0
106.268982	244.0
106.304237	136.0
106.324615	168.0
106.378128	168.0
106.414917	148.0
106.511612	136.0
106.576561	124.0
106.665726	224.0
106.689102	76.0
106.729462	164.0
106.762367	36.0
106.790253	168.0
106.811729	108.0
106.828186	192.0
106.863159	76.0
106.903305	116.0
106.918724	180.0
106.974617	312.0
106.995453	160.0
107.058716	168.0
107.091675	132.0
107.116394	92.0
107.235901	136.0
107.250336	156.0
107.289497	200.0
107.320427	140.0
107.338989	180.0
107.359612	128.0
107.390549	132.0
107.447365	176.0
107.473068	188.0
107.586586	264.0
107.607887	164.0
107.636139	176.0
107.673309	112.0
107.700165	468.0
107.775696	180.0
107.822159	176.0
107.853073	92.0
107.890282	144.0
107.91716	52.0
107.962654	64.0
107.987114	256.0
108.045395	252.0
108.077751	304.0
108.134377	168.0
108.153	100.0
108.169563	156.0
108.188194	160.0
108.213043	180.0
108.289574	140.0
108.312447	124.0
108.341454	96.0
108.355949	296.0
108.373375	176.0
108.409828	184.0
108.428482	152.0
108.451279	296.0
108.503105	132.0
108.546646	112.0
108.56324	96.0
108.590202	160.0
108.620499	148.0
108.647148	204.0
108.685677	172.0
108.706383	172.0
108.761902	192.0
108.828857	188.0
108.849617	156.0
108.870789	104.0
108.884926	176.0
108.932701	56.0
108.953476	156.0
108.984474	196.0
109.003906	5920.0
109.055527	248.0
109.080597	236.0
109.108452	212.0
109.124275	336.0
109.137085	188.0
109.175888	84.0
109.221649	136.0
109.273659	80.0
109.306953	72.0
109.388123	320.0
109.427681	88.0
109.517227	60.0
109.542221	144.0
109.606812	156.0
109.635117	124.0
109.665169	160.0
109.692268	64.0
109.701729	148.0
109.707321	144.0
109.715614	180.0
109.792229	136.0
109.831978	76.0
109.852837	80.0
109.900826	136.0
109.928619	120.0
109.955383	56.0
109.973373	268.0
109.992332	156.0
110.000496	132.0
110.007607	124.0
110.014053	152.0
110.020927	140.0
110.038582	172.0
110.094246	552.0
110.12365	148.0
110.159714	120.0
110.20359	228.0
110.218216	128.0
110.257919	148.0
110.297638	124.0
110.312271	248.0
110.345718	200.0
110.446289	132.0
110.548164	240.0
110.565361	232.0
110.606529	240.0
110.673485	80.0
110.693069	92.0
110.707726	168.0
110.726578	172.0
110.764275	204.0
110.822937	180.0
110.87381	236.0
110.900955	160.0
110.951477	172.0
110.987717	164.0
111.027649	172.0
111.058899	188.0
111.087296	136.0
111.131981	176.0
111.223511	48.0
111.240303	300.0
111.355789	76.0
111.383102	124.0
111.404106	200.0
111.442032	192.0
111.469566	128.0
111.509171	92.0
111.53019	48.0
111.547005	164.0
111.574341	192.0
111.605873	272.0
111.642357	212.0
111.657402	144.0
111.687897	48.0
111.702621	144.0
111.725761	200.0
111.797302	176.0
111.812035	108.0
111.826767	100.0
111.869148	120.0
111.913086	132.0
111.970482	156.0
112.022255	168.0
112.076576	536.0
112.102669	176.0
112.123741	396.0
112.275543	144.0
112.303307	148.0
112.319839	108.0
112.34304	136.0
112.373772	156.0
112.421112	72.0
112.473839	204.0
112.541435	32.0
112.602676	172.0
112.634361	176.0
112.661179	92.0
112.689293	156.0
112.731697	144.0
112.780167	144.0
112.803413	68.0
112.833015	92.0
112.895752	292.0
112.942978	108.0
112.9599	44.0
113.004333	112.0
113.024826	320.0
113.080513	136.0
113.105049	176.0
113.117889	304.0
113.163078	64.0
113.177902	156.0
113.19696	200.0
113.273209	152.0
113.31134	144.0
113.334564	200.0
113.379814	184.0
113.419418	160.0
113.459702	136.0
113.494926	208.0
113.521187	168.0
113.538727	208.0
113.552155	140.0
113.569038	200.0
113.62281	132.0
113.659073	108.0
113.675034	156.0
113.697273	168.0
113.716377	156.0
113.734398	120.0
113.754585	80.0
113.801498	164.0
113.818283	136.0
113.840149	188.0
113.898987	244.0
113.928726	132.0
113.949974	184.0
113.996719	96.0
114.017441	144.0
114.034973	164.0
114.075363	156.0
114.134583	108.0
114.168922	88.0
114.235283	160.0
114.411499	188.0
114.445564	92.0
114.491722	124.0
114.592941	144.0
114.601471	144.0
114.605659	172.0
114.647934	160.0
114.690323	176.0
114.697014	156.0
114.731064	80.0
114.769447	144.0
114.803757	232.0
114.82489	152.0
114.875229	120.0
114.89315	152.0
114.908089	144.0
114.935974	176.0
114.960701	23828.0
115.0187	212.0
115.035469	140.0
115.04895	188.0
115.109497	312.0
115.174942	48.0
115.197212	76.0
115.227036	280.0
115.262535	180.0
115.332451	140.0
115.351326	236.0
115.373535	172.0
115.414307	164.0
115.446945	212.0
115.491356	144.0
115.541443	220.0
115.645355	144.0
115.687317	60.0
115.712143	244.0
115.754547	108.0
115.894188	148.0
115.938507	252.0
115.960411	336.0
116.018089	188.0
116.060303	192.0
116.084564	160.0
116.103004	200.0
116.193954	176.0
116.215416	68.0
116.23687	136.0
116.268379	144.0
116.299019	220.0
116.327019	156.0
116.342041	144.0
116.406456	120.0
116.440483	176.0
116.466599	100.0
116.490356	64.0
116.520447	180.0
116.55468	148.0
116.593361	376.0
116.629906	172.0
116.675987	176.0
116.696106	156.0
116.741707	196.0
116.765366	112.0
116.806229	152.0
116.819656	116.0
116.835793	108.0
116.883682	240.0
116.909447	136.0
116.955963	828.0
116.982437	228.0
117.001053	144.0
117.054794	164.0
117.081741	196.0
117.128944	48.0
117.149651	152.0
117.176521	200.0
117.194672	104.0
117.248016	180.0
117.290741	360.0
117.400703	192.0
117.446442	116.0
117.471878	192.0
117.502083	184.0
117.560349	64.0
117.579773	220.0
117.627525	256.0
117.643211	144.0
117.681229	156.0
117.802177	168.0
117.830261	124.0
117.853371	144.0
117.886444	96.0
117.914536	176.0
117.94696	172.0
117.987022	340.0
118.010452	152.0
118.050743	96.0
118.071579	184.0
118.119957	284.0
118.171143	132.0
118.187889	60.0
118.236794	148.0
118.293076	52.0
118.363937	104.0
118.42733	172.0
118.446823	92.0
118.507484	172.0
118.561661	196.0
118.620972	224.0
118.641861	84.0
118.685875	148.0
118.717758	180.0
118.754623	128.0
118.780655	176.0
118.798012	152.0
118.878822	180.0
118.915184	132.0
118.973915	148.0
118.991112	160.0
119.015053	184.0
119.044487	144.0
119.069901	800.0
119.138855	60.0
119.205223	132.0
119.231689	148.0
119.25061	260.0
119.321945	164.0
119.372215	176.0
119.410568	36.0
119.44487	208.0
119.510643	132.0
119.563255	204.0
119.608582	108.0
119.630348	88.0
119.656471	156.0
119.684219	128.0
119.704376	116.0
119.729767	164.0
119.83725	144.0
119.904808	256.0
119.959984	148.0
120.017914	68.0
120.03997	164.0
120.065575	636.0
120.114128	52.0
120.139709	176.0
120.216675	144.0
120.301804	176.0
120.3395	120.0
120.376038	256.0
120.391327	168.0
120.435013	140.0
120.46122	216.0
120.565453	248.0
120.644791	68.0
120.668846	144.0
120.692894	120.0
120.713135	156.0
120.781593	232.0
120.808815	108.0
120.837868	156.0
120.90728	116.0
120.924789	132.0
120.950722	632.0
120.988274	200.0
121.003601	80.0
121.023308	64.0
121.070824	264.0
121.174438	212.0
121.189774	116.0
121.211685	148.0
121.247025	160.0
121.264282	92.0
121.311111	144.0
121.382675	152.0
121.410744	100.0
121.432686	144.0
121.455048	72.0
121.512085	180.0
121.547195	164.0
121.587051	148.0
121.650352	152.0
121.665718	144.0
121.687675	108.0
121.71714	160.0
121.740372	152.0
121.782104	156.0
121.799675	188.0
121.828232	180.0
121.891953	88.0
121.931511	244.0
121.961441	208.0
121.979866	64.0
122.008446	184.0
122.023842	100.0
122.067955	124.0
122.186592	284.0
122.228401	148.0
122.400101	148.0
122.419922	176.0
122.463966	188.0
122.53006	160.0
122.596161	232.0
122.640709	152.0
122.675148	188.0
122.70723	216.0
122.783562	116.0
122.821053	116.0
122.867378	148.0
122.902687	180.0
122.937988	68.0
122.967049	192.0
123.034248	348.0
123.054985	188.0
123.092598	188.0
123.143318	196.0
123.18087	112.0
123.222847	136.0
123.264832	144.0
123.292358	180.0
123.320084	144.0
123.359871	196.0
123.3787	324.0
123.406296	140.0
123.437195	156.0
123.466003	32.0
123.500572	224.0
123.545822	140.0
123.632751	216.0
123.701424	104.0
123.73597	140.0
123.7714	164.0
123.786896	32.0
123.837837	188.0
123.859985	52.0
123.910942	192.0
123.926453	132.0
123.961906	100.0
124.017311	164.0
124.068298	164.0
124.099342	128.0
124.128166	240.0
124.150345	68.0
124.174736	120.0
124.216881	124.0
124.298973	172.0
124.324234	84.0
124.392876	144.0
124.414391	136.0
124.491638	164.0
124.552078	124.0
124.569847	108.0
124.604301	116.0
124.636505	48.0
124.669838	164.0
124.716507	160.0
124.749329	176.0
124.792099	216.0
124.809883	228.0
124.828056	140.0
124.879875	256.0
124.912193	172.0
124.927765	204.0
124.943771	164.0
124.98143	10692.0
125.04158	224.0
125.063011	36.0
125.081635	168.0
125.132523	80.0
125.15033	84.0
125.180489	192.0
125.209435	156.0
125.239418	88.0
125.260262	156.0
125.310699	92.0
125.388695	184.0
125.413216	92.0
125.462791	148.0
125.482323	148.0
125.511314	148.0
125.53138	172.0
125.560371	124.0
125.578217	184.0
125.622826	140.0
125.638443	36.0
125.720695	144.0
125.73864	164.0
125.772621	192.0
125.877274	180.0
125.92688	160.0
125.950981	40.0
125.983208	280.0
126.025917	340.0
126.032707	152.0
126.038322	380.0
126.060951	164.0
126.093979	168.0
126.149704	168.0
126.196815	132.0
126.334579	248.0
126.342613	148.0
126.364563	200.0
126.501083	156.0
126.523476	296.0
126.562309	128.0
126.625565	156.0
126.634171	92.0
126.63887	196.0
126.683266	160.0
126.71833	148.0
126.838104	136.0
126.890907	52.0
126.931267	80.0
126.977104	616.0
127.025002	460.0
127.069092	144.0
127.096619	208.0
127.112976	120.0
127.145798	96.0
127.16684	188.0
127.193771	72.0
127.225723	188.0
127.272354	336.0
127.339722	128.0
127.381088	144.0
127.420593	176.0
127.436325	88.0
127.481262	164.0
127.599648	148.0
127.652	168.0
127.677292	124.0
127.697098	196.0
127.762329	140.0
127.784828	176.0
127.827797	168.0
127.859131	152.0
127.899605	120.0
127.940125	184.0
127.955032	148.0
127.976151	140.0
128.051956	1112.0
128.107513	184.0
128.124802	128.0
128.148666	156.0
128.239548	144.0
128.282562	204.0
128.390793	48.0
128.416153	164.0
128.433212	168.0
128.499069	132.0
128.569016	136.0
128.60614	404.0
128.668335	148.0
128.715759	164.0
128.733826	232.0
128.781769	140.0
128.819656	148.0
128.839981	136.0
128.871613	244.0
128.917969	296.0
128.946198	200.0
128.962021	140.0
129.040573	144.0
129.054428	96.0
129.059845	168.0
129.079575	112.0
129.130768	188.0
129.17215	168.0
129.226608	152.0
129.251495	80.0
129.274124	124.0
129.308075	140.0
129.348373	124.0
129.385086	212.0
129.414474	164.0
129.52771	128.0
129.554733	164.0
129.602798	192.0
129.625137	120.0
129.670456	116.0
129.71579	164.0
129.736206	108.0
129.792877	332.0
129.824631	148.0
129.904022	116.0
129.944427	192.0
129.994781	140.0
130.012924	108.0
130.048218	160.0
130.115082	116.0
130.135513	220.0
130.166138	312.0
130.18988	200.0
130.262695	92.0
130.308136	44.0
130.324036	144.0
130.360397	200.0
130.385391	136.0
130.428116	116.0
130.508148	124.0
130.590027	168.0
130.635513	168.0
130.651443	152.0
130.671921	144.0
130.696945	360.0
130.803925	196.0
130.842621	104.0
130.859482	352.0
130.936264	224.0
130.967972	196.0
131.000824	196.0
131.05217	136.0
131.086349	40.0
131.113693	100.0
131.13649	120.0
131.163834	168.0
131.232224	168.0
131.284683	204.0
131.325729	100.0
131.342941	192.0
131.380478	136.0
131.490219	212.0
131.521973	216.0
131.553925	132.0
131.585892	124.0
131.613342	152.0
131.636124	100.0
131.660187	148.0
131.738907	244.0
131.773178	136.0
131.821167	144.0
131.869156	100.0
131.93544	208.0
131.953949	212.0
131.969482	176.0
132.074738	184.0
132.102386	264.0
132.125275	68.0
132.141281	144.0
132.176697	152.0
132.228241	116.0
132.244263	120.0
132.306076	60.0
132.326675	92.0
132.342712	72.0
132.372482	208.0
132.422867	232.0
132.454727	148.0
132.491043	188.0
132.53511	52.0
132.571777	96.0
132.608444	68.0
132.638245	164.0
132.670349	168.0
132.718491	60.0
132.810226	128.0
132.846939	124.0
132.913467	236.0
132.961655	108.0
133.032822	192.0
133.075333	240.0
133.12236	68.0
133.211945	164.0
133.23262	60.0
133.257889	120.0
133.294662	164.0
133.324539	156.0
133.359009	140.0
133.403946	180.0
133.437164	164.0
133.524551	188.0
133.584366	132.0
133.622192	260.0
133.629898	116.0
133.642242	192.0
133.679764	208.0
133.707138	188.0
133.745438	188.0
133.76239	164.0
133.798386	84.0
133.832932	148.0
133.904312	148.0
133.936569	72.0
133.967697	124.0
133.983856	136.0
134.012589	124.0
134.033875	168.0
134.078201	264.0
134.134735	212.0
134.153351	104.0
134.180847	164.0
134.208511	148.0
134.319214	112.0
134.353821	160.0
134.411499	96.0
134.468246	116.0
134.499207	196.0
134.522293	160.0
134.656219	172.0
134.749084	180.0
134.802994	180.0
134.850296	140.0
134.875732	64.0
134.900894	104.0
134.942764	156.0
134.993637	184.0
135.022385	160.0
135.056091	104.0
135.090012	1772.0
135.148621	64.0
135.194916	100.0
135.257401	108.0
135.314117	148.0
135.336121	168.0
135.374527	204.0
135.417175	148.0
135.484344	176.0
135.516785	180.0
135.553085	144.0
135.625702	188.0
135.652603	96.0
135.706848	44.0
135.725403	144.0
135.826096	172.0
135.959702	140.0
135.994522	156.0
136.016647	188.0
136.074982	680.0
136.097473	1104.0
136.175629	148.0
136.205826	184.0
136.22905	272.0
136.284805	184.0
136.338455	48.0
136.354523	136.0
136.380203	140.0
136.479904	120.0
136.487701	168.0
136.526581	196.0
136.547501	180.0
136.566116	140.0
136.619614	148.0
136.66629	136.0
136.733643	148.0
136.749924	220.0
136.812775	40.0
136.873322	184.0
136.896835	124.0
136.912903	180.0
136.931534	124.0
136.980667	172.0
137.034042	156.0
137.069901	1180.0
137.106277	124.0
137.162216	72.0
137.190186	144.0
137.209518	192.0
137.264801	92.0
137.313782	128.0
137.355759	104.0
137.372086	144.0
137.404755	132.0
137.437759	292.0
137.472427	104.0
137.498093	136.0
137.5224	224.0
137.575119	52.0
137.602692	184.0
137.635834	128.0
137.65451	140.0
137.677872	172.0
137.801666	204.0
137.834381	148.0
137.868713	192.0
137.949036	156.0
138.029968	120.0
138.076859	2172.0
138.119614	152.0
138.143539	248.0
138.160095	176.0
138.190994	180.0
138.232178	112.0
138.250641	136.0
138.284927	160.0
138.323196	104.0
138.409836	136.0
138.432312	160.0
138.49649	152.0
138.548019	132.0
138.578476	184.0
138.611099	148.0
138.648788	204.0
138.692657	100.0
138.72261	136.0
138.747238	180.0
138.819916	64.0
138.843369	88.0
138.869171	192.0
138.918427	140.0
138.939102	84.0
138.959656	156.0
138.993515	152.0
139.029129	336.0
139.076614	232.0
139.124954	120.0
139.150772	140.0
139.177368	204.0
139.22699	88.0
139.273239	160.0
139.291687	68.0
139.317398	148.0
139.376266	148.0
139.449127	156.0
139.472626	128.0
139.5056	152.0
139.524353	184.0
139.561966	140.0
139.634537	144.0
139.64389	124.0
139.726608	180.0
139.757202	148.0
139.77652	192.0
139.854599	216.0
139.888992	144.0
139.919601	196.0
139.938431	192.0
139.954926	156.0
139.971405	120.0
140.038345	552.0
140.098587	108.0
140.141006	156.0
140.166153	196.0
140.190491	64.0
140.206985	72.0
140.225983	192.0
140.268265	180.0
140.348434	160.0
140.393234	104.0
140.52861	176.0
140.55365	152.0
140.5914	212.0
140.611633	196.0
140.636246	148.0
140.690536	164.0
140.737762	132.0
140.756653	168.0
140.777908	52.0
140.867126	188.0
140.886566	128.0
140.940903	124.0
140.96817	104.0
141.010818	316.0
141.03627	216.0
141.073257	152.0
141.104004	160.0
141.12764	76.0
141.163116	168.0
141.179672	140.0
141.248856	144.0
141.281372	156.0
141.309769	364.0
141.342896	132.0
141.380753	184.0
141.457458	188.0
141.475433	144.0
141.49202	164.0
141.522003	184.0
141.57962	168.0
141.660019	136.0
141.686905	192.0
141.738342	112.0
141.77626	116.0
141.799973	152.0
141.842636	164.0
141.87233	144.0
141.913757	172.0
141.939835	192.0
141.959793	164.0
141.989639	140.0
142.065552	356.0
142.082153	140.0
142.15097	212.0
142.195663	220.0
142.27327	228.0
142.309265	252.0
142.336121	168.0
142.360764	148.0
142.404999	192.0
142.421631	168.0
142.516647	112.0
142.552292	224.0
142.580811	124.0
142.628357	212.0
142.678467	128.0
142.740097	44.0
142.7948	156.0
142.837067	140.0
142.852737	180.0
142.880432	132.0
142.901245	204.0
142.923264	216.0
142.978134	216.0
142.986053	144.0
143.025604	160.0
143.163696	88.0
143.189896	244.0
143.240524	216.0
143.269562	224.0
143.309006	188.0
143.353104	172.0
143.38765	160.0
143.494919	96.0
143.553452	180.0
143.571228	176.0
143.678558	108.0
143.773575	244.0
143.826523	104.0
143.855164	228.0
143.890762	228.0
143.922012	152.0
143.948288	156.0
143.974548	140.0
143.999191	252.0
144.029495	176.0
144.115494	80.0
144.251724	140.0
144.279922	232.0
144.316284	40.0
144.397583	192.0
144.415604	120.0
144.454987	128.0
144.480835	100.0
144.507629	164.0
144.525314	144.0
144.560272	168.0
144.598557	164.0
144.629684	48.0
144.664154	208.0
144.684738	132.0
144.746994	88.0
144.802078	148.0
144.87767	324.0
144.916626	176.0
145.032593	344.0
145.08696	108.0
145.123199	184.0
145.199936	128.0
145.233521	180.0
145.255112	212.0
145.284485	400.0
145.325653	192.0
145.364105	168.0
145.390808	36.0
145.45668	64.0
145.47348	80.0
145.509491	180.0
145.535904	72.0
145.615158	128.0
145.637772	392.0
145.667999	160.0
145.696823	32.0
145.743011	200.0
145.768906	168.0
145.833801	36.0
145.892593	148.0
145.911819	140.0
145.946671	164.0
145.997208	224.0
146.03093	236.0
146.050201	64.0
146.108978	196.0
146.137833	160.0
146.372711	220.0
146.435333	152.0
146.51001	140.0
146.575058	172.0
146.602585	380.0
146.63028	136.0
146.656219	140.0
146.695572	64.0
146.728531	184.0
146.775131	88.0
146.818542	184.0
146.84024	172.0
146.857132	112.0
146.895309	160.0
146.953629	48.0
146.989822	124.0
147.013962	188.0
147.091599	164.0
147.146713	232.0
147.281952	112.0
147.301285	168.0
147.3311	220.0
147.372192	148.0
147.419678	232.0
147.452576	196.0
147.474182	312.0
147.513947	124.0
147.533279	64.0
147.593719	128.0
147.610657	132.0
147.661438	136.0
147.695297	172.0
147.758148	176.0
147.794495	120.0
147.821106	180.0
147.879486	240.0
147.91066	168.0
148.026886	124.0
148.115082	200.0
148.234589	92.0
148.286102	144.0
148.315201	76.0
148.344284	140.0
148.392593	164.0
148.431564	140.0
148.470367	60.0
148.48735	124.0
148.504318	112.0
148.539993	176.0
148.657166	160.0
148.679016	208.0
148.728149	212.0
148.761536	212.0
148.885376	180.0
148.939896	188.0
148.992264	192.0
149.013229	196.0
149.046158	88.0
149.100388	136.0
149.128342	216.0
149.181824	144.0
149.318985	224.0
149.364212	164.0
149.383667	164.0
149.423935	84.0
149.442062	236.0
149.466385	184.0
149.509064	224.0
149.525848	240.0
149.566177	192.0
149.626221	84.0
149.661118	124.0
149.730362	100.0
149.774063	224.0
149.852066	308.0
149.885223	116.0
149.953461	148.0
149.975403	168.0
150.006653	248.0
150.034668	572.0
150.065598	36.0
150.108276	224.0
150.174805	164.0
150.294876	152.0
150.34613	116.0
150.38475	180.0
150.426682	160.0
150.57074	124.0
150.658264	164.0
150.714874	160.0
150.74176	224.0
150.795517	108.0
150.993561	132.0
151.033752	120.0
151.088379	488.0
151.115875	48.0
151.167267	124.0
151.208862	168.0
151.24559	156.0
151.287567	160.0
151.343506	192.0
151.476318	176.0
151.596176	112.0
151.642395	128.0
151.667542	232.0
151.691406	112.0
151.722488	184.0
151.755157	36.0
151.78949	100.0
151.815353	132.0
151.828583	200.0
151.877777	324.0
151.906662	88.0
151.936661	124.0
151.954605	140.0
151.99118	200.0
152.052292	1764.0
152.08606	480.0
152.132645	200.0
152.201736	204.0
152.233612	200.0
152.266998	56.0
152.295059	224.0
152.324539	152.0
152.399628	164.0
152.422821	148.0
152.447983	136.0
152.471588	212.0
152.495728	180.0
152.533417	216.0
152.576584	336.0
152.623795	196.0
152.654785	188.0
152.6875	180.0
152.696655	228.0
152.729538	260.0
152.75798	248.0
152.767349	124.0
152.802872	92.0
152.838394	148.0
152.860809	184.0
152.895432	132.0
152.929153	204.0
152.936523	164.0
152.960953	348.0
153.012726	1164.0
153.046982	6456.0
153.102081	209080.0
153.172089	280.0
153.188599	400.0
153.226379	164.0
153.258728	280.0
153.292816	148.0
153.330017	140.0
153.372986	116.0
153.406219	208.0
153.424057	56.0
153.442673	144.0
153.476807	132.0
153.506744	1712.0
153.531754	180.0
153.573578	136.0
153.631546	192.0
153.673691	68.0
153.718918	168.0
153.76413	80.0
153.79155	200.0
153.80983	152.0
153.850464	160.0
153.864288	112.0
153.884613	44.0
153.905716	44.0
153.935349	72.0
153.963806	268.0
153.997177	120.0
154.020508	204.0
154.05545	12308.0
154.103958	14056.0
154.176041	188.0
154.205673	184.0
154.297028	184.0
154.308167	164.0
154.336945	72.0
154.362778	124.0
154.387589	152.0
154.412674	56.0
154.464859	84.0
154.51622	160.0
154.543579	68.0
154.574982	220.0
154.583633	164.0
154.624649	180.0
154.660706	156.0
154.685211	156.0
154.703293	76.0
154.734024	212.0
154.76973	88.0
154.793457	172.0
154.8172	184.0
154.85289	32.0
154.877136	76.0
154.886414	60.0
154.895737	56.0
154.918869	196.0
154.956192	144.0
154.98735	436.0
155.056641	1268.0
155.106873	1308.0
155.187057	152.0
155.210785	80.0
155.218353	240.0
155.284683	104.0
155.318268	168.0
155.343109	152.0
155.378418	132.0
155.411758	128.0
155.433716	248.0
155.477676	108.0
155.508362	84.0
155.54718	28.0
155.614212	112.0
155.648972	184.0
155.666351	100.0
155.698639	84.0
155.72348	28.0
155.763229	100.0
155.817871	172.0
155.875031	64.0
155.902359	140.0
155.944611	196.0
155.978729	160.0
156.001785	32.0
156.024155	120.0
156.048721	604.0
156.103729	144.0
156.141037	76.0
156.170059	216.0
156.226944	56.0
156.277863	112.0
156.295273	128.0
156.337585	88.0
156.359238	132.0
156.400635	120.0
156.52063	136.0
156.554169	116.0
156.58696	96.0
156.647568	180.0
156.757172	196.0
156.786972	144.0
156.837341	116.0
156.868698	52.0
156.906097	164.0
157.017853	160.0
157.085007	192.0
157.093536	184.0
157.100067	188.0
157.164917	260.0
157.242279	48.0
157.282211	108.0
157.342117	172.0
157.383133	152.0
157.456985	140.0
157.521942	192.0
157.579391	140.0
157.59938	172.0
157.734344	76.0
157.790436	128.0
157.836853	116.0
157.866867	124.0
157.896866	156.0
157.934387	204.0
158.016953	248.0
158.064011	232.0
158.083923	52.0
158.117126	148.0
158.189056	192.0
158.234695	192.0
158.26474	40.0
158.290848	104.0
158.321381	188.0
158.340942	188.0
158.407501	196.0
158.522751	132.0
158.587921	224.0
158.66803	164.0
158.813583	168.0
158.921463	40.0
158.951569	100.0
159.126297	284.0
159.182526	88.0
159.313126	124.0
159.354584	160.0
159.406143	236.0
159.694031	84.0
159.737991	260.0
159.796814	224.0
159.848694	160.0
159.873856	88.0
159.891479	124.0
159.956924	212.0
160.03244	56.0
160.075256	76.0
160.137192	148.0
160.213791	120.0
160.236465	72.0
160.319611	120.0
160.36499	196.0
160.382629	128.0
160.438095	160.0
160.460785	124.0
160.513733	48.0
160.556595	200.0
160.638351	136.0
160.753387	128.0
160.778885	300.0
160.805801	212.0
160.856857	132.0
160.937653	168.0
160.965439	180.0
160.985641	92.0
161.102692	140.0
161.21553	148.0
161.298935	324.0
161.362137	208.0
161.38237	124.0
161.420303	164.0
161.50882	80.0
161.531586	128.0
161.572067	152.0
161.615067	112.0
161.640381	68.0
161.694748	140.0
161.75174	152.0
161.773819	116.0
161.840347	52.0
161.894684	132.0
161.977631	900.0
162.04361	144.0
162.15448	152.0
162.192505	56.0
162.220383	100.0
162.25589	96.0
162.304062	36.0
162.382675	68.0
162.411987	172.0
162.560272	140.0
162.641479	32.0
162.725266	52.0
162.776047	156.0
162.796356	172.0
162.839539	48.0
162.880173	88.0
162.95639	160.0
163.031433	68.0
163.055496	88.0
163.104919	208.0
163.190231	108.0
163.220749	152.0
163.256348	156.0
163.361679	116.0
163.475128	64.0
163.519409	256.0
163.564209	152.0
163.584946	140.0
163.622772	120.0
163.648224	88.0
163.806976	120.0
163.88002	136.0
163.915695	168.0
163.987045	132.0
164.025284	40.0
164.050781	96.0
164.081375	112.0
164.131073	128.0
164.183365	64.0
164.221619	56.0
164.27774	180.0
164.298157	116.0
164.345062	116.0
164.36705	92.0
164.458557	196.0
164.494659	152.0
164.527847	136.0
164.611069	236.0
164.657043	368.0
164.711716	124.0
164.739822	128.0
164.760254	104.0
164.788361	140.0
164.842026	68.0
164.862457	192.0
164.959198	184.0
165.086197	124.0
165.141586	164.0
165.262146	132.0
165.373993	140.0
165.405396	176.0
165.514801	188.0
165.56601	128.0
165.694092	104.0
165.714584	164.0
165.791458	176.0
165.843719	184.0
165.886307	148.0
165.929886	116.0
166.035019	196.0
166.130844	216.0
166.163284	116.0
166.206894	100.0
166.315079	160.0
166.337799	180.0
166.376297	104.0
166.409164	160.0
166.471313	180.0
166.552139	228.0
166.576614	160.0
166.647705	128.0
166.669113	212.0
166.705078	116.0
166.78476	160.0
166.813034	116.0
166.859436	160.0
166.885681	140.0
166.904434	80.0
166.926163	124.0
166.985321	224.0
167.003326	152.0
167.02034	136.0
167.061218	3312.0
167.157684	60.0
167.191101	224.0
167.332718	136.0
167.392258	168.0
167.412552	96.0
167.451172	108.0
167.471786	100.0
167.515579	204.0
167.549072	108.0
167.567108	212.0
167.600403	152.0
167.657608	160.0
167.680481	104.0
167.742355	76.0
167.831116	204.0
167.860947	188.0
167.902222	72.0
167.992188	168.0
168.036362	160.0
168.068817	1196.0
168.118927	88.0
168.190094	140.0
168.257553	184.0
168.290146	148.0
168.317947	212.0
168.361374	132.0
168.410675	36.0
168.43605	136.0
168.462341	176.0
168.491333	200.0
168.524231	124.0
168.540649	116.0
168.548737	148.0
168.556412	156.0
168.590515	284.0
168.622757	240.0
168.651382	156.0
168.670944	100.0
168.688217	132.0
168.729614	96.0
168.751144	172.0
168.793594	172.0
168.818375	176.0
168.859741	488.0
168.868378	248.0
168.897873	324.0
168.925507	352.0
168.964935	220.0
169.003555	308.0
169.014923	488.0
169.047363	1232.0
169.079407	338256.0
169.142258	288.0
169.1548	52.0
169.160675	116.0
169.181427	148.0
169.203262	112.0
169.242935	224.0
169.269272	188.0
169.287308	340.0
169.316406	392.0
169.357758	204.0
169.385223	284.0
169.411774	156.0
169.448471	412.0
169.475281	380.0
169.505157	3988.0
169.544586	148.0
169.556458	120.0
169.56572	180.0
169.597809	140.0
169.623734	196.0
169.631317	128.0
169.670624	96.0
169.70224	240.0
169.725006	136.0
169.746094	136.0
169.755356	128.0
169.764557	164.0
169.781326	248.0
169.812454	92.0
169.872528	132.0
169.889847	236.0
169.935028	132.0
169.945007	120.0
169.951065	160.0
169.985245	140.0
170.011688	300.0
170.03511	52.0
170.081818	37100.0
170.151978	132.0
170.169724	124.0
170.188828	100.0
170.208206	76.0
170.233765	120.0
170.266479	64.0
170.274063	40.0
170.307251	80.0
170.330109	64.0
170.383667	220.0
170.408569	76.0
170.487381	196.0
170.538254	40.0
170.581085	76.0
170.618576	76.0
170.671463	152.0
170.719635	88.0
170.75029	92.0
170.779938	156.0
170.802979	44.0
170.83963	216.0
170.877243	96.0
170.917419	76.0
170.939865	96.0
170.964355	160.0
170.982483	244.0
171.025848	344.0
171.07431	16660.0
171.156784	168.0
171.19342	296.0
171.234726	264.0
171.241165	288.0
171.282547	184.0
171.293137	128.0
171.323441	232.0
171.364441	152.0
171.406219	224.0
171.457581	164.0
171.492172	176.0
171.523071	92.0
171.538757	300.0
171.568848	144.0
171.599899	88.0
171.610428	80.0
171.633026	108.0
171.66011	64.0
171.696609	160.0
171.729813	88.0
171.761826	68.0
171.782684	76.0
171.805939	44.0
171.868881	68.0
171.910538	32.0
171.952301	48.0
171.981018	36.0
172.030609	64.0
172.076736	1180.0
172.137665	32.0
172.155945	128.0
172.184662	36.0
172.239761	44.0
172.273483	100.0
172.296997	228.0
172.343903	88.0
172.364929	72.0
172.422424	172.0
172.47789	128.0
172.5159	168.0
172.617233	68.0
172.744034	56.0
172.775436	76.0
172.830383	100.0
172.889206	48.0
172.916733	44.0
173.005737	56.0
173.045013	80.0
173.079651	212.0
173.191666	124.0
173.220474	88.0
173.279099	80.0
173.341003	60.0
173.38765	100.0
173.485168	60.0
173.533478	80.0
173.584793	100.0
173.794647	40.0
173.868134	36.0
173.922333	92.0
173.96788	136.0
173.986252	92.0
174.086029	64.0
174.149063	68.0
174.243637	184.0
174.409195	100.0
174.522247	88.0
174.84845	48.0
175.101196	160.0
175.156509	96.0
175.203934	84.0
175.541321	88.0
175.570328	44.0
175.781372	88.0
175.818329	52.0
175.849991	116.0
175.913345	116.0
175.945023	64.0
176.033539	108.0
176.156296	120.0
176.454941	140.0
176.880875	92.0
176.904709	72.0
177.280823	60.0
177.329483	100.0
177.405396	52.0
177.620209	100.0
177.649384	68.0
177.797974	124.0
177.882919	140.0
177.939468	92.0
177.98912	32.0
178.018326	120.0
178.064072	472.0
178.084717	132.0
178.238815	152.0
178.278671	52.0
178.478043	84.0
178.919724	72.0
179.058197	92.0
179.122116	132.0
179.148758	52.0
179.231354	124.0
179.281998	92.0
179.305969	68.0
179.348618	68.0
179.60994	88.0
179.652618	52.0
179.740677	132.0
179.786041	44.0
179.858109	108.0
179.900818	100.0
179.92218	88.0
179.949585	104.0
179.9729	76.0
179.994263	128.0
180.093079	96.0
180.223984	80.0
180.272095	80.0
180.352264	132.0
180.542099	60.0
180.566177	116.0
180.705276	124.0
180.817673	204.0
180.938126	152.0
180.994354	72.0
181.080276	100.0
181.131973	2436.0
181.267593	76.0
181.31366	64.0
181.369431	48.0
181.406967	84.0
181.524933	96.0
181.75296	80.0
181.7771	84.0
181.887695	136.0
181.943527	96.0
182.086349	148.0
182.133987	580.0
182.187912	104.0
182.238968	72.0
182.284653	88.0
182.402908	88.0
182.480865	56.0
182.499695	60.0
183.140198	140.0
183.277603	96.0
183.309937	76.0
184.12738	132.0
184.165192	48.0
184.384048	84.0
184.906036	52.0
184.968292	36.0
185.290558	56.0
185.374557	128.0
185.442322	68.0
185.621246	80.0
185.653793	132.0
185.995667	44.0
186.041809	160.0
186.147705	76.0
186.297089	76.0
186.968719	72.0
187.045227	296.0
187.074875	60.0
187.600662	44.0
187.737	48.0
188.048019	116.0
188.577896	68.0
188.662643	72.0
188.938858	56.0
189.083893	148.0
189.218597	76.0
189.749557	48.0
190.010117	284.0
190.066208	184.0
190.787354	100.0
191.621277	96.0
192.040298	36.0
192.459793	160.0
192.744308	52.0
193.023499	76.0
193.482803	60.0
194.000885	52.0
194.877914	36.0
194.983521	96.0
195.562042	84.0
196.211121	116.0
196.384003	68.0
196.50676	44.0
196.743988	44.0
197.107758	1860.0
197.688751	108.0
197.811905	68.0
197.974304	44.0
198.054306	256.0
198.109314	344.0
198.14238	196.0
198.201218	112.0
198.290894	68.0
198.77327	36.0
199.023102	44.0
199.061768	744.0
199.112457	132.0
199.29837	64.0
199.781967	76.0
200.062164	128.0
200.099991	144.0
200.38446	84.0
200.886292	92.0
202.00499	68.0
202.381409	76.0
203.109085	116.0
203.192047	92.0
203.53833	72.0
204.257385	52.0
204.485016	64.0
206.013443	60.0
206.062881	100.0
206.091492	312.0
206.310654	92.0
207.088806	228.0
207.822906	84.0
208.402924	48.0
209.833435	36.0
210.17955	116.0
211.141556	76.0
211.161789	56.0
211.769623	40.0
212.233307	192.0
213.802002	36.0
214.014511	128.0
214.084396	104.0
214.33783	116.0
214.792664	60.0
215.061447	376.0
215.542999	64.0
215.715439	132.0
216.010803	108.0
216.066391	120.0
216.479111	104.0
216.610916	56.0
218.445648	100.0
218.943085	72.0
219.736038	100.0
219.783249	88.0
220.426987	240.0
220.598419	108.0
220.805405	48.0
220.959229	92.0
221.107178	92.0
221.87439	92.0
222.221405	96.0
222.764709	144.0
223.070801	164.0
223.237305	76.0
227.435135	108.0
228.56517	40.0
228.598267	40.0
230.906219	196.0
231.034393	2252.0
231.872055	52.0
232.035248	220.0
232.126709	88.0
232.848999	80.0
233.037354	328.0
233.083588	204.0
233.453796	48.0
233.834106	120.0
235.080597	96.0
235.605789	136.0
236.042877	184.0
236.312057	48.0
236.354889	48.0
238.799988	32.0
238.870743	132.0
238.97226	60.0
239.440186	44.0
239.63118	72.0
241.628799	104.0
243.828751	56.0
244.533401	40.0
244.857208	48.0
245.252914	100.0
245.50235	112.0
246.679474	128.0
247.702774	104.0
247.871964	100.0
248.282639	52.0
248.317139	64.0
249.044983	1904.0
249.69281	72.0
249.840652	124.0
249.991699	32.0
250.044586	164.0
250.189987	52.0
250.227768	52.0
250.356888	152.0
251.041977	144.0
251.0849	60.0
251.33728	80.0
251.712921	52.0
252.408127	80.0
256.551666	48.0
257.649506	128.0
258.621674	84.0
258.986694	116.0
260.896088	172.0
261.040771	168.0
261.835663	84.0
263.152527	144.0
263.32254	72.0
263.526062	128.0
263.622986	88.0
263.975372	96.0
264.010925	48.0
265.426117	72.0
268.170013	56.0
268.274323	96.0
269.125885	96.0
269.779327	56.0
270.122711	60.0
271.160706	76.0
272.187531	76.0
272.506165	32.0
273.95459	64.0
275.745544	40.0
276.129089	52.0
276.665161	76.0
276.996307	68.0
277.074921	168.0
277.228241	108.0
277.586273	32.0
277.745483	64.0
277.805176	32.0
279.186981	76.0
279.82254	68.0
279.919098	68.0
282.830475	92.0
282.987793	52.0
284.936493	120.0
284.993622	112.0
285.40033	104.0
286.652557	60.0
286.794128	112.0
287.303314	144.0
287.644165	80.0
289.161865	56.0
289.236328	68.0
289.849335	128.0
291.72287	52.0
292.665314	68.0
294.22348	96.0
294.50351	64.0
295.53595	108.0
296.01178	40.0
296.207001	64.0
296.957672	64.0
297.094879	96.0
297.414032	100.0
297.719604	156.0
297.774567	84.0
298.651031	56.0
300.200897	80.0
300.818512	56.0
300.960083	112.0
301.319275	48.0
302.654388	72.0
302.806793	104.0
303.205231	132.0
303.78775	104.0
304.231964	48.0
305.003174	192.0
305.103851	2144.0
305.222198	36.0
305.486542	96.0
305.521332	132.0
305.730103	56.0
305.886719	40.0
306.108093	252.0
306.381256	44.0
307.106842	168.0
307.961487	52.0
311.172821	40.0
311.921112	100.0
313.353485	84.0
313.790527	104.0
314.471375	108.0
314.609039	128.0
314.835022	68.0
318.973511	104.0
322.413116	32.0
330.508179	100.0
331.264862	108.0
333.514709	72.0
336.089539	64.0
338.212921	56.0
341.42337	104.0
341.478546	84.0
344.645294	108.0
348.788788	124.0
349.380066	56.0
350.646149	72.0
351.739044	52.0
355.298004	56.0
355.414307	44.0
356.796509	72.0
356.901794	76.0
357.349396	164.0
359.014374	104.0
359.86261	72.0
361.265625	52.0
361.30722	56.0
363.322754	112.0
364.017365	32.0
367.096039	96.0
371.49469	92.0
376.023743	96.0
376.629974	32.0
378.134064	48.0
383.521423	52.0
383.751434	96.0
384.42627	60.0
386.704803	56.0
387.887756	76.0
393.805878	48.0
398.929565	36.0
399.382904	160.0
399.649445	88.0
401.174866	40.0
403.258575	40.0
404.178406	64.0
407.695343	76.0
408.310486	88.0
414.223846	40.0
418.683685	76.0
425.295105	68.0
425.746765	108.0
426.626099	116.0
427.703888	84.0
427.938538	68.0
432.12796	44.0
441.818054	124.0
445.015961	88.0
447.210419	72.0
447.711456	68.0
448.689056	64.0
453.296356	52.0
454.869904	124.0
459.039551	32.0
459.555695	32.0
463.836731	44.0
476.842377	32.0
477.41568	60.0
481.73584	52.0
482.863586	80.0
483.712463	44.0
484.982788	72.0
486.878204	52.0
492.931305	152.0
499.760162	52.0
513.189026	92.0
513.76178	120.0
516.440613	72.0
517.472412	64.0
519.548157	100.0
523.015564	56.0
524.878906	152.0
525.015747	60.0
527.275696	104.0
536.197998	68.0
538.190918	96.0
538.888367	92.0
539.826721	96.0
541.154785	32.0
542.693115	72.0
549.106018	88.0
557.514648	84.0
557.749695	40.0
564.000122	44.0
567.465515	64.0
572.612122	48.0
573.474487	112.0
577.992432	76.0
584.667786	84.0
600.0578	96.0
600.994324	84.0
603.460999	56.0
612.121765	68.0
617.110474	68.0
622.99353	84.0
630.497742	40.0
631.987976	52.0
654.318237	76.0
655.34198	136.0
659.092407	108.0
662.023621	52.0
670.258423	84.0
670.887268	72.0
678.326355	60.0
689.177856	40.0
692.903259	48.0
703.036194	276.0
704.821106	56.0
706.470703	96.0
712.780273	152.0
714.029602	84.0
714.620056	84.0
716.339722	92.0
723.249695	76.0
726.411316	136.0
727.07666	116.0
731.198914	172.0
735.143982	132.0
736.601807	72.0
737.352844	72.0
740.58844	28.0
743.212402	56.0
744.982361	144.0
746.547791	104.0
747.097168	92.0
754.230103	156.0
755.750488	64.0
760.463501	48.0
764.84436	136.0
767.196655	144.0
769.546997	140.0
772.100037	124.0
772.260437	68.0
773.02948	168.0
776.908081	28.0
777.72937	52.0
779.0177	140.0
779.612244	204.0
781.653137	160.0
781.865173	208.0
782.193054	36.0
784.543945	152.0
788.009827	112.0
795.020691	180.0
795.890808	152.0
798.312805	232.0
799.060913	132.0
800.180969	204.0
800.890564	164.0
801.797668	200.0
803.523254	180.0
806.103699	160.0
807.047729	240.0
809.373352	124.0
812.167419	56.0
812.93335	116.0
814.716309	224.0
815.239014	164.0
815.381104	92.0
818.083008	156.0
818.213989	96.0
819.506897	224.0
819.580994	48.0
821.20575	152.0
821.279907	72.0
821.319824	48.0
822.466797	152.0
823.323242	136.0
824.122986	168.0
824.957397	120.0
825.50061	140.0
827.171326	116.0
828.981201	72.0
829.376709	232.0
830.678406	128.0
831.349731	136.0
833.394043	148.0
833.750305	160.0
834.422852	108.0
834.61261	168.0
835.26825	220.0
836.390381	104.0
837.507446	140.0
837.662964	128.0
838.181519	140.0
841.169128	52.0
843.12146	28.0
844.029053	216.0
844.526428	92.0
844.850342	200.0
845.087585	152.0
846.540527	164.0
847.05603	88.0
848.348328	200.0
849.426941	96.0
851.249451	184.0
851.493347	180.0
852.132385	164.0
852.440369	72.0
853.254089	152.0
853.341309	164.0
857.695984	32.0
857.806763	136.0
858.244019	160.0
858.71637	148.0
858.955566	128.0
861.197021	80.0
861.58844	148.0
862.248718	144.0
862.692993	160.0
863.230896	60.0
863.336182	200.0
864.207764	200.0
864.383362	140.0
864.857422	172.0
865.237915	128.0
865.899597	152.0
866.262817	124.0
866.344788	144.0
866.50885	120.0
866.561584	204.0
866.766663	100.0
867.112427	124.0
869.499512	112.0
869.986755	60.0
870.250916	164.0
870.914551	144.0
870.982483	136.0
871.319885	140.0
871.831116	128.0
872.172058	152.0
872.818726	128.0
874.58374	152.0
875.490479	140.0
876.309265	152.0
876.609802	84.0
877.246338	100.0
877.771118	160.0
878.478882	68.0
878.708984	180.0
879.564697	192.0
879.682739	172.0
880.527161	80.0
881.200562	80.0
881.318726	180.0
882.092957	96.0
882.666504	208.0
882.767029	124.0
882.997681	60.0
883.606995	224.0
884.109924	172.0
885.009766	148.0
885.915955	80.0
886.425476	116.0
886.502502	176.0
887.385742	152.0
887.812683	152.0
887.913513	216.0
888.014343	184.0
890.079651	116.0
890.335022	196.0
890.424072	92.0
890.721069	80.0
890.958679	164.0
891.499451	172.0
891.612366	136.0
891.856018	164.0
891.909546	116.0
892.628967	48.0
893.19397	168.0
893.271301	160.0
893.598511	96.0
893.735352	264.0
894.116211	140.0
894.163818	48.0
894.806763	156.0
895.354614	204.0
895.408203	152.0
895.551147	140.0
896.707031	44.0
896.820312	152.0
897.005066	212.0
897.213745	124.0
897.55957	272.0
898.901794	136.0
900.884094	32.0
901.364502	196.0
902.10321	128.0
902.324402	56.0
902.683167	140.0
902.754944	32.0
903.012085	108.0
903.963379	28.0
904.40625	212.0
905.388184	192.0
906.766174	68.0
906.916016	40.0
907.053894	76.0
907.107849	60.0
907.17981	200.0
907.455566	164.0
908.421143	132.0
908.973145	140.0
909.05719	40.0
909.26123	136.0
909.45929	148.0
909.753418	160.0
909.975586	104.0
910.023621	184.0
910.122192	172.0
910.473999	184.0
912.871887	152.0
914.171326	88.0
914.556519	60.0
915.014038	116.0
915.869202	156.0
916.055908	188.0
916.212585	32.0
916.706665	64.0
917.07428	156.0
917.297363	180.0
917.544495	172.0
918.225952	136.0
919.185181	156.0
919.716248	108.0
920.253601	116.0
920.700439	112.0
920.863525	360.0
921.183655	140.0
921.388733	152.0
921.469177	140.0
921.666992	180.0
922.730835	208.0
924.170349	72.0
924.297424	176.0
924.88446	176.0
925.532288	156.0
925.701843	156.0
926.041016	108.0
926.116089	164.0
926.343872	116.0
926.752991	208.0
926.816467	152.0
927.125488	88.0
927.355835	160.0
927.483093	112.0
927.804382	168.0
928.623047	156.0
928.932434	140.0
929.205444	92.0
929.612	136.0
930.061096	176.0
930.668213	172.0
931.336243	204.0
931.779724	196.0
932.739929	156.0
932.843262	128.0
933.080383	192.0
933.621582	108.0
933.901367	124.0
934.205505	104.0
934.813965	128.0
935.014771	176.0
935.276489	68.0
935.416504	184.0
935.641785	200.0
935.733093	144.0
935.891418	108.0
936.104553	116.0
936.409058	128.0
936.54303	152.0
936.896362	40.0
936.939026	128.0
937.188843	152.0
937.45697	92.0
937.938477	176.0
938.0177	212.0
938.109131	124.0
938.371338	176.0
940.14032	76.0
940.299011	172.0
940.46991	220.0
940.585876	168.0
940.732361	108.0
941.055969	148.0
941.233032	152.0
941.452881	140.0
941.642212	124.0
941.843811	76.0
942.116089	252.0
942.53418	160.0
942.680847	132.0
942.778625	36.0
943.285889	132.0
943.340942	76.0
943.487671	72.0
943.591614	180.0
943.823975	44.0
943.940125	212.0
944.019653	208.0
944.111389	152.0
944.435547	116.0
944.796448	152.0
944.967773	164.0
945.053406	128.0
945.120728	88.0
945.81842	84.0
946.002075	72.0
946.259216	224.0
946.50415	224.0
946.58374	188.0
947.309387	136.0
947.392273	164.0
947.465759	200.0
947.557678	180.0
948.084656	40.0
948.342102	40.0
948.391113	168.0
948.513733	176.0
949.997742	120.0
950.316772	120.0
950.421082	120.0
950.507019	68.0
950.893616	60.0
950.948853	128.0
951.403137	96.0
951.501343	200.0
951.618042	168.0
951.949646	164.0
952.17688	156.0
952.361084	176.0
952.662109	168.0
952.895569	152.0
953.036926	120.0
953.15979	52.0
953.27655	164.0
953.331848	108.0
953.424072	224.0
953.835876	196.0
953.973938	148.0
954.235474	128.0
954.313232	224.0
954.503784	200.0
955.047241	92.0
955.324036	184.0
955.594788	120.0
955.742432	128.0
955.95166	96.0
956.037842	104.0
956.524048	188.0
957.115112	188.0
957.281372	96.0
957.817261	132.0
957.977417	168.0
958.340881	152.0
958.384033	220.0
958.439514	164.0
960.054626	140.0
960.831848	136.0
961.158875	112.0
962.10321	124.0
962.516907	80.0
962.591003	32.0
962.967712	132.0
963.136292	204.0
963.27655	96.0
963.341553	160.0
963.560791	48.0
963.641113	156.0
963.974731	148.0
964.160156	96.0
964.535889	132.0
964.642273	132.0
964.840149	188.0
965.056519	128.0
966.046082	236.0
966.20697	108.0
966.388428	204.0
967.029968	128.0
967.337402	180.0
967.847168	252.0
968.163025	108.0
968.509827	80.0
968.77002	152.0
969.421936	192.0
969.470215	160.0
970.021851	128.0
970.41864	76.0
971.42334	144.0
971.628052	132.0
971.916565	172.0
972.037598	60.0
972.254822	112.0
972.645813	176.0
972.695496	172.0
972.850708	40.0
973.31012	176.0
973.620667	176.0
973.825623	188.0
973.881531	48.0
974.024353	44.0
974.123779	96.0
975.310669	104.0
975.481018	280.0
975.913696	160.0
976.572937	176.0
977.363037	204.0
977.468811	140.0
977.792419	124.0
978.832092	192.0
979.093628	168.0
979.230652	112.0
979.386414	160.0
979.672913	140.0
979.753906	84.0
980.15271	176.0
980.408203	72.0
980.726074	140.0
980.86322	176.0
981.031494	176.0
981.135254	132.0
982.029236	200.0
982.322449	168.0
982.727966	184.0
983.127319	160.0
983.445618	88.0
984.001221	172.0
984.044922	292.0
984.294739	128.0
984.557007	120.0
984.823059	172.0
984.9505	104.0
985.327759	168.0
985.375305	212.0
985.562744	128.0
985.625244	136.0
985.762756	196.0
986.031433	132.0
986.625305	140.0
986.737854	160.0
986.906677	76.0
987.194336	236.0
987.919861	204.0
988.048401	140.0
988.714539	148.0
988.764648	172.0
988.877258	180.0
988.971191	224.0
989.891541	208.0
990.499023	76.0
990.65564	76.0
990.75592	132.0
991.244629	140.0
991.526794	188.0
992.391724	104.0
992.711548	192.0
992.830688	188.0
993.121582	220.0
993.47052	188.0
993.85321	124.0
994.374084	172.0
994.819763	240.0
994.895142	80.0
995.278137	88.0
995.529297	248.0
996.056885	160.0
996.119751	164.0
996.295654	84.0
996.634888	52.0
996.781555	208.0
997.043396	144.0
997.118774	44.0
997.326233	36.0
997.571411	180.0
998.098511	204.0
998.231567	60.0
998.288147	148.0
998.363647	172.0
998.678101	144.0
998.734741	76.0
998.967468	196.0
999.294617	156.0
999.357544	148.0
999.426758	84.0
999.546326	224.0
999.678467	48.0
999.772888	80.0
999.889648	168.0
999.96759	136.0
1000.150513	116.0
1000.56604	72.0
1000.817871	204.0
1001.29303	188.0
1001.39093	100.0
1001.485413	184.0
1001.567322	116.0
1002.285522	232.0
1002.559387	132.0
1002.69519	120.0
1003.76062	164.0
1004.208374	140.0
1004.328247	116.0
1004.46344	268.0
1004.681519	176.0
1004.725647	156.0
1004.78241	140.0
1005.129456	184.0
1005.703796	104.0
1005.912109	176.0
1005.994141	224.0
1006.109497	212.0
1006.322449	152.0
1006.725281	132.0
1006.751648	104.0
1006.852905	200.0
1007.187683	160.0
1008.280762	192.0
1008.356628	184.0
1009.089905	200.0
1009.21637	60.0
1009.273315	176.0
1009.349182	160.0
1009.463013	152.0
1009.572205	176.0
1009.798218	180.0
1010.108154	76.0
1010.184021	240.0
1010.247314	132.0
1010.370544	172.0
1010.44342	220.0
1010.628052	132.0
1010.696533	212.0
1010.823059	92.0
1011.65741	212.0
1011.87384	112.0
1012.057434	44.0
1012.101746	160.0
1012.168579	208.0
1012.386719	152.0
1012.690735	104.0
1013.045471	196.0
1013.115173	216.0
1013.286255	160.0
1013.374939	100.0
1013.793152	156.0
1013.869202	172.0
1014.538513	188.0
1014.908691	132.0
1014.923584	196.0
1015.650879	184.0
1016.050537	124.0
1016.196838	132.0
1016.558167	108.0
1016.697754	160.0
1016.869141	200.0
1016.989746	84.0
1017.040527	52.0
1017.14209	104.0
1017.275391	176.0
1017.567017	124.0
1017.637268	156.0
1017.764282	164.0
1017.846802	196.0
1018.316772	84.0
1018.901184	136.0
1019.110901	164.0
1019.981567	172.0
1020.172302	156.0
1020.483826	144.0
1020.547424	228.0
1020.700012	92.0
1020.776306	184.0
1021.113403	168.0
1021.237122	172.0
1021.348755	144.0
1021.615906	132.0
1021.738281	168.0
1021.902222	64.0
1022.016724	208.0
1022.538574	104.0
1022.710449	168.0
1023.181519	148.0
1023.238831	172.0
1023.385254	164.0
1023.773682	56.0
1023.946045	160.0
1024.098511	176.0
1024.327881	220.0
1024.49353	168.0
1024.710083	64.0
1024.827637	168.0
1025.003174	184.0
1025.61499	108.0
1025.844482	156.0
1025.978394	152.0
1026.09314	168.0
1026.813721	164.0
1027.036987	176.0
1027.228394	160.0
1027.362305	104.0
1027.458008	124.0
1027.706909	120.0
1028.131226	244.0
1028.396118	140.0
1028.613159	40.0
1029.264404	152.0
1029.424072	144.0
1029.647583	96.0
1030.139404	212.0
1030.31189	128.0
1030.593018	160.0
1030.797485	144.0
1030.93811	56.0
1031.008423	144.0
1031.551636	168.0
1031.788208	148.0
1032.02478	100.0
1032.143555	144.0
1032.689941	164.0
1032.932983	116.0
1033.099243	140.0
1033.451172	172.0
1033.566406	136.0
1033.845337	116.0
1033.929688	160.0
1034.0271	132.0
1034.219116	164.0
1034.359985	188.0
1034.545654	172.0
1034.654419	224.0
1034.865723	76.0
1035.153931	108.0
1035.19873	128.0
1035.25	164.0
1035.749512	224.0
1035.887817	184.0
1036.04541	160.0
1036.652954	168.0
1037.210571	164.0
1037.736328	40.0
1038.44812	224.0
1038.512207	216.0
1038.621338	204.0
1038.66626	208.0
1039.019043	184.0
1039.128052	200.0
1039.58374	128.0
1040.14209	224.0
1040.463135	124.0
1040.508057	124.0
1041.137329	120.0
1041.574097	128.0
1041.631958	160.0
1041.811768	148.0
1041.978882	120.0
1042.030273	184.0
1042.075195	128.0
1042.595703	180.0
1042.827148	140.0
1043.174194	168.0
1043.360596	140.0
1043.450684	140.0
1043.849365	80.0
1044.016479	108.0
1044.09375	148.0
1044.305908	100.0
1044.634033	132.0
1044.691895	120.0
1044.949219	184.0
1045.663574	212.0
1046.062622	128.0
1046.339478	148.0
1046.64856	124.0
1046.914185	164.0
1047.195923	112.0
1047.241089	136.0
1047.361572	108.0
1047.410278	192.0
1047.460083	172.0
1047.627563	192.0
1047.896729	204.0
1047.988403	120.0
1048.428223	152.0
1048.658569	140.0
1049.200195	204.0
1049.62561	180.0
1050.168091	176.0
1050.599609	108.0
1050.793091	232.0
1050.986694	176.0
1051.315796	208.0
1051.538086	180.0
1051.690186	152.0
1052.096802	120.0
1052.419678	196.0
1052.64563	144.0
1052.839355	160.0
1053.155884	100.0
1053.239868	288.0
1053.311768	184.0
1053.420776	136.0
1053.721802	256.0
1053.833862	168.0
1054.607544	228.0
1054.697998	212.0
1054.900635	128.0
1054.952393	276.0
1055.366089	148.0
1055.443726	180.0
1055.579468	144.0
1056.232788	116.0
1056.278076	28.0
1056.439819	148.0
1056.698608	28.0
1057.248535	144.0
1057.850586	164.0
1058.011841	180.0
1058.077148	184.0
1058.154785	120.0
1059.268799	168.0
1059.67688	192.0
1059.955566	132.0
1060.143433	152.0
1060.610107	88.0
1060.869385	160.0
1060.940796	160.0
1061.037964	140.0
1061.109375	120.0
1061.185547	200.0
1061.498413	260.0
1061.712402	296.0
1062.127441	120.0
1062.711426	160.0
1062.964478	152.0
1063.152588	132.0
1063.29541	176.0
1063.392822	136.0
1063.561523	136.0
1063.860352	128.0
1063.977051	68.0
1064.184814	144.0
1064.268311	156.0
1064.414917	164.0
1064.658813	152.0
1064.723755	64.0
1064.842285	224.0
1065.490234	160.0
1065.587769	156.0
1065.802124	184.0
1066.237549	172.0
1066.296021	136.0
1066.497559	144.0
1066.653564	180.0
1066.699097	164.0
1066.881104	108.0
1067.355713	132.0
1067.589844	204.0
1068.097168	180.0
1068.285767	28.0
1068.370361	136.0
1068.851929	168.0
1068.936523	116.0
1069.23584	236.0
1069.314087	132.0
1070.47937	184.0
1070.804932	192.0
1071.143677	156.0
1071.567139	120.0
1071.837158	108.0
1071.987549	140.0
1072.084717	240.0
1072.21875	168.0
1072.407837	52.0
1072.654175	116.0
1072.812012	120.0
1072.960693	172.0
1073.24231	80.0
1073.385742	112.0
1073.776978	120.0
1073.943848	116.0
1074.131104	224.0
1074.370605	56.0
1074.527222	152.0
1074.612061	116.0
1074.918701	112.0
1075.062256	128.0
1075.162842	128.0
1075.395142	124.0
1075.486572	176.0
1075.604004	96.0
1075.721558	140.0
1075.852051	32.0
1076.19812	168.0
1076.400513	132.0
1076.661743	144.0
1077.393433	172.0
1077.503052	176.0
1077.811523	152.0
1077.896484	64.0
1078.314697	140.0
1078.589233	128.0
1078.648071	184.0
1078.739624	144.0
1078.997925	180.0
1079.360718	168.0
1079.5177	132.0
1079.759644	188.0
1079.847412	160.0
1080.250244	176.0
1080.55127	136.0
1080.623169	148.0
1080.956909	160.0
1081.172852	144.0
1081.263428	252.0
1081.445435	148.0
1081.532837	144.0
1081.689941	144.0
1081.748901	88.0
1081.820923	144.0
1082.281982	204.0
1082.331543	128.0
1082.528076	128.0
1082.790039	180.0
1082.854248	204.0
1082.953735	112.0
1083.220093	196.0
1083.608887	180.0
1083.838135	148.0
1083.956177	28.0
1084.162476	160.0
1084.224854	172.0
1084.681519	220.0
1084.945923	132.0
1085.011475	176.0
1085.181885	128.0
1085.594971	140.0
1085.759033	220.0
1085.842407	200.0
1086.034424	224.0
1086.132812	144.0
1086.408325	156.0
1086.618286	152.0
1086.77832	112.0
1087.432007	224.0
1087.484497	228.0
1087.951782	152.0
1088.038208	176.0
1088.482422	156.0
1089.003784	200.0
1089.211548	144.0
1089.336304	124.0
1089.526855	108.0
1089.704224	48.0
1089.910522	152.0
1090.321899	172.0
1090.455933	104.0
1090.552002	152.0
1090.647339	244.0
1090.696533	104.0
1091.189697	232.0
1091.301392	192.0
1091.413208	180.0
1091.617065	132.0
1091.834106	176.0
1091.939331	128.0
1092.083984	248.0
1092.590576	160.0
1093.294678	88.0
1093.518433	120.0
1093.64563	268.0
1093.801392	152.0
1094.03186	152.0
1094.403442	260.0
1094.54541	144.0
1094.848389	136.0
1095.019531	52.0
1095.072266	148.0
1095.151367	124.0
1095.602539	96.0
1096.086792	144.0
1096.469116	180.0
1096.528442	156.0
1096.574585	112.0
1096.890869	104.0
1097.036011	160.0
1097.220581	104.0
1097.437378	168.0
1097.76123	108.0
1097.843018	200.0
1098.005249	96.0
1098.097656	52.0
1098.308716	208.0
1098.540039	152.0
1098.608521	224.0
1098.914062	180.0
1099.034424	156.0
1099.154785	168.0
1099.833008	124.0
1099.958374	152.0
1100.063965	100.0
1100.248901	156.0
1100.334717	152.0
1100.638428	176.0
1100.717651	132.0
1100.7771	176.0
1100.994995	128.0
1101.04126	164.0
1101.113892	144.0
1101.193115	40.0
1101.391357	108.0
1101.549805	172.0
1101.701782	252.0
1101.748047	40.0
1101.820679	120.0
1102.012329	140.0
1102.316284	332.0
1102.481445	92.0
1102.772339	92.0
1102.898315	132.0
1103.334229	144.0
1103.61853	132.0
1103.98877	148.0
1104.074829	164.0
1104.147583	124.0
1104.226929	148.0
1104.44519	140.0
1104.875244	108.0
1105.318481	120.0
1105.581665	176.0
1105.735474	52.0
1105.781738	76.0
1105.873169	184.0
1106.02002	144.0
1106.22522	176.0
1106.821167	92.0
1107.0	164.0
1107.139038	132.0
1107.264893	116.0
1107.483398	148.0
1107.589478	188.0
1108.249146	144.0
1108.324829	172.0
1108.49707	164.0
1108.57666	228.0
1108.623047	148.0
1108.768799	176.0
1109.299072	104.0
1109.458252	128.0
1109.765503	224.0
1109.909058	144.0
1110.200806	180.0
1110.446289	104.0
1110.565674	120.0
1110.718262	132.0
1110.77124	136.0
1110.959961	212.0
1111.076416	144.0
1111.130737	160.0
1111.195923	184.0
1111.354614	180.0
1111.560791	164.0
1112.25769	188.0
1112.403687	180.0
1112.476807	244.0
1112.580322	148.0
1112.994629	140.0
1113.452881	108.0
1113.545898	180.0
1113.6521	100.0
1113.884644	132.0
1113.95105	164.0
1114.04187	168.0
1114.093506	220.0
1114.549072	152.0
1114.927856	168.0
1115.519409	152.0
1116.011353	172.0
1116.091187	204.0
1116.210815	156.0
1116.536743	92.0
1116.715698	92.0
1117.14209	68.0
1117.301758	128.0
1117.348267	212.0
1117.527954	180.0
1117.574463	192.0
1117.987061	200.0
1118.0802	120.0
1118.346436	192.0
1118.393066	164.0
1118.4729	28.0
1118.539551	212.0
1118.666016	168.0
1118.781982	132.0
1118.892334	212.0
1119.155151	208.0
1119.371826	156.0
1119.524902	160.0
1119.711426	140.0
1119.791382	108.0
1120.004517	148.0
1120.151001	172.0
1120.304321	120.0
1120.45752	180.0
1120.584106	180.0
1120.77356	164.0
1121.270508	156.0
1121.370483	124.0
1121.943726	108.0
1122.130371	148.0
1122.270386	128.0
1122.377075	132.0
1122.757202	316.0
1123.097412	156.0
1123.564331	136.0
1123.784546	96.0
1124.131592	208.0
1124.204956	108.0
1124.6521	168.0
1124.765625	124.0
1124.825684	128.0
1124.933838	140.0
1125.063354	108.0
1125.119385	196.0
1125.52002	316.0
1126.087646	96.0
1126.181152	168.0
1126.227905	112.0
1126.321533	224.0
1126.548584	148.0
1126.608765	144.0
1126.702271	204.0
1126.909424	168.0
1127.18335	168.0
1127.256836	120.0
1127.510864	64.0
1127.591064	128.0
1127.798218	172.0
1128.714111	132.0
1128.901367	180.0
1129.048462	72.0
1129.262573	120.0
1129.362915	196.0
1129.423096	80.0
1129.501587	184.0
1129.871338	176.0
1129.931519	184.0
1130.466797	200.0
1130.5271	172.0
1130.600708	204.0
1130.974487	164.0
1131.223145	160.0
1131.537842	60.0
1131.591431	112.0
1131.691772	200.0
1131.765503	112.0
1132.2677	136.0
1132.398682	232.0
1132.662964	160.0
1132.783447	92.0
1132.927612	208.0
1133.218994	52.0
1133.75293	160.0
1134.188477	168.0
1134.505859	212.0
1134.572876	132.0
1134.713623	52.0
1134.823853	208.0
1135.126831	216.0
1135.380127	200.0
1135.525024	108.0
1135.62561	132.0
1135.800781	196.0
1136.31665	140.0
1136.417236	236.0
1136.886963	148.0
1137.048096	96.0
1137.116089	292.0
1137.644287	108.0
1137.771606	200.0
1138.008057	184.0
1138.229614	180.0
1138.344971	136.0
1138.397583	304.0
1138.827393	140.0
1139.094238	192.0
1139.539429	96.0
1139.599976	128.0
1139.653687	208.0
1139.909058	196.0
1140.38623	100.0
1140.52063	56.0
1141.105591	52.0
1141.253418	200.0
1141.825073	160.0
1141.878906	140.0
1142.033569	144.0
1142.21521	160.0
1142.349731	192.0
1142.490967	164.0
1142.762329	172.0
1143.237915	88.0
1143.3927	184.0
1143.581177	180.0
1143.702271	60.0
1143.823486	204.0
1143.916504	152.0
1144.139893	64.0
1144.368774	168.0
1144.550659	72.0
1144.60144	220.0
1144.961426	188.0
1145.089355	128.0
1145.287231	120.0
1145.414429	172.0
1145.547363	112.0
1145.662964	184.0
1145.71582	148.0
1145.823608	192.0
1145.904541	208.0
1146.189575	196.0
1146.34375	124.0
1146.416626	128.0
1146.463745	140.0
1146.515503	204.0
1147.142456	140.0
1147.286133	116.0
1147.333374	128.0
1147.414185	192.0
1147.528809	108.0
1148.05481	100.0
1148.230225	164.0
1148.358276	148.0
1148.533691	100.0
1148.756348	280.0
1148.938477	112.0
1149.113892	152.0
1149.235352	144.0
1149.32312	28.0
1149.491821	92.0
1149.619995	100.0
1149.93042	232.0
1149.984497	156.0
1150.546509	148.0
1150.720215	96.0
1150.848511	40.0
1150.976807	232.0
1151.071411	136.0
1151.191895	160.0
1151.361816	152.0
1151.687744	124.0
1151.760254	168.0
1151.814331	212.0
1151.881836	168.0
1152.037231	48.0
1152.152466	164.0
1152.230347	200.0
1152.357788	80.0
1152.429077	128.0
1152.496704	120.0
1152.699463	128.0
1152.794067	168.0
1153.165771	168.0
1153.260376	204.0
1153.449585	112.0
1153.666016	160.0
1154.335327	44.0
1154.558472	144.0
1154.700562	128.0
1154.834839	136.0
1154.86084	116.0
1154.965698	188.0
1155.025269	312.0
1155.153809	120.0
1155.207886	152.0
1155.867432	160.0
1156.484131	172.0
1156.622192	144.0
1156.693481	184.0
1156.865845	164.0
1156.925903	208.0
1157.33313	208.0
1157.386475	168.0
1157.413818	148.0
1157.529419	164.0
1157.895142	176.0
1157.956055	144.0
1158.091553	124.0
1158.460205	164.0
1158.629517	212.0
1158.728394	128.0
1158.965454	96.0
1159.467041	228.0
1159.52124	196.0
1159.670288	96.0
1159.887207	216.0
1159.956543	156.0
1160.049927	176.0
1160.619507	72.0
1160.895752	224.0
1161.982788	140.0
1162.166016	120.0
1162.362305	156.0
1162.371216	148.0
1162.535767	124.0
1162.790283	180.0
1162.86499	140.0
1163.034668	176.0
1163.312988	116.0
1163.471558	184.0
1163.699951	188.0
1163.754272	116.0
1164.019165	148.0
1164.202515	212.0
1164.508179	180.0
1164.672607	148.0
1164.739014	152.0
1165.078735	176.0
1165.207886	116.0
1165.296143	120.0
1165.391235	176.0
1165.588379	188.0
1165.669922	60.0
1165.728149	164.0
1165.771851	248.0
1165.968384	164.0
1166.383545	120.0
1166.798218	168.0
1166.852661	196.0
1166.920654	164.0
1166.997559	228.0
1167.090576	192.0
1167.178955	176.0
1167.396606	48.0
1167.828125	192.0
1168.06604	168.0
1168.248291	212.0
1168.546143	200.0
1168.886353	128.0
1169.14502	68.0
1169.526123	160.0
1169.648682	200.0
1169.778076	232.0
1169.859741	128.0
1170.043701	160.0
1170.172852	104.0
1170.315918	160.0
1170.384033	184.0
1170.663208	240.0
1170.82666	104.0
1170.964233	176.0
1171.1604	188.0
1171.289795	44.0
1171.528198	156.0
1171.678101	108.0
1171.937012	136.0
1172.193604	284.0
1172.461792	172.0
1172.611694	192.0
1172.949463	228.0
1173.606934	128.0
1173.688843	180.0
1173.941162	72.0
1174.098022	148.0
1174.398071	140.0
1174.623169	52.0
1174.909668	152.0
1175.250854	228.0
1175.455566	104.0
1175.571533	120.0
1175.667114	280.0
1175.810425	124.0
1176.01355	196.0
1176.11084	188.0
1176.47937	116.0
1176.667236	180.0
1176.738892	140.0
1177.062256	144.0
1177.3125	136.0
1177.364258	128.0
1177.643921	148.0
1177.729126	92.0
1177.947632	276.0
1178.00769	148.0
1178.098022	124.0
1178.227783	156.0
1178.74707	188.0
1178.794922	136.0
1178.904297	60.0
1179.403198	164.0
1179.572021	224.0
1179.690918	176.0
1179.813354	180.0
1179.936401	120.0
1179.997925	120.0
1180.066284	144.0
1180.120972	120.0
1180.599731	136.0
1180.681763	236.0
1180.77063	60.0
1180.8927	120.0
1180.910156	100.0
1180.930542	160.0
1181.324707	108.0
1181.40686	52.0
1181.468384	200.0
1181.530029	44.0
1181.796875	152.0
1181.878906	96.0
1182.279297	160.0
1182.857666	132.0
1183.364258	136.0
1183.567383	180.0
1183.720337	180.0
1183.953125	160.0
1184.138062	80.0
1184.425781	312.0
1184.549072	184.0
1184.631348	172.0
1184.679199	88.0
1184.795654	148.0
1184.953247	200.0
1185.040161	176.0
1185.282227	216.0
1185.384644	180.0
1185.899048	184.0
1186.11145	168.0
1186.167603	180.0
1186.234863	152.0
1186.323975	76.0
1186.529663	168.0
1186.803955	192.0
1186.947876	108.0
1187.105713	236.0
1187.20166	188.0
1187.249634	196.0
1187.359375	148.0
1187.578857	100.0
1187.6604	144.0
1188.175659	164.0
1188.64917	68.0
1188.968262	148.0
1189.136475	152.0
1189.198242	188.0
1189.445312	124.0
1189.692505	136.0
1190.14563	176.0
1190.310425	96.0
1190.399658	124.0
1190.468384	104.0
1190.805054	216.0
1191.114014	96.0
1191.498657	76.0
1191.636108	176.0
1191.7323	160.0
1191.979614	164.0
1192.041504	140.0
1192.130859	152.0
1192.378296	96.0
1192.508911	148.0
1192.608276	136.0
1192.804443	160.0
1193.07251	124.0
1193.122314	136.0
1193.271973	108.0
1193.368164	164.0
1193.562622	140.0
1193.63562	188.0
1193.691406	136.0
1194.076538	80.0
1194.145264	108.0
1194.227783	140.0
1194.425903	172.0
1194.843994	144.0
1195.349243	148.0
1195.448242	280.0
1195.590088	160.0
1195.741577	144.0
1195.872314	192.0
1195.9375	196.0
1196.161377	128.0
1196.409302	192.0
1196.691528	172.0
1196.808594	112.0
1197.054688	216.0
1197.20105	176.0
1197.266479	172.0
1197.331909	152.0
1197.517944	160.0
1197.93811	156.0
1198.151489	196.0
1198.317017	92.0
1198.385986	176.0
1199.240479	56.0
1199.343872	256.0
1199.419678	72.0
1199.661011	144.0
1199.778198	160.0
1199.826416	36.0
1200.116089	156.0
1200.371216	144.0
1200.702148	64.0
1201.053955	148.0
1201.233276	140.0
1201.495483	132.0
1201.773071	160.0
1201.917114	152.0
1202.095825	272.0
1202.420166	132.0
1202.509888	212.0
1202.841187	180.0
1203.013794	200.0
1203.338989	188.0
1203.393555	140.0
1203.697388	172.0
1204.058105	132.0
1204.346558	148.0
1204.553833	120.0
1204.615112	156.0
1204.690063	192.0
1204.843872	200.0
1205.033569	100.0
1205.123657	152.0
1205.230835	212.0
1205.334473	356.0
1205.599487	92.0
1205.825195	148.0
1205.963379	64.0
1206.274536	184.0
1206.371216	88.0
1206.426514	236.0
1206.737671	164.0
1206.792969	140.0
1206.862793	124.0
1206.91748	200.0
1207.17334	144.0
1207.235596	156.0
1207.331421	152.0
1207.463745	244.0
1207.574463	148.0
1207.664429	144.0
1207.712769	120.0
1207.860474	172.0
1208.159912	176.0
1208.234497	204.0
1208.386841	272.0
1208.39917	188.0
1208.82666	76.0
1208.919189	212.0
1209.006592	152.0
1209.11731	68.0
1209.179688	136.0
1210.05188	124.0
1210.224976	156.0
1210.384277	140.0
1210.530151	208.0
1210.688965	200.0
1210.758179	192.0
1211.146118	124.0
1211.284668	124.0
1211.988892	256.0
1212.060547	136.0
1212.254639	180.0
1212.538818	68.0
1212.718994	144.0
1212.795288	104.0
1212.933838	136.0
1212.982422	128.0
1213.051758	112.0
1213.12793	140.0
1213.294312	128.0
1213.349854	172.0
1213.631104	204.0
1213.828247	140.0
1213.904541	240.0
1214.057739	188.0
1214.390015	96.0
1214.577271	108.0
1214.674438	96.0
1214.736816	128.0
1214.917236	180.0
1215.028198	100.0
1215.076782	168.0
1215.611084	136.0
1215.729126	96.0
1215.812378	164.0
1215.999756	176.0
1216.07605	64.0
1216.244385	192.0
1216.2948	204.0
1216.423218	96.0
1216.541138	128.0
1216.624512	144.0
1216.90918	80.0
1217.15918	196.0
1217.22168	44.0
1217.367432	136.0
1217.457764	188.0
1217.617432	156.0
1217.867554	132.0
1218.082886	156.0
1218.270386	140.0
1218.58313	216.0
1219.261597	176.0
1219.35144	148.0
1219.437866	120.0
1219.48645	208.0
1219.695068	244.0
1219.799316	148.0
1219.98999	112.0
1220.272095	128.0
1220.341553	156.0
1220.656982	280.0
1220.981323	148.0
1221.113525	100.0
1221.40564	148.0
1221.487549	140.0
1221.503662	204.0
1221.677002	80.0
1222.101318	208.0
1222.337891	196.0
1222.477173	104.0
1222.699829	164.0
1223.103516	160.0
1223.180054	164.0
1223.472534	96.0
1223.660522	140.0
1223.716187	132.0
1223.813599	136.0
1223.890259	136.0
1223.973755	100.0
1224.301147	200.0
1224.370728	136.0
1224.489136	108.0
1224.874146	180.0
1225.123047	128.0
1225.203125	172.0
1225.562012	204.0
1225.743164	136.0
1225.812866	192.0
1226.282471	164.0
1226.349487	176.0
1226.426147	72.0
1226.546997	96.0
1226.600464	376.0
1227.40918	144.0
1227.702148	152.0
1228.162476	120.0
1228.232178	92.0
1228.322876	172.0
1228.42749	88.0
1228.573975	152.0
1228.671631	120.0
1228.860107	236.0
1228.943481	188.0
1229.118286	52.0
1229.404297	160.0
1229.606689	140.0
1230.144165	196.0
1230.221069	180.0
1230.465332	160.0
1230.849365	140.0
1231.093872	168.0
1231.219482	124.0
1231.387207	144.0
1231.442993	60.0
1231.638672	104.0
1231.841187	192.0
1231.966919	104.0
1232.075073	136.0
1232.267334	104.0
1232.487549	208.0
1232.553833	180.0
1232.623779	164.0
1232.721558	136.0
1233.036011	116.0
1233.441406	160.0
1233.895874	116.0
1234.063721	164.0
1234.140625	192.0
1234.268677	160.0
1234.692993	164.0
1234.860962	224.0
1235.43457	172.0
1235.721313	188.0
1235.84375	172.0
1236.057251	136.0
1236.127197	152.0
1236.2052	200.0
1236.37915	152.0
1236.437378	184.0
1236.533081	132.0
1236.631104	184.0
1236.792114	52.0
1236.900269	232.0
1237.09314	112.0
1237.233887	160.0
1237.443115	168.0
1237.59021	172.0
1237.639282	192.0
1237.793335	104.0
1237.891357	120.0
1238.052368	132.0
1238.185425	232.0
1238.541504	200.0
1238.822876	148.0
1238.878906	192.0
1239.117188	84.0
1239.446899	200.0
1239.565552	108.0
1239.621704	108.0
1239.831909	236.0
1240.042114	88.0
1240.213013	188.0
1240.394165	148.0
1240.44873	144.0
1240.546875	220.0
1240.641235	120.0
1240.844971	152.0
1240.992554	140.0
1241.170898	160.0
1241.360229	180.0
1241.465454	144.0
1241.556519	144.0
1241.612671	124.0
1241.725586	132.0
1241.781006	172.0
1242.426392	148.0
1242.559692	168.0
1242.973633	136.0
1243.135498	68.0
1243.298218	212.0
1243.373657	136.0
1243.605347	172.0
1243.661499	40.0
1243.745728	180.0
1243.98584	184.0
1244.110718	132.0
1244.216064	156.0
1244.272217	184.0
1244.489868	236.0
1244.616211	172.0
1244.778809	188.0
1244.918213	136.0
1245.030518	168.0
1245.10083	176.0
1245.578491	164.0
1245.718994	152.0
1245.817261	144.0
1246.063232	208.0
1246.344238	180.0
1246.435547	132.0
1246.719116	200.0
1247.068115	40.0
1247.539062	200.0
1247.588257	132.0
1247.672607	148.0
1247.925781	148.0
1248.017212	128.0
1248.150757	176.0
1248.571167	104.0
1248.685303	136.0
1248.980713	100.0
1249.248047	140.0
1249.297241	184.0
1249.345215	172.0
1249.402832	180.0
1249.536499	200.0
1249.803833	128.0
1250.161865	196.0
1250.226074	168.0
1250.289429	228.0
1250.401978	148.0
1250.578003	108.0
1250.72583	152.0
1250.810303	180.0
1250.869507	240.0
1250.962524	120.0
1251.098877	196.0
1251.425415	104.0
1251.739624	144.0
1251.810059	104.0
1251.915649	352.0
1252.619995	220.0
1252.669312	160.0
1252.753906	132.0
1252.887695	132.0
1252.951172	164.0
1253.190674	120.0
1253.25415	220.0
1253.500732	136.0
1253.553223	188.0
1253.705078	48.0
1253.876099	204.0
1254.052124	160.0
1254.120972	120.0
1254.663818	92.0
1254.981079	120.0
1255.326538	192.0
1255.439453	152.0
1256.264648	140.0
1256.8573	156.0
1257.062012	204.0
1257.435425	144.0
1257.619507	168.0
1257.668945	120.0
1257.810181	52.0
1257.972534	100.0
1258.036011	136.0
1258.149048	112.0
1258.763306	96.0
1258.96106	188.0
1259.073975	128.0
1259.172852	88.0
1259.611938	152.0
1259.69104	244.0
1259.836914	280.0
1259.957031	156.0
1260.059204	180.0
1260.317383	140.0
1260.4021	212.0
1260.543457	116.0
1260.741333	96.0
1260.896851	104.0
1261.140015	188.0
1261.427002	112.0
1261.518921	132.0
1261.5896	96.0
1261.727051	124.0
1261.907715	136.0
1262.190552	124.0
1262.332031	196.0
1262.39563	172.0
1262.890747	208.0
1263.131226	188.0
1263.258545	124.0
1263.499146	136.0
1263.753784	160.0
1263.860352	132.0
1264.06189	196.0
1264.227905	176.0
1264.772949	180.0
1264.900269	132.0
1265.207886	244.0
1265.310913	164.0
1265.473755	132.0
1265.547363	240.0
1265.647949	188.0
1265.714478	112.0
1265.76416	188.0
1265.997803	196.0
1266.118164	104.0
1266.316528	132.0
1266.45105	172.0
1266.607056	224.0
1266.741455	184.0
1266.792725	168.0
1266.840698	84.0
1267.230347	156.0
1267.465942	176.0
1267.620117	96.0
1267.839844	96.0
1268.41394	76.0
1268.583984	92.0
1269.158325	168.0
1269.298462	184.0
1269.477417	248.0
1269.768188	156.0
1269.839111	156.0
1269.993652	204.0
1270.015991	124.0
1270.040405	196.0
1270.286011	48.0
1270.335693	108.0
1270.548462	128.0
1270.605225	68.0
1270.794067	160.0
1270.923584	196.0
1271.314819	160.0
1271.388672	132.0
1271.565674	196.0
1272.173706	188.0
1272.258911	124.0
1272.324829	216.0
1272.379639	136.0
1272.450562	132.0
1272.635254	76.0
1272.748779	216.0
1272.905029	204.0
1272.968994	156.0
1273.054199	104.0
1273.103882	128.0
1273.365356	224.0
1273.792847	200.0
1274.005981	128.0
1274.084106	172.0
1274.503296	176.0
1274.942505	232.0
1275.206909	172.0
1275.413086	112.0
1275.548096	80.0
1276.010376	128.0
1276.105225	144.0
1276.32312	192.0
1276.415527	96.0
1276.522217	164.0
1276.718994	144.0
1276.963135	128.0
1277.012939	68.0
1277.406616	144.0
1277.546387	148.0
1277.603271	112.0
1277.695801	180.0
1278.058716	156.0
1278.193848	40.0
1278.279297	176.0
1278.556885	168.0
1278.663574	180.0
1279.040894	132.0
1279.171509	168.0
1279.282837	140.0
1279.361206	128.0
1279.688721	128.0
1279.973511	164.0
1280.037598	200.0
1280.315308	124.0
1280.472046	44.0
1280.60022	172.0
1280.963501	160.0
1281.440918	112.0
1281.547729	144.0
1281.938721	160.0
1282.075073	180.0
1282.153442	116.0
1282.210449	120.0
1282.267456	120.0
1282.338745	28.0
1282.459961	144.0
1282.588257	176.0
1282.659546	128.0
1282.873413	172.0
1282.954712	180.0
1283.172852	120.0
1283.237061	148.0
1283.385742	120.0
1283.486572	180.0
1283.536499	152.0
1283.600708	140.0
1283.668091	192.0
1284.007202	168.0
1284.156982	216.0
1284.349487	136.0
1285.14856	204.0
1285.291992	152.0
1285.399902	208.0
1285.462524	208.0
1285.655273	132.0
1285.833618	116.0
1286.154907	156.0
1286.437622	440.0
1286.52124	112.0
1286.983032	204.0
1287.075806	108.0
1287.125854	140.0
1287.325806	140.0
1287.625732	156.0
1287.685547	144.0
1287.818604	120.0
1287.890015	68.0
1287.954346	124.0
1288.420288	140.0
1288.632935	112.0
1288.818726	108.0
1288.925903	128.0
1289.026001	200.0
1289.218994	148.0
1289.426147	212.0
1289.654907	196.0
1289.755005	152.0
1289.905151	352.0
1290.07666	152.0
1290.249512	176.0
1290.318604	192.0
1290.398438	120.0
1290.713013	124.0
1290.777344	208.0
1291.006226	172.0
1291.295654	200.0
1291.500122	136.0
1291.707153	124.0
1291.785889	136.0
1292.043457	104.0
1292.164062	156.0
1292.183716	136.0
1292.203857	240.0
1292.272339	136.0
1292.379639	200.0
1292.43689	104.0
1292.508545	140.0
1292.737427	180.0
1293.038086	100.0
1293.431763	216.0
1293.5177	84.0
1293.71228	220.0
1293.87561	40.0
1293.961792	120.0
1294.11145	180.0
1294.427002	196.0
1294.684814	160.0
1294.829346	108.0
1294.956909	160.0
1295.135986	160.0
1295.737793	140.0
1295.838013	180.0
1296.037109	196.0
1296.447144	176.0
1296.542603	196.0
1296.686646	212.0
1296.827026	152.0
1297.02771	136.0
1297.379028	144.0
1297.44397	188.0
1297.766113	304.0
1297.852295	212.0
1298.014526	220.0
1298.074463	228.0
1298.210693	152.0
1298.366455	164.0
1298.461792	148.0
1298.641113	120.0
1298.748657	176.0
1298.863403	128.0
1298.985352	160.0
1299.064331	92.0
1299.248535	172.0
1299.466064	180.0
1299.57373	180.0
1299.916138	88.0
1299.979248	188.0
1300.233887	124.0
1300.320068	136.0
1300.5354	168.0
1300.779419	348.0
1300.941406	128.0
1301.016357	140.0
1301.110962	156.0
1301.230835	196.0
1301.389648	128.0
1301.508301	132.0
1301.626587	164.0
1301.734375	220.0
1302.071899	248.0
1302.189453	172.0
1302.617798	44.0
1302.732788	144.0
1302.905151	268.0
1303.276001	184.0
1303.578369	128.0
1304.002075	228.0
1304.148438	144.0
1304.325806	160.0
1304.594116	136.0
1304.781006	164.0
1304.888794	192.0
1305.032593	192.0
1305.176392	164.0
1305.269897	104.0
1305.598022	84.0
1305.881226	164.0
1305.987427	180.0
1306.075439	196.0
1306.250977	160.0
1306.68689	116.0
1307.197876	56.0
1307.305786	92.0
1307.420898	356.0
1307.550415	128.0
1307.629639	184.0
1307.748779	160.0
1307.843262	232.0
1308.039917	180.0
1308.195312	136.0
1308.386475	180.0
1308.486084	140.0
1308.853516	76.0
1309.163208	164.0
1309.321655	228.0
1309.480713	180.0
1310.077881	168.0
1310.178833	128.0
1310.380493	140.0
1310.444092	184.0
1310.712036	100.0
1310.834473	176.0
1310.949951	208.0
1311.187622	108.0
1311.360596	76.0
1311.518066	184.0
1311.66333	120.0
1311.735474	196.0
1311.858032	176.0
1311.922852	76.0
1312.153564	204.0
1312.23291	132.0
1312.362671	108.0
1312.506836	124.0
1312.643921	104.0
1312.861328	168.0
1312.928101	140.0
1313.011719	112.0
1313.091064	124.0
1313.17041	168.0
1313.278564	228.0
1313.393921	148.0
1313.502197	216.0
1313.610352	228.0
1313.855713	172.0
1314.020874	108.0
1314.259766	168.0
1314.404053	92.0
1314.505127	128.0
1314.57666	196.0
1314.75769	132.0
1314.903076	184.0
1315.03186	164.0
1315.11792	156.0
1315.209961	176.0
1315.703857	316.0
1315.833252	156.0
1315.943115	164.0
1316.187012	108.0
1316.349976	336.0
1316.417969	200.0
1316.627563	164.0
1316.738281	192.0
1317.017578	180.0
1317.187134	308.0
1317.342651	108.0
1317.545044	264.0
1317.717163	144.0
1317.963989	176.0
1318.059937	172.0
1318.375122	148.0
1318.490723	148.0
1318.621582	136.0
1318.679443	272.0
1318.946899	124.0
1319.096313	172.0
1319.199951	208.0
1319.346558	208.0
1319.828979	168.0
1320.045898	192.0
1320.259888	124.0
1320.443604	100.0
1320.508545	120.0
1320.675049	176.0
1320.837524	164.0
1320.92041	140.0
1321.101929	116.0
1321.181519	180.0
1321.277466	148.0
1321.480591	160.0
1321.630005	204.0
1321.74585	192.0
1321.912231	40.0
1321.991943	148.0
1322.187256	216.0
1322.259644	144.0
1322.447876	164.0
1322.61438	172.0
1322.788086	160.0
1322.976318	184.0
1323.048706	160.0
1323.099365	236.0
1323.287598	156.0
1323.39624	132.0
1323.455566	168.0
1323.649658	292.0
1323.707642	156.0
1323.772705	176.0
1324.12561	220.0
1324.2146	116.0
1324.667114	144.0
1324.769531	220.0
1324.873779	112.0
1324.97522	168.0
1325.040405	172.0
1325.112793	188.0
1325.221558	160.0
1325.431641	176.0
1325.525879	136.0
1326.547852	184.0
1326.692871	136.0
1326.916504	144.0
1326.969482	148.0
1327.026367	92.0
1327.11499	104.0
1327.330811	120.0
1327.475952	76.0
1327.671753	144.0
1327.814209	220.0
1327.935547	208.0
1328.085083	168.0
1328.182617	316.0
1328.273682	220.0
1328.479004	216.0
1328.62854	168.0
1328.729858	152.0
1328.883179	72.0
1328.977417	96.0
1329.190918	240.0
1329.272095	132.0
1329.362061	216.0
1329.478149	176.0
1329.596069	132.0
1329.674194	140.0
1329.768555	72.0
1329.89917	120.0
1329.974121	144.0
1330.138672	116.0
1330.194458	216.0
1330.392822	140.0
1330.537964	112.0
1330.821167	144.0
1330.988159	164.0
1331.099121	112.0
1331.234497	320.0
1331.532104	200.0
1331.670776	112.0
1331.850708	124.0
1331.925049	152.0
1332.251953	112.0
1332.375488	104.0
1332.535278	124.0
1332.687866	180.0
1333.203857	112.0
1333.392822	180.0
1333.606812	184.0
1333.705322	128.0
1333.830322	192.0
1334.025146	52.0
1334.0979	136.0
1334.24353	100.0
1334.364746	140.0
1334.41626	208.0
1334.505005	156.0
1334.584961	176.0
1334.890381	168.0
1334.992188	124.0
1335.14502	116.0
1335.199341	216.0
1335.435913	120.0
1335.58728	172.0
1335.675903	116.0
1335.788452	132.0
1335.863281	168.0
1335.959595	112.0
1336.074341	168.0
1336.268677	176.0
1336.333862	284.0
1336.658203	188.0
1336.876465	216.0
1336.956543	112.0
1337.031738	248.0
1337.349487	196.0
1337.43689	144.0
1337.66333	184.0
1337.724487	144.0
1338.099365	208.0
1338.172119	236.0
1338.252319	140.0
1338.332397	52.0
1338.383301	188.0
1338.478027	128.0
1338.654541	148.0
1338.783203	144.0
1339.205933	144.0
1339.410278	80.0
1339.548706	268.0
1339.665039	164.0
1339.810913	160.0
1340.022217	108.0
1340.080444	160.0
1340.13147	152.0
1340.313721	156.0
1340.896729	128.0
1340.96228	136.0
1341.404907	212.0
1341.46521	132.0
1341.909912	100.0
1341.968262	128.0
1342.077148	100.0
1342.311035	136.0
1342.515259	160.0
1342.734009	68.0
1343.113281	116.0
1343.18811	192.0
1343.339478	128.0
1343.405029	248.0
1343.675049	76.0
1343.831665	176.0
1343.897583	236.0
1343.959595	256.0
1344.156616	132.0
1344.390137	88.0
1344.470459	212.0
1344.535522	140.0
1344.755005	116.0
1345.229492	172.0
1345.643555	164.0
1345.901245	144.0
1346.169922	184.0
1346.237183	120.0
1346.310181	104.0
1346.485474	116.0
1346.653442	264.0
1346.806885	228.0
1346.956909	112.0
1347.004028	148.0
1347.109985	160.0
1347.28894	88.0
1347.534058	156.0
1347.639648	200.0
1347.815063	164.0
1347.939331	108.0
1348.110229	208.0
1348.238892	128.0
1348.60437	244.0
1348.757812	304.0
1348.87561	160.0
1348.94043	196.0
1349.064941	48.0
1349.247681	196.0
1349.348389	220.0
1349.481567	156.0
1349.583984	164.0
1349.7229	52.0
1350.037354	204.0
1350.154419	212.0
1350.344604	76.0
1350.417725	164.0
1350.483154	140.0
1350.60791	160.0
1350.666382	144.0
1350.757568	180.0
1350.820068	184.0
1350.988281	124.0
1351.090698	128.0
1351.310181	156.0
1351.424438	216.0
1351.617554	132.0
1351.676025	188.0
1352.012695	240.0
1352.071289	88.0
1352.122437	152.0
1352.239624	152.0
1352.30542	168.0
1352.495728	184.0
1352.664062	184.0
1352.861816	128.0
1352.934692	204.0
1353.125366	32.0
1353.30835	172.0
1353.498779	156.0
1353.623291	96.0
1353.85791	120.0
1354.012817	152.0
1354.285156	136.0
1354.443604	132.0
1354.502197	116.0
1354.741089	204.0
1354.834351	176.0
1354.897705	112.0
1355.051636	176.0
1355.381348	128.0
1355.667114	152.0
1355.879639	196.0
1355.954224	168.0
1356.216797	72.0
1356.664551	156.0
1356.782959	172.0
1357.059937	80.0
1357.25061	172.0
1357.415161	196.0
1357.543945	48.0
1357.719727	148.0
1358.035278	152.0
1358.314087	156.0
1358.438721	140.0
1358.651489	128.0
1358.794922	140.0
1358.953003	120.0
1359.157715	52.0
1359.379517	168.0
1359.531982	248.0
1359.700806	124.0
1359.862305	132.0
1360.074463	176.0
1360.163208	132.0
1360.515625	176.0
1360.677124	188.0
1360.797363	200.0
1360.904785	96.0
1361.220459	164.0
1361.418823	172.0
1361.496338	156.0
1361.580322	172.0
1361.793335	168.0
1361.874146	128.0
1362.344238	116.0
1362.461792	136.0
1362.79248	84.0
1362.980591	188.0
1363.09375	204.0
1363.200562	144.0
1363.299561	148.0
1363.355713	176.0
1363.505249	124.0
1363.556763	212.0
1363.753784	124.0
1363.827515	236.0
1364.071289	88.0
1364.188843	152.0
1364.335938	104.0
1364.416748	212.0
1364.571167	152.0
1364.674194	152.0
1364.828613	172.0
1364.898315	208.0
1365.194336	156.0
1365.221313	116.0
1365.250854	204.0
1365.306519	344.0
1365.431641	172.0
1365.740479	204.0
1365.793091	236.0
1366.012695	148.0
1366.115723	208.0
1366.365845	232.0
1366.586548	116.0
1366.769409	160.0
1366.822021	228.0
1367.028076	168.0
1367.189941	36.0
1367.315063	160.0
1367.459961	88.0
1367.50415	196.0
1367.594727	164.0
1367.731689	256.0
1367.984375	192.0
1368.000977	168.0
1368.392822	136.0
1368.573853	116.0
1368.647583	48.0
1368.85376	100.0
1368.956787	96.0
1369.008423	172.0
1369.067261	124.0
1369.347168	168.0
1369.546021	152.0
1369.66394	204.0
1369.913818	180.0
1370.157471	176.0
1370.210449	176.0
1370.348999	180.0
1370.474365	180.0
1370.540649	64.0
1370.610718	288.0
1370.760376	132.0
1370.864868	200.0
1370.945923	140.0
1371.376953	144.0
1371.682983	180.0
1371.771484	192.0
1372.014771	156.0
1372.147461	148.0
1372.265381	124.0
1372.390747	172.0
1372.615356	80.0
1372.732544	160.0
1372.796387	136.0
1373.13562	176.0
1373.253662	168.0
1373.511719	184.0
1373.842896	108.0
1373.983887	176.0
1374.596069	184.0
1374.684937	136.0
1374.869385	332.0
1374.950562	156.0
1375.016846	148.0
1375.135132	176.0
1375.282715	212.0
1375.374512	148.0
1375.50293	92.0
1375.61145	180.0
1375.747803	184.0
1375.902832	64.0
1376.196655	216.0
1376.283325	420.0
1376.354736	200.0
1376.449219	148.0
1376.552612	124.0
1376.670776	112.0
1376.973633	212.0
1377.26123	196.0
1377.529419	172.0
1377.667969	184.0
1377.727051	200.0
1377.815674	112.0
1377.911011	156.0
1377.985596	204.0
1378.162964	168.0
1378.296021	180.0
1378.384399	140.0
1378.584106	80.0
1378.668823	96.0
1379.027588	164.0
1379.367676	188.0
1379.456299	132.0
1379.522827	204.0
1379.62793	188.0
1379.707764	156.0
1379.789062	184.0
1379.848145	200.0
1380.121704	104.0
1380.254883	192.0
1380.313965	168.0
1380.498901	144.0
1380.696289	200.0
1380.876099	152.0
1381.208984	152.0
1381.430908	128.0
1381.48999	160.0
1381.556641	88.0
1381.615845	120.0
1381.734131	208.0
1381.920898	228.0
1382.044922	68.0
1382.096802	160.0
1382.274292	152.0
1382.326172	156.0
1382.400146	224.0
1382.48645	116.0
1382.548096	184.0
1382.666626	164.0
1383.073608	160.0
1383.258667	140.0
1383.359009	200.0
1383.443848	120.0
1383.525269	136.0
1383.668701	156.0
1383.843628	52.0
1383.962036	196.0
1384.013916	160.0
1384.116699	160.0
1384.221191	164.0
1384.322144	140.0
1384.413818	244.0
1384.613159	368.0
1384.736938	260.0
1384.813721	176.0
1384.976685	184.0
1385.080444	132.0
1385.139648	232.0
1385.376709	172.0
1385.547119	136.0
1385.834961	136.0
1385.932373	88.0
1386.013916	104.0
1386.199219	228.0
1386.28064	152.0
1386.658691	188.0
1386.769897	120.0
1386.880981	140.0
1387.034424	148.0
1387.088623	112.0
1387.170166	124.0
1387.341553	184.0
1387.6427	136.0
1387.792847	208.0
1388.10437	180.0
1388.267456	120.0
1388.319458	184.0
1388.475098	100.0
1388.623535	144.0
1388.764404	156.0
1388.853394	144.0
1389.016602	40.0
1389.528564	400.0
1389.608521	144.0
1389.765991	120.0
1390.211182	160.0
1390.2854	172.0
1390.411621	60.0
1390.506592	164.0
1390.676392	164.0
1390.91626	192.0
1391.062988	200.0
1391.192383	144.0
1391.250366	228.0
1391.56958	52.0
1391.636475	152.0
1391.73291	164.0
1391.963135	136.0
1392.021851	116.0
1392.2677	124.0
1392.372925	160.0
1392.453369	272.0
1392.749512	160.0
1393.260986	164.0
1393.388794	176.0
1393.418091	164.0
1393.797974	148.0
1393.872314	148.0
1393.929321	212.0
1394.095215	152.0
1394.370239	156.0
1394.491821	100.0
1394.615479	116.0
1394.697266	112.0
1394.849487	156.0
1394.920288	116.0
1395.120972	140.0
1395.226562	232.0
1395.306885	44.0
1395.559692	136.0
1395.693481	132.0
1395.745605	124.0
1395.94519	136.0
1396.050415	164.0
1396.206665	164.0
1396.3479	200.0
1396.50415	76.0
1396.563599	388.0
1396.615723	156.0
1396.764526	164.0
1397.300171	104.0
1397.381958	144.0
1397.475342	192.0
1397.627441	136.0
1397.709351	132.0
1397.768921	188.0
1398.085938	152.0
1398.274902	172.0
1398.416382	164.0
1398.513184	172.0
1398.721558	132.0
1398.928467	180.0
1399.181396	192.0
1399.325317	40.0
1399.344971	156.0
1399.466187	224.0
1399.671021	144.0
1400.277832	172.0
1400.486328	92.0
1400.605347	156.0
1400.619019	152.0
1400.699707	136.0
1400.873657	168.0
1401.045044	132.0
1401.168457	168.0
1401.485962	236.0
1401.83374	204.0
1402.080811	148.0
1402.170288	148.0
1402.26709	220.0
1402.386353	108.0
1402.6521	268.0
1402.863403	332.0
1403.146729	200.0
1403.348022	120.0
1403.504639	148.0
1403.581299	192.0
1403.676147	176.0
1403.73877	164.0
1403.959595	204.0
1404.026733	148.0
1404.092285	192.0
1404.342529	224.0
1404.608887	144.0
1404.690552	184.0
1404.95166	108.0
1405.033691	136.0
1405.166748	172.0
1405.267456	136.0
1405.384399	184.0
1405.436646	116.0
1405.563477	116.0
1405.733521	148.0
1406.190308	104.0
1406.347046	216.0
1406.436646	124.0
1406.518799	180.0
1406.589722	96.0
1406.824829	148.0
1406.921875	120.0
1407.041382	132.0
1407.183228	180.0
1407.347534	180.0
1407.506104	180.0
1407.817993	152.0
1407.944946	144.0
1408.040039	136.0
1408.154663	88.0
1408.210327	212.0
1408.452759	204.0
1408.54248	68.0
1408.736694	124.0
1409.282349	196.0
1409.361084	136.0
1409.498779	76.0
1409.625854	188.0
1409.715454	108.0
1409.922241	164.0
1409.972168	188.0
1410.35083	128.0
1410.765625	160.0
1411.075928	84.0
1411.158203	140.0
1411.390015	212.0
1411.539551	144.0
1411.614258	184.0
1411.756348	136.0
1411.898438	236.0
1411.995728	196.0
1412.122925	148.0
1412.302368	176.0
1412.377197	172.0
1412.493408	96.0
1412.661499	168.0
1412.761597	336.0
1412.998169	136.0
1413.207642	304.0
1413.347168	152.0
1413.514404	96.0
1413.574219	128.0
1413.64917	132.0
1413.918579	132.0
1414.443237	152.0
1414.515259	200.0
1414.697021	124.0
1414.835815	264.0
1414.960327	360.0
1415.138794	216.0
1415.296021	136.0
1415.625488	136.0
1415.957642	172.0
1416.104858	164.0
1416.198975	184.0
1416.227295	104.0
1416.260498	116.0
1416.280518	196.0
1416.434326	260.0
1416.509277	172.0
1416.644165	132.0
1416.842163	160.0
1416.906372	188.0
1417.123657	156.0
1417.351929	160.0
1417.498291	176.0
1417.573242	132.0
1417.651123	196.0
1417.730591	176.0
1417.926147	140.0
1418.007935	156.0
1418.607544	188.0
1418.914917	136.0
1418.997437	172.0
1419.184937	128.0
1419.342407	140.0
1419.477295	140.0
1419.717285	152.0
1419.811279	160.0
1419.964844	168.0
1420.062378	172.0
1420.152832	168.0
1420.314087	152.0
1420.444824	180.0
1420.653076	192.0
1420.737427	44.0
1421.035522	192.0
1421.142578	108.0
1421.238403	156.0
1421.480225	84.0
1421.600342	260.0
1421.652832	172.0
1421.712891	140.0
1421.945557	144.0
1422.027222	140.0
1422.250244	332.0
1422.403442	176.0
1422.560181	160.0
1422.701782	196.0
1422.906494	132.0
1422.981567	172.0
1423.064087	340.0
1423.131714	196.0
1423.214355	92.0
1423.326904	32.0
1423.442139	188.0
1423.616577	120.0
1423.717407	180.0
1423.860107	184.0
1424.05542	140.0
1424.220703	100.0
1424.273193	156.0
1424.754028	108.0
1424.842163	180.0
1425.016968	160.0
1425.137207	268.0
1425.287476	60.0
1425.400269	176.0
1425.497925	100.0
1425.550537	176.0
1425.776001	192.0
1425.843628	380.0
1425.89624	176.0
1426.121704	144.0
1426.211914	52.0
1426.585938	176.0
1426.685547	116.0
1426.828125	148.0
1426.88855	204.0
1426.955933	164.0
1427.15918	216.0
1427.244385	144.0
1427.467529	120.0
1427.520142	116.0
1427.61792	152.0
1427.903687	144.0
1428.091675	308.0
1428.302368	116.0
1428.456909	132.0
1428.806396	168.0
1429.1073	164.0
1429.160034	140.0
1429.363159	152.0
1429.55127	60.0
1429.673584	148.0
1429.878174	140.0
1430.025513	132.0
1430.145874	148.0
1430.218262	216.0
1430.273804	128.0
1430.341553	168.0
1430.469604	140.0
1430.529785	164.0
1430.667236	128.0
1430.92749	196.0
1431.079468	180.0
1431.22998	184.0
1431.312866	116.0
1431.410767	84.0
1431.463501	184.0
1431.656006	172.0
1431.93689	148.0
1432.062988	100.0
1432.196045	332.0
1432.314575	120.0
1432.549683	168.0
1432.796631	116.0
1433.008179	164.0
1433.241211	268.0
1433.349609	208.0
1433.535156	60.0
1433.587891	168.0
1433.776245	152.0
1433.911987	108.0
1434.138062	92.0
1434.454712	128.0
1434.515015	132.0
1434.680786	116.0
1434.831543	240.0
1435.042725	92.0
1435.118164	136.0
1435.186035	156.0
1435.306641	100.0
1435.449951	156.0
1435.834473	76.0
1435.947632	176.0
1436.045654	120.0
1436.128662	76.0
1436.309692	176.0
1436.47168	60.0
1436.561279	196.0
1436.709595	120.0
1436.86792	188.0
1436.973633	184.0
1437.147095	136.0
1437.252808	96.0
1437.358398	152.0
1437.501831	148.0
1437.570923	208.0
1437.788574	172.0
1437.894287	136.0
1438.144165	140.0
1438.203735	124.0
1438.377319	72.0
1438.56604	156.0
1438.68689	144.0
1438.739746	176.0
1438.836792	152.0
1438.918945	172.0
1439.043213	136.0
1439.207764	212.0
1439.373901	180.0
1439.728882	60.0
1439.837524	224.0
1439.935791	244.0
1440.045288	172.0
1440.21228	88.0
1440.298828	184.0
1440.423828	176.0
1440.514404	152.0
1440.688232	228.0
1440.756226	156.0
1440.97522	184.0
1441.031738	140.0
1441.133911	184.0
1441.254883	128.0
1441.337036	160.0
1441.421143	68.0
1441.532715	200.0
1441.700684	84.0
1441.829712	120.0
1441.99646	224.0
1442.193359	192.0
1442.244873	336.0
1442.320435	136.0
1442.476562	124.0
1442.547241	164.0
1442.675781	136.0
1442.766479	232.0
1442.824829	152.0
1442.944092	172.0
1443.013306	160.0
1443.091675	140.0
1443.167236	72.0
1443.375	120.0
1443.552856	184.0
1443.651245	196.0
1443.787354	96.0
1443.893188	172.0
1444.052002	172.0
1444.354614	76.0
1444.649902	124.0
1445.398682	48.0
1445.693848	132.0
1445.784668	140.0
1446.011719	64.0
1446.099976	144.0
1446.248901	128.0
1446.383179	144.0
1446.446045	196.0
1446.559204	232.0
1446.79895	104.0
1446.882202	56.0
1446.957886	84.0
1447.207764	92.0
1447.480347	144.0
1447.624268	332.0
1448.13501	140.0
1448.313477	204.0
1448.370972	324.0
1448.510498	140.0
1448.729248	172.0
1448.866577	224.0
1449.033203	140.0
1449.275635	164.0
1449.402954	176.0
1449.480225	112.0
1449.692505	132.0
1449.912231	136.0
1450.253296	228.0
1450.366943	232.0
1450.785889	192.0
1450.86731	276.0
1451.011353	204.0
1451.07959	124.0
1451.686279	120.0
1451.864258	148.0
1451.989624	288.0
1452.235718	236.0
1452.312622	136.0
1452.457153	176.0
1452.633423	164.0
1452.679932	196.0
1452.748169	180.0
1452.953003	124.0
1453.059204	168.0
1453.434326	216.0
1453.688965	148.0
1453.878784	192.0
1454.104004	176.0
1454.589722	152.0
1454.766846	136.0
1454.819946	120.0
1454.915894	208.0
1455.009766	56.0
1455.123657	236.0
1455.237549	112.0
1455.303833	192.0
1455.366577	116.0
1455.4198	164.0
1455.746338	320.0
1455.948242	176.0
1456.07251	164.0
1456.315918	124.0
1456.391846	164.0
1456.760254	168.0
1457.067993	256.0
1457.311157	152.0
1457.409912	124.0
1457.463135	88.0
1457.56189	132.0
1457.69873	128.0
1457.865845	160.0
1457.985352	140.0
1458.261108	176.0
1458.405518	112.0
1458.610718	160.0
1458.798706	108.0
1459.112427	184.0
1459.302612	172.0
1459.38623	168.0
1459.464722	180.0
1459.53418	200.0
1459.708862	176.0
1459.758789	184.0
1459.827271	188.0
1460.181519	184.0
1460.535767	200.0
1460.724731	156.0
1461.089966	152.0
1461.173584	164.0
1461.25647	136.0
1461.36853	140.0
1461.4552	52.0
1461.596436	228.0
1461.69104	164.0
1461.805176	160.0
1462.120483	112.0
1462.307495	232.0
1462.634766	144.0
1462.754028	164.0
1462.781494	212.0
1462.802979	184.0
1462.969727	180.0
1463.441772	160.0
1463.495117	164.0
1463.7146	144.0
1464.066162	128.0
1464.127197	44.0
1464.251709	180.0
1464.412231	144.0
1464.530884	140.0
1464.607056	216.0
1464.724731	184.0
1464.888794	192.0
1464.965088	112.0
1465.182007	244.0
1465.340576	160.0
1465.452637	128.0
1465.589844	80.0
1465.654663	164.0
1465.756836	200.0
1466.115601	60.0
1466.260376	120.0
1466.390015	124.0
1466.519531	172.0
1466.923584	208.0
1467.091309	184.0
1467.182739	136.0
1467.277466	212.0
1467.354858	236.0
1467.419067	128.0
1467.525879	168.0
1467.647827	116.0
1467.754639	88.0
1467.84668	124.0
1467.945557	192.0
1468.0448	164.0
1468.220459	140.0
1468.296143	192.0
1468.410522	84.0
1468.500977	144.0
1468.778809	168.0
1468.959717	160.0
1469.474365	148.0
1469.606934	164.0
1469.626831	292.0
1469.722656	172.0
1469.821899	152.0
1469.875244	212.0
1470.150024	144.0
1470.256836	136.0
1470.317871	172.0
1470.424805	116.0
1470.48584	176.0
1470.563965	212.0
1470.638428	140.0
1470.691895	180.0
1470.740234	112.0
1470.890381	184.0
1471.003296	136.0
1471.059937	136.0
1471.18811	200.0
1471.361084	168.0
1471.562256	180.0
1471.623291	212.0
1471.867065	160.0
1472.081421	160.0
1472.249512	204.0
1472.562622	140.0
1472.75	224.0
1472.852905	116.0
1472.944458	236.0
1473.158447	136.0
1473.234863	216.0
1473.331665	160.0
1473.418213	132.0
1473.539307	212.0
1473.593872	232.0
1473.739014	200.0
1473.835815	188.0
1473.899536	180.0
1474.078369	128.0
1474.10022	216.0
1474.183594	140.0
1474.312256	352.0
1474.457397	96.0
1475.000122	140.0
1475.214111	164.0
1475.328857	128.0
1475.48938	156.0
1475.550537	132.0
1475.665283	164.0
1475.768066	184.0
1476.028564	176.0
1476.100952	208.0
1476.200439	140.0
1476.303589	108.0
1476.429932	120.0
1476.666992	192.0
1476.796997	52.0
1476.888794	260.0
1477.141235	180.0
1477.225464	180.0
1477.416626	132.0
1477.473877	188.0
1477.768677	136.0
1477.890991	188.0
1478.120605	172.0
1478.418213	136.0
1478.510864	108.0
1478.579834	84.0
1478.755859	216.0
1479.077271	60.0
1479.360596	212.0
1479.479736	204.0
1479.58252	192.0
1479.651489	144.0
1479.735718	176.0
1479.934814	168.0
1480.14917	136.0
1480.30603	176.0
1480.363647	212.0
1480.532104	220.0
1480.624023	56.0
1480.703857	136.0
1480.826904	104.0
1481.05127	92.0
1481.12085	152.0
1481.229248	204.0
1481.313354	160.0
1481.388306	144.0
1481.489502	140.0
1481.829712	148.0
1481.93396	176.0
1482.010498	128.0
1482.071899	220.0
1482.350342	152.0
1482.447388	72.0
1482.771362	176.0
1482.960815	92.0
1483.091187	88.0
1483.213745	200.0
1483.558716	124.0
1483.727417	148.0
1483.834717	140.0
1483.949829	52.0
1484.080078	140.0
1484.563232	152.0
1484.655273	144.0
1484.731934	132.0
1484.808594	152.0
1485.069458	180.0
1485.337891	128.0
1485.483643	204.0
1485.706177	172.0
1485.828857	100.0
1485.928589	184.0
1486.043701	176.0
1486.212524	136.0
1486.296875	156.0
1486.419678	224.0
1486.569336	164.0
1486.680664	148.0
1486.811157	188.0
1486.985229	188.0
1487.156494	100.0
1487.248657	52.0
1487.411377	228.0
1487.62085	200.0
1487.741943	224.0
1487.832031	180.0
1488.054688	124.0
1488.13147	132.0
1488.269653	172.0
1488.39502	160.0
1488.840332	208.0
1488.953125	100.0
1489.035278	160.0
1489.268066	84.0
1489.32666	200.0
1489.444702	76.0
1489.612793	64.0
1489.677124	188.0
1489.733032	132.0
1489.849487	168.0
1490.082153	128.0
1490.136353	128.0
1490.344849	168.0
1490.428101	208.0
1490.581787	128.0
1490.758545	116.0
1490.866211	180.0
1490.935303	228.0
1491.073608	408.0
1491.135498	188.0
1491.404175	184.0
1491.511841	204.0
1491.596313	104.0
1491.703979	164.0
1491.762329	116.0
1491.903809	188.0
1491.975586	192.0
1492.088379	144.0
1492.142212	128.0
1492.264282	160.0
1492.557373	160.0
1492.711182	312.0
1492.795776	100.0
1492.888062	440.0
1493.046875	208.0
1493.177246	180.0
1493.385132	280.0
1493.449585	184.0
1493.611084	180.0
1493.764526	172.0
1493.793091	164.0
1494.057251	184.0
1494.257324	116.0
1494.380371	228.0
1494.434204	104.0
1494.488159	136.0
1494.588135	132.0
1494.657227	164.0
1494.742065	112.0
1494.800903	204.0
1494.865845	136.0
1495.049927	32.0
1495.24231	132.0
1495.434692	108.0
1495.519409	124.0
1495.750244	184.0
1496.012085	168.0
1496.112061	148.0
1496.189087	52.0
1496.319946	192.0
1496.985596	160.0
1497.12854	248.0
1497.228638	72.0
1497.392822	284.0
1497.513672	128.0
1497.706177	160.0
1497.829468	168.0
1497.898804	124.0
1498.016724	232.0
1498.183838	40.0
1498.287598	164.0
1498.368652	228.0
1498.561279	136.0
1498.635498	176.0
1498.8927	124.0
1498.992798	224.0
1499.208618	104.0
1499.540039	104.0
1499.701904	148.0
1499.902344	36.0
1500.17981	132.0
1500.467407	216.0
1500.577393	128.0
1500.765747	128.0
1500.896851	108.0
1501.020264	84.0
1501.151367	200.0
1501.248291	172.0
1501.321045	160.0
1501.614136	180.0
1501.907227	152.0
1502.007446	192.0
1502.196411	192.0
1502.277466	128.0
1502.94104	148.0
1503.123779	164.0
1503.311401	176.0
1503.38623	160.0
1503.450317	184.0
1503.535156	160.0
1503.604736	104.0
1504.075562	184.0
1504.260742	192.0
1504.338013	180.0
1504.415161	108.0
1504.56958	108.0
1504.747192	168.0
1505.001587	180.0
1505.114258	120.0
1505.195068	92.0
1505.411255	80.0
END IONS

BEGIN IONS
PEPMASS=230.007
CHARGE=1
MSLEVEL=2
SOURCE_INSTRUMENT=LC-ESI-qTof
FILENAME=p4-G08_GG8_01_18404.mzXML
SEQ=*..*
IONMODE=Positive
ORGANISM=GNPS-NIH-SMALLMOLECULEPHARMACOLOGICALLYACTIVE
NAME=MLS002207196-01!Dimethoate60-51-5 M+H
PI=Dorrestein
DATACOLLECTOR=VP/LMS
SMILES=CNC(=O)CSP(=S)(OC)OC
INCHI=N/A
INCHIAUX=N/A
PUBMED=N/A
SUBMITUSER=vphelan
LIBRARYQUALITY=1
SPECTRUMID=CCMSLIB00000085896
USI=mzspec:GNPS:GNPS-NIH-SMALLMOLECULEPHARMACOLOGICALLYACTIVE:accession:CCMSLIB00000085896
SCANS=1422
44.95155	188.0
44.994263	232.0
45.047684	172.0
46.382648	44.0
46.876022	120.0
49.238071	160.0
49.985306	184.0
50.045834	196.0
52.858162	216.0
52.995724	216.0
53.800034	128.0
54.907921	168.0
57.112438	168.0
57.926075	108.0
59.767414	152.0
60.016953	132.0
60.214489	84.0
60.389145	88.0
61.60944	188.0
62.437092	116.0
62.465405	204.0
62.614937	84.0
66.972183	160.0
67.273865	152.0
68.012146	124.0
68.043343	160.0
68.733009	216.0
68.770966	136.0
69.338287	216.0
70.129448	136.0
70.169456	188.0
70.752548	184.0
73.731544	220.0
73.892288	56.0
75.841774	204.0
75.902451	220.0
76.074219	172.0
78.057373	76.0
79.188644	200.0
80.756767	180.0
81.036774	264.0
85.794716	156.0
86.147209	148.0
86.402115	200.0
86.696754	160.0
87.551353	184.0
88.02877	224.0
88.704216	196.0
88.846741	200.0
89.943878	144.0
90.344513	68.0
90.838959	140.0
92.489212	144.0
93.007599	308.0
94.038475	44.0
94.798553	204.0
94.899353	80.0
96.056541	148.0
96.9991	124.0
99.455704	116.0
99.830528	204.0
101.103355	212.0
102.833847	52.0
103.579979	152.0
104.017197	360.0
104.642128	164.0
105.621719	144.0
110.946342	172.0
110.96627	376.0
111.498405	176.0
112.589745	216.0
112.968102	96.0
115.589447	184.0
116.33963	160.0
116.5802	176.0
118.022354	164.0
118.886696	140.0
119.99514	172.0
123.999763	200.0
124.099052	240.0
124.981728	13560.0
125.020927	52.0
125.058769	32.0
125.488724	84.0
125.756424	44.0
125.984032	488.0
126.02047	196.0
126.113808	92.0
126.581398	176.0
126.684425	40.0
126.805428	68.0
126.843536	128.0
126.944435	44.0
126.979568	508.0
127.016487	208.0
127.04985	88.0
127.433777	48.0
127.654068	128.0
128.354416	28.0
128.622894	52.0
128.954941	100.0
128.975784	480.0
130.974396	184.0
137.325119	56.0
137.390442	140.0
137.817703	144.0
138.240967	164.0
140.402344	140.0
142.76355	196.0
142.991699	1872.0
143.027649	64.0
143.118118	52.0
143.22052	100.0
143.258636	104.0
143.280075	60.0
143.993164	344.0
144.02916	60.0
144.987671	212.0
145.629227	132.0
145.679672	124.0
147.973267	216.0
150.497131	212.0
152.739624	64.0
152.808502	276.0
155.822479	164.0
155.972748	200.0
156.951965	1636.0
157.0448	64.0
157.164551	60.0
157.964035	136.0
158.947571	292.0
159.121887	84.0
163.945892	152.0
170.925095	48.0
170.970734	1220.0
171.1698	40.0
171.974213	168.0
172.973923	140.0
189.529846	172.0
197.039581	124.0
198.95755	160.0
231.707886	100.0
290.7677	84.0
843.148376	72.0
870.119751	192.0
933.534241	72.0
936.44342	120.0
966.000549	84.0
970.86908	124.0
992.333008	40.0
1036.797974	176.0
1053.431274	176.0
1085.290894	160.0
1095.40564	220.0
1102.145264	20.0
1121.781128	128.0
1130.089478	60.0
1136.904541	256.0
1140.921387	112.0
1142.878662	140.0
1146.31958	180.0
1154.440918	160.0
1175.30957	180.0
1189.195435	156.0
1201.85144	224.0
1205.048462	172.0
1205.960571	180.0
1209.315308	116.0
1234.760132	204.0
1246.418701	152.0
1250.9552	144.0
1258.244873	236.0
1267.843994	80.0
1271.297729	92.0
1283.455078	284.0
1288.279907	64.0
1290.845947	136.0
1298.487427	260.0
1321.967163	224.0
1330.701904	180.0
1333.723999	168.0
1346.088013	204.0
1348.279663	136.0
1348.652344	60.0
1359.763672	176.0
1374.224243	140.0
1377.70166	152.0
1384.477295	176.0
1385.025391	256.0
1388.783447	192.0
1390.289551	84.0
1406.224365	180.0
1419.871582	164.0
1421.409424	184.0
1429.939331	52.0
1437.77771	216.0
1456.745605	188.0
1461.322388	108.0
1471.337402	272.0
1482.474609	192.0
END IONS

BEGIN IONS
PEPMASS=318.002
CHARGE=1
MSLEVEL=2
SOURCE_INSTRUMENT=LC-ESI-qTof
FILENAME=p4-G09_GG9_01_18405.mzXML
SEQ=*..*
IONMODE=Positive
ORGANISM=GNPS-NIH-SMALLMOLECULEPHARMACOLOGICALLYACTIVE
NAME=MLS001074294-01!Fosmet732-11-6 M+H
PI=Dorrestein
DATACOLLECTOR=VP/LMS
SMILES=COP(=S)(OC)SCN1C(=O)c2ccccc2C1=O
INCHI=N/A
INCHIAUX=N/A
PUBMED=N/A
SUBMITUSER=vphelan
LIBRARYQUALITY=1
SPECTRUMID=CCMSLIB00000085901
USI=mzspec:GNPS:GNPS-NIH-SMALLMOLECULEPHARMACOLOGICALLYACTIVE:accession:CCMSLIB00000085901
SCANS=2182
45.111782	120.0
45.210766	80.0
45.524475	204.0
46.020023	124.0
47.299374	132.0
48.220974	120.0
48.276276	196.0
48.986942	128.0
49.2953	148.0
50.845917	248.0
53.941681	176.0
54.435448	180.0
54.630936	140.0
57.652145	88.0
58.399616	108.0
58.423954	152.0
58.545727	192.0
59.288223	200.0
59.676598	124.0
60.857098	56.0
61.998997	132.0
63.058224	216.0
65.462608	264.0
68.125381	40.0
68.661995	188.0
69.280212	224.0
69.774788	80.0
73.429268	188.0
76.315636	168.0
76.41304	72.0
76.491356	164.0
77.500839	196.0
79.943115	184.0
81.457558	68.0
81.62471	104.0
82.152443	128.0
82.873833	132.0
83.897102	152.0
84.558365	240.0
85.875763	160.0
86.204391	208.0
86.602173	216.0
87.50843	204.0
87.692856	164.0
89.17527	148.0
91.808922	100.0
92.343689	168.0
93.141075	136.0
93.29866	148.0
93.878242	152.0
94.330055	184.0
95.075775	136.0
98.220161	72.0
100.60952	232.0
100.671417	60.0
101.129265	192.0
104.046303	548.0
104.147842	124.0
104.5728	108.0
104.625732	172.0
105.036026	860.0
105.484596	108.0
105.597061	128.0
105.979881	116.0
107.056297	52.0
107.093369	164.0
107.863037	188.0
109.839951	204.0
110.449913	152.0
110.956703	164.0
110.97348	132.0
111.706451	184.0
112.150764	148.0
113.351212	188.0
114.42601	252.0
114.628365	160.0
116.556435	176.0
116.984444	156.0
117.152428	172.0
118.600273	140.0
118.710846	168.0
119.123238	204.0
119.651711	52.0
120.087547	156.0
120.438972	200.0
121.077644	44.0
121.393227	168.0
121.669693	60.0
122.093788	128.0
123.257782	124.0
124.985191	180.0
126.176262	208.0
127.114784	176.0
127.494316	140.0
127.849655	136.0
128.758224	176.0
130.028427	592.0
130.062424	168.0
130.769333	136.0
131.026657	252.0
131.117798	96.0
131.567169	76.0
132.04422	252.0
132.353714	64.0
132.612579	216.0
132.681351	188.0
132.919907	156.0
133.002518	160.0
133.02739	3140.0
133.124207	40.0
133.291367	84.0
133.399933	32.0
133.556305	44.0
134.033203	412.0
134.316452	60.0
134.780518	64.0
135.030182	188.0
136.982315	64.0
137.394958	120.0
139.7379	244.0
140.190018	196.0
140.218292	76.0
141.595718	184.0
142.582703	92.0
145.83812	212.0
146.591431	64.0
147.990051	164.0
151.739929	196.0
152.250336	196.0
155.762695	184.0
156.446564	196.0
156.964828	240.0
157.13443	56.0
158.798004	132.0
159.1418	80.0
159.722351	176.0
159.757568	140.0
159.911072	72.0
160.038574	12276.0
160.072189	208.0
160.104935	56.0
160.188049	36.0
160.218277	80.0
160.243484	40.0
160.301987	200.0
160.435028	68.0
160.68219	132.0
161.041473	1032.0
161.379288	32.0
161.462738	40.0
161.52597	32.0
161.644897	76.0
161.789169	88.0
161.890442	84.0
162.032303	144.0
162.050034	232.0
162.227448	132.0
162.250259	120.0
162.326324	92.0
162.344086	124.0
162.399872	40.0
162.828827	104.0
163.103241	100.0
163.161713	164.0
163.26088	108.0
164.108856	76.0
166.910172	188.0
168.867599	156.0
169.400848	36.0
175.503815	52.0
184.113251	48.0
186.998016	96.0
197.084076	124.0
199.089813	204.0
203.165817	124.0
216.062729	124.0
218.189041	140.0
236.136887	216.0
249.050766	40.0
257.061127	192.0
260.972351	96.0
263.060089	132.0
277.14447	152.0
279.086273	172.0
283.16098	112.0
292.916351	136.0
293.782227	72.0
296.188873	132.0
304.088623	56.0
307.014618	116.0
316.117249	124.0
316.159729	160.0
316.26236	128.0
329.00708	136.0
340.081146	88.0
374.857788	180.0
397.732513	72.0
476.267212	68.0
542.630981	72.0
644.65802	124.0
654.922058	60.0
752.020813	136.0
758.14093	32.0
771.295715	96.0
777.837769	132.0
830.096313	68.0
854.699524	140.0
861.106506	188.0
958.892273	148.0
983.798096	144.0
1001.311951	188.0
1064.622803	176.0
1097.434448	100.0
1101.89624	44.0
1174.735229	184.0
1176.41394	112.0
1186.635376	180.0
1201.974365	120.0
1203.182251	148.0
1236.109009	160.0
1237.004883	212.0
1239.393188	148.0
1249.166382	84.0
1255.547974	148.0
1273.021484	188.0
1296.041504	216.0
1298.579346	164.0
1301.507324	180.0
1302.75708	168.0
1314.031616	156.0
1326.688354	168.0
1336.711792	48.0
1340.126953	196.0
1355.699219	136.0
1358.940308	184.0
1367.663696	208.0
1370.572876	236.0
1378.904663	208.0
1382.943115	160.0
1390.763062	168.0
1396.14978	56.0
1422.113403	212.0
1427.846191	172.0
1439.671143	180.0
1463.094238	148.0
1465.508667	152.0
1470.351074	192.0
1470.480835	64.0
1489.247681	52.0
1494.713867	76.0
1503.962402	188.0
END IONS

BEGIN IONS
PEPMASS=210.113
CHARGE=1
MSLEVEL=2
SOURCE_INSTRUMENT=LC-ESI-qTof
FILENAME=p4-G11_GG11_01_18407.mzXML
SEQ=*..*
IONMODE=Positive
ORGANISM=GNPS-NIH-SMALLMOLECULEPHARMACOLOGICALLYACTIVE
NAME=MLS002207242-01!Propoxur114-26-1 M+H
PI=Dorrestein
DATACOLLECTOR=VP/LMS
SMILES=CNC(=O)Oc1ccccc1OC(C)C
INCHI=N/A
INCHIAUX=N/A
PUBMED=N/A
SUBMITUSER=vphelan
LIBRARYQUALITY=1
SPECTRUMID=CCMSLIB00000085919
USI=mzspec:GNPS:GNPS-NIH-SMALLMOLECULEPHARMACOLOGICALLYACTIVE:accession:CCMSLIB00000085919
SCANS=1742
46.260426	152.0
49.322979	164.0
49.385902	180.0
51.916302	256.0
56.405785	196.0
59.561005	48.0
61.53875	44.0
61.710621	192.0
63.201786	80.0
63.425095	148.0
64.111725	140.0
70.906189	136.0
71.981209	176.0
74.309853	116.0
78.389565	188.0
78.832512	156.0
80.690063	228.0
84.281754	172.0
85.725945	136.0
85.967529	112.0
89.962166	152.0
92.347008	136.0
92.442665	96.0
92.827721	164.0
93.033188	2100.0
93.540535	164.0
94.033997	168.0
94.503593	104.0
94.668129	260.0
98.454491	376.0
105.067406	200.0
106.483955	64.0
107.049522	132.0
107.206093	36.0
108.34877	52.0
109.033539	260.0
110.532982	208.0
111.043915	5956.0
111.143921	116.0
111.180534	60.0
111.201523	72.0
111.223389	48.0
111.365295	92.0
111.558624	72.0
112.047508	432.0
112.070061	76.0
112.232361	44.0
118.703682	124.0
123.940849	80.0
130.068512	208.0
134.075912	108.0
137.025818	152.0
146.051315	36.0
150.953079	204.0
151.945114	112.0
168.065811	184.0
168.083878	136.0
171.953369	88.0
174.9785	136.0
222.896423	84.0
223.970459	132.0
225.061996	160.0
246.930557	124.0
287.69223	64.0
511.580505	20.0
820.571106	196.0
849.169922	196.0
901.467529	212.0
980.44928	184.0
987.348083	176.0
1048.030518	140.0
1155.400513	208.0
1161.21936	136.0
1175.438232	192.0
1201.974609	224.0
1210.574219	180.0
1226.206055	196.0
1233.122925	196.0
1236.963013	112.0
1237.509155	108.0
1242.085571	272.0
1277.620361	284.0
1305.121582	276.0
1308.193848	188.0
1340.571289	164.0
1349.104004	128.0
1364.735474	56.0
1386.890869	128.0
1434.343872	192.0
1441.559326	140.0
1466.415039	144.0
1467.459351	148.0
1475.063354	112.0
1490.998901	144.0
1504.146973	112.0
END IONS

BEGIN IONS
PEPMASS=282.071
CHARGE=1
MSLEVEL=2
SOURCE_INSTRUMENT=LC-ESI-qTof
FILENAME=p4-H07_GH7_01_18415.mzXML
SEQ=*..*
IONMODE=Positive
ORGANISM=GNPS-NIH-SMALLMOLECULEPHARMACOLOGICALLYACTIVE
NAME=MLS001148610-01!530-78-9 M+H
PI=Dorrestein
DATACOLLECTOR=VP/LMS
SMILES=OC(=O)c1ccccc1Nc2cccc(c2)C(F)(F)F
INCHI=N/A
INCHIAUX=N/A
PUBMED=N/A
SUBMITUSER=vphelan
LIBRARYQUALITY=1
SPECTRUMID=CCMSLIB00000085954
USI=mzspec:GNPS:GNPS-NIH-SMALLMOLECULEPHARMACOLOGICALLYACTIVE:accession:CCMSLIB00000085954
SCANS=2389
44.891468	148.0
44.927483	164.0
44.975117	144.0
45.01424	136.0
45.058319	104.0
45.094162	224.0
45.117126	124.0
45.16259	160.0
45.196037	152.0
45.209419	44.0
45.222805	152.0
45.269661	176.0
45.292431	168.0
45.315205	184.0
45.335991	172.0
45.372108	184.0
45.400997	184.0
45.481499	212.0
45.547295	144.0
45.597012	156.0
45.622551	132.0
45.662891	144.0
45.685455	160.0
45.715359	244.0
45.794792	240.0
45.819042	88.0
45.862164	112.0
45.899204	212.0
45.939808	200.0
46.028107	88.0
46.055119	148.0
46.080784	216.0
46.128086	164.0
46.140011	156.0
46.170002	160.0
46.18082	260.0
46.214642	364.0
46.248116	196.0
46.295864	184.0
46.324306	188.0
46.352398	180.0
46.427319	192.0
46.480225	224.0
46.530449	244.0
46.556248	148.0
46.586128	184.0
46.602432	196.0
46.640484	108.0
46.720718	108.0
46.735443	220.0
46.775154	48.0
46.788765	204.0
46.803112	120.0
46.822807	60.0
46.897747	144.0
46.965923	248.0
46.98093	228.0
47.005489	52.0
47.025959	140.0
47.073742	128.0
47.101059	100.0
47.133789	184.0
47.168018	152.0
47.18404	176.0
47.247334	120.0
47.304813	164.0
47.363693	176.0
47.540562	172.0
47.574879	80.0
47.589981	160.0
47.69989	184.0
47.743889	168.0
47.805798	152.0
47.816807	152.0
47.853973	176.0
47.905949	168.0
47.918709	172.0
47.940758	48.0
47.989002	184.0
48.009686	216.0
48.029835	184.0
48.097988	148.0
48.175323	216.0
48.216774	92.0
48.250488	164.0
48.291328	152.0
48.295113	140.0
48.298943	244.0
48.331554	100.0
48.357849	140.0
48.43816	140.0
48.457558	92.0
48.572624	132.0
48.700325	76.0
48.714218	116.0
48.835152	196.0
48.865757	128.0
48.9632	136.0
48.995174	184.0
49.038433	164.0
49.063049	152.0
49.131863	200.0
49.191929	100.0
49.205833	204.0
49.235157	40.0
49.2603	72.0
49.274269	180.0
49.299423	152.0
49.325977	120.0
49.381908	124.0
49.395897	132.0
49.415482	172.0
49.453266	184.0
49.470066	168.0
49.50647	116.0
49.535885	196.0
49.551292	176.0
49.568108	148.0
49.596138	192.0
49.622971	172.0
49.636795	152.0
49.678875	144.0
49.697113	204.0
49.743427	108.0
49.81926	144.0
49.829094	104.0
49.870689	132.0
49.914837	120.0
49.952812	44.0
50.007946	220.0
50.083721	172.0
50.102036	148.0
50.154175	156.0
50.244431	88.0
50.265594	124.0
50.343235	176.0
50.354534	152.0
50.414429	240.0
50.425179	160.0
50.436924	180.0
50.480316	148.0
50.490215	188.0
50.50153	48.0
50.531239	180.0
50.548218	100.0
50.565201	176.0
50.63316	144.0
50.685574	240.0
50.715336	148.0
50.746376	152.0
50.769211	164.0
50.790489	136.0
50.812527	184.0
50.827374	228.0
50.914711	144.0
50.967953	172.0
51.006325	244.0
51.121532	212.0
51.251114	92.0
51.290649	184.0
51.318859	144.0
51.406548	156.0
51.433666	164.0
51.469357	112.0
51.653725	200.0
51.742455	64.0
51.854187	116.0
51.896519	196.0
51.93161	196.0
51.997612	192.0
52.010529	92.0
52.111023	160.0
52.129738	108.0
52.207367	148.0
52.24189	112.0
52.262032	48.0
52.279972	180.0
52.361362	196.0
52.372883	140.0
52.400253	156.0
52.443489	112.0
52.491062	104.0
52.515579	112.0
52.557419	168.0
52.672916	200.0
52.683029	112.0
52.757294	216.0
52.879688	92.0
52.983948	152.0
53.073811	196.0
53.09816	228.0
53.121868	232.0
53.136181	104.0
53.149822	160.0
53.161404	136.0
53.320599	172.0
53.378063	228.0
53.407837	120.0
53.475983	216.0
53.496605	216.0
53.511036	92.0
53.554852	72.0
53.581074	156.0
53.642281	176.0
53.677143	180.0
53.761883	76.0
53.953232	164.0
53.979553	48.0
53.998566	176.0
54.021969	100.0
54.048306	84.0
54.07172	256.0
54.108315	164.0
54.14785	168.0
54.18301	156.0
54.276814	184.0
54.316414	224.0
54.331085	144.0
54.386848	132.0
54.463203	52.0
54.485237	184.0
54.57048	108.0
54.601364	76.0
54.624897	208.0
54.647865	120.0
54.694057	120.0
54.716141	136.0
54.773575	168.0
54.792725	268.0
54.823669	212.0
54.857571	140.0
54.891483	136.0
54.965237	108.0
55.00066	148.0
55.015846	180.0
55.033981	140.0
55.061195	180.0
55.081875	116.0
55.1129	292.0
55.151325	176.0
55.195679	148.0
55.237617	188.0
55.274078	156.0
55.308117	52.0
55.346611	76.0
55.554108	220.0
55.574879	156.0
55.600105	168.0
55.610493	336.0
55.620884	116.0
55.656517	36.0
55.698101	120.0
55.7085	176.0
55.718754	164.0
55.780338	152.0
55.833355	156.0
55.843769	44.0
55.861618	156.0
55.922626	72.0
55.936024	140.0
55.958355	220.0
55.973244	160.0
56.006153	204.0
56.023884	188.0
56.040272	168.0
56.110325	148.0
56.128216	148.0
56.187878	180.0
56.20467	220.0
56.271458	160.0
56.382	160.0
56.39246	220.0
56.422359	156.0
56.441795	80.0
56.553112	128.0
56.577259	216.0
56.71727	168.0
56.771244	108.0
56.793743	156.0
56.814743	200.0
56.887005	132.0
56.945339	140.0
57.008442	228.0
57.113686	164.0
57.152802	80.0
57.247635	132.0
57.295837	192.0
57.341042	88.0
57.3531	156.0
57.374207	152.0
57.393806	148.0
57.487331	176.0
57.520538	120.0
57.549221	52.0
57.579426	148.0
57.596039	124.0
57.645897	208.0
57.703335	164.0
57.741627	200.0
57.778957	132.0
57.847061	92.0
57.927319	120.0
57.965199	152.0
57.978836	136.0
58.092556	96.0
58.105408	348.0
58.12442	152.0
58.157806	60.0
58.186649	236.0
58.197281	140.0
58.236763	64.0
58.262589	168.0
58.292976	128.0
58.351559	212.0
58.403965	116.0
58.42374	180.0
58.441998	176.0
58.45417	176.0
58.490696	124.0
58.513535	96.0
58.545509	144.0
58.591206	132.0
58.620155	80.0
58.639481	400.0
58.66893	140.0
58.682655	68.0
58.789433	192.0
58.829117	112.0
58.859745	132.0
58.871868	164.0
58.934502	148.0
58.96965	172.0
58.986462	36.0
59.03233	128.0
59.065979	232.0
59.125652	176.0
59.151672	108.0
59.175282	192.0
59.189949	152.0
59.205425	380.0
59.222111	244.0
59.24049	76.0
59.314049	260.0
59.333488	188.0
59.383049	148.0
59.472042	108.0
59.520473	160.0
59.550346	196.0
59.588753	136.0
59.646652	172.0
59.75634	96.0
59.777882	132.0
59.811745	128.0
59.835732	96.0
59.846722	172.0
59.865631	136.0
60.048431	144.0
60.069084	184.0
60.082409	264.0
60.096855	192.0
60.1092	128.0
60.133892	200.0
60.180866	176.0
60.206455	196.0
60.221901	212.0
60.260521	152.0
60.27597	208.0
60.354805	228.0
60.382339	164.0
60.428322	204.0
60.453808	184.0
60.506435	152.0
60.550751	136.0
60.573029	60.0
60.59095	232.0
60.645859	264.0
60.689266	160.0
60.743546	212.0
60.799404	52.0
60.813374	160.0
60.847527	100.0
60.915855	100.0
60.931393	200.0
60.964542	224.0
61.060413	176.0
61.075966	156.0
61.158237	156.0
61.176315	228.0
61.197357	148.0
61.2285	212.0
61.242519	116.0
61.275234	216.0
61.29549	304.0
61.326656	36.0
61.365631	116.0
61.392139	104.0
61.438614	156.0
61.451653	132.0
61.502914	180.0
61.513844	92.0
61.535698	184.0
61.60598	28.0
61.618477	44.0
61.651291	148.0
61.701313	192.0
61.76543	164.0
61.786629	168.0
61.842819	244.0
61.868713	212.0
61.929737	132.0
62.114746	108.0
62.130436	168.0
62.197914	136.0
62.215183	156.0
62.246586	120.0
62.273285	216.0
62.285343	260.0
62.291027	176.0
62.332985	144.0
62.3643	220.0
62.442108	120.0
62.460331	212.0
62.50124	56.0
62.601986	184.0
62.660267	160.0
62.695793	308.0
62.712269	60.0
62.770603	140.0
62.798988	44.0
62.811607	60.0
62.899975	144.0
62.920498	264.0
62.944183	140.0
62.958397	172.0
62.980507	160.0
63.018696	116.0
63.151215	112.0
63.197094	72.0
63.254066	144.0
63.273064	216.0
63.357002	116.0
63.406124	84.0
63.463192	136.0
63.482224	160.0
63.544083	176.0
63.567886	36.0
63.607563	132.0
63.666313	156.0
63.720322	92.0
63.776611	192.0
63.826813	240.0
63.874966	160.0
63.946739	148.0
63.962048	204.0
63.987518	144.0
64.006622	188.0
64.070099	188.0
64.159584	144.0
64.240921	196.0
64.2603	160.0
64.283997	168.0
64.301552	132.0
64.360619	32.0
64.374992	160.0
64.400543	124.0
64.483627	108.0
64.533188	184.0
64.609955	128.0
64.636032	188.0
64.685173	80.0
64.810097	140.0
64.837334	172.0
64.85817	232.0
64.891838	256.0
64.912682	104.0
65.000916	124.0
65.024986	156.0
65.068329	144.0
65.126892	144.0
65.145416	208.0
65.237015	120.0
65.27774	208.0
65.299309	92.0
65.314201	200.0
65.346947	180.0
65.391434	288.0
65.404312	160.0
65.441338	136.0
65.470078	52.0
65.485283	188.0
65.500931	132.0
65.587944	136.0
65.618576	160.0
65.671791	156.0
65.68631	204.0
65.715347	212.0
65.82888	132.0
65.835205	176.0
65.889717	196.0
65.934921	156.0
66.040054	172.0
66.15657	148.0
66.190056	176.0
66.242393	128.0
66.261833	160.0
66.291344	132.0
66.412598	176.0
66.469383	164.0
66.542427	208.0
66.579773	156.0
66.591141	168.0
66.633377	176.0
66.648834	156.0
66.66375	232.0
66.686562	192.0
66.804085	164.0
66.826859	140.0
66.85778	172.0
66.914749	296.0
67.007584	164.0
67.093964	172.0
67.107239	140.0
67.13636	64.0
67.250565	272.0
67.276688	48.0
67.386108	172.0
67.472733	176.0
67.649422	172.0
67.700615	136.0
67.721466	140.0
67.742767	48.0
67.775528	124.0
67.832893	140.0
67.85421	176.0
67.872246	120.0
67.908325	116.0
67.965744	116.0
67.988716	188.0
68.010048	132.0
68.032669	268.0
68.077362	240.0
68.092148	124.0
68.236755	108.0
68.264709	100.0
68.373291	152.0
68.425964	140.0
68.447365	188.0
68.509956	176.0
68.574722	132.0
68.586426	148.0
68.605049	240.0
68.630142	100.0
68.636154	92.0
68.639168	152.0
68.775284	200.0
68.788658	172.0
68.854385	188.0
69.056343	360.0
69.089424	56.0
69.215744	176.0
69.257729	168.0
69.310478	196.0
69.357697	168.0
69.381203	156.0
69.404114	40.0
69.467186	152.0
69.57003	116.0
69.589958	236.0
69.611542	88.0
69.658043	68.0
69.680389	188.0
69.711212	168.0
69.727837	164.0
69.774376	212.0
69.79985	324.0
69.864647	200.0
69.875832	144.0
69.889145	192.0
69.924088	120.0
69.954643	224.0
70.068962	140.0
70.093956	320.0
70.133957	160.0
70.15229	168.0
70.175629	196.0
70.260345	116.0
70.282379	84.0
70.337791	140.0
70.362495	228.0
70.434311	68.0
70.48777	148.0
70.561562	164.0
70.594757	160.0
70.723633	132.0
70.783859	180.0
70.807304	80.0
70.877663	176.0
70.921234	76.0
70.965942	240.0
71.070496	160.0
71.124779	208.0
71.171204	120.0
71.198074	116.0
71.244446	224.0
71.258545	156.0
71.271988	144.0
71.344261	164.0
71.482185	92.0
71.510796	124.0
71.534363	128.0
71.613503	196.0
71.633446	200.0
71.674149	60.0
71.734825	144.0
71.760117	136.0
71.908562	136.0
72.044426	228.0
72.097725	196.0
72.136597	144.0
72.175484	140.0
72.190948	112.0
72.236374	152.0
72.290512	200.0
72.397163	96.0
72.424263	128.0
72.446289	276.0
72.486954	124.0
72.563934	220.0
72.590355	184.0
72.60183	152.0
72.636154	184.0
72.754944	184.0
72.78299	168.0
72.856483	212.0
72.879547	220.0
72.977509	152.0
72.997917	84.0
73.009819	252.0
73.052345	88.0
73.081268	88.0
73.1119	152.0
73.147636	180.0
73.17942	120.0
73.307739	140.0
73.396385	216.0
73.422523	196.0
73.534569	128.0
73.585777	148.0
73.604561	152.0
73.745506	152.0
73.821587	224.0
73.843819	180.0
73.987564	160.0
74.028748	144.0
74.066338	164.0
74.091042	120.0
74.104027	172.0
74.148575	140.0
74.201721	216.0
74.224007	84.0
74.25145	116.0
74.29776	120.0
74.320068	244.0
74.337227	52.0
74.455681	188.0
74.476295	124.0
74.491753	152.0
74.512367	144.0
74.566307	184.0
74.61721	316.0
74.642891	124.0
74.655396	172.0
74.670517	260.0
74.770302	140.0
74.890823	92.0
74.940117	236.0
74.95285	156.0
74.980423	132.0
75.018341	124.0
75.030411	128.0
75.05455	192.0
75.159439	124.0
75.246071	132.0
75.311691	120.0
75.389137	184.0
75.416862	180.0
75.436111	144.0
75.4655	216.0
75.481064	232.0
75.493164	192.0
75.505272	160.0
75.657547	104.0
75.726814	224.0
75.752792	176.0
75.782249	120.0
76.009392	216.0
76.066673	160.0
76.085762	124.0
76.111809	208.0
76.217766	152.0
76.233406	228.0
76.30294	156.0
76.327278	124.0
76.375977	156.0
76.443832	92.0
76.545479	92.0
76.551262	112.0
76.600479	140.0
76.616211	244.0
76.656281	164.0
76.680679	76.0
76.708572	224.0
76.809708	168.0
76.823669	116.0
77.061745	196.0
77.095695	184.0
77.169472	116.0
77.186958	144.0
77.25457	176.0
77.286659	164.0
77.30941	52.0
77.32341	248.0
77.428459	104.0
77.46875	164.0
77.503784	172.0
77.538834	144.0
77.582657	88.0
77.633507	92.0
77.659813	96.0
77.692772	152.0
77.71595	176.0
77.816002	172.0
77.912598	168.0
77.942467	160.0
77.981133	68.0
77.993431	176.0
78.012344	164.0
78.04628	204.0
78.091896	136.0
78.167549	176.0
78.19043	68.0
78.329529	168.0
78.348907	172.0
78.405289	144.0
78.471169	140.0
78.521652	152.0
78.604568	116.0
78.682236	164.0
78.752869	140.0
78.770531	124.0
78.830605	136.0
78.865952	156.0
78.891975	144.0
78.91449	168.0
78.980888	184.0
79.051888	236.0
79.14016	160.0
79.202454	372.0
79.216316	256.0
79.297829	192.0
79.482094	212.0
79.517761	100.0
79.53196	156.0
79.552597	140.0
79.563248	236.0
79.679352	144.0
79.697121	128.0
79.796654	184.0
79.828659	336.0
79.842888	112.0
79.876686	100.0
79.898033	216.0
79.920715	176.0
79.953194	156.0
80.026176	56.0
80.097412	140.0
80.156204	132.0
80.19532	264.0
80.213242	300.0
80.232849	236.0
80.300613	132.0
80.325584	196.0
80.357697	200.0
80.373756	92.0
80.423729	168.0
80.466568	176.0
80.48053	156.0
80.505852	144.0
80.529655	184.0
80.609673	208.0
80.6464	192.0
80.698204	168.0
80.748909	36.0
80.7668	160.0
80.784691	200.0
80.798996	104.0
80.892059	200.0
80.95652	172.0
80.986961	148.0
81.069382	216.0
81.122307	136.0
81.144661	96.0
81.187698	48.0
81.234337	148.0
81.263039	240.0
81.295341	52.0
81.356369	136.0
81.403053	144.0
81.454262	164.0
81.54071	128.0
81.560181	156.0
81.625877	144.0
81.658249	88.0
81.778801	148.0
81.856216	140.0
81.949883	216.0
81.989525	48.0
82.112122	96.0
82.162628	200.0
82.212982	124.0
82.260078	212.0
82.317856	124.0
82.354202	216.0
82.415405	128.0
82.467812	36.0
82.590767	160.0
82.620514	200.0
82.657707	92.0
82.72467	104.0
82.739159	152.0
82.770706	132.0
82.8134	212.0
82.840569	204.0
82.867744	156.0
83.014572	140.0
83.094383	84.0
83.112526	188.0
83.176048	124.0
83.190575	324.0
83.212357	140.0
83.31588	244.0
83.3395	44.0
83.357674	196.0
83.457649	84.0
83.470375	124.0
83.503716	72.0
83.52494	144.0
83.549721	296.0
83.65596	216.0
83.750648	268.0
83.807121	160.0
83.84539	164.0
83.898254	244.0
83.918312	140.0
83.931076	244.0
84.011322	144.0
84.029572	332.0
84.047813	176.0
84.071045	184.0
84.135422	132.0
84.203514	124.0
84.230385	148.0
84.308952	32.0
84.325401	100.0
84.341393	208.0
84.36013	200.0
84.411835	176.0
84.464363	160.0
84.482658	188.0
84.541206	136.0
84.583305	340.0
84.62175	272.0
84.735306	156.0
84.801277	220.0
84.832436	136.0
84.863609	40.0
84.889275	152.0
84.924126	164.0
84.949806	184.0
84.966316	228.0
85.098465	128.0
85.150452	180.0
85.164574	148.0
85.179268	128.0
85.206184	172.0
85.252762	196.0
85.317093	92.0
85.418236	160.0
85.432953	164.0
85.458717	76.0
85.512085	168.0
85.537849	124.0
85.748695	164.0
85.762581	124.0
85.79023	76.0
85.843697	240.0
85.863983	296.0
85.904564	148.0
85.924858	160.0
85.937775	164.0
85.950691	160.0
85.982063	108.0
86.055901	196.0
86.094681	92.0
86.151939	44.0
86.172264	52.0
86.224007	196.0
86.248032	160.0
86.264671	196.0
86.311119	160.0
86.333084	172.0
86.481094	200.0
86.495903	172.0
86.573662	112.0
86.595886	108.0
86.645905	44.0
86.694084	192.0
86.731148	164.0
86.814507	196.0
86.846115	144.0
86.871063	196.0
86.893738	492.0
86.955582	104.0
86.979713	208.0
87.000687	80.0
87.078125	176.0
87.094841	252.0
87.130135	108.0
87.154289	156.0
87.197609	116.0
87.215614	156.0
87.251961	180.0
87.320633	144.0
87.382988	148.0
87.414444	212.0
87.421249	192.0
87.529823	144.0
87.598946	32.0
87.625031	68.0
87.658569	104.0
87.673477	176.0
87.69957	40.0
87.906586	140.0
87.928688	176.0
87.955116	148.0
87.975647	208.0
88.036362	116.0
88.080223	120.0
88.104507	180.0
88.145615	92.0
88.179253	36.0
88.192337	112.0
88.38871	172.0
88.452339	132.0
88.49353	148.0
88.521614	104.0
88.589043	248.0
88.690659	176.0
88.759514	172.0
88.797112	212.0
88.827118	236.0
88.885284	140.0
88.959152	224.0
88.976677	260.0
89.024193	76.0
89.172615	288.0
89.390778	164.0
89.488991	204.0
89.563988	144.0
89.577171	188.0
89.622391	168.0
89.751213	312.0
89.803368	176.0
89.844864	76.0
89.867188	260.0
89.937332	100.0
89.987198	136.0
90.063843	148.0
90.160202	172.0
90.290657	160.0
90.333618	212.0
90.394707	48.0
90.42688	228.0
90.457161	116.0
90.489349	112.0
90.606773	196.0
90.638519	180.0
90.64595	136.0
90.709106	132.0
90.845642	176.0
90.860825	240.0
90.978485	84.0
91.004433	156.0
91.054443	196.0
91.119026	172.0
91.134232	48.0
91.295807	164.0
91.341454	208.0
91.375694	140.0
91.45372	212.0
91.527969	228.0
91.642258	180.0
91.673973	216.0
91.712769	76.0
91.731827	152.0
91.7528	164.0
91.849556	168.0
91.890121	164.0
91.907295	156.0
91.937828	228.0
91.989357	192.0
92.025681	164.0
92.048546	184.0
92.084831	196.0
92.111572	212.0
92.15934	188.0
92.216667	168.0
92.249161	192.0
92.266373	144.0
92.283577	164.0
92.314056	136.0
92.320328	128.0
92.32798	164.0
92.369415	224.0
92.378311	120.0
92.38166	168.0
92.427032	168.0
92.44043	196.0
92.545708	224.0
92.577866	172.0
92.675957	144.0
92.729614	192.0
92.759506	216.0
92.815887	148.0
92.846565	44.0
92.878738	176.0
92.942482	120.0
92.996216	164.0
93.086456	236.0
93.147911	148.0
93.326645	140.0
93.38205	148.0
93.394653	188.0
93.437157	176.0
93.460083	140.0
93.468697	212.0
93.679077	172.0
93.700516	180.0
93.723167	128.0
93.791939	128.0
93.861954	36.0
93.909836	164.0
93.931381	212.0
93.979614	176.0
94.0047	132.0
94.049088	136.0
94.06646	104.0
94.097351	156.0
94.228683	176.0
94.281776	220.0
94.336914	132.0
94.360115	148.0
94.404999	236.0
94.421989	156.0
94.449074	168.0
94.567101	148.0
94.5942	180.0
94.660027	164.0
94.681335	200.0
94.741379	116.0
94.784004	188.0
94.822762	164.0
94.857651	148.0
94.884796	360.0
95.024826	324.0
95.030167	164.0
95.03701	316.0
95.057426	144.0
95.088478	188.0
95.183601	164.0
95.280716	228.0
95.368164	100.0
95.425514	96.0
95.461487	140.0
95.525673	132.0
95.554855	84.0
95.595718	68.0
95.617126	168.0
95.681358	76.0
95.745621	136.0
95.763145	204.0
95.807953	148.0
95.833282	176.0
95.922928	100.0
95.954124	132.0
96.067116	192.0
96.106255	72.0
96.139427	112.0
96.174561	172.0
96.26841	116.0
96.299332	288.0
96.334686	208.0
96.348358	200.0
96.371803	116.0
96.387436	156.0
96.426521	36.0
96.510582	112.0
96.660385	96.0
96.698387	204.0
96.71209	260.0
96.737534	192.0
96.762985	148.0
96.781059	208.0
96.874619	224.0
96.889824	184.0
97.011795	104.0
97.070618	152.0
97.143188	96.0
97.256996	116.0
97.298653	228.0
97.333565	116.0
97.349274	180.0
97.381035	164.0
97.42588	144.0
97.469101	120.0
97.51683	160.0
97.579178	104.0
97.626366	188.0
97.662567	300.0
97.699142	72.0
97.766045	208.0
97.810135	140.0
97.824623	252.0
97.94635	188.0
97.968857	84.0
97.997902	156.0
98.086357	128.0
98.126945	148.0
98.20343	140.0
98.227097	136.0
98.244858	88.0
98.321808	68.0
98.354012	268.0
98.467911	140.0
98.566689	104.0
98.631905	164.0
98.679352	184.0
98.709015	192.0
98.730766	244.0
98.805931	56.0
98.845505	232.0
98.873207	136.0
98.889046	148.0
99.021698	176.0
99.245636	40.0
99.265465	164.0
99.322975	200.0
99.342819	96.0
99.398369	44.0
99.457909	188.0
99.531364	160.0
99.555199	148.0
99.575058	116.0
99.630676	164.0
99.684326	128.0
99.781898	196.0
99.815521	204.0
99.895081	164.0
99.984619	200.0
100.018456	188.0
100.088135	72.0
100.20565	188.0
100.251846	132.0
100.269173	196.0
100.383057	180.0
100.410973	196.0
100.475227	152.0
100.566078	184.0
100.60453	96.0
100.624496	188.0
100.654442	124.0
100.702377	60.0
100.764297	192.0
100.940201	172.0
100.962196	140.0
101.012199	96.0
101.044205	256.0
101.092232	112.0
101.112244	68.0
101.130257	128.0
101.197746	152.0
101.222015	144.0
101.307899	168.0
101.345795	224.0
101.37059	124.0
101.506905	168.0
101.611206	104.0
101.631271	120.0
101.691475	140.0
101.709541	176.0
101.761734	120.0
101.791855	140.0
101.853996	204.0
101.85778	228.0
101.948067	268.0
101.990753	144.0
102.032196	248.0
102.049057	176.0
102.06514	172.0
102.286446	124.0
102.320671	152.0
102.383095	184.0
102.435463	200.0
102.532745	172.0
102.554024	224.0
102.60273	44.0
102.653137	84.0
102.671288	140.0
102.734276	160.0
102.822601	116.0
102.846825	268.0
102.903351	132.0
102.923538	124.0
102.967621	164.0
102.998268	144.0
103.058876	176.0
103.073021	96.0
103.089188	244.0
103.119499	132.0
103.145332	256.0
103.188232	160.0
103.295418	256.0
103.313622	144.0
103.44516	136.0
103.46946	76.0
103.487679	84.0
103.506218	180.0
103.560936	184.0
103.625412	252.0
103.689888	176.0
103.740532	244.0
103.791618	140.0
103.831306	112.0
103.844345	172.0
103.973984	232.0
104.041176	156.0
104.085846	188.0
104.150833	92.0
104.201622	192.0
104.236168	120.0
104.289948	168.0
104.31543	120.0
104.356331	172.0
104.400826	208.0
104.543236	120.0
104.561554	48.0
104.59819	152.0
104.614471	224.0
104.806152	36.0
104.828339	104.0
104.893562	260.0
105.015907	72.0
105.032219	120.0
105.05732	184.0
105.170975	180.0
105.191391	220.0
105.26693	160.0
105.301651	136.0
105.364975	156.0
105.400406	200.0
105.416061	128.0
105.493729	220.0
105.550972	80.0
105.615181	224.0
105.66552	192.0
105.782166	216.0
105.947502	120.0
105.999275	196.0
106.084549	152.0
106.114059	184.0
106.161217	56.0
106.204292	128.0
106.244904	220.0
106.280197	116.0
106.332176	424.0
106.391029	168.0
106.477272	180.0
106.514244	124.0
106.616974	92.0
106.691093	140.0
106.795845	152.0
106.843643	188.0
106.941422	176.0
107.176712	64.0
107.197319	140.0
107.259148	140.0
107.29213	108.0
107.323059	208.0
107.412239	148.0
107.417931	36.0
107.425674	148.0
107.511528	132.0
107.585083	136.0
107.671806	140.0
107.704857	136.0
107.777168	184.0
107.875923	220.0
107.890839	232.0
107.938393	196.0
107.959076	168.0
107.977692	116.0
108.019058	140.0
108.062424	404.0
108.114944	152.0
108.180473	104.0
108.279861	180.0
108.310928	176.0
108.352409	180.0
108.47049	420.0
108.50573	152.0
108.544807	184.0
108.588676	88.0
108.665428	176.0
108.68203	104.0
108.816948	272.0
108.850166	184.0
108.941551	120.0
109.003883	140.0
109.080612	192.0
109.139	76.0
109.170296	156.0
109.207626	124.0
109.224266	148.0
109.324135	160.0
109.450546	160.0
109.501099	60.0
109.52243	200.0
109.546928	160.0
109.709473	156.0
109.740685	128.0
109.771713	160.0
109.799141	132.0
109.838249	160.0
109.957703	196.0
109.989014	148.0
110.011971	52.0
110.026588	188.0
110.04538	104.0
110.065506	132.0
110.079201	120.0
110.09967	148.0
110.118469	64.0
110.133087	128.0
110.232056	184.0
110.283531	164.0
110.300255	144.0
110.496834	168.0
110.517754	184.0
110.551239	120.0
110.616905	128.0
110.799065	112.0
110.836029	132.0
110.907288	68.0
110.921959	92.0
110.950462	188.0
110.999535	176.0
111.101059	148.0
111.118523	220.0
111.189217	268.0
111.206581	156.0
111.222809	152.0
111.278603	164.0
111.368904	136.0
111.39621	132.0
111.467651	120.0
111.502502	144.0
111.524391	156.0
111.551292	176.0
111.585358	120.0
111.677513	244.0
111.711815	176.0
111.743103	148.0
111.905167	100.0
112.030212	140.0
112.079987	176.0
112.131233	304.0
112.191696	168.0
112.244408	88.0
112.320335	148.0
112.398392	160.0
112.457489	204.0
112.598946	152.0
112.717255	124.0
112.772202	128.0
112.860992	140.0
113.023865	124.0
113.045761	240.0
113.112755	172.0
113.142387	188.0
113.193207	304.0
113.212265	160.0
113.324532	84.0
113.477142	36.0
113.496223	96.0
113.642792	200.0
113.71685	200.0
113.86335	140.0
113.882469	84.0
113.909325	160.0
113.967445	128.0
113.984444	184.0
114.006554	148.0
114.047668	144.0
114.08844	172.0
114.18428	124.0
114.267242	104.0
114.327461	200.0
114.351364	180.0
114.399185	220.0
114.435379	136.0
114.475838	172.0
114.554649	140.0
114.573822	152.0
114.610039	192.0
114.69529	172.0
114.740059	60.0
114.772041	88.0
114.812553	84.0
114.889343	136.0
114.964027	140.0
114.999916	264.0
115.054604	336.0
115.111328	128.0
115.186844	56.0
115.193184	184.0
115.245895	72.0
115.288635	160.0
115.357033	132.0
115.389099	208.0
115.487564	184.0
115.511002	120.0
115.549507	188.0
115.605141	180.0
115.635101	144.0
115.684814	160.0
115.776405	108.0
115.907677	116.0
115.969231	48.0
115.988525	196.0
116.050697	84.0
116.072945	160.0
116.115028	172.0
116.157928	64.0
116.187965	240.0
116.220146	200.0
116.298836	160.0
116.327454	136.0
116.415489	148.0
116.69416	180.0
116.770096	84.0
116.785149	176.0
116.804749	144.0
116.828171	156.0
116.916397	96.0
116.933151	188.0
116.953468	160.0
117.008957	184.0
117.05896	184.0
117.097244	172.0
117.215729	180.0
117.308411	136.0
117.329971	156.0
117.433479	144.0
117.448578	188.0
117.55645	196.0
117.625519	92.0
117.647102	72.0
117.697563	140.0
117.776672	180.0
117.809074	108.0
117.830681	144.0
117.854446	52.0
117.900543	204.0
117.925758	160.0
117.955048	168.0
117.979805	120.0
118.100899	180.0
118.228554	252.0
118.276169	168.0
118.29998	148.0
118.432068	148.0
118.488396	52.0
118.538231	88.0
118.575073	220.0
118.629257	228.0
118.771103	224.0
118.796242	64.0
118.972023	148.0
119.01545	184.0
119.032822	160.0
119.056709	76.0
119.081154	156.0
119.104492	112.0
119.223991	208.0
119.506065	156.0
119.523727	96.0
119.593735	172.0
119.613319	216.0
119.677734	188.0
119.794067	96.0
119.811493	164.0
119.86161	136.0
119.892113	132.0
119.940674	172.0
119.968407	228.0
119.986069	212.0
120.112328	148.0
120.156921	236.0
120.201782	92.0
120.227974	160.0
120.275986	116.0
120.361725	176.0
120.422279	328.0
120.487816	144.0
120.638611	164.0
120.677963	196.0
120.70858	152.0
120.737007	132.0
120.888237	176.0
121.043381	172.0
121.069656	164.0
121.163849	108.0
121.196716	152.0
121.24054	176.0
121.263657	300.0
121.295334	244.0
121.365494	160.0
121.431282	160.0
121.479538	192.0
121.573654	148.0
121.585098	148.0
121.637543	168.0
121.738029	208.0
121.812759	192.0
121.841774	172.0
121.894508	204.0
121.91346	212.0
122.043983	128.0
122.101158	196.0
122.28157	216.0
122.31041	140.0
122.420265	180.0
122.479736	36.0
122.585487	44.0
122.644997	156.0
122.669243	164.0
122.700104	188.0
122.733177	180.0
122.770668	148.0
122.79493	200.0
122.830193	176.0
123.024185	336.0
123.088448	172.0
123.264725	388.0
123.304947	136.0
123.391151	184.0
123.417686	96.0
123.537117	108.0
123.563667	200.0
123.623413	192.0
123.638901	192.0
123.654396	136.0
123.672104	140.0
123.758438	184.0
123.84481	264.0
123.906837	192.0
123.93145	184.0
123.962227	108.0
123.985847	164.0
124.010872	156.0
124.024498	208.0
124.120049	124.0
124.13736	188.0
124.210548	152.0
124.270447	124.0
124.290421	184.0
124.336266	176.0
124.410271	116.0
124.443573	136.0
124.463554	156.0
124.487984	108.0
124.520538	184.0
124.534622	340.0
124.549118	132.0
124.563499	208.0
124.63237	100.0
124.687874	168.0
124.763504	124.0
124.834656	52.0
124.854675	144.0
124.919174	160.0
124.945877	136.0
124.990372	132.0
125.02272	372.0
125.074944	80.0
125.099434	80.0
125.152863	132.0
125.181816	192.0
125.271584	144.0
125.31546	168.0
125.331062	64.0
125.350883	156.0
125.358818	140.0
125.420204	152.0
125.491547	188.0
125.53614	204.0
125.636513	56.0
125.65213	76.0
125.685509	196.0
125.727997	60.0
125.770409	136.0
125.832916	88.0
125.914314	228.0
125.964676	192.0
126.001633	244.0
126.032967	212.0
126.182358	168.0
126.38681	128.0
126.431984	60.0
126.478989	120.0
126.517044	192.0
126.53495	124.0
126.608849	192.0
126.671562	144.0
126.832901	140.0
126.962944	180.0
126.994347	116.0
127.010048	128.0
127.036964	132.0
127.055252	160.0
127.077347	112.0
127.209763	104.0
127.225471	132.0
127.243439	112.0
127.297325	164.0
127.337494	176.0
127.41188	136.0
127.427605	144.0
127.513	172.0
127.560204	176.0
127.589424	112.0
127.771599	128.0
127.88636	124.0
127.902122	148.0
127.999626	180.0
128.05072	172.0
128.12796	228.0
128.219696	56.0
128.289581	148.0
128.377518	128.0
128.469986	116.0
128.490295	236.0
128.533173	152.0
128.595749	164.0
128.639252	172.0
128.741196	180.0
128.923843	172.0
129.014038	208.0
129.050919	240.0
129.118271	168.0
129.199707	140.0
129.238159	32.0
129.276627	152.0
129.310577	56.0
129.364899	40.0
129.527954	224.0
129.547058	176.0
129.618576	188.0
129.691467	168.0
129.71376	124.0
129.747772	140.0
129.765915	124.0
129.820328	172.0
129.973526	196.0
130.029648	416.0
130.135742	204.0
130.201599	152.0
130.3629	96.0
130.428802	224.0
130.54248	172.0
130.649384	176.0
130.719925	168.0
130.747559	196.0
130.769989	160.0
130.790482	68.0
130.836014	256.0
130.854218	148.0
130.879272	140.0
130.972122	160.0
131.009094	164.0
131.034149	108.0
131.07048	152.0
131.120743	164.0
131.157211	152.0
131.219757	204.0
131.291733	132.0
131.312958	160.0
131.385254	132.0
131.424042	188.0
131.442291	180.0
131.537079	140.0
131.618057	156.0
131.677429	80.0
131.700272	148.0
131.761948	60.0
131.800797	236.0
131.829666	152.0
131.883072	120.0
131.917358	172.0
131.972229	160.0
132.022537	180.0
132.15979	148.0
132.184952	124.0
132.31543	104.0
132.379547	164.0
132.454773	160.0
132.528427	132.0
132.604446	120.0
132.636154	96.0
132.693466	240.0
132.75766	100.0
132.794357	148.0
132.9198	112.0
132.923889	180.0
132.968735	120.0
133.025604	144.0
133.042191	140.0
133.131729	124.0
133.163254	180.0
133.205231	148.0
133.232803	92.0
133.264236	176.0
133.333908	180.0
133.391373	92.0
133.467239	192.0
133.580704	132.0
133.625946	132.0
133.642044	140.0
133.667526	168.0
133.791656	164.0
133.810074	168.0
133.860733	148.0
133.890671	224.0
133.916	124.0
133.978195	44.0
133.998932	216.0
134.026581	240.0
134.057175	276.0
134.084198	208.0
134.134903	160.0
134.181015	112.0
134.217896	168.0
134.270935	52.0
134.324249	316.0
134.394333	204.0
134.453201	232.0
134.490295	216.0
134.543228	116.0
134.579285	200.0
134.695648	328.0
134.845825	200.0
135.000732	208.0
135.019226	148.0
135.083328	196.0
135.276062	120.0
135.296906	212.0
135.36232	156.0
135.380264	148.0
135.442291	240.0
135.472916	192.0
135.48912	148.0
135.511765	212.0
135.53862	212.0
135.565598	136.0
135.586441	200.0
135.647491	216.0
135.676849	180.0
135.737137	156.0
135.802078	196.0
135.84375	124.0
135.850159	120.0
135.876297	60.0
135.913422	188.0
135.98381	184.0
136.059647	120.0
136.129303	192.0
136.257065	128.0
136.319794	192.0
136.37326	200.0
136.401154	108.0
136.442871	156.0
136.498795	132.0
136.563156	196.0
136.591827	48.0
136.661621	204.0
136.738419	116.0
136.78743	140.0
136.805923	96.0
136.908371	152.0
137.017853	92.0
137.03775	192.0
137.073776	112.0
137.1297	124.0
137.173996	104.0
137.267258	176.0
137.36055	176.0
137.379211	160.0
137.437531	128.0
137.46553	200.0
137.592926	160.0
137.804123	168.0
137.869537	172.0
137.897583	300.0
137.930313	160.0
138.033188	88.0
138.106064	172.0
138.142136	200.0
138.187561	120.0
138.217285	224.0
138.239044	36.0
138.560684	176.0
138.620758	192.0
138.733261	144.0
138.773117	128.0
138.913834	356.0
138.934937	100.0
138.969955	200.0
139.053467	2456.0
139.080444	228.0
139.115891	276.0
139.203644	164.0
139.223663	140.0
139.29631	292.0
139.352097	284.0
139.402206	140.0
139.512665	140.0
139.545578	132.0
139.569092	200.0
139.797272	112.0
139.924377	156.0
139.945572	160.0
140.012131	60.0
140.052536	1612.0
140.095993	180.0
140.122223	140.0
140.176422	88.0
140.207047	52.0
140.239166	172.0
140.28801	204.0
140.341415	180.0
140.44754	72.0
140.47821	228.0
140.504166	184.0
140.624512	60.0
140.674072	180.0
140.78978	188.0
140.846466	96.0
140.865356	124.0
140.995316	272.0
141.014236	544.0
141.064133	392.0
141.102753	192.0
141.159454	148.0
141.248306	224.0
141.271957	180.0
141.305084	176.0
141.321655	120.0
141.41394	64.0
141.579666	248.0
141.600983	156.0
141.643616	200.0
141.69574	108.0
141.790527	176.0
141.814224	136.0
141.874725	148.0
141.980194	128.0
142.063217	336.0
142.19371	208.0
142.359909	176.0
142.40741	68.0
142.507172	120.0
142.577927	408.0
142.911392	172.0
143.107758	204.0
143.192291	112.0
143.225632	80.0
143.297104	168.0
143.356674	48.0
143.397186	144.0
143.41864	180.0
143.44725	84.0
143.466324	44.0
143.485397	156.0
143.511612	376.0
143.730408	144.0
143.82428	132.0
143.88382	144.0
143.956421	188.0
144.055771	208.0
144.10173	200.0
144.170456	356.0
144.244553	268.0
144.320038	132.0
144.38562	76.0
144.404755	156.0
144.452606	168.0
144.469345	76.0
144.557877	108.0
144.615845	236.0
144.667969	176.0
144.687134	152.0
144.731735	120.0
144.790634	232.0
144.830811	168.0
144.878586	204.0
144.984146	236.0
145.029312	136.0
145.043396	540.0
145.068466	204.0
145.168747	160.0
145.204712	84.0
145.26709	128.0
145.310272	192.0
145.346252	284.0
145.375061	180.0
145.394257	208.0
145.45134	184.0
145.509476	112.0
145.555099	180.0
145.603119	252.0
145.622345	92.0
145.651169	164.0
145.672775	156.0
145.71843	104.0
145.766479	164.0
145.838867	168.0
145.917908	100.0
145.93956	164.0
146.023727	180.0
146.039932	152.0
146.076706	152.0
146.146408	120.0
146.163254	156.0
146.218597	168.0
146.360641	136.0
146.401581	152.0
146.42807	40.0
146.496796	120.0
146.534058	152.0
146.570206	144.0
146.669006	144.0
146.787155	144.0
146.808853	188.0
146.849854	160.0
146.888443	176.0
146.955994	196.0
147.011505	140.0
147.069427	196.0
147.106903	212.0
147.168396	96.0
147.185303	236.0
147.293991	92.0
147.327026	372.0
147.361298	148.0
147.383377	124.0
147.410538	148.0
147.429291	144.0
147.484879	160.0
147.528397	136.0
147.550156	116.0
147.591248	180.0
147.620926	172.0
147.637192	100.0
147.661377	104.0
147.767822	220.0
147.804123	124.0
147.900925	136.0
147.934814	204.0
147.966278	144.0
148.000183	168.0
148.041351	120.0
148.07283	140.0
148.143082	160.0
148.164886	100.0
148.193954	64.0
148.225449	108.0
148.26181	188.0
148.319977	304.0
148.373413	172.0
148.401459	220.0
148.472595	144.0
148.591583	160.0
148.638229	172.0
148.655502	208.0
148.68364	120.0
148.722626	76.0
148.744888	140.0
148.768265	100.0
148.822159	96.0
148.919312	148.0
148.941162	204.0
149.004333	232.0
149.038849	388.0
149.065079	148.0
149.123398	156.0
149.155121	80.0
149.198761	136.0
149.224426	180.0
149.244949	228.0
149.264404	196.0
149.36412	304.0
149.388748	132.0
149.473602	76.0
149.520493	120.0
149.546616	44.0
149.665909	112.0
149.7146	120.0
149.737625	164.0
149.768188	156.0
149.829086	316.0
149.898331	152.0
149.931427	232.0
149.950928	164.0
149.971375	164.0
150.011871	148.0
150.045319	400.0
150.082321	160.0
150.097504	180.0
150.116714	112.0
150.194748	172.0
150.231354	196.0
150.25087	180.0
150.302109	188.0
150.336273	124.0
150.37532	124.0
150.424133	136.0
150.465637	160.0
150.526672	136.0
150.570633	132.0
150.648804	108.0
150.805191	188.0
150.844299	176.0
150.878525	164.0
150.959213	72.0
151.017914	284.0
151.055161	924.0
151.103531	368.0
151.25708	124.0
151.314011	144.0
151.336044	140.0
151.517914	200.0
151.561401	96.0
151.589783	324.0
151.612854	164.0
151.701096	112.0
151.774643	40.0
151.811783	220.0
151.855576	220.0
151.936523	188.0
151.990509	152.0
152.029465	228.0
152.054886	568.0
152.12059	156.0
152.157089	156.0
152.206512	312.0
152.339142	112.0
152.358795	120.0
152.43988	188.0
152.466003	192.0
152.486572	164.0
152.592285	132.0
152.784119	44.0
152.823486	160.0
152.884995	36.0
152.931763	132.0
152.94899	128.0
153.035156	160.0
153.056107	356.0
153.126266	132.0
153.153366	192.0
153.209457	240.0
153.274078	136.0
153.330765	52.0
153.35788	220.0
153.397858	164.0
153.451553	144.0
153.476212	180.0
153.525528	164.0
153.544571	128.0
153.572388	184.0
153.624191	208.0
153.656265	36.0
153.683411	172.0
153.774719	44.0
153.836426	176.0
153.905609	200.0
154.006805	168.0
154.07103	120.0
154.089722	184.0
154.103683	132.0
154.189636	136.0
154.224243	108.0
154.298111	168.0
154.307892	144.0
154.347534	200.0
154.362045	76.0
154.394852	232.0
154.419571	160.0
154.466568	168.0
154.491318	116.0
154.518524	212.0
154.616104	136.0
154.753662	236.0
154.820511	108.0
155.047501	392.0
155.054642	80.0
155.159988	76.0
155.197174	144.0
155.341019	260.0
155.451248	212.0
155.470047	72.0
155.518784	180.0
155.556915	116.0
155.594162	112.0
155.662399	124.0
155.725769	172.0
155.777939	28.0
155.857437	56.0
156.001587	176.0
156.023972	184.0
156.076553	212.0
156.143326	208.0
156.235352	156.0
156.255264	180.0
156.305023	208.0
156.359772	160.0
156.409561	152.0
156.464859	168.0
156.521591	168.0
156.558945	128.0
156.63118	172.0
156.695938	184.0
156.761902	132.0
156.795166	176.0
156.942703	240.0
157.027481	168.0
157.049744	260.0
157.093857	244.0
157.13974	244.0
157.192139	304.0
157.260208	176.0
157.341904	84.0
157.378296	192.0
157.44928	204.0
157.566681	108.0
157.59166	280.0
157.644897	120.0
157.731613	244.0
157.979187	168.0
158.063751	140.0
158.119308	164.0
158.164368	120.0
158.279526	48.0
158.352158	180.0
158.447342	168.0
158.469894	172.0
158.530029	84.0
158.5952	64.0
158.652847	164.0
158.677917	140.0
158.849274	196.0
158.89946	240.0
158.999237	180.0
159.046173	136.0
159.060623	240.0
159.110367	232.0
159.134567	52.0
159.177246	168.0
159.270172	124.0
159.305344	180.0
159.368149	104.0
159.422226	108.0
159.444672	240.0
159.496323	148.0
159.684906	112.0
159.722626	120.0
159.829453	104.0
159.855972	196.0
159.991898	188.0
160.038498	180.0
160.059875	128.0
160.173416	144.0
160.284271	196.0
160.30423	160.0
160.399994	124.0
160.500839	200.0
160.575302	336.0
160.652176	328.0
160.672363	208.0
160.828812	68.0
160.846481	136.0
160.894867	168.0
160.969604	152.0
161.043442	168.0
161.065826	144.0
161.085678	188.0
161.119217	96.0
161.212708	132.0
161.234848	180.0
161.27916	220.0
161.394714	144.0
161.420425	220.0
161.584412	56.0
161.622742	188.0
161.660324	52.0
161.692215	188.0
161.837524	176.0
161.886703	184.0
161.940842	220.0
161.97934	212.0
162.022415	56.0
162.138977	108.0
162.184601	228.0
162.225159	164.0
162.341782	108.0
162.359543	140.0
162.463531	84.0
162.572647	160.0
162.590408	104.0
162.649307	212.0
162.798584	136.0
162.892563	132.0
162.915421	48.0
162.973862	48.0
163.00943	180.0
163.039932	124.0
163.05986	176.0
163.113647	140.0
163.152069	176.0
163.308212	156.0
163.434097	52.0
163.512985	212.0
163.619888	240.0
163.645355	140.0
163.725449	176.0
163.782867	244.0
163.80835	184.0
163.950394	120.0
164.047882	56.0
164.07338	204.0
164.100037	176.0
164.236588	176.0
164.301819	204.0
164.514648	108.0
164.553024	164.0
164.581116	140.0
164.623093	184.0
164.68071	136.0
164.701157	220.0
164.73436	64.0
164.82634	180.0
164.848679	124.0
164.867218	188.0
164.92543	196.0
164.972015	112.0
165.023148	172.0
165.062561	204.0
165.133118	172.0
165.226517	180.0
165.253357	124.0
165.271255	156.0
165.335236	84.0
165.359726	140.0
165.418457	164.0
165.460663	156.0
165.509308	96.0
165.552841	124.0
165.583572	156.0
165.703979	176.0
165.816467	160.0
165.842697	296.0
165.893616	36.0
165.952591	100.0
165.980789	176.0
166.009064	176.0
166.039185	340.0
166.06543	10200.0
166.114166	132.0
166.170609	120.0
166.240921	336.0
166.270676	44.0
166.296341	52.0
166.382095	276.0
166.437546	152.0
166.475601	252.0
166.513535	128.0
166.547974	128.0
166.589798	216.0
166.629623	200.0
166.705704	136.0
166.762817	196.0
166.830643	72.0
166.866348	104.0
166.883469	204.0
166.902634	36.0
166.93399	272.0
166.969925	48.0
167.019119	428.0
167.074142	80912.0
167.152664	100.0
167.175079	76.0
167.204376	164.0
167.250809	96.0
167.272415	156.0
167.292648	152.0
167.312469	152.0
167.33075	172.0
167.346298	188.0
167.366806	284.0
167.42131	124.0
167.468506	340.0
167.496292	516.0
167.534805	84.0
167.555466	144.0
167.575882	72.0
167.626251	36.0
167.651733	56.0
167.697418	144.0
167.723907	52.0
167.74968	72.0
167.774796	92.0
167.792496	172.0
167.846237	80.0
167.883087	92.0
167.900406	168.0
167.937912	176.0
167.962463	160.0
167.983231	68.0
168.016022	292.0
168.025757	128.0
168.032959	152.0
168.076538	11128.0
168.158173	296.0
168.216599	52.0
168.251877	48.0
168.297775	100.0
168.353439	128.0
168.389603	156.0
168.407684	160.0
168.474838	52.0
168.511642	88.0
168.542023	60.0
168.609207	56.0
168.666077	36.0
168.785004	68.0
168.83931	96.0
168.857407	40.0
168.909149	40.0
168.955704	112.0
168.989578	180.0
169.04509	2524.0
169.080215	1328.0
169.110977	160.0
169.132324	160.0
169.231552	172.0
169.292725	240.0
169.33493	144.0
169.356949	96.0
169.379669	88.0
169.444321	200.0
169.470932	124.0
169.502029	112.0
169.540909	148.0
169.613846	112.0
169.654953	28.0
169.678284	72.0
169.758667	116.0
169.813126	220.0
169.85463	64.0
169.893539	76.0
169.960999	160.0
169.985397	188.0
170.05426	824.0
170.103745	64.0
170.232025	248.0
170.256943	56.0
170.27771	172.0
170.308884	36.0
170.338699	84.0
170.37532	156.0
170.40358	156.0
170.427307	184.0
170.459564	108.0
170.525635	152.0
170.567596	148.0
170.589523	208.0
170.67012	40.0
170.742935	188.0
170.854782	140.0
170.890152	128.0
170.917236	132.0
170.961472	32.0
171.000504	196.0
171.049957	168.0
171.068192	104.0
171.13327	200.0
171.174881	188.0
171.183594	184.0
171.253067	48.0
171.330658	132.0
171.373825	192.0
171.406769	160.0
171.462891	256.0
171.529343	136.0
171.579514	160.0
171.620514	128.0
171.640076	136.0
171.749222	196.0
171.805695	52.0
171.85527	152.0
171.888809	224.0
172.053711	132.0
172.134567	200.0
172.16568	48.0
172.210312	180.0
172.270386	28.0
172.422073	148.0
172.438583	172.0
172.510803	160.0
172.566666	228.0
172.607544	92.0
172.686005	152.0
172.7659	88.0
172.824646	212.0
172.874374	116.0
172.965973	156.0
173.038483	500.0
173.04985	336.0
173.074249	212.0
173.11879	252.0
173.222595	160.0
173.251419	140.0
173.327393	184.0
173.353607	104.0
173.521362	204.0
173.594788	124.0
173.662964	180.0
173.739044	172.0
173.959488	160.0
174.00412	260.0
174.038254	480.0
174.056625	156.0
174.085602	116.0
174.159058	40.0
174.340347	232.0
174.379761	216.0
174.434692	180.0
174.487534	156.0
174.507782	200.0
174.577057	92.0
174.779495	64.0
174.899216	196.0
175.015121	156.0
175.041092	152.0
175.090134	140.0
175.230255	144.0
175.306152	152.0
175.490677	148.0
175.662109	112.0
175.751801	88.0
175.815796	80.0
175.846817	212.0
175.910156	172.0
176.018402	148.0
176.050491	1260.0
176.092361	180.0
176.126694	32.0
176.147827	176.0
176.217392	232.0
176.300507	112.0
176.307388	184.0
176.341888	216.0
176.369797	68.0
176.407562	220.0
176.433228	220.0
176.499329	160.0
176.65802	88.0
176.698471	124.0
176.819427	88.0
176.954437	136.0
177.057648	3400.0
177.121277	136.0
177.155716	120.0
177.229904	204.0
177.375671	232.0
177.396866	144.0
177.43399	124.0
177.465805	84.0
177.519562	204.0
177.582489	84.0
177.624924	68.0
177.711624	112.0
177.784119	92.0
177.850479	172.0
177.903564	204.0
177.97525	172.0
177.99649	252.0
178.064896	5992.0
178.098251	316.0
178.151794	148.0
178.171799	136.0
178.199692	56.0
178.220001	216.0
178.272141	84.0
178.337601	132.0
178.368454	88.0
178.488083	84.0
178.554489	120.0
178.597122	172.0
178.623734	120.0
178.64856	204.0
178.75676	188.0
178.794022	180.0
178.86322	80.0
178.916458	140.0
178.943085	112.0
179.025635	60.0
179.064011	976.0
179.208557	424.0
179.313354	100.0
179.390656	160.0
179.478638	64.0
179.56131	52.0
179.649338	156.0
179.713364	112.0
179.734711	120.0
179.801437	156.0
179.846802	156.0
179.902863	200.0
179.964264	224.0
180.047852	444.0
180.067215	180.0
180.108795	140.0
180.159241	76.0
180.181946	152.0
180.335419	120.0
180.33931	196.0
180.39975	104.0
180.458572	132.0
180.509384	108.0
180.536453	160.0
180.560791	228.0
180.752106	168.0
180.795624	104.0
180.974976	56.0
181.017822	96.0
181.052338	620.0
181.085785	224.0
181.167282	268.0
181.234787	52.0
181.256226	168.0
181.3125	116.0
181.358063	120.0
181.400955	136.0
181.45726	164.0
181.48407	156.0
181.553787	152.0
181.712051	124.0
181.789368	152.0
181.907959	180.0
182.05542	144.0
182.095917	124.0
182.212357	152.0
182.235611	192.0
182.281677	92.0
182.318909	76.0
182.357925	156.0
182.418365	100.0
182.509781	104.0
182.57431	84.0
182.679214	156.0
182.787811	320.0
182.897186	108.0
182.918716	108.0
183.03923	184.0
183.064102	264.0
183.169144	112.0
183.188004	104.0
183.453049	148.0
183.595001	144.0
183.675919	160.0
183.724487	96.0
183.848602	164.0
183.924179	176.0
183.953873	120.0
184.007858	124.0
184.037384	156.0
184.070511	280.0
184.115875	172.0
184.159088	160.0
184.229324	176.0
184.27005	252.0
184.375229	120.0
184.415344	252.0
184.445511	160.0
184.561752	72.0
184.618546	132.0
184.688873	136.0
184.783554	280.0
184.970276	116.0
185.033539	200.0
185.062286	1276.0
185.120438	228.0
185.170654	48.0
185.24649	136.0
185.306091	128.0
185.411774	120.0
185.457855	212.0
185.524994	156.0
185.564194	176.0
185.602615	192.0
185.861938	92.0
185.893829	176.0
186.007355	180.0
186.069565	464.0
186.17955	204.0
186.206711	188.0
186.318085	216.0
186.418625	132.0
186.62793	208.0
186.739426	160.0
186.777817	176.0
186.818314	184.0
186.908096	264.0
187.054535	896.0
187.16246	100.0
187.191193	172.0
187.266541	204.0
187.277573	236.0
187.370972	140.0
187.452713	120.0
187.561737	136.0
187.802628	208.0
187.833878	164.0
187.940811	116.0
187.968109	48.0
188.044861	1692.0
188.093643	136.0
188.197388	112.0
188.342133	108.0
188.432281	160.0
188.473267	84.0
188.51506	248.0
188.585312	168.0
188.664597	184.0
188.716537	200.0
188.757553	100.0
188.817719	108.0
188.877899	100.0
188.923309	168.0
188.959961	104.0
189.049713	1432.0
189.088577	184.0
189.206284	156.0
189.248947	124.0
189.25708	72.0
189.267181	164.0
189.32402	208.0
189.406189	132.0
189.440491	316.0
189.480164	120.0
189.52948	132.0
189.54866	240.0
189.604141	180.0
189.644577	160.0
189.691177	208.0
189.729141	80.0
189.874893	128.0
189.896835	168.0
189.962662	132.0
189.992844	156.0
190.052078	416.0
190.079529	172.0
190.105347	208.0
190.157486	52.0
190.206894	128.0
190.283295	120.0
190.341415	224.0
190.46965	64.0
190.521271	208.0
190.595993	136.0
190.65184	164.0
190.698563	168.0
190.717804	64.0
190.789276	128.0
190.827774	200.0
190.918518	124.0
191.059586	168.0
191.095413	168.0
191.273438	180.0
191.303726	172.0
191.45517	96.0
191.532288	128.0
191.576355	164.0
191.601151	132.0
191.694839	132.0
191.738937	192.0
191.894638	156.0
191.942932	208.0
192.042221	136.0
192.080826	124.0
192.216019	204.0
192.312622	120.0
192.439606	144.0
192.507812	120.0
192.533493	156.0
192.70752	60.0
192.726868	140.0
192.776596	64.0
192.867813	236.0
192.892685	316.0
192.965225	184.0
193.069641	100.0
193.097717	156.0
193.385056	156.0
193.462555	124.0
193.828156	88.0
193.900208	140.0
194.026901	148.0
194.060379	3068.0
194.118759	216.0
194.163589	40.0
194.316162	152.0
194.435486	132.0
194.490997	248.0
194.531143	172.0
194.551086	304.0
194.654022	244.0
194.677017	144.0
194.704788	120.0
194.735825	208.0
194.755798	152.0
194.779785	64.0
194.818665	160.0
194.857559	168.0
194.877014	188.0
194.915909	348.0
194.948639	216.0
194.984467	188.0
195.068848	38692.0
195.159485	128.0
195.197098	52.0
195.227264	40.0
195.252289	104.0
195.283295	124.0
195.313583	104.0
195.359665	100.0
195.376495	172.0
195.421982	56.0
195.452591	156.0
195.474854	60.0
195.494324	72.0
195.533646	124.0
195.553574	172.0
195.573273	132.0
195.616791	172.0
195.690735	100.0
195.744873	176.0
195.783859	160.0
195.856277	60.0
195.899338	200.0
195.93985	48.0
195.979736	240.0
196.012131	136.0
196.057526	24280.0
196.115402	136.0
196.14473	116.0
196.184845	196.0
196.20369	60.0
196.233337	280.0
196.251419	56.0
196.265106	148.0
196.291855	88.0
196.327301	120.0
196.352402	180.0
196.405319	160.0
196.455612	68.0
196.490692	132.0
196.545776	100.0
196.583954	124.0
196.625824	84.0
196.648148	124.0
196.719543	196.0
196.757019	40.0
196.797699	108.0
196.818436	100.0
196.840775	88.0
196.885147	36.0
196.910599	88.0
197.002777	36.0
197.061661	6112.0
197.131302	120.0
197.162979	48.0
197.195587	108.0
197.220734	120.0
197.268265	76.0
197.293488	160.0
197.376175	120.0
197.429535	88.0
197.482529	140.0
197.508743	120.0
197.539139	60.0
197.61113	188.0
197.644592	144.0
197.664612	112.0
197.72139	124.0
197.775558	88.0
197.824951	56.0
197.878143	72.0
197.920151	196.0
197.98175	68.0
198.072037	664.0
198.127411	164.0
198.149826	156.0
198.239746	128.0
198.28302	240.0
198.353333	148.0
198.412704	120.0
198.444107	60.0
198.493668	208.0
198.626083	108.0
198.644165	144.0
198.664505	96.0
198.761063	128.0
198.839645	36.0
198.859299	140.0
199.038971	124.0
199.061432	112.0
199.095123	148.0
199.185013	172.0
199.460388	44.0
199.721893	140.0
199.820358	164.0
199.890701	148.0
199.943146	120.0
199.963867	48.0
199.986389	104.0
200.04895	320.0
200.10463	48.0
200.138412	152.0
200.27359	136.0
200.293304	84.0
200.332748	84.0
200.373352	136.0
200.608917	216.0
200.66153	212.0
200.742447	156.0
200.831696	52.0
200.904907	176.0
201.059204	400.0
201.085892	124.0
201.153366	188.0
201.256012	224.0
201.29454	148.0
201.373611	176.0
201.441406	128.0
201.647675	208.0
201.684418	220.0
201.729645	192.0
201.862534	116.0
201.968597	120.0
201.992645	184.0
202.015915	300.0
202.085999	188.0
202.173721	136.0
202.38887	164.0
202.473816	172.0
202.720291	116.0
202.839325	48.0
202.951004	164.0
202.975418	160.0
203.054123	196.0
203.173965	152.0
203.222198	148.0
203.244888	276.0
203.284622	168.0
203.335709	72.0
203.375443	196.0
203.46344	152.0
203.599731	144.0
203.645187	128.0
203.785583	168.0
203.974792	88.0
204.000381	132.0
204.055634	880.0
204.189972	188.0
204.225021	76.0
204.321732	132.0
204.547226	156.0
204.61203	176.0
204.757263	124.0
204.799988	156.0
204.862656	132.0
205.00087	236.0
205.047302	184.0
205.058701	120.0
205.166031	176.0
205.287338	180.0
205.424255	184.0
205.555496	160.0
205.626846	192.0
205.906631	172.0
205.980896	176.0
206.006607	136.0
206.035187	340.0
206.164398	352.0
206.200912	160.0
206.300964	124.0
206.358139	128.0
206.456482	164.0
206.632706	148.0
206.718552	136.0
206.767212	156.0
206.801544	116.0
206.933228	136.0
207.040375	480.0
207.155457	168.0
207.415726	124.0
207.44429	200.0
207.529205	172.0
207.572205	84.0
207.623825	148.0
207.646042	172.0
207.764389	160.0
207.810287	136.0
207.85907	232.0
207.87915	144.0
208.039673	148.0
208.118011	96.0
208.25238	252.0
208.347183	160.0
208.413254	128.0
208.476486	148.0
208.522461	44.0
208.677689	160.0
208.833374	120.0
208.979843	160.0
209.058746	564.0
209.094803	188.0
209.264648	76.0
209.376953	160.0
209.424164	184.0
209.457596	148.0
209.686096	132.0
209.794769	168.0
209.840897	144.0
209.889908	132.0
210.05748	340.0
210.091812	168.0
210.120651	132.0
210.145401	224.0
210.181244	160.0
210.238968	172.0
210.3573	88.0
210.435257	96.0
210.464127	116.0
210.568085	120.0
210.738525	268.0
210.828598	116.0
210.868561	124.0
211.03334	108.0
211.065308	152.0
211.21405	156.0
211.415176	132.0
211.441223	72.0
211.4664	212.0
211.497833	180.0
211.606232	192.0
211.710464	104.0
211.87558	100.0
211.901657	108.0
211.921936	96.0
212.053848	284.0
212.127701	116.0
212.171188	148.0
212.217575	156.0
212.240936	68.0
212.266876	236.0
212.348068	132.0
212.403183	140.0
212.519226	44.0
212.542435	260.0
212.800766	136.0
212.855942	176.0
212.903229	168.0
212.975021	220.0
213.018585	140.0
213.041626	176.0
213.09993	136.0
213.204544	104.0
213.34407	64.0
213.410934	224.0
213.454559	88.0
213.599976	96.0
213.629059	60.0
213.80365	112.0
213.832748	200.0
213.885147	188.0
213.934631	212.0
213.963745	144.0
214.007416	120.0
214.067169	3164.0
214.161331	164.0
214.179245	236.0
214.253662	160.0
214.277863	276.0
214.362793	164.0
214.435654	188.0
214.496857	44.0
214.616394	172.0
214.712631	140.0
214.823471	192.0
214.937256	324.0
214.981018	148.0
215.010117	128.0
215.054352	5236.0
215.202713	212.0
215.240829	160.0
215.298065	20.0
215.356216	204.0
215.383942	124.0
215.413147	216.0
215.473694	216.0
215.530014	248.0
215.644592	160.0
215.722916	132.0
215.771927	172.0
215.819397	148.0
215.839081	132.0
215.901062	180.0
215.920151	132.0
215.983994	356.0
216.063339	64712.0
216.130295	248.0
216.152847	56.0
216.17334	44.0
216.198334	208.0
216.252762	72.0
216.28389	216.0
216.380356	160.0
216.445572	36.0
216.466766	116.0
216.491669	216.0
216.543716	220.0
216.585175	72.0
216.618683	76.0
216.659302	132.0
216.722809	164.0
216.750214	60.0
216.772568	204.0
216.808838	132.0
216.829346	44.0
216.879166	76.0
216.915619	68.0
216.945023	224.0
216.980576	176.0
217.065857	7824.0
217.104935	252.0
217.134262	40.0
217.181778	80.0
217.233261	64.0
217.254837	112.0
217.313873	104.0
217.366013	132.0
217.392914	120.0
217.418839	300.0
217.486343	72.0
217.587997	32.0
217.624329	96.0
217.662491	128.0
217.70787	256.0
217.806412	116.0
217.882782	56.0
218.00032	304.0
218.066101	364.0
218.120819	112.0
218.251938	168.0
218.279587	208.0
218.30899	256.0
218.400162	48.0
218.429581	260.0
218.474442	108.0
218.511963	248.0
218.573746	112.0
218.623779	72.0
218.650253	136.0
218.695877	132.0
218.773895	64.0
218.823563	376.0
218.903442	92.0
218.929947	56.0
218.955032	192.0
218.999985	164.0
219.047394	644.0
219.091949	120.0
219.132462	64.0
219.168549	160.0
219.192123	44.0
219.229355	260.0
219.348328	156.0
219.430878	60.0
219.466263	92.0
219.516388	116.0
219.548828	172.0
219.625519	88.0
219.74057	132.0
219.778915	40.0
219.872238	180.0
219.942291	112.0
220.037582	216.0
220.342865	160.0
220.379013	240.0
220.514252	140.0
220.564499	136.0
220.634781	212.0
220.712326	124.0
220.804001	64.0
220.880905	140.0
220.916397	76.0
221.037704	160.0
221.141296	172.0
221.191605	180.0
221.265625	84.0
221.395905	152.0
221.43074	176.0
221.499573	180.0
221.538086	60.0
221.69809	76.0
221.846283	180.0
221.890762	84.0
221.955994	140.0
222.014175	172.0
222.052917	216.0
222.089447	152.0
222.193268	128.0
222.237778	156.0
222.265015	68.0
222.555374	180.0
223.026718	200.0
223.066391	216.0
223.125839	108.0
223.363754	128.0
223.420273	152.0
223.450027	188.0
223.708939	204.0
223.854843	172.0
223.887604	36.0
223.950317	132.0
224.052734	3216.0
224.427704	160.0
224.477661	200.0
224.558182	124.0
224.683472	228.0
224.704346	80.0
224.922211	120.0
224.969971	56.0
224.996841	180.0
225.053146	692.0
225.089401	196.0
225.139282	108.0
225.361221	52.0
225.468796	60.0
225.510635	156.0
225.561447	64.0
225.663101	56.0
225.710938	124.0
225.878418	72.0
225.947235	460.0
225.992111	164.0
226.046921	2252.0
226.207596	36.0
226.569946	120.0
226.677826	200.0
226.839752	128.0
226.896622	216.0
226.971588	44.0
227.058701	984.0
227.109543	52.0
227.172531	156.0
227.409592	48.0
227.494949	128.0
227.526657	164.0
227.595718	172.0
227.694824	224.0
227.795898	264.0
227.84201	152.0
227.984085	184.0
228.01329	168.0
228.062531	468.0
228.103455	228.0
228.277847	156.0
228.47937	96.0
228.50946	60.0
228.587692	124.0
228.641861	40.0
228.665939	32.0
228.982071	136.0
229.053192	696.0
229.195953	212.0
229.38884	140.0
229.409943	76.0
229.735641	164.0
229.759781	420.0
229.971008	124.0
230.044617	136.0
230.167587	176.0
230.23671	56.0
230.266907	156.0
230.33638	152.0
230.438965	192.0
230.729233	172.0
230.886948	204.0
230.919739	112.0
230.974197	100.0
231.04422	148.0
231.104279	72.0
231.164795	76.0
231.222305	152.0
231.428146	92.0
231.652267	156.0
231.709824	200.0
231.737091	144.0
231.770432	84.0
231.864365	40.0
231.894684	228.0
231.94014	220.0
232.055344	204.0
232.14328	204.0
232.167542	172.0
232.234268	168.0
232.267624	136.0
232.325272	112.0
232.634811	104.0
232.674286	132.0
232.707672	108.0
232.738037	168.0
232.780548	64.0
232.869156	204.0
232.942642	164.0
232.993164	232.0
233.032669	144.0
233.074265	168.0
233.108627	148.0
233.21196	180.0
233.48175	136.0
233.554337	220.0
233.783752	148.0
233.811142	112.0
233.853745	128.0
234.012039	96.0
234.052734	840.0
234.199417	68.0
234.23436	116.0
234.258728	108.0
234.349976	160.0
234.408905	244.0
234.487259	120.0
234.520798	88.0
234.636627	176.0
234.68541	176.0
234.819595	28.0
234.939972	232.0
235.015305	284.0
235.060669	15032.0
235.121643	52.0
235.152161	200.0
235.173523	52.0
235.203629	88.0
235.312759	72.0
235.344482	56.0
235.375015	52.0
235.45137	208.0
235.492737	48.0
235.512451	144.0
235.539948	84.0
235.735474	44.0
235.944077	164.0
235.973907	60.0
236.027527	104.0
236.064362	2432.0
236.122726	108.0
236.206329	160.0
236.299377	116.0
236.340942	120.0
236.380722	116.0
236.435806	48.0
236.475586	76.0
236.5215	160.0
236.569397	124.0
236.68071	48.0
236.7052	52.0
236.864899	112.0
237.074203	164.0
237.186218	44.0
237.287384	216.0
237.311905	176.0
237.453156	64.0
237.474442	168.0
237.766876	152.0
237.99614	120.0
238.04628	416.0
238.134338	184.0
238.158905	160.0
238.183487	108.0
238.241852	132.0
238.318665	88.0
238.527649	112.0
238.601425	136.0
238.693665	192.0
238.730576	168.0
238.807205	144.0
238.836548	156.0
238.967422	124.0
239.037857	144.0
239.170532	168.0
239.25058	160.0
239.524643	68.0
239.552368	72.0
239.646225	200.0
239.740326	40.0
239.845123	144.0
239.900604	40.0
240.008514	164.0
240.107193	120.0
240.193558	236.0
240.230576	140.0
240.299332	224.0
240.437317	208.0
240.477432	156.0
240.499039	192.0
240.560776	188.0
240.715149	172.0
240.82016	96.0
240.875977	168.0
240.952988	188.0
241.095139	72.0
241.138397	120.0
241.200226	84.0
241.419739	164.0
241.484695	144.0
241.50943	264.0
241.543457	136.0
241.611511	48.0
241.74147	56.0
241.772415	128.0
241.840515	148.0
241.88385	188.0
241.905518	172.0
242.037628	292.0
242.070343	352.0
242.317413	108.0
242.419662	68.0
242.44136	192.0
242.475449	128.0
242.518845	124.0
242.7164	188.0
242.832001	144.0
243.050247	1620.0
243.167084	124.0
243.207443	72.0
243.300568	104.0
243.333786	228.0
243.449615	36.0
243.508621	120.0
243.589371	204.0
243.616699	216.0
243.667038	76.0
243.769577	160.0
243.797546	108.0
243.822372	196.0
243.851151	552.0
243.883087	100.0
243.957672	80.0
243.992508	372.0
244.057602	83864.0
244.143738	112.0
244.170776	40.0
244.217712	112.0
244.279312	144.0
244.347198	68.0
244.399094	180.0
244.425385	76.0
244.470673	144.0
244.570374	256.0
244.617004	172.0
244.663773	180.0
244.707932	132.0
244.746735	184.0
244.770233	108.0
244.793915	72.0
244.823807	100.0
244.844315	104.0
244.867783	48.0
244.900894	108.0
244.981888	140.0
245.014023	72.0
245.060516	9476.0
245.123413	72.0
245.144104	52.0
245.149368	84.0
245.225082	180.0
245.279083	112.0
245.36937	76.0
245.405411	100.0
245.433502	36.0
245.456787	32.0
245.484863	88.0
245.534409	72.0
245.580917	100.0
245.602631	152.0
245.643051	176.0
245.69696	72.0
245.73439	88.0
245.834244	80.0
245.902908	72.0
245.988297	68.0
246.015289	32.0
246.055878	2180.0
246.117615	96.0
246.177933	44.0
246.224487	156.0
246.282181	128.0
246.339508	68.0
246.364548	124.0
246.403702	108.0
246.447723	104.0
246.515808	144.0
246.554611	160.0
246.567215	120.0
246.612823	96.0
246.689346	176.0
246.75769	120.0
246.809723	88.0
246.837006	120.0
246.863586	80.0
246.925323	152.0
246.958664	156.0
247.056931	516.0
247.124786	112.0
247.209274	112.0
247.234314	40.0
247.433151	76.0
247.458984	160.0
247.51918	84.0
247.561462	96.0
247.581818	124.0
247.645493	72.0
247.665222	196.0
247.730072	120.0
247.777069	164.0
247.860611	132.0
247.910751	60.0
247.976089	156.0
248.006165	204.0
248.055023	148.0
248.2211	128.0
248.271286	148.0
248.3246	184.0
248.428116	184.0
248.481445	180.0
248.580338	108.0
248.936584	148.0
248.980545	56.0
249.041046	176.0
249.085846	184.0
249.213013	332.0
249.310425	120.0
249.546173	56.0
249.711609	204.0
249.834229	116.0
249.878601	220.0
249.996002	144.0
250.066437	232.0
250.090424	216.0
250.651001	136.0
250.695114	60.0
250.928375	144.0
251.054504	220.0
251.095734	56.0
251.215363	40.0
251.654053	172.0
251.792999	108.0
251.843536	44.0
252.013962	148.0
252.058365	128.0
252.134216	116.0
252.49147	148.0
252.548401	192.0
252.665451	148.0
252.760361	156.0
252.981918	100.0
253.095901	80.0
253.198456	156.0
253.289093	200.0
253.444336	64.0
253.474777	144.0
253.552078	104.0
253.669357	84.0
253.856415	152.0
254.018173	96.0
254.373581	232.0
254.678421	132.0
255.196426	60.0
255.337311	80.0
255.380875	132.0
255.428589	80.0
255.477829	100.0
255.565399	44.0
255.625854	28.0
255.848663	164.0
255.950546	180.0
256.068359	172.0
256.176666	168.0
256.243591	124.0
256.351379	140.0
256.498535	132.0
256.696198	32.0
256.753601	92.0
256.814209	224.0
256.852478	84.0
256.909912	144.0
257.155609	128.0
257.366302	92.0
257.398224	76.0
257.561127	88.0
257.773987	192.0
257.803925	140.0
257.890228	64.0
257.986115	204.0
258.034088	140.0
258.133209	124.0
258.286713	188.0
258.536285	152.0
258.753967	168.0
258.862823	32.0
258.930084	80.0
259.069458	216.0
259.128693	164.0
259.221619	204.0
259.397888	72.0
259.481232	136.0
259.596771	120.0
259.622314	40.0
259.721741	144.0
259.785919	28.0
259.816071	144.0
259.862915	120.0
260.000885	148.0
260.029083	148.0
260.090759	52.0
260.134308	68.0
260.180634	204.0
260.244873	228.0
260.403992	224.0
260.456818	220.0
260.479309	188.0
260.562836	68.0
260.623871	140.0
260.741638	204.0
260.810272	92.0
260.922791	140.0
260.983887	224.0
261.050781	104.0
261.196136	480.0
261.385956	128.0
261.469635	148.0
261.66922	128.0
261.7948	148.0
261.903229	132.0
262.051544	288.0
262.139496	132.0
262.181396	184.0
262.207184	124.0
262.420502	220.0
262.506989	72.0
262.594055	264.0
262.627533	172.0
262.690826	128.0
262.726837	240.0
262.797363	220.0
262.852142	48.0
262.890869	204.0
262.925415	136.0
262.959747	140.0
262.98172	212.0
263.056274	13108.0
263.167786	240.0
263.216919	68.0
263.241028	376.0
263.322113	112.0
263.355804	144.0
263.386902	152.0
263.420471	176.0
263.44278	56.0
263.497681	100.0
263.508789	132.0
263.564301	184.0
263.641693	72.0
263.680145	188.0
263.736969	140.0
263.776367	340.0
263.80957	176.0
263.883972	472.0
263.918793	296.0
263.959778	500.0
264.064941	223400.0
264.160034	180.0
264.203918	216.0
264.232513	96.0
264.243073	76.0
264.272736	196.0
264.286591	96.0
264.295563	176.0
264.311127	152.0
264.325409	168.0
264.361633	384.0
264.410461	224.0
264.440552	204.0
264.465302	160.0
264.490997	188.0
264.516418	172.0
264.542084	192.0
264.597504	1172.0
264.648132	212.0
264.711334	152.0
264.785858	380.0
264.811829	124.0
264.861084	192.0
264.891388	296.0
264.918762	160.0
264.952148	132.0
265.066772	32064.0
265.137726	112.0
265.194794	64.0
265.235748	92.0
265.266022	68.0
265.30719	116.0
265.33725	32.0
265.373688	96.0
265.423798	92.0
265.493378	124.0
265.527405	72.0
265.562592	80.0
265.604034	56.0
265.615082	168.0
265.669403	136.0
265.697479	276.0
265.759155	64.0
265.809814	52.0
265.848938	112.0
265.898926	52.0
265.951355	240.0
266.071869	2300.0
266.106537	164.0
266.157562	64.0
266.205841	104.0
266.246857	96.0
266.271881	68.0
266.322449	116.0
266.388611	60.0
266.414337	128.0
266.439484	56.0
266.473969	84.0
266.510223	80.0
266.548218	196.0
266.62027	64.0
266.64856	192.0
266.673676	112.0
266.700287	112.0
266.731171	100.0
266.763031	132.0
266.786743	36.0
266.821472	224.0
266.899078	164.0
266.937744	208.0
266.969849	156.0
267.014557	356.0
267.087677	164.0
267.166748	88.0
267.337158	164.0
267.363678	80.0
267.45108	104.0
267.473846	96.0
267.506409	68.0
267.542206	96.0
267.571533	76.0
267.594299	64.0
267.663879	104.0
267.695251	60.0
267.726746	232.0
267.766907	60.0
267.793976	140.0
267.822266	100.0
267.890686	80.0
267.929779	60.0
268.039673	148.0
268.079468	64.0
268.18396	40.0
268.231598	84.0
268.260406	96.0
268.291534	116.0
268.317596	112.0
268.379547	44.0
268.500214	72.0
268.523041	40.0
268.554321	156.0
268.686127	60.0
268.754669	92.0
268.790558	88.0
268.904144	116.0
268.937408	76.0
269.071259	76.0
269.12677	88.0
269.152893	88.0
269.218201	64.0
269.322723	52.0
269.454681	80.0
269.544861	32.0
269.665039	52.0
269.701752	48.0
269.856476	64.0
270.437683	64.0
270.582947	64.0
270.673401	48.0
270.850281	64.0
270.994415	68.0
271.168091	64.0
271.22171	100.0
271.404144	60.0
272.369019	68.0
272.415009	116.0
273.41922	156.0
273.997406	144.0
274.056793	172.0
274.088531	176.0
274.630341	80.0
274.653442	80.0
274.788696	92.0
274.904175	124.0
275.042023	68.0
275.171539	84.0
275.452271	72.0
275.604218	32.0
276.000885	48.0
276.120361	64.0
276.149689	84.0
276.435608	76.0
276.818237	96.0
276.893555	112.0
276.934143	64.0
277.205811	48.0
277.298615	100.0
277.345001	120.0
277.613556	104.0
277.839111	144.0
277.935333	108.0
278.048157	108.0
278.327026	64.0
278.469818	112.0
278.748871	96.0
279.417206	56.0
279.536987	64.0
279.633514	120.0
279.869873	88.0
280.246246	40.0
280.579559	88.0
280.729614	64.0
281.079865	108.0
281.477112	108.0
282.155396	96.0
282.185486	88.0
282.503204	56.0
282.590179	120.0
283.648468	92.0
284.138092	84.0
284.967377	64.0
285.195892	80.0
285.54895	100.0
286.248932	56.0
287.050964	76.0
287.445648	76.0
287.665009	36.0
290.277008	40.0
290.758759	96.0
291.747192	56.0
291.811798	64.0
292.526245	96.0
293.2211	52.0
293.504059	80.0
293.606354	80.0
293.886078	68.0
295.190948	120.0
295.341431	88.0
296.762665	36.0
297.80246	116.0
299.987518	60.0
300.953552	28.0
303.531433	60.0
304.600403	116.0
306.169067	96.0
306.475616	76.0
307.836029	68.0
309.766724	52.0
312.557892	96.0
314.270386	112.0
316.175079	136.0
317.730652	52.0
318.263062	120.0
318.735474	116.0
319.098022	112.0
322.513214	56.0
324.03772	80.0
324.998627	44.0
326.140656	52.0
328.990082	92.0
332.399597	96.0
333.845428	72.0
337.19223	56.0
338.14682	48.0
338.443329	68.0
338.868225	92.0
339.784821	56.0
340.423492	72.0
341.864563	64.0
342.321045	68.0
343.910065	120.0
344.696716	68.0
344.737366	124.0
347.989655	52.0
349.640137	124.0
350.064514	72.0
350.750061	92.0
351.902832	52.0
357.920959	80.0
359.738251	44.0
361.404968	84.0
361.510925	68.0
362.946625	48.0
365.076965	44.0
365.563904	128.0
366.405396	48.0
366.862732	120.0
367.759155	84.0
371.467041	100.0
371.90448	112.0
374.084015	52.0
374.361237	96.0
374.388214	80.0
375.69873	72.0
376.134827	112.0
377.150726	172.0
379.016113	84.0
382.745117	96.0
385.596863	132.0
386.793762	92.0
386.919037	76.0
388.545471	72.0
389.000732	68.0
392.608826	52.0
394.626678	48.0
394.70575	64.0
394.848114	88.0
394.953186	92.0
399.270233	56.0
399.691925	52.0
401.831604	68.0
402.558075	92.0
403.097351	60.0
403.80896	52.0
403.97699	32.0
405.210052	36.0
406.019775	44.0
406.104004	48.0
408.329132	108.0
408.844086	124.0
408.896423	44.0
410.673248	72.0
411.825378	108.0
412.053833	76.0
415.268036	68.0
417.278168	48.0
417.375763	32.0
419.245911	128.0
421.664398	52.0
423.931702	44.0
424.534332	64.0
428.698761	80.0
429.045013	88.0
429.643005	80.0
431.63797	120.0
433.202454	60.0
433.911133	48.0
435.351013	108.0
436.718384	120.0
436.955505	104.0
437.188507	80.0
437.700531	128.0
438.529602	84.0
439.054901	72.0
439.084106	92.0
439.901947	100.0
441.163544	44.0
441.460419	80.0
444.203827	52.0
444.589844	116.0
444.673767	96.0
445.458984	64.0
445.492584	44.0
445.652252	96.0
447.279785	120.0
448.395996	64.0
449.201355	88.0
449.500916	48.0
450.218567	76.0
452.455414	72.0
453.455109	96.0
453.633148	56.0
453.662811	76.0
454.197113	80.0
457.20105	140.0
457.980194	136.0
459.971527	108.0
462.750366	76.0
464.546082	72.0
467.734619	124.0
476.713593	48.0
477.513519	32.0
477.878937	60.0
478.906342	52.0
483.525726	68.0
484.151794	60.0
488.483978	48.0
489.720886	68.0
491.276917	52.0
491.832947	88.0
492.826599	88.0
494.038025	104.0
498.378571	96.0
499.645721	56.0
502.220551	52.0
502.443604	40.0
503.890137	112.0
509.270325	40.0
511.545624	100.0
513.622986	168.0
516.989014	68.0
526.901794	44.0
528.97345	56.0
529.403809	92.0
529.536682	84.0
535.820801	96.0
539.221741	80.0
541.072021	144.0
542.461853	92.0
542.549927	128.0
545.71637	72.0
547.07489	72.0
548.034302	108.0
548.327881	72.0
548.43042	36.0
551.814941	48.0
555.557007	92.0
560.899109	52.0
561.809265	52.0
561.922485	100.0
566.314148	68.0
568.666931	56.0
573.121887	80.0
575.101074	44.0
575.411377	60.0
575.841125	44.0
576.447876	124.0
580.977356	68.0
587.163269	96.0
588.195862	60.0
589.412903	48.0
593.876587	56.0
596.469543	64.0
597.359436	112.0
602.214417	64.0
605.026184	100.0
605.138794	52.0
607.819946	80.0
610.354614	44.0
611.126831	104.0
611.259705	96.0
611.855286	84.0
616.763733	88.0
617.169128	72.0
632.933105	80.0
633.975037	96.0
642.210449	64.0
648.794434	144.0
654.68866	72.0
655.320312	84.0
655.656616	44.0
658.059265	128.0
665.165161	144.0
673.775696	60.0
678.138	44.0
690.953613	100.0
695.218933	76.0
697.466858	88.0
699.023621	36.0
700.94043	108.0
710.075745	168.0
720.113831	68.0
721.054199	60.0
723.728943	124.0
727.766541	64.0
733.846619	56.0
734.245667	48.0
737.047424	64.0
738.371887	96.0
741.32782	72.0
754.232422	124.0
758.622681	96.0
758.682983	40.0
761.003784	64.0
767.899109	68.0
775.180176	96.0
781.371338	132.0
810.213135	168.0
815.427979	40.0
819.570923	48.0
822.199768	156.0
822.530823	40.0
835.200317	52.0
836.017334	164.0
855.890625	48.0
858.851257	76.0
868.43811	56.0
881.000061	156.0
889.937317	80.0
894.253235	164.0
895.003357	80.0
895.646545	152.0
898.37677	88.0
902.790833	192.0
906.31665	108.0
906.706177	88.0
913.713806	64.0
934.72821	92.0
938.998779	188.0
940.09082	104.0
945.089417	52.0
949.211853	140.0
953.09137	88.0
958.302979	96.0
960.362	68.0
964.814331	124.0
972.961243	56.0
989.301453	64.0
989.883789	68.0
990.259521	100.0
990.773193	104.0
1000.759521	88.0
1017.705139	100.0
1020.27832	88.0
1032.11853	188.0
1039.542847	136.0
1045.90564	92.0
1049.584351	208.0
1049.629517	52.0
1049.971313	96.0
1068.217896	148.0
1068.328491	72.0
1069.831787	160.0
1075.868652	64.0
1078.403198	120.0
1079.429565	180.0
1081.916016	52.0
1090.344971	192.0
1091.574341	84.0
1095.424683	220.0
1101.55957	152.0
1103.198486	60.0
1115.588745	100.0
1119.84082	180.0
1122.753418	196.0
1127.660645	148.0
1130.067993	76.0
1130.75061	72.0
1131.828369	220.0
1132.545044	44.0
1138.708984	72.0
1141.491333	188.0
1145.38147	168.0
1146.674194	120.0
1147.895386	120.0
1151.84375	72.0
1153.857544	44.0
1154.756958	220.0
1155.453735	88.0
1159.462402	196.0
1161.822144	184.0
1163.043701	180.0
1173.30896	64.0
1176.40625	144.0
1178.427856	176.0
1186.202393	96.0
1191.589722	176.0
1194.532227	196.0
1197.802002	56.0
1199.793579	148.0
1200.365845	176.0
1201.510864	156.0
1208.675903	184.0
1209.914917	172.0
1219.098633	144.0
1223.92627	176.0
1229.43335	168.0
1229.726562	100.0
1246.7948	28.0
1246.893188	84.0
1248.988525	176.0
1250.557617	116.0
1251.592529	168.0
1258.700439	36.0
1259.215942	224.0
1261.795166	112.0
1264.709717	252.0
1264.943359	72.0
1266.012451	248.0
1266.373657	84.0
1268.301025	144.0
1279.36145	44.0
1283.394165	160.0
1289.655029	68.0
1290.562988	144.0
1291.12793	128.0
1291.599976	116.0
1293.324463	192.0
1294.104858	56.0
1295.429688	192.0
1296.741089	152.0
1296.927368	144.0
1297.185425	164.0
1297.630005	116.0
1300.298462	144.0
1305.981812	28.0
1306.348633	108.0
1308.111816	172.0
1308.846191	136.0
1311.09375	124.0
1312.614868	72.0
1313.098022	104.0
1313.235107	184.0
1314.714111	156.0
1315.060547	248.0
1315.955933	188.0
1317.970947	132.0
1321.207764	160.0
1321.839478	168.0
1322.317139	48.0
1323.917236	164.0
1326.119751	52.0
1326.48938	80.0
1331.111084	136.0
1331.365234	140.0
1332.769287	132.0
1335.71167	176.0
1337.210571	156.0
1337.276123	108.0
1340.334839	96.0
1340.553467	260.0
1342.616577	184.0
1343.141724	148.0
1343.353271	128.0
1343.710815	156.0
1345.024414	120.0
1349.904907	100.0
1352.692505	120.0
1352.934082	48.0
1354.288818	92.0
1354.640381	172.0
1356.545776	192.0
1357.015015	144.0
1357.447632	80.0
1357.909668	168.0
1358.063599	40.0
1358.657837	200.0
1359.155151	188.0
1360.705444	104.0
1361.34436	232.0
1361.439819	172.0
1363.636475	104.0
1364.945068	184.0
1366.673706	188.0
1367.394897	124.0
1367.696655	168.0
1373.149048	112.0
1374.263062	188.0
1376.831909	212.0
1379.255371	132.0
1382.265503	176.0
1383.738525	128.0
1384.649292	172.0
1389.170898	176.0
1391.716553	164.0
1394.628784	244.0
1395.119385	76.0
1396.695923	112.0
1397.305908	140.0
1398.24353	148.0
1398.973022	160.0
1399.486694	120.0
1400.340454	212.0
1400.655884	108.0
1400.730469	144.0
1403.130127	128.0
1404.069702	128.0
1404.748413	184.0
1406.27063	220.0
1407.046997	164.0
1407.72644	124.0
1408.346436	164.0
1409.937866	160.0
1410.139648	148.0
1410.304077	148.0
1412.143433	164.0
1412.509888	136.0
1413.430176	96.0
1414.6427	128.0
1414.867188	212.0
1415.256592	48.0
1415.548584	148.0
1416.619629	172.0
1416.761963	124.0
1417.533813	124.0
1418.777954	136.0
1421.080566	136.0
1422.033569	72.0
1422.416382	136.0
1422.92688	224.0
1423.873047	208.0
1424.58667	112.0
1425.19519	84.0
1425.443115	140.0
1426.56311	92.0
1427.19458	224.0
1427.397583	196.0
1427.548096	152.0
1429.421143	168.0
1433.69104	152.0
1434.128174	144.0
1434.35437	44.0
1436.582886	228.0
1439.598145	172.0
1440.799072	80.0
1441.433838	176.0
1442.16687	132.0
1442.280273	116.0
1442.50708	28.0
1442.75647	180.0
1443.172363	96.0
1443.384033	136.0
1444.49585	120.0
1445.691284	176.0
1448.871582	88.0
1449.371582	208.0
1449.561035	168.0
1450.614624	128.0
1450.826782	192.0
1451.676025	144.0
1452.449707	148.0
1453.511841	172.0
1454.248047	52.0
1455.090576	92.0
1455.470215	200.0
1457.71875	280.0
1458.9729	160.0
1459.269409	124.0
1460.699219	152.0
1462.860352	68.0
1463.400879	200.0
1465.526001	168.0
1466.44043	140.0
1468.07959	136.0
1469.137817	136.0
1471.040039	164.0
1476.15918	128.0
1476.228027	96.0
1477.023438	148.0
1477.191772	136.0
1479.074219	172.0
1479.495239	200.0
1480.490723	172.0
1481.869507	136.0
1483.440674	264.0
1484.214966	120.0
1484.468018	132.0
1484.854126	164.0
1485.664551	176.0
1486.263062	152.0
1488.711792	180.0
1488.765625	164.0
1488.919189	68.0
1489.526001	72.0
1489.810181	124.0
1492.900146	156.0
1494.107788	152.0
1494.346313	92.0
1495.146606	188.0
1495.261963	108.0
1495.392822	96.0
1495.523682	172.0
1496.293457	120.0
1496.609131	260.0
1496.994263	112.0
1498.465454	124.0
1498.673462	144.0
1499.035645	180.0
1499.2052	160.0
1501.06311	148.0
1502.875732	176.0
1505.160522	184.0
END IONS

BEGIN IONS
PEPMASS=237.162
CHARGE=1
MSLEVEL=2
SOURCE_INSTRUMENT=LC-ESI-qTof
FILENAME=p5-G05_GG5_01_18474.mzXML
SEQ=*..*
IONMODE=Positive
ORGANISM=GNPS-NIH-SMALLMOLECULEPHARMACOLOGICALLYACTIVE
NAME=MLS001146968-01!(+/-)-DROPROPIZINE M+H
PI=Dorrestein
DATACOLLECTOR=VP/LMS
SMILES=OCC(O)CN1CCN(CC1)c2ccccc2
INCHI=N/A
INCHIAUX=N/A
PUBMED=N/A
SUBMITUSER=vphelan
LIBRARYQUALITY=3
SPECTRUMID=CCMSLIB00000086171
USI=mzspec:GNPS:GNPS-NIH-SMALLMOLECULEPHARMACOLOGICALLYACTIVE:accession:CCMSLIB00000086171
SCANS=955
45.424465	92.0
48.127598	168.0
49.132458	44.0
50.90601	216.0
52.243858	164.0
53.514584	228.0
53.657364	160.0
54.375595	192.0
55.752048	152.0
55.927551	168.0
57.587402	184.0
58.460663	160.0
61.941082	84.0
62.344307	160.0
63.84301	172.0
63.927322	104.0
65.206741	120.0
66.749016	224.0
68.128487	192.0
68.32412	108.0
69.732986	144.0
70.924728	152.0
70.988434	48.0
72.243248	96.0
72.454865	160.0
74.179497	152.0
76.174355	204.0
76.814949	152.0
77.570381	160.0
77.637009	48.0
78.382355	120.0
78.67514	152.0
82.380959	284.0
83.243088	168.0
83.373886	216.0
83.526611	168.0
84.374588	164.0
87.15406	216.0
90.231735	196.0
90.926918	164.0
91.26886	156.0
92.059662	128.0
93.049606	180.0
93.460915	108.0
93.92907	144.0
94.06028	136.0
94.307518	180.0
94.642197	208.0
95.299728	164.0
96.342056	180.0
97.362556	216.0
99.157898	236.0
99.761314	172.0
100.075653	140.0
100.147346	196.0
100.721802	112.0
103.053787	316.0
103.44455	68.0
104.051254	392.0
105.058311	308.0
105.074409	152.0
105.763077	76.0
106.063736	216.0
106.435509	52.0
106.786926	188.0
109.252632	128.0
110.931641	240.0
111.834869	200.0
112.921471	120.0
113.648079	196.0
116.706787	140.0
116.741196	176.0
116.934814	148.0
117.058678	180.0
117.607285	136.0
118.063843	912.0
118.08503	732.0
118.888542	56.0
119.070435	292.0
119.075653	196.0
119.840973	80.0
119.928146	120.0
120.080315	2116.0
120.464928	160.0
120.609146	44.0
120.646309	40.0
121.084	336.0
121.171555	44.0
130.068619	232.0
131.071243	488.0
132.080032	1328.0
132.105835	120.0
133.078766	372.0
134.096878	176.0
134.918396	184.0
134.953064	144.0
140.523834	132.0
143.071609	108.0
144.077576	152.0
144.101898	144.0
144.903397	64.0
145.0793	192.0
145.940262	104.0
145.99556	208.0
146.095566	288.0
146.908432	192.0
147.097702	324.0
148.09288	132.0
148.936951	164.0
149.102173	88.0
156.442429	188.0
157.076691	144.0
159.094452	380.0
159.359924	44.0
159.738174	124.0
160.100342	1592.0
160.173645	68.0
161.104309	304.0
163.122559	144.0
168.095581	144.0
169.911942	64.0
173.106049	252.0
174.118301	292.0
175.082367	136.0
175.118439	940.0
175.95253	64.0
176.118881	148.0
176.621094	68.0
186.113037	388.0
186.198471	32.0
186.927048	160.0
187.130325	204.0
188.137192	200.0
188.866806	104.0
189.136887	632.0
189.277313	52.0
200.921555	64.0
201.438171	176.0
204.130692	184.0
204.94194	156.0
208.467285	144.0
208.861176	124.0
209.946991	116.0
212.965637	176.0
213.102173	232.0
218.24646	132.0
219.146057	132.0
222.260635	172.0
231.757217	92.0
235.148468	180.0
237.114502	176.0
237.161484	1272.0
238.164703	492.0
238.554062	68.0
250.435242	80.0
271.120178	96.0
271.710388	48.0
281.554932	52.0
380.624786	36.0
525.030029	48.0
738.495789	100.0
1079.040039	164.0
1101.508911	84.0
1124.489624	140.0
1132.412354	156.0
1137.441162	164.0
1153.405396	176.0
1158.792236	148.0
1169.794067	60.0
1176.358643	112.0
1177.765259	192.0
1178.865234	140.0
1191.943359	20.0
1222.024902	32.0
1228.664551	160.0
1229.885742	236.0
1250.844238	96.0
1252.069336	152.0
1255.289917	112.0
1292.691406	152.0
1319.072632	204.0
1324.057861	224.0
1329.604004	228.0
1344.786011	180.0
1346.209595	212.0
1346.355591	168.0
1380.262329	84.0
1407.35376	144.0
1429.737305	108.0
1445.100586	172.0
1448.825562	184.0
1455.978271	224.0
1457.76355	248.0
1466.210693	176.0
1469.94751	92.0
1474.904053	32.0
1486.015869	276.0
1493.751953	32.0
1498.332397	184.0
END IONS

BEGIN IONS
PEPMASS=174.02
CHARGE=0
MSLEVEL=2
SOURCE_INSTRUMENT=LC-ESI-Q-Exactive Plus
FILENAME=IROA_PLATE_pos_4_A.mzXML
SEQ=*..*
IONMODE=Positive
ORGANISM=GNPS-EMBL-MCF
NAME=ANILINE-2-SULFONIC ACID M+H
PI=Alexandrov Theodore
DATACOLLECTOR=Prasad
SMILES=C1=CC=C(C=C1)N
INCHI=N/A
INCHIAUX=N/A
PUBMED=6926
SUBMITUSER=pphapale
LIBRARYQUALITY=1
SPECTRUMID=CCMSLIB00000578022
USI=mzspec:GNPS:GNPS-EMBL-MCF:accession:CCMSLIB00000578022
SCANS=1386
51.691174	352.851654
51.969616	474.095886
54.466743	436.913879
55.055	933.474182
56.570312	388.287354
56.828503	502.153717
57.070618	8252.027344
59.049877	807.118164
62.006634	5071.239258
65.0392	2835.64624
68.050117	921.588989
70.065674	468.657288
71.002396	453.56308
72.045021	499.864532
76.022034	781.14447
79.042152	1040.503906
84.053078	564.105835
85.076508	525.489136
86.060471	11519.200195
86.096985	611.274658
87.092049	952.4104
90.037605	1072.203247
92.007439	798.21991
92.049843	176930.71875
92.091362	772.847534
93.053116	1020.904358
96.044769	787.542542
97.052597	2725.539551
98.096695	735.443787
99.871765	447.470123
101.059998	1939.442505
102.063217	821.087524
103.032616	721.140869
106.028931	940.392212
108.044548	44538.148438
109.047813	1039.676636
110.056152	492.648102
110.060158	2696.937256
111.044121	2133.526123
112.047539	2942.074219
113.107513	3875.881104
114.055237	481.30957
114.091537	2755.450684
116.070839	575.909546
118.068497	22747.755859
128.10704	994.207214
129.054611	2794.347168
129.101761	487.919403
130.057983	2160.461426
130.159042	721.803284
132.079834	565.103943
132.084396	7090.111328
146.117783	547.631897
155.06987	2110.963135
156.000687	856.135803
156.006012	7124.163086
156.01207	1321.979858
156.073563	2957.063477
156.101944	925.975891
156.11293	2720.471924
156.138428	1029.940186
156.149384	1630.171021
157.096954	9697.823242
157.133133	909.537415
173.080399	4608.774902
173.08699	5060.274414
173.128403	878.235535
173.165024	2473.521729
173.175797	2617.64502
174.021896	132784.78125
174.058243	7198.02832
174.082794	8034.712891
174.089752	2336.958496
174.11232	5058.515625
174.131149	115431.492188
175.009903	988.963684
175.025177	644.780701
END IONS

BEGIN IONS
PEPMASS=107.05
CHARGE=0
MSLEVEL=2
SOURCE_INSTRUMENT=LC-ESI-Q-Exactive Plus
FILENAME=IROA_PLATE_pos_5_G.mzXML
SEQ=*..*
IONMODE=Positive
ORGANISM=GNPS-EMBL-MCF
NAME=BENZALDEHYDE M+H
PI=Alexandrov Theodore
DATACOLLECTOR=Prasad
SMILES=O=Cc1ccccc1
INCHI=N/A
INCHIAUX=N/A
PUBMED=240
SUBMITUSER=pphapale
LIBRARYQUALITY=1
SPECTRUMID=CCMSLIB00000578071
USI=mzspec:GNPS:GNPS-EMBL-MCF:accession:CCMSLIB00000578071
SCANS=5136
51.48954	376.559082
57.298294	379.956055
62.31181	365.013733
72.47509	340.977051
74.44178	394.68988
75.481033	412.246307
76.486	361.381622
79.054695	2266.729004
87.562637	385.999146
89.060181	646.317627
91.054657	6125.657227
92.212425	375.949982
93.057671	472.998413
94.268517	366.364685
98.908966	346.985596
101.71505	359.744965
105.070091	3363.80835
107.049301	10805.311523
107.060867	929.458069
107.068573	775.60199
107.085716	9350.348633
108.044624	743.712219
108.080963	14473.75
109.064926	2522.343994
119.060486	850.4505
129.982086	359.61145
END IONS

BEGIN IONS
PEPMASS=135.045
CHARGE=0
MSLEVEL=2
SOURCE_INSTRUMENT=LC-ESI-Q-Exactive Plus
FILENAME=IROA_PLATE_neg_6_E.mzXML
SEQ=*..*
IONMODE=Negative
ORGANISM=GNPS-EMBL-MCF
NAME=PHENYLACETIC ACID M-H
PI=Alexandrov Theodore
DATACOLLECTOR=Prasad
SMILES=C1=CC=C(C=C1)CC(=O)O
INCHI=N/A
INCHIAUX=N/A
PUBMED=999
SUBMITUSER=pphapale
LIBRARYQUALITY=1
SPECTRUMID=CCMSLIB00000578367
USI=mzspec:GNPS:GNPS-EMBL-MCF:accession:CCMSLIB00000578367
SCANS=2156
55.819672	683.720337
65.054665	728.740662
74.298088	798.592102
91.053764	7680.572266
92.049286	940.598267
93.033058	5668.498535
106.041084	27996.648438
107.048912	129574.164062
108.020424	7689.441406
108.052361	5013.05957
109.027809	1185.676636
117.033356	12295.283203
121.02816	4169.889648
123.043907	11983.142578
130.940048	778.839783
133.028198	6364.631348
134.036194	252602.25
134.893585	13845.979492
135.044128	516207.8125
135.893723	1126.436523
136.015244	3205.475586
136.038864	3681.07251
136.047638	24430.884766
136.058945	903.868591
136.062088	721.99585
138.413834	855.475403
END IONS

BEGIN IONS
PEPMASS=165.102
CHARGE=1
MSLEVEL=2
SOURCE_INSTRUMENT=LC-ESI-Q-Exactive Plus Orbitrap Res 14k
FILENAME=Pesticide_Mix3_pos_14k.mzXML
SEQ=*..*
IONMODE=positive
ORGANISM=GNPS-COLLECTIONS-PESTICIDES-POSITIVE
NAME=Pesticide3_Fenuron_C9H12N2O_Urea, N,N-dimethyl-N'-phenyl- M+H
PI=Dorrestein/Touboul
DATACOLLECTOR=lfnothias
SMILES=CN(C)C(=O)NC1=CC=CC=C1
INCHI=InChI=1S/C9H12N2O/c1-11(2)9(12)10-8-6-4-3-5-7-8/h3-7H,1-2H3,(H,10,12)
INCHIAUX=N/A
PUBMED=n/a
SUBMITUSER=mwang87
LIBRARYQUALITY=1
SPECTRUMID=CCMSLIB00001058211
USI=mzspec:GNPS:GNPS-COLLECTIONS-PESTICIDES-POSITIVE:accession:CCMSLIB00001058211
SCANS=1276
72.044601	55436124.0
77.038879	85120.882812
92.04921	931490.8125
95.049286	110153.789062
120.044159	2247693.0
120.215294	59043.820312
165.102631	17381454.0
END IONS

BEGIN IONS
PEPMASS=233.089
CHARGE=1
MSLEVEL=2
SOURCE_INSTRUMENT=LC-ESI-Q-Exactive Plus Orbitrap Res 14k
FILENAME=Pesticide_Mix3_pos_14k.mzXML
SEQ=*..*
IONMODE=positive
ORGANISM=GNPS-COLLECTIONS-PESTICIDES-POSITIVE
NAME=Pesticide3_Fluometuron_C10H11F3N2O_Urea, N,N-dimethyl-N'-[3-(trifluoromethyl)phenyl]- M+H
PI=Dorrestein/Touboul
DATACOLLECTOR=lfnothias
SMILES=CN(C)C(=O)NC1=CC=CC(=C1)C(F)(F)F
INCHI=InChI=1S/C10H11F3N2O/c1-15(2)9(16)14-8-5-3-4-7(6-8)10(11,12)13/h3-6H,1-2H3,(H,14,16)
INCHIAUX=N/A
PUBMED=n/a
SUBMITUSER=mwang87
LIBRARYQUALITY=1
SPECTRUMID=CCMSLIB00001058223
USI=mzspec:GNPS:GNPS-COLLECTIONS-PESTICIDES-POSITIVE:accession:CCMSLIB00001058223
SCANS=2224
70.477867	65744.703125
72.044632	65934772.0
73.455345	70667.289062
75.803871	71490.015625
81.776169	68501.320312
85.839111	69758.570312
99.985344	81808.34375
103.656792	69849.34375
141.164169	89374.640625
145.026443	117367.671875
147.969574	78657.226562
156.851227	72492.609375
160.03688	1337453.0
161.515961	88132.210938
168.026367	964942.5625
168.084396	68602.375
188.030762	1056995.125
213.08371	567894.0
224.084198	72175.375
231.094788	139963.234375
233.090378	43090752.0
END IONS

BEGIN IONS
PEPMASS=192.076
CHARGE=1
MSLEVEL=2
SOURCE_INSTRUMENT= -Q-Exactive Plus Orbitrap Res 70k
FILENAME=Pesticide_Mix10_pos.mzXML
SEQ=*..*
IONMODE=positive
ORGANISM=GNPS-COLLECTIONS-PESTICIDES-POSITIVE
NAME=Pesticide10_Carbendazim_C9H9N3O2_mecarzole M+H
PI=Dorrestein/Touboul
DATACOLLECTOR=lfnothias
SMILES=COC(=O)NC1=NC2=CC=CC=C2N1
INCHI=InChI=1S/C9H9N3O2/c1-14-9(13)12-8-10-6-4-2-3-5-7(6)11-8/h2-5H,1H3,(H2,10,11,12,13)
INCHIAUX=N/A
PUBMED=n/a
SUBMITUSER=mwang87
LIBRARYQUALITY=1
SPECTRUMID=CCMSLIB00001058284
USI=mzspec:GNPS:GNPS-COLLECTIONS-PESTICIDES-POSITIVE:accession:CCMSLIB00001058284
SCANS=673
70.369446	123647.671875
71.188408	123971.992188
76.19339	117252.148438
76.503929	124461.28125
76.686256	131732.03125
79.730721	128784.953125
83.803131	130126.820312
85.53334	118919.140625
85.772255	134419.5
85.858971	139353.78125
88.241287	128016.492188
90.034065	292009.3125
92.049759	638299.3125
93.122978	117196.6875
98.700157	128069.90625
100.865829	123137.9375
102.363251	124473.96875
105.045135	1298107.0
108.473587	125930.65625
110.783592	130314.546875
111.145309	149715.21875
116.057159	446100.03125
117.842758	126370.65625
130.594421	133426.109375
131.744339	132493.78125
132.056152	6294175.0
133.063721	881723.5
135.055695	1326839.875
135.415253	1127930.5
139.642288	153427.25
148.087555	189585.890625
148.175201	153067.34375
159.997467	604312.5625
160.051239	477980320.0
160.106461	616831.625
160.407135	147990.4375
172.085464	168421.90625
192.077301	136661136.0
207.86673	135230.90625
END IONS

BEGIN IONS
PEPMASS=223.144
CHARGE=1
MSLEVEL=2
SOURCE_INSTRUMENT= -Q-Exactive Plus Orbitrap Res 14k
FILENAME=Pesticide_Mix9_pos_14k.mzXML
SEQ=*..*
IONMODE=positive
ORGANISM=GNPS-COLLECTIONS-PESTICIDES-POSITIVE
NAME=Pesticide9_Mexacarbate_C12H18N2O2_4-(Dimethylamino)-3,5-dimethylphenyl methylcarbamate M+H
PI=Dorrestein/Touboul
DATACOLLECTOR=lfnothias
SMILES=CC1=CC(=CC(=C1N(C)C)C)OC(=O)NC
INCHI=InChI=1S/C12H18N2O2/c1-8-6-10(16-12(15)13-3)7-9(2)11(8)14(4)5/h6-7H,1-5H3,(H,13,15)
INCHIAUX=N/A
PUBMED=n/a
SUBMITUSER=mwang87
LIBRARYQUALITY=1
SPECTRUMID=CCMSLIB00001058314
USI=mzspec:GNPS:GNPS-COLLECTIONS-PESTICIDES-POSITIVE:accession:CCMSLIB00001058314
SCANS=1121
84.647728	185846.59375
128.463379	216869.65625
134.072495	970848.9375
135.081223	1455551.125
136.075043	5838467.0
136.0858	271468.84375
138.027756	259178.6875
140.173569	182758.546875
150.09227	290478.78125
151.098419	135486720.0
151.324203	196746.390625
166.123581	195983728.0
203.765274	217437.484375
208.121307	257755.453125
213.562698	220994.546875
223.145309	47385468.0
237.920212	185842.234375
END IONS

BEGIN IONS
PEPMASS=221.049
CHARGE=1
MSLEVEL=2
SOURCE_INSTRUMENT=LC-ESI-Q-Exactive Plus Orbitrap Res 70k
FILENAME=Pesticide_Mix2_pos.mzXML
SEQ=*..*
IONMODE=positive
ORGANISM=GNPS-COLLECTIONS-PESTICIDES-POSITIVE
NAME=Pesticide2_Thidiazuron_C9H8N4OS_1-Phenyl-3-(1,2,3-thiadiazol-5-yl)urea M+H
PI=Dorrestein/Touboul
DATACOLLECTOR=lfnothias
SMILES=C1=CC=C(C=C1)NC(=O)NC2=CN=NS2
INCHI=InChI=1S/C9H8N4OS/c14-9(12-8-6-10-13-15-8)11-7-4-2-1-3-5-7/h1-6H,(H2,11,12,14)
INCHIAUX=N/A
PUBMED=n/a
SUBMITUSER=mwang87
LIBRARYQUALITY=1
SPECTRUMID=CCMSLIB00001058322
USI=mzspec:GNPS:GNPS-COLLECTIONS-PESTICIDES-POSITIVE:accession:CCMSLIB00001058322
SCANS=1315
71.371574	2478.176025
71.990677	19376.865234
72.394753	2541.165527
72.956711	3067.682861
74.006287	13342.451172
74.342583	2917.480957
76.095154	2561.911865
77.039001	6032.437988
86.187515	2810.237793
89.9963	2824.754883
90.976883	30032.878906
92.049675	41230.347656
94.065262	650992.6875
94.259392	2692.653076
95.049248	19075.839844
101.984276	6110.249512
102.012115	7606726.0
102.039734	6236.491211
120.044449	70975.40625
125.594719	2955.831543
127.991585	1035026.5
164.885025	6153.971191
174.813171	2763.305908
180.826935	3477.605225
196.393082	4588.657227
197.182556	3650.606689
200.051926	2693.347412
216.350189	3094.929932
221.049652	2388588.0
221.117477	4496.304688
225.647324	2890.094482
END IONS

BEGIN IONS
PEPMASS=226.089
CHARGE=1
MSLEVEL=2
SOURCE_INSTRUMENT=LC-ESI-Q-Exactive Plus Orbitrap Res 70k
FILENAME=Pesticide_Mix2_pos.mzXML
SEQ=*..*
IONMODE=positive
ORGANISM=GNPS-COLLECTIONS-PESTICIDES-POSITIVE
NAME=Pesticide2_Ethiofencarb_C11H15NO2S_Phenol, 2-[(ethylthio)methyl]-, methylcarbamate M+H
PI=Dorrestein/Touboul
DATACOLLECTOR=lfnothias
SMILES=CCSCC1=CC=CC=C1OC(=O)NC
INCHI=InChI=1S/C11H15NO2S/c1-3-15-8-9-6-4-5-7-10(9)14-11(13)12-2/h4-7H,3,8H2,1-2H3,(H,12,13)
INCHIAUX=N/A
PUBMED=n/a
SUBMITUSER=mwang87
LIBRARYQUALITY=1
SPECTRUMID=CCMSLIB00001058336
USI=mzspec:GNPS:GNPS-COLLECTIONS-PESTICIDES-POSITIVE:accession:CCMSLIB00001058336
SCANS=1890
72.032417	4454.998047
77.038902	33804.933594
77.923653	3533.084473
78.944405	3403.547119
84.17907	3681.681641
85.878334	4145.834961
87.677238	3403.239258
88.346466	3776.608887
90.941673	20166.296875
91.050148	5066.640137
91.054474	190453.953125
91.597328	5951.766602
93.070076	403468.96875
95.049271	84306.617188
95.085747	7562.810547
103.054535	4549.575195
105.031502	3758.291016
105.045036	16003.008789
107.049347	77872.15625
109.065079	6977.592773
121.064903	4765181.0
122.072807	1050571.75
122.075363	6532.810059
123.080681	55721.894531
138.554855	3749.992432
139.075714	17422.955078
141.073517	15250.069336
153.037079	28416.550781
154.045013	47520.011719
167.42691	4848.022949
169.068405	3555832.5
170.732574	5157.374023
188.549149	4776.115234
191.557373	3921.322021
214.099411	3885.237061
216.298157	4031.168213
224.666748	3857.340576
226.090088	18067.277344
END IONS

BEGIN IONS
PEPMASS=222.069
CHARGE=1
MSLEVEL=2
SOURCE_INSTRUMENT=LC-ESI-Q-Exactive Plus Orbitrap Res 70k
FILENAME=Pesticide_Mix2_pos.mzXML
SEQ=*..*
IONMODE=positive
ORGANISM=GNPS-COLLECTIONS-PESTICIDES-POSITIVE
NAME=Pesticide2_Methabenzthiazuron_C10H11N3OS_1-(1,3-Benzothiazol-2-yl)-1,3-dimethylurea M+H
PI=Dorrestein/Touboul
DATACOLLECTOR=lfnothias
SMILES=CNC(=O)N(C)C1=NC2=CC=CC=C2S1
INCHI=InChI=1S/C10H11N3OS/c1-11-9(14)13(2)10-12-7-5-3-4-6-8(7)15-10/h3-6H,1-2H3,(H,11,14)
INCHIAUX=N/A
PUBMED=n/a
SUBMITUSER=mwang87
LIBRARYQUALITY=1
SPECTRUMID=CCMSLIB00001058350
USI=mzspec:GNPS:GNPS-COLLECTIONS-PESTICIDES-POSITIVE:accession:CCMSLIB00001058350
SCANS=1538
71.060844	867243.875
74.005821	94618.40625
79.680511	81111.078125
80.04982	516492.96875
81.296532	78670.117188
86.497421	82037.796875
91.054451	135224.921875
92.049652	1861402.5
96.003006	541868.9375
105.049088	100607.6875
106.41832	96322.375
109.01078	551859.875
119.049507	368073.53125
119.085861	199858.96875
123.014	593341.5625
123.044403	5815597.0
124.021889	14800393.0
127.470551	106916.351562
135.044357	111008.3125
137.059891	182915.828125
147.080612	173745.328125
150.02504	16600732.0
160.863663	102407.757812
163.032516	168943.625
164.04071	138860.015625
164.989487	135744.140625
164.992493	279277.15625
165.042755	2853487.0
165.048309	391646464.0
165.091492	5420829.5
165.106125	343684.625
167.441757	106661.65625
178.122742	220060.984375
196.490997	106735.398438
211.425797	121326.757812
222.070206	44108800.0
222.113312	1085008.875
END IONS

BEGIN IONS
PEPMASS=237.123
CHARGE=1
MSLEVEL=2
SOURCE_INSTRUMENT=LC-ESI-Q-Exactive Plus Orbitrap Res 70k
FILENAME=Pesticide_Mix4_pos.mzXML
SEQ=*..*
IONMODE=positive
ORGANISM=GNPS-COLLECTIONS-PESTICIDES-POSITIVE
NAME=Pesticide4_Cymoxanil_C7H10N4O3_(2E)-2-Cyano-N-(ethylcarbamoyl)-2-(methoxyimino)acetamide M+H
PI=Dorrestein/Touboul
DATACOLLECTOR=lfnothias
SMILES=CCNC(=O)NC(=O)C(=NOC)C#N
INCHI=InChI=1S/C7H10N4O3/c1-3-9-7(13)10-6(12)5(4-8)11-14-2/h3H2,1-2H3,(H2,9,10,12,13)/b11-5+
INCHIAUX=N/A
PUBMED=n/a
SUBMITUSER=mwang87
LIBRARYQUALITY=1
SPECTRUMID=CCMSLIB00001058423
USI=mzspec:GNPS:GNPS-COLLECTIONS-PESTICIDES-POSITIVE:accession:CCMSLIB00001058423
SCANS=1340
71.167427	20963.103516
71.186081	11594.325195
71.571472	11798.663086
72.044762	712374.375
72.045921	12138.224609
72.081177	5513564.5
72.550735	11862.610352
73.012474	17582.96875
76.128876	13163.556641
77.038872	79847.148438
80.95298	13236.336914
86.682045	14122.606445
92.049706	513228.25
92.051163	20762.511719
94.065285	18258.527344
95.04924	134704.9375
100.075745	2056008.625
100.077637	35011.320312
105.045059	22134.958984
107.38076	13844.038086
118.086349	12368647.0
120.044518	8854389.0
120.081009	23103.568359
126.011009	19944.542969
128.593613	17545.175781
129.626526	13882.879883
132.121216	14136.302734
138.055374	220842.9375
141.102554	16542.791016
144.065872	172087.09375
146.983459	14075.74707
156.53447	14016.138672
164.070694	20424.308594
174.629227	14863.777344
179.29892	14329.167969
181.84787	13439.947266
192.065796	2917807.25
194.488983	14469.727539
206.890732	16330.208984
207.694702	13601.186523
237.123978	108531.242188
END IONS

BEGIN IONS
PEPMASS=215.096
CHARGE=1
MSLEVEL=2
SOURCE_INSTRUMENT= -Q-Exactive Plus Orbitrap Res 14k
FILENAME=Pesticide_Mix5_pos_14k.mzXML
SEQ=*..*
IONMODE=positive
ORGANISM=GNPS-COLLECTIONS-PESTICIDES-POSITIVE
NAME=Pesticide5_Metribuzin_C8H14N4OS_4-Amino-6-(2-methyl-2-propanyl)-3-(methylsulfanyl)-1,2,4-triazin-5(4H)-one M+H
PI=Dorrestein/Touboul
DATACOLLECTOR=lfnothias
SMILES=CC(C)(C)C1=NN=C(N(C1=O)N)SC
INCHI=InChI=1S/C8H14N4OS/c1-8(2,3)5-6(13)12(9)7(14-4)11-10-5/h9H2,1-4H3
INCHIAUX=N/A
PUBMED=n/a
SUBMITUSER=mwang87
LIBRARYQUALITY=1
SPECTRUMID=CCMSLIB00001058467
USI=mzspec:GNPS:GNPS-COLLECTIONS-PESTICIDES-POSITIVE:accession:CCMSLIB00001058467
SCANS=1904
70.318764	80400.078125
74.006378	986057.75
74.99102	68165.960938
76.021584	290482.9375
79.054329	180557.9375
81.828819	76268.804688
82.065208	1239100.875
83.024124	123986.65625
84.08094	4856743.5
84.086151	134358.984375
85.531425	70117.226562
86.990425	129165.03125
87.001198	429470.28125
89.0168	1410890.75
89.042137	659774.75
97.064735	1764313.125
99.092384	434417.09375
103.649803	80898.59375
104.028404	753056.0
108.068268	168187.078125
109.075928	195074.046875
110.06044	437156.1875
111.068329	130387.085938
112.0755	175825.015625
114.996674	1502836.125
124.087166	107141.390625
125.071068	93609.96875
127.056656	77433.992188
127.086548	117509.453125
130.067932	447387.375
131.027176	715718.3125
131.038559	1545162.875
139.087433	123920.289062
140.105881	162520.765625
145.054642	1785236.375
153.076691	125402.046875
155.050095	140005.296875
157.04335	142854.734375
159.035217	98632.328125
167.092545	288823.125
171.058578	1283351.875
172.077362	135209.75
183.047699	194822.046875
184.054886	407787.28125
186.082642	1804883.0
187.100189	14407528.0
197.338364	83726.726562
200.072159	175485.515625
215.095627	73568976.0
END IONS

BEGIN IONS
PEPMASS=317.164
CHARGE=1
MSLEVEL=2
SOURCE_INSTRUMENT= -Q-Exactive Plus Orbitrap Res 14k
FILENAME=Pesticide_Mix5_pos_14k.mzXML
SEQ=*..*
IONMODE=positive
ORGANISM=GNPS-COLLECTIONS-PESTICIDES-POSITIVE
NAME=Pesticide5_Bupirimate_C13H24N4O3S_Sulfamic acid, N,N-dimethyl-, 5-butyl-2-(ethylamino)-6-methyl-4-pyrimidinyl ester M+H
PI=Dorrestein/Touboul
DATACOLLECTOR=lfnothias
SMILES=CCCCC1=C(N=C(N=C1OS(=O)(=O)N(C)C)NCC)C
INCHI=InChI=1S/C13H24N4O3S/c1-6-8-9-11-10(3)15-13(14-7-2)16-12(11)20-21(18,19)17(4)5/h6-9H2,1-5H3,(H,14,15,16)
INCHIAUX=N/A
PUBMED=n/a
SUBMITUSER=mwang87
LIBRARYQUALITY=1
SPECTRUMID=CCMSLIB00001058510
USI=mzspec:GNPS:GNPS-COLLECTIONS-PESTICIDES-POSITIVE:accession:CCMSLIB00001058510
SCANS=2956
71.060646	938550.75
76.430634	383862.03125
86.071945	583391.9375
90.008904	348082.9375
95.06073	799329.0
95.086227	372024.4375
96.044678	3695963.75
96.080742	452460.21875
97.040199	1611229.625
98.060043	2923055.75
108.011711	73579232.0
109.07592	394920.03125
110.096588	1976983.875
112.112648	497276.375
122.071884	1431216.625
138.066193	2095983.5
138.092361	389252.25
138.103134	635809.6875
139.075043	3828567.0
140.107361	11192177.0
148.087738	3571568.0
150.10257	30484460.0
151.123093	2477647.25
152.082733	2331975.0
165.090652	5125242.0
165.102722	5661560.0
166.097168	99304592.0
167.104614	10319753.0
173.412613	436990.40625
180.114868	2804652.5
180.150665	4973782.0
181.12262	940065.75
182.130005	3064042.75
191.118134	675216.25
192.149826	6811083.0
193.133621	5267571.0
194.12796	7852751.5
208.143921	36783792.0
209.152924	11008935.0
210.160812	50549536.0
222.722336	414235.84375
224.176544	2479698.0
237.208099	35188224.0
259.332489	420405.96875
262.087524	2102213.0
272.105103	28673672.0
273.657379	468519.9375
290.114594	689298.9375
317.166992	206199936.0
END IONS

BEGIN IONS
PEPMASS=242.057
CHARGE=1
MSLEVEL=2
SOURCE_INSTRUMENT=LC-ESI-Maxis HD qTOF
FILENAME=Pesticide_mix2_BA2_01_8692.mzXML
SEQ=*..*
IONMODE=positive
ORGANISM=GNPS-COLLECTIONS-PESTICIDES-POSITIVE
NAME=Pesticide2_Oxamyl_C7H13N3O3S_VYDATE M+Na
PI=Dorrestein/Touboul
DATACOLLECTOR=lfnothias
SMILES=CNC(=O)ON=C(C(=O)N(C)C)SC
INCHI=InChI=1S/C7H13N3O3S/c1-8-7(12)13-9-5(14-4)6(11)10(2)3/h1-4H3,(H,8,12)/b9-5-
INCHIAUX=N/A
PUBMED=n/a
SUBMITUSER=mwang87
LIBRARYQUALITY=1
SPECTRUMID=CCMSLIB00001058539
USI=mzspec:GNPS:GNPS-COLLECTIONS-PESTICIDES-POSITIVE:accession:CCMSLIB00001058539
SCANS=263
70.066383	172.0
71.977608	181.0
72.043724	37616.0
72.960899	207.0
73.044632	1441.0
73.452515	145.0
76.038475	658.0
76.334312	213.0
76.516357	158.0
79.052063	790.0
82.004013	143.0
82.997322	515.0
83.975792	498.0
85.970207	191.0
86.060791	619.0
88.065094	246.0
89.961685	245.0
95.050697	633.0
103.233925	187.0
103.924988	2944.0
104.926247	454.0
105.002838	170.0
105.044388	226.0
106.962975	226.0
107.04895	3785.0
107.493172	153.0
107.970543	145.0
108.013741	200.0
108.054642	192.0
108.996742	159.0
113.985947	1800.0
116.974701	284.0
118.947853	6127.0
119.951462	352.0
120.941971	214.0
121.037064	1297.0
121.935966	492.0
122.045067	194.0
122.075287	137.0
127.016281	684.0
128.513702	140.0
131.01207	171.0
131.996948	1452.0
134.005661	176.0
135.992279	287.0
136.898254	184.0
136.921997	155.0
136.95813	5939.0
137.034821	190.0
137.901627	124.0
138.526703	222.0
138.955414	627.0
145.027634	278.0
146.973587	210.0
149.025162	574.0
149.526093	185.0
149.949615	183.0
150.005203	2070.0
150.043106	423.0
151.00827	141.0
154.968964	5572.0
155.972717	428.0
156.025482	188.0
156.962921	353.0
158.002045	205.0
167.088394	165.0
168.00354	631.0
168.023041	654.0
168.054367	458.0
168.915543	152.0
168.9888	168.0
170.044296	222.0
170.818939	198.0
172.978195	2280.0
174.974976	146.0
181.047424	148.0
183.050156	223.0
184.934906	146.0
185.037811	799.0
186.013794	149.0
187.415878	153.0
189.025314	223.0
198.004745	123.0
198.950684	143.0
200.043747	157.0
200.539276	150.0
201.049057	177.0
205.005051	292.0
206.018417	165.0
214.017075	154.0
216.945984	168.0
217.957718	180.0
219.01564	229.0
222.012802	199.0
224.016525	374.0
225.139236	209.0
234.963409	630.0
241.023331	158.0
242.058685	4294.0
243.048904	292.0
256.987061	433.0
257.991516	141.0
261.02533	249.0
262.03363	219.0
274.996918	315.0
276.002319	241.0
279.029022	407.0
284.001556	296.0
325.991272	150.0
336.031982	242.0
336.055603	380.0
343.019775	310.0
826.363525	278.0
END IONS

BEGIN IONS
PEPMASS=294.136
CHARGE=1
MSLEVEL=2
SOURCE_INSTRUMENT= -Q-Exactive Plus Orbitrap Res 14k
FILENAME=Pesticide_Mix6_pos_14k.mzXML
SEQ=*..*
IONMODE=positive
ORGANISM=GNPS-COLLECTIONS-PESTICIDES-POSITIVE
NAME=Pesticide6_Paclobutrazol_C30H40Cl2N6O2_1H-1,2,4-Triazole-1-ethanol, beta-[(4-chlorophenyl)methyl]-alpha-(1,1-dimethylethyl)- M+H
PI=Dorrestein/Touboul
DATACOLLECTOR=lfnothias
SMILES=CC(C)(C)C(C(CC1=CC=C(C=C1)Cl)N2C=NC=N2)O
INCHI=InChI=1S/C15H20ClN3O/c1-15(2,3)14(20)13(19-10-17-9-18-19)8-11-4-6-12(16)7-5-11/h4-7,9-10,13-14,20H,8H2,1-3H3
INCHIAUX=N/A
PUBMED=n/a
SUBMITUSER=mwang87
LIBRARYQUALITY=1
SPECTRUMID=CCMSLIB00001058548
USI=mzspec:GNPS:GNPS-COLLECTIONS-PESTICIDES-POSITIVE:accession:CCMSLIB00001058548
SCANS=2544
70.040466	69277976.0
71.085663	233375.640625
83.085876	137556.09375
87.080444	1614482.875
92.801949	60291.367188
103.053841	111563.390625
113.096436	146174.625
122.688286	56767.3125
125.015236	3934685.5
127.011932	836626.0625
129.491577	59207.679688
130.077789	130233.835938
139.031235	1331322.25
141.01001	273006.875
151.031509	412802.875
155.026306	145271.21875
165.046097	1949817.75
196.298599	61632.316406
207.094208	643868.3125
226.160355	62882.53125
267.158478	324109.34375
294.135162	19934092.0
END IONS

BEGIN IONS
PEPMASS=294.196
CHARGE=1
MSLEVEL=2
SOURCE_INSTRUMENT= -Q-Exactive Plus Orbitrap Res 70k
FILENAME=Pesticide_Mix4_pos.mzXML
SEQ=*..*
IONMODE=positive
ORGANISM=GNPS-COLLECTIONS-PESTICIDES-POSITIVE
NAME=Pesticide4_Amitraz_C19H23N3_N'-(2,4-Dimethylphenyl)-N-{(E)-[(2,4-dimethylphenyl)imino]methyl}-N-methylimidoformamide M+H
PI=Dorrestein/Touboul
DATACOLLECTOR=lfnothias
SMILES=CC1=CC(=C(C=C1)N=CN(C)C=NC2=C(C=C(C=C2)C)C)C
INCHI=InChI=1S/C19H23N3/c1-14-6-8-18(16(3)10-14)20-12-22(5)13-21-19-9-7-15(2)11-17(19)4/h6-13H,1-5H3/b20-12+,21-13+
INCHIAUX=N/A
PUBMED=n/a
SUBMITUSER=mwang87
LIBRARYQUALITY=1
SPECTRUMID=CCMSLIB00001058578
USI=mzspec:GNPS:GNPS-COLLECTIONS-PESTICIDES-POSITIVE:accession:CCMSLIB00001058578
SCANS=2880
76.823799	146895.203125
79.054626	605233.3125
80.133293	133768.0625
80.709625	127602.9375
80.754005	121785.351562
84.45649	127252.578125
84.49736	130546.25
86.985573	121923.804688
88.021858	138151.953125
91.313805	149015.421875
95.049477	165139.015625
96.125603	131365.0625
98.273613	160937.03125
103.054527	559531.75
105.070076	3643492.75
106.065186	287076.15625
107.073212	9567310.0
108.578049	152862.015625
113.791267	164830.71875
115.054665	250126.8125
116.216728	154329.921875
117.057579	8989947.0
120.080986	2951427.0
121.088913	161892.03125
122.096779	74086920.0
123.080704	327702.96875
132.081207	36892280.0
136.02063	147888.53125
136.112473	319821.8125
148.099808	234664.0625
153.24968	165960.875
162.605423	141844.5625
163.065628	227637.890625
163.068588	334767.46875
163.123398	592729024.0
163.179749	559665.25
228.92337	544838.8125
253.169815	36212668.0
271.685242	174585.96875
283.67691	165722.890625
294.195984	4162668.5
318.591675	166279.046875
END IONS

BEGIN IONS
PEPMASS=328.098
CHARGE=1
MSLEVEL=2
SOURCE_INSTRUMENT= -Q-Exactive Plus Orbitrap Res 14k
FILENAME=Pesticide_Mix6_pos_14k.mzXML
SEQ=*..*
IONMODE=positive
ORGANISM=GNPS-COLLECTIONS-PESTICIDES-POSITIVE
NAME=Pesticide6_Diclobutrazol_C15H19Cl2N3O_1-(2,4-Dichlorophenyl)-4,4-dimethyl-2-(1H-1,2,4-triazol-1-yl)-3-pentanol M+H
PI=Dorrestein/Touboul
DATACOLLECTOR=lfnothias
SMILES=CC(C)(C)C(C(CC1=C(C=C(C=C1)Cl)Cl)N2C=NC=N2)O
INCHI=InChI=1S/C15H19Cl2N3O/c1-15(2,3)14(21)13(20-9-18-8-19-20)6-10-4-5-11(16)7-12(10)17/h4-5,7-9,13-14,21H,6H2,1-3H3
INCHIAUX=N/A
PUBMED=n/a
SUBMITUSER=mwang87
LIBRARYQUALITY=1
SPECTRUMID=CCMSLIB00001058579
USI=mzspec:GNPS:GNPS-COLLECTIONS-PESTICIDES-POSITIVE:accession:CCMSLIB00001058579
SCANS=2804
70.040482	5558456.5
70.074982	44229.007812
71.029411	76285.109375
71.620766	53901.117188
75.023064	290524.46875
77.038895	347486.625
91.053947	823171.3125
94.753784	53400.128906
95.049301	130733.609375
99.110168	52714.390625
101.038727	362120.34375
109.044601	120848.351562
111.333054	65865.6875
113.015274	564394.125
113.039413	301398.84375
119.04882	606963.9375
121.044777	61373876.0
123.024185	15551145.0
123.034462	353755.21875
123.037056	115395.21875
129.045471	1659585.375
137.015091	95698.351562
138.994217	650801.625
141.010086	5803807.0
141.019547	84930.117188
190.077347	74888.742188
206.741257	59937.863281
251.519775	52810.640625
261.048279	122888.46875
274.044281	65882.859375
276.090942	68606.773438
330.080658	9802058.0
END IONS

BEGIN IONS
PEPMASS=214.029
CHARGE=1
MSLEVEL=2
SOURCE_INSTRUMENT=LC-ESI-Q-Exactive Plus Orbitrap Res 14k
FILENAME=Pesticide_Mix1_pos_14k.mzXML
SEQ=*..*
IONMODE=positive
ORGANISM=GNPS-COLLECTIONS-PESTICIDES-POSITIVE
NAME=Pesticide1_Omethoate_C5H12NO4PS_ M+H
PI=Dorrestein/Touboul
DATACOLLECTOR=lfnothias
SMILES=CNC(=O)CSP(=O)(OC)OC
INCHI= 
INCHIAUX=N/A
PUBMED=n/a
SUBMITUSER=mwang87
LIBRARYQUALITY=1
SPECTRUMID=CCMSLIB00001058630
USI=mzspec:GNPS:GNPS-COLLECTIONS-PESTICIDES-POSITIVE:accession:CCMSLIB00001058630
SCANS=59
72.044624	2767666.0
72.852325	97825.304688
76.021561	1218288.625
78.99424	1674372.625
81.565384	89622.179688
86.006012	153408.109375
88.021492	2703549.0
90.336143	100355.273438
93.010017	192926.859375
97.333649	117104.695312
104.016113	5682379.5
104.62043	115513.304688
107.547913	110083.6875
109.004837	755752.1875
111.020241	855022.25
114.810928	113795.171875
114.858788	108365.9375
124.98217	26174306.0
127.015846	28165444.0
128.977173	509190.65625
140.976532	210739.0625
142.992264	125286944.0
143.001877	2464297.5
150.031082	619068.25
151.942154	134434.078125
154.99324	31177572.0
160.119232	174234.171875
167.673691	120451.0625
173.003799	603900.375
182.004242	2158295.5
182.986618	68682160.0
188.040527	128639.15625
196.019699	20094772.0
214.031036	12988553.0
END IONS

BEGIN IONS
PEPMASS=288.048
CHARGE=1
MSLEVEL=2
SOURCE_INSTRUMENT=LC-ESI-Q-Exactive Plus Orbitrap Res 14k
FILENAME=Pesticide_Mix1_pos_14k.mzXML
SEQ=*..*
IONMODE=positive
ORGANISM=GNPS-COLLECTIONS-PESTICIDES-POSITIVE
NAME=Pesticide1_Vamidothion_C8H18NO4PS2_Phosphorothioic acid, O,O-dimethyl S-[2-[[1-methyl-2-(methylamino)-2-oxoethyl]thio]ethyl] ester M+H
PI=Dorrestein/Touboul
DATACOLLECTOR=lfnothias
SMILES=CC(C(=O)NC)SCCSP(=O)(OC)OC
INCHI=InChI=1S/C8H18NO4PS2/c1-7(8(10)9-2)15-5-6-16-14(11,12-3)13-4/h7H,5-6H2,1-4H3,(H,9,10)
INCHIAUX=N/A
PUBMED=n/a
SUBMITUSER=mwang87
LIBRARYQUALITY=1
SPECTRUMID=CCMSLIB00001058650
USI=mzspec:GNPS:GNPS-COLLECTIONS-PESTICIDES-POSITIVE:accession:CCMSLIB00001058650
SCANS=1393
76.226921	40236.371094
86.060555	3999327.25
86.065834	96055.554688
87.026558	295969.9375
88.594498	46384.816406
89.00563	311812.3125
90.0373	1407610.875
98.444313	43597.269531
104.070412	54198.410156
118.032501	23079544.0
121.835495	52881.863281
130.342667	44421.972656
146.064056	45956804.0
174.758926	48802.074219
202.624832	47168.101562
243.091949	102982.125
280.766174	51561.070312
288.048401	413834.59375
END IONS

BEGIN IONS
PEPMASS=202.086
CHARGE=1
MSLEVEL=2
SOURCE_INSTRUMENT=LC-ESI-Maxis HD qTOF
FILENAME=Pesticide_mix1_BA1_01_8691.mzXML
SEQ=*..*
IONMODE=positive
ORGANISM=GNPS-COLLECTIONS-PESTICIDES-POSITIVE
NAME=Pesticide1_Carbaryl_C12H11NO2_1-Naphthyl methylcarbamate M+H
PI=Dorrestein/Touboul
DATACOLLECTOR=lfnothias
SMILES=CNC(=O)OC1=CC=CC2=CC=CC=C21
INCHI=InChI=1S/C12H11NO2/c1-13-12(14)15-11-8-4-6-9-5-2-3-7-10(9)11/h2-8H,1H3,(H,13,14)
INCHIAUX=N/A
PUBMED=n/a
SUBMITUSER=mwang87
LIBRARYQUALITY=1
SPECTRUMID=CCMSLIB00001058720
USI=mzspec:GNPS:GNPS-COLLECTIONS-PESTICIDES-POSITIVE:accession:CCMSLIB00001058720
SCANS=412
70.312195	203.0
70.526718	175.0
70.816093	163.0
71.203712	139.0
71.626419	202.0
71.772133	164.0
72.042351	190.0
72.258636	183.0
72.519119	202.0
72.968529	210.0
73.009445	224.0
73.790894	265.0
74.014961	294.0
74.575951	244.0
75.022255	627.0
76.024399	297.0
76.721016	155.0
77.038391	3167.0
77.407814	193.0
78.043671	587.0
78.337051	193.0
78.445229	131.0
79.302788	109.0
79.690033	118.0
79.86866	137.0
80.616661	108.0
80.897766	239.0
81.032448	361.0
81.392227	322.0
81.532356	195.0
82.306053	202.0
82.389236	185.0
82.598244	269.0
83.039703	246.0
83.623177	131.0
83.803078	262.0
83.840706	149.0
84.565262	132.0
85.082451	116.0
85.232063	266.0
85.695114	213.0
85.717659	175.0
86.131706	245.0
87.613266	250.0
87.736313	109.0
88.253242	305.0
88.438942	113.0
89.039139	939.0
90.153763	168.0
90.33593	181.0
90.712448	253.0
90.775894	130.0
90.817749	133.0
90.849236	147.0
91.009941	158.0
91.054482	92922.0
91.143394	255.0
91.222176	205.0
92.058098	6496.0
92.34874	240.0
92.371017	320.0
92.640572	285.0
92.959648	169.0
93.294106	157.0
93.43306	155.0
94.476822	189.0
94.630615	134.0
94.990417	193.0
95.049599	8754.0
95.451698	248.0
95.987198	135.0
96.526962	113.0
96.838318	111.0
97.89518	113.0
99.007385	195.0
99.296806	199.0
99.424515	142.0
99.970192	109.0
100.028091	223.0
100.201286	228.0
100.469627	186.0
101.018707	158.0
101.036194	897.0
101.172508	202.0
101.658768	190.0
102.012199	182.0
102.045898	1070.0
102.142639	177.0
102.260704	313.0
103.031914	200.0
103.054756	5251.0
103.709526	247.0
103.844627	200.0
103.943367	287.0
103.991379	243.0
104.059486	370.0
104.678566	145.0
104.79599	263.0
104.94146	142.0
105.044762	20764.0
105.108948	341.0
105.384285	152.0
105.565834	184.0
106.047592	1068.0
106.165367	192.0
106.503029	295.0
106.614777	151.0
107.111649	187.0
107.322762	120.0
107.655128	168.0
108.043007	159.0
109.311562	194.0
109.475792	142.0
111.353645	120.0
111.654099	119.0
112.553238	159.0
113.77887	193.0
114.651443	141.0
114.817764	197.0
114.842667	168.0
114.952995	289.0
115.054382	207265.0
115.101982	114.0
115.124016	469.0
115.246979	215.0
116.016815	158.0
116.060692	41597.0
116.104393	456.0
116.607468	128.0
116.671928	280.0
116.745804	120.0
116.776199	352.0
116.890556	229.0
116.997215	221.0
117.07016	275492.0
117.128792	174.0
117.1978	240.0
117.319489	179.0
117.721321	170.0
117.907166	128.0
118.073204	16813.0
118.124794	275.0
118.596466	123.0
118.89711	139.0
119.050797	1496.0
119.724739	108.0
120.048172	171.0
120.11528	165.0
120.784225	248.0
121.674164	249.0
123.066162	342.0
123.21312	198.0
124.15535	264.0
124.312599	167.0
125.03685	851.0
125.441689	204.0
125.588837	275.0
125.843132	216.0
125.979523	280.0
125.999359	385.0
126.046951	22200.0
126.143135	164.0
126.238205	222.0
126.386581	114.0
126.76368	227.0
126.792625	213.0
126.818245	117.0
126.975853	395.0
127.054611	152440.0
127.126724	441.0
127.241058	125.0
127.896049	314.0
128.016449	414.0
128.059433	16233.0
128.121552	163.0
128.637939	142.0
128.997925	238.0
129.045013	11869.0
129.126083	289.0
129.172852	189.0
129.810455	166.0
130.050522	296.0
130.721771	234.0
130.762421	115.0
131.05127	913.0
132.06044	646.0
132.959518	128.0
133.705566	223.0
134.420212	248.0
134.665268	171.0
134.715652	244.0
135.426727	248.0
138.414276	170.0
138.528259	119.0
138.637817	99.0
138.933701	316.0
140.567474	187.0
140.926239	138.0
141.218369	150.0
142.053955	223.0
142.316818	156.0
142.862091	193.0
142.989471	124.0
143.029633	203.0
143.061295	627.0
143.235611	182.0
143.894455	153.0
144.057709	24775.0
144.103714	222.0
144.166412	252.0
144.659134	311.0
144.693481	160.0
144.750656	123.0
144.796265	170.0
144.850098	158.0
144.939667	883.0
145.00238	1013.0
145.065414	867232.0
145.103485	955.0
145.136063	344.0
145.176895	411.0
145.230484	508.0
145.281921	149.0
145.30954	332.0
145.378708	257.0
145.45488	249.0
145.512589	221.0
145.630768	249.0
145.708893	117.0
145.750702	150.0
146.020386	436.0
146.068756	39051.0
146.272385	219.0
146.316116	127.0
146.647476	116.0
146.689606	135.0
146.892166	151.0
146.935959	142.0
147.043045	327.0
147.06987	756.0
147.168808	121.0
147.213638	282.0
147.247604	272.0
147.274323	143.0
147.308746	130.0
147.537781	414.0
148.087418	150.0
148.291946	160.0
149.511383	165.0
149.674683	319.0
151.705063	185.0
152.683136	197.0
152.836365	122.0
153.048233	221.0
154.047897	166.0
154.342026	116.0
154.392166	211.0
154.492447	273.0
154.54454	232.0
154.57222	254.0
154.653961	341.0
154.70314	110.0
154.736572	148.0
154.759109	174.0
154.843246	139.0
154.90947	422.0
154.930115	419.0
154.957855	454.0
154.98468	1428.0
155.061081	857320.0
155.101105	267.0
155.179382	128.0
155.217163	254.0
155.254776	444.0
155.275269	566.0
155.307297	192.0
155.354095	290.0
155.390427	687.0
155.456558	229.0
155.494965	220.0
155.709427	123.0
155.784531	104.0
155.839584	183.0
155.868744	255.0
155.989777	621.0
156.064072	66546.0
156.228241	161.0
156.398941	255.0
156.577179	117.0
156.786377	233.0
156.968155	131.0
157.063736	1041.0
157.308151	340.0
157.342728	117.0
157.373398	235.0
157.403366	232.0
157.445221	253.0
157.611572	102.0
158.105255	121.0
158.976944	304.0
161.056595	288.0
162.065277	136.0
163.078659	299.0
168.083405	310.0
171.055435	486.0
182.537964	138.0
194.981857	180.0
201.021301	202.0
202.046188	884.0
230.002441	162.0
237.038849	566.0
245.50499	140.0
255.056076	254.0
279.104309	133.0
640.694702	199.0
640.801697	126.0
654.720154	150.0
686.298279	226.0
783.632996	221.0
806.680481	159.0
858.202271	190.0
868.44812	223.0
901.16925	124.0
901.281189	192.0
903.576843	145.0
931.531311	192.0
935.642151	166.0
941.671753	176.0
945.720398	262.0
966.99823	233.0
982.2995	166.0
1002.286438	163.0
END IONS

BEGIN IONS
PEPMASS=315.163
CHARGE=1
MSLEVEL=2
SOURCE_INSTRUMENT=LC-ESI-qTof
FILENAME=mmv_positive.mgf
SEQ=*..*
IONMODE=Positive
ORGANISM=MMV_POSITIVE
NAME=MMV004168 M+H
PI=Sirenas MD
DATACOLLECTOR=Sirenas MD
SMILES=CN1CCCN(CC1)C(c2ccccc2)c3ccc(Cl)cc3
INCHI=N/A
INCHIAUX=N/A
PUBMED=N/A
SUBMITUSER=mwang87
LIBRARYQUALITY=3
SPECTRUMID=CCMSLIB00004722096
USI=mzspec:GNPS:MMV_POSITIVE:accession:CCMSLIB00004722096
SCANS=101
113.107498	2873.152344
113.151886	71.480766
113.169296	33.333332
113.264961	39.41346
113.472542	19.595589
139.055893	65.657608
149.012421	30.333334
152.446243	28.923077
162.665314	20.020834
162.689621	21.799999
163.050446	75.265625
163.780655	45.511364
164.062897	311.579468
164.154785	25.941177
164.193298	58.53125
164.230499	40.01907
164.252792	40.833332
164.319336	19.041666
164.355698	47.668652
164.375778	73.142242
164.453766	23.446428
164.497467	20.086538
164.560593	43.063774
164.600769	19.005434
164.960617	74.66848
165.069244	12698.62793
165.137756	207.357147
165.155579	142.189392
165.190002	117.272728
165.233826	189.482147
165.277847	42.361111
165.307556	101.145348
165.336197	110.010872
165.376709	31.571428
165.401489	98.086266
165.455399	78.049606
165.48056	25.556818
165.505096	65.440475
165.526718	42.164474
165.563736	63.30682
165.589935	30.625
165.674805	34.142857
165.71817	22.322369
165.763641	26.183823
165.835007	25.680555
165.859924	30.163462
165.958511	39.30682
166.036148	255.888885
166.050125	291.0354
166.077499	22248.171875
166.133606	619.246948
166.190216	101.08654
166.229782	121.837212
166.261536	40.852272
166.298264	53.25
166.341339	129.001083
166.353699	148.28006
166.377441	133.228653
166.406296	69.32692
166.457062	70.686401
166.476395	91.009956
166.494843	70.324997
166.525818	128.338852
166.553619	64.408333
166.581009	54.470589
166.601639	22.568182
166.673859	20.416666
166.69722	45.219593
166.769547	33.692307
166.86618	19.125
166.94342	33.017857
167.028931	57.142857
167.05545	33.782406
167.082184	1381.491943
167.144409	52.969826
167.225174	23.778847
167.276855	40.102272
167.691101	50.398586
167.798065	23.020834
167.929352	20.03409
168.425003	31.102272
169.863068	18.556818
198.383545	36.113636
198.446091	39.266666
199.030289	51.308823
199.528458	18.15
199.710327	20.076923
199.791718	39.693966
199.847168	177.163635
199.886688	175.003616
199.909592	186.507812
199.937241	184.215515
199.991165	288.243927
200.039093	598.735352
200.065414	241.125
200.124435	190.125
200.152206	154.691895
200.194153	115.070312
200.229309	215.664719
200.250702	76.307693
200.273605	51.361111
200.328476	67.449997
200.384308	39.140625
200.428818	41.336113
200.458206	50.198528
200.473831	47.799999
200.501846	86.541664
200.523849	46.025002
200.552521	23.272728
200.59053	45.487904
200.611816	77.77594
200.660675	65.030403
200.721161	45.344513
200.750595	53.462837
200.786179	187.116882
200.85556	36.796051
200.897018	60.27174
200.931671	73.059212
200.961197	69.0
201.046875	164810.78125
201.108688	9715.837891
201.494781	110.508827
201.519531	36.190788
201.559097	213.127762
201.625412	180.410461
201.6595	149.209015
201.683823	152.0
201.713547	145.183136
201.758789	193.255325
201.786255	123.144234
201.830887	117.1875
201.906082	131.887375
201.929092	67.166664
201.963318	46.75
201.993423	40.179295
202.049438	9670.587891
202.146088	106.377068
202.167648	89.929817
202.212708	56.418388
202.255768	75.455811
202.304352	29.173868
202.323273	20.85
202.349045	48.952778
202.395111	66.144814
202.420242	100.162788
202.459167	43.191326
202.497406	48.240383
202.564209	33.671295
202.596863	41.264706
202.639618	59.597828
202.664398	61.608883
202.700836	81.001663
202.725677	63.424999
202.770065	52.533333
202.783981	29.200001
202.840729	75.964287
202.879227	32.002453
202.971436	70.578949
203.009293	131.242645
203.044998	525.172852
203.131104	24.5
203.146896	30.002777
203.172241	102.177635
203.262177	40.041668
203.280487	29.199751
203.3069	73.130318
203.375565	37.41346
203.509048	20.041666
203.518982	17.03125
203.553299	17.017857
203.628174	29.063776
203.707947	18.918478
203.782104	17.004999
203.885239	18.013889
203.996017	27.48077
204.022705	44.841217
204.166916	44.926281
204.41507	61.054825
204.686996	22.5625
205.140198	18.014706
205.454987	24.142857
205.86409	43.55682
206.552826	25.803572
207.704361	23.025
208.019211	34.666668
209.336212	44.44643
219.644653	18.005953
279.355286	36.125
315.160767	163.461533
316.16275	32.266666
882.228394	17.0
END IONS

BEGIN IONS
PEPMASS=283.175
CHARGE=1
MSLEVEL=2
SOURCE_INSTRUMENT=ESI-qTof
FILENAME=MSV000079598/ccms_peak/AMG_UKG/30692.mzXML
SEQ=*..*
IONMODE=Positive
ORGANISM=GNPS-NIST14-MATCHES
NAME=Spectral Match to Hexaethylene glycol from NIST14 M+H
PI=Data from Rob Knight 
DATACOLLECTOR=Data deposited by amelnik
SMILES=C(COCCOCCOCCOCCOCCO)O
INCHI=InChI=1S/C12H26O7/c13-1-3-15-5-7-17-9-11-19-12-10-18-8-6-16-4-2-14/h13-14H,1-12H2
INCHIAUX=N/A
PUBMED=N/A
SUBMITUSER=mwang87
LIBRARYQUALITY=3
SPECTRUMID=CCMSLIB00003134614
USI=mzspec:GNPS:GNPS-NIST14-MATCHES:accession:CCMSLIB00003134614
SCANS=1411
84.081741	70722.640625
87.044327	130877.351562
89.059868	12624432.0
133.085449	8846625.0
133.097076	94854.882812
151.09668	110968.84375
177.112137	2566596.0
195.122894	496667.59375
205.747528	77881.898438
239.148117	601144.625
276.202484	81341.882812
283.176361	4385408.0
END IONS

BEGIN IONS
PEPMASS=194.118
CHARGE=1
MSLEVEL=2
SOURCE_INSTRUMENT=ESI-QQQ
FILENAME=MSV000080450/ccms_peak/Aqueous extraction mzxml/P2-G4_GG4_01_1061.mzXML
SEQ=*..*
IONMODE=Positive
ORGANISM=GNPS-NIST14-MATCHES
NAME=Spectral Match to Isoproterenol from NIST14 M+H-H2O
PI=Data from James McKerrow
DATACOLLECTOR=Data deposited by lamccall
SMILES=CC(C)NCC(C1=CC(=C(C=C1)O)O)O
INCHI=InChI=1S/C11H17NO3/c1-7(2)12-6-11(15)8-3-4-9(13)10(14)5-8/h3-5,7,11-15H,6H2,1-2H3
INCHIAUX=N/A
PUBMED=N/A
SUBMITUSER=mwang87
LIBRARYQUALITY=3
SPECTRUMID=CCMSLIB00003134699
USI=mzspec:GNPS:GNPS-NIST14-MATCHES:accession:CCMSLIB00003134699
SCANS=1998
105.06118	25.0
107.056236	50.0
108.071495	47.0
134.07457	28.0
135.044281	124.0
151.105408	33.0
END IONS

BEGIN IONS
PEPMASS=170.096
CHARGE=1
MSLEVEL=2
SOURCE_INSTRUMENT=ESI-QQQ
FILENAME=MSV000081116/ccms_peak/TSB/Pseudomonas sp WCS312/P_sp_WCS312_Mix6_SampleE8.mzML
SEQ=*..*
IONMODE=Positive
ORGANISM=GNPS-NIST14-MATCHES
NAME=Spectral Match to Diphenylamine from NIST14 M+H
PI=Data from Pieter Dorrestein
DATACOLLECTOR=Data deposited by lfnothias
SMILES=C1=CC=C(C=C1)NC2=CC=CC=C2
INCHI=InChI=1S/C12H11N/c1-3-7-11(8-4-1)13-12-9-5-2-6-10-12/h1-10,13H
INCHIAUX=N/A
PUBMED=N/A
SUBMITUSER=mwang87
LIBRARYQUALITY=3
SPECTRUMID=CCMSLIB00003134729
USI=mzspec:GNPS:GNPS-NIST14-MATCHES:accession:CCMSLIB00003134729
SCANS=3794
55.054806	1230.66333
56.049961	862.601868
57.070297	800.505432
58.065834	855.575745
58.077168	806.081482
61.054745	687.806824
62.628502	1224.949097
63.193146	904.567871
65.038971	10928.051758
66.047112	1319.501099
69.070557	1317.722168
70.06562	4062.326172
71.068703	3339.706543
71.836952	765.384949
74.852722	735.568848
77.039001	901.905334
81.069649	998.441772
87.955872	837.788391
88.952477	990.701233
92.049431	187256.078125
93.057053	204094.46875
99.063522	1101.726074
110.059502	1500.207275
117.366539	723.062927
123.116234	949.444946
123.696243	713.640686
128.062592	1850.351685
143.084473	6249.120117
152.0616	4136.554688
152.072266	1290.076172
153.070068	15541.571289
155.072296	3260.138428
168.080521	1674.950928
169.087494	4995.047363
170.097198	1013840.625
171.101151	1637.517944
172.637787	997.015137
END IONS

BEGIN IONS
PEPMASS=151.112
CHARGE=1
MSLEVEL=2
SOURCE_INSTRUMENT=ESI-qTof
FILENAME=MSV000080553/ccms_peak/Rosumarinus/1BB6_Z4_Flower1_Rosumarinus_BB6_01_26652.mzXML
SEQ=*..*
IONMODE=Positive
ORGANISM=GNPS-NIST14-MATCHES
NAME=Spectral Match to L-Carvone from NIST14 M+H
PI=Data from Pieter Dorrestein
DATACOLLECTOR=Data deposited by lfnothias
SMILES=CC1=CC[C@H](CC1=O)C(=C)C
INCHI=InChI=1S/C10H14O/c1-7(2)9-5-4-8(3)10(11)6-9/h4,9H,1,5-6H2,2-3H3/t9-/m1/s1
INCHIAUX=N/A
PUBMED=N/A
SUBMITUSER=mwang87
LIBRARYQUALITY=3
SPECTRUMID=CCMSLIB00003134861
USI=mzspec:GNPS:GNPS-NIST14-MATCHES:accession:CCMSLIB00003134861
SCANS=1149
70.244675	208.0
70.665176	224.0
70.716988	244.0
71.419189	268.0
74.583389	268.0
75.59977	224.0
75.88871	144.0
76.73793	152.0
77.215836	220.0
77.401115	76.0
77.686462	228.0
80.303146	244.0
81.067421	376.0
83.046478	300.0
83.549065	208.0
83.576324	72.0
84.011246	188.0
84.749001	100.0
84.952271	196.0
85.196144	256.0
85.425659	224.0
89.061188	252.0
89.451843	240.0
90.34906	136.0
91.056076	804.0
93.071419	252.0
93.127045	52.0
93.288261	188.0
93.363159	316.0
93.545738	244.0
93.986565	256.0
94.041336	1140.0
94.592705	132.0
96.424767	156.0
98.862556	204.0
99.280067	240.0
101.45089	220.0
102.291611	60.0
102.565239	236.0
103.930756	284.0
104.669777	304.0
105.069649	620.0
106.288841	92.0
106.884041	212.0
107.04837	816.0
107.085052	2140.0
107.122581	124.0
107.244011	52.0
107.961647	252.0
108.056686	276.0
108.576004	236.0
108.697922	456.0
108.800713	336.0
108.963715	276.0
108.996918	292.0
109.037064	700.0
109.065102	72036.0
109.101631	2496.0
109.116913	144.0
109.15966	144.0
109.179451	84.0
109.185661	164.0
109.193138	120.0
109.208717	88.0
109.225342	96.0
109.291832	156.0
109.309746	136.0
109.366669	32.0
109.412407	48.0
109.514328	64.0
109.566338	84.0
109.705078	132.0
109.759949	40.0
109.851608	68.0
109.901619	88.0
110.018364	68.0
110.039215	104.0
110.067924	516.0
110.419083	64.0
110.778679	188.0
110.835175	128.0
110.8582	108.0
111.011055	160.0
111.321266	248.0
111.976646	212.0
112.136581	148.0
112.627617	228.0
113.058426	116.0
115.97287	68.0
116.011406	216.0
116.386429	104.0
116.968361	116.0
119.057877	400.0
119.334496	212.0
119.556114	64.0
120.224365	320.0
121.417458	132.0
122.007431	36.0
122.812439	96.0
123.054901	168.0
123.079941	12752.0
123.115784	3896.0
123.748329	92.0
124.031555	52.0
124.11792	248.0
124.969849	132.0
126.09243	112.0
127.076561	152.0
131.085495	236.0
133.098389	1408.0
133.483978	184.0
136.080399	152.0
138.273712	116.0
139.780914	152.0
140.793411	56.0
140.866531	196.0
144.24408	88.0
145.505096	100.0
146.030731	240.0
147.893646	200.0
150.255325	272.0
150.374756	316.0
150.477158	64.0
150.906677	292.0
151.04834	84.0
151.079926	500.0
151.112045	44412.0
151.17543	60.0
151.199875	60.0
151.267395	148.0
151.29277	84.0
151.37442	168.0
151.429733	180.0
151.472336	108.0
151.54718	88.0
151.571655	40.0
151.618164	64.0
151.703857	92.0
151.752823	52.0
152.10881	532.0
152.114258	776.0
152.123367	436.0
152.328873	32.0
152.414764	68.0
152.512955	48.0
152.928146	88.0
153.028946	80.0
153.203613	220.0
153.595093	52.0
177.964233	172.0
180.273636	248.0
185.643402	96.0
186.959412	112.0
193.966217	136.0
196.953979	132.0
228.159668	64.0
250.292297	72.0
291.384094	120.0
337.351654	100.0
350.721375	60.0
381.370697	200.0
480.223328	96.0
605.021423	192.0
622.782837	156.0
998.445374	112.0
END IONS

BEGIN IONS
PEPMASS=279.159
CHARGE=1
MSLEVEL=2
SOURCE_INSTRUMENT=ESI-QQQ
FILENAME=MSV000079481/ccms_peak/KP056.mzXML
SEQ=*..*
IONMODE=Positive
ORGANISM=GNPS-NIST14-MATCHES
NAME=Spectral Match to Dibutyl phthalate from NIST14 M+H
PI=Data from Dr. Katherine R. Duncan
DATACOLLECTOR=Data deposited by kduncan
SMILES=CCCCOC(=O)C1=CC=CC=C1C(=O)OCCCC
INCHI=InChI=1S/C16H22O4/c1-3-5-11-19-15(17)13-9-7-8-10-14(13)16(18)20-12-6-4-2/h7-10H,3-6,11-12H2,1-2H3
INCHIAUX=N/A
PUBMED=N/A
SUBMITUSER=mwang87
LIBRARYQUALITY=3
SPECTRUMID=CCMSLIB00003134931
USI=mzspec:GNPS:GNPS-NIST14-MATCHES:accession:CCMSLIB00003134931
SCANS=1467
65.493401	886.729919
66.145744	945.27301
67.139534	681.798157
68.524086	714.181702
69.71917	772.540466
82.116196	702.463074
86.225708	717.994934
89.565727	1654.608032
90.34565	716.141968
90.709526	797.720276
90.881966	741.640259
93.423294	909.636292
94.702301	695.248535
98.21582	677.455627
99.777512	830.913757
106.244316	612.838806
107.070183	998.543701
109.85836	642.579285
110.179893	618.021851
110.97319	755.424194
112.139053	808.805725
113.43972	857.936157
122.685699	683.995789
122.688393	700.924377
133.455002	836.525574
137.787704	707.9823
144.163254	741.184998
144.591614	687.023132
147.118805	756.41217
148.836685	842.241394
148.892639	1090.103516
148.944214	2124.56543
148.959396	944.709412
148.963028	662.698059
149.005096	978.875671
149.007614	1307.264771
149.00972	848.239868
149.023102	207406.734375
149.046341	998.004089
149.049393	1743.946777
149.102081	2807.773193
149.1548	1756.482056
149.21077	1869.206299
161.480392	956.258789
167.033798	5487.744141
172.137863	780.572083
185.058105	670.620178
190.04953	2242.919922
199.357101	1194.878418
201.522705	1942.733154
204.068558	1711.970947
204.152802	7003.585449
204.161514	941.957153
204.237534	1331.207764
205.085678	30887.962891
217.959106	748.503357
222.968658	2757.450195
223.096207	1260.595703
252.311874	1018.382507
253.949661	822.635986
261.242035	8590.760742
262.245789	1459.734863
264.105103	1255.433716
266.065094	750.512207
266.434753	752.639221
273.817963	9715.943359
277.513123	700.397827
284.079132	1764.361938
END IONS

BEGIN IONS
PEPMASS=325.262
CHARGE=1
MSLEVEL=2
SOURCE_INSTRUMENT=ESI-QQQ
FILENAME=MSV000078556/ccms_peak/Human_Swabs/Woman/m15__BH10_01_2323.mzXML
SEQ=*..*
IONMODE=Positive
ORGANISM=GNPS-NIST14-MATCHES
NAME=Spectral Match to Ethanol, 2-(2-butoxyethoxy)- from NIST14 2M+H
PI=Data from Pieter Dorrestein
DATACOLLECTOR=Data deposited by mwang87
SMILES=CCCCOCCOCCO
INCHI=InChI=1S/C8H18O3/c1-2-3-5-10-7-8-11-6-4-9/h9H,2-8H2,1H3
INCHIAUX=N/A
PUBMED=N/A
SUBMITUSER=mwang87
LIBRARYQUALITY=3
SPECTRUMID=CCMSLIB00003134998
USI=mzspec:GNPS:GNPS-NIST14-MATCHES:accession:CCMSLIB00003134998
SCANS=1049
89.059296	160.0
95.086792	80.0
101.096222	648.0
102.103668	108.0
107.069862	3724.0
108.075928	244.0
113.028603	88.0
125.09726	108.0
143.986206	80.0
145.120697	136.0
146.12207	80.0
153.435593	120.0
163.132828	10604.0
164.135834	1060.0
165.136841	252.0
169.122849	80.0
182.611649	80.0
218.052689	80.0
247.241745	68.0
268.293884	76.0
285.277618	208.0
286.27829	80.0
287.291534	84.0
303.286133	60.0
323.106232	84.0
END IONS

BEGIN IONS
PEPMASS=150.112
CHARGE=1
MSLEVEL=2
SOURCE_INSTRUMENT=ESI-qTof
FILENAME=MSV000078658/ccms_peak/s103-v312.mgf
SEQ=*..*
IONMODE=Positive
ORGANISM=GNPS-NIST14-MATCHES
NAME=Spectral Match to Triethanolamine from NIST14 M+H
PI=Data from Maria Maansson
DATACOLLECTOR=Data deposited by marjo
SMILES=C(CO)N(CCO)CCO
INCHI=InChI=1S/C6H15NO3/c8-4-1-7(2-5-9)3-6-10/h8-10H,1-6H2
INCHIAUX=N/A
PUBMED=N/A
SUBMITUSER=mwang87
LIBRARYQUALITY=3
SPECTRUMID=CCMSLIB00003135968
USI=mzspec:GNPS:GNPS-NIST14-MATCHES:accession:CCMSLIB00003135968
SCANS=19
44.048653	84.099998
45.032875	228.141235
70.064415	265.10083
72.083694	12.183824
86.096924	35.398586
88.075783	315.494415
106.084358	36.512501
114.090401	77.17794
132.10054	302.322906
132.407379	8.45
150.112	672.979614
456.184784	161.543549
END IONS

BEGIN IONS
PEPMASS=241.172
CHARGE=1
MSLEVEL=2
SOURCE_INSTRUMENT=ESI-QQQ
FILENAME=MSV000078710/ccms_peak/NIH_Pharmacologically_Active_mzXMLs/ML00106586/p4-A10_GA10_01_18334.mzXML
SEQ=*..*
IONMODE=Positive
ORGANISM=GNPS-NIST14-MATCHES
NAME=Spectral Match to Pheniramine from NIST14 M+H
PI=Data from Pieter Dorrestein
DATACOLLECTOR=Data deposited by vphelan
SMILES=CN(C)CCC(C1=CC=CC=C1)C2=CC=CC=N2
INCHI=InChI=1S/C16H20N2/c1-18(2)13-11-15(14-8-4-3-5-9-14)16-10-6-7-12-17-16/h3-10,12,15H,11,13H2,1-2H3
INCHIAUX=N/A
PUBMED=N/A
SUBMITUSER=mwang87
LIBRARYQUALITY=3
SPECTRUMID=CCMSLIB00003136167
USI=mzspec:GNPS:GNPS-NIST14-MATCHES:accession:CCMSLIB00003136167
SCANS=1134
44.981445	216.0
45.045761	212.0
45.435322	172.0
46.018082	124.0
46.470135	52.0
46.604553	36.0
46.667072	208.0
46.893047	112.0
47.147137	112.0
47.241238	188.0
47.438431	88.0
47.618179	104.0
48.141506	148.0
48.340569	176.0
48.499836	172.0
48.657978	228.0
49.256794	160.0
49.32806	164.0
49.786221	120.0
49.900036	156.0
50.305767	160.0
50.322712	220.0
50.384853	196.0
50.554527	144.0
50.768436	188.0
51.079479	168.0
51.137817	156.0
51.451416	132.0
51.939392	216.0
52.064259	144.0
52.144711	140.0
52.209404	100.0
52.354755	124.0
52.403728	180.0
52.779003	156.0
52.923695	180.0
52.94252	164.0
53.158516	184.0
53.723042	152.0
54.171829	184.0
54.318417	188.0
54.443172	56.0
54.896423	108.0
55.563503	68.0
55.579826	132.0
55.744648	156.0
55.7714	192.0
56.215214	168.0
56.355572	160.0
56.659286	112.0
56.807701	140.0
56.860218	128.0
56.956306	188.0
57.073528	92.0
57.186356	112.0
57.207428	128.0
57.935318	180.0
58.044441	148.0
58.380035	84.0
58.750156	160.0
59.296032	164.0
59.796715	124.0
59.952259	124.0
60.112637	152.0
60.472721	164.0
60.494392	168.0
60.688049	140.0
60.790424	256.0
60.855614	124.0
61.169651	216.0
61.406487	216.0
61.970806	64.0
62.780327	144.0
63.077152	76.0
63.390518	128.0
63.533218	132.0
63.6078	188.0
63.695133	144.0
63.857258	56.0
63.962273	116.0
64.241135	180.0
64.31134	124.0
64.810287	152.0
64.954575	148.0
65.086174	132.0
65.373909	188.0
65.975533	116.0
66.043449	188.0
66.242538	36.0
66.261986	116.0
66.347878	116.0
66.708267	144.0
66.752159	196.0
66.952324	148.0
67.038666	208.0
67.092453	100.0
67.110382	188.0
67.854294	160.0
67.934654	144.0
67.964188	148.0
68.01178	204.0
68.028191	44.0
68.518257	172.0
68.63829	184.0
68.664963	252.0
68.948929	164.0
69.102707	188.0
69.250038	124.0
69.412445	136.0
69.639801	104.0
69.799339	244.0
70.014008	176.0
70.65329	160.0
70.6717	244.0
70.874298	168.0
71.127533	192.0
71.303886	200.0
71.984482	196.0
72.04866	152.0
72.256607	160.0
72.475014	128.0
72.627586	196.0
73.059052	140.0
73.288895	44.0
73.30423	152.0
73.333199	180.0
73.353653	168.0
73.404991	256.0
73.490089	292.0
73.97374	120.0
74.367973	288.0
74.465843	44.0
74.603302	144.0
74.746056	52.0
74.976807	192.0
75.000938	164.0
75.040588	112.0
75.218277	52.0
75.294243	228.0
75.318428	136.0
75.344337	148.0
75.409996	196.0
75.427284	132.0
76.118546	140.0
76.337502	136.0
76.424469	148.0
77.013695	120.0
77.137756	148.0
77.344162	152.0
77.440468	132.0
77.500023	88.0
77.615707	228.0
77.65078	152.0
77.842064	232.0
77.856117	132.0
77.975578	188.0
78.21302	128.0
78.547813	240.0
79.046028	156.0
79.18943	124.0
79.757202	124.0
80.186142	72.0
80.202187	164.0
80.225357	44.0
80.252098	184.0
80.911362	196.0
82.025146	148.0
82.122513	136.0
82.398697	116.0
82.646393	152.0
82.680779	108.0
82.934334	164.0
83.923279	156.0
84.712791	144.0
84.892403	252.0
85.496796	196.0
85.588699	212.0
85.732513	140.0
85.915054	176.0
85.996246	220.0
86.412025	252.0
86.469391	140.0
86.81768	160.0
86.993942	108.0
87.058929	152.0
87.196404	128.0
87.322823	164.0
87.462372	156.0
87.84436	176.0
87.872345	204.0
88.047806	192.0
88.143082	256.0
88.843307	196.0
89.036644	156.0
89.659348	116.0
90.15757	148.0
90.577591	164.0
90.780388	152.0
91.055878	280.0
91.173866	220.0
91.194252	164.0
91.470055	124.0
91.88549	100.0
92.022903	172.0
92.055725	208.0
92.23304	264.0
92.345848	100.0
92.565933	172.0
92.74218	72.0
92.797775	128.0
93.001122	148.0
93.195076	212.0
93.570122	108.0
93.712639	176.0
94.098434	136.0
94.162102	140.0
94.265892	128.0
94.344269	168.0
95.006035	160.0
95.023499	144.0
95.161301	232.0
95.618103	188.0
95.658981	176.0
95.762177	192.0
95.793343	176.0
96.031143	136.0
96.20285	132.0
96.407936	176.0
96.472435	292.0
96.529137	204.0
96.564339	188.0
96.648453	216.0
96.689545	144.0
97.077438	108.0
97.110779	160.0
97.603691	72.0
98.50238	244.0
98.913269	196.0
99.35955	56.0
99.389313	140.0
99.796494	192.0
100.031242	92.0
100.477631	188.0
100.545479	104.0
100.579407	128.0
100.829063	132.0
101.061028	120.0
101.72438	144.0
101.810715	100.0
102.093399	224.0
102.176544	156.0
102.787033	132.0
102.821342	140.0
103.053558	284.0
103.093971	200.0
103.889694	76.0
104.033775	96.0
104.052048	164.0
104.139854	116.0
104.285652	40.0
104.393402	148.0
105.053307	156.0
105.126755	184.0
105.400383	196.0
105.619133	192.0
105.805351	100.0
105.895447	324.0
106.045013	136.0
106.732727	132.0
107.560913	116.0
107.600403	220.0
107.945808	200.0
108.038261	64.0
108.106544	184.0
109.697502	216.0
109.795494	160.0
109.916489	144.0
110.020844	180.0
110.522446	220.0
110.537094	172.0
110.731781	60.0
110.981148	76.0
111.048256	160.0
111.331581	140.0
111.463921	124.0
112.002495	228.0
112.453705	180.0
112.652191	148.0
112.891022	212.0
114.278259	160.0
114.382538	240.0
114.452789	184.0
114.69352	48.0
114.725494	144.0
115.052521	176.0
115.128761	192.0
115.186424	148.0
115.402267	168.0
115.614037	160.0
115.770309	208.0
116.173256	144.0
116.506004	136.0
116.929596	124.0
117.007088	148.0
117.057762	1288.0
117.101837	172.0
117.235405	128.0
117.306534	124.0
117.813652	136.0
117.8936	180.0
118.065353	2088.0
118.213646	60.0
118.343521	84.0
118.538605	184.0
118.696701	180.0
118.855042	40.0
118.973839	180.0
119.07428	548.0
119.093842	100.0
119.182724	184.0
119.739799	284.0
119.861794	244.0
120.051445	100.0
120.068367	100.0
120.167046	124.0
120.44429	156.0
120.474876	140.0
121.356857	176.0
121.383171	72.0
121.418259	108.0
121.516968	172.0
121.771599	56.0
122.057281	72.0
122.352112	156.0
122.781784	164.0
122.96048	200.0
123.11628	220.0
123.181274	132.0
123.209991	140.0
123.727493	180.0
123.869217	172.0
123.904663	180.0
123.920174	132.0
123.940117	156.0
124.070877	152.0
124.228333	88.0
124.270485	60.0
124.436943	196.0
124.567963	152.0
124.672394	188.0
124.770187	148.0
124.843567	228.0
125.241943	132.0
125.402367	136.0
125.5494	160.0
125.991455	120.0
126.007095	168.0
126.145645	204.0
126.174713	236.0
126.456558	80.0
126.590881	140.0
127.281532	188.0
127.793999	224.0
127.996574	152.0
128.063278	168.0
129.050293	152.0
129.072906	188.0
129.104553	320.0
129.138489	124.0
129.40097	96.0
129.53006	60.0
129.568573	120.0
129.607086	160.0
129.679596	212.0
130.067459	180.0
130.333176	148.0
131.074951	152.0
131.264145	100.0
131.334839	196.0
131.380463	116.0
131.585861	124.0
131.802841	140.0
131.887405	172.0
132.555664	148.0
133.037308	172.0
133.581924	160.0
133.812057	212.0
133.867325	100.0
134.08255	160.0
134.196823	196.0
134.653717	116.0
134.681442	40.0
134.744736	168.0
134.931015	180.0
135.319687	48.0
135.398422	92.0
136.080154	92.0
136.454208	100.0
137.813004	148.0
137.897125	184.0
138.025696	116.0
138.964935	36.0
139.054047	156.0
139.513031	212.0
139.799088	72.0
140.055573	200.0
140.063354	180.0
140.138168	232.0
140.173508	116.0
140.956924	236.0
141.056122	156.0
141.072418	148.0
141.077194	140.0
141.179138	176.0
142.129028	104.0
142.273804	160.0
142.710938	44.0
142.750259	156.0
142.922638	124.0
143.530014	68.0
143.677887	188.0
143.704132	176.0
143.778107	168.0
143.833008	124.0
143.930878	52.0
144.21756	52.0
144.277313	224.0
144.674438	180.0
144.863617	192.0
145.287933	144.0
145.333511	32.0
145.417511	148.0
145.53273	212.0
145.633591	204.0
145.724884	236.0
145.756119	188.0
146.294846	136.0
146.567001	240.0
147.515472	112.0
147.595261	124.0
147.815369	76.0
150.003632	104.0
150.049942	148.0
150.103592	116.0
150.249924	156.0
150.435394	192.0
150.980255	160.0
151.014496	200.0
151.049561	168.0
151.727066	192.0
151.945343	60.0
152.048401	152.0
152.065643	152.0
152.131851	76.0
152.970108	200.0
153.26564	148.0
153.981033	208.0
154.396225	160.0
155.072098	176.0
155.213409	128.0
155.357254	156.0
155.756912	128.0
156.221756	40.0
156.8069	148.0
157.091141	60.0
157.575455	148.0
157.600433	100.0
157.702896	164.0
157.915421	116.0
158.02298	152.0
158.090546	128.0
158.165619	168.0
158.185654	288.0
158.295807	148.0
158.458618	144.0
158.822113	144.0
158.975143	136.0
159.060486	168.0
159.135788	152.0
159.459839	68.0
159.507599	196.0
159.577988	196.0
159.61821	212.0
159.786728	92.0
160.764374	180.0
161.277054	164.0
161.517273	156.0
161.540039	152.0
161.681717	172.0
162.01088	108.0
162.279526	148.0
162.464661	152.0
162.847946	220.0
162.954636	164.0
163.043579	192.0
163.809433	248.0
163.896042	200.0
164.31929	204.0
164.61026	76.0
164.965393	160.0
165.195541	116.0
165.407928	192.0
166.065018	812.0
166.337524	196.0
166.376923	116.0
166.528427	208.0
166.728821	120.0
166.767365	208.0
166.834198	180.0
166.880478	104.0
166.942184	76.0
167.021912	84.0
167.073608	18748.0
167.129959	292.0
167.173706	72.0
167.19429	72.0
167.243942	128.0
167.286407	168.0
167.407959	72.0
167.425995	92.0
167.451752	44.0
167.558304	76.0
167.575394	176.0
167.64238	172.0
167.683624	100.0
167.745483	64.0
167.797043	148.0
167.851181	128.0
167.879547	104.0
167.918228	76.0
167.946609	40.0
167.987869	200.0
168.013672	152.0
168.040543	184.0
168.080963	20168.0
168.199615	68.0
168.231735	40.0
168.276917	52.0
168.312881	60.0
168.357941	84.0
168.380203	100.0
168.400864	164.0
168.475769	148.0
168.504196	52.0
168.558456	80.0
168.617889	100.0
168.713089	72.0
168.796265	76.0
168.930756	44.0
169.084686	2144.0
169.210251	88.0
169.232468	164.0
169.409653	80.0
169.832169	44.0
170.034546	148.0
170.088974	324.0
170.117599	124.0
170.140961	56.0
170.179901	116.0
170.291565	40.0
170.426651	84.0
170.444839	108.0
170.473419	72.0
170.499405	56.0
170.533203	64.0
171.021667	244.0
171.183578	108.0
171.324234	100.0
172.412277	204.0
173.026962	180.0
173.045288	68.0
173.315063	132.0
174.393631	196.0
174.501419	108.0
175.214645	168.0
175.325302	84.0
175.984756	260.0
176.214539	100.0
176.731506	160.0
177.347137	112.0
177.373642	68.0
177.490295	84.0
177.771469	44.0
177.981171	208.0
178.369049	172.0
179.090118	208.0
179.340576	44.0
180.081406	1120.0
180.20787	120.0
180.416321	248.0
180.6035	156.0
180.721207	136.0
180.838959	156.0
180.900528	32.0
181.090256	936.0
182.080276	132.0
182.806122	160.0
183.412094	188.0
184.178391	120.0
184.478333	208.0
185.143936	124.0
185.179138	180.0
185.352524	196.0
185.691376	48.0
185.989838	156.0
186.207047	236.0
187.022705	108.0
187.175156	204.0
187.450272	32.0
187.602905	236.0
187.717407	140.0
188.812485	156.0
190.957184	76.0
191.094727	140.0
191.130493	148.0
191.584763	212.0
192.561218	132.0
192.685516	164.0
193.091019	152.0
193.224625	132.0
194.095963	1360.0
194.316208	180.0
194.50769	120.0
194.907608	172.0
195.104034	768.0
195.408081	96.0
195.664124	88.0
195.686386	220.0
195.861832	160.0
195.962128	320.0
196.003922	56.0
196.056961	112.0
196.112656	36460.0
196.16835	132.0
196.189346	68.0
196.211838	92.0
196.254776	48.0
196.285049	56.0
196.363525	44.0
196.398987	180.0
196.452789	36.0
196.472321	44.0
196.522537	136.0
196.570969	64.0
196.589508	116.0
196.633362	60.0
196.679672	104.0
196.712311	48.0
196.740219	140.0
196.766464	80.0
196.899384	44.0
196.927307	60.0
196.985962	160.0
197.040665	124.0
197.115189	5912.0
197.206711	52.0
197.383392	60.0
197.584198	112.0
197.603394	84.0
197.673553	60.0
197.762268	88.0
197.819275	80.0
197.858475	80.0
197.911667	80.0
197.978867	84.0
198.116119	356.0
198.22818	52.0
198.357101	128.0
198.387939	112.0
198.444016	36.0
198.56459	60.0
198.634705	88.0
198.690811	136.0
198.708328	124.0
198.847946	68.0
199.189102	112.0
199.238251	76.0
199.288818	36.0
199.662689	128.0
200.583374	64.0
200.81546	64.0
201.998062	36.0
203.514267	72.0
206.443527	64.0
209.149002	80.0
210.033585	56.0
210.232666	40.0
213.75061	88.0
215.257629	40.0
217.206802	44.0
219.365143	76.0
222.628616	64.0
226.727615	48.0
229.13446	60.0
242.194855	108.0
249.566147	64.0
253.930328	60.0
254.015961	60.0
262.075745	84.0
285.572327	52.0
290.588745	116.0
297.07077	48.0
308.278717	56.0
308.341644	36.0
326.131836	88.0
331.41507	48.0
354.559784	48.0
363.971832	40.0
393.381805	60.0
404.832764	48.0
411.426819	64.0
429.488678	80.0
455.060211	88.0
501.422424	48.0
585.328857	40.0
650.777588	72.0
671.833191	112.0
729.939209	116.0
819.55249	40.0
915.267822	160.0
939.914124	172.0
969.666565	196.0
1018.553589	176.0
1023.132141	244.0
1033.938477	164.0
1040.258301	232.0
1049.200195	104.0
1050.419067	236.0
1055.391846	68.0
1066.619629	180.0
1073.57373	176.0
1074.108521	188.0
1080.994629	108.0
1083.541748	160.0
1084.806519	204.0
1092.917358	200.0
1097.61377	108.0
1109.083984	160.0
1118.243164	228.0
1123.947632	176.0
1127.440063	204.0
1131.024902	68.0
1131.714355	188.0
1131.821533	148.0
1134.896973	172.0
1146.822754	236.0
1160.552612	48.0
1166.68335	164.0
1178.022949	128.0
1185.007812	180.0
1186.591064	28.0
1190.996582	128.0
1191.614868	140.0
1195.4104	168.0
1203.834229	192.0
1209.593384	184.0
1221.570435	144.0
1228.069214	80.0
1228.118042	80.0
1228.466797	32.0
1231.014282	44.0
1241.903931	212.0
1244.49353	172.0
1246.417969	224.0
1261.705444	52.0
1261.804443	116.0
1266.35437	196.0
1273.347534	68.0
1275.479004	100.0
1277.420288	156.0
1279.790161	204.0
1292.202026	224.0
1295.88916	188.0
1308.565796	136.0
1311.814941	184.0
1316.584106	152.0
1317.039185	76.0
1320.804932	220.0
1322.129028	164.0
1327.482544	200.0
1331.91687	148.0
1332.941284	228.0
1333.442749	56.0
1336.562378	60.0
1337.69043	184.0
1343.775635	184.0
1345.629517	52.0
1347.820679	108.0
1350.108643	60.0
1352.259521	96.0
1353.555298	196.0
1358.113647	68.0
1362.797241	140.0
1362.863403	172.0
1364.965576	244.0
1369.071777	52.0
1378.846802	112.0
1382.61853	172.0
1383.625244	124.0
1395.510742	108.0
1401.278809	132.0
1405.513916	212.0
1407.155884	84.0
1410.921265	184.0
1413.591431	164.0
1413.883301	228.0
1415.867188	40.0
1419.029419	224.0
1421.842285	120.0
1426.987793	88.0
1427.42395	156.0
1432.993774	200.0
1436.265503	36.0
1438.461304	168.0
1442.427124	184.0
1444.801514	180.0
1446.882324	156.0
1447.639893	204.0
1451.208862	88.0
1453.051758	228.0
1456.75647	116.0
1462.588867	188.0
1472.783325	164.0
1483.051514	176.0
1483.335083	72.0
1487.884155	76.0
1489.834839	148.0
1495.078613	148.0
1495.948364	148.0
1496.764526	132.0
1499.86145	52.0
1504.968506	128.0
END IONS

BEGIN IONS
PEPMASS=313.143
CHARGE=1
MSLEVEL=2
SOURCE_INSTRUMENT=ESI-qTof
FILENAME=MSV000079697/ccms_peak/G4_mzxml/group4_P1_D3.mzXML
SEQ=*..*
IONMODE=Positive
ORGANISM=GNPS-NIST14-MATCHES
NAME=Spectral Match to Benzyl butyl phthalate from NIST14 M+H
PI=Data from System Wide MS course 
DATACOLLECTOR=Data deposited by daniel
SMILES=CCCCOC(=O)C1=CC=CC=C1C(=O)OCC2=CC=CC=C2
INCHI=InChI=1S/C19H20O4/c1-2-3-13-22-18(20)16-11-7-8-12-17(16)19(21)23-14-15-9-5-4-6-10-15/h4-12H,2-3,13-14H2,1H3
INCHIAUX=N/A
PUBMED=N/A
SUBMITUSER=mwang87
LIBRARYQUALITY=3
SPECTRUMID=CCMSLIB00003136331
USI=mzspec:GNPS:GNPS-NIST14-MATCHES:accession:CCMSLIB00003136331
SCANS=2520
81.070572	16055.691406
85.101608	12352.40332
86.096794	13482.056641
89.038704	9727.614258
91.054657	25817678.0
92.057907	2380179.75
93.034271	11197.53125
93.06134	43817.054688
93.070351	12146.702148
95.085938	41194.824219
105.033783	12046.920898
109.101501	15266.120117
111.0438	9145.969727
121.028641	65702.515625
121.065117	10614.677734
132.102203	12364.637695
136.039825	7977.510254
138.091003	7754.568848
149.023209	11667166.0
150.026535	1201517.125
151.028183	42438.425781
167.033936	75784.742188
187.113205	6368.138672
205.015579	8127.378418
205.085892	190437.625
206.089081	37683.632812
268.263	33732.519531
313.168243	6973.572754
313.215271	10742.887695
313.272736	29259.507812
314.341217	38744.546875
315.175446	61762.300781
END IONS

BEGIN IONS
PEPMASS=293.2
CHARGE=1
MSLEVEL=2
SOURCE_INSTRUMENT=ESI-Ion Trap
FILENAME=MSV000079274/ccms_peak/plate16/1722.D_RD3_01_4630.mzXML
SEQ=*..*
IONMODE=Positive
ORGANISM=GNPS-NIST14-MATCHES
NAME=Spectral Match to Dimethindene from NIST14 M+H
PI=Data from P.Dorrestein
DATACOLLECTOR=Data deposited by amelnik
SMILES=CC(C1=CC=CC=N1)C2=C(CC3=CC=CC=C32)CCN(C)C
INCHI=InChI=1S/C20H24N2/c1-15(19-10-6-7-12-21-19)20-17(11-13-22(2)3)14-16-8-4-5-9-18(16)20/h4-10,12,15H,11,13-14H2,1-3H3
INCHIAUX=N/A
PUBMED=N/A
SUBMITUSER=mwang87
LIBRARYQUALITY=3
SPECTRUMID=CCMSLIB00003137812
USI=mzspec:GNPS:GNPS-NIST14-MATCHES:accession:CCMSLIB00003137812
SCANS=1144
106.06575	1632.0
107.072792	520.0
222.126572	428.0
232.11174	580.0
233.116882	464.0
248.140961	4036.0
END IONS

BEGIN IONS
PEPMASS=100.075
CHARGE=1
MSLEVEL=2
SOURCE_INSTRUMENT=ESI-QQQ
FILENAME=MSV000080933/ccms_peak/peaks/global_positive_Batch1_QC1.mzXML
SEQ=*..*
IONMODE=Positive
ORGANISM=GNPS-NIST14-MATCHES
NAME=Spectral Match to 2-Pyrrolidinone, 1-methyl- from NIST14 M+H
PI=Data from Luan
DATACOLLECTOR=Data deposited by rsilva
SMILES=CN1CCCC1=O
INCHI=InChI=1S/C5H9NO/c1-6-4-2-3-5(6)7/h2-4H2,1H3
INCHIAUX=N/A
PUBMED=N/A
SUBMITUSER=mwang87
LIBRARYQUALITY=3
SPECTRUMID=CCMSLIB00003139556
USI=mzspec:GNPS:GNPS-NIST14-MATCHES:accession:CCMSLIB00003139556
SCANS=4331
55.154022	309.280151
56.356262	131.882553
57.276321	561.521667
58.157631	267.332275
67.060326	68.034683
68.351219	243.440445
69.166275	2843.091064
70.122574	278.106628
71.071304	502.065369
72.120926	915.420227
72.871643	85.817375
75.057236	231.679779
80.11338	40.475426
81.133087	135.876587
82.09742	282.081238
83.105957	462.684601
84.083969	25.811335
88.079353	36.486847
88.91214	57.738041
90.940018	33.110638
END IONS

BEGIN IONS
PEPMASS=302.109
CHARGE=1
MSLEVEL=2
SOURCE_INSTRUMENT=ESI-qTof
FILENAME=MSV000080616/ccms_peak/Positive_MS2_17k/Pesticide_Mix6_pos_14k.mzXML
SEQ=*..*
IONMODE=Positive
ORGANISM=GNPS-NIST14-MATCHES
NAME=Spectral Match to Flutriafol from NIST14 M+H
PI=Data from Pieter Dorrestein;David Touboul
DATACOLLECTOR=Data deposited by lfnothias
SMILES=C1=CC=C(C(=C1)C(CN2C=NC=N2)(C3=CC=C(C=C3)F)O)F
INCHI=InChI=1S/C16H13F2N3O/c17-13-7-5-12(6-8-13)16(22,9-21-11-19-10-20-21)14-3-1-2-4-15(14)18/h1-8,10-11,22H,9H2
INCHIAUX=N/A
PUBMED=N/A
SUBMITUSER=mwang87
LIBRARYQUALITY=3
SPECTRUMID=CCMSLIB00003140117
USI=mzspec:GNPS:GNPS-NIST14-MATCHES:accession:CCMSLIB00003140117
SCANS=2108
70.040459	5837046.0
75.023064	4832.172852
86.241104	5256.934082
109.044594	547758.0625
113.039413	24917.6875
120.000565	4947.72168
120.008049	5357.653809
123.024063	1411983.625
123.034462	14126.424805
137.039352	116044.953125
195.060135	12043.567383
215.065384	36850.242188
233.076706	385705.75
237.215118	5095.918457
288.443878	5376.35791
302.107147	932430.375
END IONS

BEGIN IONS
PEPMASS=711.879
CHARGE=2
MSLEVEL=2
SOURCE_INSTRUMENT=N/A-N/A
FILENAME=spectral_library_antimarin_42_large_gnps_db_high_01_high_02_pv_thresh_10.mgf
SEQ=*..*
IONMODE=N/A
ORGANISM=DEREPLICATOR_IDENTIFIED_LIBRARY
NAME=Ayfivin;_Bacitracin_A_24080_dereplictor_pv_1.61828e-27 M+2H
PI=Pevzner
DATACOLLECTOR=N/A
SMILES=[H]OC(=O)C([H])([H])C([H])([H])[C@]([H])(N([H])C(=O)[C@]([H])(N([H])C(=O)[C@@]1([H])N=C(SC1([H])[H])[C@@]([H])(N([H])[H])[C@@]([H])(C([H])([H])[H])C([H])([H])C([H])([H])[H])C([H])([H])C([H])(C([H])([H])[H])C([H])([H])[H])C(=O)N([H])[C@@]([H])(C(=O)N([H])[C@@]1([H])C(=O)N([H])C([H])(C(=O)N([H])[C@@]([H])(C(=O)N([H])[C@]([H])(C(=O)N([H])[C@@]([H])(C(=O)N([H])[C@@]([H])(C(=O)N([H])[C@]([H])(C(=O)N([H])C([H])([H])C([H])([H])C([H])([H])C1([H])[H])C([H])([H])C(=O)N([H])[H])C([H])([H])C(=O)O[H])C([H])([H])C1=C([H])N([H])C([H])=N1)C([H])([H])C1=C([H])C([H])=C([H])C([H])=C1[H])C([H])(C([H])([H])[H])C([H])([H])C([H])([H])[H])C([H])([H])C([H])([H])C([H])([H])N([H])[H])C([H])(C([H])([H])[H])C([H])([H])C([H])([H])[H]
INCHI=N/A
INCHIAUX=N/A
PUBMED=N/A
SUBMITUSER=mwang87
LIBRARYQUALITY=3
SPECTRUMID=CCMSLIB00000577553
USI=mzspec:GNPS:DEREPLICATOR_IDENTIFIED_LIBRARY:accession:CCMSLIB00000577553
SCANS=63
45.979382	264.0
49.172089	200.0
50.990383	228.0
56.925289	176.0
58.304554	148.0
58.631756	232.0
61.014637	176.0
61.900879	224.0
62.799816	228.0
75.574951	144.0
78.523819	156.0
80.062149	204.0
82.121437	164.0
86.422043	180.0
87.007713	176.0
89.30056	140.0
91.048775	148.0
101.709244	176.0
102.055695	228.0
102.392845	192.0
105.058342	160.0
106.15258	192.0
109.469315	212.0
110.006157	124.0
110.070526	260.0
110.316406	148.0
111.022003	140.0
112.094109	152.0
115.08284	176.0
116.090675	296.0
120.083076	176.0
123.076408	144.0
126.242958	184.0
128.053314	312.0
128.374084	140.0
129.094452	156.0
130.047714	136.0
131.048828	140.0
137.12822	260.0
140.108856	188.0
141.701202	228.0
143.026306	140.0
143.83197	144.0
144.752411	180.0
145.10463	148.0
146.51297	240.0
148.143631	224.0
149.218719	156.0
152.715652	156.0
153.098236	568.0
153.117065	252.0
154.061676	204.0
154.101379	168.0
154.155426	152.0
154.853073	236.0
155.0979	176.0
155.386017	232.0
156.082367	364.0
156.168518	208.0
157.836899	200.0
158.227203	144.0
161.369598	156.0
166.059097	208.0
167.116119	176.0
167.262817	144.0
168.103012	152.0
170.114044	156.0
171.093399	148.0
178.049271	224.0
178.697876	188.0
179.664963	140.0
180.118774	188.0
181.105194	148.0
181.346909	172.0
182.061295	300.0
183.149811	140.0
183.465088	192.0
189.110077	160.0
189.879669	208.0
193.113098	192.0
197.127487	212.0
198.12645	348.0
198.973953	180.0
199.009888	256.0
199.089493	4684.0
199.196411	184.0
200.005066	144.0
200.044479	148.0
200.092117	596.0
201.086731	452.0
202.086166	200.0
206.80603	140.0
207.123703	148.0
209.074844	160.0
212.120483	144.0
215.138199	236.0
216.145447	164.0
216.394226	352.0
217.101868	296.0
218.427948	164.0
219.093231	208.0
219.19046	200.0
220.181656	152.0
221.773392	172.0
225.120377	144.0
226.115891	204.0
227.084396	2952.0
228.096619	252.0
228.167618	200.0
229.081146	176.0
230.089722	212.0
235.096115	200.0
240.107895	144.0
248.767471	152.0
249.160843	204.0
251.162109	152.0
252.137726	144.0
253.088623	508.0
253.163116	336.0
255.654724	140.0
257.133362	388.0
258.137909	132.0
260.842499	168.0
260.945374	236.0
264.591064	144.0
265.131744	264.0
267.153625	564.0
268.103943	112.0
268.156616	168.0
268.522888	180.0
269.106995	176.0
269.133118	264.0
270.109619	196.0
270.182251	236.0
271.180969	148.0
273.947662	148.0
277.133484	164.0
278.120728	176.0
279.107391	176.0
281.132721	204.0
282.169556	144.0
284.178558	1012.0
285.131012	780.0
285.186127	220.0
286.178894	208.0
293.124756	160.0
294.178619	140.0
295.141205	476.0
296.119354	180.0
298.151154	144.0
302.148193	168.0
303.145386	172.0
306.11557	136.0
312.171417	764.0
313.144287	220.0
313.17157	176.0
314.918304	172.0
320.210022	140.0
325.703857	140.0
328.137451	308.0
329.133667	120.0
329.168457	144.0
330.806274	180.0
331.132141	172.0
338.116364	136.0
338.206573	176.0
339.131409	128.0
339.210205	156.0
340.193634	288.0
341.486725	148.0
341.674316	160.0
346.131561	140.0
347.233551	140.0
349.127625	248.0
350.101288	112.0
354.22229	176.0
354.248505	152.0
355.673401	212.0
356.12616	2972.0
356.218109	140.0
357.126373	732.0
357.216187	436.0
358.129059	188.0
358.226654	160.0
359.350098	228.0
363.239105	160.0
365.128265	164.0
366.280029	148.0
367.133026	416.0
368.159302	164.0
374.153412	148.0
375.216736	152.0
376.220245	168.0
381.200684	336.0
385.006683	140.0
385.170715	176.0
389.071014	140.0
393.207977	152.0
395.220276	164.0
396.192535	156.0
398.220093	508.0
398.271942	188.0
398.736786	228.0
399.249634	148.0
400.160767	228.0
402.154022	144.0
402.748932	188.0
403.680145	180.0
404.228149	180.0
404.388245	156.0
405.221161	200.0
407.239502	168.0
409.73703	184.0
411.741669	168.0
412.721863	172.0
413.217957	404.0
415.208618	152.0
415.246521	148.0
416.232635	152.0
417.21994	140.0
418.210602	156.0
419.214325	184.0
421.231384	136.0
423.200684	264.0
424.187317	416.0
425.231842	188.0
426.158234	148.0
426.230072	148.0
426.725433	172.0
427.180206	204.0
427.218933	168.0
427.257294	184.0
430.739319	212.0
433.200592	156.0
434.216095	172.0
434.745575	192.0
435.231628	340.0
435.7229	176.0
436.213257	140.0
437.706848	240.0
438.260834	192.0
440.25473	152.0
441.21698	612.0
442.217773	168.0
442.261536	184.0
443.195404	184.0
444.113495	220.0
447.243774	240.0
450.156982	172.0
450.209961	240.0
451.216064	188.0
451.733459	200.0
452.291992	160.0
453.177094	156.0
454.147858	148.0
454.219086	208.0
455.217896	184.0
456.215637	108.0
458.233032	144.0
459.716888	164.0
461.305725	184.0
464.225708	148.0
468.291779	100.0
469.213318	516.0
470.211426	140.0
471.306702	192.0
471.916138	172.0
472.259155	280.0
474.252563	176.0
475.78067	196.0
478.241028	156.0
479.735107	156.0
480.310699	196.0
482.223114	160.0
483.26181	536.0
483.754028	188.0
485.286102	164.0
486.199768	200.0
486.774841	208.0
487.315125	164.0
491.24649	160.0
491.678894	168.0
491.778137	324.0
492.282562	280.0
492.775238	244.0
492.897705	236.0
493.245239	140.0
494.286163	156.0
495.260132	196.0
495.767883	320.0
496.228912	352.0
497.193176	156.0
499.174438	156.0
499.236694	272.0
499.770966	184.0
502.787262	208.0
503.334503	272.0
504.272247	168.0
506.220551	240.0
507.775604	148.0
508.565247	144.0
510.182343	188.0
512.29126	208.0
513.23468	244.0
514.200195	372.0
515.211243	124.0
516.748779	248.0
517.251099	168.0
523.232422	232.0
524.222717	180.0
524.787903	192.0
525.158997	184.0
525.285034	140.0
526.310791	164.0
526.754883	144.0
526.887329	232.0
527.314148	156.0
528.295776	128.0
530.273315	160.0
530.333069	200.0
531.266174	140.0
536.289795	224.0
537.267395	140.0
537.30426	204.0
538.280029	144.0
538.766541	356.0
539.277832	256.0
539.322266	244.0
539.77533	176.0
540.293335	160.0
540.767761	172.0
540.802612	172.0
541.297668	204.0
541.353271	236.0
542.182495	192.0
542.256653	180.0
543.170044	188.0
544.204956	144.0
544.771545	176.0
547.285156	212.0
547.771606	184.0
547.789795	172.0
548.242493	148.0
548.283203	212.0
549.248901	164.0
551.317871	176.0
554.300049	556.0
554.777954	180.0
555.305725	104.0
555.813293	188.0
556.299316	304.0
559.330383	204.0
561.307678	156.0
563.336792	184.0
564.70752	220.0
565.307434	104.0
565.776917	196.0
567.233887	148.0
567.309998	184.0
567.354919	184.0
568.30658	352.0
569.271362	160.0
570.801453	184.0
573.782043	336.0
573.843994	148.0
574.840881	152.0
577.339294	144.0
577.454102	172.0
577.803284	200.0
579.269531	168.0
579.833557	144.0
580.798157	212.0
581.229004	156.0
581.307251	116.0
581.38739	220.0
581.80719	160.0
582.29071	168.0
583.335938	336.0
583.407166	116.0
584.289551	176.0
584.338318	116.0
584.814087	200.0
585.31958	160.0
585.8349	200.0
586.292603	148.0
586.332642	196.0
586.803833	152.0
587.291809	356.0
588.313354	152.0
589.322998	148.0
590.787842	172.0
590.841064	160.0
591.298096	152.0
592.254456	140.0
592.28479	256.0
592.632446	156.0
594.373108	168.0
595.309875	176.0
595.781128	168.0
596.316467	200.0
597.286987	120.0
597.769714	196.0
599.346008	204.0
599.844482	180.0
601.325928	256.0
602.269592	144.0
603.281067	156.0
603.795166	188.0
604.303894	108.0
604.342346	184.0
605.278687	108.0
605.830627	208.0
607.297485	112.0
608.280518	244.0
608.370911	168.0
608.789978	204.0
609.297119	432.0
610.247742	140.0
610.29657	256.0
610.360718	140.0
612.288208	184.0
612.832703	248.0
613.321899	476.0
613.77301	272.0
614.359924	164.0
614.922424	140.0
615.345398	164.0
617.170105	172.0
617.301331	288.0
617.798218	300.0
618.313416	232.0
618.362305	192.0
620.32373	152.0
621.340332	172.0
622.278381	168.0
627.293579	624.0
628.299805	172.0
628.338684	224.0
628.82428	184.0
629.373413	216.0
629.782898	184.0
629.846558	180.0
630.792236	144.0
631.297241	180.0
635.489746	176.0
636.317871	180.0
637.297241	164.0
637.347534	172.0
638.277405	176.0
638.335083	220.0
638.822876	152.0
639.30304	112.0
639.351379	196.0
640.358093	148.0
642.299072	116.0
642.810913	148.0
643.30304	108.0
643.821228	200.0
644.319519	200.0
646.82373	164.0
647.309753	208.0
647.811157	204.0
647.861816	140.0
648.297607	164.0
650.303589	96.0
651.79895	176.0
652.326538	148.0
652.378357	172.0
652.810486	148.0
652.84613	280.0
653.807556	168.0
654.189331	144.0
654.876709	196.0
655.369873	228.0
655.416748	216.0
656.788086	200.0
657.349304	172.0
659.310242	304.0
659.887878	188.0
660.302063	148.0
660.340759	368.0
660.825378	468.0
661.330444	228.0
661.805481	160.0
661.939636	148.0
662.29303	160.0
664.810303	200.0
669.34137	1476.0
669.832581	852.0
670.334534	652.0
670.826782	116.0
670.967163	244.0
671.280334	136.0
671.658203	140.0
671.841003	216.0
673.320129	200.0
673.81604	144.0
674.394775	184.0
677.193848	156.0
677.366882	112.0
680.348328	284.0
681.385254	140.0
681.800903	144.0
682.377869	216.0
683.220398	160.0
685.031982	164.0
685.360229	164.0
688.296875	204.0
689.388977	168.0
690.789795	172.0
692.344299	264.0
692.805237	204.0
693.315979	108.0
694.343994	120.0
694.878357	256.0
695.341125	140.0
695.389893	276.0
695.837708	208.0
696.344788	144.0
696.403625	148.0
697.249268	96.0
698.340637	164.0
698.890137	168.0
701.908325	140.0
702.217224	180.0
702.794434	144.0
702.861084	140.0
703.362915	652.0
703.469971	140.0
703.715576	176.0
703.824158	144.0
703.865234	488.0
704.312195	124.0
704.371155	180.0
704.863831	184.0
704.872009	344.0
704.959412	212.0
705.213074	152.0
705.346069	244.0
706.373962	204.0
707.326538	140.0
707.381714	144.0
707.657043	156.0
708.131042	180.0
708.287231	140.0
708.347351	132.0
708.435547	144.0
708.538208	168.0
708.871826	492.0
708.938843	140.0
709.368286	200.0
709.846436	152.0
709.892944	176.0
710.352661	164.0
710.484741	108.0
710.635681	144.0
710.708069	136.0
710.893982	400.0
711.100281	196.0
711.309631	160.0
711.357971	636.0
711.488525	292.0
711.664551	168.0
711.717285	280.0
711.739502	148.0
711.77832	244.0
711.880737	24600.0
711.981445	444.0
712.095825	256.0
712.195618	160.0
712.243408	228.0
712.382507	21964.0
712.521851	176.0
712.579651	172.0
712.637146	112.0
712.672424	344.0
712.731873	196.0
712.771973	152.0
712.883118	10780.0
712.991333	188.0
713.098389	240.0
713.298096	132.0
713.384155	4452.0
713.554504	140.0
713.647766	276.0
713.772156	100.0
713.877258	2036.0
714.026611	100.0
714.184937	140.0
714.369934	416.0
714.473145	144.0
714.510193	208.0
714.584351	204.0
714.864685	248.0
714.988647	128.0
715.25592	112.0
715.355164	324.0
715.498657	144.0
715.865173	984.0
716.2099	104.0
716.357788	528.0
716.529968	104.0
716.605103	116.0
716.678406	124.0
716.892517	288.0
717.146423	104.0
717.32135	100.0
717.382263	136.0
717.452942	152.0
720.401184	128.0
721.343384	140.0
721.398987	128.0
721.687561	220.0
722.334412	316.0
722.390686	128.0
722.436279	204.0
723.359436	176.0
724.341003	480.0
725.334778	280.0
726.34021	156.0
728.353394	128.0
730.482849	196.0
732.399109	172.0
734.34967	160.0
737.411499	268.0
739.348572	348.0
739.558716	164.0
740.377441	128.0
741.365112	760.0
748.652527	168.0
749.319641	136.0
749.366089	196.0
750.325317	152.0
751.421509	156.0
752.325256	96.0
753.356201	160.0
754.638428	140.0
755.345337	120.0
755.413635	148.0
756.383057	324.0
757.385193	132.0
766.347839	300.0
766.404602	288.0
767.927612	180.0
769.373352	304.0
774.402771	260.0
775.352661	144.0
780.359558	160.0
783.391296	224.0
785.388184	152.0
789.402222	172.0
791.334106	168.0
792.303162	124.0
797.459778	280.0
797.858887	164.0
799.473145	160.0
805.368164	112.0
805.895752	144.0
806.441895	100.0
807.434387	108.0
807.481995	152.0
808.468201	112.0
809.776367	184.0
810.464172	164.0
817.45697	196.0
818.39093	148.0
818.470642	156.0
824.208862	140.0
824.456726	352.0
825.433899	136.0
825.489258	148.0
826.428528	224.0
827.431763	120.0
827.471252	172.0
828.454041	152.0
834.418823	256.0
835.402283	140.0
838.388367	144.0
839.512512	256.0
841.472473	224.0
851.442322	336.0
852.430786	884.0
853.453735	400.0
854.42749	124.0
855.43634	324.0
863.404419	284.0
864.539978	104.0
867.522705	100.0
868.500549	128.0
869.050293	144.0
869.127563	164.0
869.333496	116.0
869.45697	1576.0
870.459656	784.0
871.474487	144.0
872.463318	148.0
873.484009	100.0
877.446289	140.0
878.467041	104.0
878.523254	148.0
879.423218	120.0
880.413269	180.0
880.46106	288.0
881.42804	260.0
885.415161	140.0
887.406189	160.0
887.459534	240.0
891.449341	96.0
892.429138	144.0
895.487854	152.0
896.476807	156.0
897.485901	172.0
898.46991	156.0
901.752441	140.0
909.519592	136.0
910.551514	132.0
911.45459	152.0
912.674744	160.0
919.499939	152.0
920.459778	120.0
920.514648	148.0
920.797913	168.0
921.482422	268.0
923.506226	112.0
929.469604	136.0
937.519653	104.0
938.50177	108.0
939.472839	176.0
941.495361	168.0
942.4375	104.0
946.414795	140.0
948.437744	136.0
952.397095	172.0
963.426453	128.0
964.440979	128.0
964.55011	320.0
964.671692	140.0
965.510071	276.0
966.551331	180.0
967.529724	168.0
968.522949	180.0
978.49408	144.0
979.529114	224.0
980.476257	132.0
981.602661	168.0
982.535645	664.0
983.544678	384.0
984.547119	224.0
985.551941	104.0
989.494141	220.0
990.52417	148.0
992.553894	204.0
996.449402	160.0
997.508362	148.0
1000.449158	140.0
1011.543396	152.0
1015.519653	176.0
1023.59491	140.0
1032.5354	144.0
1036.497192	120.0
1037.544678	160.0
1039.622803	180.0
1040.541626	164.0
1041.584961	128.0
1048.549927	132.0
1050.559448	148.0
1053.491699	140.0
1053.551025	144.0
1054.515625	104.0
1054.610352	108.0
1059.537964	192.0
1060.535156	140.0
1065.534912	248.0
1067.543457	144.0
1075.562134	280.0
1076.544434	224.0
1077.511108	312.0
1078.526489	224.0
1079.518677	172.0
1085.575195	120.0
1088.513184	152.0
1090.602295	188.0
1093.476074	144.0
1093.588623	316.0
1094.521973	96.0
1094.578369	356.0
1095.546631	236.0
1096.525879	184.0
1110.506592	108.0
1110.708252	160.0
1111.585083	540.0
1112.578857	308.0
1113.598755	132.0
1114.61853	244.0
1119.58374	140.0
1121.550903	204.0
1121.61084	292.0
1129.539062	164.0
1154.561523	152.0
1165.629395	148.0
1172.528076	112.0
1173.695435	148.0
1178.599976	176.0
1186.535522	192.0
1190.556396	140.0
1190.748779	200.0
1196.594116	104.0
1201.576416	208.0
1201.628174	112.0
1202.604614	152.0
1205.6073	140.0
1206.595337	96.0
1207.540039	140.0
1223.57251	144.0
1224.555908	152.0
1224.665283	172.0
1234.623535	188.0
1235.514648	156.0
1259.679077	144.0
1276.635498	100.0
1280.650757	152.0
1292.622925	192.0
1309.652466	128.0
1310.693604	120.0
1312.594849	128.0
1319.681274	244.0
1320.640991	284.0
1321.654297	280.0
1331.152954	192.0
1337.665771	276.0
1337.779297	116.0
1338.660889	376.0
1338.787598	132.0
1339.65686	248.0
1340.646362	280.0
1392.774292	168.0
1501.416382	144.0
1608.154541	152.0
1652.505249	208.0
1759.649902	236.0
1794.426025	180.0
1805.335327	236.0
1805.749756	168.0
1814.785156	168.0
1834.218994	188.0
1843.094604	216.0
1863.486572	148.0
1871.330444	160.0
1931.54126	148.0
1971.377808	144.0
END IONS

BEGIN IONS
PEPMASS=133.101
CHARGE=1
MSLEVEL=2
SOURCE_INSTRUMENT=ESI-Orbitrap
FILENAME=Marynka_MassSpecGirl/STD_POS/compound_2_methyl_1_phenyl_2_propanol_plasma_pos_rep1.mzML
SEQ=*..*
IONMODE=Positive
ORGANISM=GNPS-NUTRI-METAB-FEM-POS
NAME=2_methyl_1_phenyl_2_propanol M-H2O+H
PI=Ulaszewska
DATACOLLECTOR=Marynka Ulaszewska
SMILES=CC(C)(CC1=CC=CC=C1)O
INCHI=InChI=1S/C10H14O/c1-10(2,11)8-9-6-4-3-5-7-9/h3-7,11H,8H2,1-2H3
INCHIAUX=N/A
PUBMED=7531.0
SUBMITUSER=mpanitchpakdi
LIBRARYQUALITY=1
SPECTRUMID=CCMSLIB00006673161
USI=mzspec:GNPS:GNPS-NUTRI-METAB-FEM-POS:accession:CCMSLIB00006673161
SCANS=937
51.699577	31960.900391
52.845345	65656.351562
52.847633	93501.445312
52.850712	65566.421875
52.856548	208311.46875
52.85854	253369.515625
52.86182	163957.078125
52.868996	330007.0625
52.872303	135645.984375
52.875797	121598.71875
52.880455	110864.023438
52.883499	322957.4375
52.890343	233909.84375
52.892876	181481.234375
52.895863	138749.328125
52.899082	150901.640625
52.903656	170624.53125
52.907673	160796.546875
52.912476	91797.585938
52.915611	167287.875
52.919106	141456.359375
52.923248	83522.515625
52.92738	177435.53125
52.930191	65244.390625
52.936058	72511.5
52.938828	172953.4375
52.947128	66033.554688
52.949959	187231.9375
52.958477	87391.570312
52.961212	110469.84375
52.96944	52562.929688
52.972466	96585.375
52.983772	61992.304688
52.992279	39961.84375
52.995075	41501.699219
54.385681	37104.828125
54.518288	34855.941406
55.935169	32739.167969
57.957367	32319.333984
59.923717	34965.121094
62.689465	28146.537109
63.463043	39247.132812
64.487717	34182.46875
65.038116	78495.695312
65.702301	37326.597656
66.426422	38248.792969
67.641785	46313.675781
67.646652	36656.699219
67.887451	122569.789062
67.89212	110293.09375
67.895821	81387.476562
67.903122	200493.234375
67.907425	98854.101562
67.911438	88842.070312
67.916046	67405.367188
67.919807	128381.21875
67.924683	137356.84375
67.927269	124913.46875
67.934631	168024.109375
67.940788	63419.917969
67.946297	45068.488281
67.950027	92962.296875
67.954384	88629.085938
67.959457	120807.039062
67.963089	67481.554688
67.966896	67286.835938
67.971268	78850.335938
67.975845	96269.632812
67.9841	78329.273438
67.988403	83241.6875
67.991631	77931.828125
67.997528	45263.636719
68.000847	51904.171875
68.005257	53194.074219
68.017189	59893.667969
68.02121	69432.671875
68.03775	44148.757812
70.923767	89090.640625
71.448189	33681.402344
74.44796	36475.664062
76.529541	35074.757812
77.316963	32868.6875
84.495987	36182.492188
85.326363	61760.753906
85.333267	114648.4375
85.338089	72316.367188
86.563446	31812.429688
88.735374	47515.871094
90.37825	53137.617188
90.384171	79708.101562
90.390358	44425.421875
90.399521	109154.148438
90.404861	62512.863281
90.409073	105603.695312
90.413879	56315.832031
90.415665	54414.753906
90.423416	101248.1875
90.432327	94749.554688
90.435036	103583.453125
90.440788	65254.007812
90.444107	51529.714844
90.459541	93296.789062
90.468849	57981.996094
90.482628	93097.179688
90.487717	54412.386719
90.495506	45362.878906
90.505569	60502.894531
90.531731	88681.984375
90.538254	47055.164062
90.54245	52715.9375
90.555061	61674.675781
90.571617	64966.820312
90.575706	38530.242188
90.876915	69658.8125
90.878738	36522.621094
90.889961	72071.71875
90.891991	35839.507812
90.910889	79286.648438
90.913307	54670.59375
90.93441	84952.078125
90.937027	82153.046875
90.939362	56927.511719
90.944923	92019.351562
90.947296	69750.867188
90.952866	114302.546875
90.955223	78362.976562
90.957787	76621.210938
90.960701	130575.40625
90.963135	99999.804688
90.965904	113058.710938
90.968445	102671.9375
90.971069	127435.570312
90.973778	135150.5625
90.976418	133858.78125
90.978592	85589.90625
90.984398	187411.15625
90.986366	118209.46875
90.989555	182527.640625
90.992004	139259.671875
90.994698	168157.59375
90.997375	187976.78125
90.999977	191222.109375
91.002541	179908.65625
91.005249	210623.265625
91.007774	199240.59375
91.010513	242662.203125
91.013046	233711.8125
91.015808	294737.9375
91.018127	221625.875
91.021088	360372.90625
91.023506	312460.28125
91.026276	373276.34375
91.028755	340904.6875
91.031532	464490.8125
91.034058	455433.46875
91.036827	573812.625
91.039192	474101.53125
91.041985	605111.0625
91.044632	655928.875
91.053993	87463064.0
91.062927	483586.1875
91.06562	651234.9375
91.068352	721042.6875
91.070618	455168.5625
91.073547	502330.5625
91.076042	394345.0
91.078789	409027.375
91.081314	334768.28125
91.084106	375758.46875
91.086395	236112.3125
91.089378	359283.78125
91.091667	223959.71875
91.094612	273488.375
91.096992	196615.59375
91.099876	249132.15625
91.102303	194334.25
91.105164	231873.65625
91.107437	148683.21875
91.110359	181952.46875
91.112839	157946.75
91.115623	181758.453125
91.118126	145949.15625
91.120934	169935.453125
91.123177	110686.984375
91.128883	180984.34375
91.131203	123495.46875
91.13372	87983.742188
91.136681	127955.84375
91.139305	135351.9375
91.141655	86117.5
91.144615	122494.6875
91.147003	83929.6875
91.149803	141334.15625
91.152298	90177.164062
91.155052	108224.195312
91.157486	76290.609375
91.160446	126888.953125
91.168381	110157.023438
91.170181	62618.539062
91.192039	94925.234375
91.194283	55697.9375
91.21302	93819.84375
91.215324	46604.144531
91.220993	70227.921875
91.223221	40776.292969
91.231483	75810.25
91.233551	34790.953125
91.250023	67461.179688
91.252342	42762.308594
92.057907	46915.964844
104.917458	44566.285156
105.069717	5803308.5
126.246948	52433.714844
126.260193	60055.660156
126.270981	77535.640625
126.288826	61055.1875
126.302902	85489.03125
126.332703	56058.285156
126.347061	99835.992188
126.392555	48614.824219
126.411446	45782.605469
126.452728	37489.410156
126.471313	33956.855469
130.549744	40022.484375
133.10112	485977.25
END IONS

BEGIN IONS
PEPMASS=86.06
CHARGE=1
MSLEVEL=2
SOURCE_INSTRUMENT=ESI-Orbitrap
FILENAME=Marynka_MassSpecGirl/STD_POS/compound_2_pyrrolidinone_plasma_pos_rep1.mzML
SEQ=*..*
IONMODE=Positive
ORGANISM=GNPS-NUTRI-METAB-FEM-POS
NAME=2_pyrrolidinone M+H
PI=Ulaszewska
DATACOLLECTOR=Marynka Ulaszewska
SMILES=C1CC(=O)NC1
INCHI=InChI=1S/C4H7NO/c6-4-2-1-3-5-4/h1-3H2,(H,5,6)
INCHIAUX=N/A
PUBMED=12025.0
SUBMITUSER=mpanitchpakdi
LIBRARYQUALITY=1
SPECTRUMID=CCMSLIB00006673190
USI=mzspec:GNPS:GNPS-NUTRI-METAB-FEM-POS:accession:CCMSLIB00006673190
SCANS=160
51.134678	66191.945312
51.409336	61111.414062
51.939148	100361.242188
53.819149	123798.09375
53.822155	172354.546875
53.830723	339793.09375
53.833229	403462.65625
53.835934	328824.40625
53.838001	195103.28125
53.842007	490282.59375
53.844784	454638.28125
53.847805	319168.4375
53.851456	347950.0
53.855087	316693.46875
53.857552	228465.5625
53.860897	566863.125
53.86504	564458.5
53.869946	140285.25
53.872589	187959.578125
53.879269	433475.40625
53.883724	403989.09375
53.886219	154307.09375
53.888947	177418.34375
53.892548	508914.03125
53.897018	261730.609375
53.899357	264375.21875
53.904224	464830.71875
53.90844	117398.039062
53.910957	202084.765625
53.913548	164788.234375
53.91787	248428.875
53.920784	100461.0
53.92976	293773.96875
53.93235	176820.28125
53.941265	289132.375
53.944054	157661.0
53.95322	256445.21875
53.960773	87701.757812
53.964733	134651.21875
53.977032	115517.0625
53.987141	69287.9375
58.553261	60816.335938
59.455406	78688.890625
60.135971	80894.867188
65.440857	67165.15625
65.639328	67707.453125
66.852219	71739.734375
66.983238	81511.492188
69.032784	103550.460938
69.129318	79360.757812
69.141129	212793.015625
69.145355	129051.648438
69.148132	115708.695312
69.153885	213678.390625
69.158096	301042.34375
69.162437	192705.359375
69.167358	157786.234375
69.173264	143545.09375
69.177032	196700.0
69.181374	292593.28125
69.188103	220231.59375
69.198303	170056.109375
69.201813	130678.851562
69.206917	99257.21875
69.210793	152963.265625
69.215561	254614.984375
69.221031	314833.0625
69.224693	224660.5625
69.231331	192331.5625
69.238068	130945.726562
69.245049	70380.28125
69.248077	139318.53125
69.261963	150821.484375
69.268555	81982.21875
69.273369	93213.359375
69.277664	161217.328125
69.294701	141121.515625
69.312729	99241.171875
72.758171	61405.3125
82.544571	59568.0
85.329231	188488.765625
85.334297	167586.15625
86.007416	66751.523438
86.050354	75294.601562
86.113266	79284.492188
88.892029	63857.5
92.043739	76889.0
92.050209	65757.195312
92.053581	67266.914062
92.063675	131276.828125
92.070038	216304.6875
92.076523	185246.5
92.080223	167235.0625
92.084129	146419.875
92.089104	107692.53125
92.098885	144301.46875
92.107674	82506.179688
92.113197	118210.796875
92.117867	125093.671875
92.1269	167827.171875
92.13176	110620.414062
92.146553	170841.0
92.156799	319942.46875
92.162254	124840.09375
92.175919	106688.046875
92.18293	146088.21875
92.20446	121976.640625
92.228691	94982.195312
92.237953	68572.085938
92.243011	77962.953125
END IONS

BEGIN IONS
PEPMASS=117.091
CHARGE=1
MSLEVEL=2
SOURCE_INSTRUMENT=ESI-Orbitrap
FILENAME=Marynka_MassSpecGirl/STD_POS/compound_acetic_acid_butyl_ester_urine_pos_rep1.mzML
SEQ=*..*
IONMODE=Positive
ORGANISM=GNPS-NUTRI-METAB-FEM-POS
NAME=acetic_acid_butyl_ester M+H
PI=Ulaszewska
DATACOLLECTOR=Marynka Ulaszewska
SMILES=CCCCOC(=O)C
INCHI=InChI=1S/C6H12O2/c1-3-4-5-8-6(2)7/h3-5H2,1-2H3
INCHIAUX=N/A
PUBMED=31272.0
SUBMITUSER=mpanitchpakdi
LIBRARYQUALITY=1
SPECTRUMID=CCMSLIB00006673886
USI=mzspec:GNPS:GNPS-NUTRI-METAB-FEM-POS:accession:CCMSLIB00006673886
SCANS=145
53.850105	6667.436523
53.853371	11659.110352
53.859043	9319.545898
53.861515	18461.619141
53.864586	21412.654297
53.868088	22900.753906
53.870544	9109.511719
53.872765	29041.091797
53.875759	21540.3125
53.87962	28965.558594
53.883389	10951.075195
53.888332	23594.292969
53.891357	21209.681641
53.894066	14425.288086
53.898689	32107.083984
53.901093	30996.234375
53.903725	12793.964844
53.908321	10008.25293
53.912663	19775.490234
53.917866	6025.832031
53.921253	15726.175781
53.924458	26693.96875
53.928795	4968.573242
53.930595	7257.562012
53.933231	9339.75293
53.935989	21032.152344
53.940147	10218.472656
53.941772	11490.679688
53.945343	5554.001953
53.947632	14704.957031
53.951611	11004.823242
53.953362	11662.926758
53.956882	6440.754883
53.959053	7085.739258
53.962902	10150.182617
53.964344	8495.712891
53.968109	5593.111816
53.971531	5322.766113
53.974556	7712.844238
53.976391	8498.050781
53.983788	4771.13623
53.985577	5466.513672
53.987999	6567.668945
53.998669	4230.566406
66.473488	3619.021729
67.182884	3795.039307
69.166969	4367.651367
69.175133	4845.6875
69.178963	6989.867188
69.184814	7559.598633
69.188133	6602.785156
69.191559	9771.320312
69.196007	12010.290039
69.198746	15109.414062
69.202019	18746.222656
69.208488	9213.696289
69.215225	10604.176758
69.218971	12417.401367
69.228889	20712.787109
69.23597	9069.319336
69.240219	7054.347168
69.243919	10836.94043
69.249924	17173.884766
69.257591	6212.869629
69.262253	11932.586914
69.266907	11515.079102
69.26931	10257.621094
69.280258	5792.929688
69.286636	10782.407227
69.302788	6466.586426
69.306961	6762.62793
69.319878	5687.572754
69.323494	4085.921143
69.336983	4025.157227
69.340378	3881.266602
69.714394	3825.881104
70.783142	3700.556885
73.905212	4298.892578
82.472626	4241.947754
84.810104	4275.232422
85.322823	4622.000977
85.336304	12864.548828
85.350494	4709.679688
88.577057	5303.399414
92.095978	6283.556641
92.1045	5276.868164
92.115875	5764.94873
92.121284	14379.817383
92.128983	13335.249023
92.135399	3063.802002
92.140205	3953.482422
92.146713	9070.53418
92.154343	7681.475098
92.162613	9106.488281
92.176704	5743.61377
92.185791	11444.585938
92.199905	8398.725586
92.20459	7394.927246
92.211563	8307.884766
92.216972	3772.190674
92.224396	6642.606445
92.230804	8836.463867
92.242287	4435.006836
92.249657	7658.406738
92.256203	9050.105469
92.282219	6030.033691
98.954468	3813.54541
100.276924	4404.259766
100.5075	4619.057129
114.788498	4577.920898
116.807022	3606.234375
128.663971	7829.303223
128.672958	6998.741211
128.694305	7848.47168
128.709	7851.29248
128.741211	6822.602051
128.756027	9651.641602
128.778824	5943.638184
128.79628	5644.973633
128.813065	4010.736328
128.821274	6838.887207
128.862198	4142.606934
END IONS

BEGIN IONS
PEPMASS=97.0284
CHARGE=1
MSLEVEL=2
SOURCE_INSTRUMENT=ESI-Orbitrap
FILENAME=Marynka_MassSpecGirl/STD_POS/compound_furfural_plasma_pos_rep1.mzML
SEQ=*..*
IONMODE=Positive
ORGANISM=GNPS-NUTRI-METAB-FEM-POS
NAME=furfural M+H
PI=Ulaszewska
DATACOLLECTOR=Marynka Ulaszewska
SMILES=C1=COC(=C1)C=O
INCHI=InChI=1S/C5H4O2/c6-4-5-2-1-3-7-5/h1-4H
INCHIAUX=N/A
PUBMED=7362.0
SUBMITUSER=mpanitchpakdi
LIBRARYQUALITY=1
SPECTRUMID=CCMSLIB00006674365
USI=mzspec:GNPS:GNPS-NUTRI-METAB-FEM-POS:accession:CCMSLIB00006674365
SCANS=371
51.996807	3915.675293
53.675758	5421.578613
53.678692	4868.429688
53.687046	8348.262695
53.689968	11815.047852
53.693302	9741.948242
53.695892	9563.105469
53.698368	20675.828125
53.701405	19931.808594
53.704605	25465.677734
53.707344	8242.223633
53.709652	24749.183594
53.712013	17152.580078
53.715683	36317.117188
53.721058	28480.277344
53.724911	25637.847656
53.727123	20101.916016
53.729424	11685.881836
53.731598	16786.242188
53.734894	20926.914062
53.738537	28158.896484
53.741833	19553.550781
53.746956	14790.426758
53.750671	16867.138672
53.75256	15523.886719
53.758389	20269.720703
53.761848	11617.836914
53.76413	8979.495117
53.76749	15101.254883
53.771011	9181.462891
53.773422	9719.833008
53.776947	11760.102539
53.778942	18638.869141
53.782852	5808.03418
53.784935	6086.161133
53.790474	17253.734375
53.794117	8137.440918
53.796513	6029.983398
53.801895	14239.407227
53.811047	6781.169922
53.813442	6510.45166
53.825306	6051.717285
53.836559	3847.4375
58.231853	3925.030518
63.336102	3254.903809
66.248642	4020.443604
66.744392	4081.380615
66.808876	4508.924805
68.91053	3911.065918
68.965599	7249.019531
68.970467	8074.5625
68.974991	13292.295898
68.978584	8446.610352
68.982338	11207.527344
68.987	12149.165039
68.993362	17057.052734
68.999405	14018.313477
69.004082	7975.071289
69.007477	17954.884766
69.011124	11381.652344
69.014603	12960.322266
69.019958	8025.032227
69.025124	16379.958984
69.033081	200460.8125
69.03698	12305.270508
69.041344	9931.441406
69.053658	12756.560547
69.058456	7224.141113
69.063507	7134.106934
69.066612	7126.673828
69.071022	9831.831055
69.075668	5383.753418
69.079887	10088.09668
69.082947	8945.553711
69.087982	6228.96875
69.096397	6964.044434
69.104408	5654.416016
69.113815	3929.919189
69.11573	4162.629883
69.133629	4274.466797
71.356232	3725.005859
76.055382	4042.811279
85.319794	4660.709473
85.333321	12054.851562
85.347511	5153.775879
85.835762	4725.132324
88.51107	3634.453125
91.82164	4261.847168
91.826591	5093.652344
91.839409	8810.90332
91.841537	8034.918945
91.850212	16099.84082
91.865021	9294.080078
91.869858	6284.546387
91.875801	13987.088867
91.881248	6197.878418
91.894226	10500.436523
91.89756	11065.700195
91.916084	6782.675293
91.921227	8246.979492
91.93161	5102.172852
91.942581	9596.205078
91.968719	8366.436523
91.97776	5652.22168
91.981529	5953.474121
91.993965	4548.054199
92.002953	4085.092529
92.005829	4010.721436
98.645447	3757.904541
99.65062	5031.198242
102.042374	4330.568848
END IONS

BEGIN IONS
PEPMASS=275.036
CHARGE=1
MSLEVEL=2
SOURCE_INSTRUMENT=LC-ESI-qTof
FILENAME=sciex_positive.mgf
SEQ=*..*
IONMODE=Positive
ORGANISM=GNPS-SCIEX-LIBRARY
NAME=disulfoton [M+H]+
PI=Michael Witting
DATACOLLECTOR=Michael Witting
SMILES=CCOP(=S)(OCC)SCCSCC
INCHI="InChI=1S/C8H19O2PS3/c1-4-9-11(12,10-5-2)14-8-7-13-6-3/h4-8H2,1-3H3"
INCHIAUX=DOFZAZXDOSGAJZ-UHFFFAOYSA-N
PUBMED=N/A
SUBMITUSER=mpanitchpakdi
LIBRARYQUALITY=1
SPECTRUMID=CCMSLIB00006581668
USI=mzspec:GNPS:GNPS-SCIEX-LIBRARY:accession:CCMSLIB00006581668
SCANS=44
65.038498	80.0
93.032997	199.0
95.038696	40.0
111.006401	80.0
121.029099	654.0
121.0429	122.0
122.029701	80.0
123.033897	120.0
137.0056	40.0
138.008408	40.0
139.001297	239.0
139.013596	40.0
156.967896	80.0
166.989197	40.0
171.024796	40.0
188.000504	40.0
188.994598	40.0
200.958298	239.0
231.991501	41.0
232.945206	41.0
232.983902	413.0
END IONS

BEGIN IONS
PEPMASS=318.013
CHARGE=1
MSLEVEL=2
SOURCE_INSTRUMENT=LC-ESI-qTof
FILENAME=sciex_positive.mgf
SEQ=*..*
IONMODE=Positive
ORGANISM=GNPS-SCIEX-LIBRARY
NAME=azinphos-methyl [M+H]+
PI=Michael Witting
DATACOLLECTOR=Michael Witting
SMILES=COP(=S)(OC)SCn1c(=O)c2ccccc2nn1
INCHI="InChI=1S/C10H12N3O3PS2/c1-15-17(18,16-2)19-7-13-10(14)8-5-3-4-6-9(8)11-12-13/h3-6H,7H2,1-2H3"
INCHIAUX=CJJOSEISRRTUQB-UHFFFAOYSA-N
PUBMED=N/A
SUBMITUSER=mpanitchpakdi
LIBRARYQUALITY=1
SPECTRUMID=CCMSLIB00006581673
USI=mzspec:GNPS:GNPS-SCIEX-LIBRARY:accession:CCMSLIB00006581673
SCANS=49
51.0228	199.0
77.038597	2304.0
77.045898	187.0
78.994202	205.0
102.033997	247.0
104.049301	954.0
105.033302	817.0
124.982002	1766.0
132.044693	2011.0
167.0168	319.0
END IONS

BEGIN IONS
PEPMASS=291.072
CHARGE=1
MSLEVEL=2
SOURCE_INSTRUMENT=LC-ESI-qTof
FILENAME=sciex_positive.mgf
SEQ=*..*
IONMODE=Positive
ORGANISM=GNPS-SCIEX-LIBRARY
NAME=isoprothiolane [M+H]+
PI=Michael Witting
DATACOLLECTOR=Michael Witting
SMILES=CC(C)OC(=O)C(=C1SCCS1)C(=O)OC(C)C
INCHI="InChI=1S/C12H18O4S2/c1-7(2)15-10(13)9(11(14)16-8(3)4)12-17-5-6-18-12/h7-8H,5-6H2,1-4H3"
INCHIAUX=UFHLMYOGRXOCSL-UHFFFAOYSA-N
PUBMED=N/A
SUBMITUSER=mpanitchpakdi
LIBRARYQUALITY=1
SPECTRUMID=CCMSLIB00006581675
USI=mzspec:GNPS:GNPS-SCIEX-LIBRARY:accession:CCMSLIB00006581675
SCANS=51
84.974297	2657.0
144.977798	13748.0
172.9729	4949.0
188.967194	43068.0
231.014603	6020.0
END IONS

BEGIN IONS
PEPMASS=216.142
CHARGE=1
MSLEVEL=2
SOURCE_INSTRUMENT=LC-ESI-qTof
FILENAME=sciex_positive.mgf
SEQ=*..*
IONMODE=Positive
ORGANISM=GNPS-SCIEX-LIBRARY
NAME=Cycloate [M+H]+
PI=Michael Witting
DATACOLLECTOR=Michael Witting
SMILES=CCN(C1CCCCC1)C(=O)SCC
INCHI="InChI=1S/C11H21NOS/c1-3-12(11(13)14-4-2)10-8-6-5-7-9-10/h10H,3-9H2,1-2H3"
INCHIAUX=DFCAFRGABIXSDS-UHFFFAOYSA-N
PUBMED=N/A
SUBMITUSER=mpanitchpakdi
LIBRARYQUALITY=1
SPECTRUMID=CCMSLIB00006581679
USI=mzspec:GNPS:GNPS-SCIEX-LIBRARY:accession:CCMSLIB00006581679
SCANS=55
55.054199	5341.0
63.026299	2731.0
72.044502	1769.0
83.085403	4384.0
134.063095	1617.0
154.122894	926.0
216.141602	1011.0
END IONS

BEGIN IONS
PEPMASS=358.977
CHARGE=1
MSLEVEL=2
SOURCE_INSTRUMENT=LC-ESI-qTof
FILENAME=sciex_positive.mgf
SEQ=*..*
IONMODE=Positive
ORGANISM=GNPS-SCIEX-LIBRARY
NAME=(Z)-chlorfenvinfos [M+H]+
PI=Michael Witting
DATACOLLECTOR=Michael Witting
SMILES=CCOP(=O)(OCC)O/C(=C\Cl)/c1ccc(cc1Cl)Cl
INCHI="InChI=1S/C12H14Cl3O4P/c1-3-17-20(16,18-4-2)19-12(8-13)10-6-5-9(14)7-11(10)15/h5-8H,3-4H2,1-2H3/b12-8-"
INCHIAUX=FSAVDKDHPDSCTO-WQLSENKSSA-N
PUBMED=N/A
SUBMITUSER=mpanitchpakdi
LIBRARYQUALITY=1
SPECTRUMID=CCMSLIB00006581688
USI=mzspec:GNPS:GNPS-SCIEX-LIBRARY:accession:CCMSLIB00006581688
SCANS=64
169.971802	80.0
194.127396	40.0
204.940399	40.0
208.150406	40.0
210.160095	40.0
237.207794	80.0
272.109192	40.0
317.165192	239.0
359.177612	120.0
END IONS

BEGIN IONS
PEPMASS=321.902
CHARGE=1
MSLEVEL=2
SOURCE_INSTRUMENT=LC-ESI-qTof
FILENAME=sciex_positive.mgf
SEQ=*..*
IONMODE=Positive
ORGANISM=GNPS-SCIEX-LIBRARY
NAME=chlorpyrifos-methyl [M+H]+
PI=Michael Witting
DATACOLLECTOR=Michael Witting
SMILES=COP(=S)(OC)Oc1c(cc(c(n1)Cl)Cl)Cl
INCHI="InChI=1S/C7H7Cl3NO3PS/c1-12-15(16,13-2)14-7-5(9)3-4(8)6(10)11-7/h3H,1-2H3"
INCHIAUX=HRBKVYFZANMGRE-UHFFFAOYSA-N
PUBMED=N/A
SUBMITUSER=mpanitchpakdi
LIBRARYQUALITY=1
SPECTRUMID=CCMSLIB00006581689
USI=mzspec:GNPS:GNPS-SCIEX-LIBRARY:accession:CCMSLIB00006581689
SCANS=65
78.9944	350.0
109.005203	219.0
124.982101	2428.0
211.889206	219.0
289.876801	794.0
321.903198	179.0
END IONS

BEGIN IONS
PEPMASS=363.022
CHARGE=1
MSLEVEL=2
SOURCE_INSTRUMENT=LC-ESI-qTof
FILENAME=sciex_positive.mgf
SEQ=*..*
IONMODE=Positive
ORGANISM=GNPS-SCIEX-LIBRARY
NAME=coumaphos [M+H]+
PI=Michael Witting
DATACOLLECTOR=Michael Witting
SMILES=CCOP(=S)(OCC)Oc1ccc2c(c(c(=O)oc2c1)Cl)C
INCHI="InChI=1S/C14H16ClO5PS/c1-4-17-21(22,18-5-2)20-10-6-7-11-9(3)13(15)14(16)19-12(11)8-10/h6-8H,4-5H2,1-3H3"
INCHIAUX=BXNANOICGRISHX-UHFFFAOYSA-N
PUBMED=N/A
SUBMITUSER=mpanitchpakdi
LIBRARYQUALITY=1
SPECTRUMID=CCMSLIB00006581690
USI=mzspec:GNPS:GNPS-SCIEX-LIBRARY:accession:CCMSLIB00006581690
SCANS=66
211.016296	1913.0
225.985596	885.0
226.993301	14619.0
288.949585	3294.0
306.959198	3177.0
334.991486	1896.0
363.021393	2337.0
END IONS

BEGIN IONS
PEPMASS=349.934
CHARGE=1
MSLEVEL=2
SOURCE_INSTRUMENT=LC-ESI-qTof
FILENAME=sciex_positive.mgf
SEQ=*..*
IONMODE=Positive
ORGANISM=GNPS-SCIEX-LIBRARY
NAME=chlorpyrifos [M+H]+
PI=Michael Witting
DATACOLLECTOR=Michael Witting
SMILES=CCOP(=S)(OCC)Oc1c(cc(c(n1)Cl)Cl)Cl
INCHI="InChI=1S/C9H11Cl3NO3PS/c1-3-14-17(18,15-4-2)16-9-7(11)5-6(10)8(12)13-9/h5H,3-4H2,1-2H3"
INCHIAUX=SBPBAQFWLVIOKP-UHFFFAOYSA-N
PUBMED=N/A
SUBMITUSER=mpanitchpakdi
LIBRARYQUALITY=1
SPECTRUMID=CCMSLIB00006581694
USI=mzspec:GNPS:GNPS-SCIEX-LIBRARY:accession:CCMSLIB00006581694
SCANS=70
96.950897	2602.0
124.982399	911.0
133.956406	319.0
161.951202	339.0
197.928101	5281.0
213.904495	628.0
275.860901	319.0
293.870514	658.0
END IONS

BEGIN IONS
PEPMASS=384.995
CHARGE=1
MSLEVEL=2
SOURCE_INSTRUMENT=LC-ESI-qTof
FILENAME=sciex_positive.mgf
SEQ=*..*
IONMODE=Positive
ORGANISM=GNPS-SCIEX-LIBRARY
NAME=ethion [M+H]+
PI=Michael Witting
DATACOLLECTOR=Michael Witting
SMILES=CCOP(=S)(OCC)SCSP(=S)(OCC)OCC
INCHI="InChI=1S/C9H22O4P2S4/c1-5-10-14(16,11-6-2)18-9-19-15(17,12-7-3)13-8-4/h5-9H2,1-4H3"
INCHIAUX=RIZMRRKBZQXFOY-UHFFFAOYSA-N
PUBMED=N/A
SUBMITUSER=mpanitchpakdi
LIBRARYQUALITY=1
SPECTRUMID=CCMSLIB00006581696
USI=mzspec:GNPS:GNPS-SCIEX-LIBRARY:accession:CCMSLIB00006581696
SCANS=72
96.950798	3583.0
124.982399	2628.0
142.938705	15043.0
153.013504	2305.0
170.970093	4022.0
199.001007	1778.0
END IONS

BEGIN IONS
PEPMASS=330.059
CHARGE=1
MSLEVEL=2
SOURCE_INSTRUMENT=LC-ESI-qTof
FILENAME=sciex_positive.mgf
SEQ=*..*
IONMODE=Positive
ORGANISM=GNPS-SCIEX-LIBRARY
NAME=mecarbam [M+H]+
PI=Michael Witting
DATACOLLECTOR=Michael Witting
SMILES=CCOC(=O)N(C)C(=O)CSP(=S)(OCC)OCC
INCHI="InChI=1S/C10H20NO5PS2/c1-5-14-10(13)11(4)9(12)8-19-17(18,15-6-2)16-7-3/h5-8H2,1-4H3"
INCHIAUX=KLGMSAOQDHLCOS-UHFFFAOYSA-N
PUBMED=N/A
SUBMITUSER=mpanitchpakdi
LIBRARYQUALITY=1
SPECTRUMID=CCMSLIB00006581720
USI=mzspec:GNPS:GNPS-SCIEX-LIBRARY:accession:CCMSLIB00006581720
SCANS=96
58.028702	1218.0
96.9506	7514.0
116.034401	6575.0
124.9823	4643.0
128.923203	4249.0
132.011398	1019.0
142.938797	15731.0
153.013596	3557.0
156.954498	1871.0
170.933899	2887.0
170.970093	4033.0
184.985992	2393.0
198.965698	2028.0
199.001404	1534.0
226.996796	2153.0
END IONS

BEGIN IONS
PEPMASS=302.969
CHARGE=1
MSLEVEL=2
SOURCE_INSTRUMENT=LC-ESI-qTof
FILENAME=sciex_positive.mgf
SEQ=*..*
IONMODE=Positive
ORGANISM=GNPS-SCIEX-LIBRARY
NAME=methidathion [M+H]+
PI=Michael Witting
DATACOLLECTOR=Michael Witting
SMILES=COc1nn(c(=O)s1)CSP(=S)(OC)OC
INCHI="InChI=1S/C6H11N2O4PS3/c1-10-5-7-8(6(9)16-5)4-15-13(14,11-2)12-3/h4H2,1-3H3"
INCHIAUX=MEBQXILRKZHVCX-UHFFFAOYSA-N
PUBMED=N/A
SUBMITUSER=mpanitchpakdi
LIBRARYQUALITY=1
SPECTRUMID=CCMSLIB00006581724
USI=mzspec:GNPS:GNPS-SCIEX-LIBRARY:accession:CCMSLIB00006581724
SCANS=100
58.028702	874.0
85.039703	3770.0
145.006897	1009.0
END IONS

BEGIN IONS
PEPMASS=321.038
CHARGE=1
MSLEVEL=2
SOURCE_INSTRUMENT=LC-ESI-qTof
FILENAME=sciex_positive.mgf
SEQ=*..*
IONMODE=Positive
ORGANISM=GNPS-SCIEX-LIBRARY
NAME=phenthoate [M+H]+
PI=Michael Witting
DATACOLLECTOR=Michael Witting
SMILES=CCOC(=O)C(c1ccccc1)SP(=S)(OC)OC
INCHI="InChI=1S/C12H17O4PS2/c1-4-16-12(13)11(10-8-6-5-7-9-10)19-17(18,14-2)15-3/h5-9,11H,4H2,1-3H3"
INCHIAUX=XAMUDJHXFNRLCY-UHFFFAOYSA-N
PUBMED=N/A
SUBMITUSER=mpanitchpakdi
LIBRARYQUALITY=1
SPECTRUMID=CCMSLIB00006581730
USI=mzspec:GNPS:GNPS-SCIEX-LIBRARY:accession:CCMSLIB00006581730
SCANS=106
77.038002	362.0
79.054199	1948.0
91.054001	3215.0
107.049202	2528.0
124.982101	4446.0
135.044098	3339.0
135.080093	1061.0
151.021698	441.0
163.075195	1383.0
247.001099	924.0
END IONS

BEGIN IONS
PEPMASS=306.104
CHARGE=1
MSLEVEL=2
SOURCE_INSTRUMENT=LC-ESI-qTof
FILENAME=sciex_positive.mgf
SEQ=*..*
IONMODE=Positive
ORGANISM=GNPS-SCIEX-LIBRARY
NAME=pirimiphos-methyl [M+H]+
PI=Michael Witting
DATACOLLECTOR=Michael Witting
SMILES=CCN(CC)c1nc(cc(n1)OP(=S)(OC)OC)C
INCHI="InChI=1S/C11H20N3O3PS/c1-6-14(7-2)11-12-9(3)8-10(13-11)17-18(19,15-4)16-5/h8H,6-7H2,1-5H3"
INCHIAUX=QHOQHJPRIBSPCY-UHFFFAOYSA-N
PUBMED=N/A
SUBMITUSER=mpanitchpakdi
LIBRARYQUALITY=1
SPECTRUMID=CCMSLIB00006581735
USI=mzspec:GNPS:GNPS-SCIEX-LIBRARY:accession:CCMSLIB00006581735
SCANS=111
67.029198	7312.0
78.994598	1270.0
95.060699	5046.0
108.055702	13684.0
109.076202	1926.0
123.092102	1435.0
124.982498	5681.0
136.087296	8526.0
151.026901	1790.0
164.118393	24032.0
168.113297	1204.0
179.058502	1767.0
196.145004	1241.0
207.089996	2479.0
246.046494	2256.0
274.078491	2469.0
278.072998	5008.0
306.103699	15793.0
END IONS

BEGIN IONS
PEPMASS=299.061
CHARGE=1
MSLEVEL=2
SOURCE_INSTRUMENT=LC-ESI-qTof
FILENAME=sciex_positive.mgf
SEQ=*..*
IONMODE=Positive
ORGANISM=GNPS-SCIEX-LIBRARY
NAME=quinalphos [M+H]+
PI=Michael Witting
DATACOLLECTOR=Michael Witting
SMILES=CCOP(=S)(OCC)Oc1cnc2ccccc2n1
INCHI="InChI=1S/C12H15N2O3PS/c1-3-15-18(19,16-4-2)17-12-9-13-10-7-5-6-8-11(10)14-12/h5-9H,3-4H2,1-2H3"
INCHIAUX=JYQUHIFYBATCCY-UHFFFAOYSA-N
PUBMED=N/A
SUBMITUSER=mpanitchpakdi
LIBRARYQUALITY=1
SPECTRUMID=CCMSLIB00006581739
USI=mzspec:GNPS:GNPS-SCIEX-LIBRARY:accession:CCMSLIB00006581739
SCANS=115
96.950699	7714.0
119.0606	7330.0
129.044998	3616.0
147.055206	40788.0
163.032303	33437.0
224.988693	4602.0
242.9991	3748.0
299.06189	2593.0
END IONS

BEGIN IONS
PEPMASS=346.985
CHARGE=1
MSLEVEL=2
SOURCE_INSTRUMENT=LC-ESI-qTof
FILENAME=sciex_positive.mgf
SEQ=*..*
IONMODE=Positive
ORGANISM=GNPS-SCIEX-LIBRARY
NAME=tolylfluanid [M+H]+
PI=Michael Witting
DATACOLLECTOR=Michael Witting
SMILES=Cc1ccc(cc1)N(SC(F)(Cl)Cl)S(=O)(=O)N(C)C
INCHI="InChI=1S/C10H13Cl2FN2O2S2/c1-8-4-6-9(7-5-8)15(18-10(11,12)13)19(16,17)14(2)3/h4-7H,1-3H3"
INCHIAUX=HYVWIQDYBVKITD-UHFFFAOYSA-N
PUBMED=N/A
SUBMITUSER=mpanitchpakdi
LIBRARYQUALITY=1
SPECTRUMID=CCMSLIB00006581746
USI=mzspec:GNPS:GNPS-SCIEX-LIBRARY:accession:CCMSLIB00006581746
SCANS=122
137.029495	3338.0
237.9646	617.0
END IONS

BEGIN IONS
PEPMASS=367.994
CHARGE=1
MSLEVEL=2
SOURCE_INSTRUMENT=LC-ESI-qTof
FILENAME=sciex_positive.mgf
SEQ=*..*
IONMODE=Positive
ORGANISM=GNPS-SCIEX-LIBRARY
NAME=phosalone [M+H]+
PI=Michael Witting
DATACOLLECTOR=Michael Witting
SMILES=CCOP(=S)(OCC)SCn1c2ccc(cc2oc1=O)Cl
INCHI="InChI=1S/C12H15ClNO4PS2/c1-3-16-19(20,17-4-2)21-8-14-10-6-5-9(13)7-11(10)18-12(14)15/h5-7H,3-4,8H2,1-2H3"
INCHIAUX=IOUNQDKNJZEDEP-UHFFFAOYSA-N
PUBMED=N/A
SUBMITUSER=mpanitchpakdi
LIBRARYQUALITY=1
SPECTRUMID=CCMSLIB00006581750
USI=mzspec:GNPS:GNPS-SCIEX-LIBRARY:accession:CCMSLIB00006581750
SCANS=126
96.951202	567.0
102.033997	335.0
110.999702	1368.0
124.982399	323.0
138.010498	1405.0
182.000397	5502.0
END IONS

BEGIN IONS
PEPMASS=222.043
CHARGE=1
MSLEVEL=2
SOURCE_INSTRUMENT=LC-ESI-qTof
FILENAME=sciex_positive.mgf
SEQ=*..*
IONMODE=Positive
ORGANISM=GNPS-SCIEX-LIBRARY
NAME=chloridazon [M+H]+
PI=Michael Witting
DATACOLLECTOR=Michael Witting
SMILES=c1ccc(cc1)n2c(=O)c(c(cn2)N)Cl
INCHI="InChI=1S/C10H8ClN3O/c11-9-8(12)6-13-14(10(9)15)7-4-2-1-3-5-7/h1-6H,12H2"
INCHIAUX=WYKYKTKDBLFHCY-UHFFFAOYSA-N
PUBMED=N/A
SUBMITUSER=mpanitchpakdi
LIBRARYQUALITY=1
SPECTRUMID=CCMSLIB00006581757
USI=mzspec:GNPS:GNPS-SCIEX-LIBRARY:accession:CCMSLIB00006581757
SCANS=133
65.038597	1184.0
77.038399	1921.0
92.0494	1631.0
94.065201	482.0
104.049202	2171.0
128.985199	766.0
146.011597	977.0
193.0289	468.0
222.042801	7639.0
END IONS

BEGIN IONS
PEPMASS=301.118
CHARGE=1
MSLEVEL=2
SOURCE_INSTRUMENT=LC-ESI-qTof
FILENAME=sciex_positive.mgf
SEQ=*..*
IONMODE=Positive
ORGANISM=GNPS-SCIEX-LIBRARY
NAME=phenmedipham [M+H]+
PI=Michael Witting
DATACOLLECTOR=Michael Witting
SMILES=Cc1cccc(c1)NC(=O)Oc2cccc(c2)NC(=O)OC
INCHI="InChI=1S/C16H16N2O4/c1-11-5-3-6-12(9-11)18-16(20)22-14-8-4-7-13(10-14)17-15(19)21-2/h3-10H,1-2H3,(H,17,19)(H,18,20)"
INCHIAUX=IDOWTHOLJBTAFI-UHFFFAOYSA-N
PUBMED=N/A
SUBMITUSER=mpanitchpakdi
LIBRARYQUALITY=1
SPECTRUMID=CCMSLIB00006581781
USI=mzspec:GNPS:GNPS-SCIEX-LIBRARY:accession:CCMSLIB00006581781
SCANS=157
93.033699	1050.0
108.044403	2066.0
136.039505	15166.0
168.065598	1765.0
END IONS

BEGIN IONS
PEPMASS=299.061
CHARGE=1
MSLEVEL=2
SOURCE_INSTRUMENT=LC-ESI-qTof
FILENAME=sciex_positive.mgf
SEQ=*..*
IONMODE=Positive
ORGANISM=GNPS-SCIEX-LIBRARY
NAME=phoxim [M+H]+
PI=Michael Witting
DATACOLLECTOR=Michael Witting
SMILES=CCOP(=S)(OCC)O/N=C(\C#N)/C1=CC=CC=C1
INCHI="InChI=1S/C12H15N2O3PS/c1-3-15-18(19,16-4-2)17-14-12(10-13)11-8-6-5-7-9-11/h5-9H,3-4H2,1-2H3/b14-12+"
INCHIAUX=ATROHALUCMTWTB-WYMLVPIESA-N
PUBMED=N/A
SUBMITUSER=mpanitchpakdi
LIBRARYQUALITY=1
SPECTRUMID=CCMSLIB00006581783
USI=mzspec:GNPS:GNPS-SCIEX-LIBRARY:accession:CCMSLIB00006581783
SCANS=159
77.038597	4922.0
96.950699	3405.0
124.981697	361.0
129.044693	1456.0
299.182587	279.0
END IONS

BEGIN IONS
PEPMASS=355.056
CHARGE=1
MSLEVEL=2
SOURCE_INSTRUMENT=LC-ESI-qTof
FILENAME=sciex_positive.mgf
SEQ=*..*
IONMODE=Positive
ORGANISM=GNPS-SCIEX-LIBRARY
NAME=thiodicarb [M+H]+
PI=Michael Witting
DATACOLLECTOR=Michael Witting
SMILES=C/C(=N\OC(=O)N(SN(C(=O)O/N=C(/SC)\C)C)C)/SC
INCHI="InChI=1S/C10H18N4O4S3/c1-7(19-5)11-17-9(15)13(3)21-14(4)10(16)18-12-8(2)20-6/h1-6H3/b11-7+,12-8+"
INCHIAUX=XDOTVMNBCQVZKG-MKICQXMISA-N
PUBMED=N/A
SUBMITUSER=mpanitchpakdi
LIBRARYQUALITY=1
SPECTRUMID=CCMSLIB00006581823
USI=mzspec:GNPS:GNPS-SCIEX-LIBRARY:accession:CCMSLIB00006581823
SCANS=199
61.011002	327.0
62.005798	383.0
72.997597	374.0
78.9673	855.0
88.021599	6522.0
107.993698	2047.0
END IONS

BEGIN IONS
PEPMASS=226.09
CHARGE=1
MSLEVEL=2
SOURCE_INSTRUMENT=LC-ESI-qTof
FILENAME=sciex_positive.mgf
SEQ=*..*
IONMODE=Positive
ORGANISM=GNPS-SCIEX-LIBRARY
NAME=methiocarb [M+H]+
PI=Michael Witting
DATACOLLECTOR=Michael Witting
SMILES=Cc1cc(cc(c1SC)C)OC(=O)NC
INCHI="InChI=1S/C11H15NO2S/c1-7-5-9(14-11(13)12-3)6-8(2)10(7)15-4/h5-6H,1-4H3,(H,12,13)"
INCHIAUX=YFBPRJGDJKVWAH-UHFFFAOYSA-N
PUBMED=N/A
SUBMITUSER=mpanitchpakdi
LIBRARYQUALITY=1
SPECTRUMID=CCMSLIB00006581859
USI=mzspec:GNPS:GNPS-SCIEX-LIBRARY:accession:CCMSLIB00006581859
SCANS=235
77.038498	2783.0
91.054497	2477.0
93.070198	2285.0
107.049202	1989.0
121.064903	9944.0
122.0728	4254.0
169.068695	2776.0
END IONS

BEGIN IONS
PEPMASS=492.224
CHARGE=1
MSLEVEL=2
SOURCE_INSTRUMENT=LC-ESI-Orbitrap
FILENAME=tharwood/spectral_libraries/BERKELEY-LAB.mgf
SEQ=*..*
IONMODE=Negative
ORGANISM=BERKELEY-LAB
NAME=BSPBio_001473 CollisionEnergy:102040 M-H
PI=Trent Northen
DATACOLLECTOR=JGI
SMILES=CC1CCC2(O)C3(C)CC4(O)OC2(C1O)C1(O)C3(O)C(OC(=O)c2ccc[nH]2)C(O)(C(C)C)C41C
INCHI="InChI=1S/C25H35NO9/c1-12(2)22(31)17(34-16(28)14-7-6-10-26-14)23(32)18(4)11-21(30)19(22,5)25(23,33)24(35-21)15(27)13(3)8-9-20(18,24)29/h6-7,10,12-13,15,17,26-27,29-33H,8-9,11H2,1-5H3/t13-,15+,17+,18-,19+,20-,21-,22-,23+,24+,25+/m0/s1"
INCHIAUX=N/A
PUBMED=N/A
SUBMITUSER=mwang87
LIBRARYQUALITY=3
SPECTRUMID=CCMSLIB00010111678
USI=mzspec:GNPS:BERKELEY-LAB:accession:CCMSLIB00010111678
SCANS=9244
57.505539	3280.0
59.013321	8538.0
66.034531	1093944.0
66.87059	3782.0
73.029297	5240.0
73.327698	3281.0
81.022301	3635.0
82.404373	3578.0
85.065643	4998.0
87.008713	6680.0
87.044746	13944.0
99.081413	5172.0
110.024834	5271922.0
111.045021	21985.0
113.060722	5125.0
118.660156	5015.0
125.060829	27250.0
129.055557	8433.0
134.922516	3679.0
135.734772	3686.0
136.076431	4845.0
151.040115	20602.0
151.076294	23787.0
153.056046	5370.0
153.091995	14057.0
157.051041	8432.0
163.112961	18999.0
165.127914	5033.0
167.107803	6318.0
171.066513	4982.0
173.06102	7378.0
175.076767	6151.0
191.107681	4493.0
193.122787	8501.0
207.662125	25375.0
208.937012	4561.0
209.08139	5485.0
209.118744	4459.0
215.1073	4195.0
219.101471	12827.0
221.081131	6387.0
237.112793	27982.0
239.092239	6285.0
273.188141	4758.0
275.130493	4976.0
281.103485	4736.0
283.168945	5541.0
327.161682	15888.0
345.171478	27190.0
363.182739	23148.0
381.192017	2847103.0
474.211823	41631.0
492.224243	4406649.0
END IONS

BEGIN IONS
PEPMASS=272.4
CHARGE=1
MSLEVEL=2
SOURCE_INSTRUMENT=LC-ESI-qToF
FILENAME=2-methyl_AP-237.mgf
SEQ=*..*
IONMODE=Positive
ORGANISM=DRUGS-OF-ABUSE-LIBRARY
NAME=bucinnazine M+H
PI=Barkholtz
DATACOLLECTOR=Pieters
SMILES=CCCC(=O)N1CCN(CC1)CC=CC2=CC=CC=C2
INCHI="1S/C17H24N2O/c1-2-7-17(20)19-14-12-18(13-15-19)11-6-10-16-8-4-3-5-9-16/h3-6,8-10H,2,7,11-15H2,1H3/b10-6+"
INCHIAUX=N/A
PUBMED=6005081
SUBMITUSER=Jzemlin
LIBRARYQUALITY=2
SPECTRUMID=CCMSLIB00009919382
USI=mzspec:GNPS:DRUGS-OF-ABUSE-LIBRARY:accession:CCMSLIB00009919382
SCANS=1
62.0159	11431.5
63.022598	32390.349609
65.0383	169425.5
77.0383	25675.580078
86.015297	13564.709961
87.022202	17643.019531
89.038498	762469.125
91.0541	4017541.0
91.093697	45908.5
99.0914	106143.34375
101.106499	10196.969727
102.046204	15968.509766
107.050003	20784.140625
107.050201	14010.299805
114.046097	40565.359375
114.090797	8042.240234
114.090897	24295.320312
114.091599	87121.101562
115.054001	15375476.0
115.099403	208657.140625
115.163902	285253.28125
115.246002	12730.150391
117.069702	27858640.0
117.120598	450099.46875
117.180298	806940.4375
117.210602	15860.269531
117.2295	166897.796875
117.263702	253447.8125
117.3274	58414.140625
117.810402	15268.519531
118.119003	20188.570312
119.076599	91903.828125
135.042801	14689.980469
135.043793	28348.470703
135.044006	7917.430176
157.049194	20939.759766
157.0513	14788.820312
169.133499	187328.6875
171.148895	16666.869141
175.132797	10551.330078
175.132904	5391.459961
201.044907	116190.65625
209.165894	19633.220703
228.159195	18699.759766
280.094208	14342.709961
280.097198	10037.589844
287.211792	842283.75
289.216614	8980.580078
293.054413	5116.970215
293.063995	11954.330078
293.221008	94509.59375
309.193512	494260.75
322.246002	11013.55957
341.231689	5783.740234
435.340515	3507.040039
444.339294	31981.029297
453.342102	111448.078125
454.341888	14817.769531
476.349792	12769.879883
476.863586	5104.700195
565.443481	2565.25
566.428284	9365.769531
579.43103	8089.390137
631.982117	18104.070312
END IONS

BEGIN IONS
PEPMASS=163.076
CHARGE=-1
MSLEVEL=2
SOURCE_INSTRUMENT=ESI-Orbitrap
FILENAME=kellogglab/MS Standards/Botanical Standards/20230308_Kellogg_Flow_Injections_KMD19_Neg.mzML
SEQ=*..*
IONMODE=Negative
ORGANISM=LEAFBOT
NAME=Eugenol M-H
PI=Kellogg
DATACOLLECTOR=Josh Kellogg
SMILES=COC1=C(C=CC(=C1)CC=C)O
INCHI=RRAFCDWBNXTKKO-UHFFFAOYSA-N
INCHIAUX=N/A
PUBMED=
SUBMITUSER=jzemlin
LIBRARYQUALITY=1
SPECTRUMID=CCMSLIB00011428705
USI=mzspec:GNPS:LEAFBOT:accession:CCMSLIB00011428705
SCANS=113
40.623737	422.52951
44.998093	1399.826538
49.574974	395.876984
59.013859	496.709686
70.205978	417.217896
76.970253	508.348511
80.422791	481.638
83.101173	433.615204
93.697823	418.835236
94.980721	1256.417847
108.738373	402.662079
118.030029	474.286896
118.992439	1864.210815
119.050392	841.726257
120.058861	645.991272
121.029617	7862.043457
122.037239	658.038086
136.040421	1000.993286
145.890686	12857.839844
147.045166	12891.374023
148.052963	197370.984375
149.056412	12006.674805
152.732986	489.760956
162.893448	86269.6875
163.038193	458.731567
163.076385	597.545715
END IONS

BEGIN IONS
PEPMASS=241.13
CHARGE=1
MSLEVEL=2
SOURCE_INSTRUMENT=ESI-Orbitrap
FILENAME=Pool5_20230523020517.mzML
SEQ=*..*
IONMODE=Positive
ORGANISM=TUEBINGEN-NATURAL-PRODUCT-COLLECTION
NAME=Dimetilan M+H
PI=Daniel Petras
DATACOLLECTOR="Christian Geibel, Giovanni Andrea Vitale"
SMILES=CC1=CC(=NN1C(=O)N(C)C)OC(=O)N(C)C
INCHI=N/A
INCHIAUX=N/A
PUBMED=N/A
SUBMITUSER=jzemlin
LIBRARYQUALITY=1
SPECTRUMID=CCMSLIB00011906141
USI=mzspec:GNPS:TUEBINGEN-NATURAL-PRODUCT-COLLECTION:accession:CCMSLIB00011906141
SCANS=1837
56.01376	1109797.125
59.983753	220889.21875
72.006874	285165.0625
72.012016	513935.75
72.029922	821637.875
72.035324	4194281.25
72.03743	1660914.25
72.044952	483705088.0
72.052399	3792409.25
72.054184	2803445.5
72.057297	2617650.25
72.062347	445381.46875
72.080139	332724.6875
72.084969	258369.671875
82.871864	249037.859375
84.170349	254642.96875
90.055138	305008.59375
100.112389	257373.546875
101.204926	243965.53125
117.768166	224701.5
125.869797	244781.546875
180.164368	276509.21875
196.050644	433856.09375
196.055008	250969.453125
196.071579	12695706.0
196.092545	468441.8125
214.082962	884970.9375
218.071381	240443.328125
241.129364	2008924.375
END IONS

BEGIN IONS
PEPMASS=283.142
CHARGE=1
MSLEVEL=2
SOURCE_INSTRUMENT=LC-ESI-qTof
FILENAME=DMIM_centroided_library_abundance_filtered.mgf
SEQ=*..*
IONMODE=Positive
ORGANISM=DMIM-DRUG-METABOLITE-LIBRARY
NAME=FENSPIRIDE [M+Na]+
PI=Libin Xu
DATACOLLECTOR=Dylan H. Ross
SMILES=C1CN(CCC12CNC(=O)O2)CCC3=CC=CC=C3
INCHI=N/A
INCHIAUX=N/A
PUBMED=N/A
SUBMITUSER=jzemlin
LIBRARYQUALITY=3
SPECTRUMID=CCMSLIB00012465050
USI=mzspec:GNPS:DMIM-DRUG-METABOLITE-LIBRARY:accession:CCMSLIB00012465050
SCANS=28
55.039341	3189.0
56.051327	7749.0
57.023796	2742.0
58.997665	47247.0
60.018147	1474.0
60.999222	2204.0
65.02861	1393.0
67.053467	5366.0
68.053024	2142.0
69.057114	3705.0
70.060204	4112.0
71.01371	3446.0
72.078903	2320.0
73.033745	3861.0
74.038666	1126.0
76.025024	206888.0
77.033829	10839.0
78.021553	8843.0
79.042824	7814.0
80.051552	12379.0
81.06131	10377.0
82.059555	3226.0
83.046478	9192.0
84.048294	237371.0
85.019997	20021.0
86.0476	7424.0
86.996613	13570.0
88.025177	11292.0
89.030342	2034.0
91.056747	11814.0
92.050514	1549.0
93.067719	8727.0
94.062363	2383.0
95.068504	11674.0
96.055313	3243.0
97.031517	18551.0
98.024315	7009.0
99.009056	11261.0
100.034851	2098.0
101.039757	2120.0
102.054108	7416.0
103.044418	2914.0
104.0616	1891.0
105.061485	11299.0
106.064835	2028.0
107.072388	10306.0
108.055489	6862.0
109.070572	13922.0
110.081993	5995.0
111.038078	9122.0
112.039536	4999.0
113.021393	9605.0
114.039642	8872.0
115.04847	4379.0
116.021324	78681.0
117.035301	8979.0
118.024834	4415.0
118.93782	8711.0
119.081841	8373.0
120.062798	5482.0
121.049377	16418.0
122.063492	4130.0
122.955704	1235.0
123.057755	24513.0
124.03672	8245.0
125.030128	9766.0
126.055557	2444.0
127.037506	5149.0
128.084488	7320.0
129.081009	8859.0
130.055481	40779.0
131.069092	7786.0
132.055206	3747.0
133.060394	9897.0
134.079758	2937.0
134.945053	1145.0
135.066437	10189.0
136.067398	17154.0
136.955917	34568.0
137.08168	9505.0
138.055084	3247.0
139.021027	18270.0
140.039337	3633.0
140.922745	1026.0
141.04715	11009.0
142.038025	66940.0
143.044067	11356.0
144.02507	24134.0
145.053543	9251.0
146.045593	3911.0
147.059906	9358.0
148.074142	3037.0
149.065613	7247.0
150.06488	3950.0
151.042969	9007.0
152.056061	6692.0
152.905777	1535.0
153.026993	14961.0
154.065994	3764.0
155.044617	7244.0
156.080612	3421.0
157.084702	4300.0
158.092056	3781.0
158.945557	1256.0
159.081528	7664.0
160.07666	3038.0
161.057648	9170.0
162.028915	36797.0
163.057205	10820.0
164.038696	3623.0
164.936142	1878.0
165.060471	8474.0
166.06929	4243.0
167.057343	6585.0
168.059784	3270.0
169.048111	5964.0
170.044785	9473.0
171.07164	6097.0
172.084076	3535.0
173.061066	7578.0
174.068466	2710.0
174.891617	3495.0
175.072418	6728.0
176.061661	3490.0
177.068665	7193.0
178.07515	4093.0
179.059921	13039.0
180.07225	2684.0
180.98143	8479.0
181.094681	4450.0
182.078354	2353.0
182.921295	1473.0
183.069199	6415.0
183.965683	1031.0
184.09584	2748.0
185.067703	4899.0
186.098999	2763.0
186.90976	1175.0
187.068054	11385.0
188.056946	4462.0
189.068253	6091.0
190.074432	2721.0
190.907272	1293.0
191.074585	8102.0
192.084351	3006.0
192.947067	1725.0
193.071259	8045.0
194.084106	2230.0
195.078461	5367.0
196.074814	2214.0
196.91011	1836.0
197.081711	5975.0
198.085266	2624.0
198.894318	1828.0
199.051376	5853.0
200.071121	2260.0
200.921463	2416.0
201.047409	13009.0
202.065048	3084.0
202.920776	2392.0
203.089355	4678.0
204.087479	2714.0
204.903381	1001.0
205.074127	4506.0
206.093201	2224.0
207.084106	5487.0
208.077499	2135.0
209.072189	6086.0
210.09166	2720.0
211.072281	3669.0
212.114731	1710.0
212.942947	1039.0
213.092697	2508.0
214.091949	1735.0
214.897568	1501.0
215.055573	6972.0
216.061813	2620.0
216.916504	3266.0
217.096878	2980.0
218.075699	1288.0
218.959793	2197.0
219.105515	3248.0
220.075363	1803.0
220.936829	2261.0
221.106628	3848.0
222.099274	1386.0
222.921921	1846.0
223.077042	4137.0
224.080063	1082.0
225.080536	2735.0
226.134995	1322.0
227.053284	3131.0
228.082214	2242.0
229.076492	2435.0
230.104691	1202.0
231.081497	2678.0
232.104691	1809.0
232.888397	1138.0
233.076675	5720.0
234.090027	1341.0
235.105545	3870.0
236.111938	1304.0
237.099228	3559.0
238.118301	1352.0
239.085312	2428.0
240.110153	1168.0
241.076218	1951.0
243.085251	1806.0
245.071579	4298.0
246.080185	1150.0
247.08989	2136.0
248.979019	1974.0
249.099045	3731.0
250.140747	1333.0
251.092529	5071.0
252.069	1265.0
253.123566	3039.0
254.151566	1215.0
254.8647	2086.0
255.109238	2046.0
256.099274	2047.0
257.108307	1259.0
258.117645	1273.0
258.88501	1294.0
259.13623	2112.0
261.128815	2747.0
263.125641	2792.0
265.099762	4063.0
266.069366	1087.0
267.063354	3460.0
268.059967	1114.0
269.130646	1347.0
270.81723	2460.0
271.155457	1393.0
273.044769	1352.0
273.165649	4242.0
274.170837	1163.0
275.129089	1601.0
277.131409	2586.0
278.082336	1731.0
279.118256	4631.0
281.106323	3155.0
283.066956	1095.0
285.063995	4429.0
END IONS

BEGIN IONS
PEPMASS=281.071
CHARGE=1
MSLEVEL=2
SOURCE_INSTRUMENT=LC-ESI-qTof
FILENAME=DMIM_centroided_library_abundance_filtered.mgf
SEQ=*..*
IONMODE=Positive
ORGANISM=DMIM-DRUG-METABOLITE-LIBRARY
NAME=SULFAMETHOXYPYRIDAZINE [M+H]+
PI=Libin Xu
DATACOLLECTOR=Dylan H. Ross
SMILES=COC1=NN=C(C=C1)NS(=O)(=O)C2=CC=C(C=C2)N
INCHI=N/A
INCHIAUX=N/A
PUBMED=N/A
SUBMITUSER=jzemlin
LIBRARYQUALITY=3
SPECTRUMID=CCMSLIB00012465200
USI=mzspec:GNPS:DMIM-DRUG-METABOLITE-LIBRARY:accession:CCMSLIB00012465200
SCANS=178
55.041897	3026.0
56.053436	8384.0
57.010292	2725.0
58.998173	64026.0
60.014317	1773.0
61.001377	3177.0
65.041573	107730.0
66.041382	6846.0
67.052559	5043.0
68.049911	1896.0
69.045479	7078.0
70.062538	5808.0
71.020584	3137.0
72.084053	2098.0
73.02272	3321.0
74.043793	1575.0
76.024956	308506.0
77.032257	13479.0
78.021935	11131.0
79.04274	7892.0
80.051208	40985.0
81.057404	11364.0
82.054459	2884.0
83.049355	11403.0
84.048134	336251.0
85.021736	24680.0
86.06234	6508.0
86.995239	17049.0
88.025848	14743.0
89.014824	2648.0
90.030556	1255.0
91.053101	8542.0
92.054489	516610.0
92.185257	5713.0
92.30912	5228.0
92.822914	1868.0
93.057121	44457.0
94.061836	3308.0
95.064537	10849.0
96.057251	8888.0
97.033028	23028.0
98.028931	10146.0
99.006302	11225.0
100.024002	1892.0
101.048088	1709.0
102.057106	7879.0
103.037163	2136.0
104.053993	1594.0
105.057358	9147.0
106.059654	2320.0
107.074104	10426.0
108.049103	436156.0
108.177368	6635.0
108.325203	3767.0
109.054665	44673.0
110.063293	7279.0
111.045296	45283.0
112.036354	5942.0
113.019989	10213.0
114.040527	11998.0
115.052567	4670.0
116.021118	113657.0
117.032433	10147.0
118.028908	5972.0
118.938354	9895.0
119.07737	8547.0
120.061668	6513.0
121.052727	17065.0
122.064384	4517.0
122.959412	1213.0
123.059883	29525.0
124.044334	19872.0
125.041168	15731.0
126.070473	248818.0
126.196495	2237.0
126.375908	1224.0
127.063858	19363.0
128.061752	4358.0
129.088684	10469.0
130.055237	56207.0
131.061768	9297.0
132.055817	2921.0
133.052139	9657.0
134.075989	3097.0
135.065811	9801.0
136.066788	17970.0
136.952347	29036.0
137.082199	11008.0
138.055038	3302.0
139.021408	21965.0
140.047424	3222.0
140.925064	1361.0
141.04805	13770.0
142.037582	103275.0
143.04335	13468.0
144.021439	34533.0
145.064835	10221.0
146.046356	6652.0
147.063049	10670.0
148.055618	3881.0
149.057831	10424.0
150.059875	3926.0
151.046692	9402.0
152.061951	8889.0
152.937134	3108.0
153.051895	15828.0
154.061844	3662.0
155.043365	7442.0
156.017792	110152.0
156.160614	1665.0
157.037415	13996.0
158.050354	10549.0
158.934448	1898.0
159.087036	6963.0
160.076797	4056.0
161.057266	10472.0
162.028534	48418.0
163.048798	12647.0
164.050827	5368.0
164.932083	3020.0
165.058304	9807.0
166.059128	2840.0
167.051727	9246.0
168.058365	3857.0
169.055817	7002.0
170.042099	10748.0
171.065598	7066.0
172.077347	6944.0
173.075012	8171.0
174.073135	3266.0
174.88942	4875.0
175.075104	8379.0
176.069702	2924.0
177.04805	8794.0
178.074951	2831.0
179.060394	15787.0
180.069061	2889.0
180.92189	4426.0
181.069321	11392.0
182.075577	2960.0
182.925949	1830.0
183.066452	8591.0
184.068817	2901.0
185.069427	6824.0
186.085449	3685.0
186.912811	1534.0
187.066666	14917.0
188.03566	11265.0
189.051331	6030.0
190.053085	2292.0
191.063538	8129.0
192.08844	2125.0
192.943176	1642.0
193.074234	8790.0
194.085297	2442.0
195.071777	6384.0
196.090469	1642.0
196.908646	2038.0
197.079575	6689.0
198.106598	1779.0
198.901703	2209.0
199.064636	6571.0
200.077438	5724.0
200.920181	2435.0
201.052139	12043.0
202.081161	2686.0
202.907211	2606.0
203.070053	8315.0
204.089447	3040.0
204.923508	1222.0
205.078522	4244.0
206.016556	1724.0
207.080917	5958.0
208.096725	1771.0
209.077057	7915.0
210.093857	1931.0
211.082993	4119.0
212.092072	1936.0
213.057907	3644.0
214.093124	2050.0
214.908234	2214.0
215.076981	19777.0
216.074036	4817.0
216.921265	3447.0
217.098206	6239.0
218.105347	1770.0
218.951828	1771.0
219.091522	3605.0
220.101273	1590.0
220.93103	2034.0
221.100845	5430.0
222.092255	1713.0
222.932526	1723.0
223.083633	5736.0
224.103485	1426.0
225.078247	3694.0
226.11409	1897.0
227.065201	4896.0
228.081787	2093.0
229.081024	3020.0
230.052673	1180.0
230.90448	1131.0
231.089081	3109.0
232.098679	1743.0
232.882263	1570.0
233.07254	9571.0
234.08429	1905.0
235.092728	5431.0
236.116684	1458.0
237.097855	4965.0
238.10495	1683.0
238.888306	1179.0
239.092407	3732.0
240.111618	1390.0
240.886139	1045.0
241.085266	1421.0
243.073639	1949.0
244.103714	1364.0
245.071915	6880.0
246.09433	2018.0
247.125793	2216.0
248.938263	1156.0
249.111969	4269.0
250.114517	1145.0
251.075348	8577.0
252.087067	2036.0
253.104935	3861.0
254.138168	1314.0
254.851166	2459.0
255.060211	2996.0
257.110779	1768.0
259.127106	2419.0
260.878387	1679.0
261.110779	3555.0
262.118958	1004.0
263.126129	4101.0
265.11203	3743.0
266.107727	1066.0
267.119019	3718.0
268.127014	1066.0
269.125916	1327.0
270.831573	1778.0
271.045715	1461.0
271.205719	1194.0
273.076447	2153.0
275.137482	2523.0
276.880035	1108.0
277.140106	3567.0
278.095154	1525.0
279.12851	6902.0
280.141907	1457.0
281.103119	4193.0
282.095154	1129.0
END IONS

BEGIN IONS
PEPMASS=123.042
CHARGE=1
MSLEVEL=2
SOURCE_INSTRUMENT=LC-ESI-qTof
FILENAME=DMIM_centroided_library_abundance_filtered.mgf
SEQ=*..*
IONMODE=Positive
ORGANISM=DMIM-DRUG-METABOLITE-LIBRARY
NAME=MINOXIDIL_metabolite_005 [M+Na]+
PI=Libin Xu
DATACOLLECTOR=Dylan H. Ross
SMILES=O=CCCCC=O
INCHI=N/A
INCHIAUX=N/A
PUBMED=N/A
SUBMITUSER=jzemlin
LIBRARYQUALITY=3
SPECTRUMID=CCMSLIB00012465273
USI=mzspec:GNPS:DMIM-DRUG-METABOLITE-LIBRARY:accession:CCMSLIB00012465273
SCANS=251
67.032021	6298.0
68.048706	1227.0
77.03878	2351.0
78.038033	5302.0
79.038956	2523.0
80.055603	1700.0
81.044464	11187.0
91.056511	2115.0
92.0364	1020.0
93.046608	1415.0
95.060555	5520.0
97.027473	1144.0
103.035568	1419.0
105.049759	6601.0
106.051857	2252.0
107.041656	2885.0
108.058876	7228.0
109.042313	2963.0
115.053444	2229.0
120.060989	5759.0
121.051941	2395.0
122.076576	9084.0
123.073227	4135.0
END IONS

BEGIN IONS
PEPMASS=524.178
CHARGE=1
MSLEVEL=2
SOURCE_INSTRUMENT=LC-ESI-qTof
FILENAME=DMIM_centroided_library_abundance_filtered.mgf
SEQ=*..*
IONMODE=Positive
ORGANISM=DMIM-DRUG-METABOLITE-LIBRARY
NAME=PENFLURIDOL [M+H]+
PI=Libin Xu
DATACOLLECTOR=Dylan H. Ross
SMILES=C1CN(CCC1(C2=CC(=C(C=C2)Cl)C(F)(F)F)O)CCCC(C3=CC=C(C=C3)F)C4=CC=C(C=C4)F
INCHI=N/A
INCHIAUX=N/A
PUBMED=N/A
SUBMITUSER=jzemlin
LIBRARYQUALITY=3
SPECTRUMID=CCMSLIB00012465808
USI=mzspec:GNPS:DMIM-DRUG-METABOLITE-LIBRARY:accession:CCMSLIB00012465808
SCANS=786
55.053581	1612.0
57.058571	1675.0
62.984634	1266.0
67.051537	1366.0
69.06385	1829.0
70.06662	2287.0
71.069794	1310.0
72.083435	3853.0
73.065262	1012.0
74.081673	1190.0
76.034737	1166.0
81.057106	3658.0
83.060066	3298.0
84.063766	2498.0
85.05526	2538.0
86.096901	3336.0
89.05648	1828.0
91.039299	1801.0
93.065193	2002.0
95.078033	5873.0
97.044144	18623.0
98.047272	1345.0
99.044418	4452.0
100.094612	1380.0
101.065842	2445.0
103.043442	3214.0
105.047112	2731.0
107.076775	4192.0
108.064613	1060.0
109.049408	194010.0
109.163757	1449.0
110.054848	12989.0
111.06897	7080.0
112.06208	2022.0
113.050468	3967.0
115.072823	2260.0
116.040916	1513.0
117.04628	1036.0
119.056625	2826.0
120.073814	2178.0
121.046997	15745.0
122.062027	3574.0
123.056786	67555.0
124.061996	7658.0
124.966469	10493.0
125.080482	3926.0
126.046761	1514.0
127.066811	2771.0
129.095322	4769.0
130.07608	2954.0
131.06601	2442.0
133.053467	4707.0
134.058884	2027.0
135.069748	21742.0
136.064667	24815.0
136.932907	5383.0
137.063385	24743.0
138.063919	4537.0
139.046768	16267.0
140.065002	2446.0
140.932816	2073.0
141.078873	2470.0
142.052872	1133.0
142.955963	7833.0
143.09407	1181.0
145.062607	3183.0
146.024338	1870.0
147.065353	15339.0
148.056778	3111.0
149.079575	96183.0
150.078079	12204.0
151.077179	6622.0
152.071091	2439.0
153.055145	9320.0
154.061752	2297.0
155.059906	5437.0
156.079315	1695.0
156.890457	8912.0
157.078705	2846.0
158.927109	6141.0
159.093185	2950.0
160.064423	1094.0
161.084869	4850.0
162.037918	4565.0
163.077911	10596.0
164.068039	4464.0
164.945053	8054.0
165.076096	11105.0
166.072388	2680.0
167.073471	6370.0
167.987625	12683.0
169.06691	6371.0
170.063965	1520.0
171.08223	3010.0
172.007782	1012.0
173.076752	4256.0
174.043839	1156.0
174.904816	3222.0
175.095551	4274.0
176.084625	1307.0
176.947357	1104.0
177.071136	15781.0
178.083954	3811.0
178.95816	1055.0
179.082367	23657.0
180.07338	4161.0
180.915726	3656.0
181.082382	29307.0
182.080917	3376.0
183.068146	12285.0
184.075363	3254.0
185.081451	3899.0
186.001892	3712.0
187.102783	2780.0
188.064209	1106.0
189.058136	4153.0
191.081253	9468.0
192.084595	2288.0
192.961334	2519.0
193.083374	20202.0
194.089233	3139.0
195.077225	27442.0
196.08989	3572.0
196.920593	3091.0
197.084946	31603.0
198.091415	4139.0
198.919968	1170.0
199.060974	6733.0
200.119171	1351.0
200.959991	6755.0
201.098694	4970.0
202.084335	1843.0
203.072464	64156.0
203.217987	1559.0
204.07579	9445.0
204.934357	1160.0
205.087265	10351.0
206.082138	3645.0
207.091614	13090.0
208.096329	3182.0
209.083466	26221.0
210.087799	4286.0
211.091156	16026.0
212.097595	2949.0
212.900635	1469.0
213.073776	8188.0
214.078979	1758.0
214.961411	4870.0
215.125336	3995.0
216.048874	1590.0
216.904343	74595.0
217.088211	7861.0
218.092712	2048.0
218.926956	2636.0
219.112183	8504.0
220.110214	2493.0
220.902954	3833.0
221.112488	15647.0
222.104858	3785.0
222.918747	6008.0
223.098999	19999.0
224.094437	2881.0
225.08963	11679.0
226.106934	2601.0
226.898193	1110.0
227.076813	6581.0
228.085709	1680.0
229.092834	3460.0
230.116928	1201.0
231.047455	12690.0
232.090088	4055.0
232.927795	4951.0
233.095657	11983.0
234.112564	2728.0
234.906097	1970.0
235.009811	3113.0
235.120468	17478.0
236.117554	2938.0
236.873993	2056.0
236.985367	1649.0
237.114456	24211.0
238.118408	3817.0
238.894943	18362.0
239.11116	17795.0
240.129364	3454.0
240.914993	1104.0
241.089218	4869.0
242.068573	2234.0
243.09201	4281.0
244.110703	1895.0
244.907181	3446.0
245.107346	3964.0
246.963882	1291.0
247.116867	5932.0
247.969131	1157.0
248.137802	1438.0
248.952805	4513.0
249.11705	14412.0
250.115021	4072.0
250.959869	3621.0
251.121902	21706.0
252.11763	3596.0
252.964432	1107.0
253.123978	20891.0
254.126953	4099.0
254.868378	10882.0
255.120392	13301.0
256.121613	2834.0
256.85788	1111.0
256.993988	4330.0
257.124146	2189.0
258.131042	1149.0
258.915253	2243.0
259.118652	3530.0
260.899414	3101.0
261.129211	7982.0
262.073853	10885.0
262.9328	1727.0
263.12915	12642.0
264.077576	5333.0
264.933319	1432.0
265.117645	14711.0
266.11911	3551.0
266.897156	3241.0
267.120331	19105.0
268.12149	3857.0
268.262909	2531.0
269.131073	15214.0
270.136658	2435.0
270.916656	2922.0
271.100403	5849.0
271.226654	16926.0
272.081604	4861.0
272.226929	2750.0
272.959656	2551.0
273.129028	4887.0
274.078522	8270.0
274.962372	1454.0
275.125183	8323.0
276.078094	4818.0
276.871216	1583.0
277.141968	14116.0
278.081604	4197.0
278.192108	1002.0
278.902069	1659.0
279.142395	16444.0
280.119568	4387.0
280.931519	1082.0
281.129639	13234.0
282.134644	3308.0
282.884949	1499.0
283.127289	12617.0
283.26474	1381.0
283.97644	3932.0
284.139923	1800.0
284.931305	1849.0
285.122375	7165.0
286.13205	1877.0
287.1138	4723.0
288.087616	2209.0
288.925934	5048.0
289.149597	5521.0
290.116028	2181.0
290.929779	1042.0
291.030304	1042.0
291.155426	11638.0
292.083191	12436.0
292.215515	1116.0
292.971527	1617.0
293.14624	16566.0
294.09024	6623.0
294.19519	1284.0
294.913666	3792.0
295.144653	19054.0
296.132111	4765.0
296.312531	1255.0
296.943146	4486.0
297.136688	9468.0
298.139618	2386.0
298.937958	1577.0
299.134277	5775.0
300.143524	2186.0
300.886047	1428.0
301.142242	4136.0
301.984039	8917.0
302.133881	1288.0
302.963013	1687.0
303.150696	5486.0
304.129822	1532.0
304.955933	1095.0
305.153534	8267.0
306.162537	2312.0
307.012756	1031.0
307.1604	14977.0
308.097015	27177.0
309.148804	19323.0
310.147461	4834.0
310.930756	1610.0
311.158264	16292.0
311.300293	2450.0
312.076538	3034.0
312.195831	2053.0
312.925934	51552.0
313.160614	6610.0
313.934937	3506.0
314.142853	1785.0
314.953827	4346.0
315.158722	3876.0
316.138763	1325.0
316.939453	4504.0
317.169128	4850.0
318.172638	1358.0
318.937561	2614.0
319.072144	1374.0
319.18512	9698.0
320.036316	1118.0
320.169006	2347.0
320.91687	1908.0
321.179901	11493.0
322.176361	2870.0
322.971222	1787.0
323.161591	13735.0
323.963348	2419.0
324.164734	2840.0
325.012604	1488.0
325.16098	14135.0
326.171448	2602.0
326.915405	2663.0
327.167572	8192.0
327.928436	1156.0
328.180481	2159.0
328.923401	33872.0
329.152039	5054.0
329.917786	2399.0
330.077484	12566.0
330.93103	9690.0
331.143677	5673.0
332.083344	2143.0
332.92215	4897.0
333.193878	8613.0
334.047791	2355.0
334.192688	1651.0
334.915009	7837.0
335.049469	1198.0
335.186646	12021.0
336.184113	3144.0
336.934113	3470.0
337.18811	15453.0
338.186615	2916.0
338.921753	2029.0
339.16864	11821.0
339.945129	1846.0
340.149628	2335.0
340.925049	3084.0
341.167175	7556.0
342.164398	2431.0
343.174652	6945.0
344.183685	1634.0
344.937531	7948.0
345.171814	4905.0
345.899109	1040.0
346.053864	20193.0
346.899078	1088.0
347.044037	9369.0
347.199371	7153.0
348.057617	3222.0
348.220001	1679.0
348.889587	1280.0
349.032257	1591.0
349.195404	11148.0
350.021149	1177.0
350.195435	2745.0
350.945038	19053.0
351.185028	11960.0
352.071808	4865.0
352.213959	2035.0
352.916779	5811.0
353.167908	9846.0
354.192749	2382.0
354.894348	1890.0
355.109802	8208.0
355.215302	2424.0
356.096558	1635.0
356.917816	1661.0
357.167725	6755.0
358.169678	1627.0
358.931671	4976.0
359.192108	6004.0
360.174042	1593.0
361.131744	2154.0
361.237366	5583.0
362.207336	1550.0
362.997528	13349.0
363.198303	8225.0
363.995697	1989.0
364.208282	2223.0
365.07196	1323.0
365.182922	13516.0
366.185638	2585.0
366.856171	2461.0
366.96933	15956.0
367.189026	10800.0
368.020813	6022.0
368.19519	2935.0
368.423462	2360.0
368.878998	2248.0
369.006744	10098.0
369.186829	7573.0
370.025085	1976.0
370.21048	2030.0
370.877838	1338.0
371.180908	5387.0
372.190002	1990.0
372.846222	3072.0
372.982483	1073.0
373.180359	7115.0
374.042206	1616.0
374.196136	1828.0
374.912292	3522.0
375.093536	1544.0
375.234985	6525.0
376.267731	1431.0
376.943207	1577.0
377.105713	1128.0
377.227814	7249.0
378.213928	1750.0
378.956207	2208.0
379.191467	8041.0
380.194672	2133.0
380.911621	1950.0
381.11142	7914.0
381.217072	4943.0
381.946655	4610.0
382.190247	1856.0
382.94751	12975.0
383.196625	7674.0
383.985718	3948.0
384.200195	1594.0
384.983551	16730.0
385.209656	5936.0
385.988464	2787.0
386.214172	1445.0
386.981445	1941.0
387.231689	4662.0
388.189331	1291.0
389.165039	9326.0
389.296844	2769.0
390.019348	2620.0
390.171967	1690.0
390.897522	2501.0
391.024567	1379.0
391.200897	27391.0
391.326324	1244.0
392.206085	5527.0
392.917999	2558.0
393.216492	8601.0
394.229553	2174.0
394.939056	1476.0
395.167603	48605.0
396.173309	8423.0
396.902161	1277.0
397.194672	6546.0
398.213226	1798.0
399.199219	5479.0
399.9599	10497.0
400.212952	1307.0
400.96405	8097.0
401.205261	4810.0
401.322723	1571.0
401.954193	1542.0
402.233124	1340.0
402.964203	1205.0
403.174194	2960.0
403.294525	4305.0
404.204834	1579.0
405.017548	3712.0
405.235626	6783.0
405.9888	3269.0
406.222107	1912.0
407.025452	1006.0
407.219238	8517.0
407.989624	1012.0
408.242157	2260.0
409.067902	1285.0
409.201538	8528.0
410.055298	2952.0
410.208099	2518.0
410.92691	1157.0
411.16684	6965.0
411.293518	1787.0
412.192169	2421.0
413.194305	6770.0
414.203156	1740.0
415.200775	4382.0
415.335876	1259.0
416.231567	1339.0
417.237152	5580.0
417.353333	1454.0
418.304199	1348.0
419.204803	4905.0
419.318451	2617.0
420.264862	2660.0
421.22699	6516.0
421.950104	2422.0
422.20752	1746.0
423.215546	6988.0
424.226013	2316.0
425.219543	7248.0
426.195831	1749.0
426.99646	21776.0
427.233307	5483.0
428.03183	7863.0
428.193878	1312.0
429.010406	2462.0
429.221741	5279.0
429.347534	1570.0
430.262604	1617.0
431.147705	1368.0
431.284302	5676.0
432.016907	1946.0
432.313568	1650.0
433.256927	7305.0
434.24707	2785.0
435.2453	6961.0
436.273834	1861.0
437.213165	5402.0
437.921234	1954.0
438.231964	1942.0
439.232056	4919.0
440.24469	1527.0
441.22699	5039.0
442.243561	1475.0
442.966736	100715.0
443.194336	2178.0
443.321747	4425.0
443.965576	9427.0
444.24881	1700.0
444.971405	5429.0
445.195526	1503.0
445.314911	5862.0
445.961426	1079.0
446.239868	1381.0
446.951996	3156.0
447.168488	1200.0
447.290833	6020.0
447.975403	1853.0
448.271881	1986.0
448.98172	23019.0
449.269287	6161.0
449.985016	3659.0
450.243408	3079.0
450.963196	1328.0
451.254242	5817.0
452.199097	1482.0
452.956146	1247.0
453.252258	4636.0
454.276428	1182.0
455.247559	4563.0
456.219666	11723.0
457.229065	7115.0
457.362793	1684.0
458.222137	2256.0
458.367279	1256.0
458.941315	4127.0
459.211395	2390.0
459.331543	9617.0
459.929779	1337.0
460.327606	3041.0
461.171234	1575.0
461.31076	7786.0
462.323151	2173.0
462.91925	1346.0
463.26944	6326.0
463.378235	1393.0
464.293213	2110.0
464.954041	79020.0
465.253418	5635.0
465.961548	8349.0
466.244537	1679.0
466.952087	6672.0
467.242645	5072.0
467.955536	1323.0
468.247589	1576.0
468.926361	1553.0
469.229797	3769.0
469.336426	1098.0
470.223938	1904.0
470.963837	12462.0
471.246704	4716.0
471.368988	1947.0
471.966064	1749.0
472.204041	5494.0
472.965912	1199.0
473.192535	2454.0
473.339386	7646.0
474.329224	2864.0
475.201721	1491.0
475.323151	9007.0
476.190491	1018.0
476.333923	2659.0
477.269287	6769.0
477.382019	2110.0
478.206055	1136.0
478.332977	2618.0
479.16806	1135.0
479.294678	6548.0
480.24234	1646.0
480.927948	48444.0
481.259827	5653.0
481.930084	5378.0
482.257507	2037.0
482.931824	7115.0
483.26178	4146.0
483.94342	1159.0
484.219482	1745.0
484.918304	1371.0
485.142822	1486.0
485.308472	4567.0
486.22995	2389.0
486.934875	13697.0
487.168182	2715.0
487.340851	7765.0
487.936829	2046.0
488.191833	1657.0
488.344757	2893.0
488.936157	2575.0
489.208557	2370.0
489.344391	21919.0
490.21344	2732.0
490.349426	5691.0
491.197021	1479.0
491.32019	10469.0
492.336578	3067.0
492.948822	3500.0
493.150391	1294.0
493.308594	8628.0
494.290131	2504.0
495.271942	5151.0
496.305481	1588.0
497.275787	4112.0
498.233917	1201.0
499.177765	1008.0
499.307526	4645.0
500.307251	1702.0
501.315369	6120.0
501.420685	1168.0
502.1474	2009.0
502.354218	1882.0
502.910675	11331.0
503.198547	2327.0
503.354675	12258.0
503.924927	1905.0
504.166504	2186.0
504.353973	4359.0
504.917633	2399.0
505.205994	2335.0
505.339417	12520.0
506.179321	27457.0
506.35144	3665.0
507.194641	11102.0
507.341583	8794.0
508.006897	5009.0
508.180664	11136.0
508.34256	3048.0
508.939972	2907.0
509.206512	6296.0
509.338165	3425.0
510.285797	2165.0
511.304688	4042.0
512.277222	1760.0
513.167358	1122.0
513.307983	4094.0
514.286682	2454.0
514.919495	1168.0
515.22583	3041.0
515.356812	4364.0
516.329834	1751.0
517.221069	1509.0
517.350464	8458.0
518.30896	3160.0
518.882263	4188.0
519.332764	11264.0
520.321838	4233.0
520.887146	1608.0
521.319519	10127.0
522.124573	1324.0
522.297852	3779.0
523.307617	8547.0
524.033142	1622.0
524.188538	630521.0
524.30481	2803.0
524.439392	22880.0
524.597412	10172.0
524.73822	8062.0
524.849915	4919.0
525.016724	1120.0
525.19104	242404.0
525.334534	4911.0
525.731812	2757.0
525.861572	7632.0
526.001953	6875.0
526.163879	35105.0
END IONS

BEGIN IONS
PEPMASS=130.109
CHARGE=1
MSLEVEL=2
SOURCE_INSTRUMENT=LC-ESI-qTof
FILENAME=DMIM_centroided_library_abundance_filtered.mgf
SEQ=*..*
IONMODE=Positive
ORGANISM=DMIM-DRUG-METABOLITE-LIBRARY
NAME=METFORMIN [M+H]+
PI=Libin Xu
DATACOLLECTOR=Dylan H. Ross
SMILES=CN(C)C(=N)N=C(N)N
INCHI=N/A
INCHIAUX=N/A
PUBMED=N/A
SUBMITUSER=jzemlin
LIBRARYQUALITY=3
SPECTRUMID=CCMSLIB00012465855
USI=mzspec:GNPS:DMIM-DRUG-METABOLITE-LIBRARY:accession:CCMSLIB00012465855
SCANS=833
77.040314	2929.0
79.045029	1868.0
81.017189	1012.0
91.052437	2595.0
92.094536	1821.0
97.025612	1360.0
103.050598	1020.0
105.05378	1333.0
107.047043	1580.0
109.031448	1918.0
110.037125	1001.0
115.052261	2500.0
121.036514	2297.0
122.092361	2077.0
122.948624	1336.0
123.072197	3056.0
125.003403	1535.0
127.027847	1533.0
128.048645	1866.0
END IONS

BEGIN IONS
PEPMASS=304.147
CHARGE=1
MSLEVEL=2
SOURCE_INSTRUMENT=LC-ESI-qTof
FILENAME=DMIM_centroided_library_abundance_filtered.mgf
SEQ=*..*
IONMODE=Positive
ORGANISM=DMIM-DRUG-METABOLITE-LIBRARY
NAME=PHENOXYBENZAMINE [M+H]+
PI=Libin Xu
DATACOLLECTOR=Dylan H. Ross
SMILES=CC(COC1=CC=CC=C1)N(CCCl)CC2=CC=CC=C2
INCHI=N/A
INCHIAUX=N/A
PUBMED=N/A
SUBMITUSER=jzemlin
LIBRARYQUALITY=3
SPECTRUMID=CCMSLIB00012465870
USI=mzspec:GNPS:DMIM-DRUG-METABOLITE-LIBRARY:accession:CCMSLIB00012465870
SCANS=848
55.040211	3188.0
56.051716	11303.0
57.032688	2828.0
58.057835	2004.0
58.998177	66704.0
60.018154	1808.0
61.002674	2601.0
62.99427	1175.0
65.037643	4047.0
67.052803	4012.0
68.04982	2242.0
69.046318	5468.0
70.059509	6132.0
71.025902	2205.0
72.077965	2992.0
73.024895	3814.0
74.043427	1068.0
75.033104	1026.0
76.024033	371204.0
77.034172	20871.0
78.021461	13416.0
79.047363	5210.0
80.050583	17537.0
81.059853	7961.0
82.057129	1951.0
83.049072	7650.0
84.047989	391137.0
85.031784	24003.0
86.070747	6905.0
86.993042	20039.0
88.02417	15096.0
89.022766	2293.0
91.057556	486800.0
91.181473	1298.0
91.303864	2935.0
92.059784	30815.0
93.064743	6709.0
94.064056	1297.0
95.06604	12172.0
96.050591	3559.0
97.031799	101188.0
98.022217	10039.0
99.009346	11959.0
100.03933	3316.0
101.05217	2570.0
102.083458	29039.0
103.062363	3971.0
105.062416	8150.0
106.056602	1556.0
107.058586	26235.0
108.055252	7379.0
109.065224	17056.0
110.06575	5465.0
111.043076	9869.0
112.039131	4622.0
113.02919	17069.0
114.039993	13033.0
115.058144	5866.0
116.019821	127349.0
117.029213	8454.0
118.018166	5233.0
118.92598	3580.0
119.065514	9019.0
120.058235	5700.0
121.064407	18371.0
122.050301	4499.0
123.057373	38851.0
124.034317	11892.0
125.032883	12705.0
126.04435	2648.0
127.03302	6449.0
128.064407	2270.0
129.088562	10712.0
130.05307	68864.0
131.058868	8056.0
132.052094	2623.0
133.062424	8863.0
134.072968	3814.0
135.068756	14905.0
136.064804	11442.0
136.953094	18024.0
137.07756	13215.0
138.060852	4231.0
139.025528	22548.0
140.024872	3485.0
141.04863	14272.0
142.035477	110953.0
143.038177	14899.0
144.01889	40177.0
145.05954	9088.0
146.042206	5567.0
147.066284	9086.0
148.072723	2858.0
149.065323	10152.0
150.066193	4254.0
151.062271	10073.0
152.062042	16116.0
153.055588	22323.0
154.065048	3864.0
155.047348	7488.0
156.042542	3769.0
157.081604	4218.0
158.086121	2013.0
158.953156	1790.0
159.089081	7276.0
160.087479	2147.0
161.063263	10500.0
162.026474	63078.0
163.052963	14809.0
164.043045	5714.0
164.932892	3399.0
165.062576	12800.0
166.064621	5033.0
167.066162	15970.0
168.063751	6769.0
169.056351	7843.0
170.037247	12457.0
171.069778	6908.0
172.071335	2789.0
173.069977	8784.0
174.052078	3186.0
174.892212	3268.0
175.076263	8454.0
176.07074	2997.0
177.060043	9615.0
178.103775	5517.0
178.928879	1111.0
179.059479	23740.0
180.064453	3328.0
180.912827	3240.0
181.067307	17047.0
182.069885	3198.0
183.06868	13052.0
184.070694	3799.0
185.056915	7551.0
186.095367	2966.0
186.91362	1034.0
187.059555	17297.0
188.050598	5270.0
189.064713	7854.0
190.069168	2833.0
191.069489	9454.0
192.0737	2951.0
192.9496	1922.0
193.07515	14123.0
194.107346	4992.0
195.083237	9581.0
196.086151	2622.0
196.898834	1764.0
197.084106	15634.0
198.086441	2884.0
198.896759	1165.0
199.060791	7969.0
199.994354	2169.0
200.119049	1543.0
200.924881	3121.0
201.051941	8260.0
202.058853	4362.0
202.901123	1230.0
203.063889	19673.0
204.061798	3747.0
205.076233	7011.0
206.012222	2587.0
207.07901	7759.0
208.089767	2230.0
209.081635	18277.0
210.098267	3184.0
211.083847	5990.0
212.09938	2216.0
213.068451	5100.0
214.037872	1175.0
215.037384	17293.0
215.165726	1079.0
216.050369	5067.0
216.919785	3278.0
217.083466	5595.0
218.088943	1868.0
218.933731	1133.0
219.099899	5150.0
220.089966	1572.0
220.931595	2139.0
221.096451	6804.0
222.101791	1621.0
223.08075	9721.0
224.084976	1748.0
225.084503	6695.0
226.101791	2793.0
227.066864	7457.0
228.085464	4639.0
229.086792	4238.0
230.101059	1198.0
231.088608	5211.0
232.084396	2119.0
233.072571	14428.0
234.077087	2413.0
234.932877	1225.0
235.106201	8239.0
236.100449	2240.0
237.10289	6659.0
238.107452	2162.0
238.912903	1972.0
239.090088	4952.0
240.059448	1790.0
240.2052	1653.0
241.095566	2480.0
242.099014	1105.0
243.117996	2240.0
244.116135	1072.0
245.069305	8791.0
246.094772	1713.0
247.099915	4485.0
248.132309	1997.0
249.115036	8074.0
250.101959	2709.0
251.083771	15082.0
252.080521	2611.0
252.9944	1138.0
253.120422	5244.0
254.132263	1429.0
254.852554	3196.0
255.093567	4501.0
256.054138	1695.0
257.102386	1674.0
258.131317	1333.0
258.880951	1137.0
259.123016	3137.0
260.144836	1061.0
260.903687	1054.0
261.117401	5305.0
263.137634	6248.0
264.137848	1913.0
265.128815	5821.0
266.141663	1871.0
266.964844	1141.0
267.111816	6019.0
268.113861	2195.0
269.133789	3237.0
270.088806	1109.0
270.835236	1219.0
271.145905	1682.0
273.083954	3658.0
274.055908	1092.0
275.14502	4170.0
276.147217	1166.0
277.143097	5851.0
278.135986	2080.0
279.134583	7810.0
280.140106	1394.0
281.128174	3552.0
283.133606	2386.0
284.148804	1100.0
285.068665	5768.0
286.053162	1087.0
286.182983	2481.0
287.085632	2306.0
287.18811	1165.0
289.141235	3306.0
290.149078	1308.0
291.121857	8785.0
292.126556	1983.0
293.149689	8609.0
294.144714	2246.0
295.153351	7507.0
296.182709	1157.0
296.883057	1297.0
297.137817	2148.0
299.160919	1381.0
301.150909	1749.0
302.051147	1016.0
303.144806	4206.0
305.154053	4594.0
END IONS

BEGIN IONS
PEPMASS=145.123
CHARGE=1
MSLEVEL=2
SOURCE_INSTRUMENT=LC-ESI-qTof
FILENAME=DMIM_centroided_library_abundance_filtered.mgf
SEQ=*..*
IONMODE=Positive
ORGANISM=DMIM-DRUG-METABOLITE-LIBRARY
NAME=VALPROATE [M+H]+
PI=Libin Xu
DATACOLLECTOR=Dylan H. Ross
SMILES=CCCC(CCC)C(=O)O
INCHI=N/A
INCHIAUX=N/A
PUBMED=N/A
SUBMITUSER=jzemlin
LIBRARYQUALITY=3
SPECTRUMID=CCMSLIB00012466278
USI=mzspec:GNPS:DMIM-DRUG-METABOLITE-LIBRARY:accession:CCMSLIB00012466278
SCANS=1256
77.040993	2819.0
79.037956	1764.0
84.981308	1072.0
91.052643	2706.0
92.046165	1236.0
95.067032	1005.0
97.006935	1187.0
105.070068	2046.0
107.055779	1588.0
108.060478	1080.0
109.038292	2013.0
110.043961	1896.0
111.017761	1293.0
115.051994	2680.0
117.063072	1122.0
118.934875	1472.0
119.076576	1130.0
121.06617	1887.0
122.087814	2853.0
122.968605	2361.0
123.081627	1572.0
124.99054	1863.0
126.995827	1542.0
128.019577	3430.0
129.062729	1540.0
131.056656	1251.0
132.067368	1427.0
134.898376	3646.0
135.047241	2723.0
137.040955	1539.0
139.033432	1946.0
141.055298	2046.0
143.011215	2628.0
145.03064	1432.0
END IONS

BEGIN IONS
PEPMASS=125.033
CHARGE=1
MSLEVEL=2
SOURCE_INSTRUMENT=LC-ESI-qTof
FILENAME=DMIM_centroided_library_abundance_filtered.mgf
SEQ=*..*
IONMODE=Positive
ORGANISM=DMIM-DRUG-METABOLITE-LIBRARY
NAME=CYCLOSERINE [M+Na]+
PI=Libin Xu
DATACOLLECTOR=Dylan H. Ross
SMILES=C1[C@H](C(=O)NO1)N
INCHI=N/A
INCHIAUX=N/A
PUBMED=N/A
SUBMITUSER=jzemlin
LIBRARYQUALITY=3
SPECTRUMID=CCMSLIB00012466316
USI=mzspec:GNPS:DMIM-DRUG-METABOLITE-LIBRARY:accession:CCMSLIB00012466316
SCANS=1294
77.038879	1580.0
79.054581	1457.0
91.053841	1499.0
110.031303	1397.0
115.052795	2192.0
121.066444	1344.0
122.092339	3395.0
122.952888	1073.0
123.07885	1791.0
END IONS

BEGIN IONS
PEPMASS=287.187
CHARGE=1
MSLEVEL=2
SOURCE_INSTRUMENT=LC-ESI-qTof
FILENAME=DMIM_centroided_library_abundance_filtered.mgf
SEQ=*..*
IONMODE=Positive
ORGANISM=DMIM-DRUG-METABOLITE-LIBRARY
NAME=THONZYLAMINE [M+H]+
PI=Libin Xu
DATACOLLECTOR=Dylan H. Ross
SMILES=CN(C)CCN(CC1=CC=C(C=C1)OC)C2=NC=CC=N2
INCHI=N/A
INCHIAUX=N/A
PUBMED=N/A
SUBMITUSER=jzemlin
LIBRARYQUALITY=3
SPECTRUMID=CCMSLIB00012467849
USI=mzspec:GNPS:DMIM-DRUG-METABOLITE-LIBRARY:accession:CCMSLIB00012467849
SCANS=2827
55.045464	1828.0
56.054905	3973.0
57.057293	1392.0
58.06953	1317.0
59.000244	9713.0
60.041164	1420.0
61.007969	1187.0
62.987156	1032.0
64.983597	1608.0
67.052696	2226.0
68.056023	1083.0
69.044609	7670.0
70.067413	25766.0
71.068787	1727.0
72.085564	9724.0
73.060257	1683.0
73.950356	1617.0
74.065552	1580.0
76.026718	39347.0
77.033638	2080.0
78.029709	2402.0
79.03508	2076.0
80.053131	4342.0
80.933395	1247.0
81.060349	4182.0
82.05629	1748.0
83.056938	2448.0
84.063339	85217.0
85.052536	7144.0
86.099213	17191.0
87.040321	3322.0
88.030602	5328.0
88.985649	1295.0
91.037857	3891.0
93.064156	2476.0
94.938751	1387.0
95.073891	3592.0
96.044678	2259.0
97.033249	90742.0
98.035645	7008.0
99.010094	5553.0
100.048409	1894.0
100.425819	1062.0
101.085213	1591.0
102.058304	2147.0
103.068207	1352.0
104.07476	1334.0
105.059921	2614.0
106.04644	1011.0
107.069885	1955.0
108.055695	2856.0
109.075882	3302.0
110.075027	19676.0
111.064934	4089.0
112.068207	5496.0
112.902916	31156.0
113.046532	11318.0
114.042519	4115.0
114.899323	14185.0
115.077438	4086.0
116.029533	14660.0
116.905899	1952.0
117.053825	2889.0
118.019203	2176.0
118.941444	7038.0
119.066193	2410.0
120.071266	21244.0
121.042534	14358.0
122.050316	3139.0
122.929695	1434.0
123.061989	25738.0
124.038345	6096.0
124.963142	5057.0
125.0858	1927.0
126.059227	2618.0
126.959091	1210.0
127.059677	4137.0
128.081635	1538.0
129.105896	43606.0
130.068466	23374.0
131.072479	3655.0
132.048004	4578.0
133.039108	4318.0
134.037842	1815.0
135.051147	4001.0
136.071152	45102.0
136.939697	42423.0
137.076355	5866.0
138.073273	2718.0
139.052017	5873.0
140.064667	2895.0
140.942398	1909.0
141.083572	5738.0
142.036819	22564.0
142.972809	12731.0
143.107315	4624.0
144.029099	7927.0
145.059875	4092.0
146.052002	2933.0
147.096466	4996.0
148.064178	3016.0
149.037506	4004.0
150.058792	2357.0
151.059967	3344.0
152.070114	5034.0
153.054077	4749.0
154.074738	2021.0
155.086258	7289.0
156.050034	5329.0
156.895401	5792.0
157.105804	5345.0
158.07933	3811.0
158.93399	22112.0
159.098099	7421.0
160.070938	2471.0
160.959885	3108.0
161.075668	3340.0
162.034302	13512.0
163.050644	4032.0
164.061523	2454.0
164.939224	63098.0
165.081497	5621.0
166.066254	8537.0
167.07103	8802.0
168.048737	4631.0
169.10556	7711.0
170.058212	5707.0
170.992661	1320.0
171.096619	7176.0
172.088013	2847.0
173.075272	12406.0
174.034637	4154.0
174.904739	751762.0
175.088409	9874.0
175.922241	1890.0
176.088379	2876.0
176.904938	110332.0
177.055511	8383.0
178.077194	4336.0
178.908432	5708.0
179.034821	11188.0
180.085342	2657.0
180.913162	159636.0
181.076553	9675.0
182.088348	3190.0
182.914352	14373.0
183.103806	8873.0
184.083344	8531.0
185.070816	9761.0
185.173767	1554.0
186.117279	5977.0
186.922119	38754.0
187.091751	9985.0
188.072433	5112.0
189.043137	8673.0
190.01326	2947.0
190.916199	3336.0
191.062714	6727.0
192.074783	2341.0
193.033386	7306.0
194.075577	3141.0
194.947739	1493.0
195.088303	7686.0
196.017731	5226.0
196.13266	1299.0
196.888107	340052.0
197.015533	1264.0
197.128525	5957.0
197.913284	1356.0
198.105499	3734.0
198.888336	52461.0
199.065521	9027.0
199.998367	3777.0
200.140427	3751.0
200.942947	35040.0
201.118652	7484.0
201.949249	1091.0
202.103271	2649.0
202.898438	51651.0
203.066452	19320.0
204.087296	3543.0
204.913254	6804.0
205.08902	4805.0
206.006195	9011.0
207.069748	6868.0
208.100784	2845.0
209.091187	8499.0
210.103027	3551.0
211.003983	2999.0
211.127853	5571.0
211.997177	1082.0
212.128693	4405.0
212.86235	404367.0
213.048782	8193.0
213.151917	2306.0
213.996811	1233.0
214.111038	5527.0
214.863281	92991.0
215.005341	4365.0
215.130737	4422.0
216.01178	1266.0
216.115906	3245.0
216.884903	13037.0
217.027496	8337.0
217.129761	2585.0
218.127563	1584.0
218.872147	63401.0
219.047714	3525.0
220.083344	2053.0
220.913513	31626.0
221.107086	4786.0
221.976273	1341.0
222.117752	2898.0
222.892273	2377.0
223.005524	12000.0
223.149826	2515.0
224.018784	1384.0
224.145187	1979.0
224.983063	1341.0
225.107407	6062.0
226.142105	7711.0
226.917526	2281.0
227.076141	12004.0
228.003067	3214.0
228.149643	3901.0
228.934219	3331.0
229.11084	4918.0
230.113983	3573.0
231.078979	7190.0
231.87764	1973.0
232.088898	5795.0
232.893951	3200.0
233.07515	6653.0
234.118469	2595.0
234.860001	45685.0
235.021408	7485.0
235.132278	2651.0
236.103561	2717.0
236.849258	8348.0
236.995407	1992.0
237.115128	5050.0
237.978821	1166.0
238.13031	2635.0
238.858643	1616.0
238.978195	6470.0
239.139816	3793.0
240.144379	6973.0
240.88353	1088.0
241.005997	2176.0
241.117813	3568.0
242.164993	3210.0
242.885788	1567.0
243.06221	4301.0
243.165878	2090.0
244.14418	4153.0
244.898926	3427.0
245.079453	7547.0
246.140152	2115.0
246.913406	1554.0
247.082352	3947.0
248.120575	2193.0
248.903717	4348.0
249.061172	13277.0
249.888153	5835.0
250.101334	5228.0
250.830597	6725.0
251.000671	1760.0
251.133698	4804.0
252.136551	2224.0
252.843445	2721.0
253.046097	5908.0
253.165588	2510.0
254.004837	1402.0
254.155197	3810.0
254.873062	20317.0
255.009079	3453.0
255.141571	3033.0
256.046143	1545.0
256.1521	2103.0
256.995056	5724.0
257.167694	3750.0
257.999481	1069.0
258.136475	3940.0
258.873199	2124.0
259.095642	4319.0
260.140747	2411.0
260.880035	8489.0
261.076233	4557.0
262.145264	2205.0
262.926727	2552.0
263.116913	2585.0
264.129669	1916.0
264.890106	1991.0
265.044434	3324.0
265.16214	1511.0
266.121307	3508.0
266.895111	9867.0
267.079346	5954.0
268.045166	1472.0
268.158356	3228.0
268.877289	1555.0
269.023407	1489.0
269.142303	2772.0
270.029907	1250.0
270.174011	2526.0
270.874634	5577.0
271.058563	2774.0
271.205261	2669.0
272.156311	2690.0
272.878296	2729.0
273.062805	4476.0
274.096375	1968.0
274.841431	1698.0
274.978455	1283.0
275.15329	3182.0
276.146057	3086.0
276.857025	7183.0
277.043152	2871.0
277.162323	1973.0
278.04245	2319.0
278.88382	6224.0
279.033539	2262.0
279.157593	2641.0
280.156097	1969.0
280.858276	1574.0
280.967743	1043.0
281.123138	2095.0
282.175323	1663.0
282.866486	32206.0
283.019958	1643.0
283.157806	3315.0
284.084473	3057.0
284.879791	4480.0
285.087402	4852.0
285.199493	1270.0
286.035919	2804.0
286.169708	2550.0
286.874298	2970.0
287.025452	1328.0
287.152252	2922.0
288.092194	2334.0
288.874176	33312.0
289.059631	3887.0
END IONS

BEGIN IONS
PEPMASS=191.998
CHARGE=1
MSLEVEL=2
SOURCE_INSTRUMENT=LC-ESI-qTof
FILENAME=DMIM_centroided_library_abundance_filtered.mgf
SEQ=*..*
IONMODE=Positive
ORGANISM=DMIM-DRUG-METABOLITE-LIBRARY
NAME=CLOPIDOL [M+H]+
PI=Libin Xu
DATACOLLECTOR=Dylan H. Ross
SMILES=CC1=C(C(=O)C(=C(N1)C)Cl)Cl
INCHI=N/A
INCHIAUX=N/A
PUBMED=N/A
SUBMITUSER=jzemlin
LIBRARYQUALITY=3
SPECTRUMID=CCMSLIB00012467937
USI=mzspec:GNPS:DMIM-DRUG-METABOLITE-LIBRARY:accession:CCMSLIB00012467937
SCANS=2915
56.196682	1736.0
78.70652	1617.0
94.939697	1700.0
105.066597	1159.0
118.930237	2324.0
136.947388	1453.0
148.792282	1302.0
152.924652	1021.0
164.947159	1826.0
174.901093	1423.0
180.919846	1512.0
186.91713	1179.0
END IONS

BEGIN IONS
PEPMASS=262.138
CHARGE=1
MSLEVEL=2
SOURCE_INSTRUMENT=LC-ESI-qTof
FILENAME=DMIM_centroided_library_abundance_filtered.mgf
SEQ=*..*
IONMODE=Positive
ORGANISM=DMIM-DRUG-METABOLITE-LIBRARY
NAME=METHAPYRILENE [M+H]+
PI=Libin Xu
DATACOLLECTOR=Dylan H. Ross
SMILES=CN(C)CCN(CC1=CC=CS1)C2=CC=CC=N2
INCHI=N/A
INCHIAUX=N/A
PUBMED=N/A
SUBMITUSER=jzemlin
LIBRARYQUALITY=3
SPECTRUMID=CCMSLIB00012468052
USI=mzspec:GNPS:DMIM-DRUG-METABOLITE-LIBRARY:accession:CCMSLIB00012468052
SCANS=3030
55.046833	2089.0
56.051754	4501.0
57.022686	2147.0
58.06654	1857.0
58.999191	24549.0
60.040466	1663.0
61.005424	2017.0
62.993183	1177.0
67.054398	2539.0
68.057007	1034.0
69.044479	5111.0
70.067429	18231.0
71.052948	2708.0
72.08448	6569.0
73.032982	2728.0
74.058151	2404.0
76.026123	101953.0
77.034958	5078.0
78.026131	5659.0
78.442726	1322.0
79.01548	4243.0
80.053925	11183.0
80.903381	1268.0
81.056374	5547.0
82.057922	1726.0
83.050232	5147.0
84.055367	138583.0
85.04808	9694.0
86.088654	10352.0
87.004387	4966.0
88.027802	9874.0
89.030052	1141.0
91.054901	6542.0
92.037628	1495.0
93.069778	5462.0
94.063705	1954.0
94.940681	2366.0
95.070137	3905.0
96.052269	3228.0
97.027382	29436.0
98.02169	5954.0
98.998863	11655.0
100.032196	1906.0
101.063248	1423.0
102.059349	2826.0
103.052017	1874.0
104.095261	1721.0
105.074486	36901.0
106.067963	3783.0
107.04985	3054.0
108.056145	6136.0
109.05867	4228.0
110.068985	12803.0
111.010918	6960.0
112.062851	6576.0
112.903732	64287.0
113.044006	6544.0
114.033783	6347.0
114.899559	27690.0
115.080032	4051.0
116.025337	27885.0
116.892883	2672.0
117.049034	4512.0
118.035286	2632.0
118.929306	19520.0
119.065933	12869.0
120.057831	14928.0
120.949791	1744.0
121.062889	9384.0
122.044739	4024.0
122.924347	2659.0
123.05854	20259.0
124.037437	6371.0
125.002968	15781.0
126.048271	2835.0
127.024765	7273.0
128.056885	2759.0
128.966675	1017.0
129.104034	29985.0
130.063812	33824.0
131.073044	7004.0
132.04245	4350.0
133.042618	3145.0
134.075119	1574.0
135.055511	4413.0
136.069031	57152.0
136.939865	94348.0
137.075073	7782.0
138.056946	2910.0
139.022751	6749.0
140.027267	4701.0
140.931747	1885.0
141.045471	11883.0
142.038666	46807.0
142.986511	12900.0
143.113327	3391.0
144.024109	21257.0
145.064224	5598.0
146.044464	3632.0
146.992355	1006.0
147.097031	6408.0
148.060455	3025.0
149.042664	4715.0
150.056747	5322.0
151.047531	3854.0
151.922119	1497.0
152.065338	6619.0
152.941254	5241.0
153.064682	6513.0
154.059082	3918.0
155.068619	8627.0
156.043045	6189.0
156.897888	7103.0
157.080215	4618.0
158.077637	4589.0
158.932632	27449.0
159.091965	4782.0
160.040787	2705.0
160.952438	4010.0
161.090378	2750.0
162.031448	32417.0
163.036392	6500.0
164.046631	3936.0
164.93837	111332.0
165.073288	7779.0
166.058823	9744.0
166.94455	2146.0
167.072189	8934.0
167.966461	1414.0
168.070969	3603.0
168.890137	1416.0
169.085602	6668.0
169.890762	1365.0
170.041199	7828.0
171.062775	5953.0
172.055191	3378.0
173.066299	10809.0
174.031784	4583.0
174.904587	818265.0
175.083588	9090.0
175.916153	1777.0
176.089462	3171.0
176.904465	122014.0
177.057388	7565.0
178.070679	3355.0
178.902451	5758.0
179.056458	12819.0
180.071701	3626.0
180.913086	327027.0
181.059464	8551.0
181.924759	1243.0
182.065399	2829.0
182.915527	26791.0
183.093246	6581.0
184.074844	4853.0
184.892365	1152.0
185.039581	15051.0
185.152466	1604.0
186.110107	6588.0
186.922104	55923.0
187.076065	13895.0
188.04892	4417.0
189.040634	8842.0
190.045593	2769.0
190.90596	1633.0
191.052612	5546.0
192.068665	2348.0
192.988998	6567.0
193.10733	2206.0
194.078766	3132.0
194.952499	1017.0
195.076782	6813.0
196.015625	5910.0
196.134766	1260.0
196.887604	517230.0
197.009964	1390.0
197.116684	5518.0
197.899734	1930.0
198.084808	2473.0
198.887451	81020.0
199.061554	8115.0
199.993546	4447.0
200.131332	1915.0
200.90332	6227.0
201.044388	12396.0
201.924454	1131.0
202.072479	3318.0
202.896469	139813.0
203.067657	14724.0
204.072311	5455.0
204.899826	13110.0
205.076599	4518.0
206.002502	10710.0
207.016418	4354.0
207.12677	1196.0
208.017487	2781.0
208.141632	1075.0
208.966537	1046.0
209.082367	5576.0
210.084366	3038.0
211.033157	4754.0
211.144958	2611.0
212.092911	3305.0
212.862335	563297.0
213.048141	10252.0
213.154083	1484.0
213.880447	2372.0
214.075058	6545.0
214.862823	127292.0
215.048141	8485.0
216.085342	4058.0
216.886856	17624.0
217.063583	6959.0
217.941467	1395.0
218.117401	1525.0
218.871414	171598.0
219.050217	5135.0
219.925171	1141.0
220.078995	3076.0
220.885803	31619.0
221.07135	5154.0
221.96994	1437.0
222.098129	2886.0
222.874451	1990.0
223.015015	12434.0
223.156326	1781.0
224.100784	2408.0
225.042633	5920.0
225.175339	1671.0
226.105164	7750.0
226.885162	2361.0
227.054001	11241.0
227.99173	3114.0
228.133621	2222.0
228.99144	3772.0
229.113113	2467.0
230.089447	2317.0
230.886093	1881.0
231.056519	6706.0
231.876602	3866.0
232.077072	5655.0
232.890335	5438.0
233.065674	8528.0
233.928741	1035.0
234.081238	3378.0
234.849533	77052.0
235.072754	4460.0
236.087311	2398.0
236.845871	15722.0
237.054214	3750.0
238.083282	3234.0
238.885452	5430.0
239.034439	5699.0
239.146652	2154.0
240.016632	1287.0
240.150772	3613.0
240.873749	2288.0
241.015869	2047.0
241.140045	1718.0
242.046783	1285.0
242.161407	1862.0
242.883942	2440.0
243.062225	3880.0
244.120499	3155.0
244.900208	3110.0
245.068314	8267.0
245.898529	1202.0
246.084625	2269.0
246.906982	2328.0
247.06778	3255.0
248.146011	1562.0
248.888916	1208.0
249.043716	3654.0
249.886627	3669.0
250.095383	3925.0
250.828293	8758.0
251.083038	4439.0
252.084381	2984.0
252.835403	3209.0
253.029297	5661.0
253.166809	1782.0
254.019119	1705.0
254.146576	2274.0
254.861496	10162.0
255.045013	4176.0
256.062195	3974.0
256.884674	1811.0
257.04306	5445.0
258.062469	2538.0
258.875244	3943.0
259.025696	2092.0
259.151672	1235.0
260.017761	1530.0
260.196655	1643.0
260.877441	9228.0
261.062622	6099.0
261.980316	1438.0
262.133087	2921.0
262.888519	1700.0
263.081421	2840.0
264.083405	1041.0
END IONS

BEGIN IONS
PEPMASS=416.082
CHARGE=1
MSLEVEL=2
SOURCE_INSTRUMENT=LC-ESI-qTof
FILENAME=DMIM_centroided_library_abundance_filtered.mgf
SEQ=*..*
IONMODE=Positive
ORGANISM=DMIM-DRUG-METABOLITE-LIBRARY
NAME=CYPERMETHRIN [M+H]+
PI=Libin Xu
DATACOLLECTOR=Dylan H. Ross
SMILES=CC1(C(C1C(=O)OC(C#N)C2=CC(=CC=C2)OC3=CC=CC=C3)C=C(Cl)Cl)C
INCHI=N/A
INCHIAUX=N/A
PUBMED=N/A
SUBMITUSER=jzemlin
LIBRARYQUALITY=3
SPECTRUMID=CCMSLIB00012468311
USI=mzspec:GNPS:DMIM-DRUG-METABOLITE-LIBRARY:accession:CCMSLIB00012468311
SCANS=3289
55.052505	7249.0
56.049644	3908.0
57.063477	3870.0
58.069603	4273.0
59.018467	5901.0
60.066147	2486.0
61.020245	1213.0
62.984047	2854.0
65.01857	1550.0
67.055489	8669.0
68.05809	2178.0
69.056885	11474.0
70.066521	32354.0
71.057137	3876.0
72.083031	14136.0
73.054405	3907.0
74.0662	3068.0
75.023468	1050.0
76.02681	16904.0
77.032852	6970.0
78.031731	1359.0
79.052979	9541.0
80.053322	7789.0
80.94799	1364.0
81.069099	15810.0
82.064865	3763.0
83.064484	9588.0
84.06498	71124.0
85.039398	13782.0
86.097466	23766.0
87.049934	6102.0
88.053261	7732.0
89.05751	4871.0
91.057373	24529.0
92.060822	2076.0
93.069298	11265.0
94.067215	2619.0
94.977432	1684.0
95.079933	27038.0
96.067932	4399.0
97.03936	79050.0
98.051338	9203.0
99.02964	15095.0
100.081589	6054.0
101.072182	4079.0
102.107597	8209.0
103.034782	4003.0
104.066582	3175.0
105.073654	82777.0
106.074944	8440.0
107.081802	16813.0
108.067619	9133.0
109.087547	34498.0
110.074677	28353.0
111.061859	24238.0
112.053436	10758.0
112.897881	1115.0
113.041771	17353.0
114.055382	7128.0
115.071526	7598.0
116.036217	14652.0
117.058556	4785.0
118.049553	2619.0
118.932236	3441.0
119.071381	20843.0
120.080322	24373.0
120.971672	6522.0
121.086601	32363.0
122.072784	13682.0
123.062775	116945.0
124.062569	15054.0
124.976433	22503.0
125.080879	13738.0
126.089661	31373.0
126.961769	1119.0
127.067528	13074.0
128.072647	3986.0
129.102524	55901.0
130.066544	34083.0
131.075363	10556.0
132.082657	4183.0
133.061203	24684.0
134.064789	6434.0
135.084366	23171.0
136.068237	280111.0
136.936325	28487.0
137.070465	74320.0
138.071762	13690.0
139.052475	52094.0
140.063904	9711.0
140.950867	5454.0
141.081406	11775.0
142.040283	56383.0
142.9702	30090.0
143.104767	11082.0
144.056412	17035.0
144.97168	1335.0
145.081573	12788.0
146.068085	5523.0
147.083603	21317.0
148.069366	7424.0
148.975632	2140.0
149.087418	26105.0
150.060486	11692.0
151.076935	24806.0
152.072052	13238.0
152.920639	1038.0
153.063629	36782.0
154.090378	90151.0
155.084412	37077.0
156.087662	12025.0
156.908157	5173.0
157.085449	16396.0
157.972443	1011.0
158.095612	9255.0
158.940659	17059.0
159.097595	24329.0
160.050049	14786.0
160.946182	2117.0
161.08934	21705.0
162.046417	27665.0
162.945755	1816.0
163.080872	44779.0
164.081345	13823.0
164.941879	52437.0
165.077423	41302.0
166.071289	12779.0
166.947357	1103.0
167.071945	29791.0
168.063766	11183.0
169.077393	29740.0
170.054047	13667.0
171.086334	25553.0
172.09111	8413.0
173.078186	30329.0
174.080032	8874.0
174.911011	21189.0
175.093536	24441.0
176.08699	8161.0
176.942764	5346.0
177.075912	50423.0
177.96196	1002.0
178.088837	13513.0
178.953857	3720.0
179.085388	81774.0
180.080399	21022.0
180.916061	32152.0
181.082199	84970.0
181.952957	1015.0
182.083008	15800.0
182.918503	3602.0
183.07663	53950.0
183.18187	1199.0
184.065994	9259.0
184.194992	10073.0
185.069489	24435.0
185.179352	4736.0
185.982803	1274.0
186.100647	8676.0
186.227829	75875.0
186.933136	9490.0
187.083145	15990.0
187.20462	15637.0
188.063187	12035.0
188.179733	1464.0
188.955597	1741.0
189.087997	19549.0
189.976303	1382.0
190.089951	6902.0
190.941925	3321.0
191.08194	41711.0
191.193497	1270.0
191.929672	1270.0
192.0867	11014.0
192.951965	5973.0
193.087952	77899.0
194.089157	14894.0
194.959564	3048.0
195.094177	60762.0
195.988159	1878.0
196.094315	12456.0
196.907822	31546.0
197.090958	129727.0
197.4505	1902.0
197.950806	1106.0
198.098923	18350.0
198.91716	14440.0
199.083481	24496.0
199.196838	2047.0
199.974319	7019.0
200.107315	20807.0
200.948181	36073.0
201.11499	20439.0
201.972885	2817.0
202.10321	6804.0
202.915527	4148.0
203.093079	34677.0
203.983597	1448.0
204.100784	9196.0
204.919586	3995.0
205.091644	36663.0
205.980469	1557.0
206.091507	9868.0
206.968964	4196.0
207.097702	51051.0
207.980057	1499.0
208.100616	13355.0
208.941605	2554.0
209.088882	117836.0
210.092606	17485.0
210.96904	2499.0
211.096405	42173.0
211.96933	1047.0
212.109268	11799.0
212.246414	1449.0
212.874512	13502.0
212.989792	2134.0
213.104523	30516.0
214.09642	12978.0
214.226257	1054.0
214.959915	16092.0
215.109573	17180.0
216.05603	10676.0
216.159988	2112.0
216.918854	71767.0
217.090652	23848.0
217.967667	2981.0
218.101852	7488.0
218.93959	6653.0
219.110321	28813.0
219.957565	1599.0
220.104858	9346.0
220.931717	11184.0
221.112091	47521.0
222.100861	14233.0
222.932999	10260.0
223.102051	74290.0
223.970016	1260.0
224.105606	13451.0
224.965958	3294.0
225.100464	48637.0
225.966415	1677.0
226.131607	17047.0
226.899384	3948.0
227.066071	30140.0
227.184937	2878.0
227.995331	2317.0
228.131226	9347.0
228.958847	3444.0
229.102127	18765.0
229.972122	1665.0
230.111115	7516.0
230.899948	3230.0
231.069168	30750.0
231.174637	1775.0
231.923798	1395.0
232.094818	11234.0
232.890045	10404.0
233.093918	52185.0
233.961029	3913.0
234.113403	10044.0
234.870941	1409.0
234.990158	7092.0
235.122299	52158.0
235.953506	1281.0
236.112457	11411.0
236.877686	1363.0
236.99173	4760.0
237.12149	72921.0
237.97612	2821.0
238.117737	15851.0
238.913254	18001.0
239.106155	51451.0
239.996536	3139.0
240.098465	11115.0
240.218994	15914.0
240.9133	5001.0
241.092285	22214.0
241.241135	2671.0
242.090714	9764.0
242.226883	7417.0
242.916473	5461.0
243.10939	17626.0
243.97702	2826.0
244.11731	10395.0
244.9048	8100.0
245.084366	28240.0
245.201569	2069.0
245.928802	1258.0
246.089203	7481.0
246.194733	1254.0
246.960709	7362.0
247.122543	22471.0
247.960724	3596.0
248.131531	6658.0
248.945786	7499.0
249.115433	52272.0
249.929764	2458.0
250.119034	13175.0
250.879852	1223.0
250.990662	4419.0
251.121124	77720.0
251.971878	1922.0
252.118713	16588.0
252.998215	5732.0
253.130432	48155.0
253.996933	2689.0
254.138474	14427.0
254.868668	13910.0
254.990479	3012.0
255.124893	41081.0
255.985992	2123.0
256.126526	10264.0
256.27536	1535.0
256.850952	1419.0
256.995972	19308.0
257.148438	11748.0
258.028564	10718.0
258.154327	5361.0
258.860687	1825.0
258.983704	7573.0
259.128998	15925.0
260.045105	5816.0
260.16745	2850.0
260.890625	12529.0
261.023773	4893.0
261.138641	28448.0
262.002045	2207.0
262.142242	6804.0
262.923706	6536.0
263.137054	34114.0
263.968597	3040.0
264.14209	10300.0
264.94519	6610.0
265.125397	45491.0
265.267029	1048.0
265.956055	2224.0
266.123383	13368.0
266.909485	10015.0
267.016785	1699.0
267.126526	71240.0
268.001465	2475.0
268.123444	17173.0
268.282196	3276.0
268.894653	1656.0
268.99585	4726.0
269.137848	41180.0
269.9758	4103.0
270.146027	9881.0
270.3284	128278.0
270.510681	2049.0
270.819977	3785.0
270.956848	4489.0
271.111603	21517.0
271.220428	1217.0
271.329376	29432.0
271.556061	1094.0
271.729279	1243.0
271.897339	1279.0
272.006836	3558.0
272.138672	7572.0
272.327698	2368.0
272.883453	5891.0
273.021423	3767.0
273.139771	16879.0
273.97049	2227.0
274.118561	5947.0
274.282654	1434.0
274.953796	4750.0
275.143494	24984.0
275.273071	1044.0
275.932281	2069.0
276.05069	1855.0
276.16449	7018.0
276.869873	6369.0
277.003571	4533.0
277.150024	44942.0
277.966522	3558.0
278.136871	12454.0
278.896454	6259.0
279.032959	4062.0
279.146545	43287.0
280.00174	2739.0
280.149292	9700.0
280.915436	5698.0
281.024445	1490.0
281.136536	40283.0
281.988434	4173.0
282.142273	11359.0
282.29422	1440.0
282.869751	10784.0
283.003693	3154.0
283.129333	36429.0
283.990906	3910.0
284.135895	12229.0
284.331451	8689.0
284.913422	5241.0
285.02359	1450.0
285.130829	19703.0
285.329742	2118.0
285.929016	1273.0
286.068146	16240.0
286.185608	1942.0
286.890289	3749.0
287.016113	5087.0
287.148438	16395.0
287.992615	3702.0
288.149323	6924.0
288.885651	13636.0
289.016876	3364.0
289.15274	26353.0
289.284363	1057.0
289.868591	1111.0
290.008545	1856.0
290.148529	7431.0
290.914856	2559.0
291.03894	5527.0
291.158051	38616.0
291.947571	2947.0
292.156097	8772.0
292.812622	1716.0
292.958923	4963.0
293.155945	50211.0
293.907867	1188.0
294.019775	2900.0
294.162811	9650.0
294.881165	6151.0
295.007294	3353.0
295.154602	45001.0
295.976532	4957.0
296.156494	11794.0
296.835175	1821.0
296.957245	9734.0
297.14743	23084.0
297.999817	3312.0
298.154327	7916.0
298.352936	5101.0
298.829987	4437.0
298.938354	15948.0
299.137268	16085.0
299.353912	1063.0
299.985199	3816.0
300.154968	7396.0
300.33313	1305.0
300.903076	9954.0
301.027618	2807.0
301.14624	15344.0
301.914886	1481.0
302.059204	12539.0
302.209595	1934.0
302.32193	1185.0
302.861115	2166.0
302.98349	5004.0
303.165344	20788.0
304.005981	3927.0
304.153656	7761.0
304.858276	8240.0
305.015686	2795.0
305.169342	35681.0
305.961456	2698.0
306.161163	8860.0
306.889618	5480.0
307.029724	2403.0
307.168457	46080.0
308.000946	4223.0
308.158081	12406.0
308.842712	1139.0
308.976074	5581.0
309.166138	40584.0
309.984833	3054.0
310.166656	10021.0
310.846527	4634.0
310.989227	3805.0
311.16449	28901.0
311.276733	1061.0
311.926758	1665.0
312.068726	21907.0
312.20047	5234.0
312.942871	9554.0
313.043854	1144.0
313.150391	20100.0
313.907257	1318.0
314.037445	3325.0
314.175201	5833.0
314.822418	4513.0
314.975342	14516.0
315.176697	15119.0
315.993896	3838.0
316.168579	5875.0
316.852844	6638.0
316.979126	3942.0
317.084351	3900.0
317.192474	21411.0
317.915588	1124.0
318.024445	1908.0
318.183411	6888.0
318.82785	1078.0
318.93988	7565.0
319.072479	2071.0
319.188049	33514.0
319.975861	4177.0
320.170654	8300.0
320.813965	4108.0
320.92392	9596.0
321.056702	1119.0
321.178528	34856.0
321.909363	1532.0
322.016968	2469.0
322.178711	8549.0
322.869751	7906.0
323.04306	3966.0
323.175201	36926.0
323.970306	4101.0
324.174835	8806.0
324.888428	3503.0
325.034485	1678.0
325.169006	31186.0
325.996765	3801.0
326.183533	8010.0
326.823975	2279.0
326.940277	2487.0
327.108124	24228.0
327.2276	7256.0
327.892334	1347.0
328.063416	10256.0
328.201904	5510.0
328.888489	6910.0
329.019196	9117.0
329.177551	14819.0
329.896667	2352.0
330.07962	22523.0
330.219574	3164.0
330.785675	1855.0
330.928711	3248.0
331.030853	4009.0
331.178192	27515.0
331.29422	1077.0
331.933411	1221.0
332.068909	16842.0
332.21817	5771.0
332.831085	3844.0
332.941925	1300.0
333.063446	4385.0
333.198273	36386.0
333.901703	2228.0
334.048615	11486.0
334.212494	9143.0
334.858307	4221.0
335.030762	5346.0
335.189209	38381.0
335.888977	1908.0
336.031525	2580.0
336.199463	10245.0
336.81366	4925.0
336.967194	5851.0
337.180664	30978.0
337.291138	1230.0
337.999786	3566.0
338.185669	9093.0
338.845337	7684.0
339.023743	2844.0
339.182739	24093.0
339.913757	2035.0
340.041443	2581.0
340.181824	6901.0
340.868256	5014.0
341.019073	2593.0
341.183319	14906.0
341.974854	2823.0
342.184174	5502.0
342.872375	3338.0
343.034515	2260.0
343.19516	16144.0
344.003326	4166.0
344.194183	5563.0
344.909119	6118.0
345.19165	21705.0
345.891632	1230.0
346.054443	34544.0
346.2099	6064.0
346.872101	2578.0
347.040649	17315.0
347.201691	34734.0
347.889679	1328.0
348.041443	5582.0
348.202271	10907.0
348.890991	3376.0
349.052216	2535.0
349.200409	44869.0
349.89325	1012.0
350.017487	5855.0
350.201019	10777.0
350.837494	4083.0
351.005859	11408.0
351.194305	37726.0
351.901886	1939.0
352.073456	11348.0
352.216125	7294.0
352.750824	1216.0
352.883392	4933.0
353.064728	3847.0
353.196106	22668.0
354.045593	3011.0
354.200623	5975.0
354.769531	1097.0
354.894165	4270.0
355.056946	1263.0
355.186707	15139.0
355.923706	2477.0
356.030365	1011.0
356.171326	7050.0
356.300995	1637.0
356.865051	5237.0
357.014008	2161.0
357.1427	5242.0
357.250671	22816.0
357.908508	2112.0
358.131195	1758.0
358.249176	6739.0
358.812317	1670.0
358.935822	6795.0
359.099762	1944.0
359.216278	23682.0
359.913239	1353.0
360.023987	1324.0
360.193787	7822.0
360.844696	2713.0
360.969666	1260.0
361.070374	1986.0
361.217407	36659.0
361.876984	1114.0
362.025269	5156.0
362.223267	11245.0
362.826996	3895.0
363.012726	4111.0
363.206299	45700.0
363.320343	1207.0
363.839844	1081.0
363.971008	1445.0
364.081146	1241.0
364.213287	9786.0
364.867828	2882.0
365.179504	60660.0
365.970825	2113.0
366.186249	11732.0
366.292328	1104.0
366.854706	2495.0
366.978485	4395.0
367.201996	30847.0
367.879272	1462.0
368.038177	17844.0
368.217102	9156.0
368.841156	3184.0
369.03186	11948.0
369.209473	16836.0
369.873016	1145.0
370.029968	4234.0
370.206238	6364.0
370.851776	2852.0
371.020416	2567.0
371.218353	17341.0
371.830017	1026.0
371.996643	2257.0
372.215576	6267.0
372.832397	3366.0
372.996918	3532.0
373.214813	22605.0
373.856415	1499.0
374.050995	25518.0
374.220398	6960.0
374.785034	1124.0
374.896088	2815.0
375.057892	4989.0
375.221161	35330.0
375.907654	1002.0
376.054657	3088.0
376.221832	9006.0
376.810669	2792.0
376.973694	3527.0
377.223969	47042.0
377.33548	1234.0
378.017365	2001.0
378.21994	11187.0
378.815582	3233.0
378.966339	2792.0
379.089935	1715.0
379.217346	46495.0
379.931793	1422.0
380.216736	10453.0
380.83786	3110.0
380.950226	1293.0
381.066803	2225.0
381.205933	38653.0
381.321899	1372.0
381.955017	2152.0
382.215607	9846.0
382.817535	2417.0
382.947876	2777.0
383.095245	1844.0
383.216614	24847.0
384.011566	7772.0
384.221649	7619.0
384.806	3981.0
385.000275	6130.0
385.211639	19395.0
385.865906	1034.0
386.013153	3004.0
386.221283	6120.0
386.823364	3700.0
386.969543	1706.0
387.093506	1723.0
387.231354	24093.0
387.930511	2325.0
388.223511	6937.0
388.732239	1073.0
388.895264	3995.0
389.141022	5169.0
389.242065	51276.0
390.025024	10436.0
390.242493	11343.0
390.827026	3118.0
391.038849	4687.0
391.228912	51772.0
392.024353	2839.0
392.2276	13340.0
392.877808	3146.0
393.060577	1683.0
393.223297	71694.0
393.34375	1009.0
393.950256	1896.0
394.224945	16863.0
394.775665	2380.0
394.944946	4756.0
395.214844	46249.0
396.060791	1185.0
396.219238	12073.0
396.809967	3436.0
396.955505	1305.0
397.10141	1981.0
397.220306	29220.0
397.941589	1758.0
398.232941	8462.0
398.806396	3043.0
398.953766	1185.0
399.097321	1531.0
399.226959	18287.0
399.967407	2190.0
400.219269	5879.0
400.807068	4792.0
400.971466	2579.0
401.1716	6402.0
401.283234	32429.0
401.976868	1889.0
402.170349	2334.0
402.280396	6969.0
402.831665	3251.0
403.055481	2445.0
403.231171	30381.0
403.946198	1940.0
404.2276	8098.0
404.790375	2753.0
404.958405	2641.0
405.109528	1014.0
405.233215	47622.0
405.996857	9212.0
406.235718	11052.0
406.802216	3266.0
406.998688	2439.0
407.228943	59231.0
407.989563	3093.0
408.231323	12511.0
408.843475	2657.0
409.013733	1667.0
409.188263	216313.0
409.316681	5766.0
409.442352	1188.0
409.554871	1119.0
409.726227	2267.0
409.901398	1047.0
410.03537	7656.0
410.191162	51872.0
410.311584	1228.0
410.763397	3201.0
411.022308	3972.0
411.215668	43107.0
411.900543	1004.0
412.040375	1220.0
412.232178	11310.0
412.775909	1827.0
412.947205	1806.0
413.108185	1264.0
413.229156	20033.0
413.92981	1639.0
414.221161	6209.0
414.907867	1934.0
415.09552	1753.0
415.229614	13533.0
415.976013	1260.0
416.228943	4907.0
416.769318	3581.0
416.940521	2395.0
417.098602	1385.0
417.234528	20296.0
417.791138	1619.0
417.967651	1630.0
END IONS

BEGIN IONS
PEPMASS=277.18
CHARGE=1
MSLEVEL=2
SOURCE_INSTRUMENT=LC-ESI-qTof
FILENAME=DMIM_centroided_library_abundance_filtered.mgf
SEQ=*..*
IONMODE=Positive
ORGANISM=DMIM-DRUG-METABOLITE-LIBRARY
NAME=CYCLANDELATE [M+H]+
PI=Libin Xu
DATACOLLECTOR=Dylan H. Ross
SMILES=CC1CC(CC(C1)(C)C)OC(=O)C(C2=CC=CC=C2)O
INCHI=N/A
INCHIAUX=N/A
PUBMED=N/A
SUBMITUSER=jzemlin
LIBRARYQUALITY=3
SPECTRUMID=CCMSLIB00012468347
USI=mzspec:GNPS:DMIM-DRUG-METABOLITE-LIBRARY:accession:CCMSLIB00012468347
SCANS=3325
55.039143	5093.0
56.051727	30355.0
57.031181	5986.0
58.022026	4824.0
58.99865	254713.0
60.005314	6034.0
61.005116	15799.0
62.979733	3811.0
65.021843	2940.0
66.007317	1066.0
67.05468	10028.0
68.049538	6494.0
69.047386	10280.0
70.063225	21827.0
71.017029	4612.0
72.081245	7823.0
73.022156	12619.0
74.048203	3633.0
75.019547	1411.0
76.025749	806260.0
76.25708	1280.0
76.730339	1372.0
77.037247	44581.0
78.023209	29704.0
79.0457	14836.0
80.052727	65096.0
80.940903	1162.0
81.063309	18072.0
82.054443	6600.0
83.054993	22827.0
84.049843	885167.0
84.299835	1315.0
84.914665	1159.0
85.040192	52547.0
86.063515	19935.0
86.997963	24938.0
88.025612	62250.0
89.02491	5515.0
90.028694	3006.0
91.055855	20150.0
92.051804	2913.0
93.069069	12377.0
94.05838	4039.0
95.040367	34052.0
96.056686	9808.0
97.035065	63022.0
98.018555	26831.0
99.014488	20484.0
100.031105	5495.0
101.032211	3941.0
102.062889	8181.0
102.934776	1307.0
103.04245	4264.0
104.067139	3195.0
105.066841	20254.0
106.057602	5643.0
107.074318	22222.0
108.058044	22001.0
109.075905	30843.0
110.062744	19269.0
111.049911	19415.0
112.028175	19919.0
113.030922	17033.0
114.039574	27354.0
115.058723	10929.0
116.022842	220206.0
116.149086	9527.0
117.034683	18533.0
118.025818	12646.0
118.937737	26364.0
119.079559	20476.0
120.057243	22231.0
120.975136	10783.0
121.082031	27618.0
122.058022	15555.0
122.959335	2613.0
123.064896	72718.0
124.032013	37765.0
125.010506	31831.0
126.042023	6774.0
127.025322	17181.0
128.043655	10527.0
128.968613	1706.0
129.09346	39734.0
130.057236	165803.0
131.067474	23852.0
132.052216	9730.0
133.06665	22066.0
134.076141	7413.0
134.931519	1673.0
135.071503	25565.0
136.06926	62210.0
136.948273	89253.0
137.082428	30487.0
137.95079	1080.0
138.064545	11268.0
139.036346	38924.0
140.029831	10884.0
140.130966	1060.0
140.926361	3693.0
141.054565	44636.0
142.038956	341158.0
142.166946	1258.0
143.021103	55731.0
144.024399	97606.0
144.178268	2100.0
144.946213	2438.0
145.068359	24989.0
146.044739	16296.0
147.068146	25074.0
148.062485	8964.0
148.96843	2412.0
149.078308	22394.0
150.053589	10252.0
150.939438	1201.0
151.05632	27343.0
152.06218	46788.0
152.919815	5815.0
153.063721	54332.0
153.93512	1365.0
154.06813	14554.0
154.96489	2344.0
155.067444	20708.0
156.047409	14078.0
157.064407	19382.0
157.967041	1671.0
158.110474	11611.0
158.940491	10443.0
159.094467	22516.0
160.049179	30675.0
160.937637	3887.0
161.075256	22831.0
162.030579	164212.0
162.145599	1751.0
162.914886	1237.0
163.060608	36558.0
164.054092	16763.0
164.947708	31884.0
165.077866	22243.0
166.059006	15111.0
166.936829	1544.0
167.063766	24734.0
168.058075	17516.0
169.063995	23263.0
170.041183	39804.0
170.940063	1232.0
171.074234	25977.0
171.951797	1431.0
172.078644	9827.0
173.06813	33803.0
174.065308	13407.0
174.898941	18114.0
175.076172	26455.0
176.066742	11601.0
177.049805	39954.0
178.076202	9474.0
178.920547	3376.0
179.062988	55786.0
179.925537	1210.0
180.062729	12007.0
180.919815	27229.0
181.073578	48815.0
181.937149	1224.0
182.073685	9740.0
182.923752	4472.0
183.070251	32290.0
183.934601	1381.0
184.065094	13556.0
184.910904	2535.0
185.061859	29263.0
185.169724	2077.0
186.082596	9681.0
186.202698	7180.0
186.92131	12504.0
187.068161	60092.0
187.199997	1312.0
188.056244	20123.0
189.063904	23825.0
190.01944	7659.0
190.1241	2554.0
190.914444	4958.0
191.073196	24828.0
191.933807	4663.0
192.080627	8454.0
192.945007	8414.0
193.077301	36985.0
193.942291	1168.0
194.08136	10572.0
194.950134	3785.0
195.088638	24680.0
196.024796	11042.0
196.1306	3584.0
196.905304	20906.0
197.086716	40965.0
197.96759	1843.0
198.090195	9738.0
198.920181	19887.0
199.06955	25979.0
199.993256	10083.0
200.109222	3439.0
200.232635	10695.0
200.935104	33804.0
201.054123	79807.0
201.229355	2928.0
202.06044	15570.0
202.908432	11066.0
203.066101	82577.0
203.187775	1029.0
204.07373	12392.0
204.917816	5568.0
205.08519	20606.0
206.008438	17827.0
206.122787	3369.0
206.949509	3986.0
207.085388	21684.0
207.937866	2247.0
208.082001	8005.0
208.931503	4536.0
209.083832	48823.0
209.938797	1215.0
210.087799	11792.0
210.954407	2399.0
211.088058	22123.0
212.10495	7890.0
212.866547	7707.0
213.066376	21049.0
213.928955	1113.0
214.080612	17100.0
214.872787	5866.0
215.039825	54542.0
215.156967	3424.0
215.897339	1109.0
216.044037	15328.0
216.160873	1485.0
216.934677	26084.0
217.099121	13823.0
217.979248	1179.0
218.097687	5021.0
218.935028	9433.0
219.105408	17009.0
219.939819	2029.0
220.103439	5159.0
220.932022	22094.0
221.112213	18787.0
221.991058	2281.0
222.112213	7264.0
222.927475	11533.0
223.076401	32007.0
223.96579	1222.0
224.094467	8127.0
224.94426	4700.0
225.091629	21042.0
225.991898	2075.0
226.120895	8634.0
226.897995	2672.0
227.064056	27965.0
227.180069	1257.0
227.959869	2606.0
228.091171	17953.0
228.258621	1257.0
228.952499	2437.0
229.094849	14949.0
229.959763	1418.0
230.111038	6125.0
230.922867	6361.0
231.097763	13386.0
231.907745	2175.0
232.088562	10290.0
232.889526	10572.0
233.074966	39456.0
233.185822	1696.0
233.894791	1287.0
234.070602	8401.0
234.171844	1682.0
234.877838	2219.0
234.996857	8100.0
235.122299	22219.0
236.105606	6078.0
236.864212	1988.0
236.985825	4131.0
237.105865	23604.0
237.981583	2243.0
238.106018	6323.0
238.905457	12154.0
239.084976	19698.0
240.054474	9903.0
240.203644	4840.0
240.914886	6700.0
241.088303	8559.0
242.053116	4843.0
242.165359	1846.0
242.280685	5295.0
242.895493	2877.0
243.064957	8301.0
243.178391	2300.0
243.932007	1486.0
244.094666	6491.0
244.899078	3216.0
245.075562	27045.0
245.201431	1050.0
245.904755	1696.0
246.085327	6501.0
246.953552	6006.0
247.122711	12994.0
247.942566	2514.0
248.118469	4724.0
248.918274	3408.0
249.085831	28972.0
249.188354	4208.0
249.872147	1052.0
249.980713	1319.0
250.114029	9182.0
250.88414	2310.0
251.087128	47887.0
251.905716	1019.0
252.080414	8752.0
252.86731	1182.0
253.009918	5694.0
253.134933	16496.0
253.994507	2785.0
254.140945	6290.0
254.86232	16974.0
255.069763	13431.0
255.171951	2485.0
256.055298	7877.0
256.16391	1764.0
256.303711	2433.0
256.866272	2206.0
256.999908	13536.0
257.149597	4682.0
257.867401	1020.0
258.022766	15751.0
258.159027	2390.0
258.892639	7019.0
259.011658	4744.0
259.134949	10240.0
259.97876	2318.0
260.142822	4272.0
260.878754	10741.0
261.111389	19872.0
261.983948	2401.0
262.136627	4619.0
262.899902	3816.0
263.13385	15357.0
263.973663	3833.0
264.140869	3704.0
264.90567	3700.0
265.016144	2573.0
265.134796	17952.0
265.991516	1731.0
266.136047	5805.0
266.905182	5191.0
267.012207	1080.0
267.115753	18048.0
268.066925	6714.0
268.188446	2537.0
268.884766	1999.0
269.011078	2990.0
269.134735	8199.0
269.958221	3078.0
270.139252	4117.0
270.318939	1287.0
270.838776	7641.0
271.00415	4266.0
271.148285	6507.0
271.98233	1974.0
272.139893	4086.0
272.871674	2792.0
273.072845	14330.0
273.180817	3877.0
274.009613	3617.0
274.167938	2320.0
274.937378	3745.0
275.144318	14535.0
275.973846	2455.0
276.158356	4288.0
276.868866	5492.0
277.018616	3015.0
277.149536	17391.0
277.844543	1204.0
278.007202	3139.0
278.136719	6585.0
278.883453	5516.0
279.117065	32097.0
END IONS

BEGIN IONS
PEPMASS=264.175
CHARGE=1
MSLEVEL=2
SOURCE_INSTRUMENT=LC-ESI-qTof
FILENAME=DMIM_centroided_library_abundance_filtered.mgf
SEQ=*..*
IONMODE=Positive
ORGANISM=DMIM-DRUG-METABOLITE-LIBRARY
NAME=PROTRYPTYLINE [M+H]+
PI=Libin Xu
DATACOLLECTOR=Dylan H. Ross
SMILES=CNCCCC1C2=CC=CC=C2C=CC3=CC=CC=C13
INCHI=N/A
INCHIAUX=N/A
PUBMED=N/A
SUBMITUSER=jzemlin
LIBRARYQUALITY=3
SPECTRUMID=CCMSLIB00012468533
USI=mzspec:GNPS:DMIM-DRUG-METABOLITE-LIBRARY:accession:CCMSLIB00012468533
SCANS=3511
55.046047	4420.0
56.052685	20675.0
57.034477	4222.0
58.046093	2197.0
58.999058	180433.0
60.008121	3346.0
61.00486	10150.0
62.989399	2548.0
65.034058	4406.0
66.05069	1268.0
67.05278	8531.0
68.048119	3763.0
69.052933	6605.0
70.064789	18691.0
71.044106	3691.0
72.081413	4564.0
73.019569	8193.0
74.041191	2682.0
75.022324	1343.0
76.026138	571188.0
77.038528	43377.0
78.024605	22250.0
79.051178	18909.0
80.053589	39297.0
81.063324	15859.0
82.059952	5078.0
83.053299	14893.0
84.050095	612403.0
85.034988	37876.0
86.067978	14305.0
87.000084	17174.0
88.026192	44559.0
89.03093	4286.0
90.024841	2498.0
91.059029	251995.0
92.061958	14780.0
93.068436	10079.0
94.05645	2719.0
95.045891	25246.0
96.05719	7086.0
97.035309	39997.0
98.017403	16998.0
99.016304	14169.0
100.0354	4741.0
101.056419	2477.0
102.06221	7310.0
102.933327	1325.0
103.055801	21630.0
104.073914	3557.0
105.074448	116537.0
106.07383	9410.0
107.07972	15269.0
108.06057	12932.0
109.075836	22400.0
110.059219	14049.0
111.047493	14284.0
112.027985	13323.0
113.027153	14165.0
114.038765	18351.0
114.92202	2222.0
115.060059	98938.0
116.025711	170199.0
116.151169	3875.0
117.074615	307110.0
117.198746	1278.0
118.066551	35681.0
118.939201	18870.0
119.080643	15875.0
120.055908	15348.0
120.976196	7165.0
121.083344	20952.0
122.051147	10470.0
122.959229	1893.0
123.064911	49065.0
124.031967	27983.0
125.015167	22681.0
126.04364	5823.0
126.944946	1263.0
127.054047	44713.0
128.065216	43268.0
129.078903	153227.0
130.059128	133969.0
130.917221	1763.0
131.072098	22408.0
132.061401	7313.0
133.060745	17983.0
133.969391	1061.0
134.084778	4841.0
134.920822	1347.0
135.073059	17795.0
136.069977	35945.0
136.947266	60161.0
137.08522	20577.0
138.067337	7213.0
139.033539	31549.0
140.024445	7742.0
140.933182	7880.0
141.067581	57179.0
142.040878	254189.0
142.178375	1287.0
143.029373	37410.0
144.025497	75939.0
144.176743	1059.0
144.950226	2588.0
145.071503	20156.0
146.043671	11844.0
147.070618	17229.0
148.064835	6945.0
148.973068	1950.0
149.082169	15394.0
150.056717	8091.0
150.920685	1041.0
151.056564	21911.0
151.934616	1060.0
152.064819	45634.0
152.916275	4988.0
153.07283	116718.0
153.936783	1049.0
154.081451	50973.0
154.965836	3123.0
155.093201	465472.0
155.240387	7082.0
155.425156	3239.0
155.980042	3503.0
156.095291	70512.0
156.938736	2593.0
157.083588	17385.0
157.95932	1504.0
158.101639	8956.0
158.935471	8837.0
159.09462	17226.0
160.050995	21250.0
160.948792	3072.0
161.082687	18075.0
162.031631	139974.0
162.145645	1200.0
162.913879	1577.0
163.063416	29511.0
164.046341	14400.0
164.936829	19049.0
165.076111	132227.0
166.075516	27715.0
166.948578	2757.0
167.079056	30246.0
168.064041	19548.0
168.959763	2365.0
169.076767	15536.0
170.042923	28396.0
170.938828	1443.0
171.074371	18014.0
171.976974	1625.0
172.091766	6976.0
173.068573	24866.0
174.063217	10570.0
174.894272	27841.0
175.076157	20703.0
176.069916	11635.0
176.902481	2648.0
177.054459	28762.0
178.08667	284099.0
178.222702	1170.0
178.933243	4303.0
179.086182	152979.0
179.959076	1786.0
180.0905	21060.0
180.917694	25569.0
181.075027	36450.0
181.942932	1365.0
182.077667	8379.0
182.920853	3440.0
183.069962	23779.0
184.067947	9357.0
184.917297	1959.0
185.061768	21057.0
185.17215	1119.0
185.993698	2321.0
186.127197	8589.0
186.920578	10611.0
187.06749	46152.0
187.195648	1157.0
187.520905	1668.0
188.056793	15358.0
188.922012	2438.0
189.078598	135470.0
189.221283	1235.0
189.966827	1775.0
190.086456	162464.0
190.242767	1660.0
190.846832	1828.0
190.957535	4166.0
191.096848	1213569.0
191.253403	49104.0
191.378342	28947.0
191.483612	12784.0
191.928665	3751.0
192.100891	370592.0
192.261337	23874.0
192.363495	4033.0
192.945953	6193.0
193.100647	81438.0
193.248444	5713.0
193.96579	1148.0
194.098846	15755.0
194.956985	3757.0
195.089966	20061.0
196.019852	10098.0
196.132263	2877.0
196.903763	19998.0
197.085068	27415.0
197.962997	1517.0
198.08313	7189.0
198.914276	16548.0
199.071045	20049.0
199.998093	9125.0
200.114243	2488.0
200.236252	5044.0
200.929352	15436.0
201.054718	62144.0
201.208923	1249.0
201.944733	1758.0
202.085419	64806.0
202.915054	9463.0
203.09024	273487.0
203.238251	1043.0
203.92601	2236.0
204.101242	163198.0
204.932724	6733.0
205.109787	229406.0
205.260361	1631.0
205.990677	10880.0
206.110901	40344.0
206.953857	4137.0
207.091934	20573.0
207.985336	1784.0
208.102386	5501.0
208.928375	3368.0
209.083633	32595.0
210.0896	8961.0
210.971069	1888.0
211.09053	14443.0
211.968918	1328.0
212.105942	7091.0
212.870056	7873.0
213.055267	13777.0
213.164932	1784.0
213.918701	1469.0
214.084244	9439.0
214.897018	8463.0
215.068329	65009.0
215.937073	2220.0
216.09169	36138.0
216.924255	17365.0
217.108734	86015.0
217.974716	2193.0
218.11972	144745.0
218.942154	8957.0
219.119598	31153.0
219.95697	1657.0
220.115173	6580.0
220.927231	17473.0
221.108582	13101.0
221.977295	1916.0
222.10321	5090.0
222.902756	3502.0
223.046524	23934.0
223.155533	2665.0
224.044495	5523.0
224.154007	1557.0
224.894623	1809.0
225.05864	12210.0
225.158813	2200.0
226.067856	5945.0
226.178818	1471.0
226.902222	2401.0
227.063766	19671.0
227.188614	1207.0
227.965225	2204.0
228.100067	13588.0
228.932343	2498.0
229.090042	14438.0
229.937775	1124.0
230.109528	4801.0
230.875748	5692.0
230.981583	2288.0
231.120605	34731.0
231.948776	2855.0
232.120514	11324.0
232.891922	10865.0
233.02388	4727.0
233.128464	90294.0
233.882385	1337.0
234.006546	2291.0
234.138977	16828.0
234.85878	2620.0
234.981842	5727.0
235.119293	16761.0
235.997498	1890.0
236.124176	3924.0
236.881332	3231.0
236.995102	2370.0
237.10701	16980.0
237.969452	1413.0
238.103546	5274.0
238.898712	9098.0
239.082809	14797.0
240.054657	7039.0
240.220139	4231.0
240.886932	4726.0
241.019043	4185.0
241.138901	3764.0
242.057495	4081.0
242.288162	4467.0
242.88826	3089.0
243.061676	6597.0
243.177994	1383.0
243.966537	1935.0
244.114914	4549.0
244.901764	3045.0
245.076447	21852.0
245.912155	1459.0
246.091141	4131.0
246.955399	4792.0
247.121368	9041.0
247.957382	2517.0
248.130768	2463.0
248.938919	4797.0
249.11351	17946.0
249.983673	1317.0
250.121765	5693.0
250.886047	2365.0
251.087646	35474.0
252.088547	6574.0
252.877319	1229.0
253.007965	5425.0
253.136841	10726.0
254.003098	1551.0
254.140213	4306.0
254.862656	15627.0
255.066406	10676.0
255.184113	1992.0
256.061615	6142.0
256.170807	1082.0
256.294098	1865.0
256.862457	2015.0
257.003235	8859.0
257.155121	3626.0
258.026123	10983.0
258.160614	1744.0
258.885498	6512.0
259.005951	3543.0
259.130005	7231.0
259.899109	1584.0
260.071625	3667.0
260.87851	10009.0
261.109039	13664.0
261.978363	1225.0
262.130798	3769.0
262.930634	4652.0
263.13855	10339.0
263.995483	2946.0
264.186676	35160.0
264.904266	3327.0
265.03952	3586.0
265.161469	17185.0
265.997009	1188.0
266.11676	3490.0
END IONS

BEGIN IONS
PEPMASS=459.256
CHARGE=1
MSLEVEL=2
SOURCE_INSTRUMENT=LC-ESI-qTof
FILENAME=DMIM_centroided_library_abundance_filtered.mgf
SEQ=*..*
IONMODE=Positive
ORGANISM=DMIM-DRUG-METABOLITE-LIBRARY
NAME=ASTEMIZOLE [M+H]+
PI=Libin Xu
DATACOLLECTOR=Dylan H. Ross
SMILES=COC1=CC=C(C=C1)CCN2CCC(CC2)NC3=NC4=CC=CC=C4N3CC5=CC=C(C=C5)F
INCHI=N/A
INCHIAUX=N/A
PUBMED=N/A
SUBMITUSER=jzemlin
LIBRARYQUALITY=3
SPECTRUMID=CCMSLIB00012468653
USI=mzspec:GNPS:DMIM-DRUG-METABOLITE-LIBRARY:accession:CCMSLIB00012468653
SCANS=3631
55.05706	2944.0
56.054134	1897.0
57.061882	3002.0
59.047455	1241.0
60.071049	1190.0
67.058319	3721.0
69.060493	5038.0
70.069191	9277.0
71.063942	1900.0
72.084579	4960.0
73.055847	1400.0
74.081543	1903.0
77.032593	1614.0
79.051521	2864.0
80.034378	1205.0
81.069611	6607.0
82.063667	1112.0
83.0709	4585.0
84.072037	13165.0
85.058823	3119.0
86.098412	9958.0
87.058044	2357.0
88.058311	1218.0
89.062729	4171.0
91.057747	4995.0
93.071968	3763.0
94.07576	1061.0
95.084389	13131.0
96.084595	11490.0
97.044014	40202.0
98.062546	3869.0
99.043358	6630.0
100.0933	1136.0
101.071243	2345.0
102.066101	1301.0
103.042946	2486.0
104.076225	9073.0
105.072159	12706.0
106.066277	1757.0
107.084091	5054.0
108.064117	1865.0
109.068283	34936.0
110.074928	8707.0
111.069061	9736.0
112.064087	3195.0
113.052673	5076.0
114.074463	1038.0
115.075806	3889.0
116.061699	2060.0
117.062309	1706.0
119.067123	6838.0
120.081322	12120.0
121.042747	37299.0
122.085945	60818.0
123.060425	77737.0
124.063873	7586.0
124.957535	19929.0
125.080704	5119.0
126.061813	2634.0
127.075127	3993.0
128.061493	2032.0
129.105881	17694.0
130.092896	5236.0
131.077957	4190.0
132.089508	1778.0
133.067062	13317.0
134.062515	2964.0
135.087311	360254.0
135.217499	2860.0
135.399628	1427.0
136.074142	157041.0
136.935242	4464.0
137.071213	59887.0
138.072372	8362.0
139.06311	24807.0
140.072144	4744.0
140.930527	3773.0
141.086884	4596.0
142.061722	1773.0
142.955948	33603.0
143.101166	3707.0
144.070541	3566.0
145.085312	5335.0
146.015152	4631.0
147.080307	9319.0
148.066528	4185.0
148.975098	1117.0
149.08493	12446.0
150.071442	5179.0
151.083725	13809.0
152.071335	5873.0
153.068008	19534.0
154.070862	4777.0
155.078369	12547.0
156.081131	2963.0
156.896713	5526.0
157.081009	6248.0
158.079514	3244.0
158.93364	9805.0
159.101562	8634.0
160.07103	4181.0
160.939804	1336.0
161.097534	9963.0
162.069687	6180.0
163.085892	24445.0
164.079926	17002.0
164.944534	22867.0
165.077835	27952.0
166.073608	9677.0
167.076385	17028.0
167.995407	19457.0
169.085739	15533.0
170.079971	3337.0
171.091202	7272.0
172.089355	2403.0
173.098434	10492.0
174.078766	2810.0
174.929626	7181.0
175.096939	10947.0
176.113861	13043.0
176.967239	4406.0
177.085358	35929.0
178.096359	7927.0
178.966476	1674.0
179.090942	51108.0
180.086502	12260.0
180.915329	9085.0
181.090057	78879.0
182.090973	9123.0
182.921814	1431.0
183.085632	26408.0
184.073807	18287.0
184.998428	1988.0
185.115021	9283.0
186.021271	7158.0
186.123474	6796.0
186.94133	1950.0
187.111115	10869.0
188.067764	3774.0
189.093002	9689.0
190.094101	2771.0
191.088882	23850.0
192.093384	6653.0
192.964157	1639.0
193.094009	49729.0
194.098663	8675.0
195.078461	82265.0
196.100357	11307.0
196.937729	14575.0
197.092163	93182.0
197.208054	2040.0
198.099823	10684.0
198.977249	7871.0
199.103149	25593.0
200.115509	6069.0
200.943588	164016.0
201.116547	9900.0
202.103882	3875.0
202.943466	2863.0
203.103683	12774.0
203.237274	1010.0
204.135696	9766.0
204.916428	9967.0
205.104599	22619.0
206.084427	9778.0
206.978195	1248.0
207.105606	33554.0
208.104156	7117.0
209.094086	68391.0
210.101227	11103.0
211.103378	39066.0
212.107193	7021.0
212.896454	5938.0
213.088852	20350.0
214.098572	5991.0
215.000473	13948.0
215.159637	9825.0
215.989105	1117.0
216.145157	15885.0
216.930588	70235.0
217.096527	18321.0
218.007156	2021.0
218.16507	216629.0
218.322159	1643.0
218.936386	4003.0
219.048294	1886.0
219.153046	50538.0
220.146484	6553.0
220.930435	9530.0
221.11937	37121.0
221.99147	1099.0
222.119705	9207.0
222.927246	57963.0
223.107147	51759.0
224.110626	8026.0
224.94371	1806.0
225.102402	33752.0
226.119904	9127.0
226.905701	4360.0
227.086182	29859.0
227.197342	1464.0
228.106384	6062.0
228.993408	1603.0
229.137009	12737.0
230.135849	3833.0
230.936874	1070.0
231.073105	18290.0
231.185333	1122.0
232.096268	15091.0
232.933441	8101.0
233.117996	26926.0
234.126602	7111.0
234.993515	9641.0
235.130219	43811.0
236.014725	1344.0
236.134094	8607.0
236.859375	1270.0
236.975525	8103.0
237.125198	61263.0
237.959061	1078.0
238.125229	10656.0
238.917999	42522.0
239.119064	48069.0
239.981369	1838.0
240.116379	7370.0
240.235016	13669.0
240.920181	3688.0
241.107651	11855.0
241.249008	2389.0
242.125824	10042.0
242.894684	2800.0
243.123352	10265.0
244.130661	4092.0
244.909988	15084.0
245.118576	9175.0
246.132492	2626.0
246.96283	2413.0
247.132202	16652.0
247.948456	1073.0
248.133362	4855.0
248.939011	4046.0
249.075867	101908.0
249.186676	6630.0
250.09848	17602.0
250.965195	4726.0
251.130753	61489.0
252.131439	11634.0
252.968964	2716.0
253.133301	57860.0
254.010193	1153.0
254.142075	12213.0
254.887421	11032.0
255.130173	32544.0
256.138977	6303.0
256.867767	1216.0
256.995209	22291.0
257.141998	6822.0
257.99762	2060.0
258.12796	4287.0
258.972198	2516.0
259.128815	8941.0
260.116699	3773.0
260.906891	7729.0
261.013062	1694.0
261.14743	17714.0
261.980988	1112.0
262.149414	5408.0
262.932495	4751.0
263.146759	26841.0
263.971191	1323.0
264.147858	6648.0
264.960205	4252.0
265.120453	43363.0
265.94812	1144.0
266.128143	9908.0
266.898041	9758.0
267.130005	56000.0
268.005798	4658.0
268.138855	10366.0
268.290009	5782.0
269.016174	1583.0
269.138641	41031.0
269.288086	1602.0
270.144104	8047.0
270.940948	3037.0
271.113647	13398.0
271.237915	129677.0
271.973419	1032.0
272.112274	2269.0
272.237305	21547.0
272.96756	9343.0
273.15451	9439.0
274.118744	3502.0
274.972076	3518.0
275.148987	14732.0
276.151245	4987.0
276.887634	3688.0
277.012207	2017.0
277.153778	32654.0
277.985443	1020.0
278.156219	7950.0
278.906586	4553.0
279.035156	1083.0
279.152649	37472.0
280.145844	9444.0
280.995514	1576.0
281.140228	34971.0
282.149017	7982.0
282.870087	5612.0
283.138916	32040.0
283.277832	7053.0
283.975922	2138.0
284.144501	6919.0
284.283081	1766.0
284.910461	3518.0
285.13559	20044.0
286.02951	13014.0
286.162415	3297.0
287.007629	2474.0
287.143799	10903.0
287.980652	1731.0
288.150177	4695.0
288.927155	7697.0
289.153625	12707.0
289.982208	2114.0
290.152191	3789.0
290.928558	1009.0
291.034058	1816.0
291.164703	24881.0
291.945709	1064.0
292.160645	7125.0
292.87326	1688.0
293.002563	1468.0
293.166229	46055.0
294.162567	11195.0
294.916687	6083.0
295.159882	50000.0
295.974518	2045.0
296.162933	10423.0
296.318817	2019.0
296.851532	1114.0
296.967651	67762.0
297.151642	23833.0
297.294464	1266.0
297.976532	5361.0
298.160309	5343.0
298.826355	1415.0
298.939636	10691.0
299.145447	13059.0
299.966675	1117.0
300.15387	4386.0
300.850189	1212.0
300.971161	10661.0
301.153168	10718.0
301.996429	7707.0
302.154114	3443.0
302.971954	2925.0
303.166718	12177.0
304.048401	4478.0
304.19278	2445.0
304.966095	4046.0
305.167755	21449.0
306.162842	4921.0
306.885925	1806.0
307.021393	1964.0
307.169983	37197.0
308.007324	16838.0
308.147858	69227.0
309.000977	4046.0
309.166534	57161.0
309.995728	1416.0
310.168579	12419.0
310.877777	1853.0
310.996277	4765.0
311.180237	47162.0
311.309509	2936.0
312.085876	11541.0
312.209656	6189.0
312.938934	45025.0
313.066101	1648.0
313.17157	17887.0
313.949677	4296.0
314.177216	4734.0
314.828918	2309.0
314.977905	29964.0
315.165466	10805.0
315.978546	3160.0
316.175507	3703.0
316.956848	13310.0
317.176483	11955.0
317.949677	1312.0
318.176819	3895.0
318.959198	20296.0
319.107758	3820.0
319.211853	24424.0
319.960419	2605.0
320.099579	1173.0
320.215149	5839.0
320.930176	3497.0
321.189697	30761.0
322.004272	1199.0
322.190735	7052.0
322.850525	1077.0
322.964935	4892.0
323.172119	34299.0
323.980011	7132.0
324.172516	8045.0
324.339783	3135.0
324.88797	1464.0
325.026398	1748.0
325.17453	40233.0
325.327576	1231.0
325.999542	2930.0
326.178162	8912.0
326.387787	1846.0
326.921631	3808.0
327.049011	1202.0
327.17514	23302.0
327.926697	2655.0
328.077972	1503.0
328.198303	4010.0
328.908691	23988.0
329.023865	107874.0
329.185516	10163.0
329.918945	3489.0
330.07547	38398.0
330.215637	1519.0
330.952789	17052.0
331.086365	4438.0
331.195984	12993.0
332.071167	5368.0
332.21225	3224.0
332.939636	6354.0
333.087372	1635.0
333.202637	18838.0
334.054169	9306.0
334.209442	4164.0
334.926361	17630.0
335.053894	2265.0
335.196411	33134.0
335.932343	1628.0
336.197113	7784.0
336.96048	26295.0
337.190826	33016.0
337.299683	1423.0
337.967041	2468.0
338.190796	7580.0
338.940125	7190.0
339.178467	28735.0
339.955078	2552.0
340.188721	5879.0
340.407623	2440.0
340.938873	6936.0
341.184174	25326.0
341.976929	1758.0
342.185364	5986.0
342.937714	2615.0
343.196625	19221.0
343.917847	1632.0
344.044006	1136.0
344.189911	5683.0
344.96994	18887.0
345.18811	10493.0
345.300781	1274.0
345.912781	2249.0
346.065399	56761.0
346.235809	3230.0
346.910034	2768.0
347.044708	155837.0
347.213715	14741.0
348.054321	23425.0
348.216553	4011.0
348.892487	1795.0
349.047089	6492.0
349.201752	29234.0
350.017639	2138.0
350.198639	7816.0
350.889557	10369.0
351.008667	91198.0
351.195953	31415.0
352.02533	10871.0
352.194427	7480.0
352.93927	13225.0
353.073181	1761.0
353.195923	28147.0
353.919312	1742.0
354.059082	1018.0
354.200806	7121.0
354.919037	6389.0
355.067047	1180.0
355.182526	17181.0
355.982544	1784.0
356.185211	4946.0
356.911469	3633.0
357.182465	16180.0
357.980194	1377.0
358.186157	4758.0
358.94577	27474.0
359.187439	12438.0
359.311707	1510.0
359.955597	2380.0
360.21402	3762.0
360.368835	1046.0
360.94986	3313.0
361.210419	15183.0
361.326599	1822.0
362.052917	1698.0
362.220642	4607.0
363.012421	22480.0
363.208862	20367.0
363.332855	1078.0
364.022919	3846.0
364.209381	5313.0
364.97052	1191.0
365.079407	3298.0
365.19104	34324.0
365.977142	1433.0
366.18161	8051.0
366.86261	3337.0
366.985718	40718.0
367.202271	26488.0
368.023041	9390.0
368.207184	6294.0
368.442047	9054.0
368.890594	3564.0
369.024567	75043.0
369.202667	20950.0
369.443909	2348.0
370.029541	8872.0
370.209198	5136.0
370.869812	3028.0
371.026367	3380.0
371.205597	15956.0
372.021698	1555.0
372.200378	4425.0
372.86731	3775.0
373.010254	4273.0
373.198608	34396.0
373.328613	1651.0
374.05719	7187.0
374.209167	6222.0
374.919037	10095.0
375.071045	2219.0
375.220703	15624.0
375.337036	1866.0
375.947693	1987.0
376.138336	1753.0
376.26358	5145.0
376.934906	4058.0
377.083008	1043.0
377.2229	19861.0
377.338226	1060.0
378.004364	1559.0
378.201141	4829.0
378.968628	5253.0
379.202301	21117.0
379.304047	2385.0
379.934875	1484.0
380.210236	5821.0
380.925964	4377.0
381.122467	25147.0
381.231415	14150.0
381.960663	3903.0
382.098633	1930.0
382.21524	5990.0
382.960541	14002.0
383.100189	1527.0
383.211914	24247.0
384.004791	19157.0
384.212677	8130.0
384.999329	37303.0
385.214233	15382.0
386.004333	5874.0
386.220551	4266.0
386.839813	1094.0
386.997894	4905.0
387.220154	12528.0
387.35849	1256.0
387.970154	2765.0
388.13974	1324.0
388.262726	3278.0
388.845184	1211.0
388.973053	3656.0
389.230347	15997.0
389.357758	2139.0
390.026978	9410.0
390.241089	4826.0
390.901978	5238.0
391.039978	3807.0
391.208496	182677.0
391.375183	5347.0
391.728241	1884.0
392.025024	2101.0
392.210266	32262.0
392.919983	4323.0
393.066864	1717.0
393.222321	25190.0
393.351654	1106.0
393.94809	1293.0
394.09494	1147.0
394.231781	7177.0
394.948883	7081.0
395.183502	89152.0
395.305664	1748.0
395.972229	1551.0
396.191315	14967.0
396.916565	4693.0
397.207611	19875.0
397.939667	1434.0
398.224976	5575.0
398.912415	3358.0
399.218353	15392.0
399.347382	1144.0
399.973206	12503.0
400.221832	4696.0
400.97821	8338.0
401.231628	14096.0
401.35495	1921.0
401.96463	2275.0
402.227325	3946.0
402.78125	1396.0
402.95517	3020.0
403.185699	6965.0
403.300568	10076.0
403.946381	1983.0
404.247589	4089.0
404.365723	1035.0
405.02005	4954.0
405.245667	15258.0
405.365967	1270.0
405.994446	22836.0
406.246429	5052.0
406.847504	1170.0
406.993927	4583.0
407.233154	17494.0
407.998199	3820.0
408.237305	5233.0
408.842072	1250.0
409.002167	3133.0
409.233276	19595.0
410.041534	14181.0
410.236908	4863.0
410.96347	5230.0
411.112915	3928.0
411.23175	16398.0
412.03891	1208.0
412.236603	5468.0
412.889954	2659.0
413.207458	15749.0
413.323608	2785.0
413.99292	1103.0
414.204956	4169.0
414.890839	2870.0
415.171295	3197.0
415.283386	13247.0
415.958679	1160.0
416.226654	4225.0
416.346863	1382.0
416.915985	3270.0
417.082428	1456.0
417.25293	16113.0
417.367828	1960.0
418.159851	1349.0
418.287476	4785.0
418.913208	2732.0
419.106384	1868.0
419.263062	18568.0
419.984894	2113.0
420.267761	5290.0
420.936798	1409.0
421.090149	1506.0
421.246185	16286.0
421.370575	1057.0
421.968109	10471.0
422.238861	5583.0
422.95282	2748.0
423.117889	1457.0
423.245392	18032.0
423.974457	2647.0
424.246918	6225.0
424.94928	1871.0
425.240112	17605.0
425.352203	1133.0
425.96698	2218.0
426.243042	5492.0
426.868256	1471.0
427.013428	452430.0
427.232483	15409.0
427.360229	2111.0
428.024292	60905.0
428.255493	5047.0
429.019928	15739.0
429.191803	4044.0
429.308197	13475.0
430.015503	4357.0
430.282776	5095.0
430.831848	1286.0
430.985992	6876.0
431.182648	4484.0
431.302704	14475.0
432.022156	8790.0
432.278656	4940.0
432.883118	1217.0
433.037323	3372.0
433.166534	1145.0
433.285339	18400.0
434.033447	1089.0
434.259338	9729.0
434.805115	1192.0
434.946075	1436.0
435.106384	1139.0
435.255096	16647.0
435.365662	1984.0
436.006714	1359.0
436.263245	5625.0
436.918762	1737.0
437.243073	15540.0
437.362976	1379.0
437.923645	2153.0
438.117798	1135.0
438.267059	5515.0
438.95694	1232.0
439.244446	13970.0
439.940582	1317.0
440.245453	5552.0
440.886627	1591.0
441.129639	1122.0
441.259857	14079.0
442.249268	4846.0
442.985748	202401.0
443.182373	4788.0
443.312347	14527.0
443.983948	19807.0
444.298187	5126.0
444.985291	14859.0
445.208099	4572.0
445.317719	25498.0
445.982635	2114.0
446.200104	1572.0
446.318573	7455.0
446.961212	5041.0
447.197723	4658.0
447.317963	17815.0
448.0	5925.0
448.309601	4831.0
448.838654	1420.0
448.996613	309255.0
449.144592	2559.0
449.284851	19530.0
449.413452	1131.0
449.996338	33661.0
450.256165	6342.0
450.36673	1284.0
450.821777	1186.0
450.998993	9960.0
451.247711	13368.0
451.364075	2938.0
452.012482	2621.0
452.280853	4581.0
452.791504	1549.0
452.9711	5495.0
453.246399	11631.0
453.362061	1281.0
454.000305	2553.0
454.269318	4181.0
454.809113	1256.0
454.982758	1666.0
455.259583	11832.0
456.237305	26792.0
456.971497	1893.0
457.255585	16189.0
457.369019	2732.0
457.971527	1344.0
458.263397	4856.0
458.950562	7101.0
459.140594	2492.0
459.285706	165006.0
459.406921	3898.0
459.509094	1478.0
459.80246	1418.0
459.945129	1740.0
460.286133	47958.0
460.418091	1051.0
460.953125	2830.0
461.094543	1182.0
461.214203	4827.0
END IONS

BEGIN IONS
PEPMASS=354.207
CHARGE=1
MSLEVEL=2
SOURCE_INSTRUMENT=LC-ESI-qTof
FILENAME=DMIM_centroided_library_abundance_filtered.mgf
SEQ=*..*
IONMODE=Positive
ORGANISM=DMIM-DRUG-METABOLITE-LIBRARY
NAME=PIPENZOLATE [M]+
PI=Libin Xu
DATACOLLECTOR=Dylan H. Ross
SMILES=CC[N+]1(CCCC(C1)OC(=O)C(C2=CC=CC=C2)(C3=CC=CC=C3)O)C
INCHI=N/A
INCHIAUX=N/A
PUBMED=N/A
SUBMITUSER=jzemlin
LIBRARYQUALITY=3
SPECTRUMID=CCMSLIB00012468712
USI=mzspec:GNPS:DMIM-DRUG-METABOLITE-LIBRARY:accession:CCMSLIB00012468712
SCANS=3690
55.054028	3388.0
56.054832	2488.0
57.065678	5408.0
58.068855	15779.0
59.017914	3634.0
60.082779	11090.0
63.003288	1357.0
65.037216	6237.0
67.058167	51561.0
68.05674	4482.0
69.060181	7869.0
70.067986	25054.0
71.064354	2770.0
72.08532	501757.0
72.323395	1291.0
73.083397	17282.0
74.067207	1739.0
76.027046	8764.0
77.042831	52544.0
78.045372	3116.0
79.055229	5568.0
80.049828	4806.0
80.949203	1041.0
81.066994	9155.0
82.069633	13849.0
83.061401	6906.0
84.071762	55048.0
85.066544	22016.0
86.095352	13255.0
87.045433	3195.0
88.049789	4424.0
89.054703	2702.0
91.05822	17532.0
92.063606	1308.0
93.07061	6862.0
94.069611	2647.0
95.081528	16552.0
96.084785	27503.0
97.06337	74439.0
98.100685	181769.0
98.977158	4070.0
99.089851	16490.0
100.084801	3247.0
101.06852	2563.0
102.108635	5839.0
103.056023	3659.0
104.08709	2002.0
105.046303	438871.0
105.160545	2204.0
105.31694	1260.0
106.051956	28933.0
107.08223	11514.0
108.073074	5806.0
109.090538	20511.0
110.079124	12977.0
111.07666	16334.0
112.000832	1082.0
112.109634	18626.0
113.052177	10354.0
114.095207	48055.0
115.093292	12715.0
116.0765	20177.0
117.07029	5069.0
118.064026	1534.0
118.93293	1313.0
119.071365	11991.0
120.078766	10855.0
120.97551	2839.0
121.08696	22165.0
122.078323	9288.0
123.06456	70898.0
124.09481	19929.0
124.98188	11706.0
125.088097	8831.0
126.131882	248586.0
126.999832	2453.0
127.127312	23376.0
128.146973	71146.0
129.112411	29976.0
130.069504	22505.0
131.079071	6871.0
132.082199	2108.0
133.060074	17065.0
134.075638	4004.0
135.081909	15348.0
136.06958	162303.0
136.937607	14045.0
137.072968	47628.0
138.073349	7716.0
139.053696	29404.0
140.059219	6000.0
140.943542	2109.0
141.073608	7917.0
141.453903	6802.0
142.07402	58423.0
142.461456	1008.0
142.974503	16604.0
143.108078	8040.0
143.417679	1188.0
143.647598	1685.0
143.837616	2927.0
144.005478	9221.0
144.148834	3059198.0
144.304596	405803.0
144.449539	133502.0
145.016754	69898.0
145.147858	777820.0
145.269577	34384.0
145.814346	11946.0
145.948532	113337.0
146.124771	48370.0
146.541367	1121.0
146.663727	9095.0
146.782883	59788.0
146.963333	4581.0
147.097397	11040.0
147.438965	1243.0
147.582565	31297.0
147.698593	3716.0
148.077118	4649.0
148.396561	14908.0
148.499878	2186.0
148.974884	1419.0
149.099838	17211.0
149.253143	3792.0
150.067719	6273.0
151.080627	16114.0
152.070877	8360.0
153.064621	22440.0
154.091156	48360.0
155.082214	20901.0
156.077209	6682.0
156.911514	2368.0
157.079666	8957.0
158.092407	4703.0
158.942749	8111.0
159.10112	11414.0
160.061386	8068.0
160.944168	1464.0
161.092651	14043.0
162.040009	18427.0
163.084	24624.0
164.083893	8287.0
164.945969	28909.0
165.077362	35659.0
166.081253	22344.0
166.953613	1024.0
167.089417	69841.0
168.08139	12495.0
169.071243	17527.0
170.047592	8236.0
171.082901	14417.0
172.138947	58905.0
173.014023	7627.0
173.122025	14843.0
174.084442	4850.0
174.911316	14487.0
175.098145	14222.0
176.104004	3927.0
176.93103	3054.0
177.080002	29161.0
178.091141	8355.0
178.956467	1703.0
179.087845	50101.0
180.079575	10852.0
180.917923	17707.0
181.08194	48777.0
182.087524	8437.0
182.929642	2047.0
183.088394	271912.0
184.092361	38522.0
184.216827	3844.0
185.072739	16467.0
185.184082	2365.0
186.094604	4968.0
186.229156	45104.0
186.934814	5970.0
187.082947	11054.0
187.208694	8296.0
188.066818	7022.0
189.088394	11387.0
189.982132	1104.0
190.084625	3495.0
190.944107	1375.0
191.085129	28801.0
192.084488	6856.0
192.953217	2508.0
193.088898	49184.0
194.087555	13858.0
194.968689	1604.0
195.09642	37834.0
195.994461	1209.0
196.09668	7277.0
196.91272	18052.0
197.092148	82095.0
198.100098	9416.0
198.899979	5093.0
199.070633	16514.0
199.19603	1153.0
199.975571	5410.0
200.103989	14110.0
200.95311	20683.0
201.114517	11321.0
201.969238	1468.0
202.106934	4197.0
202.918121	1922.0
203.097397	19826.0
204.104385	5221.0
204.928421	2080.0
205.098297	21949.0
206.093399	6017.0
206.983612	1688.0
207.099731	30205.0
208.106705	6641.0
208.945923	1599.0
209.089615	69353.0
210.097275	11455.0
210.974823	1291.0
211.101364	25885.0
212.107208	7645.0
212.248962	1604.0
212.869736	7696.0
212.999084	1358.0
213.102356	15769.0
214.099625	6285.0
214.885513	2369.0
215.04834	14206.0
215.158463	2309.0
216.076385	7213.0
216.924606	35127.0
217.089081	16704.0
217.954178	1152.0
218.091629	4357.0
218.955933	3895.0
219.111008	17545.0
220.105362	4830.0
220.941925	6389.0
221.113434	30470.0
222.109772	7530.0
222.939438	6120.0
223.10199	46896.0
223.974701	1018.0
224.105072	8327.0
224.926682	1286.0
225.097626	29241.0
226.124893	8895.0
226.898239	2522.0
227.054855	18354.0
227.16507	3034.0
228.003799	1746.0
228.139557	5502.0
229.087418	12718.0
230.112946	3934.0
230.919724	1364.0
231.06897	19247.0
231.178558	1504.0
232.096008	7328.0
232.893555	5714.0
233.09761	34599.0
233.970047	1344.0
234.11412	6287.0
234.994873	4632.0
235.122681	29612.0
235.983887	1301.0
236.125763	6435.0
236.989548	2720.0
237.119568	41251.0
237.982727	1292.0
238.112106	9096.0
238.92894	9644.0
239.109177	29552.0
240.083023	8465.0
240.233002	8911.0
240.936401	2602.0
241.096252	14304.0
241.238876	1456.0
242.095688	5820.0
242.237503	3891.0
242.894043	2180.0
243.013718	3095.0
243.129959	8141.0
243.996094	1651.0
244.132004	3946.0
244.909958	5134.0
245.087585	18760.0
245.202499	1146.0
245.955917	1417.0
246.115479	4024.0
246.94165	2481.0
247.114777	13408.0
248.03006	1475.0
248.163467	5304.0
248.952408	4138.0
249.118866	32687.0
249.583023	1162.0
249.950928	1201.0
250.117523	7712.0
251.000259	2651.0
251.122604	50477.0
251.99086	1173.0
252.127014	8989.0
253.004562	4925.0
253.131836	31995.0
254.006241	1732.0
254.144608	8423.0
254.864746	7846.0
254.995911	2603.0
255.128464	24443.0
256.096802	7552.0
256.248627	2549.0
256.875854	1094.0
257.00116	11224.0
257.139404	5803.0
258.033875	7274.0
258.163269	2730.0
258.855927	1175.0
258.982819	4941.0
259.129547	9708.0
259.913971	1065.0
260.100128	3942.0
260.895294	5951.0
261.024841	2676.0
261.142761	19395.0
261.976746	1818.0
262.144562	4790.0
262.932983	3359.0
263.140778	21529.0
263.969971	1440.0
264.137939	5361.0
264.956482	3771.0
265.130005	27874.0
265.99881	1635.0
266.147217	6947.0
266.909851	5921.0
267.014221	1429.0
267.129333	42617.0
268.001801	1027.0
268.116699	10756.0
268.28421	2088.0
269.002014	3358.0
269.143188	23772.0
269.996094	1531.0
270.146271	5245.0
270.329895	97126.0
270.510681	1450.0
270.795105	1674.0
270.982727	5800.0
271.126801	14648.0
271.330963	21262.0
272.008453	1583.0
272.139923	4028.0
272.331604	1863.0
272.882843	3840.0
273.019012	2957.0
273.142334	11496.0
274.004395	1741.0
274.120148	2802.0
274.269562	1997.0
274.904602	1546.0
275.026581	2766.0
275.157684	15247.0
276.009125	1137.0
276.153503	5422.0
276.873322	3930.0
277.016754	3076.0
277.151886	26697.0
277.998077	2689.0
278.144897	6883.0
278.908478	2659.0
279.016846	1022.0
279.147583	26008.0
279.986115	1287.0
280.151917	7305.0
280.967133	2972.0
281.138824	23395.0
281.990295	2209.0
282.137054	5332.0
282.876495	6085.0
283.010071	3390.0
283.130493	20434.0
284.073242	7001.0
284.181427	2211.0
284.338348	5179.0
284.890869	2086.0
285.007355	1669.0
285.124207	11345.0
285.324036	1100.0
286.067047	9734.0
286.183685	1356.0
286.990173	4922.0
287.150909	10401.0
288.019501	3235.0
288.155762	2565.0
288.885864	7837.0
289.140778	19463.0
289.249664	1426.0
290.02771	1325.0
290.155792	4470.0
290.917786	1069.0
291.033478	2372.0
291.158905	25249.0
292.172333	5595.0
292.840363	1203.0
292.994873	2119.0
293.157806	27809.0
294.01413	1410.0
294.154877	7421.0
294.885925	3023.0
295.004578	1402.0
295.158691	28383.0
295.983734	1798.0
296.157806	6834.0
296.960999	5019.0
297.144135	12489.0
297.98584	1362.0
298.148224	3513.0
298.356628	4020.0
298.827179	2337.0
298.940582	9092.0
299.146301	9415.0
299.358948	1094.0
300.077423	3490.0
300.200775	1171.0
300.877014	3966.0
301.007996	3513.0
301.15451	8300.0
302.063202	8877.0
302.205536	1766.0
302.884399	1931.0
303.027466	2035.0
303.165192	14442.0
304.006378	2130.0
304.15567	4517.0
304.868561	4951.0
305.032318	1590.0
305.177582	22040.0
306.040253	1010.0
306.176971	5105.0
306.900299	3008.0
307.035187	1626.0
307.168854	27487.0
307.948669	1188.0
308.12442	8862.0
308.229431	1036.0
308.99704	2502.0
309.171417	24745.0
310.004395	1966.0
310.176483	5986.0
310.870697	1666.0
311.022186	3717.0
311.174866	15231.0
311.93988	1219.0
312.073914	12390.0
312.19693	1976.0
312.925751	4212.0
313.08548	8452.0
313.201447	5637.0
314.06604	2905.0
314.195007	2282.0
314.813568	3316.0
314.976257	7184.0
315.173035	7591.0
315.986237	2236.0
316.159973	3479.0
316.850616	2835.0
317.018433	3793.0
317.191956	14705.0
318.031647	1726.0
318.179382	4823.0
318.946289	4160.0
319.075928	1425.0
319.191376	23565.0
319.955444	1579.0
320.198334	5834.0
320.848572	5760.0
320.952698	2633.0
321.179413	22068.0
321.967743	1414.0
322.167847	5130.0
322.867981	3865.0
323.046967	2231.0
323.181641	26055.0
323.965149	1886.0
324.17627	5526.0
324.884644	1450.0
325.019531	1292.0
325.171173	17603.0
326.00296	2479.0
326.178894	4517.0
326.923157	1910.0
327.109375	18871.0
327.234375	5494.0
328.065552	7536.0
328.213196	3524.0
328.892395	3839.0
329.020233	5440.0
329.182861	8765.0
329.897095	1239.0
330.086121	15468.0
330.223022	1497.0
330.77243	1447.0
330.940521	2565.0
331.066376	3036.0
331.192444	15831.0
331.912415	1062.0
332.073792	10380.0
332.217957	2868.0
332.867645	2171.0
333.057251	3331.0
333.197815	22564.0
334.062012	6733.0
334.218628	5444.0
334.874908	2744.0
335.039001	3015.0
335.196899	25299.0
336.013031	2206.0
336.209656	19321.0
336.817444	3532.0
336.956543	2509.0
337.083618	1220.0
337.192352	22774.0
338.003754	2250.0
338.193329	6226.0
338.843811	4289.0
338.97757	1444.0
339.18631	12595.0
340.042664	1179.0
340.184845	4392.0
340.878876	3451.0
341.008789	1519.0
341.184235	9694.0
342.006836	1026.0
342.192352	3550.0
342.881012	2124.0
343.020508	1101.0
343.192291	10501.0
344.027954	3281.0
344.192749	2624.0
344.911011	3805.0
345.194122	13781.0
346.059937	33744.0
346.230286	3051.0
346.859589	1262.0
347.046722	12459.0
347.207214	23226.0
347.548248	1891.0
348.056122	5224.0
348.219788	5712.0
348.963135	2288.0
349.202911	30088.0
349.34494	1021.0
350.030579	4595.0
350.203278	6870.0
350.879486	1833.0
351.012848	6379.0
351.197113	23467.0
352.073456	7189.0
352.220642	4852.0
352.755768	1050.0
352.900299	3592.0
353.063477	2437.0
353.196808	15286.0
353.764069	1510.0
353.906433	1338.0
354.048492	4863.0
354.227081	961074.0
354.439789	73701.0
354.598816	48134.0
354.745758	21011.0
354.926208	1604.0
355.082458	1380.0
355.229126	377423.0
355.414185	4430.0
355.5625	27236.0
355.744934	47557.0
355.896576	11706.0
356.020447	2232.0
356.168304	3192.0
END IONS

BEGIN IONS
PEPMASS=145.065
CHARGE=1
MSLEVEL=2
SOURCE_INSTRUMENT=LC-ESI-qTof
FILENAME=DMIM_centroided_library_abundance_filtered.mgf
SEQ=*..*
IONMODE=Positive
ORGANISM=DMIM-DRUG-METABOLITE-LIBRARY
NAME=beta-NAPHTHOL [M+H]+
PI=Libin Xu
DATACOLLECTOR=Dylan H. Ross
SMILES=C1=CC=C2C=C(C=CC2=C1)O
INCHI=N/A
INCHIAUX=N/A
PUBMED=N/A
SUBMITUSER=jzemlin
LIBRARYQUALITY=3
SPECTRUMID=CCMSLIB00012468949
USI=mzspec:GNPS:DMIM-DRUG-METABOLITE-LIBRARY:accession:CCMSLIB00012468949
SCANS=3927
59.00832	1187.0
61.00861	1064.0
63.001736	1616.0
65.037987	2102.0
67.047661	2875.0
69.023109	1547.0
72.957932	1044.0
77.043007	11062.0
78.048546	2580.0
79.04953	6059.0
80.053055	2761.0
81.03582	2686.0
82.0616	1466.0
83.020935	1062.0
84.060852	1367.0
85.001228	2220.0
89.032509	1324.0
91.057579	15712.0
92.054642	2080.0
93.061028	2494.0
94.060753	1168.0
95.052475	2942.0
97.024467	2271.0
98.02388	1374.0
99.003136	1678.0
100.023132	1258.0
102.05883	1355.0
102.942268	2700.0
103.049118	3592.0
104.067314	1580.0
105.070724	7434.0
106.065445	2213.0
107.05191	5448.0
108.057129	2456.0
109.055969	5753.0
110.043167	3223.0
111.017197	2068.0
115.058815	17736.0
116.063416	4700.0
117.068336	5441.0
118.073799	2475.0
118.930824	4952.0
119.077271	5442.0
120.067047	2365.0
120.944092	1603.0
121.065605	5434.0
122.086349	6384.0
122.95047	5965.0
123.072212	8032.0
124.046738	3291.0
125.000656	6291.0
126.044991	2340.0
127.054001	10366.0
128.054916	13893.0
129.07283	7819.0
130.081787	3385.0
131.073318	5145.0
132.076767	1877.0
132.921249	1490.0
133.080032	3547.0
134.08931	1912.0
134.903748	15905.0
135.072113	7292.0
136.071426	3562.0
136.927887	1870.0
137.073303	4290.0
138.080276	1963.0
139.051285	6526.0
140.056168	2039.0
140.950195	1916.0
141.069733	12361.0
142.077286	4845.0
142.948288	2090.0
143.059769	6473.0
144.08226	3382.0
145.069824	5601.0
146.078339	2085.0
END IONS

BEGIN IONS
PEPMASS=261.131
CHARGE=1
MSLEVEL=2
SOURCE_INSTRUMENT=LC-ESI-qTof
FILENAME=DMIM_centroided_library_abundance_filtered.mgf
SEQ=*..*
IONMODE=Positive
ORGANISM=DMIM-DRUG-METABOLITE-LIBRARY
NAME=NONOXYNOL-9_metabolite_066 [M+Na]+
PI=Libin Xu
DATACOLLECTOR=Dylan H. Ross
SMILES=OCCOCCOCCOCCOCCO
INCHI=N/A
INCHIAUX=N/A
PUBMED=N/A
SUBMITUSER=jzemlin
LIBRARYQUALITY=3
SPECTRUMID=CCMSLIB00012468969
USI=mzspec:GNPS:DMIM-DRUG-METABOLITE-LIBRARY:accession:CCMSLIB00012468969
SCANS=3947
55.040508	2352.0
56.04681	5812.0
57.023899	3074.0
58.059044	1187.0
58.999577	36061.0
60.028858	1156.0
61.007408	2872.0
62.991455	1216.0
65.025558	1917.0
67.052719	6066.0
68.046265	2547.0
69.040962	4065.0
70.065041	9368.0
71.050163	5371.0
72.084091	2956.0
73.020775	3607.0
74.037369	1387.0
76.026642	87926.0
77.040855	13755.0
78.029709	5178.0
79.04995	10639.0
80.053741	17568.0
81.062088	9894.0
82.059898	3521.0
83.055977	15092.0
84.05275	113947.0
85.018761	17188.0
86.060501	8160.0
87.000275	6127.0
88.027756	11511.0
89.040108	1970.0
91.058952	21797.0
92.053574	3101.0
93.068993	7854.0
94.061897	2671.0
95.036499	19595.0
96.05336	4621.0
97.033104	16694.0
98.020386	9727.0
99.011955	9841.0
100.031181	6683.0
101.037346	2708.0
102.03521	2204.0
102.95282	4913.0
103.059433	2083.0
104.092712	3097.0
105.06797	15485.0
106.060364	4087.0
107.075203	10949.0
108.058495	10400.0
109.072815	14967.0
110.061218	8387.0
111.042137	9618.0
112.027245	9809.0
113.030594	7541.0
114.056168	8573.0
115.05809	7489.0
116.02758	44149.0
116.149689	14264.0
117.070061	10143.0
118.0354	3628.0
118.929031	57916.0
119.080879	14974.0
120.07135	8156.0
120.968002	8031.0
121.083084	14867.0
122.067841	7595.0
122.935959	2612.0
123.06366	40607.0
124.04274	16898.0
125.020691	12869.0
126.04187	3642.0
127.046623	5898.0
128.052216	8676.0
129.080933	17318.0
130.060135	28472.0
131.075897	10803.0
132.058929	6907.0
132.981613	2079.0
133.084854	11920.0
134.086227	4663.0
134.913574	4058.0
135.073059	14320.0
136.070068	42982.0
136.941483	95339.0
137.083298	14071.0
138.060364	4842.0
139.030655	18362.0
140.026672	5559.0
140.925812	4881.0
141.050095	21453.0
142.041946	81473.0
143.04303	18297.0
144.03476	21745.0
144.937531	1290.0
145.079544	13991.0
146.060455	9417.0
147.081024	16637.0
148.067566	7176.0
148.952957	1846.0
149.079956	12671.0
149.97197	1405.0
150.07637	5027.0
150.948517	2214.0
151.059128	11846.0
151.926743	1618.0
152.063171	9726.0
152.922043	12039.0
153.065277	13269.0
154.069901	7416.0
154.950836	2806.0
155.07402	11086.0
155.975067	1008.0
156.087448	6400.0
156.947647	1748.0
157.095139	9545.0
157.96225	1113.0
158.09494	7340.0
158.925995	6844.0
159.083069	16017.0
160.061462	10763.0
160.934525	3313.0
161.083466	14530.0
162.036179	35257.0
162.9319	2623.0
163.075546	14007.0
164.07077	5453.0
164.952377	13582.0
165.081512	10842.0
165.941956	2847.0
166.068344	6561.0
166.949371	2288.0
167.071381	10076.0
167.956207	1333.0
168.077606	4706.0
168.934433	2145.0
169.079758	9516.0
170.048294	13642.0
171.069046	11039.0
172.084839	6137.0
173.07901	17334.0
174.081711	7230.0
174.891556	19677.0
175.083618	12969.0
176.053177	6991.0
177.024628	15215.0
177.128387	2983.0
178.076813	6011.0
178.907959	2989.0
179.07132	18064.0
179.969925	1146.0
180.084808	4710.0
180.93457	23521.0
181.079971	12107.0
181.962906	2305.0
182.091827	4779.0
182.935135	7672.0
183.07811	10609.0
183.943207	1819.0
184.081573	5144.0
184.91478	2814.0
185.074722	10573.0
186.094376	5409.0
186.925385	19416.0
187.078339	20076.0
188.070312	7403.0
188.931107	1637.0
189.077271	9638.0
189.969513	1010.0
190.085983	3926.0
190.903534	6882.0
191.070984	11329.0
192.075317	4887.0
192.927536	3982.0
193.082977	11953.0
194.099045	4492.0
194.956238	1984.0
195.09697	9323.0
196.088913	4498.0
196.913467	8008.0
197.095779	8502.0
198.002472	1035.0
198.105453	2954.0
198.917435	16610.0
199.082886	8504.0
200.009247	3264.0
200.112595	1925.0
200.24733	26621.0
200.927795	8684.0
201.052719	62274.0
201.243027	4398.0
202.06514	10320.0
202.917191	16384.0
203.09816	8762.0
204.09549	4461.0
204.923447	4953.0
205.093491	7752.0
206.010666	3655.0
206.128448	1661.0
206.924927	2248.0
207.093613	8184.0
207.951294	1079.0
208.097275	3350.0
208.940292	3209.0
209.083282	10863.0
210.097702	4515.0
210.935104	1120.0
211.09079	7918.0
211.976013	1050.0
212.118683	3194.0
212.89325	3594.0
213.077026	6381.0
213.915253	1086.0
214.087418	4131.0
214.898453	14085.0
215.059921	10657.0
216.051682	4612.0
216.922791	11039.0
217.102707	4661.0
218.107513	2559.0
218.864075	1768.0
218.968353	11179.0
219.118378	4161.0
219.975937	1351.0
220.125763	2085.0
220.929382	14633.0
221.11586	7168.0
222.097992	3350.0
222.945801	7248.0
223.102966	5799.0
224.102112	2820.0
224.931351	3291.0
225.10997	5346.0
225.937012	1204.0
226.120636	2964.0
226.903961	1650.0
227.069412	6639.0
227.9198	2221.0
228.096008	3146.0
228.934921	2771.0
229.105316	2865.0
229.97403	2347.0
230.13942	1183.0
230.901657	4084.0
231.072433	6402.0
231.892334	2628.0
232.093689	5123.0
232.889572	10717.0
233.086731	10901.0
233.917175	1170.0
234.107147	3206.0
234.91423	4288.0
235.106995	7423.0
236.115906	2081.0
236.970001	1763.0
237.109375	8493.0
238.107727	2794.0
238.904587	4918.0
239.097794	5454.0
240.119019	2530.0
240.881943	4080.0
240.999664	1096.0
241.128128	2754.0
242.111633	2092.0
242.891495	2132.0
243.081924	2821.0
244.134735	1961.0
244.903534	2091.0
245.083725	7676.0
245.906601	1945.0
246.110657	2169.0
246.932602	5316.0
247.118088	2992.0
248.106934	1401.0
248.938538	3383.0
249.121017	5814.0
249.887787	1637.0
250.113235	2586.0
250.883789	1466.0
250.997864	1805.0
251.116287	8412.0
252.120605	2362.0
252.968994	2022.0
253.13266	5087.0
254.13884	2483.0
254.860825	10201.0
255.074707	4867.0
256.052277	3026.0
256.894501	1818.0
257.076752	3724.0
258.018341	1762.0
258.148315	1125.0
258.888519	4245.0
259.126099	9871.0
260.134888	1944.0
260.87616	4257.0
261.137024	11392.0
261.947235	1168.0
262.145905	1948.0
262.895569	2522.0
263.09549	2055.0
END IONS

BEGIN IONS
PEPMASS=819.393
CHARGE=1
MSLEVEL=2
SOURCE_INSTRUMENT=LC-ESI-qTof
FILENAME=DMIM_centroided_library_abundance_filtered.mgf
SEQ=*..*
IONMODE=Positive
ORGANISM=DMIM-DRUG-METABOLITE-LIBRARY
NAME=GITOXIN [M+K]+
PI=Libin Xu
DATACOLLECTOR=Dylan H. Ross
SMILES=C[C@@H]1[C@H]([C@H](C[C@@H](O1)O[C@@H]2[C@H](O[C@H](C[C@@H]2O)O[C@@H]3[C@H](O[C@H](C[C@@H]3O)O[C@H]4CC[C@]5([C@@H](C4)CC[C@@H]6[C@@H]5CC[C@]7([C@@]6(C[C@@H]([C@@H]7C8=CC(=O)OC8)O)O)C)C)C)C)O)O
INCHI=N/A
INCHIAUX=N/A
PUBMED=N/A
SUBMITUSER=jzemlin
LIBRARYQUALITY=3
SPECTRUMID=CCMSLIB00012470521
USI=mzspec:GNPS:DMIM-DRUG-METABOLITE-LIBRARY:accession:CCMSLIB00012470521
SCANS=5499
51.906891	1460.0
52.083275	2198.0
52.351452	1182.0
52.727932	1143.0
52.995449	1294.0
53.434601	1404.0
54.123341	1041.0
54.423962	1113.0
54.597378	1649.0
55.331478	1225.0
55.709915	1358.0
56.168629	1711.0
56.37051	1460.0
56.893993	1115.0
57.064968	1034.0
57.2607	1248.0
57.781647	1357.0
58.091873	1062.0
58.580399	1217.0
59.002594	1265.0
60.968735	1002.0
61.186359	1144.0
61.838821	1346.0
62.448032	1088.0
62.917328	1345.0
63.149834	1909.0
63.804218	1017.0
63.953602	1033.0
66.878448	1077.0
67.077354	1670.0
67.717178	1075.0
68.104584	1154.0
68.353348	1493.0
69.090958	1579.0
70.0672	1831.0
71.17244	1252.0
72.085449	1514.0
72.95768	1135.0
73.197472	1264.0
74.984047	1065.0
75.891922	1048.0
76.441338	1242.0
78.235649	1051.0
79.061722	1504.0
81.073303	1636.0
81.29509	1011.0
82.622459	1125.0
83.803268	1061.0
84.059174	2024.0
84.617966	1005.0
84.976059	1171.0
85.421875	1223.0
86.1008	6482.0
86.794701	1048.0
87.089149	1227.0
88.26696	1289.0
88.509148	1377.0
90.80278	1346.0
91.048073	1306.0
93.039696	1332.0
94.103951	1379.0
95.090858	1953.0
97.071724	3460.0
98.077538	1236.0
104.105904	1603.0
105.059273	1058.0
109.110031	1264.0
120.079376	3394.0
122.079964	1960.0
123.068779	2424.0
125.010025	1552.0
129.102127	1481.0
130.065918	1044.0
131.085526	1193.0
133.092789	1013.0
136.07605	2179.0
137.076263	1837.0
142.951706	1594.0
146.992599	4632.0
158.920303	1102.0
159.095886	2033.0
163.091858	1008.0
164.016968	6282.0
164.943604	1547.0
165.08432	1091.0
168.060852	1095.0
169.119461	1078.0
171.123611	1093.0
173.134491	1086.0
179.079559	1443.0
181.08992	1984.0
183.116226	1167.0
184.081573	407498.0
184.24617	9307.0
184.44191	4753.0
185.087143	26653.0
185.229843	1206.0
186.088867	5643.0
187.111084	1576.0
193.094635	1416.0
195.092133	1732.0
197.094986	1762.0
199.119751	1236.0
201.125565	1265.0
203.17038	1913.0
204.101074	1296.0
207.117477	1041.0
209.095337	1642.0
211.110077	1355.0
215.151428	1074.0
219.133591	1001.0
221.115921	1065.0
223.107101	1512.0
225.093964	1012.0
227.117386	1144.0
229.131226	1096.0
235.12886	1239.0
237.124924	1964.0
239.122284	1724.0
243.127396	1148.0
251.141571	1378.0
253.126831	1982.0
255.128555	1228.0
267.138245	1730.0
269.110687	1340.0
269.226074	1601.0
271.238159	12387.0
272.235809	1810.0
277.148956	1271.0
279.139435	1323.0
281.145538	1302.0
283.118988	2758.0
285.14798	1048.0
293.154236	1702.0
295.155121	1893.0
297.137726	1079.0
299.147705	1998.0
307.1521	1262.0
308.105743	23203.0
309.124817	4640.0
310.111267	1551.0
311.155731	2541.0
323.169342	1719.0
325.169006	2370.0
327.171051	1524.0
330.090637	6106.0
330.298004	1650.0
331.098328	1312.0
335.186432	1051.0
337.25531	1271.0
339.178223	1285.0
341.162109	1676.0
341.319153	15620.0
342.318909	2948.0
343.179016	1990.0
346.060028	8775.0
349.16098	1633.0
351.196411	2312.0
353.18045	1376.0
355.2276	1952.0
357.179321	1377.0
359.193359	1213.0
361.280548	1343.0
363.206329	1124.0
365.170685	1408.0
367.200256	2062.0
368.044434	2341.0
369.193268	1499.0
371.192078	1386.0
373.201477	2886.0
377.203766	1586.0
379.208313	1283.0
381.204498	1501.0
383.195496	1964.0
384.017761	1323.0
385.203339	1455.0
387.193756	1156.0
389.252167	1046.0
391.203522	6340.0
392.216614	1205.0
393.211914	1204.0
394.247742	5624.0
395.202576	3960.0
397.208038	1454.0
399.211823	1338.0
407.2276	1194.0
409.205383	1706.0
411.213379	1250.0
412.261963	24652.0
413.22113	15261.0
414.219635	2858.0
415.217102	1516.0
421.244232	1147.0
423.215698	1499.0
425.224213	1783.0
427.222748	1319.0
429.204559	1182.0
431.213379	1371.0
434.244843	28315.0
435.250031	5616.0
436.23999	1117.0
437.21405	1499.0
439.226837	1699.0
441.23645	1662.0
443.254852	1301.0
450.22348	3040.0
451.232391	1196.0
453.239044	1351.0
455.236145	1132.0
456.229431	13368.0
457.232269	3350.0
459.222534	1208.0
463.243164	1051.0
465.259888	1456.0
467.252228	1232.0
469.244354	1460.0
471.236938	1172.0
472.200378	2426.0
475.19635	4054.0
481.257111	1282.0
483.283325	1287.0
495.277802	2198.0
496.350403	1482.0
497.284363	2051.0
499.266449	1272.0
502.311279	1064.0
507.296326	1019.0
513.264099	1201.0
523.275574	1037.0
525.277649	1574.0
539.27002	1152.0
541.295288	1191.0
543.296143	1045.0
551.328369	1308.0
575.527039	3248.0
576.534424	1128.0
577.539124	2884.0
578.536377	1167.0
597.507935	7082.0
598.517395	2948.0
599.528748	1325.0
603.559937	31550.0
604.560669	12436.0
605.565186	2627.0
607.375366	1347.0
615.203003	2451.0
616.208679	1226.0
625.028137	1155.0
625.54303	3538.0
626.541809	1350.0
627.559998	71270.0
628.563232	29391.0
629.566895	7226.0
630.574524	1222.0
637.187439	1215.0
644.042175	1818.0
649.53833	2914.0
650.540955	1649.0
651.560669	14544.0
652.564575	5635.0
653.155029	2801.0
653.575989	2454.0
659.156494	1303.0
659.364258	1230.0
675.131104	2613.0
685.463501	10304.0
686.465149	4397.0
687.447021	1168.0
691.109741	1072.0
697.11908	1736.0
701.434082	2544.0
702.425354	1262.0
713.094116	1503.0
721.506104	8213.0
722.507812	3636.0
723.522888	3114.0
724.505188	1540.0
727.409607	1192.0
729.07959	1530.0
729.463501	1288.0
732.578979	1684.0
735.060303	1163.0
737.477112	1395.0
739.368164	1217.0
739.560425	1021.0
740.546448	1225.0
741.445374	1895.0
741.644165	1287.0
742.439026	1331.0
743.427612	1089.0
744.11731	2281.0
745.479736	1353.0
746.600769	1105.0
747.528198	2529.0
748.540039	1170.0
750.460327	1063.0
751.032959	1556.0
754.59082	1341.0
755.404968	1077.0
756.398926	1159.0
756.659424	1094.0
757.733337	1031.0
758.413025	1072.0
758.598877	73553.0
758.881714	1173.0
759.4104	1581.0
759.600952	34553.0
759.842957	1174.0
760.607727	10381.0
761.43457	1085.0
761.612122	2078.0
762.586914	1306.0
763.474976	1543.0
764.373901	1052.0
765.463806	1410.0
766.099487	1214.0
766.561584	7913.0
767.562683	3555.0
768.580811	3003.0
769.606812	1688.0
771.949463	1240.0
773.628967	1227.0
774.455444	1029.0
775.399963	1481.0
776.664795	1012.0
777.437317	1007.0
779.457886	1299.0
780.580994	19261.0
781.58252	9541.0
782.077087	1267.0
782.589417	7262.0
783.425659	1307.0
783.601685	3034.0
784.062622	1054.0
784.612305	9512.0
785.435364	11595.0
785.623169	4449.0
786.442749	5113.0
786.623169	1249.0
787.452026	13252.0
787.64624	1334.0
788.414978	1439.0
788.519836	10846.0
789.421753	1049.0
789.545959	3858.0
790.40802	1031.0
790.561523	5141.0
791.573364	2814.0
792.582886	1256.0
793.634949	1309.0
794.993591	1304.0
795.449463	1193.0
795.816223	1256.0
796.468506	3547.0
796.702881	1335.0
797.502869	3456.0
798.561646	1513.0
799.503174	1390.0
799.684265	1061.0
800.422119	1477.0
801.429993	2218.0
801.955688	1249.0
802.953979	1142.0
803.311401	1342.0
803.448608	187961.0
803.588989	2158.0
803.743225	1583.0
803.94342	10056.0
804.451721	81439.0
804.591858	1129.0
804.944153	2521.0
805.455688	23155.0
805.628723	1348.0
806.45343	5133.0
806.600281	1759.0
807.02948	1039.0
807.562561	2041.0
808.230103	1487.0
808.43512	1462.0
809.905212	1389.0
810.475525	1921.0
811.05896	1293.0
811.439026	4335.0
811.930664	2840.0
812.452332	4655.0
812.575623	2401.0
812.969055	1324.0
813.520142	3237.0
813.900818	1047.0
814.521423	1941.0
815.507629	2094.0
815.912292	1007.0
816.457031	1694.0
816.857849	1340.0
817.100464	1187.0
817.444214	1541.0
817.614746	1096.0
818.435974	1215.0
819.00177	1155.0
819.422668	73888.0
819.562195	1107.0
820.426575	30924.0
820.828918	1078.0
821.364319	1757.0
END IONS

BEGIN IONS
PEPMASS=152.069
CHARGE=1
MSLEVEL=2
SOURCE_INSTRUMENT=LC-ESI-qTof
FILENAME=DMIM_centroided_library_abundance_filtered.mgf
SEQ=*..*
IONMODE=Positive
ORGANISM=DMIM-DRUG-METABOLITE-LIBRARY
NAME=CYCLOLEUCINE [M+Na]+
PI=Libin Xu
DATACOLLECTOR=Dylan H. Ross
SMILES=C1CCC(C1)(C(=O)O)N
INCHI=N/A
INCHIAUX=N/A
PUBMED=N/A
SUBMITUSER=jzemlin
LIBRARYQUALITY=3
SPECTRUMID=CCMSLIB00012471014
USI=mzspec:GNPS:DMIM-DRUG-METABOLITE-LIBRARY:accession:CCMSLIB00012471014
SCANS=5992
58.712917	1278.0
58.971748	1009.0
72.91497	1140.0
77.034355	1340.0
79.047089	1062.0
84.987083	1015.0
91.052521	1951.0
102.940559	1818.0
105.059555	1133.0
107.100525	1292.0
109.016541	1462.0
115.068657	2376.0
117.049736	1170.0
118.926117	7033.0
119.059708	1276.0
122.082581	1195.0
122.954155	3520.0
123.078995	1082.0
124.022469	1324.0
124.95108	2202.0
127.0158	1665.0
128.034424	2031.0
129.067093	1330.0
134.898819	10598.0
135.06282	1110.0
136.058929	1850.0
136.937164	1948.0
139.023453	1388.0
141.016647	3019.0
142.054932	1316.0
142.969971	2816.0
145.061768	1028.0
150.978409	1032.0
152.059967	1086.0
152.915359	3506.0
153.07077	1707.0
END IONS

BEGIN IONS
PEPMASS=573.268
CHARGE=1
MSLEVEL=2
SOURCE_INSTRUMENT=LC-ESI-qTof
FILENAME=DMIM_centroided_library_abundance_filtered.mgf
SEQ=*..*
IONMODE=Positive
ORGANISM=DMIM-DRUG-METABOLITE-LIBRARY
NAME=CONVALLATOXIN [M+Na]+
PI=Libin Xu
DATACOLLECTOR=Dylan H. Ross
SMILES=C[C@H]1[C@@H]([C@H]([C@H]([C@@H](O1)O[C@H]2CC[C@@]3([C@H]4CC[C@@]5([C@H](CC[C@@]5([C@@H]4CC[C@@]3(C2)O)O)C6=CC(=O)OC6)C)C=O)O)O)O
INCHI=N/A
INCHIAUX=N/A
PUBMED=N/A
SUBMITUSER=jzemlin
LIBRARYQUALITY=3
SPECTRUMID=CCMSLIB00012471055
USI=mzspec:GNPS:DMIM-DRUG-METABOLITE-LIBRARY:accession:CCMSLIB00012471055
SCANS=6033
55.058098	1540.0
56.051563	2734.0
69.069656	2514.0
70.066742	21282.0
71.069824	1309.0
72.083916	15969.0
74.063454	2471.0
83.064056	1023.0
84.064789	41564.0
85.059746	2900.0
86.099449	45442.0
87.082993	3175.0
91.048744	1238.0
95.092545	1412.0
97.05043	1761.0
98.056847	1136.0
99.051659	1319.0
101.080109	3098.0
102.059982	4121.0
103.058533	1186.0
104.098831	7468.0
105.066116	1931.0
109.091995	1517.0
110.075409	20917.0
111.075615	2101.0
112.084122	1516.0
113.069366	1425.0
115.082069	1797.0
116.068893	1312.0
119.058601	1950.0
120.08474	49125.0
121.085732	4390.0
122.084694	5624.0
123.058983	5529.0
125.058449	2136.0
126.073135	1272.0
127.076729	2223.0
128.097488	1064.0
129.105042	55405.0
130.080917	11238.0
131.08313	3040.0
132.078735	1988.0
133.065567	1813.0
135.078033	1206.0
136.075607	53072.0
137.074387	8782.0
138.073135	2920.0
139.075073	3943.0
140.083038	1936.0
141.093933	4590.0
142.07431	1738.0
142.962601	1530.0
143.110001	6052.0
144.086365	1516.0
145.078995	2708.0
146.07991	1238.0
146.99353	12118.0
147.112411	1107.0
148.061157	1383.0
149.084915	1141.0
150.061737	2908.0
151.087265	1684.0
152.09581	1947.0
153.088852	3453.0
154.079376	1047.0
155.093521	7132.0
156.087708	3026.0
157.107452	7979.0
158.095566	3266.0
159.0961	23922.0
160.095261	3135.0
161.093292	2382.0
162.053207	2639.0
163.081314	2621.0
164.089478	1630.0
164.93512	6280.0
165.084473	3522.0
166.079498	2866.0
167.091919	4813.0
168.070984	2625.0
169.115448	10582.0
170.091537	2974.0
171.111084	7877.0
172.09877	3105.0
173.119095	12707.0
174.114868	1973.0
175.094528	3518.0
176.107559	1295.0
177.092636	5021.0
178.100891	2612.0
179.069702	9926.0
180.083496	2047.0
180.910522	2028.0
181.088181	11840.0
182.093674	2599.0
183.13031	12625.0
184.086151	19492.0
185.126678	14952.0
186.119064	9825.0
187.11554	12874.0
188.109848	2618.0
189.094131	4113.0
190.088501	1190.0
191.099731	3405.0
192.096939	1182.0
193.098953	4984.0
194.098801	1912.0
195.100266	10856.0
196.101624	2285.0
197.110626	13242.0
198.110504	4879.0
199.123367	11670.0
200.138245	7018.0
200.943909	3446.0
201.120987	14273.0
202.117142	3789.0
203.100159	5929.0
204.092789	3324.0
205.100891	4573.0
206.096176	1576.0
207.110748	6186.0
208.104691	2603.0
209.100983	9945.0
210.110199	2204.0
211.126678	10085.0
212.117386	7469.0
213.114365	13125.0
214.131165	5641.0
215.131927	7978.0
216.118011	6773.0
217.105469	9159.0
218.111069	2144.0
219.125305	4812.0
220.120987	1557.0
221.117889	7038.0
222.113571	3729.0
223.113907	7809.0
224.119476	2649.0
225.112518	6728.0
226.137085	12149.0
227.120514	12137.0
228.141052	8270.0
229.125412	7311.0
230.125473	6030.0
231.11618	8310.0
232.09584	10335.0
233.120926	10641.0
234.128677	3216.0
235.125229	10233.0
236.134018	2910.0
237.128769	10566.0
238.128784	4328.0
239.122925	8667.0
240.136948	9827.0
241.105011	5340.0
242.15448	7907.0
243.134811	7283.0
244.119781	7349.0
245.109146	6765.0
246.116531	2398.0
247.131775	4124.0
248.138428	2253.0
249.136948	7709.0
250.120117	4577.0
251.130264	9939.0
252.131287	3678.0
253.127014	10898.0
254.138214	4911.0
254.919174	1079.0
255.13063	5178.0
256.146301	5755.0
257.155334	6371.0
258.128204	6457.0
259.117859	5912.0
260.13623	3226.0
261.139008	4787.0
262.132507	2827.0
263.131134	4973.0
264.143768	2369.0
265.133698	5968.0
266.140839	3815.0
267.133698	9019.0
268.149323	5090.0
269.135345	8411.0
270.138855	6365.0
271.136627	6148.0
272.14798	4724.0
273.144012	2836.0
274.131653	3604.0
275.14798	3546.0
276.133698	3883.0
277.148376	6580.0
278.142883	3204.0
278.940521	1054.0
279.141083	6826.0
280.15152	3587.0
281.143646	5760.0
282.158173	4235.0
283.146851	8417.0
284.147583	7748.0
285.14212	7130.0
286.147339	4832.0
287.145569	4634.0
288.138885	3448.0
289.146545	2849.0
290.140869	1774.0
291.155273	4103.0
292.155334	3870.0
293.163086	5817.0
294.166107	3501.0
295.154663	7730.0
296.158356	4026.0
296.962097	7267.0
297.154877	6400.0
298.147949	7455.0
299.163208	7167.0
300.160339	5732.0
301.150665	4957.0
302.075348	7928.0
302.17984	1581.0
303.149536	3585.0
304.152771	2327.0
305.173615	3402.0
306.157532	1917.0
307.159302	4298.0
308.103699	109369.0
309.124329	17824.0
310.119019	8594.0
310.22644	1718.0
311.16095	8854.0
312.084473	6100.0
312.184509	3776.0
312.938965	1256.0
313.180023	5626.0
314.164978	4812.0
314.977478	3149.0
315.157501	5139.0
316.161346	4390.0
317.171021	4691.0
318.17038	2013.0
318.944946	1749.0
319.161743	4345.0
320.092468	2801.0
320.197968	1403.0
321.16745	5037.0
322.176727	2527.0
323.182404	7017.0
324.17395	3686.0
325.178253	8623.0
326.178619	6302.0
327.185638	9163.0
328.184174	4934.0
329.182068	4868.0
330.082794	29666.0
330.198517	1936.0
330.938171	1039.0
331.101532	5396.0
331.210419	1855.0
332.125	4641.0
333.180756	4291.0
334.045624	9230.0
334.186584	1664.0
335.041046	1118.0
335.19046	4646.0
336.177856	2417.0
337.150238	3904.0
337.251617	5215.0
338.189209	3473.0
339.160004	4479.0
339.272308	5660.0
340.187225	3992.0
341.190796	8435.0
342.190582	4495.0
343.185699	7580.0
344.175476	4685.0
345.176727	4399.0
346.060272	65342.0
346.194427	1396.0
347.07135	8454.0
347.21283	2242.0
348.062439	7298.0
348.20755	2108.0
349.153198	6195.0
349.262848	1061.0
350.030914	2587.0
350.201263	3318.0
351.191803	7731.0
352.077789	6215.0
352.209625	2097.0
353.183014	7173.0
354.179108	4226.0
355.191162	7784.0
356.187134	5378.0
357.183929	7216.0
358.178467	4210.0
359.186157	5350.0
360.179169	2938.0
361.148529	1464.0
361.252502	3032.0
362.19101	2651.0
363.196503	5361.0
364.173859	2877.0
365.17984	7668.0
366.18692	3940.0
367.197021	6966.0
368.040527	12915.0
368.204987	3013.0
369.043915	2116.0
369.200439	7518.0
370.051636	2062.0
370.216644	3844.0
371.189362	7815.0
372.196991	4015.0
373.185577	5401.0
374.060669	3776.0
374.203583	2579.0
375.207001	4061.0
376.202637	2559.0
376.933929	2354.0
377.218323	4630.0
378.208832	2949.0
379.198822	5375.0
380.19516	2829.0
381.11615	5979.0
381.221985	4439.0
382.203705	3861.0
383.209015	7615.0
384.015625	7212.0
384.218414	3495.0
385.021881	1087.0
385.208923	6810.0
386.007935	1357.0
386.212646	3292.0
387.205414	5612.0
388.201294	2508.0
389.198883	3492.0
390.026001	8290.0
390.205475	2421.0
391.024689	1293.0
391.207336	4294.0
392.026184	1384.0
392.209015	2208.0
392.904602	1322.0
393.214874	4165.0
394.208435	2547.0
394.944458	12017.0
395.187714	9619.0
396.210602	4338.0
397.211456	5338.0
398.218781	3875.0
398.892853	1418.0
399.183411	8908.0
400.030121	1541.0
400.202942	4276.0
401.213715	4189.0
402.203461	2763.0
403.204376	3382.0
404.238434	2141.0
405.217377	4585.0
406.001038	9736.0
406.214508	2581.0
407.00354	1307.0
407.217468	4880.0
407.999512	1788.0
408.221039	2563.0
409.199554	9026.0
410.043427	2524.0
410.21109	3830.0
410.928528	2580.0
411.224579	5958.0
412.232452	3648.0
413.223724	4517.0
414.222473	4289.0
414.861633	1530.0
415.203613	4721.0
416.198547	2192.0
416.919006	1897.0
417.221008	3565.0
418.230927	2166.0
419.240479	3386.0
420.231415	1911.0
420.71698	1429.0
421.224365	4689.0
421.981049	3127.0
422.225403	2478.0
423.218658	5302.0
424.247833	2868.0
425.215607	6733.0
426.229034	3770.0
427.013245	2716.0
427.224579	6277.0
428.050049	3464.0
428.238495	4268.0
429.230438	4485.0
430.224365	2998.0
430.805969	1523.0
431.23053	3376.0
432.022308	24871.0
432.232635	2268.0
432.868896	1207.0
433.029053	2744.0
433.242706	3364.0
434.243042	4930.0
435.239288	3946.0
436.243958	1972.0
437.227478	4776.0
438.228333	2779.0
439.247894	5595.0
440.239014	3724.0
441.240601	4728.0
442.247131	3430.0
442.978699	1561.0
443.23642	5246.0
444.232758	2720.0
445.257812	3135.0
446.23465	2061.0
447.256622	3428.0
447.992676	7666.0
448.222748	1694.0
448.986481	1818.0
449.248505	3701.0
450.027985	2645.0
450.23587	2769.0
451.245361	4010.0
452.256683	2465.0
453.250885	3836.0
454.008667	2114.0
454.245636	3239.0
455.230865	4187.0
456.228577	19333.0
457.238129	7053.0
458.242615	3268.0
459.25296	5249.0
460.257904	3023.0
461.259705	3790.0
462.249146	2920.0
463.24118	3385.0
464.262665	2449.0
464.954773	2280.0
465.24881	3978.0
465.994659	2029.0
466.261719	2517.0
467.251434	4578.0
468.256805	2750.0
469.259918	4296.0
469.9841	1431.0
470.262512	3075.0
470.980072	1133.0
471.253357	3733.0
472.215851	7075.0
473.245789	4871.0
474.239807	2871.0
475.095673	1007.0
475.252625	3347.0
476.266815	2774.0
476.776917	1088.0
477.26123	4828.0
477.980743	1107.0
478.261841	2638.0
479.257477	3533.0
480.255096	2256.0
480.932495	1412.0
481.26416	3119.0
482.27301	2499.0
483.263916	10971.0
484.269653	4156.0
485.27359	10342.0
486.262421	4369.0
487.261169	3983.0
487.989929	1473.0
488.25882	2398.0
488.927887	1366.0
489.256714	2885.0
490.0047	1604.0
490.257996	2530.0
490.968658	5278.0
491.260132	3235.0
492.28125	2464.0
492.964783	1102.0
493.273163	3328.0
494.283691	2497.0
495.273315	4270.0
496.271545	2978.0
497.276337	4029.0
498.276031	3250.0
499.274994	4048.0
500.262756	3050.0
501.265167	4129.0
502.265961	2734.0
503.283081	2971.0
503.963104	1957.0
504.27948	2297.0
505.27063	3431.0
505.790649	1139.0
506.273468	2430.0
506.945343	1616.0
507.271637	6005.0
508.020142	16188.0
508.278687	2905.0
508.787567	1040.0
509.01355	3535.0
509.278503	4835.0
509.992371	1837.0
510.279144	2843.0
511.265961	4153.0
511.994446	1602.0
512.282654	3117.0
512.780762	1022.0
512.9552	1305.0
513.292236	4115.0
514.270874	3152.0
514.799316	1037.0
515.277588	3900.0
516.274292	2842.0
516.938477	1173.0
517.286621	3111.0
518.287048	3106.0
518.814758	1197.0
519.279846	3730.0
519.926758	1054.0
520.273682	2789.0
521.288391	2975.0
522.289551	3018.0
523.291626	3488.0
524.054688	1042.0
524.293457	3425.0
524.805664	1316.0
525.287048	4608.0
525.960449	2346.0
526.286865	3349.0
526.814575	1137.0
527.285583	6481.0
527.976868	5201.0
528.288635	3651.0
528.800537	1434.0
528.976135	1525.0
529.278198	3788.0
530.003357	45535.0
530.279358	3121.0
531.003845	5544.0
531.282593	4556.0
531.987	2670.0
532.281555	3826.0
532.810913	1510.0
532.991821	1183.0
533.28949	4194.0
534.291565	2063.0
534.801392	1681.0
535.287415	3495.0
536.31073	2389.0
537.111328	2444.0
537.271484	2342.0
537.413208	65017.0
537.80072	1148.0
538.270874	2517.0
538.411865	19974.0
539.249512	3476.0
539.408875	6695.0
540.300842	3138.0
540.427734	1116.0
541.286438	5867.0
541.917664	1743.0
542.332764	9771.0
542.808655	1050.0
543.320862	5759.0
543.941345	2499.0
544.34198	5520.0
545.296997	10648.0
545.973999	14612.0
546.28479	5536.0
546.794861	1039.0
546.969177	2639.0
547.29425	2979.0
547.966003	1582.0
548.297302	2227.0
548.81781	1023.0
549.320618	3179.0
549.953796	1694.0
550.309448	2681.0
550.788574	1078.0
551.326538	3454.0
551.984802	3456.0
552.320496	2385.0
553.310669	3825.0
554.310974	2812.0
555.314636	3827.0
556.315552	2475.0
556.805786	1001.0
557.197876	8117.0
557.327759	2213.0
557.846619	1018.0
558.21167	3505.0
558.333679	1928.0
559.112244	1457.0
559.297668	6809.0
560.314026	3541.0
561.297302	6387.0
561.461609	1223.0
561.929749	1436.0
562.30542	3875.0
562.856689	1146.0
563.305664	3779.0
563.903748	1203.0
564.312561	3339.0
565.32135	3579.0
565.938477	1445.0
566.331116	3149.0
566.818054	1082.0
567.311768	3160.0
567.797241	1063.0
567.955627	3781.0
568.334961	3156.0
568.799988	1061.0
569.31012	3717.0
570.310059	4212.0
570.838806	1232.0
571.331726	4629.0
571.8349	1172.0
572.289124	2599.0
573.082764	1224.0
573.287292	247435.0
573.401428	1708.0
573.52002	3800.0
573.676392	2085.0
573.943481	3391.0
574.291199	75030.0
574.838806	1267.0
575.019104	1751.0
575.224121	2472.0
END IONS

BEGIN IONS
PEPMASS=295.165
CHARGE=1
MSLEVEL=2
SOURCE_INSTRUMENT=ESI-Orbitrap
FILENAME=gnps_msn_lib_pos.mgf
SEQ=*..*
IONMODE=Positive
ORGANISM=MSNLIB-POSITIVE
NAME=troxipide [M+H]+
PI=Tomas Pluskal
DATACOLLECTOR=Corinna Brungs
SMILES=COc1cc(C(=O)NC2CCCNC2)cc(OC)c1OC
INCHI=InChI=1S/C15H22N2O4/c1-19-12-7-10(8-13(20-2)14(12)21-3)15(18)17-11-5-4-6-16-9-11/h7-8,11,16H,4-6,9H2,1-3H3,(H,17,18)
INCHIAUX=YSIITVVESCNIPR-UHFFFAOYSA-N
PUBMED=N/A
SUBMITUSER=jzemlin
LIBRARYQUALITY=1
SPECTRUMID=CCMSLIB00012284147
USI=mzspec:GNPS:MSNLIB-POSITIVE:accession:CCMSLIB00012284147
SCANS=9846
41.038662	0.106
42.033878	0.138
43.017929	0.397
45.033585	0.471
47.049221	0.105
48.765774	0.193
50.015137	0.126
51.022957	2.139
52.030769	0.757
53.002216	0.405
53.038616	22.569
54.01004	0.104
54.046432	0.223
55.017864	1.088
55.054295	0.484
56.049526	1.394
57.033546	0.085
63.022903	0.206
64.030746	0.314
65.038574	2.961
66.009987	0.315
66.046394	4.321
67.017799	0.114
67.054214	2.034
68.025673	0.728
68.062073	0.225
68.997116	0.174
69.033493	0.349
71.01268	0.064
71.049164	0.27
75.044121	0.229
76.030731	0.461
77.038567	2.833
78.046402	2.039
79.017807	0.833
79.02079	0.215
79.054237	7.956
80.025597	0.22
80.062096	0.088
81.030746	0.077
81.033493	15.05
81.035912	0.209
81.069885	2.795
82.041382	0.108
83.049171	0.203
84.080704	10.862
85.028465	0.123
91.054237	0.457
92.02565	3.011
92.036934	0.065
93.033524	0.479
94.004906	0.746
94.041321	2.203
95.012711	0.073
95.049126	13.841
95.052193	0.176
96.056992	6.751
97.064842	0.107
98.036171	0.239
99.044098	0.37
104.025673	0.173
105.033508	0.781
105.044762	1.483
106.041359	1.019
107.012749	4.504
107.049171	0.417
108.020508	1.543
108.056992	1.665
109.028427	5.498
109.064827	3.394
111.044014	0.421
111.080513	0.697
113.059753	1.069
118.065186	0.135
120.020523	0.103
121.028435	4.887
121.039566	0.112
121.064842	0.069
122.036263	6.356
123.044044	0.594
124.051918	7.429
125.023376	0.082
125.059807	0.298
127.039032	0.166
134.036224	0.788
135.044083	0.131
136.015472	0.274
137.023376	6.269
137.059769	0.079
138.067169	0.126
139.038742	0.06
139.075394	6.437
139.07785	0.077
141.054642	0.137
150.031281	0.194
151.038986	6.191
152.046814	12.307
152.054016	0.067
154.0625	0.249
156.041687	0.1
156.974716	0.132
162.031326	0.058
165.018158	0.073
167.070419	10.193
169.085876	0.169
174.985352	0.262
180.041824	0.211
184.036911	0.143
185.081024	1.969
195.023148	0.393
195.032455	0.352
195.048645	0.079
195.051666	0.239
195.05452	0.591
195.065277	100.0
195.073547	0.675
195.075638	0.675
195.078964	0.216
195.081802	0.137
195.086243	0.127
195.098969	0.26
195.1073	0.408
195.119141	0.142
212.091583	0.134
216.977936	0.322
217.109802	0.26
234.988571	0.617
262.107544	0.064
278.139069	0.874
295.086639	0.205
295.165588	27.433001
295.242828	0.188
END IONS

BEGIN IONS
PEPMASS=231.149
CHARGE=1
MSLEVEL=2
SOURCE_INSTRUMENT=ESI-Orbitrap
FILENAME=gnps_msn_lib_pos.mgf
SEQ=*..*
IONMODE=Positive
ORGANISM=MSNLIB-POSITIVE
NAME=Isopropyl Phenazone [M+H]+
PI=Tomas Pluskal
DATACOLLECTOR=Corinna Brungs
SMILES=Cc1c(C(C)C)c(=O)n(-c2ccccc2)n1C
INCHI=InChI=1S/C14H18N2O/c1-10(2)13-11(3)15(4)16(14(13)17)12-8-6-5-7-9-12/h5-10H,1-4H3
INCHIAUX=PXWLVJLKJGVOKE-UHFFFAOYSA-N
PUBMED=N/A
SUBMITUSER=jzemlin
LIBRARYQUALITY=1
SPECTRUMID=CCMSLIB00012296988
USI=mzspec:GNPS:MSNLIB-POSITIVE:accession:CCMSLIB00012296988
SCANS=16508
41.038582	0.492
42.033859	0.8
43.017857	0.133
43.054249	0.403
44.013165	0.099
44.049484	0.575
51.022968	1.027
53.038574	0.451
55.017841	0.295
55.054184	1.057
56.049431	26.813
56.053432	0.552
57.78532	0.212
57.788898	0.169
57.934799	0.089
58.028603	0.194
58.06509	1.131
62.018391	0.393
63.022915	0.403
65.038559	0.352
67.054001	0.141
68.04937	0.361
70.028732	0.606
70.065056	0.342
72.080788	0.166
74.930725	0.147
75.022911	0.158
77.038536	0.964
78.046371	0.106
79.054138	1.01
80.049461	0.184
81.057144	0.221
81.069794	0.535
82.060242	0.123
82.064987	2.004
83.049179	0.129
86.05999	0.073
89.038544	0.506
90.046364	0.185
91.054207	0.735
92.049393	2.091
93.057236	0.174
93.069817	0.217
94.06501	1.06
95.049103	2.454
95.060333	0.137
95.072815	1.263
96.044464	0.249
96.068207	0.236
96.080658	1.799
97.088478	0.401
98.059921	0.459
100.111931	0.356
102.046432	0.069
103.054192	0.818
104.049408	2.278
105.033485	0.189
105.044655	0.366
105.069847	0.202
106.065056	0.31
110.096329	1.059
111.055244	0.121
112.075661	0.495
112.112061	3.11
113.038635	0.074
115.054199	1.6
116.049461	0.133
116.062149	0.094
116.070099	0.188
117.057289	1.16
117.069862	1.409
118.065071	2.435
119.060379	0.076
120.044411	0.815
120.080757	3.13
123.091431	0.177
124.075653	1.285
126.046387	0.17
127.054268	0.095
128.049454	0.289
128.062057	0.201
128.106796	0.19
129.057343	0.151
130.06514	2.263
131.060394	0.381
131.072937	2.31
132.06813	0.07
132.080795	0.835
133.052139	0.308
133.07605	0.42
134.09642	0.267
135.055267	0.168
137.927795	0.157
138.091309	0.496
142.06517	0.209
143.060471	0.067
143.072998	1.012
144.080811	1.897
145.064758	0.572
145.07608	2.152
145.088577	0.099
146.060013	0.124
146.083847	2.865
146.096481	2.382
147.055389	0.345
147.091751	0.369
148.075775	0.304
148.11235	0.248
152.95105	0.529
154.064987	0.089
155.060455	0.069
156.080795	0.133
157.052231	0.134
157.075912	0.091
157.088715	0.175
158.060226	0.179
158.096466	0.582
159.091568	0.254
160.075775	0.235
160.099487	0.521
161.107422	0.835
171.05542	0.438
172.075806	0.41
172.112091	0.657
173.071136	0.116
174.078964	0.355
185.07106	0.69
186.078934	1.05
188.094543	0.477
189.092316	0.15
189.102371	23.49
189.11235	0.15
201.102448	7.399
203.154694	0.338
207.961517	0.132
215.118362	0.21
216.125977	0.622
229.133835	0.163
231.094925	0.739
231.106308	0.497
231.149597	100.0
231.192963	0.553
231.203735	0.718
231.219925	0.289
231.605728	0.178
END IONS

BEGIN IONS
PEPMASS=166.123
CHARGE=1
MSLEVEL=2
SOURCE_INSTRUMENT=ESI-Orbitrap
FILENAME=gnps_msn_lib_pos.mgf
SEQ=*..*
IONMODE=Positive
ORGANISM=MSNLIB-POSITIVE
NAME=ANETHOLE [M+NH4]+
PI=Tomas Pluskal
DATACOLLECTOR=Corinna Brungs
SMILES=C/C=C/c1ccc(OC)cc1
INCHI=InChI=1S/C10H12O/c1-3-4-9-5-7-10(11-2)8-6-9/h3-8H,1-2H3/b4-3+
INCHIAUX=RUVINXPYWBROJD-ONEGZZNKSA-N
PUBMED=N/A
SUBMITUSER=jzemlin
LIBRARYQUALITY=1
SPECTRUMID=CCMSLIB00012306847
USI=mzspec:GNPS:MSNLIB-POSITIVE:accession:CCMSLIB00012306847
SCANS=20221
41.529339	0.074
41.531422	0.129
42.033909	2.127
43.017918	0.151
43.04174	0.136
44.049515	1.628
46.99493	0.17
50.015141	0.124
51.022968	0.855
53.002235	0.172
53.038628	0.444
54.010059	0.064
54.033905	0.052
54.046444	0.096
55.017879	0.727
55.041676	0.258
55.054237	0.046
56.04958	0.055
57.934738	0.505
61.010426	0.135
62.018337	0.211
62.989746	0.513
63.022945	0.075
65.038567	25.473
65.040581	0.233
66.046394	4.022
67.041649	0.076
67.054222	0.817
68.0131	0.073
68.049484	0.162
69.033463	0.08
70.065086	0.433
72.044365	0.219
77.038567	0.24
78.013237	0.523
78.046455	0.052
79.017845	0.212
79.020988	0.379
79.054222	0.729
80.049454	0.573
80.062042	0.119
81.03347	0.834
81.057297	0.176
81.069862	0.459
82.02874	0.506
82.041313	0.618
82.065063	0.121
84.08078	0.046
89.038551	0.138
90.046387	0.19
91.054222	6.68
91.057663	0.07
92.049477	0.539
93.033501	0.413
93.057304	1.219
94.041306	13.566
94.044182	0.197
94.065102	0.742
95.049126	2.692
95.072937	0.272
96.080795	0.201
98.06002	0.067
104.049438	0.08
105.044716	0.233
106.065125	0.404
107.049149	1.492
107.073021	0.093
108.044403	1.176
108.056953	1.556
108.080765	0.709
109.052246	0.942
109.064827	0.546
109.088448	0.054
110.060059	0.195
110.096382	0.221
111.044052	7.488
111.046074	0.085
116.049492	0.089
117.05732	0.618
118.065155	0.817
119.049225	0.216
119.07299	0.296
120.044395	9.209
120.046852	0.075
120.080765	0.376
121.039658	1.588
121.052223	13.831
121.05442	0.14
121.057388	0.113
121.08857	0.204
122.060028	6.803
122.062202	0.127
123.067818	8.29
123.070023	0.109
123.990944	0.085
124.991478	0.301
133.996368	0.121
134.060089	1.653
135.067917	0.519
136.051025	0.249
136.055542	0.06
136.060638	0.071
136.065033	0.106
136.069534	0.534
136.075699	100.0
136.078293	1.26
136.081284	0.852
136.084793	0.855
136.08757	0.132
136.094101	0.409
136.097382	0.051
136.09996	0.369
136.107254	0.14
137.058624	0.242
137.073761	0.111
137.077225	0.368
137.083496	57.953999
137.086212	0.056
137.088531	0.462
137.091934	0.877
137.095779	0.094
137.102997	0.4
137.108109	0.365
137.115036	0.13
137.92807	0.099
138.091309	19.886999
138.096191	0.152
138.100769	0.237
138.935715	0.114
150.091339	0.084
151.099136	1.039
152.951401	0.162
153.959351	0.444
166.089569	0.435
166.096268	0.283
166.122787	61.374001
166.149094	0.354
166.155701	0.443
166.16539	0.163
170.962769	0.119
END IONS

BEGIN IONS
PEPMASS=477.084
CHARGE=1
MSLEVEL=2
SOURCE_INSTRUMENT=ESI-Orbitrap
FILENAME=gnps_msn_lib_pos.mgf
SEQ=*..*
IONMODE=Positive
ORGANISM=MSNLIB-POSITIVE
NAME=Arbidol [M+H]+
PI=Tomas Pluskal
DATACOLLECTOR=Corinna Brungs
SMILES=CCOC(=O)c1c(CSc2ccccc2)n(C)c2cc(Br)c(O)c(CN(C)C)c12
INCHI=InChI=1S/C22H25BrN2O3S/c1-5-28-22(27)20-18(13-29-14-9-7-6-8-10-14)25(4)17-11-16(23)21(26)15(19(17)20)12-24(2)3/h6-11,26H,5,12-13H2,1-4H3
INCHIAUX=KCFYEAOKVJSACF-UHFFFAOYSA-N
PUBMED=N/A
SUBMITUSER=jzemlin
LIBRARYQUALITY=1
SPECTRUMID=CCMSLIB00012311724
USI=mzspec:GNPS:MSNLIB-POSITIVE:accession:CCMSLIB00012311724
SCANS=22367
46.065025	20.399
67.054367	1.635
68.049278	1.849
69.033417	1.997
84.044258	3.283
84.080605	4.104
91.054298	1.315
95.04924	0.872
96.044304	30.631001
97.047722	8.012
102.046432	1.287
103.054291	2.87
109.100998	2.08
115.054283	5.168
116.062134	0.957
117.070038	1.742
124.111954	3.861
125.115395	2.276
128.049545	2.169
129.057343	5.754
130.065125	3.478
131.072891	2.463
134.095703	1.494
142.065216	3.138
143.073044	10.255
144.056992	1.777
144.080887	11.641
145.064896	2.506
146.060196	1.007
152.106995	10.283
153.110413	7.135
154.065369	0.994
156.04451	3.036
157.052338	7.292
158.060043	2.168
159.067978	9.812
170.060272	2.24
171.068115	0.839
172.075897	15.923
186.055176	2.199
187.063004	13.264
192.138687	2.554
193.14183	2.424
200.034256	1.276
207.975967	1.328
209.967941	0.859
215.058029	8.551
220.983856	1.371
221.99173	8.363
222.999481	16.214001
235.145569	1.673
235.971024	8.578
236.148254	1.869
236.978653	3.166
237.986618	1.516
247.97084	1.441
248.97876	4.482
249.986633	13.855
250.994446	71.973
253.981064	1.547
263.96579	5.517
264.973785	5.426
265.981537	27.304001
266.989105	1.659
276.973907	6.13
278.989594	100.0
293.976746	84.803001
294.984711	2.949
313.122192	5.792
314.125397	6.937
323.015778	6.588
388.000885	3.292
398.211273	2.914
399.214294	21.000999
432.026703	40.813
477.084564	32.944
END IONS

BEGIN IONS
PEPMASS=168.175
CHARGE=1
MSLEVEL=2
SOURCE_INSTRUMENT=ESI-Orbitrap
FILENAME=gnps_msn_lib_pos.mgf
SEQ=*..*
IONMODE=Positive
ORGANISM=MSNLIB-POSITIVE
NAME=mecamylamine [M+H]+
PI=Tomas Pluskal
DATACOLLECTOR=Corinna Brungs
SMILES=CNC1(C)C2CCC(C2)C1(C)C
INCHI=InChI=1S/C11H21N/c1-10(2)8-5-6-9(7-8)11(10,3)12-4/h8-9,12H,5-7H2,1-4H3
INCHIAUX=IMYZQPCYWPFTAG-UHFFFAOYSA-N
PUBMED=N/A
SUBMITUSER=jzemlin
LIBRARYQUALITY=1
SPECTRUMID=CCMSLIB00012315480
USI=mzspec:GNPS:MSNLIB-POSITIVE:accession:CCMSLIB00012315480
SCANS=24086
40.987354	0.397
41.038654	14.182
43.054283	2.384
44.979385	1.751
45.987183	0.895
46.995026	3.939
48.002834	0.291
48.990795	0.396
51.02298	1.197
53.038612	7.773
55.05426	11.542
55.934364	0.644
56.942162	0.36
57.069893	4.451
57.93478	1.379
58.932652	0.746
58.997833	1.253
59.930206	2.391
60.993927	0.607
61.010571	2.677
61.927734	0.525
62.018394	3.358
62.98988	11.509
63.9977	0.722
64.014206	0.615
64.985611	0.644
65.038559	2.12
66.046402	0.995
67.054199	15.75
67.934784	0.446
69.009628	0.33
69.069855	4.046
69.510017	0.136
69.999107	3.025
70.499512	0.277
70.957802	0.51
71.085495	0.666
72.937035	1.435
74.927559	0.292
75.935326	0.377
75.99913	0.206
77.0084	0.51
77.038559	1.723
78.013741	6.469
78.515182	0.349
79.004433	0.347
79.021072	6.617
79.054176	17.201
79.056305	0.288
79.504845	0.127
80.008942	0.621
80.062035	0.403
81.016823	0.669
81.066628	0.214
81.069817	100.0
81.072128	1.5
81.074852	1.407
81.078346	1.249
81.080727	0.814
81.084167	0.331
81.990364	0.221
82.494316	0.449
82.979935	1.082
83.483818	2.273
83.9842	0.229
83.987755	0.571
84.014778	0.36
84.488129	0.133
84.959328	1.755
84.977364	0.171
85.481354	0.199
85.960144	0.257
85.967171	0.411
87.020088	0.416
87.520538	0.152
89.059395	0.289
90.006187	1.085
90.947601	0.761
90.99556	1.967
91.054222	1.508
91.495964	0.375
91.499481	4.913
91.912636	0.135
91.985161	5.226
91.999809	0.75
92.485573	0.749
92.489082	17.125
92.989464	1.677
92.99295	5.528
93.069885	3.031
93.493347	0.847
93.946014	0.431
95.049141	1.909
95.085526	38.674999
95.088417	0.429
99.011215	9.416
99.511581	1.066
100.000809	20.509001
100.501266	2.875
100.504684	54.720001
100.50779	0.634
100.990562	0.406
101.005119	9.258
101.494354	1.97
101.506897	0.189
101.994743	0.213
101.998291	6.412
102.498611	0.934
102.969894	2.88
102.999229	0.338
103.97068	0.388
103.977699	0.453
103.997101	0.163
105.044708	0.204
107.085564	0.439
108.016434	82.877998
108.019875	0.737
108.023354	0.558
108.093307	0.179
108.516884	10.869
109.006104	0.813
109.018631	0.357
109.101173	1.816
109.506493	0.159
109.509995	3.902
110.010391	0.874
110.519272	0.201
111.508842	0.158
112.012573	0.487
114.986053	0.605
115.98584	0.48
116.909317	0.378
116.983955	0.416
117.021713	1.503
117.52211	0.319
119.001221	0.517
119.524376	2.268
119.907387	0.137
120.025146	0.377
120.980453	1.725
121.501198	2.647
121.981255	0.223
121.988289	0.327
122.001694	0.556
123.991295	1.139
124.991371	1.663
125.49041	0.875
125.989723	1.402
126.488831	0.917
126.97171	0.493
126.988235	0.404
127.494263	0.392
129.01297	5.234
129.513641	0.993
130.506393	19.306
131.006989	3.87
133.988312	0.431
133.997116	0.64
134.919876	0.523
134.956177	1.004
134.994598	0.599
136.499481	1.058
136.920258	0.211
137.011841	0.596
137.132477	59.426998
137.142334	0.829
137.156769	0.388
137.918137	0.411
138.018127	26.593
138.027496	0.444
138.518829	5.838
138.915756	0.214
138.991348	0.309
139.923935	0.282
139.973724	0.29
140.931503	0.353
142.014206	0.913
144.987671	1.812
145.488876	0.339
145.985977	0.685
146.986435	1.097
147.485123	1.103
147.984436	0.336
148.481094	0.401
148.978531	1.19
149.526108	0.675
150.951157	2.486
151.998901	0.835
152.94165	0.198
152.951157	0.747
152.966766	0.729
153.949295	0.295
153.959366	0.562
154.947266	0.532
155.95491	1.391
155.99173	1.235
156.490494	1.572
156.990112	0.531
168.174957	12.872
168.962006	1.744
170.962067	0.522
171.959946	0.673
172.958267	0.561
178.946411	2.42
END IONS

BEGIN IONS
PEPMASS=158.14
CHARGE=1
MSLEVEL=2
SOURCE_INSTRUMENT=ESI-Orbitrap
FILENAME=gnps_msn_lib_pos.mgf
SEQ=*..*
IONMODE=Positive
ORGANISM=MSNLIB-POSITIVE
NAME=Buformin [M+H]+
PI=Tomas Pluskal
DATACOLLECTOR=Corinna Brungs
SMILES=CCCCN=C(N)N=C(N)N
INCHI=InChI=1S/C6H15N5/c1-2-3-4-10-6(9)11-5(7)8/h2-4H2,1H3,(H6,7,8,9,10,11)
INCHIAUX=XSEUMFJMFFMCIU-UHFFFAOYSA-N
PUBMED=N/A
SUBMITUSER=jzemlin
LIBRARYQUALITY=1
SPECTRUMID=CCMSLIB00012330529
USI=mzspec:GNPS:MSNLIB-POSITIVE:accession:CCMSLIB00012330529
SCANS=31396
41.038643	0.425
42.033867	0.414
43.026802	0.097
43.029114	12.767
43.03138	0.364
43.033493	0.143
44.979385	2.284
44.981781	0.053
45.044807	0.038
45.978767	0.38
45.982723	0.486
45.987213	1.26
46.986645	0.136
46.990444	0.195
46.995026	10.486
46.997486	0.334
46.999958	0.117
47.966457	0.081
47.994411	1.918
47.998367	2.645
48.001095	0.154
48.974464	0.068
56.964828	1.424
57.069893	2.071
58.028786	0.043
58.932663	0.083
59.977386	0.116
60.055588	45.145
60.059093	1.195
60.062691	0.452
60.064812	0.208
60.070995	0.061
60.481339	0.272
61.01062	9.444
61.014275	0.211
61.017902	0.116
62.010109	2.376
62.013977	6.351
62.018299	2.87
62.021877	0.151
62.986801	0.045
62.989902	2.538
63.017879	0.713
63.021809	1.996
63.025475	0.073
63.989609	0.334
63.993603	0.107
63.997677	53.111
64.001717	1.038
64.007805	0.194
64.01004	0.116
64.012352	0.075
64.985764	0.058
64.997185	9.817
65.001038	12.544
65.004494	0.341
65.007416	0.229
65.993477	0.105
67.993027	0.299
68.024284	1.212
68.98262	0.245
69.486542	0.946
70.039955	0.063
70.484505	0.051
72.08078	0.268
74.096436	1.119
74.975372	0.163
75.935455	0.178
76.998268	1.827
77.499954	0.058
77.987892	0.205
77.996178	0.107
78.491814	1.046
78.991531	0.031
79.015533	0.235
79.021172	100.0
79.026398	1.581
79.029495	1.824
79.031845	0.926
79.03511	0.387
79.038177	0.206
79.044411	0.1
79.4897	0.054
80.020332	4.749
80.023598	88.140999
80.032303	1.029
80.034691	0.804
80.037956	0.338
80.040924	0.197
80.047058	0.083
81.016922	0.167
85.05088	2.005
86.003555	3.413
86.005936	0.049
86.505234	0.183
86.993263	0.057
87.00148	0.172
87.005692	0.032
87.497108	0.378
87.929047	0.037
90.483139	0.131
95.008842	0.844
95.510567	0.039
96.006714	0.047
96.502441	0.104
97.511688	0.03
97.994751	0.099
99.091728	0.915
99.488335	1.058
99.989822	0.054
100.075699	0.129
100.486221	0.175
107.000137	0.632
107.998039	0.12
108.493599	0.893
108.994896	0.061
109.491531	0.149
115.054253	0.051
116.005447	2.308
116.118309	6.889
116.122025	0.063
116.506554	0.187
116.962021	0.035
117.003471	0.418
117.498871	0.123
118.496742	0.044
124.086967	0.086
127.513481	0.106
141.113617	4.003
158.110107	0.073
158.140533	13.323
158.171234	0.086
END IONS

BEGIN IONS
PEPMASS=388.394
CHARGE=1
MSLEVEL=2
SOURCE_INSTRUMENT=ESI-Orbitrap
FILENAME=gnps_msn_lib_pos.mgf
SEQ=*..*
IONMODE=Positive
ORGANISM=MSNLIB-POSITIVE
NAME=Dimethyloctadecylbenzylammonium [M]+
PI=Tomas Pluskal
DATACOLLECTOR=Corinna Brungs
SMILES=CCCCCCCCCCCCCCCCCC[N+](C)(C)Cc1ccccc1
INCHI=InChI=1S/C27H50N/c1-4-5-6-7-8-9-10-11-12-13-14-15-16-17-18-22-25-28(2,3)26-27-23-20-19-21-24-27/h19-21,23-24H,4-18,22,25-26H2,1-3H3/q+1
INCHIAUX=FWLORMQUOWCQPO-UHFFFAOYSA-N
PUBMED=N/A
SUBMITUSER=jzemlin
LIBRARYQUALITY=1
SPECTRUMID=CCMSLIB00012334451
USI=mzspec:GNPS:MSNLIB-POSITIVE:accession:CCMSLIB00012334451
SCANS=33347
41.038662	2.141
42.033867	0.398
43.041756	0.126
43.05431	0.819
43.153419	0.317
43.155827	0.474
44.049454	0.693
46.065186	0.26
50.015182	0.531
51.022995	4.912
53.002247	0.119
53.038589	0.13
54.010059	0.143
55.017899	0.121
55.054234	0.974
56.049511	0.437
57.057339	0.342
57.069839	1.536
58.061142	0.209
58.065002	25.216999
58.068386	0.786
58.07177	0.247
62.015125	0.504
63.022945	4.514
65.038582	42.356998
65.041351	0.125
67.05426	0.076
68.049477	0.226
69.069778	0.315
70.065109	0.31
71.072945	0.911
71.085411	0.327
72.080727	1.814
79.054161	0.133
80.049423	0.291
81.057266	0.36
83.085442	0.156
84.080788	0.786
85.101112	0.1
89.038567	0.121
90.046509	0.092
91.046898	0.185
91.050468	0.326
91.054123	100.0
91.056801	1.102
91.060188	0.793
91.063995	0.916
91.067192	0.49
91.071312	0.235
94.065102	0.246
96.080688	3.085
97.101082	0.131
136.11171	0.149
296.331543	9.204
310.126343	0.998
388.393921	21.826
END IONS

BEGIN IONS
PEPMASS=427.249
CHARGE=1
MSLEVEL=2
SOURCE_INSTRUMENT=ESI-Orbitrap
FILENAME=gnps_msn_lib_pos.mgf
SEQ=*..*
IONMODE=Positive
ORGANISM=MSNLIB-POSITIVE
NAME=oxatomide [M+H]+
PI=Tomas Pluskal
DATACOLLECTOR=Corinna Brungs
SMILES=O=c1[nH]c2ccccc2n1CCCN1CCN(C(c2ccccc2)c2ccccc2)CC1
INCHI=InChI=1S/C27H30N4O/c32-27-28-24-14-7-8-15-25(24)31(27)17-9-16-29-18-20-30(21-19-29)26(22-10-3-1-4-11-22)23-12-5-2-6-13-23/h1-8,10-15,26H,9,16-21H2,(H,28,32)
INCHIAUX=BAINIUMDFURPJM-UHFFFAOYSA-N
PUBMED=N/A
SUBMITUSER=jzemlin
LIBRARYQUALITY=1
SPECTRUMID=CCMSLIB00012343725
USI=mzspec:GNPS:MSNLIB-POSITIVE:accession:CCMSLIB00012343725
SCANS=37974
41.267612	0.089
41.77153	0.221
50.015182	0.351
51.022999	0.38
52.030891	0.061
62.015202	0.078
63.022968	0.862
65.038597	0.95
74.015137	0.928
75.02298	0.574
76.030785	0.89
77.038605	0.772
78.046417	1.068
83.060387	0.108
84.068192	0.324
86.015144	0.289
87.02298	1.376
88.030746	0.126
89.038605	0.909
91.054237	0.304
92.049469	0.322
95.049179	0.622
98.015152	1.307
99.022964	0.764
100.030777	0.334
101.038605	0.078
102.046432	1.946
105.044815	0.128
110.015152	0.535
111.022995	0.931
112.030861	0.084
113.038589	0.675
115.054276	4.081
119.06041	1.461
122.01516	0.541
123.022987	0.326
124.030838	0.288
125.038635	0.508
125.107208	0.176
126.04644	3.704
127.054199	0.205
128.062073	6.048
128.064392	0.067
134.015152	0.117
135.02301	0.196
136.030823	0.09
137.038666	0.544
138.046478	0.12
139.054321	2.782
141.069946	3.715
143.049286	0.082
145.064789	0.225
147.055313	1.387
149.038696	0.488
150.043961	0.1
150.046509	8.578
150.049438	0.159
151.054337	3.476
152.050461	0.06
152.05484	0.261
152.062073	40.907001
152.064774	0.623
152.069092	0.278
152.071548	0.158
155.060547	0.077
161.038681	0.816
162.046524	1.623
163.054367	0.111
164.06221	1.5
165.061783	0.24
165.070007	40.823002
165.077606	0.273
165.080734	0.092
166.077866	11.598
167.052292	0.257
167.059311	0.23
167.072281	0.174
167.077271	0.715
167.085617	100.0
167.094025	0.606
167.096436	0.345
167.101273	0.074
167.112442	0.216
167.118774	0.286
167.12854	0.126
168.088837	0.089
169.064926	1.602
175.086746	1.756
259.155731	1.182
427.251587	1.052
END IONS

BEGIN IONS
PEPMASS=1131.56
CHARGE=1
MSLEVEL=2
SOURCE_INSTRUMENT=ESI-Orbitrap
FILENAME=gnps_msn_lib_pos.mgf
SEQ=*..*
IONMODE=Positive
ORGANISM=MSNLIB-POSITIVE
NAME=Escin [M+H]+
PI=Tomas Pluskal
DATACOLLECTOR=Corinna Brungs
SMILES=C/C=C(\C)C(=O)OC1[C@H](OC(C)=O)C2(CO)C(CC1(C)C)C1=CCC3C4(C)CCC(O[C@@H]5O[C@H](C(=O)O)[C@@H](O[C@@H]6O[C@H](CO)[C@@H](O)[C@H](O)[C@H]6O)[C@H](O)[C@H]5O[C@H]5O[C@H](CO)[C@@H](O)[C@H](O)[C@H]5O)[C@](C)(CO)C4CCC3(C)[C@]1(C)C[C@H]2O
INCHI=InChI=1S/C55H86O24/c1-10-23(2)46(71)79-43-44(72-24(3)60)55(22-59)26(17-50(43,4)5)25-11-12-30-51(6)15-14-32(52(7,21-58)29(51)13-16-53(30,8)54(25,9)18-31(55)61)75-49-41(77-48-38(67)36(65)34(63)28(20-57)74-48)39(68)40(42(78-49)45(69)70)76-47-37(66)35(64)33(62)27(19-56)73-47/h10-11,26-44,47-49,56-59,61-68H,12-22H2,1-9H3,(H,69,70)/b23-10+/t26?,27-,28-,29?,30?,31-,32?,33-,34-,35+,36+,37-,38-,39+,40+,41-,42+,43?,44+,47+,48-,49-,51?,52-,53?,54-,55?/m1/s1
INCHIAUX=AXNVHPCVMSNXNP-YSYFQUGBSA-N
PUBMED=N/A
SUBMITUSER=jzemlin
LIBRARYQUALITY=1
SPECTRUMID=CCMSLIB00012352091
USI=mzspec:GNPS:MSNLIB-POSITIVE:accession:CCMSLIB00012352091
SCANS=42118
83.048866	100.0
119.085587	87.936996
END IONS

BEGIN IONS
PEPMASS=985.5
CHARGE=1
MSLEVEL=2
SOURCE_INSTRUMENT=ESI-Orbitrap
FILENAME=gnps_msn_lib_pos.mgf
SEQ=*..*
IONMODE=Positive
ORGANISM=MSNLIB-POSITIVE
NAME=lanatoside C [M+H]+
PI=Tomas Pluskal
DATACOLLECTOR=Corinna Brungs
SMILES=CC(=O)O[C@H]1C[C@H](O[C@H]2[C@@H](O)C[C@H](O[C@H]3[C@@H](O)C[C@H](O[C@H]4CC[C@@]5(C)[C@H](CC[C@@H]6[C@@H]5C[C@@H](O)[C@]5(C)[C@@H](C7=CC(=O)OC7)CC[C@]65O)C4)O[C@@H]3C)O[C@@H]2C)O[C@H](C)[C@H]1O[C@@H]1O[C@H](CO)[C@@H](O)[C@H](O)[C@H]1O
INCHI=InChI=1S/C49H76O20/c1-21-43(67-38-17-32(53)44(22(2)62-38)68-39-18-33(64-24(4)51)45(23(3)63-39)69-46-42(58)41(57)40(56)34(19-50)66-46)31(52)16-37(61-21)65-27-9-11-47(5)26(14-27)7-8-29-30(47)15-35(54)48(6)28(10-12-49(29,48)59)25-13-36(55)60-20-25/h13,21-23,26-35,37-46,50,52-54,56-59H,7-12,14-20H2,1-6H3/t21-,22-,23-,26-,27+,28-,29-,30+,31+,32+,33+,34-,35-,37+,38+,39+,40-,41+,42-,43-,44-,45-,46+,47+,48+,49+/m1/s1
INCHIAUX=JAYAGJDXJIDEKI-PTGWOZRBSA-N
PUBMED=N/A
SUBMITUSER=jzemlin
LIBRARYQUALITY=1
SPECTRUMID=CCMSLIB00012354331
USI=mzspec:GNPS:MSNLIB-POSITIVE:accession:CCMSLIB00012354331
SCANS=43215
43.017906	32.914001
45.033611	6.981
67.054283	7.114
69.033249	26.645
79.054192	9.572
95.048958	28.506001
97.064606	100.0
113.059471	51.195999
131.07048	14.54
END IONS

BEGIN IONS
PEPMASS=215.061
CHARGE=1
MSLEVEL=2
SOURCE_INSTRUMENT=ESI-Orbitrap
FILENAME=gnps_msn_lib_pos.mgf
SEQ=*..*
IONMODE=Positive
ORGANISM=MSNLIB-POSITIVE
NAME=amifostine [M+H]+
PI=Tomas Pluskal
DATACOLLECTOR=Corinna Brungs
SMILES=NCCCNCCSP(=O)(O)O
INCHI=InChI=1S/C5H15N2O3PS/c6-2-1-3-7-4-5-12-11(8,9)10/h7H,1-6H2,(H2,8,9,10)
INCHIAUX=JKOQGQFVAUAYPM-UHFFFAOYSA-N
PUBMED=N/A
SUBMITUSER=jzemlin
LIBRARYQUALITY=1
SPECTRUMID=CCMSLIB00012361539
USI=mzspec:GNPS:MSNLIB-POSITIVE:accession:CCMSLIB00012361539
SCANS=46819
41.038628	2.577
42.033897	0.673
43.041752	0.912
44.04958	0.195
45.033428	1.453
56.04937	6.62
58.065098	88.957001
58.068096	1.009
61.010643	100.0
61.013062	0.559
62.005932	0.425
75.091637	4.009
84.080627	9.861
90.037163	2.254
101.107193	2.668
118.062096	0.271
118.066002	0.221
118.068481	91.827003
118.070541	1.409
118.073433	0.884
135.094986	92.850998
135.097321	0.381
135.10112	0.443
135.104858	1.634
135.119034	0.766
140.977036	0.649
198.035095	0.72
215.061844	9.387
215.085846	0.406
215.088501	0.632
END IONS

BEGIN IONS
PEPMASS=127.039
CHARGE=1
MSLEVEL=2
SOURCE_INSTRUMENT=ESI-Orbitrap
FILENAME=gnps_msn_lib_pos_second_batch.mgf
SEQ=*..*
IONMODE=Positive
ORGANISM=MSNLIB-POSITIVE
NAME=MALTOL [M+H]+
PI=Tomas Pluskal
DATACOLLECTOR=Corinna Brungs
SMILES=Cc1c(O)c(=O)cco1
INCHI=InChI=1S/C6H6O3/c1-4-6(8)5(7)2-3-9-4/h2-3,8H,1H3
INCHIAUX=XPCTZQVDEJYUGT-UHFFFAOYSA-N
PUBMED=N/A
SUBMITUSER=jzemlin
LIBRARYQUALITY=1
SPECTRUMID=CCMSLIB00013032365
USI=mzspec:GNPS:MSNLIB-POSITIVE:accession:CCMSLIB00013032365
SCANS=98610
43.017807	16.749001
44.979225	3.358
46.994972	1.706
50.013813	2.595
53.038467	13.104
55.017696	3.124
62.018127	1.614
67.016464	7.192
68.015755	1.593
68.019814	2.441
68.996948	1.435
71.012688	1.278
72.937012	0.662
81.033043	1.541
85.058441	9.79
86.05748	2.698
86.06192	6.456
90.947701	1.006
109.028229	9.459
127.038498	100.0
127.048874	1.998
134.920166	0.923
END IONS

BEGIN IONS
PEPMASS=256.206
CHARGE=1
MSLEVEL=2
SOURCE_INSTRUMENT=ESI-Orbitrap
FILENAME=gnps_msn_lib_pos_second_batch.mgf
SEQ=*..*
IONMODE=Positive
ORGANISM=MSNLIB-POSITIVE
NAME=Dimemorfan [M+H]+
PI=Tomas Pluskal
DATACOLLECTOR=Corinna Brungs
SMILES=Cc1cc2c(cc1)C[C@H]1[C@H]3CCCC[C@@]23CCN1C
INCHI=InChI=1S/C18H25N/c1-13-6-7-14-12-17-15-5-3-4-8-18(15,16(14)11-13)9-10-19(17)2/h6-7,11,15,17H,3-5,8-10,12H2,1-2H3/t15-,17+,18+/m1/s1
INCHIAUX=KBEZZLAAKIIPFK-NJAFHUGGSA-N
PUBMED=N/A
SUBMITUSER=jzemlin
LIBRARYQUALITY=1
SPECTRUMID=CCMSLIB00013065615
USI=mzspec:GNPS:MSNLIB-POSITIVE:accession:CCMSLIB00013065615
SCANS=106446
41.038559	0.234
44.049435	6.852
44.051731	0.179
49.283218	0.099
50.015079	0.604
51.022888	0.786
52.030724	0.136
53.038528	0.455
55.054131	0.826
58.065048	0.317
62.014973	0.175
63.022839	0.885
65.038483	5.046
67.054077	0.995
69.069756	2.484
74.014999	1.515
75.022842	0.981
76.030663	1.598
77.038475	0.672
78.046318	3.073
79.054085	0.452
81.069717	1.193
83.085442	0.334
86.015015	0.331
87.022835	0.578
89.038475	1.549
91.054131	18.351
91.056854	0.207
92.061951	0.169
95.049065	2.586
95.085335	0.654
98.01503	2.833
99.022842	1.102
100.03067	0.707
101.038475	0.099
102.046318	5.188
103.054115	0.388
105.044647	0.462
105.069771	2.406
110.015022	0.418
111.02285	0.62
113.038467	0.111
115.051773	0.1
115.054146	10.117
115.056419	0.126
116.061966	7.761
117.069786	0.211
119.049057	0.203
119.085365	0.898
119.99929	0.232
121.007111	0.444
122.014999	2.91
123.022804	1.085
124.03067	0.509
125.038475	0.48
126.046303	6.199
127.054131	2.054
128.056396	0.157
128.061935	21.707001
128.066299	0.262
129.044617	0.209
129.069778	6.802
130.077576	0.182
131.07962	0.246
131.085434	37.401001
131.087921	0.331
131.091187	0.222
131.094513	0.213
133.064758	0.385
139.054169	2.254
140.061981	1.049
141.069794	5.635
142.077591	4.802
143.049164	0.172
143.085403	26.893999
143.088165	0.184
143.091995	0.221
145.064713	4.23
145.10112	0.743
149.038437	0.353
150.04277	0.092
150.046295	9.11
151.054092	0.956
152.052643	0.112
152.054718	0.294
152.061905	41.719002
152.065018	0.329
152.068558	0.375
153.0625	0.158
153.069733	23.121
153.074509	0.107
154.077591	5.317
155.060257	2.354
155.075699	0.223
155.077896	0.461
155.081619	0.097
155.085373	67.152
155.092667	0.505
155.094925	0.141
155.097214	0.124
155.114914	0.356
156.093307	0.262
157.101044	4.638
161.038437	0.15
163.054123	0.309
164.062042	0.221
165.06987	0.92
167.08551	0.72
168.093384	0.382
169.10112	1.135
171.116806	0.301
181.101074	0.17
182.108917	0.889
183.11676	1.691
184.124161	0.188
195.11673	0.127
196.124756	0.093
197.118713	0.154
197.121719	0.319
197.123825	0.286
197.132355	45.570999
197.141052	0.135
197.143158	0.319
199.142578	0.1
199.147995	14.003
225.163635	0.544
256.141937	0.739
256.155151	0.389
256.205658	100.0
256.256104	0.651
256.268677	0.704
256.286469	0.285
END IONS

BEGIN IONS
PEPMASS=266.999
CHARGE=1
MSLEVEL=2
SOURCE_INSTRUMENT=ESI-Orbitrap
FILENAME=gnps_msn_lib_neg.mgf
SEQ=*..*
IONMODE=Negative
ORGANISM=MSNLIB-NEGATIVE
NAME=Dichlorophen [M-H]-
PI=Tomas Pluskal
DATACOLLECTOR=Corinna Brungs
SMILES=Oc1c(Cc2c(O)ccc(Cl)c2)cc(Cl)cc1
INCHI=InChI=1S/C13H10Cl2O2/c14-10-1-3-12(16)8(6-10)5-9-7-11(15)2-4-13(9)17/h1-4,6-7,16-17H,5H2
INCHIAUX=MDNWOSOZYLHTCG-UHFFFAOYSA-N
PUBMED=N/A
SUBMITUSER=jzemlin
LIBRARYQUALITY=1
SPECTRUMID=CCMSLIB00012322839
USI=mzspec:GNPS:MSNLIB-NEGATIVE:accession:CCMSLIB00012322839
SCANS=20913
41.003071	1.652
41.998314	0.039
45.993126	0.197
49.00816	0.388
57.975468	0.078
59.971249	0.601
60.974655	0.066
65.003166	0.052
66.747566	0.076
66.751633	0.084
91.018745	2.328
98.982292	0.202
115.984634	0.214
121.029381	0.047
126.983444	0.062
126.986504	0.105
126.989769	0.476
126.995171	100.0
126.997704	1.371
127.000832	0.881
127.004761	1.034
127.008827	0.088
127.012001	1.037
127.016716	0.749
127.023232	0.258
127.029762	0.138
134.032684	0.035
145.982498	0.249
146.024612	0.093
146.985596	0.108
147.02803	0.087
191.992294	0.054
192.995514	0.351
203.026459	0.065
218.00975	0.102
220.00621	0.834
231.021133	0.813
237.009949	0.123
248.987534	0.124
266.9104	0.099
266.92984	0.366
266.943451	0.225
266.997528	56.166
267.0513	0.337
267.064758	0.414
267.083618	0.158
END IONS

BEGIN IONS
PEPMASS=199.017
CHARGE=1
MSLEVEL=2
SOURCE_INSTRUMENT=ESI-Orbitrap
FILENAME=gnps_msn_lib_neg.mgf
SEQ=*..*
IONMODE=Negative
ORGANISM=MSNLIB-NEGATIVE
NAME=MCPA [M-H]-
PI=Tomas Pluskal
DATACOLLECTOR=Corinna Brungs
SMILES=Cc1c(OCC(=O)O)ccc(Cl)c1
INCHI=InChI=1S/C9H9ClO3/c1-6-4-7(10)2-3-8(6)13-5-9(11)12/h2-4H,5H2,1H3,(H,11,12)
INCHIAUX=WHKUVVPPKQRRBV-UHFFFAOYSA-N
PUBMED=N/A
SUBMITUSER=jzemlin
LIBRARYQUALITY=1
SPECTRUMID=CCMSLIB00012329985
USI=mzspec:GNPS:MSNLIB-NEGATIVE:accession:CCMSLIB00012329985
SCANS=24553
41.003052	0.428
49.008152	0.251
51.023785	0.069
55.018703	0.778
63.023888	0.032
65.039497	0.067
77.039482	0.332
79.018799	0.073
93.034431	0.605
95.049973	0.069
96.940918	0.044
105.034378	1.715
114.951149	0.165
121.029274	1.79
121.032097	0.032
123.044975	0.067
125.015923	0.335
140.003204	0.109
140.984818	0.165
140.998901	0.097
141.004562	0.403
141.007477	0.035
141.010971	100.0
141.01561	0.981
141.019333	0.283
141.021576	0.765
141.024933	0.082
141.030716	0.532
141.036285	0.415
141.044113	0.177
155.026764	3.037
170.941116	0.065
199.016235	5.424
END IONS

BEGIN IONS
PEPMASS=286.969
CHARGE=1
MSLEVEL=2
SOURCE_INSTRUMENT=ESI-Orbitrap
FILENAME=gnps_msn_lib_neg.mgf
SEQ=*..*
IONMODE=Negative
ORGANISM=MSNLIB-NEGATIVE
NAME=1,5-NAPHTHALENEDISULFONIC ACID [M-H]-
PI=Tomas Pluskal
DATACOLLECTOR=Corinna Brungs
SMILES=O=S(=O)(O)c1cccc2c(S(=O)(=O)O)cccc12
INCHI=InChI=1S/C10H8O6S2/c11-17(12,13)9-5-1-3-7-8(9)4-2-6-10(7)18(14,15)16/h1-6H,(H,11,12,13)(H,14,15,16)
INCHIAUX=XTEGVFVZDVNBPF-UHFFFAOYSA-N
PUBMED=N/A
SUBMITUSER=jzemlin
LIBRARYQUALITY=1
SPECTRUMID=CCMSLIB00012346465
USI=mzspec:GNPS:MSNLIB-NEGATIVE:accession:CCMSLIB00012346465
SCANS=32822
41.003052	1.796
51.753456	0.159
79.9571	46.754002
79.959259	0.695
79.962303	0.479
79.964966	0.399
80.964989	0.291
114.047447	0.135
115.055145	2.754
143.046463	0.162
143.050003	47.040001
143.052856	0.581
143.055588	0.493
143.061127	0.442
206.996567	0.281
206.999786	0.638
207.002441	0.412
207.01149	100.0
207.020645	0.472
207.022919	0.627
207.057068	0.233
223.006378	2.753
286.967743	46.110001
END IONS

BEGIN IONS
PEPMASS=181.051
CHARGE=1
MSLEVEL=2
SOURCE_INSTRUMENT=ESI-Orbitrap
FILENAME=gnps_msn_lib_neg.mgf
SEQ=*..*
IONMODE=Negative
ORGANISM=MSNLIB-NEGATIVE
NAME=4-Methoxybenzaldehyde [M+FA]-
PI=Tomas Pluskal
DATACOLLECTOR=Corinna Brungs
SMILES=COc1ccc(C=O)cc1
INCHI=InChI=1S/C8H8O2/c1-10-8-4-2-7(6-9)3-5-8/h2-6H,1H3
INCHIAUX=ZRSNZINYAWTAHE-UHFFFAOYSA-N
PUBMED=N/A
SUBMITUSER=jzemlin
LIBRARYQUALITY=1
SPECTRUMID=CCMSLIB00012351319
USI=mzspec:GNPS:MSNLIB-NEGATIVE:accession:CCMSLIB00012351319
SCANS=35286
41.003052	4.19
43.018497	0.442
44.99789	5.553
46.988079	0.317
49.003693	8.43
49.008183	0.276
51.023823	0.265
53.039501	0.17
62.016018	0.319
63.023849	1.063
65.003113	5.289
65.03949	0.613
67.018509	0.402
77.9702	0.266
80.026627	0.831
81.034409	4.592
83.013412	0.584
90.904221	1.857
91.018784	8.738
92.919716	3.264
92.993553	8.982
95.013588	0.845
95.980728	0.165
107.013519	1.563
108.021507	42.111
108.025169	0.567
108.029243	0.392
109.024963	0.298
109.029327	90.772003
109.033051	0.897
109.034958	0.347
109.037308	0.479
109.042198	0.351
111.008423	3.843
112.985359	1.748
123.008476	1.675
124.016174	3.009
135.008316	0.421
136.016418	0.16
136.871964	0.386
136.909653	1.603
136.983353	9.228
136.987915	0.167
137.024292	0.731
137.060654	0.539
139.003296	0.772
152.01123	11.182
153.019165	39.007999
153.026535	0.263
153.030533	0.411
153.033676	0.352
180.973007	2.21
181.013077	0.745
181.020187	0.477
181.050278	100.0
181.064713	0.386
181.080292	0.429
181.08815	0.754
END IONS

BEGIN IONS
PEPMASS=165.056
CHARGE=-1
MSLEVEL=2
SOURCE_INSTRUMENT=ESI-Orbitrap
FILENAME=gnps_msn_lib_neg_second_batch.mgf
SEQ=*..*
IONMODE=Negative
ORGANISM=MSNLIB-NEGATIVE
NAME=Ethylparaben [M-H]-
PI=Tomas Pluskal
DATACOLLECTOR=Corinna Brungs
SMILES=CCOC(=O)c1ccc(O)cc1
INCHI=InChI=1S/C9H10O3/c1-2-12-9(11)7-3-5-8(10)6-4-7/h3-6,10H,2H2,1H3
INCHIAUX=NUVBSKCKDOMJSU-UHFFFAOYSA-N
PUBMED=N/A
SUBMITUSER=jzemlin
LIBRARYQUALITY=1
SPECTRUMID=CCMSLIB00012855429
USI=mzspec:GNPS:MSNLIB-NEGATIVE:accession:CCMSLIB00012855429
SCANS=62258
41.003033	1.849
65.039398	8.007
75.023758	1.235
79.957092	5.677
92.026421	45.049
92.029091	0.857
93.034286	100.0
93.037041	1.696
95.013306	3.436
96.95977	12.724
108.021111	4.188
108.937195	1.292
136.015961	14.19
136.931931	1.888
137.023865	34.173
164.835693	6.386
165.05513	56.842999
END IONS

BEGIN IONS
PEPMASS=152.071
CHARGE=1
MSLEVEL=2
SOURCE_INSTRUMENT=LC-ESI-Orbitrap
FILENAME=FMstandards_20uMc2.mzML
SEQ=*..*
IONMODE=Positive
ORGANISM=CMMC-FOOD-BIOMARKERS
NAME=Methyl anthranilate (known structural isomers: 0; isobaric peaks in run: 1) [M+H]+
PI=Pieter Dorrestein
DATACOLLECTOR=Julius
SMILES=COC(=O)C1=CC=CC=C1N
INCHI=InChI=1S/C8H9NO2/c1-11-8(10)6-4-2-3-5-7(6)9/h2-5H,9H2,1H3
INCHIAUX=InChI=1S/C8H9NO2/c1-11-8(10)6-4-2-3-5-7(6)9/h2-5H,9H2,1H3 [M+H]+
PUBMED=N/A
SUBMITUSER=jzemlin
LIBRARYQUALITY=1
SPECTRUMID=CCMSLIB00013576276
USI=mzspec:GNPS:CMMC-FOOD-BIOMARKERS:accession:CCMSLIB00013576276
SCANS=941
52.001026	871.69751
54.932205	960.028137
55.448437	907.809631
57.187737	794.076477
80.700134	962.919983
81.250183	958.12677
83.759514	873.678711
88.023514	1154.179565
92.049622	3755.163086
92.549538	1861.224854
97.009697	1980.172119
97.028664	1276.096191
99.512459	4317.134766
101.0252	4429.157227
106.004311	4644.779297
108.517441	2495.27417
110.060287	130655.757812
110.066986	1194.024048
110.068527	1860.313232
111.044136	4225.446777
115.963898	970.799316
119.035851	3523.652588
124.014877	1876.782837
124.075493	1007.620728
127.685867	1001.473999
128.019211	2508.513428
129.020065	11065.525391
130.208374	998.232422
134.059586	2762.017822
146.029358	1436.064453
147.03035	7206.526855
152.047165	2537.366211
152.070465	10970.260742
END IONS

BEGIN IONS
PEPMASS=123.081
CHARGE=1
MSLEVEL=2
SOURCE_INSTRUMENT=LC-ESI-Orbitrap
FILENAME=FMstandards_20uMaa.mzML
SEQ=*..*
IONMODE=Positive
ORGANISM=CMMC-FOOD-BIOMARKERS
NAME=2-Phenylethanol (known structural isomers: 0; isobaric peaks in run: 4) [M+H]+
PI=Pieter Dorrestein
DATACOLLECTOR=Julius
SMILES=C1=CC=C(C=C1)CCO
INCHI=InChI=1S/C8H10O/c9-7-6-8-4-2-1-3-5-8/h1-5,9H,6-7H2
INCHIAUX=InChI=1S/C8H10O/c9-7-6-8-4-2-1-3-5-8/h1-5,9H,6-7H2 [M+H]+
PUBMED=N/A
SUBMITUSER=jzemlin
LIBRARYQUALITY=1
SPECTRUMID=CCMSLIB00013576422
USI=mzspec:GNPS:CMMC-FOOD-BIOMARKERS:accession:CCMSLIB00013576422
SCANS=429
51.02388	12240.0
52.027378	14366.480469
53.039516	15324.118164
54.042652	8076.834961
54.28764	9012.880859
66.858994	10234.753906
67.054893	17658.660156
77.039352	14303.768555
78.042404	45758.6875
79.018524	21900.017578
79.05455	145348.0625
80.057938	366317.40625
80.061974	10660.342773
88.023453	30013.683594
92.549484	19320.310547
95.04924	69898.109375
95.086395	12742.697266
96.05294	114762.90625
103.05468	15779.342773
104.05806	476935.03125
105.045601	11671.166992
105.070091	1210026.5
106.045158	34452.222656
106.050339	39082.460938
106.054482	66548.46875
106.058624	240358.1875
106.061729	178970.890625
106.073082	27020288.0
106.085564	126402.570312
106.088669	174807.53125
106.092812	64160.777344
106.096962	39092.328125
106.106293	32131.464844
123.044975	16554.599609
123.056625	18674.314453
123.081154	2214780.0
123.090294	64758.375
123.100357	591523.5625
END IONS

BEGIN IONS
PEPMASS=157.122
CHARGE=1
MSLEVEL=2
SOURCE_INSTRUMENT=LC-ESI-Orbitrap
FILENAME=FMstandards_20uMaa.mzML
SEQ=*..*
IONMODE=Positive
ORGANISM=CMMC-FOOD-BIOMARKERS
NAME=Allyl hexanoate (known structural isomers: 1; isobaric peaks in run: 1) [M+H]+
PI=Pieter Dorrestein
DATACOLLECTOR=Julius
SMILES=CCCCCC(=O)OCC=C
INCHI=InChI=1S/C9H16O2/c1-3-5-6-7-9(10)11-8-4-2/h4H,2-3,5-8H2,1H3
INCHIAUX=InChI=1S/C9H16O2/c1-3-5-6-7-9(10)11-8-4-2/h4H,2-3,5-8H2,1H3 [M+H]+
PUBMED=N/A
SUBMITUSER=jzemlin
LIBRARYQUALITY=1
SPECTRUMID=CCMSLIB00013576469
USI=mzspec:GNPS:CMMC-FOOD-BIOMARKERS:accession:CCMSLIB00013576469
SCANS=1911
55.054794	1925.890137
57.034019	1252.012451
57.070393	1066.128174
60.045174	9529.959961
69.070328	3942.878418
70.066132	6810.806641
71.113075	1041.58606
79.054565	1485.269897
79.594612	1013.686035
81.070175	3626.946777
83.049614	2524.402832
85.028786	1087.983765
85.065529	8916.533203
92.549545	5065.165039
93.070641	5784.283203
95.08577	4918.632324
97.06498	13021.973633
99.044456	6682.798828
99.080757	3206.539795
111.080696	5832.291016
111.091339	4318.957031
111.925529	1059.29187
115.075394	4441.67041
115.087341	40213.308594
116.106812	7631.82373
121.100845	4850.713867
125.059021	1105.547241
139.074097	4020.858398
139.084991	1914.440796
139.112	6154.996094
143.12059	1093.233643
156.080811	1092.749878
157.024521	3723.843506
157.073044	1112.568115
157.084244	5045.618652
157.097321	8353.013672
END IONS

BEGIN IONS
PEPMASS=139.05
CHARGE=1
MSLEVEL=2
SOURCE_INSTRUMENT=ESI-Orbitrap
FILENAME=federicopg/WFSR/ECRFS_DB/04_240326_mixof140standardsEFSA_POS_IL4.mzML
SEQ=*..*
IONMODE=Positive
ORGANISM=ECRFS_DB
NAME=4-Nitroaniline M+H
PI=Federico Padilla
DATACOLLECTOR="Sjors Rasker, Wout Bergkamp"
SMILES=Nc1ccc(N(=O)=O)cc1
INCHI=TYMLOMAKGOJONV-UHFFFAOYSA-N
INCHIAUX=N/A
PUBMED=N/A
SUBMITUSER=jzemlin
LIBRARYQUALITY=1
SPECTRUMID=CCMSLIB00012728791
USI=mzspec:GNPS:ECRFS_DB:accession:CCMSLIB00012728791
SCANS=733
44.450684	8939.542969
50.026543	8374.571289
52.918941	18431.117188
65.034798	13887.225586
65.038338	281324.75
67.159073	8949.614258
69.298759	8456.057617
73.586266	8196.303711
74.926697	10269.331055
92.04921	4125776.25
92.055679	89348.367188
92.059494	58775.511719
92.062531	38485.332031
93.044403	15769.181641
93.056992	51451.925781
96.478539	9390.320312
110.059776	412684.96875
120.05545	59631.058594
121.039536	29004.886719
121.715782	17922.876953
122.047226	13891365.0
122.056282	232892.84375
122.063141	163782.65625
122.067596	119258.40625
122.073898	50627.949219
122.079323	17464.490234
122.381142	19334.214844
128.089172	10399.938477
130.125336	9844.819336
139.039078	17342.419922
139.050018	225215.34375
END IONS

BEGIN IONS
PEPMASS=139.05
CHARGE=1
MSLEVEL=2
SOURCE_INSTRUMENT=ESI-Orbitrap
FILENAME=federicopg/WFSR/ECRFS_DB/05_240326_mixof140standardsEFSA_POS_IL5.mzML
SEQ=*..*
IONMODE=Positive
ORGANISM=ECRFS_DB
NAME=2-Nitroaniline M+H
PI=Federico Padilla
DATACOLLECTOR="Sjors Rasker, Wout Bergkamp"
SMILES=Nc1ccccc1N(=O)=O
INCHI=DPJCXCZTLWNFOH-UHFFFAOYSA-N
INCHIAUX=N/A
PUBMED=N/A
SUBMITUSER=jzemlin
LIBRARYQUALITY=1
SPECTRUMID=CCMSLIB00012728798
USI=mzspec:GNPS:ECRFS_DB:accession:CCMSLIB00012728798
SCANS=617
40.573067	8314.294922
44.70591	8790.688477
45.402798	9817.660156
56.69249	9257.260742
65.038734	270953.90625
65.042343	17460.691406
65.928101	9516.873047
80.049835	12298.182617
81.057503	10224.331055
89.936012	10550.801758
92.036453	34720.625
92.04364	35621.84375
92.049767	4200901.0
93.044983	13932.21582
93.057549	49346.144531
109.052963	11295.996094
110.060478	429235.15625
110.068741	13034.84375
111.022926	9531.724609
120.056152	73428.71875
121.040253	30612.800781
122.015289	27855.138672
122.021309	51014.691406
122.027267	135674.59375
122.032143	180901.59375
122.037895	162624.546875
122.048012	13929916.0
122.059235	92105.6875
122.383087	13730.357422
139.050919	214469.828125
END IONS

BEGIN IONS
PEPMASS=120.056
CHARGE=1
MSLEVEL=2
SOURCE_INSTRUMENT=ESI-Orbitrap
FILENAME=federicopg/WFSR/ECRFS_DB/240613_PMT_Serena_POS_IL2.mzML
SEQ=*..*
IONMODE=Positive
ORGANISM=ECRFS_DB
NAME="1,2,3-Benzotriazole" M+H
PI=Federico Padilla
DATACOLLECTOR="Sjors Rasker, Wout Bergkamp"
SMILES=c1ccc2c(c1)[nH]nn2
INCHI=QRUDEWIWKLJBPS-UHFFFAOYSA-N
INCHIAUX=N/A
PUBMED=N/A
SUBMITUSER=jzemlin
LIBRARYQUALITY=1
SPECTRUMID=CCMSLIB00012728812
USI=mzspec:GNPS:ECRFS_DB:accession:CCMSLIB00012728812
SCANS=849
40.222126	9461.449219
41.038368	13932.480469
43.017605	10047.491211
43.705303	9401.81543
50.156208	9130.763672
51.022907	16486.183594
52.018131	13767.991211
56.04916	12387.720703
63.022781	15517.328125
65.033745	28949.634766
65.038223	5630148.5
65.042267	199699.65625
65.044243	153461.109375
65.046318	43197.859375
65.048828	20820.414062
66.033455	21818.289062
83.048676	29501.125
90.03376	20953.855469
92.049103	3316779.75
92.055733	82461.101562
92.059288	59502.351562
92.062897	26463.150391
110.053604	8986.893555
110.059708	90656.117188
119.047379	17702.712891
119.725929	12911.854492
119.733917	18492.197266
120.044022	46550.164062
120.055252	18510534.0
120.064735	349283.5625
120.070641	269181.03125
120.07515	162463.046875
120.081253	63434.957031
120.087067	25704.130859
120.09285	16405.447266
120.386932	18923.152344
END IONS

BEGIN IONS
PEPMASS=212.118
CHARGE=1
MSLEVEL=2
SOURCE_INSTRUMENT=ESI-Orbitrap
FILENAME=federicopg/WFSR/ECRFS_DB/240613_PMT_Serena_POS_IL2.mzML
SEQ=*..*
IONMODE=Positive
ORGANISM=ECRFS_DB
NAME="1,3-Diphenylguanidine" M+H
PI=Federico Padilla
DATACOLLECTOR="Sjors Rasker, Wout Bergkamp"
SMILES=c1ccc(cc1)NC(=N)Nc2ccccc2
INCHI=OWRCNXZUPFZXOS-UHFFFAOYSA-N
INCHIAUX=N/A
PUBMED=N/A
SUBMITUSER=jzemlin
LIBRARYQUALITY=1
SPECTRUMID=CCMSLIB00012728813
USI=mzspec:GNPS:ECRFS_DB:accession:CCMSLIB00012728813
SCANS=1071
40.688271	16370.820312
41.002934	12835.936523
41.175484	15799.834961
48.771484	32188.578125
48.773933	36701.632812
50.015259	51708.46875
51.01078	17191.019531
51.02317	68265.476562
52.91634	22167.787109
52.919552	15761.699219
53.027912	30736.488281
53.030853	46098.8125
57.127678	15018.3125
62.273773	18832.210938
65.03862	30899.613281
77.03434	13665.482422
77.038597	526226.0
77.043709	21153.929688
92.049171	1165089.875
93.057777	42008.414062
93.838783	25758.40625
94.064789	28054310.0
94.071579	643859.75
94.075439	539548.5625
94.078743	235828.21875
94.082832	107552.179688
94.29039	25683.583984
95.048744	743832.8125
105.044434	209463.84375
117.044052	44835.75
118.051796	39330.875
118.738663	41003.8125
119.048958	108427.476562
119.060051	40535100.0
119.06958	790990.1875
119.075157	621678.6875
119.079689	338083.28125
119.085892	164324.84375
119.091591	54966.601562
119.38298	29309.048828
154.674911	27761.681641
168.080963	51074.832031
170.095993	32416.935547
195.038666	25144.888672
195.091446	11575198.0
195.108612	111762.5625
195.1241	116936.484375
195.132874	88629.039062
212.118118	15732762.0
212.155212	181926.453125
212.16507	117538.859375
212.178635	47799.019531
213.119858	23084.802734
END IONS

BEGIN IONS
PEPMASS=332.97
CHARGE=1
MSLEVEL=2
SOURCE_INSTRUMENT=ESI-Orbitrap
FILENAME=federicopg/WFSR/ECRFS_DB/35_240606_2059-Biocides(POS)_IL6.mzML
SEQ=*..*
IONMODE=Positive
ORGANISM=ECRFS_DB
NAME=Dichlofluanid M+H
PI=Federico Padilla
DATACOLLECTOR="Sjors Rasker, Wout Bergkamp"
SMILES=CN(C)S(=O)(=O)N(c1ccccc1)SC(F)(Cl)Cl
INCHI=WURGXGVFSMYFCG-UHFFFAOYSA-N
INCHIAUX=N/A
PUBMED=N/A
SUBMITUSER=jzemlin
LIBRARYQUALITY=1
SPECTRUMID=CCMSLIB00012728818
USI=mzspec:GNPS:ECRFS_DB:accession:CCMSLIB00012728818
SCANS=3103
40.937744	8486.916992
43.550304	7512.946289
44.049366	11848.746094
51.02306	10362.770508
52.917442	16016.387695
52.919899	18916.880859
56.543869	8976.158203
70.039604	782208.5
70.046249	14811.017578
71.036758	43180.011719
71.042892	104712.289062
75.022926	16951.320312
87.204765	7634.57959
90.181068	9625.841797
91.053726	10871.046875
93.027199	10526.345703
93.464912	8736.12793
95.029243	15161.71582
96.032738	9686.297852
98.984207	12275.277344
101.038338	14595.175781
101.735649	10094.93457
103.733948	9205.262695
109.044853	22592.458984
110.017029	17694.285156
110.047791	12870.733398
115.01178	33375.125
119.049736	13536.15625
120.716354	12019.311523
121.044571	7673616.0
121.053619	99655.28125
121.060326	100607.765625
121.064713	71976.023438
121.088295	50591.394531
122.047874	4602608.5
122.057251	69466.054688
122.063782	49734.335938
122.06839	44853.792969
123.01342	2102774.25
123.023766	2101329.75
123.034416	65224.574219
123.045891	24563.466797
123.051376	83684.28125
124.027138	1037600.4375
124.03672	8953.022461
124.038795	16291.498047
124.054764	12376.092773
125.029694	11512.706055
125.986992	21271.4375
129.044495	61455.476562
130.048035	23952.091797
135.116394	18325.693359
140.991318	111370.460938
141.010483	10862.711914
141.994629	59178.253906
142.014023	12213.303711
143.00705	862862.125
143.017746	16164.37793
143.997452	15468.210938
144.010422	410836.0
154.667862	22335.486328
163.111603	17843.240234
188.980804	13104.355469
190.077545	15581.669922
191.081482	10998.34668
223.925064	11313.003906
223.949997	410451.96875
297.212463	9173.754883
332.081085	10264.999023
333.080963	42251.4375
END IONS

BEGIN IONS
PEPMASS=445.18
CHARGE=1
MSLEVEL=2
SOURCE_INSTRUMENT=ESI-Orbitrap
FILENAME=federicopg/WFSR/ECRFS_DB/35_240606_2059-Biocides(POS)_IL6.mzML
SEQ=*..*
IONMODE=Positive
ORGANISM=ECRFS_DB
NAME=Difenacoum M+H
PI=Federico Padilla
DATACOLLECTOR="Sjors Rasker, Wout Bergkamp"
SMILES=C1C(CC2=CC=CC=C2C1C3=C(C4=CC=CC=C4OC3=O)O)C5=CC=C(C=C5)C6=CC=CC=C6
INCHI=FVQITOLOYMWVFU-UHFFFAOYSA-N
INCHIAUX=N/A
PUBMED=N/A
SUBMITUSER=jzemlin
LIBRARYQUALITY=1
SPECTRUMID=CCMSLIB00012728819
USI=mzspec:GNPS:ECRFS_DB:accession:CCMSLIB00012728819
SCANS=4272
41.683357	23040.103516
42.768867	24512.960938
43.758919	27368.742188
44.770256	50337.574219
44.772545	51864.507812
44.802078	26307.271484
47.832447	24119.443359
52.918457	43275.917969
64.281227	70683.421875
64.285179	42643.261719
91.054329	767053.375
105.070015	102679.984375
107.049416	26978.451172
117.069977	588506.375
121.028778	93794.65625
129.070023	754057.8125
143.085495	44534.777344
154.674149	58327.507812
160.194824	24599.806641
163.023651	54511.785156
163.039169	1227748.875
163.052902	38624.433594
165.070114	1734176.25
167.085709	913174.875
171.080734	256252.890625
175.039215	8478012.0
178.078842	183396.09375
178.497528	28648.904297
179.028259	36754.394531
179.048904	148018.046875
179.05603	105538.773438
179.085739	23274160.0
179.114975	137639.78125
179.122849	186223.5
180.0896	45596.195312
187.039413	189684.859375
189.054932	4775248.0
193.101166	55896.042969
205.101471	96759.453125
251.071884	38825.261719
255.709137	28366.722656
256.124512	40889.324219
257.069031	150042.484375
257.132874	25873796.0
257.18222	143906.71875
257.196869	180491.890625
258.136932	98446.507812
271.147919	93450.96875
273.091858	101932.046875
283.148254	144847.125
291.102112	3234201.25
341.117676	226092.4375
353.117859	67186.734375
445.180573	335466.53125
END IONS

BEGIN IONS
PEPMASS=163.036
CHARGE=1
MSLEVEL=2
SOURCE_INSTRUMENT=ESI-Orbitrap
FILENAME=federicopg/WFSR/ECRFS_DB/19_240506_LC-2_POS_IL2.mzML
SEQ=*..*
IONMODE=Positive
ORGANISM=ECRFS_DB
NAME=Dazomet M+H
PI=Federico Padilla
DATACOLLECTOR="Sjors Rasker, Wout Bergkamp"
SMILES=CN1CN(C(=S)SC1)C
INCHI=QAYICIQNSGETAS-UHFFFAOYSA-N
INCHIAUX=N/A
PUBMED=N/A
SUBMITUSER=jzemlin
LIBRARYQUALITY=1
SPECTRUMID=CCMSLIB00012728846
USI=mzspec:GNPS:ECRFS_DB:accession:CCMSLIB00012728846
SCANS=787
41.848373	8479.87793
42.033634	28135.742188
42.526924	9715.348633
43.041458	8607.499023
44.04929	3158477.5
44.051441	103259.703125
44.052731	69867.1875
45.033192	10918.008789
45.052662	10116.40625
46.994789	50349.867188
53.353828	9394.897461
54.559593	9306.743164
55.934341	18224.089844
60.664078	9163.220703
61.23481	8888.719727
65.932526	8112.162598
74.005638	35450.015625
76.951172	39173.828125
77.685226	10396.240234
80.817078	9316.369141
90.036949	440844.40625
119.993408	744737.0
120.001289	11568.186523
129.075638	10948.145508
154.667343	10497.945312
END IONS

BEGIN IONS
PEPMASS=268.166
CHARGE=1
MSLEVEL=2
SOURCE_INSTRUMENT=ESI-Orbitrap
FILENAME=output_folder/converted_library.mgf
SEQ=*..*
IONMODE=Positive
ORGANISM=WFSR-LIBRARY
NAME=Carbuterol_CE15 M+H
PI=Federico Padilla-Gonzalez
DATACOLLECTOR="Sjors Rasker, Wout Bergkamp"
SMILES=CC(C)(C)NCC(O)C1=CC(NC(N)=O)=C(O)C=C1
INCHI="InChI=1S/C13H21N3O3/c1-13(2,3)15-7-11(18)8-4-5-10(17)9(6-8)16-12(14)19/h4-6,11,15,17-18H,7H2,1-3H3,(H3,14,16,19)"
INCHIAUX=N/A
PUBMED=N/A
SUBMITUSER=jzemlin
LIBRARYQUALITY=1
SPECTRUMID=CCMSLIB00013933908
USI=mzspec:GNPS:WFSR-LIBRARY:accession:CCMSLIB00013933908
SCANS=127
52.917099	1229.300049
52.917599	3761.040039
52.918598	11716.219727
52.919399	5526.859863
52.920101	1576.339966
108.044296	912.969971
134.060104	220900.6875
151.086594	34880.0
177.065903	106260.710938
194.092499	1410641.875
207.149307	39452.171875
212.103104	18306.609375
225.1595	7157.990234
250.155197	412260.71875
268.165802	413754.25
END IONS

BEGIN IONS
PEPMASS=279.027
CHARGE=1
MSLEVEL=2
SOURCE_INSTRUMENT=ESI-Orbitrap
FILENAME=output_folder/converted_library.mgf
SEQ=*..*
IONMODE=Positive
ORGANISM=WFSR-LIBRARY
NAME=Fenthion_CE15 M+H
PI=Federico Padilla-Gonzalez
DATACOLLECTOR="Sjors Rasker, Wout Bergkamp"
SMILES=COP(=S)(OC)OC1=CC(C)=C(SC)C=C1
INCHI="InChI=1S/C10H15O3PS2/c1-8-7-9(5-6-10(8)16-4)13-14(15,11-2)12-3/h5-7H,1-4H3"
INCHIAUX=N/A
PUBMED=N/A
SUBMITUSER=jzemlin
LIBRARYQUALITY=1
SPECTRUMID=CCMSLIB00013937748
USI=mzspec:GNPS:WFSR-LIBRARY:accession:CCMSLIB00013937748
SCANS=3967
52.916901	6356.180176
52.9175	6457.740234
52.919399	13740.200195
52.9202	6712.75
105.070099	38926.359375
127.0158	18703.779297
137.042297	22602.369141
138.050201	39162.039062
142.992798	26508.839844
169.014603	161505.671875
185.045593	9623.339844
247.002304	147321.40625
279.028809	86579.289062
279.094513	13114.860352
END IONS

BEGIN IONS
PEPMASS=263.017
CHARGE=1
MSLEVEL=2
SOURCE_INSTRUMENT=ESI-Orbitrap
FILENAME=output_folder/converted_library.mgf
SEQ=*..*
IONMODE=Positive
ORGANISM=WFSR-LIBRARY
NAME=Demeton-S-methyl-sulfone_CE15 M+H
PI=Federico Padilla-Gonzalez
DATACOLLECTOR="Sjors Rasker, Wout Bergkamp"
SMILES=CCS(=O)(=O)CCSP(=O)(OC)OC
INCHI="InChI=1S/C6H15O5PS2/c1-4-14(8,9)6-5-13-12(7,10-2)11-3/h4-6H2,1-3H3"
INCHIAUX=N/A
PUBMED=N/A
SUBMITUSER=jzemlin
LIBRARYQUALITY=1
SPECTRUMID=CCMSLIB00013937776
USI=mzspec:GNPS:WFSR-LIBRARY:accession:CCMSLIB00013937776
SCANS=3995
52.917801	8682.030273
52.918598	9808.620117
52.9193	1826.280029
52.920399	2317.030029
77.005798	2997.879883
93.000397	12457.160156
108.9776	8184.169922
109.005402	5996.140137
121.0317	823707.125
127.015404	186878.515625
128.977005	10013.269531
137.008896	50101.230469
142.992599	412990.15625
152.976898	11025.299805
154.992599	22141.070312
168.991592	2041.390015
169.008194	1766451.375
170.987503	33324.070312
184.948898	6450.350098
186.963806	2912.399902
202.959793	5907.060059
230.990799	286026.78125
263.01709	991958.3125
END IONS

BEGIN IONS
PEPMASS=247.022
CHARGE=1
MSLEVEL=2
SOURCE_INSTRUMENT=ESI-Orbitrap
FILENAME=output_folder/converted_library.mgf
SEQ=*..*
IONMODE=Positive
ORGANISM=WFSR-LIBRARY
NAME=Demeton-S-methyl sulfoxide; Oxydemeton-methyl_CE15 M+H
PI=Federico Padilla-Gonzalez
DATACOLLECTOR="Sjors Rasker, Wout Bergkamp"
SMILES=CCS(=O)CCSP(=O)(OC)OC
INCHI="InChI=1S/C6H15O4PS2/c1-4-13(8)6-5-12-11(7,9-2)10-3/h4-6H2,1-3H3"
INCHIAUX=N/A
PUBMED=N/A
SUBMITUSER=jzemlin
LIBRARYQUALITY=1
SPECTRUMID=CCMSLIB00013937916
USI=mzspec:GNPS:WFSR-LIBRARY:accession:CCMSLIB00013937916
SCANS=4135
58.9949	118170.109375
77.005501	277752.78125
87.026199	130947.289062
105.036797	3599976.0
127.015503	507561.25
142.992706	796419.25
169.008301	10236648.0
229.011795	537177.5
247.022293	826738.5625
END IONS

BEGIN IONS
PEPMASS=330.103
CHARGE=1
MSLEVEL=2
SOURCE_INSTRUMENT=ESI-Orbitrap
FILENAME=output_folder/converted_library.mgf
SEQ=*..*
IONMODE=Positive
ORGANISM=WFSR-LIBRARY
NAME=Piperalin_CE15 M+H
PI=Federico Padilla-Gonzalez
DATACOLLECTOR="Sjors Rasker, Wout Bergkamp"
SMILES=CC1CCCCN1CCCOC(=O)C1=CC(Cl)=C(Cl)C=C1
INCHI="InChI=1S/C16H21Cl2NO2/c1-12-5-2-3-8-19(12)9-4-10-21-16(20)13-6-7-14(17)15(18)11-13/h6-7,11-12H,2-5,8-10H2,1H3"
INCHIAUX=N/A
PUBMED=N/A
SUBMITUSER=jzemlin
LIBRARYQUALITY=1
SPECTRUMID=CCMSLIB00013938077
USI=mzspec:GNPS:WFSR-LIBRARY:accession:CCMSLIB00013938077
SCANS=4296
42.425999	712.73999
42.6703	578.440002
43.585098	691.47998
45.260899	981.799988
46.594299	605.390015
48.990002	564.179993
50.524101	690.330017
51.814999	560.23999
52.0784	730.869995
52.9175	11331.980469
52.919102	25062.599609
56.5233	613.659973
57.091499	668.669983
57.490101	533.940002
61.592899	664.73999
61.8162	924.530029
64.442902	471.309998
65.252296	865.219971
71.497902	529.320007
72.347702	879.669983
73.437202	738.960022
74.120796	527.719971
75.822197	748.51001
79.178101	615.0
79.184303	682.859985
81.735397	743.809998
99.848396	794.960022
112.111702	13280.950195
116.808403	544.940002
127.4077	734.320007
131.3022	536.200012
133.689606	821.630005
138.1465	529.02002
140.143005	63508.390625
148.485001	709.880005
152.407104	568.150024
154.662704	1446.339966
154.676697	1853.829956
156.362595	735.570007
164.168106	553.73999
168.347198	866.080017
172.955994	10510.290039
184.027603	486.660004
184.0867	859.380005
188.645004	596.98999
220.318802	495.380005
230.997299	67808.960938
232.565399	958.76001
236.128494	728.059998
323.117615	462.890015
324.703888	914.559998
330.102112	1542252.875
331.105713	9698.889648
END IONS

BEGIN IONS
PEPMASS=155.074
CHARGE=1
MSLEVEL=2
SOURCE_INSTRUMENT=ESI-Orbitrap
FILENAME=output_folder/converted_library.mgf
SEQ=*..*
IONMODE=Positive
ORGANISM=WFSR-LIBRARY
NAME=Dimefox_CE15 M+H
PI=Federico Padilla-Gonzalez
DATACOLLECTOR="Sjors Rasker, Wout Bergkamp"
SMILES=CN(C)P(F)(=O)N(C)C
INCHI="InChI=1S/C4H12FN2OP/c1-6(2)9(5,8)7(3)4/h1-4H3"
INCHIAUX=N/A
PUBMED=N/A
SUBMITUSER=jzemlin
LIBRARYQUALITY=1
SPECTRUMID=CCMSLIB00013938497
USI=mzspec:GNPS:WFSR-LIBRARY:accession:CCMSLIB00013938497
SCANS=4716
42.033798	4503.330078
44.049301	165176.09375
44.051498	5145.939941
52.483501	802.900024
52.9165	1161.76001
52.9175	4736.319824
52.918701	12172.290039
52.919498	1318.969971
58.064899	2870.649902
67.065102	674.72998
95.012398	3332.469971
102.776604	866.72998
110.017097	10054.150391
111.062798	1928.089966
112.032204	4931.160156
112.497704	801.799988
126.031898	1433.579956
128.026993	1254026.0
129.029907	1206.329956
135.0681	307437.3125
135.078598	3000.290039
135.085403	645.099976
146.037796	9209.990234
153.058807	82636.953125
153.078796	93033.648438
154.590698	855.669983
154.596802	4876.75
155.074402	6314552.5
155.554596	4879.629883
155.559998	830.169983
156.077393	34579.738281
END IONS

BEGIN IONS
PEPMASS=341.072
CHARGE=1
MSLEVEL=2
SOURCE_INSTRUMENT=ESI-Orbitrap
FILENAME=output_folder/converted_library.mgf
SEQ=*..*
IONMODE=Positive
ORGANISM=WFSR-LIBRARY
NAME=Pyridaphenthion_CE15 M+H
PI=Federico Padilla-Gonzalez
DATACOLLECTOR="Sjors Rasker, Wout Bergkamp"
SMILES=CCOP(=S)(OCC)OC1=NN(C(=O)C=C1)C1=CC=CC=C1
INCHI="InChI=1S/C14H17N2O4PS/c1-3-18-21(22,19-4-2)20-13-10-11-14(17)16(15-13)12-8-6-5-7-9-12/h5-11H,3-4H2,1-2H3"
INCHIAUX=N/A
PUBMED=N/A
SUBMITUSER=jzemlin
LIBRARYQUALITY=1
SPECTRUMID=CCMSLIB00013938789
USI=mzspec:GNPS:WFSR-LIBRARY:accession:CCMSLIB00013938789
SCANS=5008
52.9175	11530.30957
52.918999	13975.669922
114.961098	4052.110107
189.065796	243932.296875
190.069305	10556.089844
205.042999	86252.789062
233.0746	5542.910156
285.009705	11696.219727
313.041199	26286.730469
341.072388	91746.070312
342.074493	6957.169922
END IONS

BEGIN IONS
PEPMASS=298.31
CHARGE=1
MSLEVEL=2
SOURCE_INSTRUMENT=ESI-Orbitrap
FILENAME=output_folder/converted_library.mgf
SEQ=*..*
IONMODE=Positive
ORGANISM=WFSR-LIBRARY
NAME=Tridemorph_CE15 M+H
PI=Federico Padilla-Gonzalez
DATACOLLECTOR="Sjors Rasker, Wout Bergkamp"
SMILES=CCCCCCCCCCCCCN1CC(C)OC(C)C1
INCHI="InChI=1S/C19H39NO/c1-4-5-6-7-8-9-10-11-12-13-14-15-20-16-18(2)21-19(3)17-20/h18-19H,4-17H2,1-3H3"
INCHIAUX=N/A
PUBMED=N/A
SUBMITUSER=jzemlin
LIBRARYQUALITY=1
SPECTRUMID=CCMSLIB00013939361
USI=mzspec:GNPS:WFSR-LIBRARY:accession:CCMSLIB00013939361
SCANS=5580
45.033298	2710.909912
52.9175	6022.759766
52.918201	7249.910156
52.918701	4160.819824
52.919201	3101.419922
52.919899	4448.109863
57.069599	3435.449951
59.048901	1226.810059
71.085197	3057.790039
73.0644	3922.280029
85.1008	1761.619995
87.080002	1170.47998
103.074898	1607.689941
131.085098	54489.339844
132.088501	4076.169922
150.048996	1918.579956
176.106705	1376.25
197.992294	1390.98999
220.169296	1949.219971
239.237	2956.060059
240.003998	1638.300049
252.096405	69775.59375
253.099304	6385.100098
280.235291	3659.050049
298.138489	22052.800781
298.276611	1690.109985
298.310394	513676.5625
298.347198	2445.48999
299.14389	4465.919922
299.313385	2257.409912
END IONS

BEGIN IONS
PEPMASS=289.102
CHARGE=1
MSLEVEL=2
SOURCE_INSTRUMENT=ESI-Orbitrap
FILENAME=output_folder/converted_library.mgf
SEQ=*..*
IONMODE=Positive
ORGANISM=WFSR-LIBRARY
NAME=Iprobenfos_CE15 M+H
PI=Federico Padilla-Gonzalez
DATACOLLECTOR="Sjors Rasker, Wout Bergkamp"
SMILES=CC(C)OP(=O)(OC(C)C)SCC1=CC=CC=C1
INCHI="InChI=1S/C13H21O3PS/c1-11(2)15-17(14,16-12(3)4)18-10-13-8-6-5-7-9-13/h5-9,11-12H,10H2,1-4H3"
INCHIAUX=N/A
PUBMED=N/A
SUBMITUSER=jzemlin
LIBRARYQUALITY=1
SPECTRUMID=CCMSLIB00013939375
USI=mzspec:GNPS:WFSR-LIBRARY:accession:CCMSLIB00013939375
SCANS=5594
52.918499	11518.790039
52.9193	11663.25
90.976196	33353.101562
91.053802	1109459.25
205.008194	482687.15625
220.934494	22456.259766
247.054993	9968.25
END IONS

BEGIN IONS
PEPMASS=253.166
CHARGE=1
MSLEVEL=2
SOURCE_INSTRUMENT=ESI-Orbitrap
FILENAME=output_folder/converted_library.mgf
SEQ=*..*
IONMODE=Positive
ORGANISM=WFSR-LIBRARY
NAME=Hexazinone_CE15 M+H
PI=Federico Padilla-Gonzalez
DATACOLLECTOR="Sjors Rasker, Wout Bergkamp"
SMILES=CN(C)C1=NC(=O)N(C2CCCCC2)C(=O)N1C
INCHI="InChI=1S/C12H20N4O2/c1-14(2)10-13-11(17)16(12(18)15(10)3)9-7-5-4-6-8-9/h9H,4-8H2,1-3H3"
INCHIAUX=N/A
PUBMED=N/A
SUBMITUSER=jzemlin
LIBRARYQUALITY=1
SPECTRUMID=CCMSLIB00013939403
USI=mzspec:GNPS:WFSR-LIBRARY:accession:CCMSLIB00013939403
SCANS=5622
41.727901	1268.390015
52.916901	3851.350098
52.917599	8882.299805
52.918499	9893.879883
52.919399	4840.419922
52.919998	7450.439941
52.9212	1269.199951
59.150299	1243.160034
61.010502	2026.849976
71.060501	67802.867188
71.064102	1587.189941
71.582603	1238.319946
74.207603	1232.609985
79.158501	1275.72998
83.024696	1465.130005
83.085899	4876.399902
85.075996	67795.117188
89.041702	122859.023438
90.045097	2288.419922
114.066101	1250.52002
137.180801	1251.430054
144.0336	1159.859985
170.533997	16347.200195
171.087601	11571677.0
171.644196	15912.769531
172.090607	12180.769531
185.055603	1292.819946
186.048996	1354.819946
224.977707	2546.620117
252.119507	1210.030029
252.168793	1977.839966
253.009506	9260.160156
253.105301	1772.300049
253.140503	13398.089844
253.166	4330888.5
254.168594	19842.480469
END IONS

BEGIN IONS
PEPMASS=253.01
CHARGE=1
MSLEVEL=2
SOURCE_INSTRUMENT=ESI-Orbitrap
FILENAME=output_folder/converted_library.mgf
SEQ=*..*
IONMODE=Positive
ORGANISM=WFSR-LIBRARY
NAME=Demethon-S-methyl_CE15 M+Na
PI=Federico Padilla-Gonzalez
DATACOLLECTOR="Sjors Rasker, Wout Bergkamp"
SMILES=CCSCCSP(=O)(OC)OC
INCHI="InChI=1S/C6H15O3PS2/c1-4-11-5-6-12-10(7,8-2)9-3/h4-6H2,1-3H3"
INCHIAUX=N/A
PUBMED=N/A
SUBMITUSER=jzemlin
LIBRARYQUALITY=1
SPECTRUMID=CCMSLIB00013939466
USI=mzspec:GNPS:WFSR-LIBRARY:accession:CCMSLIB00013939466
SCANS=5685
52.917301	5408.529785
52.918098	3288.98999
52.918499	5417.049805
52.919102	2982.72998
52.919601	6728.049805
61.010502	6147.970215
71.060402	16059.070312
85.075897	13623.030273
89.041603	540769.25
171.087494	3620582.5
224.977493	9060.94043
253.009399	44574.511719
253.141098	12045.209961
253.165894	1152950.125
END IONS

BEGIN IONS
PEPMASS=309.038
CHARGE=1
MSLEVEL=2
SOURCE_INSTRUMENT=ESI-Orbitrap
FILENAME=output_folder/converted_library.mgf
SEQ=*..*
IONMODE=Positive
ORGANISM=WFSR-LIBRARY
NAME=Fensulfothion_CE15 M+H
PI=Federico Padilla-Gonzalez
DATACOLLECTOR="Sjors Rasker, Wout Bergkamp"
SMILES=CCOP(=S)(OCC)OC1=CC=C(C=C1)S(C)=O
INCHI="InChI=1S/C11H17O4PS2/c1-4-13-16(17,14-5-2)15-10-6-8-11(9-7-10)18(3)12/h6-9H,4-5H2,1-3H3"
INCHIAUX=N/A
PUBMED=N/A
SUBMITUSER=jzemlin
LIBRARYQUALITY=1
SPECTRUMID=CCMSLIB00013939473
USI=mzspec:GNPS:WFSR-LIBRARY:accession:CCMSLIB00013939473
SCANS=5692
47.589699	831.179993
52.917301	7941.919922
52.917999	3473.52002
52.918701	6056.049805
52.9193	5677.72998
52.919899	5370.259766
54.691601	985.869995
59.048901	8446.959961
67.630997	850.549988
82.110199	890.830017
95.457603	809.909973
96.952103	828.419983
109.9142	837.640015
114.9617	836.22998
117.054398	1604.599976
139.0215	4273.470215
140.029404	4908.689941
156.006393	4497.069824
157.031799	173928.0625
173.008896	142546.453125
175.015503	933.26001
185.063202	35423.359375
186.9496	1139.819946
201.040207	93121.109375
219.024307	2533.120117
230.407303	881.080017
234.964905	206360.484375
235.971893	8821.570312
236.998093	28091.029297
237.952103	1613.780029
252.975403	514171.5
253.978302	2956.01001
262.996094	52822.941406
264.004089	40493.78125
265.029388	844.97998
265.98291	1440.390015
266.991913	7775.879883
281.006805	1309406.0
282.009613	10644.660156
294.014801	10536.120117
309.037994	1219647.375
309.168304	4954.370117
309.203705	1034.97998
310.041412	10254.94043
END IONS

BEGIN IONS
PEPMASS=240.934
CHARGE=1
MSLEVEL=2
SOURCE_INSTRUMENT=ESI-Orbitrap
FILENAME=output_folder/converted_library.mgf
SEQ=*..*
IONMODE=Positive
ORGANISM=WFSR-LIBRARY
NAME=Picloram_CE15 M+H
PI=Federico Padilla-Gonzalez
DATACOLLECTOR="Sjors Rasker, Wout Bergkamp"
SMILES=NC1=C(Cl)C(Cl)=NC(C(O)=O)=C1Cl
INCHI="InChI=1S/C6H3Cl3N2O2/c7-1-3(10)2(8)5(9)11-4(1)6(12)13/h(H2,10,11)(H,12,13)"
INCHIAUX=N/A
PUBMED=N/A
SUBMITUSER=jzemlin
LIBRARYQUALITY=1
SPECTRUMID=CCMSLIB00013939494
USI=mzspec:GNPS:WFSR-LIBRARY:accession:CCMSLIB00013939494
SCANS=5713
52.9175	9405.05957
52.918301	3040.159912
52.918999	3489.560059
52.9198	6440.660156
212.938095	33030.25
240.933304	579261.125
241.1026	2969.060059
END IONS

BEGIN IONS
PEPMASS=210.16
CHARGE=1
MSLEVEL=2
SOURCE_INSTRUMENT=ESI-Orbitrap
FILENAME=output_folder/converted_library.mgf
SEQ=*..*
IONMODE=Positive
ORGANISM=WFSR-LIBRARY
NAME=Dimethirimol_CE15 M+H
PI=Federico Padilla-Gonzalez
DATACOLLECTOR="Sjors Rasker, Wout Bergkamp"
SMILES=CCCCC1=C(O)N=C(N=C1C)N(C)C
INCHI="InChI=1S/C11H19N3O/c1-5-6-7-9-8(2)12-11(14(3)4)13-10(9)15/h5-7H2,1-4H3,(H,12,13,15)"
INCHIAUX=N/A
PUBMED=N/A
SUBMITUSER=jzemlin
LIBRARYQUALITY=1
SPECTRUMID=CCMSLIB00013939522
USI=mzspec:GNPS:WFSR-LIBRARY:accession:CCMSLIB00013939522
SCANS=5741
52.917099	4668.049805
52.917999	11001.459961
52.918499	3505.949951
52.9193	5348.540039
52.9198	4244.089844
71.060898	16148.269531
98.059799	1274.619995
121.028099	25349.820312
140.106796	35006.898438
150.1026	8846.530273
152.082703	6116.609863
165.102295	7549.970215
166.098404	3615.209961
167.106094	9479.669922
209.4086	9607.80957
210.111893	23707.699219
210.160095	9604528.0
210.916	10099.040039
211.162903	10490.379883
END IONS

BEGIN IONS
PEPMASS=311.033
CHARGE=1
MSLEVEL=2
SOURCE_INSTRUMENT=ESI-Orbitrap
FILENAME=output_folder/converted_library.mgf
SEQ=*..*
IONMODE=Positive
ORGANISM=WFSR-LIBRARY
NAME=Edifenphos_CE15 M+H
PI=Federico Padilla-Gonzalez
DATACOLLECTOR="Sjors Rasker, Wout Bergkamp"
SMILES=CCOP(=O)(SC1=CC=CC=C1)SC1=CC=CC=C1
INCHI="InChI=1S/C14H15O2PS2/c1-2-16-17(15,18-13-9-5-3-6-10-13)19-14-11-7-4-8-12-14/h3-12H,2H2,1H3"
INCHIAUX=N/A
PUBMED=N/A
SUBMITUSER=jzemlin
LIBRARYQUALITY=1
SPECTRUMID=CCMSLIB00013939578
USI=mzspec:GNPS:WFSR-LIBRARY:accession:CCMSLIB00013939578
SCANS=5797
52.919399	11603.969727
57.069599	14301.150391
111.025803	97633.710938
140.9823	12037.80957
172.9814	8539.200195
190.992294	97159.632812
219.023804	34491.28125
223.074997	8931.599609
237.090805	10512.519531
251.070007	41664.511719
265.086212	24575.910156
283.00119	265140.03125
311.032593	66372.6875
END IONS

BEGIN IONS
PEPMASS=292.087
CHARGE=1
MSLEVEL=2
SOURCE_INSTRUMENT=ESI-Orbitrap
FILENAME=output_folder/converted_library.mgf
SEQ=*..*
IONMODE=Positive
ORGANISM=WFSR-LIBRARY
NAME=Crufomate_CE15 M+H
PI=Federico Padilla-Gonzalez
DATACOLLECTOR="Sjors Rasker, Wout Bergkamp"
SMILES=CNP(=O)(OC)OC1=CC=C(C=C1Cl)C(C)(C)C
INCHI="InChI=1S/C12H19ClNO3P/c1-12(2,3)9-6-7-11(10(13)8-9)17-18(15,14-4)16-5/h6-8H,1-5H3,(H,14,15)"
INCHIAUX=N/A
PUBMED=N/A
SUBMITUSER=jzemlin
LIBRARYQUALITY=1
SPECTRUMID=CCMSLIB00013939669
USI=mzspec:GNPS:WFSR-LIBRARY:accession:CCMSLIB00013939669
SCANS=5888
52.917198	4228.299805
52.9179	7315.790039
52.918301	2201.110107
52.918999	6171.740234
52.919601	4513.52002
52.920101	1352.339966
57.069599	44657.890625
126.031197	56499.699219
222.007095	1315.650024
236.023697	549815.0625
236.128296	1133.780029
278.071198	7847.209961
290.861786	1691.310059
292.086304	2542177.5
292.193298	2848.879883
293.0896	12134.330078
END IONS

BEGIN IONS
PEPMASS=224.092
CHARGE=1
MSLEVEL=2
SOURCE_INSTRUMENT=ESI-Orbitrap
FILENAME=output_folder/converted_library.mgf
SEQ=*..*
IONMODE=Positive
ORGANISM=WFSR-LIBRARY
NAME=Bendiocarb_CE15 M+H
PI=Federico Padilla-Gonzalez
DATACOLLECTOR="Sjors Rasker, Wout Bergkamp"
SMILES=CNC(=O)OC1=CC=CC2=C1OC(C)(C)O2
INCHI="InChI=1S/C11H13NO4/c1-11(2)15-8-6-4-5-7(9(8)16-11)14-10(13)12-3/h4-6H,1-3H3,(H,12,13)"
INCHIAUX=N/A
PUBMED=N/A
SUBMITUSER=jzemlin
LIBRARYQUALITY=1
SPECTRUMID=CCMSLIB00013939732
USI=mzspec:GNPS:WFSR-LIBRARY:accession:CCMSLIB00013939732
SCANS=5951
52.917599	9059.870117
59.048801	360702.90625
81.033302	59648.910156
109.028198	3967005.25
127.038803	40850.980469
167.070297	4831647.0
224.092102	14881.639648
224.126694	15514.519531
END IONS

BEGIN IONS
PEPMASS=523.091
CHARGE=1
MSLEVEL=2
SOURCE_INSTRUMENT=ESI-Orbitrap
FILENAME=output_folder/converted_library.mgf
SEQ=*..*
IONMODE=Positive
ORGANISM=WFSR-LIBRARY
NAME=Brodifacoum_CE15 M+H
PI=Federico Padilla-Gonzalez
DATACOLLECTOR="Sjors Rasker, Wout Bergkamp"
SMILES=OC1=C(C2CC(CC3=CC=CC=C23)C2=CC=C(C=C2)C2=CC=C(Br)C=C2)C(=O)OC2=CC=CC=C12
INCHI="InChI=1S/C31H23BrO3/c32-24-15-13-20(14-16-24)19-9-11-21(12-10-19)23-17-22-5-1-2-6-25(22)27(18-23)29-30(33)26-7-3-4-8-28(26)35-31(29)34/h1-16,23,27,33H,17-18H2"
INCHIAUX=N/A
PUBMED=N/A
SUBMITUSER=jzemlin
LIBRARYQUALITY=1
SPECTRUMID=CCMSLIB00013939802
USI=mzspec:GNPS:WFSR-LIBRARY:accession:CCMSLIB00013939802
SCANS=6021
52.9179	22759.740234
52.919399	5642.330078
73.0644	111058.476562
145.121994	55502.828125
335.042786	8624.660156
523.086182	7824.069824
END IONS

BEGIN IONS
PEPMASS=366.066
CHARGE=1
MSLEVEL=2
SOURCE_INSTRUMENT=ESI-Orbitrap
FILENAME=output_folder/converted_library.mgf
SEQ=*..*
IONMODE=Positive
ORGANISM=WFSR-LIBRARY
NAME=Benzoylprop ethyl_CE15 M+H
PI=Federico Padilla-Gonzalez
DATACOLLECTOR="Sjors Rasker, Wout Bergkamp"
SMILES=CCOC(=O)C(C)N(C(=O)C1=CC=CC=C1)C1=CC(Cl)=C(Cl)C=C1
INCHI="InChI=1S/C18H17Cl2NO3/c1-3-24-18(23)12(2)21(14-9-10-15(19)16(20)11-14)17(22)13-7-5-4-6-8-13/h4-12H,3H2,1-2H3"
INCHIAUX=N/A
PUBMED=N/A
SUBMITUSER=jzemlin
LIBRARYQUALITY=1
SPECTRUMID=CCMSLIB00013939977
USI=mzspec:GNPS:WFSR-LIBRARY:accession:CCMSLIB00013939977
SCANS=6196
52.917198	8748.5
52.9179	10998.790039
52.919102	17590.019531
77.038498	23472.029297
95.048698	83965.632812
104.766197	9657.799805
105.032997	8704983.0
105.301201	11079.410156
106.0364	70040.9375
126.0522	12978.370117
262.213806	10326.30957
292.0289	49729.089844
320.023804	88316.609375
365.277496	48401.679688
366.062714	26455.890625
366.281006	28589.490234
END IONS

BEGIN IONS
PEPMASS=364.907
CHARGE=1
MSLEVEL=2
SOURCE_INSTRUMENT=ESI-Orbitrap
FILENAME=output_folder/converted_library.mgf
SEQ=*..*
IONMODE=Positive
ORGANISM=WFSR-LIBRARY
NAME=Tetrachlorvinphos_CE15 M+H
PI=Federico Padilla-Gonzalez
DATACOLLECTOR="Sjors Rasker, Wout Bergkamp"
SMILES=COP(=O)(OC)O\C(=C/Cl)C1=C(Cl)C=C(Cl)C(Cl)=C1
INCHI="InChI=1S/C10H9Cl4O4P/c1-16-19(15,17-2)18-10(5-11)6-3-8(13)9(14)4-7(6)12/h3-5H,1-2H3/b10-5-"
INCHIAUX=N/A
PUBMED=N/A
SUBMITUSER=jzemlin
LIBRARYQUALITY=1
SPECTRUMID=CCMSLIB00013940166
USI=mzspec:GNPS:WFSR-LIBRARY:accession:CCMSLIB00013940166
SCANS=6385
52.9179	15786.530273
52.918598	14613.509766
52.919102	13889.629883
52.920101	6259.470215
127.014999	9369002.0
127.372902	5601.709961
128.018402	21081.929688
145.025803	18377.210938
154.675995	4795.439941
183.173798	9718.629883
203.929703	21475.679688
213.012695	7571.149902
228.989502	138069.15625
238.8983	1248199.5
290.945801	18664.820312
308.955994	254301.71875
335.993591	4239.990234
336.98761	220077.796875
364.026703	9237.589844
364.90741	108250.53125
365.019012	762673.875
END IONS

BEGIN IONS
PEPMASS=248.032
CHARGE=1
MSLEVEL=2
SOURCE_INSTRUMENT=ESI-Orbitrap
FILENAME=output_folder/converted_library.mgf
SEQ=*..*
IONMODE=Positive
ORGANISM=WFSR-LIBRARY
NAME=Paraoxon-methyl_CE15 M+H
PI=Federico Padilla-Gonzalez
DATACOLLECTOR="Sjors Rasker, Wout Bergkamp"
SMILES=COP(=O)(OC)OC1=CC=C(C=C1)[N+]([O-])=O
INCHI="InChI=1S/C8H10NO6P/c1-13-16(12,14-2)15-8-5-3-7(4-6-8)9(10)11/h3-6H,1-2H3"
INCHIAUX=N/A
PUBMED=N/A
SUBMITUSER=jzemlin
LIBRARYQUALITY=1
SPECTRUMID=CCMSLIB00013940187
USI=mzspec:GNPS:WFSR-LIBRARY:accession:CCMSLIB00013940187
SCANS=6406
52.917599	10443.139648
52.919201	13294.019531
78.046303	954.159973
79.0541	1506.819946
90.046204	35338.148438
91.053902	5767.709961
92.025497	1654.300049
95.996902	7311.339844
97.004898	753.400024
104.061897	12284.620117
106.040901	788.789978
107.049004	27606.589844
108.056801	3068.030029
110.012604	3087.280029
122.023598	2590.98999
123.031303	9789.799805
127.015297	51186.058594
129.065903	5085.680176
130.049393	962.669983
130.069107	688.73999
154.663895	986.609985
174.007599	11133.669922
174.972504	1301.569946
181.054306	2021.800049
190.038101	1696.050049
201.031097	1852.209961
202.038803	147304.453125
202.998093	2077.830078
204.018494	2283.040039
211.064499	3050.090088
218.033997	5197.799805
219.041794	1413.609985
220.000702	32900.449219
231.029007	39777.921875
234.028793	732.119995
238.011398	7017.160156
248.031799	504678.6875
END IONS

BEGIN IONS
PEPMASS=278.025
CHARGE=1
MSLEVEL=2
SOURCE_INSTRUMENT=ESI-Orbitrap
FILENAME=output_folder/converted_library.mgf
SEQ=*..*
IONMODE=Positive
ORGANISM=WFSR-LIBRARY
NAME=Fenitrothion_CE30 M+H
PI=Federico Padilla-Gonzalez
DATACOLLECTOR="Sjors Rasker, Wout Bergkamp"
SMILES=COP(=S)(OC)OC1=CC=C(C(C)=C1)[N+]([O-])=O
INCHI="InChI=1S/C9H12NO5PS/c1-7-6-8(4-5-9(7)10(11)12)15-16(17,13-2)14-3/h4-6H,1-3H3"
INCHIAUX=N/A
PUBMED=N/A
SUBMITUSER=jzemlin
LIBRARYQUALITY=1
SPECTRUMID=CCMSLIB00013940292
USI=mzspec:GNPS:WFSR-LIBRARY:accession:CCMSLIB00013940292
SCANS=6511
46.994801	6655.27002
52.918301	5091.529785
53.038399	9054.719727
65.0383	98461.171875
78.046097	6392.839844
78.994102	25125.890625
80.049202	29080.730469
91.041397	3903.719971
92.049301	16472.150391
97.010498	19854.880859
105.033302	3157.169922
105.069801	3716.52002
106.0411	7525.180176
108.044197	24418.519531
109.052101	24384.75
120.044197	15809.19043
124.0214	24940.839844
124.981903	50095.171875
127.015297	29440.5
136.0392	12161.790039
137.046997	17275.669922
142.992493	267652.28125
152.016403	22554.519531
184.028305	13867.769531
213.054504	5687.950195
264.009796	6024.060059
END IONS

BEGIN IONS
PEPMASS=199.123
CHARGE=1
MSLEVEL=2
SOURCE_INSTRUMENT=ESI-Orbitrap
FILENAME=output_folder/converted_library.mgf
SEQ=*..*
IONMODE=Positive
ORGANISM=WFSR-LIBRARY
NAME="4,4'-Diaminodiphenylmethane; 4,4'-Methylenedianiline_CE15" M+H
PI=Federico Padilla-Gonzalez
DATACOLLECTOR="Sjors Rasker, Wout Bergkamp"
SMILES=NC1=CC=C(CC2=CC=C(N)C=C2)C=C1
INCHI="InChI=1S/C13H14N2/c14-12-5-1-10(2-6-12)9-11-3-7-13(15)8-4-11/h1-8H,9,14-15H2"
INCHIAUX=N/A
PUBMED=N/A
SUBMITUSER=jzemlin
LIBRARYQUALITY=1
SPECTRUMID=CCMSLIB00013940467
USI=mzspec:GNPS:WFSR-LIBRARY:accession:CCMSLIB00013940467
SCANS=6686
106.064903	90318.609375
182.096405	76037.546875
184.095001	34273.699219
199.123001	2356886.0
200.126099	21758.560547
END IONS

BEGIN IONS
PEPMASS=350.139
CHARGE=1
MSLEVEL=2
SOURCE_INSTRUMENT=LC-ESI-ToF
FILENAME=reframe_merged.mgf
SEQ=*..*
IONMODE=Positive
ORGANISM=GNPS-REFRAME-DRUG-CCS-LIBRARY
NAME=Cinmetacin [CCS=193.809] [M+H]+
PI=Pieter Dorrestein
DATACOLLECTOR=victoriadeleray
SMILES=COc1cc2c(cc1)n(C(=O)C=Cc1ccccc1)c(C)c2CC(=O)O
INCHI=NA
INCHIAUX=NA
PUBMED=NA
SUBMITUSER=jzemlin
LIBRARYQUALITY=1
SPECTRUMID=CCMSLIB00016264375
USI=mzspec:GNPS:GNPS-REFRAME-DRUG-CCS-LIBRARY:accession:CCMSLIB00016264375
SCANS=433
34.938232	99.0
43.018921	183.0
75.02301	82.0
77.022308	122.0
77.038933	3011.0
77.787827	46.0
85.06353	104.0
96.23909	112.0
102.0466	129.0
102.90834	96.0
103.05442	24876.816406
103.063606	263.0
103.338974	43.0
103.524261	20.0
103.621765	54.0
103.730515	36.0
103.991417	32.0
104.044273	48.0
104.164459	41.0
104.328026	39.0
104.429123	25.0
104.50457	57.0
104.930481	11.0
105.565323	15.0
131.049133	12355.107422
131.059479	88.0
131.072098	532.364868
131.909531	48.0
131.978073	50.0
132.066513	13.0
132.648331	11.0
132.85463	11.0
143.072952	90.0
145.538849	36.0
146.060379	117.0
147.88063	65.0
159.067535	1035.0
171.994598	58.0
173.079742	114.0
174.090622	4529.131348
175.081497	46.0
175.27066	24.0
175.824203	63.0
177.690948	11.0
188.856674	11.0
220.096313	658.0
221.094742	75.0
247.403824	22.0
290.119812	43.0
557.99115	11.0
570.136475	11.0
653.761536	11.0
688.522705	20.0
1022.554565	11.0
1248.320068	11.0
END IONS

BEGIN IONS
PEPMASS=356.137
CHARGE=1
MSLEVEL=2
SOURCE_INSTRUMENT=LC-ESI-ToF
FILENAME=reframe_merged.mgf
SEQ=*..*
IONMODE=Positive
ORGANISM=GNPS-REFRAME-DRUG-CCS-LIBRARY
NAME=Plafibride [CCS=196.3] [M+H]+
PI=Pieter Dorrestein
DATACOLLECTOR=victoriadeleray
SMILES=CC(C)(Oc1ccc(Cl)cc1)C(=O)NC(=O)NCN1CCOCC1
INCHI=NA
INCHIAUX=NA
PUBMED=NA
SUBMITUSER=jzemlin
LIBRARYQUALITY=1
SPECTRUMID=CCMSLIB00016265230
USI=mzspec:GNPS:GNPS-REFRAME-DRUG-CCS-LIBRARY:accession:CCMSLIB00016265230
SCANS=1294
56.046608	2945.700928
56.051579	49.258175
69.031273	64.684174
70.063126	3574.393066
71.074348	49.356781
72.078773	1332.517212
85.050209	97.313446
88.07444	374.478668
100.075233	60242.90625
100.087555	624.486816
100.161217	20.34231
100.966011	32.27346
101.144485	19.843559
101.499748	22.214085
129.009399	167.294418
141.009003	137.746918
169.040756	358.753967
END IONS

BEGIN IONS
PEPMASS=424.141
CHARGE=1
MSLEVEL=2
SOURCE_INSTRUMENT=LC-ESI-ToF
FILENAME=reframe_merged.mgf
SEQ=*..*
IONMODE=Positive
ORGANISM=GNPS-REFRAME-DRUG-CCS-LIBRARY
NAME=FOMINOBEN [CCS=203.128] [M+Na]+
PI=Pieter Dorrestein
DATACOLLECTOR=victoriadeleray
SMILES=CN(CC(=O)N1CCOCC1)Cc1c(NC(=O)c2ccccc2)cccc1Cl
INCHI=NA
INCHIAUX=NA
PUBMED=NA
SUBMITUSER=jzemlin
LIBRARYQUALITY=1
SPECTRUMID=CCMSLIB00016266500
USI=mzspec:GNPS:GNPS-REFRAME-DRUG-CCS-LIBRARY:accession:CCMSLIB00016266500
SCANS=2576
181.095062	1871.128174
424.142426	411.54425
END IONS

BEGIN IONS
PEPMASS=297.143
CHARGE=1
MSLEVEL=2
SOURCE_INSTRUMENT=LC-ESI-ToF
FILENAME=reframe_merged.mgf
SEQ=*..*
IONMODE=Positive
ORGANISM=GNPS-REFRAME-DRUG-CCS-LIBRARY
NAME=METHDILAZINE [CCS=173.97] [M+H]+
PI=Pieter Dorrestein
DATACOLLECTOR=victoriadeleray
SMILES=CN1CCC(CN2c3ccccc3Sc3ccccc32)C1
INCHI=NA
INCHIAUX=NA
PUBMED=NA
SUBMITUSER=jzemlin
LIBRARYQUALITY=1
SPECTRUMID=CCMSLIB00016266886
USI=mzspec:GNPS:GNPS-REFRAME-DRUG-CCS-LIBRARY:accession:CCMSLIB00016266886
SCANS=2963
34.45998	57.61121
39.012775	53.335602
42.023655	571.419861
44.03968	1296.422485
44.042652	85.089592
53.030064	131.892258
55.047039	2007.55835
55.053677	164.527725
56.04237	776.953857
56.046963	55.576767
67.049454	74.695877
70.060204	3200.983887
70.069023	77.961052
71.068199	1203.797729
71.082153	48.514942
77.034744	85.059288
81.054352	48.749821
82.061287	117.813103
83.069435	405.411743
83.075195	68.091156
84.077469	1924.711182
91.052032	98.659866
96.079048	440.561249
98.094276	9759.146484
98.104469	45.7131
99.092705	93.130188
103.054337	40.433601
105.06694	87.525665
109.008553	372.44165
115.053078	65.838158
136.020844	226.140259
151.054413	171.525665
166.066177	62.298309
167.071609	606.618286
178.065125	350.629333
179.072601	940.167053
180.080399	5572.883301
180.0914	194.676208
180.098709	93.585747
185.041595	27.748556
198.037369	82.796608
199.045746	1677.540161
200.041031	148.282394
204.076279	112.917587
204.081619	312.00946
211.045685	52.022987
212.052887	6906.742676
212.065628	63.852844
212.07135	26.813393
212.121704	25.710611
212.921494	19.314728
213.049591	64.477219
213.49498	16.453068
214.069458	274.217651
218.095413	413.01651
223.04454	1433.813721
223.052414	125.258545
224.064133	51.137505
232.11113	279.860901
234.125992	301.920166
236.053192	3234.287109
236.071304	24.120323
237.060226	6365.126465
237.075439	51.777557
237.083527	10.613356
237.090744	50.137733
238.067566	131.790054
239.057678	119.358139
249.057266	74.772301
251.073944	366.35141
264.087799	86.298271
266.100189	4403.865723
266.121979	53.815224
297.141205	887.782654
297.150238	134.555939
END IONS

BEGIN IONS
PEPMASS=314.176
CHARGE=1
MSLEVEL=2
SOURCE_INSTRUMENT=LC-ESI-ToF
FILENAME=reframe_merged.mgf
SEQ=*..*
IONMODE=Positive
ORGANISM=GNPS-REFRAME-DRUG-CCS-LIBRARY
NAME=OXYFEDRINE [CCS=185.702] [M+H]+
PI=Pieter Dorrestein
DATACOLLECTOR=victoriadeleray
SMILES=COc1cccc(C(=O)CCNC(C)C(O)c2ccccc2)c1
INCHI=NA
INCHIAUX=NA
PUBMED=NA
SUBMITUSER=jzemlin
LIBRARYQUALITY=1
SPECTRUMID=CCMSLIB00016267339
USI=mzspec:GNPS:GNPS-REFRAME-DRUG-CCS-LIBRARY:accession:CCMSLIB00016267339
SCANS=3421
42.036198	148.432556
43.018494	1075.015381
51.022507	102.104744
55.01757	109.950127
55.041767	93.94062
56.05027	56.873203
57.033962	332.549438
64.03231	82.345131
65.0392	114.770515
68.050774	130.774475
77.038506	4543.911621
77.045471	197.414444
79.054359	9002.744141
79.063972	39.815575
79.976402	22.205681
80.064636	90.733307
91.054321	3631.431396
91.061859	43.995441
91.068687	63.032951
92.025375	483.682037
93.069542	235.486633
95.049889	295.007446
103.054131	5705.676758
103.066345	90.244041
103.892761	20.407454
104.049004	253.872955
105.022003	30.422585
105.034988	49.783073
105.061447	53.819443
105.069824	44248.070312
105.077675	41.322048
105.082405	278.159393
105.352219	21.893173
105.367538	12.726151
105.37471	43.221855
105.638573	16.680742
105.785088	20.344063
105.809738	14.770161
105.824249	24.060514
105.843658	34.556255
105.862862	29.494926
105.874359	22.639246
106.028748	19.922064
106.062737	56.716389
106.270668	27.544212
106.304665	27.110647
106.508812	13.406652
107.049187	1280.981812
115.054337	4223.275879
116.049675	28.413132
116.064934	89.704987
117.057381	435.231415
117.069939	8364.086914
117.081268	152.397949
118.039436	135.492706
118.063225	417.45105
125.058731	306.51059
127.054916	238.398712
128.062119	1280.690063
129.070023	4054.310303
130.064453	934.477661
131.072876	3106.229248
131.08699	28.408611
133.066422	196.416718
134.096481	2217.123291
135.044174	1655.661011
135.054123	166.917755
135.080582	260.003815
144.080734	1901.401978
145.064819	192.269562
146.096832	15761.932617
146.108521	145.085495
151.076324	275.101013
163.075623	222.45108
164.106934	1089.939087
296.163086	154.840195
END IONS

BEGIN IONS
PEPMASS=289.228
CHARGE=1
MSLEVEL=2
SOURCE_INSTRUMENT=LC-ESI-ToF
FILENAME=reframe_merged.mgf
SEQ=*..*
IONMODE=Positive
ORGANISM=GNPS-REFRAME-DRUG-CCS-LIBRARY
NAME=Bumecaine [CCS=177.86] [M+H]+
PI=Pieter Dorrestein
DATACOLLECTOR=victoriadeleray
SMILES=CCCCN1CCCC1C(=O)Nc1c(C)cc(C)cc1C
INCHI=NA
INCHIAUX=NA
PUBMED=NA
SUBMITUSER=jzemlin
LIBRARYQUALITY=1
SPECTRUMID=CCMSLIB00016267696
USI=mzspec:GNPS:GNPS-REFRAME-DRUG-CCS-LIBRARY:accession:CCMSLIB00016267696
SCANS=3783
37.008751	76.459053
38.015087	58.773743
39.023327	289.317688
41.038723	964.733582
42.033386	40.334984
43.054493	269.37912
43.058212	51.093044
53.038155	44.594891
55.054039	109.815681
57.069881	3260.172119
57.075924	72.383148
57.082241	36.285419
67.053459	33.605167
68.049156	370.243042
68.059273	30.863865
70.030746	24.506342
70.045914	57.13924
70.064896	23648.822266
70.074745	204.898376
70.452446	23.467737
70.562523	14.03739
70.657066	11.107004
70.689583	23.732725
70.864967	14.39418
71.060852	44.700539
71.420738	11.738966
84.071228	31.834597
84.080719	10387.981445
84.08551	73.824783
84.092239	64.398605
84.665558	12.901084
84.8825	12.567779
98.097481	48.095871
119.085983	151.896362
121.086563	56.016098
124.113739	94.749878
125.973671	37.424583
125.987846	15.312097
126.093498	18.204573
126.108017	32.460045
126.117813	99.644852
126.127731	46040.386719
126.136101	44.695553
126.140533	365.30246
126.148994	15.059937
126.621857	13.018559
126.704666	10.263834
126.779068	14.80655
126.832108	21.211363
126.914757	28.597948
126.935623	12.12875
127.029907	12.941894
127.123344	35.476822
127.19883	25.818783
127.281624	29.903906
127.421486	19.377861
127.651527	14.348722
127.828018	24.601635
128.311768	16.969852
131.072052	39.683456
137.097015	22.075609
164.1064	162.64296
165.10997	32.766514
289.22702	210.256943
967.156189	29.994448
END IONS

BEGIN IONS
PEPMASS=344.099
CHARGE=1
MSLEVEL=2
SOURCE_INSTRUMENT=LC-ESI-ToF
FILENAME=reframe_merged.mgf
SEQ=*..*
IONMODE=Positive
ORGANISM=GNPS-REFRAME-DRUG-CCS-LIBRARY
NAME=Clothiapine [CCS=184.503] [M+H]+
PI=Pieter Dorrestein
DATACOLLECTOR=victoriadeleray
SMILES=CN1CCN(C2=Nc3ccccc3Sc3c2cc(Cl)cc3)CC1
INCHI=NA
INCHIAUX=NA
PUBMED=NA
SUBMITUSER=jzemlin
LIBRARYQUALITY=1
SPECTRUMID=CCMSLIB00016267802
USI=mzspec:GNPS:GNPS-REFRAME-DRUG-CCS-LIBRARY:accession:CCMSLIB00016267802
SCANS=3892
32.8564	39.188156
39.042725	24.068825
42.034	684.751343
56.049206	97.206985
58.065701	1053.934814
58.781635	12.763311
69.058014	63.764881
82.065376	92.447739
84.080597	2270.418701
85.076096	146.648651
97.077896	76.516472
99.092567	105.387344
104.050079	71.905228
109.010345	41.030102
118.066055	77.663734
164.04924	83.373924
184.020935	94.433014
208.021484	89.528618
209.029251	2027.335571
211.023697	72.796486
212.026489	130.573532
218.086243	50.901653
219.090363	33.83313
226.034775	59.440849
230.039246	58.076138
241.054367	65.511292
241.21228	20.580996
243.997925	4290.254395
244.013428	34.274529
245.106445	25.770428
245.534988	14.020458
246.010361	137.776917
246.021118	46.544312
250.056061	80.492622
251.063202	104.682053
252.073685	151.338791
255.068359	7458.67041
257.571747	36.327614
260.02948	91.691292
261.019653	102.611221
277.083984	74.517128
281.083038	1121.560059
287.026215	187.13382
287.04071	16396.548828
287.057953	56.963104
288.544464	25.028921
289.066101	35.527184
313.056	3817.552734
313.081696	60.774639
314.053558	189.908783
315.051727	392.430359
343.08493	40.931416
344.097717	1969.434204
546.581787	30.205561
END IONS

BEGIN IONS
PEPMASS=341.249
CHARGE=1
MSLEVEL=2
SOURCE_INSTRUMENT=LC-ESI-ToF
FILENAME=reframe_merged.mgf
SEQ=*..*
IONMODE=Positive
ORGANISM=GNPS-REFRAME-DRUG-CCS-LIBRARY
NAME=MEDROGESTONE [CCS=191.953] [M+H]+
PI=Pieter Dorrestein
DATACOLLECTOR=victoriadeleray
SMILES=CC(=O)C1(C)CCC2C3C=C(C)C4=CC(=O)CCC4(C)C3CCC21C
INCHI=NA
INCHIAUX=NA
PUBMED=NA
SUBMITUSER=jzemlin
LIBRARYQUALITY=1
SPECTRUMID=CCMSLIB00016268238
USI=mzspec:GNPS:GNPS-REFRAME-DRUG-CCS-LIBRARY:accession:CCMSLIB00016268238
SCANS=4332
39.026348	122.238533
41.041225	188.13591
43.020309	4304.786133
43.05698	166.127365
53.040466	144.072891
55.019924	398.738251
55.056217	657.757446
57.071457	733.139954
59.050274	250.466553
67.055428	2027.871826
69.033768	129.962234
69.070694	502.980865
77.039246	761.880432
79.055168	1808.464844
81.070831	2193.664551
81.080666	61.341068
83.04985	1524.73645
83.086441	148.784561
85.065147	976.934387
91.054794	2507.900146
93.070335	2138.799805
93.076424	103.099518
95.056252	61.452145
95.086212	1888.088867
97.065262	3846.693848
99.081123	410.800537
103.057152	127.827003
105.070236	3875.595703
105.083618	42.609638
107.049026	648.680664
107.085876	2993.437744
107.093338	125.368523
107.099525	64.091843
109.065033	319.018036
109.101318	8403.083008
109.11953	65.436531
109.12854	42.069653
111.080376	202.578369
115.05513	89.027367
116.062828	297.83078
119.085777	2728.830322
121.064819	898.671204
121.101402	2625.462646
121.229515	34.997066
123.08091	641.870605
123.116859	1469.259766
125.096512	156.475143
127.053978	60.707653
129.069778	201.518524
131.08577	1078.053345
133.063828	360.717712
133.101685	1800.445312
134.073303	63.536331
135.079926	193.44162
135.116806	830.706482
137.094711	495.195526
137.100723	92.649406
137.132812	78.791191
139.110779	86.808083
141.069351	212.80954
143.0849	524.890625
145.063263	132.372192
145.101761	1383.928955
145.11969	61.410202
147.080963	933.603516
147.116882	1862.929565
149.09639	1777.272949
149.132248	665.825562
150.093063	94.763573
151.111893	856.994446
153.127319	131.338745
155.083099	117.67012
156.093048	431.889526
158.07196	105.738876
159.077499	208.859848
159.116638	1111.883423
161.096497	1419.323853
161.130447	276.421387
163.111237	1071.169067
163.146469	307.409393
165.126602	387.566071
168.09285	61.560101
169.075089	53.140602
169.100662	364.352051
171.115997	652.040344
172.089752	109.548897
173.132217	1162.662231
174.10257	109.416557
175.111496	2317.603516
175.14888	176.168945
177.126984	1874.790161
182.110504	67.894653
183.115433	218.88327
185.097488	138.421906
185.131577	525.418396
187.112091	2013.297485
187.147888	119.023865
188.121094	85.43042
189.12735	2962.480957
189.160492	75.299553
191.107101	69.22438
191.143173	644.038635
193.122833	67.760185
197.130981	89.168503
198.105072	83.036179
199.148132	425.611847
201.12796	217.933395
201.162933	128.393402
203.143295	319.545166
205.157578	188.595505
212.150406	93.427353
213.128586	208.072205
213.165985	145.743942
215.142197	384.335876
215.17868	197.839935
219.176926	85.263817
223.151047	67.053909
225.127243	78.970551
225.164719	197.49826
227.144287	273.496277
229.158401	72.695206
231.175247	202.671249
239.179596	313.450592
241.158691	79.900879
241.194351	262.965393
243.172699	445.829559
245.188995	108.823235
251.179993	56.605427
253.159348	232.154129
253.192429	96.601967
257.188629	359.989655
265.194366	129.163437
267.174377	67.295372
267.21344	66.400063
279.211639	54.552017
281.226562	284.942108
282.195068	99.984917
283.195587	45.712124
283.204773	662.051514
294.195923	34.616547
297.221924	172.658707
299.197998	82.686462
299.228546	174.826279
299.237823	640.24469
313.217957	93.276855
323.238983	692.660583
324.233551	79.00412
341.233459	70.554962
341.24826	3805.912598
341.268951	75.341949
END IONS

BEGIN IONS
PEPMASS=496.197
CHARGE=1
MSLEVEL=2
SOURCE_INSTRUMENT=LC-ESI-ToF
FILENAME=reframe_merged.mgf
SEQ=*..*
IONMODE=Positive
ORGANISM=GNPS-REFRAME-DRUG-CCS-LIBRARY
NAME=Clopimozide [CCS=221.465] [M+H]+
PI=Pieter Dorrestein
DATACOLLECTOR=victoriadeleray
SMILES=O=c1[nH]c2c(ccc(Cl)c2)n1C1CCN(CCCC(c2ccc(F)cc2)c2ccc(F)cc2)CC1
INCHI=NA
INCHIAUX=NA
PUBMED=NA
SUBMITUSER=jzemlin
LIBRARYQUALITY=1
SPECTRUMID=CCMSLIB00016268381
USI=mzspec:GNPS:GNPS-REFRAME-DRUG-CCS-LIBRARY:accession:CCMSLIB00016268381
SCANS=4477
39.023216	137.601608
42.033939	651.822998
42.036983	223.666824
55.053909	4144.59668
56.049175	8354.643555
57.069572	164.499756
67.053894	917.942383
82.064156	1306.656738
84.080353	20629.644531
84.091507	298.115143
109.044235	1988.790649
123.060875	108.921837
135.058563	98.523445
149.075623	2415.897217
169.015579	186.539078
181.015579	723.565002
207.028931	141.155853
317.084778	562.015442
317.098602	102.812408
413.121948	353.688293
479.16922	2212.799316
495.888458	25.171957
496.196075	12582.578125
498.075592	93.562294
498.09259	39.453342
499.760712	29.367125
500.654663	17.078163
END IONS

BEGIN IONS
PEPMASS=386.219
CHARGE=1
MSLEVEL=2
SOURCE_INSTRUMENT=LC-ESI-ToF
FILENAME=reframe_merged.mgf
SEQ=*..*
IONMODE=Positive
ORGANISM=GNPS-REFRAME-DRUG-CCS-LIBRARY
NAME=BAMIFYLLINE [CCS=193.66] [M+H]+
PI=Pieter Dorrestein
DATACOLLECTOR=victoriadeleray
SMILES=CCN(CCO)CCn1c(Cc2ccccc2)nc2c1c(=O)n(C)c(=O)n2C
INCHI=NA
INCHIAUX=NA
PUBMED=NA
SUBMITUSER=jzemlin
LIBRARYQUALITY=1
SPECTRUMID=CCMSLIB00016269168
USI=mzspec:GNPS:GNPS-REFRAME-DRUG-CCS-LIBRARY:accession:CCMSLIB00016269168
SCANS=5275
42.034203	508.97171
42.039387	58.411957
44.049946	792.573425
45.033829	842.617432
51.023781	151.639114
54.033844	863.20343
56.049889	328.687988
57.045433	64.975082
57.057655	63.196987
58.065102	875.6828
66.033638	120.020126
67.02887	215.825348
67.04184	333.180969
68.049553	1054.638794
69.044769	1066.223755
70.065613	971.013916
72.080765	2860.129883
74.060112	165.843414
77.038887	855.889343
79.054184	3378.863037
81.044846	141.339996
82.028488	227.918198
84.081917	129.014343
88.075233	979.464783
90.091339	283.446411
91.054131	7861.882812
91.062935	227.233765
93.044006	114.444046
94.028305	85.100479
94.052177	160.776749
95.050285	122.480316
95.06076	4596.623047
96.044388	372.401306
96.079704	118.123604
98.096069	592.358459
102.091316	6056.226074
102.100166	41.430233
103.054283	2733.009277
103.06176	191.673981
105.009842	89.145821
105.02034	93.319855
105.043564	132.571945
105.069778	67474.664062
105.0821	760.314331
105.367653	52.041782
105.720741	60.864857
105.856041	44.250053
107.023682	177.650314
107.060341	247.568176
108.031029	119.441101
108.055946	564.725769
108.063011	91.159698
109.040779	70.334633
109.075859	131.816437
110.070984	182.29541
114.091667	92.551254
115.054703	643.126526
116.050201	243.874512
116.107162	10317.670898
117.07029	922.549805
118.064667	141.647995
120.055893	203.259354
121.039223	42.074207
121.065208	151.986191
122.068924	202.240677
123.055389	3340.148193
128.051315	68.680992
129.069748	479.846252
130.065857	156.91153
134.071274	1009.719543
136.050964	540.577393
136.086014	199.56694
140.057144	119.661636
142.062988	254.831894
143.062042	150.017365
144.080994	922.725281
146.099106	112.469093
149.072754	53.349941
149.081879	143.903442
157.07753	77.819046
162.066498	462.617767
168.080597	118.415314
169.076462	131.779449
171.0905	485.705231
180.075653	319.227478
181.080246	155.337143
183.080353	49.055977
183.09166	71.170303
184.086487	113.639038
193.071991	6761.274902
194.067291	279.155182
195.092453	196.359863
197.095627	78.17662
212.084015	89.018417
212.117416	494.971008
214.096741	169.538528
219.088852	338.177338
222.103241	102.300369
238.14119	236.410019
240.112991	1457.263184
253.145538	253.178955
269.103302	268.775848
296.98349	41.359035
297.001617	59.839714
297.094147	49.426018
297.109894	100.554306
297.135345	88345.648438
297.155609	1515.428833
297.385132	56.306423
298.036469	41.698883
298.123779	143.388214
299.134064	71.687088
300.15918	60.077427
329.194183	126.378487
342.193146	165.336624
368.208923	995.633118
386.147583	57.459633
386.192352	158.375275
386.218506	14475.555664
386.236145	153.565506
END IONS

BEGIN IONS
PEPMASS=301.074
CHARGE=1
MSLEVEL=2
SOURCE_INSTRUMENT=LC-ESI-ToF
FILENAME=reframe_merged.mgf
SEQ=*..*
IONMODE=Positive
ORGANISM=GNPS-REFRAME-DRUG-CCS-LIBRARY
NAME=Clobazam [CCS=171.155] [M+H]+
PI=Pieter Dorrestein
DATACOLLECTOR=victoriadeleray
SMILES=CN1C(=O)CC(=O)N(c2ccccc2)c2c1ccc(Cl)c2
INCHI=NA
INCHIAUX=NA
PUBMED=NA
SUBMITUSER=jzemlin
LIBRARYQUALITY=1
SPECTRUMID=CCMSLIB00016269463
USI=mzspec:GNPS:GNPS-REFRAME-DRUG-CCS-LIBRARY:accession:CCMSLIB00016269463
SCANS=5580
68.99826	132.158112
77.038437	844.635132
91.054153	91.812065
93.058334	74.962044
104.049255	72.597176
105.033257	1463.812744
105.044662	163.734436
117.043648	105.948242
140.027802	52.810703
153.021301	947.335449
167.073303	78.985588
181.015717	166.183685
181.021545	34.598804
182.084732	149.905365
195.08551	92.877594
209.070129	14.666829
214.036484	31.985823
218.062424	111.058289
223.091095	98.517082
224.095718	1110.729126
233.083664	143.646408
244.043732	65.668266
259.012451	32.77047
259.063141	10363.185547
259.077362	63.279266
259.088013	18.148029
260.204895	17.781843
301.073212	110.127983
END IONS

BEGIN IONS
PEPMASS=312.051
CHARGE=1
MSLEVEL=2
SOURCE_INSTRUMENT=LC-ESI-ToF
FILENAME=reframe_merged.mgf
SEQ=*..*
IONMODE=Positive
ORGANISM=GNPS-REFRAME-DRUG-CCS-LIBRARY
NAME=Diflumidone [CCS=172.522] [M+H]+
PI=Pieter Dorrestein
DATACOLLECTOR=victoriadeleray
SMILES=O=C(c1ccccc1)c1cc(NS(=O)(=O)C(F)F)ccc1
INCHI=NA
INCHIAUX=NA
PUBMED=NA
SUBMITUSER=jzemlin
LIBRARYQUALITY=1
SPECTRUMID=CCMSLIB00016269634
USI=mzspec:GNPS:GNPS-REFRAME-DRUG-CCS-LIBRARY:accession:CCMSLIB00016269634
SCANS=5752
51.023243	75.213326
58.963902	59.211269
61.010204	66.40081
74.930725	424.16748
76.927475	915.154907
77.038254	441.056763
80.948624	33.965721
91.041214	276.492004
92.024254	43.459904
105.033424	605.735962
119.036621	374.918732
136.97226	46.878044
138.986603	37.330181
139.916519	46.839584
140.967819	34.416412
152.061874	68.025894
152.944916	190.934479
154.941376	731.234009
178.065308	119.147308
180.057495	95.449287
180.08168	61.097328
196.074722	208.675125
232.955841	36.260082
234.004379	437.057495
END IONS

BEGIN IONS
PEPMASS=294.186
CHARGE=1
MSLEVEL=2
SOURCE_INSTRUMENT=LC-ESI-ToF
FILENAME=reframe_merged.mgf
SEQ=*..*
IONMODE=Positive
ORGANISM=GNPS-REFRAME-DRUG-CCS-LIBRARY
NAME=Quifenadine [CCS=177.392] [M+H]+
PI=Pieter Dorrestein
DATACOLLECTOR=victoriadeleray
SMILES=OC(c1ccccc1)(c1ccccc1)C1CN2CCC1CC2
INCHI=NA
INCHIAUX=NA
PUBMED=NA
SUBMITUSER=jzemlin
LIBRARYQUALITY=1
SPECTRUMID=CCMSLIB00016269802
USI=mzspec:GNPS:GNPS-REFRAME-DRUG-CCS-LIBRARY:accession:CCMSLIB00016269802
SCANS=5931
39.02282	104.950485
39.028667	33.205585
41.039227	56.554207
42.034184	493.206726
42.041737	14.213972
44.020065	84.423378
44.049835	606.185974
51.02306	53.083126
53.038086	21.585739
54.035225	49.755821
54.047203	163.553696
55.054356	1075.312866
56.049652	4922.0
57.070145	86.244217
65.039429	118.888275
66.042847	50.599258
67.041893	371.233032
67.054146	395.877319
68.049606	7759.447754
68.062164	242.71904
68.155479	22.100304
69.057404	7976.684082
69.065948	70.762047
70.065163	1625.349243
70.072701	25.968489
77.038498	2187.066162
77.047363	35.496048
79.053024	18.180803
80.049286	524.485535
80.059319	63.767754
82.053391	41.655685
82.065002	18075.945312
82.077248	267.097809
82.124107	10.106211
82.588104	25.341368
82.700989	26.815075
83.061119	87.390213
83.072899	5239.873535
83.896484	13.035859
84.080574	1731.225098
91.053833	633.429626
93.06942	20.548265
96.080566	2102.532471
96.092621	39.109116
96.979195	17.449104
105.024818	18.215265
105.033531	6316.453125
105.046165	182.031509
105.069817	66.519958
106.06163	30.938723
110.096855	993.781067
111.104156	4066.279785
111.111221	25.972889
112.11216	800.352051
115.053596	58.40337
129.067062	53.220154
152.060974	110.565102
155.085373	48.359737
158.095703	87.074173
165.069626	171.151825
167.085266	1924.284424
168.092316	40.431953
172.11084	45.49712
181.098373	157.62471
183.080383	1563.421509
184.076599	38.40517
193.102661	37.070457
205.10408	45.085083
264.173309	667.667053
276.17569	242.005951
294.105591	12.197453
294.170319	69.207336
294.184784	29493.599609
294.206573	163.727432
294.396393	37.660217
295.177673	192.83371
295.201965	23.402437
295.534058	21.566269
295.931885	17.399323
END IONS

BEGIN IONS
PEPMASS=515.243
CHARGE=1
MSLEVEL=2
SOURCE_INSTRUMENT=LC-ESI-ToF
FILENAME=merged_updated.mgf
SEQ=*..*
IONMODE=Positive
ORGANISM=GNPS-ION-MOBILITY-LIBRARY
NAME=BEZITRAMIDE [CCS=224.71685791015625] [M+Na]+
PI=Pieter Dorrestein
DATACOLLECTOR=victoriadeleray
SMILES=CCC(=O)n1c(=O)n(C2CCN(CCC(C#N)(c3ccccc3)c3ccccc3)CC2)c2ccccc21
INCHI=NA
INCHIAUX=NA
PUBMED=NA
SUBMITUSER=jzemlin
LIBRARYQUALITY=1
SPECTRUMID=CCMSLIB00016224914
USI=mzspec:GNPS:GNPS-ION-MOBILITY-LIBRARY:accession:CCMSLIB00016224914
SCANS=13431
295.129486	1308.692627
515.241028	14682.761719
515.35437	39.631706
END IONS

BEGIN IONS
PEPMASS=240.981
CHARGE=1
MSLEVEL=2
SOURCE_INSTRUMENT=LC-ESI-Orbitrap
FILENAME=reframe_drugs_pos_P2_F4_id.mzML
SEQ=*..*
IONMODE=Positive
ORGANISM=REFRAME-POSITIVE-LIBRARY
NAME=Anethole trithione [M+H]+
PI=Pieter Dorrestein
DATACOLLECTOR=Nina Zhao
SMILES=COc1ccc(-c2cc(=S)ss2)cc1
INCHI="InChI=1S/C10H8OS3/c1-11-8-4-2-7(3-5-8)9-6-10(12)14-13-9/h2-6H,1H3"
INCHIAUX=
PUBMED=N/A
SUBMITUSER=jzemlin
LIBRARYQUALITY=1
SPECTRUMID=CCMSLIB00016143020
USI=mzspec:GNPS:REFRAME-POSITIVE-LIBRARY:accession:CCMSLIB00016143020
SCANS=2241
57.556316	1281.938232
58.065407	2561.877686
59.673447	1068.078613
74.192108	996.14856
89.392349	1329.618042
90.976753	1623.373047
108.923477	2224.862793
121.064713	15337.051758
132.056549	3823.609131
133.064575	1715.76001
134.018921	1941.709839
150.013504	9561.97168
150.223389	1529.845215
151.020844	8492.636719
163.021164	1993.296387
164.028687	2110.022949
165.037155	2882.885498
175.021057	3678.034424
175.947205	1288.241577
177.036789	3071.525879
197.962601	29032.580078
200.202591	1344.783569
206.993469	3604.602051
208.0009	7982.336914
209.007355	1809.744629
223.886368	1254.314453
225.957291	19239.712891
240.980988	246290.28125
241.235794	2821.772949
END IONS

BEGIN IONS
PEPMASS=986.532
CHARGE=1
MSLEVEL=2
SOURCE_INSTRUMENT=LC-ESI-Orbitrap
FILENAME=reframe_drugs_pos_P3_C10_id.mzML
SEQ=*..*
IONMODE=Positive
ORGANISM=REFRAME-POSITIVE-LIBRARY
NAME=Lanatoside A [M+NH4]+
PI=Pieter Dorrestein
DATACOLLECTOR=Nina Zhao
SMILES=CC(=O)OC1CC(OC2C(O)CC(OC3C(O)CC(OC4CCC5(C)C(CCC6C5CCC5(C)C(C7=CC(=O)OC7)CCC65O)C4)OC3C)OC2C)OC(C)C1OC1OC(CO)C(O)C(O)C1O
INCHI="InChI=1S/C49H76O19/c1-22-43(66-38-18-33(53)44(23(2)61-38)67-39-19-34(63-25(4)51)45(24(3)62-39)68-46-42(57)41(56)40(55)35(20-50)65-46)32(52)17-37(60-22)64-28-9-12-47(5)27(16-28)7-8-31-30(47)10-13-48(6)29(11-14-49(31,48)58)26-15-36(54)59-21-26/h15,22-24,27-35,37-46,50,52-53,55-58H,7-14,16-21H2,1-6H3"
INCHIAUX=
PUBMED=N/A
SUBMITUSER=jzemlin
LIBRARYQUALITY=1
SPECTRUMID=CCMSLIB00016145182
USI=mzspec:GNPS:REFRAME-POSITIVE-LIBRARY:accession:CCMSLIB00016145182
SCANS=1834
50.562748	3026.054443
55.018353	13913.353516
55.054691	4392.317383
57.034027	25735.837891
57.070332	8066.159668
59.049576	4021.795898
61.028816	46307.25
65.038811	4302.579102
67.05455	92792.53125
69.033806	506685.75
69.070221	50400.355469
71.049423	36800.714844
73.028671	6197.831543
79.054405	101295.859375
79.058884	6635.208984
81.033752	10458.818359
81.070091	4647.433594
83.049316	15532.0
85.02845	76615.664062
85.064911	24327.392578
89.059639	3942.22168
93.069885	10161.193359
95.049103	441772.96875
97.028702	22047.101562
97.064781	1106143.375
102.644684	3665.383789
105.054756	18048.519531
105.069443	4657.42334
107.085449	7724.460938
109.028458	5060.199707
109.065201	4269.480469
111.043823	17065.09375
113.059639	649062.0625
115.03833	3558.253418
115.075218	30665.074219
120.669067	3119.920654
121.064613	5469.467773
123.044861	5798.541992
123.080444	7208.422363
125.022568	5171.788086
127.038757	18528.9375
129.054825	19565.951172
131.07019	113655.421875
133.101593	4298.025879
135.0802	4588.831543
135.116608	5992.334473
139.076035	5139.847168
145.049561	32954.480469
145.100601	3487.697754
147.065155	24078.171875
147.080078	4582.644043
151.075089	7533.658691
159.117188	5244.125
163.06073	5813.46582
163.075577	8917.922852
167.070145	6425.935059
173.080994	21704.089844
181.085587	9773.987305
189.076019	21471.033203
189.090332	5297.712402
207.101624	11228.027344
209.08017	8495.036133
225.112183	66514.492188
232.203537	3663.937988
239.091919	17294.484375
257.102325	18447.003906
275.112335	31365.888672
311.240356	3561.176025
321.221985	5456.026367
339.231934	58578.878906
357.241913	40897.019531
375.205872	6268.40332
375.25293	103803.40625
469.293732	7455.728027
483.371857	4075.862793
487.302673	16162.384766
505.313446	14463.561523
516.580139	4002.039551
607.410583	4821.976562
888.378113	3953.191895
1017.969604	4796.37793
END IONS

BEGIN IONS
PEPMASS=207.113
CHARGE=1
MSLEVEL=2
SOURCE_INSTRUMENT=LC-ESI-Orbitrap
FILENAME=reframe_drugs_pos_P2_D6_id.mzML
SEQ=*..*
IONMODE=Positive
ORGANISM=REFRAME-POSITIVE-LIBRARY
NAME=Pheneturide [M+H]+
PI=Pieter Dorrestein
DATACOLLECTOR=Nina Zhao
SMILES=CCC(C(=O)NC(N)=O)c1ccccc1
INCHI="InChI=1S/C11H14N2O2/c1-2-9(10(14)13-11(12)15)8-6-4-3-5-7-8/h3-7,9H,2H2,1H3,(H3,12,13,14,15)"
INCHIAUX=
PUBMED=N/A
SUBMITUSER=jzemlin
LIBRARYQUALITY=1
SPECTRUMID=CCMSLIB00016146570
USI=mzspec:GNPS:REFRAME-POSITIVE-LIBRARY:accession:CCMSLIB00016146570
SCANS=1564
52.577831	897.887329
58.449898	1103.297974
61.040073	37603.835938
63.631535	1003.10199
66.034134	1684.926636
69.033569	1036.731079
83.060562	4586.548828
91.054207	81411.476562
104.358536	1285.295532
109.85598	1243.382324
118.35923	1249.10083
119.085495	73999.65625
124.086914	4461.365723
134.195007	1225.0448
136.413589	1305.401245
146.008118	1137.776855
148.087158	1728.400391
164.106903	21207.677734
165.113327	13060.833008
172.703018	1318.251343
207.050461	2300.651123
207.125565	2861.349365
END IONS

BEGIN IONS
PEPMASS=272.074
CHARGE=1
MSLEVEL=2
SOURCE_INSTRUMENT=LC-ESI-Orbitrap
FILENAME=reframe_drugs_pos_P2_D2_id.mzML
SEQ=*..*
IONMODE=Positive
ORGANISM=REFRAME-POSITIVE-LIBRARY
NAME=metiazinic acid [M+H]+
PI=Pieter Dorrestein
DATACOLLECTOR=Nina Zhao
SMILES=CN1c2ccccc2Sc2c1cc(CC(=O)O)cc2
INCHI="InChI=1S/C15H13NO2S/c1-16-11-4-2-3-5-13(11)19-14-7-6-10(8-12(14)16)9-15(17)18/h2-8H,9H2,1H3,(H,17,18)"
INCHIAUX=
PUBMED=N/A
SUBMITUSER=jzemlin
LIBRARYQUALITY=1
SPECTRUMID=CCMSLIB00016146702
USI=mzspec:GNPS:REFRAME-POSITIVE-LIBRARY:accession:CCMSLIB00016146702
SCANS=2070
56.711025	2325.479248
58.065468	2056.376465
62.500084	3361.51123
63.477673	2001.800659
66.098198	2816.506104
71.279839	1996.040161
73.428772	2578.087891
81.06974	1877.757202
81.15258	1746.454102
83.733353	1619.534668
85.064613	1613.682373
91.973503	1887.223145
104.070847	1801.223389
109.101257	3495.501465
110.639542	1773.988892
111.619919	1825.624512
165.871353	2278.932129
167.072617	17200.158203
168.080597	32061.242188
176.304291	1992.453003
180.080673	27127.820312
191.179398	3012.355469
195.099716	2407.704346
210.036774	18748.443359
211.02948	2284.999756
211.044861	139959.859375
212.052734	278596.375
213.059998	7514.294922
219.174515	3441.451172
224.071075	3324.125488
225.057556	7765.775391
226.065262	25382.4375
227.071228	11756.070312
237.185181	8524.285156
239.039413	5549.278809
255.196747	3510.782715
256.042877	5710.007324
257.050354	1415406.625
272.072693	387362.71875
272.259857	3025.65625
END IONS

BEGIN IONS
PEPMASS=795.453
CHARGE=1
MSLEVEL=2
SOURCE_INSTRUMENT=LC-ESI-Orbitrap
FILENAME=reframe_drugs_pos_P3_A12_id.mzML
SEQ=*..*
IONMODE=Positive
ORGANISM=REFRAME-POSITIVE-LIBRARY
NAME=metildigoxin [M+H]+
PI=Pieter Dorrestein
DATACOLLECTOR=Nina Zhao
SMILES=COC1C(O)CC(OC2C(O)CC(OC3C(O)CC(OC4CCC5(C)C(CCC6C5CC(O)C5(C)C(C7=CC(=O)OC7)CCC65O)C4)OC3C)OC2C)OC1C
INCHI="InChI=1S/C42H66O14/c1-20-37(49-6)29(43)16-35(51-20)55-39-22(3)53-36(18-31(39)45)56-38-21(2)52-34(17-30(38)44)54-25-9-11-40(4)24(14-25)7-8-27-28(40)15-32(46)41(5)26(10-12-42(27,41)48)23-13-33(47)50-19-23/h13,20-22,24-32,34-39,43-46,48H,7-12,14-19H2,1-6H3"
INCHIAUX=
PUBMED=N/A
SUBMITUSER=jzemlin
LIBRARYQUALITY=1
SPECTRUMID=CCMSLIB00016148965
USI=mzspec:GNPS:REFRAME-POSITIVE-LIBRARY:accession:CCMSLIB00016148965
SCANS=1700
55.018414	4837.20752
59.049583	125501.984375
59.613533	2067.900879
65.039185	4811.805664
67.054535	31983.865234
67.05748	2934.736572
69.033669	17565.142578
69.070419	11531.142578
71.049576	4938.061523
77.106667	2638.425781
79.054443	28088.234375
79.057922	2313.586182
80.686333	2127.005615
85.0653	7204.166016
91.054283	3166.019531
95.049179	56488.175781
97.064819	333484.1875
113.059738	22680.128906
123.110573	2573.463379
127.075294	132058.21875
129.207245	2645.074463
131.062256	2701.19458
131.070801	11832.521484
143.070557	4300.903809
158.892349	2974.648926
161.081772	6013.445801
222.428406	3232.894531
284.110809	2858.261475
315.822937	2788.78125
337.218048	7999.438477
355.227448	6467.619141
373.238495	6140.057129
391.255768	3771.468506
END IONS

BEGIN IONS
PEPMASS=252.079
CHARGE=1
MSLEVEL=2
SOURCE_INSTRUMENT=LC-ESI-Orbitrap
FILENAME=reframe_drugs_pos_P3_C3_id.mzML
SEQ=*..*
IONMODE=Positive
ORGANISM=REFRAME-POSITIVE-LIBRARY
NAME=Pirprofen [M+H]+
PI=Pieter Dorrestein
DATACOLLECTOR=Nina Zhao
SMILES=CC(C(=O)O)c1cc(Cl)c(N2CC=CC2)cc1
INCHI="InChI=1S/C13H14ClNO2/c1-9(13(16)17)10-4-5-12(11(14)8-10)15-6-2-3-7-15/h2-5,8-9H,6-7H2,1H3,(H,16,17)"
INCHIAUX=
PUBMED=N/A
SUBMITUSER=jzemlin
LIBRARYQUALITY=1
SPECTRUMID=CCMSLIB00016150461
USI=mzspec:GNPS:REFRAME-POSITIVE-LIBRARY:accession:CCMSLIB00016150461
SCANS=1916
53.731136	2604.370605
54.75943	2381.348633
56.518867	2789.50415
56.927631	2574.546631
57.402973	7411.57373
57.405575	3625.207275
70.283119	3090.406006
89.190224	2951.33667
91.054199	38469.570312
94.8722	2494.943604
102.046127	28233.757812
103.054192	15984.493164
105.033424	6755.625
109.064545	10826.280273
116.061729	4113.650879
117.057594	2985.626221
119.049171	17643.894531
127.030777	33330.992188
134.303864	3144.68335
137.015182	125676.273438
137.586014	2879.539307
142.005371	14585.900391
143.072815	11899.750977
143.084183	3775.201172
144.080765	59638.441406
147.043472	3967.782227
148.051941	12822.179688
151.018188	65031.90625
152.025772	3768.030518
152.198471	3524.344238
153.034225	2931.564209
155.02562	15430.644531
156.081009	10942.151367
164.026001	113292.429688
165.010254	5533.584473
165.034271	23735.763672
170.096115	32723.929688
171.103928	33128.960938
172.111954	28727.822266
177.034805	4557.51709
178.041641	64525.90625
179.049576	149959.109375
190.041092	6284.463867
191.049271	15195.085938
192.043289	3332.758057
192.056732	16376.873047
202.086166	22195.964844
204.020996	4427.245117
206.073044	261249.859375
210.031525	581258.625
216.101608	16655.443359
217.109589	21046.392578
236.369965	2888.053223
252.078568	1735154.875
END IONS

BEGIN IONS
PEPMASS=241.134
CHARGE=1
MSLEVEL=2
SOURCE_INSTRUMENT=LC-ESI-Orbitrap
FILENAME=reframe_drugs_pos_P2_A11_id.mzML
SEQ=*..*
IONMODE=Positive
ORGANISM=REFRAME-POSITIVE-LIBRARY
NAME=Benmoxin [M+H]+
PI=Pieter Dorrestein
DATACOLLECTOR=Nina Zhao
SMILES=CC(NNC(=O)c1ccccc1)c1ccccc1
INCHI="InChI=1S/C15H16N2O/c1-12(13-8-4-2-5-9-13)16-17-15(18)14-10-6-3-7-11-14/h2-12,16H,1H3,(H,17,18)"
INCHIAUX=
PUBMED=N/A
SUBMITUSER=jzemlin
LIBRARYQUALITY=1
SPECTRUMID=CCMSLIB00016151618
USI=mzspec:GNPS:REFRAME-POSITIVE-LIBRARY:accession:CCMSLIB00016151618
SCANS=1696
50.015514	10712.469727
51.023403	16968.337891
53.038979	11288.625977
55.363903	7199.702637
56.028965	7010.405273
58.666332	6126.425293
59.024403	457673.90625
61.118893	6839.535645
64.462692	7594.820312
65.800751	7955.769043
77.034454	15826.235352
77.038391	68353.242188
77.265099	7895.627441
79.054344	459562.40625
81.034019	8336.550781
83.096497	15311.53125
92.049149	46159.425781
94.27977	7482.84668
95.049057	216982.484375
103.054123	268710.1875
103.060997	13705.365234
105.033524	363504.21875
105.069794	10523456.0
115.917343	8101.722168
116.502357	9625.567383
119.060196	111829.523438
137.070801	7136251.5
146.220657	8479.349609
146.235458	9707.666992
150.049561	7556.676758
184.610718	8978.880859
186.274719	14728.672852
END IONS

BEGIN IONS
PEPMASS=343.155
CHARGE=-1
MSLEVEL=2
SOURCE_INSTRUMENT=LC-ESI-Orbitrap
FILENAME=reframe_drugs_neg_P2_A12_id.mzML
SEQ=*..*
IONMODE=Negative
ORGANISM=REFRAME-NEGATIVE-LIBRARY
NAME=Terbufibrol [M-H]-
PI=Pieter Dorrestein
DATACOLLECTOR=Nina Zhao
SMILES=CC(C)(C)c1ccc(OCC(O)COc2ccc(C(=O)O)cc2)cc1
INCHI="InChI=1S/C20H24O5/c1-20(2,3)15-6-10-18(11-7-15)25-13-16(21)12-24-17-8-4-14(5-9-17)19(22)23/h4-11,16,21H,12-13H2,1-3H3,(H,22,23)"
INCHIAUX=
PUBMED=N/A
SUBMITUSER=jzemlin
LIBRARYQUALITY=1
SPECTRUMID=CCMSLIB00016152450
USI=mzspec:GNPS:REFRAME-NEGATIVE-LIBRARY:accession:CCMSLIB00016152450
SCANS=1637
54.836735	1253.690796
56.644745	1294.543335
57.645893	1307.856934
70.747925	1403.823242
70.828209	1198.041016
92.026321	7269.04248
93.034195	138685.671875
95.01371	7919.862793
105.850128	1520.282593
106.986168	1839.605591
107.654724	1628.027588
108.021629	9072.224609
108.604965	1728.188599
133.066162	13540.941406
136.016495	7341.779297
137.008453	1853.827271
137.024353	66129.210938
149.097107	90173.90625
171.574768	1609.775024
178.711945	1750.893433
183.253464	1694.485107
193.050873	2721.610596
224.033371	1733.744995
282.812836	1876.274292
312.002289	1496.881958
343.155243	223539.1875
END IONS

BEGIN IONS
PEPMASS=231.078
CHARGE=-1
MSLEVEL=2
SOURCE_INSTRUMENT=LC-ESI-Orbitrap
FILENAME=reframe_drugs_neg_P2_C2_id.mzML
SEQ=*..*
IONMODE=Negative
ORGANISM=REFRAME-NEGATIVE-LIBRARY
NAME=phenobarbital [M-H]-
PI=Pieter Dorrestein
DATACOLLECTOR=Nina Zhao
SMILES=CCC1(c2ccccc2)C(=O)NC(=O)NC1=O
INCHI="InChI=1S/C12H12N2O3/c1-2-12(8-6-4-3-5-7-8)9(15)13-11(17)14-10(12)16/h3-7H,2H2,1H3,(H2,13,14,15,16,17)"
INCHIAUX=
PUBMED=N/A
SUBMITUSER=jzemlin
LIBRARYQUALITY=1
SPECTRUMID=CCMSLIB00016155375
USI=mzspec:GNPS:REFRAME-NEGATIVE-LIBRARY:accession:CCMSLIB00016155375
SCANS=1232
61.847473	3627.805176
68.779884	3349.453857
78.567856	3817.817383
85.004173	115871.328125
92.98317	3879.195068
112.911339	3939.995605
122.969658	6172.740234
144.082031	13239.254883
148.78389	4099.398438
183.424927	4127.250488
188.071854	188661.765625
231.077652	857347.75
END IONS

BEGIN IONS
PEPMASS=161.987
CHARGE=1
MSLEVEL=2
SOURCE_INSTRUMENT=LC-ESI-Orbitrap
FILENAME=ms2_all_part1.mgf
SEQ=*..*
IONMODE=Positive
ORGANISM=MULTIPLEX-SYNTHESIS-LIBRARY-ALL-PARTITION-1
NAME=3,4-dichloroaniline (known isomers: 0; isobaric peaks: 0) M+H
PI=Pieter Dorrestein
DATACOLLECTOR=Abubaker patan
SMILES=NC1=CC=C(Cl)C(Cl)=C1
INCHI=InChI=1S/C6H5Cl2N/c7-5-2-1-4(9)3-6(5)8/h1-3H,9H2
INCHIAUX=N/A
PUBMED=AP_649.mzML:scan:1518
SUBMITUSER=jzemlin
LIBRARYQUALITY=1
SPECTRUMID=CCMSLIB00014903705
USI=mzspec:GNPS:MULTIPLEX-SYNTHESIS-LIBRARY-ALL-PARTITION-1:accession:CCMSLIB00014903705
SCANS=1710
52.257278	838.630005
63.761139	941.059998
75.888878	999.090027
84.960258	1686.52002
92.550987	1745.280029
96.780373	1006.289978
117.555283	1076.329956
127.018501	128676.859375
127.025673	2628.100098
139.029282	1358.569946
161.987152	257992.3125
162.970963	2172.449951
172.966599	2240.030029
179.107285	1158.099976
180.247803	1143.880005
END IONS

BEGIN IONS
PEPMASS=176.164
CHARGE=1
MSLEVEL=2
SOURCE_INSTRUMENT=LC-ESI-Orbitrap
FILENAME=ms2_all_part1.mgf
SEQ=*..*
IONMODE=Positive
ORGANISM=MULTIPLEX-SYNTHESIS-LIBRARY-ALL-PARTITION-1
NAME=butyryl-chloride_1-pentanol (known isomers: 8; isobaric peaks: 1) M+NH4
PI=Pieter Dorrestein
DATACOLLECTOR=Abubaker patan
SMILES=CCCCCOC(=O)CCC
INCHI=InChI=1S/C9H18O2/c1-3-5-6-8-11-9(10)7-4-2/h3-8H2,1-2H3
INCHIAUX=N/A
PUBMED=AP_814.mzML:scan:206
SUBMITUSER=jzemlin
LIBRARYQUALITY=1
SPECTRUMID=CCMSLIB00015139417
USI=mzspec:GNPS:MULTIPLEX-SYNTHESIS-LIBRARY-ALL-PARTITION-1:accession:CCMSLIB00015139417
SCANS=61207
58.06591	1925.670044
70.065903	2585.100098
72.081467	7527.330078
75.044563	3500.860107
78.078972	1309.599976
86.092453	1965.359985
86.096863	116637.273438
88.075996	3635.820068
89.367577	1364.780029
92.099167	1381.689941
92.549744	5132.879883
97.007767	2539.98999
98.096626	3320.419922
100.112457	24575.169922
101.120201	10280.280273
102.091621	3109.840088
102.127998	22712.630859
113.775902	1353.719971
116.107101	32262.400391
116.143463	3969.540039
125.002693	10712.389648
130.105911	1829.900024
130.122284	10182.259766
131.108017	4720.290039
140.751633	1373.430054
141.657333	1421.27002
144.114594	7497.080078
144.119186	5691.029785
144.138062	942006.875
144.156845	5581.040039
144.161636	6594.5
146.117889	2309.300049
152.938354	1638.880005
158.153763	5814.720215
161.306656	1487.76001
168.078232	1356.280029
176.09462	21997.169922
176.13176	8676.769531
176.164154	1175294.625
176.196335	6989.220215
END IONS

BEGIN IONS
PEPMASS=246.149
CHARGE=1
MSLEVEL=2
SOURCE_INSTRUMENT=LC-ESI-Orbitrap
FILENAME=ms2_all_part2.mgf
SEQ=*..*
IONMODE=Positive
ORGANISM=MULTIPLEX-SYNTHESIS-LIBRARY-ALL-PARTITION-2
NAME=bisphenol A (known isomers: 0; isobaric peaks: 0) M+NH4
PI=Pieter Dorrestein
DATACOLLECTOR=Abubaker patan
SMILES=OC1=CC=C(C=C1)C(C)(C)C2=CC=C(C=C2)O
INCHI=InChI=1S/C15H16O2/c1-15(2,11-3-7-13(16)8-4-11)12-5-9-14(17)10-6-12/h3-10,16-17H,1-2H3
INCHIAUX=N/A
PUBMED=AP_751.mzML:scan:989
SUBMITUSER=jzemlin
LIBRARYQUALITY=1
SPECTRUMID=CCMSLIB00014912607
USI=mzspec:GNPS:MULTIPLEX-SYNTHESIS-LIBRARY-ALL-PARTITION-2:accession:CCMSLIB00014912607
SCANS=1329
54.25079	1099.439941
63.124481	1138.150024
71.727173	1078.910034
92.026367	1708.849976
92.549744	2337.98999
95.049599	8086.339844
105.045502	2321.290039
135.044083	228575.109375
136.047867	1510.72998
173.293045	1170.640015
204.516647	1347.73999
END IONS

BEGIN IONS
PEPMASS=168.102
CHARGE=1
MSLEVEL=2
SOURCE_INSTRUMENT=LC-ESI-Orbitrap
FILENAME=ms2_all_part2.mgf
SEQ=*..*
IONMODE=Positive
ORGANISM=MULTIPLEX-SYNTHESIS-LIBRARY-ALL-PARTITION-2
NAME=acetyl chloride_benzyl alcohol (known isomers: 1; isobaric peaks: 1) M+NH4
PI=Pieter Dorrestein
DATACOLLECTOR=Abubaker patan
SMILES=CC(=O)OCc1ccccc1
INCHI=InChI=1S/C9H10O2/c1-8(10)11-7-9-5-3-2-4-6-9/h2-6H,7H2,1H3
INCHIAUX=N/A
PUBMED=AP_813.mzML:scan:975
SUBMITUSER=jzemlin
LIBRARYQUALITY=1
SPECTRUMID=CCMSLIB00015060634
USI=mzspec:GNPS:MULTIPLEX-SYNTHESIS-LIBRARY-ALL-PARTITION-2:accession:CCMSLIB00015060634
SCANS=39338
62.493778	905.419983
63.570621	957.039978
84.960152	7471.27002
85.9636	1463.530029
92.550003	2167.969971
94.029213	9700.759766
102.970337	3995.76001
112.03952	29478.990234
113.690079	1117.219971
120.98085	4618.419922
140.070404	38836.421875
168.080032	1536.72998
168.101593	87655.179688
168.116531	1582.880005
168.138901	2179.27002
END IONS

BEGIN IONS
PEPMASS=239.107
CHARGE=1
MSLEVEL=2
SOURCE_INSTRUMENT=LC-ESI-Orbitrap
FILENAME=ms2_all_part3.mgf
SEQ=*..*
IONMODE=Positive
ORGANISM=MULTIPLEX-SYNTHESIS-LIBRARY-ALL-PARTITION-3
NAME=Cinnamic acid_benzyl alcohol (known isomers: 1; isobaric peaks: 0) M+H
PI=Pieter Dorrestein
DATACOLLECTOR=Abubaker patan
SMILES=O=C(/C=C/c1ccccc1)OCc1ccccc1
INCHI=InChI=1S/C16H14O2/c17-16(12-11-14-7-3-1-4-8-14)18-13-15-9-5-2-6-10-15/h1-12H,13H2/b12-11+
INCHIAUX=N/A
PUBMED=Hu_199.mzML:scan:3152
SUBMITUSER=jzemlin
LIBRARYQUALITY=1
SPECTRUMID=CCMSLIB00015085077
USI=mzspec:GNPS:MULTIPLEX-SYNTHESIS-LIBRARY-ALL-PARTITION-3:accession:CCMSLIB00015085077
SCANS=45337
60.894199	1178.51001
62.040329	1100.150024
63.801922	1120.810059
69.813553	983.359985
77.039612	2324.820068
90.977081	2314.76001
91.054871	1417.48999
92.55188	3085.909912
95.049568	1840.619995
103.054703	132048.625
109.101311	1395.310059
115.054314	2838.629883
117.070686	3257.310059
123.081078	2516.590088
131.029266	3635.060059
131.049316	537501.8125
133.064499	1792.98999
139.307693	1230.060059
161.058609	1305.280029
193.1017	2827.02002
END IONS

BEGIN IONS
PEPMASS=165.091
CHARGE=1
MSLEVEL=2
SOURCE_INSTRUMENT=LC-ESI-Orbitrap
FILENAME=ms2_all_part5.mgf
SEQ=*..*
IONMODE=Positive
ORGANISM=MULTIPLEX-SYNTHESIS-LIBRARY-ALL-PARTITION-5
NAME=Isoeugenol (known isomers: 0; isobaric peaks: 6) M+H
PI=Pieter Dorrestein
DATACOLLECTOR=Abubaker patan
SMILES=C/C=C/C1=CC(=C(C=C1)O)OC
INCHI=InChI=1S/C10H12O2/c1-3-4-8-5-6-9(11)10(7-8)12-2/h3-7,11H,1-2H3/b4-3+
INCHIAUX=N/A
PUBMED=Hu_556.mzML:scan:2286
SUBMITUSER=jzemlin
LIBRARYQUALITY=1
SPECTRUMID=CCMSLIB00015321785
USI=mzspec:GNPS:MULTIPLEX-SYNTHESIS-LIBRARY-ALL-PARTITION-5:accession:CCMSLIB00015321785
SCANS=66455
57.818069	929.070007
63.045639	1034.900024
79.055054	6609.390137
79.058762	1184.199951
84.308853	1183.420044
91.054893	1700.030029
92.551117	9162.070312
95.049461	1806.780029
103.054527	6524.560059
105.062866	1610.930054
105.07029	74940.296875
105.075844	1229.300049
105.077629	1731.630005
109.065079	2564.72998
111.044212	1988.369995
122.03643	3006.600098
124.051979	2343.830078
133.064865	77440.257812
137.059662	69952.296875
148.087082	1570.109985
150.067474	4112.629883
165.090958	26537.029297
165.102188	904.070007
165.11322	2414.52002
END IONS

BEGIN IONS
PEPMASS=151.11
CHARGE=1
MSLEVEL=2
SOURCE_INSTRUMENT=ESI-Orbitrap
FILENAME=BMDMS_mgf.mgf
SEQ=*..*
IONMODE=Positive
ORGANISM=BMDMS-NP
NAME=thymol [M+H]+
PI=BMDMS-NP
DATACOLLECTOR=BMDMS-NP
SMILES=OC1=CC(=CC=C1C(C)C)C
INCHI=InChI=1S/C10H14O/c1-7(2)9-5-4-8(3)6-10(9)11/h4-7,11H,1-3H3
INCHIAUX=N/A
PUBMED=N/A
SUBMITUSER=mwang87
LIBRARYQUALITY=1
SPECTRUMID=CCMSLIB00006362088
USI=mzspec:GNPS:BMDMS-NP:accession:CCMSLIB00006362088
SCANS=7788
150.589005	314.0
151.039001	1000.0
151.050003	35.0
151.054001	121.0
151.074997	128.0
151.085999	7.0
151.091003	25.0
151.098007	35.0
151.112	68.0
159.595001	282.0
160.091003	5.0
160.095993	23.0
160.100998	11.0
168.600006	18.0
169.065002	86.0
179.059998	42.0
END IONS

BEGIN IONS
PEPMASS=823.44
CHARGE=1
MSLEVEL=2
SOURCE_INSTRUMENT=ESI-Orbitrap
FILENAME=BMDMS_mgf.mgf
SEQ=*..*
IONMODE=Positive
ORGANISM=BMDMS-NP
NAME=(2R,3R,4S)-6-(((2R,4S)-6-(((2R,4S,6R)-6-(((10S,13S,17S)-12,14-dihydroxy-10,13-dimethyl-17-(5-oxo-2,5-dihydrofuran-3-yl)hexadecahydro-1H-cyclopenta[a]phenanthren-3-yl)oxy)-4-hydroxy-2-methyltetrahydro-2H-pyran-3-yl)oxy)-4-hydroxy-2-methyltetrahydro-2H-pyran-3-yl)oxy)-3-hydroxy-2-methyltetrahydro-2H-pyran-4-yl acetate [M+H]+
PI=BMDMS-NP
DATACOLLECTOR=BMDMS-NP
SMILES=O=C1OCC(=C1)C2CCC3(O)C4CCC5CC(OC6OC(C)C(OC7OC(C)C(OC8OC(C)C(O)C(OC(=O)C)C8)C(O)C7)C(O)C6)CCC5(C)C4CC(O)C23C
INCHI=InChI=1S/C43H66O15/c1-20-38(49)32(55-23(4)44)18-37(52-20)58-40-22(3)54-36(17-31(40)46)57-39-21(2)53-35(16-30(39)45)56-26-9-11-41(5)25(14-26)7-8-28-29(41)15-33(47)42(6)27(10-12-43(28,42)50)24-13-34(48)51-19-24/h13,20-22,25-33,35-40,45-47,49-50H,7-12,14-19H2,1-6H3
INCHIAUX=N/A
PUBMED=N/A
SUBMITUSER=mwang87
LIBRARYQUALITY=1
SPECTRUMID=CCMSLIB00006433323
USI=mzspec:GNPS:BMDMS-NP:accession:CCMSLIB00006433323
SCANS=79023
823.421021	1000.0
END IONS

BEGIN IONS
PEPMASS=823.44
CHARGE=1
MSLEVEL=2
SOURCE_INSTRUMENT=ESI-Orbitrap
FILENAME=BMDMS_mgf.mgf
SEQ=*..*
IONMODE=Positive
ORGANISM=BMDMS-NP
NAME=(10S,13R)-3-(((2R,4S,6R)-5-(((4S,6R)-5-(((4S,5S,6R)-4,5-dihydroxy-6-methyltetrahydro-2H-pyran-2-yl)oxy)-4-hydroxy-6-methyltetrahydro-2H-pyran-2-yl)oxy)-4-hydroxy-6-methyltetrahydro-2H-pyran-2-yl)oxy)-14-hydroxy-10,13-dimethyl-17-(5-oxo-2,5-dihydrofuran-3-yl)hexadecahydro-1H-cyclopenta[a]phenanthren-16-yl acetate [M+H]+
PI=BMDMS-NP
DATACOLLECTOR=BMDMS-NP
SMILES=O=C1OCC(=C1)C2C(OC(=O)C)CC3(O)C4CCC5CC(OC6OC(C)C(OC7OC(C)C(OC8OC(C)C(O)C(O)C8)C(O)C7)C(O)C6)CCC5(C)C4CCC23C
INCHI=InChI=1S/C43H66O15/c1-20-38(49)29(45)15-35(52-20)57-40-22(3)54-36(17-31(40)47)58-39-21(2)53-34(16-30(39)46)56-26-9-11-41(5)25(14-26)7-8-28-27(41)10-12-42(6)37(24-13-33(48)51-19-24)32(55-23(4)44)18-43(28,42)50/h13,20-22,25-32,34-40,45-47,49-50H,7-12,14-19H2,1-6H3
INCHIAUX=N/A
PUBMED=N/A
SUBMITUSER=mwang87
LIBRARYQUALITY=1
SPECTRUMID=CCMSLIB00006433977
USI=mzspec:GNPS:BMDMS-NP:accession:CCMSLIB00006433977
SCANS=79677
389.105011	42.0
807.450012	361.0
823.419006	1000.0
END IONS

BEGIN IONS
PEPMASS=171.971
CHARGE=1
MSLEVEL=2
SOURCE_INSTRUMENT=ESI-LC-ESI-ITFT
FILENAME=Massbank_ESI_positive_8_1_2014_peaks.mgf
SEQ=*..*
IONMODE=Positive
ORGANISM=MASSBANK
NAME=Massbank:EA008402 Dichlobenil|2,6-Dichlorobenzonitrile|2,6-bis(chloranyl)benzenecarbonitrile [M+H]+
PI=Putative Massbank Match
DATACOLLECTOR=Massbank
SMILES=c1(c(cccc1Cl)Cl)C#N
INCHI=1S/C7H3Cl2N/c8-6-2-1-3-7(9)5(6)4-10/h1-3H
INCHIAUX=N/A
PUBMED=N/A
SUBMITUSER=mwang87
LIBRARYQUALITY=3
SPECTRUMID=CCMSLIB00000206566
USI=mzspec:GNPS:MASSBANK:accession:CCMSLIB00000206566
SCANS=1825
171.9713	34337.0
END IONS

BEGIN IONS
PEPMASS=234.185
CHARGE=1
MSLEVEL=2
SOURCE_INSTRUMENT=ESI-LC-ESI-ITFT
FILENAME=Massbank_ESI_positive_8_1_2014_peaks.mgf
SEQ=*..*
IONMODE=Positive
ORGANISM=MASSBANK
NAME=Massbank:EA025501 Tebutam|2,2-dimethyl-N-(phenylmethyl)-N-propan-2-yl-propanamide|N-Benzyl-N-isopropylpivalamide [M+H]+
PI=Putative Massbank Match
DATACOLLECTOR=Massbank
SMILES=c1ccccc1CN(C(=O)C(C)(C)C)C(C)C
INCHI=1S/C15H23NO/c1-12(2)16(14(17)15(3,4)5)11-13-9-7-6-8-10-13/h6-10,12H,11H2,1-5H3
INCHIAUX=N/A
PUBMED=N/A
SUBMITUSER=mwang87
LIBRARYQUALITY=3
SPECTRUMID=CCMSLIB00000207820
USI=mzspec:GNPS:MASSBANK:accession:CCMSLIB00000207820
SCANS=3065
57.0698	224267.0
84.0808	301785.6
85.0649	13741.0
91.0543	3569260.5
105.0698	34481.9
114.0914	189472.5
126.1277	262454.4
133.1012	163669.9
142.1227	1797235.4
156.1383	137405.7
192.1384	2738549.0
END IONS

BEGIN IONS
PEPMASS=220.977
CHARGE=1
MSLEVEL=2
SOURCE_INSTRUMENT=ESI-LC-ESI-ITFT
FILENAME=Massbank_ESI_positive_8_1_2014_peaks.mgf
SEQ=*..*
IONMODE=Positive
ORGANISM=MASSBANK
NAME=Massbank:EA027501 Dicamba|3,6-bis(chloranyl)-2-methoxy-benzoic acid [M+H]+
PI=Putative Massbank Match
DATACOLLECTOR=Massbank
SMILES=c1(c(c(ccc1Cl)Cl)OC)C(O)=O
INCHI=1S/C8H6Cl2O3/c1-13-7-5(10)3-2-4(9)6(7)8(11)12/h2-3H,1H3,(H,11,12)
INCHIAUX=N/A
PUBMED=N/A
SUBMITUSER=mwang87
LIBRARYQUALITY=3
SPECTRUMID=CCMSLIB00000207974
USI=mzspec:GNPS:MASSBANK:accession:CCMSLIB00000207974
SCANS=3219
202.9659	5623.6
END IONS

BEGIN IONS
PEPMASS=230.117
CHARGE=1
MSLEVEL=2
SOURCE_INSTRUMENT=ESI-LC-ESI-ITFT
FILENAME=Massbank_ESI_positive_8_1_2014_peaks.mgf
SEQ=*..*
IONMODE=Positive
ORGANISM=MASSBANK
NAME=Massbank:EA274101 Propazine|6-chloranyl-N2,N4-di(propan-2-yl)-1,3,5-triazine-2,4-diamine [M+H]+
PI=Putative Massbank Match
DATACOLLECTOR=Massbank
SMILES=c1(nc(nc(n1)Cl)NC(C)C)NC(C)C
INCHI=1S/C9H16ClN5/c1-5(2)11-8-13-7(10)14-9(15-8)12-6(3)4/h5-6H,1-4H3,(H2,11,12,13,14,15)
INCHIAUX=N/A
PUBMED=N/A
SUBMITUSER=mwang87
LIBRARYQUALITY=3
SPECTRUMID=CCMSLIB00000210624
USI=mzspec:GNPS:MASSBANK:accession:CCMSLIB00000210624
SCANS=4913
104.001	101638.8
110.0712	90260.1
146.0228	2590765.5
152.1184	161178.5
172.0377	35974.1
188.0699	26029268.5
END IONS

BEGIN IONS
PEPMASS=255.933
CHARGE=1
MSLEVEL=2
SOURCE_INSTRUMENT=ESI-LC-ESI-ITFT
FILENAME=Massbank_ESI_positive_8_1_2014_peaks.mgf
SEQ=*..*
IONMODE=Positive
ORGANISM=MASSBANK
NAME=Massbank:EA294601 Triclopyr| 2-(3,5,6-trichloropyridin-2-yl)oxyacetic acid [M+H]+
PI=Putative Massbank Match
DATACOLLECTOR=Massbank
SMILES=ClC1=C(OCC(O)=O)N=C(Cl)C(Cl)=C1
INCHI=1S/C7H4Cl3NO3/c8-3-1-4(9)7(11-6(3)10)14-2-5(12)13/h1H,2H2,(H,12,13)
INCHIAUX=N/A
PUBMED=N/A
SUBMITUSER=mwang87
LIBRARYQUALITY=3
SPECTRUMID=CCMSLIB00000212663
USI=mzspec:GNPS:MASSBANK:accession:CCMSLIB00000212663
SCANS=5917
181.9327	3861.3
197.9274	155543.6
209.9274	766285.0
237.9225	3245406.1
END IONS

BEGIN IONS
PEPMASS=100.0
CHARGE=1
MSLEVEL=2
SOURCE_INSTRUMENT=ESI-LC-ESI-QQ
FILENAME=Massbank_ESI_positive_8_1_2014_peaks.mgf
SEQ=*..*
IONMODE=Positive
ORGANISM=MASSBANK
NAME=Massbank:KO002597 Cyclohexylamine|Cyclohexanamine [M+H]+
PI=Putative Massbank Match
DATACOLLECTOR=Massbank
SMILES=NC(C1)CCCC1
INCHI=1S/C6H13N/c7-6-4-2-1-3-5-6/h6H,1-5,7H2
INCHIAUX=N/A
PUBMED=N/A
SUBMITUSER=mwang87
LIBRARYQUALITY=3
SPECTRUMID=CCMSLIB00000217689
USI=mzspec:GNPS:MASSBANK:accession:CCMSLIB00000217689
SCANS=8399
36.2	89109.0
50.0	3722776.0
55.1	683169.0
64.1	326733.0
67.7	54455.5
82.3	549505.5
83.1	40935684.5
99.1	69307.0
100.1	393747918.5
118.2	69307.0
END IONS

BEGIN IONS
PEPMASS=62.0
CHARGE=1
MSLEVEL=2
SOURCE_INSTRUMENT=ESI-LC-ESI-QQ
FILENAME=Massbank_ESI_positive_8_1_2014_peaks.mgf
SEQ=*..*
IONMODE=Positive
ORGANISM=MASSBANK
NAME=Massbank:KO002849 Ethanolamine|Aminoethanol|2-Hydroxyethylamine [M+H]+
PI=Putative Massbank Match
DATACOLLECTOR=Massbank
SMILES=NCCO
INCHI=1S/C2H7NO/c3-1-2-4/h4H,1-3H2
INCHIAUX=N/A
PUBMED=N/A
SUBMITUSER=mwang87
LIBRARYQUALITY=3
SPECTRUMID=CCMSLIB00000218200
USI=mzspec:GNPS:MASSBANK:accession:CCMSLIB00000218200
SCANS=8651
44.0	4688123.5
44.7	361386.5
62.0	32217854.0
END IONS

BEGIN IONS
PEPMASS=267.0
CHARGE=1
MSLEVEL=2
SOURCE_INSTRUMENT=ESI-LC-ESI-QQ
FILENAME=Massbank_ESI_positive_8_1_2014_peaks.mgf
SEQ=*..*
IONMODE=Positive
ORGANISM=MASSBANK
NAME=Massbank:KO003547 4,4'-Methylene bis(o-chloroaniline)|Methylenebis(chloroaniline)|4,4'-Methylene-bis-(2-chloroaniline) [M+H]+
PI=Putative Massbank Match
DATACOLLECTOR=Massbank
SMILES=Nc(c2)c(Cl)cc(c2)Cc(c1)cc(Cl)c(N)c1
INCHI=1S/C13H12Cl2N2/c14-10-6-8(1-3-12(10)16)5-9-2-4-13(17)11(15)7-9/h1-4,6-7H,5,16-17H2
INCHIAUX=N/A
PUBMED=N/A
SUBMITUSER=mwang87
LIBRARYQUALITY=3
SPECTRUMID=CCMSLIB00000219624
USI=mzspec:GNPS:MASSBANK:accession:CCMSLIB00000219624
SCANS=9349
112.1	19802.0
120.8	74257.5
123.4	84158.5
124.2	49505.0
127.8	44554.5
128.4	49505.0
129.1	54455.5
130.3	465347.0
139.7	39604.0
140.3	34653.5
142.9	19802.0
153.7	14851.5
156.1	371287.5
175.0	29703.0
185.3	128713.0
192.0	19802.0
193.0	9901.0
207.0	99010.0
208.4	19802.0
213.3	24752.5
217.6	29703.0
218.5	54455.5
231.1	94059.5
232.2	69307.0
235.3	113861.5
249.1	29703.0
250.2	792080.0
267.3	43673311.0
285.6	158416.0
END IONS

BEGIN IONS
PEPMASS=109.0
CHARGE=1
MSLEVEL=2
SOURCE_INSTRUMENT=ESI-LC-ESI-QQ
FILENAME=Massbank_ESI_positive_8_1_2014_peaks.mgf
SEQ=*..*
IONMODE=Positive
ORGANISM=MASSBANK
NAME=Massbank:KO003710 1,3-Phenylenediamine|1,3-Benzenediamine|Benzenediamine|Phenylenediamine|m-Diaminobenzene|Diaminobenzene|m-Phenylenediamine [M+H]+
PI=Putative Massbank Match
DATACOLLECTOR=Massbank
SMILES=Nc(c1)cc(N)cc1
INCHI=1S/C6H8N2/c7-5-2-1-3-6(8)4-5/h1-4H,7-8H2
INCHIAUX=N/A
PUBMED=N/A
SUBMITUSER=mwang87
LIBRARYQUALITY=3
SPECTRUMID=CCMSLIB00000219944
USI=mzspec:GNPS:MASSBANK:accession:CCMSLIB00000219944
SCANS=9507
41.1	801981.0
55.1	2460398.5
56.0	54455.5
59.1	242574.5
60.0	1044555.5
72.8	509901.5
74.2	198020.0
76.9	579208.5
91.1	69307.0
92.1	767327.5
109.1	17356453.0
END IONS

BEGIN IONS
PEPMASS=128.026
CHARGE=1
MSLEVEL=2
SOURCE_INSTRUMENT=ESI-Hybrid FT
FILENAME=massbank-gnps.mgf
SEQ=*..*
IONMODE=Positive
ORGANISM=MASSBANK
NAME=Massbank:UF413802 4-Chloroaniline M+H
PI=Massbank
DATACOLLECTOR=Massbank
SMILES=NC1=CC=C(Cl)C=C1
INCHI=1S/C6H6ClN/c7-5-1-3-6(8)4-2-5/h1-4H,8H2
INCHIAUX=N/A
PUBMED=N/A
SUBMITUSER=mwang87
LIBRARYQUALITY=3
SPECTRUMID=CCMSLIB00005726480
USI=mzspec:GNPS:MASSBANK:accession:CCMSLIB00005726480
SCANS=929
92.049896	9648.200195
93.057602	798969.875
111.0	26026.800781
127.018799	6083.200195
128.026596	335576.59375
139.006302	214309.796875
END IONS

BEGIN IONS
PEPMASS=75.0
CHARGE=1
MSLEVEL=2
SOURCE_INSTRUMENT=ESI-QQQ
FILENAME=massbank-gnps.mgf
SEQ=*..*
IONMODE=Negative
ORGANISM=MASSBANK
NAME=Massbank:KO000833 Glycolate|Hydroxyacetic acid|Glycolic acid M-H
PI=Massbank
DATACOLLECTOR=Massbank
SMILES=OCC(O)=O
INCHI=1S/C2H4O3/c3-1-2(4)5/h3H,1H2,(H,4,5)
INCHIAUX=N/A
PUBMED=N/A
SUBMITUSER=mwang87
LIBRARYQUALITY=3
SPECTRUMID=CCMSLIB00005728101
USI=mzspec:GNPS:MASSBANK:accession:CCMSLIB00005728101
SCANS=2550
31.299999	202970.5
45.200001	227723.0
47.099998	282178.5
72.900002	217822.0
73.400002	59406.0
75.099998	4534658.0
END IONS

BEGIN IONS
PEPMASS=205.0
CHARGE=1
MSLEVEL=2
SOURCE_INSTRUMENT=ESI-QQQ
FILENAME=massbank-gnps.mgf
SEQ=*..*
IONMODE=Negative
ORGANISM=MASSBANK
NAME=Massbank:KO000590 2,6-Dichloro-4-nitroaniline|DCNA|Dichloran M-H
PI=Massbank
DATACOLLECTOR=Massbank
SMILES=[O-1][N+1](=O)c(c1)cc(Cl)c(N)c(Cl)1
INCHI=1S/C6H4Cl2N2O2/c7-4-1-3(10(11)12)2-5(8)6(4)9/h1-2H,9H2
INCHIAUX=N/A
PUBMED=N/A
SUBMITUSER=mwang87
LIBRARYQUALITY=3
SPECTRUMID=CCMSLIB00005728562
USI=mzspec:GNPS:MASSBANK:accession:CCMSLIB00005728562
SCANS=3011
58.799999	782179.0
60.299999	59406.0
74.599998	19802.0
88.800003	24752.5
93.099998	54455.5
95.300003	89109.0
117.0	49505.0
123.300003	29703.0
138.699997	54455.5
140.899994	108911.0
149.100006	74257.5
160.699997	19802.0
169.0	415842.0
171.0	24752.5
172.100006	356436.0
175.100006	1415843.0
177.300003	103960.5
190.100006	34653.5
204.199997	54455.5
205.399994	95737720.0
END IONS

BEGIN IONS
PEPMASS=253.0
CHARGE=1
MSLEVEL=2
SOURCE_INSTRUMENT=ESI-QQQ
FILENAME=massbank-gnps.mgf
SEQ=*..*
IONMODE=Negative
ORGANISM=MASSBANK
NAME=Massbank:KO001968 2,4,5-Trichlorophenoxyacetate|2,4,5-Trichlorophenoxyacetic acid M-H
PI=Massbank
DATACOLLECTOR=Massbank
SMILES=OC(=O)COc(c1)c(Cl)cc(Cl)c(Cl)1
INCHI=1S/C8H5Cl3O3/c9-4-1-6(11)7(2-5(4)10)14-3-8(12)13/h1-2H,3H2,(H,12,13)
INCHIAUX=N/A
PUBMED=N/A
SUBMITUSER=mwang87
LIBRARYQUALITY=3
SPECTRUMID=CCMSLIB00005728884
USI=mzspec:GNPS:MASSBANK:accession:CCMSLIB00005728884
SCANS=3333
93.099998	287129.0
195.300003	24232698.0
206.399994	24752.5
208.699997	34653.5
217.0	108911.0
220.300003	24752.5
253.0	42554496.0
END IONS

BEGIN IONS
PEPMASS=158.027
CHARGE=1
MSLEVEL=2
SOURCE_INSTRUMENT=ESI-Hybrid FT
FILENAME=massbank-gnps.mgf
SEQ=*..*
IONMODE=Positive
ORGANISM=MASSBANK
NAME=Massbank:EQ359508 Benzenesulfonamide|Benzenesulfonimidic acid M+H
PI=Massbank
DATACOLLECTOR=Massbank
SMILES=c1ccc(cc1)S(=N)(=O)O
INCHI=1S/C6H7NO2S/c7-10(8,9)6-4-2-1-3-5-6/h1-5H,(H2,7,8,9)
INCHIAUX=N/A
PUBMED=N/A
SUBMITUSER=mwang87
LIBRARYQUALITY=3
SPECTRUMID=CCMSLIB00005730187
USI=mzspec:GNPS:MASSBANK:accession:CCMSLIB00005730187
SCANS=4636
50.015099	3319077.5
51.0229	5785319.0
53.002201	41280.300781
53.038601	668296.0
55.017799	43199.898438
65.002098	172042.59375
65.038597	9607.599609
66.010002	29586.599609
67.054199	26428.800781
74.014999	25321.0
75.022797	79382.601562
77.038498	2348838.5
79.979897	7531.600098
81.033501	70481.796875
94.041298	9408.299805
95.049103	1930000.625
105.044701	1413239.125
END IONS

BEGIN IONS
PEPMASS=369.823
CHARGE=1
MSLEVEL=2
SOURCE_INSTRUMENT=ESI-Hybrid FT
FILENAME=massbank-gnps.mgf
SEQ=*..*
IONMODE=Negative
ORGANISM=MASSBANK
NAME=Massbank:EA008764 Ioxynil|4-Hydroxy-3,5-diiodobenzonitrile|3,5-bis(iodanyl)-4-oxidanyl-benzenecarbonitrile M-H
PI=Massbank
DATACOLLECTOR=Massbank
SMILES=c1(cc(c(O)c(c1)I)I)C#N
INCHI=1S/C7H3I2NO/c8-5-1-4(3-10)2-6(9)7(5)11/h1-2,11H
INCHIAUX=N/A
PUBMED=N/A
SUBMITUSER=mwang87
LIBRARYQUALITY=3
SPECTRUMID=CCMSLIB00005730370
USI=mzspec:GNPS:MASSBANK:accession:CCMSLIB00005730370
SCANS=4819
126.9049	3211820.75
214.923599	55961.0
242.918396	152181.203125
369.82251	1398461.875
END IONS

BEGIN IONS
PEPMASS=183.078
CHARGE=1
MSLEVEL=2
SOURCE_INSTRUMENT=ESI-Hybrid FT
FILENAME=massbank-gnps.mgf
SEQ=*..*
IONMODE=Positive
ORGANISM=MASSBANK
NAME=Massbank:EQ315405 Triethyl phosphate|TEP|Phosphoric acid triethyl ester M+H
PI=Massbank
DATACOLLECTOR=Massbank
SMILES=O=P(OCC)(OCC)OCC
INCHI=1S/C6H15O4P/c1-4-8-11(7,9-5-2)10-6-3/h4-6H2,1-3H3
INCHIAUX=N/A
PUBMED=N/A
SUBMITUSER=mwang87
LIBRARYQUALITY=3
SPECTRUMID=CCMSLIB00005730391
USI=mzspec:GNPS:MASSBANK:accession:CCMSLIB00005730391
SCANS=4840
62.963001	1796916.5
80.973602	3560943.0
98.984299	1579867264.0
116.994797	16025067.0
127.015602	5729486.0
END IONS

BEGIN IONS
PEPMASS=232.978
CHARGE=1
MSLEVEL=2
SOURCE_INSTRUMENT=ESI-Hybrid FT
FILENAME=massbank-gnps.mgf
SEQ=*..*
IONMODE=Negative
ORGANISM=MASSBANK
NAME=Massbank:EA027062 Dichlorprop|2-(2,4-dichlorophenoxy)propanoic acid M-H
PI=Massbank
DATACOLLECTOR=Massbank
SMILES=CC(OC1=C(Cl)C=C(Cl)C=C1)C(O)=O
INCHI=1S/C9H8Cl2O3/c1-5(9(12)13)14-8-3-2-6(10)4-7(8)11/h2-5H,1H3,(H,12,13)
INCHIAUX=N/A
PUBMED=N/A
SUBMITUSER=mwang87
LIBRARYQUALITY=3
SPECTRUMID=CCMSLIB00005730452
USI=mzspec:GNPS:MASSBANK:accession:CCMSLIB00005730452
SCANS=4901
89.003304	10469.900391
124.979897	80999.203125
160.956497	257155.703125
END IONS

BEGIN IONS
PEPMASS=239.067
CHARGE=1
MSLEVEL=2
SOURCE_INSTRUMENT=ESI-Hybrid FT
FILENAME=massbank-gnps.mgf
SEQ=*..*
IONMODE=Negative
ORGANISM=MASSBANK
NAME=Massbank:EA025758 Dinoseb|2,4-dinitro-6-sec-butyl-phenol M-H
PI=Massbank
DATACOLLECTOR=Massbank
SMILES=OC1=C([N+]([O-])=O)C=C([N+]([O-])=O)C=C1C(C)CC
INCHI=1S/C10H12N2O5/c1-3-6(2)8-4-7(11(14)15)5-9(10(8)13)12(16)17/h4-6,13H,3H2,1-2H3
INCHIAUX=N/A
PUBMED=N/A
SUBMITUSER=mwang87
LIBRARYQUALITY=3
SPECTRUMID=CCMSLIB00005730461
USI=mzspec:GNPS:MASSBANK:accession:CCMSLIB00005730461
SCANS=4910
239.067307	5604685.5
END IONS

BEGIN IONS
PEPMASS=218.962
CHARGE=1
MSLEVEL=2
SOURCE_INSTRUMENT=ESI-Hybrid FT
FILENAME=massbank-gnps.mgf
SEQ=*..*
IONMODE=Negative
ORGANISM=MASSBANK
NAME=Massbank:EA026759 2,4-D|2-(2,4-dichlorophenoxy)acetic acid M-H
PI=Massbank
DATACOLLECTOR=Massbank
SMILES=ClC1=C(OCC(O)=O)C=CC(Cl)=C1
INCHI=1S/C8H6Cl2O3/c9-5-1-2-7(6(10)3-5)13-4-8(11)12/h1-3H,4H2,(H,11,12)
INCHIAUX=N/A
PUBMED=N/A
SUBMITUSER=mwang87
LIBRARYQUALITY=3
SPECTRUMID=CCMSLIB00005730472
USI=mzspec:GNPS:MASSBANK:accession:CCMSLIB00005730472
SCANS=4921
160.956894	2222440.5
218.962006	9330.599609
END IONS

BEGIN IONS
PEPMASS=186.222
CHARGE=1
MSLEVEL=2
SOURCE_INSTRUMENT=ESI-Hybrid FT
FILENAME=massbank-gnps.mgf
SEQ=*..*
IONMODE=Positive
ORGANISM=MASSBANK
NAME=Massbank:EQ315001 Tributylamine|1-Butanamine, N,N-dibutyl-|N,N-dibutyl-1-butanamine M+H
PI=Massbank
DATACOLLECTOR=Massbank
SMILES=N(CCCC)(CCCC)CCCC
INCHI=1S/C12H27N/c1-4-7-10-13(11-8-5-2)12-9-6-3/h4-12H2,1-3H3
INCHIAUX=N/A
PUBMED=N/A
SUBMITUSER=mwang87
LIBRARYQUALITY=3
SPECTRUMID=CCMSLIB00005730528
USI=mzspec:GNPS:MASSBANK:accession:CCMSLIB00005730528
SCANS=4977
57.069698	2479193.0
74.096397	4409130.0
86.0961	3213926.0
128.143005	2871676.75
130.158997	35504712.0
186.221497	1554141824.0
END IONS

BEGIN IONS
PEPMASS=228.879
CHARGE=1
MSLEVEL=2
SOURCE_INSTRUMENT=ESI-Hybrid FT
FILENAME=massbank-gnps.mgf
SEQ=*..*
IONMODE=Negative
ORGANISM=MASSBANK
NAME=Massbank:EQ357555 2,3,4,6-Tetrachlorophenol|1-Hydroxy-2,3,4, 6-tetrachlorobenzene M-H
PI=Massbank
DATACOLLECTOR=Massbank
SMILES=C1=C(C(=C(C(=C1Cl)Cl)Cl)O)Cl
INCHI=1S/C6H2Cl4O/c7-2-1-3(8)6(11)5(10)4(2)9/h1,11H
INCHIAUX=N/A
PUBMED=N/A
SUBMITUSER=mwang87
LIBRARYQUALITY=3
SPECTRUMID=CCMSLIB00005730538
USI=mzspec:GNPS:MASSBANK:accession:CCMSLIB00005730538
SCANS=4987
164.907104	4645.299805
192.9021	30586.5
228.878906	97315.796875
END IONS

BEGIN IONS
PEPMASS=286.003
CHARGE=1
MSLEVEL=2
SOURCE_INSTRUMENT=ESI-Hybrid FT
FILENAME=massbank-gnps.mgf
SEQ=*..*
IONMODE=Positive
ORGANISM=MASSBANK
NAME=Massbank:EQ311903 Vinclozolin|3-(3,5-dichlorophenyl)-5-ethenyl-5-methyl-1,3-oxazolidine-2,4-dione M+H
PI=Massbank
DATACOLLECTOR=Massbank
SMILES=O=C2OC(C(=O)N2c1cc(Cl)cc(Cl)c1)(\C=C)C
INCHI=1S/C12H9Cl2NO3/c1-3-12(2)10(16)15(11(17)18-12)9-5-7(13)4-8(14)6-9/h3-6H,1H2,2H3
INCHIAUX=N/A
PUBMED=N/A
SUBMITUSER=mwang87
LIBRARYQUALITY=3
SPECTRUMID=CCMSLIB00005730609
USI=mzspec:GNPS:MASSBANK:accession:CCMSLIB00005730609
SCANS=5058
53.038799	1870.199951
61.0284	8501.799805
62.999699	9045.599609
64.002998	2867.199951
67.054199	1567.400024
71.049103	3401.100098
81.033501	13614.599609
81.069901	2493.899902
83.049103	2331.199951
93.069801	5389.299805
97.064697	2655.600098
98.9841	15053.0
99.043999	2371.5
104.049202	1707.099976
105.069801	1579.300049
115.053802	10806.700195
139.018295	2523.899902
140.049393	1820.900024
141.057098	3015.399902
142.065201	11936.900391
143.072906	76168.296875
144.080704	247460.09375
149.015198	7106.0
150.022797	1503.699951
151.018295	35652.601562
151.031204	10378.900391
158.975906	2131.300049
160.0755	1979.900024
162.022995	16738.5
164.026001	375961.5
165.033798	20487.099609
169.052307	15906.200195
170.059998	22206.5
171.067703	2115.800049
171.971603	3013.600098
172.075699	2946.0
173.987106	1364584.5
174.970993	9443.5
176.026001	32581.300781
177.033905	75397.0
178.041702	339847.09375
179.0495	577245.5
184.979599	13028.900391
184.991806	35553.0
185.987198	29150.699219
187.018494	2752.800049
188.070496	179772.09375
189.0336	3200.800049
190.004807	1541.699951
191.013199	7547.299805
194.036606	17004.099609
195.971497	6193.899902
196.991898	19626.400391
197.987106	65702.0
198.994797	19006.900391
199.966202	50255.898438
200.002899	12502.0
204.021103	106004.796875
205.028793	64431.898438
206.036606	23041.400391
207.044495	70796.0
208.016006	3870.100098
209.024002	2663.899902
212.002808	502746.5
212.986694	5447.100098
214.018402	200334.09375
215.9617	2401.600098
216.065598	1824.199951
217.977005	1218633.125
221.987106	98276.101562
222.031601	16649.900391
223.039307	226791.0
224.002594	55822.199219
225.982407	10038.200195
226.989899	5071.100098
229.977707	3758.399902
231.956299	3304.399902
232.016907	1767.099976
233.022995	9905.599609
239.997604	151291.296875
242.013	34695.199219
243.992798	10454.900391
251.034607	17532.400391
258.008392	7925.899902
267.992706	25905.400391
286.003204	24876.300781
END IONS

BEGIN IONS
PEPMASS=384.142
CHARGE=1
MSLEVEL=2
SOURCE_INSTRUMENT=ESI-Hybrid FT
FILENAME=massbank-gnps.mgf
SEQ=*..*
IONMODE=Positive
ORGANISM=MASSBANK
NAME=Massbank:EQ309301 Fluazifop-butyl|2-[4-[[5-(trifluoromethyl)-2-pyridinyl]oxy]phenoxy]propanoic acid butyl ester M+H
PI=Massbank
DATACOLLECTOR=Massbank
SMILES=O=C(OCCCC)C(Oc2ccc(Oc1ncc(cc1)C(F)(F)F)cc2)C
INCHI=1S/C19H20F3NO4/c1-3-4-11-25-18(24)13(2)26-15-6-8-16(9-7-15)27-17-10-5-14(12-23-17)19(20,21)22/h5-10,12-13H,3-4,11H2,1-2H3
INCHIAUX=N/A
PUBMED=N/A
SUBMITUSER=mwang87
LIBRARYQUALITY=3
SPECTRUMID=CCMSLIB00005730767
USI=mzspec:GNPS:MASSBANK:accession:CCMSLIB00005730767
SCANS=5216
91.054298	917470.1875
254.079803	698362.875
255.050598	961557.125
256.058807	583110.875
282.074188	121082960.0
310.069	1581495.25
328.07959	151363600.0
384.142303	563131840.0
END IONS

BEGIN IONS
PEPMASS=292.04
CHARGE=1
MSLEVEL=2
SOURCE_INSTRUMENT=ESI-Hybrid FT
FILENAME=massbank-gnps.mgf
SEQ=*..*
IONMODE=Positive
ORGANISM=MASSBANK
NAME=Massbank:EQ311504 Parathion|diethoxy-(4-nitrophenoxy)-sulfanylidene-$l^{5}-phosphane M+H
PI=Massbank
DATACOLLECTOR=Massbank
SMILES=S=P(Oc1ccc(cc1)[N+]([O-])=O)(OCC)OCC
INCHI=1S/C10H14NO5PS/c1-3-14-17(18,15-4-2)16-10-7-5-9(6-8-10)11(12)13/h5-8H,3-4H2,1-2H3
INCHIAUX=N/A
PUBMED=N/A
SUBMITUSER=mwang87
LIBRARYQUALITY=3
SPECTRUMID=CCMSLIB00005730802
USI=mzspec:GNPS:MASSBANK:accession:CCMSLIB00005730802
SCANS=5251
64.9786	76345.703125
65.038498	107277.296875
66.046303	68848.398438
75.022797	53315.5
76.030403	7620.100098
78.033798	46425.898438
79.017601	6416.600098
79.054298	6671.799805
80.0495	9401.299805
80.973396	6399.399902
82.041199	8100.0
84.0028	12179.099609
92.025597	54630.300781
92.0494	65926.703125
93.033203	26774.099609
94.041199	5600376.0
96.002701	14593.099609
96.9505	49597.601562
97.010597	42360.699219
98.005699	15421.099609
98.018501	29369.300781
98.984001	183228.5
105.069901	31275.900391
107.049301	14271.599609
108.0028	15348.700195
108.044403	14269.299805
109.010399	90436.0
109.028397	36090.601562
110.018303	3341932.0
111.0439	87599.601562
114.961197	4126689.25
120.0569	11766.799805
121.039497	109802.796875
122.023499	11752.099609
123.031303	3774726.5
123.997597	77846.398438
125.005402	353231.6875
126.013199	234803.796875
127.021103	40134.5
128.001999	10374.700195
132.971695	60362.5
137.016602	14652.400391
138.000793	105665.296875
139.008499	398485.40625
140.033997	2970638.25
150.029602	126628.601562
153.995605	185045.0
154.971298	63193.800781
155.997498	73397.796875
156.0112	1253410.5
170.966202	19478.5
171.973999	954703.3125
174.007507	1033320.875
184.987503	31602.800781
187.968994	69695.5
188.976898	174008.90625
189.984604	1735156.875
198.972397	13072.900391
204.971893	81574.0
205.979706	169669.703125
216.983307	43893.898438
217.966995	65243.0
218.974792	446202.8125
220.000397	284311.90625
221.974594	51863.0
235.977493	2458020.0
253.9879	159495.375
END IONS

BEGIN IONS
PEPMASS=273.851
CHARGE=1
MSLEVEL=2
SOURCE_INSTRUMENT=ESI-Hybrid FT
FILENAME=massbank-gnps.mgf
SEQ=*..*
IONMODE=Negative
ORGANISM=MASSBANK
NAME=Massbank:EA002463 Bromoxynil|3,5-bis(bromanyl)-4-oxidanyl-benzenecarbonitrile M-H
PI=Massbank
DATACOLLECTOR=Massbank
SMILES=c1(cc(c(O)c(c1)Br)Br)C#N
INCHI=1S/C7H3Br2NO/c8-5-1-4(3-10)2-6(9)7(5)11/h1-2,11H
INCHIAUX=N/A
PUBMED=N/A
SUBMITUSER=mwang87
LIBRARYQUALITY=3
SPECTRUMID=CCMSLIB00005730947
USI=mzspec:GNPS:MASSBANK:accession:CCMSLIB00005730947
SCANS=5396
78.9188	246973.40625
END IONS

BEGIN IONS
PEPMASS=197.02
CHARGE=1
MSLEVEL=2
SOURCE_INSTRUMENT=ESI-Hybrid FT
FILENAME=massbank-gnps.mgf
SEQ=*..*
IONMODE=Negative
ORGANISM=MASSBANK
NAME=Massbank:EQ312052 4,6-dinitro-o-cresol|DNOC|2-methyl-4,6-dinitro-phenol M-H
PI=Massbank
DATACOLLECTOR=Massbank
SMILES=[O-][N+](=O)c1cc([N+]([O-])=O)cc(c1O)C
INCHI=1S/C7H6N2O5/c1-4-2-5(8(11)12)3-6(7(4)10)9(13)14/h2-3,10H,1H3
INCHIAUX=N/A
PUBMED=N/A
SUBMITUSER=mwang87
LIBRARYQUALITY=3
SPECTRUMID=CCMSLIB00005731419
USI=mzspec:GNPS:MASSBANK:accession:CCMSLIB00005731419
SCANS=5868
64.019402	165967.703125
65.039703	173637.09375
93.0345	210966.09375
109.029602	1620558.375
123.0327	413233.6875
137.024399	6591489.5
138.019608	249411.5
150.019699	364365.0
151.027496	721835.8125
166.014404	192854.09375
167.0224	6434524.5
180.0177	5413243.5
197.020599	79219808.0
END IONS

BEGIN IONS
PEPMASS=103.087
CHARGE=1
MSLEVEL=2
SOURCE_INSTRUMENT=ESI-Hybrid FT
FILENAME=massbank-gnps.mgf
SEQ=*..*
IONMODE=Positive
ORGANISM=MASSBANK
NAME=Massbank:EQ345204 N-Nitrosodiethylamine (NDEA)|N,N-diethylnitrous amide M+H
PI=Massbank
DATACOLLECTOR=Massbank
SMILES=O=NN(CC)CC
INCHI=1S/C4H10N2O/c1-3-6(4-2)5-7/h3-4H2,1-2H3
INCHIAUX=N/A
PUBMED=N/A
SUBMITUSER=mwang87
LIBRARYQUALITY=3
SPECTRUMID=CCMSLIB00005731464
USI=mzspec:GNPS:MASSBANK:accession:CCMSLIB00005731464
SCANS=5913
57.0448	60238.101562
75.055298	5178712.0
103.086601	4760099.0
END IONS

BEGIN IONS
PEPMASS=157.21
CHARGE=1
MSLEVEL=2
SOURCE_INSTRUMENT=ESI-QQQ
FILENAME=massbank-gnps.mgf
SEQ=*..*
IONMODE=Positive
ORGANISM=MASSBANK
NAME=Massbank:PS088801 gamma-Nonalactone|4-Hydroxynonanoic acid lactone|Apricolin|gamma-Nonanoic lactone|Coconut aldehyde|gamma-Nonyl lactone|Dihydro-5-pentyl-2(3H)-furanone|Aldehyde C-18|gamma-Nonyllactone|5-pentyloxolan-2 M+H
PI=Massbank
DATACOLLECTOR=Massbank
SMILES=CCCCCC1CCC(=O)O1
INCHI=1S/C9H16O2/c1-2-3-4-5-8-6-7-9(10)11-8/h8H,2-7H2,1H3
INCHIAUX=N/A
PUBMED=N/A
SUBMITUSER=mwang87
LIBRARYQUALITY=3
SPECTRUMID=CCMSLIB00005755765
USI=mzspec:GNPS:MASSBANK:accession:CCMSLIB00005755765
SCANS=30214
80.0	2338.0
81.0	2037.0
97.0	4204.0
111.0	2002.0
121.0	5857.0
138.0	5174.0
139.0	55030.0
156.0	3134.0
157.0	39649.0
END IONS

BEGIN IONS
PEPMASS=91.0
CHARGE=1
MSLEVEL=2
SOURCE_INSTRUMENT=ESI-QQQ
FILENAME=massbank-gnps.mgf
SEQ=*..*
IONMODE=Negative
ORGANISM=MASSBANK
NAME=Massbank:PS035407 Thioglycolic acid solution|Mercaptoacetic acid|Mercaptoethanoic acid|Thioglycolate|Thiovanic acid|TGA|Mercaptoacetate M+H
PI=Massbank
DATACOLLECTOR=Massbank
SMILES=C(C(=O)O)S
INCHI=1S/C2H4O2S/c3-2(4)1-5/h5H,1H2,(H,3,4)
INCHIAUX=N/A
PUBMED=N/A
SUBMITUSER=mwang87
LIBRARYQUALITY=3
SPECTRUMID=CCMSLIB00005757365
USI=mzspec:GNPS:MASSBANK:accession:CCMSLIB00005757365
SCANS=31814
44.0	76193.0
45.0	342107.0
90.0	22400.0
91.0	58359.0
END IONS

BEGIN IONS
PEPMASS=109.1
CHARGE=1
MSLEVEL=2
SOURCE_INSTRUMENT=ESI-QQQ
FILENAME=massbank-gnps.mgf
SEQ=*..*
IONMODE=Positive
ORGANISM=MASSBANK
NAME=Massbank:PS032001 Phenyldiazane|Phenylhydrazine|Hydrazinobenzene M+H
PI=Massbank
DATACOLLECTOR=Massbank
SMILES=C1=CC=C(C=C1)NN
INCHI=1S/C6H8N2/c7-8-6-4-2-1-3-5-6/h1-5,8H,7H2
INCHIAUX=N/A
PUBMED=N/A
SUBMITUSER=mwang87
LIBRARYQUALITY=3
SPECTRUMID=CCMSLIB00005758195
USI=mzspec:GNPS:MASSBANK:accession:CCMSLIB00005758195
SCANS=32644
88.0	125484.0
END IONS

BEGIN IONS
PEPMASS=180.126
CHARGE=1
MSLEVEL=2
SOURCE_INSTRUMENT=ESI-Hybrid FT
FILENAME=massbank-gnps.mgf
SEQ=*..*
IONMODE=Positive
ORGANISM=MASSBANK
NAME=Massbank:LU034505 Hexamethylphosphoramide|N-[bis(dimethylamino)phosphoryl]-N-methylmethanamine M+H
PI=Massbank
DATACOLLECTOR=Massbank
SMILES=CN(C)P(=O)(N(C)C)N(C)C
INCHI=1S/C6H18N3OP/c1-7(2)11(10,8(3)4)9(5)6/h1-6H3
INCHIAUX=N/A
PUBMED=N/A
SUBMITUSER=mwang87
LIBRARYQUALITY=3
SPECTRUMID=CCMSLIB00005759931
USI=mzspec:GNPS:MASSBANK:accession:CCMSLIB00005759931
SCANS=34380
58.065201	16942.099609
59.999802	86031.0
73.075996	180827.59375
75.994698	45434.398438
88.099503	114134.601562
90.0103	50952.0
91.018204	131500.5
92.026001	1635247.375
93.033798	10903.599609
106.041702	116881.296875
111.044197	10213.700195
124.052299	18079.900391
135.068207	9898871.0
END IONS

BEGIN IONS
PEPMASS=143.05
CHARGE=1
MSLEVEL=2
SOURCE_INSTRUMENT=ESI-Hybrid FT
FILENAME=massbank-gnps.mgf
SEQ=*..*
IONMODE=Negative
ORGANISM=MASSBANK
NAME=Massbank:LU113651 1-Naphthol|naphthalen-1-ol M-H
PI=Massbank
DATACOLLECTOR=Massbank
SMILES=OC1=CC=CC2=CC=CC=C12
INCHI=1S/C10H8O/c11-10-7-3-5-8-4-1-2-6-9(8)10/h1-7,11H
INCHIAUX=N/A
PUBMED=N/A
SUBMITUSER=mwang87
LIBRARYQUALITY=3
SPECTRUMID=CCMSLIB00005760032
USI=mzspec:GNPS:MASSBANK:accession:CCMSLIB00005760032
SCANS=34481
115.055298	38660.101562
143.050201	882860.125
END IONS

BEGIN IONS
PEPMASS=323.988
CHARGE=1
MSLEVEL=2
SOURCE_INSTRUMENT=ESI-Hybrid FT
FILENAME=massbank-gnps.mgf
SEQ=*..*
IONMODE=Positive
ORGANISM=MASSBANK
NAME=Massbank:LU020306 Benodanil|2-iodo-N-phenylbenzamide M+H
PI=Massbank
DATACOLLECTOR=Massbank
SMILES=IC1=C(C=CC=C1)C(=O)NC1=CC=CC=C1
INCHI=1S/C13H10INO/c14-12-9-5-4-8-11(12)13(16)15-10-6-2-1-3-7-10/h1-9H,(H,15,16)
INCHIAUX=N/A
PUBMED=N/A
SUBMITUSER=mwang87
LIBRARYQUALITY=3
SPECTRUMID=CCMSLIB00005760051
USI=mzspec:GNPS:MASSBANK:accession:CCMSLIB00005760051
SCANS=34500
50.014999	15517.400391
51.022999	10988.400391
52.0308	78395.5
53.002201	37101.101562
53.038601	210733.796875
54.046398	63063.300781
55.017899	157950.40625
63.0228	18084.400391
64.030701	86180.101562
65.002098	15975.200195
65.038498	34948.398438
66.046402	444479.5
75.022903	21678.800781
76.030701	2663811.0
77.038498	36018.0
78.046402	51343.898438
79.017899	128744.601562
79.054298	22547.5
80.025703	24342.599609
80.0495	3128.199951
81.033501	956972.5
91.017899	78706.0
91.0541	5565.600098
92.025703	88394.601562
92.0494	42944.199219
93.033501	5000.600098
94.041298	3006729.5
95.049103	262025.0
96.045403	3413.5
104.025597	64304.5
105.033501	167863.5
108.0569	67277.0
178.065506	7307.399902
178.935303	8365.599609
196.076004	12230.099609
202.935303	40892.601562
219.937805	14063.5
220.945801	336530.5
230.930206	374433.0
231.938507	4821.100098
END IONS

BEGIN IONS
PEPMASS=151.04
CHARGE=1
MSLEVEL=2
SOURCE_INSTRUMENT=ESI-Hybrid FT
FILENAME=massbank-gnps.mgf
SEQ=*..*
IONMODE=Negative
ORGANISM=MASSBANK
NAME=Massbank:LU110655 Methylparaben|methyl 4-hydroxybenzoate M-H
PI=Massbank
DATACOLLECTOR=Massbank
SMILES=COC(=O)C1=CC=C(O)C=C1
INCHI=1S/C8H8O3/c1-11-8(10)6-2-4-7(9)5-3-6/h2-5,9H,1H3
INCHIAUX=N/A
PUBMED=N/A
SUBMITUSER=mwang87
LIBRARYQUALITY=3
SPECTRUMID=CCMSLIB00005760207
USI=mzspec:GNPS:MASSBANK:accession:CCMSLIB00005760207
SCANS=34656
53.0033	7582.100098
65.003304	3834.199951
67.018898	13926.700195
68.998199	38213.199219
69.034599	34737.5
70.005997	13759.799805
71.013901	23470.5
72.993202	17993.0
78.0112	4506.299805
79.018898	13882.200195
79.990402	17131.900391
80.998299	10015.5
82.006104	112220.203125
91.018997	269825.6875
92.026802	581529.375
93.034698	20911.400391
95.013901	1394253.0
97.029602	23463.599609
98.0009	7320.799805
106.006104	73422.703125
107.013901	9670.200195
107.050102	12694.5
108.021698	1353031.5
109.029198	5378.600098
119.013802	26658.900391
121.029503	72338.203125
123.008797	167184.203125
125.0243	5134.899902
136.016602	443734.6875
151.0401	120330.296875
END IONS

BEGIN IONS
PEPMASS=250.145
CHARGE=1
MSLEVEL=2
SOURCE_INSTRUMENT=ESI-Hybrid FT
FILENAME=massbank-gnps.mgf
SEQ=*..*
IONMODE=Negative
ORGANISM=MASSBANK
NAME=Massbank:LU029955 2,6-Di-tert-butyl-4-nitrophenol|2,6-ditert-butyl-4-nitrophenol M-H
PI=Massbank
DATACOLLECTOR=Massbank
SMILES=CC(C)(C)C1=CC(=CC(=C1O)C(C)(C)C)[N+]([O-])=O
INCHI=1S/C14H21NO3/c1-13(2,3)10-7-9(15(17)18)8-11(12(10)16)14(4,5)6/h7-8,16H,1-6H3
INCHIAUX=N/A
PUBMED=N/A
SUBMITUSER=mwang87
LIBRARYQUALITY=3
SPECTRUMID=CCMSLIB00005760383
USI=mzspec:GNPS:MASSBANK:accession:CCMSLIB00005760383
SCANS=34832
147.045105	40371.699219
148.052994	980552.375
149.061096	25793.800781
150.056	21229.0
161.133499	17842.5
163.039993	36542.5
164.071701	28398.400391
164.084305	32653.0
173.097504	17533.199219
177.128296	90271.703125
178.050995	22042.699219
189.091705	25391.0
189.128403	80636.5
190.099899	46311.300781
191.107697	88493.5
194.082108	18146.699219
204.115402	104413.601562
205.123398	1081884.0
218.082504	31956.0
220.0979	887775.0
220.146805	275491.40625
232.135605	19842.400391
234.113602	5260291.0
235.121307	49897.0
250.144897	4091426.25
END IONS

BEGIN IONS
PEPMASS=152.012
CHARGE=1
MSLEVEL=2
SOURCE_INSTRUMENT=ESI-Hybrid FT
FILENAME=massbank-gnps.mgf
SEQ=*..*
IONMODE=Negative
ORGANISM=MASSBANK
NAME=Massbank:LU072354 Fosamine|carbamoyl(ethoxy)phosphinic acid M-H
PI=Massbank
DATACOLLECTOR=Massbank
SMILES=CCOP(O)(=O)C(N)=O
INCHI=1S/C3H8NO4P/c1-2-8-9(6,7)3(4)5/h2H2,1H3,(H2,4,5)(H,6,7)
INCHIAUX=N/A
PUBMED=N/A
SUBMITUSER=mwang87
LIBRARYQUALITY=3
SPECTRUMID=CCMSLIB00005760467
USI=mzspec:GNPS:MASSBANK:accession:CCMSLIB00005760467
SCANS=34916
62.9641	1257200.0
78.959	13861.5
80.974701	151538.0
109.005997	33681.5
END IONS

BEGIN IONS
PEPMASS=369.07
CHARGE=1
MSLEVEL=2
SOURCE_INSTRUMENT=ESI-Hybrid FT
FILENAME=massbank-gnps.mgf
SEQ=*..*
IONMODE=Negative
ORGANISM=MASSBANK
NAME=Massbank:LU125552 Thiophanate|N'-ethoxycarbonyl-N-[2-[(N-ethoxycarbonyl-C-sulfanylcarbonimidoyl)amino]phenyl]carbamimidothioic acid M-H
PI=Massbank
DATACOLLECTOR=Massbank
SMILES=CCOC(=O)NC(=S)NC1=C(NC(=S)NC(=O)OCC)C=CC=C1
INCHI=1S/C14H18N4O4S2/c1-3-21-13(19)17-11(23)15-9-7-5-6-8-10(9)16-12(24)18-14(20)22-4-2/h5-8H,3-4H2,1-2H3,(H2,15,17,19,23)(H2,16,18,20,24)
INCHIAUX=N/A
PUBMED=N/A
SUBMITUSER=mwang87
LIBRARYQUALITY=3
SPECTRUMID=CCMSLIB00005760647
USI=mzspec:GNPS:MASSBANK:accession:CCMSLIB00005760647
SCANS=35096
132.056793	40104.800781
149.017899	285444.5
158.035995	106973.703125
174.013199	5598.899902
204.077896	63833.5
END IONS

BEGIN IONS
PEPMASS=334.135
CHARGE=1
MSLEVEL=2
SOURCE_INSTRUMENT=ESI-Hybrid FT
FILENAME=massbank-gnps.mgf
SEQ=*..*
IONMODE=Positive
ORGANISM=MASSBANK
NAME=Massbank:LU062303 Pirimiphos-ethyl M+H
PI=Massbank
DATACOLLECTOR=Massbank
SMILES=CCOP(=S)(OCC)OC1=CC(C)=NC(=N1)N(CC)CC
INCHI=1S/C13H24N3O3PS/c1-6-16(7-2)13-14-11(5)10-12(15-13)19-20(21,17-8-3)18-9-4/h10H,6-9H2,1-5H3
INCHIAUX=N/A
PUBMED=N/A
SUBMITUSER=mwang87
LIBRARYQUALITY=3
SPECTRUMID=CCMSLIB00005760987
USI=mzspec:GNPS:MASSBANK:accession:CCMSLIB00005760987
SCANS=35436
67.028999	191233.40625
71.060303	48598.800781
84.044296	259763.0
88.0215	53877.398438
95.060303	364926.3125
96.950798	343441.90625
98.096298	93560.203125
99.091599	1162951.25
100.0215	258890.0
108.055496	1014428.625
109.004898	339717.1875
109.039597	59374.300781
109.075996	98337.5
114.961304	2636466.75
116.052696	295004.5
123.091499	58218.601562
124.982101	100771.703125
126.0662	65222.5
127.032402	50031.800781
128.976898	106619.0
136.086899	497785.59375
137.070694	89477.5
139.122894	281912.40625
142.043304	360505.59375
153.048004	136484.59375
154.097397	1732720.625
157.079407	942413.8125
164.118195	1862040.875
168.058701	56357.0
170.0746	6789176.5
180.1129	51953.601562
182.128799	13532756.0
196.0905	337383.5
198.105804	44904380.0
210.160202	88975.898438
226.1371	71998.101562
260.061615	498658.8125
278.072296	193230.0
306.103485	109687.398438
334.13501	81497.203125
END IONS

BEGIN IONS
PEPMASS=194.918
CHARGE=1
MSLEVEL=2
SOURCE_INSTRUMENT=ESI-Hybrid FT
FILENAME=massbank-gnps.mgf
SEQ=*..*
IONMODE=Negative
ORGANISM=MASSBANK
NAME=Massbank:LU067752 2,4,5-Trichlorophenol M-H
PI=Massbank
DATACOLLECTOR=Massbank
SMILES=OC1=C(Cl)C=C(Cl)C(Cl)=C1
INCHI=1S/C6H3Cl3O/c7-3-1-5(9)6(10)2-4(3)8/h1-2,10H
INCHIAUX=N/A
PUBMED=N/A
SUBMITUSER=mwang87
LIBRARYQUALITY=3
SPECTRUMID=CCMSLIB00005761073
USI=mzspec:GNPS:MASSBANK:accession:CCMSLIB00005761073
SCANS=35522
158.940994	287827.1875
194.917694	1127774.75
END IONS

BEGIN IONS
PEPMASS=194.918
CHARGE=1
MSLEVEL=2
SOURCE_INSTRUMENT=ESI-Hybrid FT
FILENAME=massbank-gnps.mgf
SEQ=*..*
IONMODE=Negative
ORGANISM=MASSBANK
NAME=Massbank:LU099552 2,4,6-Trichlorophenol M-H
PI=Massbank
DATACOLLECTOR=Massbank
SMILES=OC1=C(Cl)C=C(Cl)C=C1Cl
INCHI=1S/C6H3Cl3O/c7-3-1-4(8)6(10)5(9)2-3/h1-2,10H
INCHIAUX=N/A
PUBMED=N/A
SUBMITUSER=mwang87
LIBRARYQUALITY=3
SPECTRUMID=CCMSLIB00005761096
USI=mzspec:GNPS:MASSBANK:accession:CCMSLIB00005761096
SCANS=35545
158.940994	2048096.875
194.917603	7977096.5
END IONS

BEGIN IONS
PEPMASS=403.305
CHARGE=1
MSLEVEL=2
SOURCE_INSTRUMENT=ESI-Hybrid FT
FILENAME=massbank-gnps.mgf
SEQ=*..*
IONMODE=Positive
ORGANISM=MASSBANK
NAME=Massbank:LU084705 Triethylene glycol bis(2-ethylhexanoate)|2-[2-[2-(2-ethylhexanoyloxy)ethoxy]ethoxy]ethyl 2-ethylhexanoate M+H
PI=Massbank
DATACOLLECTOR=Massbank
SMILES=CCCCC(CC)C(=O)OCCOCCOCCOC(=O)C(CC)CCCC
INCHI=1S/C22H42O6/c1-5-9-11-19(7-3)21(23)27-17-15-25-13-14-26-16-18-28-22(24)20(8-4)12-10-6-2/h19-20H,5-18H2,1-4H3
INCHIAUX=N/A
PUBMED=N/A
SUBMITUSER=mwang87
LIBRARYQUALITY=3
SPECTRUMID=CCMSLIB00005762011
USI=mzspec:GNPS:MASSBANK:accession:CCMSLIB00005762011
SCANS=36460
53.002399	2869.600098
57.07	225610.296875
73.028397	73321.898438
99.044197	4425.299805
101.0597	17292.900391
129.091003	4612.399902
171.138107	15985.299805
END IONS

BEGIN IONS
PEPMASS=216.114
CHARGE=1
MSLEVEL=2
SOURCE_INSTRUMENT=ESI-qTof
FILENAME=massbank-gnps.mgf
SEQ=*..*
IONMODE=Positive
ORGANISM=MASSBANK
NAME=Massbank:AU242304 Quaternium-15 (free base)|Chloroallyl methenamine|1-[(Z)-3-chloroprop-2-enyl]-3,5,7-triaza-1-azoniatricyclo[3.3.1.1^{3,7}]decane M+H
PI=Massbank
DATACOLLECTOR=Massbank
SMILES=Cl\C=C/C[N+]12CN3CN(CN(C3)C1)C2
INCHI=1S/C9H16ClN4/c10-2-1-3-14-7-11-4-12(8-14)6-13(5-11)9-14/h1-2H,3-9H2/q+1/b2-1-
INCHIAUX=N/A
PUBMED=N/A
SUBMITUSER=mwang87
LIBRARYQUALITY=3
SPECTRUMID=CCMSLIB00005772318
USI=mzspec:GNPS:MASSBANK:accession:CCMSLIB00005772318
SCANS=46767
199.082596	332.0
END IONS

BEGIN IONS
PEPMASS=264.009
CHARGE=1
MSLEVEL=2
SOURCE_INSTRUMENT=ESI-qTof
FILENAME=massbank-gnps.mgf
SEQ=*..*
IONMODE=Positive
ORGANISM=MASSBANK
NAME=Massbank:AU261605 Parathion-methyl|Methyl parathion|dimethoxy-(4-nitrophenoxy)-sulfanylidene-lambda5-phosphane M+H
PI=Massbank
DATACOLLECTOR=Massbank
SMILES=COP(=S)(OC)OC1=CC=C(C=C1)[N+]([O-])=O
INCHI=1S/C8H10NO5PS/c1-12-15(16,13-2)14-8-5-3-7(4-6-8)9(10)11/h3-6H,1-2H3
INCHIAUX=N/A
PUBMED=N/A
SUBMITUSER=mwang87
LIBRARYQUALITY=3
SPECTRUMID=CCMSLIB00005773621
USI=mzspec:GNPS:MASSBANK:accession:CCMSLIB00005773621
SCANS=48070
124.981598	432.0
153.960495	548.0
154.969101	1052.0
185.9534	308.0
END IONS

BEGIN IONS
PEPMASS=159.044
CHARGE=1
MSLEVEL=2
SOURCE_INSTRUMENT=ESI-APCI-ITFT
FILENAME=/home/mingxun/Data/data/Metabolomics/Libraries/MassBank/Massbank_EU/MBEU_exclusives_update03022016/concatonated_all.mgf
SEQ=*..*
IONMODE=Positive
ORGANISM=MASSBANKEU
NAME=MassbankEU:UA001803 1,4-naphthalene-dione|naphthalene-1,4-dione [M+H]+
PI=Massbank EU
DATACOLLECTOR=Massbank
SMILES=O=C\2c1c(cccc1)C(=O)/C=C/2
INCHI=1S/C10H6O2/c11-9-5-6-10(12)8-4-2-1-3-7(8)9/h1-6H
INCHIAUX=N/A
PUBMED=N/A
SUBMITUSER=mwang87
LIBRARYQUALITY=3
SPECTRUMID=CCMSLIB00000579136
USI=mzspec:GNPS:MASSBANKEU:accession:CCMSLIB00000579136
SCANS=690
159.0443	7960859.5
END IONS

BEGIN IONS
PEPMASS=69.0447
CHARGE=1
MSLEVEL=2
SOURCE_INSTRUMENT=ESI-LC-ESI-QFT
FILENAME=/home/mingxun/Data/Spectral_Libraries/MB_EU_Dec2016_newRecords/merged/massbankue.12.2016.mgf
SEQ=*..*
IONMODE=Positive
ORGANISM=MASSBANKEU
NAME=MassbankEU:SM809101 Imidazole|1H-imidazole [M+H]+
PI=Massbank EU
DATACOLLECTOR=Massbank
SMILES=N1C=CN=C1
INCHI=1S/C3H4N2/c1-2-5-3-4-1/h1-3H,(H,4,5)
INCHIAUX=N/A
PUBMED=N/A
SUBMITUSER=mwang87
LIBRARYQUALITY=3
SPECTRUMID=CCMSLIB00000841524
USI=mzspec:GNPS:MASSBANKEU:accession:CCMSLIB00000841524
SCANS=163
69.0448	14139765.0
END IONS

BEGIN IONS
PEPMASS=74.0964
CHARGE=1
MSLEVEL=2
SOURCE_INSTRUMENT=ESI-LC-ESI-QFT
FILENAME=/home/mingxun/Data/Spectral_Libraries/MB_EU_Dec2016_newRecords/merged/massbankue.12.2016.mgf
SEQ=*..*
IONMODE=Positive
ORGANISM=MASSBANKEU
NAME=MassbankEU:SM817603 Butylamine|Butan-1-amine [M+H]+
PI=Massbank EU
DATACOLLECTOR=Massbank
SMILES=CCCCN
INCHI=1S/C4H11N/c1-2-3-4-5/h2-5H2,1H3
INCHIAUX=N/A
PUBMED=N/A
SUBMITUSER=mwang87
LIBRARYQUALITY=3
SPECTRUMID=CCMSLIB00000841571
USI=mzspec:GNPS:MASSBANKEU:accession:CCMSLIB00000841571
SCANS=210
53.002399	101004.203125
53.9977	27326.599609
55.054401	20987.5
56.049599	17936.300781
57.07	7107015.0
74.096497	3088866.5
END IONS

BEGIN IONS
PEPMASS=72.0444
CHARGE=1
MSLEVEL=2
SOURCE_INSTRUMENT=ESI-Orbitrap
FILENAME=library_mgf.mgf
SEQ=*..*
IONMODE=positive
ORGANISM=MONA
NAME=ACRYLAMIDE M+H
PI=MoNA
DATACOLLECTOR=MoNA:MoNA038752
SMILES=C=CC(=N)O
INCHI="InChI=1S/C3H5NO/c1-2-3(4)5/h2H,1H2,(H2,4,5)"
INCHIAUX=N/A
PUBMED=N/A
SUBMITUSER=mpanitchpakdi
LIBRARYQUALITY=3
SPECTRUMID=CCMSLIB00006678429
USI=mzspec:GNPS:MONA:accession:CCMSLIB00006678429
SCANS=159
54.034081	2.5
55.018139	100.0
55.054581	1.4
56.021519	1.2
72.044571	29.700001
END IONS

BEGIN IONS
PEPMASS=77.0603
CHARGE=1
MSLEVEL=2
SOURCE_INSTRUMENT=Positive-Quattro_QQQ:25eV
FILENAME=hmdb_intermediate.mgf
SEQ=*..*
IONMODE=Positive
ORGANISM=HMDB
NAME=HMDB:HMDB01881-1781 Propylene glycol M+H
PI=HMDB
DATACOLLECTOR=HMDB
SMILES=CC(O)CO
INCHI=InChI=1S/C3H8O2/c1-3(5)2-4/h3-5H,2H2,1H3
INCHIAUX=N/A
PUBMED=N/A
SUBMITUSER=mwang87
LIBRARYQUALITY=3
SPECTRUMID=CCMSLIB00000425461
USI=mzspec:GNPS:HMDB:accession:CCMSLIB00000425461
SCANS=433
19.141	24.287
26.188	77.184
29.774	62.661
31.257	78.48
32.493	60.589
33.73	48.66
39.788	47.624
41.766	100.0
43.497	56.7
44.238	67.072
45.351	65.254
45.722	75.627
59.074	74.591
74.9	22.99
76.754	46.849
78.238	91.96
146.614	28.697
END IONS

BEGIN IONS
PEPMASS=99.0446
CHARGE=1
MSLEVEL=2
SOURCE_INSTRUMENT=Negative-Quattro_QQQ:25eV
FILENAME=hmdb_intermediate.mgf
SEQ=*..*
IONMODE=Negative
ORGANISM=HMDB
NAME=HMDB:HMDB00509-729 Senecioic acid M-H
PI=HMDB
DATACOLLECTOR=HMDB
SMILES=CC(C)=CC(O)=O
INCHI=InChI=1S/C5H8O2/c1-4(2)3-5(6)7/h3H,1-2H3,(H,6,7)
INCHIAUX=N/A
PUBMED=N/A
SUBMITUSER=mwang87
LIBRARYQUALITY=3
SPECTRUMID=CCMSLIB00000425622
USI=mzspec:GNPS:HMDB:accession:CCMSLIB00000425622
SCANS=594
41.651	9.33
55.501	99.286
81.355	10.446
97.505	11.429
99.352	100.0
END IONS

BEGIN IONS
PEPMASS=87.081
CHARGE=1
MSLEVEL=2
SOURCE_INSTRUMENT=Positive-Quattro_QQQ:25eV
FILENAME=hmdb_intermediate.mgf
SEQ=*..*
IONMODE=Positive
ORGANISM=HMDB
NAME=HMDB:HMDB06478-2485 Iso-Valeraldehyde M+H
PI=HMDB
DATACOLLECTOR=HMDB
SMILES=CC(C)CC=O
INCHI=InChI=1S/C5H10O/c1-5(2)3-4-6/h4-5H,3H2,1-2H3
INCHIAUX=N/A
PUBMED=N/A
SUBMITUSER=mwang87
LIBRARYQUALITY=3
SPECTRUMID=CCMSLIB00000425880
USI=mzspec:GNPS:HMDB:accession:CCMSLIB00000425880
SCANS=852
86.39	88.657
86.91	100.0
END IONS

BEGIN IONS
PEPMASS=56.9673
CHARGE=1
MSLEVEL=2
SOURCE_INSTRUMENT=Negative-Quattro_QQQ:25eV
FILENAME=hmdb_intermediate.mgf
SEQ=*..*
IONMODE=Negative
ORGANISM=HMDB
NAME=HMDB:HMDB01453-1584 Thiocyanate M-H
PI=HMDB
DATACOLLECTOR=HMDB
SMILES=[S-]C#N
INCHI=InChI=1S/CHNS/c2-1-3/h3H/p-1
INCHIAUX=N/A
PUBMED=N/A
SUBMITUSER=mwang87
LIBRARYQUALITY=3
SPECTRUMID=CCMSLIB00000426011
USI=mzspec:GNPS:HMDB:accession:CCMSLIB00000426011
SCANS=983
26.0	47.503
55.0	13.692
56.0	18.086
57.0	100.0
58.0	68.665
END IONS
