BEGIN IONS
PEPMASS=276.164
CHARGE=1
MSLEVEL=2
SOURCE_INSTRUMENT=DI-ESI-qTof
FILENAME=f.rsilva/q_tof_25_05/gnps_Physostigmine_pos_MplusH.mgf;
SEQ=*..*
IONMODE=Positive
ORGANISM=GNPS-LIBRARY
NAME=Physostigmine M+H
PI=Norberto Lopes
DATACOLLECTOR=M??nica Pupo
SMILES=CN1C2=CC=C(OC(NC)=O)C=C2C3(C)C1N(C)CC3
INCHI=InChI=1S/C15H21N3O2/c1-15-7-8-17(3)13(15)18(4)12-6-5-10(9-11(12)15)20-14(19)16-2/h5-6,9,13H,7-8H2,1-4H3,(H,16,19)
INCHIAUX= 
PUBMED= 
SUBMITUSER=rsilva
LIBRARYQUALITY=3
SPECTRUMID=CCMSLIB00000081265
USI=mzspec:GNPS:GNPS-LIBRARY:accession:CCMSLIB00000081265
SCANS=1
147.060684	18510.0
162.086853	1133563.0
163.088913	84119.0
176.100327	301301.0
177.10466	19677.0
188.102295	81625.0
189.104797	6523.0
219.107895	820175.0
220.109207	65152.0
233.124207	160615.0
245.123215	52940.0
276.164001	7480.0
END IONS

BEGIN IONS
PEPMASS=325.19
CHARGE=1
MSLEVEL=2
SOURCE_INSTRUMENT=DI-ESI-qTof
FILENAME=f.10mauriz/19_br_pos_25eV.mgf;
SEQ=*..*
IONMODE=Positive
ORGANISM=GNPS-LIBRARY
NAME=Quinidine M+H
PI=Norberto Lopes
DATACOLLECTOR=Lucas Marques
SMILES=COC1=CC=C(N=CC=C2[C@@](O)([H])C3N4CC(C=C)C(CC4)C3)C2=C1
INCHI=InChI=1S/C20H24N2O2/c1-3-13-12-22-9-7-14(13)10-19(22)20(23)16-6-8-21-18-5-4-15(24-2)11-17(16)18/h3-6,8,11,13-14,19-20,23H,1,7,9-10,12H2,2H3/t13?,14?,19?,20-/m0/s1
INCHIAUX= 
PUBMED= 
SUBMITUSER=10mauriz
LIBRARYQUALITY=3
SPECTRUMID=CCMSLIB00000424789
USI=mzspec:GNPS:GNPS-LIBRARY:accession:CCMSLIB00000424789
SCANS=1
160.073349	521.0
166.119553	226.0
172.074692	257.0
184.075607	610.0
186.091843	127.0
198.091644	148.0
199.09346	200.0
227.114899	114.0
239.114304	119.0
253.126221	312.0
264.139465	192.0
279.142059	172.0
307.179169	1028.0
325.190338	7498.0
326.191589	776.0
330.719849	103.0
331.214111	251.0
765.730042	411.0
END IONS

BEGIN IONS
PEPMASS=272.202
CHARGE=0
MSLEVEL=2
SOURCE_INSTRUMENT=LC-ESI-qTof
FILENAME=f.alan_jarmusch/GNPS_library_additions/Dextromethorphan.mzXML;
SEQ=*..*
IONMODE=Positive
ORGANISM=GNPS-LIBRARY
NAME=Dextromethorphan M+H
PI=Pieter Dorrestein
DATACOLLECTOR=alan jarmusch
SMILES=CN1CCC23CCCCC2C1CC4=C3C=C(C=C4)OC
INCHI=InChI=1S/C18H25NO/c1-19-10-9-18-8-4-3-5-15(18)17(19)11-13-6-7-14(20-2)12-16(13)18/h6-7,12,15,17H,3-5,8-11H2,1-2H3/t15-,17+,18+/m1/s1
INCHIAUX= 
PUBMED= 
SUBMITUSER=alan_jarmusch
LIBRARYQUALITY=3
SPECTRUMID=CCMSLIB00004679246
USI=mzspec:GNPS:GNPS-LIBRARY:accession:CCMSLIB00004679246
SCANS=1201
95.084061	22.0
102.045013	28.0
102.399208	17.0
103.116669	27.0
107.083504	25.0
108.734322	19.0
115.051682	270.0
116.835388	18.0
117.06871	82.0
119.044472	28.0
121.062149	1022.0
122.0672	131.0
123.04557	25.0
123.067535	27.0
127.050446	61.0
128.060898	265.0
129.060135	28.0
131.048645	67.0
131.082657	21.0
132.056152	160.0
133.097977	51.0
134.108673	34.0
135.078812	345.0
136.079117	35.0
136.114136	26.0
138.055008	18.0
138.128128	17.0
141.068008	153.0
141.540756	18.0
142.074936	27.0
142.616135	19.0
144.053329	213.0
145.062134	245.0
146.070389	77.0
146.937653	35.0
147.079117	5801.0
147.117477	26.0
147.714844	19.0
148.083038	593.0
148.234055	29.0
149.090363	19.0
149.8013	28.0
150.525528	17.0
150.578339	31.0
150.777863	19.0
150.935333	19.0
151.051682	28.0
153.068588	37.0
154.077515	27.0
155.059082	58.0
156.05748	100.0
156.091614	37.0
157.062561	107.0
157.099838	24.0
158.07196	350.0
159.079239	2378.0
160.082642	420.0
161.093307	282.0
162.098755	50.0
163.05751	43.0
164.125137	20.0
164.548492	25.0
165.068939	166.0
165.090668	62.0
166.046524	27.0
166.077148	96.0
167.086945	75.0
167.438736	19.0
168.053177	18.0
169.067581	72.0
169.097473	18.0
169.752533	22.0
170.069	195.0
170.102661	21.0
170.61705	16.0
170.7211	23.0
171.079697	9091.0
171.13205	24.0
172.05423	47.0
172.082916	1085.0
173.094772	3954.0
173.447678	18.0
173.508163	22.0
174.099442	575.0
174.515762	18.0
176.058075	21.0
177.861298	21.0
178.083511	21.0
179.083145	78.0
180.091324	40.0
180.286545	18.0
181.067276	77.0
181.100937	109.0
182.059097	26.0
182.107864	133.0
183.077499	111.0
183.124481	32.0
183.654022	19.0
184.086365	182.0
185.092758	431.0
185.220917	24.0
185.649551	20.0
186.101456	133.0
187.112305	253.0
188.113571	20.0
191.206711	16.0
195.116699	31.0
195.769089	25.0
196.287537	17.0
197.096985	139.0
198.103348	1968.0
198.149094	30.0
199.048157	17.0
199.109955	1408.0
200.118622	235.0
201.118027	21.0
201.581955	16.0
202.672745	26.0
202.89653	16.0
203.678909	24.0
206.07988	19.0
208.767365	20.0
209.10733	18.0
209.131577	50.0
210.114044	30.0
211.111496	143.0
211.971329	18.0
212.091263	23.0
212.117432	72.0
212.405396	17.0
212.759811	17.0
212.781754	16.0
212.965485	28.0
213.026093	18.0
213.127747	23022.0
213.199127	28.0
213.271149	16.0
213.327728	17.0
213.6371	34.0
213.709732	26.0
213.754364	16.0
213.997406	26.0
214.047623	33.0
214.087082	26.0
214.130325	3807.0
214.226562	45.0
214.274918	21.0
214.503372	24.0
214.537552	19.0
214.709656	30.0
214.811127	30.0
214.930344	45.0
214.957108	19.0
215.036057	32.0
215.143143	33358.0
215.241547	51.0
215.422714	18.0
215.450729	39.0
215.560822	37.0
215.640045	36.0
215.661835	27.0
215.735352	16.0
215.889465	27.0
215.911179	26.0
215.950256	20.0
216.107407	78.0
216.146805	4753.0
216.657043	24.0
216.902283	21.0
216.97612	20.0
217.067154	18.0
217.151093	351.0
217.510757	17.0
217.647812	30.0
217.797562	19.0
217.843628	20.0
218.288757	19.0
220.272324	36.0
224.714539	17.0
226.137817	27.0
227.218018	16.0
227.601959	27.0
228.321579	20.0
229.158615	149.0
230.171097	21.0
230.292282	16.0
230.75235	16.0
232.346039	20.0
233.281113	61.0
235.057999	32.0
238.016861	30.0
238.275436	35.0
239.032959	27.0
239.683929	22.0
239.988022	27.0
240.15274	17.0
240.684586	17.0
241.159454	1559.0
241.202316	30.0
241.449432	19.0
241.49469	33.0
241.939484	17.0
242.163361	324.0
243.161407	38.0
243.743835	32.0
244.159637	20.0
244.967987	21.0
245.781967	20.0
248.149109	16.0
248.387177	39.0
249.952881	25.0
250.769516	27.0
250.927521	34.0
251.159119	23.0
252.138611	22.0
252.21077	16.0
252.82756	32.0
254.661148	16.0
255.352753	19.0
255.707123	22.0
256.379395	21.0
256.663147	34.0
257.333771	19.0
257.546539	16.0
257.610016	35.0
258.137238	17.0
258.208893	20.0
258.457275	20.0
259.125214	28.0
260.182251	21.0
264.009003	29.0
265.184845	23.0
267.665649	37.0
267.698151	39.0
267.901978	22.0
268.212616	23.0
268.307312	20.0
268.470215	17.0
268.682373	24.0
268.709991	21.0
268.73407	23.0
269.25473	19.0
269.281464	41.0
269.395294	19.0
269.538757	29.0
269.643097	28.0
269.736389	41.0
269.893066	18.0
269.931213	22.0
270.126862	63.0
270.182495	75.0
270.252167	18.0
270.310486	46.0
270.369476	30.0
270.411469	30.0
270.433502	26.0
270.464813	38.0
270.517151	18.0
270.629822	18.0
270.680054	16.0
270.761261	29.0
270.797516	55.0
270.832275	35.0
270.866425	21.0
270.899536	49.0
270.970062	107.0
271.05426	84.0
271.1315	82.0
271.18573	53.0
271.215271	79.0
271.256927	77.0
271.302063	35.0
271.331726	46.0
271.354156	64.0
271.417816	57.0
271.474579	68.0
271.506744	42.0
271.546509	96.0
271.594452	55.0
271.640137	42.0
271.67865	84.0
271.716888	87.0
271.7547	55.0
271.80661	76.0
271.829407	53.0
271.895355	140.0
271.927856	152.0
272.00415	108.0
272.049957	252.0
272.088837	243.0
272.201721	449710.0
272.319977	46.0
272.354095	17.0
272.420532	3989.0
272.481232	1521.0
272.523926	47.0
272.55542	61.0
272.670563	3763.0
272.76004	56.0
272.784454	41.0
272.820526	90.0
272.86322	1851.0
272.923187	21.0
272.973389	45.0
273.018066	109.0
273.058777	270.0
273.101135	98.0
273.204956	117746.0
273.423584	350.0
273.476593	61.0
273.640228	58.0
273.756561	29.0
273.781189	33.0
273.839233	46.0
273.901001	31.0
274.034149	56.0
274.064697	48.0
274.134186	27.0
274.209351	8848.0
274.33316	31.0
274.386993	17.0
274.417694	36.0
274.526672	22.0
274.567657	36.0
274.652405	37.0
274.692139	41.0
274.72464	22.0
274.828766	92.0
274.86615	60.0
274.930969	38.0
274.963501	18.0
275.040009	151.0
275.128357	50.0
275.22052	12955.0
275.284729	68.0
275.326385	59.0
275.376587	37.0
275.397583	26.0
275.424225	42.0
275.525269	20.0
275.561188	32.0
275.689087	29.0
275.76004	26.0
276.023224	21.0
276.061035	29.0
276.091675	22.0
276.15271	16.0
276.180939	22.0
276.221436	85.0
276.274475	38.0
276.297729	43.0
276.351349	28.0
276.408478	36.0
276.520782	19.0
276.641327	17.0
276.82016	22.0
276.911957	17.0
277.035858	31.0
277.386261	18.0
277.907318	16.0
283.384674	22.0
283.88858	20.0
284.105988	17.0
284.187317	26.0
285.018646	33.0
285.184143	16.0
285.873932	21.0
286.171814	26.0
287.14267	18.0
288.92691	29.0
289.418854	52.0
289.461487	16.0
289.659821	17.0
289.74942	18.0
289.964996	23.0
291.574677	19.0
292.528564	17.0
295.399231	20.0
302.393463	20.0
304.186462	17.0
304.630371	32.0
313.213257	27.0
318.170502	23.0
320.158295	18.0
326.607941	17.0
339.214844	18.0
358.079041	32.0
377.043701	21.0
440.311615	17.0
558.878052	16.0
580.391846	17.0
658.335266	19.0
718.57373	19.0
812.024719	21.0
968.068054	28.0
1004.641907	17.0
1394.080933	21.0
1455.877808	18.0
1475.3927	16.0
END IONS

BEGIN IONS
PEPMASS=304.154
CHARGE=1
MSLEVEL=2
SOURCE_INSTRUMENT=LC-ESI-Orbitrap
FILENAME=f.Francesca90/drug_RIS 2/180523_MIX60_INCLUSION (1).mzXML;
SEQ=*..*
IONMODE=Positive
ORGANISM=GNPS-LIBRARY
NAME=Cocaine M+H
PI=Manuel Sergi
DATACOLLECTOR=23.05.2018
SMILES=CN1C2CCC1C(C(C2)OC(=O)C3=CC=CC=C3)C(=O)OC
INCHI= 
INCHIAUX= 
PUBMED= 
SUBMITUSER=Francesca90
LIBRARYQUALITY=3
SPECTRUMID=CCMSLIB00004679364
USI=mzspec:GNPS:GNPS-LIBRARY:accession:CCMSLIB00004679364
SCANS=1163
56.757923	344.32489
56.758327	731.691467
56.758732	872.745117
56.75914	642.415283
56.759544	242.418701
73.848198	454.885559
73.848801	733.968262
73.849403	883.814819
73.850006	825.936584
73.850609	589.469788
80.859444	556.76886
80.860138	913.762878
80.860825	1123.1073
80.861511	1040.225098
80.862206	688.970398
82.063103	601.194458
82.063805	2289.409668
82.064514	4907.696289
82.065216	7752.552246
82.065918	7881.063965
82.066628	4993.093262
82.067329	2275.903076
82.068039	327.111145
90.974365	622.414246
90.975189	2554.890381
90.976013	4917.365234
90.976837	7030.329102
90.977654	5997.11377
90.978477	3564.51001
90.979301	1364.101685
90.980125	441.707184
96.148384	437.248535
96.149284	911.104858
96.150177	1116.098267
96.15107	880.829773
96.151962	407.679016
105.031242	728.778687
105.032257	1783.866089
105.033279	3873.121826
105.034302	4281.675293
105.035324	2784.373779
105.036346	1205.304077
105.037369	439.935181
106.948814	600.323547
106.949867	1168.111206
106.950912	1363.085815
106.951965	1026.778687
106.953011	446.744781
107.551361	509.536591
107.552422	956.189331
107.553482	1229.380249
107.554535	1125.749878
107.555595	704.391418
108.079048	488.249329
108.080116	982.933411
108.081184	1231.759033
108.082245	1054.961914
108.083313	602.016968
113.057144	657.470886
113.058281	1254.870483
113.059425	1627.207642
113.060562	1510.473633
113.061699	981.854797
113.062843	394.234131
113.421715	479.507874
113.422867	892.546448
113.424011	1156.511719
113.425156	1103.425171
113.4263	766.925476
119.046043	605.347595
119.047272	1294.143066
119.048508	1821.611328
119.049736	1810.389648
119.050964	1265.897217
119.0522	573.310669
124.146675	432.857483
124.147987	907.369385
124.1493	1184.631714
124.150612	1087.099121
124.151924	699.692017
131.078049	647.676086
131.079483	1124.479248
131.080902	1311.238037
131.082321	1049.021362
131.083755	525.113464
140.008453	381.566986
140.010025	834.652588
140.011597	1085.422485
140.013168	940.25354
140.01474	530.379578
150.0858	209.986526
150.08754	843.239563
150.089279	1665.686157
150.091034	2147.618652
150.092773	1923.792236
150.094513	1176.533569
150.096268	450.242432
182.105881	719.425232
182.1082	3075.196045
182.110535	12392.610352
182.112869	38496.074219
182.115204	66435.132812
182.117523	86947.796875
182.119858	68216.773438
182.122192	40020.015625
182.124527	13581.19043
182.126862	3368.806396
182.129181	695.232178
183.112259	304.061127
183.114609	920.989624
183.116959	1901.105347
183.119308	3923.64209
183.121674	4235.297363
183.124023	2141.176758
183.126373	1101.296509
183.128723	367.891327
216.711487	785.645508
216.714523	1127.070312
216.717545	1264.422485
216.720566	1105.073608
216.723587	717.182739
251.617889	714.492188
251.621674	1214.279663
251.625458	1446.818604
251.629242	1246.048462
251.633026	742.26947
266.26001	477.342499
266.26413	863.000366
266.26825	1030.553101
266.272369	864.606262
266.276489	494.162994
304.128052	686.553528
304.133087	1468.211792
304.138123	6152.890625
304.143127	21473.609375
304.148163	40426.824219
304.153198	58121.773438
304.158234	51062.902344
304.163269	31134.601562
304.168304	12745.259766
304.173309	3443.025879
304.178345	1391.719116
304.183319	1471.339233
304.188354	953.412537
304.19339	457.484436
305.136536	302.719574
305.141602	912.678223
305.146637	2874.847656
305.151703	5122.646973
305.156769	6968.773438
305.161804	5735.67334
305.16687	3385.566895
305.171936	1221.134888
305.176971	518.16095
313.451782	756.891968
313.457031	1119.92041
313.462311	1185.607056
313.46756	921.277832
313.472839	504.378113
END IONS

BEGIN IONS
PEPMASS=168.066
CHARGE=1
MSLEVEL=2
SOURCE_INSTRUMENT=ESI-Orbitrap
FILENAME=GNPS00001_D10_p.mzXML
SEQ=*..*
IONMODE=Positive
ORGANISM=GNPS-LIBRARY
NAME=PYRIDOXAL M+H
PI=Dorrestein
DATACOLLECTOR=Fernando Vargas
SMILES=CC1=C(O)C(C=O)=C(CO)C=N1
INCHI="InChI=1S/C8H9NO3/c1-5-8(12)7(4-11)6(3-10)2-9-5/h2,4,10,12H,3H2,1H3"
INCHIAUX=N/A
PUBMED=na
SUBMITUSER=mpanitchpakdi
LIBRARYQUALITY=1
SPECTRUMID=CCMSLIB00005436172
USI=mzspec:GNPS:GNPS-LIBRARY:accession:CCMSLIB00005436172
SCANS=20
53.039005	4934.985352
58.61549	2196.93335
60.323864	2373.59668
60.574955	2746.579346
65.039017	10036.420898
67.054626	63467.585938
67.056335	4762.340332
71.289291	2543.833008
71.92112	2202.326904
72.367897	2342.75293
72.808632	2251.47998
77.038841	3122.748291
79.054504	8952.810547
81.03405	2527.151123
84.959808	2881.400391
94.065239	291125.875
95.049179	8719.710938
95.068153	2926.49292
101.653015	2673.818359
105.96315	6828.270996
106.065224	110929.171875
109.977776	2846.480713
110.060081	2751.442627
122.060158	320866.59375
123.06781	5277.466309
124.075615	5105.224609
130.98201	3399.029785
138.055725	4125.975098
148.039429	3613.388672
150.055161	8688926.0
150.104584	12050.989258
151.057816	14818.808594
167.057983	4206.924805
168.065735	1144841.375
168.102005	11405.760742
END IONS

BEGIN IONS
PEPMASS=163.122
CHARGE=1
MSLEVEL=2
SOURCE_INSTRUMENT=LC-ESI-qTof
FILENAME=f.pilepoga/Alkalo ANGERS/Nicotine.mgf;
SEQ=*..*
IONMODE=Positive
ORGANISM=GNPS-LIBRARY
NAME=Nicotine M+H
PI=Le Pogam
DATACOLLECTOR=Le Pogam
SMILES=CN1CCC[C@H]1C2=CN=CC=C2
INCHI=1S/C10H14N2/c1-12-7-3-5-10(12)9-4-2-6-11-8-9/h2,4,6,8,10H,3,5,7H2,1H3/t10-/m0/s1
INCHIAUX= 
PUBMED= 
SUBMITUSER=pilepoga
LIBRARYQUALITY=3
SPECTRUMID=CCMSLIB00005720169
USI=mzspec:GNPS:GNPS-LIBRARY:accession:CCMSLIB00005720169
SCANS=1
101.034744	3743.977051
102.042191	8459.956055
103.050362	56574.058594
104.046539	4399.521973
105.058006	1112.146973
106.061012	13819.719727
115.048973	7127.066895
116.045258	16088.740234
117.053177	157009.0
118.060608	10696.290039
128.0448	7801.100098
130.060883	84801.273438
131.066299	1923.097046
END IONS

BEGIN IONS
PEPMASS=577.266
CHARGE=1
MSLEVEL=2
SOURCE_INSTRUMENT=LC-ESI-Orbitrap
FILENAME=f.duplais/Voruscharin/Voruscharin neg/A. curassavica feed cats 2 neg.mzXML;
SEQ=*..*
IONMODE=Negative
ORGANISM=GNPS-LIBRARY
NAME=Calactin M+TFA-H
PI=A. A. Agrawal
DATACOLLECTOR=C. Duplais
SMILES=CC1CC(C2(C(O1)OC3CC4CCC5C(C4(CC3O2)C=O)CCC6(C5(CCC6C7=CC(=O)OC7)O)C)O)O
INCHI= 
INCHIAUX= 
PUBMED=441849
SUBMITUSER=duplais
LIBRARYQUALITY=3
SPECTRUMID=CCMSLIB00005724354
USI=mzspec:GNPS:GNPS-LIBRARY:accession:CCMSLIB00005724354
SCANS=2171
50.161713	98000.671875
55.353481	115192.0625
59.41782	89210.0
59.48035	102023.507812
59.979538	92963.296875
66.169571	114561.804688
70.947136	121877.179688
71.049393	391474.8125
72.541428	142465.953125
74.245674	119222.617188
77.241295	115308.101562
84.190559	107488.765625
85.028694	211710.453125
95.013206	165781.53125
97.02877	488064.6875
97.274849	119212.546875
99.041389	125222.984375
99.044373	584752.4375
101.478378	130484.8125
102.070801	126064.929688
107.551758	134022.6875
109.029396	210540.40625
127.039925	11247965.0
130.683746	108728.617188
347.321075	125483.023438
351.764801	127184.0625
373.202759	155695.5625
403.213043	5115457.0
449.217834	940974.4375
462.565735	117297.3125
531.259705	1676024.375
574.257446	158555.28125
574.299194	211314.296875
577.266479	3186973.25
577.521057	143094.1875
597.587036	138559.59375
END IONS

BEGIN IONS
PEPMASS=586.248
CHARGE=-1
MSLEVEL=2
SOURCE_INSTRUMENT=ESI-Orbitrap
FILENAME=MSV000086251/peak/PF076_neg/181109_PMA_LQG_PF076_G07_neg.mzXML
SEQ=*..*
IONMODE=Negative
ORGANISM=GNPS-LIBRARY
NAME=(7R,10R,14R,18R,22S)-10,22-dihydroxy-7,18-dimethyl-19-(5-oxo-2,5-dihydrofuran-3-yl)-5'H-4,6,11-trioxaspiro[hexacyclo[12.11.0.0,.0?,?.0?,.0?,]pentacosane-9,2'-[1,3]thiazole]-14-carbaldehyde M-H
PI=Wolfender
DATACOLLECTOR=Luis Quiros-Guerrero
SMILES=C[C@@H](CC12SCC=N1)OC1OC(CC(CCC(C3CC[C@@]4(C)C(CC5)C(CO6)=CC6=O)[C@@]45O)[C@]3(C3)C=O)C3O[C@]12O
INCHI=InChI=1S/C31H41NO8S/c1-17-13-30(32-9-10-41-30)31(36)26(38-17)39-23-12-19-3-4-22-21(28(19,16-33)14-24(23)40-31)5-7-27(2)20(6-8-29(22,27)35)18-11-25(34)37-15-18/h9,11,16-17,19-24,26,35-36H,3-8,10,12-15H2,1-2H3/t17-,19?,20?,21?,22?,23?,24?,26?,27+,28+,29-,30?,31+/m1/s1
INCHIAUX=N/A
PUBMED=N/A
SUBMITUSER=mpanitchpakdi
LIBRARYQUALITY=1
SPECTRUMID=CCMSLIB00005724525
USI=mzspec:GNPS:GNPS-LIBRARY:accession:CCMSLIB00005724525
SCANS=328
54.368294	6042.708496
60.973934	8875.635742
61.270947	6337.719727
61.465733	5592.240723
62.837986	6087.839844
70.460411	6067.629395
74.325951	6333.375488
75.744728	5846.060059
83.857376	6876.431641
84.164551	6542.291016
103.894928	7938.976074
107.019936	7334.734375
108.044861	8552.720703
126.037621	8312.507812
127.038834	6665.414062
136.039444	10553.658203
154.032013	11270.597656
170.838577	6178.871094
182.027649	25296.853516
239.985291	7732.556152
240.008682	6934.531738
258.344147	7043.268066
348.610809	8532.628906
506.318909	7567.628418
586.251099	8228.132812
END IONS

BEGIN IONS
PEPMASS=515.301
CHARGE=-1
MSLEVEL=2
SOURCE_INSTRUMENT=ESI-Orbitrap
FILENAME=MSV000086302/peak/PF017796_neg/200728_LQ_PF0017796_472467Z04_B3_neg.mzXML
SEQ=*..*
IONMODE=Negative
ORGANISM=GNPS-LIBRARY
NAME=(1R,2R,3aS,3bS,8S,9aR,9bR,11aR)-1-[(2R,4E)-2,6-dihydroxy-6-methyl-3-oxohept-4-en-2-yl]-2,8-dihydroxy-3a,6,6,9b,11a-pentamethyl-1H,2H,3H,3aH,3bH,4H,6H,7H,8H,9H,9aH,9bH,10H,11H,11aH-cyclopenta[a]phenanthrene-7,10-dione M-H
PI=Wolfender
DATACOLLECTOR=Luis Quiros-Guerrero
SMILES=CC(C)(/C=C/C([C@](C)([C@H]([C@H](C1)O)[C@](C)(C2)[C@@]1(C)[C@@H](CC=C([C@@H]1C[C@H]3O)C(C)(C)C3=O)[C@]1(C)C2=O)O)=O)O
INCHI=InChI=1S/C30H44O7/c1-25(2,36)12-11-21(33)30(8,37)23-19(32)14-27(5)20-10-9-16-17(13-18(31)24(35)26(16,3)4)29(20,7)22(34)15-28(23,27)6/h9,11-12,17-20,23,31-32,36-37H,10,13-15H2,1-8H3/t17-,18-,19-,20+,23+,27-,28+,29-,30-/m1/s1
INCHIAUX=N/A
PUBMED=N/A
SUBMITUSER=mpanitchpakdi
LIBRARYQUALITY=1
SPECTRUMID=CCMSLIB00005724878
USI=mzspec:GNPS:GNPS-LIBRARY:accession:CCMSLIB00005724878
SCANS=1407
51.140759	3567.993164
52.386814	3259.852051
52.568203	3165.068848
59.012878	16929.802734
70.196632	3650.886475
111.08078	8699.199219
115.734901	3810.267334
132.979874	4832.556641
135.081451	8243.158203
137.049652	3655.685547
147.081039	4771.553223
149.666351	3562.397217
153.264252	4203.280762
165.091919	51215.84375
203.798294	3950.272461
205.122772	5414.974121
247.171234	4054.510498
341.215515	4353.535645
382.315002	3915.884766
385.202576	10679.578125
421.239807	5270.820312
437.269775	13346.510742
439.249939	7532.540527
479.279053	6172.817871
497.292328	15386.189453
515.300415	29881.427734
END IONS

BEGIN IONS
PEPMASS=104.071
CHARGE=1
MSLEVEL=2
SOURCE_INSTRUMENT=ESI-Orbitrap
FILENAME=madeleine.mgf
SEQ=*..*
IONMODE=Positive
ORGANISM=GNPS-LIBRARY
NAME=GAMMA-AMINOBUTYRATE - 20.0 eV M+H
PI=Madeleine Ernst
DATACOLLECTOR=Anna Abrahamsson
SMILES=NCCCC(O)=O
INCHI=N/A
INCHIAUX=N/A
PUBMED=N/A
SUBMITUSER=mwang87
LIBRARYQUALITY=1
SPECTRUMID=CCMSLIB00005883670
USI=mzspec:GNPS:GNPS-LIBRARY:accession:CCMSLIB00005883670
SCANS=517
50.139198	637.77002
50.669701	626.190002
50.7943	618.51001
52.574799	175.990005
53.6478	616.049988
56.8396	184.330002
56.965	966.880005
57.478001	184.929993
57.987598	207.710007
58.065498	4484.390137
58.278599	200.029999
58.433899	776.200012
58.713299	177.669998
58.9953	6036.529785
59.103401	192.869995
60.665901	191.429993
65.797699	196.289993
66.614998	703.159973
68.049698	9461.709961
69.0336	109689.171875
69.680397	175.380005
70.037003	5292.040039
72.459503	762.51001
74.059998	229.740005
74.495796	205.929993
74.709	713.419983
78.208702	744.450012
79.419296	187.699997
79.994003	202.410004
84.015099	1686.839966
86.060097	163776.765625
86.761902	201.729996
86.989998	1802.650024
87.021202	1444.609985
87.023499	1329.329956
87.044197	685026.3125
87.052803	1072.27002
87.063499	9917.929688
87.066002	3162.560059
88.047501	43089.851562
88.944	190.979996
91.035797	223.740005
93.020401	2260.629883
95.049301	850.429993
97.007797	2681.629883
97.770699	222.669998
103.323502	953.98999
104.070702	56797.609375
104.107201	1531.01001
104.907997	3685.209961
105.000397	389.26001
105.003502	239.559998
105.033699	715.539978
105.0448	844.830017
105.07	499.540009
105.074203	3790.060059
109.052101	222.789993
112.827103	799.960022
114.558998	209.039993
122.019203	307.420013
END IONS

BEGIN IONS
PEPMASS=169.097
CHARGE=1
MSLEVEL=2
SOURCE_INSTRUMENT=ESI-Orbitrap
FILENAME=madeleine.mgf
SEQ=*..*
IONMODE=Positive
ORGANISM=GNPS-LIBRARY
NAME=PYRIDOXAMINE - 20.0 eV M+H
PI=Madeleine Ernst
DATACOLLECTOR=Anna Abrahamsson
SMILES=CC1=C(O)C(CN)=C(CO)C=N1
INCHI=N/A
INCHIAUX=N/A
PUBMED=N/A
SUBMITUSER=mwang87
LIBRARYQUALITY=1
SPECTRUMID=CCMSLIB00005884353
USI=mzspec:GNPS:GNPS-LIBRARY:accession:CCMSLIB00005884353
SCANS=1200
50.832401	135.759995
52.3955	115.57
55.419601	132.649994
55.482399	124.809998
59.8941	121.68
62.1758	138.020004
64.487198	138.289993
65.502998	137.759995
66.001404	143.660004
66.939102	147.259995
67.697998	161.169998
68.419098	139.990005
68.634697	152.970001
70.129204	143.880005
70.374901	159.639999
70.761703	136.720001
71.164101	137.649994
72.687103	121.360001
72.995796	153.929993
78.155602	133.259995
79.054199	1507.47998
84.044601	369.390015
84.134804	149.240005
84.799301	162.449997
86.222198	160.899994
86.947197	145.779999
88.653099	139.410004
90.176697	155.039993
91.682404	125.849998
91.782402	146.740005
92.049797	331.690002
92.070702	154.720001
92.297997	156.270004
93.057602	339.709991
93.232597	168.339996
96.080803	1133.369995
97.307297	144.740005
104.9804	166.75
106.0653	11636.19043
107.377098	211.800003
107.959999	4119.100098
107.963501	221.369995
108.0811	691.76001
111.7257	159.009995
112.444298	168.070007
116.965797	171.259995
119.402802	154.339996
120.441803	1097.189941
120.608398	1073.98999
121.5802	183.330002
124.076202	11775.719727
132.777405	1224.030029
133.926895	239.789993
134.060303	97995.429688
134.582108	157.399994
135.063599	7127.27002
141.784607	169.229996
144.548798	162.899994
145.017593	400.450012
146.993896	920.659973
149.251801	173.130005
149.378006	1124.910034
150.678101	166.289993
151.086899	140042.109375
151.937698	822.109985
152.002106	176.449997
152.019104	1673.680054
152.060806	3208.100098
152.070908	1192126.25
152.090103	16420.919922
152.119904	3949.290039
153.0681	305.920013
153.074203	155639.671875
163.045197	167.679993
164.8004	161.100006
165.737503	139.039993
167.014496	1077.030029
169.097397	169828.828125
169.9487	290.160004
169.960602	149.059998
170.012802	2918.889893
170.096893	20606.810547
170.100906	23561.210938
171.650497	150.020004
172.011398	151.910004
173.028107	156.610001
185.182693	173.979996
188.023407	4140.709961
END IONS

BEGIN IONS
PEPMASS=551.323
CHARGE=1
MSLEVEL=2
SOURCE_INSTRUMENT=LC-ESI-qTof
FILENAME=f.amoreno/Standards_compounds/UNAM_STDs.mgf;
SEQ=*..*
IONMODE=Positive
ORGANISM=GNPS-LIBRARY
NAME=Acovenoside A M+H
PI=Aldo Moreno Ulloa
DATACOLLECTOR=Jorge Xool
SMILES=CC1C(C(C(C(O1)O[C@@H]2C[C@H]3CC[C@@H]4[C@@H]([C@]3([C@@H](C2)O)C)CC[C@]5([C@@]4(CC[C@@H]5C6=CC(=O)OC6)O)C)O)OC)O
INCHI=1S/C30H46O9/c1-15-24(33)26(36-4)25(34)27(38-15)39-18-12-17-5-6-21-20(29(17,3)22(31)13-18)7-9-28(2)19(8-10-30(21,28)35)16-11-23(32)37-14-16/h11,15,17-22,24-27,31,33-35H,5-10,12-14H2,1-4H3/t15?,17-,18-,19-,20+,21-,22-,24?,25?,26?,27?,28-,29+,30+/m1/s1
INCHIAUX= 
PUBMED=272417
SUBMITUSER=amoreno
LIBRARYQUALITY=3
SPECTRUMID=CCMSLIB00006126867
USI=mzspec:GNPS:GNPS-LIBRARY:accession:CCMSLIB00006126867
SCANS=93
55.054699	140.0
57.0354	160.0
57.150101	12.0
57.764999	13.0
59.050201	87.0
67.054604	77.0
69.035301	53.0
69.044899	40.0
71.050201	98.0
73.065102	49.0
75.047203	65.0
77.058098	40.0
79.055	37.0
79.543404	21.0
81.071701	130.0
81.2071	15.0
83.055099	110.0
83.103699	25.0
83.609901	20.0
84.886101	27.0
85.028999	530.0
85.060303	560.0
85.155602	19.0
85.272202	27.0
85.4319	26.0
85.462601	12.0
85.508102	16.0
85.629204	23.0
85.696297	16.0
85.836197	14.0
86.109398	17.0
86.347099	15.0
86.75	16.0
87.044899	1100.0
87.129501	26.0
87.135399	34.0
87.242897	23.0
87.380501	18.0
87.435402	14.0
87.531403	15.0
87.572403	12.0
87.713898	30.0
87.824799	15.0
87.944397	37.0
88.273399	18.0
88.723	10.0
88.932297	11.0
89.887703	11.0
91.053299	68.0
93.070297	110.0
93.474403	16.0
95.0839	140.0
95.2061	31.0
95.448303	20.0
95.696098	23.0
97.065498	70.0
99.045403	140.0
99.172798	16.0
99.244598	19.0
99.363899	21.0
99.558998	18.0
100.1577	26.0
101.061897	110.0
102.3937	14.0
105.069397	150.0
107.084801	120.0
107.203796	18.0
107.3246	23.0
107.521698	25.0
109.091698	74.0
110.370796	11.0
111.049896	140.0
111.143402	15.0
111.5476	14.0
113.055199	23.0
115.075401	200.0
115.175201	19.0
115.7687	13.0
117.065903	50.0
119.086502	160.0
119.1856	12.0
119.601402	19.0
121.064102	60.0
121.095497	110.0
121.198898	14.0
121.926498	18.0
123.080597	100.0
125.056702	92.0
126.224297	20.0
129.056702	85.0
129.457199	10.0
131.087708	99.0
133.102203	130.0
133.202698	16.0
134.471497	32.0
135.113297	60.0
135.238007	17.0
137.085098	63.0
137.094299	63.0
139.072296	72.0
139.294006	12.0
141.059692	72.0
143.076706	130.0
143.241592	13.0
143.760696	23.0
144.041107	47.0
145.102295	140.0
145.220398	13.0
145.337601	32.0
145.492706	12.0
145.801193	12.0
147.116394	110.0
149.120102	59.0
149.188507	13.0
149.642502	15.0
151.111099	24.0
153.057404	75.0
154.078506	37.0
154.202499	18.0
155.078201	80.0
156.0923	43.0
157.1026	100.0
157.189896	19.0
157.383194	19.0
158.233704	13.0
159.117004	170.0
159.214294	15.0
159.346695	12.0
159.474197	17.0
159.651398	16.0
159.883896	12.0
159.949097	16.0
160.182693	22.0
161.123901	55.0
163.110901	54.0
165.112503	49.0
167.083694	43.0
169.099701	72.0
171.117706	61.0
171.211899	11.0
173.125198	60.0
173.392807	13.0
174.121796	29.0
175.067307	59.0
175.145493	290.0
175.272202	16.0
175.399902	17.0
175.536804	18.0
175.704102	22.0
175.967804	17.0
177.095093	60.0
177.277298	14.0
178.016998	19.0
179.098495	37.0
181.100098	48.0
183.116104	93.0
183.189697	23.0
185.133606	110.0
185.205002	20.0
185.616104	24.0
186.154999	56.0
187.112396	54.0
187.131805	87.0
187.224396	16.0
189.128098	67.0
191.109207	67.0
191.254303	12.0
193.100998	35.0
194.052002	17.0
195.118698	73.0
195.358597	20.0
197.132904	95.0
197.798996	29.0
198.143707	23.0
199.144806	73.0
199.259796	12.0
199.570404	22.0
201.147705	68.0
201.159897	52.0
203.133102	69.0
203.259003	13.0
204.521393	16.0
205.132095	86.0
207.105896	72.0
208.134201	30.0
209.132706	76.0
210.140701	21.0
211.149704	87.0
211.405304	17.0
212.145096	25.0
213.136093	110.0
213.159607	55.0
213.875595	12.0
215.137497	26.0
217.141403	49.0
217.225601	31.0
219.131104	50.0
221.128799	76.0
223.143204	48.0
223.323105	13.0
225.156097	70.0
225.162003	110.0
225.300293	13.0
225.629501	21.0
227.155106	70.0
227.450806	20.0
227.684692	27.0
229.132904	70.0
229.617203	16.0
230.393402	24.0
231.148193	78.0
233.122299	46.0
235.149506	51.0
235.229706	25.0
237.151199	68.0
237.248093	11.0
238.166595	27.0
239.178802	50.0
241.163803	46.0
243.137497	76.0
244.562897	16.0
245.147095	51.0
245.239807	18.0
247.138397	54.0
249.161606	67.0
249.290802	11.0
249.742493	18.0
250.145599	20.0
251.180801	46.0
251.437302	15.0
253.1689	63.0
253.580994	12.0
254.162796	28.0
255.138702	76.0
255.499893	20.0
255.628006	14.0
256.145111	32.0
257.161804	48.0
259.153107	34.0
261.165588	24.0
263.179413	61.0
265.18631	40.0
266.130188	14.0
267.175598	78.0
267.488403	10.0
267.648895	12.0
268.144012	51.0
269.154785	34.0
270.217499	31.0
271.179901	32.0
271.302704	36.0
273.159485	47.0
275.181793	41.0
276.194092	86.0
277.195312	81.0
277.282593	19.0
279.185608	44.0
281.166504	79.0
281.257507	42.0
281.620605	19.0
282.144806	42.0
283.174103	63.0
283.644104	18.0
284.433411	32.0
285.186493	110.0
285.313385	12.0
285.444	16.0
285.8172	14.0
286.053802	14.0
286.169708	35.0
287.008087	27.0
288.612213	20.0
289.198212	33.0
291.2099	110.0
291.295288	23.0
291.417603	18.0
291.712799	18.0
291.816193	22.0
293.154602	67.0
293.219604	65.0
293.337097	22.0
295.191803	29.0
295.19751	42.0
296.060486	14.0
297.177307	20.0
299.194214	38.0
301.193115	53.0
303.192688	48.0
304.173615	35.0
305.20401	21.0
307.175812	29.0
309.220306	94.0
311.2005	92.0
311.924408	16.0
313.218994	34.0
314.285706	20.0
318.209412	10.0
319.205505	130.0
319.308685	19.0
319.426514	23.0
319.838593	16.0
320.395996	14.0
321.1875	37.0
325.214996	46.0
327.234497	61.0
327.659485	23.0
333.214111	13.0
335.19751	28.0
337.218292	650.0
337.351898	23.0
337.442902	20.0
337.541595	17.0
337.702209	28.0
337.854614	20.0
338.018707	18.0
338.035889	21.0
338.151306	16.0
338.215698	38.0
338.570709	16.0
345.204895	27.0
353.205994	32.0
355.22641	340.0
355.3638	19.0
355.556488	20.0
355.722198	17.0
356.105896	14.0
356.271912	19.0
356.331085	16.0
356.418213	17.0
373.238495	140.0
373.352203	15.0
373.452515	12.0
373.622101	20.0
373.736908	29.0
374.014709	16.0
374.484711	18.0
421.224792	21.0
429.231812	49.0
533.321472	22.0
END IONS

BEGIN IONS
PEPMASS=537.3
CHARGE=1
MSLEVEL=2
SOURCE_INSTRUMENT=LC-ESI-Orbitrap
FILENAME=f.duplais/Asclepias syriaca seeds project/All samples/BISH.mzXML;
SEQ=*..*
IONMODE=Positive
ORGANISM=GNPS-LIBRARY
NAME=Desglucouzarin M+H
PI=A. A. Agrawal
DATACOLLECTOR=C. Duplais
SMILES=C[C@]12CC[C@@H](C[C@@H]1CC[C@@H]3[C@@H]2CC[C@]4([C@@]3(CC[C@@H]4C5=CC(=O)OC5)O)C)O[C@H]6[C@@H]([C@H]([C@@H]([C@H](O6)CO)O)O)O
INCHI=InChI=1S/C29H44O9/c1-27-8-5-17(37-26-25(34)24(33)23(32)21(13-30)38-26)12-16(27)3-4-20-19(27)6-9-28(2)18(7-10-29(20,28)35)15-11-22(31)36-14-15/h11,16-21,23-26,30,32-35H,3-10,12-14H2,1-2H3/t16-,17-,18+,19-,20+,21+,23+,24-,25+,26+,27-,28+,29-/m0/s1
INCHIAUX= 
PUBMED=15558779
SUBMITUSER=duplais
LIBRARYQUALITY=3
SPECTRUMID=CCMSLIB00006581619
USI=mzspec:GNPS:GNPS-LIBRARY:accession:CCMSLIB00006581619
SCANS=1739
50.651901	39230.40625
51.041779	42775.761719
51.339081	39747.148438
52.647434	39402.21875
55.054714	168385.609375
55.455681	54126.371094
57.034	616927.3125
59.293907	41203.703125
61.49017	59376.070312
67.861763	42467.496094
71.049454	545230.375
73.028656	167181.90625
73.065071	85421.78125
75.044281	738662.125
78.528847	58920.589844
79.054298	62809.304688
81.070015	176148.078125
83.049271	292605.8125
85.028534	5368182.5
86.371956	53663.203125
87.044136	144504.765625
91.054123	57827.363281
93.069901	158157.84375
95.085632	122098.320312
99.044014	74968.398438
101.059578	554384.8125
105.069878	158473.84375
107.085358	362689.09375
109.064636	98278.796875
109.101044	150194.09375
109.210724	48645.324219
109.753418	48169.746094
111.043846	168371.171875
117.069405	83330.40625
119.085419	118694.640625
121.100952	155213.03125
125.059578	202667.375
129.054367	1071961.75
129.059174	54914.761719
131.085556	156951.484375
133.101044	214910.765625
135.116623	205725.5625
143.085403	81830.273438
145.101074	319729.59375
147.064957	572032.9375
147.116562	414176.78125
149.132202	110612.15625
153.054337	767817.8125
155.070099	664454.1875
155.08551	68687.117188
157.100967	164594.96875
159.116669	378078.65625
161.132126	580685.0
162.599945	48059.699219
163.075195	165375.8125
163.148468	73852.523438
167.070068	75282.109375
171.116852	82566.351562
172.827881	58599.09375
173.132553	141512.625
175.075043	64526.21875
177.091156	60768.214844
183.116684	83423.554688
185.132523	131061.976562
187.147934	166838.609375
189.090759	392205.96875
189.16362	198084.796875
193.133453	49037.007812
197.13237	168852.9375
199.147964	183979.875
201.163757	335969.6875
203.106567	141839.890625
207.101151	108893.039062
209.131699	51840.183594
211.147995	102191.148438
213.163788	110956.101562
215.106827	88886.320312
215.142944	96876.6875
215.25531	47526.554688
217.122192	65806.28125
225.127396	47917.691406
227.106506	72886.085938
227.179398	50159.472656
229.121765	294837.15625
231.138138	85261.460938
232.761078	52327.949219
235.148087	85904.726562
237.163635	65742.90625
241.122223	166683.40625
243.137299	484578.875
251.178802	101458.0
253.194839	116841.96875
255.137039	139019.609375
259.132874	58252.015625
261.147675	94836.132812
263.179474	60097.28125
277.194855	230841.25
281.15332	62962.527344
291.20932	296677.34375
293.226837	81787.085938
296.511353	62346.058594
301.194183	68806.4375
309.220978	228471.09375
313.215149	69895.539062
319.205017	322473.84375
335.203674	59649.613281
337.215637	3252087.75
353.210632	62625.070312
355.226135	4928293.0
373.236694	3523916.0
374.798553	61370.199219
391.246765	57607.605469
403.203644	54434.011719
414.36145	59271.296875
415.51239	57541.011719
447.257782	62539.898438
483.274414	206248.28125
501.284363	984464.75
519.294739	1550343.125
525.066406	60784.859375
537.305359	2229668.75
547.918152	70983.1875
END IONS

BEGIN IONS
PEPMASS=646.321
CHARGE=1
MSLEVEL=2
SOURCE_INSTRUMENT=LC-ESI-Orbitrap
FILENAME=t.3b8079543a4a4e878c3787e8dfa42794/spectra/specs_ms.mgf;
SEQ=*..*
IONMODE=Positive
ORGANISM=GNPS-LIBRARY
NAME=[(1S,2R,3R,4R,5R,6S,7S,8R,9R,13R,14R,16S,17S,18R)-8-acetyloxy-11-ethyl-5,7,14-trihydroxy-6,16,18-trimethoxy-13-(methoxymethyl)-11-azahexacyclo[7.7.2.12,5.01,10.03,8.013,17]nonadecan-4-yl] benzoate M+H
PI=Lauren O'Connell
DATACOLLECTOR=Mabel Gonzalez
SMILES=CCN1CC2(C(CC(C34C2C(C(C31)C5(C6C4CC(C6OC(=O)C7=CC=CC=C7)(C(C5O)OC)O)OC(=O)C)OC)OC)O)COC
INCHI=XFSBVAOIAHNAPC-XTHSEXKGSA-N
INCHIAUX= 
PUBMED= 
SUBMITUSER=mabel_gonzalez
LIBRARYQUALITY=3
SPECTRUMID=CCMSLIB00012079744
USI=mzspec:GNPS:GNPS-LIBRARY:accession:CCMSLIB00012079744
SCANS=2305
142.024002	45.0
146.082001	51.0
202.298996	110.0
203.279999	54.0
215.029007	39.0
245.123993	46.0
262.178009	32.0
275.134003	58.0
279.122986	57.0
354.225098	79.0
368.328094	280.0
372.272003	37.0
375.372986	55.0
378.147003	36.0
452.693115	44.0
485.106995	31.0
487.372009	35.0
494.32901	56.0
504.515991	45.0
522.41803	31.0
526.271118	320.0
533.015015	54.0
536.411987	57.0
551.66803	32.0
554.487122	230.0
582.859009	30.0
586.354126	940.0
599.909973	42.0
603.133972	64.0
628.328979	57.0
646.388977	6100.0
647.156128	350.0
END IONS

BEGIN IONS
PEPMASS=236.175
CHARGE=1
MSLEVEL=2
SOURCE_INSTRUMENT=LC-ESI-qTof
FILENAME=f.fronkey/SUZHOU2023/WX20240119nozib/F_simple/F_7.mzXML;
SEQ=*..*
IONMODE=Positive
ORGANISM=GNPS-LIBRARY
NAME=Procainamide M+H
PI=Xiang-Rong Cheng
DATACOLLECTOR=Xiang-Rong Cheng
SMILES=CCN(CC)CCNC(=O)C1=CC=C(C=C1)N
INCHI=1S/C13H21N3O/c1-3-16(4-2)10-9-15-13(17)11-5-7-12(14)8-6-11/h5-8H,3-4,9-10,14H2,1-2H3,(H,15,17)
INCHIAUX= 
PUBMED=4913
SUBMITUSER=fronkey
LIBRARYQUALITY=3
SPECTRUMID=CCMSLIB00012176191
USI=mzspec:GNPS:GNPS-LIBRARY:accession:CCMSLIB00012176191
SCANS=242912
51.022015	32.25
52.01963	27.375
55.052593	45.044998
57.068993	65.666664
58.06562	101.121216
64.68058	33.482143
64.885536	27.005434
65.011795	86.387817
65.039108	65992.554688
65.354301	45.979168
65.397118	75.263885
65.475258	27.007273
65.499504	38.959999
65.515732	39.193001
65.535233	25.738636
65.597565	53.963234
65.634789	26.812317
65.712257	49.251076
65.755295	80.71627
65.782677	48.106453
65.810478	54.471775
65.823601	44.55682
65.866882	38.148811
65.889359	25.189259
65.969482	36.805
66.008408	45.988377
66.04084	5018.740234
66.097855	92.408447
66.135994	44.949997
66.233139	31.28125
66.423111	49.720238
66.476784	45.0
66.528053	72.75
66.616302	27.431938
66.708328	29.111111
66.793251	38.164474
67.039215	303.506836
67.073494	51.454544
67.157906	29.5
67.382225	32.044998
67.847755	28.408333
70.063095	261.06897
70.978149	31.777779
71.639099	32.900002
72.081474	1497.151978
73.082832	97.001923
74.097397	320.321838
77.039886	129.072586
77.063637	28.450001
79.05246	197.491226
82.875038	64.010414
84.011436	31.09091
86.097427	158.786392
87.098328	261.130402
88.235954	50.736111
89.644188	85.820457
90.03376	394.032745
90.075844	25.875
91.053612	34.125
91.080902	40.208332
91.295448	25.142857
92.049782	179068.515625
92.518822	97.991074
92.576714	69.570656
92.604378	70.442444
92.639809	62.411125
92.711746	82.931763
92.768707	52.9375
92.809669	78.578125
92.840485	86.708336
92.879509	71.274193
92.924324	96.370003
92.951385	33.791668
93.052658	16989.728516
93.141403	251.460709
93.187485	159.703705
93.225311	97.08828
93.259766	61.146507
93.305603	74.518272
93.348305	93.629631
93.369781	66.614037
93.404312	64.34375
93.445129	48.277779
93.470345	34.487179
93.501572	30.139492
93.657082	37.180557
93.726013	34.011364
93.77504	64.030403
93.852615	35.696171
93.901405	42.482292
93.943886	31.836021
93.992943	33.449032
94.05838	313.975891
94.100975	60.817741
94.127831	35.711105
94.182655	104.952705
94.218987	36.476559
94.242943	26.743956
94.287292	43.107143
94.331787	34.090908
94.412994	29.57704
94.532242	33.75
94.589928	30.697533
94.624168	55.347221
94.749107	36.76923
94.789192	37.25
95.021172	27.844999
95.13916	63.041668
95.336166	44.142441
95.488312	45.030407
96.087158	26.796053
96.651146	27.13587
96.713905	36.326614
96.906311	29.015625
97.538223	27.694445
97.607239	31.449074
98.096077	99.102272
98.95945	30.183823
99.987282	67.061272
100.112106	1695.929199
100.181801	35.657608
100.205963	35.010418
101.11779	240.934998
101.322411	50.235466
103.052673	59.570946
103.072556	28.142857
103.858429	50.191177
106.041969	112.778847
110.061272	44.003571
115.054985	224.152542
116.052147	69.764832
118.754776	44.211208
119.078941	56.680557
119.224449	36.090908
119.727875	28.183823
119.841499	61.173077
119.896049	51.375
119.977325	84.272728
120.044464	247809.59375
120.637085	84.949005
120.681053	76.909088
120.719368	131.943451
120.766853	64.782898
120.814407	201.241226
120.897018	237.623306
120.963242	63.501743
121.047356	30065.535156
121.147675	419.622803
121.177376	239.260834
121.230293	111.04866
121.25901	81.175377
121.282211	44.862644
121.336533	121.343674
121.41774	70.113274
121.43988	35.542301
121.474426	25.925926
121.500023	34.201782
121.54097	56.445625
121.595779	44.901455
121.667801	70.03524
121.701805	45.854149
121.721855	83.215279
121.76693	39.43066
121.818169	57.254013
121.881699	54.256054
121.910759	26.346859
122.048889	1442.874023
122.125809	48.247856
122.194679	51.172958
122.238533	35.839684
122.278709	41.59745
122.315193	39.900002
122.356773	72.160103
122.457809	58.061577
122.47934	37.231709
122.537903	26.55592
122.564049	33.175564
122.599487	72.752251
122.668083	43.051395
122.708336	49.085102
122.749138	84.013885
122.786331	46.978657
122.847977	57.721603
122.984138	48.040001
123.01268	37.103283
123.064552	75.625748
123.124962	34.375
123.155319	71.094696
123.212502	44.56818
123.234779	44.408333
123.300056	59.285713
123.345963	48.337963
123.404457	30.25
123.462288	61.603573
123.495384	83.10714
123.599617	34.81818
123.635422	67.003204
123.728592	30.480263
123.85453	33.326614
123.946861	39.361111
124.036041	56.695515
124.085342	35.450001
124.148605	45.148811
124.218445	55.852272
124.311646	29.9
124.347534	28.200001
124.613663	34.020832
124.6492	26.005953
124.669899	32.005436
125.018623	61.06649
125.165718	26.15
125.351532	60.0
126.096222	37.244999
126.126678	41.094696
126.322044	28.076923
126.549805	25.444445
127.999458	27.113636
128.599228	53.654068
128.840088	31.071428
131.047836	238.530701
131.137146	30.625
132.05069	58.778847
132.901733	27.008333
133.903748	86.019066
142.373001	25.245001
154.905548	51.185608
159.348557	39.265625
163.085815	8423.34082
163.204391	111.972824
163.327545	26.004032
163.42337	35.654411
163.497101	32.140625
163.673355	50.034092
163.754807	26.0
163.986053	26.361111
164.089401	1165.124634
164.209854	43.125
164.27124	25.041666
164.549072	30.361111
164.68129	63.0
165.112595	31.041666
165.136917	25.125
165.191391	38.272728
187.103134	33.041668
190.651733	29.053572
215.257034	27.666666
243.919037	34.285713
278.074158	36.025002
294.498779	26.222826
296.852112	47.5625
305.894196	36.0
337.719299	28.008333
341.332703	40.347221
372.136963	30.035715
412.95932	36.642857
450.52066	32.450001
451.004333	84.654068
466.005432	26.654411
482.255554	35.013157
506.669556	33.035713
521.715393	27.009615
532.16217	29.11574
553.898621	51.367424
588.571716	28.0
618.815796	40.0
630.607605	25.0
687.5625	26.183823
764.278687	64.881096
783.980042	28.004629
795.825867	28.889706
823.186646	57.449467
837.641846	27.03125
1100.809448	31.961956
1101.160034	37.408333
1191.225708	29.444445
1207.028687	25.083334
1332.055054	27.796053
1335.313599	27.568182
1409.942261	25.5
1422.256958	39.222828
1553.427124	41.066666
1622.899048	26.53125
1637.363647	55.909092
1654.673218	27.045
1688.472046	52.284092
END IONS

BEGIN IONS
PEPMASS=425.044
CHARGE=1
MSLEVEL=2
SOURCE_INSTRUMENT=ESI-Orbitrap
FILENAME=SP4_B_1_3.mzML
SEQ=*..*
IONMODE=Positive
ORGANISM=GNPS-LIBRARY
NAME=THIAMINE PYROPHOSPHATE M+H
PI=Aron
DATACOLLECTOR=David Hattan
SMILES=CC1=C(SC=[N+]1CC2=CN=C(N=C2N)C)CCO[P@@](O)(OP([O-])(O)=O)=O
INCHI=InChI=1S/C12H18N4O7P2S/c1-8-11(3-4-22-25(20,21)23-24(17,18)19)26-7-16(8)6-10-5-14-9(2)15-12(10)13/h5,7H,3-4,6H2,1-2H3,(H4-,13,14,15,17,18,19,20,21)
INCHIAUX=N/A
PUBMED=N/A
SUBMITUSER=jzemlin
LIBRARYQUALITY=1
SPECTRUMID=CCMSLIB00013583349
USI=mzspec:GNPS:GNPS-LIBRARY:accession:CCMSLIB00013583349
SCANS=1957
54.034721	3954.316895
61.374271	1803.156982
61.962208	1970.898438
63.313641	1685.039062
65.039391	3266.962891
68.050323	4692.941406
70.657967	1689.334839
79.15593	2206.755859
79.450462	2118.749756
80.050179	6348.987793
81.045273	146440.640625
85.011345	3294.666504
88.524895	2275.207275
95.060783	2091.017578
98.006287	8165.349609
99.026848	5258.355957
107.560074	1560.924561
113.901855	1571.180054
121.997833	18541.708984
122.071312	2165148.75
122.139252	13085.012695
122.15007	4054.028076
122.947372	2215.429199
125.961067	2646.343506
126.037201	395568.34375
126.109833	2871.803711
127.040718	4344.77002
127.619186	1801.309937
167.128418	2562.797852
195.159988	3135.957275
202.036819	23837.052734
220.047989	31177.3125
224.013794	128945.054688
235.71843	1926.434692
247.099762	5400.568848
303.979889	116127.796875
345.076111	8937.078125
365.237701	1704.956665
END IONS

BEGIN IONS
PEPMASS=422.158
CHARGE=1
MSLEVEL=2
SOURCE_INSTRUMENT=LC-ESI-Orbitrap
FILENAME=all_ms2.mgf
SEQ=*..*
IONMODE=Positive
ORGANISM=GNPS-LIBRARY
NAME=Colchicine [M+Na]+
PI=Pieter Dorrestein
DATACOLLECTOR=Minions
SMILES=COc1cc2c(c(OC)c1OC)-c1ccc(OC)c(=O)cc1[C@@H](NC(C)=O)CC2
INCHI="InChI=1S/C22H25NO6/c1-12(24)23-16-8-6-13-10-19(27-3)21(28-4)22(29-5)20(13)14-7-9-18(26-2)17(25)11-15(14)16/h7,9-11,16H,6,8H2,1-5H3,(H,23,24)/t16-/m0/s1"
INCHIAUX=
PUBMED=drug_mix_all_combined.mzML:scan:2173
SUBMITUSER=jzemlin
LIBRARYQUALITY=1
SPECTRUMID=CCMSLIB00015625813
USI=mzspec:GNPS:GNPS-LIBRARY:accession:CCMSLIB00015625813
SCANS=154
53.23288	2926.471924
64.31002	3510.589844
69.600662	4319.624023
70.419167	3340.341553
92.547211	7396.413574
92.553436	12627.714844
286.829315	4183.354492
364.117798	4905.660645
378.134674	7259.604004
379.139587	23278.134766
381.223053	5006.055664
384.316376	4594.307129
394.162598	347576.375
400.190918	3986.84375
407.134918	6269.399414
422.157288	933366.125
END IONS

BEGIN IONS
PEPMASS=309.16
CHARGE=1
MSLEVEL=2
SOURCE_INSTRUMENT=LC-ESI-qTof
FILENAME=Phenylbutazone.mgf
SEQ=*..*
IONMODE=Positive
ORGANISM=GNPS-SELLECKCHEM-FDA-PART1
NAME=Phenylbutazone M+H
PI=Sirenas
DATACOLLECTOR=Ed Esquenazi 
SMILES=CCCCC1C(=O)N(N(C1=O)C2=CC=CC=C2)C3=CC=CC=C3
INCHI=InChI=1S/C19H20N2O2/c1-2-3-14-17-18(22)20(15-10-6-4-7-11-15)21(19(17)23)16-12-8-5-9-13-16/h4-13,17H,2-3,14H2,1H3
INCHIAUX=N/A
PUBMED=N/A
SUBMITUSER=mwang87
LIBRARYQUALITY=3
SPECTRUMID=CCMSLIB00000006293
USI=mzspec:GNPS:GNPS-SELLECKCHEM-FDA-PART1:accession:CCMSLIB00000006293
SCANS=1
101.001984	45.761909
104.048424	41.440479
120.043655	692.418274
125.060616	27.17391
132.045258	60.010071
133.049469	30.215
134.061676	14.72727
145.058411	48.98148
146.057602	50.50005
148.111038	50.385761
160.110703	93.453484
162.126663	94.411011
163.136917	38.477509
168.98735	78.918419
174.058228	22.70709
187.164398	12.52365
188.105667	580.720581
189.370056	15.42857
190.120834	561.831726
190.192444	18.310829
190.328201	13.42014
190.406525	40.646259
190.463028	12.30682
191.041748	15.92157
200.105881	15.55254
211.086609	285.016815
216.100922	164.598602
230.95697	61.53487
231.103821	65.096733
253.092148	114.641098
260.102142	10.75788
263.149811	17.52355
265.167206	58.506721
272.87793	16.471149
281.159973	21.760559
291.146881	27.798401
307.229919	14.96333
309.130463	14.99322
309.158539	3769.616943
309.239685	23.27648
309.274628	41.994061
309.373108	15.81944
309.429443	16.800871
309.527405	25.440861
309.57486	35.929871
309.61142	21.91468
309.642029	11.9616
309.69101	10.71204
309.755798	28.36006
309.802826	13.27083
309.830109	17.40909
309.853363	16.45833
309.892273	13.0997
309.935944	23.05426
309.973602	12.0375
310.110504	19.12855
310.328033	26.110661
310.665283	21.04623
310.910797	11.5126
311.395294	10.33772
END IONS

BEGIN IONS
PEPMASS=242.118
CHARGE=1
MSLEVEL=2
SOURCE_INSTRUMENT=LC-ESI-qTof
FILENAME=Plate10_41_64_GC3_01_15747.mzXML
SEQ=*..*
IONMODE=Positive
ORGANISM=GNPS-SELLECKCHEM-FDA-PART2
NAME=Mefenamic Acid [M+H]
PI=Dorrestein
DATACOLLECTOR=Garg_Neha
SMILES=C(C1C(=CC=CC=1)NC2C(=C(C=CC=2)C)C)(=O)O
INCHI=N/A
INCHIAUX=N/A
PUBMED=N/A
SUBMITUSER=negarg
LIBRARYQUALITY=1
SPECTRUMID=CCMSLIB00000078649
USI=mzspec:GNPS:GNPS-SELLECKCHEM-FDA-PART2:accession:CCMSLIB00000078649
SCANS=2316
45.862793	184.0
49.061329	176.0
49.294418	168.0
52.52766	176.0
53.039551	148.0
54.130795	148.0
60.216141	140.0
64.44722	144.0
64.863319	224.0
69.772957	164.0
70.79245	144.0
70.978455	164.0
72.872307	200.0
80.264961	180.0
80.355927	160.0
80.618408	160.0
89.486572	144.0
90.018303	224.0
90.528885	140.0
92.440155	144.0
93.54953	160.0
93.825012	196.0
96.370285	184.0
100.542175	148.0
102.298004	156.0
105.718102	160.0
109.930832	160.0
113.224152	172.0
118.273041	196.0
119.936874	200.0
120.510826	148.0
121.80117	180.0
123.958885	184.0
126.744606	168.0
132.048615	160.0
133.190048	164.0
139.767441	144.0
140.811768	224.0
145.392471	156.0
146.055603	176.0
148.0177	248.0
150.524734	156.0
151.054916	164.0
151.936996	172.0
152.064331	188.0
154.056641	144.0
154.076401	140.0
154.756531	184.0
159.062347	176.0
159.180054	140.0
160.057632	176.0
160.978027	144.0
162.009979	192.0
163.472443	192.0
168.288956	228.0
168.379333	216.0
169.597961	216.0
170.306305	208.0
170.545349	196.0
179.070724	304.0
180.081207	1980.0
180.586685	184.0
181.088181	1352.0
182.087433	156.0
183.023407	160.0
183.06662	172.0
183.17691	144.0
183.23349	164.0
184.079132	260.0
186.524216	204.0
188.549316	144.0
190.379349	176.0
193.329102	144.0
194.093643	196.0
195.102829	208.0
196.088608	176.0
197.088684	152.0
198.998901	296.0
200.022202	180.0
200.486923	212.0
202.107788	176.0
202.645752	176.0
204.081543	148.0
205.548843	160.0
206.094147	160.0
207.072571	424.0
207.105804	140.0
208.041748	148.0
208.075302	3536.0
208.984421	148.0
209.083282	16084.0
209.1427	204.0
209.165726	180.0
209.193497	256.0
209.903259	160.0
210.086945	2776.0
210.262924	192.0
211.09227	596.0
211.419296	104.0
212.526794	216.0
216.139908	192.0
217.159378	144.0
218.53418	196.0
222.094986	784.0
222.83313	148.0
223.097061	1056.0
223.838791	148.0
223.991226	124.0
224.107483	50292.0
224.215363	156.0
224.491791	184.0
224.539062	128.0
225.110397	6640.0
225.162048	184.0
225.270065	164.0
225.367355	120.0
226.112717	552.0
226.478836	116.0
226.515167	140.0
226.7883	124.0
226.883072	152.0
227.115997	112.0
227.519073	212.0
227.999664	140.0
239.153214	144.0
239.873978	168.0
241.110931	264.0
242.117386	6660.0
243.120895	1032.0
244.123642	104.0
293.834625	140.0
402.350891	164.0
1887.797607	156.0
1895.770386	168.0
END IONS

BEGIN IONS
PEPMASS=415.139
CHARGE=1
MSLEVEL=2
SOURCE_INSTRUMENT=LC-ESI-qTOF
FILENAME=p1-C04_GC4_01_17900.mzXML
SEQ=*..*
IONMODE=Positive
ORGANISM=GNPS-PRESTWICKPHYTOCHEM
NAME=NCGC00022001-07!PODOPHYLLOTOXIN M+H
PI=Dorrestein
DATACOLLECTOR=VVP/LMS
SMILES=COC1=C(OC)C(=CC(=C1)[C@H]2[C@@H]3[C@H](COC3=O)[C@@H](O)C4=CC5=C(OCO5)C=C24)OC
INCHI=N/A
INCHIAUX=N/A
PUBMED=N/A
SUBMITUSER=vphelan
LIBRARYQUALITY=3
SPECTRUMID=CCMSLIB00000078798
USI=mzspec:GNPS:GNPS-PRESTWICKPHYTOCHEM:accession:CCMSLIB00000078798
SCANS=1941
95.176842	72.0
96.048698	200.0
96.396202	188.0
97.442505	184.0
97.55452	200.0
98.160919	220.0
98.933434	148.0
99.087906	196.0
99.373398	88.0
100.70713	220.0
101.503624	192.0
101.627983	124.0
102.869698	148.0
103.056084	68.0
103.194946	56.0
103.549072	212.0
104.246933	132.0
104.281479	148.0
104.75354	188.0
105.034836	168.0
105.071945	208.0
105.240952	120.0
106.862167	192.0
107.18219	168.0
107.490601	176.0
107.536003	228.0
107.849945	88.0
109.309952	268.0
109.395279	188.0
109.526466	236.0
109.720261	176.0
109.995621	168.0
111.062752	140.0
111.928581	184.0
112.552719	140.0
114.512184	136.0
114.932137	128.0
115.017494	88.0
115.053116	872.0
115.971443	180.0
116.058479	428.0
116.492851	164.0
116.724968	120.0
116.866928	184.0
116.953011	136.0
117.070129	1980.0
117.975449	184.0
118.072754	308.0
118.852585	108.0
118.932884	160.0
119.047943	120.0
119.0895	180.0
119.800491	96.0
120.058502	232.0
120.090393	228.0
121.026604	164.0
121.683441	160.0
121.718567	188.0
121.888069	120.0
122.0382	700.0
122.409019	156.0
122.788055	164.0
122.836578	104.0
123.036964	164.0
123.051155	172.0
123.853363	180.0
124.032837	168.0
125.378693	44.0
125.665123	156.0
125.988838	108.0
127.050224	308.0
127.285622	128.0
127.638397	68.0
128.060043	408.0
128.774185	196.0
128.844208	176.0
128.923279	132.0
129.071838	168.0
129.629013	148.0
130.571411	76.0
130.70108	172.0
131.050201	640.0
131.918945	116.0
132.010391	236.0
132.312424	68.0
132.887665	112.0
132.914825	124.0
132.988632	192.0
133.066681	316.0
133.170013	144.0
133.638962	172.0
133.89447	232.0
134.323166	192.0
134.680939	108.0
135.045395	1180.0
135.448868	164.0
135.578613	72.0
136.038467	152.0
136.079636	188.0
136.935364	148.0
137.049515	148.0
138.266113	200.0
138.715805	48.0
139.074677	164.0
139.438721	212.0
140.623367	124.0
140.876022	76.0
140.989426	180.0
141.034332	56.0
141.079239	208.0
142.522568	152.0
143.047653	312.0
144.049118	256.0
145.035507	164.0
145.06366	4000.0
145.236923	96.0
145.299286	212.0
146.069321	732.0
146.715775	196.0
146.858047	200.0
146.98349	132.0
147.043274	144.0
147.142776	56.0
147.241791	240.0
148.050644	196.0
148.706512	148.0
149.065933	244.0
149.428207	136.0
149.479309	152.0
150.068756	160.0
150.886627	144.0
151.039703	348.0
151.082275	144.0
152.806946	180.0
153.0186	132.0
153.075241	156.0
154.057968	144.0
154.091431	204.0
154.353821	124.0
155.055771	504.0
155.11348	164.0
155.326721	180.0
155.761108	192.0
156.051865	160.0
157.067902	196.0
157.939621	120.0
158.289993	44.0
159.04213	324.0
161.059296	1140.0
161.602417	136.0
161.723892	172.0
161.861038	204.0
162.063416	192.0
162.091095	176.0
162.402908	96.0
163.040161	200.0
165.090424	448.0
166.060379	160.0
166.166229	152.0
167.033844	148.0
168.100449	84.0
168.308105	152.0
170.087463	172.0
171.043686	284.0
171.622955	64.0
171.75856	164.0
171.883789	60.0
172.052353	188.0
172.197052	168.0
172.217941	156.0
173.060562	1408.0
173.151642	76.0
173.893585	44.0
174.062408	416.0
175.039642	176.0
175.075348	1372.0
176.043777	292.0
176.086685	152.0
176.218765	132.0
176.684067	48.0
177.053238	152.0
177.075821	180.0
177.958847	64.0
178.023422	188.0
178.05867	164.0
179.464767	180.0
181.057373	88.0
181.08429	372.0
181.671158	64.0
181.829468	188.0
181.96904	264.0
185.004669	172.0
185.059174	3984.0
185.242966	168.0
185.3134	160.0
185.427216	48.0
185.478699	36.0
185.595276	64.0
185.627823	176.0
185.968475	56.0
186.05925	348.0
186.719498	64.0
186.912628	124.0
187.040207	176.0
187.357941	200.0
187.489929	132.0
187.56897	72.0
187.986557	176.0
188.013535	152.0
188.048004	652.0
188.764755	68.0
189.055267	1548.0
189.476395	48.0
189.585983	148.0
190.055573	192.0
190.139954	64.0
191.070114	372.0
191.498108	72.0
192.075073	192.0
192.101746	48.0
193.087799	144.0
194.303787	148.0
194.7146	204.0
195.066666	272.0
195.10083	156.0
195.16478	160.0
195.952423	116.0
196.069458	208.0
196.225555	120.0
197.060043	172.0
199.057114	188.0
199.082382	132.0
199.756927	176.0
200.043304	124.0
201.054489	1176.0
202.07019	208.0
202.531616	96.0
203.03894	164.0
203.069839	772.0
203.649124	40.0
204.073441	176.0
204.952011	40.0
205.080261	180.0
205.710632	136.0
207.002914	144.0
207.078964	172.0
208.09906	340.0
208.379669	200.0
208.589462	200.0
209.055435	284.0
210.407181	116.0
211.073471	204.0
212.024078	68.0
212.050171	136.0
212.076248	100.0
215.039993	156.0
217.043854	72.0
217.272614	68.0
219.065659	1356.0
219.732101	64.0
220.064194	204.0
221.096237	148.0
221.251129	68.0
221.535416	128.0
221.994827	68.0
223.03392	152.0
224.048874	208.0
225.059677	152.0
225.101471	180.0
226.066803	172.0
226.093948	248.0
226.243591	44.0
226.926666	104.0
228.031311	180.0
228.927811	164.0
229.049637	900.0
229.515396	76.0
229.642059	84.0
230.052429	112.0
231.057556	252.0
231.104141	72.0
231.173737	52.0
231.636948	112.0
232.081192	204.0
233.059784	188.0
233.087128	144.0
233.147903	52.0
234.015167	208.0
234.093979	144.0
235.072296	332.0
236.074432	176.0
236.1203	128.0
236.358917	164.0
237.054184	136.0
237.151733	180.0
237.823761	44.0
238.05983	304.0
238.86232	200.0
239.069687	512.0
239.752106	108.0
240.094299	116.0
240.739258	84.0
243.039139	132.0
245.063568	148.0
245.546402	100.0
246.067505	172.0
246.523529	160.0
246.807983	40.0
247.061462	564.0
247.250687	76.0
247.399292	44.0
247.596542	68.0
247.912949	52.0
248.068085	420.0
248.279724	56.0
248.809998	56.0
249.058075	152.0
249.092621	76.0
250.064194	124.0
250.832718	204.0
250.876846	20.0
251.033218	148.0
251.2742	68.0
251.744507	104.0
252.079346	128.0
253.059875	128.0
253.084259	388.0
253.912262	20.0
254.056046	304.0
254.09465	116.0
255.068207	556.0
255.10611	148.0
256.063843	164.0
259.069092	208.0
260.072327	92.0
261.084351	180.0
262.066193	216.0
262.084106	240.0
262.621429	204.0
263.073792	148.0
264.074829	144.0
264.136292	76.0
265.042755	136.0
266.041687	132.0
266.076813	112.0
267.062347	284.0
267.651001	188.0
267.745453	48.0
268.071411	344.0
269.0784	420.0
269.232544	220.0
270.072449	160.0
272.955109	96.0
273.088593	156.0
275.086212	316.0
275.202271	72.0
276.071289	48.0
277.087402	128.0
278.06134	148.0
278.086853	320.0
278.906158	56.0
279.065491	208.0
279.102081	160.0
279.690918	76.0
280.307617	88.0
281.083954	120.0
281.765076	224.0
282.089539	2632.0
282.253021	144.0
282.467072	68.0
282.500519	84.0
282.868622	68.0
283.059937	656.0
283.087158	864.0
283.511658	136.0
283.608856	44.0
284.063782	160.0
285.014984	232.0
285.082855	180.0
285.117645	116.0
286.165253	124.0
288.074066	176.0
288.766968	120.0
289.03421	112.0
289.08429	320.0
290.051483	260.0
290.091522	316.0
291.061646	364.0
291.098022	512.0
292.061829	184.0
292.101318	156.0
293.07428	284.0
293.116058	132.0
293.490601	64.0
293.992035	80.0
294.25827	112.0
294.336792	128.0
295.085052	172.0
296.095215	184.0
296.594696	36.0
296.759247	44.0
297.080566	744.0
298.083221	768.0
298.875	196.0
299.082123	192.0
303.063202	84.0
304.071045	200.0
305.081238	668.0
306.090576	1080.0
306.123383	128.0
307.046875	232.0
307.097626	420.0
308.092804	128.0
308.219788	64.0
309.078552	376.0
309.10614	168.0
311.896027	124.0
312.040161	56.0
312.099548	528.0
312.627563	124.0
312.726105	48.0
313.107788	372.0
313.395172	136.0
314.110809	160.0
314.234283	76.0
314.707245	100.0
314.753143	44.0
315.071014	284.0
316.082184	156.0
317.05246	164.0
317.077271	104.0
318.049042	160.0
318.090424	288.0
318.610107	68.0
319.093231	136.0
320.104584	816.0
320.880676	32.0
321.073975	140.0
321.107788	748.0
321.843994	108.0
322.08136	164.0
322.118317	420.0
322.622833	52.0
322.944641	68.0
323.078217	364.0
323.102112	180.0
323.678284	64.0
325.094177	104.0
326.088959	88.0
326.114136	60.0
330.749298	212.0
332.056915	104.0
333.070374	120.0
333.505554	120.0
333.996399	36.0
334.060791	108.0
334.070496	76.0
334.392975	64.0
335.089539	140.0
336.108582	132.0
336.441498	56.0
337.073364	164.0
337.102509	168.0
338.071625	84.0
338.114899	268.0
341.082703	136.0
341.244446	88.0
344.206818	116.0
345.703918	56.0
346.075226	76.0
347.085083	172.0
348.101135	300.0
348.994049	164.0
349.092712	300.0
350.065674	152.0
350.110352	140.0
351.114868	308.0
352.08316	92.0
352.135834	156.0
353.095917	160.0
353.122101	204.0
354.110138	136.0
354.164093	640.0
354.192566	208.0
356.120453	196.0
364.095306	180.0
365.104065	68.0
365.252808	184.0
366.112946	300.0
367.080444	264.0
367.106628	156.0
367.252045	112.0
369.142456	180.0
379.114441	184.0
380.109375	164.0
382.118134	160.0
397.122742	348.0
397.727539	88.0
399.133881	132.0
413.135498	108.0
415.112	60.0
429.343353	108.0
458.329651	56.0
476.59552	100.0
482.592926	76.0
498.025818	108.0
532.541931	76.0
559.848206	64.0
608.759827	68.0
632.138367	92.0
670.086121	52.0
696.487549	44.0
704.642151	52.0
720.58606	108.0
722.660522	112.0
725.300598	40.0
777.691895	168.0
780.897705	64.0
814.573181	164.0
933.551453	148.0
933.879883	140.0
953.634583	140.0
957.024109	76.0
977.91687	36.0
1018.733215	92.0
1031.311523	156.0
1051.181641	68.0
1063.224609	52.0
1065.133423	96.0
1069.424805	116.0
1090.28125	136.0
1098.597168	152.0
1107.043945	72.0
1112.361206	20.0
1128.068481	108.0
1132.015869	192.0
1146.681152	200.0
1161.623901	164.0
1162.920532	200.0
1163.557983	180.0
1172.931885	156.0
1180.24353	200.0
1186.103638	116.0
1199.417847	212.0
1214.539673	128.0
1222.605835	180.0
1234.450928	184.0
1236.528687	188.0
1237.410645	248.0
1248.602539	176.0
1271.66272	204.0
1272.209351	88.0
1272.862549	152.0
1274.105469	224.0
1278.293213	196.0
1285.019409	208.0
1314.372437	220.0
1315.714844	132.0
1316.43689	168.0
1333.832031	156.0
1337.308716	132.0
1346.44397	96.0
1356.951538	236.0
1363.770996	196.0
1368.088745	132.0
1369.244751	168.0
1377.74939	176.0
1405.270752	52.0
1409.041016	148.0
1411.529907	168.0
1415.69043	204.0
1431.151123	160.0
1437.067749	204.0
1443.29895	156.0
1449.84668	136.0
1458.384766	112.0
1469.998657	116.0
1474.198608	160.0
1481.038208	152.0
1484.709229	184.0
1488.000977	216.0
1499.23877	220.0
1503.950928	184.0
END IONS

BEGIN IONS
PEPMASS=404.158
CHARGE=1
MSLEVEL=2
SOURCE_INSTRUMENT=LC-ESI-qTof
FILENAME=NCP002928_A2_B11_BA2_01_15696.mzXML
SEQ=*..*
IONMODE=Positive
ORGANISM=GNPS-NIH-CLINICALCOLLECTION2
NAME=Perphenazine aka 2-[4-[3-(2-chlorophenothiazin-10-yl)propyl]piperazin-1-yl]ethanol M+H
PI=Dorrestein
DATACOLLECTOR=Garg_Neha
SMILES=C1CN(CCN1CCCN2C3=CC=CC=C3SC4=C2C=C(C=C4)Cl)CCO
INCHI= 
INCHIAUX=N/A
PUBMED=N/A
SUBMITUSER=negarg
LIBRARYQUALITY=1
SPECTRUMID=CCMSLIB00000076970
USI=mzspec:GNPS:GNPS-NIH-CLINICALCOLLECTION2:accession:CCMSLIB00000076970
SCANS=1214
44.975765	168.0
45.001133	144.0
45.998642	168.0
46.696468	164.0
46.865273	148.0
47.239357	200.0
47.770248	152.0
48.094074	156.0
48.314419	248.0
48.33593	180.0
49.239567	188.0
49.823689	180.0
49.905209	152.0
50.435402	220.0
52.201813	172.0
52.374519	188.0
52.406216	184.0
52.522991	144.0
52.722237	184.0
53.339687	184.0
53.601662	220.0
54.118748	196.0
54.398773	184.0
54.538322	180.0
54.763443	148.0
55.059895	156.0
55.102734	160.0
55.632931	160.0
56.000221	208.0
56.39711	172.0
56.438972	144.0
56.670975	192.0
56.840412	168.0
56.945499	208.0
57.190582	160.0
57.317089	204.0
58.077541	164.0
58.200466	156.0
58.426929	196.0
58.463448	212.0
58.52586	164.0
58.544136	200.0
59.001892	212.0
59.176308	152.0
59.209999	156.0
59.395458	156.0
60.039913	192.0
60.276104	204.0
60.628937	200.0
60.777805	208.0
61.607662	184.0
62.215298	156.0
63.10862	172.0
63.239925	168.0
65.009018	164.0
65.54612	184.0
65.733177	208.0
66.068367	116.0
66.148544	176.0
66.521393	164.0
66.678947	152.0
66.771614	216.0
67.014168	168.0
67.610191	224.0
68.01667	148.0
68.28614	212.0
69.61158	144.0
69.845924	176.0
70.102318	140.0
70.738678	208.0
70.837479	152.0
70.877686	176.0
71.058769	160.0
71.327469	196.0
71.640465	152.0
72.041969	192.0
72.101112	188.0
72.145058	164.0
72.785507	172.0
72.93161	204.0
72.997917	152.0
73.919083	164.0
74.560463	148.0
74.802986	160.0
74.828812	164.0
74.935593	200.0
74.975227	224.0
75.006248	160.0
75.591743	140.0
76.146507	156.0
77.668526	148.0
77.807159	192.0
78.429901	148.0
78.994965	164.0
79.508804	156.0
80.081299	152.0
80.313004	204.0
81.045982	160.0
81.216293	180.0
81.390373	156.0
81.413719	200.0
81.847099	156.0
81.931755	140.0
81.991219	220.0
83.148697	152.0
83.674034	164.0
85.484314	148.0
85.668602	224.0
86.334763	172.0
86.482773	140.0
86.844078	260.0
88.109917	144.0
88.448402	164.0
89.132942	180.0
90.005081	184.0
90.80558	160.0
91.70871	256.0
92.442818	156.0
95.78038	140.0
96.447708	192.0
96.484856	192.0
96.553291	176.0
96.848831	140.0
96.952675	148.0
97.076828	760.0
98.045364	188.0
98.084091	6780.0
98.938187	148.0
99.086571	636.0
99.288246	108.0
99.829079	192.0
100.075714	8328.0
100.110794	328.0
100.277023	212.0
100.336823	244.0
101.078621	468.0
101.556656	200.0
101.806129	120.0
102.676933	216.0
102.733185	144.0
102.767708	148.0
102.88073	188.0
103.452843	152.0
103.560165	156.0
103.635117	160.0
104.652725	176.0
104.869148	200.0
105.378181	152.0
105.845184	184.0
106.027504	144.0
106.068497	300.0
106.173065	184.0
106.482971	188.0
106.58979	192.0
107.570152	164.0
108.4617	208.0
108.667007	208.0
109.232079	164.0
109.57766	148.0
110.061562	192.0
110.228043	148.0
110.358261	204.0
110.894173	200.0
112.076523	252.0
112.099564	804.0
112.475433	132.0
112.771637	144.0
112.881569	212.0
113.106201	1444.0
113.584717	148.0
113.858521	196.0
114.02636	220.0
114.090126	148.0
114.112694	352.0
114.160294	176.0
114.207085	216.0
114.266647	156.0
114.370926	152.0
114.594528	152.0
115.081245	144.0
115.228195	188.0
115.369247	192.0
116.31395	144.0
117.068031	252.0
117.299149	180.0
117.467346	164.0
117.639984	164.0
117.824364	116.0
118.511566	180.0
120.443428	192.0
120.471832	228.0
120.666336	176.0
120.788803	140.0
120.96167	144.0
121.364784	144.0
122.188423	160.0
122.35569	192.0
122.946426	160.0
123.067833	212.0
123.768761	192.0
123.937103	172.0
123.999153	180.0
124.098907	180.0
124.307411	156.0
125.109085	584.0
125.17881	176.0
126.015274	152.0
126.086449	136.0
126.113335	476.0
126.214203	152.0
127.096733	204.0
127.122215	192.0
127.671806	160.0
127.78653	144.0
127.912552	180.0
128.093506	2876.0
129.09494	512.0
130.126846	208.0
130.148499	184.0
130.568909	140.0
130.664444	180.0
131.119812	364.0
131.589767	176.0
131.863892	172.0
132.081116	248.0
132.119995	156.0
132.754471	156.0
133.075714	164.0
133.498505	156.0
135.15477	176.0
135.506699	188.0
136.021545	140.0
136.077255	180.0
136.81192	188.0
137.747055	148.0
137.896591	200.0
139.172165	116.0
140.552658	192.0
140.727325	172.0
141.102493	480.0
141.139542	1948.0
141.190475	168.0
141.463226	192.0
141.488632	156.0
141.519409	192.0
142.114578	112.0
142.140427	156.0
142.560318	156.0
142.591644	188.0
142.641556	148.0
142.772324	176.0
142.807999	160.0
142.850815	160.0
142.960266	156.0
142.993011	116.0
143.11821	85800.0
143.25032	180.0
143.381409	112.0
143.540176	204.0
143.820648	148.0
143.860413	180.0
144.120361	7944.0
144.942398	168.0
145.122101	320.0
145.384338	164.0
146.132263	180.0
146.174133	152.0
146.675079	196.0
147.517548	244.0
148.966675	160.0
150.042328	204.0
150.086227	172.0
150.159378	160.0
151.670425	168.0
151.882584	184.0
152.116867	140.0
152.519714	184.0
153.302368	160.0
153.462585	148.0
154.062317	176.0
154.109268	176.0
154.151276	492.0
155.000031	176.0
155.386841	196.0
156.12706	196.0
157.131607	308.0
157.986008	204.0
158.980042	144.0
159.098007	192.0
161.242401	176.0
162.317505	176.0
162.647324	156.0
162.715866	236.0
165.157181	204.0
165.589737	172.0
165.963882	236.0
165.997696	148.0
166.19986	204.0
167.077332	188.0
167.199493	160.0
169.055023	160.0
169.130035	284.0
169.827087	140.0
169.930847	140.0
169.956787	256.0
170.30101	104.0
170.849518	140.0
171.015762	212.0
171.044205	172.0
171.092575	180.0
171.149109	74260.0
171.267456	184.0
171.40773	152.0
171.518982	140.0
172.002457	196.0
172.151382	5892.0
172.500473	96.0
173.069016	140.0
173.091339	160.0
173.149521	372.0
173.238968	144.0
173.460968	112.0
173.500183	108.0
173.625504	212.0
174.131088	184.0
174.504242	164.0
175.322113	176.0
176.4077	148.0
177.058426	120.0
177.522369	196.0
178.629913	184.0
179.307846	104.0
179.636856	144.0
181.993835	160.0
183.504135	152.0
183.544586	148.0
184.032959	156.0
184.85199	168.0
184.983185	136.0
185.908844	144.0
186.631409	168.0
191.087006	168.0
191.814041	152.0
192.191879	152.0
192.865723	160.0
193.673676	164.0
195.027725	160.0
197.7276	188.0
198.037003	140.0
199.041855	432.0
199.638107	208.0
200.415024	152.0
201.055145	200.0
201.111588	188.0
201.216034	140.0
202.112015	140.0
202.522507	148.0
203.588913	164.0
204.049225	140.0
205.084702	172.0
205.658737	220.0
206.092224	136.0
206.378647	152.0
206.653229	144.0
207.105621	140.0
207.222992	160.0
208.112122	168.0
208.548782	140.0
209.475327	152.0
209.538712	140.0
209.844208	196.0
209.933594	172.0
210.033508	336.0
210.126862	148.0
210.256714	152.0
211.045471	2528.0
211.34903	144.0
212.052185	328.0
213.03685	488.0
214.041733	7084.0
214.61676	180.0
215.042603	1728.0
216.039261	2340.0
216.84726	140.0
217.040741	280.0
217.254852	188.0
218.041061	132.0
218.624084	208.0
220.145233	156.0
220.198395	152.0
220.287018	140.0
220.48793	156.0
221.799118	152.0
222.051147	160.0
222.540771	148.0
223.041077	276.0
223.081268	164.0
224.0513	408.0
226.058121	152.0
226.162872	172.0
227.559845	152.0
228.049515	160.0
228.494568	140.0
229.129807	180.0
230.674942	176.0
231.440369	200.0
231.66449	160.0
231.996033	204.0
233.004181	1880.0
233.727325	164.0
234.009048	496.0
235.004562	768.0
235.274307	172.0
235.67746	144.0
235.830261	212.0
236.014481	196.0
236.047318	148.0
237.057495	192.0
238.068176	724.0
238.306366	144.0
238.546082	148.0
238.925949	176.0
239.076767	10044.0
239.127792	136.0
239.486694	96.0
240.079102	1888.0
240.215118	160.0
240.60704	144.0
241.067307	1068.0
241.710464	148.0
242.064987	424.0
243.691803	168.0
244.081284	196.0
244.478516	292.0
245.126251	224.0
245.293213	112.0
245.92775	176.0
246.013611	18988.0
246.570221	144.0
247.015472	3840.0
247.303009	156.0
248.010178	6812.0
248.384018	140.0
248.53775	152.0
248.657913	152.0
248.81395	176.0
249.013931	1092.0
250.014526	268.0
250.236771	100.0
250.439713	208.0
250.877716	152.0
251.827515	140.0
255.418762	164.0
255.68602	152.0
258.013397	252.0
258.654358	172.0
259.021179	160.0
259.589905	148.0
260.025482	276.0
261.01712	156.0
261.749329	164.0
262.021576	120.0
262.509796	168.0
264.548553	140.0
264.571228	148.0
265.108887	156.0
266.679718	160.0
267.25531	228.0
267.387573	144.0
270.921783	168.0
272.030212	152.0
273.799164	144.0
273.865021	148.0
273.953979	160.0
274.04364	2588.0
274.395569	208.0
275.048645	772.0
276.042023	1248.0
276.106049	196.0
276.297913	160.0
276.344238	156.0
277.044312	348.0
279.293427	168.0
279.882477	160.0
282.525848	160.0
282.776825	140.0
284.086975	164.0
285.823975	216.0
286.638855	160.0
288.157227	164.0
289.415436	164.0
290.70694	144.0
294.072662	96.0
295.6073	152.0
295.966705	168.0
297.152618	200.0
297.37912	152.0
297.646881	160.0
298.16217	148.0
300.262299	176.0
302.418213	144.0
303.374268	156.0
304.120056	148.0
305.861481	216.0
312.44751	160.0
314.950378	240.0
316.832306	144.0
317.089508	116.0
319.152893	120.0
319.331299	184.0
320.940918	144.0
320.980164	148.0
321.015808	160.0
323.302124	160.0
324.136505	156.0
326.369171	156.0
326.642487	172.0
328.833221	176.0
331.073517	96.0
333.600067	148.0
334.877289	192.0
335.453003	180.0
336.171509	176.0
337.062531	168.0
337.837616	184.0
338.489105	156.0
338.730835	160.0
340.785278	144.0
341.836914	176.0
345.11615	216.0
345.652496	140.0
347.82428	152.0
348.793793	172.0
349.429718	252.0
349.641815	228.0
355.486664	144.0
356.160309	236.0
357.106842	144.0
358.095642	116.0
358.400909	156.0
359.241669	140.0
363.039124	208.0
368.328979	144.0
370.180603	140.0
370.693939	192.0
371.05423	212.0
371.226776	180.0
374.166199	184.0
374.278198	180.0
375.116486	148.0
377.631439	148.0
377.79776	172.0
378.060852	148.0
378.170227	172.0
380.755249	164.0
381.322479	280.0
384.340546	192.0
385.12915	164.0
386.168091	236.0
387.746643	152.0
389.881622	164.0
391.144165	144.0
391.256226	136.0
393.695099	140.0
394.173096	248.0
394.54068	160.0
397.828796	172.0
397.983643	160.0
398.041534	96.0
398.68277	204.0
398.833801	168.0
398.891968	120.0
399.337097	144.0
399.649048	208.0
400.508972	164.0
400.991821	184.0
401.101776	140.0
401.16333	148.0
401.33493	108.0
401.549469	136.0
401.853668	140.0
401.9841	104.0
402.086914	156.0
402.133301	156.0
402.184265	100.0
402.258301	148.0
402.289948	296.0
402.337006	144.0
402.348694	100.0
402.437683	100.0
402.501526	128.0
402.55835	160.0
402.585419	168.0
402.663696	152.0
402.826111	156.0
402.906006	156.0
402.94516	144.0
402.983307	172.0
403.055603	188.0
403.098541	548.0
403.182709	216.0
403.252502	112.0
403.331299	176.0
403.445374	432.0
403.494568	96.0
403.531281	168.0
403.575287	376.0
403.610413	112.0
403.647552	248.0
403.691101	104.0
403.730621	172.0
403.804535	184.0
403.858429	212.0
403.911224	216.0
403.949463	188.0
404.000031	284.0
404.063202	116.0
404.157532	228508.0
404.308289	128.0
404.4505	144.0
404.514313	152.0
404.559235	408.0
404.601562	284.0
404.689972	176.0
404.816895	3204.0
404.901123	228.0
404.931854	228.0
404.985779	248.0
405.02243	164.0
405.094482	412.0
405.101868	336.0
405.159149	83588.0
405.297882	172.0
405.591217	180.0
405.639679	316.0
405.697357	120.0
405.727325	288.0
405.822083	392.0
405.934082	160.0
405.987152	252.0
406.068237	284.0
406.154175	111736.0
406.253662	260.0
406.39798	96.0
406.456909	252.0
406.532745	152.0
406.57663	124.0
406.637848	108.0
406.721893	148.0
406.762909	272.0
406.814941	320.0
406.899109	148.0
406.942993	188.0
407.016144	144.0
407.063721	244.0
407.155182	19220.0
407.259552	152.0
407.322662	320.0
407.349792	292.0
407.429321	460.0
407.489227	220.0
407.561066	108.0
407.602264	260.0
407.671326	292.0
407.730927	208.0
407.797455	232.0
407.841339	120.0
407.904388	304.0
408.152527	1204.0
408.2164	112.0
408.293701	216.0
408.428894	136.0
408.538269	124.0
408.604706	268.0
408.639099	124.0
408.817352	96.0
408.989532	128.0
409.035706	104.0
409.129425	108.0
409.177124	156.0
409.206238	140.0
409.27652	152.0
409.405701	120.0
409.592804	132.0
409.621094	128.0
409.661926	112.0
409.764374	112.0
409.885986	148.0
409.928131	140.0
410.361542	112.0
410.525574	96.0
410.560638	160.0
411.145691	104.0
421.28714	112.0
427.850708	140.0
456.086639	140.0
465.421417	144.0
511.094482	148.0
598.01355	164.0
883.865295	128.0
974.347229	156.0
1016.334351	164.0
1151.024048	184.0
1184.965698	148.0
1190.645386	148.0
1193.194702	156.0
1197.447388	176.0
1208.969849	168.0
1215.844604	176.0
1236.068726	200.0
1269.288696	176.0
1278.182007	176.0
1283.003906	176.0
1284.330322	228.0
1291.022461	148.0
1307.033691	160.0
1315.588745	168.0
1339.4104	160.0
1348.750366	216.0
1355.637451	148.0
1360.412231	216.0
1367.748535	156.0
1381.658813	184.0
1436.381714	208.0
1441.024658	144.0
1456.942261	176.0
1459.921875	172.0
1460.925903	216.0
1467.704346	244.0
1470.48877	176.0
1471.61853	180.0
1472.41272	196.0
1488.318115	140.0
1493.505493	156.0
1494.251709	232.0
1497.81604	140.0
1499.688354	184.0
1511.109741	140.0
1518.786743	160.0
1537.342651	172.0
1554.958252	156.0
1560.355835	144.0
1560.434448	144.0
1580.832397	192.0
1582.977661	172.0
1584.149902	204.0
1594.88623	144.0
1611.070557	152.0
1619.181396	144.0
1623.845947	152.0
1628.709839	180.0
1645.871948	212.0
1647.57605	140.0
1657.900757	152.0
1661.947144	196.0
1667.436768	148.0
1675.736938	204.0
1677.823364	168.0
1679.356323	172.0
1685.748901	240.0
1689.109131	252.0
1689.829102	184.0
1704.727905	192.0
1710.526367	156.0
1721.731567	196.0
1721.954468	168.0
1736.413452	140.0
1737.077026	152.0
1752.148926	148.0
1753.523926	156.0
1757.309814	236.0
1777.449951	204.0
1779.027832	140.0
1788.78772	168.0
1794.358643	180.0
1800.203613	220.0
1804.496094	144.0
1809.919678	216.0
1815.130981	220.0
1822.388306	152.0
1830.528564	184.0
1833.135254	164.0
1834.993408	148.0
1839.301514	204.0
1841.547119	164.0
1841.666748	148.0
1842.896973	164.0
1868.601562	168.0
1873.802368	124.0
1877.818848	204.0
1886.540039	216.0
1888.952759	204.0
1889.359253	164.0
1895.168823	176.0
1898.445435	204.0
1901.750854	148.0
1902.523438	144.0
1902.896851	160.0
1905.215698	156.0
1923.782471	148.0
1933.336304	164.0
1938.004028	204.0
1947.240601	144.0
1947.41626	200.0
1948.725098	220.0
1955.601929	156.0
1956.675903	240.0
1957.010498	200.0
1968.579468	244.0
1970.814331	140.0
1973.766602	156.0
1974.394409	180.0
1974.580078	192.0
1988.623169	148.0
1993.96106	236.0
2002.208252	248.0
END IONS

BEGIN IONS
PEPMASS=585.291
CHARGE=1
MSLEVEL=2
SOURCE_INSTRUMENT=LC-ESI-qTof
FILENAME=p1-H07_GH7_01_17963.mzXML
SEQ=*..*
IONMODE=Positive
ORGANISM=GNPS-NIH-NATURALPRODUCTSLIBRARY
NAME=MLS002702983-01! M+H
PI=Dorrestein
DATACOLLECTOR=VVP/LMS
SMILES=CC1OC(OC2CC(O)C3(CO)C4C(O)CC5(C)C(CCC5(O)C4CCC3(O)C2)C6=CC(=O)OC6)C(O)C(O)C1O
INCHI=N/A
INCHIAUX=N/A
PUBMED=N/A
SUBMITUSER=vphelan
LIBRARYQUALITY=1
SPECTRUMID=CCMSLIB00000079543
USI=mzspec:GNPS:GNPS-NIH-NATURALPRODUCTSLIBRARY:accession:CCMSLIB00000079543
SCANS=1322
94.988625	148.0
95.056526	228.0
95.083694	200.0
95.66877	148.0
95.818726	144.0
97.06575	140.0
97.259094	160.0
97.45047	156.0
97.69622	104.0
98.336632	188.0
99.528381	136.0
100.081154	164.0
100.891182	172.0
100.959167	168.0
101.057182	132.0
101.311447	176.0
101.519897	48.0
101.608116	188.0
101.971611	144.0
102.767052	152.0
103.056007	212.0
103.467201	160.0
104.036018	164.0
104.186302	128.0
104.837418	208.0
105.066643	220.0
105.280106	224.0
105.308693	76.0
105.402672	116.0
106.981941	184.0
107.084076	156.0
107.559135	212.0
107.585976	156.0
107.959961	184.0
109.050476	240.0
109.064583	516.0
109.41243	240.0
110.100525	200.0
110.144386	36.0
110.644859	200.0
110.702812	180.0
110.791718	332.0
111.042526	492.0
111.080078	156.0
111.283646	80.0
111.661896	120.0
112.125076	144.0
112.627228	148.0
113.454636	116.0
113.518448	208.0
113.683708	136.0
114.49794	92.0
114.61084	48.0
115.051369	184.0
115.169785	168.0
115.404854	136.0
115.7258	104.0
115.777191	172.0
116.51722	176.0
117.068962	628.0
118.075554	176.0
118.333206	268.0
119.044418	176.0
119.08606	348.0
119.400826	160.0
119.535706	228.0
119.616234	248.0
119.825294	116.0
120.09343	176.0
120.554085	156.0
120.809906	172.0
121.059662	440.0
121.101036	148.0
121.33989	212.0
121.688736	68.0
121.728264	88.0
123.697128	152.0
124.084816	216.0
124.617485	124.0
124.659706	188.0
124.824203	188.0
124.875351	64.0
124.937637	152.0
125.060318	184.0
125.699638	148.0
126.237999	176.0
127.659752	124.0
127.86673	108.0
128.056808	196.0
128.211304	148.0
128.660172	116.0
128.74115	204.0
129.069107	1568.0
129.093994	104.0
129.112091	92.0
129.521759	196.0
129.743835	88.0
129.80278	164.0
130.07193	584.0
131.083801	1420.0
131.604935	48.0
131.986511	40.0
132.804092	92.0
133.018097	196.0
133.054214	228.0
133.079468	132.0
133.101715	504.0
133.681717	112.0
133.994858	104.0
134.100906	200.0
134.156189	196.0
134.68924	148.0
134.978134	136.0
135.042877	200.0
135.07991	376.0
135.116898	128.0
135.693588	144.0
135.872177	144.0
136.26918	240.0
136.783142	192.0
136.801758	140.0
137.056992	216.0
137.09523	188.0
137.256073	116.0
138.197403	48.0
139.073853	108.0
139.10907	196.0
139.156021	192.0
140.165085	64.0
140.389023	128.0
140.71701	128.0
140.91304	228.0
140.976837	144.0
141.069351	1260.0
141.97113	208.0
142.070755	164.0
142.089905	236.0
142.343704	120.0
142.367447	72.0
142.802368	60.0
143.084641	1528.0
143.230804	36.0
143.276062	44.0
143.836472	208.0
144.103943	164.0
144.831192	128.0
145.063965	188.0
145.099808	1004.0
145.17392	168.0
145.269852	36.0
145.633072	64.0
146.057755	124.0
146.098862	184.0
146.792328	152.0
147.00943	100.0
147.077118	496.0
147.118515	380.0
147.270172	184.0
148.07074	184.0
148.090118	136.0
148.264557	68.0
148.924484	116.0
149.058502	120.0
149.095749	180.0
149.639435	196.0
150.182861	80.0
151.030426	152.0
151.079346	132.0
151.196808	104.0
152.236252	176.0
152.393463	152.0
153.053833	444.0
153.284195	172.0
153.372925	36.0
153.821854	180.0
154.039169	108.0
154.076218	220.0
154.400024	144.0
154.954514	208.0
155.084427	836.0
155.14534	52.0
156.071411	176.0
156.087875	236.0
156.434647	160.0
156.686188	96.0
157.062897	200.0
157.100662	4820.0
157.234604	64.0
158.101837	764.0
158.174561	220.0
158.252167	92.0
158.994156	128.0
159.079147	916.0
159.117477	1104.0
159.20755	72.0
159.58699	32.0
159.639786	120.0
160.083755	304.0
160.120621	176.0
160.269089	124.0
161.05368	348.0
161.097733	200.0
161.604782	72.0
162.382477	116.0
163.075134	340.0
163.106003	176.0
163.744766	172.0
164.076019	188.0
164.4944	48.0
164.747208	128.0
165.043686	176.0
165.0905	408.0
165.168991	128.0
166.068054	172.0
166.365707	276.0
167.080399	700.0
167.226822	164.0
167.273148	68.0
167.878632	156.0
168.089767	180.0
168.410294	184.0
168.971237	148.0
169.002289	76.0
169.056625	160.0
169.100433	788.0
170.069992	176.0
170.102707	172.0
170.904205	56.0
171.07605	264.0
171.117188	312.0
171.750885	72.0
172.087524	108.0
173.031372	152.0
173.057556	132.0
173.094513	208.0
173.130875	172.0
173.57637	60.0
173.812439	100.0
174.098572	184.0
174.340271	56.0
175.075378	308.0
175.110733	308.0
176.523026	100.0
177.052292	224.0
177.092102	388.0
177.558487	84.0
178.092056	152.0
178.190262	96.0
178.31781	72.0
179.085327	364.0
179.21994	76.0
179.323868	104.0
179.9561	52.0
180.075073	352.0
180.428986	92.0
180.629562	188.0
180.854324	68.0
181.09642	268.0
182.106476	280.0
183.080048	212.0
183.115509	508.0
184.242599	188.0
184.73732	96.0
184.799545	104.0
184.8293	148.0
185.094925	184.0
185.127228	368.0
185.753159	128.0
186.095108	148.0
186.141266	152.0
186.807159	168.0
186.981293	160.0
187.077499	220.0
187.110886	884.0
187.269897	60.0
188.110916	176.0
188.131577	208.0
188.153412	176.0
188.54129	40.0
189.019852	228.0
189.090698	360.0
190.387772	88.0
191.08049	216.0
191.10556	304.0
191.281357	84.0
191.421768	92.0
191.711014	108.0
192.092926	160.0
192.251526	108.0
192.433716	112.0
192.513794	108.0
193.093613	308.0
194.041183	280.0
194.108002	180.0
194.565536	128.0
195.113846	300.0
195.215729	144.0
196.119659	348.0
196.170731	160.0
196.69516	160.0
197.095062	216.0
197.131073	276.0
197.421585	172.0
197.457947	112.0
198.10112	220.0
198.142014	168.0
199.115417	324.0
199.150818	112.0
200.149185	128.0
200.921448	44.0
201.093582	128.0
201.118988	328.0
201.794144	120.0
202.640411	164.0
203.042938	124.0
203.109955	224.0
204.031082	124.0
205.099991	484.0
205.120636	120.0
205.386581	168.0
205.614838	96.0
205.843216	132.0
206.10054	192.0
206.200317	56.0
207.104385	768.0
207.150269	224.0
207.241959	136.0
207.59166	32.0
207.829742	48.0
208.08519	128.0
208.108932	200.0
209.094528	148.0
209.130646	520.0
209.474228	44.0
210.140671	212.0
211.111984	320.0
211.14299	260.0
212.113861	128.0
212.173386	136.0
212.196579	64.0
212.42569	40.0
212.704254	76.0
213.081787	208.0
213.123199	140.0
214.872314	188.0
215.10083	300.0
215.137878	188.0
215.704605	148.0
216.485794	160.0
216.825638	168.0
217.094086	400.0
218.099442	104.0
218.590591	168.0
219.116226	276.0
219.813492	72.0
220.120499	160.0
220.888916	120.0
221.076218	584.0
221.128189	508.0
221.164108	176.0
221.19371	116.0
222.082901	168.0
222.106369	96.0
222.76535	172.0
223.102646	188.0
223.151703	132.0
224.101166	208.0
225.087326	188.0
225.12294	264.0
225.15715	56.0
225.707001	128.0
226.131805	28.0
226.239563	152.0
226.512085	192.0
227.10321	152.0
227.141281	152.0
227.168564	184.0
228.102478	196.0
228.13855	156.0
228.201675	156.0
228.52652	156.0
228.905777	196.0
229.017212	152.0
229.119247	156.0
229.130051	288.0
229.152771	184.0
230.105835	168.0
230.749374	168.0
230.891495	128.0
231.11232	320.0
232.117416	244.0
232.142227	68.0
232.221069	148.0
232.384888	84.0
232.515366	224.0
232.551788	108.0
232.837189	168.0
233.084961	192.0
233.125107	616.0
233.183533	36.0
233.514938	48.0
233.670074	84.0
233.740051	176.0
233.90744	148.0
234.099258	264.0
234.138733	232.0
234.684311	64.0
235.107727	184.0
235.140015	652.0
236.124466	132.0
236.149109	556.0
236.909271	172.0
237.093384	176.0
237.123428	440.0
237.157486	144.0
238.093246	92.0
238.176178	120.0
238.243759	192.0
238.670975	104.0
239.080093	164.0
239.110306	300.0
239.137665	412.0
240.031982	56.0
240.099823	72.0
240.121414	104.0
240.14418	148.0
240.383652	216.0
241.116089	328.0
241.879517	212.0
242.117767	160.0
243.119675	160.0
244.11824	324.0
245.125076	144.0
246.135803	564.0
246.241913	116.0
246.320007	204.0
247.147644	148.0
248.106888	132.0
248.157043	220.0
248.715454	240.0
248.762543	160.0
248.822189	192.0
249.107224	152.0
249.160324	444.0
250.022934	152.0
250.167725	108.0
251.108887	128.0
252.104355	136.0
252.145432	128.0
253.113586	192.0
253.153442	128.0
253.328827	68.0
254.105545	116.0
254.156311	52.0
254.197571	76.0
254.238815	52.0
254.619781	120.0
254.775436	56.0
255.126785	136.0
255.487549	88.0
256.098724	188.0
256.121033	132.0
257.108124	168.0
257.120178	168.0
257.129364	220.0
257.176422	200.0
258.133148	112.0
258.499542	172.0
259.148773	500.0
259.40274	72.0
259.793976	60.0
260.146179	144.0
261.084503	128.0
261.123779	136.0
261.164276	448.0
261.917419	148.0
262.126099	248.0
262.869904	32.0
263.095825	300.0
263.140411	128.0
263.171112	188.0
264.11673	164.0
264.129333	152.0
264.139343	148.0
264.181671	128.0
265.016968	52.0
265.11142	156.0
265.166016	128.0
266.009369	72.0
266.126251	128.0
267.147552	48.0
267.169525	124.0
267.465637	52.0
267.856384	112.0
268.123566	92.0
268.29306	52.0
268.834503	216.0
269.148438	120.0
269.869995	120.0
270.130859	96.0
270.153534	276.0
271.139984	124.0
271.799255	220.0
272.148712	152.0
273.106781	152.0
273.128235	140.0
273.160065	932.0
273.244934	36.0
273.788055	68.0
273.985687	60.0
274.162964	284.0
275.083862	152.0
275.106964	108.0
275.166382	124.0
275.285248	108.0
276.144531	164.0
276.174286	192.0
276.395935	92.0
276.925629	256.0
277.11322	152.0
277.157593	360.0
277.555298	136.0
277.707825	60.0
278.03299	44.0
278.166656	160.0
278.621277	140.0
279.136871	276.0
279.173798	236.0
280.183014	212.0
281.149933	436.0
281.98291	108.0
282.150055	204.0
282.200195	132.0
282.4711	108.0
282.819092	80.0
283.136292	232.0
283.144226	276.0
283.156403	196.0
283.168976	312.0
283.492279	84.0
283.871063	232.0
285.118713	192.0
285.158539	120.0
285.193848	184.0
285.745361	188.0
286.085266	168.0
286.137451	172.0
286.168671	264.0
287.092712	148.0
287.126434	124.0
287.173645	184.0
288.141632	176.0
288.182434	116.0
288.872681	148.0
289.150635	124.0
289.851166	152.0
290.135864	184.0
290.671753	88.0
291.045135	124.0
291.113068	200.0
291.141907	344.0
291.173096	672.0
291.204742	168.0
292.180328	188.0
292.784912	144.0
293.116669	120.0
293.149536	316.0
293.184265	248.0
293.859985	104.0
294.145874	136.0
295.116913	152.0
295.165649	208.0
295.205811	120.0
295.308411	160.0
296.165009	120.0
296.873535	148.0
297.127014	120.0
297.138306	108.0
297.148743	140.0
297.185699	132.0
297.752106	196.0
298.11969	168.0
298.938141	124.0
299.881775	60.0
301.157227	796.0
301.220581	96.0
301.313843	48.0
301.365662	76.0
301.448608	60.0
301.49353	84.0
301.649078	128.0
302.162506	192.0
303.172577	404.0
303.359131	40.0
304.073669	44.0
304.171509	148.0
304.858551	132.0
305.154297	212.0
305.867188	88.0
306.062134	136.0
306.149323	120.0
306.173584	140.0
307.128571	124.0
307.160522	244.0
307.460022	76.0
307.711334	152.0
308.130432	152.0
308.158386	128.0
308.207306	96.0
308.465942	84.0
308.62326	224.0
309.146545	264.0
309.183563	228.0
309.470001	72.0
309.697632	80.0
310.142609	112.0
310.191681	280.0
310.615997	32.0
311.19928	220.0
311.915222	180.0
312.003113	120.0
312.03476	36.0
312.171906	124.0
313.15921	508.0
313.678802	112.0
314.159058	228.0
315.171661	124.0
316.162964	148.0
317.142853	136.0
318.015411	128.0
318.16095	156.0
318.910461	148.0
318.985107	72.0
319.088196	140.0
319.167175	1800.0
319.974091	36.0
320.172852	380.0
320.315979	84.0
320.832703	48.0
320.996704	144.0
321.185944	2148.0
321.332001	88.0
322.189209	300.0
322.23526	144.0
322.288879	152.0
322.342468	136.0
322.58194	40.0
323.159729	400.0
323.202454	256.0
323.708954	100.0
324.106567	76.0
324.173584	424.0
324.300079	112.0
324.859467	156.0
325.1716	196.0
326.195312	136.0
327.152222	156.0
327.191803	156.0
329.348267	128.0
329.684265	96.0
330.64624	120.0
331.166595	1180.0
332.164215	228.0
332.886658	80.0
333.173615	112.0
334.184326	160.0
334.224335	156.0
335.1492	112.0
335.659515	36.0
335.838226	80.0
336.133728	120.0
336.838348	96.0
337.105072	184.0
337.176788	2888.0
337.225677	120.0
338.182098	656.0
338.224213	212.0
338.901733	160.0
339.190857	628.0
339.258759	72.0
339.46933	108.0
340.192169	316.0
340.313843	116.0
340.40564	48.0
341.175415	260.0
341.611176	96.0
342.176544	160.0
342.553558	52.0
343.519379	72.0
344.205872	120.0
347.574341	136.0
348.933746	68.0
349.179413	2620.0
349.633057	36.0
350.180115	684.0
350.595642	76.0
350.959198	60.0
351.190247	432.0
352.213135	132.0
352.493347	108.0
353.113922	36.0
353.626495	116.0
354.083282	120.0
355.187836	3792.0
355.258636	112.0
355.410309	40.0
356.146149	156.0
356.195648	684.0
356.890228	44.0
356.957916	52.0
357.161011	144.0
357.202759	304.0
357.578644	40.0
358.222534	120.0
358.365692	128.0
358.716156	64.0
359.185242	152.0
359.825287	40.0
360.195374	184.0
361.187103	144.0
362.908875	112.0
363.003662	116.0
364.009277	192.0
365.164581	116.0
366.066528	96.0
366.542694	152.0
366.683685	156.0
366.779663	132.0
367.064911	64.0
367.188019	2576.0
367.331879	48.0
367.644043	84.0
367.820312	48.0
367.889038	112.0
368.037933	32.0
368.191345	508.0
368.324371	40.0
368.385468	120.0
368.839966	120.0
368.882263	44.0
368.95108	56.0
368.981659	40.0
369.193146	392.0
369.551544	88.0
370.195282	160.0
371.601349	28.0
373.199585	884.0
373.545288	124.0
374.206909	132.0
374.249573	44.0
374.715607	60.0
375.058594	148.0
376.200378	120.0
381.527161	72.0
384.909088	208.0
384.995026	88.0
385.197723	1200.0
385.327026	108.0
385.706085	84.0
385.999329	60.0
386.151825	68.0
386.201355	484.0
387.203003	284.0
387.22937	168.0
387.279053	76.0
388.019714	112.0
388.721802	112.0
388.800293	120.0
391.186127	124.0
394.626312	140.0
396.2966	116.0
397.20047	136.0
403.06488	212.0
403.164795	144.0
403.207733	1436.0
404.084473	124.0
404.214905	308.0
405.201508	140.0
405.229553	136.0
406.195709	40.0
406.552795	64.0
439.233154	180.0
452.259308	116.0
456.803894	64.0
476.594452	88.0
480.273132	36.0
483.287476	180.0
484.228668	112.0
495.222198	128.0
498.669647	56.0
585.303955	160.0
586.305969	188.0
630.207153	48.0
646.09491	84.0
681.406494	44.0
686.220825	112.0
691.083435	68.0
695.753235	36.0
707.89624	56.0
714.876953	96.0
737.802246	96.0
888.460449	56.0
914.340088	60.0
922.682373	88.0
948.825378	32.0
973.059937	84.0
1034.573486	92.0
1101.648804	192.0
1108.112305	92.0
1109.656616	160.0
1178.532227	116.0
1179.632446	116.0
1184.436157	40.0
1185.258301	184.0
1219.273315	192.0
1227.704102	140.0
1228.729492	108.0
1247.329468	92.0
1259.533936	108.0
1261.958008	88.0
1262.325684	136.0
1262.57312	56.0
1295.1427	128.0
1297.378418	36.0
1330.608765	156.0
1331.29126	76.0
1333.463501	200.0
1350.195679	164.0
1366.965942	236.0
1386.750977	188.0
1389.101562	152.0
1389.902832	184.0
1391.468872	164.0
1400.772217	216.0
1434.614624	56.0
1438.36377	40.0
1444.575195	136.0
1453.667114	188.0
1467.81604	108.0
1468.609131	176.0
1471.623535	208.0
1496.126831	112.0
1503.001709	132.0
END IONS

BEGIN IONS
PEPMASS=579.28
CHARGE=1
MSLEVEL=2
SOURCE_INSTRUMENT=LC-ESI-Maxis II HD Q-TOF Bruker
FILENAME=C11_GC11_01_2703.mzXML
SEQ=*..*
IONMODE=positive
ORGANISM=GNPS-NIH-NATURALPRODUCTSLIBRARY_ROUND2_POSITIVE
NAME=NCGC00347381-02!(3S,5S,8R,9S,10S,13R,14S,17R)-5,14-dihydroxy-13-methyl-17-(6-oxopyran-3-yl)-3-[(2R,3R,4S,5S,6R)-3,4,5-trihydroxy-6-(hydroxymethyl)oxan-2-yl]oxy-2,3,4,6,7,8,9,11,12,15,16,17-dodecahydro-1H-cyclopenta[a]phenanthrene-10-carbaldehyde M+H
PI=Jadhav/Dorrestein
DATACOLLECTOR=lfnothias
SMILES=C[C@]12CC[C@H]3[C@@H](CC[C@]4(O)C[C@H](CC[C@]34C=O)O[C@@H]5O[C@H](CO)[C@@H](O)[C@H](O)[C@H]5O)[C@@]1(O)CC[C@@H]2C6=COC(=O)C=C6
INCHI=InChI=1S/C30H42O11/c1-27-8-5-19-20(30(27,38)11-7-18(27)16-2-3-22(33)39-14-16)6-10-29(37)12-17(4-9-28(19,29)15-32)40-26-25(36)24(35)23(34)21(13-31)41-26/h2-3,14-15,17-21,23-26,31,34-38H,4-13H2,1H3/t17-,18+,19-,20+,21+,23+,24-,25+,26+,27+,28-,29-,30-/m0/s1
INCHIAUX=N/A
PUBMED=n/a
SUBMITUSER=mwang87
LIBRARYQUALITY=1
SPECTRUMID=CCMSLIB00000847503
USI=mzspec:GNPS:GNPS-NIH-NATURALPRODUCTSLIBRARY_ROUND2_POSITIVE:accession:CCMSLIB00000847503
SCANS=309
73.210426	230.0
79.054527	344.0
81.070602	197.0
83.011032	241.0
85.024086	192.0
93.066864	187.0
95.04718	128.0
95.083366	420.0
105.069435	189.0
107.046188	365.0
107.085564	719.0
109.027802	170.0
119.086823	235.0
121.066101	183.0
123.071388	94.0
128.062637	206.0
129.068054	128.0
131.08548	441.0
132.085556	338.0
133.100037	950.0
134.107132	155.0
135.112732	274.0
136.087952	288.0
139.028381	228.0
143.084564	389.0
145.061295	163.0
145.100021	838.0
147.082199	137.0
147.112015	534.0
147.893356	194.0
151.077042	237.0
155.082367	133.0
157.099655	260.0
159.116547	352.0
161.093842	315.0
161.13208	3505.0
162.138229	425.0
163.071686	222.0
167.085739	229.0
169.104553	229.0
171.0802	195.0
171.114487	452.0
173.267731	145.0
173.526886	138.0
175.069046	175.0
177.126968	158.0
179.069595	135.0
183.119568	119.0
184.120605	181.0
185.133316	648.0
187.073486	122.0
187.148865	153.0
189.125977	263.0
193.091599	237.0
194.091904	137.0
195.079865	167.0
197.096207	133.0
199.15007	258.0
201.092514	323.0
201.120209	197.0
201.165009	175.0
213.163513	211.0
216.141739	85.0
219.102417	163.0
221.129898	298.0
223.156128	615.0
224.15062	175.0
232.073044	210.0
234.13559	117.0
237.160309	273.0
238.173172	153.0
239.180145	318.0
240.174957	159.0
241.135651	189.0
241.194336	168.0
242.193909	175.0
244.187393	173.0
248.074249	118.0
248.157211	158.0
250.166428	100.0
251.103714	132.0
251.176208	124.0
255.142899	310.0
256.159363	130.0
257.193604	219.0
263.177368	137.0
267.182281	122.0
268.035034	157.0
270.157379	168.0
275.181213	478.0
277.188416	103.0
279.141571	178.0
286.164032	247.0
289.196991	227.0
293.098572	364.0
293.162506	276.0
302.168121	128.0
308.174438	105.0
317.15744	369.0
318.143951	94.0
322.18988	170.0
325.185791	129.0
333.186401	193.0
335.204285	2355.0
336.201447	296.0
345.167633	266.0
346.184723	133.0
353.212921	3128.0
354.212463	568.0
363.195953	1243.0
364.190369	220.0
371.04483	155.0
371.227081	2110.0
372.234467	148.0
381.207092	935.0
399.228271	242.0
417.226501	634.0
418.217041	111.0
435.105804	251.0
472.444275	133.0
516.947266	185.0
537.92334	157.0
561.262512	152.0
579.278076	3972.0
580.281616	625.0
581.291687	182.0
703.13916	106.0
1731.760986	263.0
END IONS

BEGIN IONS
PEPMASS=716.385
CHARGE=1
MSLEVEL=2
SOURCE_INSTRUMENT=LC-ESI-Maxis II HD Q-TOF Bruker
FILENAME=E8_RE8_01_2764.mzXML
SEQ=*..*
IONMODE=positive
ORGANISM=GNPS-NIH-NATURALPRODUCTSLIBRARY_ROUND2_POSITIVE
NAME=NCGC00347423-02!3-[(3S,5S,8R,10S,13R,14S,17R)-3-[4,5-dihydroxy-6-(hydroxymethyl)-3-[3,4,5-trihydroxy-6-(hydroxymethyl)oxan-2-yl]oxyoxan-2-yl]oxy-14-hydroxy-10,13-dimethyl-1,2,3,4,5,6,7,8,9,11,12,15,16,17-tetradecahydrocyclopenta[a]phenanthren-17-yl]-2H-furan-5-one M+NH4
PI=Jadhav/Dorrestein
DATACOLLECTOR=lfnothias
SMILES=C[C@]12CCC3[C@@H](CC[C@H]4C[C@H](CC[C@]34C)OC5OC(CO)C(O)C(O)C5OC6OC(CO)C(O)C(O)C6O)[C@@]1(O)CC[C@@H]2C7=CC(=O)OC7
INCHI=InChI=1S/C35H54O14/c1-33-8-5-18(46-32-30(28(42)26(40)23(14-37)48-32)49-31-29(43)27(41)25(39)22(13-36)47-31)12-17(33)3-4-21-20(33)6-9-34(2)19(7-10-35(21,34)44)16-11-24(38)45-15-16/h11,17-23,25-32,36-37,39-44H,3-10,12-15H2,1-2H3/t17-,18-,19+,20?,21+,22?,23?,25?,26?,27?,28?,29?,30?,31?,32?,33-,34+,35-/m0/s1
INCHIAUX=N/A
PUBMED=n/a
SUBMITUSER=mwang87
LIBRARYQUALITY=1
SPECTRUMID=CCMSLIB00000848084
USI=mzspec:GNPS:GNPS-NIH-NATURALPRODUCTSLIBRARY_ROUND2_POSITIVE:accession:CCMSLIB00000848084
SCANS=287
81.024933	225.0
81.070564	205.0
85.027565	2587.0
85.174347	131.0
86.034569	219.0
86.717522	171.0
86.99675	198.0
91.038216	340.0
95.088417	132.0
97.02961	1018.0
104.043144	311.0
105.06987	219.0
109.027168	366.0
109.10022	195.0
117.066368	140.0
120.092552	166.0
127.038124	2506.0
133.101868	269.0
139.067886	191.0
145.050018	3802.0
145.109421	191.0
146.050919	303.0
153.18602	104.0
159.105316	158.0
160.126984	154.0
163.061234	1636.0
163.152512	190.0
177.092346	386.0
180.085052	184.0
181.085815	317.0
197.125824	397.0
199.14653	353.0
205.123016	110.0
208.066376	168.0
212.391159	130.0
221.117447	173.0
223.057388	139.0
227.179138	170.0
229.095703	139.0
230.123688	121.0
243.137009	183.0
244.136719	99.0
245.186981	108.0
256.211212	163.0
262.144775	158.0
263.264252	197.0
266.709839	253.0
271.059357	108.0
277.473328	176.0
279.039978	195.0
289.091705	185.0
293.216888	146.0
295.230103	113.0
313.209991	135.0
325.113007	560.0
326.117249	108.0
339.233124	1966.0
340.238403	385.0
341.214569	125.0
355.02829	169.0
356.367889	115.0
357.181885	540.0
357.243164	3909.0
357.774445	99.0
358.250153	1415.0
358.487549	99.0
361.61441	219.0
375.254639	15515.0
375.512115	95.0
376.256409	3441.0
377.258148	613.0
378.698578	136.0
389.509216	167.0
537.299561	127.0
717.384399	269.0
718.340698	164.0
721.321899	205.0
1016.98114	130.0
END IONS

BEGIN IONS
PEPMASS=531.295
CHARGE=1
MSLEVEL=2
SOURCE_INSTRUMENT=LC-ESI-Maxis II HD Q-TOF Bruker
FILENAME=G4_GG4_01_2721.mzXML
SEQ=*..*
IONMODE=positive
ORGANISM=GNPS-NIH-NATURALPRODUCTSLIBRARY_ROUND2_POSITIVE
NAME=NCGC00169458-03!5-[(3S,8R,10R,13R,14S,17R)-14-hydroxy-10,13-dimethyl-3-[(2R,3R,4R,5R,6S)-3,4,5-trihydroxy-6-methyloxan-2-yl]oxy-1,2,3,6,7,8,9,11,12,15,16,17-dodecahydrocyclopenta[a]phenanthren-17-yl]pyran-2-one M+H
PI=Jadhav/Dorrestein
DATACOLLECTOR=lfnothias
SMILES=C[C@@H]1O[C@@H](O[C@H]2CC[C@]3(C)C4CC[C@]5(C)[C@H](CC[C@]5(O)[C@@H]4CCC3=C2)C6=COC(=O)C=C6)[C@H](O)[C@H](O)[C@H]1O
INCHI=InChI=1S/C30H42O8/c1-16-24(32)25(33)26(34)27(37-16)38-19-8-11-28(2)18(14-19)5-6-22-21(28)9-12-29(3)20(10-13-30(22,29)35)17-4-7-23(31)36-15-17/h4,7,14-16,19-22,24-27,32-35H,5-6,8-13H2,1-3H3/t16-,19-,20+,21?,22+,24-,25+,26+,27-,28-,29+,30-/m0/s1
INCHIAUX=N/A
PUBMED=n/a
SUBMITUSER=mwang87
LIBRARYQUALITY=1
SPECTRUMID=CCMSLIB00000848836
USI=mzspec:GNPS:GNPS-NIH-NATURALPRODUCTSLIBRARY_ROUND2_POSITIVE:accession:CCMSLIB00000848836
SCANS=415
79.017296	117.0
79.043343	289.0
83.046761	133.0
85.029243	456.0
95.049896	138.0
103.03804	206.0
105.070602	150.0
107.084755	125.0
115.026566	213.0
121.102119	148.0
129.074158	400.0
135.113968	129.0
136.974289	139.0
137.052795	172.0
144.092163	136.0
147.087418	217.0
149.059143	184.0
157.059387	171.0
157.097229	444.0
159.114029	356.0
161.096756	256.0
167.032776	150.0
171.111969	105.0
173.09903	193.0
173.130478	129.0
176.150345	125.0
178.056229	103.0
183.083389	212.0
183.116348	265.0
185.130249	197.0
199.147598	363.0
201.091736	192.0
201.129486	194.0
203.142654	151.0
206.105316	127.0
207.053818	231.0
211.095016	194.0
213.162903	487.0
219.192947	157.0
231.129517	124.0
235.00856	170.0
236.107452	192.0
239.104309	210.0
239.523666	85.0
248.077164	192.0
252.095963	153.0
253.20488	267.0
254.177673	154.0
255.130417	148.0
259.359802	175.0
265.124329	165.0
266.121582	241.0
269.163361	297.0
271.16452	101.0
275.174011	160.0
276.161713	160.0
277.188843	111.0
279.131561	131.0
287.166107	398.0
293.148804	126.0
297.227875	174.0
303.215759	104.0
304.212738	164.0
307.160339	192.0
334.901978	163.0
349.213531	747.0
349.93869	102.0
350.215881	111.0
354.170776	127.0
367.221039	362.0
368.207123	217.0
411.050201	151.0
411.562408	179.0
432.238739	199.0
453.223267	202.0
471.630341	257.0
512.642517	74.0
514.178223	103.0
530.343628	197.0
531.295288	4279.0
532.203613	183.0
532.302368	1124.0
532.384338	280.0
663.325928	136.0
796.288208	159.0
1580.924805	152.0
END IONS

BEGIN IONS
PEPMASS=373.237
CHARGE=1
MSLEVEL=2
SOURCE_INSTRUMENT=LC-ESI-Maxis II HD Q-TOF Bruker
FILENAME=G5_GG5_01_8090.mzXML
SEQ=*..*
IONMODE=positive
ORGANISM=GNPS-NIH-NATURALPRODUCTSLIBRARY_ROUND2_POSITIVE
NAME=NCGC00347770-02_C23H32O4_Carda-5,20(22)-dienolide, 3,14-dihydroxy-, (3beta,9xi)- M+H
PI=Jadhav/Dorrestein
DATACOLLECTOR=lfnothias
SMILES=C[C@]\12CC[C@H](O)CC1=C/C[C@@H]3C2CC[C@]4(C)[C@H](CC[C@]34O)\C5=C\C(=O)OC5
INCHI=InChI=1S/C23H32O4/c1-21-8-5-16(24)12-15(21)3-4-19-18(21)6-9-22(2)17(7-10-23(19,22)26)14-11-20(25)27-13-14/h3,11,16-19,24,26H,4-10,12-13H2,1-2H3/t16-,17+,18?,19+,21-,22+,23-/m0/s1
INCHIAUX=N/A
PUBMED=n/a
SUBMITUSER=mwang87
LIBRARYQUALITY=1
SPECTRUMID=CCMSLIB00000849354
USI=mzspec:GNPS:GNPS-NIH-NATURALPRODUCTSLIBRARY_ROUND2_POSITIVE:accession:CCMSLIB00000849354
SCANS=648
71.04895	352.0
71.118492	151.0
72.045311	63.0
72.153625	296.0
77.037689	386.0
77.202011	136.0
77.27964	53.0
78.0401	162.0
79.053009	5089.0
79.836723	63.0
79.942719	68.0
80.0569	432.0
80.376595	162.0
81.031517	485.0
81.069145	6418.0
81.090446	197.0
82.067314	744.0
83.047691	1285.0
83.090332	213.0
83.281227	229.0
83.714569	180.0
84.549843	164.0
84.586159	57.0
84.612648	89.0
85.03006	151.0
85.4123	170.0
86.141769	257.0
86.461365	197.0
87.506462	239.0
88.046844	206.0
88.981819	212.0
89.737549	202.0
90.683182	143.0
90.974937	89.0
91.023003	135.0
91.053963	15811.0
91.078613	113.0
91.176292	158.0
91.500641	206.0
91.750542	104.0
92.059189	901.0
92.23214	107.0
92.750618	192.0
93.069939	9274.0
94.072922	911.0
94.929459	142.0
95.050232	1736.0
95.085907	5305.0
95.79483	58.0
96.050682	160.0
96.087349	143.0
97.028107	428.0
97.066452	945.0
97.100021	180.0
97.341881	246.0
97.659698	114.0
99.796822	202.0
101.024567	169.0
102.044777	130.0
102.151123	95.0
103.023048	164.0
103.054199	1281.0
103.368462	200.0
104.061729	320.0
104.619865	233.0
104.973846	238.0
105.045403	2741.0
105.07	26493.0
105.125008	116.0
105.525032	57.0
106.046913	175.0
106.073685	1866.0
106.465431	167.0
106.621613	153.0
106.90419	136.0
107.048599	1900.0
107.085526	7415.0
107.125854	234.0
107.251595	224.0
108.058197	155.0
108.087196	670.0
108.413223	216.0
109.02816	380.0
109.065338	1217.0
109.099991	2634.0
109.331238	126.0
109.65271	66.0
110.069054	260.0
110.873894	170.0
111.043869	2588.0
111.084808	574.0
112.04937	103.0
112.739555	202.0
113.50071	151.0
113.986359	185.0
115.054558	2480.0
115.156555	290.0
116.061638	1534.0
117.009857	96.0
117.069633	11681.0
117.125969	75.0
117.277672	117.0
117.567245	224.0
118.077614	2897.0
119.05127	1798.0
119.085205	19545.0
119.711494	105.0
120.025063	86.0
120.088371	690.0
120.431145	127.0
120.787308	261.0
121.065025	3129.0
121.100525	5822.0
121.693924	167.0
122.062836	376.0
122.101784	153.0
123.044304	304.0
123.080879	2570.0
123.117271	773.0
123.190254	148.0
124.082535	98.0
124.396568	170.0
125.059845	3931.0
125.095184	307.0
125.203041	151.0
125.427673	182.0
125.650055	162.0
126.00811	149.0
126.061371	524.0
126.099228	107.0
127.055832	158.0
127.188698	112.0
127.357323	119.0
127.454666	222.0
127.796066	270.0
127.825508	116.0
128.062531	5482.0
128.184143	145.0
129.030594	145.0
129.069778	11555.0
129.187241	68.0
129.220047	128.0
129.40567	95.0
130.076675	5945.0
130.416626	200.0
130.60231	147.0
130.749191	145.0
130.999908	127.0
131.05072	1169.0
131.085556	30867.0
131.141449	129.0
131.946686	113.0
132.053543	99.0
132.089172	4239.0
132.172867	71.0
132.324356	181.0
132.468002	64.0
133.066437	2842.0
133.100754	24261.0
134.03476	135.0
134.064514	95.0
134.104919	2929.0
134.599915	142.0
134.698288	201.0
135.012314	106.0
135.043243	1247.0
135.080551	2310.0
135.117508	3830.0
135.412384	68.0
135.901016	146.0
135.983536	188.0
136.087296	262.0
136.11821	234.0
136.395233	169.0
137.059952	1444.0
137.098602	351.0
137.129105	88.0
138.106613	130.0
139.041382	178.0
139.072769	1294.0
139.107971	118.0
140.131851	199.0
141.070084	3703.0
142.078568	3955.0
142.994934	97.0
143.085724	17131.0
143.933182	50.0
144.02655	177.0
144.055725	248.0
144.092468	8812.0
145.067215	1046.0
145.101547	31851.0
145.21492	87.0
145.273743	176.0
146.065094	249.0
146.105789	3243.0
146.88768	50.0
147.04715	274.0
147.081375	2151.0
147.117264	10719.0
147.24913	99.0
147.397751	65.0
148.085541	315.0
148.11911	747.0
148.532761	118.0
148.902466	99.0
149.060577	1232.0
149.096527	2588.0
149.132889	2123.0
149.20224	123.0
149.248795	78.0
150.101044	369.0
150.731812	70.0
151.078308	567.0
151.11055	1465.0
151.98114	136.0
152.063049	83.0
152.118454	350.0
152.648499	80.0
153.020599	68.0
153.055405	3657.0
153.091904	308.0
153.496857	61.0
154.077255	1406.0
154.578125	172.0
155.085632	9637.0
156.05957	243.0
156.09317	5447.0
157.061874	588.0
157.101639	25079.0
157.138977	208.0
157.197342	105.0
158.002975	68.0
158.069092	878.0
158.106232	4373.0
158.642303	101.0
158.987976	97.0
159.024139	170.0
159.047821	228.0
159.080582	6780.0
159.11731	64062.0
159.20668	224.0
159.329544	171.0
159.436737	69.0
159.642776	93.0
159.661331	107.0
159.88208	247.0
160.050797	136.0
160.085037	801.0
160.120773	5842.0
160.545242	122.0
160.760498	244.0
160.856339	94.0
161.060776	646.0
161.096909	2493.0
161.133148	11937.0
161.176849	72.0
161.335434	77.0
161.464218	132.0
161.828766	89.0
162.09903	478.0
162.136047	583.0
163.07608	2478.0
163.112518	2637.0
163.144119	155.0
164.079102	399.0
164.116119	360.0
164.209473	242.0
164.590286	188.0
165.071198	438.0
165.095825	303.0
165.127533	471.0
166.073532	1147.0
166.126053	141.0
167.08519	4129.0
168.094421	2661.0
169.056061	243.0
169.101318	11601.0
170.0159	204.0
170.068619	246.0
170.107864	2251.0
170.17067	57.0
170.775574	86.0
171.080566	2236.0
171.117523	8822.0
171.193954	245.0
171.307892	313.0
172.087097	348.0
172.121674	1538.0
173.055862	73.0
173.097809	1962.0
173.133591	8624.0
174.067078	105.0
174.09613	96.0
174.137924	205.0
174.46608	71.0
175.074692	2754.0
175.112671	1528.0
175.146347	1162.0
175.545471	99.0
176.038269	109.0
176.082077	730.0
176.113419	115.0
176.140671	200.0
177.092178	10866.0
177.129456	1287.0
177.788574	121.0
178.039978	230.0
178.093491	1754.0
178.136215	379.0
179.085098	3338.0
179.145035	203.0
179.392838	57.0
180.056915	242.0
180.094086	1558.0
181.00206	119.0
181.070251	881.0
181.100143	6643.0
182.072052	297.0
182.110962	2856.0
182.25119	86.0
183.079391	2180.0
183.117737	11983.0
184.092529	167.0
184.123062	2607.0
184.911407	89.0
185.056732	330.0
185.098358	1726.0
185.133057	12796.0
185.263077	83.0
185.466812	150.0
185.601685	173.0
185.628891	68.0
185.669403	136.0
186.061478	118.0
186.098022	202.0
186.137955	1963.0
187.039398	80.0
187.080307	610.0
187.113113	2455.0
187.147751	3307.0
188.078049	459.0
188.119995	506.0
188.159927	239.0
188.492188	57.0
189.091751	4296.0
189.130325	1321.0
189.163391	428.0
189.649597	197.0
190.08815	614.0
190.128082	117.0
190.297073	76.0
191.105759	3172.0
191.142075	85.0
191.206589	103.0
191.318283	180.0
191.477432	50.0
192.096207	1230.0
192.146469	108.0
192.615936	114.0
193.069778	230.0
193.102295	3184.0
194.068573	120.0
194.109024	1301.0
194.818344	64.0
195.047821	118.0
195.117371	7297.0
195.370636	195.0
195.820114	205.0
196.092834	292.0
196.123856	2485.0
196.220383	104.0
196.485626	61.0
197.094772	923.0
197.132462	8375.0
198.102005	445.0
198.139587	1756.0
199.073593	737.0
199.114883	1784.0
199.148544	8544.0
199.280121	58.0
199.599136	146.0
199.695602	143.0
199.789612	236.0
200.117538	732.0
200.153183	1778.0
200.569839	100.0
201.093292	1297.0
201.131409	1204.0
201.162888	3037.0
201.197784	210.0
201.631256	74.0
201.704773	209.0
202.083969	131.0
202.114288	239.0
202.167297	673.0
202.238235	232.0
203.106979	2960.0
203.143631	662.0
204.093063	309.0
204.146866	142.0
205.101303	2043.0
205.122269	2684.0
205.32225	105.0
206.109695	1135.0
207.113434	3927.0
207.36174	158.0
208.101028	405.0
208.123657	860.0
208.970581	133.0
209.058334	206.0
209.104462	1110.0
209.133179	8491.0
210.138275	2029.0
210.897568	98.0
211.009644	101.0
211.112427	1947.0
211.149643	10029.0
211.529861	124.0
212.117111	143.0
212.154449	1889.0
212.999115	178.0
213.092514	865.0
213.127014	1843.0
213.164368	5419.0
214.135529	106.0
214.169403	1287.0
214.209305	171.0
214.964828	213.0
215.106674	1720.0
215.141998	744.0
215.177109	616.0
215.825684	75.0
216.106049	279.0
216.141968	131.0
216.167191	178.0
216.501816	243.0
217.125244	2404.0
217.160217	285.0
217.627365	58.0
218.114044	231.0
218.143219	165.0
218.476547	172.0
219.088043	259.0
219.118073	1524.0
220.057312	120.0
220.091431	89.0
220.127289	2030.0
221.093887	780.0
221.133896	7915.0
221.225021	198.0
222.099136	430.0
222.135269	1643.0
222.910324	110.0
223.112076	387.0
223.147888	6095.0
223.762054	67.0
224.074341	100.0
224.157089	702.0
224.350494	238.0
224.480072	92.0
224.898819	72.0
225.093048	943.0
225.12999	1842.0
225.16394	4050.0
225.233521	125.0
225.527588	111.0
225.650085	212.0
226.088791	131.0
226.129227	215.0
226.167603	436.0
226.53476	160.0
226.893509	155.0
227.109909	3397.0
227.141418	694.0
227.176346	1532.0
227.639633	163.0
228.11409	534.0
228.14563	276.0
228.18602	508.0
228.883881	178.0
229.122757	2672.0
229.165604	1228.0
229.201202	73.0
230.119705	82.0
230.170822	493.0
230.808136	103.0
231.116104	738.0
231.137146	918.0
231.174911	869.0
231.470444	63.0
231.515762	112.0
231.942078	147.0
232.12883	929.0
233.134872	1575.0
234.142334	1369.0
234.334152	168.0
234.366272	67.0
235.113831	721.0
235.148911	8799.0
235.25795	244.0
236.152481	2895.0
237.055862	134.0
237.130768	1562.0
237.164017	3254.0
238.127396	332.0
238.170654	897.0
238.711319	139.0
239.104279	239.0
239.144119	1751.0
239.174164	965.0
239.267944	98.0
239.451736	166.0
240.108505	163.0
240.143509	295.0
240.181656	118.0
241.123886	1333.0
241.158325	1026.0
241.258789	115.0
242.126495	1032.0
242.177795	295.0
242.312256	116.0
242.638458	80.0
242.739853	77.0
243.137863	3648.0
243.174728	1258.0
243.330475	141.0
243.52092	126.0
243.944901	50.0
244.148346	487.0
244.183792	158.0
245.111542	234.0
245.15242	789.0
245.915955	129.0
246.120911	118.0
246.154831	148.0
246.95401	206.0
247.146591	2377.0
247.588562	137.0
247.653458	117.0
248.118546	216.0
248.152969	1302.0
248.290359	63.0
249.129242	1510.0
249.163956	6570.0
249.400238	110.0
249.582245	206.0
250.119186	305.0
250.166702	999.0
250.890564	273.0
251.146118	1414.0
251.178818	3630.0
251.498489	193.0
252.124207	188.0
252.149994	149.0
252.188293	1703.0
253.128174	498.0
253.158234	1718.0
253.19313	1540.0
253.949509	90.0
254.119736	91.0
254.16391	508.0
254.198059	192.0
254.283051	54.0
254.524719	71.0
255.139267	3396.0
255.206207	127.0
255.96936	57.0
256.04422	90.0
256.147308	609.0
257.154602	2605.0
257.755157	215.0
258.125366	185.0
259.145416	1595.0
260.155487	1077.0
260.655029	125.0
261.129669	479.0
261.163422	1143.0
262.06601	158.0
262.144379	475.0
262.173492	1147.0
263.141968	2668.0
263.179901	3254.0
263.635498	66.0
264.152557	415.0
265.119812	115.0
265.157959	897.0
265.193939	1482.0
266.130493	394.0
266.198456	197.0
267.13739	1922.0
267.1745	1010.0
267.695984	292.0
267.872253	204.0
268.08139	84.0
268.141846	135.0
268.210602	131.0
269.155518	2049.0
269.574524	149.0
270.152557	863.0
270.190338	201.0
271.111389	158.0
271.168396	3735.0
271.891022	204.0
272.143646	73.0
272.173401	716.0
272.949402	207.0
273.068939	150.0
273.163116	354.0
274.171906	90.0
275.151947	438.0
275.180298	1758.0
276.152588	608.0
276.191345	677.0
276.686676	249.0
277.158234	3156.0
277.195312	9455.0
277.269562	217.0
278.030548	60.0
278.125885	119.0
278.165436	470.0
278.201691	2088.0
279.175354	1161.0
279.212708	838.0
279.54483	116.0
280.202637	127.0
280.281494	130.0
280.899323	121.0
281.155365	4938.0
281.228821	1675.0
281.424164	116.0
281.513855	56.0
282.161194	592.0
282.195465	202.0
282.232574	270.0
283.008087	156.0
283.170441	1104.0
283.20459	329.0
283.592255	92.0
284.169434	161.0
285.169403	246.0
285.191681	247.0
286.177429	258.0
289.161743	522.0
289.197113	1038.0
290.166656	129.0
290.20694	87.0
290.825165	88.0
291.098633	84.0
291.211761	16425.0
291.546204	202.0
291.698151	108.0
291.745361	84.0
291.857819	83.0
292.177307	614.0
292.2146	3365.0
292.372772	88.0
292.459656	84.0
293.15744	197.0
293.190857	694.0
293.225708	3240.0
294.159973	366.0
294.231537	562.0
294.933594	95.0
295.111084	54.0
295.170074	12574.0
295.208252	1223.0
296.054657	76.0
296.173126	2305.0
297.17923	1396.0
297.217682	420.0
298.184113	480.0
299.165771	190.0
299.198334	132.0
299.230408	232.0
300.20105	123.0
301.195038	3466.0
302.197998	834.0
303.168243	121.0
304.178467	261.0
305.19342	85.0
307.1698	254.0
307.20166	558.0
308.170288	223.0
308.332977	78.0
309.038513	184.0
309.143921	294.0
309.221039	9207.0
310.036346	54.0
310.198425	785.0
310.224426	1351.0
310.598145	198.0
311.200623	480.0
311.238831	764.0
313.121918	78.0
313.181122	5559.0
313.220764	1869.0
313.393585	100.0
314.184448	576.0
314.23053	347.0
314.394531	257.0
314.917084	147.0
315.129944	111.0
315.187164	171.0
317.181488	94.0
318.727844	171.0
319.002625	89.0
319.101532	243.0
319.20639	19156.0
319.510651	97.0
319.612457	106.0
320.162231	224.0
320.210114	1999.0
320.716095	101.0
321.191467	210.0
322.162415	114.0
322.197815	1057.0
322.655151	72.0
323.200806	358.0
324.206787	122.0
325.212341	420.0
326.229767	124.0
327.112488	288.0
327.202209	572.0
327.237	1680.0
327.545685	299.0
328.248688	158.0
329.657379	62.0
332.060822	51.0
334.860779	103.0
335.19809	133.0
336.488556	130.0
336.687897	198.0
336.8284	80.0
336.933624	110.0
336.981873	163.0
337.052032	258.0
337.110046	89.0
337.217041	97885.0
337.39389	111.0
337.485779	59.0
337.570099	93.0
337.830261	56.0
337.959656	212.0
338.127441	309.0
338.220734	14973.0
339.22818	430.0
339.78067	100.0
340.198151	101.0
340.372986	101.0
340.493439	62.0
340.534271	76.0
340.701965	84.0
341.208252	135.0
343.204254	96.0
343.480042	120.0
352.812836	153.0
353.335876	72.0
354.396057	58.0
354.930908	119.0
355.063751	108.0
355.227417	67345.0
355.345673	57.0
356.22998	11278.0
356.64975	74.0
357.236267	597.0
358.039429	118.0
358.470642	55.0
358.614319	56.0
358.721436	107.0
359.622223	83.0
371.564789	182.0
373.168762	330.0
373.23761	6910.0
373.524078	82.0
374.240112	1728.0
375.237427	134.0
396.246643	95.0
419.986267	80.0
507.479645	80.0
560.400391	52.0
734.054077	50.0
799.033569	68.0
1138.048706	140.0
1191.25769	63.0
1344.404663	260.0
1398.812622	255.0
1415.724365	173.0
1432.834229	279.0
1440.452637	172.0
1458.492432	179.0
1466.778931	237.0
1492.400146	203.0
1583.633423	275.0
1600.350586	188.0
1708.773682	130.0
1771.297119	234.0
1796.950806	95.0
1844.062866	331.0
1851.682495	94.0
1880.786499	204.0
1938.939941	92.0
1948.338745	118.0
1951.855835	297.0
1974.302246	109.0
1981.833862	139.0
1989.390259	332.0
END IONS

BEGIN IONS
PEPMASS=577.337
CHARGE=1
MSLEVEL=2
SOURCE_INSTRUMENT=LC-ESI-Maxis II HD Q-TOF Bruker
FILENAME=E2_RE2_01_8125.mzXML
SEQ=*..*
IONMODE=positive
ORGANISM=GNPS-NIH-NATURALPRODUCTSLIBRARY_ROUND2_POSITIVE
NAME=NCGC00385369-01_C32H48O9_Card-20(22)-enolide, 16-(acetyloxy)-3-[(2,6-dideoxy-3-O-methylhexopyranosyl)oxy]-14-hydroxy-, (3beta,5beta,8xi,9xi,16beta)- M+H
PI=Jadhav/Dorrestein
DATACOLLECTOR=lfnothias
SMILES=COC1CC(OC(C)C1O)O[C@H]2CC[C@@]3(C)[C@H](CCC4C3CC[C@]5(C)[C@H]([C@H](C[C@]45O)OC(C)=O)\C6=C\C(=O)OC6)C2
INCHI=InChI=1S/C32H48O9/c1-17-29(35)24(37-5)14-27(39-17)41-21-8-10-30(3)20(13-21)6-7-23-22(30)9-11-31(4)28(19-12-26(34)38-16-19)25(40-18(2)33)15-32(23,31)36/h12,17,20-25,27-29,35-36H,6-11,13-16H2,1-5H3/t17?,20-,21+,22?,23?,24?,25+,27?,28+,29?,30+,31-,32+/m1/s1
INCHIAUX=N/A
PUBMED=n/a
SUBMITUSER=mwang87
LIBRARYQUALITY=1
SPECTRUMID=CCMSLIB00000849439
USI=mzspec:GNPS:GNPS-NIH-NATURALPRODUCTSLIBRARY_ROUND2_POSITIVE:accession:CCMSLIB00000849439
SCANS=685
70.033455	168.0
70.695908	163.0
70.779419	366.0
71.016602	253.0
71.048035	3789.0
71.850464	162.0
72.054924	189.0
73.059937	593.0
73.225708	89.0
74.012611	197.0
79.020065	200.0
79.053261	629.0
80.201065	126.0
81.071053	1042.0
82.076187	163.0
83.044144	149.0
83.08287	222.0
83.173607	50.0
84.241982	128.0
84.581818	132.0
84.665573	126.0
85.036522	267.0
85.063805	8930.0
86.066719	157.0
87.042084	859.0
91.032356	161.0
91.053802	387.0
93.069977	1992.0
94.076813	300.0
94.377716	120.0
94.985054	99.0
95.049278	6461.0
95.075432	300.0
96.054451	498.0
96.551971	147.0
97.0504	160.0
97.075714	135.0
97.099648	392.0
98.151855	283.0
98.366066	116.0
99.080147	424.0
101.060051	1835.0
103.077248	139.0
105.069534	2078.0
106.070992	316.0
107.050491	224.0
107.085503	2037.0
109.031456	203.0
109.065681	88.0
109.101288	1903.0
111.079498	212.0
111.873512	187.0
112.904732	61.0
113.060318	42855.0
113.280533	88.0
113.978935	77.0
114.063698	2487.0
114.936005	117.0
115.065338	201.0
117.07	1037.0
117.829773	126.0
119.060814	822.0
119.08812	2328.0
120.0951	235.0
120.841476	179.0
120.898354	82.0
121.067451	787.0
121.10157	1272.0
123.045425	869.0
123.07016	235.0
123.117867	151.0
124.506737	84.0
125.02388	217.0
125.061295	1286.0
127.038918	125.0
127.05471	166.0
127.075813	747.0
128.060669	77.0
129.044678	167.0
129.070145	1453.0
129.093002	171.0
130.076874	147.0
130.478882	122.0
131.086273	2648.0
131.266525	54.0
131.457809	57.0
132.093307	95.0
133.03688	119.0
133.06572	367.0
133.101013	2228.0
134.107986	94.0
135.077194	87.0
135.117844	1566.0
136.644928	64.0
137.056183	176.0
137.095093	228.0
138.063202	141.0
139.041473	295.0
139.067474	220.0
141.055405	429.0
142.075027	383.0
143.028183	160.0
143.08725	1990.0
144.670166	128.0
145.088089	11030.0
145.163193	109.0
145.197891	81.0
146.092651	602.0
147.045364	485.0
147.082321	556.0
147.117279	2914.0
147.281326	86.0
148.119843	207.0
148.938431	185.0
149.057816	175.0
149.133408	970.0
149.29776	192.0
150.070969	114.0
150.146683	213.0
151.071503	381.0
153.057297	829.0
153.637375	144.0
155.06459	112.0
155.086914	1155.0
156.072159	192.0
157.061111	196.0
157.080704	548.0
157.101852	2655.0
158.051544	102.0
158.076187	213.0
158.106171	93.0
159.078201	312.0
159.118622	3994.0
160.13147	160.0
161.06073	293.0
161.134583	3499.0
162.136642	748.0
162.76593	80.0
163.076096	621.0
163.113251	566.0
163.151245	221.0
164.078537	234.0
165.056961	451.0
165.076431	270.0
166.079269	117.0
167.070984	270.0
168.021149	180.0
168.089233	178.0
169.100159	1430.0
170.094086	215.0
171.080048	274.0
171.11879	872.0
171.425949	194.0
171.743179	77.0
172.087662	104.0
172.123276	130.0
173.067963	135.0
173.098572	636.0
173.132675	505.0
174.070511	65.0
174.098618	98.0
175.075974	3411.0
175.111694	120.0
175.148346	861.0
175.276047	189.0
175.527161	110.0
176.062286	73.0
176.084534	123.0
176.118118	174.0
177.091141	1071.0
177.133804	80.0
179.071823	141.0
179.146698	115.0
179.725067	55.0
181.099777	560.0
182.111237	371.0
183.078262	139.0
183.116058	2204.0
184.080368	147.0
184.117828	211.0
185.056107	224.0
185.099792	293.0
185.132782	1265.0
187.077057	351.0
187.150009	650.0
188.146805	120.0
189.093796	1441.0
189.164124	106.0
190.095474	230.0
190.291855	216.0
191.104065	263.0
193.086121	382.0
194.112106	522.0
195.082642	247.0
195.121323	609.0
196.123627	371.0
197.098831	248.0
197.135132	863.0
197.787399	110.0
198.1026	129.0
198.13237	250.0
199.108932	579.0
199.15004	1160.0
199.378876	194.0
200.121048	202.0
200.159561	426.0
201.047424	157.0
201.09407	571.0
201.130798	129.0
201.166168	724.0
202.081436	226.0
202.097916	253.0
202.131989	124.0
202.172104	88.0
203.110352	1120.0
203.143951	216.0
203.186859	194.0
204.95462	108.0
205.103531	288.0
206.161713	103.0
207.097824	487.0
209.097885	449.0
209.131882	1653.0
210.108597	160.0
211.111771	611.0
211.147171	938.0
212.123093	108.0
212.147934	143.0
213.093826	680.0
213.128876	534.0
213.164627	1019.0
213.747131	110.0
214.091324	107.0
214.16983	140.0
214.335266	70.0
215.05574	118.0
215.106674	725.0
215.151733	576.0
215.179504	1384.0
216.182007	83.0
216.97673	123.0
217.12059	527.0
217.162949	231.0
218.112503	107.0
221.096619	439.0
221.119904	606.0
222.138367	117.0
222.910248	105.0
223.112	134.0
223.148758	596.0
224.123459	86.0
225.089355	182.0
225.134979	271.0
226.093826	168.0
226.168884	100.0
227.014603	53.0
227.107635	3122.0
227.145432	388.0
227.184555	126.0
228.107407	453.0
228.914398	116.0
229.126022	3266.0
229.163773	265.0
229.943497	90.0
230.126511	481.0
230.165512	123.0
231.111404	114.0
231.141144	230.0
231.176254	116.0
231.972351	114.0
232.177048	319.0
233.125717	427.0
233.160263	249.0
233.767517	87.0
234.131424	82.0
234.856979	162.0
235.148743	577.0
237.120483	65.0
237.167206	389.0
238.13501	72.0
239.113174	228.0
239.169708	361.0
240.144897	120.0
240.349564	87.0
241.076828	179.0
241.124664	2100.0
241.194031	82.0
243.138885	972.0
244.135742	219.0
245.126587	516.0
246.143631	92.0
247.13295	1227.0
248.133713	127.0
249.067383	242.0
249.160889	529.0
250.175095	211.0
251.145645	127.0
251.178696	438.0
252.189743	234.0
253.16156	298.0
253.196671	881.0
254.129898	68.0
254.162491	198.0
254.2005	257.0
255.138184	1604.0
255.20723	288.0
256.136108	149.0
257.154907	745.0
259.13266	316.0
260.049805	65.0
261.158356	369.0
261.235352	166.0
262.173981	89.0
262.399872	82.0
263.140503	345.0
263.179474	301.0
264.145691	77.0
265.137024	165.0
267.098602	105.0
267.144287	178.0
267.21402	107.0
268.128906	135.0
268.214722	79.0
269.15683	771.0
270.15918	67.0
271.20929	274.0
273.151062	554.0
273.223511	86.0
274.16153	111.0
275.163605	131.0
276.180237	147.0
277.15686	488.0
277.190796	489.0
278.197235	294.0
279.173889	159.0
280.148438	146.0
280.223541	246.0
281.15213	586.0
281.222717	102.0
281.865387	126.0
282.157471	474.0
283.171417	368.0
284.931122	86.0
285.159698	76.0
285.191315	85.0
287.050385	151.0
287.161133	286.0
288.724945	85.0
289.201721	185.0
291.183319	355.0
291.21402	1582.0
292.214355	587.0
293.173004	90.0
293.224579	669.0
294.22934	284.0
295.167694	532.0
295.196625	507.0
296.177277	245.0
297.177826	174.0
299.156342	132.0
300.238037	101.0
301.001343	113.0
301.139465	143.0
301.199707	258.0
304.190094	137.0
305.071625	120.0
305.205383	91.0
307.184906	110.0
309.184265	223.0
309.220886	1801.0
310.193848	177.0
310.224945	494.0
311.237244	374.0
313.218536	183.0
314.220795	235.0
317.887268	159.0
318.217377	84.0
319.125702	129.0
319.162506	223.0
319.209229	2978.0
320.203369	438.0
322.184937	369.0
327.047333	106.0
327.205658	174.0
327.234283	128.0
331.164124	147.0
332.209625	59.0
335.019989	74.0
335.199097	285.0
336.964264	78.0
337.217041	31885.0
337.381805	54.0
337.673065	108.0
337.759735	80.0
337.797943	51.0
338.110352	83.0
338.164215	71.0
338.220764	5847.0
338.310425	129.0
338.746307	57.0
339.060364	92.0
339.226105	332.0
339.30426	77.0
340.560852	132.0
343.234467	165.0
345.137634	435.0
345.955048	185.0
348.638519	82.0
349.156036	138.0
349.42099	126.0
349.666199	138.0
351.16864	137.0
353.232208	210.0
353.396484	93.0
353.790192	56.0
354.231384	113.0
354.843933	72.0
355.116577	335.0
355.227661	36370.0
355.408417	92.0
355.549286	168.0
355.717255	93.0
356.176636	234.0
356.230408	5310.0
356.343933	105.0
356.554504	96.0
357.236786	757.0
358.641022	87.0
361.185669	167.0
370.130157	79.0
371.222839	263.0
372.207397	111.0
372.502258	85.0
372.569885	164.0
372.99234	91.0
373.099976	100.0
373.152771	188.0
373.238556	30844.0
374.138062	96.0
374.242218	7103.0
375.242737	812.0
376.393616	68.0
376.494415	56.0
376.632202	98.0
377.523254	104.0
379.222321	120.0
379.631317	55.0
382.171143	111.0
383.193054	97.0
383.254852	114.0
392.25116	141.0
394.85788	143.0
397.239807	713.0
398.243439	112.0
413.202484	116.0
415.252838	735.0
416.257782	338.0
419.28949	107.0
420.20816	150.0
431.264526	60.0
432.280487	105.0
433.169403	50.0
433.258331	2778.0
434.266205	462.0
435.160309	57.0
438.292328	98.0
445.298889	179.0
449.089752	111.0
449.259552	178.0
455.151367	121.0
455.322052	159.0
461.239563	122.0
463.271057	113.0
464.278717	83.0
465.261444	117.0
466.291168	59.0
471.158142	50.0
481.287048	98.0
499.306427	1585.0
500.300964	124.0
501.306	83.0
505.206573	131.0
509.285553	156.0
517.248169	230.0
517.317261	1576.0
518.324585	407.0
519.297424	111.0
525.039185	62.0
543.046021	98.0
558.380798	94.0
561.344177	95.0
575.32959	65.0
576.346863	102.0
577.113403	154.0
577.271423	110.0
577.341919	554.0
578.364929	127.0
579.303528	99.0
579.352356	158.0
582.831909	109.0
899.305298	54.0
1123.393921	118.0
1380.830322	182.0
1473.071167	172.0
1720.473511	85.0
1737.692993	213.0
1834.193481	128.0
1857.629639	100.0
1934.316162	216.0
1970.409546	240.0
END IONS

BEGIN IONS
PEPMASS=549.306
CHARGE=1
MSLEVEL=2
SOURCE_INSTRUMENT=LC-ESI-Maxis II HD Q-TOF Bruker
FILENAME=E9_RE9_01_8034.mzXML
SEQ=*..*
IONMODE=positive
ORGANISM=GNPS-NIH-NATURALPRODUCTSLIBRARY_ROUND2_POSITIVE
NAME=NCGC00169509-02_C30H44O9_(3beta,5beta)-3-[(2,6-Dideoxy-3-O-methyl-beta-D-ribo-hexopyranosyl)oxy]-5,14-dihydroxy-19-oxocard-20(22)-enolide M+H
PI=Jadhav/Dorrestein
DATACOLLECTOR=lfnothias
SMILES=CO[C@H]1C[C@@H](O[C@H](C)[C@H]1O)O[C@H]2CC[C@]3(C=O)[C@H]4CC[C@]5(C)[C@H](CC[C@]5(O)[C@@H]4CC[C@]3(O)C2)\C6=C\C(=O)OC6
INCHI=InChI=1S/C30H44O9/c1-17-26(33)23(36-3)13-25(38-17)39-19-4-9-28(16-31)21-5-8-27(2)20(18-12-24(32)37-15-18)7-11-30(27,35)22(21)6-10-29(28,34)14-19/h12,16-17,19-23,25-26,33-35H,4-11,13-15H2,1-3H3/t17-,19+,20-,21+,22-,23+,25+,26-,27-,28+,29+,30+/m1/s1
INCHIAUX=N/A
PUBMED=n/a
SUBMITUSER=mwang87
LIBRARYQUALITY=1
SPECTRUMID=CCMSLIB00000850881
USI=mzspec:GNPS:GNPS-NIH-NATURALPRODUCTSLIBRARY_ROUND2_POSITIVE:accession:CCMSLIB00000850881
SCANS=513
70.065666	199.0
70.571999	108.0
70.801834	139.0
71.032562	108.0
71.049759	1721.0
81.064819	134.0
83.048836	714.0
85.027565	5076.0
85.063622	1392.0
86.563133	62.0
87.045403	1106.0
87.585899	55.0
88.366264	82.0
89.850502	69.0
91.054626	467.0
91.191391	234.0
92.723297	137.0
93.070328	70.0
94.074509	110.0
95.049767	215.0
95.084877	114.0
95.164879	198.0
96.092331	548.0
98.069008	105.0
99.04377	1559.0
101.058983	379.0
103.037468	209.0
105.046021	96.0
105.069595	678.0
107.085503	784.0
109.059624	329.0
111.044701	800.0
112.076569	119.0
113.056618	108.0
115.075378	132.0
117.054199	224.0
117.070724	201.0
118.070816	116.0
119.083687	1164.0
121.098053	223.0
122.105171	196.0
123.079369	105.0
125.05909	1609.0
129.058762	962.0
130.076126	113.0
131.047012	231.0
131.086655	837.0
132.091858	160.0
133.063568	141.0
133.102188	1048.0
134.469986	112.0
134.883606	115.0
135.119064	324.0
137.0625	141.0
141.070602	198.0
141.859802	70.0
143.086273	715.0
145.064468	112.0
145.101593	1538.0
146.098984	124.0
147.04924	173.0
147.080292	118.0
147.11618	422.0
147.755432	237.0
149.062454	278.0
151.067474	76.0
153.016449	201.0
153.054642	2135.0
153.093658	294.0
155.047943	94.0
155.07724	1146.0
156.078781	304.0
157.101044	1106.0
158.112228	105.0
159.072205	291.0
159.117935	1061.0
160.044205	142.0
160.11969	167.0
161.095337	440.0
163.115936	313.0
166.081329	96.0
167.088699	917.0
169.070496	111.0
169.10231	997.0
170.107422	183.0
170.158417	121.0
171.116714	522.0
172.117737	134.0
172.992264	225.0
173.089951	326.0
173.133469	814.0
175.075882	237.0
175.144943	281.0
176.079605	129.0
177.077042	241.0
177.095566	555.0
177.132446	166.0
178.103867	199.0
178.527023	213.0
181.104706	586.0
181.199188	125.0
183.115921	1030.0
184.118195	194.0
185.081207	273.0
185.132553	868.0
186.138062	308.0
187.110794	399.0
187.149033	361.0
188.083496	188.0
188.115051	132.0
189.100342	87.0
190.091721	179.0
191.106964	101.0
193.106613	164.0
194.105881	89.0
194.995148	122.0
195.0755	108.0
195.110443	109.0
196.122879	94.0
197.130157	541.0
198.198074	193.0
199.11879	212.0
199.148651	944.0
200.131027	157.0
200.152603	235.0
201.021255	178.0
201.127106	346.0
201.156082	122.0
201.694016	93.0
202.096588	269.0
205.118515	343.0
206.11235	94.0
207.063141	131.0
207.116852	365.0
208.068817	119.0
208.12291	97.0
209.098938	105.0
209.136139	400.0
210.132187	134.0
211.111572	294.0
212.160507	171.0
213.1642	438.0
214.167664	69.0
216.098877	120.0
216.420425	109.0
216.763077	139.0
217.64888	56.0
217.686935	74.0
218.100754	224.0
219.137787	75.0
220.128418	156.0
221.039444	76.0
221.062134	120.0
221.130447	198.0
223.148911	807.0
225.020157	119.0
225.123047	259.0
225.173462	240.0
226.125778	214.0
226.166855	160.0
227.094864	83.0
227.145538	373.0
227.179184	171.0
228.151031	80.0
229.123993	550.0
231.1362	117.0
231.171509	116.0
232.12677	153.0
233.13028	245.0
235.116959	124.0
235.14267	254.0
236.151917	391.0
237.129486	106.0
238.033539	152.0
239.108902	206.0
239.178299	66.0
241.154938	268.0
245.135498	155.0
246.155746	119.0
247.146484	265.0
247.984436	106.0
249.11879	200.0
249.166428	402.0
250.140457	132.0
251.021759	205.0
251.139099	242.0
251.175766	664.0
252.152725	76.0
252.181335	73.0
253.18808	135.0
255.015747	111.0
255.154999	427.0
257.134003	113.0
258.188538	101.0
259.133545	62.0
261.116241	143.0
261.168823	86.0
261.225891	175.0
265.12323	142.0
265.192017	252.0
266.051056	121.0
268.149109	78.0
269.154968	624.0
271.168823	152.0
271.197144	134.0
275.076935	119.0
275.17923	68.0
275.635284	70.0
276.093018	116.0
276.193634	135.0
277.197906	83.0
277.470093	141.0
278.128571	87.0
279.140076	353.0
279.217285	176.0
280.222717	67.0
281.195496	203.0
283.128479	123.0
283.167938	1248.0
285.191742	86.0
286.997559	73.0
287.163361	329.0
289.162964	155.0
289.197083	845.0
290.19339	327.0
291.134003	105.0
291.214905	207.0
292.215912	146.0
293.145599	124.0
293.186981	130.0
294.193817	128.0
297.226898	186.0
299.174713	80.0
301.177734	132.0
303.212372	113.0
306.962616	149.0
307.164795	145.0
307.204346	1509.0
307.561676	109.0
308.213104	289.0
309.217926	83.0
312.170074	74.0
312.209076	132.0
314.098755	185.0
315.152008	150.0
317.187714	909.0
318.200287	116.0
323.191589	277.0
325.081329	61.0
325.124756	57.0
325.21582	5537.0
326.182007	99.0
326.22287	427.0
335.202698	4579.0
336.207977	754.0
337.205078	112.0
341.213348	108.0
342.214355	132.0
343.167114	118.0
343.22879	521.0
343.65094	97.0
344.246155	82.0
352.06839	106.0
352.840729	76.0
353.156342	491.0
353.212036	11268.0
353.749023	72.0
353.825134	103.0
354.216034	2366.0
355.220215	121.0
359.204773	218.0
366.98761	80.0
371.165192	179.0
371.221954	5666.0
372.225098	1312.0
373.235352	110.0
374.691376	89.0
379.246002	239.0
386.236694	89.0
388.222687	94.0
389.235352	1910.0
390.235657	528.0
391.219757	148.0
411.114166	75.0
411.212158	208.0
412.018036	113.0
419.029877	88.0
433.227783	110.0
437.058594	128.0
437.246704	75.0
453.237885	66.0
456.169617	175.0
463.261627	86.0
491.32312	215.0
495.276459	94.0
531.293518	83.0
535.652832	105.0
856.381531	93.0
END IONS

BEGIN IONS
PEPMASS=873.411
CHARGE=1
MSLEVEL=2
SOURCE_INSTRUMENT=LC-ESI-Maxis II HD Q-TOF Bruker
FILENAME=E9_RE9_01_8034.mzXML
SEQ=*..*
IONMODE=positive
ORGANISM=GNPS-NIH-NATURALPRODUCTSLIBRARY_ROUND2_POSITIVE
NAME=NCGC00384513-01_C42H64O19_(3beta,5alpha,9xi)-3-{[beta-D-Glucopyranosyl-(1->6)-beta-D-glucopyranosyl-(1->4)-6-deoxy-3-O-methyl-beta-L-idopyranosyl]oxy}-14-hydroxy-19-oxocard-20(22)-enolide M+H
PI=Jadhav/Dorrestein
DATACOLLECTOR=lfnothias
SMILES=CO[C@@H]1[C@@H](O)[C@H](O[C@@H](C)[C@H]1O[C@@H]2O[C@H](CO[C@@H]3O[C@H](CO)[C@@H](O)[C@H](O)[C@H]3O)[C@@H](O)[C@H](O)[C@H]2O)O[C@H]4CC[C@@]5(C=O)[C@@H](CC[C@@H]6C5CC[C@]7(C)[C@H](CC[C@]67O)/C8=C/C(=O)OC8)C4
INCHI=InChI=1S/C42H64O19/c1-18-35(61-38-33(51)31(49)29(47)26(60-38)16-56-37-32(50)30(48)28(46)25(14-43)59-37)36(54-3)34(52)39(57-18)58-21-6-10-41(17-44)20(13-21)4-5-24-23(41)7-9-40(2)22(8-11-42(24,40)53)19-12-27(45)55-15-19/h12,17-18,20-26,28-39,43,46-53H,4-11,13-16H2,1-3H3/t18-,20-,21-,22+,23?,24+,25+,26+,28+,29+,30-,31-,32+,33+,34+,35+,36+,37+,38-,39+,40+,41+,42-/m0/s1
INCHIAUX=N/A
PUBMED=n/a
SUBMITUSER=mwang87
LIBRARYQUALITY=1
SPECTRUMID=CCMSLIB00000850906
USI=mzspec:GNPS:GNPS-NIH-NATURALPRODUCTSLIBRARY_ROUND2_POSITIVE:accession:CCMSLIB00000850906
SCANS=512
70.766144	194.0
71.048492	918.0
72.051826	354.0
75.034004	102.0
77.062386	338.0
79.045143	311.0
79.103539	118.0
81.018547	367.0
81.07534	91.0
82.55407	61.0
83.04834	3674.0
83.869965	85.0
84.051758	428.0
84.365883	233.0
84.9944	137.0
85.027702	21909.0
85.064209	3179.0
85.267929	70.0
85.807976	54.0
86.012032	67.0
86.032585	167.0
86.067429	170.0
87.042526	3753.0
87.095078	99.0
87.556305	212.0
87.970154	96.0
89.061653	650.0
91.033195	128.0
91.053207	507.0
92.042145	93.0
92.059898	153.0
93.053322	203.0
93.069427	554.0
95.050873	192.0
95.086662	744.0
96.647575	74.0
97.027771	2562.0
97.062668	288.0
97.086441	104.0
98.5681	58.0
99.044411	5285.0
99.108101	167.0
99.514404	69.0
100.051132	261.0
101.024651	316.0
101.058044	968.0
103.020912	177.0
103.038887	260.0
104.044228	326.0
105.06916	632.0
106.069885	186.0
107.08577	580.0
108.091682	110.0
108.206223	86.0
108.800613	126.0
109.030891	634.0
109.065155	885.0
109.101601	716.0
110.031914	168.0
110.328415	162.0
111.018829	431.0
111.044617	5261.0
111.176208	269.0
112.050003	248.0
112.754662	122.0
113.015999	181.0
113.057899	624.0
115.039726	568.0
115.075371	442.0
116.085457	232.0
116.529793	112.0
117.051186	752.0
117.07164	831.0
117.261192	244.0
118.505852	311.0
119.034897	145.0
119.060715	143.0
119.085236	1085.0
121.06575	490.0
121.101524	1812.0
122.104202	227.0
123.047005	456.0
123.080887	817.0
123.116119	147.0
124.99427	139.0
125.023483	127.0
125.060844	2195.0
126.025688	151.0
126.063179	180.0
127.039314	3869.0
127.071541	128.0
127.807358	231.0
127.963768	287.0
128.04184	313.0
129.054993	8764.0
130.054718	579.0
131.058731	170.0
131.08461	1161.0
132.811295	96.0
133.064331	313.0
133.094711	1372.0
135.043152	130.0
135.075089	591.0
135.118683	1230.0
136.121887	133.0
137.061996	519.0
137.093597	107.0
138.349854	61.0
138.369904	71.0
139.041428	184.0
139.078033	480.0
139.144516	99.0
139.181015	51.0
141.069687	583.0
141.30455	67.0
142.07605	128.0
143.046677	134.0
143.071075	6448.0
144.073868	353.0
145.050385	4742.0
145.101379	1344.0
146.052368	127.0
146.6203	160.0
147.067719	298.0
147.094284	126.0
147.118195	2127.0
148.11795	254.0
149.063202	368.0
149.132843	244.0
149.895538	126.0
151.040894	593.0
151.07869	556.0
153.014404	94.0
153.055069	5596.0
153.093536	174.0
153.126404	125.0
154.059464	784.0
155.072479	1598.0
155.886902	307.0
156.092865	92.0
157.050125	280.0
157.082825	259.0
157.102722	1429.0
158.104843	112.0
159.084564	556.0
159.116486	637.0
159.186996	204.0
160.118866	116.0
160.958984	91.0
161.082138	5305.0
161.130829	536.0
162.08873	450.0
162.254868	181.0
163.061447	2423.0
163.111542	278.0
164.060608	240.0
165.058151	271.0
165.094757	240.0
167.07196	612.0
169.050858	107.0
169.103317	1172.0
171.068771	421.0
171.117798	1035.0
171.983704	144.0
172.120148	455.0
172.685944	76.0
173.060532	161.0
173.107788	174.0
173.133087	1871.0
174.099518	214.0
174.136642	201.0
175.070969	199.0
175.097092	237.0
175.147263	199.0
176.153107	118.0
176.538513	113.0
177.060455	96.0
177.093948	251.0
177.131561	113.0
178.058243	168.0
179.1073	144.0
181.056351	198.0
181.091293	406.0
181.325089	133.0
183.11673	869.0
185.046371	125.0
185.074356	93.0
185.134018	1075.0
186.138885	605.0
187.057785	116.0
187.082504	185.0
187.110458	717.0
187.149033	1313.0
188.111313	191.0
188.15094	203.0
189.0504	134.0
189.09256	517.0
189.129089	81.0
190.131989	121.0
190.940689	187.0
191.069138	370.0
191.103943	509.0
191.144119	255.0
191.464523	60.0
191.636612	61.0
193.055801	126.0
193.102722	369.0
193.124512	240.0
193.820618	86.0
194.069717	80.0
195.066803	438.0
195.118439	573.0
195.440308	63.0
195.7995	214.0
196.126663	299.0
196.336929	232.0
197.106079	422.0
197.131378	1262.0
198.136917	220.0
199.106873	454.0
199.148773	2373.0
200.120804	107.0
200.16394	388.0
200.697906	93.0
201.067139	118.0
201.090271	183.0
201.127045	279.0
201.16095	1098.0
202.005981	198.0
202.919998	194.0
203.030853	120.0
203.066833	140.0
203.106354	802.0
203.873581	122.0
204.140976	131.0
204.192352	82.0
205.124115	756.0
206.073044	132.0
206.112076	117.0
207.06456	511.0
207.10321	142.0
207.13855	126.0
207.277618	117.0
207.58638	78.0
209.130524	908.0
209.503525	97.0
210.138138	174.0
211.060242	284.0
211.11409	661.0
211.147598	1413.0
212.142044	157.0
213.131668	1065.0
213.162216	931.0
214.097504	170.0
214.164673	126.0
215.110245	351.0
215.14328	292.0
215.185059	315.0
216.111191	143.0
217.060287	157.0
217.124374	427.0
217.160309	428.0
217.346909	174.0
219.105499	227.0
219.136063	547.0
220.062073	163.0
221.075775	89.0
221.095566	155.0
221.125931	495.0
222.134552	264.0
222.164246	105.0
223.06488	126.0
223.108246	111.0
223.14711	1039.0
224.102188	116.0
225.097809	107.0
225.142136	257.0
226.12735	164.0
226.168106	97.0
226.994507	144.0
227.101044	579.0
227.139297	295.0
228.081787	95.0
228.118362	187.0
229.071335	628.0
229.099136	238.0
229.125656	515.0
229.157822	97.0
230.129623	168.0
231.135757	631.0
232.145584	101.0
233.132782	453.0
233.190231	102.0
233.348083	223.0
234.127853	237.0
235.149246	595.0
236.157791	119.0
237.073685	1357.0
237.128876	96.0
237.166382	309.0
238.077972	72.0
238.171524	514.0
239.11116	370.0
239.169601	172.0
240.120193	182.0
240.186188	154.0
241.122498	431.0
241.19931	117.0
243.120407	467.0
243.175247	136.0
245.105103	1348.0
245.155731	557.0
246.120392	304.0
246.156387	143.0
247.079987	400.0
247.141235	232.0
247.164978	292.0
248.112717	124.0
248.221558	108.0
249.131393	177.0
249.165375	449.0
250.170364	512.0
251.144882	210.0
251.176208	412.0
252.153275	263.0
252.184036	460.0
252.469452	157.0
253.153763	583.0
254.929398	243.0
255.088638	2614.0
255.139099	375.0
255.20787	151.0
256.092499	611.0
256.139465	342.0
257.090607	129.0
257.128479	209.0
257.156952	356.0
257.673126	91.0
258.128754	153.0
259.169128	324.0
259.211334	113.0
261.16391	243.0
262.06427	307.0
262.133148	104.0
262.167175	156.0
263.13913	203.0
263.181519	428.0
263.650848	293.0
264.164154	176.0
265.159332	174.0
265.199249	950.0
266.108734	91.0
266.201141	290.0
267.141052	163.0
267.167358	224.0
267.195374	293.0
269.108185	355.0
269.152771	2571.0
269.192047	158.0
270.140656	122.0
271.088593	197.0
271.161072	134.0
271.242889	182.0
272.177246	125.0
273.010468	100.0
273.098511	4105.0
274.100739	547.0
275.175903	754.0
276.041992	111.0
276.187775	91.0
277.203369	289.0
279.140717	187.0
279.167267	323.0
279.208313	2305.0
280.095612	72.0
280.216125	350.0
281.153595	744.0
281.231079	365.0
282.238983	57.0
283.171875	1718.0
283.570038	64.0
284.172028	145.0
285.148315	151.0
286.055573	75.0
287.113922	880.0
287.17453	455.0
288.113831	145.0
288.347839	220.0
289.096832	258.0
289.194275	2356.0
289.275055	95.0
290.010193	110.0
290.198761	558.0
290.408936	71.0
291.119171	255.0
291.175079	257.0
291.207947	310.0
292.20108	239.0
293.152649	78.0
293.197968	238.0
294.193695	153.0
295.211426	226.0
297.133606	89.0
297.186066	57.0
297.222351	179.0
298.229858	85.0
299.17749	111.0
300.347687	53.0
301.022278	129.0
301.176727	188.0
305.124268	673.0
305.190643	381.0
306.131531	84.0
306.160339	107.0
306.192169	87.0
307.077545	217.0
307.170532	1412.0
307.208984	5154.0
308.149994	283.0
308.210114	1265.0
309.191528	393.0
310.179718	91.0
310.217712	75.0
311.170532	130.0
311.207428	278.0
312.202972	277.0
313.177521	64.0
313.219421	248.0
315.195343	153.0
317.108063	108.0
317.152893	466.0
317.193024	2061.0
318.193298	832.0
318.405823	201.0
320.044769	137.0
320.177582	163.0
320.457184	193.0
321.763062	94.0
322.266296	76.0
323.133942	8347.0
323.200439	1170.0
324.13678	330.0
324.203735	588.0
324.527039	108.0
325.11322	1968.0
325.216736	16022.0
325.733856	125.0
326.124573	440.0
326.1698	324.0
326.221588	3130.0
326.339966	115.0
327.121887	233.0
327.186371	249.0
327.231232	481.0
327.276978	144.0
327.444519	121.0
328.23819	131.0
329.212982	110.0
331.225159	170.0
334.115051	147.0
334.186005	120.0
335.105316	112.0
335.201996	20185.0
336.204163	5128.0
337.207397	1056.0
338.217499	217.0
338.813782	129.0
341.205383	490.0
343.16748	98.0
343.228302	3641.0
344.236053	400.0
345.207214	97.0
345.647522	244.0
349.188782	82.0
350.169281	232.0
351.442841	93.0
351.584381	79.0
351.973572	66.0
352.730286	107.0
352.857208	203.0
352.947906	250.0
353.127014	225.0
353.212372	43736.0
353.291382	139.0
353.599701	106.0
354.169861	644.0
354.214752	11450.0
354.299133	161.0
355.227661	2358.0
355.729767	71.0
356.212952	211.0
356.248627	142.0
356.456604	77.0
359.213226	152.0
359.548492	138.0
360.224457	54.0
360.359161	65.0
361.23468	430.0
361.520782	190.0
362.246674	72.0
367.558014	121.0
369.20166	128.0
370.942566	94.0
370.973145	182.0
371.044617	123.0
371.104004	199.0
371.223022	31434.0
371.321381	117.0
371.374146	58.0
371.674255	95.0
372.227295	7336.0
372.50354	124.0
373.136505	80.0
373.175995	159.0
373.234039	2764.0
373.690338	124.0
374.239441	278.0
375.236542	108.0
376.737762	98.0
381.228516	81.0
383.21283	126.0
383.542908	118.0
388.061279	60.0
388.454529	144.0
388.765167	89.0
388.905304	96.0
389.233246	32952.0
389.992554	146.0
390.027557	96.0
390.193878	373.0
390.237823	6541.0
391.154388	151.0
391.209869	149.0
391.24588	705.0
391.721436	178.0
392.60968	69.0
392.806061	119.0
393.149292	74.0
393.961731	63.0
394.676544	53.0
396.055359	87.0
396.656342	143.0
399.13031	184.0
400.2612	88.0
403.928406	90.0
407.250854	358.0
409.275848	80.0
429.214264	149.0
435.165009	305.0
437.270172	69.0
439.258911	100.0
457.139679	145.0
457.689178	187.0
463.24939	255.0
464.848022	159.0
468.266174	122.0
476.087952	60.0
481.262878	676.0
483.282959	108.0
484.899231	156.0
485.191498	571.0
485.292877	80.0
495.280151	95.0
499.144501	211.0
499.278687	807.0
500.418549	57.0
503.160858	52.0
513.263977	249.0
515.217041	106.0
515.269043	237.0
531.253113	463.0
531.304504	457.0
533.260254	89.0
534.301331	89.0
546.640747	139.0
548.887756	75.0
549.234131	139.0
549.30896	3308.0
550.3172	1275.0
550.498535	140.0
551.314819	221.0
565.482239	51.0
574.342468	158.0
580.128662	95.0
594.272888	51.0
661.401672	114.0
677.293579	87.0
778.521729	203.0
855.444946	91.0
856.543762	437.0
857.512512	121.0
872.385315	122.0
872.532532	462.0
873.382751	108.0
873.478577	135.0
873.542786	426.0
877.485901	686.0
1235.502197	340.0
1310.054565	127.0
1435.395996	75.0
1631.781982	112.0
1896.526245	121.0
1952.154175	123.0
1977.518066	204.0
1988.726685	142.0
END IONS

BEGIN IONS
PEPMASS=519.332
CHARGE=1
MSLEVEL=2
SOURCE_INSTRUMENT=LC-ESI-Maxis II HD Q-TOF Bruker
FILENAME=G12_RG12_01_8147.mzXML
SEQ=*..*
IONMODE=positive
ORGANISM=GNPS-NIH-NATURALPRODUCTSLIBRARY_ROUND2_POSITIVE
NAME=NCGC00385359-01_C30H46O7_(3beta,8xi,9xi)-3-[(2,6-Dideoxy-3-O-methylhexopyranosyl)oxy]-14-hydroxycard-20(22)-enolide M+H
PI=Jadhav/Dorrestein
DATACOLLECTOR=lfnothias
SMILES=COC1CC(OC(C)C1O)O[C@H]2CC[C@@]3(C)C(CCC4C3CC[C@]5(C)[C@H](CC[C@]45O)\C6=C\C(=O)OC6)C2
INCHI=InChI=1S/C30H46O7/c1-17-27(32)24(34-4)15-26(36-17)37-20-7-10-28(2)19(14-20)5-6-23-22(28)8-11-29(3)21(9-12-30(23,29)33)18-13-25(31)35-16-18/h13,17,19-24,26-27,32-33H,5-12,14-16H2,1-4H3/t17?,19?,20-,21+,22?,23?,24?,26?,27?,28-,29+,30-/m0/s1
INCHIAUX=N/A
PUBMED=n/a
SUBMITUSER=mwang87
LIBRARYQUALITY=1
SPECTRUMID=CCMSLIB00000852196
USI=mzspec:GNPS:GNPS-NIH-NATURALPRODUCTSLIBRARY_ROUND2_POSITIVE:accession:CCMSLIB00000852196
SCANS=721
71.035286	348.0
71.047729	1487.0
71.527634	78.0
72.048439	297.0
79.052162	459.0
80.051651	128.0
81.067696	138.0
83.049759	119.0
83.086418	292.0
84.051888	149.0
85.063385	2240.0
86.659798	146.0
87.042419	701.0
93.035194	138.0
93.069862	525.0
95.025543	57.0
95.050064	2195.0
95.085114	269.0
99.080154	213.0
101.023804	159.0
102.193115	156.0
105.070236	700.0
106.074532	90.0
107.050865	161.0
107.085953	647.0
109.102478	709.0
112.347099	332.0
113.001099	114.0
113.060509	12914.0
113.11219	183.0
113.480896	82.0
113.725296	101.0
114.064377	135.0
114.175575	124.0
114.877617	110.0
117.066353	105.0
118.07692	100.0
119.049171	79.0
119.070053	201.0
119.086052	862.0
121.063721	108.0
121.101501	721.0
122.111633	216.0
123.106728	123.0
127.072426	124.0
131.084839	758.0
133.104752	681.0
135.049454	248.0
135.118668	1080.0
136.116211	135.0
137.055115	211.0
137.09314	113.0
143.08284	282.0
145.086609	3435.0
145.209671	107.0
146.093353	927.0
147.11824	384.0
147.345947	77.0
149.129395	87.0
151.077713	160.0
151.112091	117.0
152.962799	187.0
153.055054	172.0
153.0914	208.0
155.062119	151.0
155.086884	243.0
156.06691	163.0
156.094391	153.0
157.105728	271.0
159.071442	119.0
159.11937	1055.0
161.096558	281.0
161.133102	670.0
163.078369	201.0
165.125961	66.0
167.093994	115.0
167.466919	207.0
169.095795	124.0
169.497757	94.0
171.113602	89.0
172.0802	99.0
172.12204	115.0
173.133591	289.0
175.078888	170.0
175.145187	112.0
176.154968	75.0
177.090698	456.0
177.165649	117.0
177.275452	216.0
178.09198	172.0
179.074905	103.0
179.142151	102.0
181.097153	124.0
182.03389	231.0
182.116516	281.0
183.077682	71.0
185.13356	186.0
187.076447	170.0
187.099777	125.0
187.151367	414.0
189.128891	175.0
189.163544	292.0
191.119675	199.0
192.073669	122.0
196.084366	251.0
197.135773	277.0
198.136017	154.0
199.112488	217.0
199.146042	441.0
200.160507	119.0
201.13588	113.0
201.164734	521.0
203.107376	180.0
203.148346	275.0
203.180069	226.0
205.10762	152.0
205.123322	142.0
206.111282	74.0
206.135818	358.0
208.121872	122.0
209.138809	96.0
211.116028	153.0
211.143372	137.0
213.093018	103.0
213.164886	296.0
214.261124	313.0
215.180023	296.0
215.280624	137.0
216.150055	105.0
217.130569	72.0
218.124405	123.0
221.148911	301.0
224.128235	163.0
225.126617	386.0
225.901718	149.0
226.537064	120.0
227.14534	195.0
227.177734	481.0
227.374741	65.0
229.116913	245.0
231.078568	98.0
231.140076	445.0
232.142471	85.0
233.14061	124.0
237.131668	150.0
239.139252	99.0
241.122162	87.0
243.141586	265.0
245.063446	171.0
245.146957	390.0
246.153976	156.0
247.14772	81.0
249.129547	155.0
251.143158	158.0
255.140976	176.0
255.234055	77.0
256.147064	96.0
257.158691	483.0
259.147186	106.0
259.175568	93.0
260.151276	128.0
262.145508	150.0
265.158325	112.0
266.970825	140.0
275.170044	120.0
276.172394	78.0
279.179138	159.0
279.201843	218.0
281.154938	125.0
283.170105	195.0
284.245453	126.0
293.223328	683.0
294.233948	175.0
299.158691	77.0
303.207367	283.0
303.996643	159.0
307.178925	122.0
311.233826	406.0
312.236023	171.0
321.19281	316.0
321.22168	497.0
322.15741	138.0
322.222412	128.0
339.060822	98.0
339.231964	7315.0
340.237	1820.0
349.237305	191.0
353.146088	132.0
355.225586	112.0
357.241211	3120.0
358.141205	62.0
358.242126	527.0
359.235626	99.0
363.175964	94.0
368.347809	121.0
375.255157	2515.0
376.254364	665.0
380.185669	86.0
389.249695	81.0
398.983887	87.0
423.64563	84.0
424.189148	145.0
428.825195	76.0
433.274841	100.0
434.272369	52.0
443.238647	125.0
451.288269	72.0
457.233643	130.0
466.322449	80.0
469.291718	111.0
501.328217	438.0
501.366028	225.0
519.276855	130.0
563.200134	64.0
972.063599	139.0
1044.573364	55.0
1538.476562	169.0
1547.63208	280.0
1554.065796	186.0
END IONS

BEGIN IONS
PEPMASS=535.327
CHARGE=1
MSLEVEL=2
SOURCE_INSTRUMENT=LC-ESI-Maxis II HD Q-TOF Bruker
FILENAME=E4_RE4_01_7965.mzXML
SEQ=*..*
IONMODE=positive
ORGANISM=GNPS-NIH-NATURALPRODUCTSLIBRARY_ROUND2_POSITIVE
NAME=NCGC00180641-02_C30H46O8_Card-20(22)-enolide, 3-[(6-deoxy-3-O-methyl-alpha-L-glucopyranosyl)oxy]-14-hydroxy-, (3beta,5beta,8xi,9xi,17alpha)- M+H
PI=Jadhav/Dorrestein
DATACOLLECTOR=lfnothias
SMILES=CO[C@@H]1[C@@H](O)[C@H](C)O[C@@H](O[C@H]2CC[C@@]3(C)[C@H](CCC4C3CC[C@]5(C)[C@@H](CC[C@]45O)\C6=C\C(=O)OC6)C2)[C@H]1O
INCHI=InChI=1S/C30H46O8/c1-16-24(32)26(35-4)25(33)27(37-16)38-19-7-10-28(2)18(14-19)5-6-22-21(28)8-11-29(3)20(9-12-30(22,29)34)17-13-23(31)36-15-17/h13,16,18-22,24-27,32-34H,5-12,14-15H2,1-4H3/t16-,18+,19-,20-,21?,22?,24-,25-,26+,27-,28-,29+,30-/m0/s1
INCHIAUX=N/A
PUBMED=n/a
SUBMITUSER=mwang87
LIBRARYQUALITY=1
SPECTRUMID=CCMSLIB00000852853
USI=mzspec:GNPS:GNPS-NIH-NATURALPRODUCTSLIBRARY_ROUND2_POSITIVE:accession:CCMSLIB00000852853
SCANS=691
75.043068	172.0
83.086578	193.0
84.053375	162.0
85.026329	584.0
85.064316	118.0
87.026176	206.0
87.040901	315.0
91.049522	129.0
93.058624	85.0
97.060905	147.0
99.019363	127.0
99.045486	145.0
103.042953	191.0
105.066551	173.0
109.099129	259.0
111.042801	181.0
117.066368	288.0
119.086853	194.0
121.097206	165.0
125.056244	131.0
133.09877	171.0
135.076935	85.0
135.116074	330.0
137.040771	95.0
143.068192	262.0
143.103027	200.0
144.959808	156.0
145.100098	177.0
146.041016	195.0
146.062759	244.0
146.106262	153.0
147.043625	107.0
147.06987	230.0
147.119095	370.0
149.050735	166.0
149.133377	241.0
153.052994	300.0
155.929886	93.0
158.103378	90.0
159.118149	149.0
161.059448	215.0
161.081467	393.0
161.131989	120.0
162.137024	230.0
163.153702	113.0
165.093307	76.0
166.063858	141.0
176.156372	107.0
184.117828	131.0
185.129135	228.0
187.141205	274.0
191.1436	143.0
195.11795	136.0
200.997726	121.0
201.171143	147.0
203.139771	136.0
209.024948	106.0
209.133759	115.0
211.144608	121.0
214.164841	102.0
215.155838	90.0
217.184677	161.0
219.107407	137.0
223.089233	120.0
223.15239	156.0
225.044907	138.0
225.129898	207.0
228.185684	57.0
231.040451	105.0
231.141434	249.0
239.102158	151.0
241.198685	148.0
241.600632	145.0
243.089676	79.0
243.120453	84.0
249.154358	99.0
251.014633	152.0
255.207443	169.0
256.262573	97.0
257.151886	391.0
257.285889	67.0
267.206299	135.0
269.153961	100.0
271.17038	183.0
279.206879	210.0
280.054962	133.0
281.221344	123.0
287.006104	105.0
290.141479	179.0
293.147125	94.0
293.223694	165.0
295.108856	103.0
295.241425	114.0
308.090973	152.0
317.150024	60.0
320.194214	95.0
321.174194	125.0
321.223206	834.0
322.22934	163.0
324.155182	184.0
324.188477	138.0
328.237549	106.0
330.130554	74.0
333.144836	108.0
338.202637	89.0
339.230499	2196.0
340.235657	401.0
349.110748	145.0
355.235535	76.0
357.24646	1545.0
358.243378	378.0
359.012695	83.0
361.200531	60.0
363.215485	100.0
365.139679	73.0
367.182373	67.0
373.060913	191.0
373.1698	201.0
375.25235	1098.0
376.246277	127.0
383.162506	224.0
387.198456	140.0
396.095673	124.0
397.236237	270.0
398.246216	111.0
399.104431	117.0
405.246918	156.0
408.187164	83.0
413.194794	111.0
419.245575	130.0
421.110016	114.0
424.147491	103.0
428.796906	142.0
429.190796	133.0
430.148071	99.0
438.980164	57.0
457.12323	88.0
458.112244	83.0
458.184174	217.0
459.167206	63.0
460.23465	81.0
470.773376	90.0
475.166504	80.0
486.291351	82.0
495.229462	85.0
499.320007	93.0
511.219513	125.0
517.314148	257.0
534.300415	163.0
534.3573	123.0
535.257446	102.0
535.292053	175.0
536.224182	194.0
536.291992	373.0
537.237305	158.0
657.398071	109.0
783.397522	67.0
911.432129	125.0
1606.4104	109.0
1999.260864	131.0
END IONS

BEGIN IONS
PEPMASS=719.325
CHARGE=1
MSLEVEL=2
SOURCE_INSTRUMENT=LC-ESI-Maxis II HD Q-TOF Bruker
FILENAME=A2_GA2_01_8052.mzXML
SEQ=*..*
IONMODE=positive
ORGANISM=GNPS-NIH-NATURALPRODUCTSLIBRARY_ROUND2_POSITIVE
NAME=NCGC00385195-01_C35H52O14_Carda-5,20(22)-dienolide, 3-[(2-O-beta-D-glucopyranosyl-beta-D-glucopyranosyl)oxy]-14-hydroxy-, (3beta)- M+Na
PI=Jadhav/Dorrestein
DATACOLLECTOR=lfnothias
SMILES=C[C@]\12CC[C@@H](CC1=C/C[C@@H]3[C@@H]2CC[C@]4(C)[C@H](CC[C@]34O)/C5=C/C(=O)OC5)O[C@@H]6O[C@H](CO)[C@@H](O)[C@H](O)[C@H]6O[C@@H]7O[C@H](CO)[C@@H](O)[C@H](O)[C@H]7O
INCHI=InChI=1S/C35H52O14/c1-33-8-5-18(46-32-30(28(42)26(40)23(14-37)48-32)49-31-29(43)27(41)25(39)22(13-36)47-31)12-17(33)3-4-21-20(33)6-9-34(2)19(7-10-35(21,34)44)16-11-24(38)45-15-16/h3,11,18-23,25-32,36-37,39-44H,4-10,12-15H2,1-2H3/t18-,19+,20-,21+,22+,23+,25+,26+,27-,28-,29+,30+,31-,32+,33-,34+,35-/m0/s1
INCHIAUX=N/A
PUBMED=n/a
SUBMITUSER=mwang87
LIBRARYQUALITY=1
SPECTRUMID=CCMSLIB00000853506
USI=mzspec:GNPS:GNPS-NIH-NATURALPRODUCTSLIBRARY_ROUND2_POSITIVE:accession:CCMSLIB00000853506
SCANS=528
85.026077	347.0
85.585571	61.0
99.04245	97.0
120.090622	122.0
121.10273	239.0
123.127724	244.0
127.037369	125.0
133.104279	75.0
134.105484	92.0
149.104172	124.0
153.053055	255.0
157.010849	193.0
160.1194	212.0
169.10817	177.0
175.15213	78.0
183.110229	137.0
185.034531	122.0
185.140244	115.0
223.150284	137.0
237.024139	147.0
239.094574	231.0
245.061539	156.0
248.043106	113.0
265.055176	88.0
281.602539	186.0
296.170746	79.0
317.210907	742.0
338.20874	55.0
339.220764	171.0
347.092529	353.0
349.07019	90.0
355.212555	181.0
356.204773	66.0
356.242249	98.0
356.32962	105.0
357.236633	132.0
357.58194	208.0
358.236694	71.0
359.361237	106.0
365.019348	108.0
365.108734	2083.0
366.073822	165.0
366.116089	192.0
369.025299	106.0
371.079163	151.0
373.206329	133.0
373.245544	113.0
374.24704	230.0
377.203308	137.0
378.96405	123.0
381.058868	101.0
396.241516	134.0
419.073486	136.0
466.497284	144.0
468.524994	155.0
526.20105	145.0
529.430908	153.0
544.948669	170.0
551.369507	159.0
555.288208	53.0
556.591064	192.0
557.218445	125.0
557.287354	367.0
570.142639	313.0
571.748108	78.0
586.704163	98.0
591.127502	73.0
599.13208	119.0
599.29718	87.0
618.84198	122.0
625.239502	153.0
636.634033	142.0
651.263489	90.0
659.590942	138.0
662.327759	163.0
677.255615	218.0
702.947632	113.0
703.80249	166.0
710.341553	70.0
710.825745	94.0
711.202209	60.0
712.590942	106.0
712.872986	59.0
713.672424	87.0
714.02594	73.0
716.022522	188.0
716.195068	68.0
716.555115	162.0
716.81781	103.0
716.883911	119.0
717.222961	322.0
717.905823	179.0
718.039734	224.0
718.244019	143.0
718.762024	174.0
718.986572	63.0
719.059204	246.0
719.110474	401.0
719.163147	1109.0
719.329407	150456.0
719.471375	357.0
719.525024	302.0
719.631042	240.0
719.687073	290.0
719.814087	176.0
719.862427	220.0
719.924377	400.0
720.335144	45963.0
720.461731	414.0
720.568298	216.0
720.857422	248.0
721.080383	205.0
721.167725	306.0
721.221436	247.0
721.334656	11510.0
721.508362	337.0
721.609314	76.0
722.079285	148.0
722.196472	99.0
722.321533	565.0
722.365784	328.0
723.015991	146.0
723.134705	77.0
723.288025	181.0
723.618652	121.0
723.967712	247.0
724.08667	105.0
724.305603	101.0
725.393555	117.0
725.807922	188.0
729.606567	105.0
746.65741	62.0
753.319763	161.0
754.42218	75.0
1017.910828	84.0
1047.838013	139.0
1152.717651	135.0
1186.454468	141.0
1186.77832	131.0
1738.449463	222.0
END IONS

BEGIN IONS
PEPMASS=521.311
CHARGE=1
MSLEVEL=2
SOURCE_INSTRUMENT=LC-ESI-Maxis II HD Q-TOF Bruker
FILENAME=E10_GE10_01_8182.mzXML
SEQ=*..*
IONMODE=positive
ORGANISM=GNPS-NIH-NATURALPRODUCTSLIBRARY_ROUND2_POSITIVE
NAME=NCGC00386008-01_C29H44O8_Card-20(22)-enolide, 3-[(6-deoxy-alpha-L-mannopyranosyl)oxy]-14-hydroxy-, (3beta,9xi)- M+H
PI=Jadhav/Dorrestein
DATACOLLECTOR=lfnothias
SMILES=C[C@@H]1O[C@@H](O[C@H]2CC[C@@]3(C)C(CC[C@@H]4C3CC[C@]5(C)[C@H](CC[C@]45O)/C6=C/C(=O)OC6)C2)[C@H](O)[C@H](O)[C@H]1O
INCHI=InChI=1S/C29H44O8/c1-15-23(31)24(32)25(33)26(36-15)37-18-6-9-27(2)17(13-18)4-5-21-20(27)7-10-28(3)19(8-11-29(21,28)34)16-12-22(30)35-14-16/h12,15,17-21,23-26,31-34H,4-11,13-14H2,1-3H3/t15-,17?,18-,19+,20?,21+,23-,24+,25+,26-,27-,28+,29-/m0/s1
INCHIAUX=N/A
PUBMED=n/a
SUBMITUSER=mwang87
LIBRARYQUALITY=1
SPECTRUMID=CCMSLIB00000853643
USI=mzspec:GNPS:GNPS-NIH-NATURALPRODUCTSLIBRARY_ROUND2_POSITIVE:accession:CCMSLIB00000853643
SCANS=622
70.495964	145.0
71.010338	234.0
71.048317	884.0
72.038078	141.0
72.512772	225.0
72.70916	70.0
73.023811	372.0
74.459122	134.0
75.045067	2332.0
76.045074	73.0
76.661041	111.0
77.499977	131.0
79.052788	1472.0
80.045586	125.0
80.7202	102.0
81.033218	149.0
81.068336	2793.0
81.362282	149.0
82.069283	97.0
83.047897	2330.0
83.087891	114.0
84.010979	192.0
84.90538	122.0
85.027031	10713.0
86.030357	423.0
87.003929	108.0
87.043121	1603.0
89.023277	197.0
90.725044	80.0
91.037361	237.0
91.05439	1690.0
93.035683	212.0
93.070259	2533.0
94.074333	678.0
94.451721	64.0
94.9021	212.0
95.047722	145.0
95.085709	3041.0
96.244171	133.0
97.028854	134.0
97.064423	478.0
97.08963	120.0
98.86293	53.0
99.082916	183.0
100.347145	84.0
101.059341	1544.0
102.869194	208.0
103.03727	106.0
104.975204	98.0
105.047012	170.0
105.070328	4528.0
106.074867	174.0
107.047966	197.0
107.086197	6311.0
108.089226	838.0
108.359825	144.0
108.830078	253.0
109.066536	198.0
109.100487	2027.0
110.104874	437.0
111.043518	1165.0
111.790901	243.0
112.046173	144.0
113.061417	136.0
113.090057	123.0
115.295387	185.0
115.610901	192.0
116.075745	165.0
117.070442	913.0
119.05162	876.0
119.085358	3549.0
120.060982	150.0
120.087769	360.0
121.024048	53.0
121.058838	499.0
121.100792	3379.0
121.910721	183.0
121.94532	148.0
122.107658	163.0
123.040596	438.0
123.082298	295.0
123.115662	91.0
124.080566	186.0
124.459	161.0
125.059738	1780.0
125.099174	97.0
125.742699	56.0
126.06002	82.0
128.0616	234.0
129.055695	5010.0
130.056168	384.0
131.043457	129.0
131.086273	3962.0
131.266785	87.0
132.090668	542.0
132.654678	147.0
133.068634	355.0
133.102173	4829.0
134.104813	103.0
135.05278	296.0
135.08017	371.0
135.117523	6847.0
135.503525	68.0
136.088547	66.0
136.121475	1045.0
137.062714	257.0
137.12558	224.0
137.166428	145.0
138.065659	110.0
139.075714	901.0
141.074371	336.0
142.078644	247.0
143.084427	3432.0
144.092392	565.0
145.063583	260.0
145.101547	5717.0
145.237915	191.0
146.10788	380.0
146.567871	151.0
147.066864	3967.0
147.117798	4180.0
147.961197	224.0
148.070633	336.0
148.118668	294.0
148.570633	244.0
149.023087	262.0
149.035446	265.0
149.059998	1538.0
149.096634	659.0
149.132858	1907.0
150.065659	156.0
150.137894	449.0
150.348694	54.0
151.046722	144.0
151.073593	858.0
151.111847	229.0
151.47348	74.0
153.052231	770.0
153.091919	444.0
154.054688	117.0
155.083328	998.0
155.930771	53.0
156.080887	185.0
156.096878	351.0
156.521271	112.0
157.076019	428.0
157.102448	3864.0
158.108643	409.0
158.473679	149.0
159.081482	281.0
159.118637	4988.0
159.407684	129.0
159.658401	238.0
160.122208	747.0
161.035263	233.0
161.096191	499.0
161.134674	4517.0
162.067184	115.0
162.096619	184.0
162.133804	796.0
163.027664	156.0
163.076401	1041.0
163.105423	206.0
164.047073	101.0
164.111862	144.0
165.092545	330.0
165.123642	132.0
167.083282	202.0
169.102692	1581.0
170.060989	115.0
170.109146	517.0
171.08136	596.0
171.117599	2515.0
171.277344	53.0
172.085663	323.0
172.122589	753.0
173.06546	379.0
173.09697	417.0
173.132828	3386.0
174.098938	126.0
174.131973	411.0
174.215927	67.0
175.034592	127.0
175.075775	842.0
175.116562	488.0
175.149048	1225.0
175.568985	239.0
176.078522	160.0
176.155411	109.0
177.055542	283.0
177.091385	2533.0
177.120499	114.0
178.083038	172.0
179.107849	270.0
180.046722	117.0
180.097092	48.0
181.102966	369.0
182.10495	153.0
182.522141	187.0
183.081711	135.0
183.118073	1668.0
184.124954	473.0
185.100906	710.0
185.133026	5345.0
185.205566	194.0
186.09668	243.0
186.139771	625.0
187.056366	199.0
187.078735	563.0
187.114014	1695.0
187.149338	3314.0
188.11673	333.0
188.153351	140.0
189.041626	151.0
189.091095	1531.0
189.129318	604.0
189.165955	918.0
190.097305	536.0
190.49675	170.0
191.072388	167.0
191.10878	1578.0
191.932495	68.0
192.107742	109.0
192.182556	118.0
193.100784	67.0
194.940918	132.0
195.09964	350.0
195.118576	534.0
196.213135	69.0
196.966263	202.0
197.023987	168.0
197.098785	469.0
197.134659	1615.0
197.806366	118.0
198.102905	103.0
198.138489	405.0
199.114227	703.0
199.150146	3372.0
199.942856	54.0
200.114746	201.0
200.152725	734.0
201.092819	525.0
201.128326	1490.0
201.162796	2225.0
201.692413	250.0
201.749771	103.0
202.096115	126.0
202.137207	210.0
202.169022	196.0
202.89183	71.0
203.066559	334.0
203.112839	814.0
203.142166	406.0
203.179642	145.0
205.122391	5690.0
205.19841	109.0
205.963806	67.0
206.128036	600.0
207.101456	161.0
208.116425	106.0
208.145264	126.0
209.088608	178.0
209.134048	912.0
210.140671	171.0
210.600708	193.0
211.111374	339.0
211.149246	2849.0
212.090775	88.0
212.117737	128.0
212.151505	499.0
213.073425	76.0
213.125107	1388.0
213.163422	1729.0
214.105011	260.0
214.169434	416.0
215.105789	342.0
215.144348	993.0
215.181305	2784.0
216.151871	67.0
216.185623	384.0
217.123444	2048.0
217.160172	526.0
218.158478	78.0
219.091492	170.0
219.140488	1695.0
219.174973	245.0
219.203964	55.0
220.117172	271.0
220.138992	375.0
220.182358	90.0
221.061783	90.0
221.136536	124.0
222.11853	134.0
222.55191	172.0
222.623596	219.0
223.147751	859.0
224.037018	136.0
224.162262	156.0
225.128601	211.0
225.16626	1118.0
226.121567	181.0
226.167816	268.0
226.649017	55.0
227.100174	192.0
227.143768	1028.0
227.177505	664.0
228.150452	197.0
228.185287	248.0
229.122559	2013.0
229.159119	1029.0
230.127548	297.0
231.138504	4702.0
231.177002	143.0
231.43924	66.0
232.137299	1146.0
232.181183	126.0
233.15416	1449.0
234.178207	71.0
235.137955	311.0
235.605484	47.0
236.613724	147.0
237.1315	345.0
237.163086	1823.0
238.133209	156.0
238.168274	245.0
239.016449	184.0
239.138474	1093.0
239.177948	779.0
239.612839	96.0
240.142151	135.0
240.194321	268.0
241.166016	122.0
242.173462	201.0
243.135361	2544.0
244.156525	168.0
245.101593	93.0
245.152802	6643.0
246.156387	863.0
247.145203	415.0
247.172989	242.0
247.351349	126.0
248.165756	94.0
250.157486	92.0
251.150116	496.0
251.181732	951.0
252.287201	125.0
253.159286	500.0
253.184357	413.0
254.14537	260.0
254.177048	184.0
254.1987	284.0
255.173523	188.0
255.216034	442.0
256.015869	91.0
257.154694	2312.0
257.258942	100.0
258.159668	301.0
258.196381	105.0
259.167938	557.0
260.160217	109.0
261.15271	518.0
262.772614	119.0
263.182495	144.0
263.57077	141.0
264.16803	134.0
264.200836	77.0
265.156647	412.0
265.192566	447.0
267.176147	84.0
268.174591	77.0
269.155579	942.0
269.230682	139.0
270.230743	134.0
270.476318	146.0
271.17215	1417.0
272.177307	807.0
273.181671	331.0
274.944214	149.0
275.178101	601.0
277.196075	898.0
278.20105	103.0
279.168243	686.0
279.210175	3279.0
280.189362	103.0
280.222748	577.0
281.191406	74.0
281.217224	164.0
282.231537	152.0
283.171265	1672.0
283.241516	190.0
284.160461	245.0
284.246948	126.0
285.172394	150.0
287.815796	168.0
288.807617	53.0
289.431122	118.0
290.203827	75.0
291.161743	187.0
291.209564	94.0
292.181488	169.0
293.159546	146.0
293.227905	9008.0
293.670502	63.0
294.230713	1358.0
295.199219	65.0
295.243896	997.0
296.209412	101.0
296.245331	415.0
296.305206	130.0
297.185242	414.0
297.219696	619.0
298.193207	163.0
298.223511	219.0
299.233917	132.0
301.192963	172.0
303.04953	230.0
303.166992	271.0
303.214386	1209.0
304.211182	300.0
305.2323	81.0
307.202911	134.0
308.219727	153.0
309.15271	104.0
309.20755	140.0
310.863953	116.0
311.073761	107.0
311.116577	149.0
311.193451	396.0
311.236481	2853.0
311.895905	181.0
312.196533	134.0
312.245331	523.0
313.04361	63.0
314.229279	83.0
319.199921	98.0
321.166595	54.0
321.2229	9106.0
321.816681	95.0
322.223022	1246.0
322.468567	68.0
323.238037	218.0
324.214447	150.0
327.230743	65.0
329.248566	234.0
330.239563	91.0
336.502808	120.0
336.622192	219.0
336.78418	89.0
337.218475	1012.0
338.224457	183.0
339.075623	58.0
339.108398	56.0
339.232483	50481.0
339.884613	136.0
340.016022	102.0
340.18338	156.0
340.236542	10528.0
340.661591	59.0
341.240875	1357.0
342.236511	146.0
342.66861	181.0
342.726685	127.0
343.182953	172.0
350.188721	133.0
351.20639	92.0
352.238861	108.0
352.569122	59.0
352.800781	243.0
354.255005	116.0
355.225067	297.0
356.084167	103.0
356.65097	102.0
357.075439	89.0
357.243713	22064.0
357.770538	329.0
357.931549	156.0
358.020905	137.0
358.246704	4748.0
359.246796	168.0
361.217468	220.0
367.188599	87.0
368.233368	147.0
369.236694	218.0
371.617401	169.0
373.23819	197.0
374.213074	71.0
374.867645	103.0
375.183441	158.0
375.256531	7876.0
375.443634	63.0
376.252594	1375.0
377.216705	126.0
377.270325	174.0
380.25119	123.0
381.171539	210.0
381.234894	73.0
383.228821	180.0
385.238403	181.0
388.640472	140.0
392.664612	162.0
393.240448	66.0
399.213226	197.0
405.239868	197.0
406.29837	164.0
407.153625	123.0
409.235229	95.0
410.186157	117.0
411.244751	256.0
412.260864	111.0
413.24823	111.0
415.204071	85.0
415.268372	120.0
421.175964	56.0
421.628693	231.0
427.203247	82.0
431.2276	121.0
432.269623	87.0
439.270813	75.0
441.291351	118.0
443.271149	118.0
449.266205	86.0
450.265625	96.0
463.170685	120.0
467.286011	505.0
468.275482	70.0
473.210693	59.0
481.961426	74.0
485.21582	74.0
485.302002	698.0
486.302612	48.0
488.210663	176.0
499.875031	123.0
500.618195	101.0
501.803101	72.0
503.187683	212.0
503.30426	7759.0
503.438049	126.0
504.08432	58.0
504.177704	69.0
504.307343	2062.0
505.300934	244.0
511.791534	141.0
521.071167	125.0
521.317139	2028.0
522.32074	186.0
558.739075	53.0
582.928101	130.0
1002.328125	55.0
1281.604858	70.0
1360.037354	223.0
1430.233276	189.0
1570.647339	201.0
1727.956055	208.0
1884.406006	130.0
1887.175171	94.0
1930.774048	255.0
1936.915283	118.0
END IONS

BEGIN IONS
PEPMASS=553.301
CHARGE=1
MSLEVEL=2
SOURCE_INSTRUMENT=LC-ESI-Maxis II HD Q-TOF Bruker
FILENAME=A9_GA9_01_8157.mzXML
SEQ=*..*
IONMODE=positive
ORGANISM=GNPS-NIH-NATURALPRODUCTSLIBRARY_ROUND2_POSITIVE
NAME=NCGC00385999-01_C29H44O10_Card-20(22)-enolide, 3-(beta-D-glucopyranosyloxy)-5,14-dihydroxy-, (3alpha,5beta,8xi,9xi)- M+H
PI=Jadhav/Dorrestein
DATACOLLECTOR=lfnothias
SMILES=C[C@]12CC[C@H](C[C@@]1(O)CCC3C2CC[C@]4(C)[C@H](CC[C@]34O)\C5=C\C(=O)OC5)O[C@@H]6O[C@H](CO)[C@@H](O)[C@H](O)[C@H]6O
INCHI=InChI=1S/C29H44O10/c1-26-7-3-16(38-25-24(34)23(33)22(32)20(13-30)39-25)12-28(26,35)9-5-19-18(26)4-8-27(2)17(6-10-29(19,27)36)15-11-21(31)37-14-15/h11,16-20,22-25,30,32-36H,3-10,12-14H2,1-2H3/t16-,17-,18?,19?,20-,22-,23+,24-,25-,26-,27-,28+,29+/m1/s1
INCHIAUX=N/A
PUBMED=n/a
SUBMITUSER=mwang87
LIBRARYQUALITY=1
SPECTRUMID=CCMSLIB00000854903
USI=mzspec:GNPS:GNPS-NIH-NATURALPRODUCTSLIBRARY_ROUND2_POSITIVE:accession:CCMSLIB00000854903
SCANS=520
74.142273	65.0
75.045959	210.0
77.460068	219.0
79.039268	167.0
79.050537	184.0
80.554268	77.0
80.613686	76.0
81.035072	338.0
81.068306	1400.0
82.067657	101.0
83.084915	124.0
85.026901	1674.0
86.278336	128.0
86.5877	76.0
89.047333	158.0
89.673027	198.0
91.039719	200.0
91.053055	168.0
93.071564	947.0
95.047707	420.0
95.087059	1006.0
96.404243	164.0
97.026207	1031.0
97.0644	382.0
98.030624	101.0
98.076744	115.0
105.070259	1825.0
106.047234	163.0
107.050232	100.0
107.084824	1974.0
109.028313	268.0
109.067024	612.0
109.107262	208.0
110.028763	140.0
110.104469	135.0
111.043983	400.0
111.089844	204.0
116.06163	158.0
117.068008	471.0
119.059555	199.0
119.085693	1081.0
121.061897	131.0
121.102531	801.0
123.085152	259.0
123.115845	157.0
125.059677	1838.0
126.061371	88.0
127.041054	1554.0
129.071518	357.0
130.616165	173.0
130.725906	176.0
131.027954	102.0
131.085953	1635.0
131.728821	86.0
132.082687	174.0
133.068893	333.0
133.103394	2639.0
133.298645	128.0
134.10643	124.0
135.082703	336.0
135.115326	869.0
136.073334	170.0
136.642059	209.0
136.957642	61.0
138.100784	132.0
139.07193	103.0
141.070847	360.0
143.058258	148.0
143.087952	666.0
145.051697	885.0
145.103302	2623.0
145.954636	105.0
146.05632	277.0
147.040695	87.0
147.088211	507.0
147.116074	956.0
148.118118	316.0
149.061462	223.0
149.099121	640.0
149.132629	299.0
150.955887	155.0
151.080399	176.0
151.11113	116.0
152.077591	168.0
152.974548	133.0
153.054596	2331.0
153.0923	361.0
153.330292	146.0
154.060242	123.0
154.079956	230.0
155.041046	74.0
155.073639	2222.0
155.358734	192.0
156.076508	347.0
156.9991	66.0
157.064636	80.0
157.102432	1796.0
158.110535	313.0
158.732422	104.0
159.083359	104.0
159.119858	2544.0
160.090042	101.0
160.123779	631.0
161.103424	194.0
161.132843	894.0
163.038925	98.0
163.058014	132.0
163.077164	163.0
163.116562	561.0
164.160889	142.0
165.070801	355.0
165.128113	89.0
167.082108	468.0
169.06369	182.0
169.101334	528.0
170.1073	248.0
170.961609	61.0
171.045883	133.0
171.083328	170.0
171.118546	1268.0
172.124039	474.0
173.063705	413.0
173.092453	249.0
173.132645	1505.0
174.145828	115.0
175.079468	171.0
175.112473	254.0
175.148834	997.0
175.931595	106.0
176.154099	94.0
177.078888	107.0
177.100372	239.0
177.129547	383.0
177.163696	110.0
178.254333	193.0
179.085648	126.0
180.0896	128.0
181.102005	565.0
182.109085	208.0
183.062592	99.0
183.091278	68.0
183.118866	1813.0
184.11528	236.0
184.525101	90.0
184.861679	162.0
185.095642	168.0
185.133286	3154.0
186.103943	117.0
186.140961	849.0
187.113007	743.0
187.146942	1059.0
189.093048	614.0
189.163956	172.0
191.137543	168.0
193.097275	503.0
193.149719	206.0
195.119385	650.0
196.093918	109.0
196.115524	188.0
197.016449	64.0
197.100998	94.0
197.132446	982.0
199.106461	282.0
199.149536	1840.0
200.156311	185.0
201.127106	580.0
201.167084	1922.0
202.167206	412.0
202.48378	88.0
203.10437	112.0
203.141525	120.0
205.12175	100.0
206.113892	468.0
207.096039	135.0
207.131332	346.0
209.087234	142.0
209.134109	596.0
209.329086	163.0
210.135391	204.0
211.116058	402.0
211.155273	671.0
213.090683	329.0
213.128113	435.0
213.158737	527.0
213.85849	75.0
214.087189	70.0
214.16571	167.0
214.293533	208.0
215.185226	427.0
217.125092	176.0
217.150421	152.0
219.01741	112.0
221.129684	468.0
222.084717	115.0
223.114349	198.0
223.148834	727.0
224.127594	167.0
225.168472	495.0
226.045715	131.0
226.16658	79.0
226.226349	130.0
227.105621	194.0
227.14505	418.0
227.182129	870.0
228.180313	107.0
229.088318	115.0
229.123505	980.0
229.157471	262.0
230.173172	100.0
231.060394	151.0
231.14325	296.0
233.116257	153.0
235.110367	113.0
235.147415	767.0
237.031525	110.0
237.118698	457.0
237.164734	291.0
238.057724	147.0
239.143524	416.0
239.175659	93.0
240.139465	123.0
240.182831	143.0
241.124146	661.0
241.157227	147.0
242.133148	496.0
243.122879	131.0
243.147125	128.0
243.176559	473.0
244.141006	164.0
244.179611	150.0
245.121033	83.0
245.15947	91.0
246.156509	130.0
247.143127	476.0
249.16658	607.0
250.12114	137.0
250.176437	169.0
251.133774	138.0
251.17453	274.0
252.177597	242.0
253.162643	289.0
254.12442	107.0
255.10553	98.0
255.137772	665.0
256.137665	81.0
257.15271	409.0
258.145966	350.0
259.171051	212.0
261.168579	456.0
263.112244	185.0
263.140472	302.0
263.174652	142.0
264.139801	224.0
265.044006	181.0
267.127075	124.0
267.18161	261.0
269.150452	491.0
269.191193	90.0
270.162476	158.0
271.167572	350.0
272.167877	134.0
273.144104	332.0
273.181885	98.0
274.167877	110.0
275.113708	118.0
275.162018	199.0
277.156433	614.0
277.200623	503.0
278.159119	127.0
278.196228	192.0
279.171753	289.0
280.111786	109.0
280.157501	138.0
281.092438	126.0
281.152863	870.0
281.214783	88.0
283.169037	503.0
286.171967	111.0
287.16275	188.0
289.195557	305.0
291.092255	133.0
291.172119	102.0
291.212891	1839.0
292.219177	338.0
293.153473	118.0
293.227753	946.0
294.72821	124.0
295.167084	825.0
295.207214	129.0
296.092804	122.0
296.164917	91.0
296.211578	192.0
296.573822	80.0
297.189056	206.0
302.200623	102.0
302.47168	71.0
303.141937	135.0
304.154266	235.0
307.147614	196.0
307.207428	298.0
309.148956	158.0
309.186371	443.0
309.222504	1074.0
310.223236	308.0
311.198425	191.0
311.244354	78.0
312.237549	141.0
315.159821	135.0
317.188385	181.0
318.871552	112.0
319.208191	1633.0
319.745728	59.0
320.207855	304.0
323.207245	115.0
327.232819	691.0
328.194702	141.0
329.208252	109.0
335.124084	54.0
335.203247	987.0
336.100403	112.0
336.203003	269.0
336.594452	75.0
337.152313	202.0
337.216583	19076.0
337.960358	61.0
338.220642	3194.0
339.22171	1112.0
340.228149	108.0
340.958618	175.0
345.181671	211.0
348.14975	130.0
351.233215	97.0
353.214996	2040.0
354.214752	867.0
355.155975	190.0
355.227936	17021.0
355.283722	141.0
355.361023	75.0
355.7388	177.0
356.145752	57.0
356.229889	2025.0
357.238007	496.0
361.106079	109.0
367.150665	103.0
371.224091	1759.0
372.213715	107.0
373.181549	134.0
373.236908	4690.0
374.242249	899.0
389.225281	228.0
389.286987	94.0
391.132568	121.0
391.249207	206.0
393.179932	121.0
395.190125	101.0
445.234344	88.0
445.734772	108.0
454.733917	93.0
481.256897	71.0
484.211609	57.0
489.167419	130.0
493.175842	131.0
517.283142	317.0
518.217712	97.0
518.277466	81.0
520.187866	229.0
530.27533	103.0
536.730957	183.0
545.15686	157.0
545.554993	100.0
552.339783	218.0
552.781128	159.0
553.125549	54.0
553.195129	126.0
553.258972	98.0
553.299622	179.0
554.149719	83.0
554.246216	149.0
555.217346	72.0
555.279236	89.0
555.763245	80.0
607.251343	124.0
635.231506	104.0
651.292175	172.0
664.195679	170.0
749.257812	89.0
839.766113	87.0
1608.346558	221.0
END IONS

BEGIN IONS
PEPMASS=860.464
CHARGE=1
MSLEVEL=2
SOURCE_INSTRUMENT=LC-ESI-Maxis II HD Q-TOF Bruker
FILENAME=E12_GE12_01_8184.mzXML
SEQ=*..*
IONMODE=positive
ORGANISM=GNPS-NIH-NATURALPRODUCTSLIBRARY_ROUND2_POSITIVE
NAME=NCGC00168912-02_C42H66O17_Card-20(22)-enolide, 3-[[O-hexopyranosyl-(1->6)-O-hexopyranosyl-(1->4)-2,6-dideoxy-3-O-methylhexopyranosyl]oxy]-14-hydroxy-, (3beta,8xi,9xi,14xi,17xi)- M+NH4
PI=Jadhav/Dorrestein
DATACOLLECTOR=lfnothias
SMILES=COC1CC(OC(C)C1OC2OC(COC3OC(CO)C(O)C(O)C3O)C(O)C(O)C2O)O[C@H]4CC[C@@]5(C)C(CCC6C5CC[C@]7(C)C(CCC67O)\C8=C\C(=O)OC8)C4
INCHI=InChI=1S/C42H66O17/c1-19-37(59-39-36(50)34(48)32(46)28(58-39)18-54-38-35(49)33(47)31(45)27(16-43)57-38)26(52-4)15-30(55-19)56-22-7-10-40(2)21(14-22)5-6-25-24(40)8-11-41(3)23(9-12-42(25,41)51)20-13-29(44)53-17-20/h13,19,21-28,30-39,43,45-51H,5-12,14-18H2,1-4H3/t19?,21?,22-,23?,24?,25?,26?,27?,28?,30?,31?,32?,33?,34?,35?,36?,37?,38?,39?,40-,41+,42?/m0/s1
INCHIAUX=N/A
PUBMED=n/a
SUBMITUSER=mwang87
LIBRARYQUALITY=1
SPECTRUMID=CCMSLIB00000855681
USI=mzspec:GNPS:GNPS-NIH-NATURALPRODUCTSLIBRARY_ROUND2_POSITIVE:accession:CCMSLIB00000855681
SCANS=590
71.951897	111.0
81.069878	162.0
83.084991	180.0
85.027748	850.0
95.047737	71.0
97.030685	225.0
97.063843	117.0
99.041321	340.0
101.370819	210.0
107.080811	218.0
109.027756	154.0
111.047813	110.0
113.059898	2022.0
114.063301	200.0
115.041618	164.0
119.084373	135.0
121.065018	418.0
121.101013	59.0
127.040497	1713.0
129.061493	94.0
131.083527	117.0
133.048538	107.0
135.098511	55.0
136.056015	147.0
137.061081	213.0
145.048645	1106.0
145.087708	717.0
145.514175	98.0
146.056183	165.0
146.096313	130.0
147.119431	74.0
151.074249	147.0
153.054871	169.0
163.060379	505.0
164.064102	221.0
164.35556	227.0
172.995926	85.0
175.113754	131.0
175.153564	227.0
177.058838	130.0
181.073044	78.0
187.149673	85.0
188.057098	201.0
189.093124	301.0
192.985336	126.0
199.150574	124.0
205.034348	371.0
205.122421	109.0
213.131119	77.0
215.161942	107.0
217.126709	123.0
217.187027	135.0
219.022491	111.0
234.990341	225.0
237.037338	133.0
237.07782	127.0
239.067322	119.0
241.128769	135.0
252.171478	77.0
255.143875	132.0
257.077301	224.0
257.153656	290.0
259.108276	155.0
265.190186	172.0
270.980774	112.0
275.112152	376.0
281.179626	92.0
284.190521	181.0
289.095825	209.0
293.219635	107.0
294.229126	129.0
296.129883	116.0
304.086212	104.0
309.103882	144.0
319.015259	247.0
325.11618	522.0
326.1091	130.0
327.085999	111.0
337.025269	93.0
339.119537	117.0
339.198151	112.0
339.235382	955.0
340.231628	221.0
341.225708	96.0
343.126129	67.0
345.056183	97.0
345.170532	176.0
347.06134	97.0
347.105804	167.0
348.190552	184.0
348.776978	196.0
351.091827	77.0
352.085968	78.0
355.223724	159.0
357.20578	143.0
357.247284	1605.0
358.260345	120.0
358.784485	66.0
367.655426	251.0
373.2323	150.0
375.255585	1317.0
376.256805	541.0
379.074707	92.0
387.089447	214.0
392.253357	96.0
394.093292	88.0
399.274139	121.0
401.088745	98.0
413.187073	164.0
416.259277	76.0
417.157959	85.0
421.331421	86.0
425.335571	91.0
429.199402	115.0
432.189087	143.0
437.176849	157.0
438.08429	109.0
447.191101	83.0
449.097595	127.0
450.171722	146.0
461.08667	160.0
463.131622	125.0
469.375549	112.0
475.126526	255.0
477.154236	90.0
486.922729	84.0
492.169281	122.0
498.09375	95.0
503.585846	59.0
521.676086	93.0
533.085815	90.0
539.174866	81.0
541.206543	83.0
543.263367	117.0
553.283386	122.0
555.199036	104.0
561.165527	174.0
563.050781	96.0
566.121948	123.0
574.152649	149.0
594.321716	120.0
611.034363	271.0
631.11084	87.0
631.335083	90.0
649.193176	97.0
675.080627	100.0
723.040833	94.0
733.303589	103.0
735.345642	104.0
755.261353	190.0
781.24408	127.0
783.17749	102.0
783.267822	254.0
803.179749	95.0
822.318359	87.0
859.519836	116.0
860.283875	148.0
860.458557	86.0
861.041687	171.0
861.30304	114.0
861.398315	188.0
861.466125	222.0
861.66333	114.0
861.927917	95.0
862.397278	148.0
862.457214	105.0
863.263916	87.0
863.406311	280.0
865.244568	95.0
1041.218994	125.0
1150.970703	174.0
1579.025024	250.0
END IONS

BEGIN IONS
PEPMASS=186.092
CHARGE=1
MSLEVEL=2
SOURCE_INSTRUMENT=LC-ESI-qTof
FILENAME=p3-F06_GF6_01_18287.mzXML
SEQ=*..*
IONMODE=Positive
ORGANISM=GNPS-NIH-SMALLMOLECULEPHARMACOLOGICALLYACTIVE
NAME=MLS000860042-01!Pirfenidone M+H
PI=Dorrestein
DATACOLLECTOR=VP/LMS
SMILES=Cc1ccc(=O)n(c1)c2ccccc2
INCHI=N/A
INCHIAUX=N/A
PUBMED=N/A
SUBMITUSER=vphelan
LIBRARYQUALITY=1
SPECTRUMID=CCMSLIB00000085154
USI=mzspec:GNPS:GNPS-NIH-SMALLMOLECULEPHARMACOLOGICALLYACTIVE:accession:CCMSLIB00000085154
SCANS=1575
44.932301	180.0
44.962994	88.0
45.048458	148.0
45.186165	180.0
45.410267	128.0
45.615341	200.0
45.643578	112.0
45.68124	180.0
45.817215	120.0
45.852253	36.0
45.946651	48.0
45.984436	192.0
46.197948	176.0
46.42009	224.0
46.429585	152.0
46.661797	68.0
46.849621	84.0
47.002335	188.0
47.063763	164.0
47.10474	160.0
47.122501	152.0
47.242817	232.0
47.493515	216.0
47.810913	232.0
47.831562	200.0
48.094856	136.0
48.254421	196.0
48.405945	116.0
48.417023	72.0
48.458584	176.0
48.515411	204.0
48.527889	36.0
48.598629	180.0
48.672199	152.0
48.769455	168.0
49.091084	136.0
49.28373	184.0
49.459953	164.0
49.541176	284.0
49.625271	108.0
49.771206	148.0
50.350021	68.0
50.487118	84.0
50.613068	248.0
50.638561	44.0
50.71933	164.0
50.756191	112.0
50.841312	220.0
50.905201	204.0
51.02314	224.0
51.068649	96.0
51.196747	136.0
51.278812	180.0
52.118046	228.0
52.130978	148.0
52.341011	144.0
52.410156	128.0
52.443306	148.0
52.612087	60.0
52.636635	352.0
52.759457	108.0
52.892551	128.0
52.902683	184.0
53.162148	84.0
53.188416	204.0
53.307377	80.0
53.647984	104.0
53.700481	68.0
53.891727	220.0
53.901958	140.0
54.00869	180.0
54.330982	232.0
54.596863	96.0
54.608627	160.0
54.621868	192.0
54.673367	152.0
55.137955	140.0
55.148304	40.0
55.392467	208.0
55.450256	164.0
55.678749	204.0
55.808041	160.0
55.837784	180.0
56.138634	168.0
56.852264	156.0
56.891293	148.0
57.28833	140.0
57.583996	104.0
57.597588	188.0
57.706406	224.0
57.726063	156.0
57.751774	184.0
57.871334	156.0
58.404037	164.0
58.553204	120.0
58.608047	140.0
58.632431	164.0
59.237537	148.0
59.718014	156.0
59.774937	148.0
59.890411	156.0
60.350323	168.0
60.922253	168.0
61.001816	184.0
61.52029	204.0
61.632751	140.0
61.704651	172.0
61.781288	192.0
61.818844	196.0
61.873631	112.0
62.471588	228.0
63.074005	116.0
63.232185	224.0
63.271759	128.0
63.295509	136.0
63.401653	160.0
63.857334	160.0
63.911423	48.0
64.292297	44.0
64.567101	192.0
64.860123	212.0
64.988426	228.0
65.007683	112.0
65.08313	188.0
65.113647	232.0
65.37571	152.0
65.420776	268.0
65.609276	164.0
65.723793	128.0
66.179634	72.0
66.369217	148.0
66.430855	184.0
66.476288	28.0
66.827286	204.0
66.859833	48.0
66.890762	172.0
67.188995	184.0
67.329384	116.0
67.411072	160.0
67.676079	148.0
67.913712	152.0
68.191208	140.0
68.372131	192.0
68.545052	152.0
68.723145	52.0
68.802368	188.0
68.903122	120.0
68.957649	128.0
69.773262	184.0
69.784904	168.0
70.134514	124.0
70.256256	184.0
70.490021	72.0
70.533478	216.0
70.81292	196.0
70.915123	160.0
71.106339	124.0
71.19532	180.0
71.853508	176.0
72.079773	140.0
72.552017	192.0
72.591019	112.0
72.663956	116.0
72.874504	124.0
72.922089	72.0
73.073441	172.0
73.17897	100.0
73.279465	180.0
73.424362	148.0
73.444832	152.0
73.641129	164.0
74.019096	128.0
74.036224	52.0
74.513107	148.0
74.544037	208.0
74.643745	160.0
74.991524	144.0
75.190086	164.0
75.224396	28.0
75.407501	196.0
75.552757	196.0
75.6064	152.0
75.698158	156.0
76.133453	204.0
76.338524	152.0
76.455086	196.0
76.812286	168.0
77.196548	216.0
77.371529	116.0
77.56073	192.0
77.681732	192.0
77.701027	208.0
77.960915	176.0
78.078712	136.0
78.152596	136.0
78.191315	220.0
78.441437	196.0
78.492569	168.0
78.573708	60.0
78.611572	176.0
78.646065	176.0
78.665482	172.0
79.408691	136.0
79.508049	200.0
79.70517	72.0
79.821381	260.0
80.462189	220.0
80.665855	136.0
80.717705	132.0
80.801781	216.0
80.925278	216.0
81.163597	220.0
81.40406	156.0
81.979752	148.0
82.004982	184.0
82.062668	116.0
82.216003	228.0
82.344193	220.0
82.499596	188.0
82.778244	80.0
82.805412	152.0
83.66938	232.0
84.03981	176.0
84.251602	212.0
84.536858	188.0
84.861092	60.0
85.334808	132.0
86.347237	188.0
86.817665	92.0
86.875168	116.0
87.055382	196.0
87.179688	176.0
87.453316	148.0
87.840683	116.0
88.188011	176.0
88.444275	132.0
88.744026	228.0
88.813416	176.0
88.999214	156.0
89.179573	192.0
89.469276	156.0
90.697212	224.0
90.712379	104.0
90.87738	120.0
90.966583	124.0
91.058006	220.0
91.455124	200.0
91.599846	192.0
91.767563	244.0
91.899178	148.0
91.969788	180.0
92.007965	180.0
92.048965	2732.0
92.075996	244.0
92.528008	244.0
92.844193	56.0
93.040672	204.0
93.052872	316.0
93.184792	204.0
93.455078	148.0
93.537834	76.0
93.653374	224.0
94.137482	148.0
94.483482	232.0
94.502831	184.0
94.646065	68.0
94.785538	144.0
94.917358	44.0
95.033745	176.0
95.113312	212.0
95.249245	176.0
96.199577	156.0
96.240578	176.0
96.334328	240.0
96.690689	196.0
96.717613	72.0
97.429482	72.0
97.569023	232.0
97.814934	100.0
97.855118	224.0
98.1203	116.0
98.161705	204.0
98.222847	176.0
98.376778	152.0
98.981804	124.0
99.029335	164.0
99.209663	136.0
99.419922	184.0
99.49337	164.0
99.769531	100.0
99.817245	152.0
100.075935	156.0
100.097839	104.0
100.434662	188.0
100.610275	108.0
101.037979	156.0
101.32428	104.0
101.462578	96.0
101.701302	108.0
101.731415	116.0
101.948341	288.0
102.046913	416.0
102.149414	236.0
102.261276	156.0
102.32048	144.0
102.568275	228.0
102.615654	168.0
102.630775	124.0
102.695312	196.0
102.806274	196.0
103.052322	512.0
103.317505	216.0
103.481445	108.0
103.86245	232.0
103.961868	128.0
104.048683	1548.0
104.40699	212.0
104.875092	60.0
105.050461	224.0
105.311752	148.0
105.354652	128.0
105.39756	144.0
105.647003	156.0
105.823021	232.0
105.855782	68.0
106.064766	160.0
106.13858	100.0
106.255493	52.0
106.315002	40.0
106.475143	148.0
106.847214	180.0
106.956284	188.0
107.137505	200.0
107.232292	136.0
107.715141	148.0
107.793655	136.0
107.861862	100.0
108.040642	216.0
108.312973	104.0
108.406212	148.0
108.563774	128.0
108.796173	68.0
109.018425	240.0
109.047409	148.0
109.2742	140.0
109.803329	236.0
109.949371	76.0
109.997383	200.0
110.024521	176.0
110.058891	4876.0
110.112228	144.0
110.149826	164.0
110.179649	188.0
110.23967	120.0
110.266838	48.0
110.423653	52.0
110.448753	52.0
110.54081	76.0
110.561737	32.0
110.815125	184.0
110.97023	156.0
110.995392	40.0
111.061317	336.0
111.453003	184.0
111.673744	156.0
111.865234	168.0
111.983162	196.0
112.040039	48.0
112.328857	216.0
112.685654	160.0
112.784981	236.0
112.899155	156.0
112.922424	76.0
113.192719	184.0
113.411537	116.0
113.443336	168.0
113.663925	60.0
113.7658	220.0
113.916588	96.0
113.986702	180.0
114.156769	172.0
114.362038	108.0
114.61232	104.0
114.633629	168.0
114.780724	104.0
115.052475	5260.0
115.188377	144.0
116.060127	1112.0
116.166702	96.0
116.233215	188.0
116.261116	192.0
116.327652	148.0
116.407097	200.0
116.611198	168.0
117.056129	872.0
117.722916	164.0
117.770432	116.0
117.934647	44.0
118.014641	148.0
118.061859	276.0
118.508148	180.0
118.649033	148.0
118.82254	132.0
119.631027	48.0
119.809608	44.0
120.051559	76.0
120.652046	212.0
120.857643	72.0
121.017433	148.0
121.429428	164.0
121.734489	36.0
122.290733	128.0
122.81736	48.0
123.062332	116.0
123.429138	144.0
123.506546	40.0
123.882874	140.0
124.29306	140.0
125.035324	180.0
125.211212	116.0
125.304771	228.0
125.985245	164.0
126.045723	168.0
126.398895	152.0
126.443649	204.0
126.537674	164.0
126.918587	160.0
127.05378	512.0
127.282104	192.0
127.497772	76.0
128.061584	1376.0
128.083298	140.0
128.193192	72.0
128.21347	176.0
128.782043	168.0
128.881454	48.0
128.928909	84.0
129.049683	300.0
129.066055	724.0
129.431122	160.0
129.619141	144.0
129.75061	32.0
129.850388	92.0
130.064148	896.0
130.336212	120.0
130.697769	188.0
130.725067	148.0
131.07225	1688.0
131.640778	144.0
131.719177	148.0
132.046036	140.0
132.07605	800.0
132.119247	64.0
133.049728	144.0
133.079575	80.0
133.150772	80.0
133.205902	136.0
133.668045	116.0
133.944321	200.0
133.97197	160.0
134.80957	172.0
135.08934	204.0
135.3694	176.0
135.475952	196.0
135.863129	196.0
136.269424	160.0
136.334488	156.0
136.450714	156.0
136.715469	196.0
136.855576	52.0
137.11882	204.0
137.433655	136.0
137.989563	132.0
138.069061	200.0
138.361572	156.0
138.434158	172.0
138.607513	156.0
138.684845	144.0
139.052155	588.0
139.12352	144.0
139.236237	176.0
140.050507	292.0
140.894592	140.0
141.031647	240.0
141.067505	3644.0
141.093811	172.0
141.642151	60.0
142.062927	3312.0
142.353699	96.0
142.439209	64.0
142.750565	160.0
142.909943	148.0
142.969437	208.0
143.012268	200.0
143.040833	212.0
143.071381	9500.0
143.240875	104.0
143.262314	160.0
143.29567	64.0
143.367157	212.0
143.393372	92.0
143.507797	72.0
143.715317	164.0
143.872849	136.0
143.899109	72.0
143.918213	32.0
143.980301	108.0
144.018509	72.0
144.05481	344.0
144.07637	1424.0
144.185776	28.0
144.220627	144.0
144.743179	32.0
144.872528	72.0
145.023483	108.0
145.070236	336.0
145.143356	68.0
145.229706	132.0
145.284882	176.0
145.85643	104.0
145.952591	76.0
146.089691	152.0
146.161865	144.0
146.720673	208.0
147.447266	160.0
148.105392	80.0
148.238647	108.0
148.97142	156.0
149.747391	100.0
150.043442	188.0
150.786789	48.0
151.028854	212.0
151.05069	536.0
151.528259	240.0
152.046585	364.0
152.06337	152.0
152.16597	120.0
152.428787	116.0
152.928055	56.0
153.056259	1784.0
153.874695	148.0
154.061401	828.0
154.366425	156.0
154.693024	108.0
154.764816	48.0
155.059326	176.0
155.3423	88.0
155.769287	124.0
155.876129	56.0
155.948196	216.0
156.079544	1080.0
156.1297	140.0
156.423309	192.0
156.709717	120.0
156.974152	188.0
157.033798	160.0
157.087326	2292.0
157.365707	72.0
157.428131	44.0
157.458939	40.0
158.067581	172.0
158.094727	7844.0
158.138184	300.0
158.233307	68.0
158.528885	48.0
158.641693	52.0
158.774582	108.0
159.073181	144.0
159.097549	796.0
159.31929	44.0
159.341904	164.0
159.457489	48.0
159.60582	76.0
159.849823	64.0
160.077454	124.0
160.1026	140.0
160.217453	72.0
160.364273	76.0
161.267227	156.0
161.307678	152.0
162.322968	104.0
162.680725	136.0
162.949936	208.0
163.40506	156.0
163.471222	280.0
163.593384	40.0
164.097839	172.0
165.055389	200.0
165.597946	136.0
165.946472	148.0
166.064285	888.0
166.246597	152.0
166.300491	84.0
166.564972	120.0
167.071228	3992.0
167.151184	108.0
167.488449	56.0
167.831223	152.0
168.079468	2140.0
168.176926	172.0
168.213074	136.0
168.280197	44.0
168.324097	40.0
168.422241	140.0
168.923721	120.0
169.065353	300.0
169.07373	144.0
169.080368	460.0
169.490738	100.0
169.954895	160.0
170.057434	1432.0
170.101395	36.0
170.523636	132.0
170.560028	36.0
170.786255	156.0
171.066055	1360.0
171.140198	208.0
171.215714	56.0
171.248505	68.0
171.353775	124.0
171.679611	56.0
172.240784	84.0
173.014862	164.0
173.407791	56.0
173.441864	76.0
173.567719	216.0
174.61557	92.0
174.710266	216.0
174.815521	180.0
175.257919	128.0
177.141693	136.0
177.30864	220.0
177.425262	180.0
177.555206	208.0
177.613556	156.0
178.545853	128.0
179.039597	208.0
179.365936	44.0
179.915497	80.0
179.94754	184.0
180.006287	196.0
180.059097	152.0
180.33757	64.0
182.299438	196.0
183.074234	160.0
183.233154	152.0
183.926239	104.0
183.94783	132.0
184.071426	664.0
185.004868	144.0
185.080872	164.0
185.356979	132.0
185.416595	204.0
185.525024	108.0
185.55484	204.0
185.642715	160.0
185.831497	140.0
185.850494	144.0
185.959488	100.0
186.01062	140.0
186.040451	180.0
186.090347	31972.0
186.164307	80.0
186.203415	100.0
186.233292	56.0
186.289856	132.0
186.312073	44.0
186.33606	152.0
186.363693	40.0
186.409882	68.0
186.453369	84.0
186.5186	104.0
186.546509	60.0
186.564819	104.0
186.59201	68.0
186.678558	72.0
186.733414	56.0
186.755173	52.0
186.774216	76.0
186.994614	60.0
187.019104	180.0
187.049057	68.0
187.09314	3504.0
187.215134	40.0
187.247818	144.0
187.62114	72.0
187.741119	60.0
187.847504	88.0
187.891144	84.0
188.093704	288.0
188.303345	80.0
188.327927	108.0
188.357864	96.0
188.401688	56.0
188.472733	72.0
188.494583	88.0
188.535583	152.0
188.658035	40.0
188.811707	112.0
189.337189	60.0
189.381012	52.0
191.058304	104.0
196.667313	84.0
197.044312	124.0
197.115341	48.0
198.435364	44.0
198.684982	88.0
200.287369	72.0
200.760895	48.0
202.278183	124.0
203.403595	56.0
207.847443	64.0
208.556824	40.0
208.919159	136.0
210.386078	40.0
215.039398	132.0
220.52916	48.0
244.641113	64.0
247.075409	76.0
249.308014	76.0
262.291992	56.0
288.703918	84.0
309.957977	104.0
322.99115	64.0
337.644623	68.0
365.418854	88.0
367.064392	92.0
373.995178	76.0
416.498413	84.0
428.827271	52.0
467.357391	88.0
482.976257	68.0
493.527008	56.0
505.11734	52.0
553.942993	68.0
586.926208	108.0
639.308594	68.0
649.951233	160.0
665.951477	44.0
728.439758	164.0
737.190002	124.0
740.002869	172.0
765.036438	48.0
836.188416	188.0
842.271606	196.0
844.479675	144.0
850.337524	128.0
850.639343	180.0
859.509399	188.0
915.393127	148.0
930.856262	176.0
936.609863	276.0
954.063171	192.0
955.028625	196.0
962.312988	128.0
962.664978	208.0
966.175903	160.0
969.123108	212.0
972.72644	144.0
972.782349	76.0
981.436707	212.0
985.837708	144.0
996.270508	192.0
1014.972351	168.0
1015.321106	148.0
1021.132568	176.0
1024.646484	172.0
1028.096191	148.0
1029.845703	64.0
1031.50061	136.0
1038.518799	232.0
1046.249512	160.0
1061.129028	40.0
1064.185059	168.0
1068.708984	156.0
1069.80896	180.0
1073.764282	220.0
1075.05603	228.0
1082.076538	212.0
1086.500488	152.0
1087.360107	100.0
1090.992798	128.0
1102.455444	160.0
1110.950806	44.0
1116.530518	132.0
1122.330933	116.0
1122.764404	124.0
1128.079468	252.0
1128.754761	132.0
1134.352173	144.0
1135.129883	184.0
1138.270508	144.0
1143.743286	208.0
1144.349121	176.0
1146.019531	224.0
1146.875488	204.0
1150.53186	128.0
1152.436523	72.0
1155.61438	224.0
1156.331787	156.0
1163.069214	172.0
1171.835449	152.0
1174.814941	204.0
1177.948364	164.0
1178.064453	84.0
1187.50415	88.0
1190.352295	212.0
1194.111694	236.0
1195.68042	104.0
1196.045166	84.0
1196.864502	208.0
1207.893433	100.0
1208.834473	192.0
1209.20813	176.0
1215.507812	168.0
1216.840576	56.0
1218.375488	128.0
1220.106079	172.0
1224.148804	60.0
1225.277222	92.0
1225.528076	244.0
1226.001953	144.0
1226.817505	148.0
1229.105225	188.0
1232.862305	184.0
1239.916992	244.0
1242.329102	124.0
1245.143921	148.0
1248.229126	144.0
1249.692261	204.0
1250.191895	236.0
1250.747925	60.0
1251.057617	180.0
1253.078979	164.0
1254.460327	164.0
1254.523804	176.0
1255.369873	88.0
1256.3927	112.0
1260.975586	128.0
1266.175903	96.0
1267.83374	212.0
1268.230713	88.0
1274.0	140.0
1275.926025	160.0
1276.672607	76.0
1285.392334	240.0
1285.570801	28.0
1288.405518	156.0
1295.710327	204.0
1298.305176	172.0
1301.039185	156.0
1301.599243	56.0
1302.310181	108.0
1302.640625	152.0
1305.868164	156.0
1306.918457	116.0
1309.351685	52.0
1310.230591	52.0
1319.071167	140.0
1319.439819	252.0
1320.300293	152.0
1322.934204	160.0
1324.498413	200.0
1326.324463	124.0
1327.187256	216.0
1331.87561	168.0
1332.151611	144.0
1341.583374	192.0
1341.65625	124.0
1344.997437	224.0
1345.245605	60.0
1345.435425	176.0
1347.202759	156.0
1347.889648	236.0
1348.035767	192.0
1351.062988	184.0
1352.707153	192.0
1353.815186	116.0
1356.189087	184.0
1357.076172	76.0
1357.970825	80.0
1359.291382	156.0
1361.368896	204.0
1368.34729	212.0
1370.306519	184.0
1370.608521	140.0
1373.941284	128.0
1374.531616	156.0
1378.002075	212.0
1380.212158	148.0
1386.260132	280.0
1388.73645	156.0
1389.901245	132.0
1390.175781	88.0
1391.801514	188.0
1393.955811	220.0
1394.758423	128.0
1396.781128	164.0
1398.336304	152.0
1403.431885	248.0
1405.132446	176.0
1405.490601	200.0
1405.86377	164.0
1410.315186	144.0
1410.666626	244.0
1414.279663	40.0
1416.046753	156.0
1417.245361	124.0
1418.092285	204.0
1418.654419	136.0
1425.913208	204.0
1432.820312	220.0
1433.424072	112.0
1440.811035	212.0
1446.35437	52.0
1451.104492	160.0
1451.347046	188.0
1453.275635	236.0
1453.364746	172.0
1453.911133	112.0
1457.298096	184.0
1460.460693	132.0
1461.335571	132.0
1461.594238	88.0
1462.512573	164.0
1462.563721	176.0
1463.88562	196.0
1466.437866	216.0
1466.971436	92.0
1467.489868	220.0
1468.077026	196.0
1469.175537	76.0
1469.228882	204.0
1469.595093	184.0
1469.862183	140.0
1470.862061	80.0
1471.136841	68.0
1471.694214	188.0
1472.511353	168.0
1473.810059	204.0
1474.024048	40.0
1475.728638	240.0
1476.500977	160.0
1484.872314	192.0
1484.987305	128.0
1487.10498	40.0
1489.231934	216.0
1489.900269	168.0
1490.069336	204.0
1494.475098	168.0
1495.598633	188.0
1495.883545	244.0
1498.116821	224.0
1500.282349	180.0
1500.398071	168.0
1500.752686	40.0
1500.853027	128.0
1503.576172	56.0
END IONS

BEGIN IONS
PEPMASS=587.308
CHARGE=1
MSLEVEL=2
SOURCE_INSTRUMENT=LC-ESI-qTof
FILENAME=p4-A08_GA8_01_18332.mzXML
SEQ=*..*
IONMODE=Positive
ORGANISM=GNPS-NIH-SMALLMOLECULEPHARMACOLOGICALLYACTIVE
NAME=MLS001148144-01! M+H
PI=Dorrestein
DATACOLLECTOR=VP/LMS
SMILES=C[C@@H]1O[C@@H](O[C@H]2C[C@@H](O)[C@]3(CO)[C@H]4[C@H](O)C[C@]5(C)[C@H](CC[C@]5(O)C4CC[C@]3(O)C2)C6COC(=O)C6)[C@H](O)[C@H](O)[C@H]1O
INCHI=N/A
INCHIAUX=N/A
PUBMED=N/A
SUBMITUSER=vphelan
LIBRARYQUALITY=1
SPECTRUMID=CCMSLIB00000085422
USI=mzspec:GNPS:GNPS-NIH-SMALLMOLECULEPHARMACOLOGICALLYACTIVE:accession:CCMSLIB00000085422
SCANS=1223
45.653198	176.0
46.619785	224.0
47.016079	156.0
48.64856	92.0
50.01992	212.0
50.706367	188.0
51.103977	192.0
52.01289	108.0
52.344997	124.0
52.815479	200.0
53.968731	132.0
54.580166	152.0
55.504517	248.0
55.531212	168.0
56.148426	40.0
56.824551	124.0
56.965668	120.0
57.078388	96.0
57.341835	132.0
57.708656	96.0
58.176796	188.0
58.657494	72.0
58.857353	128.0
59.541866	184.0
59.587952	104.0
59.609463	212.0
59.62022	116.0
59.737072	100.0
60.109921	180.0
60.643463	160.0
60.992085	172.0
61.254112	204.0
61.655098	172.0
61.955517	160.0
61.997826	148.0
62.339931	216.0
63.30695	196.0
65.612694	212.0
66.43586	136.0
66.479668	128.0
67.648293	224.0
68.140282	172.0
68.169861	200.0
68.714874	108.0
69.268684	132.0
70.754143	208.0
71.777367	120.0
73.251862	176.0
73.794556	144.0
75.706299	276.0
76.82914	68.0
77.103271	152.0
77.672302	88.0
77.991875	156.0
79.018204	224.0
79.212936	60.0
79.232422	160.0
79.347626	100.0
79.889275	164.0
79.996048	184.0
80.138527	96.0
81.705864	152.0
82.014832	220.0
82.054489	172.0
82.438957	124.0
82.657761	124.0
83.92926	132.0
84.579636	160.0
84.784767	136.0
85.025009	252.0
85.841805	104.0
86.151878	188.0
86.549515	188.0
88.074493	212.0
88.66198	176.0
89.275856	212.0
90.167572	208.0
90.228058	164.0
90.322609	196.0
90.875786	44.0
91.052322	144.0
91.183411	196.0
91.268951	196.0
91.649635	140.0
92.248901	100.0
92.574158	160.0
93.080399	144.0
93.193726	72.0
94.025604	156.0
94.199379	260.0
94.545471	88.0
94.599663	172.0
94.92128	128.0
95.055122	232.0
95.090057	188.0
96.13903	184.0
96.559059	204.0
96.788017	132.0
97.052536	80.0
97.205536	176.0
97.913246	160.0
99.050911	64.0
99.078644	36.0
99.276855	220.0
100.000008	200.0
100.021904	188.0
100.410431	152.0
100.444336	128.0
100.695824	160.0
100.723793	44.0
100.78772	48.0
101.027634	164.0
101.117676	164.0
101.131691	112.0
101.197746	176.0
101.552444	264.0
101.572166	192.0
101.98613	128.0
102.745293	164.0
102.817932	164.0
103.302856	88.0
105.07048	212.0
105.092712	144.0
105.321358	144.0
105.947304	120.0
106.27739	152.0
106.721039	80.0
106.984383	116.0
107.04615	140.0
107.087387	176.0
107.347008	212.0
107.410942	220.0
108.024445	144.0
108.67289	84.0
108.70816	120.0
109.100716	204.0
110.537773	156.0
111.011185	180.0
111.077072	204.0
111.878944	140.0
111.963165	160.0
112.049522	172.0
112.127487	120.0
113.057678	336.0
113.232437	244.0
115.057915	424.0
116.006706	196.0
116.457314	164.0
116.612007	128.0
117.069847	308.0
118.073753	160.0
118.414001	168.0
118.684418	144.0
118.76683	80.0
119.046799	172.0
119.087494	640.0
119.960602	124.0
120.087074	164.0
120.41227	216.0
120.932617	44.0
121.063522	216.0
121.099747	320.0
121.436546	64.0
121.594513	132.0
121.614265	132.0
123.040695	128.0
123.07814	184.0
123.898781	156.0
124.01622	176.0
124.324501	188.0
124.508759	168.0
124.677597	208.0
125.242714	216.0
125.773392	140.0
125.869385	164.0
127.363159	88.0
127.49572	192.0
128.071686	92.0
128.348877	140.0
128.743774	192.0
128.895126	136.0
129.069977	1048.0
129.791473	212.0
129.956879	52.0
130.002441	192.0
130.07605	208.0
130.308975	180.0
131.043274	156.0
131.084732	584.0
131.235306	184.0
131.367584	108.0
131.815079	200.0
132.061981	44.0
132.091721	156.0
132.142044	140.0
132.703171	104.0
133.067978	300.0
133.102493	276.0
133.364197	172.0
134.107742	116.0
134.52063	112.0
135.083099	308.0
135.11731	160.0
135.498856	144.0
135.879074	152.0
136.050812	180.0
136.221466	172.0
136.524796	104.0
137.060196	172.0
137.097473	80.0
138.09671	72.0
138.223038	96.0
138.532074	236.0
138.569565	132.0
139.077286	296.0
140.648407	144.0
140.974335	156.0
141.047592	284.0
141.069885	2620.0
141.23912	96.0
142.077972	412.0
142.899902	148.0
142.925888	68.0
142.944931	164.0
143.054413	192.0
143.086212	1472.0
143.187744	152.0
143.456985	68.0
143.495132	140.0
143.71933	124.0
143.848206	124.0
144.029678	76.0
144.046402	176.0
144.091431	496.0
144.192154	192.0
144.397766	92.0
144.646606	112.0
144.735184	112.0
144.955551	156.0
144.979523	56.0
145.065796	348.0
145.103149	1404.0
145.15451	152.0
145.797852	40.0
146.105576	160.0
147.080597	696.0
147.117813	244.0
147.308563	148.0
148.087418	224.0
148.742081	200.0
149.045654	148.0
149.069962	260.0
149.099243	392.0
149.269287	92.0
149.965546	116.0
150.092316	128.0
151.069244	144.0
151.40947	196.0
153.090927	472.0
153.833832	208.0
154.027817	100.0
154.08078	184.0
154.238937	84.0
154.701508	140.0
155.04332	152.0
155.085434	360.0
155.31604	40.0
156.091003	276.0
156.571182	184.0
156.777954	164.0
157.032242	192.0
157.054688	100.0
157.101196	4064.0
157.179428	100.0
157.269272	256.0
157.836365	52.0
158.104279	472.0
159.078934	560.0
159.119675	836.0
159.951279	104.0
160.082199	100.0
160.112427	88.0
160.624069	168.0
161.092606	388.0
161.164322	64.0
161.479202	164.0
161.725739	144.0
162.08992	184.0
163.058136	156.0
163.082703	184.0
164.52446	144.0
164.54744	144.0
164.639359	76.0
164.685333	148.0
164.856506	92.0
165.091873	360.0
165.529282	212.0
165.58049	168.0
165.634277	160.0
165.68808	176.0
166.082962	180.0
167.086868	272.0
167.130981	84.0
168.095657	496.0
168.484558	76.0
168.595657	156.0
169.068924	156.0
169.100266	820.0
169.203522	108.0
170.101562	180.0
170.121231	56.0
170.950348	40.0
171.077957	308.0
171.115128	284.0
172.082794	184.0
172.776794	152.0
173.096664	340.0
173.132767	132.0
173.289932	76.0
174.804977	112.0
175.015549	64.0
175.106979	184.0
177.092651	336.0
177.128296	140.0
178.083176	164.0
179.094376	280.0
179.10524	288.0
179.235077	44.0
179.355011	48.0
180.090073	168.0
180.112793	148.0
180.767807	156.0
181.099731	768.0
181.421326	68.0
181.855865	140.0
182.104385	116.0
182.508667	80.0
182.538239	160.0
183.115982	688.0
184.122238	380.0
185.097656	128.0
185.131165	404.0
186.10228	188.0
186.134323	180.0
186.542389	112.0
187.113144	976.0
187.876755	204.0
188.043213	40.0
188.084152	96.0
188.12236	156.0
189.094391	364.0
189.128357	140.0
191.005112	100.0
191.105621	512.0
191.398651	100.0
192.091354	256.0
192.355316	164.0
193.103043	896.0
194.106598	136.0
195.078339	164.0
195.114761	208.0
195.203445	64.0
196.104462	204.0
196.518158	232.0
196.607452	96.0
197.076569	104.0
197.104782	168.0
197.135681	360.0
197.375641	240.0
198.148148	180.0
198.243408	68.0
199.107971	316.0
199.145615	180.0
199.365921	132.0
200.122589	196.0
200.159195	168.0
201.10553	164.0
201.123352	112.0
201.129913	148.0
202.174728	140.0
202.310593	236.0
203.094803	112.0
203.387756	184.0
204.072403	136.0
204.106522	204.0
204.379578	124.0
205.106461	308.0
205.127045	280.0
205.2854	56.0
205.331024	68.0
205.739059	144.0
205.841843	124.0
206.096817	196.0
206.12178	176.0
206.813858	200.0
207.074402	232.0
207.114014	556.0
208.119705	164.0
208.155563	36.0
208.428436	96.0
208.721634	180.0
209.096207	152.0
209.126129	176.0
209.21376	152.0
209.236649	88.0
209.648544	188.0
210.115646	204.0
210.13829	304.0
210.522629	60.0
211.118698	204.0
211.155685	192.0
212.10231	160.0
212.546036	88.0
213.116852	216.0
213.184875	128.0
214.136581	88.0
214.427536	128.0
215.107132	180.0
215.142715	192.0
217.099457	144.0
217.123306	336.0
218.109573	164.0
218.677246	96.0
219.118225	312.0
219.301651	132.0
220.127686	176.0
221.09436	184.0
221.129822	132.0
221.609589	116.0
222.133713	316.0
223.10582	356.0
223.146759	256.0
223.739044	216.0
223.902817	100.0
224.105377	164.0
224.519714	124.0
224.567444	144.0
225.107208	120.0
225.126694	368.0
225.163315	160.0
225.504944	128.0
227.103775	164.0
227.127762	156.0
227.147308	132.0
228.142731	104.0
229.099716	156.0
229.123474	584.0
229.150925	120.0
229.844406	100.0
230.164352	124.0
230.224747	180.0
231.113251	284.0
231.140686	224.0
231.189102	160.0
232.117905	236.0
232.492203	28.0
233.130341	364.0
234.132004	140.0
234.340988	156.0
234.929382	76.0
234.990402	176.0
235.151108	688.0
235.373932	232.0
235.567383	196.0
236.114502	216.0
236.150894	116.0
236.282745	68.0
237.124817	276.0
237.162506	544.0
237.262756	56.0
237.725906	76.0
238.155716	116.0
238.18335	132.0
238.37384	92.0
238.687378	88.0
239.096512	56.0
239.148071	292.0
239.18576	180.0
239.413605	72.0
239.46904	236.0
240.137848	184.0
240.18103	156.0
241.101089	108.0
241.128906	120.0
241.249451	52.0
241.59581	48.0
242.044586	212.0
243.134537	264.0
244.116562	260.0
244.584106	136.0
245.132233	120.0
246.146027	256.0
247.148148	700.0
248.155579	184.0
248.186157	156.0
248.951797	48.0
249.118271	160.0
249.152817	308.0
249.995483	84.0
250.1371	160.0
250.181183	188.0
250.442535	88.0
250.48349	156.0
250.669357	88.0
250.757599	92.0
251.101257	144.0
251.145035	332.0
251.363098	96.0
251.4767	44.0
251.887177	220.0
252.139938	124.0
252.263214	80.0
253.1586	120.0
253.180771	136.0
253.633835	124.0
254.125381	156.0
254.696808	48.0
255.139847	264.0
255.170303	152.0
256.007141	132.0
257.126709	148.0
257.177185	164.0
257.499664	48.0
259.116333	308.0
259.148621	568.0
259.932648	172.0
260.150146	260.0
261.160126	852.0
261.2435	152.0
261.974243	152.0
262.168335	468.0
262.741486	88.0
263.140228	192.0
263.180878	628.0
263.245026	92.0
263.875092	80.0
264.157654	236.0
264.19342	148.0
264.622467	56.0
265.124207	312.0
265.164307	248.0
265.922333	116.0
266.129547	168.0
266.167572	192.0
266.195038	56.0
267.138519	324.0
267.173645	180.0
267.456451	64.0
268.088287	60.0
269.153198	164.0
270.135437	132.0
271.111145	84.0
271.144714	192.0
271.95401	64.0
272.101715	92.0
273.025055	176.0
273.164703	644.0
273.623901	48.0
274.175781	140.0
275.141937	352.0
275.182404	576.0
275.490509	36.0
275.863922	116.0
276.141663	128.0
276.180603	244.0
277.111572	68.0
277.161285	176.0
277.195129	380.0
277.509308	80.0
277.578918	120.0
278.159515	100.0
279.124115	188.0
279.17334	268.0
281.148041	340.0
281.195068	156.0
282.147064	196.0
282.30423	76.0
283.16861	892.0
283.341827	80.0
284.163208	116.0
285.163544	332.0
285.446289	32.0
285.765839	240.0
285.83313	80.0
286.125946	36.0
286.159607	120.0
286.900787	116.0
287.141968	344.0
287.179138	344.0
288.132599	272.0
289.160553	92.0
290.70929	132.0
291.167542	420.0
292.486786	80.0
292.534454	60.0
293.137299	124.0
293.187653	396.0
293.495209	108.0
294.163879	148.0
294.204865	76.0
294.618073	184.0
295.171906	208.0
296.177917	148.0
296.219025	140.0
296.770782	72.0
296.980713	168.0
297.184357	292.0
297.192932	288.0
298.167908	168.0
298.191956	176.0
298.257263	52.0
298.786835	136.0
299.192657	160.0
300.157654	128.0
300.95816	44.0
301.17218	140.0
302.032928	260.0
303.179901	468.0
303.952209	76.0
303.976501	76.0
304.175903	148.0
305.154724	208.0
305.175751	108.0
306.186707	180.0
307.062225	96.0
307.158966	136.0
307.168549	100.0
308.162811	196.0
309.179382	408.0
310.19104	160.0
310.717621	144.0
311.164673	220.0
311.197876	492.0
312.133087	60.0
312.179718	120.0
312.210449	160.0
312.551666	56.0
313.182434	184.0
313.224091	116.0
314.359344	244.0
314.609924	204.0
315.179443	384.0
316.069611	124.0
316.165985	116.0
320.173218	92.0
320.297882	108.0
321.049896	76.0
321.096252	116.0
321.183044	2512.0
321.288879	108.0
321.42804	112.0
321.920654	60.0
322.124207	96.0
322.188202	512.0
322.467224	84.0
322.717468	64.0
323.150055	152.0
323.19873	1300.0
323.679962	96.0
324.09906	72.0
324.167145	128.0
324.201508	172.0
324.690521	176.0
325.103088	180.0
325.179413	492.0
325.211975	340.0
326.000854	60.0
326.18457	176.0
327.200897	176.0
327.706451	56.0
329.175934	176.0
329.219574	156.0
332.16394	148.0
333.085938	100.0
333.183716	604.0
333.496521	68.0
334.18689	308.0
335.195801	256.0
335.312653	168.0
336.198853	216.0
336.622314	76.0
337.722351	96.0
339.19577	2032.0
339.45462	72.0
340.133362	144.0
340.195282	416.0
340.320587	52.0
340.551941	60.0
340.709869	76.0
340.893585	176.0
341.205292	772.0
341.29425	40.0
341.66571	60.0
341.89386	60.0
342.207001	384.0
342.243561	220.0
342.405579	124.0
343.189362	352.0
344.201477	112.0
346.776276	60.0
349.985901	128.0
351.006866	124.0
351.036713	48.0
351.196198	1364.0
352.148834	152.0
352.195465	592.0
352.440216	104.0
353.197113	112.0
353.779114	100.0
354.203094	148.0
354.644409	68.0
355.236847	152.0
356.457062	136.0
357.152557	172.0
357.20285	1372.0
357.957947	80.0
358.210724	844.0
359.216003	140.0
360.65918	72.0
361.203674	288.0
364.505829	40.0
365.235779	140.0
367.079071	172.0
368.19339	140.0
369.206848	1296.0
369.416504	40.0
370.227509	116.0
371.209717	316.0
372.04538	48.0
373.190247	344.0
375.215698	196.0
375.959839	72.0
376.206848	160.0
378.135651	60.0
384.20517	80.0
384.423645	204.0
385.188873	256.0
387.215485	1624.0
388.224884	160.0
389.218353	164.0
389.233368	120.0
390.016327	68.0
390.102814	60.0
396.215729	88.0
405.224579	512.0
407.301788	68.0
407.691498	48.0
413.199493	184.0
414.23584	88.0
415.216705	108.0
423.818085	84.0
424.199219	56.0
428.213623	184.0
441.23938	132.0
457.205353	28.0
467.260956	192.0
479.289032	188.0
486.259705	172.0
501.880188	128.0
517.942383	124.0
521.22699	64.0
523.83844	84.0
527.411316	76.0
583.124329	88.0
589.340759	48.0
612.869446	64.0
659.712585	68.0
671.739258	76.0
753.205322	56.0
779.702454	132.0
789.978577	96.0
795.425354	104.0
826.065857	96.0
876.005249	124.0
903.294312	76.0
916.544373	60.0
969.412231	100.0
987.679016	132.0
1025.922363	76.0
1053.597534	220.0
1102.115601	112.0
1132.605347	196.0
1148.245605	176.0
1165.304077	168.0
1168.186523	180.0
1183.296021	172.0
1201.073975	116.0
1232.593628	204.0
1238.442139	168.0
1251.356201	192.0
1255.675903	84.0
1261.048706	164.0
1261.585938	120.0
1265.859375	156.0
1266.595947	196.0
1266.666748	248.0
1270.565674	192.0
1292.7323	84.0
1296.176636	80.0
1297.423706	164.0
1300.67334	64.0
1302.331909	152.0
1333.116577	216.0
1349.18103	176.0
1351.682373	168.0
1355.87854	20.0
1370.406128	40.0
1371.614746	88.0
1373.723633	160.0
1380.326416	184.0
1386.06311	132.0
1398.68103	132.0
1403.83667	120.0
1441.483643	152.0
1447.822998	184.0
1464.52417	112.0
1477.753662	196.0
1486.764893	120.0
1499.662598	188.0
END IONS

BEGIN IONS
PEPMASS=405.231
CHARGE=1
MSLEVEL=2
SOURCE_INSTRUMENT=LC-ESI-qTof
FILENAME=p4-G02_GG2_01_18398.mzXML
SEQ=*..*
IONMODE=Positive
ORGANISM=GNPS-NIH-SMALLMOLECULEPHARMACOLOGICALLYACTIVE
NAME=MLS002153969-01!Strophanthidin66-28-4 M+H
PI=Dorrestein
DATACOLLECTOR=VP/LMS
SMILES=C[C@@]12CC[C@H]3[C@@H](CC[C@]4(O)C[C@@H](O)CC[C@]34C=O)[C@@]2(O)CC[C@@H]1C5=CC(=O)OC5
INCHI=N/A
INCHIAUX=N/A
PUBMED=N/A
SUBMITUSER=vphelan
LIBRARYQUALITY=1
SPECTRUMID=CCMSLIB00000085839
USI=mzspec:GNPS:GNPS-NIH-SMALLMOLECULEPHARMACOLOGICALLYACTIVE:accession:CCMSLIB00000085839
SCANS=1553
44.944904	80.0
44.956913	136.0
45.10918	116.0
45.123207	212.0
45.169952	156.0
45.324665	124.0
45.445347	188.0
45.489635	164.0
45.512463	116.0
45.746407	228.0
45.811047	124.0
45.897308	72.0
45.95261	140.0
46.328468	140.0
46.470829	204.0
46.526474	64.0
46.546844	208.0
46.568573	192.0
46.597099	184.0
46.65826	140.0
46.946938	156.0
47.032894	112.0
47.079315	116.0
47.424103	136.0
47.506378	152.0
47.722008	128.0
47.900925	160.0
47.950527	168.0
47.990509	48.0
48.081554	112.0
48.391209	84.0
48.429985	164.0
48.528378	88.0
48.631039	40.0
48.690742	228.0
48.717133	240.0
48.939667	184.0
48.95155	100.0
49.007919	160.0
49.299572	188.0
49.349895	156.0
49.408497	200.0
49.436623	156.0
49.708492	152.0
49.86298	244.0
49.90937	124.0
49.969852	136.0
50.162796	36.0
50.269993	164.0
50.504528	104.0
50.932407	168.0
50.963867	56.0
51.032093	192.0
51.08614	156.0
51.235626	168.0
51.318291	120.0
51.562401	216.0
51.845779	208.0
51.964802	128.0
52.094013	160.0
52.106945	124.0
52.206127	128.0
52.223389	208.0
52.424953	72.0
52.525883	168.0
52.765617	168.0
53.027634	92.0
53.104481	124.0
53.12624	144.0
53.255436	100.0
53.317913	268.0
53.336807	156.0
53.384789	220.0
53.459221	196.0
53.52158	128.0
53.622101	124.0
53.692081	144.0
54.082195	148.0
54.36507	56.0
54.417915	116.0
54.523682	108.0
54.563374	36.0
54.681053	136.0
54.924175	44.0
55.167835	76.0
55.201843	144.0
55.506283	144.0
55.736992	192.0
55.771172	188.0
55.841057	120.0
55.912472	288.0
56.071835	216.0
56.168755	256.0
56.386757	168.0
56.464504	100.0
56.480957	140.0
56.720547	168.0
56.822525	132.0
57.013233	188.0
57.119987	156.0
57.180176	184.0
57.273529	160.0
57.293114	148.0
57.37299	176.0
57.416718	96.0
57.720268	156.0
57.774719	176.0
57.895813	180.0
58.153561	136.0
58.617424	124.0
58.887463	180.0
59.161182	216.0
59.197929	40.0
59.285252	192.0
59.527641	156.0
59.612133	176.0
59.853649	164.0
60.172825	236.0
60.217609	152.0
60.287136	208.0
60.339905	116.0
60.511433	48.0
60.675663	140.0
60.819939	116.0
61.208618	168.0
61.604786	188.0
61.659477	224.0
61.811172	152.0
61.891132	200.0
62.223415	136.0
62.311367	164.0
62.342796	172.0
62.50005	184.0
62.589775	116.0
62.622849	176.0
62.786762	172.0
62.949314	52.0
63.099426	48.0
63.218063	144.0
63.328892	68.0
63.374832	88.0
63.750919	212.0
63.78112	160.0
63.792248	68.0
63.824047	140.0
63.911533	240.0
64.222198	228.0
64.255699	208.0
64.297188	188.0
64.610382	180.0
64.679199	204.0
64.725624	220.0
64.74324	144.0
65.149063	80.0
65.310905	160.0
65.388657	200.0
65.449837	144.0
65.805801	204.0
65.880478	184.0
66.034042	224.0
66.053452	220.0
66.10199	112.0
66.142456	92.0
66.242851	184.0
66.401703	140.0
66.458488	148.0
66.703728	192.0
66.736244	44.0
67.146622	132.0
67.285324	120.0
67.378418	164.0
67.416	200.0
67.556625	124.0
67.849777	204.0
68.041733	132.0
68.270142	200.0
68.283295	108.0
68.298096	232.0
68.354034	136.0
68.365555	212.0
68.390244	124.0
68.934509	180.0
68.97583	156.0
69.010551	140.0
69.089935	192.0
69.263763	200.0
69.360237	128.0
69.393028	184.0
69.427856	136.0
69.653587	156.0
69.710075	180.0
70.515053	172.0
70.571892	148.0
70.848053	140.0
70.905022	156.0
71.107964	60.0
71.541656	204.0
71.74382	192.0
71.799461	168.0
71.819702	152.0
71.890564	100.0
71.976662	136.0
72.069565	160.0
72.093224	184.0
72.110123	184.0
72.135483	156.0
72.165909	56.0
72.225105	100.0
72.272476	152.0
72.472282	176.0
72.728363	160.0
72.789482	216.0
73.115891	224.0
73.287888	92.0
73.378227	180.0
73.526634	92.0
73.695694	220.0
73.774315	100.0
74.342987	164.0
74.751411	188.0
74.850121	156.0
74.944862	164.0
75.165581	128.0
75.367615	96.0
75.455765	172.0
75.505913	180.0
75.549156	160.0
75.571648	136.0
75.876488	184.0
75.945854	152.0
76.131561	196.0
76.225372	148.0
76.253181	196.0
76.421867	136.0
76.456673	220.0
76.552422	56.0
76.841782	108.0
77.019844	196.0
77.676285	152.0
77.858826	128.0
77.900986	32.0
77.980057	176.0
77.992363	168.0
78.060928	120.0
78.548813	192.0
78.811874	116.0
78.917923	160.0
79.107239	188.0
79.475883	48.0
79.493629	232.0
79.804489	216.0
80.041153	140.0
80.237152	140.0
80.454811	84.0
80.592339	164.0
80.783646	156.0
80.914291	56.0
80.957268	196.0
81.12928	192.0
81.283531	160.0
81.416382	180.0
82.06781	176.0
82.369209	176.0
82.387276	40.0
82.408951	160.0
82.452324	184.0
82.521019	264.0
82.683823	100.0
82.716408	124.0
82.79245	168.0
82.904778	72.0
83.046196	136.0
83.184105	140.0
83.203369	144.0
83.231308	120.0
83.264	224.0
83.507545	204.0
83.793358	204.0
83.979301	108.0
84.065048	136.0
84.096077	116.0
84.245811	96.0
84.339012	40.0
84.426773	168.0
84.481644	140.0
84.55484	180.0
84.582298	220.0
84.63356	188.0
84.901108	196.0
85.170921	192.0
85.294037	220.0
85.509239	72.0
85.770798	220.0
85.912796	124.0
86.045677	172.0
86.104767	220.0
86.141708	140.0
86.260429	232.0
86.333939	176.0
86.37278	180.0
86.852547	168.0
86.874809	132.0
86.980583	128.0
87.292725	104.0
87.326202	172.0
87.339218	140.0
87.393173	168.0
87.717232	172.0
87.946671	96.0
87.98774	112.0
88.34845	164.0
88.369026	148.0
88.612434	148.0
88.880562	148.0
88.89933	164.0
89.004456	112.0
89.107765	136.0
89.171654	172.0
89.883537	216.0
89.909958	212.0
89.925056	160.0
89.99868	208.0
90.214066	220.0
90.335098	156.0
90.40889	144.0
90.638039	232.0
90.664566	88.0
90.784004	136.0
90.880745	124.0
90.916801	52.0
90.950966	168.0
91.053223	348.0
91.082779	288.0
91.298668	156.0
91.313889	116.0
91.506088	152.0
91.555595	180.0
91.742332	176.0
91.925438	72.0
92.043793	48.0
92.060982	244.0
92.152672	208.0
92.412712	144.0
92.52372	56.0
92.5467	140.0
92.584999	168.0
92.757446	140.0
92.793869	220.0
92.902664	176.0
93.068016	376.0
93.125862	172.0
93.23922	176.0
93.2892	156.0
93.787773	128.0
94.210388	176.0
94.322472	92.0
94.423019	124.0
94.448166	124.0
94.500397	172.0
94.55265	124.0
95.044853	456.0
95.08461	804.0
95.169113	208.0
95.345886	148.0
95.40226	164.0
95.468369	220.0
95.676575	112.0
95.855774	212.0
95.910301	196.0
95.939583	56.0
96.1483	256.0
96.519478	140.0
96.916496	184.0
96.942314	88.0
97.065575	328.0
97.185471	188.0
97.291458	76.0
97.629433	100.0
97.692375	180.0
97.930557	148.0
98.259773	128.0
98.29332	140.0
98.356476	148.0
98.708153	196.0
98.865997	164.0
98.886208	144.0
99.040649	180.0
99.23288	120.0
99.612846	168.0
99.759003	140.0
99.830582	176.0
99.971832	132.0
100.162971	40.0
100.318413	132.0
100.543808	208.0
101.069389	160.0
101.177467	168.0
101.209503	204.0
101.223526	180.0
101.578278	196.0
101.899498	156.0
101.91758	132.0
102.090462	156.0
102.130692	124.0
102.166901	152.0
102.193054	168.0
102.223236	148.0
102.404434	204.0
102.595871	236.0
102.628128	128.0
102.652328	176.0
102.759232	140.0
102.864182	172.0
102.930809	140.0
103.051422	324.0
103.120712	200.0
103.270332	136.0
103.770538	64.0
104.042412	308.0
104.063866	300.0
104.080986	164.0
104.12973	120.0
104.31057	140.0
104.361397	260.0
104.450882	184.0
104.475296	152.0
104.615723	208.0
104.654404	28.0
104.788834	128.0
104.935585	192.0
105.03746	332.0
105.068741	2524.0
105.353981	44.0
105.574738	96.0
105.70089	132.0
106.074959	496.0
106.164551	132.0
106.275322	160.0
106.756004	136.0
106.937057	128.0
107.047646	300.0
107.083717	848.0
107.239838	212.0
107.326424	144.0
107.571945	136.0
107.59259	80.0
107.724762	172.0
107.863213	136.0
107.894226	72.0
107.912834	172.0
108.061752	192.0
108.089256	372.0
108.111801	216.0
108.17144	76.0
108.382698	160.0
108.430199	204.0
108.988602	248.0
109.065407	1348.0
109.098907	156.0
109.298431	80.0
109.898544	192.0
110.036301	80.0
110.06675	296.0
110.096855	136.0
110.136543	188.0
110.178322	128.0
110.519127	160.0
110.996727	168.0
111.040512	384.0
111.059639	168.0
111.077797	244.0
111.097404	92.0
111.73188	132.0
111.788689	132.0
112.024513	220.0
112.056114	120.0
112.096146	176.0
112.317528	204.0
112.349174	248.0
112.378708	204.0
112.427246	164.0
112.648949	52.0
113.012596	48.0
113.059151	220.0
113.364113	152.0
113.504021	156.0
114.143196	120.0
114.372971	260.0
114.626419	228.0
114.743652	164.0
114.824684	204.0
114.869484	192.0
115.053246	936.0
115.211052	252.0
115.300797	148.0
115.510345	36.0
115.548851	156.0
115.786674	160.0
115.857155	176.0
115.906433	128.0
116.062874	320.0
116.356865	92.0
116.591011	172.0
116.728592	168.0
116.829689	140.0
116.902847	184.0
116.928497	148.0
117.068062	2664.0
117.111687	56.0
117.126762	96.0
117.143997	136.0
117.303467	128.0
117.318558	136.0
117.398338	140.0
117.491089	120.0
117.60762	156.0
118.073227	328.0
118.221436	196.0
118.288536	92.0
118.44445	220.0
118.741402	64.0
119.04731	88.0
119.085037	2144.0
119.151672	176.0
119.35817	200.0
119.427757	144.0
119.48867	100.0
119.919853	80.0
120.055023	228.0
120.086876	364.0
120.220825	212.0
120.406403	156.0
120.495964	244.0
120.644577	140.0
120.786728	212.0
120.843605	148.0
120.878616	104.0
120.948036	184.0
121.062088	944.0
121.101021	952.0
121.318871	56.0
121.369301	180.0
121.777496	160.0
121.885147	128.0
121.992844	160.0
122.066597	176.0
122.498993	140.0
122.710571	176.0
122.959846	172.0
123.021133	188.0
123.114143	180.0
123.242516	156.0
123.280083	160.0
123.32428	116.0
123.667122	196.0
123.811043	208.0
124.056992	160.0
124.274239	244.0
124.600731	120.0
124.756302	128.0
124.952019	100.0
125.032822	192.0
125.058868	11376.0
125.092224	188.0
125.116714	128.0
125.175919	172.0
125.214691	92.0
125.341675	56.0
125.433052	116.0
125.464264	200.0
125.899384	60.0
126.065033	1260.0
126.163055	64.0
126.194351	152.0
126.61058	120.0
126.684494	208.0
126.738266	220.0
126.935532	180.0
126.980385	192.0
127.06012	316.0
127.112747	96.0
127.207016	124.0
127.274368	224.0
127.308052	152.0
127.766602	84.0
127.984932	204.0
128.062042	1824.0
128.165131	152.0
128.76973	124.0
128.846542	176.0
129.069168	2208.0
129.126846	132.0
129.226379	40.0
129.312378	72.0
129.409714	48.0
129.459534	212.0
129.584122	200.0
129.756378	60.0
130.074829	548.0
130.146637	60.0
130.246567	44.0
130.351074	116.0
130.840103	88.0
130.860596	88.0
130.910706	220.0
131.054855	128.0
131.084641	3928.0
131.107407	140.0
131.218323	148.0
131.373398	60.0
131.478363	164.0
131.736389	160.0
132.088898	508.0
132.31958	148.0
132.459274	32.0
132.544052	80.0
132.566971	300.0
133.062897	584.0
133.099533	1472.0
133.154282	32.0
133.356476	76.0
133.503616	220.0
133.648544	64.0
133.671555	164.0
133.786636	152.0
133.834991	136.0
134.026169	52.0
134.066467	232.0
134.103592	156.0
134.46434	212.0
134.556686	148.0
134.91478	64.0
135.014221	156.0
135.04306	556.0
135.079147	1020.0
135.115067	396.0
135.312729	204.0
135.36203	124.0
135.456314	40.0
135.711243	176.0
136.087997	348.0
137.015152	80.0
137.058716	1140.0
137.095764	196.0
137.299545	200.0
137.738358	52.0
138.065582	112.0
138.381485	144.0
138.545441	100.0
138.585266	176.0
138.664948	180.0
138.709473	140.0
138.981537	116.0
139.034302	176.0
139.069473	248.0
139.105927	52.0
139.202194	148.0
139.42067	152.0
139.547607	164.0
139.660492	36.0
140.124268	120.0
140.301025	64.0
140.891037	172.0
140.966644	184.0
141.069489	1128.0
141.200699	36.0
141.226303	180.0
141.31662	64.0
141.536743	40.0
141.680222	172.0
141.70256	140.0
141.719147	124.0
141.953415	216.0
142.073914	1252.0
142.181564	204.0
142.257523	144.0
142.979141	224.0
143.001541	160.0
143.044388	164.0
143.084305	4288.0
143.137238	148.0
143.199158	40.0
143.449371	76.0
143.466049	76.0
143.561432	208.0
143.714096	152.0
143.83342	148.0
143.995789	76.0
144.059158	328.0
144.089691	732.0
144.120026	136.0
144.294495	32.0
144.418854	96.0
144.476273	80.0
144.643784	188.0
144.734756	184.0
144.811401	200.0
144.907227	76.0
144.947952	72.0
145.06485	520.0
145.099701	5200.0
145.132538	168.0
145.166107	84.0
145.192108	128.0
145.610092	80.0
145.773453	224.0
146.066544	116.0
146.103821	860.0
146.167831	168.0
146.194305	196.0
146.233978	316.0
146.668793	188.0
146.709778	152.0
146.729065	36.0
146.791748	156.0
146.914764	120.0
147.043167	168.0
147.078613	1112.0
147.114914	1048.0
147.245468	144.0
147.339676	96.0
147.47258	136.0
147.801498	228.0
148.079895	104.0
148.1241	240.0
148.215561	176.0
148.635071	40.0
148.790405	136.0
149.058563	140.0
149.093842	604.0
149.132935	132.0
149.149948	196.0
149.536697	48.0
149.872772	184.0
150.036072	64.0
150.065338	168.0
150.082397	68.0
150.135864	208.0
150.19458	124.0
150.262894	104.0
150.401993	164.0
150.558258	132.0
150.675507	208.0
151.074982	212.0
151.115616	212.0
151.433853	156.0
151.485291	136.0
151.997726	92.0
152.072281	180.0
152.077637	216.0
152.110626	100.0
152.211288	72.0
152.311981	72.0
152.40535	136.0
152.63887	204.0
153.015335	120.0
153.054642	3764.0
153.088928	900.0
153.250381	176.0
154.059113	300.0
154.076797	808.0
154.117874	108.0
154.236496	64.0
154.525848	164.0
154.642151	136.0
154.758514	156.0
154.780792	128.0
154.857574	48.0
155.026047	120.0
155.078674	2064.0
155.132629	40.0
155.158463	104.0
155.229324	184.0
155.264038	188.0
155.348373	136.0
155.407928	228.0
155.700851	232.0
155.951797	68.0
156.04129	88.0
156.075867	372.0
156.080765	192.0
156.09021	356.0
156.459274	228.0
156.516541	36.0
156.710831	116.0
156.962585	236.0
157.034912	244.0
157.062607	448.0
157.099548	3084.0
157.14827	100.0
157.182098	84.0
157.309387	76.0
157.430389	176.0
157.574127	84.0
157.821564	76.0
157.929108	48.0
158.02417	188.0
158.071411	252.0
158.10878	296.0
158.171829	132.0
158.229401	164.0
158.289505	88.0
158.317047	196.0
158.532501	88.0
158.923691	88.0
158.971375	84.0
159.031601	192.0
159.079224	2576.0
159.114456	2264.0
159.154617	156.0
159.21991	132.0
159.257584	68.0
159.35054	60.0
159.403305	96.0
159.596863	56.0
159.790527	44.0
159.828278	160.0
159.854202	184.0
159.876083	220.0
160.054825	88.0
160.084229	636.0
160.118866	640.0
161.058853	204.0
161.094421	1052.0
161.132706	1012.0
161.26503	176.0
161.427597	68.0
161.680588	128.0
161.873795	164.0
162.09613	136.0
162.136032	312.0
162.286026	136.0
162.658966	132.0
162.905289	56.0
162.968811	140.0
163.069992	400.0
163.109024	476.0
163.518112	56.0
163.968918	168.0
164.119324	200.0
164.218781	112.0
164.614365	40.0
164.734421	184.0
164.954193	224.0
165.069611	896.0
165.529861	144.0
165.811676	176.0
166.076996	636.0
166.409378	60.0
166.56604	136.0
166.614853	68.0
167.026169	184.0
167.083374	1240.0
167.147095	52.0
167.401947	156.0
167.479218	48.0
167.749786	176.0
168.088013	708.0
168.247696	84.0
168.469803	196.0
168.772186	216.0
168.860123	176.0
169.060623	120.0
169.10054	2080.0
169.320816	212.0
169.424438	56.0
169.509933	116.0
169.914444	180.0
170.067551	108.0
170.104935	844.0
170.23111	96.0
170.262283	184.0
170.467514	140.0
170.498703	68.0
171.078873	444.0
171.115814	4456.0
171.405914	56.0
171.500763	56.0
171.558105	124.0
171.605042	140.0
171.646759	48.0
171.829346	52.0
172.083084	240.0
172.11763	912.0
172.317596	168.0
172.388138	336.0
172.432571	256.0
172.955688	108.0
173.050339	220.0
173.094833	1464.0
173.129776	2432.0
173.511078	108.0
173.60022	88.0
173.678909	96.0
173.726135	208.0
174.006943	264.0
174.097198	384.0
174.131378	252.0
174.471985	64.0
174.582413	60.0
174.866562	180.0
175.019257	72.0
175.074585	236.0
175.112183	476.0
175.149002	544.0
175.395996	76.0
175.451355	116.0
176.076752	124.0
176.11235	256.0
176.145203	144.0
176.830276	140.0
177.089188	608.0
177.235458	44.0
177.312317	56.0
177.527054	236.0
177.625198	156.0
177.850739	52.0
178.028625	168.0
178.080383	292.0
178.116287	92.0
178.267731	144.0
178.413925	44.0
179.082489	484.0
179.099945	808.0
179.25769	188.0
179.50827	164.0
179.884476	184.0
180.031326	112.0
180.089264	208.0
180.110413	352.0
180.282455	204.0
180.774521	120.0
180.857498	168.0
180.90033	192.0
180.967255	156.0
181.031525	192.0
181.062119	284.0
181.100281	1764.0
181.288712	160.0
181.779465	132.0
181.953934	220.0
182.071167	304.0
182.106323	1220.0
182.141922	252.0
182.407959	168.0
182.744141	148.0
182.839523	180.0
182.927139	60.0
183.079391	452.0
183.113586	1744.0
183.14296	192.0
183.261108	148.0
183.414719	196.0
183.681686	96.0
184.037933	144.0
184.084946	168.0
184.121506	1104.0
184.154053	188.0
184.186478	124.0
184.366379	192.0
184.418854	64.0
184.543213	96.0
184.583771	88.0
184.981491	160.0
185.054596	216.0
185.093277	1032.0
185.131012	2228.0
185.363388	44.0
185.431152	72.0
185.677872	28.0
185.791794	44.0
185.924759	188.0
186.030624	40.0
186.097351	504.0
186.136032	480.0
186.26416	56.0
186.440781	60.0
187.070068	404.0
187.109695	740.0
187.146729	1916.0
187.197067	52.0
187.292389	144.0
187.333252	72.0
187.361923	92.0
187.791214	68.0
187.993103	104.0
188.077332	344.0
188.149841	324.0
188.206024	48.0
189.056198	288.0
189.090912	472.0
189.126938	1160.0
189.197098	92.0
189.930222	136.0
190.103073	88.0
190.133255	368.0
190.157959	112.0
190.202164	188.0
190.303452	72.0
191.100189	332.0
191.538284	52.0
191.684311	164.0
192.092987	232.0
192.119308	152.0
192.158585	100.0
192.839508	84.0
193.100052	928.0
193.131073	188.0
193.667999	180.0
194.106995	476.0
194.251953	108.0
194.585938	96.0
194.897018	120.0
195.033203	228.0
195.075699	276.0
195.112488	1568.0
195.169418	256.0
195.686966	76.0
196.088104	56.0
196.120895	764.0
196.715729	68.0
197.099686	280.0
197.129974	2176.0
197.338745	112.0
197.377899	120.0
198.027176	176.0
198.094986	336.0
198.135223	564.0
198.391464	92.0
199.050827	176.0
199.072174	244.0
199.11026	1096.0
199.146027	1232.0
199.227783	44.0
200.088715	164.0
200.11586	168.0
200.154663	184.0
200.361572	176.0
200.474274	208.0
201.090546	472.0
201.121323	540.0
201.162857	648.0
201.230255	100.0
201.385574	120.0
201.500198	108.0
201.529663	136.0
201.710541	60.0
202.076218	212.0
202.14328	176.0
202.173309	176.0
202.259308	116.0
202.933578	72.0
203.101547	764.0
203.14711	276.0
203.302353	40.0
204.04657	228.0
204.104141	400.0
204.4505	144.0
204.555817	248.0
204.621292	240.0
204.871918	48.0
204.900421	116.0
204.994446	48.0
205.0905	160.0
205.119278	488.0
205.270966	56.0
205.504349	44.0
206.107025	424.0
206.230255	36.0
206.264557	44.0
206.911087	164.0
207.078522	128.0
207.116623	356.0
207.458298	36.0
207.604538	184.0
207.730728	164.0
207.793854	48.0
208.077988	172.0
208.117157	488.0
208.842407	56.0
209.006393	172.0
209.096985	440.0
209.128204	804.0
209.22226	32.0
209.487213	108.0
210.086853	200.0
210.106857	188.0
210.135147	452.0
210.947449	120.0
210.970566	96.0
211.07756	176.0
211.108551	772.0
211.14711	2048.0
211.780823	192.0
212.115738	264.0
212.15094	516.0
212.48941	168.0
212.676804	68.0
212.740677	172.0
212.993317	140.0
213.083374	108.0
213.12471	348.0
213.163132	572.0
213.304245	68.0
213.408905	196.0
213.443802	72.0
214.101486	168.0
214.131516	352.0
214.165573	140.0
214.206345	168.0
214.392822	48.0
214.576477	76.0
214.967331	48.0
214.990692	224.0
215.037384	128.0
215.079483	216.0
215.101807	556.0
215.143341	720.0
215.181229	204.0
215.487106	116.0
215.577682	116.0
215.709213	72.0
215.761841	44.0
215.858322	144.0
215.940216	188.0
216.107361	680.0
216.143005	328.0
216.60759	136.0
216.932877	204.0
217.067749	52.0
217.117676	588.0
217.149246	172.0
217.77211	88.0
218.102859	320.0
218.509979	36.0
219.117203	768.0
219.461349	112.0
219.880249	172.0
220.126099	428.0
220.547775	84.0
220.568466	72.0
220.887833	36.0
221.087769	372.0
221.131927	1688.0
221.31105	60.0
222.101746	160.0
222.138611	528.0
222.405014	144.0
223.070404	180.0
223.109055	260.0
223.146912	1572.0
223.367783	36.0
223.602844	48.0
223.629639	72.0
223.748703	172.0
223.814209	48.0
223.855896	52.0
223.954193	144.0
224.121948	260.0
225.063614	184.0
225.084503	140.0
225.126617	352.0
225.158218	340.0
225.502762	140.0
225.786804	48.0
226.088974	120.0
226.132141	132.0
226.172775	160.0
226.49617	60.0
226.73288	208.0
227.106674	616.0
227.147522	224.0
227.221664	36.0
227.608856	112.0
227.656906	184.0
228.110291	204.0
228.88385	84.0
229.117828	800.0
229.160873	400.0
229.549805	124.0
230.107269	284.0
230.168808	280.0
231.114975	484.0
231.386963	132.0
231.68074	76.0
232.062622	56.0
232.086884	132.0
232.122452	716.0
232.411438	108.0
232.763565	76.0
233.128204	820.0
233.68457	48.0
234.143951	392.0
235.108749	148.0
235.145325	1460.0
235.605377	196.0
236.11528	172.0
236.120132	140.0
236.152878	356.0
236.271866	120.0
237.075821	144.0
237.130997	300.0
237.158218	376.0
238.086517	128.0
238.114166	124.0
238.135666	112.0
238.169312	332.0
238.4552	132.0
238.833405	144.0
238.92569	144.0
239.100113	300.0
239.134613	356.0
239.177994	752.0
240.04071	84.0
240.077713	88.0
240.110229	180.0
240.148651	260.0
240.179504	144.0
240.549805	100.0
240.645508	52.0
240.670212	92.0
241.105545	252.0
241.130051	180.0
241.153824	188.0
241.940964	176.0
242.015274	184.0
242.101227	164.0
242.129578	136.0
242.439667	112.0
243.112793	368.0
243.137543	208.0
243.277145	120.0
243.882904	40.0
244.086868	192.0
244.123825	212.0
244.729095	112.0
244.947113	168.0
245.05304	188.0
245.099335	172.0
245.131027	636.0
246.035492	80.0
246.104385	228.0
246.135544	336.0
247.112	316.0
247.148407	788.0
248.150116	644.0
248.912994	144.0
249.119308	268.0
249.160217	1336.0
249.219971	132.0
249.777298	64.0
250.16478	228.0
250.472977	40.0
251.049759	60.0
251.103378	100.0
251.128616	204.0
251.148773	188.0
251.182236	288.0
251.630371	52.0
251.936737	196.0
252.088394	180.0
252.14241	204.0
253.043671	40.0
253.091171	144.0
253.11824	292.0
253.159668	140.0
253.202011	176.0
254.057861	96.0
254.146698	208.0
254.210175	252.0
254.511734	44.0
254.781708	116.0
255.126389	132.0
255.195816	152.0
255.57341	88.0
256.114624	92.0
256.140106	144.0
256.490204	120.0
256.75528	160.0
257.091461	192.0
257.127472	384.0
257.189789	156.0
258.096527	148.0
258.141876	156.0
258.176483	28.0
258.867737	188.0
258.89975	80.0
259.100739	204.0
259.151672	356.0
259.367554	48.0
259.797272	160.0
260.150269	152.0
261.130341	140.0
261.164154	824.0
261.226868	184.0
262.123474	320.0
262.172089	164.0
262.202515	208.0
262.924957	256.0
263.107269	344.0
263.146454	308.0
263.173981	1736.0
263.241333	44.0
263.328522	52.0
263.900513	88.0
264.055756	88.0
264.148926	188.0
264.183807	532.0
264.997772	68.0
265.123108	112.0
265.152344	200.0
265.19223	52.0
265.292694	116.0
265.347809	168.0
266.158997	120.0
266.574799	120.0
266.95517	132.0
267.127197	156.0
267.133545	344.0
267.166565	480.0
267.20752	340.0
268.116821	136.0
268.141479	184.0
268.462982	148.0
269.001343	116.0
269.033997	132.0
269.105804	120.0
269.15152	124.0
269.184174	144.0
269.752686	136.0
270.154938	112.0
270.220367	208.0
270.665527	188.0
271.134003	132.0
271.160217	140.0
271.206116	120.0
272.078705	60.0
272.11319	136.0
272.153137	564.0
273.160706	152.0
274.121338	140.0
274.16745	428.0
274.784119	68.0
274.972198	56.0
275.178558	160.0
275.536865	96.0
276.142365	336.0
276.165649	140.0
276.193237	136.0
276.462738	160.0
276.975952	160.0
277.119598	156.0
277.159943	304.0
277.192932	904.0
277.237701	132.0
277.383545	56.0
277.526093	40.0
277.900909	244.0
278.04361	144.0
278.168243	176.0
278.192505	336.0
278.236145	184.0
278.352356	56.0
278.488525	108.0
279.053467	68.0
279.137878	516.0
279.172974	132.0
279.208344	164.0
279.832031	48.0
280.144684	168.0
280.176849	440.0
280.206787	312.0
280.485016	72.0
281.015289	40.0
281.065338	144.0
281.150085	352.0
281.187195	488.0
282.147705	148.0
282.190002	160.0
282.28125	196.0
282.378235	124.0
283.137604	176.0
283.165039	168.0
283.204987	144.0
283.841766	144.0
284.173828	88.0
285.117462	56.0
285.167877	136.0
285.399841	212.0
286.776764	148.0
287.029602	160.0
287.070068	184.0
287.14328	152.0
287.175751	848.0
287.22522	76.0
287.311859	140.0
287.40741	32.0
287.481659	84.0
287.582886	36.0
287.643646	72.0
288.025238	48.0
288.142334	224.0
288.183258	164.0
289.110565	132.0
289.159882	168.0
289.179718	188.0
289.192505	236.0
289.679413	128.0
290.12677	168.0
290.178833	136.0
291.133911	304.0
291.173279	308.0
291.69516	36.0
292.174255	164.0
293.145111	148.0
293.17511	164.0
293.20816	128.0
293.298462	132.0
294.018158	36.0
294.168182	160.0
294.173645	152.0
294.844666	192.0
295.117126	188.0
295.160828	360.0
295.189087	352.0
295.199524	316.0
296.165375	500.0
296.21756	168.0
296.274994	184.0
296.484009	84.0
297.133026	164.0
297.178253	240.0
297.224731	104.0
297.932037	60.0
298.183075	212.0
298.213837	108.0
299.115051	132.0
299.13913	88.0
299.167786	208.0
299.197662	128.0
299.748779	204.0
300.148651	172.0
300.272797	112.0
301.125305	64.0
301.152618	176.0
302.017059	196.0
303.170502	376.0
304.089111	216.0
304.186829	132.0
304.891388	84.0
305.187134	2336.0
305.611237	48.0
306.152985	260.0
306.192627	832.0
307.166138	284.0
307.199585	372.0
307.294159	64.0
308.174316	408.0
308.20459	268.0
309.181152	324.0
309.223175	156.0
310.18222	180.0
312.170197	120.0
312.198334	176.0
313.166199	136.0
313.219055	164.0
313.804077	76.0
314.523743	160.0
315.173828	500.0
315.466949	172.0
315.629578	44.0
316.169769	104.0
316.182861	172.0
316.291199	40.0
316.957031	52.0
318.162964	132.0
318.546509	128.0
318.585602	128.0
318.642426	96.0
319.314301	164.0
320.136414	204.0
320.720734	104.0
321.180725	244.0
321.558929	116.0
321.623199	104.0
322.155273	132.0
322.258881	144.0
322.584595	172.0
322.619873	212.0
323.162201	88.0
323.200012	2816.0
323.270844	56.0
323.324524	68.0
323.686096	60.0
323.818604	120.0
324.171021	212.0
324.205139	704.0
324.295166	72.0
324.750519	68.0
324.876068	100.0
325.209229	332.0
326.200684	160.0
326.247955	120.0
326.283905	44.0
326.352234	56.0
326.460114	60.0
327.302185	72.0
327.503845	36.0
327.676758	160.0
329.217041	64.0
332.243103	76.0
333.1362	220.0
333.185059	752.0
334.191437	260.0
335.16275	124.0
335.199219	92.0
336.161926	120.0
337.484283	56.0
338.062256	104.0
339.18689	76.0
341.069794	108.0
341.172424	164.0
341.210632	716.0
341.253601	128.0
342.167938	60.0
342.211578	180.0
342.733307	76.0
344.208832	100.0
345.025391	232.0
345.398895	56.0
349.197174	208.0
351.06308	84.0
351.192841	2568.0
351.354034	72.0
351.533142	88.0
352.09314	60.0
352.199158	936.0
352.253754	144.0
352.328461	32.0
353.20697	156.0
354.180237	72.0
359.176208	112.0
359.226929	124.0
361.393616	108.0
367.320435	104.0
368.17923	48.0
369.126984	180.0
369.205353	512.0
369.677856	60.0
370.216522	108.0
370.271271	140.0
384.995575	132.0
387.005554	36.0
387.216034	344.0
388.221985	124.0
389.217072	160.0
389.456665	132.0
402.910217	96.0
404.185699	112.0
417.876953	180.0
430.903351	44.0
431.126495	76.0
446.275696	116.0
456.692047	44.0
466.953247	104.0
486.517273	76.0
490.370728	96.0
501.959778	108.0
551.556396	112.0
551.855652	80.0
566.734619	208.0
573.197083	92.0
590.969055	40.0
601.808411	176.0
613.623535	64.0
658.401611	88.0
667.36438	88.0
667.498108	116.0
669.180725	96.0
675.559814	76.0
681.475464	116.0
687.646545	56.0
711.244141	36.0
721.589966	32.0
722.060547	88.0
733.255066	108.0
761.532837	56.0
786.818787	176.0
794.688232	36.0
797.0578	140.0
805.531616	156.0
816.391663	148.0
830.613831	152.0
834.271912	172.0
835.853638	156.0
836.676697	108.0
837.367737	176.0
850.43512	136.0
854.526367	180.0
877.132751	196.0
877.716492	56.0
891.925781	220.0
893.477905	184.0
898.703247	84.0
909.073547	208.0
922.819885	220.0
927.414795	212.0
934.179504	168.0
938.467224	132.0
955.740723	92.0
965.87738	68.0
967.152039	204.0
992.264587	156.0
994.020874	168.0
998.299011	192.0
1000.639771	188.0
1003.75885	132.0
1005.487427	248.0
1005.727234	136.0
1008.930054	152.0
1009.745789	80.0
1034.915161	72.0
1045.249878	108.0
1056.929565	196.0
1061.59375	184.0
1062.171021	276.0
1062.242432	180.0
1062.852295	116.0
1065.144043	144.0
1069.507324	148.0
1072.986084	140.0
1090.990479	216.0
1091.08252	188.0
1098.08252	184.0
1106.170288	204.0
1106.998047	276.0
1110.026489	132.0
1112.753662	184.0
1114.546997	140.0
1122.635254	68.0
1125.972168	164.0
1133.062866	176.0
1134.31604	140.0
1137.207153	248.0
1138.91272	128.0
1149.968872	160.0
1151.055908	144.0
1156.66748	184.0
1156.843506	60.0
1157.215942	196.0
1163.297363	80.0
1166.17749	132.0
1167.632568	116.0
1170.089111	156.0
1176.94165	212.0
1182.020508	168.0
1186.424683	188.0
1186.719604	180.0
1188.461792	140.0
1189.175537	176.0
1195.911499	148.0
1199.307251	184.0
1205.062866	64.0
1217.448608	208.0
1217.740356	204.0
1220.895752	200.0
1226.315796	144.0
1227.358154	236.0
1230.896118	136.0
1231.650391	200.0
1234.292236	84.0
1236.530884	144.0
1240.341309	196.0
1241.862915	52.0
1245.147705	68.0
1246.208496	148.0
1247.325928	148.0
1249.344238	144.0
1249.569458	176.0
1252.166992	180.0
1252.385376	164.0
1253.991821	140.0
1254.51355	232.0
1256.932739	224.0
1259.869995	104.0
1260.244507	64.0
1267.25647	152.0
1269.177368	156.0
1269.652466	156.0
1269.815674	196.0
1272.576172	92.0
1274.806641	140.0
1278.084839	84.0
1278.668457	184.0
1279.216553	132.0
1283.947876	148.0
1285.503052	156.0
1286.866455	144.0
1290.267456	124.0
1291.755005	176.0
1291.94812	272.0
1293.336426	180.0
1294.045166	100.0
1297.025391	32.0
1302.400024	140.0
1303.772339	148.0
1308.347168	260.0
1313.586426	76.0
1315.224487	180.0
1319.233765	220.0
1321.90271	176.0
1326.451172	152.0
1329.221802	224.0
1331.327148	36.0
1331.617554	188.0
1331.908203	144.0
1332.03894	172.0
1337.005127	196.0
1337.711182	180.0
1337.936768	184.0
1341.630493	28.0
1342.213867	180.0
1343.614258	180.0
1347.366943	248.0
1348.91626	148.0
1353.284058	180.0
1353.56958	160.0
1358.927856	136.0
1360.252808	140.0
1360.425171	156.0
1362.452026	132.0
1363.840942	92.0
1367.1875	124.0
1368.085571	148.0
1369.116455	128.0
1369.963501	124.0
1370.774048	144.0
1374.313477	132.0
1375.258179	180.0
1375.568237	160.0
1378.293579	156.0
1378.404419	196.0
1378.943848	156.0
1379.978882	136.0
1385.855835	132.0
1388.680298	228.0
1395.348999	156.0
1395.99585	152.0
1396.605835	140.0
1397.642578	176.0
1402.026123	268.0
1402.100708	176.0
1402.726807	168.0
1402.995117	172.0
1405.337158	184.0
1406.658081	184.0
1406.822388	96.0
1414.291382	188.0
1414.357666	140.0
1416.46936	136.0
1419.2948	112.0
1419.6698	164.0
1420.999756	148.0
1421.155151	52.0
1422.273315	176.0
1423.219238	244.0
1424.623779	108.0
1425.397705	192.0
1430.075562	64.0
1432.063477	252.0
1433.562744	84.0
1434.904419	148.0
1435.960205	256.0
1437.672852	208.0
1441.584839	216.0
1444.185669	132.0
1444.412598	300.0
1445.146362	160.0
1445.94104	128.0
1446.470825	132.0
1450.121826	128.0
1450.228027	108.0
1450.36438	172.0
1450.955688	168.0
1451.425903	160.0
1453.23877	244.0
1455.584229	112.0
1457.179443	228.0
1457.59729	84.0
1459.680176	96.0
1460.969116	168.0
1463.043335	176.0
1463.743774	148.0
1466.60083	168.0
1467.370728	212.0
1467.424194	188.0
1471.857422	112.0
1471.933716	32.0
1472.063599	52.0
1473.73645	176.0
1473.889282	168.0
1477.115723	160.0
1477.613037	124.0
1478.846436	108.0
1479.403809	108.0
1479.671875	92.0
1481.21875	32.0
1483.379761	144.0
1484.483887	176.0
1485.849243	176.0
1486.14856	216.0
1487.130859	188.0
1489.156494	160.0
1492.062622	160.0
1492.500977	32.0
1493.577637	56.0
1493.877686	128.0
1494.062256	192.0
1494.508545	120.0
1500.146362	252.0
1500.578125	200.0
1500.989746	144.0
1501.045898	172.0
1502.135986	104.0
1502.529419	188.0
1504.088257	36.0
END IONS

BEGIN IONS
PEPMASS=301.17
CHARGE=1
MSLEVEL=2
SOURCE_INSTRUMENT=LC-ESI-qTof
FILENAME=p5-G03_GG3_01_18472.mzXML
SEQ=*..*
IONMODE=Positive
ORGANISM=GNPS-NIH-SMALLMOLECULEPHARMACOLOGICALLYACTIVE
NAME=MLS002154093-01!Azapropazone13539-59-8 M+H
PI=Dorrestein
DATACOLLECTOR=VP/LMS
SMILES=CCCC1C(=O)N2N(C1=O)c3cc(C)ccc3N=C2N(C)C
INCHI=N/A
INCHIAUX=N/A
PUBMED=N/A
SUBMITUSER=vphelan
LIBRARYQUALITY=1
SPECTRUMID=CCMSLIB00000086152
USI=mzspec:GNPS:GNPS-NIH-SMALLMOLECULEPHARMACOLOGICALLYACTIVE:accession:CCMSLIB00000086152
SCANS=1449
44.998653	112.0
45.157673	156.0
45.244652	184.0
45.448372	196.0
45.47924	148.0
45.523544	72.0
45.586681	164.0
45.725201	140.0
45.737312	136.0
45.770969	172.0
45.884148	196.0
45.923252	148.0
46.221813	136.0
46.320648	116.0
46.353161	120.0
46.434502	96.0
46.500984	176.0
46.646992	164.0
46.780991	100.0
46.884506	168.0
46.929489	108.0
46.990868	168.0
47.139698	136.0
47.352886	144.0
47.405174	192.0
47.649414	176.0
47.689262	140.0
47.930096	48.0
48.018322	224.0
48.157722	144.0
48.427433	140.0
48.57436	184.0
48.62431	84.0
48.640965	176.0
48.729622	176.0
48.794895	184.0
48.916199	204.0
49.035984	200.0
49.181038	160.0
49.24387	160.0
49.46759	124.0
49.652546	144.0
49.88422	128.0
49.933434	184.0
50.092484	72.0
50.24897	40.0
50.323956	216.0
50.356251	156.0
50.377567	220.0
50.518803	212.0
50.648117	136.0
50.673119	128.0
50.688705	148.0
50.705711	152.0
50.718464	196.0
50.786526	132.0
50.847534	88.0
51.374008	176.0
51.676888	132.0
51.894592	176.0
51.995003	220.0
52.025146	192.0
52.3634	184.0
52.521599	148.0
52.576427	172.0
52.626949	140.0
52.674606	196.0
52.739632	120.0
52.837963	52.0
53.092899	64.0
53.197365	212.0
53.259808	116.0
53.272881	212.0
53.447346	172.0
53.598778	148.0
53.789833	116.0
53.924923	144.0
54.009014	56.0
54.278484	164.0
54.332752	176.0
54.434029	152.0
54.657459	148.0
54.742836	100.0
54.821075	108.0
55.021511	228.0
55.188465	244.0
55.321617	112.0
55.397141	220.0
55.561695	124.0
55.585434	228.0
55.60918	40.0
55.903442	176.0
55.915348	184.0
56.13583	172.0
56.304462	172.0
56.377666	180.0
56.424004	112.0
56.450077	164.0
56.62751	196.0
56.823883	192.0
56.918076	180.0
56.986034	160.0
57.140896	172.0
57.205605	152.0
57.326099	196.0
57.351719	188.0
57.384884	212.0
57.549343	180.0
57.694382	156.0
57.715549	212.0
57.727646	220.0
58.006229	192.0
58.035034	168.0
58.11087	80.0
58.201939	212.0
58.334114	160.0
58.413189	168.0
58.458832	192.0
58.512104	124.0
58.798676	140.0
58.884174	188.0
59.017204	220.0
59.387722	212.0
59.621086	124.0
59.659515	92.0
59.747173	176.0
60.237396	160.0
60.475521	184.0
60.693954	168.0
60.754444	144.0
60.852215	184.0
60.922104	172.0
61.166245	144.0
61.618492	176.0
61.77639	168.0
61.81081	68.0
61.926388	164.0
61.956417	208.0
62.152401	48.0
62.213612	172.0
62.320408	152.0
62.452461	188.0
62.630322	324.0
62.805283	124.0
62.824211	120.0
63.0481	156.0
63.190735	128.0
63.401337	160.0
63.648804	140.0
63.77113	200.0
63.831539	148.0
63.914253	180.0
63.93494	176.0
64.038429	164.0
64.113304	164.0
64.178665	144.0
64.194962	164.0
64.277557	124.0
64.882149	132.0
65.063545	168.0
65.118027	112.0
65.27713	204.0
65.512115	232.0
65.529839	160.0
65.566902	180.0
65.662018	180.0
65.782463	236.0
65.957489	100.0
65.981743	92.0
66.122467	108.0
66.248764	200.0
66.443306	68.0
66.54393	204.0
66.555298	144.0
66.657959	196.0
66.717766	112.0
66.789314	216.0
66.974876	128.0
67.046562	160.0
67.212898	180.0
67.227585	128.0
67.302673	100.0
67.624718	148.0
68.013176	104.0
68.062431	164.0
68.12854	188.0
68.154411	220.0
68.262901	160.0
68.356667	60.0
68.4011	128.0
68.549332	120.0
68.567459	168.0
68.582291	204.0
68.689468	36.0
68.844612	220.0
69.06443	164.0
69.234901	160.0
69.264709	160.0
69.316795	128.0
69.383568	172.0
69.475243	192.0
69.672798	40.0
69.687752	84.0
69.734276	48.0
69.837364	144.0
69.853996	180.0
70.132072	192.0
70.175415	176.0
70.322212	84.0
70.3339	152.0
70.440765	140.0
70.480492	216.0
70.733398	132.0
70.8657	84.0
70.909271	256.0
71.253265	156.0
71.285187	108.0
71.387733	228.0
71.399506	52.0
71.505493	208.0
71.625038	196.0
71.645248	216.0
71.785149	212.0
71.834061	140.0
72.121117	188.0
72.264862	184.0
72.698647	192.0
72.73259	136.0
72.744469	172.0
72.92112	136.0
73.050346	52.0
73.189903	140.0
73.234184	36.0
73.350052	88.0
73.363686	160.0
73.498421	140.0
73.634995	172.0
73.651932	96.0
73.817848	176.0
73.961563	160.0
74.081429	232.0
74.098564	60.0
74.386673	136.0
74.510315	140.0
74.572174	104.0
74.744148	140.0
74.795776	164.0
75.043854	168.0
75.055923	68.0
75.185303	192.0
75.477242	132.0
75.629486	224.0
75.651985	100.0
75.710854	172.0
76.09407	168.0
76.352982	192.0
76.525253	164.0
76.596649	128.0
77.172562	232.0
77.200539	144.0
77.286255	240.0
77.373764	168.0
77.4841	196.0
77.619057	128.0
77.738342	120.0
77.803444	216.0
77.954338	180.0
78.015854	56.0
78.211113	116.0
78.734344	156.0
78.917145	204.0
79.003426	184.0
79.067123	168.0
79.16803	204.0
79.230026	172.0
79.355858	60.0
79.519638	184.0
79.545685	192.0
79.650642	188.0
79.771286	48.0
79.89399	184.0
80.056976	204.0
80.098701	196.0
80.617897	152.0
80.719788	128.0
80.870071	112.0
81.081406	224.0
81.230225	176.0
81.562424	136.0
81.706284	244.0
81.762062	184.0
82.281197	164.0
82.441956	128.0
82.733162	116.0
82.883484	160.0
83.13736	168.0
83.277153	124.0
83.43161	180.0
83.569832	184.0
83.689957	176.0
83.93412	176.0
84.076408	160.0
84.193253	184.0
84.207863	176.0
84.224297	148.0
84.740181	120.0
84.849411	264.0
85.042755	228.0
85.128502	228.0
85.369781	224.0
85.487511	232.0
85.499619	212.0
85.518799	148.0
85.638481	236.0
85.9076	144.0
85.970337	52.0
86.214104	144.0
86.30838	160.0
86.332413	168.0
86.500786	140.0
86.693405	136.0
86.778671	120.0
87.017517	136.0
87.066292	148.0
87.084862	112.0
87.227936	148.0
87.436256	180.0
87.518158	152.0
87.552475	216.0
87.601967	184.0
87.620598	144.0
87.717506	152.0
87.825653	148.0
87.890945	192.0
88.012276	224.0
88.124344	160.0
88.19162	44.0
88.363663	136.0
88.432899	128.0
88.507782	168.0
88.547104	156.0
88.630844	160.0
88.710121	32.0
88.736366	252.0
88.803871	140.0
89.03952	384.0
89.367439	172.0
89.388138	236.0
89.546272	92.0
89.808258	108.0
89.872398	180.0
90.255836	176.0
90.293655	140.0
90.314461	152.0
90.357971	128.0
90.51886	224.0
90.759506	200.0
90.782257	40.0
90.905563	140.0
91.057838	152.0
91.213242	156.0
91.439583	160.0
91.481461	120.0
91.502403	184.0
91.544289	184.0
91.614761	164.0
91.738632	172.0
91.885475	132.0
92.053444	184.0
92.075348	128.0
92.124115	152.0
92.164238	184.0
92.177612	36.0
92.229179	212.0
92.248329	28.0
92.261711	148.0
92.334373	96.0
92.372627	368.0
92.602318	100.0
92.715347	136.0
92.757515	84.0
92.801613	196.0
92.889832	160.0
93.054558	196.0
93.125923	152.0
93.156654	60.0
93.587456	232.0
93.618263	160.0
93.849503	220.0
94.042412	172.0
94.064896	360.0
94.117699	148.0
94.284821	152.0
94.324417	128.0
94.632019	136.0
94.67849	160.0
94.959511	228.0
94.986664	128.0
95.077858	216.0
95.229294	104.0
95.264252	152.0
95.328369	180.0
95.345863	228.0
95.573593	184.0
95.668747	176.0
95.731049	156.0
95.76416	92.0
95.803406	136.0
95.882271	160.0
96.06044	80.0
96.202888	156.0
96.245842	68.0
96.355217	164.0
96.453506	216.0
96.492027	156.0
96.613281	192.0
96.67981	168.0
96.756142	188.0
96.87365	68.0
96.914787	148.0
97.099052	76.0
97.33847	128.0
97.635208	144.0
97.72963	144.0
97.948151	200.0
98.005287	188.0
98.129456	92.0
98.565666	136.0
98.61705	232.0
98.87812	172.0
98.973137	40.0
99.040474	128.0
99.118988	192.0
99.138809	208.0
99.200974	124.0
99.248558	160.0
99.323921	224.0
99.518402	196.0
99.572021	200.0
99.661415	52.0
99.715065	228.0
99.730965	176.0
99.77636	144.0
99.943756	216.0
99.957687	140.0
99.98555	40.0
100.108978	180.0
100.166733	48.0
100.208572	56.0
100.45179	44.0
100.569511	200.0
100.703285	188.0
100.735245	148.0
100.835152	148.0
100.909119	92.0
101.031113	200.0
101.191216	232.0
101.327408	172.0
101.602074	148.0
101.620125	128.0
101.64621	144.0
101.678322	160.0
101.702408	152.0
102.051285	144.0
102.204819	188.0
102.377937	168.0
102.734695	180.0
102.758904	176.0
103.04303	176.0
103.057724	156.0
103.518913	76.0
103.71138	248.0
103.869347	212.0
103.983162	200.0
104.047417	360.0
104.090752	212.0
104.107002	56.0
104.171997	68.0
104.218719	60.0
104.316277	196.0
104.491173	164.0
104.676392	188.0
104.808792	72.0
104.866051	164.0
105.0485	580.0
105.073853	264.0
105.179962	68.0
105.239166	116.0
105.253464	228.0
105.562019	160.0
105.662239	88.0
105.77684	140.0
105.803452	264.0
105.920181	132.0
105.993935	76.0
106.045166	176.0
106.06517	784.0
106.104614	64.0
106.213303	156.0
106.24202	52.0
106.402092	148.0
106.457535	212.0
106.562294	204.0
106.590294	236.0
106.65477	200.0
106.675323	148.0
106.85218	228.0
106.981834	148.0
107.011162	196.0
107.039482	196.0
107.071655	152.0
107.352707	140.0
107.466156	176.0
107.542511	192.0
107.672585	160.0
107.742813	144.0
107.858536	168.0
107.91642	248.0
107.932961	192.0
107.978462	180.0
108.046722	136.0
108.371773	156.0
108.531372	172.0
108.618469	92.0
109.03373	176.0
109.060745	196.0
109.177177	156.0
109.476845	152.0
109.518501	200.0
109.837418	180.0
109.858276	92.0
110.374016	128.0
110.413879	112.0
110.790649	192.0
110.843025	184.0
110.884941	112.0
110.918472	180.0
111.025406	116.0
111.041351	332.0
111.14917	152.0
111.3339	132.0
111.468346	236.0
111.495667	76.0
111.659653	164.0
111.846909	224.0
111.895325	156.0
111.95639	88.0
112.025894	208.0
112.274612	144.0
112.333672	136.0
112.352654	120.0
112.380081	132.0
112.60807	124.0
112.686226	64.0
112.722153	76.0
112.798233	168.0
112.825714	244.0
112.870117	156.0
112.988564	168.0
113.058647	160.0
113.07914	104.0
113.174812	144.0
113.49688	244.0
113.530807	40.0
113.562622	52.0
113.709015	168.0
113.728119	40.0
113.931969	180.0
114.031845	160.0
114.093483	192.0
114.129631	76.0
114.546761	104.0
114.668213	212.0
114.934776	180.0
115.099136	60.0
115.210197	224.0
115.321312	148.0
115.539421	160.0
115.695648	124.0
115.78344	60.0
115.854126	132.0
115.961266	232.0
116.049171	1164.0
116.186417	56.0
116.310883	104.0
116.423019	192.0
116.457794	236.0
116.477272	196.0
116.557854	112.0
116.798645	168.0
116.977242	176.0
117.055237	624.0
117.085144	248.0
117.192604	136.0
117.313301	128.0
117.375824	152.0
117.785873	184.0
117.950096	200.0
118.064308	1100.0
118.125252	68.0
118.302696	144.0
118.499779	236.0
118.549614	204.0
118.599464	160.0
118.896599	132.0
119.065361	644.0
119.274513	52.0
119.348434	140.0
119.418022	144.0
119.485451	72.0
119.639969	116.0
119.772804	160.0
120.043037	1088.0
120.071632	232.0
120.248123	152.0
120.280869	56.0
120.392212	180.0
120.512352	40.0
120.794373	212.0
120.849068	164.0
120.87751	188.0
120.909607	96.0
121.048965	152.0
121.076508	1016.0
121.105194	128.0
121.234459	176.0
121.629242	180.0
121.679733	152.0
122.042259	180.0
122.05735	148.0
122.078354	476.0
122.134621	144.0
122.198418	116.0
122.625618	120.0
122.654274	104.0
122.819649	96.0
122.8395	148.0
123.223633	200.0
123.245728	128.0
123.54641	120.0
123.705742	188.0
123.869606	188.0
123.971527	200.0
124.062401	76.0
124.086174	232.0
124.290581	144.0
124.501732	148.0
124.808388	104.0
124.868431	184.0
125.057549	60.0
125.233444	48.0
125.264626	156.0
125.384941	140.0
125.442894	112.0
125.855629	116.0
126.061134	64.0
126.208664	248.0
126.526375	80.0
126.555481	236.0
126.665215	140.0
126.694336	196.0
126.777237	128.0
127.026115	168.0
127.04924	168.0
127.057915	204.0
127.162987	112.0
127.655212	116.0
127.699959	140.0
127.821442	204.0
127.843948	96.0
127.909218	176.0
128.231308	180.0
128.452271	180.0
128.556061	164.0
128.701141	256.0
128.829269	196.0
128.915115	140.0
129.021149	172.0
129.044128	160.0
129.229431	192.0
129.745804	160.0
130.05632	372.0
130.179184	80.0
130.345001	40.0
130.426819	36.0
130.460922	156.0
130.749786	216.0
130.982025	276.0
131.059845	964.0
131.538422	164.0
131.64801	72.0
131.780487	168.0
132.041824	152.0
132.066193	1672.0
132.581375	164.0
132.748734	184.0
132.842758	156.0
132.975845	160.0
133.03093	160.0
133.075638	5048.0
133.169266	148.0
133.398483	112.0
133.90239	80.0
133.994537	172.0
134.046036	556.0
134.079758	624.0
134.208878	152.0
134.291901	116.0
134.372635	52.0
134.441864	60.0
134.993973	264.0
135.012482	128.0
135.047165	344.0
135.102325	176.0
135.125824	96.0
135.172104	132.0
135.385071	184.0
135.498566	164.0
136.4664	168.0
136.529175	176.0
136.594299	176.0
136.675919	148.0
136.843307	140.0
137.237076	136.0
137.376999	180.0
137.584702	200.0
137.608047	144.0
137.65007	52.0
137.706131	172.0
137.734146	156.0
137.801895	152.0
137.822922	220.0
137.854645	212.0
138.463898	184.0
138.508392	156.0
138.623199	160.0
138.667725	176.0
138.686478	36.0
138.702881	152.0
138.747421	160.0
139.045319	120.0
139.171204	256.0
139.188522	64.0
139.524506	164.0
139.700882	180.0
139.818527	188.0
140.157639	200.0
140.681213	124.0
140.740234	108.0
140.832336	188.0
140.922104	128.0
141.068375	144.0
141.09227	176.0
141.62233	216.0
141.653137	52.0
141.856918	60.0
142.063232	108.0
142.6474	140.0
142.944702	124.0
143.070602	188.0
143.24231	120.0
143.261368	104.0
143.325699	120.0
143.354294	60.0
143.657455	208.0
143.960205	164.0
144.019913	184.0
144.054352	1120.0
144.078461	316.0
144.120255	128.0
144.189545	156.0
144.304291	192.0
144.323425	148.0
144.404724	180.0
144.469315	204.0
144.548264	192.0
144.574585	60.0
144.746948	128.0
144.766098	172.0
144.905029	148.0
144.996094	56.0
145.040359	460.0
145.076263	16964.0
145.160843	116.0
145.219055	36.0
145.245438	60.0
145.324615	100.0
145.352997	192.0
145.39328	104.0
145.4254	72.0
145.477493	68.0
145.545898	208.0
145.67244	248.0
145.740585	160.0
145.937088	228.0
145.956314	264.0
146.00441	272.0
146.02124	140.0
146.038086	440.0
146.082047	17592.0
146.139114	172.0
146.218796	72.0
146.224487	76.0
146.293152	112.0
146.320938	100.0
146.358154	60.0
146.38945	96.0
146.450653	204.0
146.533981	44.0
146.647232	48.0
146.714722	116.0
146.748474	60.0
146.779831	144.0
146.859406	68.0
147.054535	3792.0
147.084045	3104.0
147.201736	52.0
147.233505	64.0
147.472687	92.0
147.53653	136.0
147.641922	112.0
147.716095	168.0
147.787064	184.0
147.849976	204.0
147.876602	32.0
148.01944	100.0
148.061249	452.0
148.086487	712.0
148.155075	132.0
148.172028	60.0
148.193832	108.0
148.306961	76.0
148.390152	136.0
148.460464	56.0
148.637558	76.0
148.754044	176.0
148.771042	220.0
149.070084	2200.0
149.098953	132.0
149.11441	84.0
149.259399	80.0
149.65686	204.0
150.048264	52.0
150.07254	264.0
150.109222	180.0
150.170197	88.0
150.409317	56.0
150.719467	128.0
150.775681	48.0
150.976151	232.0
151.078873	156.0
151.159607	76.0
151.360336	196.0
151.502396	164.0
151.703339	132.0
151.938766	160.0
152.012375	100.0
152.049194	168.0
152.066376	116.0
152.72731	176.0
153.959625	80.0
154.036194	104.0
154.456406	72.0
154.582581	116.0
154.679108	188.0
154.736038	160.0
154.770706	164.0
154.976288	76.0
155.030807	220.0
155.244003	148.0
155.375458	108.0
155.675797	96.0
155.799988	176.0
156.055969	184.0
156.322128	200.0
156.683167	76.0
157.06868	332.0
157.124435	168.0
157.334076	40.0
157.551346	152.0
157.656281	84.0
157.890625	76.0
158.041382	76.0
158.072098	444.0
158.359299	156.0
158.457001	128.0
158.93338	172.0
159.028748	64.0
159.078262	164.0
159.10405	148.0
159.272293	168.0
159.531113	96.0
159.646774	176.0
159.837952	64.0
159.886322	184.0
160.086899	6168.0
160.127975	188.0
160.215622	28.0
160.235779	60.0
160.447479	108.0
160.554337	180.0
161.070404	864.0
161.095779	1784.0
161.189529	60.0
161.288101	44.0
161.310852	48.0
161.394272	52.0
161.783905	176.0
161.844666	140.0
162.074493	272.0
162.107086	496.0
162.148651	56.0
162.272858	68.0
162.300751	164.0
162.374298	164.0
162.399658	84.0
162.440247	56.0
162.663544	100.0
162.77272	60.0
162.810806	128.0
162.899704	72.0
162.947357	148.0
163.055374	164.0
163.497208	92.0
163.784912	232.0
163.978561	64.0
164.108566	48.0
164.396805	64.0
164.705734	152.0
164.779816	192.0
165.068649	104.0
165.442947	136.0
165.447754	164.0
166.223923	236.0
166.349686	220.0
166.42157	112.0
166.64502	256.0
167.035782	136.0
167.065598	156.0
167.506851	196.0
167.524887	200.0
167.60733	116.0
167.905441	164.0
168.040497	264.0
168.075897	500.0
168.130814	160.0
168.262451	144.0
168.314102	152.0
168.743011	92.0
168.805054	112.0
169.079208	300.0
169.257904	144.0
169.441788	228.0
169.672455	200.0
169.770981	132.0
169.796921	104.0
169.879913	180.0
169.92662	164.0
169.968124	140.0
170.076996	372.0
170.588852	108.0
170.744858	204.0
170.997223	196.0
171.057175	180.0
171.086227	368.0
171.119568	44.0
171.239349	108.0
171.456482	164.0
171.810211	108.0
172.047699	144.0
172.092697	364.0
172.235718	52.0
173.074387	484.0
173.11116	240.0
173.253296	140.0
173.321411	112.0
173.609772	172.0
173.900986	136.0
174.099442	964.0
174.318558	196.0
174.355988	164.0
174.386887	132.0
174.525925	228.0
174.718201	144.0
174.742905	164.0
174.823456	204.0
174.870819	192.0
174.907669	168.0
174.967606	256.0
175.023514	80.0
175.051422	596.0
175.098434	12848.0
175.154633	168.0
175.233276	100.0
175.29483	136.0
175.338058	176.0
175.368622	56.0
175.402878	32.0
175.492523	44.0
175.545258	52.0
175.566345	48.0
175.59436	84.0
175.66922	32.0
175.708786	28.0
175.729889	52.0
175.761551	104.0
175.911987	64.0
175.938385	48.0
176.059845	200.0
176.103348	1912.0
176.157578	80.0
176.252686	148.0
176.413086	64.0
176.477356	76.0
176.741562	72.0
176.781555	112.0
176.89801	108.0
177.023773	144.0
177.059525	96.0
177.117798	536.0
177.20256	184.0
177.250259	128.0
177.425186	132.0
177.470261	120.0
177.495667	116.0
177.868195	56.0
177.905365	56.0
177.93457	40.0
178.083801	160.0
178.564331	120.0
178.66275	44.0
178.782486	220.0
178.838379	160.0
179.429749	268.0
179.456116	176.0
179.847336	260.0
179.967178	352.0
180.23848	84.0
180.569962	44.0
180.896393	60.0
181.035629	172.0
181.341034	64.0
181.392761	200.0
181.716461	112.0
181.905197	176.0
182.113754	84.0
182.226578	128.0
183.046967	184.0
183.088654	168.0
184.077042	148.0
184.10054	320.0
184.38501	184.0
185.055878	132.0
185.087738	256.0
185.105255	216.0
185.972137	76.0
186.05629	208.0
186.092361	208.0
186.144089	444.0
186.667633	156.0
187.076767	148.0
187.096771	1152.0
187.14653	84.0
187.606964	200.0
187.732391	96.0
187.7733	184.0
187.808746	56.0
187.942429	144.0
187.991547	128.0
188.0625	216.0
188.086823	320.0
188.101089	300.0
188.458481	168.0
188.543182	112.0
188.674194	108.0
188.705536	244.0
188.759949	68.0
188.782471	96.0
188.819305	92.0
188.837952	88.0
188.895889	224.0
188.963226	176.0
188.999863	148.0
189.031555	124.0
189.075485	292.0
189.113922	73244.0
189.193817	60.0
189.230957	148.0
189.25441	108.0
189.295486	72.0
189.321259	68.0
189.352997	56.0
189.38327	156.0
189.421478	76.0
189.439621	60.0
189.458191	148.0
189.505539	64.0
189.533371	52.0
189.565414	28.0
189.644516	112.0
189.692749	60.0
189.726837	92.0
189.758545	84.0
189.801208	72.0
189.844406	188.0
189.887436	164.0
189.911469	308.0
189.945663	52.0
189.977951	152.0
190.000809	80.0
190.054626	108.0
190.119492	19016.0
190.167877	128.0
190.204346	104.0
190.255203	72.0
190.28746	112.0
190.308655	88.0
190.332001	112.0
190.35672	108.0
190.386917	36.0
190.408203	64.0
190.434982	48.0
190.472061	44.0
190.499954	52.0
190.520874	124.0
190.585205	44.0
190.636093	160.0
190.65889	48.0
190.77536	68.0
190.815567	100.0
190.947571	32.0
191.005325	68.0
191.064529	108.0
191.089813	156.0
191.123428	1660.0
191.17041	96.0
191.200668	48.0
191.250214	116.0
191.303085	96.0
191.392242	104.0
191.437424	176.0
191.455704	104.0
191.503525	112.0
191.539337	76.0
191.594955	124.0
191.626129	112.0
191.648239	100.0
191.67157	56.0
191.751495	40.0
191.914139	56.0
191.972992	92.0
192.078369	44.0
192.126877	200.0
192.206512	68.0
192.350525	156.0
192.527969	80.0
192.55159	52.0
192.606827	88.0
192.744965	44.0
192.786407	52.0
193.228821	88.0
193.31459	124.0
193.519424	48.0
193.813034	80.0
194.789597	112.0
195.089783	136.0
195.17868	60.0
195.821518	84.0
196.078751	200.0
197.085236	164.0
198.082764	500.0
198.53244	36.0
198.681107	124.0
198.748444	132.0
199.082474	276.0
199.456146	76.0
199.920227	36.0
200.048569	160.0
200.054245	156.0
200.117294	180.0
200.353836	124.0
200.421448	40.0
200.661026	108.0
201.069489	272.0
201.106812	140.0
201.161591	204.0
201.262009	28.0
201.298706	100.0
201.456879	60.0
202.056213	48.0
202.091049	180.0
202.121292	108.0
203.087799	316.0
203.116989	972.0
203.234848	64.0
203.325653	64.0
204.115387	120.0
204.957947	152.0
205.325684	100.0
205.602417	132.0
205.762268	40.0
206.010727	80.0
209.245682	112.0
210.067017	212.0
210.100372	172.0
211.079071	248.0
211.118347	172.0
212.079544	216.0
212.099838	92.0
212.122025	216.0
212.212906	68.0
212.256393	200.0
212.772858	124.0
212.83963	40.0
213.105896	524.0
213.132996	132.0
213.199844	76.0
213.505096	52.0
214.056763	132.0
214.100082	132.0
214.87413	352.0
215.068329	168.0
215.093567	240.0
215.132919	160.0
216.063202	192.0
216.090347	184.0
216.11293	184.0
216.142197	244.0
216.654572	48.0
217.108505	468.0
217.138214	148.0
218.078568	156.0
218.127701	124.0
218.312927	84.0
218.545319	120.0
219.128281	176.0
220.597977	88.0
220.660049	56.0
221.083038	136.0
225.114349	200.0
225.876266	124.0
226.05278	136.0
227.05336	352.0
227.080353	140.0
228.077377	1228.0
228.14032	132.0
229.081863	548.0
230.113647	124.0
230.15535	336.0
230.681595	96.0
231.112717	444.0
231.150391	184.0
231.556046	60.0
231.800491	128.0
232.159149	100.0
232.820709	144.0
235.873627	112.0
235.980637	152.0
237.376877	52.0
238.067337	168.0
239.075668	144.0
239.097214	128.0
239.13414	220.0
239.901138	108.0
240.073792	124.0
240.110809	120.0
240.135483	180.0
240.209503	56.0
241.111084	120.0
241.695541	228.0
242.107254	112.0
243.093063	180.0
243.120987	144.0
244.09642	124.0
244.118179	156.0
244.211487	116.0
245.096817	196.0
245.18045	212.0
246.134308	104.0
246.171783	148.0
246.412292	192.0
249.021698	64.0
252.529663	56.0
252.567612	104.0
252.852371	116.0
253.105621	92.0
254.110382	152.0
254.351562	100.0
255.129837	172.0
255.162292	136.0
256.110565	316.0
256.160889	124.0
257.050415	156.0
257.10376	508.0
257.810455	56.0
258.115082	140.0
258.296417	36.0
259.124146	136.0
261.125427	140.0
261.833466	112.0
268.989502	248.0
269.109406	196.0
271.128571	328.0
271.158051	164.0
272.133606	124.0
272.145447	48.0
272.154053	124.0
273.165863	140.0
274.181671	180.0
276.476898	128.0
278.535858	112.0
280.505798	216.0
283.631195	40.0
284.137573	132.0
286.150726	176.0
287.310059	64.0
290.100037	100.0
291.145081	160.0
292.106964	76.0
301.166595	672.0
301.198395	216.0
301.809509	48.0
302.151917	208.0
302.293793	96.0
305.075439	108.0
305.322327	76.0
313.930481	140.0
324.817688	84.0
325.355957	56.0
333.930908	68.0
346.4039	44.0
353.608887	88.0
360.566711	92.0
380.063843	44.0
384.289337	64.0
389.641418	32.0
416.489685	48.0
450.859741	132.0
459.535004	64.0
464.463226	40.0
516.755432	60.0
517.629028	68.0
532.781128	108.0
575.149048	64.0
575.612183	96.0
632.58136	48.0
650.263733	60.0
655.318359	76.0
659.201416	48.0
675.391296	128.0
759.489563	32.0
785.365295	188.0
867.075256	64.0
894.237915	128.0
899.184692	36.0
909.569336	224.0
934.638306	36.0
946.057495	56.0
961.670715	212.0
972.204285	88.0
981.578918	188.0
983.537842	60.0
992.79126	36.0
993.625488	72.0
1007.248352	144.0
1010.820374	116.0
1012.111694	216.0
1021.421875	144.0
1022.242615	168.0
1023.662964	92.0
1023.993286	180.0
1028.20752	132.0
1033.293823	60.0
1069.152222	88.0
1075.095581	144.0
1077.766357	144.0
1082.665894	156.0
1084.710083	208.0
1087.701294	152.0
1094.28186	288.0
1094.762573	240.0
1109.987793	204.0
1118.86438	156.0
1121.175659	120.0
1123.829712	320.0
1126.299805	156.0
1127.215088	52.0
1134.389771	136.0
1135.603394	200.0
1136.307739	208.0
1137.703735	204.0
1139.60437	140.0
1159.978882	140.0
1161.25354	164.0
1166.57019	36.0
1167.188965	60.0
1167.535767	152.0
1172.519165	128.0
1172.703125	144.0
1177.724854	164.0
1180.246704	44.0
1181.402466	132.0
1181.785645	148.0
1181.888184	112.0
1182.812134	184.0
1183.038086	152.0
1189.214111	224.0
1192.950806	128.0
1193.150146	176.0
1196.913696	92.0
1199.014648	108.0
1199.469604	56.0
1199.938354	172.0
1202.14563	196.0
1209.596191	120.0
1211.38269	152.0
1215.091553	148.0
1216.292114	192.0
1220.516113	168.0
1220.988892	188.0
1221.072388	212.0
1224.378174	128.0
1234.637085	160.0
1235.028687	204.0
1236.666016	184.0
1248.058716	152.0
1251.421997	112.0
1253.196899	128.0
1256.334106	152.0
1261.842773	160.0
1262.542847	164.0
1263.200562	176.0
1265.734253	224.0
1267.26416	192.0
1267.958618	160.0
1270.589355	148.0
1273.052368	148.0
1273.215698	128.0
1273.982788	212.0
1277.928467	228.0
1281.923706	220.0
1284.5896	132.0
1285.096191	144.0
1285.324463	176.0
1286.437866	224.0
1287.858887	216.0
1290.152588	48.0
1291.425415	136.0
1292.376831	196.0
1293.879883	168.0
1295.254761	180.0
1297.074829	136.0
1297.540771	188.0
1298.300903	160.0
1299.19751	144.0
1300.661377	188.0
1304.065918	104.0
1305.273682	68.0
1308.137085	124.0
1308.223511	44.0
1310.023804	32.0
1313.231445	176.0
1313.476685	56.0
1313.931152	192.0
1317.230225	172.0
1317.483032	180.0
1319.470459	100.0
1319.96936	68.0
1320.584106	212.0
1322.95752	156.0
1323.268799	124.0
1323.717773	160.0
1323.768433	140.0
1334.347412	196.0
1335.554565	128.0
1337.264404	88.0
1339.193848	176.0
1340.935181	148.0
1341.49646	156.0
1343.421631	224.0
1344.983154	112.0
1345.297119	100.0
1345.457642	104.0
1347.480713	124.0
1347.575684	232.0
1347.670654	180.0
1348.35022	184.0
1351.180054	216.0
1351.297119	156.0
1353.310791	180.0
1357.794556	68.0
1357.992554	168.0
1360.355225	156.0
1360.714966	96.0
1361.250977	108.0
1362.154297	180.0
1363.947266	52.0
1364.248657	144.0
1365.954712	60.0
1366.020874	184.0
1367.86792	208.0
1368.199219	172.0
1370.7771	204.0
1371.263428	224.0
1373.932739	148.0
1376.944336	164.0
1378.111572	168.0
1378.547485	136.0
1379.855713	148.0
1381.549316	144.0
1384.236084	148.0
1384.776611	168.0
1385.347046	160.0
1386.110107	152.0
1390.693237	272.0
1390.849121	168.0
1392.809448	176.0
1394.169067	168.0
1394.800781	140.0
1396.042358	144.0
1397.291992	200.0
1398.423096	200.0
1398.810181	184.0
1399.197266	208.0
1400.105713	168.0
1400.716431	160.0
1402.385498	140.0
1403.056396	88.0
1405.696777	192.0
1407.174561	76.0
1407.921265	204.0
1408.989502	180.0
1409.17627	164.0
1410.596191	232.0
1411.79248	44.0
1412.26355	172.0
1412.712402	60.0
1419.940552	60.0
1420.098022	176.0
1420.37561	180.0
1421.343384	64.0
1423.15979	108.0
1424.984985	64.0
1425.37561	100.0
1426.893921	40.0
1429.473877	172.0
1432.169067	140.0
1432.801758	176.0
1433.698486	160.0
1435.854614	124.0
1436.601318	112.0
1439.884766	52.0
1441.652466	160.0
1443.292847	96.0
1443.49707	164.0
1446.197876	168.0
1448.42395	180.0
1449.211792	84.0
1449.446655	160.0
1449.99231	172.0
1450.947388	184.0
1452.547485	168.0
1452.926758	112.0
1454.262329	184.0
1457.109985	196.0
1460.660156	208.0
1464.267822	144.0
1469.039429	168.0
1469.825195	132.0
1470.229614	236.0
1470.618896	172.0
1472.581055	128.0
1475.614746	80.0
1477.243774	164.0
1477.626221	96.0
1478.452637	168.0
1479.00647	176.0
1480.305176	144.0
1481.086426	116.0
1483.523193	160.0
1483.975464	136.0
1484.075195	180.0
1486.023315	160.0
1488.141602	168.0
1488.325928	172.0
1489.35498	156.0
1489.608521	80.0
1491.191284	156.0
1491.275879	136.0
1491.391113	168.0
1491.983032	152.0
1492.559692	172.0
1494.182495	88.0
1495.005005	176.0
1495.852539	184.0
1497.677368	200.0
1498.047119	136.0
1499.017944	132.0
1499.1875	188.0
1500.16626	196.0
1500.798462	180.0
1501.56189	212.0
1502.85791	172.0
1503.714478	156.0
1503.768433	116.0
1503.915161	148.0
1504.671631	124.0
END IONS

BEGIN IONS
PEPMASS=631.803
CHARGE=1
MSLEVEL=2
SOURCE_INSTRUMENT=ESI-qTof
FILENAME=MSV000081151/ccms_peak/mzXML_Files/Plate_2/HFD_C1_Ant10.mzXML
SEQ=*..*
IONMODE=Positive
ORGANISM=GNPS-NIST14-MATCHES
NAME=Spectral Match to Diatrizoic acid from NIST14 M+NH4
PI=Data from Joshua Wollam
DATACOLLECTOR=Data deposited by fevargas
SMILES=CC(=O)NC1=C(C(=C(C(=C1I)C(=O)O)I)NC(=O)C)I
INCHI=InChI=1S/C11H9I3N2O4/c1-3(17)15-9-6(12)5(11(19)20)7(13)10(8(9)14)16-4(2)18/h1-2H3,(H,15,17)(H,16,18)(H,19,20)
INCHIAUX=N/A
PUBMED=N/A
SUBMITUSER=mwang87
LIBRARYQUALITY=3
SPECTRUMID=CCMSLIB00003139191
USI=mzspec:GNPS:GNPS-NIST14-MATCHES:accession:CCMSLIB00003139191
SCANS=189
51.590206	1372.926392
60.135345	1197.64563
62.495213	1134.065186
63.60458	1436.691772
63.957001	1346.015381
66.880386	1314.918701
76.154442	1244.441772
80.30999	1163.121338
89.246742	1383.215088
140.238907	1486.125977
143.266724	1791.298584
148.039352	9610.28418
148.331192	1806.648071
170.415512	1410.616577
176.451614	1550.887207
180.700806	1468.242188
189.064514	2958.324219
192.052811	30031.515625
202.152298	1752.627686
219.039459	2448.068604
233.055634	263316.78125
234.059616	19762.1875
280.206573	1624.382568
318.955994	6400.772461
360.968079	372520.25
361.971771	22168.189453
466.822113	1564.802246
589.052429	1600.844849
END IONS

BEGIN IONS
PEPMASS=478.325
CHARGE=1
MSLEVEL=2
SOURCE_INSTRUMENT=LC-ESI-qTof
FILENAME=M24054_C8_Gentamycin-sulfate.mzXML
SEQ=*..*
IONMODE=Positive
ORGANISM=UM-NPDC
NAME=Gentamycin_20eV M+H
PI=Ashootosh Tripathi (UM-NPDC)
DATACOLLECTOR=Osama G. Mohamed
SMILES=CN[C@@H]([C@@H]1CC[C@H]([C@H](O1)O[C@@H]2[C@H](C[C@H]([C@@H]([C@H]2O)O[C@H]3OC[C@](O)([C@@H]([C@H]3O)NC)C)N)N)N)C
INCHI=N/A
INCHIAUX=N/A
PUBMED=N/A
SUBMITUSER=mpanitchpakdi
LIBRARYQUALITY=3
SPECTRUMID=CCMSLIB00005723272
USI=mzspec:GNPS:UM-NPDC:accession:CCMSLIB00005723272
SCANS=39642
72.080132	130.603577
102.233917	46.360001
113.082344	219.895462
113.121498	5.375
114.090652	363.866669
114.112595	45.969826
114.134094	6.0625
118.085899	954.206421
118.137154	5.125
126.089401	90.518677
139.123108	855.960022
139.169342	13.125
139.225815	5.0625
140.106094	408.252441
141.110489	266.953644
141.158218	9.166667
141.182983	29.881098
142.087326	233.001068
142.150116	12.208333
146.082657	261.49707
146.136307	5.225
157.133179	6168.173828
157.194138	50.049419
157.558807	26.066668
157.584396	65.111366
157.616974	8.035714
157.780975	35.315216
158.357529	82.851852
160.096649	3147.985107
160.153854	27.058823
160.562805	49.14674
160.580368	5.025
160.619446	13.375
160.796082	20.132353
161.096664	44.010418
163.108047	1176.622925
163.143616	40.25
163.200394	13.148809
163.355927	28.289286
164.111481	175.003906
168.616699	8.035714
208.534805	53.002552
227.139679	52.633774
270.177032	100.047104
302.207123	239.654495
319.857208	19.036291
322.197357	1887.096436
322.287872	15.0
344.310791	30.31579
441.621979	21.004032
460.031311	30.03409
461.156616	21.058823
461.296295	891.31427
461.380341	15.007353
461.444122	6.05
462.299713	306.983063
478.198273	31.142241
478.316864	61.56514
710.736328	18.605
END IONS

BEGIN IONS
PEPMASS=305.152
CHARGE=1
MSLEVEL=2
SOURCE_INSTRUMENT=LC-ESI-Orbitrap
FILENAME=tharwood/spectral_libraries/BERKELEY-LAB.mgf
SEQ=*..*
IONMODE=Positive
ORGANISM=BERKELEY-LAB
NAME=tubocurarine CollisionEnergy:102040 M+H]
PI=Trent Northen
DATACOLLECTOR=JGI
SMILES=COc1cc2c3cc1Oc1cc(ccc1O)CC1c4c(cc(OC)c(O)c4Oc4ccc(cc4)CC3N(C)CC2)CC[N+]1(C)C
INCHI="InChI=1S/C37H40N2O6/c1-38-14-12-24-19-32(42-4)33-21-27(24)28(38)16-22-6-9-26(10-7-22)44-37-35-25(20-34(43-5)36(37)41)13-15-39(2,3)29(35)17-23-8-11-30(40)31(18-23)45-33/h6-11,18-21,28-29H,12-17H2,1-5H3,(H-,40,41)/p+1/t28-,29+/m0/s1"
INCHIAUX=N/A
PUBMED=N/A
SUBMITUSER=mwang87
LIBRARYQUALITY=3
SPECTRUMID=CCMSLIB00010112220
USI=mzspec:GNPS:BERKELEY-LAB:accession:CCMSLIB00010112220
SCANS=9786
52.201519	2802.0
56.04974	3183.0
58.06562	1380420.0
59.06884	15734.0
89.784058	3250.0
92.054604	2765.0
103.216263	2479.0
107.049278	4724.0
116.573471	3058.0
118.657463	2988.0
121.063843	3098.0
133.06398	5122.0
137.059631	4678.0
147.080551	11074.0
158.071945	3798.0
159.080109	3440.0
174.06749	3257.0
174.090958	10683.0
175.099609	5220.0
176.107071	6571.0
191.759583	3198.0
192.348587	3139.0
207.079636	3277.0
207.690521	16755.0
219.290039	2809.0
229.084885	4826.0
235.075638	3416.0
241.08493	18144.0
253.085159	4122.0
254.093094	25399.0
255.10083	16693.0
265.085144	3203.0
266.609161	5405.0
267.101776	21004.0
267.989227	2941.0
279.098816	4507.0
282.622345	63805.0
283.125031	12839.0
283.629425	51013.0
284.131195	7073.0
285.073364	3133.0
289.628448	5696.0
290.637634	11431.0
297.640259	12130.0
305.151276	3500793.0
305.652679	718807.0
343.13327	3009.0
355.129364	3336.0
367.128632	3860.0
385.141663	3730.0
386.149475	4346.0
387.158417	11605.0
397.142151	3068.0
399.156952	14987.0
400.166534	3235.0
401.171997	5947.0
412.162811	6860.0
430.199677	15742.0
489.16629	5233.0
495.16983	4871.0
506.17392	4519.0
509.195404	37338.0
510.205627	3705.0
521.194641	90567.0
521.282166	3829.0
522.198669	17367.0
523.211914	17365.0
552.237549	619409.0
553.14679	5217.0
553.239868	120531.0
566.252197	76342.0
567.254639	13904.0
END IONS

BEGIN IONS
PEPMASS=191.118
CHARGE=1
MSLEVEL=2
SOURCE_INSTRUMENT=ESI-Orbitrap
FILENAME=vanderson85/230223_u41std_p2_pos/CYSTINE_LAURNIN.mzML
SEQ=*..*
IONMODE=Positive
ORGANISM=LEAFBOT
NAME=CYTISINE(LABURNIN) M+H
PI=Cech
DATACOLLECTOR=Vicky Anderson
SMILES=C1C2CNCC1C3=CC=CC(=O)N3C2
INCHI="InChI=1S/C11H14N2O/c14-11-3-1-2-10-9-4-8(5-12-6-9)7-13(10)11/h1-3,8-9,12H,4-7H2"
INCHIAUX=N/A
PUBMED=N/A
SUBMITUSER=jzemlin
LIBRARYQUALITY=1
SPECTRUMID=CCMSLIB00011428069
USI=mzspec:GNPS:LEAFBOT:accession:CCMSLIB00011428069
SCANS=626
83.689987	5053765.5
148.075562	217013392.0
191.060806	7636689.0
191.081436	49777280.0
191.088837	26078930.0
191.117645	6355360768.0
191.146332	42529996.0
191.153702	43192012.0
191.163834	15861294.0
191.184265	8587748.0
END IONS

BEGIN IONS
PEPMASS=165.064
CHARGE=1
MSLEVEL=2
SOURCE_INSTRUMENT=LC-ESI-qTof
FILENAME=DMIM_centroided_library_abundance_filtered.mgf
SEQ=*..*
IONMODE=Positive
ORGANISM=DMIM-DRUG-METABOLITE-LIBRARY
NAME=PIRACETAM [M+Na]+
PI=Libin Xu
DATACOLLECTOR=Dylan H. Ross
SMILES=C1CC(=O)N(C1)CC(=O)N
INCHI=N/A
INCHIAUX=N/A
PUBMED=N/A
SUBMITUSER=jzemlin
LIBRARYQUALITY=3
SPECTRUMID=CCMSLIB00012465228
USI=mzspec:GNPS:DMIM-DRUG-METABOLITE-LIBRARY:accession:CCMSLIB00012465228
SCANS=206
59.004288	1024.0
65.030037	1286.0
76.024887	1097.0
77.041153	3342.0
79.042992	2518.0
81.030922	1796.0
83.111427	1194.0
84.984314	2528.0
91.054771	5020.0
93.048241	1930.0
95.047005	2179.0
97.022308	3323.0
98.996162	1563.0
102.933525	1612.0
103.039459	2328.0
105.064873	4301.0
107.051102	2498.0
108.047073	1204.0
109.03849	3517.0
110.030663	1243.0
111.022278	1802.0
112.99791	2121.0
115.05304	3961.0
116.055504	1363.0
117.064812	2349.0
118.071831	1127.0
118.927399	6441.0
119.077438	2401.0
120.070908	1461.0
121.034805	4841.0
122.053612	1807.0
123.00721	6060.0
124.030289	1909.0
124.994873	3485.0
127.02359	3265.0
128.020538	6543.0
129.067413	2731.0
130.072006	1438.0
131.061478	1700.0
132.918442	1417.0
133.077072	1198.0
134.900558	6382.0
135.063782	2285.0
136.067093	2072.0
137.02005	3362.0
138.063995	1002.0
139.021622	5159.0
140.036301	1183.0
141.047867	2770.0
142.070938	1484.0
143.002472	5855.0
144.073349	1344.0
145.062012	2623.0
147.040695	1744.0
149.068588	1123.0
151.038773	1847.0
152.063492	1744.0
152.914856	2238.0
153.072037	2868.0
155.048721	1582.0
159.050125	1457.0
161.04715	1254.0
163.039017	1626.0
165.057648	2215.0
END IONS

BEGIN IONS
PEPMASS=255.117
CHARGE=1
MSLEVEL=2
SOURCE_INSTRUMENT=LC-ESI-qTof
FILENAME=DMIM_centroided_library_abundance_filtered.mgf
SEQ=*..*
IONMODE=Positive
ORGANISM=DMIM-DRUG-METABOLITE-LIBRARY
NAME=THIAMYLAL [M+H]+
PI=Libin Xu
DATACOLLECTOR=Dylan H. Ross
SMILES=CCCC(C)C1(C(=O)NC(=S)NC1=O)CC=C
INCHI=N/A
INCHIAUX=N/A
PUBMED=N/A
SUBMITUSER=jzemlin
LIBRARYQUALITY=3
SPECTRUMID=CCMSLIB00012468637
USI=mzspec:GNPS:DMIM-DRUG-METABOLITE-LIBRARY:accession:CCMSLIB00012468637
SCANS=3615
55.040516	5011.0
56.049213	11999.0
57.012596	5136.0
58.040108	1777.0
58.999168	86548.0
60.020199	2019.0
61.006222	5740.0
62.992371	1833.0
65.023857	2286.0
66.034431	1188.0
67.052406	7204.0
68.051834	4193.0
69.039597	6059.0
70.064308	14039.0
71.024719	3806.0
72.07959	3561.0
73.014473	5355.0
74.041656	2657.0
76.026375	216325.0
77.040039	22621.0
77.479584	1031.0
78.027565	8946.0
79.046562	12820.0
80.053757	30927.0
81.054298	14880.0
82.05806	5079.0
83.052025	22978.0
84.050903	248931.0
85.012543	30530.0
86.053329	11920.0
86.996414	11427.0
88.026527	22829.0
89.023857	3150.0
90.025185	1517.0
91.058006	20670.0
92.05658	3774.0
93.061386	9565.0
94.057831	3429.0
95.026817	30673.0
96.05172	6648.0
97.03286	27427.0
98.020882	15755.0
99.009018	15753.0
100.03434	5045.0
101.015381	2333.0
102.04007	3682.0
102.939934	5036.0
103.042007	5743.0
104.091553	4052.0
105.070045	21443.0
106.057854	4928.0
107.074493	16698.0
108.060822	15731.0
109.066666	21367.0
110.059044	12598.0
111.030273	15059.0
112.024109	18167.0
113.007774	11863.0
114.048607	12599.0
114.925858	2968.0
115.056992	10271.0
116.0252	81549.0
116.151199	12552.0
117.057541	11917.0
118.035118	6646.0
118.928955	81962.0
119.076508	19801.0
120.064461	11584.0
120.967522	10760.0
121.080811	19336.0
121.948975	1130.0
122.06562	9934.0
122.933327	3428.0
123.060287	54591.0
124.035629	24297.0
125.020172	17859.0
126.036156	5546.0
127.028748	9315.0
128.048645	11408.0
128.954819	1276.0
129.081818	22888.0
130.058868	57098.0
130.918243	1746.0
131.075027	15703.0
132.06012	9205.0
132.969604	3445.0
133.083786	14409.0
133.966949	1170.0
134.078537	5168.0
134.913101	5107.0
135.070618	20267.0
136.069489	60646.0
136.94162	139819.0
137.082153	20044.0
138.058762	6620.0
139.023026	26627.0
140.034393	7955.0
140.925919	10283.0
141.052078	31298.0
142.041168	149753.0
142.915344	1215.0
143.04361	25216.0
144.028519	42628.0
144.944687	3313.0
145.076874	18262.0
146.057358	9637.0
146.947906	1334.0
147.072845	19281.0
148.071381	7828.0
148.956146	2525.0
149.08168	16722.0
150.053787	8882.0
150.945038	3521.0
151.06189	16367.0
151.92157	1852.0
152.057434	13539.0
152.922958	17283.0
153.062836	18042.0
153.930313	1324.0
154.068863	9570.0
154.947144	3370.0
155.067795	15285.0
155.96904	1739.0
156.088837	8403.0
156.945908	3128.0
157.086777	11232.0
157.969147	2109.0
158.098572	8749.0
158.923203	9685.0
159.086273	19674.0
160.05661	19729.0
160.93634	4569.0
161.078873	19266.0
162.03421	73881.0
162.146194	1272.0
162.91272	3094.0
163.060745	21605.0
164.054886	10104.0
164.956802	15296.0
165.080292	13588.0
165.961258	5644.0
166.077896	6573.0
166.945572	2963.0
167.066483	14573.0
167.945053	1623.0
168.068665	8549.0
168.946274	2513.0
169.0746	11619.0
170.045929	23908.0
171.059891	17675.0
171.945465	1217.0
172.078369	8090.0
172.926453	1166.0
173.075851	22811.0
174.078827	8604.0
174.889694	39260.0
175.081512	15486.0
176.056595	10957.0
176.888519	1361.0
177.038345	24174.0
178.074463	8469.0
178.899796	5922.0
179.064056	29763.0
179.946548	1442.0
180.077911	7026.0
180.931686	29245.0
181.076874	18081.0
181.992111	4407.0
182.101303	3863.0
182.915543	6900.0
183.055817	16748.0
183.970779	4337.0
184.098511	6192.0
184.911911	3573.0
185.069901	14153.0
185.947662	1311.0
186.095779	8199.0
186.921997	16626.0
187.067932	33881.0
188.062683	11607.0
188.908752	2358.0
189.069321	14684.0
190.017944	5233.0
190.127533	2160.0
190.885605	7601.0
191.059265	16075.0
191.926208	2727.0
192.082062	5829.0
192.930099	6202.0
193.076324	15387.0
193.97197	1127.0
194.095596	5744.0
194.934937	3293.0
195.093384	13101.0
195.961609	2727.0
196.089172	5803.0
196.90976	9762.0
197.083435	11625.0
197.984268	1370.0
198.093384	5641.0
198.914062	19303.0
199.075974	14663.0
199.971878	2403.0
200.091248	3786.0
200.245422	23834.0
200.924622	12572.0
201.049911	84479.0
201.244385	3933.0
201.923706	1437.0
202.064987	13676.0
202.919617	21378.0
203.095917	11187.0
203.922455	1562.0
204.091629	5858.0
204.927551	7336.0
205.091934	9776.0
206.008759	5591.0
206.121841	2588.0
206.916031	3689.0
207.089935	11741.0
207.961151	1843.0
208.102554	4169.0
208.934372	5587.0
209.085831	15443.0
209.986664	1420.0
210.102234	4918.0
210.950317	2662.0
211.095276	8818.0
211.95401	1735.0
212.112717	4250.0
212.893356	5258.0
213.07164	8467.0
213.895233	1134.0
214.076462	5851.0
214.888763	14857.0
215.053482	18325.0
215.885117	1576.0
216.053268	7265.0
216.916214	17035.0
217.080658	5968.0
217.920914	1460.0
218.090591	2670.0
218.227249	1576.0
218.863373	1589.0
218.971268	11391.0
219.121536	5532.0
219.953262	1782.0
220.103745	3873.0
220.930939	19416.0
221.108414	8617.0
221.954208	1152.0
222.099533	4445.0
222.943405	9268.0
223.093658	10659.0
223.952698	1743.0
224.11293	3479.0
224.911087	2906.0
225.079987	7557.0
225.951996	1945.0
226.114059	4472.0
226.90065	2544.0
227.063477	10749.0
227.882462	1576.0
228.065247	4981.0
228.92334	2894.0
229.089722	5199.0
229.98642	2530.0
230.159729	3419.0
230.885132	7818.0
231.063477	8708.0
231.897263	2641.0
232.0914	5161.0
232.889236	13720.0
233.085312	15594.0
233.897629	1725.0
234.088058	4782.0
234.895416	4795.0
235.015228	1797.0
235.116089	10135.0
236.113541	3299.0
236.885208	3466.0
236.99617	1729.0
237.109955	9947.0
237.96344	2857.0
238.114288	3105.0
238.890198	6402.0
239.082886	8322.0
239.891357	1255.0
240.092209	4158.0
240.87674	5742.0
241.01329	2587.0
241.139969	1861.0
242.116699	2644.0
242.906586	4374.0
243.097778	4394.0
244.073135	2793.0
244.896454	3231.0
245.07576	15066.0
245.915405	2285.0
246.090164	2883.0
246.930389	6631.0
247.116577	5138.0
247.93721	1880.0
248.120895	2282.0
248.943741	4592.0
249.116638	8764.0
249.911819	2752.0
250.109756	3882.0
250.902176	3109.0
251.099533	13656.0
251.986954	1008.0
252.118729	4245.0
252.980576	2757.0
253.133835	7048.0
254.131104	3147.0
254.86116	12970.0
255.060867	6985.0
256.055573	5163.0
256.183624	1556.0
256.90274	3416.0
257.060791	4400.0
END IONS

BEGIN IONS
PEPMASS=369.094
CHARGE=1
MSLEVEL=2
SOURCE_INSTRUMENT=LC-ESI-qTof
FILENAME=DMIM_centroided_library_abundance_filtered.mgf
SEQ=*..*
IONMODE=Positive
ORGANISM=DMIM-DRUG-METABOLITE-LIBRARY
NAME=PYRITINOL [M+H]+
PI=Libin Xu
DATACOLLECTOR=Dylan H. Ross
SMILES=CC1=NC=C(C(=C1O)CO)CSSCC2=CN=C(C(=C2CO)O)C
INCHI=N/A
INCHIAUX=N/A
PUBMED=N/A
SUBMITUSER=jzemlin
LIBRARYQUALITY=3
SPECTRUMID=CCMSLIB00012468821
USI=mzspec:GNPS:DMIM-DRUG-METABOLITE-LIBRARY:accession:CCMSLIB00012468821
SCANS=3799
55.052029	3833.0
56.051682	3881.0
57.050976	3672.0
58.065102	1676.0
59.010036	7217.0
60.043808	1005.0
62.988194	1717.0
65.016342	1235.0
67.055901	6570.0
68.055077	1612.0
69.048325	9948.0
70.066109	14506.0
71.043861	2925.0
72.083832	5654.0
73.041611	4086.0
74.050171	1781.0
76.025909	19048.0
77.040558	6804.0
78.025276	1463.0
79.054909	6421.0
80.053802	10140.0
81.066513	12168.0
82.069962	2821.0
83.055	6550.0
84.055107	93052.0
85.040825	12295.0
86.094093	10194.0
87.030975	4770.0
88.03714	7213.0
89.059021	4533.0
91.058434	11396.0
92.058983	1296.0
93.071548	8180.0
94.063423	1869.0
94.972015	1094.0
95.07798	19311.0
96.06076	4336.0
97.036049	135711.0
98.037468	11460.0
99.023376	12099.0
100.075607	2761.0
101.064117	2609.0
102.113075	6237.0
103.02552	2217.0
104.063957	1690.0
105.068283	13641.0
106.073273	2568.0
107.079903	11580.0
108.068565	5236.0
109.083389	22379.0
110.07621	13460.0
111.061111	16825.0
112.046791	6842.0
113.039642	18182.0
114.051048	7257.0
115.067368	5791.0
116.031631	15254.0
117.067368	4415.0
118.06218	2070.0
118.933167	2559.0
119.06546	15512.0
120.076477	14486.0
120.973541	11310.0
121.087112	22666.0
122.072678	7284.0
123.065918	68253.0
124.062218	11843.0
124.966385	23800.0
125.082436	8209.0
126.087769	12600.0
127.065887	7448.0
128.079575	3522.0
129.103104	23846.0
130.06105	39683.0
131.072723	8907.0
132.122269	6318.0
133.06781	16723.0
134.071701	5708.0
135.068771	20671.0
136.07045	73557.0
136.949173	24293.0
137.080963	32278.0
138.069305	8729.0
139.049561	29728.0
140.056473	5875.0
140.920486	2070.0
141.068344	8481.0
142.040634	92913.0
142.976379	32222.0
143.100082	5618.0
144.045761	13697.0
144.155472	2309.0
145.079437	9024.0
146.062943	4022.0
147.082855	12993.0
148.070038	6515.0
149.083359	16688.0
150.075668	5603.0
151.075623	15289.0
152.072113	13741.0
152.914948	1313.0
153.065857	29341.0
154.088379	31945.0
155.078125	18909.0
156.089569	6362.0
156.889038	1992.0
157.063507	12242.0
158.108215	5804.0
158.944748	5542.0
159.097717	12849.0
160.05452	10609.0
160.94664	1792.0
161.087753	14686.0
162.044296	14478.0
162.943634	1032.0
163.083374	23960.0
164.086151	8274.0
164.947403	24091.0
165.078873	21581.0
166.065659	15206.0
167.069901	22783.0
168.060028	15102.0
169.074646	17665.0
170.048447	15254.0
171.084488	47928.0
172.084763	8157.0
173.078461	16353.0
174.087204	4453.0
174.932632	10122.0
175.091904	16774.0
176.080688	5636.0
176.948608	2317.0
177.0746	27190.0
178.085068	7999.0
178.956421	4124.0
179.089554	36413.0
180.076538	10115.0
180.917572	10984.0
181.081696	40750.0
182.084793	7664.0
182.923431	1649.0
183.078384	27367.0
184.076355	11996.0
184.217407	7021.0
185.07048	14351.0
185.18515	2561.0
186.07901	5749.0
186.229828	76459.0
186.934006	6801.0
187.086624	9971.0
187.214935	14600.0
188.060196	9218.0
188.204666	1227.0
188.952988	1051.0
189.085403	14000.0
190.020523	3941.0
190.120728	2063.0
190.946381	1967.0
191.079315	24168.0
191.930511	1030.0
192.087021	6307.0
192.956467	4537.0
193.085968	42262.0
194.090378	9750.0
194.959869	1955.0
195.09433	27688.0
195.986755	1455.0
196.101791	6565.0
196.935913	14614.0
197.09201	57103.0
198.096588	8425.0
198.896942	5240.0
199.06575	19789.0
199.190765	1067.0
199.975601	3634.0
200.10434	10652.0
200.944351	118123.0
201.113739	11768.0
201.958328	1655.0
202.092041	4185.0
202.923157	4111.0
203.082214	24680.0
204.079208	6283.0
204.917023	6919.0
205.094971	19295.0
206.064468	8672.0
206.973221	2478.0
207.098633	27962.0
208.096146	6319.0
208.960312	1742.0
209.089813	66524.0
210.094543	10630.0
210.97226	1237.0
211.095688	22778.0
212.114014	6998.0
212.881561	4370.0
213.000351	1438.0
213.104904	15195.0
214.093658	7223.0
214.879837	2881.0
215.035477	18942.0
215.159363	2903.0
215.942856	1550.0
216.092926	5297.0
216.932022	44220.0
217.083298	17801.0
217.960892	1475.0
218.097656	4296.0
218.955887	6699.0
219.110367	16610.0
219.938034	1047.0
220.104584	5497.0
220.936279	11499.0
221.112228	22508.0
221.980209	1009.0
222.114426	6742.0
222.926453	24664.0
223.102554	39744.0
224.104996	7310.0
224.936325	1485.0
225.098663	23647.0
226.128845	9346.0
226.90834	2981.0
227.076401	25949.0
228.106934	8101.0
228.948151	1185.0
229.100739	13090.0
230.111801	4113.0
230.903809	2395.0
231.083542	19572.0
231.913025	1030.0
232.098022	6442.0
232.891769	14319.0
232.996536	2019.0
233.10907	23604.0
233.932465	1277.0
234.102631	6879.0
234.887619	1511.0
235.030365	23707.0
235.138077	16571.0
235.999207	1468.0
236.129761	5721.0
236.982132	3725.0
237.1185	34006.0
237.971146	1857.0
238.120422	7287.0
238.945953	10828.0
239.107239	23232.0
239.984924	2760.0
240.097137	6697.0
240.228256	6733.0
240.917282	3015.0
241.093246	10287.0
241.24263	1195.0
242.11586	4647.0
242.256439	3134.0
242.899536	3129.0
243.013763	1412.0
243.121475	7604.0
243.97348	1962.0
244.121216	4784.0
244.909088	5511.0
245.084671	18341.0
245.189667	1043.0
246.08403	4736.0
246.948898	4161.0
247.125046	14082.0
247.953949	1368.0
248.129608	4218.0
248.928757	4771.0
249.080292	52318.0
249.187912	4610.0
249.937286	1604.0
250.109589	9980.0
251.00946	2075.0
251.116531	41794.0
252.127258	8371.0
252.99292	3573.0
253.130356	24938.0
253.996262	1619.0
254.14537	6619.0
254.868835	8474.0
254.99765	1812.0
255.128922	18225.0
255.997574	1316.0
256.142944	7135.0
256.28302	2528.0
256.875519	1238.0
256.995239	18289.0
257.148926	6047.0
258.026459	13191.0
258.161194	2809.0
258.855988	1067.0
258.988129	5288.0
259.133759	8639.0
260.028412	2711.0
260.158112	2150.0
260.89917	5871.0
261.022339	2820.0
261.144684	16553.0
261.968079	1095.0
262.133301	5763.0
262.937683	2607.0
263.140991	17603.0
263.970398	1683.0
264.135498	4534.0
264.950226	5205.0
265.129456	22652.0
265.964752	1537.0
266.126282	6023.0
266.939728	6483.0
267.120392	33900.0
268.002991	2661.0
268.119293	8914.0
268.281372	1032.0
269.005188	2464.0
269.138702	15158.0
269.982208	1855.0
270.139404	4995.0
270.330353	145109.0
270.50296	2054.0
270.801788	2069.0
270.982056	5058.0
271.140717	8784.0
271.332611	28720.0
272.00824	1753.0
272.141937	3464.0
272.321503	2482.0
272.845764	1001.0
272.965698	5926.0
273.14502	10248.0
273.982635	2298.0
274.11264	3444.0
274.261261	2161.0
274.96701	2617.0
275.152039	16784.0
275.996094	1451.0
276.164856	4415.0
276.87619	3662.0
277.002563	2229.0
277.153015	22055.0
278.035034	1556.0
278.156281	5147.0
278.903168	3086.0
279.148621	20876.0
280.001129	2107.0
280.157104	5301.0
280.937256	2720.0
281.138855	15517.0
282.022247	2214.0
282.168518	4946.0
282.875092	6483.0
283.009094	2930.0
283.14209	13696.0
284.066345	5678.0
284.203857	1752.0
284.973999	2573.0
285.141174	7677.0
286.050079	10949.0
286.186859	1578.0
286.995667	4028.0
287.159058	9723.0
288.009338	2244.0
288.16333	3218.0
288.891083	7537.0
289.016266	2291.0
289.1604	14896.0
289.993652	1839.0
290.152435	3654.0
290.906799	1449.0
291.031464	1764.0
291.15625	25510.0
292.011292	1112.0
292.155487	6275.0
292.834717	1075.0
292.989563	1521.0
293.161591	25567.0
294.004974	1222.0
294.156982	5744.0
294.880249	2669.0
295.008148	1530.0
295.16037	20676.0
295.984406	1616.0
296.170868	4932.0
296.966919	7736.0
297.150085	9329.0
297.992065	1702.0
298.16098	3416.0
298.338043	1495.0
298.824951	1417.0
298.939514	13976.0
299.155151	6883.0
299.960419	1776.0
300.152527	3329.0
300.901031	5871.0
301.033112	1541.0
301.155243	9370.0
302.060669	6774.0
302.218323	1202.0
302.92157	2310.0
303.040741	1082.0
303.164764	14150.0
304.043518	7666.0
304.188873	3041.0
304.859802	3957.0
305.02774	1693.0
305.174927	22734.0
306.039795	1043.0
306.179504	4773.0
306.896637	2155.0
307.037689	1317.0
307.169861	26385.0
308.012268	9821.0
308.179626	6032.0
308.902893	1187.0
309.026093	2149.0
309.170593	21367.0
309.993042	1375.0
310.166443	4964.0
310.865723	1375.0
311.024475	3993.0
311.173523	11368.0
312.076111	9849.0
312.198547	1911.0
312.942535	6231.0
313.063782	2344.0
313.186646	6736.0
314.161469	3303.0
314.812714	2179.0
314.977753	7509.0
315.168701	7713.0
315.989258	2290.0
316.167023	3209.0
316.829285	1192.0
316.966095	2493.0
317.185974	14441.0
318.004425	1176.0
318.18045	4584.0
318.9375	7185.0
319.085876	1408.0
319.188019	21215.0
319.970428	1269.0
320.196869	5825.0
320.839355	3473.0
320.961243	1784.0
321.177979	21380.0
322.183014	4808.0
322.875549	3854.0
323.053711	1884.0
323.182861	21458.0
323.962646	2455.0
324.184448	5199.0
324.884399	1411.0
325.033173	1182.0
325.177032	12706.0
326.015961	3150.0
326.186249	3685.0
326.919067	2745.0
327.106232	21691.0
327.232086	5197.0
328.090424	7585.0
328.235687	1760.0
328.900116	6848.0
329.031769	17577.0
329.190704	7380.0
329.915314	1143.0
330.075317	7517.0
330.215057	1418.0
330.917297	1906.0
331.046539	2285.0
331.195526	15880.0
332.07132	7874.0
332.213196	4098.0
332.808472	1076.0
333.046906	1915.0
333.190155	19793.0
334.059418	3587.0
334.202271	4629.0
334.845581	2386.0
334.953888	1407.0
335.067871	1652.0
335.194702	25742.0
336.036011	1069.0
336.194427	6099.0
336.810822	1963.0
336.949585	4382.0
337.186859	19711.0
338.019775	1734.0
338.194366	4660.0
338.860199	4332.0
339.036499	1360.0
339.184784	12989.0
339.917053	1776.0
340.198975	3532.0
340.86319	2453.0
341.030304	1473.0
341.189972	9230.0
342.205231	3270.0
342.905334	1451.0
343.191528	7646.0
344.010315	1672.0
344.190674	2607.0
344.906921	6196.0
345.189453	11757.0
346.05835	16332.0
346.20578	2522.0
346.881531	1103.0
347.046021	65620.0
347.203491	19461.0
348.052155	8411.0
348.223816	6559.0
348.880463	1429.0
349.04837	2798.0
349.200684	34377.0
350.028442	2767.0
350.205231	7930.0
350.852325	2165.0
351.016907	14864.0
351.20047	27347.0
352.034149	3449.0
352.197968	6040.0
352.89743	1915.0
353.194519	17788.0
354.054382	1135.0
354.205597	4204.0
354.874359	2670.0
355.062347	1435.0
355.206177	10943.0
356.027893	1515.0
356.199188	3482.0
356.869019	2239.0
357.053833	1302.0
357.223297	11105.0
358.221283	3382.0
358.946594	3134.0
359.203918	10425.0
360.187775	4197.0
360.840179	1904.0
361.048157	1108.0
361.210205	19292.0
362.032227	3069.0
362.216248	5865.0
362.819366	1702.0
363.015289	2163.0
363.202362	31463.0
364.205566	7480.0
365.088837	1469.0
365.198151	37674.0
365.987335	1153.0
366.204254	7773.0
366.825714	1315.0
366.977051	3392.0
367.204132	26550.0
368.039581	4440.0
368.210052	4980.0
368.841522	1813.0
369.025757	12186.0
369.206482	15502.0
370.036346	2255.0
370.211792	3618.0
370.858948	1954.0
371.015747	1064.0
END IONS

BEGIN IONS
PEPMASS=573.268
CHARGE=1
MSLEVEL=2
SOURCE_INSTRUMENT=LC-ESI-qTof
FILENAME=DMIM_centroided_library_abundance_filtered.mgf
SEQ=*..*
IONMODE=Positive
ORGANISM=DMIM-DRUG-METABOLITE-LIBRARY
NAME=CONVALLATOXIN [M+Na]+
PI=Libin Xu
DATACOLLECTOR=Dylan H. Ross
SMILES=C[C@H]1[C@@H]([C@H]([C@H]([C@@H](O1)O[C@H]2CC[C@@]3([C@H]4CC[C@@]5([C@H](CC[C@@]5([C@@H]4CC[C@@]3(C2)O)O)C6=CC(=O)OC6)C)C=O)O)O)O
INCHI=N/A
INCHIAUX=N/A
PUBMED=N/A
SUBMITUSER=jzemlin
LIBRARYQUALITY=3
SPECTRUMID=CCMSLIB00012471055
USI=mzspec:GNPS:DMIM-DRUG-METABOLITE-LIBRARY:accession:CCMSLIB00012471055
SCANS=6033
55.058098	1540.0
56.051563	2734.0
69.069656	2514.0
70.066742	21282.0
71.069824	1309.0
72.083916	15969.0
74.063454	2471.0
83.064056	1023.0
84.064789	41564.0
85.059746	2900.0
86.099449	45442.0
87.082993	3175.0
91.048744	1238.0
95.092545	1412.0
97.05043	1761.0
98.056847	1136.0
99.051659	1319.0
101.080109	3098.0
102.059982	4121.0
103.058533	1186.0
104.098831	7468.0
105.066116	1931.0
109.091995	1517.0
110.075409	20917.0
111.075615	2101.0
112.084122	1516.0
113.069366	1425.0
115.082069	1797.0
116.068893	1312.0
119.058601	1950.0
120.08474	49125.0
121.085732	4390.0
122.084694	5624.0
123.058983	5529.0
125.058449	2136.0
126.073135	1272.0
127.076729	2223.0
128.097488	1064.0
129.105042	55405.0
130.080917	11238.0
131.08313	3040.0
132.078735	1988.0
133.065567	1813.0
135.078033	1206.0
136.075607	53072.0
137.074387	8782.0
138.073135	2920.0
139.075073	3943.0
140.083038	1936.0
141.093933	4590.0
142.07431	1738.0
142.962601	1530.0
143.110001	6052.0
144.086365	1516.0
145.078995	2708.0
146.07991	1238.0
146.99353	12118.0
147.112411	1107.0
148.061157	1383.0
149.084915	1141.0
150.061737	2908.0
151.087265	1684.0
152.09581	1947.0
153.088852	3453.0
154.079376	1047.0
155.093521	7132.0
156.087708	3026.0
157.107452	7979.0
158.095566	3266.0
159.0961	23922.0
160.095261	3135.0
161.093292	2382.0
162.053207	2639.0
163.081314	2621.0
164.089478	1630.0
164.93512	6280.0
165.084473	3522.0
166.079498	2866.0
167.091919	4813.0
168.070984	2625.0
169.115448	10582.0
170.091537	2974.0
171.111084	7877.0
172.09877	3105.0
173.119095	12707.0
174.114868	1973.0
175.094528	3518.0
176.107559	1295.0
177.092636	5021.0
178.100891	2612.0
179.069702	9926.0
180.083496	2047.0
180.910522	2028.0
181.088181	11840.0
182.093674	2599.0
183.13031	12625.0
184.086151	19492.0
185.126678	14952.0
186.119064	9825.0
187.11554	12874.0
188.109848	2618.0
189.094131	4113.0
190.088501	1190.0
191.099731	3405.0
192.096939	1182.0
193.098953	4984.0
194.098801	1912.0
195.100266	10856.0
196.101624	2285.0
197.110626	13242.0
198.110504	4879.0
199.123367	11670.0
200.138245	7018.0
200.943909	3446.0
201.120987	14273.0
202.117142	3789.0
203.100159	5929.0
204.092789	3324.0
205.100891	4573.0
206.096176	1576.0
207.110748	6186.0
208.104691	2603.0
209.100983	9945.0
210.110199	2204.0
211.126678	10085.0
212.117386	7469.0
213.114365	13125.0
214.131165	5641.0
215.131927	7978.0
216.118011	6773.0
217.105469	9159.0
218.111069	2144.0
219.125305	4812.0
220.120987	1557.0
221.117889	7038.0
222.113571	3729.0
223.113907	7809.0
224.119476	2649.0
225.112518	6728.0
226.137085	12149.0
227.120514	12137.0
228.141052	8270.0
229.125412	7311.0
230.125473	6030.0
231.11618	8310.0
232.09584	10335.0
233.120926	10641.0
234.128677	3216.0
235.125229	10233.0
236.134018	2910.0
237.128769	10566.0
238.128784	4328.0
239.122925	8667.0
240.136948	9827.0
241.105011	5340.0
242.15448	7907.0
243.134811	7283.0
244.119781	7349.0
245.109146	6765.0
246.116531	2398.0
247.131775	4124.0
248.138428	2253.0
249.136948	7709.0
250.120117	4577.0
251.130264	9939.0
252.131287	3678.0
253.127014	10898.0
254.138214	4911.0
254.919174	1079.0
255.13063	5178.0
256.146301	5755.0
257.155334	6371.0
258.128204	6457.0
259.117859	5912.0
260.13623	3226.0
261.139008	4787.0
262.132507	2827.0
263.131134	4973.0
264.143768	2369.0
265.133698	5968.0
266.140839	3815.0
267.133698	9019.0
268.149323	5090.0
269.135345	8411.0
270.138855	6365.0
271.136627	6148.0
272.14798	4724.0
273.144012	2836.0
274.131653	3604.0
275.14798	3546.0
276.133698	3883.0
277.148376	6580.0
278.142883	3204.0
278.940521	1054.0
279.141083	6826.0
280.15152	3587.0
281.143646	5760.0
282.158173	4235.0
283.146851	8417.0
284.147583	7748.0
285.14212	7130.0
286.147339	4832.0
287.145569	4634.0
288.138885	3448.0
289.146545	2849.0
290.140869	1774.0
291.155273	4103.0
292.155334	3870.0
293.163086	5817.0
294.166107	3501.0
295.154663	7730.0
296.158356	4026.0
296.962097	7267.0
297.154877	6400.0
298.147949	7455.0
299.163208	7167.0
300.160339	5732.0
301.150665	4957.0
302.075348	7928.0
302.17984	1581.0
303.149536	3585.0
304.152771	2327.0
305.173615	3402.0
306.157532	1917.0
307.159302	4298.0
308.103699	109369.0
309.124329	17824.0
310.119019	8594.0
310.22644	1718.0
311.16095	8854.0
312.084473	6100.0
312.184509	3776.0
312.938965	1256.0
313.180023	5626.0
314.164978	4812.0
314.977478	3149.0
315.157501	5139.0
316.161346	4390.0
317.171021	4691.0
318.17038	2013.0
318.944946	1749.0
319.161743	4345.0
320.092468	2801.0
320.197968	1403.0
321.16745	5037.0
322.176727	2527.0
323.182404	7017.0
324.17395	3686.0
325.178253	8623.0
326.178619	6302.0
327.185638	9163.0
328.184174	4934.0
329.182068	4868.0
330.082794	29666.0
330.198517	1936.0
330.938171	1039.0
331.101532	5396.0
331.210419	1855.0
332.125	4641.0
333.180756	4291.0
334.045624	9230.0
334.186584	1664.0
335.041046	1118.0
335.19046	4646.0
336.177856	2417.0
337.150238	3904.0
337.251617	5215.0
338.189209	3473.0
339.160004	4479.0
339.272308	5660.0
340.187225	3992.0
341.190796	8435.0
342.190582	4495.0
343.185699	7580.0
344.175476	4685.0
345.176727	4399.0
346.060272	65342.0
346.194427	1396.0
347.07135	8454.0
347.21283	2242.0
348.062439	7298.0
348.20755	2108.0
349.153198	6195.0
349.262848	1061.0
350.030914	2587.0
350.201263	3318.0
351.191803	7731.0
352.077789	6215.0
352.209625	2097.0
353.183014	7173.0
354.179108	4226.0
355.191162	7784.0
356.187134	5378.0
357.183929	7216.0
358.178467	4210.0
359.186157	5350.0
360.179169	2938.0
361.148529	1464.0
361.252502	3032.0
362.19101	2651.0
363.196503	5361.0
364.173859	2877.0
365.17984	7668.0
366.18692	3940.0
367.197021	6966.0
368.040527	12915.0
368.204987	3013.0
369.043915	2116.0
369.200439	7518.0
370.051636	2062.0
370.216644	3844.0
371.189362	7815.0
372.196991	4015.0
373.185577	5401.0
374.060669	3776.0
374.203583	2579.0
375.207001	4061.0
376.202637	2559.0
376.933929	2354.0
377.218323	4630.0
378.208832	2949.0
379.198822	5375.0
380.19516	2829.0
381.11615	5979.0
381.221985	4439.0
382.203705	3861.0
383.209015	7615.0
384.015625	7212.0
384.218414	3495.0
385.021881	1087.0
385.208923	6810.0
386.007935	1357.0
386.212646	3292.0
387.205414	5612.0
388.201294	2508.0
389.198883	3492.0
390.026001	8290.0
390.205475	2421.0
391.024689	1293.0
391.207336	4294.0
392.026184	1384.0
392.209015	2208.0
392.904602	1322.0
393.214874	4165.0
394.208435	2547.0
394.944458	12017.0
395.187714	9619.0
396.210602	4338.0
397.211456	5338.0
398.218781	3875.0
398.892853	1418.0
399.183411	8908.0
400.030121	1541.0
400.202942	4276.0
401.213715	4189.0
402.203461	2763.0
403.204376	3382.0
404.238434	2141.0
405.217377	4585.0
406.001038	9736.0
406.214508	2581.0
407.00354	1307.0
407.217468	4880.0
407.999512	1788.0
408.221039	2563.0
409.199554	9026.0
410.043427	2524.0
410.21109	3830.0
410.928528	2580.0
411.224579	5958.0
412.232452	3648.0
413.223724	4517.0
414.222473	4289.0
414.861633	1530.0
415.203613	4721.0
416.198547	2192.0
416.919006	1897.0
417.221008	3565.0
418.230927	2166.0
419.240479	3386.0
420.231415	1911.0
420.71698	1429.0
421.224365	4689.0
421.981049	3127.0
422.225403	2478.0
423.218658	5302.0
424.247833	2868.0
425.215607	6733.0
426.229034	3770.0
427.013245	2716.0
427.224579	6277.0
428.050049	3464.0
428.238495	4268.0
429.230438	4485.0
430.224365	2998.0
430.805969	1523.0
431.23053	3376.0
432.022308	24871.0
432.232635	2268.0
432.868896	1207.0
433.029053	2744.0
433.242706	3364.0
434.243042	4930.0
435.239288	3946.0
436.243958	1972.0
437.227478	4776.0
438.228333	2779.0
439.247894	5595.0
440.239014	3724.0
441.240601	4728.0
442.247131	3430.0
442.978699	1561.0
443.23642	5246.0
444.232758	2720.0
445.257812	3135.0
446.23465	2061.0
447.256622	3428.0
447.992676	7666.0
448.222748	1694.0
448.986481	1818.0
449.248505	3701.0
450.027985	2645.0
450.23587	2769.0
451.245361	4010.0
452.256683	2465.0
453.250885	3836.0
454.008667	2114.0
454.245636	3239.0
455.230865	4187.0
456.228577	19333.0
457.238129	7053.0
458.242615	3268.0
459.25296	5249.0
460.257904	3023.0
461.259705	3790.0
462.249146	2920.0
463.24118	3385.0
464.262665	2449.0
464.954773	2280.0
465.24881	3978.0
465.994659	2029.0
466.261719	2517.0
467.251434	4578.0
468.256805	2750.0
469.259918	4296.0
469.9841	1431.0
470.262512	3075.0
470.980072	1133.0
471.253357	3733.0
472.215851	7075.0
473.245789	4871.0
474.239807	2871.0
475.095673	1007.0
475.252625	3347.0
476.266815	2774.0
476.776917	1088.0
477.26123	4828.0
477.980743	1107.0
478.261841	2638.0
479.257477	3533.0
480.255096	2256.0
480.932495	1412.0
481.26416	3119.0
482.27301	2499.0
483.263916	10971.0
484.269653	4156.0
485.27359	10342.0
486.262421	4369.0
487.261169	3983.0
487.989929	1473.0
488.25882	2398.0
488.927887	1366.0
489.256714	2885.0
490.0047	1604.0
490.257996	2530.0
490.968658	5278.0
491.260132	3235.0
492.28125	2464.0
492.964783	1102.0
493.273163	3328.0
494.283691	2497.0
495.273315	4270.0
496.271545	2978.0
497.276337	4029.0
498.276031	3250.0
499.274994	4048.0
500.262756	3050.0
501.265167	4129.0
502.265961	2734.0
503.283081	2971.0
503.963104	1957.0
504.27948	2297.0
505.27063	3431.0
505.790649	1139.0
506.273468	2430.0
506.945343	1616.0
507.271637	6005.0
508.020142	16188.0
508.278687	2905.0
508.787567	1040.0
509.01355	3535.0
509.278503	4835.0
509.992371	1837.0
510.279144	2843.0
511.265961	4153.0
511.994446	1602.0
512.282654	3117.0
512.780762	1022.0
512.9552	1305.0
513.292236	4115.0
514.270874	3152.0
514.799316	1037.0
515.277588	3900.0
516.274292	2842.0
516.938477	1173.0
517.286621	3111.0
518.287048	3106.0
518.814758	1197.0
519.279846	3730.0
519.926758	1054.0
520.273682	2789.0
521.288391	2975.0
522.289551	3018.0
523.291626	3488.0
524.054688	1042.0
524.293457	3425.0
524.805664	1316.0
525.287048	4608.0
525.960449	2346.0
526.286865	3349.0
526.814575	1137.0
527.285583	6481.0
527.976868	5201.0
528.288635	3651.0
528.800537	1434.0
528.976135	1525.0
529.278198	3788.0
530.003357	45535.0
530.279358	3121.0
531.003845	5544.0
531.282593	4556.0
531.987	2670.0
532.281555	3826.0
532.810913	1510.0
532.991821	1183.0
533.28949	4194.0
534.291565	2063.0
534.801392	1681.0
535.287415	3495.0
536.31073	2389.0
537.111328	2444.0
537.271484	2342.0
537.413208	65017.0
537.80072	1148.0
538.270874	2517.0
538.411865	19974.0
539.249512	3476.0
539.408875	6695.0
540.300842	3138.0
540.427734	1116.0
541.286438	5867.0
541.917664	1743.0
542.332764	9771.0
542.808655	1050.0
543.320862	5759.0
543.941345	2499.0
544.34198	5520.0
545.296997	10648.0
545.973999	14612.0
546.28479	5536.0
546.794861	1039.0
546.969177	2639.0
547.29425	2979.0
547.966003	1582.0
548.297302	2227.0
548.81781	1023.0
549.320618	3179.0
549.953796	1694.0
550.309448	2681.0
550.788574	1078.0
551.326538	3454.0
551.984802	3456.0
552.320496	2385.0
553.310669	3825.0
554.310974	2812.0
555.314636	3827.0
556.315552	2475.0
556.805786	1001.0
557.197876	8117.0
557.327759	2213.0
557.846619	1018.0
558.21167	3505.0
558.333679	1928.0
559.112244	1457.0
559.297668	6809.0
560.314026	3541.0
561.297302	6387.0
561.461609	1223.0
561.929749	1436.0
562.30542	3875.0
562.856689	1146.0
563.305664	3779.0
563.903748	1203.0
564.312561	3339.0
565.32135	3579.0
565.938477	1445.0
566.331116	3149.0
566.818054	1082.0
567.311768	3160.0
567.797241	1063.0
567.955627	3781.0
568.334961	3156.0
568.799988	1061.0
569.31012	3717.0
570.310059	4212.0
570.838806	1232.0
571.331726	4629.0
571.8349	1172.0
572.289124	2599.0
573.082764	1224.0
573.287292	247435.0
573.401428	1708.0
573.52002	3800.0
573.676392	2085.0
573.943481	3391.0
574.291199	75030.0
574.838806	1267.0
575.019104	1751.0
575.224121	2472.0
END IONS

BEGIN IONS
PEPMASS=246.186
CHARGE=1
MSLEVEL=2
SOURCE_INSTRUMENT=LC-ESI-qTof
FILENAME=DMIM_centroided_library_abundance_filtered.mgf
SEQ=*..*
IONMODE=Positive
ORGANISM=DMIM-DRUG-METABOLITE-LIBRARY
NAME=TOLPERISONE [M+H]+
PI=Libin Xu
DATACOLLECTOR=Dylan H. Ross
SMILES=CC1=CC=C(C=C1)C(=O)C(C)CN2CCCCC2
INCHI=N/A
INCHIAUX=N/A
PUBMED=N/A
SUBMITUSER=jzemlin
LIBRARYQUALITY=3
SPECTRUMID=CCMSLIB00012471571
USI=mzspec:GNPS:DMIM-DRUG-METABOLITE-LIBRARY:accession:CCMSLIB00012471571
SCANS=6549
55.052757	1385.0
56.052372	4612.0
58.99765	47565.0
61.004848	1735.0
67.056786	1255.0
69.061806	1721.0
70.067574	24482.0
72.083725	2018.0
73.024261	1323.0
76.024452	180951.0
77.034111	5079.0
78.022141	3723.0
79.044556	1976.0
80.051994	9915.0
81.063675	2516.0
82.051575	1095.0
83.060356	4040.0
84.048874	194574.0
85.042381	7531.0
86.070549	4347.0
86.995811	4783.0
88.025528	11992.0
89.024315	1800.0
91.0522	8755.0
93.069847	2146.0
95.061623	2994.0
96.07827	5674.0
97.03653	6666.0
98.099518	517509.0
98.218636	1392.0
98.378891	1302.0
98.975433	2173.0
99.099541	29003.0
100.057549	1817.0
102.058868	1830.0
105.065529	3175.0
107.073593	2166.0
108.056755	3139.0
109.07164	3783.0
110.068367	4306.0
111.043785	2052.0
112.044823	2542.0
113.030991	1951.0
114.05088	6458.0
115.061516	2022.0
116.021278	57179.0
117.040329	2840.0
118.021957	2421.0
118.924202	8702.0
119.053375	14956.0
120.052155	6949.0
120.963638	1216.0
121.079277	3856.0
122.050926	1706.0
123.062927	13579.0
124.029785	7291.0
124.98513	3979.0
125.088318	1190.0
126.038208	1139.0
127.030083	2834.0
128.054977	1665.0
129.0961	9586.0
130.055847	45172.0
131.065659	5708.0
132.061401	5499.0
133.051819	3650.0
134.06871	1354.0
135.059677	5194.0
136.067444	15172.0
136.938141	39770.0
137.07843	3708.0
138.075287	1230.0
139.025833	4255.0
140.037857	2298.0
140.926651	1158.0
141.052719	8468.0
142.037079	84982.0
143.024063	10543.0
144.019485	26145.0
145.052231	4223.0
146.035294	3268.0
147.065475	3953.0
148.06662	1510.0
149.07222	2927.0
150.056229	1641.0
151.053558	3723.0
152.057617	5187.0
152.91037	1378.0
153.054184	6120.0
154.054764	2433.0
155.06604	3176.0
156.041	2332.0
157.08934	2637.0
158.083969	1887.0
158.933304	1827.0
159.072784	4354.0
160.061813	3295.0
161.074524	4769.0
162.028046	54098.0
163.051102	7930.0
164.037415	3856.0
164.939194	17422.0
165.073166	3448.0
166.053131	2159.0
167.062561	3737.0
168.053329	2739.0
169.076324	4462.0
170.038589	8917.0
171.05632	3609.0
172.068512	2447.0
173.057877	8412.0
174.036957	2698.0
174.889404	11474.0
175.074402	4440.0
176.062958	1899.0
177.024567	8059.0
178.072662	1754.0
178.915039	1074.0
179.060379	13816.0
180.072144	2008.0
180.912598	12347.0
181.067978	8856.0
182.081863	1924.0
182.917114	1643.0
183.070694	5107.0
184.061676	2498.0
185.058807	6116.0
186.085861	3053.0
186.918793	31769.0
187.06514	14485.0
188.049911	5052.0
189.047226	5587.0
190.025681	1805.0
190.89679	1213.0
191.063248	4776.0
192.078308	2157.0
192.929031	1100.0
193.0728	6120.0
194.082703	1439.0
195.084579	4062.0
196.040222	3223.0
196.891586	11400.0
197.08374	5842.0
198.081589	1756.0
198.905914	5757.0
199.06218	6025.0
200.002777	2445.0
200.214539	1289.0
200.924103	3090.0
201.052124	26724.0
202.062454	4062.0
202.899689	6602.0
203.061783	19913.0
204.069687	2964.0
204.911362	2936.0
205.082245	3563.0
205.998108	5969.0
207.08815	3556.0
208.093658	1437.0
209.079285	6474.0
210.079956	2355.0
211.08493	3666.0
212.108459	1873.0
212.86409	3531.0
213.045609	4894.0
214.075897	4507.0
214.889236	3061.0
215.050446	10244.0
216.046112	2987.0
216.91272	6153.0
217.079391	3560.0
218.91629	3027.0
219.102936	3335.0
220.100128	1395.0
220.921982	6654.0
221.108047	3911.0
222.108505	1370.0
222.894653	1258.0
223.034454	8510.0
224.087372	1431.0
225.047943	3413.0
226.126877	2102.0
226.905609	1325.0
227.051239	6587.0
228.089828	2800.0
229.078308	2784.0
231.070557	3284.0
232.085098	3451.0
232.889786	3849.0
233.077652	7862.0
234.080902	1360.0
234.915512	2698.0
235.113144	4935.0
237.106201	5294.0
238.109512	1677.0
238.897491	3027.0
239.080566	5373.0
240.130569	1900.0
240.876846	1594.0
241.129028	1297.0
242.884872	1071.0
243.048401	2204.0
244.097931	1457.0
244.890244	1170.0
245.069092	8440.0
246.080063	1094.0
246.943542	1465.0
247.115845	2668.0
END IONS

BEGIN IONS
PEPMASS=223.144
CHARGE=1
MSLEVEL=2
SOURCE_INSTRUMENT=ESI-Orbitrap
FILENAME=gnps_msn_lib_pos.mgf
SEQ=*..*
IONMODE=Positive
ORGANISM=MSNLIB-POSITIVE
NAME=NEOSTIGMINE [M]+
PI=Tomas Pluskal
DATACOLLECTOR=Corinna Brungs
SMILES=CN(C)C(=O)Oc1cccc([N+](C)(C)C)c1
INCHI=InChI=1S/C12H19N2O2/c1-13(2)12(15)16-11-8-6-7-10(9-11)14(3,4)5/h6-9H,1-5H3/q+1
INCHIAUX=ALWKGYPQUAPLQC-UHFFFAOYSA-N
PUBMED=N/A
SUBMITUSER=jzemlin
LIBRARYQUALITY=1
SPECTRUMID=CCMSLIB00012278672
USI=mzspec:GNPS:MSNLIB-POSITIVE:accession:CCMSLIB00012278672
SCANS=4371
42.03381	0.188
44.049374	0.444
51.022923	0.024
55.783909	0.196
55.78743	0.289
56.012928	0.53
58.064903	0.564
63.022854	0.017
65.03846	0.13
66.046288	0.073
72.000053	0.048
72.03878	0.656
72.044006	97.342003
72.046532	0.08
72.048721	2.608
72.051064	2.201
72.053375	1.046
72.056076	0.359
72.058846	0.273
72.061531	0.126
72.064156	0.081
72.067169	0.061
72.080383	0.032
72.08532	0.057
77.038467	0.021
78.046257	0.077
79.020821	0.11
79.054085	0.053
80.049332	0.027
91.054039	0.132
92.02549	0.087
92.049324	0.083
92.061729	0.049
94.041168	0.046
95.049004	0.163
104.049423	0.018
105.044571	0.029
106.064957	0.157
107.048927	0.017
107.072784	0.177
108.05677	0.064
108.080612	0.291
109.089027	0.032
111.043884	0.026
118.064873	0.053
119.072754	0.063
120.044235	0.031
120.08062	0.208
121.052078	0.033
121.088577	0.066
122.059761	0.014
122.072517	0.131
122.096306	0.539
123.104179	0.048
125.059631	0.031
134.059891	0.096
134.096298	0.402
135.067734	0.327
135.104141	1.173
136.075562	0.62
137.083435	0.824
137.954269	0.094
149.1073	0.065
150.091248	2.57
150.094803	0.014
150.102219	0.038
151.099121	4.586
151.10997	0.073
152.106918	0.738
155.96463	0.049
163.062714	0.067
163.122894	0.085
164.070663	0.232
164.130814	0.258
166.122742	0.135
178.085266	0.036
178.087402	0.03
181.94426	0.039
207.113022	0.347
208.074326	0.04
208.120773	8.927
208.132339	0.026
208.157669	0.061
208.166855	0.078
223.048019	0.043
223.062927	0.089
223.092209	0.618
223.103912	0.405
223.144119	100.0
223.184814	0.674
223.195465	0.731
223.210602	0.281
223.225021	0.14
223.239243	0.076
223.254654	0.08
END IONS

BEGIN IONS
PEPMASS=604.312
CHARGE=1
MSLEVEL=2
SOURCE_INSTRUMENT=ESI-Orbitrap
FILENAME=gnps_msn_lib_pos.mgf
SEQ=*..*
IONMODE=Positive
ORGANISM=MSNLIB-POSITIVE
NAME=Benzoylaconine [M+H]+
PI=Tomas Pluskal
DATACOLLECTOR=Corinna Brungs
SMILES=CCN1C[C@]2(COC)[C@H](O)C[C@H](OC)[C@]34C1[C@H]([C@H](OC)[C@H]23)[C@]1(O)[C@H]2[C@@H](OC(=O)c3ccccc3)[C@](O)(C[C@H]24)[C@@H](OC)[C@@H]1O
INCHI=InChI=1S/C32H45NO10/c1-6-33-14-29(15-39-2)18(34)12-19(40-3)31-17-13-30(37)26(43-28(36)16-10-8-7-9-11-16)20(17)32(38,25(35)27(30)42-5)21(24(31)33)22(41-4)23(29)31/h7-11,17-27,34-35,37-38H,6,12-15H2,1-5H3/t17-,18-,19+,20-,21+,22+,23-,24?,25+,26-,27+,29+,30-,31+,32-/m1/s1
INCHIAUX=DHJXZSFKLJCHLH-KYSNEVMMSA-N
PUBMED=N/A
SUBMITUSER=jzemlin
LIBRARYQUALITY=1
SPECTRUMID=CCMSLIB00012280966
USI=mzspec:GNPS:MSNLIB-POSITIVE:accession:CCMSLIB00012280966
SCANS=6665
41.038628	0.681
50.015133	2.888
51.022942	91.475998
53.038593	5.343
56.049313	3.059
58.064957	12.504
63.02293	1.042
65.038567	0.936
67.05426	0.736
74.015091	0.657
75.043861	2.144
77.038521	68.758003
79.053917	1.873
84.080673	1.788
85.028152	2.718
89.038536	1.103
94.065041	1.389
95.049065	73.082001
102.046356	1.069
105.033363	100.0
105.0448	13.039
105.069786	2.645
108.080444	2.625
109.064743	1.566
115.054169	4.662
122.09623	2.101
125.023201	1.978
129.06955	2.379
141.070129	1.558
146.096008	1.388
152.10675	2.73
155.085327	2.551
159.080704	1.665
165.069733	1.362
167.085327	2.16
172.112778	1.36
179.085999	1.924
184.112366	1.568
185.096451	1.388
190.122421	1.693
205.101578	1.768
209.096542	1.327
233.096039	1.423
604.314087	8.015
END IONS

BEGIN IONS
PEPMASS=403.248
CHARGE=1
MSLEVEL=2
SOURCE_INSTRUMENT=ESI-Orbitrap
FILENAME=gnps_msn_lib_pos.mgf
SEQ=*..*
IONMODE=Positive
ORGANISM=MSNLIB-POSITIVE
NAME=Telocinobufagin [M+H]+
PI=Tomas Pluskal
DATACOLLECTOR=Corinna Brungs
SMILES=C[C@]12CC[C@H](O)C[C@@]1(O)CC[C@@H]1[C@@H]2CC[C@]2(C)[C@@H](c3coc(=O)cc3)CC[C@]12O
INCHI=InChI=1S/C24H34O5/c1-21-9-5-16(25)13-23(21,27)11-7-19-18(21)6-10-22(2)17(8-12-24(19,22)28)15-3-4-20(26)29-14-15/h3-4,14,16-19,25,27-28H,5-13H2,1-2H3/t16-,17+,18-,19+,21+,22+,23-,24-/m0/s1
INCHIAUX=PBSOJKPTQWWJJD-ZBDZJSKLSA-N
PUBMED=N/A
SUBMITUSER=jzemlin
LIBRARYQUALITY=1
SPECTRUMID=CCMSLIB00012282257
USI=mzspec:GNPS:MSNLIB-POSITIVE:accession:CCMSLIB00012282257
SCANS=7956
46.99509	4.423
61.010643	13.104
62.018482	7.177
65.038582	3.002
67.054077	14.266
70.064949	13.443
72.937103	85.481003
74.932793	11.357
78.046379	3.02
79.05407	24.504
81.069687	38.323002
84.044174	8.692
86.096252	10.53
87.906441	11.125
90.947655	3.517
91.054176	21.111
93.069695	29.403999
95.04911	5.542
95.08535	19.292
96.044243	8.062
102.046364	5.126
103.054161	3.288
105.069824	33.782001
107.085365	30.156
115.054207	14.418
116.061966	3.464
117.069824	9.405
117.917015	4.44
119.085503	27.716
120.080681	9.275
121.101044	15.171
123.02417	10.59
126.046326	8.753
128.062042	12.546
129.069824	11.044
131.085373	19.202
133.10112	20.649
135.044052	6.473
137.923294	30.868
139.054214	5.05
141.069962	6.272
143.085663	15.29
144.09343	5.088
145.101242	25.164
147.08049	8.906
147.11676	27.608999
150.046448	14.091
151.054276	6.917
152.062042	64.494003
152.946762	72.853996
153.069901	50.730999
155.933853	12.979
156.093353	5.981
157.10112	16.339001
159.080383	7.904
159.116852	44.433998
161.096024	6.902
161.132523	28.440001
162.046677	3.27
163.054245	13.114
164.062103	11.508
165.053955	6.479
165.069962	63.484001
166.866547	5.305
169.101532	7.965
170.957474	28.761999
171.080399	5.463
171.116943	24.313999
173.131683	10.298
176.062256	9.722
177.070282	3.655
178.077911	24.320999
179.085876	6.777
183.116714	8.154
185.132858	14.125
187.148193	8.799
191.106812	6.355
197.13298	9.406
199.148575	12.44
211.148056	6.62
213.164185	10.92
215.179688	12.198
227.180084	7.507
241.124023	6.712
253.195435	16.172001
264.944275	6.956
271.207672	7.007
324.946564	8.096
349.2164	11.049
367.227295	7.189
403.247772	100.0
END IONS

BEGIN IONS
PEPMASS=500.285
CHARGE=1
MSLEVEL=2
SOURCE_INSTRUMENT=ESI-Orbitrap
FILENAME=gnps_msn_lib_pos.mgf
SEQ=*..*
IONMODE=Positive
ORGANISM=MSNLIB-POSITIVE
NAME=Aconine [M+H]+
PI=Tomas Pluskal
DATACOLLECTOR=Corinna Brungs
SMILES=CCN1C[C@]2(COC)[C@H](O)C[C@H](OC)[C@]34C1[C@H]([C@H](OC)[C@H]23)[C@]1(O)[C@H]2[C@@H](O)[C@](O)(C[C@H]24)[C@@H](OC)[C@@H]1O
INCHI=InChI=1S/C25H41NO9/c1-6-26-9-22(10-32-2)12(27)7-13(33-3)24-11-8-23(30)19(28)14(11)25(31,20(29)21(23)35-5)15(18(24)26)16(34-4)17(22)24/h11-21,27-31H,6-10H2,1-5H3/t11-,12-,13+,14-,15+,16+,17-,18?,19-,20+,21+,22+,23-,24+,25-/m1/s1
INCHIAUX=SQMGCPHFHQGPIF-JIOYIOPFSA-N
PUBMED=N/A
SUBMITUSER=jzemlin
LIBRARYQUALITY=1
SPECTRUMID=CCMSLIB00012298003
USI=mzspec:GNPS:MSNLIB-POSITIVE:accession:CCMSLIB00012298003
SCANS=16846
56.049309	8.33
58.064945	37.804001
65.03862	1.709
75.043747	6.061
77.038551	1.873
78.046402	2.055
84.080559	4.043
85.028114	6.612
87.022888	2.132
89.038528	1.715
93.057274	6.373
94.065071	2.949
95.04908	3.443
102.046349	6.229
107.049057	3.607
108.080635	4.408
111.022896	1.828
113.038597	1.743
115.054184	7.068
117.07019	3.571
121.088562	2.835
122.096298	3.464
124.075668	3.352
125.023201	7.621
126.046326	9.941
127.054169	1.843
128.06192	3.024
129.069595	5.795
139.054184	8.244
141.069778	4.633
143.085556	5.006
145.064774	2.612
150.046356	13.085
151.05426	6.746
152.062012	93.516998
152.106873	21.124001
153.069839	42.23
154.065155	2.843
155.08548	7.02
156.080902	1.897
159.080765	3.932
161.038635	4.879
162.046448	5.492
163.054184	16.184
164.062119	6.471
165.069901	42.323002
166.065125	4.086
166.077744	9.041
167.073013	9.783
167.085556	36.101002
168.057037	2.391
168.080795	6.303
169.064819	5.744
170.096512	1.808
171.080551	3.779
172.111725	4.022
174.046478	3.565
176.062119	22.351
177.069946	11.171
178.077759	64.165001
178.122787	2.54
179.085526	51.112999
180.080795	9.199
180.093307	3.235
181.064804	5.36
181.088715	1.851
181.101395	5.593
182.096436	1.963
184.112015	2.353
185.038635	2.623
185.096085	4.318
186.046478	4.028
187.054245	25.275
188.062088	21.382
189.069901	100.0
190.06514	2.9
190.077744	6.271
191.08577	2.133
193.101257	5.325
195.08078	4.056
197.096405	4.427
198.04657	2.079
199.054443	1.642
200.062241	7.783
201.070084	2.784
202.07785	11.311
203.085571	5.586
204.080872	2.623
204.09346	6.188
205.06488	3.794
205.101303	21.355
206.07283	3.322
206.096954	1.666
207.080521	1.982
209.096542	5.065
213.070084	4.281
215.085785	10.393
217.101837	3.51
221.096817	3.782
233.096451	3.943
251.106049	3.644
418.224243	3.716
450.248901	8.861
500.285126	72.248001
END IONS

BEGIN IONS
PEPMASS=557.755
CHARGE=1
MSLEVEL=2
SOURCE_INSTRUMENT=ESI-Orbitrap
FILENAME=gnps_msn_lib_pos.mgf
SEQ=*..*
IONMODE=Positive
ORGANISM=MSNLIB-POSITIVE
NAME=Acetrizoic acid [M+H]+
PI=Tomas Pluskal
DATACOLLECTOR=Corinna Brungs
SMILES=CC(=O)Nc1c(I)cc(I)c(C(=O)O)c1I
INCHI=InChI=1S/C9H6I3NO3/c1-3(14)13-8-5(11)2-4(10)6(7(8)12)9(15)16/h2H,1H3,(H,13,14)(H,15,16)
INCHIAUX=GNOGSFBXBWBTIG-UHFFFAOYSA-N
PUBMED=N/A
SUBMITUSER=jzemlin
LIBRARYQUALITY=1
SPECTRUMID=CCMSLIB00012301625
USI=mzspec:GNPS:MSNLIB-POSITIVE:accession:CCMSLIB00012301625
SCANS=18148
91.041641	16.658001
133.052185	100.0
303.947327	36.777
END IONS

BEGIN IONS
PEPMASS=403.248
CHARGE=1
MSLEVEL=2
SOURCE_INSTRUMENT=ESI-Orbitrap
FILENAME=gnps_msn_lib_pos.mgf
SEQ=*..*
IONMODE=Positive
ORGANISM=MSNLIB-POSITIVE
NAME=Gamabufotalin [M+H]+
PI=Tomas Pluskal
DATACOLLECTOR=Corinna Brungs
SMILES=C[C@]12CC[C@H](O)C[C@H]1CC[C@@H]1[C@@H]2[C@H](O)C[C@]2(C)[C@@H](c3coc(=O)cc3)CC[C@]12O
INCHI=InChI=1S/C24H34O5/c1-22-9-7-16(25)11-15(22)4-5-18-21(22)19(26)12-23(2)17(8-10-24(18,23)28)14-3-6-20(27)29-13-14/h3,6,13,15-19,21,25-26,28H,4-5,7-12H2,1-2H3/t15-,16+,17-,18-,19-,21-,22+,23-,24+/m1/s1
INCHIAUX=FMTLOAVOGWSPEF-KJRPADTMSA-N
PUBMED=N/A
SUBMITUSER=jzemlin
LIBRARYQUALITY=1
SPECTRUMID=CCMSLIB00012335107
USI=mzspec:GNPS:MSNLIB-POSITIVE:accession:CCMSLIB00012335107
SCANS=33668
51.022949	17.992001
63.022873	7.311
65.038551	23.016001
67.054054	23.395
77.038551	18.958
79.054092	34.972
81.069702	33.806999
89.038544	10.283
91.054176	32.405998
93.069786	38.617001
95.049156	16.59
95.085358	29.124001
102.046371	7.087
105.069801	48.063
107.049164	5.091
107.085442	55.164001
109.101128	12.078
115.054214	44.763
117.069817	10.575
119.085533	22.846001
121.101212	14.786
126.046394	7.211
128.062088	6.393
129.069839	15.432
130.077728	12.393
131.085526	37.252998
133.101318	28.974001
135.11673	12.757
139.054062	5.565
143.085571	17.754999
145.064758	7.139
145.101135	79.071999
147.080811	11.428
147.11702	22.416
150.046417	20.365
151.05423	8.388
152.062073	78.128998
153.069824	14.58
157.101028	18.624001
159.080353	12.701
159.116867	54.554001
161.095551	12.248
161.132797	14.514
163.05426	12.709
164.062088	13.183
165.069962	62.243
169.100845	9.775
171.116989	12.936
173.132675	12.976
197.133209	12.506
403.249969	100.0
END IONS

BEGIN IONS
PEPMASS=445.258
CHARGE=1
MSLEVEL=2
SOURCE_INSTRUMENT=ESI-Orbitrap
FILENAME=gnps_msn_lib_pos.mgf
SEQ=*..*
IONMODE=Positive
ORGANISM=MSNLIB-POSITIVE
NAME=Bufotalin [M+H]+
PI=Tomas Pluskal
DATACOLLECTOR=Corinna Brungs
SMILES=CC(=O)O[C@H]1C[C@]2(O)[C@@H]3CC[C@@H]4C[C@@H](O)CC[C@]4(C)[C@H]3CC[C@]2(C)[C@H]1c1coc(=O)cc1
INCHI=InChI=1S/C26H36O6/c1-15(27)32-21-13-26(30)20-6-5-17-12-18(28)8-10-24(17,2)19(20)9-11-25(26,3)23(21)16-4-7-22(29)31-14-16/h4,7,14,17-21,23,28,30H,5-6,8-13H2,1-3H3/t17-,18+,19+,20-,21+,23+,24+,25-,26+/m1/s1
INCHIAUX=VOZHMAYHYHEWBW-NVOOAVKYSA-N
PUBMED=N/A
SUBMITUSER=jzemlin
LIBRARYQUALITY=1
SPECTRUMID=CCMSLIB00012338771
USI=mzspec:GNPS:MSNLIB-POSITIVE:accession:CCMSLIB00012338771
SCANS=35496
55.054123	25.902
55.934395	27.584999
56.942234	23.253
67.054161	34.945999
68.049461	33.009998
69.057251	23.304001
70.065048	54.403
72.937088	32.714001
79.053963	49.622002
81.069618	49.241001
91.054138	54.089001
93.057274	33.347
93.06971	70.632004
94.065117	19.983999
95.085297	34.381001
105.069679	87.992996
106.065094	25.971001
107.048782	27.881001
107.085449	58.985001
119.085411	68.219002
131.085526	76.428001
133.10112	30.841
141.994995	21.915001
143.085724	30.921
145.100983	41.425999
147.11673	48.049
150.000092	35.068001
150.95105	13.159
150.983917	11.238
151.038849	31.334
157.989868	74.478996
159.080414	32.140999
159.116974	37.658001
161.132507	72.109001
163.054153	22.548
164.062149	15.58
165.070007	79.138
165.995117	100.0
173.132263	22.617001
175.148529	33.535999
181.990234	36.426998
185.98494	11.555
201.090454	22.538
223.016647	69.986
235.053986	20.704
241.123123	34.000999
241.191406	26.632
245.037659	92.521004
246.995514	60.125
261.032532	64.014999
265.006165	53.766998
279.04364	35.356998
306.999298	48.373001
323.052124	78.169998
349.217133	98.321999
367.042114	50.549
367.227142	51.66
445.260376	54.903999
END IONS

BEGIN IONS
PEPMASS=459.238
CHARGE=1
MSLEVEL=2
SOURCE_INSTRUMENT=ESI-Orbitrap
FILENAME=gnps_msn_lib_pos.mgf
SEQ=*..*
IONMODE=Positive
ORGANISM=MSNLIB-POSITIVE
NAME=Cinobufotalin [M+H]+
PI=Tomas Pluskal
DATACOLLECTOR=Corinna Brungs
SMILES=CC(=O)O[C@H]1[C@H]2O[C@]23[C@@H]2CC[C@]4(O)C[C@@H](O)CC[C@]4(C)[C@H]2CC[C@]3(C)[C@H]1c1coc(=O)cc1
INCHI=InChI=1S/C26H34O7/c1-14(27)32-21-20(15-4-5-19(29)31-13-15)24(3)10-7-17-18(26(24)22(21)33-26)8-11-25(30)12-16(28)6-9-23(17,25)2/h4-5,13,16-18,20-22,28,30H,6-12H2,1-3H3/t16-,17-,18+,20-,21+,22+,23+,24+,25-,26+/m0/s1
INCHIAUX=KBKUJJFDSHBPPA-ZNCGZLKOSA-N
PUBMED=N/A
SUBMITUSER=jzemlin
LIBRARYQUALITY=1
SPECTRUMID=CCMSLIB00012353413
USI=mzspec:GNPS:MSNLIB-POSITIVE:accession:CCMSLIB00012353413
SCANS=42764
79.054008	89.446999
81.069656	61.113998
91.054085	73.351997
95.049225	47.648998
105.069511	92.745003
107.04924	47.084999
107.085625	53.235001
119.08535	57.639
131.085617	59.759998
145.101852	47.383999
147.080048	53.694
157.101578	48.654999
201.164261	92.093002
261.001678	88.976997
363.197784	68.888
459.239929	100.0
END IONS

BEGIN IONS
PEPMASS=756.417
CHARGE=1
MSLEVEL=2
SOURCE_INSTRUMENT=ESI-Orbitrap
FILENAME=gnps_msn_lib_pos.mgf
SEQ=*..*
IONMODE=Positive
ORGANISM=MSNLIB-POSITIVE
NAME=NCGC00385745-01 [M+NH4]+
PI=Tomas Pluskal
DATACOLLECTOR=Corinna Brungs
SMILES=COC1CC(OC2CCC3(C)C(CCC4C3CCC3(C)C(C5=CC(=O)OC5)C(OC(C)=O)CC43O)C2)OC(C)C1OC1OC(CO)C(O)C(O)C1O
INCHI=InChI=1S/C38H58O14/c1-18-34(52-35-33(44)32(43)31(42)27(16-39)51-35)25(46-5)14-29(48-18)50-22-8-10-36(3)21(13-22)6-7-24-23(36)9-11-37(4)30(20-12-28(41)47-17-20)26(49-19(2)40)15-38(24,37)45/h12,18,21-27,29-35,39,42-45H,6-11,13-17H2,1-5H3
INCHIAUX=ITYAEKHTQKSNBZ-UHFFFAOYSA-N
PUBMED=N/A
SUBMITUSER=jzemlin
LIBRARYQUALITY=1
SPECTRUMID=CCMSLIB00012449186
USI=mzspec:GNPS:MSNLIB-POSITIVE:accession:CCMSLIB00012449186
SCANS=97934
41.038647	6.143
43.017906	19.062
45.03355	8.904
48.138119	1.688
48.140915	2.595
53.038593	0.834
55.054211	1.448
57.033443	3.138
57.069782	2.694
59.049046	5.75
65.038521	2.26
67.054115	16.764
69.033363	8.607
69.069832	0.656
71.048988	9.549
79.054092	4.189
81.033211	1.394
81.069725	4.86
83.049088	2.402
83.085335	0.647
85.028206	9.147
85.064575	11.477
87.043846	2.431
91.054138	7.16
93.069778	7.17
95.049026	13.699
95.085304	3.558
97.028252	2.757
97.064774	2.72
105.069763	10.531
107.085411	5.77
109.101097	2.52
113.059593	99.189003
113.073174	1.387
117.069763	3.209
119.085426	6.691
121.064835	0.748
121.101143	3.12
128.061935	1.167
129.069839	3.773
131.085312	5.824
133.10112	3.901
135.116699	2.577
137.059708	0.772
141.069809	1.541
142.077591	1.281
143.085526	5.085
145.049759	6.114
145.085907	55.231998
145.101166	4.36
147.080414	1.411
147.116745	5.288
149.132431	2.322
152.06192	0.928
155.085449	3.685
156.093079	0.69
157.064606	0.626
157.101135	4.076
159.080185	0.868
159.11676	4.678
161.095993	0.674
161.132446	6.845
163.059753	2.126
163.075134	0.923
167.085556	1.4
168.09346	1.173
169.101242	3.056
171.117004	1.732
173.132462	1.882
175.075455	4.806
175.148178	1.142
177.091064	1.111
181.101349	2.195
183.116974	3.568
185.096085	0.883
185.132706	2.261
187.075272	0.778
187.111832	0.628
187.148239	0.959
189.075745	7.694
189.091034	2.777
191.106842	0.68
193.085999	1.376
193.101257	1.033
195.116867	2.07
197.132507	2.112
199.111649	0.713
199.148224	2.344
201.09111	0.934
201.164139	1.112
203.10704	1.449
207.11673	0.75
209.096375	0.743
209.132385	1.657
211.11235	1.292
211.148239	1.355
213.091202	0.616
213.127365	0.658
213.163666	1.155
215.106796	1.075
215.179581	2.612
217.122269	1.104
221.132614	0.951
225.164001	0.847
227.106873	5.605
227.14325	0.622
229.122406	6.985
231.138	0.917
235.148224	1.195
241.122375	2.586
243.138153	1.852
247.133377	0.654
249.163971	0.882
251.179367	0.915
253.195007	2.021
255.138046	2.685
257.101532	1.35
257.153076	0.713
269.153595	0.905
275.112274	2.969
277.195099	1.712
281.15387	1.147
281.226379	0.781
291.210938	2.676
295.169586	0.739
309.221252	1.791
319.206207	2.914
324.165588	2.944
337.216248	17.527
355.226929	16.098
373.23761	56.726002
415.248993	2.573
433.258545	100.0
END IONS

BEGIN IONS
PEPMASS=563.222
CHARGE=1
MSLEVEL=2
SOURCE_INSTRUMENT=ESI-Orbitrap
FILENAME=gnps_msn_lib_pos_second_batch.mgf
SEQ=*..*
IONMODE=Positive
ORGANISM=MSNLIB-POSITIVE
NAME=thiamine disulfide [M+H]+
PI=Tomas Pluskal
DATACOLLECTOR=Corinna Brungs
SMILES=C/C(=C(/CCO)SS/C(CCO)=C(\C)N(C=O)Cc1cnc(C)nc1N)N(C=O)Cc1cnc(C)nc1N
INCHI=InChI=1S/C24H34N8O4S2/c1-15(31(13-35)11-19-9-27-17(3)29-23(19)25)21(5-7-33)37-38-22(6-8-34)16(2)32(14-36)12-20-10-28-18(4)30-24(20)26/h9-10,13-14,33-34H,5-8,11-12H2,1-4H3,(H2,25,27,29)(H2,26,28,30)/b21-15+,22-16+
INCHIAUX=GFEGEDUIIYDMOX-YHARCJFQSA-N
PUBMED=N/A
SUBMITUSER=jzemlin
LIBRARYQUALITY=1
SPECTRUMID=CCMSLIB00013052194
USI=mzspec:GNPS:MSNLIB-POSITIVE:accession:CCMSLIB00013052194
SCANS=103208
40.018169	0.443
41.038574	2.301
42.033817	18.722
43.01783	1.228
43.029072	0.751
44.979324	0.413
52.01812	0.905
54.033764	22.27
55.017864	0.18
55.041592	24.263
56.049408	4.067
58.994904	0.362
59.060291	1.399
64.018074	0.345
66.033707	11.441
69.044586	17.478001
71.060234	0.688
80.049385	0.713
81.044678	3.478
82.05246	10.198
83.060272	5.538
84.044289	8.446
85.010551	0.798
85.06488	0.474
87.99762	0.212
93.044647	3.339
95.06028	0.532
96.055862	0.804
96.068138	0.253
97.010559	0.246
97.075912	0.281
99.026161	0.188
100.021484	0.554
105.044632	0.185
106.039925	0.217
107.060303	12.303
108.05555	0.668
110.063805	0.522
110.071152	59.223
110.074318	0.755
110.079018	0.476
112.021454	1.409
113.029221	0.208
115.021141	3.193
120.055573	0.236
122.071259	9.007
122.081604	0.342
123.058258	0.478
123.070374	0.713
123.079048	51.578999
123.081367	0.288
123.084259	0.391
123.088364	0.36
124.077812	0.51
124.0868	100.0
124.089661	1.546
124.092155	1.107
124.096161	0.869
124.10305	0.64
124.107597	0.583
126.037125	0.463
127.044937	0.342
131.060303	0.254
132.055573	0.298
133.063354	0.795
134.071152	0.6
137.082626	4.774
139.098038	1.591
144.048065	4.51
145.075623	0.172
146.071167	1.249
147.066391	1.275
147.078979	4.03
148.074234	0.441
148.086761	0.186
149.082062	2.01
150.036911	0.214
151.01976	0.446
154.043488	0.646
155.039719	0.173
158.071182	1.031
159.078979	0.358
160.086838	0.257
162.090195	0.312
164.027481	0.467
164.040176	0.169
165.035553	0.394
165.048019	0.251
167.092621	2.504
170.071259	0.231
171.078995	0.186
172.086914	0.727
173.082138	2.174
173.541855	1.384
174.024628	0.217
174.102951	0.309
175.03241	0.712
176.040115	0.217
178.030685	1.084
183.07901	0.211
184.0867	0.209
185.082092	0.406
187.097427	0.169
189.047867	0.18
190.043152	0.753
191.05101	0.723
192.058823	0.631
195.058502	0.173
198.089905	0.162
199.097672	6.623
200.105545	1.365
201.113434	0.227
204.058792	0.226
204.113968	2.024
207.05835	0.225
211.097839	0.376
212.105606	0.411
213.11351	0.297
215.050964	0.376
216.058914	1.33
217.054062	0.475
218.062057	0.201
219.069885	0.882
221.140015	3.275
222.069427	0.572
223.101486	0.428
231.069733	1.956
231.123917	0.684
232.07756	5.508
233.08551	5.338
234.093216	0.678
245.085358	1.242
246.092987	0.305
247.101288	0.693
249.080124	0.381
249.134354	1.908
253.111801	2.585
254.119049	0.916
263.079193	0.245
263.095734	35.258999
263.112152	0.215
264.103516	10.621
265.11145	4.381
281.106903	2.26
282.114288	1.615
283.122284	5.344
442.157471	0.441
545.212341	0.599
563.225037	2.665
END IONS

BEGIN IONS
PEPMASS=256.206
CHARGE=1
MSLEVEL=2
SOURCE_INSTRUMENT=ESI-Orbitrap
FILENAME=gnps_msn_lib_pos_second_batch.mgf
SEQ=*..*
IONMODE=Positive
ORGANISM=MSNLIB-POSITIVE
NAME=Dimemorfan [M+H]+
PI=Tomas Pluskal
DATACOLLECTOR=Corinna Brungs
SMILES=Cc1cc2c(cc1)C[C@H]1[C@H]3CCCC[C@@]23CCN1C
INCHI=InChI=1S/C18H25N/c1-13-6-7-14-12-17-15-5-3-4-8-18(15,16(14)11-13)9-10-19(17)2/h6-7,11,15,17H,3-5,8-10,12H2,1-2H3/t15-,17+,18+/m1/s1
INCHIAUX=KBEZZLAAKIIPFK-NJAFHUGGSA-N
PUBMED=N/A
SUBMITUSER=jzemlin
LIBRARYQUALITY=1
SPECTRUMID=CCMSLIB00013065615
USI=mzspec:GNPS:MSNLIB-POSITIVE:accession:CCMSLIB00013065615
SCANS=106446
41.038559	0.234
44.049435	6.852
44.051731	0.179
49.283218	0.099
50.015079	0.604
51.022888	0.786
52.030724	0.136
53.038528	0.455
55.054131	0.826
58.065048	0.317
62.014973	0.175
63.022839	0.885
65.038483	5.046
67.054077	0.995
69.069756	2.484
74.014999	1.515
75.022842	0.981
76.030663	1.598
77.038475	0.672
78.046318	3.073
79.054085	0.452
81.069717	1.193
83.085442	0.334
86.015015	0.331
87.022835	0.578
89.038475	1.549
91.054131	18.351
91.056854	0.207
92.061951	0.169
95.049065	2.586
95.085335	0.654
98.01503	2.833
99.022842	1.102
100.03067	0.707
101.038475	0.099
102.046318	5.188
103.054115	0.388
105.044647	0.462
105.069771	2.406
110.015022	0.418
111.02285	0.62
113.038467	0.111
115.051773	0.1
115.054146	10.117
115.056419	0.126
116.061966	7.761
117.069786	0.211
119.049057	0.203
119.085365	0.898
119.99929	0.232
121.007111	0.444
122.014999	2.91
123.022804	1.085
124.03067	0.509
125.038475	0.48
126.046303	6.199
127.054131	2.054
128.056396	0.157
128.061935	21.707001
128.066299	0.262
129.044617	0.209
129.069778	6.802
130.077576	0.182
131.07962	0.246
131.085434	37.401001
131.087921	0.331
131.091187	0.222
131.094513	0.213
133.064758	0.385
139.054169	2.254
140.061981	1.049
141.069794	5.635
142.077591	4.802
143.049164	0.172
143.085403	26.893999
143.088165	0.184
143.091995	0.221
145.064713	4.23
145.10112	0.743
149.038437	0.353
150.04277	0.092
150.046295	9.11
151.054092	0.956
152.052643	0.112
152.054718	0.294
152.061905	41.719002
152.065018	0.329
152.068558	0.375
153.0625	0.158
153.069733	23.121
153.074509	0.107
154.077591	5.317
155.060257	2.354
155.075699	0.223
155.077896	0.461
155.081619	0.097
155.085373	67.152
155.092667	0.505
155.094925	0.141
155.097214	0.124
155.114914	0.356
156.093307	0.262
157.101044	4.638
161.038437	0.15
163.054123	0.309
164.062042	0.221
165.06987	0.92
167.08551	0.72
168.093384	0.382
169.10112	1.135
171.116806	0.301
181.101074	0.17
182.108917	0.889
183.11676	1.691
184.124161	0.188
195.11673	0.127
196.124756	0.093
197.118713	0.154
197.121719	0.319
197.123825	0.286
197.132355	45.570999
197.141052	0.135
197.143158	0.319
199.142578	0.1
199.147995	14.003
225.163635	0.544
256.141937	0.739
256.155151	0.389
256.205658	100.0
256.256104	0.651
256.268677	0.704
256.286469	0.285
END IONS

BEGIN IONS
PEPMASS=987.481
CHARGE=1
MSLEVEL=2
SOURCE_INSTRUMENT=ESI-Orbitrap
FILENAME=gnps_msn_lib_neg.mgf
SEQ=*..*
IONMODE=Negative
ORGANISM=MSNLIB-NEGATIVE
NAME=deslanoside [M+FA]-
PI=Tomas Pluskal
DATACOLLECTOR=Corinna Brungs
SMILES=C[C@H]1O[C@@H](O[C@H]2CC[C@@]3(C)[C@H](CC[C@@H]4[C@@H]3C[C@@H](O)[C@]3(C)[C@@H](C5=CC(=O)OC5)CC[C@]43O)C2)C[C@H](O)[C@@H]1O[C@H]1C[C@H](O)[C@H](O[C@H]2C[C@H](O)[C@H](O[C@@H]3O[C@H](CO)[C@@H](O)[C@H](O)[C@H]3O)[C@@H](C)O2)[C@@H](C)O1
INCHI=InChI=1S/C47H74O19/c1-20-41(64-36-16-30(50)42(21(2)60-36)65-37-17-31(51)43(22(3)61-37)66-44-40(56)39(55)38(54)32(18-48)63-44)29(49)15-35(59-20)62-25-8-10-45(4)24(13-25)6-7-27-28(45)14-33(52)46(5)26(9-11-47(27,46)57)23-12-34(53)58-19-23/h12,20-22,24-33,35-44,48-52,54-57H,6-11,13-19H2,1-5H3/t20-,21-,22-,24-,25+,26-,27-,28+,29+,30+,31+,32-,33-,35+,36+,37+,38-,39+,40-,41-,42-,43-,44+,45+,46+,47+/m1/s1
INCHIAUX=OBATZBGFDSVCJD-LALPQLPRSA-N
PUBMED=N/A
SUBMITUSER=jzemlin
LIBRARYQUALITY=1
SPECTRUMID=CCMSLIB00012308400
USI=mzspec:GNPS:MSNLIB-NEGATIVE:accession:CCMSLIB00012308400
SCANS=13218
59.01355	4.988
65.039154	8.425
71.013374	26.855
73.028999	9.776
81.034195	7.325
83.013443	6.955
83.049767	14.194
85.029037	100.0
93.034096	12.235
101.024071	13.345
111.044731	20.134001
113.023903	5.489
135.081177	6.057
161.044983	14.352
309.220795	7.798
327.231781	13.58
345.241638	19.476
439.287354	6.648
779.422546	19.101999
941.471313	82.966003
END IONS

BEGIN IONS
PEPMASS=579.281
CHARGE=1
MSLEVEL=2
SOURCE_INSTRUMENT=ESI-Orbitrap
FILENAME=gnps_msn_lib_neg.mgf
SEQ=*..*
IONMODE=Negative
ORGANISM=MSNLIB-NEGATIVE
NAME=NCGC00384917-01 [M+FA]-
PI=Tomas Pluskal
DATACOLLECTOR=Corinna Brungs
SMILES=C[C@H]1O[C@@H](O[C@H]2CC[C@]3(C=O)C4CC[C@]5(C)[C@@H](C6=CC(=O)OC6)CC[C@]5(O)[C@@H]4CC[C@]3(O)C2)C[C@@H](O)[C@@H]1O
INCHI=InChI=1S/C29H42O9/c1-16-25(33)22(31)12-24(37-16)38-18-3-8-27(15-30)20-4-7-26(2)19(17-11-23(32)36-14-17)6-10-29(26,35)21(20)5-9-28(27,34)13-18/h11,15-16,18-22,24-25,31,33-35H,3-10,12-14H2,1-2H3/t16-,18+,19-,20?,21-,22-,24+,25-,26-,27+,28+,29+/m1/s1
INCHIAUX=QBILRDAMJUPXCX-AVTCYDJSSA-N
PUBMED=N/A
SUBMITUSER=jzemlin
LIBRARYQUALITY=1
SPECTRUMID=CCMSLIB00012432397
USI=mzspec:GNPS:MSNLIB-NEGATIVE:accession:CCMSLIB00012432397
SCANS=76005
41.003075	8.957
44.997822	100.0
59.013512	11.791
71.050117	21.409
72.053459	4.406
83.050095	5.525
85.029381	7.829
97.029427	16.794001
99.045097	8.651
112.985176	8.474
127.039726	65.68
128.043015	21.638
129.044266	9.628
135.081451	6.476
179.071121	3.915
341.209534	3.778
385.199524	63.139999
403.20697	7.173
405.215546	11.356
533.270935	7.659
579.279663	77.197998
END IONS

BEGIN IONS
PEPMASS=128.143
CHARGE=1
MSLEVEL=2
SOURCE_INSTRUMENT=ESI-Orbitrap
FILENAME=output_folder/converted_library.mgf
SEQ=*..*
IONMODE=Positive
ORGANISM=WFSR-LIBRARY
NAME=Coniine_CE15 M+H
PI=Federico Padilla-Gonzalez
DATACOLLECTOR="Sjors Rasker, Wout Bergkamp"
SMILES=CCCC1CCCCN1
INCHI="InChI=1S/C8H17N/c1-2-5-8-6-3-4-7-9-8/h8-9H,2-7H2,1H3"
INCHIAUX=N/A
PUBMED=N/A
SUBMITUSER=jzemlin
LIBRARYQUALITY=1
SPECTRUMID=CCMSLIB00013936915
USI=mzspec:GNPS:WFSR-LIBRARY:accession:CCMSLIB00013936915
SCANS=3134
41.038601	9390.230469
52.9174	6909.350098
52.9179	3131.850098
52.918701	4921.549805
52.9193	4133.02002
55.053902	119137.882812
56.049599	6211.089844
57.069599	14060.299805
67.054001	5370.660156
69.069504	996431.9375
69.073799	22703.990234
72.055397	5925.02002
82.064796	21670.939453
83.085098	26415.189453
84.044098	3149.629883
86.0597	8404.620117
100.075302	44205.46875
110.031403	23166.939453
110.0597	24631.509766
111.043701	5316.970215
111.116402	87498.648438
127.783501	8974.360352
128.043594	40055.878906
128.070206	130971.296875
128.080994	12222.240234
128.106598	17977.369141
128.143005	8957202.0
128.504395	8696.860352
END IONS

BEGIN IONS
PEPMASS=338.197
CHARGE=1
MSLEVEL=2
SOURCE_INSTRUMENT=LC-ESI-ToF
FILENAME=reframe_merged.mgf
SEQ=*..*
IONMODE=Positive
ORGANISM=GNPS-REFRAME-DRUG-CCS-LIBRARY
NAME=Propanidid [CCS=195.956] [M+H]+
PI=Pieter Dorrestein
DATACOLLECTOR=victoriadeleray
SMILES=CCCOC(=O)Cc1cc(OC)c(OCC(=O)N(CC)CC)cc1
INCHI=NA
INCHIAUX=NA
PUBMED=NA
SUBMITUSER=jzemlin
LIBRARYQUALITY=1
SPECTRUMID=CCMSLIB00016264503
USI=mzspec:GNPS:GNPS-REFRAME-DRUG-CCS-LIBRARY:accession:CCMSLIB00016264503
SCANS=562
23.48727	24.5697
39.034985	68.584694
41.047169	66.040962
43.026623	461.92514
43.062675	178.091721
44.021404	772.661072
44.057854	1848.575317
46.071957	48.400658
56.055191	70.47123
58.070606	8571.740234
58.080425	20.00095
65.042747	104.593765
67.058357	46.323662
72.047981	3711.509277
72.084549	2279.26416
72.122971	13.471251
72.655037	17.045336
74.100014	1418.467896
74.10453	87.240211
75.108513	24.805363
77.042061	680.796814
79.057648	568.275391
86.062492	1901.669312
86.068283	14.030533
86.098877	1260.681152
86.10453	102.729523
87.060127	14.82863
91.056061	934.56604
93.071396	204.139328
94.043449	99.555168
97.066925	28.219973
100.077225	3336.389648
100.083878	15.937622
100.089729	12.141876
103.054794	125.002853
105.034798	101.44455
105.046852	20.388355
106.042213	527.105103
111.081039	50.251934
114.092598	436.510925
115.100258	940.835876
117.033401	34.822742
119.048813	126.883911
121.065514	2459.095459
122.037025	418.155914
123.081406	76.397224
124.053116	92.144844
131.049408	33.376057
134.037033	59.647301
135.04451	745.032288
135.057358	27.381685
137.059937	5214.691895
139.074768	32.398853
147.045471	78.725029
149.059814	4491.39209
149.069351	24.206245
149.074173	139.574585
151.039307	46.525166
151.07518	140.864182
153.054565	78.589531
159.079193	25.451025
163.038101	83.753067
167.070129	2043.940063
177.054672	1690.787842
178.063431	26.178387
180.042236	195.365005
182.054474	147.752197
195.057159	18.169062
195.065262	759.029846
222.086884	254.955231
222.092697	78.280495
224.103714	705.566345
237.111969	470.338928
238.119507	36.107082
250.142487	105.864204
296.149353	219.71843
338.19635	13.417899
339.197937	16.994272
END IONS

BEGIN IONS
PEPMASS=621.34
CHARGE=1
MSLEVEL=2
SOURCE_INSTRUMENT=LC-ESI-ToF
FILENAME=reframe_merged.mgf
SEQ=*..*
IONMODE=Positive
ORGANISM=GNPS-REFRAME-DRUG-CCS-LIBRARY
NAME=Butobendine [CCS=240.428] [M+H]+
PI=Pieter Dorrestein
DATACOLLECTOR=victoriadeleray
SMILES=CCC(COC(=O)c1cc(OC)c(OC)c(OC)c1)N(C)CCN(C)C(CC)COC(=O)c1cc(OC)c(OC)c(OC)c1
INCHI=NA
INCHIAUX=NA
PUBMED=NA
SUBMITUSER=jzemlin
LIBRARYQUALITY=1
SPECTRUMID=CCMSLIB00016267131
USI=mzspec:GNPS:GNPS-REFRAME-DRUG-CCS-LIBRARY:accession:CCMSLIB00016267131
SCANS=3210
39.023975	72.80526
53.039223	145.482819
55.05423	9968.246094
55.05999	32.345253
55.062347	159.814743
58.065014	944.584961
58.071102	36.762466
65.037437	45.410255
72.081169	53.916199
77.038612	177.78389
79.053261	50.650143
81.033379	78.403458
81.069084	173.292007
82.037865	29.997938
83.071632	31.766268
84.079582	41.768028
86.097214	31.354195
91.05394	70.716431
93.033379	53.700558
94.04287	55.097664
96.055527	91.510925
106.036018	36.640308
107.04966	44.318302
108.057014	73.011429
109.026474	61.487427
109.064537	757.926636
110.097	43.355362
111.043739	73.208672
111.08036	91.314461
112.084633	30.131384
112.111877	452.413727
114.127251	32.396969
115.074631	30.279701
122.035301	179.176819
123.043785	80.168961
124.051689	229.972992
125.060127	29.711018
126.06739	56.871994
127.122192	82.388107
130.122162	57.553791
134.036606	50.251053
135.044266	57.005928
136.052246	31.360579
137.023178	31.139702
137.059204	1043.583496
137.080948	38.203663
138.066895	1736.739258
138.076675	34.478256
139.038467	96.555336
139.069092	46.740803
142.146454	60.3153
151.039032	83.761749
152.046234	517.224548
153.055786	190.136047
154.062149	17905.509766
154.068314	51.734329
154.077209	87.055565
155.077957	77.830742
166.062805	60.084637
167.069794	741.468567
169.07341	31.512674
169.085846	10002.015625
169.097458	138.766678
180.04039	32.678635
181.049332	105.952911
181.085449	191.741333
183.028046	34.795731
183.064346	36.37048
187.096725	46.829632
195.024109	39.394028
195.055374	83.393349
195.06485	27552.308594
195.080048	253.715546
195.087585	49.493092
196.039337	32.453438
196.077835	69.721207
197.04425	45.803066
198.051895	3703.987061
198.064758	48.03923
208.109375	90.796722
209.111633	31.4333
211.057465	38.979488
212.069656	39.548656
213.061935	36.222179
213.07576	10053.982422
213.093674	79.657455
215.076965	38.782272
225.07515	705.631165
252.123169	36.147499
267.075806	34.151867
267.086273	72.723503
267.095551	45.655067
267.100677	64.180946
267.122986	86101.914062
267.142975	1928.259155
267.398071	30.016552
267.598297	75.309868
267.608368	146.812561
268.115631	39.936943
269.138763	42.581726
324.13559	60.906895
324.160461	73.429916
324.18042	37722.007812
324.20285	229.564301
325.171173	36.331394
325.199768	104.428261
326.180786	32.381981
326.196442	97.599342
367.222137	36.900703
409.26059	45.357746
409.270844	137.01738
621.323608	50.468666
621.342224	138.788025
622.3396	35.461937
622.350159	74.472816
END IONS

BEGIN IONS
PEPMASS=314.176
CHARGE=1
MSLEVEL=2
SOURCE_INSTRUMENT=LC-ESI-ToF
FILENAME=reframe_merged.mgf
SEQ=*..*
IONMODE=Positive
ORGANISM=GNPS-REFRAME-DRUG-CCS-LIBRARY
NAME=OXYFEDRINE [CCS=185.702] [M+H]+
PI=Pieter Dorrestein
DATACOLLECTOR=victoriadeleray
SMILES=COc1cccc(C(=O)CCNC(C)C(O)c2ccccc2)c1
INCHI=NA
INCHIAUX=NA
PUBMED=NA
SUBMITUSER=jzemlin
LIBRARYQUALITY=1
SPECTRUMID=CCMSLIB00016267339
USI=mzspec:GNPS:GNPS-REFRAME-DRUG-CCS-LIBRARY:accession:CCMSLIB00016267339
SCANS=3421
42.036198	148.432556
43.018494	1075.015381
51.022507	102.104744
55.01757	109.950127
55.041767	93.94062
56.05027	56.873203
57.033962	332.549438
64.03231	82.345131
65.0392	114.770515
68.050774	130.774475
77.038506	4543.911621
77.045471	197.414444
79.054359	9002.744141
79.063972	39.815575
79.976402	22.205681
80.064636	90.733307
91.054321	3631.431396
91.061859	43.995441
91.068687	63.032951
92.025375	483.682037
93.069542	235.486633
95.049889	295.007446
103.054131	5705.676758
103.066345	90.244041
103.892761	20.407454
104.049004	253.872955
105.022003	30.422585
105.034988	49.783073
105.061447	53.819443
105.069824	44248.070312
105.077675	41.322048
105.082405	278.159393
105.352219	21.893173
105.367538	12.726151
105.37471	43.221855
105.638573	16.680742
105.785088	20.344063
105.809738	14.770161
105.824249	24.060514
105.843658	34.556255
105.862862	29.494926
105.874359	22.639246
106.028748	19.922064
106.062737	56.716389
106.270668	27.544212
106.304665	27.110647
106.508812	13.406652
107.049187	1280.981812
115.054337	4223.275879
116.049675	28.413132
116.064934	89.704987
117.057381	435.231415
117.069939	8364.086914
117.081268	152.397949
118.039436	135.492706
118.063225	417.45105
125.058731	306.51059
127.054916	238.398712
128.062119	1280.690063
129.070023	4054.310303
130.064453	934.477661
131.072876	3106.229248
131.08699	28.408611
133.066422	196.416718
134.096481	2217.123291
135.044174	1655.661011
135.054123	166.917755
135.080582	260.003815
144.080734	1901.401978
145.064819	192.269562
146.096832	15761.932617
146.108521	145.085495
151.076324	275.101013
163.075623	222.45108
164.106934	1089.939087
296.163086	154.840195
END IONS

BEGIN IONS
PEPMASS=577.338
CHARGE=1
MSLEVEL=2
SOURCE_INSTRUMENT=LC-ESI-ToF
FILENAME=merged_updated.mgf
SEQ=*..*
IONMODE=Positive
ORGANISM=GNPS-ION-MOBILITY-LIBRARY
NAME=Cerberin [CCS=244.89395141601562] [M+H]+
PI=Pieter Dorrestein
DATACOLLECTOR=victoriadeleray
SMILES=COC1C(O)C(C)OC(OC2CCC3(C)C(CCC4C3CCC3(C)C(C5=CC(=O)OC5)CCC43O)C2)C1OC(C)=O
INCHI=NA
INCHIAUX=NA
PUBMED=NA
SUBMITUSER=jzemlin
LIBRARYQUALITY=1
SPECTRUMID=CCMSLIB00016226380
USI=mzspec:GNPS:GNPS-ION-MOBILITY-LIBRARY:accession:CCMSLIB00016226380
SCANS=14897
43.018307	3672.790527
45.034084	1568.489868
55.018295	103.006981
55.054508	1442.453491
57.033825	333.166199
65.037407	196.943054
67.054497	1003.672119
69.033691	184.396606
71.012283	777.27124
79.054832	378.154633
81.070572	555.991882
83.049141	19316.435547
83.06089	430.607758
85.028687	47969.722656
85.038452	1443.697754
85.065018	287.58551
85.552696	34.72084
85.579185	13.97646
87.044601	499.994873
91.056084	479.71402
93.070595	481.588745
95.085876	524.870178
99.043793	311.797729
105.070282	501.630951
107.085846	761.659424
109.064575	33.833866
111.044106	12268.31543
111.056389	126.029251
117.052826	202.26712
119.085785	476.232086
121.101402	553.664307
127.039444	2609.790039
129.054794	9180.268555
131.085693	771.659058
135.116364	632.200317
139.039291	76.442619
141.071808	72.725975
143.069748	399.263275
143.085693	620.487061
145.100784	315.231995
147.116272	706.864319
149.097672	294.371338
150.136765	126.994034
153.054825	109.012779
155.08667	58.13171
157.101318	174.577087
157.118866	25.439671
158.103607	77.548294
159.117233	452.403198
161.133041	467.290771
171.065338	16907.734375
171.077789	161.153564
171.115021	141.185608
173.131821	387.659027
173.449905	10.093669
177.0914	368.070038
181.102722	132.04921
183.114532	106.334137
185.129547	197.641129
186.138245	92.139183
187.145981	222.143814
188.149811	61.575115
189.089584	207.51915
189.16658	93.137749
191.107025	112.194481
199.14769	125.738586
201.164291	26.839165
203.09169	1177.081177
203.103409	142.830414
211.112671	87.350967
211.142914	107.945724
213.12587	102.763687
213.16333	88.974449
215.107834	98.705101
217.124039	212.416245
223.148087	28.934887
237.16478	211.667953
293.227112	149.654907
303.213867	152.735458
311.236877	83.767426
321.221039	401.79306
339.232208	805.021851
357.249695	51.39119
559.328125	452.760651
END IONS

BEGIN IONS
PEPMASS=484.248
CHARGE=1
MSLEVEL=2
SOURCE_INSTRUMENT=LC-ESI-Orbitrap
FILENAME=reframe_drugs_pos_P2_C2_id.mzML
SEQ=*..*
IONMODE=Positive
ORGANISM=REFRAME-POSITIVE-LIBRARY
NAME=fentonium [M+H]+
PI=Pieter Dorrestein
DATACOLLECTOR=Nina Zhao
SMILES=C[N+]1(CC(=O)c2ccc(-c3ccccc3)cc2)C2CCC1CC(OC(=O)C(CO)c1ccccc1)C2
INCHI="InChI=1S/C31H34NO4/c1-32(20-30(34)25-14-12-23(13-15-25)22-8-4-2-5-9-22)26-16-17-27(32)19-28(18-26)36-31(35)29(21-33)24-10-6-3-7-11-24/h2-15,26-29,33H,16-21H2,1H3/q+1"
INCHIAUX=
PUBMED=N/A
SUBMITUSER=jzemlin
LIBRARYQUALITY=1
SPECTRUMID=CCMSLIB00016145645
USI=mzspec:GNPS:REFRAME-POSITIVE-LIBRARY:accession:CCMSLIB00016145645
SCANS=1829
50.182507	11258.016602
53.038822	46160.886719
53.773441	12932.373047
55.054424	19180.912109
65.038567	29800.101562
67.054482	216509.96875
70.065376	289987.625
74.842499	13435.753906
76.44931	13005.436523
77.038467	36686.738281
79.054001	54531.292969
81.033691	14040.733398
81.057251	17202.677734
82.065056	73614.546875
83.072823	32708.941406
85.40332	13167.022461
91.054176	932382.3125
93.06987	1135952.0
94.065079	69286.359375
95.049088	491987.34375
95.085526	164123.125
96.080727	147084.484375
97.054314	14538.419922
97.060341	13551.243164
103.054169	186898.984375
105.044495	75578.945312
108.080719	217558.1875
115.522911	12878.853516
122.096565	68006.773438
123.104095	115800.070312
124.111923	175555.0625
138.127808	126971.273438
140.10672	32710.371094
153.069611	15464.703125
162.447968	13148.066406
165.069534	25862.798828
167.085403	774722.5625
181.064545	101323.4375
191.085526	21278.275391
193.088348	375130.96875
208.111847	778984.3125
224.106842	37148.019531
226.122604	234920.359375
233.119781	20237.126953
234.127777	64580.53125
236.107315	22258.373047
305.567871	14591.701172
311.41748	13147.246094
318.18512	1985736.75
332.566132	14796.095703
396.177094	14306.348633
454.236267	14926.499023
484.247833	5586701.0
END IONS

BEGIN IONS
PEPMASS=250.159
CHARGE=1
MSLEVEL=2
SOURCE_INSTRUMENT=LC-ESI-Orbitrap
FILENAME=reframe_drugs_pos_P2_F1_id.mzML
SEQ=*..*
IONMODE=Positive
ORGANISM=REFRAME-POSITIVE-LIBRARY
NAME=BENZOCTAMINE [M+H]+
PI=Pieter Dorrestein
DATACOLLECTOR=Nina Zhao
SMILES=CNCC12CCC(c3ccccc31)c1ccccc12
INCHI="InChI=1S/C18H19N/c1-19-12-18-11-10-13(14-6-2-4-8-16(14)18)15-7-3-5-9-17(15)18/h2-9,13,19H,10-12H2,1H3"
INCHIAUX=
PUBMED=N/A
SUBMITUSER=jzemlin
LIBRARYQUALITY=1
SPECTRUMID=CCMSLIB00016146914
USI=mzspec:GNPS:REFRAME-POSITIVE-LIBRARY:accession:CCMSLIB00016146914
SCANS=1367
54.410339	161528.484375
54.412708	97959.695312
69.26387	60337.222656
72.634064	94951.90625
91.05423	783217.25
94.091866	53165.941406
95.979866	51939.789062
97.7686	54461.421875
98.035278	57163.988281
109.694199	63782.414062
113.621681	62851.976562
121.901001	110174.617188
141.069504	127204.703125
178.078064	174477.234375
189.069305	143375.359375
190.077408	250129.4375
190.213837	55228.886719
191.085419	35220508.0
204.093124	416354.875
219.116638	548807.8125
221.165787	60644.058594
247.950119	88397.4375
250.158997	29752058.0
END IONS

BEGIN IONS
PEPMASS=985.499
CHARGE=1
MSLEVEL=2
SOURCE_INSTRUMENT=LC-ESI-Orbitrap
FILENAME=reframe_drugs_pos_P3_C6_id.mzML
SEQ=*..*
IONMODE=Positive
ORGANISM=REFRAME-POSITIVE-LIBRARY
NAME=Lanatoside B [M+H]+
PI=Pieter Dorrestein
DATACOLLECTOR=Nina Zhao
SMILES=CC(=O)OC1CC(OC2C(O)CC(OC3C(O)CC(OC4CCC5(C)C(CCC6C5CCC5(C)C(C7=CC(=O)OC7)C(O)CC65O)C4)OC3C)OC2C)OC(C)C1OC1OC(CO)C(O)C(O)C1O
INCHI="InChI=1S/C49H76O20/c1-21-43(67-37-16-31(53)44(22(2)62-37)68-38-17-33(64-24(4)51)45(23(3)63-38)69-46-42(58)41(57)40(56)34(19-50)66-46)30(52)15-36(61-21)65-27-9-11-47(5)26(14-27)7-8-29-28(47)10-12-48(6)39(25-13-35(55)60-20-25)32(54)18-49(29,48)59/h13,21-23,26-34,36-46,50,52-54,56-59H,7-12,14-20H2,1-6H3"
INCHIAUX=
PUBMED=N/A
SUBMITUSER=jzemlin
LIBRARYQUALITY=1
SPECTRUMID=CCMSLIB00016149003
USI=mzspec:GNPS:REFRAME-POSITIVE-LIBRARY:accession:CCMSLIB00016149003
SCANS=1651
58.571064	2234.993164
61.028809	3233.401123
64.997993	2766.699219
66.327126	2906.970703
67.054504	8244.848633
69.033783	36459.957031
79.054245	9540.560547
85.028542	3351.244141
95.049103	39514.402344
97.058479	5965.588379
97.064774	109658.882812
103.099014	3766.601074
113.059486	47297.960938
131.070496	12611.063477
144.84201	3238.291504
145.049088	4944.820312
166.052292	3508.956543
225.112915	8744.827148
256.477112	3474.181641
355.228821	4884.967285
373.235596	3785.330322
755.991272	3618.743164
1000.853088	3934.148438
END IONS

BEGIN IONS
PEPMASS=535.32
CHARGE=1
MSLEVEL=2
SOURCE_INSTRUMENT=ESI-Orbitrap
FILENAME=BMDMS_mgf.mgf
SEQ=*..*
IONMODE=Positive
ORGANISM=BMDMS-NP
NAME=Periplocymarin [M+H]+
PI=BMDMS-NP
DATACOLLECTOR=BMDMS-NP
SMILES=O=C1OCC(=C1)C2CCC3(O)C4CCC5(O)CC(OC6OC(C)C(O)C(OC)C6)CCC5(C)C4CCC23C
INCHI=InChI=1S/C30H46O8/c1-17-26(32)23(35-4)14-25(37-17)38-19-5-9-27(2)21-6-10-28(3)20(18-13-24(31)36-16-18)8-12-30(28,34)22(21)7-11-29(27,33)15-19/h13,17,19-23,25-26,32-34H,5-12,14-16H2,1-4H3
INCHIAUX=N/A
PUBMED=N/A
SUBMITUSER=mwang87
LIBRARYQUALITY=1
SPECTRUMID=CCMSLIB00006422927
USI=mzspec:GNPS:BMDMS-NP:accession:CCMSLIB00006422927
SCANS=68627
409.126007	41.0
411.128998	275.0
419.201996	115.0
425.230988	45.0
437.105988	12.0
439.208008	138.0
453.290985	59.0
453.30899	11.0
455.320007	577.0
505.098999	55.0
505.118011	1000.0
535.254028	15.0
535.289001	146.0
END IONS

BEGIN IONS
PEPMASS=391.24
CHARGE=1
MSLEVEL=2
SOURCE_INSTRUMENT=ESI-Orbitrap
FILENAME=BMDMS_mgf.mgf
SEQ=*..*
IONMODE=Positive
ORGANISM=BMDMS-NP
NAME=Periplogenin [M+H]+
PI=BMDMS-NP
DATACOLLECTOR=BMDMS-NP
SMILES=O=C1OCC(=C1)C2CCC3(O)C4CCC5(O)CC(O)CCC5(C)C4CCC23C
INCHI=InChI=1S/C23H34O5/c1-20-7-3-15(24)12-22(20,26)9-5-18-17(20)4-8-21(2)16(6-10-23(18,21)27)14-11-19(25)28-13-14/h11,15-18,24,26-27H,3-10,12-13H2,1-2H3
INCHIAUX=N/A
PUBMED=N/A
SUBMITUSER=mwang87
LIBRARYQUALITY=1
SPECTRUMID=CCMSLIB00006425578
USI=mzspec:GNPS:BMDMS-NP:accession:CCMSLIB00006425578
SCANS=71278
301.140991	15.0
323.088989	12.0
357.097992	94.0
357.105988	15.0
358.100006	5.0
391.089996	23.0
391.105011	1000.0
391.160004	14.0
391.174988	18.0
391.195007	82.0
391.209015	32.0
391.226013	10.0
391.246002	6.0
391.282013	8.0
391.606995	127.0
END IONS

BEGIN IONS
PEPMASS=683.36
CHARGE=1
MSLEVEL=2
SOURCE_INSTRUMENT=ESI-Orbitrap
FILENAME=BMDMS_mgf.mgf
SEQ=*..*
IONMODE=Positive
ORGANISM=BMDMS-NP
NAME=4-((10S,13R)-3-(((2R,3R,4R,6R)-3,4-dihydroxy-6-methyl-5-(((3R,4S,5S,6R)-3,4,5-trihydroxy-6-(hydroxymethyl)tetrahydro-2H-pyran-2-yl)oxy)tetrahydro-2H-pyran-2-yl)oxy)-14-hydroxy-10,13-dimethylhexadecahydro-1H-cyclopenta[a]phenanthren-17-yl)furan-2(5H)-one [M+H]+
PI=BMDMS-NP
DATACOLLECTOR=BMDMS-NP
SMILES=O=C1OCC(=C1)C2CCC3(O)C4CCC5CC(OC6OC(C)C(OC7OC(CO)C(O)C(O)C7O)C(O)C6O)CCC5(C)C4CCC23C
INCHI=InChI=1S/C35H54O13/c1-16-30(48-32-28(41)26(39)25(38)23(14-36)47-32)27(40)29(42)31(45-16)46-19-6-9-33(2)18(13-19)4-5-22-21(33)7-10-34(3)20(8-11-35(22,34)43)17-12-24(37)44-15-17/h12,16,18-23,25-32,36,38-43H,4-11,13-15H2,1-3H3
INCHIAUX=N/A
PUBMED=N/A
SUBMITUSER=mwang87
LIBRARYQUALITY=1
SPECTRUMID=CCMSLIB00006428076
USI=mzspec:GNPS:BMDMS-NP:accession:CCMSLIB00006428076
SCANS=73776
353.148987	236.0
397.123993	68.0
419.113007	52.0
493.178009	256.0
595.078003	154.0
595.250977	474.0
617.226013	183.0
617.250977	171.0
633.213989	28.0
683.184998	1000.0
683.247986	138.0
683.434021	196.0
END IONS

BEGIN IONS
PEPMASS=823.44
CHARGE=1
MSLEVEL=2
SOURCE_INSTRUMENT=ESI-Orbitrap
FILENAME=BMDMS_mgf.mgf
SEQ=*..*
IONMODE=Positive
ORGANISM=BMDMS-NP
NAME=(10S,13R)-3-(((2R,4S,6R)-5-(((4S,6R)-5-(((4S,5S,6R)-4,5-dihydroxy-6-methyltetrahydro-2H-pyran-2-yl)oxy)-4-hydroxy-6-methyltetrahydro-2H-pyran-2-yl)oxy)-4-hydroxy-6-methyltetrahydro-2H-pyran-2-yl)oxy)-14-hydroxy-10,13-dimethyl-17-(5-oxo-2,5-dihydrofuran-3-yl)hexadecahydro-1H-cyclopenta[a]phenanthren-16-yl acetate [M+H]+
PI=BMDMS-NP
DATACOLLECTOR=BMDMS-NP
SMILES=O=C1OCC(=C1)C2C(OC(=O)C)CC3(O)C4CCC5CC(OC6OC(C)C(OC7OC(C)C(OC8OC(C)C(O)C(O)C8)C(O)C7)C(O)C6)CCC5(C)C4CCC23C
INCHI=InChI=1S/C43H66O15/c1-20-38(49)29(45)15-35(52-20)57-40-22(3)54-36(17-31(40)47)58-39-21(2)53-34(16-30(39)46)56-26-9-11-41(5)25(14-26)7-8-28-27(41)10-12-42(6)37(24-13-33(48)51-19-24)32(55-23(4)44)18-43(28,42)50/h13,20-22,25-32,34-40,45-47,49-50H,7-12,14-19H2,1-6H3
INCHIAUX=N/A
PUBMED=N/A
SUBMITUSER=mwang87
LIBRARYQUALITY=1
SPECTRUMID=CCMSLIB00006433977
USI=mzspec:GNPS:BMDMS-NP:accession:CCMSLIB00006433977
SCANS=79677
389.105011	42.0
807.450012	361.0
823.419006	1000.0
END IONS

BEGIN IONS
PEPMASS=75.0
CHARGE=1
MSLEVEL=2
SOURCE_INSTRUMENT=ESI-QQQ
FILENAME=massbank-gnps.mgf
SEQ=*..*
IONMODE=Negative
ORGANISM=MASSBANK
NAME=Massbank:KO000833 Glycolate|Hydroxyacetic acid|Glycolic acid M-H
PI=Massbank
DATACOLLECTOR=Massbank
SMILES=OCC(O)=O
INCHI=1S/C2H4O3/c3-1-2(4)5/h3H,1H2,(H,4,5)
INCHIAUX=N/A
PUBMED=N/A
SUBMITUSER=mwang87
LIBRARYQUALITY=3
SPECTRUMID=CCMSLIB00005728101
USI=mzspec:GNPS:MASSBANK:accession:CCMSLIB00005728101
SCANS=2550
31.299999	202970.5
45.200001	227723.0
47.099998	282178.5
72.900002	217822.0
73.400002	59406.0
75.099998	4534658.0
END IONS

BEGIN IONS
PEPMASS=292.04
CHARGE=1
MSLEVEL=2
SOURCE_INSTRUMENT=ESI-Hybrid FT
FILENAME=massbank-gnps.mgf
SEQ=*..*
IONMODE=Positive
ORGANISM=MASSBANK
NAME=Massbank:EQ311504 Parathion|diethoxy-(4-nitrophenoxy)-sulfanylidene-$l^{5}-phosphane M+H
PI=Massbank
DATACOLLECTOR=Massbank
SMILES=S=P(Oc1ccc(cc1)[N+]([O-])=O)(OCC)OCC
INCHI=1S/C10H14NO5PS/c1-3-14-17(18,15-4-2)16-10-7-5-9(6-8-10)11(12)13/h5-8H,3-4H2,1-2H3
INCHIAUX=N/A
PUBMED=N/A
SUBMITUSER=mwang87
LIBRARYQUALITY=3
SPECTRUMID=CCMSLIB00005730802
USI=mzspec:GNPS:MASSBANK:accession:CCMSLIB00005730802
SCANS=5251
64.9786	76345.703125
65.038498	107277.296875
66.046303	68848.398438
75.022797	53315.5
76.030403	7620.100098
78.033798	46425.898438
79.017601	6416.600098
79.054298	6671.799805
80.0495	9401.299805
80.973396	6399.399902
82.041199	8100.0
84.0028	12179.099609
92.025597	54630.300781
92.0494	65926.703125
93.033203	26774.099609
94.041199	5600376.0
96.002701	14593.099609
96.9505	49597.601562
97.010597	42360.699219
98.005699	15421.099609
98.018501	29369.300781
98.984001	183228.5
105.069901	31275.900391
107.049301	14271.599609
108.0028	15348.700195
108.044403	14269.299805
109.010399	90436.0
109.028397	36090.601562
110.018303	3341932.0
111.0439	87599.601562
114.961197	4126689.25
120.0569	11766.799805
121.039497	109802.796875
122.023499	11752.099609
123.031303	3774726.5
123.997597	77846.398438
125.005402	353231.6875
126.013199	234803.796875
127.021103	40134.5
128.001999	10374.700195
132.971695	60362.5
137.016602	14652.400391
138.000793	105665.296875
139.008499	398485.40625
140.033997	2970638.25
150.029602	126628.601562
153.995605	185045.0
154.971298	63193.800781
155.997498	73397.796875
156.0112	1253410.5
170.966202	19478.5
171.973999	954703.3125
174.007507	1033320.875
184.987503	31602.800781
187.968994	69695.5
188.976898	174008.90625
189.984604	1735156.875
198.972397	13072.900391
204.971893	81574.0
205.979706	169669.703125
216.983307	43893.898438
217.966995	65243.0
218.974792	446202.8125
220.000397	284311.90625
221.974594	51863.0
235.977493	2458020.0
253.9879	159495.375
END IONS

BEGIN IONS
PEPMASS=91.0
CHARGE=1
MSLEVEL=2
SOURCE_INSTRUMENT=ESI-QQQ
FILENAME=massbank-gnps.mgf
SEQ=*..*
IONMODE=Negative
ORGANISM=MASSBANK
NAME=Massbank:PS035407 Thioglycolic acid solution|Mercaptoacetic acid|Mercaptoethanoic acid|Thioglycolate|Thiovanic acid|TGA|Mercaptoacetate M+H
PI=Massbank
DATACOLLECTOR=Massbank
SMILES=C(C(=O)O)S
INCHI=1S/C2H4O2S/c3-2(4)1-5/h5H,1H2,(H,3,4)
INCHIAUX=N/A
PUBMED=N/A
SUBMITUSER=mwang87
LIBRARYQUALITY=3
SPECTRUMID=CCMSLIB00005757365
USI=mzspec:GNPS:MASSBANK:accession:CCMSLIB00005757365
SCANS=31814
44.0	76193.0
45.0	342107.0
90.0	22400.0
91.0	58359.0
END IONS
