BEGIN IONS
PEPMASS=693.406
CHARGE=1
MSLEVEL=2
SOURCE_INSTRUMENT=DI-ESI-qTof
FILENAME=f.rsilva/q_tof_25_05/gnps_Monensin_pos_MplusNa.mgf;
SEQ=*..*
IONMODE=Positive
ORGANISM=GNPS-LIBRARY
NAME=Monensin M+Na
PI=Norberto Lopes
DATACOLLECTOR=Denise Silva
SMILES=C[C@@H]([C@H](C(C)C(O)=O)OC)[C@](O1)([H])[C@H](C)[C@@H](O)C[C@]1(O2)CC[C@@]2(C)[C@@](O3)([H])CC[C@@]3(CC)[C@@](O4)([H])[C@@H](C)C[C@]4([H])[C@]5([H])[C@@H](C)C[C@@H](C)[C@](O)(CO)O5
INCHI=InChI=1S/C36H62O11/c1-10-34(31-20(3)16-26(43-31)28-19(2)15-21(4)36(41,18-37)46-28)12-11-27(44-34)33(8)13-14-35(47-33)17-25(38)22(5)30(45-35)23(6)29(42-9)24(7)32(39)40/h19-31,37-38,41H,10-18H2,1-9H3,(H,39,40)/t19-,20-,21+,22+,23-,24?,25-,26+,27+,28-,29+,30-,31+,33-,34-,35+,36-/m0/s1
INCHIAUX= 
PUBMED= 
SUBMITUSER=rsilva
LIBRARYQUALITY=3
SPECTRUMID=CCMSLIB00000081287
USI=mzspec:GNPS:GNPS-LIBRARY:accession:CCMSLIB00000081287
SCANS=1
197.074402	11382.0
209.109772	2129.0
237.103912	9675.0
255.11467	13199.0
303.187256	2120.0
321.196289	5930.0
343.215088	1609.0
345.195251	1779.0
361.222992	2251.0
363.205872	4055.0
383.248016	1451.0
387.243378	3001.0
389.222687	1366.0
391.236084	2361.0
405.253418	10039.0
406.877228	2255.0
407.231018	2255.0
443.268524	41645.0
461.279053	254303.0
475.291229	1418.0
479.288635	230911.0
483.300415	25479.0
489.274902	5982.0
491.289551	5177.0
501.308746	85999.0
507.284485	7221.0
523.328674	3975.0
529.306152	1964.0
531.321777	2760.0
541.340942	18220.0
557.333496	1397.0
559.348145	8196.0
563.361755	6570.0
575.347168	2743.0
577.363342	12808.0
581.372681	48505.0
599.380493	45949.0
617.393127	18805.0
625.357178	2638.0
631.408081	1963.0
639.377136	2480.0
643.371765	4305.0
649.417847	2510.0
657.390076	29370.0
675.398865	116968.0
693.40564	134854.0
END IONS

BEGIN IONS
PEPMASS=470.298
CHARGE=1
MSLEVEL=2
SOURCE_INSTRUMENT=DI-ESI-qTof
FILENAME=gnps_Ebastin_pos_MplusH.mgf
SEQ=*..*
IONMODE=Positive
ORGANISM=GNPS-LIBRARY
NAME=Ebastin M+H
PI=Norberto Lopes
DATACOLLECTOR=Norberto Lopes
SMILES=O=C(CCCN1CCC(OC(C2=CC=CC=C2)C3=CC=CC=C3)CC1)C4=CC=C(C(C)(C)C)C=C4
INCHI=InChI=1S/C32H39NO2/c1-32(2,3)28-18-16-25(17-19-28)30(34)15-10-22-33-23-20-29(21-24-33)35-31(26-11-6-4-7-12-26)27-13-8-5-9-14-27/h4-9,11-14,16-19,29,31H,10,15,20-24H2,1-3H3
INCHIAUX=N/A
PUBMED=N/A
SUBMITUSER=rsilva
LIBRARYQUALITY=3
SPECTRUMID=CCMSLIB00000081580
USI=mzspec:GNPS:GNPS-LIBRARY:accession:CCMSLIB00000081580
SCANS=1
115.050034	7598.0
117.065483	11302.0
118.072823	19732.0
119.077026	2637.0
128.055954	7822.0
129.064545	6305.0
131.079956	6468.0
132.087646	12831.0
133.096695	11068.0
141.064896	11103.0
146.065842	80533.0
147.072784	18540.0
151.103531	4919.0
152.057343	402600.0
153.061325	51458.0
154.063675	3420.0
161.094925	1256930.0
162.093414	324517.0
163.097336	23700.0
165.062988	461912.0
167.088806	1274659.0
168.084854	971218.0
169.087646	77574.0
173.0905	14142.0
175.140808	3200.0
179.055801	9398.0
188.113159	150158.0
189.11734	21960.0
203.149963	1274630.0
204.142761	1156020.0
205.142975	128522.0
268.19809	2954.0
284.195587	11558.0
286.208954	8549.0
294.178711	4157.0
302.202087	38430.0
304.216827	5128.0
452.287079	5758.0
470.297821	502259.0
END IONS

BEGIN IONS
PEPMASS=389.16
CHARGE=1
MSLEVEL=2
SOURCE_INSTRUMENT=DI-ESI-qTof
FILENAME=gnps_Levocetirizine_pos_MplusH.mgf
SEQ=*..*
IONMODE=Positive
ORGANISM=GNPS-LIBRARY
NAME=Levocetirizine M+H
PI=Norberto Lopes
DATACOLLECTOR=Norberto Lopes
SMILES=ClC(C=C1)=CC=C1[C@@H](C2=CC=CC=C2)N(CC3)CCN3CCOCC(O)=O
INCHI=InChI=1S/C21H25ClN2O3/c22-19-8-6-18(7-9-19)21(17-4-2-1-3-5-17)24-12-10-23(11-13-24)14-15-27-16-20(25)26/h1-9,21H,10-16H2,(H,25,26)/t21-/m1/s1
INCHIAUX=N/A
PUBMED=N/A
SUBMITUSER=rsilva
LIBRARYQUALITY=3
SPECTRUMID=CCMSLIB00000081597
USI=mzspec:GNPS:GNPS-LIBRARY:accession:CCMSLIB00000081597
SCANS=1
165.066193	244438.0
166.073929	482207.0
167.076508	65376.0
168.080673	4545.0
183.077271	8752.0
193.072861	32617.0
194.074539	5054.0
199.024887	5567.0
201.043488	255335.0
202.047302	36309.0
203.041214	78432.0
204.042816	10256.0
END IONS

BEGIN IONS
PEPMASS=393.166
CHARGE=1
MSLEVEL=2
SOURCE_INSTRUMENT=DI-ESI-qTof
FILENAME=gnps_Sparfloxacin_pos_MplusH.mgf
SEQ=*..*
IONMODE=Positive
ORGANISM=GNPS-LIBRARY
NAME=Sparfloxacin M+H
PI=Norberto Lopes
DATACOLLECTOR=Denise Silva
SMILES=FC1=C2C(C(C(C(O)=O)=CN2C3CC3)=O)=C(N)C(F)=C1N4C[C@H](C)N[C@H](C)C4
INCHI=InChI=1S/C19H22F2N4O3/c1-8-5-24(6-9(2)23-8)17-13(20)15(22)12-16(14(17)21)25(10-3-4-10)7-11(18(12)26)19(27)28/h7-10,23H,3-6,22H2,1-2H3,(H,27,28)/t8-,9+
INCHIAUX=N/A
PUBMED=N/A
SUBMITUSER=rsilva
LIBRARYQUALITY=3
SPECTRUMID=CCMSLIB00000081722
USI=mzspec:GNPS:GNPS-LIBRARY:accession:CCMSLIB00000081722
SCANS=1
210.060028	3493.0
211.064133	3957.0
217.070343	3295.0
224.067947	4289.0
230.067017	16142.0
231.072861	13613.0
235.065994	4127.0
236.070526	5360.0
237.080185	28140.0
238.078461	7818.0
244.084015	3484.0
245.093613	4088.0
246.096024	6580.0
251.080002	93187.0
252.09314	19745.0
253.104462	2997.0
264.050537	56128.0
265.098785	12037.0
266.115784	4177.0
267.117249	3627.0
271.100861	3015.0
272.114471	7542.0
273.112732	3010.0
274.125702	2681.0
277.059204	5120.0
286.121887	23530.0
288.140656	7739.0
292.118591	250155.0
306.134705	22295.0
308.139771	3127.0
309.162384	3857.0
312.139252	2734.0
314.144043	3937.0
318.100403	21428.0
319.097015	12614.0
327.15625	5967.0
329.17218	11614.0
332.147247	6510.0
334.117645	3953.0
336.109283	12661.0
347.15918	5496.0
349.17514	210118.0
375.153046	93391.0
393.166321	150939.0
END IONS

BEGIN IONS
PEPMASS=360.128
CHARGE=1
MSLEVEL=2
SOURCE_INSTRUMENT=DI-ESI-qTof
FILENAME=gnps_Ofloxacin_neg.mgf
SEQ=*..*
IONMODE=Negative
ORGANISM=GNPS-LIBRARY
NAME=Ofloxacin M+H
PI=Norberto Lopes
DATACOLLECTOR=Denise Silva
SMILES=CC1COC2=C(N3CCN(C)CC3)C(F)=CC4=C2N1C=C(C(O)=O)C4=O
INCHI=InChI=1S/C18H20FN3O4/c1-10-9-26-17-14-11(16(23)12(18(24)25)8-22(10)14)7-13(19)15(17)21-5-3-20(2)4-6-21/h7-8,10H,3-6,9H2,1-2H3,(H,24,25)
INCHIAUX=N/A
PUBMED=N/A
SUBMITUSER=rsilva
LIBRARYQUALITY=3
SPECTRUMID=CCMSLIB00000081724
USI=mzspec:GNPS:GNPS-LIBRARY:accession:CCMSLIB00000081724
SCANS=1
190.028061	689.0
191.033218	1733.0
203.022675	679.0
204.041046	5219.0
205.041031	979.0
206.045074	430.0
207.051285	359.0
212.052475	747.0
217.041016	507.0
218.045837	402.0
219.054123	743.0
220.061157	855.0
232.059036	6000.0
260.077576	314.0
275.102478	84973.0
316.140564	31749.0
360.128387	395.0
END IONS

BEGIN IONS
PEPMASS=181.072
CHARGE=1
MSLEVEL=2
SOURCE_INSTRUMENT=DI-ESI-qTof
FILENAME=f.10mauriz/25_br_pos_H_30eV.mgf;
SEQ=*..*
IONMODE=Positive
ORGANISM=GNPS-LIBRARY
NAME=Theobromine M+H
PI=Norberto Lopes
DATACOLLECTOR=Lucas Marques
SMILES=CN1C=NC2=C1C(NC(N2C)=O)=O
INCHI=InChI=1S/C7H8N4O2/c1-10-3-8-5-4(10)6(12)9-7(13)11(5)2/h3H,1-2H3,(H,9,12,13)
INCHIAUX= 
PUBMED= 
SUBMITUSER=10mauriz
LIBRARYQUALITY=3
SPECTRUMID=CCMSLIB00000424791
USI=mzspec:GNPS:GNPS-LIBRARY:accession:CCMSLIB00000424791
SCANS=1
138.067795	322.0
163.056473	181.0
181.071869	121.0
765.733459	309.0
1081.179077	182.0
END IONS

BEGIN IONS
PEPMASS=369.238
CHARGE=1
MSLEVEL=2
SOURCE_INSTRUMENT=LC-ESI-Orbitrap
FILENAME=f.jjjvanderhooft/Urine_Hypertension_fragm_study/POS/Urine_91_Top10_posneg.mzXML;
SEQ=*..*
IONMODE=Positive
ORGANISM=GNPS-LIBRARY
NAME=Perondropril M+H
PI=Justin van der Hooft
DATACOLLECTOR=Justin van der Hooft
SMILES=CCC[C@@H](C(=O)OCC)N[C@@H](C)C(=O)N1[C@H]2CCCC[C@H]2C[C@H]1C(=O)O
INCHI=InChI=1S/C19H32N2O5/c1-4-8-14(19(25)26-5-2)20-12(3)17(22)21-15-10-7-6-9-13(15)11-16(21)18(23)24/h12-16,20H,4-11H2,1-3H3,(H,23,24)/t12-,13-,14-,15-,16-/m0/s1
INCHIAUX= 
PUBMED= 
SUBMITUSER=jjjvanderhooft
LIBRARYQUALITY=3
SPECTRUMID=CCMSLIB00002053741
USI=mzspec:GNPS:GNPS-LIBRARY:accession:CCMSLIB00002053741
SCANS=1080
53.002003	27907.615234
53.002186	61052.078125
53.002369	91843.601562
53.002552	100673.828125
53.002735	80503.164062
53.002918	44523.839844
53.003101	13753.052734
54.033733	33208.378906
54.03392	63240.625
54.034107	81067.179688
54.034298	72233.742188
54.034485	42060.984375
54.034676	11442.697266
54.128983	27834.857422
54.129169	47194.253906
54.12936	54982.96875
54.129547	45375.542969
54.129738	24377.876953
54.497246	22416.855469
54.497437	48490.140625
54.497627	68790.992188
54.497818	69665.210938
54.498009	50974.453125
54.498199	25394.333984
55.05344	43572.445312
55.053631	75123.734375
55.053825	244085.875
55.05402	876406.0625
55.054214	2189292.25
55.054405	3614867.5
55.0546	4225807.0
55.054794	3014705.75
55.054989	1645655.0
55.055183	491092.96875
55.055374	124476.789062
55.055569	61595.957031
55.055763	53280.914062
55.05595	128750.570312
55.239681	37073.90625
55.239876	53902.304688
55.240074	55000.828125
55.240269	38958.785156
55.240463	16504.482422
56.048107	29894.544922
56.048306	93920.992188
56.048504	227667.4375
56.048706	325336.9375
56.048904	414468.6875
56.049103	1268358.625
56.049301	4425139.0
56.0495	9023533.0
56.049698	13877033.0
56.0499	13700681.0
56.050098	8790135.0
56.050297	4202932.0
56.050495	1185586.875
56.050694	379654.28125
56.050892	297528.21875
56.051094	180593.046875
56.051292	64814.332031
56.051491	21261.375
56.060448	31346.369141
56.060646	54733.523438
56.060844	63754.339844
56.061043	52287.179688
56.061241	29647.027344
64.617912	31114.105469
64.618164	48812.15625
64.618408	53993.898438
64.618652	41237.230469
64.618904	18420.880859
69.068687	19935.226562
69.068962	94972.570312
69.069237	388170.875
69.069504	868030.25
69.069778	1385152.125
69.070053	1466590.25
69.07032	981277.0
69.070595	501312.46875
69.070869	149073.984375
69.071136	45649.285156
69.071411	28689.626953
70.064209	47609.746094
70.064484	234959.703125
70.064766	505921.15625
70.065041	793441.5
70.065323	799577.25
70.065598	519456.625
70.06588	252074.921875
70.066154	72294.164062
70.066429	18593.498047
72.079163	104133.109375
72.079453	115510.992188
72.079742	428023.46875
72.080032	1669948.125
72.080322	3745082.75
72.080612	5984942.0
72.080902	6387994.5
72.081192	4295278.5
72.081482	2214456.5
72.081772	683030.875
72.082062	236662.046875
72.082352	155203.1875
72.082642	91212.289062
72.082954	108511.179688
72.083244	7797.555176
73.063362	10529.952148
73.06366	64037.472656
73.063957	298615.71875
73.064247	770920.6875
73.064545	1277602.375
73.064842	1482040.375
73.06514	1049076.75
73.065437	569976.375
73.065735	176517.546875
73.066025	42984.390625
73.066322	6500.727539
74.022232	2171.458496
74.02253	59071.546875
74.022835	302820.90625
74.023132	705032.5
74.023438	1139615.625
74.023735	1222283.125
74.02404	822209.5625
74.024345	424130.5625
74.024643	127066.382812
74.024948	36191.683594
76.407387	37400.117188
76.4077	64063.03125
76.40802	72344.460938
76.408333	56590.753906
76.408653	29043.939453
79.053062	30318.087891
79.053391	150377.109375
79.053726	299653.75
79.054062	436161.28125
79.05439	381458.125
79.054726	227959.390625
79.055061	88431.296875
79.055389	31993.890625
81.068176	3326.930664
81.068527	64657.949219
81.068871	329617.75
81.069214	845177.25
81.069565	1397780.375
81.069908	1621072.125
81.070259	1155369.25
81.070602	636457.625
81.070946	209916.828125
81.071297	64082.742188
81.07164	18053.457031
86.4431	31930.4375
86.443481	55370.445312
86.443863	66476.25
86.444237	58753.40625
86.444618	37670.53125
98.094467	784039.375
98.094925	3612730.25
98.09539	12501901.0
98.095848	22914624.0
98.096313	32084324.0
98.096771	27409024.0
98.097229	16678700.0
98.097694	6841251.0
98.098152	2148544.0
98.098618	879621.9375
98.099075	607266.0625
98.099533	172748.90625
98.099998	53133.386719
98.120789	26725.148438
98.121246	67613.835938
98.121704	101294.71875
98.122169	101220.570312
98.122627	67657.367188
98.123093	28308.494141
98.272614	24802.009766
98.273071	47430.171875
98.273537	57077.027344
98.273994	46696.792969
98.27446	25220.029297
98.691597	29336.236328
98.692062	53594.167969
98.692528	62061.191406
98.692993	48608.589844
98.693459	24218.160156
100.110924	23048.503906
100.111404	52432.632812
100.111877	73291.9375
100.11235	71091.476562
100.112823	48865.023438
100.113304	22880.587891
100.576233	23405.632812
100.576714	47660.039062
100.577194	63007.394531
100.577667	56917.722656
100.578148	32920.101562
107.149185	23162.623047
107.149712	46390.390625
107.150238	57306.863281
107.150764	47956.28125
107.151291	26327.605469
109.265678	29096.886719
109.26622	46594.34375
109.266762	55411.207031
109.267303	52483.972656
109.267845	39225.03125
110.163284	30151.578125
110.163834	51936.136719
110.164383	61501.984375
110.164932	50837.195312
110.165482	27246.78125
124.108528	45511.933594
124.109184	48930.246094
124.10984	191735.546875
124.110497	728811.5625
124.111153	1474873.625
124.111809	2243856.25
124.112465	2159660.25
124.113121	1372390.5
124.113777	641592.1875
124.114433	183759.0625
124.115082	58098.3125
124.115738	39370.082031
125.093346	35750.3125
125.094009	55952.996094
125.094673	63471.761719
125.095337	52903.078125
125.096001	29804.457031
130.083588	20092.238281
130.08429	57422.816406
130.084991	161351.0
130.085709	276955.0625
130.086411	331901.90625
130.087112	233357.4375
130.087814	120201.109375
130.088516	20751.214844
133.755722	35774.902344
133.756454	58104.652344
133.757187	64223.898438
133.757919	47896.0
133.758652	21446.724609
144.098602	21693.994141
144.099411	50166.480469
144.100235	118956.929688
144.101059	215272.546875
144.101883	280568.5625
144.102707	213156.3125
144.103516	84800.539062
144.10434	29397.298828
144.135513	29767.814453
144.136337	70220.59375
144.137161	158522.03125
144.137985	255136.296875
144.138809	265885.84375
144.139618	174919.125
144.140442	70065.335938
144.141266	26357.775391
170.10965	30902.548828
170.110703	80186.046875
170.111755	116491.039062
170.112808	176697.828125
170.113861	686188.0625
170.114914	2477683.25
170.115967	4954186.5
170.11702	7508881.5
170.118073	7216667.0
170.119125	4593265.0
170.120178	2152801.5
170.121231	629977.6875
170.122269	222639.890625
170.123322	167684.375
170.124374	88485.648438
170.125427	83583.734375
170.12648	16526.103516
172.068771	31116.111328
172.069839	62657.257812
172.070923	70106.695312
172.071991	52757.375
172.073059	30444.708984
172.125458	162556.109375
172.126526	502213.0625
172.127594	529171.5625
172.128662	1367010.5
172.12973	5470346.0
172.130814	17605732.0
172.131882	31143930.0
172.13295	42057160.0
172.134018	34363304.0
172.135086	20542782.0
172.136154	7767336.0
172.137238	2321956.75
172.138306	860767.4375
172.139374	588062.75
172.140442	90220.0625
172.14151	28565.890625
172.189804	22902.863281
172.190872	57040.621094
172.19194	84630.984375
172.193008	83227.96875
172.194077	53127.910156
172.19516	19122.675781
189.368866	26827.181641
189.370102	51075.21875
189.371338	63805.28125
189.372574	55149.949219
189.37381	30766.470703
196.604324	47503.648438
196.605621	69149.023438
196.606934	71763.335938
196.608246	53615.183594
196.609543	25972.115234
205.607864	22359.113281
205.609268	48327.84375
205.610657	64277.097656
205.612061	59017.53125
205.613464	37979.25
212.647217	37869.570312
212.648682	63572.089844
212.650146	75933.117188
212.651627	66488.765625
212.653091	40420.226562
295.187683	45882.839844
295.190063	61902.980469
295.192474	258756.828125
295.194885	1011692.3125
295.197296	2376920.75
295.199707	3853009.5
295.202118	4295134.0
295.204498	2975600.0
295.206909	1588505.875
295.20932	489345.40625
295.211731	138077.15625
295.214142	58546.457031
295.216522	16143.90625
369.22403	145956.765625
369.227386	544261.0
369.230743	1796801.625
369.234131	3289440.0
369.237488	4627692.0
369.240845	3987849.0
369.244202	2422904.5
369.247589	979655.0
369.250946	263809.875
369.254303	88453.695312
369.25766	81582.453125
369.261047	60733.832031
369.264404	54442.828125
END IONS

BEGIN IONS
PEPMASS=150.277
CHARGE=1
MSLEVEL=2
SOURCE_INSTRUMENT=LC-ESI-Orbitrap
FILENAME=f.Francesca90/rette droga triplicata/file convertiti/180813_MIX60-100PPB.mzXML;
SEQ=*..*
IONMODE=Positive
ORGANISM=GNPS-LIBRARY
NAME=Methamphetamine M+H
PI=Manuel Sergi
DATACOLLECTOR= 
SMILES=CC(CC1=CC=CC=C1)NC
INCHI= 
INCHIAUX= 
PUBMED= 
SUBMITUSER=Francesca90
LIBRARYQUALITY=3
SPECTRUMID=CCMSLIB00004722181
USI=mzspec:GNPS:GNPS-LIBRARY:accession:CCMSLIB00004722181
SCANS=67
50.015751	10973.793945
50.99334	5241.273926
51.021328	5807.335938
51.023746	35039.894531
52.031544	5849.785645
57.070404	5141.273926
58.065842	96149.414062
59.464088	5343.697266
59.781525	5561.769531
63.023735	11676.470703
65.039055	91666.335938
67.054794	29902.509766
69.033775	10674.737305
69.070786	11033.178711
70.065742	33386.648438
71.16996	6023.976074
71.871529	12351.764648
76.152046	8097.652344
77.039581	38573.542969
78.046593	6284.961426
78.452301	6902.416504
79.054817	32410.951172
81.070587	59435.140625
88.075836	13968.155273
89.038506	14626.337891
89.060188	78391.421875
90.047028	9081.487305
90.959953	49254.851562
91.032402	9675.462891
91.054665	28577170.0
91.146187	60631.78125
92.057495	1296078.25
92.064186	12511.133789
93.034424	7818.708984
93.070107	103098.054688
95.049583	26869.943359
95.085716	72508.796875
104.062553	9172.192383
105.069389	56745.71875
106.086067	10024.580078
107.049088	44748.167969
107.086082	105188.84375
109.010582	12101.390625
109.027855	15090.317383
109.064705	97839.742188
109.101212	73459.234375
111.044228	10823.654297
112.007103	7253.565918
114.053925	7107.302734
114.090897	9930.632812
118.94577	13081.651367
119.071358	66795.757812
119.086166	12613283.0
119.22184	24377.365234
120.088318	802027.0
120.098297	12628.180664
121.028427	86235.359375
121.065262	44085.382812
121.102036	61019.859375
122.032448	15015.514648
123.079948	140467.171875
123.117439	40274.632812
131.084564	14664.02832
132.101196	62042.789062
133.065353	32249.068359
133.100296	16689.466797
135.043716	1211958.125
136.047897	67049.648438
149.023544	512303.25
149.035614	14740.297852
149.059128	47510.652344
149.096222	105417.21875
149.132294	11384.085938
150.025833	106376.546875
150.067703	1733621.375
150.09314	74312.8125
150.127014	4431019.0
151.040039	13943.628906
151.074524	187646.90625
151.113113	119608.109375
151.13176	328698.21875
164.143204	9270.899414
169.049301	12831.026367
END IONS

BEGIN IONS
PEPMASS=436.307
CHARGE=0
MSLEVEL=2
SOURCE_INSTRUMENT=LC-ESI-Orbitrap
FILENAME=f.lfnothias/1904_statins_standards/Simvastatin_1uL.mzML;
SEQ=*..*
IONMODE=Positive
ORGANISM=GNPS-LIBRARY
NAME=Simvastatin M+NH4 M+NH4
PI=Dorrestein
DATACOLLECTOR=lfnothias
SMILES=CCC(C)(C)C(=O)O[C@H]1C[C@H](C=C2[C@H]1[C@H]([C@H](C=C2)C)CC[C@@H]3C[C@H](CC(=O)O3)O)C
INCHI= 
INCHIAUX= 
PUBMED= 
SUBMITUSER=lfnothias
LIBRARYQUALITY=3
SPECTRUMID=CCMSLIB00005435656
USI=mzspec:GNPS:GNPS-LIBRARY:accession:CCMSLIB00005435656
SCANS=3522
79.054611	18133.087891
79.058632	1571.95459
81.034096	1872.254883
81.070206	16124.951172
83.028671	1281.14856
83.049904	6583.283203
84.679848	1300.377441
85.065369	2709.244629
87.298012	1600.74646
88.794403	1305.020386
89.023445	1343.125977
91.054878	3028.76709
93.070511	5569.351074
95.050194	1592.602051
95.086121	5337.938477
97.065086	9305.683594
97.409599	1256.060913
101.569389	1882.894409
105.070168	15771.637695
107.08577	12811.074219
109.102234	2061.209229
117.070412	2343.868652
119.085686	8414.458008
121.102097	5041.727539
125.059891	7935.259277
125.735397	1699.230103
127.076035	2101.46167
128.062897	1593.286987
129.070343	2199.025635
131.085861	18798.269531
133.101791	3796.999512
141.070786	2440.002197
142.078583	2648.258057
143.071564	9711.689453
143.085861	32023.105469
143.096222	2271.422607
144.094757	1916.964478
145.101486	29213.808594
145.112259	1771.401123
147.117523	2145.189209
151.076355	1919.350586
155.085602	7953.234375
157.101562	23570.638672
158.109818	4584.325195
159.117233	30631.591797
163.11293	1690.298584
169.101486	22787.757812
169.115387	1931.742798
171.117294	23582.322266
173.132935	77982.078125
179.086823	1585.269165
181.102585	5494.271484
183.116974	14653.893555
185.133865	5238.289551
191.107025	7077.491699
193.10257	3700.546143
195.117722	3547.696777
197.133331	12048.49707
199.14856	155358.859375
201.1642	29166.398438
201.671738	1409.131348
205.123322	2004.100342
207.117874	5411.402832
210.141617	2198.071533
211.11409	2208.73584
211.149231	4855.93457
215.181366	3171.986572
221.13295	2504.812256
223.148529	17630.673828
225.164322	88824.867188
227.383087	1645.872314
229.123276	2265.635742
239.180145	19514.386719
243.174866	51231.820312
243.200104	2716.690918
249.16423	22772.779297
267.175415	27352.201172
281.787567	1817.434448
285.185425	49566.097656
303.196625	13250.368164
437.193573	1903.2854
END IONS

BEGIN IONS
PEPMASS=168.066
CHARGE=1
MSLEVEL=2
SOURCE_INSTRUMENT=ESI-Orbitrap
FILENAME=GNPS00001_D10_p.mzXML
SEQ=*..*
IONMODE=Positive
ORGANISM=GNPS-LIBRARY
NAME=PYRIDOXAL M+H
PI=Dorrestein
DATACOLLECTOR=Fernando Vargas
SMILES=CC1=C(O)C(C=O)=C(CO)C=N1
INCHI="InChI=1S/C8H9NO3/c1-5-8(12)7(4-11)6(3-10)2-9-5/h2,4,10,12H,3H2,1H3"
INCHIAUX=N/A
PUBMED=na
SUBMITUSER=mpanitchpakdi
LIBRARYQUALITY=1
SPECTRUMID=CCMSLIB00005436172
USI=mzspec:GNPS:GNPS-LIBRARY:accession:CCMSLIB00005436172
SCANS=20
53.039005	4934.985352
58.61549	2196.93335
60.323864	2373.59668
60.574955	2746.579346
65.039017	10036.420898
67.054626	63467.585938
67.056335	4762.340332
71.289291	2543.833008
71.92112	2202.326904
72.367897	2342.75293
72.808632	2251.47998
77.038841	3122.748291
79.054504	8952.810547
81.03405	2527.151123
84.959808	2881.400391
94.065239	291125.875
95.049179	8719.710938
95.068153	2926.49292
101.653015	2673.818359
105.96315	6828.270996
106.065224	110929.171875
109.977776	2846.480713
110.060081	2751.442627
122.060158	320866.59375
123.06781	5277.466309
124.075615	5105.224609
130.98201	3399.029785
138.055725	4125.975098
148.039429	3613.388672
150.055161	8688926.0
150.104584	12050.989258
151.057816	14818.808594
167.057983	4206.924805
168.065735	1144841.375
168.102005	11405.760742
END IONS

BEGIN IONS
PEPMASS=333.181
CHARGE=1
MSLEVEL=2
SOURCE_INSTRUMENT=LC-ESI-Orbitrap
FILENAME=f.daniel/DOM/191120_Beach-Paper_STDs/MSMS_spectra/mzxml/Isoxaben_pos.mzXML;
SEQ=*..*
IONMODE=Positive
ORGANISM=GNPS-LIBRARY
NAME=Isoxaben M+H
PI=Daniel Petras
DATACOLLECTOR=Daniel Petras
SMILES=CCC(C)(CC)C1=NOC(=C1)NC(=O)C2=C(C=CC=C2OC)OC
INCHI= 
INCHIAUX= 
PUBMED= 
SUBMITUSER=daniel
LIBRARYQUALITY=3
SPECTRUMID=CCMSLIB00005466087
USI=mzspec:GNPS:GNPS-LIBRARY:accession:CCMSLIB00005466087
SCANS=1
75.02346	801909.25
76.031479	783330.25
77.038826	1409201.75
79.018265	816750.5
79.054909	3388876.5
85.101723	18453742.0
92.026398	1887674.25
95.049583	2060076.125
105.033417	950403.8125
107.005569	1030560.1875
107.012802	14136766.0
107.0494	6198830.0
109.065048	2047632.5
122.036377	14681850.0
125.060043	1774213.0
135.044159	2618220.0
137.05986	1770118.375
150.031204	36485376.0
164.069672	767189.5
165.054626	3260177664.0
168.041168	9756731.0
170.117142	2084168.375
222.075104	6945633.5
333.180786	193956272.0
END IONS

BEGIN IONS
PEPMASS=163.122
CHARGE=1
MSLEVEL=2
SOURCE_INSTRUMENT=LC-ESI-qTof
FILENAME=f.pilepoga/Alkalo ANGERS/Nicotine.mgf;
SEQ=*..*
IONMODE=Positive
ORGANISM=GNPS-LIBRARY
NAME=Nicotine M+H
PI=Le Pogam
DATACOLLECTOR=Le Pogam
SMILES=CN1CCC[C@H]1C2=CN=CC=C2
INCHI=1S/C10H14N2/c1-12-7-3-5-10(12)9-4-2-6-11-8-9/h2,4,6,8,10H,3,5,7H2,1H3/t10-/m0/s1
INCHIAUX= 
PUBMED= 
SUBMITUSER=pilepoga
LIBRARYQUALITY=3
SPECTRUMID=CCMSLIB00005720169
USI=mzspec:GNPS:GNPS-LIBRARY:accession:CCMSLIB00005720169
SCANS=1
101.034744	3743.977051
102.042191	8459.956055
103.050362	56574.058594
104.046539	4399.521973
105.058006	1112.146973
106.061012	13819.719727
115.048973	7127.066895
116.045258	16088.740234
117.053177	157009.0
118.060608	10696.290039
128.0448	7801.100098
130.060883	84801.273438
131.066299	1923.097046
END IONS

BEGIN IONS
PEPMASS=138.055
CHARGE=1
MSLEVEL=2
SOURCE_INSTRUMENT=ESI-Orbitrap
FILENAME=madeleine.mgf
SEQ=*..*
IONMODE=Positive
ORGANISM=GNPS-LIBRARY
NAME=4-AMINOBENZOATE - 20.0 eV M+H
PI=Madeleine Ernst
DATACOLLECTOR=Anna Abrahamsson
SMILES=NC1=CC=C(C=C1)C(O)=O
INCHI=N/A
INCHIAUX=N/A
PUBMED=N/A
SUBMITUSER=mwang87
LIBRARYQUALITY=1
SPECTRUMID=CCMSLIB00005883526
USI=mzspec:GNPS:GNPS-LIBRARY:accession:CCMSLIB00005883526
SCANS=373
50.014301	58.029999
50.014599	64.339996
50.015202	474.540009
50.0424	372.880005
50.102299	50.240002
50.453899	404.029999
50.477402	37.0
50.946899	26.25
51.023201	882.669983
51.2752	24.9
51.484798	25.5
51.590401	26.719999
51.610699	35.189999
51.685902	28.52
51.745098	25.17
51.9403	30.559999
51.970402	25.940001
51.973099	31.08
52.018299	68.489998
52.0951	73.739998
52.134102	33.959999
52.388199	30.0
52.5238	27.73
52.645302	62.060001
52.6614	258.839996
52.9063	107.370003
53.002201	71.419998
53.027401	54.610001
53.039001	662.219971
53.1427	34.82
53.1604	24.360001
53.358101	60.669998
53.402599	429.059998
53.415699	29.07
53.7896	24.52
53.797298	24.379999
53.805401	26.07
54.4487	28.17
54.454899	40.34
54.492599	45.799999
54.600899	26.09
54.6423	109.519997
54.7159	39.389999
55.086102	136.919998
55.1297	46.450001
55.387901	46.66
55.469299	60.110001
55.7733	26.08
55.898998	155.490005
55.9347	3141.179932
55.9604	498.48999
56.082199	28.91
56.2262	30.23
56.408901	25.23
56.425499	24.209999
56.564499	27.879999
56.652802	57.16
56.670101	171.889999
56.794601	51.529999
56.8377	137.949997
56.935101	32.34
56.936199	459.410004
56.942501	1060.089966
56.965099	9241.870117
56.9827	29.030001
57.1399	31.18
57.2728	89.589996
57.633701	28.17
57.935101	855.969971
57.936401	73.709999
58.4949	97.620003
58.533798	39.759998
58.770599	54.68
58.787102	218.669998
58.789398	53.389999
58.824799	60.150002
58.887501	27.15
58.967701	28.049999
58.971001	26.9
58.992901	48.41
59.0107	57.990002
59.434601	36.98
59.467499	30.91
59.490799	63.810001
59.6646	49.77
59.914101	61.5
59.9711	27.889999
60.207901	440.25
60.305801	55.740002
60.307201	128.399994
60.358299	61.240002
60.359798	101.900002
60.3615	90.940002
60.751999	27.059999
60.962601	44.189999
61.013401	29.48
61.104	32.630001
61.150002	39.0
61.163101	28.66
61.528099	28.450001
61.988998	205.020004
62.014999	81.300003
62.244701	30.120001
62.410599	54.07
62.430199	27.08
62.520599	30.66
62.5793	26.440001
62.648201	32.84
62.9151	148.300003
63.022999	44.84
63.083698	70.459999
63.178299	42.580002
63.256901	27.059999
63.5098	32.279999
63.7201	114.120003
63.739601	26.610001
64.018097	67.419998
64.4664	135.919998
64.7127	30.15
64.727699	32.189999
64.8955	423.369995
65.038696	36194.699219
65.389	27.959999
65.633499	55.060001
65.637703	40.689999
65.720703	200.850006
65.980301	29.26
66.041901	1316.949951
66.046501	112.339996
66.147598	30.879999
66.207298	45.66
66.281601	29.110001
66.286697	29.9
66.302299	63.34
66.327904	45.43
66.403	422.170013
66.485298	335.5
66.606003	49.669998
66.659897	30.139999
67.042503	189.899994
67.054298	6340.180176
67.107498	62.610001
67.405098	47.470001
67.413002	28.07
67.661499	30.950001
68.003098	31.66
68.0495	232.860001
68.057602	298.980011
68.500702	48.5
68.534203	30.91
68.586899	29.299999
68.717697	27.17
69.031197	504.339996
69.210403	30.309999
69.692497	27.389999
69.757401	144.539993
69.959	33.139999
70.080399	27.469999
70.177597	30.98
70.193802	110.970001
70.319801	28.610001
70.508102	29.969999
70.655701	42.18
70.733803	44.110001
70.779999	35.130001
70.917999	32.77
71.394402	50.740002
71.6408	63.279999
71.670601	49.48
71.953903	59.900002
72.063797	99.620003
72.648804	28.07
72.7136	59.939999
72.937202	3871.219971
72.940903	76.169998
74.0149	236.270004
74.021202	39.610001
74.043098	126.900002
74.096298	287.970001
74.120399	30.99
74.164703	29.309999
74.3592	56.630001
74.975403	38.25
74.995598	31.639999
75.022797	1424.410034
75.106903	52.029999
75.267097	156.220001
76.026604	101.169998
76.030602	575.219971
76.818802	615.890015
77.024498	31.799999
77.036201	167.419998
77.038498	14802.94043
77.740799	71.110001
78.041901	1354.880005
78.0812	29.030001
78.3778	36.330002
79.017799	156.229996
79.054298	30.950001
79.145599	30.23
79.875099	476.709991
80.264999	68.720001
80.655701	31.6
81.033401	1342.540039
81.227699	34.32
81.568802	28.969999
81.601501	56.790001
82.027	31.790001
82.0467	33.82
82.2603	34.23
82.953796	36.779999
83.384598	43.27
83.431396	34.650002
83.735497	243.020004
83.986	57.689999
84.052101	31.120001
84.116402	30.93
84.503899	32.459999
84.988197	45.470001
85.705803	40.380001
85.803001	139.300003
86.820297	106.910004
86.966599	45.279999
88.023201	51.91
88.093498	35.529999
88.121803	34.5
88.193497	33.220001
88.361	127.540001
88.458504	53.990002
88.968399	498.359985
89.211403	32.869999
89.716003	37.389999
90.5783	35.369999
90.730904	29.620001
90.947701	2330.48999
90.951897	55.75
91.138298	32.330002
91.230103	45.380001
91.737801	221.820007
92.0495	54703.171875
93.0336	1199.47998
93.052902	2718.76001
93.057297	48131.589844
93.07	112.0
93.208801	32.060001
93.264099	46.119999
93.582802	45.790001
93.904198	32.630001
94.041	1189.579956
94.061699	1143.290039
94.065102	584688.75
94.088303	956.719971
94.090698	291.399994
94.124702	328.559998
94.5513	113.82
94.631203	32.060001
94.803902	34.630001
95.0243	188.039993
95.049103	130604.75
95.062202	2920.02002
95.068398	65060.859375
95.896004	153.770004
96.044403	1166.359985
96.049202	113.790001
96.052299	10716.0
96.585999	37.27
96.856796	61.59
96.9375	67.279999
97.007599	224.460007
97.064598	82.589996
97.908401	363.790009
97.969002	72.519997
97.991402	954.880005
98.054199	35.779999
98.084999	103.349998
98.961304	126.300003
98.978401	31.08
99.758003	32.060001
99.986504	28.93
100.862	164.029999
101.363403	32.619999
101.489197	548.780029
102.047897	60.029999
102.4049	56.330002
102.5718	33.900002
102.916801	31.200001
102.948097	76.650002
103.0177	340.73999
103.354797	32.990002
105.044701	52847.488281
105.609497	157.410004
106.042198	120.510002
106.048103	4410.370117
106.147202	37.650002
106.5214	45.200001
106.566704	31.59
107.065903	38.049999
107.178299	31.290001
107.180702	342.209991
107.767502	29.200001
108.036903	34.330002
108.338203	34.939999
108.958298	230.419998
109.010803	471.119995
109.051498	97.57
109.366302	32.759998
110.059998	5428.700195
110.202103	500.209991
110.211502	32.43
111.0233	393.929993
111.044197	1317.329956
111.063301	68.110001
111.080399	31.92
112.266602	33.290001
112.323898	33.18
113.018997	63.259998
113.218002	109.279999
113.233002	40.07
113.963799	16189.849609
114.115196	36.439999
114.288803	34.990002
114.971603	1682.109985
115.014603	2391.850098
115.964104	4576.060059
115.999901	301.049988
116.001999	516.659973
116.677498	62.09
116.817299	28.43
116.972	20536.830078
117.165298	519.469971
117.833603	151.0
118.007103	32.990002
118.500198	29.73
119.994102	29.74
120.008797	2357.110107
120.037804	415.119995
120.044403	1235657.75
120.055801	236.220001
120.0616	53.400002
120.078697	2712.159912
120.927902	61.5
121.028397	8198.0
121.041298	6639.399902
121.047699	162539.953125
121.084	91.989998
121.101196	41.599998
121.127899	31.620001
122.019203	138.979996
122.031799	341.279999
122.525902	34.790001
122.629501	36.509998
122.698402	34.330002
124.015099	6886.589844
125.039101	35.84
125.472198	62.970001
126.256401	34.869999
126.475197	158.550003
127.012001	35.77
127.548798	31.65
128.287704	31.52
128.528107	86.620003
128.950806	12426.799805
129.951004	102.669998
129.954498	108.779999
130.204407	332.299988
131.1707	31.940001
131.974304	6993.339844
132.702301	31.68
132.766907	58.439999
132.958801	81.540001
133.025299	293.850006
133.901001	54.990002
134.012604	51.880001
134.328201	57.259998
136.035095	204.729996
136.110504	65.790001
137.047501	678.849976
137.124207	30.780001
137.300903	30.620001
137.916702	164.5
138.011993	6473.240234
138.0215	107.830002
138.036804	205.449997
138.046097	5428.689941
138.054901	2952139.0
138.075302	713.599976
138.0914	158.559998
138.097595	4381.779785
138.101196	1583.430054
138.128799	310.350006
138.184006	148.860001
138.271194	107.43
139.013901	619.940002
139.039597	1550.619995
139.052399	11461.709961
139.058105	375764.375
139.0755	589.809998
139.100403	562.960022
139.111893	586.119995
139.558395	167.479996
140.826096	49.09
141.480606	330.730011
141.927902	33.779999
142.025696	615.880005
142.211899	36.849998
143.510498	60.189999
144.838898	357.309998
144.909393	33.139999
144.968201	32.669998
145.903397	38.959999
146.417801	57.380001
146.721497	36.68
146.961304	8274.740234
147.949005	165.919998
147.964005	142.850006
148.321899	35.630001
148.391205	540.940002
148.961594	120.889999
149.0345	13427.19043
149.841507	71.830002
150.037506	1108.780029
150.210907	31.370001
151.460495	109.160004
151.698593	32.34
152.070496	90.459999
154.150604	107.410004
155.758606	62.82
155.823196	31.93
156.065704	976.890015
156.756805	30.700001
157.512894	37.150002
158.210495	37.099998
158.319	128.729996
158.394806	554.75
158.666504	36.59
159.534393	56.5
END IONS

BEGIN IONS
PEPMASS=162.112
CHARGE=1
MSLEVEL=2
SOURCE_INSTRUMENT=ESI-Orbitrap
FILENAME=madeleine.mgf
SEQ=*..*
IONMODE=Positive
ORGANISM=GNPS-LIBRARY
NAME=L-CARNITINE - 20.0 eV M+H
PI=Madeleine Ernst
DATACOLLECTOR=Anna Abrahamsson
SMILES=C[N+](C)(C)C[C@H](O)CC([O-])=O
INCHI=N/A
INCHIAUX=N/A
PUBMED=N/A
SUBMITUSER=mwang87
LIBRARYQUALITY=1
SPECTRUMID=CCMSLIB00005884287
USI=mzspec:GNPS:GNPS-LIBRARY:accession:CCMSLIB00005884287
SCANS=1134
50.852901	140.759995
52.5742	144.460007
52.6688	6155.299805
53.2318	6380.560059
53.2351	146.5
53.864899	149.490005
55.016602	138.210007
55.646999	8056.279785
55.919998	6512.72998
57.599899	158.550003
58.0653	23370.109375
58.497299	3430.98999
58.923199	159.490005
59.0732	12651.110352
59.267502	3443.179932
59.495098	7644.799805
60.0811	583750.4375
60.082699	8369.830078
60.5616	164.25
61.0499	3647.590088
61.0844	16390.980469
61.847401	163.449997
66.533401	3515.550049
68.390099	3366.100098
68.421501	183.800003
70.116699	7999.339844
70.486801	3851.830078
70.613297	169.699997
71.0578	6628.660156
72.433899	3852.51001
75.935501	268.799988
77.627098	222.880005
77.715698	3747.51001
83.540199	185.399994
84.314301	4182.310059
84.9599	831.830017
85.028503	187420.75
85.611801	163.660004
85.970703	8740.419922
89.098503	4043.219971
89.183701	4783.609863
92.948303	170.669998
93.866203	173.910004
93.946404	205.889999
94.062401	168.779999
94.3283	8023.52002
94.705704	184.800003
95.892097	8209.169922
100.9674	4773.040039
102.055199	321.619995
102.091499	260748.65625
102.514503	3662.850098
102.970596	209.259995
103.039101	1130626.25
103.058701	240.380005
103.304901	199.860001
104.042397	69443.421875
115.954399	799.51001
116.7528	4482.029785
116.962303	739.109985
116.972099	1084.530029
117.975899	211.860001
117.979797	3015.22998
118.977798	306.26001
118.983398	498.089996
127.493896	7515.700195
128.951004	700.880005
129.891205	3829.060059
132.576202	192.179993
132.957199	1527.27002
132.966705	200.949997
133.964905	1592.410034
134.972702	475.709991
135.716003	8781.450195
139.738693	183.259995
146.961502	512.900024
150.967697	719.309998
151.9151	4149.22998
151.975693	236.410004
152.013794	191.190002
156.977295	4930.279785
158.2323	190.559998
162.054001	14051.330078
162.059799	17272.470703
162.101593	40265.261719
162.112701	9989296.0
162.167694	16678.449219
162.967697	1066.73999
163.003006	238.279999
163.0392	773.299988
163.050095	241.419998
163.109894	48925.75
163.115997	1024723.125
176.700104	247.330002
END IONS

BEGIN IONS
PEPMASS=164.038
CHARGE=1
MSLEVEL=2
SOURCE_INSTRUMENT=ESI-Orbitrap
FILENAME=madeleine.mgf
SEQ=*..*
IONMODE=Positive
ORGANISM=GNPS-LIBRARY
NAME=N-ACETYL-L-CYSTEINE - 20.0 eV M+H
PI=Madeleine Ernst
DATACOLLECTOR=Anna Abrahamsson
SMILES=CC(=O)N[C@@H](CS)C(O)=O
INCHI=N/A
INCHIAUX=N/A
PUBMED=N/A
SUBMITUSER=mwang87
LIBRARYQUALITY=1
SPECTRUMID=CCMSLIB00005884593
USI=mzspec:GNPS:GNPS-LIBRARY:accession:CCMSLIB00005884593
SCANS=1440
50.094398	74.760002
52.3993	84.669998
52.864399	108.559998
52.8829	93.940002
53.538399	85.25
53.947201	87.239998
54.255501	106.639999
54.425598	101.669998
54.475201	82.610001
54.587898	121.029999
55.662998	94.989998
58.4081	86.809998
58.9562	86.5
58.995399	376.140015
59.592999	83.349998
60.034	85.239998
60.410599	87.959999
60.511799	89.150002
61.3326	110.889999
61.728802	93.300003
61.9879	86.970001
64.6922	104.440002
65.558899	90.669998
66.564003	108.029999
66.749702	106.559998
69.014099	92.860001
70.153801	96.860001
70.272697	100.190002
70.690498	97.639999
72.446999	94.620003
73.262802	119.029999
76.021698	11895.589844
76.5709	124.239998
77.025002	276.170013
77.098701	86.739998
77.422798	95.959999
78.000801	89.910004
78.300697	91.279999
78.894302	91.739998
79.488899	104.0
79.705101	86.580002
79.739403	108.260002
79.8937	96.489998
80.833099	91.279999
81.483597	100.120003
83.907997	98.559998
84.960098	365.640015
85.155998	118.160004
85.178497	96.989998
86.4468	90.309998
86.539001	116.610001
86.990196	266.589996
88.578499	118.5
88.879303	116.279999
89.083099	109.730003
89.605301	101.300003
90.836899	91.980003
90.948196	99.879997
91.204399	111.050003
92.017601	108.410004
92.331802	119.849998
94.188004	102.43
95.070702	111.790001
96.055901	252.020004
96.221901	123.620003
97.250702	103.730003
97.9645	98.349998
99.003403	124.910004
100.4515	106.580002
103.254601	92.660004
104.520203	116.699997
105.000702	4519.830078
105.093597	114.809998
105.1586	104.339996
106.515999	110.75
110.083298	104.800003
110.753899	123.169998
111.305099	106.040001
111.9916	107.110001
112.9944	102.57
114.051697	102.940002
114.896896	108.650002
115.077797	105.870003
118.032303	5155.100098
118.967796	823.659973
119.124397	105.25
119.737602	109.160004
119.975502	1927.619995
122.027298	57848.878906
122.807098	133.089996
123.026802	107.639999
123.030602	3105.899902
123.382301	100.379997
125.444397	110.169998
127.667503	123.139999
128.848999	125.050003
128.994904	114.690002
130.822403	97.139999
135.807007	107.330002
136.687805	118.360001
145.593796	111.68
146.023605	817.700012
146.027695	376.450012
149.704803	120.25
150.014496	1359.319946
150.286194	106.330002
152.005402	118.040001
153.014603	130.470001
155.796005	122.830002
156.449295	107.580002
157.713501	107.849998
164.034698	928.780029
165.0298	122.629997
165.041107	8387.419922
165.046707	162.119995
166.025497	419.390015
173.198105	120.900002
174.386398	116.300003
183.055099	125.010002
183.921204	106.309998
END IONS

BEGIN IONS
PEPMASS=571.365
CHARGE=1
MSLEVEL=2
SOURCE_INSTRUMENT=LC-ESI-qTof
FILENAME=f.amoreno/Standards_compounds/UNAM_STDs.mgf;
SEQ=*..*
IONMODE=Positive
ORGANISM=GNPS-LIBRARY
NAME=Carbenoxolone M+H
PI=Aldo Moreno Ulloa
DATACOLLECTOR=Alan Hernandez Melgar
SMILES=C[C@]12CC[C@](C[C@H]1C3=CC(=O)[C@@H]4[C@]5(CC[C@@H](C([C@@H]5CC[C@]4([C@@]3(CC2)C)C)(C)C)OC(=O)CCC(=O)O)C)(C)C(=O)O
INCHI=1S/C34H50O7/c1-29(2)23-10-13-34(7)27(32(23,5)12-11-24(29)41-26(38)9-8-25(36)37)22(35)18-20-21-19-31(4,28(39)40)15-14-30(21,3)16-17-33(20,34)6/h18,21,23-24,27H,8-17,19H2,1-7H3,(H,36,37)(H,39,40)/t21-,23-,24-,27+,30+,31-,32-,33+,34+/m0/s1
INCHIAUX= 
PUBMED=636403
SUBMITUSER=amoreno
LIBRARYQUALITY=3
SPECTRUMID=CCMSLIB00006126866
USI=mzspec:GNPS:GNPS-LIBRARY:accession:CCMSLIB00006126866
SCANS=99
55.052399	64.0
67.057098	32.0
67.8088	27.0
69.068001	54.0
71.052597	27.0
73.027603	32.0
79.057404	47.0
81.069801	180.0
81.449799	21.0
83.056999	73.0
83.098396	30.0
83.516701	13.0
85.066101	79.0
91.053497	63.0
93.0718	80.0
94.767799	31.0
95.0849	260.0
95.185097	15.0
95.351196	18.0
95.469398	18.0
95.615997	21.0
96.739799	20.0
97.092102	65.0
100.526299	14.0
101.022202	67.0
105.072502	77.0
105.439598	13.0
105.903397	13.0
107.086899	210.0
107.231102	14.0
107.359001	16.0
107.612198	13.0
107.746902	22.0
108.044296	16.0
109.099701	170.0
109.2323	15.0
109.374603	21.0
109.503403	18.0
109.624603	19.0
109.879303	12.0
110.4534	13.0
111.104103	65.0
111.224403	13.0
111.321701	19.0
111.498299	32.0
112.052696	13.0
117.072998	29.0
119.086304	170.0
119.185501	13.0
119.352203	21.0
119.487503	19.0
119.570602	19.0
119.686203	19.0
120.071701	25.0
120.5522	19.0
121.100098	230.0
121.205597	18.0
121.323402	26.0
121.517601	20.0
121.700699	22.0
121.890297	20.0
122.0923	23.0
122.727303	34.0
123.115501	160.0
123.234001	19.0
123.323196	22.0
123.420601	28.0
123.546898	18.0
123.681702	12.0
123.955299	13.0
125.098701	42.0
125.099297	48.0
126.849197	14.0
127.093498	48.0
131.085495	69.0
132.566696	16.0
133.101303	130.0
133.1819	13.0
133.486404	11.0
134.152695	17.0
135.114105	270.0
135.210495	19.0
135.231903	20.0
135.406906	18.0
135.549805	23.0
135.649506	18.0
135.794296	15.0
135.870193	21.0
136.029007	23.0
136.105392	14.0
136.318695	29.0
137.131302	88.0
137.576508	17.0
138.306595	11.0
139.103607	75.0
139.108795	74.0
139.940704	14.0
141.092804	36.0
143.088699	46.0
143.146698	17.0
143.818802	20.0
145.102097	83.0
145.341705	21.0
145.469894	17.0
146.109299	11.0
147.115906	120.0
147.206497	20.0
147.359207	18.0
147.529907	21.0
147.840897	20.0
148.136902	17.0
148.388794	22.0
149.120407	240.0
149.122894	250.0
149.247604	16.0
149.258301	21.0
149.330902	17.0
149.460602	23.0
149.578003	18.0
149.682297	17.0
149.757294	22.0
150.060196	14.0
150.263	20.0
150.382202	27.0
151.145004	79.0
152.307404	22.0
152.966293	13.0
153.105392	47.0
153.455002	15.0
153.565201	30.0
155.086304	42.0
156.091599	37.0
157.102097	49.0
157.396194	13.0
157.556503	17.0
159.066406	29.0
159.115204	79.0
159.301605	24.0
159.481293	24.0
160.024796	13.0
160.160095	28.0
161.129196	120.0
161.130402	140.0
161.248993	17.0
161.337799	16.0
161.512802	25.0
161.630997	17.0
161.794296	22.0
161.969406	29.0
162.482193	19.0
162.9608	17.0
163.144608	110.0
163.234604	11.0
163.549301	21.0
163.767105	16.0
164.258408	23.0
165.127701	51.0
165.854797	15.0
167.104004	53.0
169.102402	54.0
171.119003	58.0
171.230804	32.0
171.716202	19.0
172.818298	18.0
173.129593	140.0
173.250107	15.0
173.5056	30.0
173.7341	14.0
174.243393	18.0
175.147003	230.0
175.268204	18.0
175.514603	25.0
175.6763	17.0
175.779694	20.0
176.079605	14.0
176.276901	21.0
176.372299	16.0
176.750504	15.0
177.1595	150.0
177.266602	13.0
177.343903	15.0
177.502594	20.0
177.796005	17.0
179.135406	53.0
181.133499	26.0
183.112701	35.0
185.1315	63.0
186.134705	28.0
187.147202	90.0
187.231796	12.0
187.469498	35.0
188.166199	18.0
188.320999	13.0
188.668793	23.0
189.163895	480.0
189.290298	21.0
189.4496	16.0
189.564194	21.0
189.736694	14.0
189.907501	21.0
190.007401	20.0
190.191696	23.0
190.282501	22.0
190.485107	16.0
190.854996	16.0
191.1763	110.0
191.310806	17.0
191.750198	21.0
192.274796	20.0
193.145096	37.0
193.363907	20.0
193.612503	35.0
195.106796	30.0
197.130402	75.0
197.468506	17.0
199.148102	120.0
199.253998	16.0
199.438797	16.0
199.510101	18.0
199.664902	16.0
200.159103	14.0
201.158401	94.0
201.291306	15.0
201.430206	28.0
203.151596	69.0
203.248001	18.0
203.871002	15.0
204.712097	16.0
205.158707	45.0
205.259995	14.0
205.501907	19.0
205.817596	14.0
207.151703	38.0
210.142303	55.0
211.151505	42.0
211.232697	11.0
212.128906	34.0
213.164703	110.0
213.268799	12.0
214.187805	31.0
215.147095	94.0
215.2453	18.0
215.382294	18.0
215.651794	20.0
215.790802	14.0
215.983795	16.0
217.054703	15.0
217.1595	300.0
217.277893	17.0
217.376205	13.0
217.460999	16.0
217.542496	17.0
217.690506	19.0
217.793304	17.0
217.899506	16.0
218.063202	16.0
218.174393	22.0
218.353699	26.0
218.470093	12.0
218.576096	22.0
218.955505	24.0
219.172897	110.0
219.328995	12.0
219.4758	19.0
219.849106	12.0
221.163101	40.0
225.164307	26.0
225.330307	15.0
227.176407	98.0
227.313995	14.0
229.180298	58.0
229.707504	14.0
229.989395	13.0
230.252197	26.0
230.489502	45.0
231.172104	92.0
231.290298	13.0
231.4888	11.0
231.613998	17.0
231.840897	25.0
233.179199	49.0
233.7901	28.0
234.633102	24.0
235.168793	150.0
235.289993	14.0
235.312805	14.0
235.533203	18.0
235.858002	16.0
236.120102	20.0
237.820801	52.0
239.181396	36.0
239.256805	17.0
241.196701	91.0
241.5923	13.0
241.755905	21.0
242.192093	38.0
243.188202	60.0
243.534103	23.0
245.186295	110.0
245.3078	12.0
245.406799	10.0
245.458496	15.0
245.742599	24.0
246.013504	19.0
246.275406	24.0
247.168396	35.0
248.494598	26.0
249.152405	63.0
249.440308	24.0
249.5634	13.0
251.177094	58.0
253.199799	93.0
253.347702	17.0
255.209503	34.0
257.192505	50.0
257.383606	12.0
257.629395	18.0
259.192688	53.0
259.952393	16.0
260.185486	19.0
260.575592	29.0
261.149902	110.0
261.25351	15.0
261.772705	12.0
263.165314	94.0
263.312988	12.0
263.483398	12.0
263.853394	27.0
263.950012	20.0
264.425598	27.0
264.540009	11.0
265.194305	50.0
265.313904	12.0
265.481415	15.0
266.06601	15.0
267.212708	89.0
267.353302	17.0
267.754303	12.0
267.93631	16.0
268.304901	13.0
268.586487	16.0
269.218994	50.0
269.611389	21.0
269.842987	13.0
271.207001	140.0
271.336609	14.0
271.789612	21.0
271.903992	14.0
272.180695	15.0
272.976501	25.0
273.192596	65.0
273.256805	27.0
275.188385	33.0
275.198486	51.0
275.268097	12.0
276.361511	24.0
276.611389	26.0
277.182007	49.0
277.626892	11.0
278.08371	13.0
279.207489	53.0
281.227692	33.0
281.406586	16.0
282.218689	28.0
283.224213	45.0
283.327301	20.0
285.220703	250.0
285.329895	22.0
285.509705	20.0
285.656311	20.0
285.814514	17.0
285.979309	21.0
286.213593	12.0
286.367798	23.0
287.200195	62.0
287.324707	17.0
287.884186	18.0
288.348999	22.0
289.187897	76.0
290.6745	14.0
290.817505	16.0
291.200409	57.0
291.415314	17.0
293.226013	46.0
293.447693	14.0
293.92691	16.0
295.237305	57.0
297.219208	76.0
297.507904	18.0
299.164001	24.0
299.209686	61.0
299.681488	15.0
301.201904	41.0
301.206085	57.0
301.735504	14.0
302.267609	17.0
303.196289	55.0
303.319214	14.0
303.812012	17.0
304.306702	22.0
305.225891	38.0
305.551697	29.0
305.713501	11.0
307.238403	29.0
307.896088	18.0
309.235809	43.0
310.209686	17.0
311.239594	110.0
311.570709	15.0
311.763885	16.0
311.914886	28.0
312.051392	19.0
312.209991	24.0
312.414612	36.0
313.218811	57.0
314.1828	23.0
315.21701	52.0
315.420593	14.0
317.212311	250.0
317.334503	18.0
317.448395	16.0
317.53479	15.0
317.696808	17.0
317.813995	17.0
318.0448	17.0
318.316101	29.0
318.417114	11.0
318.529602	11.0
319.244995	35.0
321.256897	21.0
323.239685	52.0
323.405609	13.0
324.254089	16.0
325.231415	63.0
325.360199	19.0
326.207794	16.0
327.235504	69.0
329.225586	59.0
329.365509	15.0
331.229187	44.0
333.252594	38.0
335.188293	95.0
337.247101	41.0
337.628296	20.0
339.010712	12.0
339.235291	70.0
339.427002	14.0
339.654297	13.0
341.246887	52.0
341.336487	18.0
341.498199	13.0
342.221191	41.0
343.227692	89.0
343.304108	17.0
343.443909	22.0
343.93161	18.0
344.259796	14.0
344.941193	19.0
345.239502	55.0
348.063507	12.0
349.291687	29.0
350.293213	17.0
351.240112	37.0
351.314606	18.0
352.261993	12.0
352.680389	14.0
353.250214	34.0
355.22879	35.0
355.6091	18.0
356.250488	40.0
357.241913	250.0
357.35611	15.0
357.559814	18.0
357.742889	24.0
357.872711	12.0
358.006195	25.0
358.24881	40.0
358.956696	12.0
359.256195	34.0
361.305206	21.0
361.595001	18.0
363.202911	30.0
363.313293	35.0
364.501312	21.0
365.256897	42.0
365.454498	22.0
365.612305	15.0
365.96109	17.0
366.300293	19.0
367.279785	35.0
369.242004	140.0
369.380188	14.0
370.254608	39.0
370.868408	11.0
371.259613	60.0
371.483307	16.0
375.296295	45.0
377.256989	45.0
379.269409	53.0
381.283203	34.0
383.261597	120.0
385.062103	12.0
385.275787	61.0
385.409393	12.0
389.320099	180.0
389.440887	13.0
389.709106	17.0
389.784607	14.0
392.267487	25.0
393.285187	42.0
393.998291	13.0
395.295593	50.0
397.275787	52.0
397.377289	14.0
397.99649	12.0
407.332794	360.0
407.470795	22.0
407.567688	18.0
407.680298	24.0
407.737	24.0
407.881287	13.0
408.025208	21.0
408.205292	25.0
408.31131	16.0
408.495514	24.0
408.90509	28.0
409.314911	36.0
410.314911	21.0
411.293701	64.0
411.387085	13.0
411.553101	14.0
420.292114	42.0
423.293304	24.0
424.266602	13.0
425.34259	39.0
435.326904	430.0
435.467499	15.0
435.567688	16.0
435.685486	15.0
435.861694	17.0
436.014404	18.0
436.122498	16.0
436.173706	17.0
436.308502	17.0
436.438995	22.0
436.788208	18.0
437.213593	13.0
437.964294	13.0
438.485596	17.0
448.883911	17.0
449.662903	18.0
449.8172	19.0
449.975891	13.0
451.626892	16.0
452.1362	16.0
452.438385	30.0
453.06131	10.0
453.337708	2700.0
453.542511	52.0
453.6492	37.0
453.740387	45.0
453.767303	41.0
453.861389	21.0
453.904694	34.0
454.000488	39.0
454.098694	32.0
454.205688	31.0
454.332001	31.0
454.426392	38.0
454.455505	30.0
454.55069	30.0
454.651489	21.0
454.669495	27.0
454.765106	20.0
454.835388	12.0
454.903595	21.0
455.077087	23.0
455.19519	19.0
455.333588	22.0
455.514801	15.0
455.604401	25.0
455.701385	21.0
455.778687	16.0
455.948608	34.0
456.185303	17.0
456.305206	23.0
456.379486	21.0
456.547699	17.0
456.784912	21.0
459.448395	14.0
507.344391	38.0
525.353821	51.0
525.468506	18.0
553.343323	18.0
571.35437	46.0
913.07312	11.0
1585.650513	28.0
END IONS

BEGIN IONS
PEPMASS=282.134
CHARGE=1
MSLEVEL=2
SOURCE_INSTRUMENT=LC-ESI-qTof
FILENAME=f.trevorclark/IMS_PAPER/EV_pure_compounds_mgf/MSMS_PROCESSING_TEST_1/MSMS_PROCESSING_TEST_1/20180306_STD_CYCH_MSMS_30V [116] [77].mgf;
SEQ=*..*
IONMODE=Positive
ORGANISM=GNPS-LIBRARY
NAME=Cycloheximide M+H
PI=Roger Linington
DATACOLLECTOR=Trevor Clark
SMILES=C[C@H]1C[C@@H](C(=O)[C@H](C1)[C@@H](CC2CC(=O)NC(=O)C2)O)C
INCHI= 
INCHIAUX= 
PUBMED= 
SUBMITUSER=trevorclark
LIBRARYQUALITY=1
SPECTRUMID=CCMSLIB00006718022
USI=mzspec:GNPS:GNPS-LIBRARY:accession:CCMSLIB00006718022
SCANS=1
178.9673	291.170013
180.946503	116.25
201.047302	115.0
203.058304	241.880005
207.001205	228.889999
222.940598	705.840027
224.923904	262.75
250.971207	2119.310059
252.949097	191.050003
270.11441	150.800003
END IONS

BEGIN IONS
PEPMASS=837.49
CHARGE=1
MSLEVEL=2
SOURCE_INSTRUMENT=LC-ESI-qTof
FILENAME=f.trevorclark/IMS_PAPER/EV_pure_compounds_mgf/MSMS_PROCESSING_TEST_1/MSMS_PROCESSING_TEST_1/20180306_STD_ROX_MSMS_30V [19] [171].mgf;
SEQ=*..*
IONMODE=Positive
ORGANISM=GNPS-LIBRARY
NAME=Roxithromycin M+H
PI=Roger Linington
DATACOLLECTOR=Trevor Clark
SMILES=O=C3O[C@H](CC)[C@](O)(C)[C@H](O)[C@H](\C(=N\OCOCCOC)[C@H](C)C[C@](O)(C)[C@H](O[C@@H]1O[C@H](C)C[C@H](N(C)C)[C@H]1O)[C@H]([C@H](O[C@@H]2O[C@H]([C@H](O)[C@](OC)(C2)C)C)[C@H]3C)C)C
INCHI= 
INCHIAUX= 
PUBMED= 
SUBMITUSER=trevorclark
LIBRARYQUALITY=1
SPECTRUMID=CCMSLIB00006718031
USI=mzspec:GNPS:GNPS-LIBRARY:accession:CCMSLIB00006718031
SCANS=1
158.119202	966.940002
380.233612	176.880005
398.239594	855.98999
410.224701	111.839996
414.234406	118.0
416.253815	263.299988
446.257111	872.0
464.274902	149.789993
482.292206	135.0
486.289093	344.48999
500.310791	209.289993
504.29599	646.77002
515.316711	341.950012
522.316589	15664.049805
531.314697	106.0
537.329407	520.700012
540.334778	8893.280273
555.347717	35290.828125
560.351196	1265.060059
573.358826	11275.080078
585.355713	5622.589844
591.371582	303.809998
602.380981	163.529999
602.845398	132.619995
603.369202	49973.179688
619.360474	116.0
625.411011	102.0
626.382202	120.730003
635.386902	126.900002
643.396973	4015.149902
647.234497	129.630005
647.626282	172.259995
659.396179	130.0
660.820129	107.459999
661.409729	104595.820312
677.40332	1835.599976
678.309387	102.290001
678.669312	160.220001
678.787903	132.619995
678.864075	295.769989
678.951477	146.199997
679.058716	163.149994
679.117188	139.770004
679.240417	225.649994
679.42041	1023507.375
679.5625	325.959991
679.61731	294.559998
679.705688	205.779999
679.830017	271.809998
680.0047	155.740005
680.214905	148.25
681.535828	100.870003
682.191406	170.229996
682.428101	11728.650391
685.633118	113.0
698.428406	1259.170044
713.436218	404.019989
716.439514	3000.100098
729.442505	405.0
731.452271	635.669983
743.44519	151.0
761.465088	1079.829956
805.486511	276.450012
819.500671	2328.659912
837.177307	357.459991
837.359192	179.220001
837.511597	53926.339844
838.326477	173.820007
839.120178	143.679993
839.264282	100.029999
839.365295	239.949997
END IONS

BEGIN IONS
PEPMASS=111.044
CHARGE=1
MSLEVEL=2
SOURCE_INSTRUMENT=LC-ESI-Orbitrap
FILENAME=t.b30033a26b48478bba2e4cfd095044ce/spectra/specs_ms.mgf;
SEQ=*..*
IONMODE=Positive
ORGANISM=GNPS-LIBRARY
NAME=Hydroquinone M+H
PI=Jonathan W. Martin
DATACOLLECTOR=Stefano Papazian
SMILES=C1=CC(=CC=C1O)O
INCHI= 
INCHIAUX= 
PUBMED= 
SUBMITUSER=montmasis
LIBRARYQUALITY=3
SPECTRUMID=CCMSLIB00006718073
USI=mzspec:GNPS:GNPS-LIBRARY:accession:CCMSLIB00006718073
SCANS=324
52.018539	91211.0
53.997929	73197.0
54.034119	113259.0
55.018261	5085969.0
55.054661	1058820.0
56.021679	373609.0
56.049809	586036.0
56.057941	71884.0
57.033741	190138.0
57.070122	244490.0
58.029148	106841.0
59.060612	496197.0
60.04475	14554.0
62.92942	451214.0
63.023338	213762.0
64.927368	202651.0
65.038773	26416.0
66.033974	43824.0
66.046654	26173.0
67.029182	88845.0
67.054489	792734.0
67.98954	196698.0
68.013283	3923.0
69.044807	307594.0
69.992393	27458.0
70.028862	158762.0
70.065353	739344.0
72.044647	5475.0
72.937317	137491.0
73.028687	118435.0
73.064903	52753.0
75.046593	228692.0
79.059273	161394.0
81.040993	402858.0
81.05233	138439.0
82.036247	189245.0
83.020233	36121.0
83.05687	2579020.0
83.092987	107014.0
84.051079	205237.0
84.087479	89682.0
85.035103	767104.0
85.071587	173367.0
87.049927	64474.0
92.05471	112801.0
93.037827	63261.0
93.06192	55629.0
93.074463	128912.0
94.032913	179422.0
94.069656	51651.0
95.028603	305481.0
95.089813	31191.0
97.067978	14207.0
97.079353	1143997.0
98.063454	244116.0
98.082764	201970.0
98.979019	405790.0
99.047752	294052.0
100.115837	931362.0
101.026047	272169.0
101.110046	442192.0
101.117699	120429.0
102.057678	313124.0
105.034439	126155.0
105.046181	70998.0
105.071426	95349.0
106.066483	49566.0
107.050507	66063.0
109.07621	59359.0
110.035316	395650.0
110.047707	124668.0
110.060066	561544.0
111.044212	13637038.0
111.055473	1577884.0
111.09198	218544.0
END IONS

BEGIN IONS
PEPMASS=243.082
CHARGE=1
MSLEVEL=2
SOURCE_INSTRUMENT=LC-ESI-Orbitrap
FILENAME=f.zhaohaoq/20220624_DrugExtract_neg/samples/No60.mzML;
SEQ=*..*
IONMODE=Negative
ORGANISM=GNPS-LIBRARY
NAME=Flurbiprofen M-H
PI=Pieter C. Dorrestein
DATACOLLECTOR=Haoqi Nina Zhao
SMILES=Fc2cc(ccc2c1ccccc1)C(C(=O)O)C
INCHI=SYTBZMRGLBWNTM-UHFFFAOYSA-N
INCHIAUX= 
PUBMED= 
SUBMITUSER=zhaohaoq
LIBRARYQUALITY=3
SPECTRUMID=CCMSLIB00010011931
USI=mzspec:GNPS:GNPS-LIBRARY:accession:CCMSLIB00010011931
SCANS=1346
50.063419	6238.003418
50.098892	7455.227051
51.389755	5868.689941
58.509415	7064.829102
70.055016	6666.819336
71.380157	7080.676758
72.624321	7226.66748
74.42379	6864.76709
80.564278	9019.094727
81.417351	7972.0625
86.18924	8162.133789
87.012466	8533.882812
92.511528	7817.711426
93.321259	6607.134277
99.442398	10609.492188
103.010117	8483.604492
109.810059	7723.34668
115.239891	7148.610352
124.775909	7981.204102
136.550995	8269.491211
145.718307	9721.209961
164.720825	8642.649414
177.070984	19644.894531
179.086777	147133.59375
180.089981	26331.746094
187.056854	19339.425781
195.081909	43920.050781
197.077393	274563.15625
197.882996	9585.672852
198.080597	60286.0
198.09877	23563.177734
199.093063	13395188.0
200.09639	2534636.5
201.099747	78868.515625
213.246841	7431.738281
219.459198	8191.066406
223.062866	36041.621094
225.060165	9054.808594
241.06752	17167.921875
243.070526	11420.053711
243.082855	35500.390625
257.51123	8410.226562
END IONS

BEGIN IONS
PEPMASS=109.03
CHARGE=1
MSLEVEL=2
SOURCE_INSTRUMENT=LC-ESI-qTof
FILENAME=f.stephane/Standards/Catechol_120-80-9_NEG_MS2_20-40eV.mgf;
SEQ=*..*
IONMODE=Negative
ORGANISM=GNPS-LIBRARY
NAME=Catechol M-H
PI=Stephane GREFF
DATACOLLECTOR=Stephane GREFF
SMILES=C1=CC=C(C(=C1)O)O
INCHI=1S/C6H6O2/c7-5-3-1-2-4-6(5)8/h1-4,7-8H
INCHIAUX=YCIMNLLNPGFGHC-UHFFFAOYSA-N
PUBMED=289
SUBMITUSER=stephane
LIBRARYQUALITY=3
SPECTRUMID=CCMSLIB00010011999
USI=mzspec:GNPS:GNPS-LIBRARY:accession:CCMSLIB00010011999
SCANS=1
49.009129	646.0
51.02504	1358.0
53.003601	742.0
53.040161	4726.0
55.01963	498.0
63.024189	3466.0
65.003471	32148.0
65.039864	2908.0
67.019073	770.0
69.034622	2002.0
79.019493	752.0
80.026756	4842.0
81.034378	16212.0
91.018799	47402.0
97.029671	512.0
107.9925	450.0
108.023689	495864.0
108.034988	3882.0
108.10202	500.0
108.148369	526.0
108.160294	436.0
108.17231	406.0
108.265381	390.0
108.274033	388.0
108.300423	574.0
108.331429	404.0
108.368599	442.0
108.413017	538.0
108.473663	392.0
108.544067	404.0
108.616898	468.0
108.628464	464.0
108.719109	384.0
108.741982	406.0
108.825813	434.0
108.958801	554.0
108.968239	396.0
109.042343	2872.0
109.094757	386.0
109.10611	484.0
109.157051	442.0
109.170319	434.0
109.204826	506.0
109.221489	410.0
109.243401	498.0
109.27388	388.0
109.319191	398.0
109.375267	406.0
109.38176	394.0
109.513222	426.0
109.551689	454.0
109.617081	396.0
109.667938	412.0
109.732147	450.0
END IONS

BEGIN IONS
PEPMASS=121.03
CHARGE=1
MSLEVEL=2
SOURCE_INSTRUMENT=LC-ESI-qTof
FILENAME=f.stephane/Standards/Benzoic acid_65-85-0_NEG_MS2_20-40eV.mgf;
SEQ=*..*
IONMODE=Negative
ORGANISM=GNPS-LIBRARY
NAME=Benzoic acid M-H
PI=Stephane GREFF
DATACOLLECTOR=Stephane GREFF
SMILES=C1=CC=C(C=C1)C(=O)O
INCHI=1S/C7H6O2/c8-7(9)6-4-2-1-3-5-6/h1-5H,(H,8,9)
INCHIAUX=WPYMKLBDIGXBTP-UHFFFAOYSA-N
PUBMED=243
SUBMITUSER=stephane
LIBRARYQUALITY=3
SPECTRUMID=CCMSLIB00010012074
USI=mzspec:GNPS:GNPS-LIBRARY:accession:CCMSLIB00010012074
SCANS=1
44.999531	148.0
53.03957	108.0
76.969597	156.0
77.039864	3196.0
92.028	132.0
93.034554	1602.0
96.044289	120.0
121.030289	1100.0
END IONS

BEGIN IONS
PEPMASS=317.118
CHARGE=1
MSLEVEL=2
SOURCE_INSTRUMENT=LC-ESI-Orbitrap
FILENAME=f.ikoester/ParticulateMetabolites/20230522_ETNP_OMZ_Particulates/mzML/Sulfadimethoxin-d6_1mgml.mzML;
SEQ=*..*
IONMODE=Positive
ORGANISM=GNPS-LIBRARY
NAME=Sulfadimethoxine-d6 M+H
PI=Lihini Aluwihare
DATACOLLECTOR=Irina Koester
SMILES=COC1=NC(=NC(=C1)NS(=O)(=O)C2=CC=C(C=C2)N)OC
INCHI=InChI=1S/C12H14N4O4S/c1-19-11-7-10(14-12(15-11)20-2)16-21(17,18)9-5-3-8(13)4-6-9/h3-7H,13H2,1-2H3,(H,14,15,16)/i1D3,2D3
INCHIAUX= 
PUBMED=71312411
SUBMITUSER=ikoester
LIBRARYQUALITY=3
SPECTRUMID=CCMSLIB00011428615
USI=mzspec:GNPS:GNPS-LIBRARY:accession:CCMSLIB00011428615
SCANS=1433
78.034325	136218.203125
79.018333	158029.890625
80.04985	340808.96875
81.471176	85784.640625
85.048103	81506.164062
92.049835	10294684.0
93.057793	598310.125
95.283836	69552.65625
96.044518	161153.359375
96.507629	65524.675781
98.178284	65079.476562
100.488182	69157.507812
102.074188	184148.171875
108.044594	18347802.0
110.060181	1459457.625
120.055397	140314.859375
121.955666	77750.492188
124.021156	123413.601562
127.069069	112886.015625
129.083618	253355.484375
131.097641	173813.09375
133.087753	1153407.0
143.06427	85172.507812
144.072144	191093.1875
156.011124	39604592.0
158.070969	103594.617188
159.092407	1046276.125
160.098221	430510.71875
161.073441	117173.742188
161.1064	3361702.75
162.114136	43008212.0
173.057938	1777624.75
173.080872	93552.273438
176.093002	260593.90625
208.065613	79037.742188
224.060272	6941548.0
233.098145	1809242.375
242.070053	416085.59375
251.140427	12676581.0
253.156097	290852.375
275.944733	73136.65625
299.108002	178501.75
300.611084	92371.703125
313.855255	79735.507812
317.11795	74811480.0
END IONS

BEGIN IONS
PEPMASS=370.14
CHARGE=1
MSLEVEL=2
SOURCE_INSTRUMENT=LC-ESI-qTof
FILENAME=f.fronkey/SUZHOU2023/WX20240119nozib/H_MIX/H_1.mzXML;
SEQ=*..*
IONMODE=Positive
ORGANISM=GNPS-LIBRARY
NAME=Fleroxacin M+H
PI=Xiang-Rong Cheng
DATACOLLECTOR=Xiang-Rong Cheng
SMILES=CN1CCN(CC1)C2=C(C=C3C(=C2F)N(C=C(C3=O)C(=O)O)CCF)F
INCHI=1S/C17H18F3N3O3/c1-21-4-6-22(7-5-21)15-12(19)8-10-14(13(15)20)23(3-2-18)9-11(16(10)24)17(25)26/h8-9H,2-7H2,1H3,(H,25,26)
INCHIAUX= 
PUBMED=3357
SUBMITUSER=fronkey
LIBRARYQUALITY=3
SPECTRUMID=CCMSLIB00012176204
USI=mzspec:GNPS:GNPS-LIBRARY:accession:CCMSLIB00012176204
SCANS=525678
52.030285	23.009615
52.088673	5.160714
52.99472	5.083333
54.032837	60.011906
54.834644	6.013889
54.977638	5.375
55.052761	22.322369
55.296062	30.245001
55.927917	6.25
56.050404	852.736023
56.117516	8.0
56.160923	20.25
56.395203	52.816666
56.454617	5.0625
56.753567	10.05
57.058491	1385.850464
57.131676	18.720238
57.145527	11.160714
57.164509	12.75
57.253975	6.083333
57.427177	7.125
57.48143	5.333333
57.568096	5.017857
57.597389	25.78125
57.747437	10.009615
57.772251	31.225
57.806549	9.875
58.065681	23628.701172
58.137138	447.465332
58.15612	187.995422
58.179146	49.892857
58.210255	75.012497
58.230171	44.089287
58.271332	34.075001
58.306286	29.778847
58.332775	46.445
58.379681	19.0
58.414742	22.0
58.451462	36.454544
58.491505	44.326923
58.528484	66.408783
58.589565	22.778847
58.632568	54.025002
58.672501	21.799999
58.705688	6.0
58.733017	42.0
58.758881	9.025
58.782951	8.5
58.816082	12.0
58.841198	23.556818
58.881844	10.025
58.911095	25.25
58.930721	7.25
58.979656	13.03125
59.010628	13.0
59.037182	12.075
59.067928	1178.855957
59.121075	19.017857
59.19014	29.102272
59.22805	30.48077
59.259644	6.333333
59.289745	8.009615
59.320797	5.017857
59.363964	15.666667
59.445286	25.1
59.480629	5.013889
59.505688	32.666668
59.533947	7.2
59.656277	57.375
59.867928	6.083333
59.916817	6.017857
60.117641	7.011364
60.444138	5.017857
60.681099	9.083333
60.71846	21.694445
60.852379	6.0
61.552101	6.125
61.827534	14.675
61.88097	7.25
62.015015	41.125
62.037914	7.25
62.135284	6.0
62.177147	6.225
62.480118	5.225
62.517296	7.0
62.704212	5.083333
63.019325	5.0625
63.272781	13.8
63.298588	6.0
63.323799	25.875
63.799923	14.571428
63.928036	8.041667
64.03862	6.0
64.177025	5.083333
64.443161	26.875
64.701843	5.625
66.17202	5.013889
66.888153	17.875
67.039078	103.447365
67.098701	7.160714
67.764984	13.017858
67.902962	6.0625
67.999245	8.680555
68.051544	129.141891
68.107231	12.125
68.617607	5.333333
69.029579	86.98349
69.057846	42.245689
69.075279	19.28125
69.291328	5.0
69.580093	5.333333
69.85376	10.284091
70.021667	85.190475
70.065506	5983.724609
70.143959	92.384613
70.164093	45.57143
70.21003	9.0625
70.273071	11.160714
70.309326	28.901316
70.353111	6.025
70.384109	7.0625
70.422615	24.148809
70.458534	33.599998
70.500389	13.240385
70.637032	10.125
70.717117	6.333333
70.791695	9.102273
70.825455	26.818182
70.892471	8.102273
71.072403	1065.001953
71.150642	26.818182
71.169418	30.125
71.336487	55.080128
71.383171	12.011364
71.402328	7.025
71.451698	6.0
71.545593	11.446428
71.563873	16.595589
71.675514	7.011364
71.709862	13.013889
71.85601	8.125
72.051018	16.321428
72.08123	1859.140015
72.140495	31.183823
72.179832	18.78125
72.222778	7.0
72.264748	24.163462
72.286201	11.471154
72.350441	35.027779
72.487381	15.1
72.579636	22.75
72.605209	8.017858
72.660187	6.333333
72.826187	6.017857
72.89917	5.333333
73.091164	14.471154
73.154396	6.125
73.216026	18.111841
73.239731	7.017857
73.293877	5.013889
73.532211	46.367424
73.679207	8.0625
74.005844	6.013889
74.348137	5.025
74.616638	6.0
75.68528	5.160714
75.705391	5.083333
76.107689	5.225
76.757042	8.25
76.943375	19.025
77.005775	34.454544
77.04953	6.017857
77.339813	5.0
77.576126	6.025
77.764183	5.025
78.727203	8.086538
79.598175	7.160714
80.005798	37.083332
80.050659	67.3125
80.091225	20.347221
81.011795	125.520271
81.66304	26.183823
81.867325	5.0625
81.954132	7.125
82.065094	1155.139648
82.136772	11.0
82.167763	7.025
82.251823	8.011364
82.280403	7.375
82.41626	10.0
82.556198	13.666667
82.958473	5.0625
83.069122	349.000885
83.112305	27.0
83.179016	5.160714
83.299797	8.125
83.315636	5.017857
83.34726	21.148809
83.505249	12.166667
83.626152	5.0
83.789436	11.166667
83.914177	13.5625
84.083313	615.868896
84.169624	7.013889
84.196037	14.009615
84.222488	7.0
84.350304	5.041667
84.846558	5.225
84.884758	6.25
84.911201	23.025
84.932373	14.125
84.962044	55.142242
85.087242	485.977325
85.171448	16.008333
85.44812	5.0
85.802437	48.889286
86.612007	15.125
86.698723	21.053572
87.100281	6.225
89.36866	5.0
89.581169	7.05
89.673882	11.075
89.706612	10.009615
90.074944	66.816666
90.510483	5.025
90.526886	8.086538
91.17334	14.25
91.262436	7.025
91.301338	8.0
92.014999	61.003204
92.032692	33.242645
92.128853	10.008333
93.015121	67.150002
93.048988	13.0
93.126801	6.017857
93.427231	8.009615
94.022003	95.59375
94.946922	5.041667
95.028961	40.694443
95.161293	5.0625
95.194122	5.333333
95.239975	10.0
95.279633	10.284091
95.71843	10.035714
95.967453	5.333333
96.268715	5.625
96.34539	7.25
96.905586	5.083333
97.02166	6.013889
97.078659	179.576538
98.085388	201.757889
98.134369	12.0
98.860443	5.0
99.044014	30.125
99.146873	6.25
99.911026	64.06649
100.072533	70.010414
100.112717	100.166664
100.210762	13.5
100.436073	5.160714
100.601387	27.008333
101.015823	32.005951
101.041245	34.78125
101.061691	22.125
101.200996	7.446429
101.41407	5.017857
101.553345	8.041667
101.785637	5.025
102.059013	8.05
102.927902	8.2
103.988533	5.160714
104.053894	22.720238
105.057426	41.25
106.137756	7.0625
107.028526	102.662735
107.907745	8.125
108.031883	49.642857
108.584915	5.0
109.764641	9.008333
109.818962	5.0
111.442772	5.0
111.807938	5.017857
112.038254	36.363636
112.112709	9.0
113.021851	29.321428
113.084572	5.025
113.366585	5.017857
113.391045	8.2
114.189789	6.25
114.46814	5.225
114.713791	5.0
116.019318	5.017857
116.04818	84.782608
116.124817	6.013889
116.51001	5.017857
119.230461	5.160714
120.026932	37.242645
120.055649	125.094231
120.220078	6.013889
120.759384	63.125
121.028404	104.32415
121.05687	21.225
121.113335	5.225
121.270874	5.083333
121.669739	25.720238
121.797928	6.017857
124.013359	111.207191
124.097343	8.0
124.84285	6.0
125.020149	131.925674
125.177788	7.0625
125.686348	5.125
126.030075	138.010864
126.391495	9.347222
127.046455	264.040833
127.089149	65.805
127.968903	38.113636
128.046265	163.285553
128.160004	5.160714
128.329605	5.083333
129.046814	96.777779
129.63205	18.142857
130.041779	21.75
131.022446	27.285715
131.053146	11.041667
132.029266	23.25
132.083405	27.035715
132.454514	8.347222
132.493408	10.0625
133.030945	63.080128
133.092499	6.333333
133.143829	7.25
133.390289	8.0
134.03923	433.466675
134.138794	11.5625
135.04393	170.382736
135.104431	5.125
135.152496	5.0625
135.199387	13.066176
135.291229	7.041667
135.460739	6.011364
135.635101	5.0
135.802841	22.025
135.915634	12.892858
136.050369	79.516129
137.17392	8.680555
137.560623	5.0
137.682266	11.006579
137.837738	5.083333
138.036469	13.8
139.020981	223.203384
139.124542	38.291668
139.355759	5.225
139.75264	5.333333
140.025803	80.206635
140.050201	88.326614
140.11615	7.375
140.140015	8.0
141.050323	22.450001
141.32225	15.03125
142.046417	88.515625
142.090866	22.041666
142.578217	6.017857
143.049774	134.449631
143.108353	18.0
143.133942	10.125
143.774155	15.75
143.801666	9.875
144.03363	45.089287
145.016937	219.009293
145.084946	7.041667
146.038498	413.030792
146.12291	7.041667
146.150101	13.471154
146.522751	7.025
146.749146	12.086538
147.049164	754.012085
147.29393	10.0
147.341049	7.225
147.904068	16.78125
148.055145	739.074097
148.111389	41.135868
148.169769	11.025
148.203705	7.025
148.232361	5.013889
148.267319	5.0625
148.330078	13.05
148.46228	6.333333
148.487122	10.8
148.709625	26.083334
148.773239	7.25
149.055267	246.044113
149.148499	7.041667
149.363571	10.007353
149.392899	5.225
149.694641	10.0
149.879456	6.333333
150.06076	106.900864
150.101273	22.556818
150.172241	9.009615
150.686539	7.5
151.053925	90.026161
151.624924	7.125
152.031677	593.147217
152.120499	12.041667
152.172791	5.225
152.728195	7.446429
152.784836	6.446429
152.982803	9.05
153.040665	395.225342
153.147461	17.049999
153.189484	6.0625
153.374908	7.017857
153.567612	9.041667
153.96048	8.013889
154.050629	504.006073
154.110687	56.002659
154.15889	7.446429
154.2966	10.009615
154.476761	5.125
154.568192	7.160714
154.74057	10.0
154.83374	5.017857
154.905685	41.132355
154.93428	19.075001
155.057007	830.210571
155.593735	9.0625
156.040802	147.08696
156.065262	140.875
156.093262	30.163462
156.175659	6.041667
156.493973	5.017857
156.6129	25.75
157.392441	5.5
157.945801	6.125
158.040955	60.027779
159.022705	5.5
159.052841	86.0
159.511932	6.446429
159.579559	16.017857
160.059189	143.419769
160.285568	7.2
160.351471	9.017858
160.394989	6.0
160.869781	12.240385
161.054504	366.342377
161.141815	22.674999
161.315552	5.0
161.462845	9.556818
161.494186	5.333333
161.689163	6.025
161.916061	5.0
162.036148	706.697205
162.12326	30.28409
162.158051	8.05
162.36351	6.125
162.489273	10.025
162.547119	5.025
163.043671	222.469513
163.141769	9.017858
164.033905	154.002548
164.440048	6.0
164.484619	9.125
164.561966	5.375
164.83696	18.450001
164.887268	5.5
165.03418	247.544464
165.096344	14.160714
165.238815	14.0
165.456284	12.8
165.720276	53.013157
166.040192	2351.001465
166.143646	51.013157
166.171005	18.142857
166.263885	31.446428
166.339325	8.017858
166.485199	5.0
166.559738	9.0625
166.695358	22.0
166.797516	5.017857
166.834473	6.083333
166.901215	7.25
166.94635	11.009615
167.047943	1474.486816
167.149765	32.778847
167.19989	10.017858
167.266052	8.160714
167.295868	12.017858
167.353531	10.680555
167.415588	6.013889
167.505051	12.009615
167.661667	7.0625
167.728683	8.0625
167.888092	19.78125
167.939682	25.5
168.034836	89.002907
168.063629	72.285713
168.117172	9.284091
168.176712	13.0
168.423889	11.471154
168.745026	23.025
168.8647	7.0
168.905518	35.777779
169.028107	141.272064
169.071411	268.970856
169.111237	22.075001
169.190491	15.5
169.314575	10.125
169.348923	5.125
169.612885	5.225
170.057877	47.020832
170.244888	5.0
170.275116	14.142858
170.846725	6.0
171.051117	31.440218
171.08876	22.142857
171.592972	10.041667
171.684464	13.0625
171.962387	6.017857
172.05275	35.075001
172.371078	6.05
172.469421	10.041667
172.730515	5.625
173.050186	928.530762
173.168106	28.78125
173.219193	6.0
173.317123	11.0625
173.384048	14.347222
173.459534	9.446428
173.501907	88.08696
173.606094	5.225
173.704697	5.025
173.864227	7.102273
173.903946	32.360294
173.957397	30.333334
174.060989	2325.143799
174.177536	41.969826
174.25943	12.041667
174.319473	10.160714
174.337753	17.892857
174.411377	21.008333
174.548294	6.160714
174.578537	10.2
174.656845	23.242647
174.805435	36.444443
174.845459	6.0
174.915466	16.375
175.061157	902.884338
175.165497	24.005953
175.218903	15.111111
175.278244	11.05
175.348801	9.125
175.46904	6.446429
175.546875	26.005953
175.584854	54.013889
175.71489	7.041667
175.79126	6.125
175.852371	8.011364
175.879105	16.0
175.905365	7.25
176.059448	486.690155
176.16571	14.25
176.541412	38.219593
176.594147	14.025
176.678238	8.017858
176.829773	8.125
176.893173	19.125
176.921539	7.446429
177.068039	134.136108
177.184952	17.041666
177.237762	7.05
177.345139	9.166667
177.467941	9.102273
177.544418	5.160714
177.567703	7.125
177.947861	19.25
178.051727	36.0
178.280579	6.125
178.706406	10.025
178.954498	65.881096
179.053757	663.600464
179.206924	10.125
179.239578	18.480263
179.530518	15.008333
179.742874	15.75
179.831299	13.240385
180.048157	1050.029297
180.110901	36.875
180.162704	15.125
180.265472	8.333333
180.767609	6.017857
180.836334	11.2
180.924042	42.094696
181.047195	855.801697
181.152679	28.242647
181.178345	20.066177
181.244766	26.654411
181.37999	7.0
181.479935	35.148811
181.558472	7.0
181.901108	21.360294
182.043259	768.014404
182.14975	106.137932
182.178772	84.160713
182.288834	7.0
182.472641	20.446428
182.748016	6.125
182.76358	6.05
182.931061	31.625
183.055237	495.606323
183.132492	37.08654
183.40274	10.035714
183.604614	25.049999
183.774673	5.0625
183.861984	5.041667
184.058304	229.690002
184.175888	9.102273
184.347961	5.083333
184.426132	11.0
184.473083	6.017857
184.653122	5.160714
184.864487	10.009615
184.916656	11.920455
185.050629	340.455658
185.09317	45.347221
185.146561	11.086538
185.215149	7.446429
185.251251	12.920455
185.631531	5.125
186.062088	467.373718
186.185715	12.5625
186.489899	18.041666
186.514297	10.041667
186.830933	18.041666
186.912674	12.45
186.969604	13.208333
187.052689	677.506348
187.191101	19.086538
187.240173	11.446428
187.894958	11.8
188.059372	446.508881
188.148193	19.5
188.208359	10.0
188.333466	5.333333
188.446701	5.225
188.78476	12.0625
188.865005	6.083333
189.04837	640.72052
189.161743	10.125
189.217194	13.333333
189.276642	8.013889
189.66217	8.083333
189.728653	7.0
190.06926	111.449997
190.153397	6.5
190.806412	15.333333
191.059113	294.263153
191.105911	19.041666
191.190674	8.75
191.430481	6.0
191.556244	19.200001
191.724243	5.333333
191.781342	5.0
192.059219	347.081665
192.200592	7.0
192.284256	6.013889
192.506668	5.225
192.872665	44.570652
193.053879	1580.277832
193.150864	139.806458
193.219955	43.012501
193.281937	7.125
193.790009	18.694445
193.835342	6.333333
193.909729	17.208334
194.064499	29717.919922
194.192001	355.138519
194.288727	36.51923
194.36142	54.0
194.478577	49.135868
194.546997	37.529102
194.585632	41.149391
194.648499	46.212887
194.685898	35.35754
194.728165	45.048809
194.783691	45.461906
194.820419	39.174244
194.884964	46.0625
194.972092	21.361111
195.067505	4368.382324
195.22113	58.066177
195.302948	25.285715
195.343521	38.692307
195.388229	16.10577
195.446091	12.31287
195.546494	33.076923
195.589401	18.0
195.64357	37.200001
195.702591	6.652711
195.734589	46.072674
195.823578	44.094696
195.863358	29.077223
195.986343	79.881096
196.065598	355.211212
196.1548	22.984638
196.245651	49.81818
196.287781	32.480263
196.339355	8.0
196.420685	47.066666
196.470642	57.529411
196.500076	49.819279
196.584457	15.125
196.678741	6.25
196.736343	21.166666
196.775742	6.083333
196.863266	24.0625
196.945251	12.041667
197.048386	315.98468
197.087387	103.368904
197.163925	15.408334
197.232315	27.375
197.270981	47.575001
197.31218	13.5625
197.357605	5.017857
197.414368	7.05
197.467606	29.375
197.568695	25.520834
197.60878	8.125
197.711609	16.347221
197.742981	24.799999
197.884094	10.009615
197.927536	27.083334
197.986755	10.333333
198.051941	89.736115
198.09256	105.695511
198.216476	12.075
198.281281	39.015625
198.472031	5.625
198.533005	13.017858
198.646515	5.083333
198.762238	33.91848
199.069366	178.006256
199.16098	11.017858
199.282471	18.225
199.394226	6.011364
199.532013	7.25
199.572693	7.25
199.64711	22.075001
199.955887	6.013889
199.988464	5.017857
200.035294	71.941177
200.066849	216.567474
200.13739	12.125
200.176682	24.25
200.257401	6.0
200.328949	6.125
200.453094	7.5625
200.657089	5.083333
201.043304	660.280151
201.07695	651.37384
201.216736	9.125
201.283936	6.125
201.423233	11.45
201.855804	9.333333
201.888412	10.5625
202.054382	2303.0
202.168777	39.059212
202.238754	26.160715
202.292374	6.013889
202.337875	6.25
202.389008	6.446429
202.494812	33.900002
202.551117	25.654411
202.668991	23.011364
202.776062	6.017857
202.87468	11.05
202.96019	29.777779
203.060562	6836.306152
203.19075	84.454544
203.229416	56.564816
203.262039	28.796053
203.346573	41.625
203.43222	19.017857
203.489182	13.083333
203.527924	31.920454
203.592453	22.53125
203.654205	14.166667
203.792221	47.066666
203.826736	32.059212
203.917892	6.083333
203.975494	37.004032
204.066345	1486.117798
204.176514	29.041666
204.242386	27.148809
204.312759	5.025
204.340988	8.5625
204.391083	6.75
204.436401	7.017857
204.465912	53.400002
204.566925	6.225
204.601776	11.375
204.642426	16.0
204.683167	10.125
204.724274	6.017857
204.774307	7.05
205.066757	495.057861
205.139374	21.375
205.183701	12.25
205.236176	7.017857
205.352921	16.125
205.401703	12.013889
205.831085	18.25
205.879028	10.347222
205.946106	13.05
206.041275	479.640015
206.150452	13.920455
206.211166	11.208333
206.517349	9.011364
206.546326	8.625
206.750931	6.446429
207.056503	929.097595
207.213409	13.086538
207.24649	8.05
207.400925	14.446428
207.786285	10.471154
207.951843	11.102273
208.056381	1520.085083
208.191895	44.266666
208.25322	30.240385
208.33519	10.083333
208.365692	34.360294
208.447052	11.375
208.558853	6.0
208.683914	6.160714
208.758438	5.160714
209.055573	2696.21167
209.233765	16.375
209.299911	6.0
209.437164	12.625
209.541672	9.0
209.584351	14.025
209.658142	21.066177
209.758545	14.322369
209.800247	5.013889
209.894058	13.778846
209.983856	8.0
210.062973	202.920456
210.175903	20.022728
210.317841	5.025
210.395157	7.5625
210.436279	5.041667
210.615799	5.017857
210.785965	21.09091
210.928192	14.007353
211.064102	257.296051
211.159729	20.778847
211.246231	12.009615
211.370056	6.333333
211.488724	19.125
211.614792	5.0625
211.688309	13.25
212.06691	830.430725
212.143677	55.07143
212.197281	18.25
212.376617	5.125
212.470276	5.0
212.533386	27.375
212.642578	10.75
212.873093	7.160714
212.943604	54.003204
212.995453	8.0
213.064911	2052.541504
213.202408	34.111111
213.245499	34.240383
213.296204	8.446428
213.333038	15.5625
213.384888	5.083333
213.441391	19.799999
213.613907	44.0
213.799179	5.017857
213.901947	11.778846
214.062805	219.0
214.154282	9.160714
214.228973	16.1
214.262695	11.008333
214.469345	15.25
214.67157	6.25
214.714066	6.5
214.965073	12.25
215.017654	51.939518
215.060486	661.0
215.15744	27.0
215.190826	14.013889
215.241959	6.0
215.292664	6.0
215.329773	10.025
215.410965	5.160714
215.848236	6.0
216.068222	818.027039
216.206497	25.165541
216.240372	7.013889
216.312393	5.5
216.587952	5.160714
216.893143	6.017857
216.977982	6.0
217.074051	278.009613
217.246033	8.041667
217.342087	28.225
217.470413	6.013889
217.605759	14.102273
217.930161	30.204546
218.07756	30.225
218.141342	15.05
218.300552	5.225
218.536911	10.025
218.610245	5.0
219.083786	160.633331
219.164673	10.017858
220.021973	282.127106
220.308472	7.013889
220.852417	5.225
221.057343	843.344177
221.154892	56.125
221.216553	22.025
221.301437	5.0625
221.378479	18.03125
221.422867	5.041667
221.454498	23.142857
221.550018	5.017857
221.704391	25.017857
221.884995	20.011364
221.962967	18.5
221.996704	30.05921
222.059723	25602.40625
222.197128	280.524475
222.276154	37.125
222.312424	11.809524
222.386719	47.84375
222.458344	34.737091
222.526733	39.888607
222.597748	26.3125
222.671295	29.875
222.723999	40.745251
222.757187	33.621857
222.827805	39.893082
222.886246	29.736446
222.937332	23.108036
223.000427	29.67425
223.066406	20317.896484
223.203598	202.971848
223.239777	196.59198
223.293137	42.511551
223.384201	36.012794
223.485733	117.505707
223.528625	68.280922
223.625427	67.334755
223.697678	39.118465
223.793808	34.107494
223.869629	53.520832
223.91716	14.027344
223.969498	24.584892
224.069748	3861.809082
224.245667	39.666668
224.283966	51.152512
224.380936	40.44643
224.420639	40.470959
224.453323	24.772728
224.494431	20.181818
224.538727	16.6
224.607742	8.048225
224.673477	27.005434
224.719482	40.785713
224.79335	31.440218
224.88208	30.142857
225.018433	26.440218
225.079926	238.453705
225.134308	30.208334
225.183182	12.0
225.218063	10.017858
225.314041	18.695412
225.349014	10.347222
225.403671	9.171248
225.441345	21.113728
225.47316	7.017857
225.525986	9.0
225.556488	9.284091
225.629913	32.557693
225.710846	13.011364
225.832642	44.07143
225.935226	43.408783
225.97699	7.446429
226.04921	987.911621
226.1866	18.049999
226.239166	9.017858
226.291611	39.027779
226.507462	6.160714
226.60849	43.022728
226.669754	18.556818
226.785538	6.025
226.880676	13.009615
226.903885	9.125
226.958771	9.0
226.980469	5.25
227.053314	696.718384
227.172806	23.778847
227.22789	9.009615
227.268799	10.160714
227.336441	5.625
227.434143	7.333333
227.557129	47.107758
227.680023	25.05921
227.786545	22.875
227.920776	22.208334
227.991104	7.25
228.084106	726.29657
228.263031	18.625
228.392975	5.017857
228.419098	11.059211
228.494217	13.5625
228.557526	5.125
228.758881	8.125
228.898193	19.005953
229.078308	2163.07959
229.152069	85.0
229.234375	32.599998
229.289581	19.005953
229.342316	8.25
229.377182	7.025
229.420715	11.2
229.511093	16.160715
229.61763	42.272728
229.71817	9.0
229.754883	24.005953
229.822952	7.041667
229.860001	26.694445
229.938843	32.0
230.077438	1008.000854
230.223938	15.284091
230.260391	21.013889
230.33876	13.446428
230.393723	21.361111
230.455566	5.625
230.528381	10.125
230.583496	16.035715
230.766785	39.289288
230.828354	15.111111
230.869324	10.017858
231.089966	419.555725
231.177902	29.164474
231.213715	12.2
231.272385	9.25
231.345016	5.013889
231.375687	5.375
231.428253	24.125
231.634247	5.0
231.879791	6.0
231.923599	5.025
232.066254	81.025002
232.158386	33.25
232.202515	16.125
232.309875	7.0
232.490311	17.017857
232.608444	6.017857
232.705093	7.011364
232.784195	6.0
232.90947	62.136364
232.976379	13.125
233.008606	160.601196
233.091614	298.102264
233.268585	17.818182
233.342636	9.75
233.461197	6.25
233.576172	15.208333
233.637512	6.0
233.735229	8.025
233.830643	11.571428
233.893112	15.0
234.051941	529.119995
234.167191	8.25
234.227829	7.05
234.411041	6.125
234.44841	5.0625
234.527679	5.017857
234.811569	5.125
234.916031	7.125
234.962555	38.625
235.04895	567.770081
235.176544	16.375
235.216309	7.0
235.242813	7.0
235.34877	5.025
235.393082	5.083333
235.50705	16.5
235.629776	12.347222
235.749481	9.225
235.808609	21.0
235.898666	5.041667
236.001541	6.041667
236.070175	830.735107
236.200882	17.013889
236.286911	13.013889
236.375092	8.041667
236.561142	7.0625
236.63031	8.041667
236.970322	5.225
237.08432	290.000732
237.566757	14.446428
237.740402	7.25
238.05011	93.289284
238.099167	161.069443
238.211349	7.083333
238.26532	5.013889
238.327835	15.444445
238.416565	5.083333
238.754623	5.013889
239.085464	106.669441
239.173904	11.125
239.206482	7.225
239.253357	12.035714
239.952896	6.05
240.061066	127.09375
240.108841	84.199997
240.918015	5.375
240.976151	8.05
241.069504	1342.763306
241.155197	65.00338
241.212158	18.041666
241.296463	8.041667
241.378647	5.025
241.522873	17.049999
241.580139	7.875
241.81955	14.102273
241.88913	8.041667
241.944168	19.240385
241.990173	20.361111
242.076019	693.377014
242.187027	21.0
242.253799	22.720238
242.335831	5.225
242.418076	5.083333
242.504135	34.480263
242.714294	5.025
242.904129	5.125
243.054077	668.876831
243.115814	5447.257812
243.22879	86.391129
243.258072	79.120766
243.297241	32.011364
243.343262	35.521553
243.380249	23.111841
243.444656	37.375
243.491562	17.799999
243.539719	14.2
243.583481	29.532894
243.666382	5.160714
243.728043	9.25
243.774216	12.208333
243.837204	7.05
243.980881	63.012501
244.056091	196.173615
244.119492	1559.160278
244.338776	28.333334
244.422256	28.038794
244.514587	7.446429
244.547394	8.083333
244.591431	5.017857
244.638748	15.208333
244.810181	25.011364
244.901077	9.160714
245.109756	656.335999
245.229965	10.25
245.287628	9.240385
245.328522	8.0
245.371597	10.5625
245.406876	6.225
245.48613	10.008333
245.642502	9.5
245.676651	12.284091
245.775986	24.482143
246.060776	65.083336
246.105896	58.388889
246.18161	13.005953
246.416656	9.041667
246.575119	7.0
246.741119	7.2
247.087631	102.26667
247.25383	5.25
247.430618	41.11842
247.909225	6.041667
248.097458	260.921051
248.177292	7.017857
248.210983	6.0
248.345169	14.284091
248.528748	7.160714
248.569	8.75
248.737045	6.125
248.826065	12.083333
249.082626	5274.420898
249.226608	83.213028
249.274017	30.013889
249.345734	36.048912
249.38385	29.0625
249.446213	30.15
249.49321	15.571428
249.591797	29.0
249.692612	25.111111
249.812607	53.164474
249.910431	6.0
249.965866	7.041667
250.090057	1298.008057
250.167694	55.920456
250.237198	23.005953
250.274857	12.05
250.327606	15.041667
250.41127	6.160714
250.466782	35.083332
250.52095	14.125
250.554169	16.799999
250.667984	13.471154
250.785431	6.0625
250.849533	20.111111
250.904037	6.0
250.967926	8.102273
251.075745	249.125
251.185684	34.224998
251.2509	12.0
251.27829	9.0
251.333466	36.008335
251.42868	34.0
251.537918	8.017858
251.752747	7.160714
251.827362	9.125
251.899628	6.0625
251.972778	5.0
252.079376	106.235466
252.121857	71.125
252.316376	5.125
252.419312	17.125
252.62291	10.284091
252.689514	10.680555
252.9888	7.011364
253.057861	1753.21875
253.207642	30.337963
253.272919	5.0
253.309708	8.2
253.380051	9.5625
253.411331	25.075001
253.547607	16.28125
253.647156	27.532894
253.98851	8.086538
254.05632	457.215393
254.164551	23.125
254.218063	11.142858
254.273254	5.025
254.722946	9.347222
254.769073	13.013889
254.833679	5.160714
255.074875	1632.449951
255.226105	39.400002
255.317581	9.25
255.395096	7.013889
255.479538	52.920456
255.616714	9.041667
255.802963	16.666666
255.92868	29.05921
256.079132	454.03125
256.25351	5.041667
256.291107	14.25
256.346985	5.5
256.4086	11.240385
256.506592	8.333333
256.647827	19.444445
256.680939	11.875
256.745544	10.625
256.78186	25.53125
256.879486	20.1
257.078979	178.491272
257.247314	10.083333
257.350189	6.083333
257.396942	20.03125
257.455414	35.0
257.572327	7.041667
258.082031	381.84549
258.156219	48.75
258.192139	19.007353
258.359406	7.025
258.412415	6.446429
258.470032	8.125
258.562408	8.125
258.710144	24.291666
258.75708	6.0625
259.108582	167.372086
259.171753	16.25
259.220673	22.053572
259.378235	5.025
260.117554	57.890625
260.650879	13.075
261.082672	261.5625
261.218506	19.005953
261.283691	8.041667
261.488586	5.0625
262.076538	116.068184
262.117737	56.375
262.215515	6.083333
262.253876	23.322369
262.626221	5.083333
262.700958	6.05
263.061249	246.836761
263.112671	75.0625
263.16803	17.0
263.205383	5.0
263.275452	12.125
263.373657	7.013889
263.419952	55.047619
263.747742	6.013889
264.089905	31.0
264.161835	14.125
264.234436	5.0
264.601562	16.083334
264.844879	14.2
265.002838	6.0
265.079315	107.240387
265.157501	6.75
265.650299	5.017857
266.085419	85.148811
266.345581	5.083333
266.985199	6.0625
267.05249	28.1
267.087677	55.246952
267.17337	12.208333
267.757874	6.25
268.076843	73.455643
268.161407	52.55682
268.455811	5.025
268.634979	7.017857
268.808594	10.446428
268.871063	19.004629
268.909821	8.160714
269.088837	15873.676758
269.238098	205.038788
269.286438	81.456894
269.357025	40.125
269.431427	47.720238
269.486206	35.941177
269.557404	42.222828
269.658966	23.0
269.734039	48.083332
269.821198	34.875
269.894958	33.0
269.966583	47.01923
270.00885	6.5
270.094421	3039.828613
270.241241	42.111111
270.288971	36.204544
270.336731	44.157051
270.435913	24.041666
270.529846	23.408333
270.577362	12.25
270.619476	23.125
270.733643	18.125
270.791962	22.1
270.89624	18.083334
270.946442	47.782406
271.013428	13.920455
271.104523	346.232697
271.191193	38.135868
271.287231	73.768616
271.351501	23.1875
271.444031	18.013889
271.558411	16.0
271.622772	18.375
271.655273	16.027779
271.769958	22.017857
271.80188	31.025
271.858093	12.920455
272.028137	7.333333
272.120728	6.0
272.339325	5.0625
272.42514	6.25
272.474396	12.892858
272.577057	6.0625
272.624603	6.013889
272.843536	19.692308
273.091644	35.025002
273.166992	7.0625
273.320618	9.45
273.46225	12.0
273.497894	7.225
273.671875	8.05
274.019806	5.625
274.084106	45.520832
274.786987	20.360294
274.892761	6.160714
275.00766	11.0
275.080872	206.041672
275.203186	13.0625
275.380371	7.2
275.734222	15.4
275.829376	52.072674
276.059021	356.478516
276.114349	407.029602
276.298401	23.291666
276.365204	8.025
276.404175	7.05
276.616394	5.041667
276.672394	6.05
276.796967	5.013889
276.880524	8.5625
277.092773	255.94812
277.130768	191.219589
277.233246	21.666666
277.284576	32.692307
277.372345	7.017857
277.601929	7.083333
277.775391	5.0625
277.928436	8.375
278.097168	145.314285
278.144226	98.368423
278.227081	6.25
278.390228	31.066668
278.736328	8.011364
278.89563	27.408333
279.117493	1034.703735
279.264252	10.347222
279.304047	9.009615
279.419586	6.0
279.4617	13.446428
279.511536	11.375
279.573761	15.009615
279.621826	10.208333
279.920532	13.007353
280.067535	59.68145
280.121948	147.100616
280.193604	8.041667
280.229034	8.086538
280.770111	22.183823
280.862427	5.013889
280.998779	31.532894
281.088562	677.125977
281.18454	30.285715
281.319794	30.004311
281.474396	6.125
281.677399	6.0
281.718353	23.339285
281.755463	7.025
281.891235	23.035715
281.979218	12.778846
282.095245	314.961578
282.255646	12.347222
282.354156	16.444445
282.384277	6.017857
282.809692	6.0625
283.107361	85.900864
283.178497	10.0625
283.231232	5.375
283.265259	5.025
283.392151	8.45
283.742615	6.125
283.769501	5.025
284.110718	191.213379
284.242004	12.225
284.53186	5.625
284.565857	8.102273
284.96347	8.347222
285.100464	244.0336
285.166229	17.160715
285.258759	7.225
285.306763	6.041667
285.360779	7.333333
285.538452	8.0
286.093811	344.002838
286.893036	5.083333
287.098328	164.047867
287.508118	6.125
288.062683	246.001434
288.139221	83.306816
288.230835	10.125
288.344299	6.0
288.877228	5.0
288.975159	6.125
289.014648	6.083333
289.07373	169.007812
289.161255	20.006578
289.269012	5.017857
289.298309	6.025
289.562958	5.160714
290.06958	81.223686
290.110168	127.723358
290.210327	5.0
290.572266	9.45
291.088562	69.135872
292.100769	19.666666
292.176056	9.284091
292.230499	6.75
293.096771	17.041666
294.089752	189.926285
294.181274	12.125
294.722321	8.009615
295.083374	123.760414
295.118378	70.01786
295.453247	9.347222
296.065338	42.333332
296.133514	60.266666
296.26767	10.0625
296.482025	10.680555
296.596008	5.225
296.791199	5.225
296.966522	7.5
297.089081	24.720238
297.130341	5.0
297.477997	5.0
298.075378	16.049999
298.123505	24.291666
298.312897	6.25
299.256927	6.225
299.51828	5.017857
300.236938	19.322369
300.595947	6.017857
300.845703	8.013889
301.038666	37.671295
302.129059	24.125
302.456512	17.0
302.53772	12.0625
303.083221	79.185608
303.168579	7.025
303.308655	10.035714
304.089722	825.384155
304.173218	51.875
304.25119	10.556818
304.401001	5.025
304.444122	48.246952
304.515472	6.125
304.579102	10.0
304.981384	6.375
305.098877	130.926285
305.252197	10.125
305.347107	5.333333
305.390625	5.041667
305.483337	5.375
305.550049	6.0
305.650726	8.0
305.94812	37.5
306.020477	17.892857
306.108734	125.125
306.214874	13.28125
307.106171	26.347221
307.168335	6.625
307.910919	5.083333
308.10498	127.053574
308.187225	25.446428
308.274994	11.321428
308.801025	5.017857
308.841492	6.0625
308.953888	16.595589
309.103485	839.580627
309.337738	8.0625
309.488159	5.333333
309.542145	5.041667
309.862061	15.25
309.981445	6.5
310.108948	295.003479
310.181	10.041667
310.290344	10.017858
310.386536	24.53125
310.700439	24.6
311.119781	46.133064
311.286133	7.2
311.387756	6.013889
311.427399	12.471154
311.560577	5.013889
311.957062	34.01923
312.113739	33.28125
312.354065	5.0625
314.607178	8.160714
315.334167	5.160714
315.771027	23.333334
316.275879	5.160714
317.096039	52.0
317.234558	5.25
317.414124	7.125
317.467102	5.225
318.186005	5.225
318.790863	5.013889
319.283051	5.225
319.356476	6.160714
319.408325	5.160714
319.650269	5.625
319.813385	12.041667
320.11084	30.556034
320.469574	5.017857
321.056671	27.605
321.987274	6.013889
322.072327	124.715912
322.107941	83.26667
322.225067	10.008333
322.267914	9.083333
322.576752	8.102273
323.085327	211.448166
323.131683	75.541664
323.176758	29.009615
324.112915	260.59259
324.254333	7.025
324.327637	12.059211
324.452179	5.160714
324.597443	9.013889
325.127411	86.012497
325.232574	5.041667
325.864838	7.0
326.147888	147.375
326.489716	7.25
327.141724	73.800003
328.186707	20.086538
329.075562	6.125
329.807434	7.011364
331.148376	15.017858
332.113342	143.001862
333.058502	7.0
333.118347	46.041668
333.815796	5.160714
336.317871	8.680555
336.611084	6.25
337.733826	5.125
338.240387	5.013889
339.13092	7.125
339.427979	5.017857
341.209991	6.125
342.102417	7.625
342.256958	7.017857
342.834412	5.225
342.967621	5.0625
347.568665	6.75
348.767151	8.0
351.324249	7.225
352.126404	448.189453
352.256042	8.375
353.061981	25.0
353.13858	119.072678
353.440918	5.0625
353.560059	7.011364
353.982635	7.013889
354.415833	13.013889
354.52887	14.5625
356.523224	5.025
358.069519	11.208333
359.509827	20.025
360.154541	6.05
360.391907	8.225
360.627106	6.333333
361.117218	9.008333
363.66684	25.75
363.848114	10.011364
364.452728	5.0625
364.936768	5.017857
366.887177	5.0
374.130035	6.446429
374.908081	15.0
374.943481	10.160714
375.488647	6.160714
375.599945	5.0625
375.785828	5.013889
376.471252	12.075
377.712982	7.0625
383.617188	10.5625
384.279449	5.0
390.469055	7.160714
390.754456	6.011364
391.415283	5.083333
396.170624	5.017857
396.273834	7.013889
401.358582	6.0
402.198792	24.200001
405.800476	5.041667
406.998566	6.0
407.18454	7.05
407.92807	7.25
414.416565	22.041666
414.564178	10.102273
415.455963	5.0
417.066132	5.017857
419.056671	6.0
420.496552	7.0
421.843323	6.25
423.336365	5.0
423.71579	5.083333
427.401581	5.041667
430.166962	5.013889
431.790894	6.446429
431.925079	5.017857
432.332214	5.0
433.926697	11.075
434.094543	5.160714
440.805603	9.008333
444.149994	5.0
451.535522	5.333333
454.062592	6.0625
456.276428	18.694445
456.834808	7.875
459.356171	5.017857
465.972656	5.083333
468.138947	6.017857
468.575256	5.0
470.37262	6.0
470.769836	6.333333
471.297577	6.017857
471.649872	5.225
473.651581	7.0625
474.444946	6.446429
474.793152	8.0
477.76004	10.142858
479.347778	5.083333
480.407867	5.017857
483.03775	5.083333
484.31723	6.05
487.717407	7.225
489.274017	5.013889
491.391479	5.013889
493.244812	5.0625
494.845673	6.160714
495.063171	7.102273
495.794098	5.025
499.739624	5.017857
499.919891	11.041667
501.486053	13.75
502.608978	6.625
502.847473	15.086538
503.162811	15.408334
503.235687	8.125
505.667725	5.0625
507.612823	5.0
512.687073	7.0
514.867615	7.0
515.298035	11.284091
516.149414	5.0
519.504761	6.160714
526.70343	13.041667
527.445984	23.75
530.429749	8.5625
532.784363	6.0
534.56311	5.160714
535.087341	5.0625
536.300415	10.035714
537.822327	5.0
541.582886	17.03125
544.793762	5.225
546.837158	6.013889
547.080933	8.45
549.088623	6.025
554.190125	6.25
559.349548	46.454544
575.536438	7.446429
575.837097	12.011364
576.45929	5.160714
577.192261	5.0
578.812805	22.006578
578.965332	5.017857
580.657959	6.25
585.640015	10.041667
586.474304	7.0
587.130127	7.125
597.814514	5.083333
597.955078	5.160714
603.90033	7.0
604.523804	6.160714
606.238342	7.05
608.097595	5.160714
608.574768	25.53125
609.974243	22.025
615.238403	6.446429
615.87854	5.017857
618.813049	6.25
621.136292	5.017857
621.452148	5.0
623.206482	11.375
635.053101	5.083333
640.819946	37.400002
643.661499	13.0
648.978027	6.160714
650.239807	6.160714
651.48938	6.013889
652.327759	5.017857
652.593079	9.284091
659.482971	6.017857
659.653503	6.375
663.868835	13.041667
674.693726	40.761364
678.614197	5.0625
678.839294	5.017857
679.146179	6.125
680.325867	5.083333
682.596619	7.2
683.997253	16.183823
684.554565	5.013889
685.730713	7.011364
686.847412	7.0
687.028503	5.083333
688.796326	6.013889
693.255859	6.5
694.310364	6.013889
697.851562	5.017857
702.699097	7.011364
706.429932	5.0
707.992493	5.017857
710.938904	6.25
712.536743	6.0625
713.936707	8.013889
714.917786	8.5625
715.150757	5.333333
715.953979	6.160714
716.309753	33.048912
720.46228	5.0
721.127319	6.0
722.318909	6.013889
724.705139	7.125
724.937744	5.0
725.201416	6.017857
725.666443	6.25
726.607544	17.920454
727.253113	5.225
729.489258	6.05
729.756226	5.333333
730.298462	7.011364
737.113281	7.446429
739.52771	5.0
740.104126	6.333333
740.454041	29.782408
741.863708	5.0625
744.234741	5.0
746.023621	6.446429
747.207886	8.013889
747.882019	37.25
749.11438	8.011364
749.605469	9.160714
750.644287	5.0625
753.899292	12.086538
758.890076	5.025
759.682922	6.160714
761.943298	20.200001
764.233093	15.041667
764.501831	5.0625
766.116516	16.5
767.512451	5.225
769.335205	5.160714
775.373413	5.333333
780.78595	7.011364
791.867065	7.2
795.323547	14.0
795.924622	5.083333
799.715881	5.0
801.541382	12.0
804.136597	5.017857
805.591125	7.05
806.441528	6.013889
807.91449	6.0
810.065491	17.25
810.323059	5.160714
811.865295	8.05
819.845398	5.0625
823.367676	10.920455
826.456238	13.0
826.575378	11.45
827.961304	5.333333
831.315552	5.013889
833.99176	7.011364
835.722717	7.013889
838.423035	25.1875
840.358643	8.102273
843.685059	6.017857
851.96814	5.041667
852.23999	6.011364
856.432495	5.017857
859.418945	11.0
864.45874	5.0
867.374329	5.013889
874.309998	5.017857
878.40564	5.125
879.531494	8.45
881.819519	7.25
882.470764	8.011364
882.701782	6.625
884.114319	7.011364
887.732117	6.011364
889.749939	7.625
890.298218	17.680555
890.394043	11.013889
890.445374	6.083333
891.615234	5.0
891.772766	5.333333
893.061768	7.160714
896.541443	5.0625
899.096008	5.013889
902.121277	5.0
905.463135	6.25
907.614319	5.0
909.194214	5.0
911.558533	6.160714
912.219055	6.0625
915.218689	42.670456
915.876465	5.025
916.143616	10.446428
919.663269	5.0
923.090576	5.083333
926.278503	6.0
926.868652	23.125
931.19458	6.025
931.949951	6.05
933.286987	5.0
935.338257	5.625
942.442749	7.013889
943.221008	14.0
944.654602	6.013889
946.551208	6.0
949.327393	27.408333
950.541809	7.0
960.277466	6.225
963.590637	6.125
964.49646	13.2
971.793762	5.017857
973.599365	5.625
976.180359	5.017857
988.130554	36.022728
992.313049	9.333333
998.665833	6.225
999.060547	8.25
999.772644	8.035714
1003.313782	7.5625
1003.656006	6.013889
1011.464844	7.25
1017.426575	5.017857
1018.161682	5.0
1018.694824	5.0
1019.467163	6.0
1020.883728	10.013889
1021.159973	6.013889
1023.443665	8.2
1029.737671	14.0
1034.753174	5.0625
1036.015381	8.45
1036.328857	5.0
1039.815186	5.333333
1040.208252	6.0625
1040.951538	5.017857
1041.676514	7.0
1041.933594	5.125
1046.739624	8.0
1048.044678	9.035714
1049.839478	17.674999
1050.713135	5.0
1057.314331	6.160714
1062.922852	6.013889
1064.439209	8.225
1080.347046	7.009615
1083.170044	5.0
1087.344971	5.0
1090.36731	6.0625
1091.527954	6.125
1093.793823	6.05
1095.108765	5.017857
1097.512207	5.083333
1101.465942	5.017857
1102.976807	5.0
1106.959717	7.041667
1108.953857	5.0
1114.196899	8.013889
1124.469238	5.0
1127.794189	7.011364
1128.277832	5.0625
1136.681396	6.625
1142.153687	7.025
1145.086914	5.5
1146.944336	7.446429
1147.72998	8.0625
1148.061523	8.102273
1149.572754	18.041666
1159.213989	6.013889
1162.157593	5.083333
1168.204224	7.375
1173.829468	9.25
1174.404541	6.0
1177.288452	5.017857
1181.660645	6.013889
1183.363647	6.083333
1188.780273	7.017857
1190.127441	11.556818
1204.122803	5.0
1209.786377	5.013889
1211.790771	5.0
1217.994995	6.0625
1225.384277	5.083333
1227.785156	7.05
1231.86731	7.025
1244.043579	5.125
1250.044556	15.571428
1252.268921	11.035714
1273.417603	13.571428
1273.559204	5.083333
1280.269653	6.017857
1285.727173	7.625
1287.019165	6.083333
1288.99292	5.25
1300.922607	8.102273
1306.017944	5.0
1306.934204	7.2
1307.076294	15.2
1312.187378	6.013889
1312.855103	6.0
1317.450684	11.013889
1318.820923	7.5
1337.916016	7.102273
1344.202393	7.102273
1352.465454	5.013889
1357.477173	5.0
1364.809326	5.017857
1367.403687	17.0625
1370.387085	5.125
1371.094604	5.0
1374.573608	6.0625
1376.411011	5.083333
1388.769897	5.017857
1392.818848	59.173782
1395.626465	6.0
1400.105835	5.160714
1403.55542	25.164474
1403.902344	5.017857
1405.197754	5.0
1405.868652	6.05
1410.833374	15.347222
1414.018311	5.225
1418.531006	10.086538
1419.637817	18.05921
1427.549194	7.125
1427.635498	12.166667
1431.469604	5.0625
1434.108032	5.083333
1441.574951	5.333333
1447.621216	5.0625
1451.590942	6.013889
1458.549072	11.680555
1464.474487	23.571428
1464.572632	8.041667
1467.369873	5.160714
1468.452148	6.083333
1468.716064	5.0625
1473.621338	7.0
1474.04187	5.160714
1481.583618	5.225
1493.635132	10.03125
1494.770752	6.0
1502.04541	6.446429
1503.446899	6.0625
1506.288452	5.333333
1508.947021	5.0
1510.114014	5.333333
1514.450928	14.125
1517.798462	7.011364
1521.076782	10.008333
1522.515015	6.0
1522.65332	5.333333
1522.829712	5.0
1523.706543	5.0
1525.978516	19.05921
1528.572021	6.446429
1530.955078	5.025
1540.866455	5.625
1543.875	5.160714
1554.781616	7.102273
1561.307495	7.017857
1565.071533	15.892858
1568.144897	7.25
1569.539062	10.347222
1569.786133	5.025
1571.543457	6.083333
1573.897217	5.013889
1578.265259	10.035714
1583.991699	5.0
1585.276245	8.017858
1590.762085	5.025
1597.224121	6.025
1598.595093	6.5
1606.053223	15.013889
1606.2854	5.0
1610.049316	19.013889
1614.515137	5.083333
1617.525513	5.017857
1618.7854	13.5625
1622.904907	6.0625
1625.506592	7.25
1625.737427	31.066668
1644.601685	5.333333
1644.675537	7.0
1648.580811	7.025
1654.17395	8.009615
1655.158081	6.125
1658.253174	7.05
1676.765869	7.125
1680.19165	5.333333
1685.029541	12.471154
1685.363159	5.083333
1686.238281	5.083333
1690.280273	6.125
1690.502441	5.333333
1690.845703	5.0625
1693.863647	5.017857
END IONS

BEGIN IONS
PEPMASS=352.149
CHARGE=1
MSLEVEL=2
SOURCE_INSTRUMENT=LC-ESI-qTof
FILENAME=f.fronkey/SUZHOU2023/WX20240119nozib/H_MIX/H_1.mzXML;
SEQ=*..*
IONMODE=Positive
ORGANISM=GNPS-LIBRARY
NAME=Lomefloxacin M+H
PI=Xiang-Rong Cheng
DATACOLLECTOR=Xiang-Rong Cheng
SMILES=CCN1C=C(C(=O)C2=CC(=C(C(=C21)F)N3CCNC(C3)C)F)C(=O)O
INCHI=1S/C17H19F2N3O3/c1-3-21-8-11(17(24)25)16(23)10-6-12(18)15(13(19)14(10)21)22-5-4-20-9(2)7-22/h6,8-9,20H,3-5,7H2,1-2H3,(H,24,25)
INCHIAUX= 
PUBMED=3948
SUBMITUSER=fronkey
LIBRARYQUALITY=3
SPECTRUMID=CCMSLIB00012176211
USI=mzspec:GNPS:GNPS-LIBRARY:accession:CCMSLIB00012176211
SCANS=545569
50.137066	5.125
50.285278	6.625
50.565575	5.017857
50.635265	5.025
50.922581	9.086538
51.027645	66.599998
51.122108	6.75
51.186012	7.011364
51.611423	15.009615
51.844532	22.674999
51.860493	13.025
52.393223	6.446429
52.718071	5.083333
52.839462	6.05
52.866882	6.125
52.944191	7.125
53.003754	55.333332
53.074219	5.017857
53.221207	5.0
54.036552	16.666666
54.056557	12.008333
54.514942	7.0
54.911205	7.017857
55.022022	29.011364
55.055244	589.041687
55.105618	23.0
55.124863	6.013889
55.218994	5.0625
55.437527	5.0625
55.888668	6.160714
56.026703	7.017857
56.050941	1638.266968
56.117325	38.0625
56.147491	16.011364
56.160625	24.291666
56.212837	9.347222
56.33474	5.025
56.381775	22.595589
56.477234	18.242647
56.545311	7.0
56.564106	5.160714
56.581501	5.013889
56.701138	10.017858
56.73587	14.011364
56.76429	10.5
56.806587	7.5625
56.827225	6.0
56.86097	51.80357
56.950066	46.211208
57.005409	11.125
57.064297	251.006256
57.103828	14.5625
57.136269	7.083333
57.171555	16.28409
57.185387	12.446428
57.240517	10.075
57.432446	6.013889
57.528526	7.0
57.764709	6.013889
57.826023	6.017857
58.064796	3755.899902
58.137409	38.387821
58.165237	19.666666
58.194572	8.05
58.230392	9.225
58.246338	6.125
58.260921	8.45
58.290569	5.225
58.330864	7.102273
58.428322	27.009615
58.462704	24.4
58.482021	10.446428
58.515518	7.160714
58.643673	8.0
58.671181	22.200001
58.709862	6.017857
58.758366	5.0625
58.799656	10.446428
59.032223	247.234589
59.069344	126.680557
59.187469	7.013889
59.214127	19.005953
59.429314	7.625
59.523933	17.674999
59.561253	6.041667
59.671589	5.375
59.890804	6.225
59.952316	21.027779
60.005947	18.035715
60.028145	121.0
60.079468	32.5
60.385845	9.017858
60.47559	7.025
60.559666	5.225
60.618694	6.013889
60.784756	6.0
61.044628	22.408333
61.252739	6.013889
62.017014	79.083336
62.467022	8.2
62.969067	7.347222
63.119705	5.083333
63.266335	8.125
63.490978	7.017857
63.670128	5.0
63.923199	9.013889
64.153679	7.125
64.265076	9.45
64.430099	5.225
64.45858	7.017857
64.750275	6.125
64.838371	5.0625
65.038681	33.224998
65.115875	6.446429
65.145645	5.225
65.209991	7.009615
66.421379	6.333333
66.758835	5.017857
67.052391	456.49057
67.129875	8.45
67.294807	5.017857
67.556641	7.0
67.612663	5.125
68.019241	28.125
68.059288	315.205719
68.106995	7.0625
68.230652	6.017857
68.421402	7.347222
68.472763	5.225
68.530724	5.025
68.702545	5.225
68.893593	8.017858
69.059456	117.263161
69.094635	12.035714
69.137733	12.0
69.310242	5.025
69.330269	5.041667
69.473434	5.0
69.88694	5.025
70.028473	65.907257
70.065178	2299.364258
70.134346	22.375
70.16655	22.025
70.211327	15.556818
70.293846	26.125
70.326996	15.008333
70.553284	6.083333
70.612015	15.125
70.640816	8.45
70.682472	15.25
70.708374	7.160714
70.761284	12.0
70.858261	5.083333
70.897087	5.0
70.921013	22.322369
71.069756	480.252411
71.110603	25.183823
71.145058	20.086538
71.168175	5.225
71.514435	7.102273
71.566292	12.8
71.646568	9.025
71.676109	6.333333
71.782616	6.0625
71.870491	5.0
72.081863	350.166412
72.436691	24.889706
72.544502	24.347221
73.436844	5.025
74.015762	179.004807
74.094849	7.2
75.01931	33.164474
75.770279	12.142858
76.132614	5.125
76.183678	21.242647
76.670547	5.160714
76.715927	6.013889
76.9123	8.160714
76.992615	29.818182
77.014084	6.025
77.038712	168.036011
77.099602	11.284091
77.115364	7.25
78.034126	98.160004
78.069572	9.025
78.186111	7.041667
78.349167	5.160714
78.369629	5.083333
78.543076	5.0
78.590736	22.480263
78.650322	5.0
78.716751	5.017857
78.757675	5.083333
79.120956	5.0
79.310738	6.0
80.047348	65.08696
80.148315	5.225
80.448555	5.0
81.046326	51.89352
81.090523	8.0
81.572952	9.25
81.836807	6.083333
82.065933	480.256866
82.115662	13.0
82.14698	13.164474
82.220238	6.25
82.407356	5.225
82.450264	9.017858
82.770584	38.322369
82.827255	20.164474
83.028877	66.85714
83.06076	322.776886
83.0821	121.245689
83.110138	20.013889
83.144157	11.102273
83.230156	6.225
83.279907	7.5625
83.900085	5.0
84.080902	2218.973877
84.132622	44.008335
84.16819	49.130436
84.189674	5.225
84.23333	9.45
84.269844	8.011364
84.305107	10.333333
84.320854	16.920454
84.380936	6.125
84.564804	15.778846
84.646049	27.148809
84.698997	10.375
84.719933	5.0625
84.772964	6.125
84.937469	6.011364
85.082527	178.333328
85.522461	8.009615
85.555199	14.571428
85.57576	23.09091
85.603142	9.160714
85.671684	7.125
85.805092	18.225
86.746758	5.0
87.015991	7.017857
87.063011	43.090908
88.255539	6.013889
88.983528	16.25
89.647873	15.666667
89.763733	5.25
90.001259	7.0
90.306389	6.333333
90.449944	6.017857
91.051544	63.900864
91.18045	7.025
91.225624	8.5625
91.843987	6.625
91.996017	5.083333
92.223595	5.125
92.615814	5.083333
92.682388	6.0625
93.202484	5.0625
94.018883	13.2
94.068428	9.0
94.190224	6.446429
94.292046	5.0
94.881653	13.45
94.953278	7.0625
94.996552	16.680555
95.030968	190.607147
95.057526	52.782406
95.087791	73.032143
95.120872	19.5
95.181976	8.5625
96.084503	14.05
96.316551	6.0
96.361946	9.284091
96.429619	7.013889
96.554146	11.208333
96.780693	8.011364
97.039307	26.75
97.079254	53.222828
97.667877	6.041667
97.739243	15.25
98.008652	7.011364
98.048241	10.0625
98.082855	351.144226
98.151314	5.083333
98.183884	8.333333
98.219269	6.160714
98.349861	18.471153
98.373978	7.05
98.410614	20.163462
99.036194	24.571428
99.055183	38.140625
99.088295	50.408333
99.957237	6.0
99.996696	104.440002
100.020096	88.0625
100.052277	23.375
100.0811	12.375
100.483002	5.125
100.997551	5.225
101.039185	74.760132
101.147179	12.183824
101.181976	5.160714
102.033997	55.852272
102.762794	13.556818
102.876167	5.125
103.05484	45.066666
103.683022	5.160714
104.145996	5.225
104.34108	5.160714
104.511765	5.0
104.960022	6.025
105.011269	59.285713
105.083786	7.013889
105.817123	6.160714
106.149406	6.05
106.487976	5.017857
107.029114	383.311523
107.119011	14.075
107.447189	7.013889
107.536774	9.142858
107.928406	5.625
108.023018	74.5625
108.464485	9.0625
108.524696	8.011364
108.642593	12.5625
109.024246	51.727272
109.209305	8.347222
109.968964	9.556818
110.004089	27.889706
110.181267	7.041667
110.235657	5.083333
110.700943	5.333333
111.503387	7.013889
111.868492	6.25
111.890007	5.25
111.990532	7.017857
112.014641	19.011364
112.082008	6.0625
113.017761	272.509033
113.117065	10.5625
113.157944	6.0625
113.200844	8.011364
113.256004	5.0
113.403229	5.083333
114.034103	60.041668
114.134331	10.240385
115.054756	103.025002
115.115669	9.025
115.182983	7.0
115.90419	7.102273
116.042686	147.142441
116.099747	10.013889
117.844353	5.160714
118.007843	28.568182
118.068848	8.25
118.443977	6.225
118.696922	16.240385
118.834358	6.0625
118.941139	6.125
119.013939	98.63269
119.091965	6.013889
119.524185	9.5625
120.041107	195.090912
120.358879	6.013889
120.451469	35.454544
121.043289	101.136108
121.402901	5.333333
122.037529	306.769623
122.90004	7.017857
123.366684	6.017857
123.410019	14.008333
123.577919	8.011364
123.770103	6.017857
123.827789	6.0
123.868073	8.446428
123.930374	6.0
124.029778	14.375
124.5532	10.0
124.713974	10.009615
124.795975	7.333333
125.023331	481.0
125.713272	6.25
125.782906	16.200001
126.026756	404.702698
126.275864	6.025
126.482864	5.013889
126.521744	5.017857
126.593025	5.0
126.923828	18.03125
126.945602	12.333333
127.037491	183.225006
127.118584	8.017858
127.248489	10.086538
127.300484	5.0
128.046005	447.245636
128.132095	7.333333
128.212448	7.160714
128.322937	5.0625
128.982864	6.013889
129.05014	171.516083
129.133362	12.208333
129.192245	10.013889
129.242386	5.0
129.323334	5.083333
129.677277	5.0
129.715012	11.25
129.913589	10.05
130.027985	101.569031
130.055695	97.007355
130.136978	8.017858
130.215286	7.083333
130.274918	8.166667
130.584167	5.083333
131.078781	32.244999
131.110138	5.225
131.877533	6.0
131.940384	5.5
132.032425	53.432144
132.064087	11.875
132.977951	10.011364
133.043289	356.365662
133.124588	14.240385
133.178757	6.225
133.598495	64.041664
133.949066	18.360294
134.04039	2400.106201
134.098404	89.26535
134.127014	38.008335
134.150604	24.041666
134.178864	15.083333
134.21637	7.0625
134.249908	5.025
134.326523	5.625
134.48381	40.022728
134.52356	5.0
134.551773	6.125
134.656067	5.125
134.684113	18.075001
134.719238	27.125
134.757965	7.083333
134.837585	20.164474
135.047897	173.446426
135.114502	7.0
135.139038	8.0625
135.333145	7.0
135.581268	14.0
135.741348	5.225
135.784485	8.446428
136.007156	49.802631
136.054306	161.675003
136.118179	6.083333
136.50177	10.086538
136.777847	6.017857
137.055893	7.446429
137.087921	9.035714
137.109604	6.333333
137.202606	8.011364
137.248749	5.333333
137.445633	8.013889
137.539078	5.225
137.715897	6.013889
137.973145	6.025
138.026138	73.5
138.06871	26.142857
138.448013	30.245689
138.52153	6.0
138.572388	16.375
138.881104	5.333333
138.908249	5.0
139.024628	525.718933
139.100693	30.375
139.156174	7.625
139.213943	9.0
139.317078	10.25
139.417923	5.013889
139.445129	10.011364
139.690521	20.075001
139.744598	6.125
139.792267	5.0625
140.03569	353.064484
140.107269	12.25
140.165405	22.339285
140.183105	7.225
140.261169	6.333333
140.469421	17.347221
141.044205	165.242645
141.115402	9.0625
141.157776	8.05
141.178345	26.125
141.205688	8.011364
141.304962	7.75
141.328568	23.225
141.510483	5.25
141.814896	12.471154
142.025452	47.599998
142.058151	107.964287
142.201721	24.142857
142.358032	9.240385
142.639877	5.017857
142.853516	38.038792
142.874802	13.025
142.910324	8.680555
143.065918	101.398582
143.135818	5.025
143.51506	5.0
144.041962	47.265625
144.074936	128.044022
144.115143	19.694445
144.165512	15.471154
145.041	57.272728
145.085892	83.0
145.191116	5.225
145.56459	31.521551
145.891922	10.166667
146.039108	347.152557
146.177292	7.011364
147.047287	895.133362
147.112061	22.13587
147.147827	14.025
147.432068	6.125
147.469101	14.102273
147.509491	5.333333
147.594498	5.025
147.797577	9.0
147.986557	20.03125
148.054169	1354.461304
148.13353	12.125
148.16333	13.571428
148.197037	8.013889
148.223297	7.333333
148.266861	5.025
148.30925	5.017857
148.352097	8.160714
148.414505	15.008333
148.450745	5.225
148.489182	16.333334
148.569412	14.240385
148.623566	13.347222
148.8022	6.446429
148.920227	6.0
149.053909	442.121277
149.131165	13.017858
149.194977	6.0
149.263718	5.225
149.666321	9.102273
149.72345	16.102272
149.984787	15.571428
150.031082	329.670013
150.064346	334.803223
150.145447	27.165323
150.183548	11.446428
150.329285	9.284091
150.450562	7.102273
150.725449	17.035715
150.918091	22.111841
150.969757	7.025
151.041306	268.290802
151.09407	88.273651
151.200974	6.446429
151.26326	6.013889
151.395462	5.025
151.532654	5.025
151.731216	6.017857
151.915771	12.0
152.028168	1455.335327
152.171478	14.075
152.211685	11.8
152.468506	18.471153
153.037811	1370.133911
153.102676	56.55682
153.152908	66.285378
153.225006	9.011364
153.267792	10.142858
153.381775	14.011364
153.43074	12.284091
153.517502	18.035715
153.549316	9.5
153.588882	8.041667
153.604324	5.225
153.642426	9.5
154.003113	5.0
154.050232	749.121216
154.124725	23.204546
154.160538	9.009615
154.218781	9.083333
154.28418	16.450001
154.311447	9.45
154.39093	7.025
154.431244	6.225
154.508575	16.0
154.682251	22.086538
154.790344	6.025
154.91246	8.013889
155.058685	1718.062622
155.14621	22.5625
155.178467	14.017858
155.2211	12.102273
155.265259	46.416668
155.388535	48.44643
155.508804	8.45
155.687775	14.066176
156.058929	414.526001
156.134979	15.160714
156.162415	9.017858
156.29213	7.009615
156.435944	18.125
156.515457	10.0
156.695801	5.0
157.006409	7.025
157.065552	69.066666
157.165695	13.125
157.482666	6.017857
157.526047	7.05
157.786438	7.0
158.046204	179.75
158.152069	10.5
158.27536	6.446429
158.364807	67.414215
158.43718	5.333333
158.465469	7.225
159.055008	98.160713
159.106735	11.125
159.258759	7.041667
159.460876	6.446429
159.506577	7.083333
159.528641	8.083333
159.897919	5.041667
159.995102	5.125
160.05336	541.775208
160.152298	7.125
160.286865	5.041667
160.365677	7.102273
160.40921	6.083333
160.548111	6.013889
160.577377	8.284091
160.849411	7.125
160.986343	8.166667
161.05162	1252.552368
161.161819	17.208334
161.212128	15.571428
161.373962	8.041667
161.505707	5.017857
161.548187	11.25
161.776703	6.0625
161.798676	20.005953
162.037323	2547.869629
162.113037	124.571426
162.201935	14.035714
162.245773	21.03125
162.312012	18.071428
162.400085	6.333333
162.429703	10.017858
162.56897	8.05
162.679153	18.007353
162.752655	14.148809
162.802292	8.5625
162.855499	7.0625
162.99501	16.208334
163.049103	705.919067
163.164459	16.225
163.193863	15.086538
163.232834	5.041667
163.282211	6.0
163.48111	13.011364
163.692642	19.5625
163.893738	9.008333
163.996964	22.025
164.043076	256.008331
164.166382	16.28125
164.196457	6.25
164.271957	7.333333
164.498703	22.111111
164.561844	11.0
165.041489	328.836792
165.233154	7.446429
165.257599	7.083333
165.366745	8.333333
165.401642	7.0
165.418076	7.225
165.876495	19.011364
165.913254	9.013889
165.94249	10.0625
166.038315	4501.838379
166.150955	82.016792
166.198868	32.75
166.245224	16.680555
166.299667	16.086538
166.344467	18.208334
166.388458	5.017857
166.522232	8.0
166.545807	5.125
166.596634	10.166667
166.630051	22.125
166.674667	6.625
166.715683	8.0625
166.745331	5.0
166.804947	5.017857
166.856918	24.0
166.894562	28.560184
166.944427	6.041667
167.044373	2702.163574
167.184509	29.6
167.214294	21.045
167.25145	13.142858
167.334869	6.083333
167.399338	12.125
167.460205	5.017857
167.482574	17.225
167.521317	21.075001
167.587341	13.05
167.654114	5.083333
167.733063	20.408333
167.758514	5.013889
167.877853	20.007353
167.937637	6.013889
167.967499	8.05
168.049561	821.136353
168.131027	21.720238
168.175705	11.0
168.207443	14.163462
168.244781	14.375
168.281357	36.005436
168.377594	12.284091
168.427994	12.446428
168.507935	20.450001
168.575012	17.778847
168.797119	8.017858
169.032974	366.695374
169.074554	1167.786743
169.15947	29.778847
169.269058	6.0
169.308716	28.6875
169.343536	8.25
169.408951	5.160714
169.476807	9.5625
169.516479	9.011364
169.689789	8.25
169.809113	7.0
169.831635	6.0
169.899292	26.083334
169.94426	5.017857
170.06575	384.00946
170.183365	11.45
170.342072	10.125
170.389175	6.446429
170.474915	17.163462
170.522873	5.0
170.910385	9.446428
171.00473	5.160714
171.055374	135.205002
171.186035	10.2
171.925034	7.011364
172.052322	265.280396
172.166885	5.083333
172.200851	15.0
172.242416	6.017857
172.280243	7.2
172.417099	8.347222
172.454208	5.160714
172.514694	9.009615
172.688828	10.05
172.719025	7.017857
172.862839	13.086538
172.893372	11.05
172.961456	5.025
173.051071	1545.054688
173.1698	24.875
173.211258	15.28125
173.256989	13.322369
173.340408	5.013889
173.393509	12.183824
173.575607	5.0
173.691376	7.446429
173.757797	6.013889
173.788055	11.408334
173.845688	24.408333
174.05838	3521.202393
174.236526	10.05
174.266968	9.160714
174.367645	60.720238
174.403839	7.017857
174.481857	43.444443
174.527603	12.013889
174.585083	18.083334
174.640015	6.025
174.705338	15.446428
174.753967	10.0
174.788254	12.5
174.829895	6.160714
174.921539	19.09091
174.994995	12.5625
175.064072	2210.775146
175.188202	55.008335
175.3022	9.240385
175.370911	12.2
175.43425	7.5625
175.493423	5.0625
175.531448	5.0
175.58017	5.0
175.661255	26.125
175.803589	24.625
175.860443	7.017857
175.928314	23.03125
175.978333	34.375
176.051514	1890.714966
176.206955	19.163462
176.286392	17.200001
176.363663	8.160714
176.415497	17.375
176.48848	23.796053
176.555878	5.0625
176.778976	39.388889
176.99234	32.0
177.049118	160.882355
177.0867	89.515625
177.199326	6.125
177.311768	5.160714
177.38652	8.008333
177.455811	20.875
177.575256	8.035714
177.605942	7.017857
177.717682	7.25
177.817154	5.375
177.922577	12.45
178.040009	651.569641
178.127243	27.778847
178.205139	11.05
178.336044	17.245001
178.42041	9.017858
178.493759	5.375
178.513763	6.083333
178.620789	6.0625
178.705353	16.075001
178.809464	7.875
178.967377	22.006578
179.045074	735.00946
179.12822	13.083333
179.182617	11.0625
179.237244	13.148809
179.477203	16.408333
179.521439	5.333333
179.569016	11.009615
179.593018	8.083333
179.68869	6.625
179.731186	7.0625
180.044403	1689.752686
180.174469	40.400002
180.223785	19.160715
180.250397	11.083333
180.306152	18.008333
180.425415	12.0
180.573944	5.017857
180.730331	32.208332
180.799332	6.041667
180.829483	7.017857
180.895538	9.017858
181.034622	5096.941895
181.146149	101.140625
181.194656	33.08654
181.239044	23.408333
181.328094	21.892857
181.364288	25.027779
181.436478	20.208334
181.489288	14.408334
181.550858	10.284091
181.605286	21.482143
181.68428	21.78125
181.747726	18.920454
181.813858	32.066177
181.87793	21.0625
181.977768	17.066177
182.04007	2955.164551
182.195435	32.094696
182.225494	17.041666
182.320175	22.009615
182.376328	7.225
182.416367	16.799999
182.486053	9.011364
182.545502	18.09091
182.567932	22.595589
182.638916	17.03125
182.711517	28.111841
182.756226	11.017858
182.817993	7.0625
182.887222	6.25
182.92514	6.333333
182.962753	92.166664
183.050858	1429.603882
183.163208	37.408333
183.203812	15.375
183.260864	21.083334
183.330475	10.446428
183.381271	9.225
183.418228	20.007353
183.449463	7.0
183.527496	6.05
183.598633	8.347222
183.653717	25.532894
183.703125	7.75
183.794434	11.45
183.88945	13.680555
184.076141	169.796692
184.118454	68.96196
184.179703	9.75
184.222702	8.011364
184.369125	8.680555
184.40036	8.446428
184.471573	9.041667
184.598999	8.25
184.629501	5.017857
184.67485	6.446429
184.891983	15.625
184.999573	7.333333
185.053955	544.0672
185.165771	23.025
185.264053	8.2
185.573166	9.0
185.692184	24.920454
185.784561	6.625
185.87616	8.013889
186.058243	573.64447
186.152481	17.28409
186.347519	5.025
186.376938	8.5625
186.434235	7.102273
186.583664	13.009615
186.733276	10.05
186.874939	6.017857
187.063217	1966.12085
187.189926	22.007353
187.249176	10.0
187.285126	7.347222
187.322342	6.225
187.356949	10.25
187.473053	12.125
187.508011	31.339285
187.55278	12.008333
187.651672	46.017857
187.707153	45.720238
187.994843	7.009615
188.063828	790.800659
188.172592	50.75
188.216049	11.0
188.305435	28.6875
188.348892	6.041667
188.395889	7.446429
188.444885	23.111111
188.492859	13.086538
188.595261	13.013889
188.658081	8.25
188.79364	6.25
188.88269	8.680555
188.953827	7.125
189.052216	1746.574829
189.17421	29.720238
189.232086	7.625
189.26709	8.041667
189.300339	10.05
189.334106	7.125
189.422333	18.892857
189.556686	24.025
189.678543	48.942307
189.725479	18.5
189.950333	7.347222
190.063126	1457.130981
190.226761	13.333333
190.255096	18.892857
190.412704	17.125
190.447342	6.5
190.491608	15.321428
190.529495	5.041667
190.756973	5.225
190.833221	5.017857
190.882614	12.45
191.065308	1022.249573
191.189102	16.471153
191.311966	9.25
191.375946	31.142857
191.510117	10.0
191.542557	7.025
191.626862	13.680555
191.831009	61.333332
191.956802	5.0
192.060654	300.223694
192.270477	8.446428
192.307587	7.025
192.348083	6.017857
192.412003	10.075
192.5159	9.075
192.546417	9.041667
192.632019	6.5
193.056183	2798.53418
193.160706	37.333332
193.233002	22.405001
193.259949	16.008333
193.300003	18.005434
193.340012	11.05
193.365128	7.333333
193.408142	11.5
193.461227	19.166666
193.502899	10.75
193.607498	29.84091
193.772827	5.625
193.822647	6.333333
193.902405	39.164474
193.942108	12.0625
194.064362	18752.382812
194.188232	214.072052
194.225906	110.446426
194.308807	63.244999
194.385956	78.721153
194.458633	37.25
194.522232	40.041668
194.61322	56.16346
194.646317	23.28409
194.679581	13.125
194.736282	27.071428
194.760406	11.0625
194.837051	49.89352
194.874832	37.5625
194.915955	56.107758
194.948151	36.55682
195.054581	14303.487305
195.176468	243.560028
195.207977	146.361115
195.241318	81.842102
195.3246	33.57143
195.365494	60.080883
195.396027	37.0
195.462296	69.880432
195.495209	27.361111
195.536942	63.450001
195.568878	38.777779
195.616867	90.440002
195.682068	33.796051
195.763351	50.059212
195.846161	15.2
195.883881	38.148811
195.922607	36.570652
195.969345	21.166666
196.048843	6580.250977
196.165009	106.083336
196.231247	44.333332
196.291885	88.71627
196.372299	19.102272
196.413116	26.53125
196.482498	28.28409
196.576111	41.0
196.621918	17.4
196.662292	23.01923
196.720642	46.721153
196.793533	30.200001
196.864304	10.0
196.912811	8.0
197.053467	5989.088867
197.179947	165.296295
197.259262	28.720238
197.31871	21.083334
197.356384	17.125
197.423737	37.224998
197.487259	19.011364
197.530518	16.011364
197.572571	37.408333
197.607208	21.200001
197.657211	19.03125
197.731293	20.694445
197.80101	57.53125
197.860001	24.225
197.949936	63.072674
198.062576	1051.061279
198.157059	30.480263
198.208313	29.100807
198.249542	33.066177
198.289062	38.07143
198.319794	23.78125
198.354782	14.125
198.459808	9.0
198.492264	7.041667
198.573425	12.086538
198.614059	14.142858
198.701523	8.125
198.743942	12.680555
198.802872	8.375
198.908234	20.111841
198.964844	6.041667
199.06662	617.428589
199.150589	46.084461
199.189865	52.150002
199.231506	6.0
199.306244	43.333332
199.404861	11.25
199.467377	8.0
199.508591	10.017858
199.605957	11.2
199.630127	19.083334
199.707474	6.25
199.735977	12.142858
199.882553	12.011364
199.923248	5.017857
200.059875	345.349152
200.184784	7.25
200.461197	9.013889
200.501968	8.011364
200.602783	25.480263
200.78093	11.666667
200.839432	104.01786
200.949249	11.347222
201.064896	452.840271
201.196365	26.011364
201.247192	14.025
201.334747	5.0
201.393341	19.166666
201.49025	23.053572
201.516312	36.942307
201.558594	18.450001
201.671631	16.571428
201.717361	35.099998
201.833359	10.471154
202.054108	7980.543457
202.179764	111.75
202.213837	39.041668
202.262314	36.0
202.293427	32.076923
202.373871	16.017857
202.4189	62.112499
202.505905	59.107143
202.57843	22.28125
202.635086	30.625
202.690491	29.53125
202.746078	38.520161
202.786331	13.25
202.855927	34.347221
202.901749	10.680555
202.987427	72.842102
203.061356	8913.337891
203.188431	106.645164
203.226257	47.25
203.264542	73.333336
203.289703	66.6875
203.375168	26.521551
203.413788	21.666666
203.473892	31.01923
203.529236	29.339285
203.628738	22.200001
203.705429	8.041667
203.833084	22.375
203.907349	45.657608
204.064606	1813.220093
204.196152	51.315216
204.255234	9.05
204.306747	13.347222
204.35405	16.1
204.403473	9.0
204.469421	13.102273
204.539993	27.142857
204.5905	18.225
204.657608	15.2
204.766006	10.086538
204.794342	7.125
204.858307	39.005436
204.909637	12.680555
205.054642	543.105896
205.176712	13.333333
205.252563	14.208333
205.269531	15.408334
205.360794	31.041666
205.401215	15.009615
205.454895	7.375
205.508591	7.125
205.576126	5.125
205.706818	8.0
205.765045	13.321428
205.938385	11.05
206.047485	489.125
206.194565	9.0
206.260757	7.0
206.31456	23.0
206.343491	14.0
206.381836	17.041666
206.41011	13.240385
206.500748	9.160714
206.56691	10.05
206.677277	48.889286
206.947998	7.013889
207.067352	1390.934204
207.169083	22.666666
207.312546	8.011364
207.377197	19.28409
207.502182	10.041667
207.536713	16.142857
207.57962	35.224998
207.718536	8.160714
207.802963	26.777779
207.95195	11.035714
208.0737	8032.000977
208.178391	148.002457
208.249695	36.160713
208.284531	35.00658
208.309814	28.4
208.39299	14.25
208.48082	51.890625
208.537567	22.778847
208.644073	51.765625
208.711502	31.556818
208.734558	25.049999
208.775879	18.017857
208.80777	20.183823
208.862991	48.654411
208.990952	49.090908
209.058884	8096.131836
209.191376	120.805
209.299316	13.160714
209.358734	33.099998
209.399628	17.083334
209.453613	45.0
209.512192	63.765625
209.574982	20.200001
209.635696	27.242647
209.669052	51.094696
209.725433	24.200001
209.766632	24.164474
209.79187	20.111111
209.844559	25.556818
209.891388	33.347221
209.958755	19.009615
209.99234	31.405001
210.068329	1627.652344
210.193878	60.307693
210.261108	23.007353
210.336014	44.1875
210.371628	43.720238
210.415726	33.005951
210.443741	10.160714
210.516739	35.56818
210.555832	16.778847
210.617477	39.166668
210.69397	16.035715
210.777588	6.125
210.83197	13.5625
210.885452	16.240385
210.978302	11.05
211.065796	358.294922
211.115646	114.166664
211.221634	7.083333
211.34671	9.03125
211.455856	18.125
211.505829	5.0
211.597992	6.0625
211.712555	12.225
211.785309	7.0
211.863907	15.347222
211.917389	8.25
212.017929	19.444445
212.080338	129.906754
212.132339	15.666667
212.205383	57.36842
212.266006	30.556818
212.302795	20.041666
212.386551	19.066177
212.429718	6.333333
212.49556	5.0
212.549927	6.333333
212.587952	6.0
212.729904	5.125
212.811478	22.5625
212.898834	7.05
212.940857	9.009615
213.009506	37.367424
213.084	200.451538
213.151062	10.011364
213.200211	5.225
213.310883	6.0
213.355515	35.005951
213.395035	11.009615
213.509521	7.446429
213.553604	57.49128
213.738129	14.160714
213.832993	14.360294
214.08638	263.071838
214.212708	7.083333
214.30484	7.041667
214.410263	23.625
214.441223	5.125
214.600128	12.041667
214.67392	7.446429
214.880081	5.041667
215.058807	3848.849609
215.241898	35.761906
215.301086	10.017858
215.367966	19.142857
215.411606	14.471154
215.477173	12.160714
215.52037	7.25
215.588623	5.333333
215.664703	15.0
215.691223	11.347222
215.764282	17.166666
215.817276	12.240385
215.859482	16.011364
215.945496	51.390625
216.065918	3717.710938
216.198715	41.05357
216.254196	31.666666
216.2827	15.125
216.35083	27.006578
216.418274	32.0
216.463211	38.133064
216.570831	7.125
216.60173	29.6
216.665283	20.041666
216.715134	13.240385
216.741867	11.25
216.780029	14.225
216.835907	17.125
216.892761	14.013889
216.976791	7.125
217.075623	10047.779297
217.24527	69.8125
217.284042	41.004631
217.337357	15.2
217.395065	65.045456
217.461792	22.148809
217.509613	21.333334
217.559601	5.375
217.605652	11.2
217.684036	10.083333
217.746429	17.0
217.789078	36.125
217.913879	17.125
217.970291	19.471153
218.075974	2192.142334
218.217606	40.5625
218.258331	41.920456
218.338913	14.025
218.388824	10.017858
218.449905	22.222826
218.535278	20.125
218.604523	10.446428
218.65889	8.333333
218.688232	7.333333
218.746811	6.025
218.857056	29.083334
218.894592	54.232143
218.968262	11.013889
219.082382	844.019897
219.215378	33.028847
219.309341	10.008333
219.400574	8.225
219.488388	18.0
219.531067	20.0
219.599365	9.0
219.66304	7.25
219.710342	8.011364
219.744492	8.041667
219.854095	10.347222
219.933167	15.166667
220.055115	761.367371
220.195709	16.471153
220.256149	14.675
220.351212	7.0
220.398254	11.125
220.505417	6.160714
220.607788	12.041667
220.714783	6.5
220.821777	6.0
221.053452	1441.543335
221.226166	14.556818
221.267151	20.05921
221.378586	19.009615
221.421509	16.041666
221.464661	20.017857
221.540939	45.0625
221.600922	15.075
221.635757	6.125
221.713028	43.028847
221.776459	72.492348
221.900879	16.049999
222.059204	8637.761719
222.194229	166.297791
222.23259	63.666668
222.338409	37.560184
222.373978	14.360294
222.449997	40.941177
222.523865	60.939518
222.639481	21.375
222.70639	27.875
222.760681	10.2
222.820938	18.142857
222.884796	43.720238
222.92659	24.225
222.984238	23.0
223.068741	14710.55957
223.207199	152.056244
223.304703	65.760132
223.361526	36.892857
223.424301	34.5625
223.535095	20.009615
223.618347	81.455643
223.687698	44.75
223.742615	54.0625
223.810806	20.006578
223.848434	31.326923
223.903198	21.008333
223.950974	10.125
223.986633	21.53125
224.072601	4339.125488
224.20665	90.175003
224.248123	48.657608
224.353134	25.225
224.423111	30.0
224.466553	10.125
224.506134	33.066666
224.56958	29.007353
224.611328	21.083334
224.645874	13.25
224.702164	22.113636
224.732376	18.160715
224.785706	10.011364
224.889191	28.022728
224.980591	13.375
225.084396	1636.102051
225.189865	40.240383
225.225006	40.102272
225.292999	24.225
225.376846	40.91848
225.451126	11.125
225.495911	29.142857
225.544647	19.674999
225.58165	23.03125
225.641525	18.03125
225.772491	10.225
225.909164	15.408334
225.968246	14.25
226.097656	359.846649
226.21196	25.796053
226.252029	26.5
226.377686	7.011364
226.422501	7.225
226.468323	7.017857
226.551025	7.0
226.715942	13.011364
226.772247	5.25
226.948456	12.125
226.985626	8.45
227.097824	187.0
227.184448	8.125
227.264709	6.041667
227.326324	6.625
227.427933	7.083333
227.601456	26.005434
227.631851	9.625
227.724594	5.125
227.792664	10.0
227.836136	12.0
227.922668	26.05921
228.05217	132.03215
228.094574	299.281921
228.166687	20.008333
228.211121	8.083333
228.293289	29.0
228.369629	21.125
228.446304	17.240385
228.725235	14.284091
228.829041	7.083333
228.874969	20.778847
228.906479	24.011364
229.077332	538.153076
229.165024	19.163462
229.220367	21.4
229.282745	8.160714
229.360336	8.041667
229.386536	7.017857
229.430145	12.027778
229.525711	10.471154
229.56134	6.025
229.614914	20.408333
229.655518	21.166666
229.822937	23.083334
230.090805	1751.543335
230.226471	26.5
230.295395	8.017858
230.380249	21.200001
230.475479	9.333333
230.557114	12.059211
230.582718	7.083333
230.638504	27.471153
230.672653	6.446429
230.7146	17.066177
230.861099	14.45
230.984528	11.225
231.089569	1661.329712
231.231903	63.23148
231.29245	16.006578
231.360184	7.083333
231.595596	7.041667
231.66925	7.013889
231.703018	10.666667
231.748245	7.0
231.810608	15.025
231.888474	13.041667
232.024567	6.375
232.089951	775.238525
232.157257	77.603569
232.218582	16.160715
232.263596	11.8
232.341293	21.163462
232.455444	22.777779
232.519211	30.183823
232.617081	11.166667
232.846024	21.164474
232.883484	18.125
232.942429	7.0
233.012695	242.08223
233.088074	445.724152
233.189865	18.694445
233.241455	11.011364
233.263626	9.375
233.301788	9.083333
233.347046	7.0
233.41275	7.011364
233.461456	10.075
233.552368	10.5625
233.66394	5.0
233.752991	21.918478
233.823364	8.25
233.849136	9.375
233.928192	6.0625
233.998672	9.0
234.09259	911.446655
234.264359	45.326614
234.315475	24.013889
234.349625	18.125
234.386566	6.013889
234.430069	7.160714
234.527695	6.017857
234.601868	8.013889
234.764297	21.321428
234.815292	11.007353
235.066162	3751.651855
235.206741	42.583332
235.246384	41.5625
235.300247	8.333333
235.366531	10.007353
235.411819	18.321428
235.45491	26.0
235.491318	11.025
235.531906	8.225
235.569839	15.408334
235.662537	6.375
235.702179	9.0625
235.804169	30.875
235.913803	11.2
235.941528	14.041667
235.983093	8.125
236.074615	8068.811523
236.216324	100.224998
236.296494	41.285713
236.352966	23.625
236.406113	15.75
236.482178	51.094696
236.54895	15.333333
236.574738	13.5625
236.613693	40.076923
236.665161	15.25
236.753693	56.782406
236.906799	18.0
236.968262	54.080128
237.082352	47381.515625
237.462143	53.116379
237.533249	77.216263
237.61348	60.425171
237.689392	35.712303
237.735321	47.585587
237.79007	66.072746
237.860031	31.528067
237.898788	39.7813
237.926346	25.987934
238.085968	9558.276367
238.234924	119.902443
238.275177	101.888512
238.312424	63.913513
238.392639	85.10041
238.50798	26.484797
238.559067	17.135136
238.609253	26.634521
238.655884	117.842102
238.757538	35.283554
238.795624	17.479431
238.825974	25.438818
238.858917	34.003166
238.905869	21.051208
238.952682	36.055138
238.99884	66.031502
239.09259	950.972412
239.243774	27.973892
239.298599	27.291666
239.3535	29.333334
239.393005	67.5625
239.453903	23.875
239.494202	26.053572
239.532288	55.094696
239.585388	15.333333
239.644913	43.408783
239.695816	8.570175
239.797501	25.48077
239.841812	30.0
239.868591	8.778111
239.928055	7.25
239.983017	40.224998
240.031509	7.254699
240.090546	111.008331
240.160004	20.347221
240.224747	8.45
240.289124	32.471153
240.328583	30.408333
240.396637	37.125
240.473801	32.23077
240.574051	11.225
240.631729	9.083333
240.669891	8.125
240.77713	35.400002
240.816986	44.941177
240.849899	26.142857
240.947449	12.556818
241.073318	143.5625
241.131149	32.44643
241.173218	16.321428
241.253937	14.05
241.307144	7.0
241.352188	9.125
241.405426	22.05921
241.47522	13.892858
241.566864	5.0
241.644409	12.8
241.701401	8.125
241.808304	20.164474
241.92218	11.225
241.996643	19.111111
242.070557	342.754395
242.157715	42.125
242.225861	24.0
242.283554	7.125
242.366241	7.125
242.400116	12.183824
242.444824	8.0625
242.54303	9.086538
242.573776	12.333333
242.615402	6.0
242.697601	5.125
242.757523	5.225
242.893646	11.011364
242.952972	22.111841
243.112442	2704.445068
243.254303	45.482143
243.295517	23.28409
243.378525	14.102273
243.47023	15.778846
243.549225	6.25
243.585434	8.009615
243.621521	42.014706
243.672363	10.333333
243.721497	9.45
243.774323	12.086538
243.81633	16.25
243.864227	11.03125
243.936203	13.125
243.96257	15.166667
244.051285	1533.438232
244.091888	1156.612549
244.268372	35.204544
244.300339	35.25
244.447845	32.183823
244.512466	8.2
244.60817	39.0
244.665512	10.035714
244.74884	7.5625
244.809708	5.0
244.862823	15.125
244.927597	10.125
244.962311	16.102272
245.098755	1605.17749
245.240768	35.005951
245.285843	14.160714
245.368835	12.166667
245.449951	10.125
245.505157	23.969828
245.567413	7.125
245.612549	20.006578
245.668686	25.240385
245.743103	28.654411
245.811005	36.041668
245.957275	5.125
246.004654	19.799999
246.104736	411.600677
246.183731	27.796053
246.23587	21.0
246.31723	10.142858
246.376358	22.041666
246.474823	12.75
246.54332	14.111111
246.587585	8.160714
246.680237	9.041667
246.805695	5.0625
246.852142	22.142857
246.92337	8.0625
246.98497	6.041667
247.058777	241.289001
247.110886	274.92926
247.22847	13.0
247.390198	5.125
247.421066	17.142857
247.503311	9.2
247.582458	13.160714
247.674683	7.25
247.729645	5.017857
247.801559	7.083333
247.92009	7.011364
247.970551	5.125
248.071075	244.556244
248.117416	83.0
248.175797	5.041667
248.255829	7.0
248.303986	9.5625
248.470169	16.446428
248.546341	6.017857
248.609909	9.011364
248.773483	16.164474
248.864304	8.0
248.928116	17.4
249.047638	8725.422852
249.18457	109.388885
249.285431	83.761902
249.351807	17.53125
249.450607	30.657608
249.50325	49.0
249.537491	19.011364
249.582916	44.030407
249.676331	32.28125
249.754364	34.166668
249.814484	33.025002
249.896194	25.285715
249.965103	19.007353
250.0522	1708.645264
250.085495	1048.327271
250.229675	57.016666
250.325562	47.326923
250.383072	36.0
250.460693	16.75
250.495407	7.041667
250.563934	8.225
250.658447	7.083333
250.726517	15.125
250.782028	8.125
250.862793	18.125
250.905655	43.81686
250.974136	18.225
251.098297	2970.469482
251.228165	33.0
251.2789	18.013889
251.342316	19.03125
251.369949	18.240385
251.445053	45.852272
251.531982	25.778847
251.640335	17.920454
251.681808	22.796053
251.716843	8.05
251.771652	12.041667
251.842499	37.44643
251.926971	35.017857
252.035599	18.694445
252.103729	1008.403381
252.220093	12.017858
252.249283	21.225
252.33284	12.8
252.397873	6.083333
252.521774	20.004311
252.595703	18.360294
252.654358	9.5
252.69635	11.017858
252.759842	18.053572
252.808517	11.225
252.86058	8.011364
252.90451	6.375
252.981552	17.571428
253.051193	34.942307
253.101654	10.446428
253.135269	14.086538
253.208115	19.086538
253.300476	5.017857
253.391937	7.225
253.487137	18.111841
253.632477	11.160714
253.676559	17.008333
253.774628	42.125
253.833282	11.0625
253.89563	13.0625
254.025604	6.025
254.078079	18.778847
254.153809	19.440218
254.190872	9.125
254.557785	9.2
254.608597	8.875
254.703476	8.0
254.78331	21.5
254.815491	33.036289
254.842224	21.208334
254.93045	6.375
255.28125	13.446428
255.42276	5.017857
255.625519	11.013889
255.671005	25.1
255.715347	6.0
255.837219	21.0
255.938736	5.160714
255.984665	9.086538
256.072998	373.102264
256.169098	19.111111
256.233582	6.0
256.270355	14.011364
256.371918	5.0625
256.425293	6.333333
256.501068	10.011364
256.565796	8.0625
256.802307	22.446428
256.888702	5.0
256.916443	7.017857
257.005859	9.333333
257.099762	331.111115
257.230743	16.041666
257.285797	6.025
257.4375	7.5625
257.55246	19.166666
257.701874	5.333333
257.770813	6.013889
257.840546	26.020834
258.088226	736.546997
258.132324	382.920288
258.248413	20.571428
258.294037	16.066177
258.329041	14.45
258.407532	7.225
258.614929	7.125
259.071289	131.786758
259.109558	222.004166
259.211395	20.0
259.239014	15.086538
259.359802	6.0625
259.471161	15.035714
259.502686	18.53125
259.577881	12.25
259.647247	6.25
259.690887	10.8
259.847107	29.625
259.929901	22.901316
260.018921	12.041667
260.074585	36.036289
260.112427	114.681602
260.238922	12.680555
260.306824	8.0625
260.54892	9.375
260.642639	16.321428
260.782349	17.0
260.892822	5.017857
260.976562	7.011364
261.061188	105.571426
261.120636	57.889286
261.742249	6.225
261.805481	14.164474
261.945343	10.321428
262.087341	252.235458
262.243713	18.05921
262.392944	5.083333
262.4552	6.125
262.564911	21.041666
262.665497	23.005953
262.75705	8.0
262.906494	15.027778
262.971405	51.020832
263.064178	5335.232422
263.277985	19.125
263.355011	16.0
263.418274	33.666668
263.452271	10.041667
263.520416	10.446428
263.577118	15.083333
263.643341	32.183823
263.744995	18.4
263.785889	7.083333
263.847809	13.25
263.954773	19.041666
264.067505	1076.289062
264.254303	17.875
264.473267	11.625
264.581085	7.125
264.618561	10.666667
264.69104	6.125
264.778839	26.041666
264.839996	10.680555
264.898102	28.125
265.114044	11390.920898
265.26358	136.893021
265.312347	41.017857
265.404877	54.007355
265.502441	39.845001
265.593384	17.5
265.63623	19.777779
265.701416	30.53125
265.756256	31.571428
265.790771	20.75
265.841034	30.0
265.878204	26.25
265.982361	52.125
266.034515	46.185608
266.117188	3143.211914
266.265228	39.25
266.331177	43.645
266.370575	26.008333
266.45871	22.009615
266.616577	11.556818
266.647247	11.375
266.712067	27.09091
266.739838	16.0625
266.788971	25.918478
266.848816	5.375
266.891205	9.125
266.928528	7.160714
266.982208	17.375
267.118408	430.100128
267.246063	17.347221
267.340515	35.625
267.500427	17.892857
267.591309	42.016666
267.662781	7.025
267.72818	34.125
267.772308	30.920454
267.906128	7.333333
267.957672	7.333333
268.012299	14.0
268.138916	23.920454
268.294861	13.013889
268.350311	10.45
268.408478	5.017857
268.452972	8.333333
268.529602	5.125
268.60672	11.0
268.749908	5.225
268.917725	7.025
268.941864	6.625
269.040527	9.007353
269.08844	6.05
269.145111	26.211206
269.353027	5.160714
269.41922	5.083333
269.519104	21.625
269.589508	15.0
269.974335	10.5625
270.069183	263.513885
270.223572	19.0
270.386444	38.782406
270.488739	5.025
270.828979	8.160714
270.981476	28.226852
271.081879	432.396545
271.252014	6.625
271.299896	11.375
271.389587	7.0
271.437714	8.160714
271.496002	6.333333
271.683868	5.017857
271.740906	5.083333
271.860565	32.125
271.921539	8.0
272.08551	662.001831
272.282379	9.013889
272.313904	9.225
272.413452	23.321428
272.482025	30.014706
272.557159	6.025
272.594452	7.25
272.66275	11.041667
272.730957	5.125
272.881409	5.0
273.090393	333.897736
273.289948	10.017858
273.32901	22.005953
273.414978	9.375
273.724365	17.75
273.81485	5.025
274.005615	7.125
274.092743	81.446426
274.149139	13.102273
274.291748	6.0
274.358551	14.204545
274.473053	5.017857
274.568604	13.011364
274.826294	5.013889
274.883545	21.053572
274.959991	14.13587
275.099518	221.625
275.183167	12.5625
275.294342	10.013889
275.676758	8.125
276.093811	189.314285
276.144928	15.05
276.432983	10.0
276.532043	11.920455
277.079834	447.450714
277.221497	15.892858
277.286072	10.041667
277.328766	6.0625
277.471161	5.25
277.573914	6.0
277.648102	15.778846
277.737091	5.0
277.845093	7.5625
277.929138	7.0
278.098114	141.024994
278.284454	8.125
278.428741	8.011364
278.621033	7.0
278.680115	7.013889
278.786621	6.225
278.93457	35.242645
279.034668	5.0
279.111084	44.289288
279.41275	23.78125
279.458221	6.0
279.718231	5.083333
279.825562	22.142857
280.110596	72.512497
280.205048	9.0
280.374146	6.025
280.412384	9.009615
280.779083	5.0
281.084503	13.920455
281.232941	8.086538
281.290894	9.041667
281.65979	5.041667
281.880707	8.017858
281.909637	5.160714
281.97525	12.778846
282.120972	51.347221
282.200165	7.025
282.363647	18.532894
282.516724	5.0
282.606415	5.013889
282.638916	5.0
283.187744	6.017857
283.323456	7.017857
283.566284	6.025
283.624207	5.160714
283.75235	12.666667
283.86673	5.0
283.934692	8.011364
284.081879	53.224998
284.201691	6.75
284.230896	8.375
284.381348	7.2
284.459229	5.017857
284.604919	5.025
285.08551	221.803574
285.18158	10.556818
285.207703	9.035714
285.285522	9.041667
285.351624	6.446429
285.683136	17.0625
285.98645	5.160714
286.096619	1406.31958
286.242584	19.163462
286.31958	32.75
286.38913	27.78125
286.610321	6.0
286.678925	6.083333
286.756622	8.0
287.047913	33.224998
287.102325	532.96051
287.254364	23.226852
287.332306	8.017858
287.415466	11.0
287.500153	5.125
287.664246	6.083333
287.721619	5.333333
288.112305	40.291668
288.15329	123.056816
288.28891	29.25
288.366547	6.041667
288.513885	9.347222
289.070709	138.564651
289.167358	13.333333
289.225891	5.333333
289.472748	12.160714
289.503479	9.25
289.724976	10.8
289.818054	5.0
290.075836	38.81818
290.115387	63.265625
290.18103	10.009615
290.225494	85.965515
290.475494	11.0
290.534485	5.025
290.935089	6.446429
291.036804	43.185608
291.113892	2129.968262
291.280334	30.266304
291.380707	5.125
291.433533	14.625
291.499115	11.075
291.56604	8.102273
291.685883	5.225
291.857544	6.25
292.02063	5.225
292.109039	741.32428
292.212677	30.454546
292.314941	18.142857
292.353973	14.041667
292.447266	8.75
292.509705	5.041667
292.816864	8.166667
292.949432	32.408333
293.107727	46.5
293.164612	15.556818
293.281464	17.9
293.439575	7.125
293.536896	6.017857
293.581085	7.125
293.694824	8.041667
293.931671	8.017858
294.150818	33.142857
294.509857	6.75
294.69278	10.027778
295.121704	48.245689
295.62027	5.333333
295.900482	11.208333
295.945526	8.160714
296.147491	11.284091
296.178009	6.0
296.287079	14.009615
296.465576	15.03125
296.723572	5.025
296.773468	6.083333
296.847565	5.625
297.090424	6.025
297.165253	9.5
297.815979	5.083333
298.158356	5.225
298.213257	10.0625
298.273743	5.025
298.343109	5.160714
298.562256	5.0625
298.661957	8.013889
298.880737	7.017857
299.367279	5.225
299.448639	5.0
300.111298	51.285713
300.266602	6.125
300.313141	5.160714
300.476288	5.0
300.566162	10.008333
300.965759	8.166667
301.064026	5.041667
301.155762	5.025
301.463715	11.45
301.72583	5.025
301.908752	8.446428
302.068695	7.225
302.316437	6.013889
302.590363	5.025
303.007996	5.083333
303.654846	6.041667
304.003174	5.125
304.084534	66.315216
304.262512	5.013889
304.539062	6.5
304.624573	5.083333
304.694885	7.05
304.755219	5.0
305.089355	35.75
306.10968	1117.781372
306.208008	49.969826
306.255493	22.408333
306.347046	7.041667
306.658783	5.025
306.739563	7.011364
307.112671	329.613373
307.234344	14.041667
307.289673	11.0
307.367615	6.225
307.922791	5.225
307.977936	14.680555
308.103607	115.073792
308.578522	7.011364
308.690186	9.0625
308.831543	11.0
308.892303	6.017857
309.166229	10.375
309.360626	26.9
309.530457	7.0
309.641968	8.041667
310.085297	8.5625
310.424713	5.125
310.77832	5.017857
311.010925	16.595589
311.159454	6.041667
311.334839	12.45
311.448853	5.025
311.520081	5.0
311.692963	7.0
311.782898	5.333333
311.945587	5.225
312.150787	5.013889
312.762115	6.025
312.875488	5.333333
313.106995	11.025
313.505829	5.083333
313.74054	5.0
314.129242	645.876831
314.33255	5.041667
314.516418	5.083333
314.595306	8.446428
315.139679	171.338852
315.251923	13.05
315.529968	41.5625
315.90741	6.0
316.088287	22.125
316.137054	24.901316
316.181396	12.125
316.325043	6.125
316.409302	13.009615
316.532288	5.0
316.860321	21.006578
316.973145	6.011364
317.393768	8.013889
317.427704	9.680555
317.712067	5.083333
318.155365	5.225
318.261566	5.375
318.554535	9.086538
318.729858	13.166667
319.36554	5.125
319.644958	6.025
320.675964	7.0625
321.181732	7.009615
322.194244	8.0
322.664917	9.625
323.726349	5.160714
324.307037	5.160714
324.390076	7.0
325.849945	6.125
326.04187	6.0
326.229126	10.0
326.727753	8.45
327.072449	6.05
327.635254	8.041667
327.875122	9.009615
328.428192	12.008333
328.54303	5.017857
328.782501	9.03125
328.898193	5.160714
329.28479	5.017857
329.671631	5.160714
329.703064	6.013889
330.526154	5.125
330.83371	5.013889
331.069824	6.025
332.018799	7.017857
333.510956	5.0
334.135437	1076.081665
334.252655	13.75
334.300415	17.075001
334.394989	20.363636
334.50058	7.05
335.007629	8.083333
335.13974	328.605225
335.270782	7.347222
335.321472	9.45
335.671051	6.125
335.839935	8.013889
336.136261	105.337959
336.420837	11.041667
336.494781	5.017857
336.910004	8.5625
337.044678	5.013889
337.12912	5.0625
337.236542	5.333333
337.479919	5.333333
337.700531	5.017857
338.081726	7.011364
338.569763	7.347222
338.940369	11.321428
339.099304	5.0
339.959106	5.017857
340.139679	5.0625
340.309692	6.0625
340.394806	5.025
340.564972	14.360294
340.639343	5.0625
340.968872	6.013889
341.437073	7.011364
341.874298	7.25
341.980164	8.0
342.073242	21.571428
342.509888	8.225
343.290955	6.0
343.985809	6.013889
345.055054	6.0
345.237	6.0
345.705414	7.446429
346.404724	10.102273
346.89801	6.013889
347.316589	8.011364
347.921692	5.160714
348.20816	5.083333
348.367676	5.041667
348.878479	9.8
349.305511	5.017857
349.370117	7.0
349.488586	8.041667
349.596252	7.2
349.714752	15.1
350.169403	11.556818
351.548523	5.017857
351.926636	7.0625
352.294128	5.160714
353.117065	7.25
353.387054	5.017857
353.875122	10.284091
354.73114	5.017857
354.89389	5.0
355.838593	5.083333
357.002319	9.166667
357.056763	6.0
357.384735	17.102272
357.454163	5.625
357.819122	6.125
358.133606	7.0
358.396881	6.125
358.582306	5.0625
358.789429	5.0
358.942383	7.013889
359.087952	5.083333
359.617584	29.322369
360.351654	5.0
360.97525	9.166667
361.106567	6.017857
362.827332	5.025
363.244324	5.017857
363.354126	14.0
363.870422	7.2
364.024261	6.013889
364.140076	6.083333
364.396606	7.2
364.860046	16.076923
365.377533	8.2
365.581116	5.375
365.906128	8.009615
366.234924	7.347222
366.424225	6.125
367.549835	9.0
367.892273	5.013889
368.704834	5.625
368.857941	5.0
369.175018	5.083333
369.586548	5.225
369.883881	5.083333
371.036896	6.013889
371.247009	7.160714
371.869568	9.086538
371.949554	7.025
372.096313	5.333333
372.725922	28.13587
372.90155	10.347222
374.964264	5.025
375.310059	6.0625
375.358398	10.225
375.822357	11.2
376.616608	6.25
376.764099	5.333333
377.121979	5.333333
377.321625	5.083333
377.793488	5.225
378.519806	11.03125
378.687927	5.0625
378.80011	5.160714
379.091614	5.0
379.315887	10.240385
379.447693	7.225
379.845886	6.225
380.360382	6.25
380.719666	6.0
382.034119	5.333333
382.069672	5.017857
382.182281	8.011364
383.061188	6.0
383.737946	6.0
384.404022	5.013889
385.070648	7.125
385.668091	5.125
385.919128	5.0
386.632233	6.017857
386.77948	6.017857
386.847321	5.0625
387.000427	5.5
387.323486	8.102273
387.813538	6.333333
388.072083	6.017857
388.503418	8.041667
389.764801	5.017857
389.832947	10.166667
389.935394	7.013889
390.803253	7.446429
390.880188	5.083333
390.982605	7.2
391.1763	5.0
391.301544	5.025
391.723358	5.0625
392.727325	5.0
394.241394	6.5
394.418701	5.013889
394.485413	5.041667
394.86499	6.125
395.127991	6.25
395.162659	6.0
396.205414	9.035714
396.560944	6.05
397.12442	8.25
398.594025	8.05
399.066772	8.45
399.226807	5.017857
399.295532	6.160714
399.713379	7.125
400.044342	5.025
400.274567	6.160714
400.862122	38.458332
401.074799	5.25
401.197449	7.05
401.382172	5.025
401.601379	6.0
401.717316	17.011364
401.821106	5.160714
402.086456	5.160714
402.558136	5.225
402.687195	10.013889
403.068848	7.05
403.369598	6.013889
403.948273	5.013889
404.87262	6.446429
405.523468	6.25
405.768036	6.125
405.831848	6.375
406.251221	5.125
406.544739	8.347222
408.348175	6.05
409.31485	5.025
410.072845	7.5
410.714661	10.008333
411.111694	6.0
411.462189	8.0
411.684235	6.013889
411.877075	5.625
412.608032	5.025
412.818787	7.017857
415.668549	7.160714
416.796051	8.05
417.360718	7.013889
417.631348	5.025
419.175049	13.022727
419.38736	7.011364
420.225372	5.017857
420.697845	6.013889
420.987396	6.625
423.656891	14.066176
424.178772	7.0
424.344879	7.05
425.014954	6.125
425.581543	9.25
425.913116	6.025
426.435944	5.013889
427.221436	8.009615
427.649872	6.25
428.460632	6.0625
430.286926	7.041667
430.661621	11.333333
431.315216	7.125
431.880646	6.333333
432.296753	5.0
432.384552	10.5625
435.747955	5.375
437.365723	5.160714
438.511139	5.0
438.657074	8.025
438.803802	7.333333
439.392181	5.0625
439.754883	15.360294
439.88739	7.011364
439.935822	5.083333
440.733551	9.240385
441.36264	9.008333
441.846924	5.160714
441.943787	5.083333
444.320496	6.013889
444.405487	6.0625
444.891388	7.041667
445.462677	5.160714
445.912598	6.013889
446.679291	5.013889
446.910645	7.0625
447.349152	5.0
448.031708	6.017857
448.958862	6.0
449.48999	5.375
449.642639	5.0
450.953156	6.446429
451.085205	7.05
451.914368	29.28409
452.823334	7.083333
453.363708	5.0
453.964935	5.0
454.726227	5.0
455.143951	7.0
455.352905	5.017857
455.862061	5.333333
456.051819	5.225
456.570679	8.086538
457.494293	8.0
460.110352	5.013889
460.295441	5.083333
460.71582	7.013889
460.950775	8.0
461.300293	7.333333
461.878815	6.013889
462.327667	7.5625
463.129974	5.025
465.301697	9.2
465.423767	6.446429
466.410675	5.225
467.096344	21.78125
467.236328	5.375
467.429352	6.125
468.451172	7.05
468.815979	7.333333
469.524017	9.086538
469.585205	8.347222
470.131287	5.160714
471.535431	6.160714
471.961395	8.017858
472.324219	5.0
472.449402	6.011364
473.200958	5.0625
473.251099	5.0
474.542725	6.0
476.592529	5.125
477.307068	6.083333
477.502563	6.375
478.100677	5.0625
479.411133	9.2
480.042206	5.017857
480.468384	7.333333
481.918488	5.375
482.82309	6.0
483.242889	5.333333
483.988312	8.041667
484.554688	29.450001
484.723633	7.05
485.850861	5.125
486.71048	5.625
486.932922	6.0
487.397003	5.5
487.708618	6.05
488.255798	6.0625
488.516174	6.125
489.621399	6.446429
491.634766	7.013889
491.928589	5.0625
493.105927	8.45
494.922852	7.102273
495.191986	7.041667
495.294556	24.0
496.336731	15.160714
497.001099	5.017857
500.859222	5.333333
503.1716	6.013889
503.442993	5.017857
504.852844	7.0625
505.085724	5.025
505.370605	5.160714
507.632263	6.125
508.314514	5.083333
509.497162	8.0
509.760529	7.446429
514.058167	5.160714
514.371765	5.017857
515.535217	7.017857
515.65271	5.0
515.796875	5.083333
516.084778	5.025
516.908997	6.025
517.06665	6.0
518.6922	6.0625
521.130798	5.160714
521.700867	5.013889
522.596008	6.0625
523.203125	38.640152
524.124695	6.0
524.269775	5.0
525.193481	6.0
525.279114	6.75
525.338684	6.0
527.362	8.347222
527.585815	5.013889
528.247437	5.0625
532.123047	7.041667
532.730225	9.45
535.052673	5.0
535.487732	5.0
535.87439	8.011364
536.109924	5.160714
537.055176	5.5
537.609253	5.160714
538.544678	7.017857
540.385315	8.2
540.551392	9.125
540.753601	7.160714
541.181091	6.25
541.248474	6.05
543.770935	5.0
543.851562	6.0
544.335266	7.009615
545.381836	5.041667
545.760803	6.125
546.541626	8.0
547.013977	7.160714
547.242126	6.017857
547.390442	7.2
547.471252	7.011364
548.145813	6.160714
551.332825	5.083333
551.765625	8.0625
552.293701	10.0
552.957214	7.05
553.566956	8.041667
554.584778	6.125
554.814575	5.0625
554.868835	5.0
555.900574	5.013889
556.022766	5.160714
556.226624	7.0
556.335327	5.017857
556.878906	5.017857
557.82959	6.125
559.996277	5.0
560.487122	5.0
560.964539	8.013889
561.210083	5.083333
561.254456	28.333334
561.428528	7.0
561.919983	5.017857
562.127197	5.125
563.204407	5.160714
564.79126	5.013889
565.708252	24.009615
565.873291	9.035714
565.98291	7.013889
566.25708	9.0
567.450195	5.160714
568.507385	5.0
569.139343	6.0
569.579224	5.0
569.854187	8.0
570.091003	6.225
570.638306	7.041667
571.161316	5.0625
573.18689	9.009615
573.573181	5.160714
574.028442	6.0625
575.934753	5.025
576.031433	5.0625
576.252686	7.017857
576.596558	9.347222
576.971985	5.0
577.193298	5.025
577.830994	7.347222
578.661316	9.011364
579.576233	5.0
579.79834	15.0
580.393433	8.45
580.96344	6.160714
581.116638	8.05
582.591797	5.225
582.923279	6.0
583.507446	5.025
584.718811	6.011364
586.026611	5.225
587.592651	7.25
588.544678	6.333333
590.205933	7.125
590.471619	8.017858
591.002319	16.166666
591.087891	5.017857
591.157898	6.0625
591.394226	9.45
592.110718	8.009615
592.839905	5.083333
592.952881	7.347222
593.148987	13.8
594.201477	8.166667
594.481995	9.05
594.903625	5.013889
596.435913	9.0
596.861023	6.333333
597.125366	5.083333
597.235413	23.166666
597.364746	7.05
597.683655	5.013889
598.253052	6.05
600.028748	7.011364
600.529785	6.625
601.328003	6.25
602.459229	6.0
602.882629	5.0625
603.731384	7.017857
604.028687	10.075
605.034485	5.013889
606.764221	5.0625
607.445496	5.017857
609.419739	7.347222
609.676575	6.05
609.925476	5.625
611.313293	5.160714
611.640991	10.027778
611.790588	5.375
613.45166	5.0625
613.608582	11.035714
614.208069	6.0625
614.336548	7.05
617.138245	5.013889
617.638245	7.083333
618.287354	14.25
620.989929	24.28409
621.065491	11.03125
621.108582	7.013889
621.582458	5.0625
622.803772	10.0
623.753418	6.083333
624.717285	6.0
626.817932	8.011364
627.467529	6.041667
628.748657	56.375
629.824585	8.013889
630.374023	6.125
630.547607	5.0625
630.981628	7.125
631.459229	6.017857
631.828552	8.625
633.132324	5.25
634.154541	8.05
635.460815	5.0
635.707458	5.017857
637.102783	6.017857
637.437256	8.0
637.495422	6.0
637.662292	11.0
638.470276	8.008333
638.601257	5.017857
638.994385	9.166667
639.338806	5.083333
639.545471	5.225
640.611755	6.0625
640.698242	6.0
641.997559	8.0
643.005066	5.017857
644.023071	12.041667
644.4375	23.307692
645.842041	5.0
647.13092	7.05
650.341614	5.225
652.27002	7.011364
652.402405	5.017857
654.98938	5.0
656.233582	6.0625
656.779663	5.0625
657.724854	8.008333
658.729858	7.0
662.653687	24.005953
662.863159	13.284091
663.450439	8.125
663.840454	6.05
664.864929	8.0
667.98468	6.333333
669.656372	6.0
670.014282	5.160714
670.684875	6.160714
672.265076	5.041667
674.091003	5.013889
674.584412	5.013889
674.704346	8.011364
675.364868	7.2
680.522461	6.125
680.597656	6.0
680.92804	5.017857
681.484558	8.009615
681.710266	5.160714
681.935791	9.008333
682.763306	5.083333
684.902466	7.05
685.373962	22.78125
685.463989	13.45
687.7547	6.0625
687.890686	6.013889
689.009155	5.0
693.750122	6.013889
694.536743	5.125
694.736694	5.0625
695.382141	5.25
695.587219	5.017857
696.482361	8.347222
696.909729	5.025
700.109192	5.333333
700.931763	9.025
701.650879	5.0
702.623962	5.0
703.494629	9.008333
703.922668	8.284091
704.117981	6.446429
706.157166	16.049999
707.549316	10.142858
708.094055	6.017857
708.91626	5.225
709.327881	5.017857
709.941711	8.009615
710.76825	5.225
711.32373	21.006578
711.874329	5.125
715.182861	5.333333
715.493408	6.0
715.940369	9.166667
716.27948	6.0625
717.204773	10.007353
717.719666	13.920455
718.339111	6.25
720.123474	5.0
720.355591	5.0
720.806213	5.333333
720.989319	9.102273
723.071289	5.625
723.158936	5.333333
723.759155	34.099998
724.055237	7.05
726.102783	6.0
727.671387	6.0625
730.050781	5.0625
730.629456	5.125
731.343384	5.025
731.67041	10.03125
733.276245	5.0625
733.463501	5.083333
736.239136	7.5625
736.985657	5.625
737.462708	5.013889
738.4328	5.083333
740.484985	7.011364
741.313416	5.225
742.508972	6.083333
743.403442	7.0
744.471863	9.0
745.041931	7.225
746.060181	5.017857
746.548157	5.025
747.933716	7.017857
748.091309	5.0625
750.630127	6.013889
750.993164	7.013889
751.214172	6.0
753.869019	5.013889
755.150818	5.025
756.504761	5.25
756.893433	9.2
757.511169	6.0625
757.574585	5.0
759.748413	7.011364
760.8125	6.013889
763.277283	5.0
763.500122	6.017857
764.343567	6.25
766.335999	6.05
767.313416	15.666667
767.96344	5.013889
768.618103	5.0
770.247925	5.0625
772.645203	28.142857
774.394165	7.017857
776.864868	6.013889
777.041443	6.0
779.658447	5.225
780.900085	5.0625
783.55835	5.160714
784.058411	5.0
784.445557	7.0
785.097351	5.625
785.236328	5.013889
786.108154	5.083333
786.724609	5.333333
786.996826	7.102273
787.595093	8.017858
789.272339	8.225
791.722656	6.0625
792.09552	9.035714
792.565735	5.017857
793.376892	5.083333
795.487549	7.05
795.767151	6.446429
796.007507	5.0625
796.747192	5.5
797.110535	5.333333
798.886719	5.160714
799.188049	5.625
801.007568	5.041667
801.314636	17.0
801.542969	5.0625
802.733948	5.0
803.599182	7.2
804.415405	6.160714
804.562927	7.102273
806.54126	5.0
807.064819	5.0625
807.752502	8.125
808.308899	5.025
808.440063	5.017857
810.144348	6.011364
810.75116	8.013889
814.560913	5.0
814.791138	10.008333
815.446289	5.333333
817.325317	8.05
819.418152	5.0625
819.632568	5.013889
820.044922	6.05
821.513733	5.0
821.645935	5.025
822.950867	5.083333
823.628967	6.160714
827.053894	8.125
828.068237	6.041667
828.661865	6.017857
829.126221	6.0
830.769775	6.025
831.217529	5.0
837.49054	6.0
837.740479	5.025
838.107483	5.017857
840.043091	8.011364
840.677612	7.125
841.061829	8.013889
841.629944	8.45
843.921021	6.013889
847.287964	9.086538
848.193665	7.102273
850.742798	5.225
850.933411	25.360294
851.495972	5.0
852.056702	7.013889
852.578064	9.075
854.656616	5.625
854.867126	11.0
855.305115	6.017857
856.36676	7.0
857.766724	5.0625
861.363953	5.083333
861.73584	5.0
863.326111	8.0
865.375305	7.011364
866.036377	5.0625
867.168274	7.446429
868.119995	10.556818
869.684937	6.0625
870.126648	6.017857
870.78949	7.102273
872.131897	7.347222
872.456177	6.0625
872.992249	5.375
874.7547	8.166667
875.231812	22.0
875.334045	7.0
879.651184	5.083333
880.006897	9.556818
882.40033	6.125
882.866211	5.0625
883.208557	8.041667
885.846924	8.009615
886.638	9.45
887.154968	16.125
888.266052	6.0625
888.66095	6.017857
890.499451	5.025
894.30249	5.160714
896.526001	5.0
897.45343	7.5625
898.234375	9.0
898.372498	9.075
898.890564	6.013889
899.443298	5.0625
900.843262	6.0625
901.019104	5.125
901.31012	7.0
901.7771	8.008333
903.300049	5.017857
905.69104	8.2
909.595642	5.0
909.717285	8.0
911.220764	6.5
913.345764	19.5
914.623474	10.0
916.401306	6.125
918.285767	5.083333
919.630249	6.013889
920.100586	6.25
920.189331	5.017857
922.794861	5.0
924.545593	5.0
924.668213	5.017857
928.946716	6.25
930.282043	5.017857
932.556641	5.5
932.751282	6.25
932.848999	5.0625
934.979126	11.075
935.244446	7.25
936.159607	5.0
936.476929	7.0625
938.805298	6.013889
941.595093	10.2
942.250183	6.0
945.858032	5.333333
946.227905	8.446428
947.230896	5.5
949.937561	8.160714
951.485291	8.0
952.845093	5.5
954.268188	5.625
956.342346	5.160714
958.338623	10.0
960.551819	6.025
960.885925	7.446429
961.319031	5.013889
963.642334	7.011364
964.016541	25.225
965.583862	6.25
966.380188	21.0
966.540771	6.083333
967.880554	7.446429
969.122009	5.0
970.673828	6.75
973.322815	5.017857
973.846619	9.083333
974.11377	6.013889
974.83252	6.160714
975.19281	6.0
975.282715	5.017857
981.535156	6.011364
981.715576	7.0
981.896179	5.0
982.293335	7.011364
982.889221	6.017857
982.97937	10.166667
988.296387	5.025
989.120667	6.75
989.455811	6.125
991.522095	6.25
994.896729	9.160714
995.154175	20.111111
996.026184	5.017857
997.281006	5.017857
998.283936	5.333333
999.246521	5.083333
1000.047852	5.025
1001.578796	9.03125
1003.119873	5.375
1005.209473	8.086538
1005.940552	5.160714
1007.260437	6.333333
1008.426941	7.2
1009.213928	5.0
1011.478638	17.556818
1011.609375	10.083333
1011.90564	9.240385
1014.711182	8.008333
1014.931396	5.013889
1015.592102	7.0
1016.565369	5.013889
1017.4104	6.013889
1017.471985	5.160714
1019.17511	8.0
1019.266968	5.083333
1019.435669	5.041667
1019.670532	7.25
1021.07019	6.0
1021.176697	6.333333
1022.027588	6.05
1023.501404	5.0
1023.686768	7.347222
1028.834351	6.0
1029.416382	5.5
1032.29248	5.0
1032.977295	5.017857
1033.532715	5.083333
1034.532471	18.075001
1036.516602	6.05
1036.869019	7.041667
1039.452026	5.225
1040.842285	8.041667
1042.125	5.017857
1045.264893	8.5625
1045.73584	8.013889
1046.608398	5.225
1046.872314	5.025
1048.21167	5.041667
1049.325806	6.25
1049.689819	7.347222
1050.062012	7.0
1050.230103	5.160714
1052.060303	6.0
1052.527466	8.035714
1054.994507	7.083333
1056.081299	7.011364
1057.935425	6.013889
1059.042603	11.375
1061.310669	5.013889
1061.761108	5.013889
1062.231079	6.025
1063.075439	5.0
1064.240234	6.0625
1064.656372	7.017857
1066.665894	5.625
1067.795044	5.013889
1067.923706	5.225
1068.058472	6.0625
1068.815796	12.556818
1074.336182	6.160714
1076.2229	14.284091
1077.206665	8.083333
1078.371704	10.875
1079.601685	5.375
1079.743652	6.0
1079.989746	6.0
1084.196411	5.0
1085.255737	5.041667
1086.000488	6.0
1086.094116	7.017857
1087.708374	9.009615
1087.784302	6.013889
1091.434692	6.25
1092.6875	6.333333
1097.800781	6.017857
1097.953491	6.013889
1101.889038	6.0625
1103.763794	5.0
1104.835205	6.083333
1105.716797	8.0
1105.831665	8.013889
1105.946045	6.25
1107.805664	9.011364
1109.286987	21.225
1109.973267	8.009615
1110.259155	6.025
1111.489868	6.0
1111.66272	5.160714
1112.738281	5.013889
1112.853882	8.041667
1114.352783	6.25
1114.949463	10.0
1115.488159	7.011364
1117.624756	12.006579
1118.953979	7.0
1119.917603	6.013889
1121.074585	6.013889
1121.730713	8.0625
1122.927979	10.471154
1124.877441	14.13587
1127.161133	9.160714
1130.894043	7.009615
1132.153687	7.013889
1132.909668	6.0
1133.532593	22.049999
1136.611694	8.009615
1136.713135	7.125
1138.675537	5.0625
1138.971069	7.025
1143.180054	5.25
1143.77417	7.0625
1144.085815	5.0625
1147.224976	6.0
1147.356567	6.446429
1149.469849	5.0
1151.755737	11.166667
1153.927124	7.011364
1155.218994	8.0
1155.812134	5.375
1159.291016	6.446429
1159.873779	6.75
1160.334839	8.086538
1161.691162	8.25
1162.435425	7.0625
1164.380493	5.160714
1164.596802	6.013889
1166.819214	5.0
1171.585938	8.008333
1172.966553	8.009615
1173.489502	5.625
1174.486206	5.0
1175.572266	5.017857
1176.125366	5.017857
1176.951416	6.041667
1177.390747	6.025
1179.595093	5.25
1184.615723	5.0
1184.833862	10.075
1187.631348	5.0
1189.25293	5.025
1189.498169	5.0625
1190.578369	12.333333
1191.207397	5.0625
1191.823853	7.013889
1193.055786	7.25
1195.625122	7.041667
1196.780151	6.160714
1197.612915	7.5625
1200.350586	8.011364
1203.685791	6.125
1204.914673	22.53125
1205.626587	7.025
1209.688965	6.013889
1211.212158	9.013889
1212.83667	5.160714
1213.538208	6.160714
1215.907959	6.0
1216.952637	6.013889
1218.0625	6.333333
1218.661499	5.083333
1219.305054	8.102273
1219.405518	6.013889
1219.6875	5.0625
1223.776611	8.083333
1224.530396	6.625
1224.943726	7.0
1227.643555	5.333333
1229.686157	6.011364
1231.403809	8.0
1232.576538	5.0625
1234.518799	6.125
1236.827881	6.025
1237.257202	6.125
1240.659302	10.102273
1240.882324	5.017857
1242.587402	7.0
1242.932617	6.0625
1244.740845	5.013889
1251.230469	8.25
1251.945801	6.0
1254.656006	8.160714
1254.913086	5.375
1256.576172	6.083333
1257.614502	6.041667
1257.720581	10.0
1259.259155	8.446428
1263.747559	5.083333
1263.938843	5.017857
1266.008057	5.160714
1268.956909	6.333333
1269.432617	6.083333
1271.712524	6.013889
1273.120117	7.75
1273.849854	5.017857
1275.674072	9.680555
1276.47937	6.160714
1276.709351	5.0
1282.241821	5.375
1285.265503	6.013889
1286.821289	9.5625
1290.267822	5.013889
1291.44043	5.125
1294.302856	5.225
1296.71106	8.017858
1299.999268	19.53125
1300.967529	5.160714
1301.985596	6.0625
1304.647461	5.017857
1304.891235	8.333333
1307.495117	6.333333
1307.645386	7.0
1308.207886	6.013889
1308.583008	6.0
1309.041504	8.011364
1309.583374	5.0625
1310.500854	6.0
1312.315674	5.017857
1312.525146	24.05921
1313.818481	5.160714
1316.806152	5.017857
1320.153198	5.013889
1321.01709	15.0
1321.471802	5.0625
1321.932495	6.0
1324.027832	7.05
1324.279419	7.017857
1325.614136	11.680555
1328.874146	7.0
1330.555908	7.347222
1330.668945	5.125
1331.16626	24.657608
1331.605225	8.2
1332.089111	7.125
1340.195801	6.0625
1341.482544	6.05
1342.01001	6.017857
1344.585815	7.0
1346.783447	5.160714
1346.846924	6.05
1350.845581	5.160714
1352.518921	16.035715
1352.645752	5.013889
1354.277588	6.0625
1354.722168	6.160714
1356.101318	12.035714
1357.162476	5.0625
1358.711792	6.05
1360.028564	7.0
1362.727905	6.013889
1365.654419	6.0625
1367.607056	6.446429
1367.773071	6.160714
1369.473755	5.225
1372.07959	8.2
1373.146362	6.0
1373.317139	8.05
1373.594727	13.183824
1374.665771	5.333333
1378.209961	5.083333
1381.184326	5.0
1383.068848	6.0
1383.476074	5.160714
1386.605347	6.083333
1386.777588	6.05
1389.739502	6.0
1389.911377	6.0
1393.005615	9.011364
1393.908813	9.008333
1394.942017	6.083333
1398.401001	99.34375
1399.190552	5.013889
1399.63562	5.025
1400.713501	8.2
1402.999512	5.0625
1404.121582	5.083333
1405.028442	5.0625
1405.269409	5.333333
1406.345947	6.017857
1407.446899	6.0
1407.772095	5.0
1410.691528	5.160714
1411.665161	7.0
1412.401123	5.017857
1414.545288	9.011364
1415.510498	6.0
1417.948853	6.017857
1420.531372	21.006578
1424.768188	5.017857
1424.898682	5.0625
1427.678711	6.333333
1428.771851	7.0
1431.254395	9.0625
1435.333374	5.0625
1435.465332	16.28125
1440.182495	6.0625
1440.707153	7.05
1441.82251	5.017857
1445.477661	6.017857
1446.403198	7.446429
1447.098633	5.025
1447.931519	5.025
1449.155762	7.5625
1449.356812	7.125
1450.21228	6.125
1451.140625	9.0
1453.285278	8.284091
1454.119629	5.0625
1456.493774	6.083333
1459.462524	5.160714
1461.092041	6.160714
1462.897583	6.05
1465.85144	5.0625
1468.31311	27.025
1469.470703	8.013889
1471.321289	6.125
1472.873291	6.0
1475.12915	5.0
1477.563965	7.017857
1480.377441	5.013889
1480.454956	5.5
1482.838623	5.0
1483.237915	6.013889
1485.990234	10.009615
1490.190063	11.066176
1491.124268	8.035714
1493.69458	12.75
1497.02478	7.041667
1501.348755	9.160714
1502.445801	13.111111
1502.650269	5.333333
1503.629395	7.125
1506.598145	5.225
1511.165771	6.025
1515.110352	6.013889
1515.631592	7.5625
1515.738403	5.160714
1516.864136	6.041667
1519.530762	6.013889
1520.024902	5.017857
1521.799683	5.017857
1523.035889	7.0
1524.041138	9.009615
1525.127319	7.05
1527.873169	5.013889
1528.908325	6.025
1529.15686	7.017857
1529.38208	10.035714
1529.80957	8.086538
1531.929565	8.0
1532.402222	5.083333
1532.800293	5.0
1538.92627	5.0
1539.739868	5.0
1540.056396	5.013889
1540.282471	5.0625
1540.486572	6.160714
1542.544067	5.0
1552.653442	8.347222
1553.199585	5.333333
1555.070068	6.25
1556.740967	7.347222
1558.171997	5.083333
1558.285522	10.035714
1558.876831	5.0
1561.106567	7.011364
1564.521851	6.160714
1569.762451	6.125
1570.296021	5.333333
1571.223145	13.778846
1571.913574	6.011364
1577.193848	5.017857
1578.56665	10.166667
1580.535889	5.025
1581.950073	7.333333
1584.290039	5.225
1585.41748	6.0625
1585.990845	10.05
1586.251099	5.160714
1589.50293	6.0
1589.920166	5.225
1590.553955	26.694445
1592.683838	8.333333
1595.180664	11.0
1595.715088	6.125
1596.262207	5.0625
1597.267212	5.025
1599.497559	5.625
1601.029907	10.075
1605.781738	6.125
1608.598511	6.25
1610.292725	16.25
1610.401733	6.017857
1612.691162	6.017857
1614.357544	5.017857
1615.398926	5.0625
1617.877197	6.017857
1618.085571	5.160714
1620.686157	26.918478
1620.821289	7.0625
1621.029907	6.013889
1621.261963	5.160714
1621.658081	11.2
1622.278931	5.333333
1622.885864	7.013889
1623.04834	10.007353
1624.324951	10.009615
1630.849609	7.446429
1631.460327	9.0
1632.321411	10.041667
1633.302612	24.625
1633.787964	7.0
1635.464844	5.017857
1635.981934	5.041667
1638.099121	6.083333
1638.222412	10.920455
1641.142334	5.625
1643.862183	6.125
1645.404053	18.266304
1648.677002	7.011364
1649.074707	8.041667
1649.764893	5.625
1651.040283	9.008333
1655.607788	8.041667
1657.937378	12.8
1660.53833	7.041667
1662.083374	5.083333
1662.341675	6.017857
1663.40625	21.571428
1663.939209	10.240385
1664.90271	5.0
1666.042847	10.875
1667.136353	7.0625
1668.818848	5.25
1669.018555	5.013889
1670.760498	6.017857
1671.066528	7.125
1672.502686	9.2
1672.856812	6.0
1673.521484	6.446429
1678.468994	5.017857
1678.781006	6.225
1680.645874	6.446429
1681.184082	7.0625
1681.325806	6.05
1685.012085	6.25
1687.118408	18.009615
1688.491211	6.160714
1689.721313	5.0625
1691.853394	6.017857
1693.630981	5.017857
1694.437256	5.025
1695.575439	5.0625
1697.022705	6.013889
1698.167847	7.5625
END IONS

BEGIN IONS
PEPMASS=282.143
CHARGE=1
MSLEVEL=2
SOURCE_INSTRUMENT=LC-ESI-qTof
FILENAME=f.trikaloudis/Pendimethalin_1ppm_2uL_2_1_3712.mzXML;
SEQ=*..*
IONMODE=Positive
ORGANISM=GNPS-LIBRARY
NAME=Pendimethalin M+H
PI=Tri Kaloudis
DATACOLLECTOR=Alina Gialleli
SMILES=CCC(CC)NC1=C(C=C(C(=C1[N+](=O)[O-])C)C)[N+](=O)[O-]
INCHI= 
INCHIAUX= 
PUBMED=38479
SUBMITUSER=trikaloudis
LIBRARYQUALITY=3
SPECTRUMID=CCMSLIB00012728754
USI=mzspec:GNPS:GNPS-LIBRARY:accession:CCMSLIB00012728754
SCANS=2154
53.039024	136.0
54.033939	136.0
65.038574	350.0
66.033249	138.0
71.08474	820.0
78.032608	672.0
79.052788	274.0
80.048904	1038.0
81.055511	288.0
87.044006	128.0
90.032356	322.0
91.040558	3806.0
92.036255	394.0
92.048103	1662.0
93.043343	564.0
93.055916	502.0
94.026878	272.0
94.040039	202.0
94.065872	172.0
95.047859	146.0
96.044121	184.0
96.055916	308.0
97.045555	140.0
103.027657	634.0
103.040428	1138.0
104.035835	426.0
104.048637	858.0
105.043106	1112.0
106.027878	652.0
106.039169	184.0
106.051735	130.0
106.064163	702.0
107.023079	186.0
107.049095	188.0
107.059303	376.0
108.043541	844.0
108.067368	194.0
109.038963	388.0
109.050926	214.0
117.043945	764.0
117.056038	426.0
118.051483	4332.0
118.0653	294.0
119.036911	194.0
119.058968	5688.0
120.018074	722.0
120.0438	668.0
120.065994	686.0
121.002731	394.0
121.039413	644.0
121.050163	172.0
122.046837	440.0
123.029129	144.0
123.053429	318.0
124.03878	278.0
126.053627	622.0
129.044785	816.0
130.050888	1664.0
130.689148	192.0
131.046448	634.0
131.059128	2028.0
132.05571	906.0
133.037399	580.0
133.056885	166.0
134.034698	140.0
134.046524	198.0
134.058685	432.0
135.054352	1156.0
135.06546	188.0
136.061981	1038.0
137.067902	650.0
138.053925	150.0
139.049408	190.0
140.055878	172.0
145.039474	374.0
146.045334	396.0
147.053909	4368.0
148.061691	8674.0
149.021561	370.0
149.056747	2900.0
150.025116	232.0
150.040894	218.0
150.063965	208.0
151.049225	156.0
160.049789	1264.0
162.027252	180.0
163.025299	138.0
163.04982	568.0
164.057678	1120.0
165.064255	1322.0
166.060577	488.0
166.06926	666.0
175.059525	176.0
176.042862	480.0
177.052231	3448.0
178.059219	5024.0
179.042358	268.0
179.062546	252.0
181.061539	136.0
193.096848	138.0
194.05426	12078.0
194.173904	174.0
195.061218	5918.0
196.064178	488.0
212.064789	13106.0
212.08609	336.0
213.067596	1476.0
214.071854	284.0
281.29071	212.0
284.325928	286.0
475.448975	128.0
END IONS

BEGIN IONS
PEPMASS=113.035
CHARGE=1
MSLEVEL=2
SOURCE_INSTRUMENT=ESI-Orbitrap
FILENAME=SP1_F_1_3.mzML
SEQ=*..*
IONMODE=Positive
ORGANISM=GNPS-LIBRARY
NAME=URACIL M+H
PI=Aron
DATACOLLECTOR=David Hattan
SMILES=O=C1NC=CC(=O)N1
INCHI=InChI=1S/C4H4N2O2/c7-3-1-2-5-4(8)6-3/h1-2H,(H2,5,6,7,8)
INCHIAUX=N/A
PUBMED=N/A
SUBMITUSER=jzemlin
LIBRARYQUALITY=1
SPECTRUMID=CCMSLIB00013583142
USI=mzspec:GNPS:GNPS-LIBRARY:accession:CCMSLIB00013583142
SCANS=327
53.002876	12914.944336
59.145924	1801.781616
67.029861	3629.032227
68.013687	34716.765625
69.993042	5469.785156
70.029335	1417447.0
70.060272	5634.82959
74.097084	5370.119141
94.971931	1911.82373
95.024414	185633.9375
95.956131	3459.045898
96.008377	1343737.25
96.05777	4543.601562
113.034706	1614033.75
113.098076	5984.112793
113.106651	3850.025146
END IONS

BEGIN IONS
PEPMASS=393.3
CHARGE=1
MSLEVEL=2
SOURCE_INSTRUMENT=ESI-Orbitrap
FILENAME=SP7_B_1_3.mzML
SEQ=*..*
IONMODE=Positive
ORGANISM=GNPS-LIBRARY
NAME=CHENODEOXYCHOLATE M+H
PI=Aron
DATACOLLECTOR=David Hattan
SMILES=[H][C@@]1(CC[C@@]2([H])[C@]3([H])[C@H](O)C[C@]4([H])C[C@H](O)CC[C@]4(C)[C@@]3([H])CC[C@]12C)[C@H](C)CCC(O)=O
INCHI=InChI=1S/C24H40O4/c1-14(4-7-21(27)28)17-5-6-18-22-19(9-11-24(17,18)3)23(2)10-8-16(25)12-15(23)13-20(22)26/h14-20,22,25-26H,4-13H2,1-3H3,(H,27,28)/t14-,15+,16-,17-,18+,19+,20-,22+,23+,24-/m1/s1
INCHIAUX=N/A
PUBMED=N/A
SUBMITUSER=jzemlin
LIBRARYQUALITY=1
SPECTRUMID=CCMSLIB00013583460
USI=mzspec:GNPS:GNPS-LIBRARY:accession:CCMSLIB00013583460
SCANS=2557
52.76643	875.493896
56.135078	826.705994
57.070496	992.071289
80.301338	955.852417
89.060265	3447.901367
146.982376	1058.407104
255.997742	879.682556
281.171326	4868.492676
393.211304	14880.917969
393.297363	63461.464844
END IONS

BEGIN IONS
PEPMASS=516.133
CHARGE=1
MSLEVEL=2
SOURCE_INSTRUMENT=LC-ESI-Orbitrap
FILENAME=all_ms2.mgf
SEQ=*..*
IONMODE=Positive
ORGANISM=GNPS-LIBRARY
NAME=Glyburide [M+Na]+
PI=Pieter Dorrestein
DATACOLLECTOR=Minions
SMILES=COc1ccc(Cl)cc1C(=O)NCCc1ccc(S(=O)(=O)NC(=O)NC2CCCCC2)cc1
INCHI="InChI=1S/C23H28ClN3O5S/c1-32-21-12-9-17(24)15-20(21)22(28)25-14-13-16-7-10-19(11-8-16)33(30,31)27-23(29)26-18-5-3-2-4-6-18/h7-12,15,18H,2-6,13-14H2,1H3,(H,25,28)(H2,26,27,29)"
INCHIAUX=
PUBMED=drug_mix_all_combined.mzML:scan:3122
SUBMITUSER=jzemlin
LIBRARYQUALITY=1
SPECTRUMID=CCMSLIB00015625744
USI=mzspec:GNPS:GNPS-LIBRARY:accession:CCMSLIB00015625744
SCANS=173
52.476669	2699.780273
57.347721	4729.110352
60.621929	3093.188477
80.132683	3352.966064
81.142326	3518.67627
92.54731	12342.239258
92.553864	17856.556641
101.462097	3342.674561
106.497627	3637.486328
130.963181	3965.836426
141.246964	3577.528809
147.083801	3747.432129
171.001801	40657.359375
172.005188	29791.773438
173.007874	5652.499512
176.106964	48851.914062
213.424545	4621.916992
261.707153	4166.475098
276.136169	7245.060547
277.138306	6294.327148
306.068298	3870.529785
373.063782	8531.337891
374.064056	22550.044922
376.113708	22621.820312
377.114807	48262.253906
385.446655	4211.47998
391.048706	639924.6875
402.092285	8309.324219
403.09256	12539.179688
417.02832	253351.625
464.994354	3831.781494
498.236176	14336.241211
516.134277	111580.242188
516.240723	18054.775391
END IONS

BEGIN IONS
PEPMASS=296.024
CHARGE=1
MSLEVEL=2
SOURCE_INSTRUMENT=LC-ESI-Orbitrap
FILENAME=all_ms2.mgf
SEQ=*..*
IONMODE=Positive
ORGANISM=GNPS-LIBRARY
NAME=Diclofenac [M+H]+
PI=Pieter Dorrestein
DATACOLLECTOR=Minions
SMILES=O=C(O)Cc1ccccc1Nc1c(Cl)cccc1Cl
INCHI="InChI=1S/C14H11Cl2NO2/c15-10-5-3-6-11(16)14(10)17-12-7-2-1-4-9(12)8-13(18)19/h1-7,17H,8H2,(H,18,19)"
INCHIAUX=
PUBMED=drug_mix_all_combined.mzML:scan:3116
SUBMITUSER=jzemlin
LIBRARYQUALITY=1
SPECTRUMID=CCMSLIB00015625747
USI=mzspec:GNPS:GNPS-LIBRARY:accession:CCMSLIB00015625747
SCANS=41
54.478241	995.191772
56.945541	1136.712524
57.070702	1318.82666
57.289249	1324.821777
58.065861	4411.277344
58.663689	1224.214233
62.597309	1310.058472
65.87558	1258.497192
70.344704	1578.22583
71.047188	1328.780518
83.086067	1979.072998
84.536133	1517.68689
92.551376	5905.169922
120.044609	3461.126465
157.088638	3189.504883
167.53125	1755.191406
176.107285	26118.640625
179.072815	1935.97583
180.08049	8153.388672
203.320587	2215.898193
214.041779	354264.125
215.049576	409469.96875
243.038177	1946.364746
250.018433	158707.65625
251.084015	2573.489746
254.283463	2408.550293
278.013245	20094.1875
296.024109	6199.04834
296.074219	3240.463379
296.141235	3538.681396
296.29425	6152.947266
END IONS

BEGIN IONS
PEPMASS=646.031
CHARGE=1
MSLEVEL=2
SOURCE_INSTRUMENT=LC-ESI-Orbitrap
FILENAME=all_ms2.mgf
SEQ=*..*
IONMODE=Positive
ORGANISM=GNPS-LIBRARY
NAME=Amiodarone [M+H]+
PI=Pieter Dorrestein
DATACOLLECTOR=Minions
SMILES=CCCCc1oc2ccccc2c1C(=O)c1cc(I)c(OCCN(CC)CC)c(I)c1
INCHI="InChI=1S/C25H29I2NO3/c1-4-7-11-22-23(18-10-8-9-12-21(18)31-22)24(29)17-15-19(26)25(20(27)16-17)30-14-13-28(5-2)6-3/h8-10,12,15-16H,4-7,11,13-14H2,1-3H3"
INCHIAUX=
PUBMED=drug_mix_all_combined.mzML:scan:3083
SUBMITUSER=jzemlin
LIBRARYQUALITY=1
SPECTRUMID=CCMSLIB00015625749
USI=mzspec:GNPS:GNPS-LIBRARY:accession:CCMSLIB00015625749
SCANS=186
51.427399	292657.40625
58.066029	66814672.0
62.327171	316051.46875
69.584976	285832.59375
70.698433	306215.34375
71.777023	737316.5
71.781357	2542400.25
72.077423	299597.4375
72.078407	238649.328125
72.081543	14948618.0
73.089409	6985598.5
74.097168	723507.0
86.089409	440635.40625
86.092667	460247.0
86.097054	31152814.0
90.222771	365658.4375
92.54882	1745668.5
100.106956	586280.25
100.112541	42774204.0
131.049606	1517517.25
159.044067	4867969.5
164.488678	390432.625
165.070099	483073.125
169.593094	324749.375
171.043869	719564.3125
192.057556	776640.375
200.885071	399225.875
201.091156	6670298.5
205.065796	899289.4375
206.073898	396607.8125
220.709274	316697.28125
221.060349	1156242.875
233.060944	798932.5
234.068146	1409267.0
244.294266	448045.0
247.076096	1401983.375
248.084335	1194166.5
249.05574	423885.15625
263.10907	518187.0625
272.567871	340753.96875
275.070557	2309654.75
276.078156	3684875.25
277.085876	1846105.5
290.094055	518638.125
292.523682	352714.3125
319.133453	1201486.0
340.605164	425522.65625
346.955292	449841.71875
372.820618	524576.375
476.07309	452235.21875
516.912048	504148.0625
572.941406	1027630.0
646.03064	50047356.0
END IONS

BEGIN IONS
PEPMASS=373.285
CHARGE=1
MSLEVEL=2
SOURCE_INSTRUMENT=LC-ESI-Orbitrap
FILENAME=all_ms2.mgf
SEQ=*..*
IONMODE=Positive
ORGANISM=GNPS-LIBRARY
NAME=Finasteride [M+H]+
PI=Pieter Dorrestein
DATACOLLECTOR=Minions
SMILES=CC(C)(C)NC(=O)[C@H]1CC[C@H]2[C@@H]3CC[C@H]4NC(=O)C=C[C@]4(C)[C@H]3CC[C@]12C
INCHI="InChI=1S/C23H36N2O2/c1-21(2,3)25-20(27)17-8-7-15-14-6-9-18-23(5,13-11-19(26)24-18)16(14)10-12-22(15,17)4/h11,13-18H,6-10,12H2,1-5H3,(H,24,26)(H,25,27)/t14-,15-,16-,17+,18+,22-,23+/m0/s1"
INCHIAUX=
PUBMED=drug_mix_all_combined.mzML:scan:3059
SUBMITUSER=jzemlin
LIBRARYQUALITY=1
SPECTRUMID=CCMSLIB00015625753
USI=mzspec:GNPS:GNPS-LIBRARY:accession:CCMSLIB00015625753
SCANS=54
57.07085	2338286.0
64.459839	206637.078125
67.054817	379780.78125
67.880997	223545.65625
69.034401	2177438.5
70.18187	220085.640625
72.045097	670077.5625
81.070473	1090438.5
86.060349	349747.40625
91.054863	594254.375
92.550781	3071597.5
93.070457	1440692.0
93.319702	759399.75
95.086121	3132893.75
98.060677	311088.96875
105.070358	646221.0625
107.08577	1348699.5
107.482803	228656.765625
109.10128	455354.28125
110.06028	410054.625
119.085716	962292.125
121.101219	844546.1875
122.060371	312037.53125
124.0755	311529.75
126.091454	309315.4375
128.17131	300205.78125
131.085327	508568.96875
133.101379	1403659.625
135.116821	894011.0
136.0755	498369.5
143.085541	687674.5
145.101074	1109464.375
147.116898	1516633.75
149.131683	320917.65625
150.092178	333583.75
155.085617	342224.28125
157.100342	406896.0625
159.116577	507247.71875
161.095734	407969.3125
161.133377	722444.125
163.148376	318928.96875
171.118073	456668.65625
173.132462	1029222.5625
175.147919	1860274.75
177.16304	267798.53125
180.185974	231118.6875
183.806717	228626.140625
185.132401	1016070.875
187.1483	1917446.0
189.164047	2264650.75
197.132919	494732.125
201.129089	247140.109375
203.142303	337107.53125
207.613937	265875.5625
213.163513	636321.5
215.142776	978580.6875
220.170135	728399.5
227.178574	499265.1875
232.168945	727589.375
237.163239	493433.84375
246.186325	328872.9375
249.195999	721312.9375
254.189255	330961.90625
255.174438	1005670.9375
258.184937	303051.59375
266.366882	255456.046875
272.202118	415801.75
274.216461	346870.34375
282.185242	405654.8125
283.170105	336556.34375
299.210419	303792.40625
300.197998	387987.46875
305.258514	26311198.0
317.222046	10166682.0
355.273865	694391.375
373.185791	988991.3125
373.28476	181845232.0
373.409302	376366.71875
END IONS

BEGIN IONS
PEPMASS=358.238
CHARGE=1
MSLEVEL=2
SOURCE_INSTRUMENT=LC-ESI-Orbitrap
FILENAME=all_ms2.mgf
SEQ=*..*
IONMODE=Positive
ORGANISM=GNPS-LIBRARY
NAME=Oxybutynin [M+H]+
PI=Pieter Dorrestein
DATACOLLECTOR=Minions
SMILES=CCN(CC)CC#CCOC(=O)C(O)(c1ccccc1)C1CCCCC1
INCHI="InChI=1S/C22H31NO3/c1-3-23(4-2)17-11-12-18-26-21(24)22(25,19-13-7-5-8-14-19)20-15-9-6-10-16-20/h5,7-8,13-14,20,25H,3-4,6,9-10,15-18H2,1-2H3"
INCHIAUX=
PUBMED=drug_mix_all_combined.mzML:scan:2673
SUBMITUSER=jzemlin
LIBRARYQUALITY=1
SPECTRUMID=CCMSLIB00015625774
USI=mzspec:GNPS:GNPS-LIBRARY:accession:CCMSLIB00015625774
SCANS=83
50.359509	309321.15625
53.039299	679427.1875
54.032711	548296.75
54.034821	6971939.0
54.561199	419154.53125
55.05508	2053398.625
56.05027	1558904.75
58.063351	575454.0625
58.066051	8189034.5
58.27145	395375.40625
65.734703	411761.78125
67.055054	1482596.25
68.050331	4549810.0
69.031433	351157.375
69.034393	4656908.0
69.070557	1320534.875
70.065826	2055803.375
72.081596	26231142.0
72.084793	274463.9375
72.085739	834413.8125
73.089363	1133811.125
73.695107	415966.125
74.096931	616004.5
76.826897	395922.125
79.05497	8626440.0
80.050056	2044910.375
81.058029	2301036.5
81.070541	2825487.75
82.065887	9537345.0
83.086319	2660475.25
84.081413	1864343.5
86.097	1315311.25
89.558197	811704.0625
90.332901	413802.03125
91.054802	6085512.0
92.547798	928743.8125
92.554077	1323874.5
93.070618	596896.6875
94.065727	9776983.0
95.049583	1357338.75
95.073647	3836746.5
95.086197	755463.0
96.081322	11048067.0
97.028954	19891918.0
100.629639	514751.625
105.026688	903182.875
105.033951	29610746.0
105.041351	645148.375
105.044456	620909.125
105.07029	1696540.625
107.049568	12978262.0
107.085854	792989.1875
108.081047	5087757.0
109.089043	4393397.5
113.023773	796476.9375
117.070427	981171.3125
121.064957	603822.9375
122.096786	5223946.5
124.112328	44410848.0
125.11998	1769807.75
128.062408	1236077.375
129.070038	9809415.0
131.085144	649474.0625
141.06987	1090973.625
142.122757	72763856.0
143.084976	2467008.5
157.065155	1637776.625
167.084534	522027.40625
171.11673	10281957.0
173.059814	1046260.0
181.100769	1419410.875
183.104584	473917.96875
184.112045	509436.4375
185.059906	1387885.375
187.075531	1683147.0
189.113068	463044.6875
189.127487	13316269.0
197.131393	524452.9375
199.111496	5979248.5
203.070297	1523583.875
217.121094	571091.125
258.149231	3898685.0
267.138123	1735569.0
276.783081	534322.6875
340.227203	21627894.0
358.146606	1413865.875
358.237579	198328000.0
END IONS

BEGIN IONS
PEPMASS=455.291
CHARGE=1
MSLEVEL=2
SOURCE_INSTRUMENT=LC-ESI-Orbitrap
FILENAME=all_ms2.mgf
SEQ=*..*
IONMODE=Positive
ORGANISM=GNPS-LIBRARY
NAME=Verapamil [M+H]+
PI=Pieter Dorrestein
DATACOLLECTOR=Minions
SMILES=COc1ccc(CCN(C)CCCC(C#N)(c2ccc(OC)c(OC)c2)C(C)C)cc1OC
INCHI="InChI=1S/C27H38N2O4/c1-20(2)27(19-28,22-10-12-24(31-5)26(18-22)33-7)14-8-15-29(3)16-13-21-9-11-23(30-4)25(17-21)32-6/h9-12,17-18,20H,8,13-16H2,1-7H3"
INCHIAUX=
PUBMED=drug_mix_all_combined.mzML:scan:2600
SUBMITUSER=jzemlin
LIBRARYQUALITY=1
SPECTRUMID=CCMSLIB00015625781
USI=mzspec:GNPS:GNPS-LIBRARY:accession:CCMSLIB00015625781
SCANS=148
50.319221	16092.602539
50.807911	54636.128906
50.810589	448029.3125
51.482559	17087.166016
51.71891	17839.511719
58.066109	182998.140625
59.069481	30712.357422
64.436783	21710.246094
77.039513	21419.4375
79.05497	133697.046875
80.058128	79314.648438
84.081192	38951.191406
86.096779	28452.972656
91.054657	55490.003906
92.549263	252803.546875
92.555428	44888.8125
96.080994	51768.40625
97.084328	38182.636719
99.589653	22416.720703
103.054703	207295.203125
104.057732	81179.421875
104.063591	34305.949219
105.063423	32754.101562
105.07045	563492.5
106.067192	30403.490234
106.073677	339361.5625
107.049278	88598.507812
107.077133	58467.601562
108.052834	62041.125
115.054817	24818.789062
118.041069	110002.898438
119.049843	38841.332031
120.058006	39639.71875
121.064552	139568.0625
122.068169	71640.0
122.096733	97861.34375
123.099777	31447.080078
131.049255	62773.558594
132.055588	24149.972656
133.065033	408034.90625
134.071976	358278.625
135.044403	245136.828125
135.076782	174716.5
136.047119	182821.328125
136.076492	20603.685547
136.083557	87147.953125
137.048264	53380.945312
137.059189	40607.800781
137.086288	47770.972656
137.095734	31403.369141
138.065735	33781.207031
139.074982	48719.8125
140.078903	34346.59375
143.710526	20382.054688
144.314804	26810.423828
146.072342	25982.482422
149.059753	84889.8125
150.067642	2205626.0
150.076706	38830.019531
150.080124	41671.820312
151.070847	1817097.125
152.053482	24416.957031
152.072189	656481.75
153.080399	64069.65625
164.081955	28013.472656
165.091095	7319639.0
165.119736	34759.199219
166.094482	7154646.5
167.096771	3059884.5
168.116257	21093.748047
177.090622	193792.828125
178.094513	156564.859375
179.096756	68150.335938
187.097305	25284.585938
188.101471	26754.263672
191.107101	35723.679688
192.110321	28278.896484
202.08812	23893.087891
218.116013	47685.015625
219.119675	93855.75
220.123642	34743.652344
231.642136	22684.476562
234.155197	28209.763672
244.141724	39272.371094
245.143005	43634.429688
246.141876	24070.876953
260.164825	223052.390625
261.16745	509173.03125
262.170227	418918.71875
263.166138	119368.640625
303.206543	574618.125
303.24115	29854.509766
304.1745	35906.160156
304.209808	1258681.75
304.245209	31903.712891
305.21286	1494482.875
442.276428	26919.640625
457.163513	61425.996094
457.2966	8606871.0
END IONS

BEGIN IONS
PEPMASS=531.156
CHARGE=1
MSLEVEL=2
SOURCE_INSTRUMENT=LC-ESI-Orbitrap
FILENAME=all_ms2.mgf
SEQ=*..*
IONMODE=Positive
ORGANISM=GNPS-LIBRARY
NAME=Ketoconazole [M+H]+
PI=Pieter Dorrestein
DATACOLLECTOR=Minions
SMILES=CC(=O)N1CCN(c2ccc(OC[C@H]3CO[C@](Cn4ccnc4)(c4ccc(Cl)cc4Cl)O3)cc2)CC1
INCHI="InChI=1S/C26H28Cl2N4O4/c1-19(33)31-10-12-32(13-11-31)21-3-5-22(6-4-21)34-15-23-16-35-26(36-23,17-30-9-8-29-18-30)24-7-2-20(27)14-25(24)28/h2-9,14,18,23H,10-13,15-17H2,1H3/t23-,26-/m0/s1"
INCHIAUX=
PUBMED=drug_mix_all_combined.mzML:scan:2504
SUBMITUSER=jzemlin
LIBRARYQUALITY=1
SPECTRUMID=CCMSLIB00015625787
USI=mzspec:GNPS:GNPS-LIBRARY:accession:CCMSLIB00015625787
SCANS=133
51.95797	155803.171875
54.34679	165523.65625
54.349232	391133.5625
54.355228	129576.75
56.0504	325598.15625
58.065708	145118.328125
59.014	489006.375
59.017239	4356495.0
62.553669	150035.171875
66.533302	151618.859375
68.037727	265231.375
69.045547	872589.625
70.06601	832572.0625
71.061172	973921.9375
81.045441	4125588.5
82.053261	16255309.0
82.057419	183164.78125
82.058487	214802.0625
83.060806	292001.46875
86.060791	749330.875
92.547867	172425.703125
92.552841	416062.15625
101.123947	159605.015625
106.065742	200685.890625
107.049477	346681.0
107.060432	176064.28125
112.076027	6777929.0
113.071228	174131.703125
117.069817	254458.9375
118.065353	346001.4375
119.073723	167811.53125
120.044693	1754281.375
120.081047	649658.5
122.060242	1710820.0
122.458366	180492.140625
127.050293	742054.4375
129.070343	256156.546875
130.065109	383191.5625
131.048752	219684.59375
131.073242	360868.28125
132.080826	356390.875
132.786331	479063.28125
134.060196	1639491.625
135.067947	6404891.5
136.07576	2323307.25
139.03093	289146.0625
143.072403	190213.0625
144.080978	1477327.0
145.064667	180799.78125
145.088623	696921.9375
146.06015	953215.125
146.096497	2150451.25
147.068497	214861.3125
148.066757	135509.78125
148.075699	5722423.5
149.015594	339830.8125
150.023483	486034.03125
151.030975	189138.671875
156.080948	453176.3125
157.088516	195248.09375
157.968628	373118.8125
158.096573	743014.4375
158.976181	3407876.5
159.068512	201643.78125
160.075623	877952.5625
161.083786	281146.75
162.091629	687285.8125
163.030746	431085.75
163.123138	598527.5
167.026154	842129.0
167.067291	204209.90625
167.069534	107638.148438
167.081543	4392972.5
169.968491	2692662.75
170.97641	278466.8125
172.075516	1136126.125
172.955536	1986725.125
173.083862	225139.75
174.091385	5669813.0
176.093918	289325.0625
177.102234	6787074.0
178.085861	238235.140625
178.109818	1382069.125
179.026169	161522.90625
184.991638	2028359.75
185.963425	5631314.0
186.971771	542298.6875
188.107605	353377.1875
189.139206	467995.78125
190.086472	244008.484375
191.092621	162552.125
192.101822	1006450.875
200.107773	597821.8125
202.966934	397592.5625
203.036972	1307078.375
204.101868	319825.59375
205.029785	173259.0
205.097626	214028.65625
205.133835	653423.8125
209.036575	765599.6875
215.118851	363201.71875
216.102264	1684703.5
216.123398	369013.46875
217.133438	4538794.0
218.117142	447583.25
219.112808	6090198.0
220.120392	3027981.25
220.140762	212002.546875
224.996063	234217.09375
233.048447	212342.625
234.112488	659948.875
234.13591	324603.65625
235.144394	1757280.75
238.006104	1784455.0
239.0121	177186.90625
244.005356	7421508.5
247.06424	880976.375
247.145142	239590.578125
255.008591	7127573.5
255.035919	349030.875
259.144684	490766.0
266.561981	201234.609375
267.008606	3647432.5
268.016052	418918.84375
277.153198	202153.25
281.023865	751674.0
282.031982	600579.8125
295.039612	162690.484375
297.018433	190417.109375
311.035614	534297.25
378.066467	618523.25
420.07666	427058.40625
421.108978	663250.5625
446.102844	693482.3125
489.145599	8255893.0
530.94281	244918.15625
531.156128	81246608.0
531.285645	372788.75
531.323181	548252.5
531.371582	255221.125
END IONS

BEGIN IONS
PEPMASS=429.178
CHARGE=1
MSLEVEL=2
SOURCE_INSTRUMENT=LC-ESI-Orbitrap
FILENAME=all_ms2.mgf
SEQ=*..*
IONMODE=Positive
ORGANISM=GNPS-LIBRARY
NAME=Carvedilol [M+Na]+
PI=Pieter Dorrestein
DATACOLLECTOR=Minions
SMILES=COc1ccccc1OCCNCC(O)COc1cccc2[nH]c3ccccc3c12
INCHI="InChI=1S/C24H26N2O4/c1-28-21-10-4-5-11-22(21)29-14-13-25-15-17(27)16-30-23-12-6-9-20-24(23)18-7-2-3-8-19(18)26-20/h2-12,17,25-27H,13-16H2,1H3"
INCHIAUX=
PUBMED=drug_mix_all_combined.mzML:scan:2482
SUBMITUSER=jzemlin
LIBRARYQUALITY=1
SPECTRUMID=CCMSLIB00015625792
USI=mzspec:GNPS:GNPS-LIBRARY:accession:CCMSLIB00015625792
SCANS=31
62.71059	6357.439941
64.408188	6444.464355
85.614777	8719.165039
92.553299	14863.439453
100.076157	13490.298828
107.29303	20772.951172
120.307121	7261.658203
146.033875	132872.359375
159.04129	16950.880859
173.057755	28121.591797
188.068069	43510.875
190.084122	19262.345703
202.083862	12209.458984
205.049545	24054.337891
218.079361	11009.004883
230.114716	18455.816406
232.094971	15468.833984
246.109695	37693.082031
248.067444	10771.044922
288.452332	8585.126953
291.110748	8225.130859
305.125458	61529.023438
320.079681	10217.546875
414.15387	11474.515625
429.058929	39419.753906
429.178497	5581265.0
429.271545	25249.423828
429.300079	35313.078125
END IONS

BEGIN IONS
PEPMASS=376.15
CHARGE=1
MSLEVEL=2
SOURCE_INSTRUMENT=LC-ESI-Orbitrap
FILENAME=all_ms2.mgf
SEQ=*..*
IONMODE=Positive
ORGANISM=GNPS-LIBRARY
NAME=Haloperidol [M+H]+
PI=Pieter Dorrestein
DATACOLLECTOR=Minions
SMILES=O=C(CCCN1CCC(O)(c2ccc(Cl)cc2)CC1)c1ccc(F)cc1
INCHI="InChI=1S/C21H23ClFNO2/c22-18-7-5-17(6-8-18)21(26)11-14-24(15-12-21)13-1-2-20(25)16-3-9-19(23)10-4-16/h3-10,26H,1-2,11-15H2"
INCHIAUX=
PUBMED=drug_mix_all_combined.mzML:scan:2421
SUBMITUSER=jzemlin
LIBRARYQUALITY=1
SPECTRUMID=CCMSLIB00015625797
USI=mzspec:GNPS:GNPS-LIBRARY:accession:CCMSLIB00015625797
SCANS=191
50.26088	32922.527344
50.38493	10639.316406
50.38744	22118.623047
50.511669	45981.492188
51.023979	7812.09375
53.074139	3977.22876
60.546822	3634.344727
63.021191	8099.85498
63.024231	13137.941406
64.027229	5439.114746
65.039703	5992.866211
68.050056	13684.583008
75.024147	4647.67627
77.039391	5493.862305
83.061089	40456.570312
84.064499	9610.858398
84.068916	61020.382812
85.072113	14226.53125
85.076668	5702.87793
87.023933	5438.202148
87.044151	7177.369629
87.092194	16606.048828
88.095207	7836.148926
89.039337	9623.300781
89.350777	4812.96582
90.042961	8963.693359
92.549568	19769.335938
99.000687	13386.083984
99.092209	5736.162598
100.003448	4746.849609
101.927719	4358.175293
111.091988	101436.320312
112.095413	31522.121094
115.054909	20714.023438
116.058342	14012.827148
123.015282	6430.937988
123.024307	182700.890625
126.046852	8569.612305
138.043579	5007.265625
139.054642	17432.882812
140.05751	14972.946289
141.069824	20486.658203
142.07338	13151.794922
149.015045	6192.659668
152.06076	5211.419434
153.065353	7387.728027
163.054016	23885.445312
164.060486	13753.807617
165.041046	26013.423828
165.04776	12508.318359
165.070068	3499921.25
165.098648	23770.703125
166.014969	11948.080078
166.030304	10034.365234
166.038544	15567.537109
166.046692	57923.800781
166.076279	12005887.0
166.099976	38053.949219
166.106033	60232.847656
166.113953	28136.423828
166.121506	14010.454102
166.130646	15179.50293
167.018875	12529.137695
167.024002	4456.693359
167.042953	24029.28125
167.051605	95788.1875
167.057281	53300.636719
167.081146	12981494.0
167.10434	89870.914062
167.110565	98346.617188
167.11908	37922.605469
167.126877	19147.673828
167.135925	18892.306641
169.062973	7744.89502
170.067703	6263.35498
173.128448	454362.59375
174.132172	250321.546875
183.080536	524310.0625
184.083862	741141.1875
193.076202	281477.375
194.079544	382775.03125
199.031174	70669.5625
200.034653	108988.664062
200.963455	23139.175781
200.973572	5474.389648
200.985428	18972.363281
200.996521	44130.027344
201.007553	141938.828125
201.015472	72364.867188
201.046646	20624854.0
201.077515	140583.5
201.08548	141474.59375
201.096786	57595.273438
201.107254	27160.220703
201.118835	25802.460938
201.150421	7806.45459
201.965897	32936.582031
201.976562	7156.34668
201.988007	33200.238281
201.999161	62028.683594
202.010742	226391.9375
202.018387	152316.734375
202.049911	30234364.0
202.080795	181683.203125
202.089127	222998.15625
202.100357	80367.515625
202.111145	41972.824219
202.122681	40097.625
202.144104	12211.161133
202.155075	7944.296875
203.044403	30002.226562
206.097061	19934.210938
207.101639	5511.600586
261.405731	5666.969727
274.136078	9367.535156
275.137939	13864.418945
340.209961	13105.689453
358.136688	18698.021484
376.145752	46953.070312
376.186737	252975.46875
END IONS

BEGIN IONS
PEPMASS=439.22
CHARGE=1
MSLEVEL=2
SOURCE_INSTRUMENT=LC-ESI-Orbitrap
FILENAME=all_ms2.mgf
SEQ=*..*
IONMODE=Positive
ORGANISM=GNPS-LIBRARY
NAME=Ramipril [M+Na]+
PI=Pieter Dorrestein
DATACOLLECTOR=Minions
SMILES=CCOC(=O)[C@H](CCc1ccccc1)N[C@@H](C)C(=O)N1[C@H](C(=O)O)C[C@@H]2CCC[C@@H]21
INCHI="InChI=1S/C23H32N2O5/c1-3-30-23(29)18(13-12-16-8-5-4-6-9-16)24-15(2)21(26)25-19-11-7-10-17(19)14-20(25)22(27)28/h4-6,8-9,15,17-20,24H,3,7,10-14H2,1-2H3,(H,27,28)/t15-,17-,18-,19-,20-/m0/s1"
INCHIAUX=
PUBMED=drug_mix_all_combined.mzML:scan:2390
SUBMITUSER=jzemlin
LIBRARYQUALITY=1
SPECTRUMID=CCMSLIB00015625801
USI=mzspec:GNPS:GNPS-LIBRARY:accession:CCMSLIB00015625801
SCANS=147
54.130619	2432.901855
54.774719	2937.287109
56.050259	7382.247559
62.484249	3578.934814
73.065308	6885.991211
75.532417	3042.403564
76.853401	3742.686768
91.054802	34344.695312
92.553482	11233.387695
99.972382	3235.088867
102.055557	23687.011719
106.307564	3491.244141
109.802963	4301.472168
110.096497	9642.036133
117.070251	115711.804688
130.077286	5874.989258
130.086441	87603.078125
132.078094	3551.556396
134.096527	47905.417969
142.296188	3668.829102
160.111862	40401.476562
178.083817	298405.5
178.095444	5556.425781
178.099991	6107.286133
204.100113	4950.977051
206.116531	3652.973633
228.099274	52396.675781
230.115646	44209.964844
231.114212	5235.38623
234.148712	117681.710938
247.106491	4236.862305
248.721664	4032.598877
256.130646	417482.40625
284.126251	5410.006836
302.136108	1413171.875
365.183105	11317.458984
380.952911	3589.013184
411.188538	4259.036621
439.093903	13073.648438
439.220154	1887712.5
439.34494	12418.530273
END IONS

BEGIN IONS
PEPMASS=386.255
CHARGE=1
MSLEVEL=2
SOURCE_INSTRUMENT=LC-ESI-Orbitrap
FILENAME=all_ms2.mgf
SEQ=*..*
IONMODE=Positive
ORGANISM=GNPS-LIBRARY
NAME=Buspirone [M+H]+
PI=Pieter Dorrestein
DATACOLLECTOR=Minions
SMILES=O=C1CC2(CCCC2)CC(=O)N1CCCCN1CCN(c2ncccn2)CC1
INCHI="InChI=1S/C21H31N5O2/c27-18-16-21(6-1-2-7-21)17-19(28)26(18)11-4-3-10-24-12-14-25(15-13-24)20-22-8-5-9-23-20/h5,8-9H,1-4,6-7,10-17H2"
INCHIAUX=
PUBMED=drug_mix_all_combined.mzML:scan:2005
SUBMITUSER=jzemlin
LIBRARYQUALITY=1
SPECTRUMID=CCMSLIB00015625829
USI=mzspec:GNPS:GNPS-LIBRARY:accession:CCMSLIB00015625829
SCANS=42
53.71965	3278.565186
60.980209	3474.635742
70.220032	3556.20166
75.474403	4411.196777
78.918007	3916.693848
80.050087	9811.584961
81.070511	10106.666992
92.049957	24465.546875
92.550781	44750.304688
93.057716	15020.128906
94.065514	12322.704102
95.060883	12970.486328
95.086319	21352.527344
96.044899	4469.87793
98.097069	24193.480469
106.065491	11878.092773
107.073387	116250.054688
108.0448	20417.308594
108.076714	16564.201172
109.064934	22375.96875
109.101578	30164.361328
110.060532	55106.496094
111.063347	6451.166992
112.001663	4323.595215
120.045174	4813.45752
122.053329	6493.472656
122.060379	180175.3125
122.071373	963852.0625
122.078499	16892.654297
123.063118	24044.345703
123.080643	22795.972656
124.066353	5948.211914
124.111954	5364.595703
125.046989	5537.862305
126.000877	6628.157227
127.996719	5583.322754
133.06282	8321.458008
136.039612	36763.175781
137.043457	7466.990723
138.055038	3007595.75
138.063507	43381.730469
138.072098	23502.59375
138.076675	18568.685547
138.082993	7006.753418
139.058472	428699.53125
139.06723	3446.221191
140.034973	5138.28125
140.060059	300909.625
140.106995	30882.644531
141.004105	14939.104492
148.086914	126980.664062
150.054657	5092.169434
150.10257	136664.875
152.070694	124892.140625
152.094757	4878.126465
152.106979	119832.21875
153.078491	582923.3125
153.995972	4979.479492
154.049957	197378.96875
154.082428	88026.585938
155.054108	27344.521484
155.083603	67341.78125
155.991455	25281.347656
156.027588	9382.128906
156.054794	19617.375
156.065765	11954.154297
158.007172	11287.820312
159.014221	4581.055176
167.006256	24851.042969
168.00647	9020.099609
168.065338	68815.132812
168.101974	67648.28125
168.998688	50698.5
169.068634	10076.820312
170.005814	5560.078125
170.068558	7814.757324
170.081772	43030.789062
171.084625	9601.091797
172.086136	6641.418457
174.037567	7127.141113
180.101913	41074.394531
183.03009	8559.770508
184.021988	52920.632812
185.052124	46615.152344
186.054749	6931.37207
187.009537	14366.206055
198.112915	36593.875
200.037582	187229.671875
201.040909	234722.640625
202.032425	1283847.75
217.004364	12539.084961
219.15976	4198.60498
222.148865	121748.390625
252.427719	4338.336426
265.190979	98326.046875
343.211823	14101.986328
358.062836	4216.151855
368.068604	14624.960938
384.274872	4776.15625
386.255005	1521462.25
386.295837	19567.005859
END IONS

BEGIN IONS
PEPMASS=428.216
CHARGE=1
MSLEVEL=2
SOURCE_INSTRUMENT=LC-ESI-Orbitrap
FILENAME=all_ms2.mgf
SEQ=*..*
IONMODE=Positive
ORGANISM=GNPS-LIBRARY
NAME=Lisinopril [M+Na]+
PI=Pieter Dorrestein
DATACOLLECTOR=Minions
SMILES=NCCCC[C@H](N[C@@H](CCc1ccccc1)C(=O)O)C(=O)N1CCC[C@H]1C(=O)O
INCHI="InChI=1S/C21H31N3O5/c22-13-5-4-9-16(19(25)24-14-6-10-18(24)21(28)29)23-17(20(26)27)12-11-15-7-2-1-3-8-15/h1-3,7-8,16-18,23H,4-6,9-14,22H2,(H,26,27)(H,28,29)/t16-,17-,18-/m0/s1"
INCHIAUX=
PUBMED=drug_mix_all_combined.mzML:scan:1033
SUBMITUSER=jzemlin
LIBRARYQUALITY=1
SPECTRUMID=CCMSLIB00015625861
USI=mzspec:GNPS:GNPS-LIBRARY:accession:CCMSLIB00015625861
SCANS=2
51.352581	1293.123779
54.400959	1325.944946
64.453499	1583.675903
84.081596	12488.539062
92.550201	2848.050537
105.050072	1817.518066
116.757492	1759.177734
138.052597	97933.5625
138.063629	2708.277588
150.052277	2069.387695
151.084167	23176.810547
152.068481	6886.035156
166.169846	2026.712036
167.415268	1769.49353
169.095032	16798.4375
188.639496	1790.862793
201.703156	1951.102661
202.083832	92648.46875
202.10321	2231.058838
241.167419	2184.796387
266.146881	19902.023438
268.129333	4010.702637
285.157471	21074.628906
295.146362	1988.262207
313.1521	142841.59375
331.162659	166432.171875
336.443298	1719.644409
428.215546	201644.0625
END IONS

BEGIN IONS
PEPMASS=358.085
CHARGE=1
MSLEVEL=2
SOURCE_INSTRUMENT=LC-ESI-qTof
FILENAME=Indomethacin.mgf
SEQ=*..*
IONMODE=Positive
ORGANISM=GNPS-SELLECKCHEM-FDA-PART1
NAME=Indomethacin M+H
PI=Sirenas
DATACOLLECTOR=Ed Esquenazi 
SMILES=CC1=C(C2=C(N1C(=O)C3=CC=C(C=C3)Cl)C=CC(=C2)OC)CC(=O)O
INCHI=InChI=1S/C19H16ClNO4/c1-11-15(10-18(22)23)16-9-14(25-2)7-8-17(16)21(11)19(24)12-3-5-13(20)6-4-12/h3-9H,10H2,1-2H3,(H,22,23)
INCHIAUX=N/A
PUBMED=N/A
SUBMITUSER=mwang87
LIBRARYQUALITY=3
SPECTRUMID=CCMSLIB00000004233
USI=mzspec:GNPS:GNPS-SELLECKCHEM-FDA-PART1:accession:CCMSLIB00000004233
SCANS=1
110.998291	161.331604
129.010971	14.73157
138.279495	11.42102
138.328445	19.595039
138.360397	21.70916
138.43457	11.36193
138.801941	17.568821
138.878281	12.68091
138.972351	62.437649
138.994843	10913.179688
139.045288	50.878979
139.062317	34.907181
139.10495	50.703861
139.147369	17.10577
139.159027	16.34083
139.191559	49.648041
139.2258	23.478861
139.266663	45.473492
139.280441	31.411421
139.386154	29.501419
139.420517	56.778019
139.442749	37.35981
139.493011	18.688299
139.501801	11.66955
139.67363	23.50378
139.997437	114.714401
140.024307	15.71902
174.091599	1498.514038
174.151306	13.35232
174.240555	13.67493
175.096542	12.15504
202.084778	158.307907
279.865845	13.42253
312.0802	110.617699
313.191864	11.24747
317.042053	42.409241
355.834381	17.55201
356.009857	11.96314
356.112213	12.73518
356.134613	18.944309
358.084808	4801.604004
358.172028	56.155449
358.29715	23.666719
358.394104	21.52022
358.441895	20.16386
358.497467	35.600491
358.536987	33.604462
358.638519	51.013729
358.915833	25.07869
358.940399	53.315048
358.99057	27.70833
END IONS

BEGIN IONS
PEPMASS=281.071
CHARGE=1
MSLEVEL=2
SOURCE_INSTRUMENT=LC-ESI-qTof
FILENAME=Sulfameter.mgf
SEQ=*..*
IONMODE=Positive
ORGANISM=GNPS-SELLECKCHEM-FDA-PART1
NAME=Sulfameter M+H
PI=Sirenas
DATACOLLECTOR=Ed Esquenazi 
SMILES=COC1=CN=C(N=C1)NS(=O)(=O)C2=CC=C(C=C2)N
INCHI=InChI=1S/C11H12N4O3S/c1-18-9-6-13-11(14-7-9)15-19(16,17)10-4-2-8(12)3-5-10/h2-7H,12H2,1H3,(H,13,14,15)
INCHIAUX=N/A
PUBMED=N/A
SUBMITUSER=mwang87
LIBRARYQUALITY=3
SPECTRUMID=CCMSLIB00000004311
USI=mzspec:GNPS:GNPS-SELLECKCHEM-FDA-PART1:accession:CCMSLIB00000004311
SCANS=1
108.043983	2805.253906
111.043098	81.183861
124.0504	279.655914
125.057838	276.723785
126.066261	4185.421875
156.011337	14870.25
172.071869	84.403297
188.012375	5425.542969
190.095245	79.498962
215.092361	4441.321777
217.107651	588.679504
263.060516	310.812012
279.32486	82.689934
279.359619	70.675522
279.46106	108.648201
279.504578	95.254303
279.543671	78.757347
279.595032	110.703598
281.013092	120.614304
281.070557	70093.953125
281.704926	92.813141
281.730377	74.017387
281.775513	91.50415
281.900574	85.08876
END IONS

BEGIN IONS
PEPMASS=477.232
CHARGE=1
MSLEVEL=2
SOURCE_INSTRUMENT=LC-ESI-qTof
FILENAME=LoperamideHCl.mgf
SEQ=*..*
IONMODE=Positive
ORGANISM=GNPS-SELLECKCHEM-FDA-PART1
NAME=LoperamideHCl M+H
PI=Sirenas
DATACOLLECTOR=Ed Esquenazi 
SMILES=CN(C)C(=O)C(CCN1CCC(CC1)(C2=CC=C(C=C2)Cl)O)(C3=CC=CC=C3)C4=CC=CC=C4
INCHI=InChI=1S/C29H33ClN2O2/c1-31(2)27(33)29(24-9-5-3-6-10-24,25-11-7-4-8-12-25)19-22-32-20-17-28(34,18-21-32)23-13-15-26(30)16-14-23/h3-16,34H,17-22H2,1-2H3
INCHIAUX=N/A
PUBMED=N/A
SUBMITUSER=mwang87
LIBRARYQUALITY=3
SPECTRUMID=CCMSLIB00000004395
USI=mzspec:GNPS:GNPS-SELLECKCHEM-FDA-PART1:accession:CCMSLIB00000004395
SCANS=4
112.073875	38.429089
115.050652	14.88971
152.059174	11.09412
152.507034	5.815244
160.108566	8.883333
165.064789	9.271078
167.062592	22.62645
167.085342	25.55089
178.080444	17.027781
180.414139	8.341666
193.096344	21.407761
195.087997	21.09804
209.558563	10.2223
209.752533	9.95862
210.126617	651.993225
210.504013	12.45405
210.651428	17.74419
210.922195	7.834322
224.077194	28.329029
238.122162	174.487106
238.31955	23.71026
240.134033	14.77619
264.456146	16.09878
264.481934	6.98
264.515015	57.006611
264.540314	20.857889
264.56076	15.70658
264.587219	61.531349
264.613556	72.145721
264.647827	56.595379
264.690613	90.178383
264.715515	20.20645
264.735413	79.543022
264.77475	42.690731
264.818604	28.32806
264.853607	25.548691
264.903015	23.009859
264.929352	17.70471
264.958801	16.35
264.982941	23.161289
265.134766	5.833108
265.214111	16.61792
265.255341	23.807409
265.299957	11.14167
265.373016	11.35357
265.553314	22.032261
265.837952	54.327709
265.87149	13.40441
265.946136	13.24
266.099792	95.550957
266.154449	41270.660156
266.195099	1.608333
266.234833	1.0125
266.454346	37.262371
266.489716	21.7159
266.531891	24.147289
266.562531	42.65712
266.658508	36.695301
266.676086	24.57979
266.702698	103.542198
266.767548	32.265591
266.789032	12.37534
266.80481	19.85404
266.847107	7.32047
266.87146	22.911551
266.888184	51.778889
266.91922	32.536308
266.934357	20.588921
266.964935	25.753361
267.00415	80.587448
267.073395	17.938101
267.086761	29.932051
267.249756	20.957279
267.291626	12.20606
267.308136	24.161091
267.332306	30.362129
267.470581	47.757099
267.54126	17.321951
267.872559	11.23333
267.905823	16.63788
268.76767	12.50227
268.832672	8.279348
268.88974	13.96364
268.932251	5.45
269.440247	8.008333
269.648712	6.275
273.518372	15.19754
284.22229	6.656396
336.580475	25.44776
363.122101	3.05
382.901123	19.066669
397.985168	22.08762
432.169952	77.688858
436.854767	30.139099
437.532471	3.075
458.892914	16.10125
459.215515	19.1063
460.22699	22.92111
462.515167	5.625
471.37674	16.98333
471.990204	6.33913
473.487885	6.677564
473.745575	17.79855
473.967987	13.47217
474.01181	41.27393
474.048615	17.093491
474.106018	38.808331
474.136993	236.6129
474.180573	245.679703
474.239441	165.183594
474.29361	292.68399
474.321228	101.821198
474.372131	62.182758
474.407043	269.41629
474.471039	123.189499
474.52121	48.317791
474.558319	148.891098
474.600525	134.762405
474.710419	84.80864
474.735382	13.20833
474.763184	27.67108
474.853363	103.360703
474.934082	13.50833
475.068176	37.146599
475.451599	98.860168
475.503906	109.9002
475.617706	30.82353
475.659637	32.26075
475.762299	23.081079
475.7854	37.157108
475.830994	17.880671
475.933655	39.257721
475.968842	13.47348
476.086731	25.75872
476.15152	43.927261
476.345398	58.17181
476.384552	30.44907
476.536407	20.35062
476.91571	14.4828
476.961884	17.58045
476.990112	16.19516
477.113129	28.36845
477.173218	14.81552
477.23172	179321.5
477.309753	10.40833
477.504608	17.190149
477.58429	4.696154
477.633881	11.22893
477.706146	7.201786
477.739105	11.26944
477.792328	30.45038
477.906128	151.2621
477.946136	159.436707
478.027161	392.259399
478.074005	352.468811
478.130249	113.2798
478.177948	178.8022
478.346893	146.582993
478.478577	173.206604
478.611633	168.449005
478.715759	79.112183
478.735504	105.6632
478.829132	50.000511
478.873535	87.883057
478.974243	22.71137
479.265961	9.317846
479.319946	45.307949
479.404572	59.927502
479.435394	61.24894
479.63324	32.577831
479.800903	36.679081
479.949219	16.989059
480.070831	35.572128
480.123779	18.256069
480.167725	16.88965
480.230927	48.02562
480.279968	12.33889
480.383362	10.5225
480.61438	22.65744
480.929565	16.70104
481.038727	10.32803
481.153809	13.20488
481.383118	13.11889
481.535461	14.01731
481.943573	12.30085
481.982849	17.04615
482.064789	1.405
482.210541	8.362
482.33429	19.404779
484.156494	10.78351
484.643097	13.9486
485.286377	7.000609
489.148865	7.02402
489.852051	28.375
490.146149	25.08176
491.737366	11.01136
492.007721	9.45606
507.201111	7.128947
652.252502	12.40812
776.987854	21.709431
END IONS

BEGIN IONS
PEPMASS=393.219
CHARGE=1
MSLEVEL=2
SOURCE_INSTRUMENT=LC-ESI-qTof
FILENAME=Naftopidil.mgf
SEQ=*..*
IONMODE=Positive
ORGANISM=GNPS-SELLECKCHEM-FDA-PART1
NAME=Naftopidil M+H
PI=Sirenas
DATACOLLECTOR=Ed Esquenazi 
SMILES=COC1=CC=CC=C1N2CCN(CC2)CC(COC3=CC=CC4=CC=CC=C43)O
INCHI=InChI=1S/C24H28N2O3/c1-28-24-11-5-4-10-22(24)26-15-13-25(14-16-26)17-20(27)18-29-23-12-6-8-19-7-2-3-9-21(19)23/h2-12,20,27H,13-18H2,1H3
INCHIAUX=N/A
PUBMED=N/A
SUBMITUSER=mwang87
LIBRARYQUALITY=3
SPECTRUMID=CCMSLIB00000004518
USI=mzspec:GNPS:GNPS-SELLECKCHEM-FDA-PART1:accession:CCMSLIB00000004518
SCANS=2
100.076118	1722.692993
100.16523	5.352027
100.253143	11.97692
100.388199	11.30385
101.265442	17.66667
102.054062	19.823589
102.089722	116.551102
102.470367	11.20667
104.046127	16.81333
105.056206	6.626471
106.065407	195.192398
107.050049	54.755741
108.079796	133.565002
110.092331	21.424999
110.443466	12.02606
112.880028	22.86692
113.081001	14.48658
113.480476	9.643841
113.51754	6.014535
113.90049	4.849138
114.0914	5720.393066
114.137718	41.852329
114.152206	11.45
114.159683	7.40051
114.178558	11.06406
114.230278	11.45143
114.256584	8.652083
114.285782	18.85976
114.307289	20.232691
114.321907	9.544444
114.360489	5.0625
114.487053	11.21944
114.501984	10.08
114.513939	21.384041
114.56147	7.40051
115.055817	115.643799
115.445709	5.544118
116.072372	19.111931
117.056046	145.861099
117.069695	48.081821
118.064438	1123.072998
118.254494	9.009
118.375854	7.155769
118.671211	11.07424
120.043137	766.839722
120.082237	39.8811
120.462402	11.44537
121.053391	645.202393
121.064407	61.18504
122.060509	252.321396
122.09433	12.29474
123.077614	21.228121
124.074516	29.53706
125.616394	28.49004
126.090401	183.082397
127.056816	17.06706
127.100616	56.43132
128.973862	10.41524
129.070694	404.611511
129.096649	11.04032
130.06311	25.78409
131.063461	13.27206
131.07605	14.18843
132.079849	21.33736
133.052399	87.294319
133.384766	4.800926
134.060532	1363.796021
134.093536	19.864519
134.237274	10.842
134.326599	9.417753
134.871719	32.600201
135.079636	164.038498
135.770737	6.446429
136.075531	5788.041992
136.125107	58.311668
136.14122	17.081329
136.159317	6.659524
136.265686	11.38227
136.344467	9.771429
136.586838	14.87935
137.273865	4.9
141.070663	110.729401
141.101562	29.284439
143.049179	31.09454
143.117554	55.515362
144.056686	20.401831
144.085678	15.86306
144.168472	37.069248
145.064194	42.234638
145.073792	19.033331
146.060577	24.101789
146.081207	55.51104
147.053955	34.602501
147.065598	23.28167
147.3983	19.05633
148.014771	12.025
148.075089	581.669189
148.097504	2.833333
148.503906	6.46579
149.057053	53.80341
149.083298	4341.929199
149.134949	30.4491
149.213089	16.02667
149.250061	18.45669
149.284622	7.272059
149.302353	10.01071
149.398422	7.60119
149.474426	4.981452
149.544403	4.434615
149.57843	9.91424
150.059814	24.33392
150.091217	7628.058105
150.142914	59.33054
150.175446	13.45
150.187195	17.829069
150.200272	11.6
150.215607	16.83
150.255737	31.98801
150.311203	4.889286
150.341003	8.807407
150.384003	18.151699
150.467148	9.363333
150.489136	11.80643
151.032761	35.215698
151.170044	9.812903
151.229553	6.867223
151.306671	13.43125
151.987747	11.9422
153.066605	78.577477
154.080139	29.7391
154.26265	23.402269
155.047684	15.07206
155.084747	1060.246948
156.398895	6.679348
156.44693	9.527273
157.06398	1638.725952
157.226318	11.23478
157.243469	8.664362
157.252014	20.20237
157.352615	12.03115
159.081955	29.31954
159.372284	15.18908
160.075699	55.100868
160.098053	15.70625
161.081116	87.178329
161.106644	24.157141
161.424637	19.09906
161.55191	4.538462
161.81308	7.632692
161.971024	8.846429
162.06572	21.4172
162.091431	2653.684082
162.145767	13.12675
162.339172	10.28
162.375809	17.797371
162.510696	9.377325
162.655548	11.55556
162.868011	14.8
163.268265	10.25714
164.106033	387.970306
165.07045	260.158508
165.444305	5.000806
166.11264	60.359169
167.086075	43.427792
169.061874	15.95
171.077179	223.990707
173.105911	17.944639
174.090302	194.224899
174.1129	150.533096
175.087814	150.147705
175.123291	163.503906
176.106918	157.028793
176.161392	7.103125
176.228897	11.55625
177.103149	494.327087
178.108444	419.444702
178.119171	101.899498
178.289734	7.606452
178.787079	15.40278
181.048767	38.634041
181.099426	34.865822
182.011169	5.242241
182.039337	9.45625
182.21933	16.780001
182.310532	18.245001
182.376312	8.757433
183.017334	4.004167
183.080612	5761.255859
183.138687	9.25625
183.153061	28.375019
183.16774	4.272727
183.207596	29.94906
183.247314	11.25931
183.340591	28.49847
183.379532	7.42402
183.455002	8.576961
183.478592	8.902083
183.567963	12.20053
183.69194	12.40152
183.777191	16.044741
184.624146	13.14325
185.095245	244.278503
187.086166	21.73152
188.103012	102.946404
189.102127	1064.845947
189.148056	20.52186
189.244232	9.459314
189.268326	17.480221
189.354004	19.22542
189.593643	7.736112
189.957657	8.69138
190.077454	5.869444
190.110062	8931.919922
190.16864	50.602909
190.187042	26.009501
190.218643	12.20409
190.23584	11.81275
190.261047	15.84615
190.304749	40.387081
190.316254	53.47942
190.337646	15.00714
190.353867	16.178089
190.384537	6.402941
190.514099	10.41667
190.604202	13.92135
190.716354	15.18825
190.732101	25.345119
190.761856	16.25104
191.013962	8.75577
191.246567	8.576471
191.259186	13.81739
191.841766	4.204167
192.097397	26.548771
192.125031	500.596802
193.133118	2217.958984
193.195801	17.20167
193.285202	6.859524
193.309387	8.805555
193.328918	17.973761
193.42067	6.020162
193.541672	4.649
193.924362	6.688095
194.141296	35.45079
194.247757	9.93629
194.409012	9.07258
197.096329	16.404779
199.07869	15.40032
201.090393	79.802429
201.101227	7.800676
201.136703	35.310749
202.10939	41.0168
203.117264	756.221375
203.410706	5.983696
203.560684	8.664831
203.918152	5.003333
203.977768	5.400806
204.042374	7.225
204.100525	61.88427
204.16571	10.9225
204.256104	9.825807
204.272079	16.002081
204.344498	9.080556
204.382126	96.772018
204.514725	4.000926
204.674026	6.514189
204.962677	10.02311
205.13353	18686.539062
205.176956	4.661364
205.193878	97.829887
205.239899	10.85952
205.261673	10.92672
205.274124	21.8276
205.30452	43.121811
205.318359	16.51907
205.330154	22.09008
205.354919	9.145689
205.400375	15.66431
205.414963	38.504009
205.428375	4.825
205.447037	15.79219
205.463242	32.153782
205.475143	51.124352
205.514404	28.548189
205.526871	14.10227
205.550812	58.074692
205.577072	20.00819
205.586975	11.36842
205.600876	14.41591
205.629547	21.178129
205.640656	6.075
205.670547	18.792021
205.744736	11.162
205.75972	25.65612
205.775604	18.026039
205.848175	39.429211
205.920441	22.40357
206.207535	28.23896
206.381393	16.53426
206.439636	7.202941
206.579529	11.61452
206.656387	17.77861
206.683746	9.283334
207.094986	5.85
208.112503	68.913643
208.20787	11.4
208.458893	15.00125
215.112396	23.16408
215.126526	6.081818
216.12352	103.718498
217.13205	225.478806
217.900864	13.63929
218.140945	92.592857
219.149734	1105.469971
219.270172	10.81739
219.298019	31.50248
219.492844	10.14337
219.52681	12.4266
220.120575	25.258739
226.122467	186.875198
227.0401	9.409042
229.132965	33.755711
229.484924	22.283739
229.909363	14.705
230.112656	35.72308
230.347473	6.03141
230.738129	9.910345
230.944382	7.102273
231.122223	16.801519
231.149063	2906.976074
231.249268	10.79397
231.27861	26.63262
231.3797	13.87195
231.521393	18.997101
231.989868	12.615
232.089966	8.707559
232.458954	5.59527
232.626007	16.98049
233.130539	77.723068
233.164856	1264.689941
233.808243	9.902273
233.871689	16.13158
233.92012	15.58555
233.992477	11.6225
234.021057	24.42564
234.102188	18.32268
234.657333	9.363333
235.10759	9.467222
235.144287	10617.620117
235.208572	36.508339
235.267975	17.20479
235.299576	51.31004
235.320358	26.209579
235.364822	26.1954
235.3983	45.43095
235.420456	10.14405
235.450943	15.22237
235.465378	8.612755
235.572647	10.54464
235.585861	26.60807
235.621216	43.781281
235.723999	14.3347
235.748398	2.0
235.774902	20.48407
235.865997	36.86393
235.920471	18.819771
236.676804	10.04853
236.801773	12.20068
240.135223	59.811771
242.678772	14.00357
244.040512	20.608999
244.105026	24.020411
244.134003	3906.751953
244.201035	4.296052
244.268677	10.29423
244.317917	8.8
244.36319	27.629391
244.452698	7.47
244.497452	7.345454
244.520859	16.977909
244.67424	17.00992
244.704544	11.24039
244.813995	15.125
247.143631	56.1661
247.728592	12.55201
247.753372	4.70625
247.819183	13.06667
247.848785	12.60143
247.954208	5.338889
248.432541	19.102131
248.468292	9.861734
248.769775	10.4
249.078705	59.95467
249.115585	9.021491
249.159927	14730.009766
249.224808	60.871342
249.246246	11.46532
249.297699	27.224039
249.333084	14.21517
249.390823	78.511963
249.417709	46.50901
249.448196	55.760731
249.471619	33.05835
249.541199	32.97393
249.562134	40.52573
249.585785	35.675739
249.631516	47.59771
249.656738	11.20308
249.695465	40.687229
249.749298	17.09441
249.78157	32.19157
249.81369	10.67201
249.860046	18.75589
250.690689	18.20027
251.614685	6.4
256.131989	37.172489
258.144409	12.76739
263.137482	20.625
264.146332	326.138611
265.15329	246.392807
270.148865	211.252304
272.527954	30.774099
330.499664	18.831841
357.115753	9.89
357.199463	32.928089
357.230286	11.88906
360.173431	11.82353
364.182739	5.208333
373.184723	9.626087
373.385834	5.955882
373.431946	6.469231
374.192169	23.628361
375.206085	1590.641968
375.370605	4.705882
375.574615	15.00409
375.625885	8.2375
375.667236	4.209
375.741425	6.023113
376.206177	16.448021
376.753784	7.428125
377.071167	15.62045
385.009399	4.92
388.280304	14.6875
389.303131	9.248
389.561859	14.00952
389.933136	13.23462
389.981995	14.67533
390.572021	15.00933
390.599152	79.095901
390.637299	59.971161
390.666626	13.21667
390.688293	110.682297
390.717438	29.71888
390.743408	126.400703
390.77478	343.904114
390.823425	81.18129
390.85791	333.467194
390.896576	368.516388
390.964081	231.029297
390.987671	126.737503
391.008484	177.773193
391.056824	333.465302
391.113678	300.421204
391.155212	37.215389
391.202118	885.017395
391.29718	54.400002
391.340851	103.416801
391.389893	12.67656
391.415405	51.767208
391.502686	54.762798
391.632751	144.364395
391.74588	115.468697
391.809021	71.592148
391.92514	147.491699
392.076599	211.951202
392.203918	50.73901
392.223877	26.000959
392.285309	67.677589
392.374146	14.73611
392.45871	6.497581
392.502686	51.138142
392.574066	37.85313
392.593201	68.801788
392.67923	10.72911
392.729858	31.66515
392.803436	82.987167
392.850372	166.7435
392.955505	327.167389
393.131714	442.699799
393.154175	172.654907
393.219421	285221.40625
393.430786	8.400455
393.533508	9.269444
393.859161	98.331642
393.891235	195.352493
393.931274	249.748993
394.003418	61.422161
394.028717	136.856003
394.095001	230.080795
394.320648	173.533401
394.487854	96.55336
394.562927	45.433659
394.667267	196.347107
394.690552	75.464973
394.715637	32.192791
394.73764	87.919662
394.762268	20.86026
394.855011	101.685898
394.952271	87.444038
394.999603	176.070297
395.049103	68.049332
395.280762	100.155701
395.396271	73.1465
395.576294	82.703201
395.606598	24.805519
395.716461	44.301971
395.870361	15.21111
395.891144	23.830971
395.932678	4.249
395.972778	26.483549
396.036163	32.55777
396.071472	22.56842
396.24704	14.62563
396.313141	22.962429
396.527954	21.002171
396.773865	22.56411
396.957886	16.88118
397.001953	5.938793
397.123779	12.2133
397.367035	4.23
397.491302	11.05708
397.658203	9.106667
397.720642	4.400758
397.935303	22.803949
397.965149	9.36
398.08847	4.753125
398.456787	11.71201
398.484161	6.223113
398.624695	20.005739
399.339355	14.41689
399.721252	24.208
400.083038	8.448076
401.016479	9.187931
405.353943	8.412755
405.599121	6.242105
408.344055	4.667593
414.327576	11.38824
414.659973	10.55858
434.362305	10.52273
454.265167	15.20119
486.362244	30.25106
514.361938	5.35625
599.486206	35.680382
734.913147	26.08638
751.384766	9.605769
1066.221191	11.72089
1071.428711	8.459507
1178.72876	12.66777
1652.388062	15.51905
END IONS

BEGIN IONS
PEPMASS=396.043
CHARGE=1
MSLEVEL=2
SOURCE_INSTRUMENT=LC-ESI-qTof
FILENAME=Cefdinir.mgf
SEQ=*..*
IONMODE=Positive
ORGANISM=GNPS-SELLECKCHEM-FDA-PART1
NAME=Cefdinir M+H
PI=Sirenas
DATACOLLECTOR=Ed Esquenazi 
SMILES=C=CC1=C(N2[C@@H]([C@@H](C2=O)NC(=O)/C(=N\O)/C3=CSC(=N3)N)SC1)C(=O)O
INCHI=InChI=1S/C14H13N5O5S2/c1-2-5-3-25-12-8(11(21)19(12)9(5)13(22)23)17-10(20)7(18-24)6-4-26-14(15)16-6/h2,4,8,12,24H,1,3H2,(H2,15,16)(H,17,20)(H,22,23)/b18-7-/t8-,12-/m1/s1
INCHIAUX=N/A
PUBMED=N/A
SUBMITUSER=mwang87
LIBRARYQUALITY=3
SPECTRUMID=CCMSLIB00000004544
USI=mzspec:GNPS:GNPS-SELLECKCHEM-FDA-PART1:accession:CCMSLIB00000004544
SCANS=1
102.000053	561.36322
104.048874	68.745163
106.028976	64.698143
107.061089	27.34959
108.04335	211.063599
112.037781	47.813499
116.026855	25.949551
117.045143	27.991739
119.059181	27.451759
121.076218	135.867096
123.023956	127.126503
124.037437	42.506851
124.051613	77.15583
125.349991	32.49641
125.382683	29.00182
126.01165	5833.683105
126.055534	217.8078
126.193741	33.642109
126.219208	26.409361
127.015678	59.314999
127.977219	92.006653
128.026505	79.541443
129.011292	25.44833
132.043442	25.02347
135.056015	96.564629
135.995026	43.918701
136.020813	49.057388
138.035278	211.828995
138.996246	24.35597
140.045532	46.755791
142.005005	338.688995
142.970718	91.893387
144.021805	45.69305
145.038467	26.85605
147.054794	166.921707
148.040085	79.454742
149.067398	67.213028
151.081604	29.87879
152.016098	1210.23999
152.066788	29.033239
153.049728	63.824909
154.028748	97.137047
155.063416	76.203903
156.020782	52.694401
157.005692	34.943989
157.97908	31.35813
161.033936	92.556358
164.015762	285.149292
165.063843	93.210999
166.029617	246.974792
170.000717	51.624031
170.026886	4080.559082
170.087189	31.134451
170.167511	26.754789
170.205597	28.58901
170.219284	28.03788
173.083099	28.712839
175.047134	123.746803
179.025085	130.496201
181.019119	108.177597
181.042404	173.756393
181.989258	49.012402
182.026413	311.078094
182.603409	26.774509
183.03302	937.660828
183.995865	50.687141
187.026108	234.859497
189.026352	42.79726
193.055389	41.557449
197.010651	209.427002
198.018936	193.689301
198.992126	44.889759
199.026962	1706.833008
207.022507	430.811493
207.039459	57.886292
207.575134	26.192289
208.00412	32.513611
209.011749	1503.369995
209.709473	24.7034
209.972855	27.325211
211.028656	436.268494
211.994141	66.455597
213.001343	771.940186
217.985703	24.444241
225.657318	39.628971
225.68187	82.58461
225.743927	24.35746
225.857956	47.42065
225.910919	39.189499
226.004272	36.3909
226.075714	42.298851
226.335846	52.554871
226.979309	34.620571
227.023438	24235.900391
227.27327	54.768261
227.362411	32.968948
227.438126	43.301029
227.465973	54.15472
227.498795	51.559479
227.54129	35.928551
227.576706	61.892921
227.610825	60.844818
227.661377	29.73778
227.738434	28.252729
237.080856	37.904919
238.009933	40.861382
243.000198	1097.900024
245.015594	290.729187
252.984329	65.034393
253.026337	184.841507
253.989639	40.74667
256.034027	28.65803
258.050568	28.68775
259.059967	25.32008
261.021393	45.958302
263.033051	26.38484
264.023682	30.214569
270.995636	2717.677979
271.064117	32.956921
271.097382	30.50589
288.038513	26.34111
290.031433	27.24004
291.035858	182.1483
302.068634	40.980801
306.049988	56.765732
309.043884	35.620369
316.030151	43.0354
317.021149	78.545937
317.966949	42.689041
319.031403	106.093201
322.055481	110.342201
324.057434	135.632904
332.024078	56.430641
334.033997	29.33847
335.026184	392.056396
350.037628	163.457108
352.008087	31.596081
362.048065	45.196171
363.023132	236.541397
368.047089	189.248199
378.030334	96.162804
393.359467	28.36908
393.490265	76.741371
393.548004	53.484241
393.578094	40.992851
393.620087	37.336441
393.815399	40.58437
394.697906	41.5812
394.738007	42.783428
395.975708	46.077518
396.043091	21315.439453
396.344238	83.205383
396.383698	46.494629
396.471375	84.076332
396.511078	28.57671
396.532379	29.480539
396.558411	64.181587
396.604797	65.79689
396.649414	26.728279
396.704529	78.368843
396.775055	51.818161
396.796661	32.841869
396.867798	36.99416
396.911285	54.457161
396.935669	47.061569
397.247131	28.128969
400.022217	29.149401
END IONS

BEGIN IONS
PEPMASS=247.145
CHARGE=1
MSLEVEL=2
SOURCE_INSTRUMENT=LC-ESI-qTof
FILENAME=Nefiracetam.mgf
SEQ=*..*
IONMODE=Positive
ORGANISM=GNPS-SELLECKCHEM-FDA-PART1
NAME=Nefiracetam M+H
PI=Sirenas
DATACOLLECTOR=Ed Esquenazi 
SMILES=CC1=C(C(=CC=C1)C)NC(=O)CN2CCCC2=O
INCHI=InChI=1S/C14H18N2O2/c1-10-5-3-6-11(2)14(10)15-12(17)9-16-8-4-7-13(16)18/h3,5-6H,4,7-9H2,1-2H3,(H,15,17)
INCHIAUX=N/A
PUBMED=N/A
SUBMITUSER=mwang87
LIBRARYQUALITY=3
SPECTRUMID=CCMSLIB00000004650
USI=mzspec:GNPS:GNPS-SELLECKCHEM-FDA-PART1:accession:CCMSLIB00000004650
SCANS=1
100.070923	9.421429
100.552048	11.43553
100.558815	5.442105
100.936424	7.0225
101.000168	49.373241
101.027153	3.85625
101.26812	10.10227
101.362793	12.22382
122.102287	7.268903
123.846283	6.270349
124.088448	76.820824
124.493675	9.24515
124.816055	7.800581
125.153816	10.85
125.200226	10.69095
125.263435	11.63929
125.281578	53.12632
125.29982	79.565697
125.308212	14.425
125.326874	25.68951
125.334877	13.15858
125.358002	45.987209
125.37265	67.827583
125.386597	31.82873
125.404686	80.250679
125.421059	90.099548
125.442337	53.576401
125.461594	48.901249
125.468452	41.41774
125.489067	55.44986
125.497795	105.078796
125.50399	38.02861
125.520599	26.14167
125.530205	24.402651
125.540184	29.903999
125.575516	30.554899
125.595406	22.33136
125.608467	45.342129
125.638649	8.355645
125.660912	18.982731
125.677856	116.689499
125.688789	21.68285
125.695961	64.897324
125.715614	37.03511
125.732368	22.05106
125.761803	29.51922
125.80426	12.245
125.817429	22.40637
125.853958	24.570999
125.89389	34.788738
125.964508	27.879539
125.979057	14.31029
126.020065	18.210461
126.055336	115430.398438
126.102638	28.14115
126.117722	14.00516
126.149948	6.026613
126.181358	28.36953
126.22052	26.466669
126.248039	23.41745
126.272385	44.914761
126.312317	15.08643
126.382706	60.930641
126.398277	106.295998
126.431496	24.845909
126.442146	66.177353
126.451729	22.85017
126.516159	93.577003
126.532318	12.40049
126.550697	40.093109
126.557968	16.57942
126.581131	65.217453
126.600639	40.444641
126.616501	94.899986
126.630692	28.88937
126.650475	15.83768
126.704208	44.008862
126.732559	18.2017
126.747063	24.324829
126.762321	16.438629
126.785713	12.13064
126.803429	21.51696
126.830421	25.40012
126.864265	19.626671
126.902199	13.68989
126.92186	13.20848
126.944794	19.17415
126.976952	46.197201
126.999428	16.92371
127.033524	9.200862
127.058105	728.85968
127.138535	32.290661
127.155167	33.932018
127.363022	9.6
127.406219	6.753723
127.422371	20.814791
127.539803	9.603461
127.632584	17.07424
127.674973	20.40156
127.772987	10.82227
127.819359	8.283334
127.834595	14.0
127.848305	5.514131
127.893806	7.839517
127.987389	12.698
128.028015	12.74091
128.196442	9.824074
128.226044	6.903125
128.233414	9.969231
128.381927	15.02585
128.57579	13.93333
128.754822	14.72561
128.792191	3.440909
129.133194	14.66993
129.258804	9.56875
129.382523	8.873485
129.626968	8.632692
129.713745	7.807407
132.05397	8.407408
133.510422	10.19292
134.098877	41.05888
152.945404	65.463638
153.893082	20.98254
154.152512	8.80051
166.991974	12.32821
167.301819	3.403571
168.917664	297.653107
168.990555	115.583
169.057251	5.232895
169.151443	2.2125
169.221161	7.934259
169.341537	2.225
169.523041	3.432143
175.947754	8.978
179.112717	6.817391
186.925491	31.91
189.112335	5.530882
204.260712	4.232895
229.134888	105.081902
230.027252	7.061765
230.634705	6.453333
245.488266	4.83141
245.581787	6.4
245.833023	7.608334
245.880981	7.228125
245.956482	18.85824
246.788498	8.181818
246.928375	76.781326
246.971649	9.538462
246.997696	38.20118
247.022491	10.36129
247.144058	4416.869141
247.212128	26.4196
247.236023	41.903149
247.248154	23.359489
247.261368	15.675
247.288605	10.35743
247.309097	21.05595
247.328476	7.014286
247.368591	37.384571
247.414597	37.86422
247.455826	11.4564
247.480972	15.78005
247.544098	32.02668
247.616943	7.444566
247.689667	6.423148
247.897934	5.804412
247.948456	16.39476
248.029984	6.939103
248.325882	10.66173
248.934219	9.025
249.972702	18.000271
257.10733	4.820161
359.025513	5.200807
778.012939	8.608696
799.202393	2.4
948.480591	11.65606
983.151733	3.38
1586.59082	3.421552
END IONS

BEGIN IONS
PEPMASS=473.19
CHARGE=1
MSLEVEL=2
SOURCE_INSTRUMENT=LC-ESI-qTof
FILENAME=Didanosine.mgf
SEQ=*..*
IONMODE=Positive
ORGANISM=GNPS-SELLECKCHEM-FDA-PART1
NAME=Didanosine M+H
PI=Sirenas
DATACOLLECTOR=Ed Esquenazi 
SMILES=C1C[C@@H](O[C@@H]1CO)N2C=NC3=C2N=CNC3=O
INCHI=InChI=1S/C10H12N4O3/c15-3-6-1-2-7(17-6)14-5-13-8-9(14)11-4-12-10(8)16/h4-7,15H,1-3H2,(H,11,12,16)/t6-,7+/m0/s1
INCHIAUX=N/A
PUBMED=N/A
SUBMITUSER=mwang87
LIBRARYQUALITY=3
SPECTRUMID=CCMSLIB00000004662
USI=mzspec:GNPS:GNPS-SELLECKCHEM-FDA-PART1:accession:CCMSLIB00000004662
SCANS=1
101.060593	34.410259
101.259033	18.922621
110.035378	18.399509
119.033424	18.123461
136.267944	18.211729
136.295227	32.35815
136.357178	30.90667
136.648315	57.858971
137.025833	90.474998
137.045578	17319.259766
137.095093	179.9841
137.111984	19.33392
137.169998	67.390633
137.177719	34.384472
137.201447	32.347729
137.222809	32.893608
137.234924	20.497089
137.260422	55.126789
137.330597	25.18667
137.379303	58.961128
137.410187	17.44665
137.455536	34.118752
137.482941	33.81115
137.55835	22.83333
137.613983	24.694441
137.691086	28.42284
138.336975	23.33379
235.904877	18.335369
236.049652	22.370831
236.381058	29.44927
236.459778	17.52174
237.098145	5188.543945
237.186371	18.09955
237.239365	61.825489
237.274429	33.47121
237.312256	18.428301
237.403381	25.33602
237.444305	19.12381
237.489487	41.36261
237.82515	23.61381
337.150452	121.437798
373.141449	48.177891
473.184723	186.4814
END IONS

BEGIN IONS
PEPMASS=666.313
CHARGE=1
MSLEVEL=2
SOURCE_INSTRUMENT=LC-ESI-qTof
FILENAME=Natamycin.mgf
SEQ=*..*
IONMODE=Positive
ORGANISM=GNPS-SELLECKCHEM-FDA-PART1
NAME=Natamycin M+H
PI=Sirenas
DATACOLLECTOR=Ed Esquenazi 
SMILES=C[C@@H]1C/C=C/C=C/C=C/C=C/[C@@H](C[C@H]2[C@@H]([C@H](C[C@](O2)(C[C@H](C[C@@H]3[C@H](O3)/C=C/C(=O)O1)O)O)O)C(=O)O)O[C@H]4[C@H]([C@H]([C@@H]([C@H](O4)C)O)N)O
INCHI=InChI=1S/C33H47NO13/c1-18-10-8-6-4-3-5-7-9-11-21(45-32-30(39)28(34)29(38)19(2)44-32)15-25-27(31(40)41)22(36)17-33(42,47-25)16-20(35)14-24-23(46-24)12-13-26(37)43-18/h3-9,11-13,18-25,27-30,32,35-36,38-39,42H,10,14-17,34H2,1-2H3,(H,40,41)/b4-3+,7-5+,8-6+,11-9+,13-12+/t18-,19-,20+,21+,22+,23-,24-,25+,27-,28+,29-,30+,32+,33-/m1/s1
INCHIAUX=N/A
PUBMED=N/A
SUBMITUSER=mwang87
LIBRARYQUALITY=3
SPECTRUMID=CCMSLIB00000004692
USI=mzspec:GNPS:GNPS-SELLECKCHEM-FDA-PART1:accession:CCMSLIB00000004692
SCANS=1
105.066742	26.504169
119.083008	46.955681
135.044434	3.007813
157.098907	20.981939
163.520325	4.004167
167.084457	36.481129
181.083389	25.01042
182.202362	8.822322
183.114853	15.48532
185.131271	10.16736
203.142685	109.573799
205.714294	3.264803
215.334854	1.836806
231.065933	22.698891
231.093384	25.452829
243.132584	10.61343
243.172379	14.12247
245.092087	6.28125
259.135803	14.36736
271.172028	8.264706
273.06604	6.025
277.063568	35.027889
323.822052	5.104167
329.916626	7.052802
339.157257	24.759701
343.164917	28.52857
345.175842	29.82008
355.113037	6.3375
367.113495	22.32143
386.48349	10.14349
392.146393	1.760417
401.174286	3.75
405.071075	2.25625
405.205322	14.53846
406.354218	4.322917
423.316284	8.05
423.574402	9.184028
423.616943	6.03125
431.198914	34.419079
441.226807	92.101707
443.565674	1.765625
449.190674	49.976662
449.208313	37.396969
449.79303	6.84375
450.000183	3.398897
465.330719	3.55625
467.204712	268.719086
467.291443	1.502841
468.006134	13.53204
468.533112	6.420139
468.630798	13.27889
468.962433	6.002976
482.201141	1.520833
482.384247	5.572321
483.210052	3.060096
484.817139	14.75231
484.947296	9.674569
485.21875	307.509308
485.573456	9.974457
485.646881	2.53125
485.744324	4.322917
485.862152	9.541881
485.97467	6.793478
486.182007	12.66716
486.965363	6.389009
487.335022	4.620066
488.039764	5.195602
500.094696	4.27694
500.872986	3.005682
503.22702	390.672211
503.492432	4.755208
503.556122	23.12326
503.913727	5.65125
504.344086	12.53561
546.901672	29.32654
567.000244	26.972321
604.530029	5.3125
604.863647	7.253472
605.248779	8.521739
630.277832	54.779499
639.252747	5.05
647.9422	17.29495
648.30304	250.741501
648.632019	8.250947
648.887024	5.266667
649.32135	10.29002
649.68927	1.375
664.066467	4.620066
666.311584	85.594437
666.372437	3.291118
666.651917	14.1509
667.064087	9.863426
668.034851	3.25
668.510864	3.560096
670.121948	11.9712
847.304077	3.142857
1462.457397	1.265625
END IONS

BEGIN IONS
PEPMASS=352.997
CHARGE=1
MSLEVEL=2
SOURCE_INSTRUMENT=LC-ESI-qTof
FILENAME=Furosemide.mgf
SEQ=*..*
IONMODE=Positive
ORGANISM=GNPS-SELLECKCHEM-FDA-PART1
NAME=Furosemide M+H
PI=Sirenas
DATACOLLECTOR=Ed Esquenazi 
SMILES=C1=COC(=C1)CNC2=CC(=C(C=C2C(=O)O)S(=O)(=O)N)Cl
INCHI=InChI=1S/C12H11ClN2O5S/c13-9-5-10(15-6-7-2-1-3-20-7)8(12(16)17)4-11(9)21(14,18)19/h1-5,15H,6H2,(H,16,17)(H2,14,18,19)
INCHIAUX=N/A
PUBMED=N/A
SUBMITUSER=mwang87
LIBRARYQUALITY=3
SPECTRUMID=CCMSLIB00000005254
USI=mzspec:GNPS:GNPS-SELLECKCHEM-FDA-PART1:accession:CCMSLIB00000005254
SCANS=1
273.0065	131.353607
274.138763	15.5503
276.038239	52.882351
309.004395	121.148003
309.111786	20.63158
350.854065	12.62348
352.996826	623.115601
353.23822	23.120001
353.389069	10.92045
353.554291	31.00128
353.609344	15.025
370.970673	24.962959
END IONS

BEGIN IONS
PEPMASS=327.138
CHARGE=1
MSLEVEL=2
SOURCE_INSTRUMENT=LC-ESI-qTof
FILENAME=Clozapine.mgf
SEQ=*..*
IONMODE=Positive
ORGANISM=GNPS-SELLECKCHEM-FDA-PART1
NAME=Clozapine M+H
PI=Sirenas
DATACOLLECTOR=Ed Esquenazi 
SMILES=CN1CCN(CC1)C2=NC3=C(C=CC(=C3)Cl)NC4=CC=CC=C42
INCHI=InChI=1S/C18H19ClN4/c1-22-8-10-23(11-9-22)18-14-4-2-3-5-15(14)20-16-7-6-13(19)12-17(16)21-18/h2-7,12,20H,8-11H2,1H3
INCHIAUX=N/A
PUBMED=N/A
SUBMITUSER=mwang87
LIBRARYQUALITY=3
SPECTRUMID=CCMSLIB00000005799
USI=mzspec:GNPS:GNPS-SELLECKCHEM-FDA-PART1:accession:CCMSLIB00000005799
SCANS=1
113.025703	23.75392
118.063683	30.8866
123.990089	16.99194
135.991119	19.286461
152.94516	14.8734
155.94603	25.66684
164.04895	17.76833
165.06015	12.53125
166.062469	24.500509
173.757248	9.580504
178.058807	15.80104
179.564682	9.023648
182.079895	16.611111
188.961609	7.442803
191.058578	120.452301
192.067535	1213.813965
192.269958	11.98162
194.080917	13.70435
198.678238	42.68708
200.022858	13.58523
205.182465	9.894817
206.082489	16.127451
206.200333	13.03146
208.099182	17.832041
213.030884	13.92754
215.036255	32.290112
218.087738	13.98512
219.085098	12.31485
225.781616	11.53353
226.027374	92.590721
227.035339	878.498474
227.27626	11.84375
229.052567	115.635902
232.083054	19.229919
233.094147	9.256299
234.102875	86.060791
234.396698	15.88068
235.109787	66.18808
240.044876	27.553711
242.905869	15.83333
243.067352	11.78009
244.063934	175.418106
245.383194	5.80303
246.095123	14.93599
246.908661	9.592628
246.928818	25.575251
248.932495	39.53286
249.977646	7.9375
253.050217	126.873299
255.062653	37.354172
256.063446	33.5056
258.418152	21.283951
265.840942	14.52493
268.014496	13.16789
268.06424	70.431847
268.385986	8.968333
268.408417	21.17374
268.431458	12.82189
268.452271	31.902399
268.469696	9.595239
268.488129	14.70732
268.54187	30.398569
268.594391	9.818561
268.623932	16.838289
268.696777	61.017811
268.744659	52.776199
268.810181	19.140829
269.018097	8.425245
269.09198	8.220109
269.456604	15.68056
269.727478	30.482611
269.849548	12.29637
269.959564	22.440599
269.976318	14.46959
270.079865	32659.699219
270.379883	18.182899
270.394592	5.461436
270.41098	20.014299
270.432617	11.68017
270.463593	97.587807
270.523621	27.60327
270.552795	67.217117
270.568207	29.35129
270.58371	18.878969
270.603271	32.35347
270.631165	22.43219
270.652954	34.593521
270.680603	58.528931
270.704437	12.5
270.730621	53.761341
270.753876	23.05426
270.77182	22.87039
270.817352	57.63039
270.844147	40.654259
270.889069	72.324913
270.935455	34.96838
271.13327	30.49091
271.772003	14.44233
272.153748	14.6976
272.570496	11.25347
280.289307	22.57707
284.088379	30.140011
284.160217	11.98491
287.17392	18.66667
289.176178	13.86231
290.039429	2.463542
292.692993	40.087959
295.690491	17.5506
296.09491	2453.87207
296.424164	21.181061
296.606201	8.900278
298.07785	19.94709
316.983093	14.54833
324.08847	9.707108
324.738403	12.13355
324.85202	9.502315
324.907257	13.55533
324.937744	18.871929
324.984314	46.46468
325.006287	31.42708
325.051361	84.342056
325.073273	193.019104
325.100525	261.649597
325.136261	295.778107
325.160675	361.286713
325.196136	113.0075
325.22113	74.474167
325.241791	352.94989
325.284515	69.0028
325.318085	212.310394
325.344788	215.269104
325.379486	319.087189
325.405853	91.566116
325.432526	171.286896
325.463074	187.129395
325.483002	53.610291
325.509308	52.189308
325.540588	135.7397
325.763489	149.466904
325.804291	17.507139
325.83078	9.333333
325.989624	49.309479
326.044037	248.2733
326.146637	10.60606
326.214355	60.42445
326.326202	137.1091
326.496094	64.76902
326.587433	23.52083
326.694702	70.817932
326.741791	294.375702
326.787689	34.197788
326.805634	47.4002
326.850616	82.78862
326.904877	10.97917
326.944733	119.098801
327.080292	241.651505
327.138489	312895.09375
327.602905	12.8358
327.629364	32.431759
327.705994	103.890099
327.783234	135.069504
327.805756	52.736801
327.834351	148.259995
327.874756	125.802101
327.901947	191.079697
327.95697	140.024094
327.993774	177.922897
328.011658	53.174839
328.048859	304.769592
328.188812	6.041325
328.257874	23.91506
328.423279	143.883102
328.504272	93.921494
328.606689	15.34476
328.631042	49.168892
328.652618	16.590281
328.670074	25.35911
328.721222	69.64463
328.769073	46.122959
328.79187	102.879898
328.814545	55.671909
328.939514	23.417259
329.05658	35.763931
329.080444	47.3713
329.16922	45.59848
329.208221	9.326755
329.239258	33.394192
329.363556	39.09634
329.398499	25.56262
329.472992	31.81167
329.517365	63.21793
329.534607	13.19271
329.690613	12.67426
329.993042	12.125
330.284912	15.34673
330.38382	12.28259
330.576019	14.29953
330.714966	15.33778
330.743896	16.32074
330.889862	10.33373
333.168671	9.338384
333.600739	12.69225
334.074799	2.075
334.20932	12.04167
337.595886	10.36227
365.416443	19.96096
367.126312	11.8951
368.098846	13.93212
378.79541	9.426678
431.771484	28.26716
648.927429	14.00024
921.611267	20.188129
947.106934	4.763889
END IONS

BEGIN IONS
PEPMASS=493.199
CHARGE=1
MSLEVEL=2
SOURCE_INSTRUMENT=LC-ESI-qTof
FILENAME=Cilnidipine.mgf
SEQ=*..*
IONMODE=Positive
ORGANISM=GNPS-SELLECKCHEM-FDA-PART1
NAME=Cilnidipine M+H
PI=Sirenas
DATACOLLECTOR=Ed Esquenazi 
SMILES=CC1=C(C(C(=C(N1)C)C(=O)OC/C=C/C2=CC=CC=C2)C3=CC(=CC=C3)[N+](=O)[O-])C(=O)OCCOC
INCHI=InChI=1S/C27H28N2O7/c1-18-23(26(30)35-14-8-11-20-9-5-4-6-10-20)25(21-12-7-13-22(17-21)29(32)33)24(19(2)28-18)27(31)36-16-15-34-3/h4-13,17,25,28H,14-16H2,1-3H3/b11-8+
INCHIAUX=N/A
PUBMED=N/A
SUBMITUSER=mwang87
LIBRARYQUALITY=3
SPECTRUMID=CCMSLIB00000006140
USI=mzspec:GNPS:GNPS-SELLECKCHEM-FDA-PART1:accession:CCMSLIB00000006140
SCANS=1
114.617142	3.337121
115.053093	495.03891
115.099785	3.482143
115.345016	5.742284
115.444046	4.458333
115.67778	8.136261
116.3675	13.7619
116.384163	4.125
116.40239	19.15222
116.420509	14.54869
116.449852	15.34041
116.473282	64.540497
116.49115	5.068182
116.506592	95.436241
116.522476	45.648041
116.552475	49.692001
116.577538	6.335784
116.58741	12.67188
116.600098	15.00113
116.60891	14.75
116.626732	39.65905
116.637352	14.69565
116.645576	24.54533
116.660782	5.347222
116.676521	23.81609
116.683464	15.62972
116.702522	7.761364
116.720306	17.70595
116.737816	38.84193
116.767838	21.92647
116.889496	8.395202
116.942642	6.371212
116.987358	5.522727
117.070274	32643.640625
117.115463	91.979973
117.149033	24.36742
117.186081	102.114304
117.200104	68.18042
117.230583	50.89373
117.244629	54.2383
117.259789	46.253479
117.270493	60.673241
117.290009	69.744614
117.303146	31.82481
117.314774	18.680559
117.32534	8.957447
117.33374	53.385269
117.359032	22.11009
117.366211	38.32579
117.372185	26.94803
117.3871	24.162951
117.407066	21.17391
117.416893	65.038742
117.422012	23.375191
117.444122	44.067848
117.450691	16.87076
117.463821	38.736439
117.486954	46.96875
117.526825	35.940109
117.551674	43.453949
117.581177	21.24766
117.632034	32.820869
117.643196	37.16481
117.649391	18.65661
117.655556	10.615
117.668449	12.04167
117.68956	15.39519
117.713898	79.476677
117.809052	23.000561
118.03949	14.49781
118.050461	21.441389
118.1446	37.71405
118.508575	3.773809
118.650513	23.07456
118.671036	7.380952
118.876274	1.666667
119.039101	10.16026
120.196106	6.672619
120.669518	11.54167
120.738312	6.338542
125.254341	2.0
183.097916	26.934971
200.239258	6.351191
200.34758	9.773936
210.088028	15.1131
210.099487	5.833333
221.464523	16.95476
224.587112	10.40895
257.096527	36.04623
271.078613	54.96542
283.064026	6.075
286.129211	39.986591
301.08139	252.434402
301.473999	4.694444
301.915497	29.581791
315.071686	6.160088
317.025818	9.198529
317.078369	215.379593
317.100342	5.583333
317.634674	7.416667
329.161804	9.490196
329.204803	15.96014
329.224335	5.107456
330.607147	5.125
331.130524	763.21521
331.361389	10.72803
331.379242	7.265351
331.424713	5.010417
331.671783	8.672222
331.741455	2.020833
332.254852	10.35714
333.303253	5.708333
345.149567	15.36915
356.631012	7.520833
356.729706	10.05235
356.775726	8.333333
356.88739	5.88587
356.913574	10.00119
356.992432	6.383333
359.121674	611.680481
359.290131	3.66886
360.193695	2.449074
368.136322	8.401667
371.721436	31.862749
372.604858	10.70833
372.633209	17.67141
372.684814	6.15
372.715912	25.22283
372.815186	34.090179
372.860046	45.630341
372.915314	10.6681
372.946625	39.60487
372.979523	23.749161
373.008179	51.385731
373.041534	24.88896
373.155945	183.6073
373.184052	15.03125
373.233704	29.776819
373.272491	5.333333
373.339478	3.341666
373.79068	4.669445
374.087921	5.306818
374.183105	22.946659
374.214172	18.743851
374.260498	14.27161
374.763855	18.057619
375.068512	20.400539
375.119873	12177.900391
375.224854	125.752403
375.278717	68.106697
375.312775	54.79512
375.351135	32.30909
375.377808	16.34543
375.397797	5.055556
375.418396	38.89325
375.447784	72.038857
375.483093	43.433781
375.523407	9.684524
375.575684	70.120911
375.598907	15.01667
375.637756	51.106461
375.676117	15.96429
375.703583	66.292389
375.742462	44.264271
375.794647	5.75
375.861267	50.33905
376.009125	25.709431
376.036743	71.694153
376.244873	3.833333
376.456879	26.430031
376.558899	21.201851
376.613647	19.39646
376.660767	8.284091
377.091339	11.33631
377.423248	5.371913
377.991852	15.06136
378.200043	13.4386
379.62149	4.001984
380.477539	4.708333
382.387085	3.490385
386.752991	14.91325
389.164215	53.510971
390.105774	11.37083
390.147766	37.52359
414.674683	12.78922
414.77359	3.440476
414.993225	6.685185
415.145233	20.485609
415.5495	16.00379
417.145325	496.054291
417.512817	8.682971
417.676422	13.52092
417.854187	11.77394
417.975098	3.025
418.011017	9.429762
418.10257	3.761364
441.300354	8.039474
449.208435	238.169006
449.426788	10.71627
449.811157	1.6875
451.10318	24.379629
461.174438	51.415249
472.104706	7.037037
472.172913	15.36594
472.377136	9.399194
474.110352	4.814815
475.186218	671.658081
475.241669	2.854167
475.406403	6.667857
475.657379	6.673611
475.979279	2.916667
476.970001	4.016667
484.705658	7.520061
489.802094	18.755211
489.958771	6.656944
489.997437	7.688726
490.069641	65.031769
490.147217	25.80316
490.187744	12.3808
490.279785	10.22972
490.426941	7.080128
490.685211	15.96003
491.106567	11.66667
491.243896	17.152781
491.299927	10.5307
491.445862	10.0121
491.854706	8.768182
491.98587	7.041667
492.123535	8.069445
492.518402	17.35833
493.091919	32.425968
493.148102	30.54735
493.197968	7125.13916
493.296051	43.564541
493.363037	34.207378
493.396759	14.20833
493.436432	20.04916
493.489532	61.681789
493.548126	33.624001
493.588928	39.20121
493.634979	45.428509
493.677979	50.840031
493.733765	23.349739
493.764343	34.67968
493.798706	77.787277
493.927185	26.348431
493.956024	54.056019
494.02829	10.56944
494.105072	75.460358
494.15799	39.647499
494.327057	27.36585
495.627045	1.720238
496.018219	7.791667
496.434418	18.327829
497.319244	30.59264
498.659912	8.136261
506.411804	5.69697
507.749756	8.481667
544.524536	6.102564
896.917419	5.346264
1001.971313	7.594136
END IONS

BEGIN IONS
PEPMASS=309.16
CHARGE=1
MSLEVEL=2
SOURCE_INSTRUMENT=LC-ESI-qTof
FILENAME=Phenylbutazone.mgf
SEQ=*..*
IONMODE=Positive
ORGANISM=GNPS-SELLECKCHEM-FDA-PART1
NAME=Phenylbutazone M+H
PI=Sirenas
DATACOLLECTOR=Ed Esquenazi 
SMILES=CCCCC1C(=O)N(N(C1=O)C2=CC=CC=C2)C3=CC=CC=C3
INCHI=InChI=1S/C19H20N2O2/c1-2-3-14-17-18(22)20(15-10-6-4-7-11-15)21(19(17)23)16-12-8-5-9-13-16/h4-13,17H,2-3,14H2,1H3
INCHIAUX=N/A
PUBMED=N/A
SUBMITUSER=mwang87
LIBRARYQUALITY=3
SPECTRUMID=CCMSLIB00000006293
USI=mzspec:GNPS:GNPS-SELLECKCHEM-FDA-PART1:accession:CCMSLIB00000006293
SCANS=1
101.001984	45.761909
104.048424	41.440479
120.043655	692.418274
125.060616	27.17391
132.045258	60.010071
133.049469	30.215
134.061676	14.72727
145.058411	48.98148
146.057602	50.50005
148.111038	50.385761
160.110703	93.453484
162.126663	94.411011
163.136917	38.477509
168.98735	78.918419
174.058228	22.70709
187.164398	12.52365
188.105667	580.720581
189.370056	15.42857
190.120834	561.831726
190.192444	18.310829
190.328201	13.42014
190.406525	40.646259
190.463028	12.30682
191.041748	15.92157
200.105881	15.55254
211.086609	285.016815
216.100922	164.598602
230.95697	61.53487
231.103821	65.096733
253.092148	114.641098
260.102142	10.75788
263.149811	17.52355
265.167206	58.506721
272.87793	16.471149
281.159973	21.760559
291.146881	27.798401
307.229919	14.96333
309.130463	14.99322
309.158539	3769.616943
309.239685	23.27648
309.274628	41.994061
309.373108	15.81944
309.429443	16.800871
309.527405	25.440861
309.57486	35.929871
309.61142	21.91468
309.642029	11.9616
309.69101	10.71204
309.755798	28.36006
309.802826	13.27083
309.830109	17.40909
309.853363	16.45833
309.892273	13.0997
309.935944	23.05426
309.973602	12.0375
310.110504	19.12855
310.328033	26.110661
310.665283	21.04623
310.910797	11.5126
311.395294	10.33772
END IONS

BEGIN IONS
PEPMASS=328.119
CHARGE=1
MSLEVEL=2
SOURCE_INSTRUMENT=LC-ESI-qTof
FILENAME=Tranilast.mgf
SEQ=*..*
IONMODE=Positive
ORGANISM=GNPS-SELLECKCHEM-FDA-PART1
NAME=Tranilast M+H
PI=Sirenas
DATACOLLECTOR=Ed Esquenazi 
SMILES=COC1=C(C=C(C=C1)/C=C/C(=O)NC2=CC=CC=C2C(=O)O)OC
INCHI=InChI=1S/C18H17NO5/c1-23-15-9-7-12(11-16(15)24-2)8-10-17(20)19-14-6-4-3-5-13(14)18(21)22/h3-11H,1-2H3,(H,19,20)(H,21,22)/b10-8+
INCHIAUX=N/A
PUBMED=N/A
SUBMITUSER=mwang87
LIBRARYQUALITY=3
SPECTRUMID=CCMSLIB00000006383
USI=mzspec:GNPS:GNPS-SELLECKCHEM-FDA-PART1:accession:CCMSLIB00000006383
SCANS=1
119.048851	55.815788
119.095505	1.671296
135.081253	35.400002
148.685608	9.063725
156.110275	40.674999
160.950378	6.34543
162.414566	12.87792
163.074234	84.277168
163.454041	13.40374
164.032425	49.683819
165.167358	6.160088
165.336929	4.297619
190.076157	4.367424
190.234726	8.350877
190.561142	9.34543
190.983994	4.666667
191.0233	55.455341
191.069321	3559.4729
191.12709	25.67436
191.152924	17.615
191.21962	9.819445
191.258911	18.33889
191.27739	6.107143
191.402573	8.647059
191.4702	2.016667
191.484314	4.333333
191.533875	3.375
191.552155	11.25379
192.477295	8.712037
195.949173	23.268749
196.348083	4.333333
206.17868	15.47368
246.934113	31.022129
248.932236	32.615292
267.903046	97.364052
267.956024	4.083333
267.973602	4.695513
297.986206	5.336111
311.011414	22.41934
328.011932	28.452
328.074341	21.777781
649.537415	9.523809
END IONS

BEGIN IONS
PEPMASS=212.067
CHARGE=1
MSLEVEL=2
SOURCE_INSTRUMENT=LC-ESI-qTof
FILENAME=Nicorandil.mgf
SEQ=*..*
IONMODE=Positive
ORGANISM=GNPS-SELLECKCHEM-FDA-PART1
NAME=Nicorandil M+H
PI=Sirenas
DATACOLLECTOR=Ed Esquenazi 
SMILES=C1=CC(=CN=C1)C(=O)NCCO[N+](=O)[O-]
INCHI=InChI=1S/C8H9N3O4/c12-8(7-2-1-3-9-6-7)10-4-5-15-11(13)14/h1-3,6H,4-5H2,(H,10,12)
INCHIAUX=N/A
PUBMED=N/A
SUBMITUSER=mwang87
LIBRARYQUALITY=3
SPECTRUMID=CCMSLIB00000006428
USI=mzspec:GNPS:GNPS-SELLECKCHEM-FDA-PART1:accession:CCMSLIB00000006428
SCANS=1
105.250214	10.38075
105.284546	13.25347
105.47715	8.674243
106.444077	12.91667
106.450348	24.559879
106.46611	35.236111
106.491203	32.325279
106.513779	54.59549
106.530396	6.345238
106.546265	20.77083
106.567261	29.24678
106.5952	25.400539
106.613243	65.701187
106.645668	23.57407
106.652351	11.39701
106.65963	14.90278
106.673836	27.080059
106.702667	11.32003
106.715958	46.98177
106.749382	11.34444
106.776169	31.33399
106.830864	12.89167
106.851845	5.708333
106.871246	14.59868
106.890045	10.96491
106.912384	15.41071
106.997536	16.373739
107.004547	23.683331
107.037056	42096.421875
107.082512	6.802778
107.179039	87.307213
107.18483	32.75132
107.232361	67.650169
107.250748	47.590092
107.267601	74.340141
107.291641	85.691322
107.311607	19.93405
107.321045	20.86022
107.328217	41.146751
107.343361	31.26347
107.359482	94.033661
107.375198	126.016602
107.403297	68.995667
107.417709	46.282139
107.428429	32.395828
107.436066	22.219589
107.456825	23.846149
107.469414	24.66725
107.483887	6.671875
107.492233	78.935509
107.514778	50.112961
107.52166	47.013889
107.552429	15.11031
107.559723	20.71558
107.574051	10.51923
107.591843	40.103851
107.601387	34.16922
107.638374	7.898148
107.650543	38.65419
107.686089	14.93667
107.696587	16.14982
107.819572	8.083333
107.830666	24.88435
107.844879	27.66818
107.891869	9.371913
107.923668	13.43056
107.935883	12.86739
107.981415	6.296568
108.041573	233.510193
108.067879	2289.26001
108.113068	26.714741
108.126938	17.01449
108.141312	14.0
108.207695	8.375
108.213768	15.08046
108.278831	4.008333
108.311592	12.92014
108.387825	6.906746
108.42865	15.13565
108.473877	10.86833
108.761017	12.82315
109.29641	21.774191
109.379677	7.653986
109.560471	8.491228
109.764702	17.23485
109.81691	52.668861
110.224205	11.00397
110.358429	15.22685
110.509277	6.688889
110.677567	3.695513
111.080521	6.002193
111.39093	19.044359
117.288048	6.422101
124.397064	12.00397
131.744415	26.32675
131.874084	7.388514
132.443253	10.54688
133.33577	16.420139
133.55246	14.52006
134.199371	8.083333
134.365753	8.704545
134.653137	6.125
134.68544	10.75321
134.919708	10.24242
135.055496	1109.521973
135.143204	42.81831
135.196152	10.64651
135.211884	31.261511
135.246582	8.240079
135.267166	18.678761
135.290054	41.48761
135.302948	23.31872
135.311691	58.054611
135.327454	95.928703
135.35144	47.518749
135.361374	32.53146
135.380173	104.407501
135.396423	26.690081
135.425842	77.174294
135.473709	171.156403
135.494141	22.791901
135.53064	6.669445
135.542358	39.46944
135.584732	5.444445
135.595383	10.00962
135.625351	28.21982
135.670395	6.958333
135.688324	53.71875
135.703751	18.27899
135.720413	10.67262
135.752335	72.055511
135.789902	19.21121
135.850769	22.338619
135.857773	17.767321
135.86998	33.843948
135.883148	10.33435
135.945206	17.31802
135.975769	21.11574
135.983093	106.354301
135.992767	11.09399
136.008896	10.02778
136.018311	12.74094
136.063477	94913.5625
136.111206	56.747421
136.159058	3.675926
136.197876	24.575979
136.215652	13.48302
136.264374	15.20833
136.408829	10.54167
136.417542	24.222099
136.436844	53.01033
136.450455	107.690002
136.507675	72.67131
136.526993	58.761902
136.545837	47.237049
136.569229	39.045959
136.579865	29.17326
136.604813	67.070473
136.634415	8.22449
136.647949	72.090073
136.666245	57.559921
136.691193	30.50506
136.702957	50.814758
136.713577	50.156479
136.723969	16.2041
136.733459	29.63063
136.768097	24.39962
136.775742	30.883539
136.786377	8.45489
136.798508	51.859291
136.828674	22.94722
136.853775	11.22715
136.875626	24.355551
136.903381	23.894711
136.917557	11.37255
137.024796	26.426371
137.041214	25.80559
137.065964	544.537292
137.095871	15.90577
137.128082	22.11343
137.155731	16.380751
137.477478	7.001068
137.583435	9.2
137.815414	12.29643
137.845596	15.0789
137.92926	6.964285
138.264496	17.226191
138.335419	10.38313
138.362823	5.888889
138.57489	6.291667
138.614304	4.458333
138.630203	13.7619
138.78067	27.45208
138.855545	7.667857
139.183701	9.670834
139.331497	6.04529
139.506073	13.5
139.602661	6.125
139.734207	22.343451
139.776199	12.89286
139.909683	7.787037
140.030991	6.371212
140.219788	6.688726
140.393234	24.45509
140.701553	12.43056
143.780823	3.802778
150.947891	31.07164
151.047729	39.621429
164.398956	8.45
165.064713	151.130707
210.851166	10.18561
212.065628	1985.831055
212.475845	14.36915
212.49614	8.920045
212.53334	4.013889
213.000519	13.26754
213.898102	5.017857
215.978958	14.68333
738.022461	10.66667
798.29541	5.121212
861.031372	7.306159
1041.937134	10.01389
END IONS

BEGIN IONS
PEPMASS=426.17
CHARGE=1
MSLEVEL=2
SOURCE_INSTRUMENT=LC-ESI-qTof
FILENAME=Domperidone.mgf
SEQ=*..*
IONMODE=Positive
ORGANISM=GNPS-SELLECKCHEM-FDA-PART1
NAME=Domperidone M+H
PI=Sirenas
DATACOLLECTOR=Ed Esquenazi 
SMILES=C1CN(CCC1N2C3=C(C=C(C=C3)Cl)NC2=O)CCCN4C5=CC=CC=C5NC4=O
INCHI=InChI=1S/C22H24ClN5O2/c23-15-6-7-20-18(14-15)25-22(30)28(20)16-8-12-26(13-9-16)10-3-11-27-19-5-2-1-4-17(19)24-21(27)29/h1-2,4-7,14,16H,3,8-13H2,(H,24,29)(H,25,30)
INCHIAUX=N/A
PUBMED=N/A
SUBMITUSER=mwang87
LIBRARYQUALITY=3
SPECTRUMID=CCMSLIB00000006574
USI=mzspec:GNPS:GNPS-SELLECKCHEM-FDA-PART1:accession:CCMSLIB00000006574
SCANS=1
119.061378	168.214905
119.146385	25.667761
119.628242	8.760417
147.05513	550.533997
147.204681	18.54735
147.238495	15.26042
147.328003	5.785714
147.581253	10.26042
148.444901	7.898026
174.010239	8.55388
174.096939	22.20417
174.285843	9.8125
174.319794	16.388889
175.086075	2742.420898
175.116974	46.802502
175.145584	27.12981
175.232239	33.58437
175.25502	26.105261
175.301575	4.0
175.320496	6.1
175.352249	13.00568
175.449387	23.877781
175.463486	12.84028
175.831192	17.296049
175.877808	4.520833
245.488464	25.72299
245.531921	46.04195
252.093094	94.938751
258.158783	41.162239
332.92038	13.75
392.271332	14.3288
408.237274	33.088821
415.424774	17.578529
419.757446	13.02083
422.138153	10.5625
423.316681	24.235291
423.359406	135.597397
423.400665	5.460227
423.440918	101.558998
423.504486	11.18382
423.529114	35.666672
423.555542	33.407501
423.582764	92.80394
423.624695	71.819023
423.67807	115.5821
423.712769	22.67873
423.752258	75.632103
423.775299	30.27841
423.805237	24.62162
423.907318	15.4225
423.975159	98.138382
424.011658	22.98818
424.220917	28.091721
424.4133	42.386909
424.52121	29.090059
424.648804	4.1125
424.702087	17.64583
424.735077	58.022179
424.794617	40.440109
424.85144	32.702888
424.937561	13.00216
425.002106	23.40625
425.048401	20.63158
425.170654	9.1875
425.253143	19.11635
425.389465	4.5
425.461639	8.909091
425.596252	215.7677
425.640656	26.0
425.951843	32.240318
426.057495	46.803329
426.170074	50299.410156
426.255981	72.5
426.325348	59.53093
426.392914	48.640369
426.52832	124.706802
426.647034	160.162003
426.726318	157.063797
426.780396	175.832794
426.839722	94.547302
426.875244	127.251999
426.92276	65.457672
426.944458	134.456299
426.992401	60.381721
427.102325	108.054703
427.253723	70.314308
427.314758	120.137299
427.398621	43.86161
427.473328	80.371758
427.564453	6.5625
427.627625	22.5
427.674622	25.038111
427.699066	32.984219
427.953186	6.889423
428.055634	14.75762
428.372467	26.0084
428.520569	9.180555
428.602875	27.337839
428.631653	65.524208
428.804504	14.50568
429.050079	24.532261
429.203613	17.654409
429.242584	8.735577
429.531982	31.628201
429.582886	8.0
430.00119	12.55625
430.090057	49.165169
430.210419	15.09091
431.040649	8.507813
431.148987	9.009615
431.560852	12.04167
432.168121	8.613426
432.906128	13.5928
433.854523	8.104167
435.160156	7.1125
443.641144	4.5
END IONS

BEGIN IONS
PEPMASS=611.261
CHARGE=1
MSLEVEL=2
SOURCE_INSTRUMENT=LC-ESI-qTof
FILENAME=CandesartanCilextil.mgf
SEQ=*..*
IONMODE=Positive
ORGANISM=GNPS-SELLECKCHEM-FDA-PART1
NAME=CandesartanCilextil M+H
PI=Sirenas
DATACOLLECTOR=Ed Esquenazi 
SMILES=CCOC1=NC2=CC=CC(=C2N1CC3=CC=C(C=C3)C4=CC=CC=C4C5=NNN=N5)C(=O)OC(C)OC(=O)OC6CCCCC6
INCHI=InChI=1S/C33H34N6O6/c1-3-42-32-34-28-15-9-14-27(31(40)43-21(2)44-33(41)45-24-10-5-4-6-11-24)29(28)39(32)20-22-16-18-23(19-17-22)25-12-7-8-13-26(25)30-35-37-38-36-30/h7-9,12-19,21,24H,3-6,10-11,20H2,1-2H3,(H,35,36,37,38)
INCHIAUX=N/A
PUBMED=N/A
SUBMITUSER=mwang87
LIBRARYQUALITY=3
SPECTRUMID=CCMSLIB00000006589
USI=mzspec:GNPS:GNPS-SELLECKCHEM-FDA-PART1:accession:CCMSLIB00000006589
SCANS=1
102.032974	42.187931
104.047195	13.16053
109.100227	21.069929
109.683792	8.1
127.112709	63.90588
133.038895	27.89616
147.053635	373.673187
152.061371	16.18421
160.189728	12.07682
161.033783	55.402382
173.031921	22.851431
174.189789	3.15
175.08577	485.617096
178.069031	56.09914
180.079651	66.423531
187.046967	55.064701
188.042953	27.02717
188.153	12.00045
189.065872	621.179321
189.99971	5.033065
190.336746	15.85615
191.040527	40.754021
191.073654	11.86875
191.153244	4.5375
192.079254	646.260498
194.094482	56.902672
205.072739	61.785301
205.86882	6.402273
206.079178	31.36569
206.423264	3.0
207.090302	570.830994
207.298889	12.23559
207.323151	19.10405
207.469223	7.000362
208.115433	10.30305
209.106964	19.539209
220.056808	12.50658
220.108765	20.738461
221.06897	116.757698
223.126587	21.35
232.900986	3.755556
233.070465	427.321106
233.104172	255.537903
233.173294	14.46428
233.317398	7.236364
233.381317	16.495831
233.545944	5.021429
233.758652	3.0
234.1241	18.913481
235.096268	158.707306
235.12236	490.723114
235.410446	4.53629
236.206421	4.686429
237.927322	17.2449
246.073257	22.889959
250.076523	17.240999
261.97049	11.63205
262.01001	11.43902
262.105347	21.02051
263.128845	2012.557007
263.205048	17.62632
263.414307	11.627
263.504395	10.055
263.597778	6.679348
263.684082	3.094231
263.736633	25.167061
267.33783	6.837121
271.139557	24.648199
282.117523	53.842991
289.163055	14.5587
295.093445	28.470421
308.232025	13.71142
309.102356	49.522148
310.107056	41.691521
316.235229	14.40064
317.17981	27.12044
318.236969	24.0242
321.919617	6.33426
322.097504	48.470131
323.120026	31.961081
324.112457	41.138512
330.149567	16.219561
333.628845	16.321951
336.131439	6.089894
336.207977	9.127112
337.092438	45.18388
337.922607	19.768629
338.10495	1619.994019
338.270935	3.003572
338.323853	14.475
338.476868	11.98778
338.521271	13.28658
338.633118	3.775
338.751556	9.404091
339.751007	6.808333
345.198334	31.01277
347.188477	20.18947
347.457184	6.125
348.083649	15.17143
348.144897	5.223684
349.106445	782.650085
349.268768	6.402631
349.347992	10.09167
349.758759	16.468809
350.090546	446.49649
351.114349	15.20139
351.163025	25.41633
352.106812	256.250214
352.350769	5.800757
352.568695	13.66536
352.768738	17.002781
352.933777	3.832143
352.977966	6.633108
353.150421	41.580872
353.344147	3.313636
354.277679	5.977941
356.503326	18.44375
363.864105	3.048077
364.11731	29.61902
365.102478	57.940849
365.992218	5.955882
366.109131	46.06881
366.13504	24.152559
366.264221	10.21551
366.370758	5.4
367.120087	955.254883
367.279114	18.01882
367.743774	6.238095
377.139557	251.294296
377.174896	73.007668
377.440125	4.405556
377.745117	18.60227
377.942505	10.49136
378.515656	6.033333
380.138489	270.159088
392.693665	8.9
392.902802	12.55156
393.331635	3.404546
393.421692	5.002273
393.656006	7.8
394.020325	1.6
395.045593	14.14382
395.093018	7.832692
395.149323	3267.581055
395.21048	2.01
395.265839	8.067223
395.327576	19.29023
395.386902	7.375
395.454437	15.25603
395.497223	7.12803
395.53009	24.271811
395.594696	16.104349
395.682068	13.10227
395.730072	8.03141
395.944122	15.54603
396.057983	26.248449
396.305206	11.70179
398.146973	20.27615
398.209564	5.441667
400.200684	14.63
401.538635	9.409042
411.138947	70.018097
413.161316	90.136147
414.408722	4.84
416.090942	16.71023
416.15271	4.881757
417.329651	18.81286
418.989075	3.921
420.152802	34.35664
420.338531	35.997841
420.380798	20.55357
420.418579	219.475006
420.475403	286.670105
420.515411	196.366302
420.544281	51.587189
420.591736	108.717697
420.620789	70.352577
420.649841	110.314301
420.689117	69.499779
420.720581	154.568695
420.765411	162.507507
420.817535	29.75161
420.858276	77.981247
420.897522	48.229179
420.952637	124.110397
421.087311	36.400921
421.212982	24.811541
421.235291	4.469828
421.283356	31.49445
421.335754	76.796417
421.368011	46.582691
421.542816	50.662819
421.790649	132.432297
421.963928	5.752027
422.002502	21.01675
422.025177	26.687019
422.120422	11.84038
422.236115	46.523941
422.579956	3.422368
422.866455	11.34423
422.943481	6.2225
422.969452	26.47047
423.044983	97.737801
423.103119	18.594
423.15741	148015.5
423.329712	4.321
423.426056	4.784091
423.667084	5.743889
423.730865	10.0
423.829681	134.829407
423.880219	124.301201
423.907196	50.28223
423.936249	85.74691
423.976929	157.639801
424.069031	112.855797
424.104645	76.530418
424.204224	5.694118
424.28656	87.86718
424.314514	12.27317
424.341034	86.106796
424.393036	115.247398
424.46402	151.566299
424.550934	90.092117
424.588074	11.43104
424.621094	28.16427
424.663239	64.029457
424.689667	26.410391
424.71756	149.443604
424.763977	99.136093
424.860626	60.406811
424.999878	13.23432
425.443359	14.69389
425.571564	26.55378
425.877594	61.623699
426.079651	33.25383
426.148285	31.280741
426.190704	4.407759
426.837311	4.603571
426.895813	13.07202
426.911743	12.60278
426.931244	3.763636
426.952332	4.800807
427.043732	3.378571
427.165588	7.0375
427.376526	5.061364
427.405029	66.608673
427.60672	6.6625
427.708374	12.33136
427.846771	8.859058
428.433655	11.91429
428.97464	7.843085
429.027924	15.0025
429.824127	3.75
431.01532	6.294118
432.976471	9.618181
433.548615	7.402381
435.134003	5.245
438.547058	4.697581
439.177399	33.312672
439.28183	3.601316
439.394501	7.024007
440.111969	8.115
441.165924	1712.104004
441.25885	9.581035
441.310974	23.530001
441.338959	15.58906
441.515839	5.352027
441.610291	11.66429
442.110626	15.04706
442.524597	15.47305
442.547272	3.531522
444.914154	8.400423
449.165619	53.284481
449.190308	36.924999
456.842834	5.089286
462.811859	3.249
465.692017	9.984091
467.183594	228.894897
468.366455	12.64167
472.789062	18.228121
496.999298	20.226561
505.235077	19.95577
523.181702	31.185261
523.246582	390.416992
523.942749	8.788236
524.149292	10.14286
524.462219	13.01678
539.226868	75.679466
550.538086	24.83267
563.656738	6.804245
563.985657	12.42384
564.073425	4.403571
564.193726	4.411765
567.233704	2455.834961
567.327087	6.31413
567.393982	23.843269
567.487061	16.22802
567.522278	18.033779
567.61145	3.845
567.641785	20.49143
567.768005	30.70785
570.026062	6.40051
570.311829	6.497059
602.375671	11.54405
607.225403	17.23472
607.278076	14.35392
607.328796	12.80776
607.385132	37.404049
607.450684	36.739101
607.522644	12.07368
607.576843	12.83636
607.699036	26.108879
608.30481	16.46417
608.360168	23.97743
608.409851	3.208333
608.494934	11.21894
610.495056	16.79516
611.137939	3.925
611.261597	12950.259766
611.361023	45.90313
611.420532	13.29423
611.507996	44.548691
611.543335	6.30625
611.608337	137.108795
611.651428	55.740421
611.69989	90.448036
611.736816	56.033272
611.793945	24.77726
611.824097	73.250069
611.89563	64.827072
611.941406	53.583279
612.013489	48.745869
612.068237	24.69241
612.421753	49.87495
612.548462	57.863579
613.11377	36.054001
613.198792	17.804079
613.233337	8.401613
613.845093	3.022222
615.250854	4.837121
625.779846	3.432143
END IONS

BEGIN IONS
PEPMASS=261.058
CHARGE=1
MSLEVEL=2
SOURCE_INSTRUMENT=LC-ESI-qTof
FILENAME=Plate4_61_88_GH5_01_16506.mzXML
SEQ=*..*
IONMODE=Positive
ORGANISM=GNPS-SELLECKCHEM-FDA-PART2
NAME=Suprofen (Profenal) [M+H]
PI=Dorrestein
DATACOLLECTOR=Garg_Neha
SMILES=C1(=CC=C(C=C1)C(C(O)=O)C)C(C2SC=CC=2)=O
INCHI=N/A
INCHIAUX=N/A
PUBMED=N/A
SUBMITUSER=negarg
LIBRARYQUALITY=1
SPECTRUMID=CCMSLIB00000078278
USI=mzspec:GNPS:GNPS-SELLECKCHEM-FDA-PART2:accession:CCMSLIB00000078278
SCANS=1308
45.113152	192.0
45.984917	244.0
46.379864	196.0
46.461224	164.0
46.515507	176.0
46.538586	164.0
47.150219	172.0
47.31847	168.0
47.814003	200.0
48.137966	208.0
48.478268	156.0
48.648869	208.0
48.680801	200.0
48.785007	208.0
48.910473	204.0
49.14386	204.0
49.72366	172.0
50.027271	172.0
50.402431	164.0
50.659924	156.0
50.848511	164.0
51.127064	156.0
51.362148	276.0
51.396389	188.0
52.284855	152.0
52.828823	148.0
52.99966	176.0
53.061985	196.0
53.397419	208.0
53.909126	156.0
53.957363	160.0
54.361626	140.0
54.445301	180.0
54.717327	152.0
54.804226	176.0
55.868732	216.0
56.262165	176.0
56.332352	296.0
56.610542	156.0
56.718414	180.0
56.787388	156.0
57.138893	168.0
57.453758	188.0
58.464409	176.0
58.57251	236.0
60.315678	160.0
60.694977	200.0
60.907593	144.0
60.993053	152.0
61.215534	144.0
61.689842	176.0
62.118912	144.0
62.818932	164.0
62.91835	172.0
62.93256	156.0
63.796005	228.0
63.902561	144.0
64.756592	212.0
64.772614	180.0
64.841507	160.0
64.924873	244.0
65.05484	140.0
65.281387	156.0
65.308723	148.0
65.932671	164.0
65.971466	160.0
66.275734	240.0
66.449219	196.0
67.000359	168.0
67.12912	188.0
68.29026	180.0
68.905128	160.0
69.005943	184.0
69.356895	148.0
70.637405	232.0
70.886864	196.0
71.303055	208.0
71.516655	188.0
71.966759	224.0
72.25647	208.0
72.95108	164.0
73.093948	192.0
73.12458	176.0
73.225029	164.0
73.979744	152.0
74.051666	204.0
74.164749	172.0
74.398041	144.0
74.638573	156.0
74.986313	192.0
76.364487	152.0
76.693565	200.0
77.115952	144.0
77.985291	160.0
78.018692	188.0
78.194588	140.0
79.029274	140.0
79.048737	164.0
79.529015	160.0
79.653305	196.0
79.699501	192.0
79.905746	156.0
80.133636	176.0
80.27623	164.0
80.611885	132.0
80.658302	148.0
81.105789	192.0
81.572495	180.0
81.586876	216.0
81.824348	152.0
82.520767	192.0
82.848343	176.0
82.940758	172.0
82.957069	176.0
83.365448	200.0
83.984451	172.0
84.678993	156.0
84.777924	164.0
84.922752	180.0
86.726006	156.0
87.037674	152.0
87.450378	260.0
87.911438	228.0
88.812477	192.0
88.874382	200.0
89.013283	152.0
89.082779	148.0
89.82634	204.0
89.979195	208.0
90.177536	164.0
90.351509	140.0
90.39502	212.0
90.440445	184.0
90.453697	152.0
90.9674	184.0
91.024361	144.0
91.052841	168.0
91.149727	192.0
91.225754	152.0
91.330338	248.0
91.882767	236.0
92.272369	176.0
92.371819	148.0
92.544052	184.0
93.367271	252.0
93.912315	228.0
94.147774	164.0
94.457016	140.0
94.613762	140.0
95.345024	184.0
95.446114	200.0
95.520012	152.0
95.767212	148.0
96.125931	148.0
96.149345	188.0
96.178627	144.0
96.998207	144.0
97.037415	236.0
97.055061	248.0
97.200218	152.0
97.524254	168.0
98.069458	196.0
98.410736	192.0
98.562828	140.0
98.718987	208.0
98.974251	200.0
99.07328	208.0
99.638687	156.0
99.895134	240.0
99.964767	180.0
100.267471	188.0
100.934227	176.0
101.516937	160.0
102.08725	152.0
102.137535	232.0
103.053726	1392.0
103.311554	160.0
104.057777	176.0
104.112183	156.0
104.240158	140.0
104.38652	164.0
104.48822	144.0
104.973579	220.0
105.013771	144.0
105.070427	716.0
105.097412	216.0
105.13414	248.0
105.197411	160.0
105.31176	180.0
105.814812	140.0
106.077034	184.0
106.431961	148.0
107.034431	172.0
107.289909	172.0
107.46315	168.0
107.77079	196.0
107.86586	172.0
108.058182	184.0
108.319023	148.0
108.858269	144.0
109.13765	204.0
110.630516	168.0
110.892349	176.0
110.989532	25344.0
111.114624	228.0
111.258057	128.0
111.924805	120.0
111.991638	1532.0
112.834167	164.0
112.985939	980.0
113.521324	140.0
113.77594	176.0
114.258362	176.0
114.403076	164.0
114.490372	196.0
115.365181	160.0
115.778137	180.0
115.872383	148.0
116.660965	168.0
116.860001	188.0
117.234673	152.0
119.312592	188.0
119.959145	192.0
120.013649	164.0
120.113968	196.0
121.02919	712.0
121.064064	344.0
121.997208	188.0
122.338188	200.0
122.668625	160.0
123.607269	156.0
123.784355	232.0
125.811737	172.0
127.444809	208.0
128.450089	140.0
128.482727	140.0
128.579758	176.0
129.085785	196.0
129.266754	164.0
129.385925	264.0
130.132614	148.0
131.045868	316.0
131.103897	152.0
132.055634	588.0
132.440445	196.0
132.628342	160.0
132.69252	180.0
132.866821	180.0
133.061035	348.0
133.346741	172.0
133.437805	104.0
134.031174	180.0
134.101654	160.0
134.219223	152.0
135.41629	260.0
135.708282	148.0
135.750015	236.0
136.028427	176.0
136.051636	184.0
138.90097	212.0
139.222504	152.0
139.52092	196.0
139.598511	176.0
140.361465	144.0
142.655655	144.0
143.217209	200.0
145.356903	168.0
148.47612	160.0
148.692047	228.0
149.05748	192.0
149.978683	184.0
150.789001	156.0
151.290436	144.0
152.055191	148.0
152.809586	140.0
152.954773	260.0
153.073807	204.0
154.075775	296.0
155.393921	152.0
156.888611	176.0
157.422562	148.0
157.509964	140.0
157.629883	252.0
160.045456	160.0
160.380508	152.0
161.319519	160.0
161.96225	220.0
162.03064	152.0
162.461624	172.0
163.043076	196.0
163.625565	172.0
163.87262	164.0
166.058258	148.0
166.81572	184.0
167.072876	148.0
168.020935	212.0
168.067383	148.0
169.113998	180.0
169.367737	212.0
169.974396	148.0
170.527542	156.0
170.883789	180.0
171.027359	360.0
171.177917	160.0
171.498367	164.0
172.029221	132.0
172.309921	144.0
174.1436	152.0
175.884018	168.0
176.026581	216.0
176.153351	148.0
176.364746	144.0
176.946716	196.0
176.967896	148.0
177.054306	13900.0
178.057785	2264.0
178.706375	164.0
179.043259	216.0
179.06282	420.0
180.381165	180.0
182.586685	204.0
183.417099	160.0
184.332016	164.0
185.476822	240.0
186.603409	144.0
186.995117	200.0
187.053711	372.0
187.51532	180.0
188.287415	160.0
189.282822	160.0
190.099701	172.0
191.03096	152.0
192.177185	152.0
195.9646	176.0
196.522232	160.0
197.424469	160.0
198.684921	200.0
199.955002	164.0
200.023712	368.0
200.571823	168.0
201.036301	348.0
203.431671	144.0
203.908859	204.0
205.306717	212.0
205.803223	152.0
206.357513	212.0
206.921143	140.0
209.64415	172.0
210.096832	140.0
213.642761	160.0
214.977219	168.0
215.053375	1108.0
215.310013	168.0
216.065872	220.0
216.491501	156.0
216.913406	204.0
217.049606	236.0
217.852432	188.0
220.140961	144.0
221.300064	152.0
222.257431	204.0
222.94339	200.0
223.017685	248.0
223.041473	164.0
225.342072	144.0
227.168259	160.0
227.789642	148.0
227.918839	168.0
231.375275	140.0
232.645508	140.0
232.827698	152.0
236.480148	268.0
237.016068	196.0
237.055908	148.0
237.248993	144.0
238.055939	148.0
240.053085	144.0
241.52626	240.0
243.050491	184.0
243.718063	172.0
244.047531	184.0
245.6483	164.0
246.072723	236.0
246.888275	152.0
247.633133	140.0
249.946793	144.0
251.184937	148.0
251.412094	180.0
251.55098	176.0
254.830475	184.0
255.556839	204.0
256.598328	144.0
257.753754	160.0
258.063782	148.0
258.108551	144.0
258.185303	196.0
259.071899	168.0
259.124725	172.0
260.035004	204.0
260.15509	220.0
260.193878	192.0
260.33075	152.0
260.513489	184.0
260.561401	276.0
260.69104	144.0
260.72229	112.0
260.801483	144.0
260.875427	184.0
260.914001	196.0
260.964417	436.0
261.058228	65948.0
261.131012	404.0
261.15625	180.0
261.277191	184.0
261.405548	184.0
261.428467	156.0
261.59259	116.0
261.785767	144.0
262.061584	9036.0
262.123383	200.0
262.207123	104.0
262.554993	128.0
262.959442	176.0
263.011078	144.0
263.056976	2968.0
263.115356	136.0
263.163208	100.0
263.319611	152.0
263.543945	140.0
263.752075	100.0
263.797852	156.0
263.850983	328.0
263.932739	96.0
264.009094	116.0
264.051971	204.0
264.21814	120.0
264.398529	160.0
264.953003	124.0
309.156921	160.0
402.330841	156.0
486.477722	156.0
552.002014	156.0
1261.573853	164.0
1312.25	152.0
1331.011597	148.0
1339.404175	188.0
1339.870361	152.0
1388.45874	148.0
1396.278931	164.0
1436.373291	176.0
1437.754028	168.0
1473.663818	148.0
1479.430176	172.0
1531.78833	148.0
1542.806885	204.0
1548.59729	192.0
1563.356812	184.0
1580.313965	168.0
1591.719849	184.0
1615.390503	184.0
1615.718506	156.0
1642.880127	268.0
1648.047119	156.0
1653.732056	152.0
1695.24292	192.0
1702.8479	180.0
1706.315552	220.0
1717.234375	180.0
1719.107178	140.0
1722.459106	144.0
1725.665527	204.0
1730.455933	168.0
1738.869629	164.0
1744.393188	160.0
1756.458862	200.0
1758.202637	200.0
1763.5979	148.0
1784.673096	152.0
1785.959717	168.0
1804.528931	224.0
1814.519165	180.0
1824.639038	204.0
1836.014893	196.0
1848.88916	204.0
1849.856445	176.0
1853.933228	224.0
1855.193237	156.0
1866.904541	180.0
1869.123901	204.0
1869.347656	208.0
1869.52832	184.0
1874.204102	176.0
1878.230103	176.0
1881.025757	180.0
1882.467651	180.0
1886.995239	160.0
1887.263306	152.0
1892.818237	176.0
1893.337891	156.0
1900.003418	164.0
1904.152466	172.0
1911.851685	184.0
1915.581543	176.0
1917.271851	180.0
1921.09082	164.0
1922.408325	180.0
1931.380737	204.0
1938.375732	164.0
1939.725464	212.0
1944.496826	192.0
1945.594116	204.0
1947.18335	156.0
1951.172607	180.0
1960.634888	296.0
1961.040283	168.0
1976.69812	160.0
1980.522583	148.0
1984.803101	164.0
1986.168823	156.0
1987.65918	220.0
1988.457886	168.0
2002.442871	172.0
END IONS

BEGIN IONS
PEPMASS=311.154
CHARGE=1
MSLEVEL=2
SOURCE_INSTRUMENT=LC-ESI-qTof
FILENAME=Plate5_21_40_GH7_01_16509.mzXML
SEQ=*..*
IONMODE=Positive
ORGANISM=GNPS-SELLECKCHEM-FDA-PART2
NAME=Bifonazole [M+H]
PI=Dorrestein
DATACOLLECTOR=Garg_Neha
SMILES=C1=CC=CC(=C1)C(C2=CC=C(C=C2)C3=CC=CC=C3)N4C=NC=C4
INCHI=N/A
INCHIAUX=N/A
PUBMED=N/A
SUBMITUSER=negarg
LIBRARYQUALITY=1
SPECTRUMID=CCMSLIB00000078316
USI=mzspec:GNPS:GNPS-SELLECKCHEM-FDA-PART2:accession:CCMSLIB00000078316
SCANS=1264
44.887192	360.0
44.896526	192.0
44.911198	304.0
44.927204	152.0
44.941879	148.0
45.000744	116.0
45.015945	164.0
45.037998	144.0
45.07407	152.0
45.094116	176.0
45.122185	160.0
45.139267	248.0
45.155617	192.0
45.194946	120.0
45.22464	156.0
45.272049	144.0
45.2841	188.0
45.30331	164.0
45.324291	304.0
45.336349	200.0
45.350086	180.0
45.403381	140.0
45.497307	220.0
45.569828	160.0
45.695663	128.0
45.739273	156.0
45.773525	136.0
45.897285	180.0
45.918472	152.0
46.05479	204.0
46.065598	160.0
46.115593	144.0
46.125053	176.0
46.145885	196.0
46.183197	188.0
46.205811	156.0
46.254105	168.0
46.378174	144.0
46.444485	172.0
46.470387	172.0
46.526352	152.0
46.53825	176.0
46.738499	184.0
46.85923	224.0
46.898518	212.0
46.946468	148.0
46.969654	152.0
46.980568	144.0
47.078804	152.0
47.10479	276.0
47.178825	204.0
47.192894	188.0
47.291481	152.0
47.359207	156.0
47.396198	176.0
47.435604	212.0
47.480419	264.0
47.544296	160.0
47.559391	228.0
47.604698	160.0
47.634079	112.0
47.713245	160.0
47.781666	208.0
47.79726	140.0
47.899021	224.0
47.972057	180.0
47.998249	196.0
48.072739	172.0
48.094822	144.0
48.12455	232.0
48.245388	212.0
48.264866	140.0
48.296524	180.0
48.358814	192.0
48.382244	212.0
48.402683	192.0
48.436356	268.0
48.45575	156.0
48.55278	368.0
48.573582	132.0
48.722118	168.0
48.731846	180.0
48.818165	120.0
48.83054	212.0
48.854721	344.0
48.880623	188.0
48.893147	160.0
48.926552	176.0
48.968647	156.0
49.046352	208.0
49.090965	164.0
49.103771	176.0
49.125835	168.0
49.16267	140.0
49.19212	240.0
49.222137	164.0
49.238895	152.0
49.274609	148.0
49.358311	220.0
49.42202	176.0
49.475201	172.0
49.541542	236.0
49.555031	152.0
49.5938	152.0
49.627148	272.0
49.665779	140.0
49.706154	164.0
49.75172	212.0
49.817379	160.0
49.872822	100.0
49.966396	176.0
50.026909	184.0
50.048027	188.0
50.164005	124.0
50.211422	160.0
50.397827	140.0
50.498196	144.0
50.547569	160.0
50.74255	184.0
50.821102	148.0
50.870853	176.0
50.880791	212.0
50.957481	140.0
50.97311	208.0
51.024281	212.0
51.058685	164.0
51.088997	168.0
51.123848	228.0
51.168713	316.0
51.210243	228.0
51.25943	208.0
51.293335	232.0
51.340385	184.0
51.354496	192.0
51.57275	212.0
51.584534	192.0
51.620129	152.0
51.645695	140.0
51.663582	188.0
51.710403	160.0
51.789608	164.0
51.804909	188.0
51.855061	164.0
51.874653	236.0
51.907192	328.0
51.925312	168.0
51.947914	132.0
51.984131	148.0
52.004223	172.0
52.051598	152.0
52.104973	172.0
52.170845	184.0
52.212368	164.0
52.271526	148.0
52.302277	156.0
52.395351	148.0
52.421284	156.0
52.530327	164.0
52.601566	156.0
52.622948	172.0
52.633991	148.0
52.663654	156.0
52.673225	200.0
52.704105	160.0
52.749298	148.0
52.862282	156.0
52.90115	180.0
52.962154	160.0
53.005074	216.0
53.053028	188.0
53.13847	180.0
53.151527	152.0
53.196518	216.0
53.25769	156.0
53.308716	168.0
53.321434	200.0
53.388306	152.0
53.495289	212.0
53.521248	168.0
53.662056	164.0
53.805637	116.0
53.818882	136.0
53.841537	180.0
53.892666	176.0
53.904354	196.0
53.945164	156.0
54.003448	148.0
54.07336	120.0
54.090096	160.0
54.105045	132.0
54.123768	168.0
54.153053	160.0
54.188427	192.0
54.330421	208.0
54.376884	192.0
54.525009	176.0
54.541878	140.0
54.622799	128.0
54.64629	140.0
54.659531	180.0
54.696323	192.0
54.728714	160.0
54.747856	172.0
54.77142	148.0
54.78405	160.0
54.818565	196.0
54.828396	360.0
54.932091	156.0
55.007507	112.0
55.020634	144.0
55.036877	208.0
55.069363	184.0
55.12413	172.0
55.14838	200.0
55.163933	180.0
55.200184	100.0
55.236389	236.0
55.298534	148.0
55.399982	140.0
55.428852	216.0
55.46233	204.0
55.501484	172.0
55.573002	148.0
55.609779	144.0
55.662945	128.0
55.678223	200.0
55.695896	168.0
55.715054	156.0
55.763802	148.0
55.890644	156.0
55.969536	140.0
55.988892	160.0
56.000809	168.0
56.090206	172.0
56.227329	180.0
56.260265	152.0
56.290127	172.0
56.322983	172.0
56.339413	180.0
56.363319	168.0
56.385769	208.0
56.409649	164.0
56.457153	244.0
56.491894	164.0
56.553246	200.0
56.571976	156.0
56.602272	192.0
56.635597	176.0
56.664059	168.0
56.680538	148.0
56.697342	188.0
56.712009	140.0
56.734497	160.0
56.774979	164.0
56.789265	160.0
56.854488	192.0
56.970104	232.0
56.991138	172.0
57.003159	168.0
57.08371	136.0
57.099369	216.0
57.109898	156.0
57.120426	180.0
57.144714	248.0
57.179108	204.0
57.198498	172.0
57.221256	172.0
57.266079	120.0
57.402908	264.0
57.480503	204.0
57.567299	104.0
57.66021	168.0
57.71463	212.0
57.752254	236.0
57.769073	224.0
57.789371	308.0
57.810394	168.0
57.832626	308.0
58.074562	136.0
58.147491	156.0
58.182793	152.0
58.235939	144.0
58.289108	204.0
58.313015	148.0
58.36359	148.0
58.575176	144.0
58.594936	148.0
58.619316	164.0
58.676182	168.0
58.72459	144.0
58.807552	148.0
58.942692	248.0
58.962681	216.0
58.981022	148.0
59.047577	196.0
59.072193	260.0
59.091125	144.0
59.113354	144.0
59.147926	200.0
59.164585	188.0
59.178909	180.0
59.2672	176.0
59.327122	164.0
59.394444	172.0
59.458885	248.0
59.486511	164.0
59.535645	236.0
59.607845	200.0
59.681755	144.0
59.717682	184.0
59.730839	228.0
59.760914	196.0
59.781609	148.0
59.793427	112.0
59.83387	172.0
59.838974	164.0
59.845032	216.0
59.867016	108.0
59.894001	140.0
59.904781	192.0
59.940216	144.0
59.978748	272.0
60.041191	212.0
60.07235	256.0
60.096729	176.0
60.12064	140.0
60.173958	200.0
60.290512	148.0
60.302879	156.0
60.352345	144.0
60.402802	160.0
60.469913	160.0
60.494678	160.0
60.514175	108.0
60.54887	220.0
60.63718	160.0
60.700741	176.0
60.719349	208.0
60.745716	172.0
60.864876	108.0
60.883781	168.0
60.922169	120.0
60.986397	188.0
61.003494	160.0
61.057915	140.0
61.089024	228.0
61.118584	168.0
61.137257	140.0
61.185684	140.0
61.222878	156.0
61.238453	208.0
61.255585	148.0
61.300072	188.0
61.314793	228.0
61.350643	140.0
61.397419	172.0
61.470737	140.0
61.505074	152.0
61.537975	156.0
61.689396	144.0
61.709145	184.0
61.767582	140.0
61.809826	204.0
61.850513	176.0
61.869301	200.0
61.916271	180.0
61.997738	220.0
62.037128	212.0
62.051483	152.0
62.105476	276.0
62.163963	164.0
62.19849	172.0
62.225178	196.0
62.268837	344.0
62.301331	188.0
62.3367	152.0
62.365894	180.0
62.487644	168.0
62.522877	144.0
62.713745	176.0
62.738052	176.0
62.957371	140.0
63.082191	152.0
63.147057	168.0
63.178654	156.0
63.193996	172.0
63.213413	128.0
63.317947	160.0
63.329033	212.0
63.375916	148.0
63.387188	276.0
63.45739	180.0
63.501793	236.0
63.516266	128.0
63.547794	420.0
63.622387	228.0
63.712456	140.0
63.741508	164.0
63.824162	180.0
63.847595	196.0
63.87064	160.0
63.895733	180.0
63.983265	156.0
64.02626	164.0
64.077858	204.0
64.22229	144.0
64.248192	176.0
64.282104	196.0
64.318031	204.0
64.376701	112.0
64.396263	140.0
64.42981	180.0
64.504303	188.0
64.548088	140.0
64.579216	96.0
64.610786	216.0
64.644325	148.0
64.682472	160.0
64.705734	248.0
64.732101	164.0
64.749718	144.0
64.78022	156.0
64.897148	184.0
64.990173	180.0
65.112694	196.0
65.145905	140.0
65.169998	168.0
65.186073	148.0
65.260353	176.0
65.31308	180.0
65.441818	192.0
65.485588	156.0
65.50946	140.0
65.53363	188.0
65.565018	152.0
65.577728	164.0
65.670647	148.0
65.736794	208.0
65.764114	156.0
65.924118	176.0
65.946739	192.0
66.000694	172.0
66.02076	200.0
66.051842	140.0
66.080322	152.0
66.212166	148.0
66.255814	184.0
66.354668	164.0
66.376617	184.0
66.464584	156.0
66.495071	176.0
66.506996	204.0
66.531509	156.0
66.572098	204.0
66.592773	148.0
66.665443	164.0
66.679535	152.0
66.700768	164.0
66.866348	180.0
66.916809	200.0
66.936348	216.0
66.981674	164.0
67.100914	172.0
67.112328	152.0
67.130264	256.0
67.153999	116.0
67.213455	160.0
67.272209	196.0
67.297913	148.0
67.32283	192.0
67.378365	192.0
67.389801	176.0
67.411301	124.0
67.537315	168.0
67.551643	212.0
67.581154	212.0
67.599754	200.0
67.711952	132.0
67.786964	132.0
67.811989	140.0
67.84861	260.0
67.935516	192.0
67.9645	212.0
67.97599	160.0
68.000191	428.0
68.113899	232.0
68.163002	136.0
68.186188	196.0
68.223274	100.0
68.281548	184.0
68.306221	152.0
68.36216	144.0
68.559769	176.0
68.789032	200.0
68.800339	184.0
68.805496	156.0
68.840187	212.0
68.878204	160.0
68.89637	188.0
68.917564	160.0
68.981979	176.0
69.003212	332.0
69.025291	148.0
69.041824	160.0
69.056068	236.0
69.080933	116.0
69.19693	152.0
69.212273	176.0
69.28846	184.0
69.305153	160.0
69.360733	156.0
69.397095	168.0
69.410034	184.0
69.648865	200.0
69.671684	144.0
69.702019	140.0
69.752853	128.0
69.77639	360.0
69.842072	152.0
69.904503	148.0
69.997681	300.0
70.019638	128.0
70.099289	164.0
70.22599	156.0
70.251328	192.0
70.266029	140.0
70.30941	184.0
70.339455	140.0
70.362709	172.0
70.487122	128.0
70.509819	192.0
70.527267	184.0
70.61528	156.0
70.653839	216.0
70.668678	188.0
70.692101	232.0
70.713142	168.0
70.733948	160.0
70.75444	180.0
70.879265	140.0
70.911491	140.0
70.945015	156.0
70.956291	244.0
70.975189	148.0
71.023109	140.0
71.04731	168.0
71.144646	172.0
71.164017	192.0
71.176544	160.0
71.19133	204.0
71.210136	224.0
71.230286	208.0
71.25045	216.0
71.368095	212.0
71.438728	160.0
71.463966	156.0
71.475746	152.0
71.557457	180.0
71.610558	152.0
71.674782	176.0
71.691292	208.0
71.728889	152.0
71.773575	152.0
71.880157	228.0
71.918396	204.0
71.954422	180.0
71.967926	208.0
72.166153	200.0
72.238617	164.0
72.322044	280.0
72.423172	164.0
72.636406	164.0
72.690697	260.0
72.767479	152.0
72.856384	192.0
72.882576	160.0
72.921661	160.0
72.97551	224.0
73.011765	240.0
73.023666	140.0
73.037277	212.0
73.059387	156.0
73.118942	132.0
73.157715	196.0
73.204063	212.0
73.224503	228.0
73.260109	128.0
73.33429	164.0
73.351608	240.0
73.410255	292.0
73.43956	240.0
73.466545	296.0
73.485306	164.0
73.504082	140.0
73.525108	148.0
73.547302	208.0
73.559196	148.0
73.596252	180.0
73.656609	152.0
73.694641	172.0
73.827095	168.0
73.842331	180.0
73.874298	168.0
73.897064	140.0
73.929581	180.0
73.951828	240.0
74.155365	100.0
74.222496	164.0
74.303108	164.0
74.363167	216.0
74.380333	172.0
74.412949	176.0
74.428406	144.0
74.451538	212.0
74.467903	188.0
74.531593	216.0
74.551819	156.0
74.602791	152.0
74.612862	340.0
74.629433	144.0
74.644051	184.0
74.689629	176.0
74.767296	168.0
74.81427	248.0
74.838089	164.0
74.877235	152.0
74.908234	188.0
74.975121	132.0
75.018127	184.0
75.186752	164.0
75.206871	208.0
75.226692	184.0
75.246246	184.0
75.273872	140.0
75.299774	148.0
75.349022	180.0
75.474312	140.0
75.491447	132.0
75.574478	356.0
75.631737	176.0
75.647316	192.0
75.659439	152.0
75.742554	164.0
75.75988	188.0
75.830925	164.0
75.843819	172.0
75.896461	228.0
76.043282	216.0
76.162315	160.0
76.204315	384.0
76.250931	176.0
76.31855	248.0
76.356979	172.0
76.475288	228.0
76.551506	164.0
76.605881	180.0
76.777817	252.0
76.80809	152.0
76.823792	236.0
76.846466	168.0
76.859512	208.0
76.87439	152.0
76.918022	200.0
76.993095	228.0
77.007065	192.0
77.036034	140.0
77.077759	120.0
77.10141	184.0
77.117958	120.0
77.134621	196.0
77.168648	160.0
77.198708	288.0
77.303101	264.0
77.327019	140.0
77.391792	148.0
77.439072	144.0
77.460007	164.0
77.477608	188.0
77.51265	172.0
77.579247	172.0
77.59066	140.0
77.615517	252.0
77.717804	200.0
77.745354	200.0
77.843506	176.0
77.898331	140.0
77.944305	172.0
77.978348	152.0
77.993515	188.0
78.034721	164.0
78.193954	156.0
78.290436	152.0
78.327835	184.0
78.37188	180.0
78.407967	184.0
78.422287	304.0
78.458244	200.0
78.474106	264.0
78.516426	184.0
78.588753	188.0
78.65593	180.0
78.692261	124.0
78.721138	140.0
78.809784	172.0
78.825172	188.0
78.864243	204.0
78.897827	256.0
78.969215	280.0
78.991547	184.0
79.052986	208.0
79.122734	156.0
79.181824	144.0
79.289009	180.0
79.327843	176.0
79.345726	160.0
79.39949	212.0
79.4823	148.0
79.522339	220.0
79.542641	188.0
79.558235	204.0
79.613663	156.0
79.665741	148.0
79.709145	208.0
79.745125	184.0
79.782921	184.0
79.828682	164.0
79.850021	180.0
79.878487	148.0
79.935417	168.0
79.955719	196.0
79.976349	180.0
80.119812	120.0
80.156219	180.0
80.177605	184.0
80.190079	212.0
80.22493	152.0
80.266739	264.0
80.352348	168.0
80.370193	148.0
80.441582	216.0
80.460548	128.0
80.520233	152.0
80.591599	192.0
80.607674	228.0
80.621971	216.0
80.638054	144.0
80.65593	228.0
80.732811	140.0
80.767403	200.0
80.809723	220.0
80.954102	164.0
80.976204	204.0
81.012024	144.0
81.05323	148.0
81.069359	152.0
81.085487	184.0
81.174438	156.0
81.202728	164.0
81.251007	208.0
81.279335	128.0
81.330345	300.0
81.391571	200.0
81.444328	160.0
81.474869	176.0
81.49054	232.0
81.550385	156.0
81.622955	112.0
81.661812	176.0
81.737366	156.0
81.764359	156.0
81.805458	96.0
81.896988	144.0
81.954247	160.0
82.004898	200.0
82.061577	148.0
82.121773	200.0
82.155357	152.0
82.167992	180.0
82.260025	160.0
82.290665	152.0
82.313301	116.0
82.328636	272.0
82.359795	176.0
82.377403	216.0
82.39547	176.0
82.432243	132.0
82.44606	148.0
82.476784	148.0
82.54187	188.0
82.725266	108.0
82.849792	184.0
82.989105	184.0
83.005424	156.0
83.021088	132.0
83.080025	152.0
83.10498	180.0
83.123352	212.0
83.16507	196.0
83.203194	156.0
83.314484	128.0
83.372116	148.0
83.393921	164.0
83.45755	204.0
83.492233	112.0
83.519753	176.0
83.552917	184.0
83.679047	108.0
83.821594	168.0
83.894493	128.0
83.909081	152.0
84.076897	148.0
84.151733	280.0
84.188255	160.0
84.223991	120.0
84.270454	140.0
84.29969	172.0
84.312477	172.0
84.362236	180.0
84.41851	204.0
84.436043	212.0
84.560509	168.0
84.591805	132.0
84.663727	216.0
84.684738	212.0
84.704025	176.0
84.76815	168.0
84.824959	168.0
84.874466	240.0
84.893463	200.0
84.946602	184.0
85.037636	156.0
85.112198	128.0
85.155235	180.0
85.201157	188.0
85.239342	148.0
85.253235	176.0
85.302574	148.0
85.363739	324.0
85.445671	144.0
85.468475	172.0
85.502716	168.0
85.566628	172.0
85.642639	156.0
85.682442	132.0
85.71817	220.0
85.790054	168.0
85.817703	156.0
85.860115	148.0
85.906227	144.0
85.935745	144.0
85.954147	144.0
85.994064	280.0
86.07972	152.0
86.107094	180.0
86.127739	184.0
86.175774	152.0
86.290474	272.0
86.313934	144.0
86.410019	120.0
86.492706	176.0
86.533875	116.0
86.569756	140.0
86.593834	184.0
86.668999	188.0
86.719826	172.0
86.810966	148.0
86.849472	164.0
86.904335	156.0
86.927528	144.0
87.037048	124.0
87.098335	156.0
87.14106	160.0
87.167076	168.0
87.295334	140.0
87.370308	156.0
87.414391	204.0
87.442451	152.0
87.5149	160.0
87.572464	176.0
87.634109	164.0
87.684647	132.0
87.720619	208.0
87.775764	152.0
87.951134	152.0
88.112564	116.0
88.180862	152.0
88.271416	348.0
88.340996	188.0
88.515182	192.0
88.5588	148.0
88.662331	216.0
88.676842	196.0
88.736824	164.0
88.786377	188.0
88.824028	148.0
88.924286	120.0
88.966942	140.0
88.989365	140.0
89.022034	320.0
89.038033	208.0
89.164444	184.0
89.238121	164.0
89.275726	184.0
89.392891	156.0
89.426529	148.0
89.494003	196.0
89.524803	112.0
89.623962	144.0
89.732399	136.0
89.786453	204.0
89.816803	152.0
89.841789	224.0
89.923805	316.0
89.959671	296.0
90.004982	268.0
90.037666	284.0
90.064682	196.0
90.094223	176.0
90.322479	204.0
90.368431	124.0
90.4935	236.0
90.50605	356.0
90.589378	140.0
90.757393	228.0
90.853264	192.0
90.870872	216.0
90.890831	200.0
90.906525	132.0
90.928787	208.0
90.943321	212.0
91.021805	280.0
91.054749	5500.0
91.09967	408.0
91.142456	108.0
91.162369	140.0
91.209946	136.0
91.22509	168.0
91.251709	144.0
91.303406	120.0
91.335381	204.0
91.348465	324.0
91.412666	184.0
91.441933	184.0
91.53653	156.0
91.575638	140.0
91.659637	100.0
91.776405	200.0
91.891647	144.0
91.963326	156.0
91.985336	160.0
92.017342	200.0
92.057091	592.0
92.093788	484.0
92.155121	176.0
92.184975	196.0
92.205933	200.0
92.220093	224.0
92.247627	348.0
92.269798	164.0
92.285088	180.0
92.367325	232.0
92.411072	152.0
92.495529	152.0
92.529755	168.0
92.598923	160.0
92.617035	180.0
92.632233	124.0
92.724297	172.0
92.782028	100.0
92.843491	124.0
92.864441	148.0
92.924797	160.0
92.953575	148.0
93.016907	160.0
93.055305	212.0
93.076424	224.0
93.164078	144.0
93.178314	160.0
93.201279	152.0
93.218575	168.0
93.293533	192.0
93.358902	160.0
93.41468	140.0
93.430069	192.0
93.455078	148.0
93.48642	216.0
93.531914	108.0
93.568924	188.0
93.657219	376.0
93.765114	184.0
93.781952	180.0
93.828461	176.0
93.907784	176.0
93.924316	168.0
93.968979	116.0
94.025238	260.0
94.133575	176.0
94.197311	164.0
94.259132	188.0
94.327705	100.0
94.355774	240.0
94.390579	208.0
94.454964	220.0
94.471245	220.0
94.504143	112.0
94.565376	384.0
94.744774	200.0
94.787399	144.0
94.81308	172.0
94.863968	132.0
94.880432	208.0
94.905258	104.0
94.940788	156.0
94.95993	180.0
95.068573	152.0
95.109985	228.0
95.136505	196.0
95.218056	144.0
95.309021	160.0
95.333565	132.0
95.398758	160.0
95.441536	172.0
95.536835	156.0
95.579063	176.0
95.631035	120.0
95.647751	240.0
95.712135	172.0
95.768875	136.0
95.955544	176.0
96.012642	152.0
96.041351	140.0
96.058907	152.0
96.103775	200.0
96.138901	160.0
96.174026	160.0
96.240402	164.0
96.269302	160.0
96.439659	168.0
96.516861	212.0
96.547188	156.0
96.564796	148.0
96.594131	164.0
96.646736	144.0
96.738342	196.0
96.768394	168.0
96.803551	160.0
96.82901	172.0
96.846634	176.0
96.921082	180.0
96.973991	236.0
97.002037	104.0
97.070053	188.0
97.109276	204.0
97.183815	160.0
97.210922	268.0
97.340843	172.0
97.376198	404.0
97.409584	160.0
97.515541	212.0
97.638542	164.0
97.65728	240.0
97.743813	152.0
97.759552	148.0
97.841644	116.0
97.867928	148.0
97.897354	156.0
97.924927	160.0
97.982048	176.0
98.104233	184.0
98.153702	176.0
98.179817	192.0
98.26667	196.0
98.392258	164.0
98.453468	196.0
98.516678	160.0
98.532478	164.0
98.577927	140.0
98.603615	184.0
98.635239	208.0
98.66291	160.0
98.67675	144.0
98.703758	340.0
98.767929	152.0
98.874557	152.0
98.894432	196.0
98.924042	160.0
98.962433	112.0
98.997299	296.0
99.035545	204.0
99.059654	132.0
99.07653	180.0
99.147858	184.0
99.165695	268.0
99.182449	168.0
99.278702	184.0
99.342171	188.0
99.516716	156.0
99.52179	152.0
99.56646	244.0
99.606735	144.0
99.656464	180.0
99.699562	144.0
99.82679	180.0
99.907516	148.0
99.966072	252.0
99.992592	164.0
100.071533	192.0
100.09742	164.0
100.122124	236.0
100.153183	152.0
100.226662	192.0
100.260765	192.0
100.274719	160.0
100.334518	148.0
100.378944	184.0
100.46756	200.0
100.506966	268.0
100.530998	156.0
100.593857	208.0
100.61924	196.0
100.65168	112.0
100.777382	116.0
100.834404	180.0
100.895508	176.0
100.98349	188.0
100.99749	152.0
101.039497	196.0
101.065987	100.0
101.131546	220.0
101.145561	156.0
101.226143	192.0
101.309761	168.0
101.359734	212.0
101.426178	208.0
101.449097	136.0
101.478973	288.0
101.632545	220.0
101.660637	176.0
101.743896	184.0
101.773048	180.0
101.812485	244.0
101.831284	148.0
101.863518	172.0
101.898201	192.0
101.965897	148.0
101.985992	188.0
102.00441	148.0
102.03022	216.0
102.074394	272.0
102.136078	180.0
102.181053	216.0
102.228996	152.0
102.256073	100.0
102.291733	148.0
102.307838	164.0
102.358177	164.0
102.394691	180.0
102.571289	164.0
102.685791	204.0
102.713776	216.0
102.740112	212.0
102.81485	200.0
102.894501	164.0
102.911049	164.0
102.951691	272.0
102.993446	212.0
103.041191	208.0
103.079262	168.0
103.100525	168.0
103.145973	136.0
103.171272	192.0
103.203621	212.0
103.270355	164.0
103.36544	108.0
103.402756	164.0
103.515228	200.0
103.54966	144.0
103.592194	152.0
103.610428	220.0
103.625565	180.0
103.672104	100.0
103.71344	196.0
103.754318	176.0
103.830872	184.0
103.865845	160.0
103.917931	172.0
104.156113	188.0
104.176422	152.0
104.218361	200.0
104.283234	184.0
104.373749	124.0
104.564041	152.0
104.599388	148.0
104.69046	148.0
104.719521	164.0
104.812431	200.0
104.862991	144.0
104.915138	152.0
104.941299	168.0
104.957954	160.0
105.004173	144.0
105.053276	112.0
105.074211	156.0
105.129784	168.0
105.144859	240.0
105.197899	184.0
105.284805	160.0
105.310226	232.0
105.352951	172.0
105.390671	224.0
105.466286	176.0
105.500336	176.0
105.571335	168.0
105.69838	188.0
105.758606	148.0
105.78334	152.0
105.904144	200.0
105.975845	204.0
106.070114	144.0
106.111588	156.0
106.170578	148.0
106.291611	240.0
106.318176	148.0
106.40834	124.0
106.498962	156.0
106.601418	124.0
106.634567	144.0
106.749344	120.0
106.800728	132.0
106.865234	116.0
106.895744	156.0
106.957481	152.0
107.001938	296.0
107.101616	172.0
107.142815	152.0
107.24791	180.0
107.327187	228.0
107.386047	160.0
107.424095	236.0
107.448067	184.0
107.488037	320.0
107.569687	188.0
107.65934	152.0
107.710106	188.0
107.735924	104.0
107.777077	124.0
107.795883	160.0
107.90229	160.0
107.949844	140.0
108.144379	136.0
108.245392	136.0
108.390755	164.0
108.405266	192.0
108.444641	192.0
108.488167	272.0
108.528831	332.0
108.608437	192.0
108.661629	156.0
108.701797	176.0
108.718399	224.0
108.737076	148.0
108.753677	180.0
108.770287	260.0
108.847275	144.0
108.870956	164.0
108.897095	164.0
108.984192	156.0
109.235748	180.0
109.272995	172.0
109.333534	200.0
109.36776	256.0
109.456352	148.0
109.509857	224.0
109.545509	188.0
109.569511	268.0
109.613533	140.0
109.678436	160.0
109.731384	240.0
109.775177	208.0
109.826477	260.0
109.894066	148.0
109.935799	204.0
109.955383	240.0
110.006874	148.0
110.052696	200.0
110.073578	152.0
110.098633	212.0
110.148758	196.0
110.226059	160.0
110.307571	204.0
110.378128	176.0
110.420479	160.0
110.475739	124.0
110.492905	180.0
110.543907	152.0
110.577698	192.0
110.608948	204.0
110.642281	172.0
110.693527	128.0
110.719925	144.0
110.736511	164.0
110.757233	152.0
110.798561	128.0
110.829765	116.0
111.024574	160.0
111.140656	172.0
111.182907	156.0
111.212204	172.0
111.248611	268.0
111.296692	124.0
111.312202	124.0
111.404793	180.0
111.638939	180.0
111.720772	128.0
111.883568	136.0
111.927223	188.0
111.963562	140.0
112.026207	160.0
112.068718	204.0
112.121506	140.0
112.14534	172.0
112.214615	132.0
112.243294	160.0
112.312889	260.0
112.388206	188.0
112.463829	176.0
112.481689	192.0
112.509789	220.0
112.523911	400.0
112.564034	204.0
112.580414	164.0
112.615448	184.0
112.64006	184.0
112.699211	140.0
112.844658	152.0
112.88311	252.0
112.942329	220.0
112.963478	156.0
113.047096	100.0
113.065529	148.0
113.177231	176.0
113.252579	104.0
113.382858	164.0
113.429344	140.0
113.475983	144.0
113.497353	200.0
113.52475	160.0
113.542709	168.0
113.66687	204.0
113.680588	176.0
113.732666	372.0
113.868546	260.0
113.896156	144.0
113.990723	172.0
114.034264	140.0
114.063217	236.0
114.144814	152.0
114.168205	148.0
114.242645	200.0
114.27243	176.0
114.321373	176.0
114.398392	172.0
114.464218	184.0
114.525757	240.0
114.611504	192.0
114.652031	208.0
114.717529	192.0
114.785751	176.0
114.835716	196.0
114.905197	160.0
114.937202	188.0
114.999863	216.0
115.054016	17556.0
115.099792	172.0
115.120224	168.0
115.225685	140.0
115.24939	228.0
115.345116	144.0
115.420837	132.0
115.474899	164.0
115.503349	156.0
115.569565	252.0
115.575645	156.0
115.651443	168.0
115.672394	152.0
115.695938	228.0
115.768936	172.0
115.954132	140.0
116.005997	168.0
116.057793	2000.0
116.162994	164.0
116.253624	168.0
116.463615	156.0
116.494278	160.0
116.59008	204.0
116.657005	176.0
116.696297	184.0
116.775322	164.0
116.956001	236.0
117.027359	244.0
117.055031	156.0
117.085075	172.0
117.130409	176.0
117.199409	140.0
117.4589	172.0
117.474541	124.0
117.558296	172.0
117.680702	164.0
117.80513	168.0
117.842316	140.0
117.88974	152.0
117.918327	228.0
117.97847	212.0
117.993607	212.0
118.01545	152.0
118.064758	128.0
118.168785	188.0
118.186249	168.0
118.264008	164.0
118.339767	168.0
118.424995	204.0
118.502213	172.0
118.534714	148.0
118.653923	140.0
118.694641	164.0
118.746742	144.0
118.87101	136.0
118.959808	152.0
118.974998	184.0
119.119698	212.0
119.159599	204.0
119.200882	304.0
119.269257	136.0
119.30304	156.0
119.318253	188.0
119.337822	176.0
119.417603	292.0
119.455872	236.0
119.491447	264.0
119.554237	104.0
119.592339	176.0
119.646904	248.0
119.669724	136.0
119.753464	168.0
119.791931	140.0
119.86158	240.0
119.958939	216.0
119.991356	164.0
120.040504	208.0
120.085457	160.0
120.101166	144.0
120.128372	212.0
120.29203	156.0
120.414703	156.0
120.446365	148.0
120.52906	152.0
120.545387	172.0
120.707146	208.0
120.726288	164.0
120.763412	148.0
120.837608	204.0
120.88446	132.0
120.901131	200.0
120.966179	152.0
121.008163	204.0
121.086388	148.0
121.267578	156.0
121.304581	136.0
121.348686	152.0
121.5149	204.0
121.575844	228.0
121.620178	132.0
121.65802	144.0
121.683929	140.0
121.721695	156.0
121.772202	244.0
121.789772	256.0
121.868431	184.0
121.927353	228.0
121.945213	188.0
122.09967	188.0
122.119469	180.0
122.370377	180.0
122.502151	168.0
122.519272	108.0
122.564156	152.0
122.626038	176.0
122.684059	176.0
122.749367	156.0
122.906532	304.0
122.938972	180.0
123.099297	192.0
123.258575	220.0
123.402885	172.0
123.480278	180.0
123.685112	180.0
123.704422	272.0
123.776382	184.0
123.885567	160.0
123.917175	164.0
123.937057	164.0
124.033356	196.0
124.055916	144.0
124.079727	224.0
124.104752	164.0
124.368744	156.0
124.41758	208.0
124.604744	144.0
124.748581	168.0
124.801941	188.0
124.826401	328.0
124.84697	112.0
124.927612	236.0
125.080315	156.0
125.142944	176.0
125.269302	156.0
125.290619	252.0
125.32653	220.0
125.358719	148.0
125.421501	200.0
125.536751	388.0
125.572433	192.0
125.654587	164.0
125.688438	192.0
125.705162	316.0
125.741997	156.0
125.769089	172.0
125.880295	156.0
125.934006	160.0
125.959869	200.0
126.01889	180.0
126.044609	108.0
126.065819	144.0
126.090401	144.0
126.138245	168.0
126.153435	152.0
126.237946	200.0
126.320702	144.0
126.340836	144.0
126.438271	176.0
126.506432	156.0
126.609009	196.0
126.688164	236.0
126.730621	232.0
126.777443	156.0
126.882797	172.0
126.90947	116.0
126.92672	244.0
127.045357	156.0
127.136253	152.0
127.235428	152.0
127.334343	208.0
127.376495	200.0
127.41468	164.0
127.448387	192.0
127.479843	164.0
127.519684	176.0
127.576492	356.0
127.609352	188.0
127.645844	184.0
127.72715	160.0
127.767647	156.0
127.878792	304.0
127.913918	184.0
127.996216	316.0
128.024399	164.0
128.060593	232.0
128.082794	164.0
128.171051	184.0
128.219452	196.0
128.371277	168.0
128.397842	184.0
128.434433	148.0
128.45932	108.0
128.53595	152.0
128.613266	152.0
128.675522	196.0
128.862534	256.0
128.946945	168.0
128.974686	224.0
129.019974	184.0
129.116165	180.0
129.14592	160.0
129.184372	180.0
129.264999	132.0
129.435593	184.0
129.455215	132.0
129.51033	156.0
129.587341	188.0
129.607742	148.0
129.647247	176.0
129.672867	184.0
129.88205	156.0
129.902466	156.0
129.936096	184.0
129.970322	176.0
130.01033	180.0
130.069519	148.0
130.101013	348.0
130.115845	152.0
130.192993	144.0
130.226654	160.0
130.308838	176.0
130.490646	196.0
130.515961	228.0
130.569626	176.0
130.603424	168.0
130.624832	176.0
130.745361	160.0
130.79776	176.0
130.874008	172.0
131.061935	184.0
131.088043	280.0
131.158554	304.0
131.179367	200.0
131.194122	396.0
131.254013	240.0
131.296738	256.0
131.317261	144.0
131.385696	160.0
131.482437	176.0
131.558228	172.0
131.593521	196.0
131.671387	196.0
131.829086	208.0
131.906357	156.0
131.933777	188.0
131.997803	148.0
132.082428	172.0
132.173935	188.0
132.241302	220.0
132.278763	144.0
132.302094	184.0
132.322708	184.0
132.425049	196.0
132.488693	316.0
132.533813	160.0
132.591095	140.0
132.736023	124.0
132.806229	164.0
132.853989	188.0
132.953064	212.0
132.969116	140.0
132.99675	132.0
133.070129	188.0
133.169983	160.0
133.210205	164.0
133.325089	168.0
133.551346	188.0
133.612518	204.0
133.720383	392.0
133.757492	168.0
133.791534	172.0
133.812744	164.0
133.840363	184.0
133.924683	144.0
134.042053	172.0
134.114517	144.0
134.137695	136.0
134.225418	148.0
134.346191	280.0
134.428284	156.0
134.468552	144.0
134.513565	208.0
134.55571	140.0
134.672882	172.0
134.704849	176.0
134.788391	208.0
134.813812	140.0
134.840576	176.0
134.873901	172.0
134.894226	116.0
135.00499	188.0
135.049622	368.0
135.066528	124.0
135.088943	288.0
135.15239	104.0
135.172241	152.0
135.255554	164.0
135.29953	184.0
135.318054	152.0
135.437302	196.0
135.473221	184.0
135.63063	120.0
135.672516	168.0
135.88356	300.0
135.933426	136.0
135.95549	288.0
136.053635	284.0
136.192307	196.0
136.218796	164.0
136.270233	316.0
136.359589	212.0
136.433975	160.0
136.454254	144.0
136.476791	260.0
136.506058	160.0
136.544479	208.0
136.604492	148.0
136.631393	176.0
136.706436	112.0
136.778366	180.0
136.802048	128.0
136.84256	184.0
136.912354	140.0
137.046234	172.0
137.172455	156.0
137.19989	160.0
137.237198	164.0
137.373413	352.0
137.420364	224.0
137.470734	168.0
137.505463	204.0
137.538132	172.0
137.575485	168.0
137.629181	184.0
137.694092	136.0
137.735382	176.0
137.77478	212.0
137.956009	144.0
137.993042	236.0
138.066162	156.0
138.089539	232.0
138.11377	192.0
138.159714	156.0
138.185455	180.0
138.269699	148.0
138.321182	276.0
138.370346	148.0
138.492111	140.0
138.643921	252.0
138.676651	116.0
138.808502	188.0
138.916382	216.0
139.007889	176.0
139.026657	152.0
139.051392	200.0
139.107239	156.0
139.13414	152.0
139.323029	108.0
139.375275	156.0
139.414139	224.0
139.441132	124.0
139.525726	204.0
139.632416	232.0
139.852341	148.0
139.878952	128.0
139.896805	212.0
139.995193	160.0
140.03772	172.0
140.072922	144.0
140.091766	256.0
140.196091	172.0
140.261429	212.0
140.352615	100.0
140.381668	272.0
140.40506	200.0
140.459503	148.0
140.556229	180.0
140.579422	188.0
140.622818	200.0
140.64827	184.0
140.697067	196.0
140.728531	260.0
140.761337	152.0
140.819809	164.0
140.863144	248.0
140.9039	304.0
140.942642	196.0
141.06929	9488.0
141.125473	200.0
141.194214	108.0
141.217514	168.0
141.301804	144.0
141.35643	156.0
141.414078	144.0
141.435593	128.0
141.466141	140.0
141.521866	148.0
141.556122	192.0
141.578262	216.0
141.601105	160.0
141.620056	148.0
141.662689	168.0
141.716415	236.0
141.823822	184.0
141.842789	172.0
141.887833	176.0
142.004013	180.0
142.071472	1444.0
142.129745	168.0
142.207382	112.0
142.234177	224.0
142.283508	160.0
142.303009	144.0
142.332428	156.0
142.355713	260.0
142.405121	148.0
142.452637	172.0
142.494736	172.0
142.611832	148.0
142.674728	192.0
142.73175	152.0
142.772186	168.0
142.813934	140.0
142.886902	208.0
143.020813	156.0
143.071045	172.0
143.138138	176.0
143.178177	188.0
143.224396	144.0
143.240494	212.0
143.299561	168.0
143.344559	176.0
143.395462	140.0
143.423477	140.0
143.623169	132.0
143.688004	116.0
143.715836	208.0
143.75499	140.0
143.785843	160.0
143.813705	112.0
143.838516	176.0
143.986542	164.0
144.00795	100.0
144.089264	156.0
144.125107	156.0
144.402405	176.0
144.546997	144.0
144.580933	192.0
144.649796	152.0
144.70488	228.0
144.727859	176.0
144.747009	216.0
144.786011	140.0
144.81691	232.0
144.86702	188.0
145.024902	140.0
145.147171	168.0
145.175949	148.0
145.293228	140.0
145.37085	164.0
145.42305	208.0
145.521484	168.0
145.565155	212.0
145.630035	156.0
145.65303	184.0
145.675171	212.0
145.749649	188.0
145.805679	140.0
145.939102	200.0
146.026108	164.0
146.088654	144.0
146.155243	268.0
146.34816	164.0
146.39653	144.0
146.440079	152.0
146.479736	172.0
146.606308	360.0
146.640503	108.0
146.682999	108.0
146.712875	192.0
146.755066	140.0
146.799164	212.0
146.984909	156.0
147.023514	168.0
147.182831	168.0
147.235962	144.0
147.33017	224.0
147.366409	216.0
147.465485	156.0
147.495132	148.0
147.569427	140.0
147.637131	228.0
147.718765	180.0
147.876648	208.0
147.918091	160.0
148.02916	156.0
148.226883	164.0
148.271408	188.0
148.298065	144.0
148.324738	176.0
148.365158	108.0
148.458084	192.0
148.475052	148.0
148.492035	144.0
148.53569	148.0
148.562378	160.0
148.703369	184.0
148.73793	208.0
148.865768	312.0
148.982346	212.0
149.007202	160.0
149.04422	188.0
149.08931	176.0
149.111862	212.0
149.179184	200.0
149.198288	180.0
149.288605	140.0
149.310486	316.0
149.356781	112.0
149.400482	140.0
149.425797	152.0
149.519714	140.0
149.551346	160.0
149.597595	208.0
149.667786	200.0
149.69986	148.0
149.77536	180.0
149.826508	156.0
149.851883	188.0
149.885422	180.0
149.975098	164.0
150.056122	208.0
150.077225	336.0
150.119003	152.0
150.248276	204.0
150.340988	320.0
150.423981	240.0
150.475235	172.0
150.54335	224.0
150.631531	152.0
150.687729	172.0
150.710861	144.0
150.805023	164.0
150.927521	148.0
151.00795	152.0
151.048462	356.0
151.130264	192.0
151.154724	176.0
151.306488	152.0
151.357895	188.0
151.42157	188.0
151.475449	148.0
151.492599	188.0
151.54895	228.0
151.658249	176.0
151.682373	244.0
151.737366	132.0
151.77565	156.0
151.840652	144.0
151.882355	176.0
151.906876	164.0
152.018143	208.0
152.06163	1140.0
152.107147	156.0
152.19046	116.0
152.278473	164.0
152.353668	180.0
152.383377	164.0
152.430191	160.0
152.454407	460.0
152.560089	128.0
152.637131	156.0
152.73909	136.0
152.783875	148.0
152.815857	168.0
152.857056	232.0
152.965988	204.0
152.990707	188.0
153.06311	140.0
153.274185	168.0
153.332977	152.0
153.38179	228.0
153.443909	172.0
153.513107	236.0
153.54747	220.0
153.570663	148.0
153.742355	308.0
153.7621	212.0
153.803818	164.0
153.841049	212.0
153.863312	188.0
153.887039	184.0
153.986496	176.0
154.056381	156.0
154.080643	208.0
154.160248	184.0
154.194305	140.0
154.278687	144.0
154.312958	148.0
154.332489	160.0
154.472	244.0
154.490814	188.0
154.518723	180.0
154.583237	184.0
154.639481	144.0
154.663483	172.0
154.760376	172.0
154.822479	144.0
154.896988	160.0
155.000809	244.0
155.066818	156.0
155.215149	196.0
155.358063	164.0
155.377396	96.0
155.61618	156.0
155.661545	160.0
155.680344	228.0
155.757721	236.0
155.834732	196.0
155.85675	144.0
155.862228	136.0
155.891891	204.0
155.998764	180.0
156.036606	180.0
156.205154	152.0
156.231934	136.0
156.27681	224.0
156.319611	100.0
156.388474	220.0
156.485809	192.0
156.610886	168.0
156.640778	176.0
156.719055	132.0
156.787308	136.0
156.805222	180.0
156.902435	224.0
156.979736	148.0
157.076279	528.0
157.146637	140.0
157.2267	184.0
157.299088	148.0
157.329971	208.0
157.488846	196.0
157.55629	124.0
157.586273	220.0
157.611267	292.0
157.708725	256.0
158.160461	192.0
158.369644	208.0
158.494522	144.0
158.517075	172.0
158.574722	160.0
158.594925	196.0
158.632034	192.0
158.740173	148.0
158.930618	204.0
158.991043	168.0
159.008606	168.0
159.087708	136.0
159.28479	152.0
159.310928	276.0
159.355133	164.0
159.468216	176.0
159.534576	144.0
159.552582	184.0
159.621597	292.0
159.671021	228.0
159.691528	168.0
159.757385	176.0
159.811493	204.0
159.858032	160.0
160.081863	100.0
160.207993	188.0
160.257187	176.0
160.294739	140.0
160.369354	208.0
160.437332	96.0
160.497833	168.0
160.581055	140.0
160.641586	208.0
160.679428	240.0
160.704666	144.0
160.772797	224.0
160.795502	268.0
160.856857	208.0
160.962112	204.0
161.076981	108.0
161.131348	212.0
161.245056	192.0
161.432129	244.0
161.502945	152.0
161.578827	160.0
161.601639	140.0
161.65918	224.0
161.718002	172.0
161.908966	184.0
161.939926	120.0
162.087753	360.0
162.199265	140.0
162.309982	184.0
162.358994	220.0
162.601822	128.0
162.630463	140.0
162.662384	136.0
162.795029	224.0
163.009155	252.0
163.054382	420.0
163.178268	264.0
163.250275	136.0
163.259521	112.0
163.294128	208.0
163.314926	196.0
163.33429	140.0
163.476761	180.0
163.582916	232.0
163.646591	128.0
163.690033	220.0
163.700363	172.0
163.853149	160.0
163.887741	200.0
163.977448	172.0
164.021118	144.0
164.06337	460.0
164.121216	148.0
164.166428	148.0
164.252731	284.0
164.286987	360.0
164.406799	172.0
164.429886	160.0
164.463058	188.0
164.572525	168.0
164.593185	144.0
164.668793	172.0
164.711792	204.0
164.747681	164.0
164.800156	224.0
164.833969	192.0
164.871704	152.0
164.902878	300.0
164.941803	176.0
164.952042	156.0
165.0112	308.0
165.042389	228.0
165.069824	104684.0
165.184906	156.0
165.311661	108.0
165.389923	156.0
165.426727	144.0
165.541946	152.0
165.596542	112.0
165.649506	120.0
165.673157	332.0
165.74942	136.0
165.782745	196.0
165.854507	180.0
165.992767	192.0
166.074127	13524.0
166.113693	160.0
166.144272	228.0
166.266159	224.0
166.307663	124.0
166.389603	128.0
166.461441	272.0
166.66217	200.0
166.77182	344.0
166.808029	168.0
166.865738	180.0
166.968719	140.0
167.021042	204.0
167.077759	1092.0
167.1633	188.0
167.279846	116.0
167.337982	144.0
167.39447	168.0
167.489868	148.0
167.509949	208.0
167.625229	208.0
167.68071	116.0
167.713501	156.0
167.772141	204.0
167.810822	140.0
167.869019	216.0
168.061066	312.0
168.125961	164.0
168.175507	184.0
168.194702	188.0
168.332031	148.0
168.393097	140.0
168.424683	128.0
168.501434	164.0
168.598114	188.0
168.704437	200.0
168.756058	156.0
168.776474	140.0
168.832382	116.0
168.903198	204.0
168.950821	176.0
168.975632	140.0
169.063095	588.0
169.145676	268.0
169.229263	188.0
169.252228	120.0
169.344528	196.0
169.372299	120.0
169.407959	140.0
169.470139	368.0
169.535904	180.0
169.591217	188.0
169.633408	156.0
169.703415	284.0
169.836929	148.0
169.97316	144.0
170.005096	156.0
170.10553	148.0
170.165237	144.0
170.227554	160.0
170.261307	196.0
170.331436	192.0
170.474335	348.0
170.572479	152.0
170.703094	156.0
170.875931	160.0
170.958023	144.0
171.02829	144.0
171.158127	156.0
171.278503	128.0
171.38768	168.0
171.455429	196.0
171.528397	212.0
171.570114	144.0
171.606613	184.0
171.696609	156.0
171.714813	224.0
171.751678	96.0
171.83873	260.0
171.885696	148.0
171.953552	144.0
171.984879	208.0
172.102356	168.0
172.149353	204.0
172.34111	224.0
172.404327	172.0
172.529495	132.0
172.653717	160.0
172.742996	232.0
172.910568	156.0
172.936264	168.0
173.132629	180.0
173.150955	320.0
173.300278	144.0
173.346542	184.0
173.455154	320.0
173.530914	228.0
173.72348	168.0
173.746445	132.0
174.003159	152.0
174.138809	164.0
174.200119	148.0
174.322433	204.0
174.444519	392.0
174.570709	180.0
174.590439	156.0
174.646988	180.0
174.752213	204.0
174.815353	276.0
175.023315	292.0
175.169418	284.0
175.212692	292.0
175.290726	200.0
175.339417	180.0
175.368408	144.0
175.429047	144.0
175.494949	144.0
175.530441	140.0
175.548676	192.0
175.642624	180.0
175.672333	124.0
175.724884	156.0
175.866714	128.0
175.92247	148.0
175.998901	168.0
176.034714	100.0
176.059006	132.0
176.108444	252.0
176.130951	192.0
176.152084	160.0
176.181076	176.0
176.241562	124.0
176.367081	308.0
176.448502	144.0
176.471863	196.0
176.553833	168.0
176.596146	184.0
176.635818	204.0
176.726227	164.0
176.749588	204.0
176.879257	320.0
176.964035	160.0
176.996536	176.0
177.067322	200.0
177.092636	136.0
177.150269	200.0
177.389175	160.0
177.515106	156.0
177.559433	152.0
177.619766	200.0
177.681702	124.0
177.846741	184.0
177.877197	236.0
177.942307	148.0
178.00531	164.0
178.027267	224.0
178.076233	1712.0
178.191956	156.0
178.238571	228.0
178.255493	180.0
178.309814	192.0
178.461411	188.0
178.585373	156.0
178.696091	220.0
178.729034	328.0
178.883392	204.0
178.917999	176.0
178.939301	164.0
178.969925	176.0
179.05629	120.0
179.081039	476.0
179.192307	164.0
179.239044	164.0
179.289948	288.0
179.312302	268.0
179.357605	140.0
179.418335	104.0
179.525497	244.0
179.629517	236.0
179.669296	136.0
179.71756	176.0
179.759048	196.0
179.778931	152.0
179.842987	228.0
179.947357	160.0
179.983505	256.0
180.012253	100.0
180.055054	472.0
180.079529	264.0
180.173416	156.0
180.286331	152.0
180.337097	152.0
180.403015	140.0
180.583084	168.0
180.695724	148.0
180.733658	208.0
180.786407	152.0
180.841003	228.0
180.898148	96.0
181.322021	176.0
181.340775	320.0
181.370697	244.0
181.490906	188.0
181.665222	172.0
181.734406	224.0
181.7686	160.0
181.792175	152.0
181.847687	140.0
181.879089	172.0
181.914795	164.0
181.992615	160.0
182.077332	184.0
182.121552	144.0
182.172577	152.0
182.253189	148.0
182.369324	188.0
182.474838	136.0
182.533005	192.0
182.575577	228.0
182.7146	304.0
182.815186	172.0
182.856003	260.0
182.91568	248.0
182.944366	148.0
182.971298	192.0
183.007858	276.0
183.052063	192.0
183.079163	1024.0
183.201233	208.0
183.458908	136.0
183.48317	160.0
183.55867	156.0
183.582932	148.0
183.671936	200.0
183.835953	240.0
183.915131	156.0
183.995758	168.0
184.079086	116.0
184.136169	148.0
184.190201	148.0
184.218445	184.0
184.382019	244.0
184.550369	316.0
184.832947	192.0
184.898575	220.0
185.009995	224.0
185.082657	148.0
185.208389	272.0
185.287003	116.0
185.356232	160.0
185.394165	280.0
185.44519	212.0
185.543243	212.0
185.658371	304.0
185.743912	228.0
185.861938	136.0
185.951141	160.0
186.002899	244.0
186.077713	160.0
186.129303	172.0
186.190536	152.0
186.221222	160.0
186.289536	156.0
186.35202	388.0
186.423813	164.0
186.474304	372.0
186.550415	172.0
186.583038	156.0
186.61087	236.0
186.697235	192.0
186.724426	232.0
186.748901	180.0
186.844116	188.0
186.895813	156.0
186.957764	172.0
187.020996	164.0
187.086319	152.0
187.129883	216.0
187.176392	148.0
187.197952	144.0
187.418594	412.0
187.483994	140.0
187.528198	164.0
187.710159	336.0
187.799454	164.0
187.834778	200.0
187.953018	144.0
187.996674	200.0
188.103638	148.0
188.138794	116.0
188.312805	308.0
188.395309	148.0
188.456421	228.0
188.494507	144.0
188.578384	208.0
188.60791	240.0
188.780701	272.0
188.958206	164.0
188.991318	160.0
189.062469	176.0
189.112213	156.0
189.229431	160.0
189.271011	176.0
189.308502	164.0
189.601974	188.0
189.623337	140.0
189.721741	184.0
189.744507	220.0
189.782883	200.0
189.826462	148.0
189.87825	160.0
190.031235	164.0
190.0737	180.0
190.117538	172.0
190.207092	140.0
190.295959	144.0
190.563614	240.0
190.653046	168.0
190.749252	188.0
190.874344	208.0
191.021484	152.0
191.085434	136.0
191.165131	132.0
191.214081	168.0
191.341614	132.0
191.382751	132.0
191.415878	144.0
191.522446	152.0
191.613083	164.0
191.693649	200.0
191.762253	232.0
191.802597	184.0
191.941025	140.0
191.981995	184.0
192.033737	144.0
192.087509	200.0
192.21994	220.0
192.24881	148.0
192.381958	160.0
192.436127	228.0
192.462982	172.0
192.548462	148.0
192.705902	168.0
192.839783	168.0
192.866196	152.0
192.892166	120.0
192.956619	112.0
192.978912	288.0
193.034622	136.0
193.075623	1300.0
193.116409	176.0
193.149719	140.0
193.200775	172.0
193.245041	180.0
193.311462	148.0
193.362091	200.0
193.566116	192.0
193.64505	176.0
193.807632	168.0
193.839172	228.0
193.937225	180.0
194.00943	288.0
194.034378	144.0
194.075897	368.0
194.251633	128.0
194.272308	188.0
194.336685	140.0
194.361664	164.0
194.525162	140.0
194.608688	152.0
194.732468	236.0
194.772537	188.0
194.855881	280.0
194.936783	196.0
194.966446	212.0
195.021164	108.0
195.104523	176.0
195.168259	152.0
195.325684	148.0
195.347931	172.0
195.443604	128.0
195.478699	180.0
195.648483	140.0
195.670761	144.0
195.915833	160.0
195.935333	208.0
196.051163	184.0
196.308014	116.0
196.403641	164.0
196.48175	216.0
196.523605	180.0
196.598938	192.0
196.622696	236.0
196.677094	176.0
196.707794	160.0
196.780243	168.0
196.92807	176.0
197.020554	192.0
197.056686	140.0
197.141907	176.0
197.196594	164.0
197.266769	152.0
197.604858	192.0
197.708405	144.0
197.738785	168.0
197.823151	180.0
197.929535	184.0
197.99675	196.0
198.021957	176.0
198.117188	184.0
198.167618	144.0
198.276901	272.0
198.302124	164.0
198.582504	156.0
198.663849	144.0
198.863068	148.0
198.890244	200.0
198.962524	232.0
199.135849	252.0
199.156677	252.0
199.192154	180.0
199.276901	140.0
199.300659	392.0
199.340485	156.0
199.373596	220.0
199.450104	144.0
199.518906	200.0
199.631073	312.0
199.700455	196.0
199.73616	180.0
199.772842	220.0
199.812866	144.0
199.909485	200.0
199.953171	176.0
199.988113	408.0
200.055527	228.0
200.092575	212.0
200.159058	148.0
200.202789	204.0
200.344162	200.0
200.369995	220.0
200.472382	156.0
200.516815	212.0
200.626755	144.0
200.741684	188.0
200.804398	152.0
200.86644	148.0
200.907257	132.0
201.03009	296.0
201.064301	164.0
201.137329	196.0
201.272842	280.0
201.323669	208.0
201.348755	184.0
201.411224	208.0
201.457352	268.0
201.566605	188.0
201.628296	148.0
201.722046	172.0
201.787079	148.0
201.92923	176.0
202.006592	196.0
202.036636	164.0
202.077225	8396.0
202.174133	148.0
202.230042	196.0
202.369904	120.0
202.419647	176.0
202.469009	148.0
202.554642	312.0
202.623276	96.0
202.750519	180.0
202.79068	224.0
202.854355	180.0
202.874191	140.0
202.972534	204.0
203.010696	188.0
203.081436	1756.0
203.274994	204.0
203.421692	260.0
203.476151	132.0
203.635162	184.0
203.728378	184.0
203.977402	152.0
204.089264	324.0
204.188858	176.0
204.214905	228.0
204.358215	252.0
204.456284	156.0
204.497955	168.0
204.711624	224.0
204.773712	192.0
204.890076	296.0
205.045792	164.0
205.191177	204.0
205.233932	184.0
205.297501	220.0
205.404297	152.0
205.530579	164.0
205.556259	224.0
205.611572	200.0
205.722824	100.0
205.875977	148.0
205.932129	180.0
205.955948	156.0
206.013077	216.0
206.080124	248.0
206.108307	252.0
206.248627	148.0
206.364441	148.0
206.404633	240.0
206.481842	208.0
206.595535	176.0
206.669922	228.0
206.71582	192.0
206.742203	456.0
206.791977	220.0
206.816589	168.0
206.918411	128.0
207.056717	156.0
207.081787	192.0
207.123596	200.0
207.177399	176.0
207.290665	224.0
207.449631	192.0
207.492874	144.0
207.524872	248.0
207.572449	148.0
207.673294	176.0
207.693375	164.0
207.763275	192.0
207.833939	192.0
207.916718	180.0
207.947174	140.0
207.971695	152.0
207.993744	288.0
208.013458	368.0
208.05423	180.0
208.075027	152.0
208.097992	284.0
208.181274	144.0
208.240967	168.0
208.299026	144.0
208.361115	196.0
208.399582	216.0
208.636398	184.0
208.700134	220.0
208.884094	104.0
209.055176	256.0
209.15213	344.0
209.17894	284.0
209.230759	172.0
209.324997	300.0
209.519547	144.0
209.56517	176.0
209.612427	160.0
209.634003	160.0
209.700287	224.0
209.752167	152.0
209.783875	140.0
210.184753	152.0
210.320404	152.0
210.385498	160.0
210.467636	204.0
210.49939	172.0
210.643951	156.0
210.773315	164.0
211.393997	236.0
211.459564	148.0
211.6259	188.0
211.683823	120.0
211.789246	224.0
211.840347	156.0
212.081894	164.0
212.107971	176.0
212.367035	160.0
212.458862	156.0
212.488892	136.0
212.537186	180.0
212.56041	176.0
212.586517	188.0
212.670685	164.0
212.720551	384.0
212.749054	184.0
212.788574	124.0
212.878311	140.0
212.926178	180.0
212.972656	244.0
212.995117	180.0
213.07225	112.0
213.34938	168.0
213.629196	152.0
213.67482	248.0
213.716736	176.0
213.783783	140.0
213.809982	176.0
213.856552	148.0
213.894394	152.0
213.996277	160.0
214.048691	208.0
214.071625	128.0
214.188477	264.0
214.222214	208.0
214.259155	184.0
214.296265	228.0
214.342896	148.0
214.386841	144.0
214.465515	156.0
214.520676	156.0
214.598221	176.0
214.626556	240.0
214.683777	292.0
214.819916	208.0
214.911469	184.0
214.952805	156.0
214.993103	176.0
215.021713	144.0
215.043411	188.0
215.084778	33652.0
215.134247	264.0
215.208023	152.0
215.286438	148.0
215.314407	148.0
215.371872	108.0
215.435394	132.0
215.488892	116.0
215.5186	120.0
215.570389	140.0
215.683731	100.0
215.781189	144.0
215.812897	180.0
215.917801	160.0
215.976181	140.0
216.010147	180.0
216.055634	392.0
216.087509	5528.0
216.19635	184.0
216.283905	140.0
216.364273	196.0
216.403	128.0
216.430176	148.0
216.451874	180.0
216.483154	140.0
216.686188	172.0
216.818817	168.0
216.883362	208.0
216.914764	236.0
216.948349	280.0
217.001144	276.0
217.061356	152.0
217.095932	1300.0
217.181595	168.0
217.246124	312.0
217.327332	200.0
217.423645	96.0
217.457397	160.0
217.494354	168.0
217.519028	192.0
217.558899	148.0
217.595367	120.0
217.622757	120.0
217.697296	252.0
217.723862	208.0
217.765671	140.0
217.80954	184.0
218.002655	300.0
218.060287	160.0
218.104156	248.0
218.136993	188.0
218.218216	156.0
218.300552	144.0
218.407272	148.0
218.436783	224.0
218.535446	196.0
219.042221	184.0
219.08728	148.0
219.190292	260.0
219.214569	200.0
219.384048	172.0
219.445953	176.0
219.485657	172.0
219.608154	160.0
219.737946	140.0
219.838257	176.0
219.95813	196.0
219.99588	268.0
220.017899	172.0
220.056061	148.0
220.127563	148.0
220.248642	148.0
220.408173	208.0
220.43367	248.0
220.479095	160.0
220.522095	128.0
220.598083	204.0
220.629837	284.0
220.749847	132.0
220.838852	228.0
220.95993	176.0
220.998352	228.0
221.020248	168.0
221.052795	156.0
221.114471	152.0
221.153412	148.0
221.181198	156.0
221.304626	148.0
221.443573	172.0
221.499847	172.0
221.555756	188.0
221.582794	180.0
221.654587	156.0
221.705276	248.0
221.825546	188.0
221.955566	140.0
221.996201	176.0
222.056625	160.0
222.146057	148.0
222.260651	160.0
222.395309	152.0
222.496231	164.0
222.689255	156.0
222.793808	144.0
222.928406	192.0
222.954819	216.0
223.016083	236.0
223.049515	156.0
223.307449	156.0
223.407761	188.0
223.420044	136.0
223.427689	152.0
223.495071	112.0
223.545563	220.0
223.627823	248.0
223.697235	152.0
223.744873	216.0
223.828827	148.0
223.981384	264.0
224.096649	140.0
224.138992	208.0
224.228241	116.0
224.284286	148.0
224.325775	176.0
224.358566	180.0
224.396393	140.0
224.540466	172.0
224.609055	156.0
224.699005	192.0
224.728455	172.0
224.812469	160.0
224.847748	144.0
224.912552	180.0
225.017212	176.0
225.068558	128.0
225.088104	256.0
225.113449	140.0
225.214981	180.0
225.311523	188.0
225.341949	208.0
225.378189	184.0
225.531708	160.0
225.555542	156.0
225.651825	176.0
225.759354	412.0
225.857224	184.0
226.077637	1348.0
226.144852	180.0
226.211273	148.0
226.327469	172.0
226.351425	176.0
226.525131	144.0
226.604828	192.0
226.642563	160.0
226.714844	176.0
226.803802	244.0
226.823776	204.0
226.887543	128.0
227.023849	396.0
227.083801	6156.0
227.171036	216.0
227.204391	176.0
227.24527	148.0
227.277634	172.0
227.384766	160.0
227.406677	160.0
227.436981	120.0
227.519394	116.0
227.590088	164.0
227.653015	220.0
227.72493	144.0
227.768097	180.0
227.796646	164.0
227.852112	152.0
227.953522	152.0
227.989594	172.0
228.035599	172.0
228.093323	115600.0
228.169479	164.0
228.303467	352.0
228.434296	172.0
228.470673	132.0
228.538345	164.0
228.583618	168.0
228.650085	156.0
228.691971	148.0
228.717148	168.0
228.766815	280.0
228.860916	136.0
229.096252	16548.0
229.208862	176.0
229.310822	96.0
229.36673	116.0
229.415894	300.0
229.457321	160.0
229.540207	224.0
229.624466	196.0
229.657806	252.0
229.681351	140.0
229.704727	132.0
229.839767	236.0
229.892548	96.0
229.97403	212.0
230.021881	164.0
230.097855	1420.0
230.26387	224.0
230.300125	196.0
230.391327	208.0
230.438629	160.0
230.503235	216.0
230.544785	144.0
230.567169	124.0
230.76445	196.0
230.799393	144.0
230.840118	176.0
230.877182	124.0
230.940094	136.0
230.983505	132.0
231.038834	168.0
231.138428	108.0
231.190109	128.0
231.276733	152.0
231.393875	132.0
231.429916	200.0
231.706741	228.0
231.818298	168.0
231.876434	156.0
231.903717	424.0
231.999741	292.0
232.065186	176.0
232.148651	212.0
232.182632	168.0
232.231155	156.0
232.310516	124.0
232.340363	164.0
232.364639	152.0
232.434418	180.0
232.564911	196.0
232.598297	160.0
232.702744	148.0
232.801727	196.0
232.962692	364.0
233.104462	248.0
233.135498	96.0
233.382095	156.0
233.445953	172.0
233.540237	160.0
233.588898	216.0
233.637344	156.0
233.728851	204.0
233.753189	152.0
233.77449	140.0
233.811813	224.0
233.94693	128.0
234.103256	200.0
234.136765	176.0
234.337799	180.0
234.423126	156.0
234.48407	148.0
234.612091	200.0
234.760132	216.0
234.834274	176.0
234.930679	256.0
234.971954	148.0
235.036026	168.0
235.066544	168.0
235.508392	192.0
235.588394	200.0
235.633499	184.0
235.771973	168.0
235.992264	152.0
236.017166	176.0
236.067917	212.0
236.141891	196.0
236.200012	168.0
236.237244	192.0
236.276306	140.0
236.340729	328.0
236.428696	156.0
236.463547	120.0
236.576401	192.0
236.62648	176.0
236.748734	180.0
236.842804	172.0
236.872589	188.0
236.919388	176.0
236.999039	200.0
237.078705	140.0
237.106293	172.0
237.415924	96.0
237.44046	312.0
237.603027	256.0
237.643417	152.0
237.673599	144.0
237.731506	220.0
237.860809	152.0
237.941086	144.0
238.075882	148.0
238.13855	192.0
238.26001	160.0
238.314407	136.0
238.414383	100.0
238.493561	140.0
238.558105	188.0
238.771164	124.0
238.831772	144.0
238.868851	300.0
238.936371	144.0
239.004059	144.0
239.050766	308.0
239.084946	1960.0
239.146927	244.0
239.241043	192.0
239.28862	140.0
239.320236	264.0
239.3936	232.0
239.561478	140.0
239.605347	176.0
239.729736	168.0
239.789795	300.0
239.821747	260.0
239.850723	204.0
239.880661	240.0
239.943008	396.0
239.987656	200.0
240.020981	136.0
240.092987	1220.0
240.237549	200.0
240.27652	204.0
240.304291	212.0
240.36908	152.0
240.399933	140.0
240.43721	104.0
240.472137	132.0
240.5289	168.0
240.539764	132.0
240.675156	176.0
240.708267	120.0
240.758041	140.0
240.788925	124.0
240.857697	256.0
240.945007	276.0
241.020508	128.0
241.101074	50816.0
241.207932	336.0
241.301117	196.0
241.331818	132.0
241.492096	116.0
241.535309	148.0
241.591339	320.0
241.663727	176.0
241.69046	440.0
241.793701	264.0
241.825211	244.0
241.890732	156.0
241.914001	236.0
241.97847	252.0
242.024246	332.0
242.107086	25036.0
242.172684	212.0
242.201416	128.0
242.225052	316.0
242.279831	312.0
242.303925	260.0
242.363998	296.0
242.415985	260.0
242.42392	368.0
242.458862	320.0
242.534012	564.0
242.547958	428.0
242.579498	428.0
242.623413	248.0
242.650467	204.0
242.659607	136.0
242.669022	508.0
242.693741	208.0
242.75856	756.0
242.805344	308.0
242.815948	464.0
242.851974	492.0
242.878082	420.0
242.899429	492.0
242.933167	760.0
242.993301	952.0
243.042084	916.0
243.048508	1208.0
243.059937	1588.0
243.118347	421968.0
243.228165	328.0
243.31868	256.0
243.338516	424.0
243.359619	296.0
243.410217	568.0
243.456406	688.0
243.489258	276.0
243.540665	180.0
243.589935	872.0
243.628616	17616.0
243.710571	388.0
243.746643	412.0
243.79747	284.0
243.846039	404.0
243.880859	272.0
243.885025	448.0
243.91951	456.0
243.952362	676.0
243.978821	368.0
244.035904	548.0
244.072906	700.0
244.1203	223576.0
244.210587	124.0
244.236313	188.0
244.322571	352.0
244.34819	384.0
244.406952	240.0
244.430496	148.0
244.468964	260.0
244.50116	224.0
244.53688	192.0
244.590805	124.0
244.631454	524.0
244.665314	164.0
244.706512	152.0
244.758179	216.0
244.857025	332.0
244.929367	212.0
244.994507	228.0
245.122284	15156.0
245.327438	204.0
245.380356	100.0
245.405457	416.0
245.475067	220.0
245.557281	200.0
245.587067	400.0
245.61113	392.0
245.651871	204.0
245.661896	432.0
245.693542	428.0
245.753342	312.0
245.802444	304.0
245.828308	516.0
245.881012	404.0
245.92189	412.0
246.000809	376.0
246.059753	184.0
246.123199	780.0
246.154861	188.0
246.21965	116.0
246.251129	164.0
246.293167	124.0
246.356522	132.0
246.381287	108.0
246.419037	124.0
246.469254	184.0
246.491608	140.0
246.609619	136.0
246.668198	136.0
246.724625	164.0
246.804749	112.0
246.900986	128.0
246.970093	104.0
247.021606	240.0
247.078613	104.0
247.137833	124.0
247.161133	128.0
247.218094	212.0
247.24939	140.0
247.353195	120.0
247.453476	100.0
247.490417	148.0
247.586838	96.0
248.395081	96.0
248.493652	96.0
248.531036	116.0
248.642487	124.0
248.70607	108.0
249.157516	140.0
250.999802	176.0
251.71785	116.0
252.211121	140.0
252.548874	124.0
252.687897	120.0
253.506927	152.0
253.962051	108.0
254.687134	144.0
254.757019	144.0
254.909912	132.0
255.141541	172.0
256.602844	148.0
258.108734	108.0
258.835663	112.0
259.211517	100.0
260.374207	108.0
260.70639	160.0
260.933502	104.0
261.204742	148.0
261.725311	212.0
262.075775	96.0
268.498901	244.0
278.325378	208.0
282.65863	160.0
289.055481	140.0
309.126404	136.0
309.158203	396.0
310.138641	140.0
311.15567	700.0
311.198395	108.0
312.149323	336.0
313.160492	120.0
313.215302	168.0
356.28775	200.0
363.03653	140.0
367.631958	144.0
386.748871	116.0
399.279755	148.0
406.502502	144.0
412.734009	160.0
458.547729	144.0
482.076843	160.0
491.606201	236.0
506.290039	156.0
980.925171	140.0
1022.713989	160.0
1086.874146	212.0
1090.630493	140.0
1169.575684	160.0
1182.256348	160.0
1199.406006	196.0
1202.806519	200.0
1225.065918	200.0
1226.180664	184.0
1241.028198	156.0
1275.230835	176.0
1289.871094	192.0
1294.815186	192.0
1295.352295	160.0
1295.954102	144.0
1342.557617	160.0
1346.996216	140.0
1347.090088	212.0
1355.90686	240.0
1358.641846	164.0
1359.448853	184.0
1365.178833	220.0
1381.131226	168.0
1385.217163	140.0
1387.440308	160.0
1393.407104	172.0
1396.544067	200.0
1397.73877	132.0
1399.453735	204.0
1401.300781	152.0
1418.744019	196.0
1419.508789	224.0
1424.251831	144.0
1426.716553	168.0
1434.500366	152.0
1436.053711	140.0
1442.631592	124.0
1443.71167	160.0
1450.101318	152.0
1462.869507	144.0
1464.194336	208.0
1471.064209	152.0
1473.110718	188.0
1473.401001	160.0
1483.801636	180.0
1497.310059	168.0
1499.09729	156.0
1502.682739	144.0
1504.480835	144.0
1507.122192	152.0
1511.351562	160.0
1511.71521	240.0
1518.501709	176.0
1519.548828	308.0
1521.442505	236.0
1522.141235	164.0
1524.658081	148.0
1536.189331	184.0
1536.42334	180.0
1537.991821	148.0
1539.030029	172.0
1540.328247	176.0
1544.915039	140.0
1552.2146	176.0
1554.878296	136.0
1555.007324	164.0
1555.792236	160.0
1556.106323	168.0
1558.541138	144.0
1559.62561	160.0
1560.435303	228.0
1567.991943	176.0
1568.866821	140.0
1570.104736	188.0
1573.189819	224.0
1576.025146	152.0
1583.286865	144.0
1585.972656	144.0
1587.320312	152.0
1590.79541	176.0
1595.124634	156.0
1603.075439	204.0
1604.81311	188.0
1612.156738	144.0
1618.403931	156.0
1621.367798	172.0
1623.676636	152.0
1625.714355	200.0
1627.865723	140.0
1630.685547	200.0
1632.968872	164.0
1638.321655	204.0
1639.365601	160.0
1644.336792	140.0
1650.063843	148.0
1650.71875	192.0
1651.697388	172.0
1652.554932	184.0
1654.83728	200.0
1656.537964	196.0
1657.920166	160.0
1661.150391	200.0
1664.339844	180.0
1664.7052	164.0
1666.272827	144.0
1667.312866	156.0
1670.101562	160.0
1671.915894	152.0
1674.911987	172.0
1681.08374	140.0
1681.883545	156.0
1684.398438	192.0
1685.492432	148.0
1687.879883	172.0
1688.051636	156.0
1690.235718	152.0
1693.469238	244.0
1694.018066	224.0
1694.837402	140.0
1695.206055	148.0
1695.501099	172.0
1696.419067	140.0
1702.081787	184.0
1703.369385	184.0
1709.44519	180.0
1710.095337	148.0
1711.659424	148.0
1713.331421	200.0
1715.053589	196.0
1716.578735	176.0
1720.283203	204.0
1726.645386	156.0
1727.861328	152.0
1728.556396	160.0
1731.992065	164.0
1734.386719	192.0
1735.464355	212.0
1740.924316	200.0
1741.25647	172.0
1742.136963	164.0
1742.286499	180.0
1742.849976	212.0
1745.004028	144.0
1747.124756	140.0
1747.324463	168.0
1752.311401	148.0
1752.744629	156.0
1753.285522	124.0
1755.211914	192.0
1755.879028	168.0
1756.262695	156.0
1759.650757	156.0
1759.776367	220.0
1761.120361	168.0
1764.044922	160.0
1767.565918	152.0
1768.829712	168.0
1769.377808	248.0
1770.119019	192.0
1770.49585	164.0
1771.425537	160.0
1771.542725	164.0
1771.643311	140.0
1774.207642	240.0
1774.814453	160.0
1775.918213	184.0
1776.295776	144.0
1778.301025	172.0
1779.719727	164.0
1780.248779	220.0
1782.357178	228.0
1784.004395	192.0
1784.492065	172.0
1787.604248	164.0
1789.817993	168.0
1790.239014	164.0
1792.589233	148.0
1793.617432	140.0
1794.047363	192.0
1796.416992	148.0
1798.796631	184.0
1799.944824	180.0
1802.453491	196.0
1803.501465	168.0
1804.044556	172.0
1806.460938	156.0
1808.483276	152.0
1809.719116	184.0
1810.117188	180.0
1811.768677	216.0
1812.336304	148.0
1812.47522	120.0
1813.895752	172.0
1815.404785	140.0
1817.186035	188.0
1818.840942	156.0
1819.800171	144.0
1820.394531	164.0
1821.575073	152.0
1822.229248	144.0
1823.027954	176.0
1825.178467	148.0
1826.462646	196.0
1828.172729	180.0
1828.794067	144.0
1829.023804	144.0
1831.305664	184.0
1832.779419	144.0
1834.859009	180.0
1835.055176	172.0
1835.558228	156.0
1838.023315	148.0
1839.397339	176.0
1841.719849	180.0
1842.296143	196.0
1843.531006	232.0
1845.001221	236.0
1846.069946	160.0
1846.429077	160.0
1847.301514	192.0
1848.060913	256.0
1848.413818	200.0
1848.764648	192.0
1849.791626	148.0
1850.022827	176.0
1850.673462	144.0
1853.088745	276.0
1854.211304	156.0
1855.428467	224.0
1856.680298	176.0
1856.869019	188.0
1858.550293	220.0
1859.511475	164.0
1859.887573	176.0
1861.19397	144.0
1862.679688	172.0
1863.547363	160.0
1864.767578	140.0
1865.145752	168.0
1866.66748	168.0
1867.106079	160.0
1867.897339	212.0
1868.293091	176.0
1869.205078	156.0
1870.805908	208.0
1874.37146	156.0
1875.066162	128.0
1876.052124	172.0
1876.353882	164.0
1879.338013	140.0
1882.549072	140.0
1883.956909	144.0
1884.276489	148.0
1886.895142	192.0
1887.215088	208.0
1889.602173	152.0
1891.523315	168.0
1893.943237	184.0
1894.554077	228.0
1895.68042	208.0
1897.654785	160.0
1898.463135	144.0
1899.286987	196.0
1899.425781	148.0
1900.267334	160.0
1900.782471	160.0
1901.673096	152.0
1902.62793	196.0
1903.174805	164.0
1905.794067	180.0
1906.029419	220.0
1906.656372	188.0
1906.788574	140.0
1909.474976	184.0
1909.822876	208.0
1910.066406	432.0
1910.449219	184.0
1910.710205	216.0
1911.171265	140.0
1912.293823	172.0
1914.000122	176.0
1914.357056	180.0
1914.540039	212.0
1916.212402	164.0
1919.036255	160.0
1920.396606	160.0
1921.277588	176.0
1922.926758	240.0
1923.040161	244.0
1924.035278	140.0
1924.541626	196.0
1924.620239	176.0
1927.572632	140.0
1928.219238	140.0
1928.74707	240.0
1929.976318	144.0
1930.089966	140.0
1930.667114	172.0
1931.603027	212.0
1932.862793	168.0
1933.274048	148.0
1934.569458	216.0
1934.806274	148.0
1939.352051	148.0
1940.710815	160.0
1945.351807	188.0
1946.054077	172.0
1947.072754	192.0
1948.276001	160.0
1948.539673	160.0
1949.479736	144.0
1952.292847	168.0
1952.591797	168.0
1952.688599	228.0
1953.099854	188.0
1954.456787	148.0
1954.826294	216.0
1956.32251	188.0
1956.560181	144.0
1958.435791	140.0
1959.202148	152.0
1959.545776	212.0
1959.930786	172.0
1961.660767	176.0
1962.410156	140.0
1964.588501	172.0
1966.244507	100.0
1966.335571	152.0
1966.647583	156.0
1967.130005	164.0
1969.261353	124.0
1970.830322	140.0
1971.05127	184.0
1973.206787	196.0
1973.623413	188.0
1974.26001	192.0
1974.56958	172.0
1975.878662	196.0
1976.144165	192.0
1976.347656	156.0
1976.69519	180.0
1977.055542	168.0
1977.449219	196.0
1978.850586	160.0
1979.339355	196.0
1980.588013	152.0
1981.119507	160.0
1981.26123	144.0
1981.91687	152.0
1982.732178	264.0
1984.682373	144.0
1985.143433	156.0
1985.533325	116.0
1986.085938	188.0
1989.274048	168.0
1989.721802	160.0
1989.988037	164.0
1990.352173	144.0
1992.075073	172.0
1993.105591	156.0
1994.732056	152.0
1994.803101	168.0
1995.825562	240.0
1996.012207	164.0
1996.287842	152.0
1996.919312	160.0
1996.990479	148.0
1997.72876	196.0
1998.404907	140.0
1999.025146	176.0
1999.602783	168.0
1999.793091	156.0
2000.184692	176.0
2000.326172	144.0
2000.460693	304.0
2001.453857	176.0
END IONS

BEGIN IONS
PEPMASS=371.079
CHARGE=1
MSLEVEL=2
SOURCE_INSTRUMENT=LC-ESI-qTof
FILENAME=Plate6_41_60_GD9_01_15776.mzXML
SEQ=*..*
IONMODE=Positive
ORGANISM=GNPS-SELLECKCHEM-FDA-PART2
NAME=Rebamipide [M+H]
PI=Dorrestein
DATACOLLECTOR=Garg_Neha
SMILES=C1(C(NC(CC2=CC(NC3=C2C=CC=C3)=O)C(=O)O)=O)=CC=C(C=C1)Cl
INCHI=N/A
INCHIAUX=N/A
PUBMED=N/A
SUBMITUSER=negarg
LIBRARYQUALITY=1
SPECTRUMID=CCMSLIB00000078401
USI=mzspec:GNPS:GNPS-SELLECKCHEM-FDA-PART2:accession:CCMSLIB00000078401
SCANS=1121
45.068687	184.0
45.209099	196.0
45.760815	208.0
45.856461	172.0
45.871288	188.0
46.460926	184.0
47.606167	180.0
48.03009	172.0
48.052162	160.0
48.70977	164.0
48.844612	144.0
49.523006	164.0
49.96521	200.0
50.17506	204.0
51.596279	148.0
51.627735	192.0
51.812389	232.0
52.273308	144.0
52.30785	192.0
52.747829	144.0
53.005455	220.0
53.167881	164.0
53.471638	188.0
53.611454	204.0
54.143246	160.0
55.127476	152.0
55.310879	156.0
55.570229	184.0
55.998371	228.0
56.305618	212.0
57.72736	140.0
57.75761	176.0
58.452488	140.0
58.531643	144.0
58.626095	192.0
58.680508	132.0
58.966434	156.0
59.931725	208.0
60.127575	188.0
60.22485	160.0
60.76358	140.0
61.099171	196.0
61.668362	188.0
62.56723	208.0
63.410778	140.0
63.442478	184.0
64.565079	164.0
64.640266	180.0
65.036133	148.0
65.741089	160.0
66.226128	228.0
66.363876	224.0
67.886948	160.0
68.016571	148.0
68.051048	220.0
68.580772	152.0
68.9571	172.0
69.583282	148.0
69.722816	152.0
70.117264	168.0
70.696793	148.0
70.731941	144.0
71.171196	148.0
71.795525	144.0
71.967651	168.0
74.353424	148.0
74.393898	256.0
74.56739	152.0
74.964943	240.0
75.021263	160.0
75.251289	152.0
75.301369	176.0
75.801353	148.0
76.323853	156.0
76.497314	240.0
77.202759	196.0
77.302475	160.0
77.775688	184.0
77.916183	160.0
77.963623	140.0
78.058556	172.0
78.264435	164.0
78.595825	152.0
79.226028	120.0
80.04052	184.0
80.350716	132.0
80.752594	168.0
81.419327	184.0
82.654213	208.0
83.425056	172.0
83.454147	160.0
84.024239	160.0
84.23053	160.0
84.301788	260.0
84.429756	164.0
84.457191	220.0
84.574303	160.0
85.094948	160.0
87.000313	172.0
87.03373	148.0
87.537666	172.0
87.875053	156.0
88.155151	200.0
88.463768	148.0
88.83107	160.0
88.868591	180.0
88.911758	188.0
89.375343	156.0
89.792259	180.0
89.848854	208.0
89.867722	156.0
90.622147	224.0
91.469177	144.0
92.783531	164.0
94.209625	180.0
95.016953	164.0
95.179993	188.0
95.440376	192.0
95.687485	204.0
95.888123	172.0
96.026558	188.0
96.58519	172.0
98.466248	192.0
99.412582	180.0
99.951118	160.0
100.876556	156.0
100.978539	188.0
102.011208	152.0
102.353249	148.0
102.472084	180.0
102.974396	144.0
103.053177	184.0
103.19062	176.0
104.035469	168.0
104.126839	208.0
104.555832	144.0
105.253029	204.0
105.868561	196.0
105.915672	168.0
105.985329	184.0
106.12471	228.0
106.210846	224.0
106.582451	168.0
106.880608	204.0
107.903671	144.0
108.290329	192.0
108.956535	180.0
109.012634	200.0
109.818359	140.0
110.488914	340.0
110.53495	160.0
110.99675	484.0
111.016769	244.0
111.36097	164.0
111.783546	208.0
111.831955	140.0
112.565636	204.0
112.994614	156.0
113.015884	164.0
113.104767	216.0
113.664291	188.0
113.795891	216.0
113.875114	236.0
114.354988	152.0
114.565804	164.0
114.644638	172.0
114.994415	188.0
115.053307	888.0
115.438789	148.0
115.517929	192.0
115.937599	188.0
116.058128	340.0
116.353737	244.0
116.456818	236.0
116.508369	188.0
116.990112	360.0
117.147316	168.0
117.186096	140.0
117.833382	156.0
117.874435	148.0
118.707863	240.0
119.291931	212.0
119.66613	164.0
119.825127	148.0
120.025658	156.0
120.897285	140.0
121.313454	140.0
122.671616	268.0
123.036057	216.0
123.106712	144.0
123.243668	172.0
123.464729	148.0
123.511177	152.0
124.169022	164.0
124.215599	144.0
125.037727	148.0
126.04351	172.0
126.611732	140.0
126.761826	204.0
126.973831	184.0
126.999481	172.0
127.05262	124.0
127.599075	188.0
127.716011	180.0
127.992828	212.0
128.060394	152.0
128.175293	156.0
128.31279	180.0
128.619598	160.0
129.013031	292.0
129.190674	196.0
130.067093	176.0
130.604584	152.0
130.634155	140.0
131.028015	152.0
131.050797	324.0
131.069016	152.0
131.436142	192.0
131.965088	112.0
132.302399	156.0
133.013062	144.0
133.958191	140.0
133.981232	172.0
134.347794	168.0
134.532425	144.0
135.846893	180.0
136.07666	140.0
136.276398	176.0
136.413528	140.0
137.669403	232.0
138.017593	160.0
138.188339	156.0
138.322327	96.0
138.748108	232.0
138.909927	192.0
138.993835	38028.0
139.032593	128.0
139.128998	160.0
139.211578	100.0
139.633392	168.0
139.68689	140.0
139.72113	224.0
139.938721	120.0
139.998016	2248.0
140.048203	272.0
140.712662	140.0
140.785858	168.0
140.967636	144.0
140.990463	9876.0
141.051834	188.0
141.205688	156.0
141.24202	172.0
141.843414	132.0
141.994705	568.0
142.063156	1596.0
142.208786	180.0
142.553162	264.0
143.069031	340.0
143.779633	144.0
143.932419	240.0
144.08136	520.0
144.467804	192.0
144.60321	176.0
146.061722	172.0
146.655426	144.0
146.696411	228.0
146.831436	152.0
147.063065	156.0
147.222412	160.0
147.401169	140.0
147.681625	188.0
147.698547	196.0
147.88179	148.0
147.945389	148.0
148.701691	216.0
148.723526	308.0
148.806076	188.0
148.891068	240.0
149.170486	152.0
149.260452	152.0
149.442871	140.0
149.888474	168.0
151.039734	144.0
152.049637	1016.0
152.089615	168.0
152.92041	152.0
153.049393	492.0
153.169098	168.0
153.324326	176.0
154.063828	2000.0
154.215317	172.0
154.984985	156.0
155.06488	288.0
156.020691	2176.0
156.069702	160.0
156.3508	140.0
157.024109	212.0
157.057236	152.0
157.203125	168.0
158.017273	680.0
159.020111	148.0
159.066605	1724.0
159.371689	140.0
160.033203	144.0
160.07579	2120.0
161.077744	312.0
162.863144	200.0
164.357574	140.0
164.952652	164.0
165.441269	148.0
165.917801	160.0
168.235794	140.0
169.073288	152.0
169.215652	144.0
169.345139	176.0
169.539444	148.0
169.878296	176.0
170.059372	18928.0
170.198364	232.0
170.588074	224.0
170.711456	160.0
170.928787	156.0
171.063568	3484.0
171.202133	168.0
171.310608	204.0
172.074783	5972.0
172.108047	324.0
172.201035	172.0
172.792877	180.0
173.043076	140.0
173.076401	1004.0
174.051147	296.0
174.081451	204.0
175.061005	184.0
175.209869	184.0
176.299652	152.0
178.167725	144.0
178.62764	160.0
179.394577	184.0
180.0439	1460.0
180.355576	152.0
181.045868	424.0
181.987106	192.0
182.059601	156.0
184.046967	192.0
184.114487	216.0
185.4375	180.0
185.83342	140.0
186.224335	196.0
186.69725	284.0
186.735321	184.0
187.084808	4268.0
187.792114	148.0
188.070404	564.0
189.073517	332.0
189.095413	172.0
192.559753	140.0
194.62291	152.0
194.800659	172.0
195.793655	144.0
195.930145	160.0
197.07489	300.0
197.18866	160.0
197.767639	152.0
197.949615	192.0
198.018173	108.0
198.054092	11724.0
199.056961	1888.0
199.385986	204.0
200.613235	220.0
201.434433	144.0
201.454208	220.0
202.605637	140.0
202.77565	216.0
203.351425	160.0
203.393997	140.0
203.416702	148.0
203.610855	148.0
205.751144	164.0
206.997803	164.0
207.118088	156.0
207.708588	148.0
209.528336	176.0
210.699692	144.0
210.803711	156.0
210.922211	144.0
212.036575	176.0
212.169907	156.0
212.358398	152.0
212.797241	164.0
212.99118	164.0
213.773285	200.0
214.490509	140.0
214.810318	212.0
215.131546	140.0
215.362228	176.0
215.382675	160.0
215.473145	144.0
215.656982	96.0
215.740051	136.0
215.83371	140.0
215.889862	220.0
215.916901	236.0
216.007721	444.0
216.065643	164472.0
216.126862	180.0
216.170883	108.0
216.246918	176.0
216.275955	172.0
216.334442	156.0
216.445297	108.0
216.547592	600.0
216.627609	176.0
216.690369	112.0
216.721237	172.0
216.759354	96.0
217.034805	248.0
217.067978	21964.0
217.256027	156.0
217.429199	112.0
218.071182	2456.0
218.117645	176.0
218.210709	116.0
218.362946	100.0
218.41983	152.0
218.534775	132.0
218.599899	152.0
218.658707	204.0
218.693909	164.0
218.724106	188.0
218.817596	144.0
219.282242	172.0
221.602036	144.0
222.114914	144.0
222.736053	176.0
224.094894	140.0
225.108109	148.0
228.219513	212.0
230.156998	140.0
232.733826	200.0
238.053329	168.0
240.519501	156.0
242.013443	164.0
242.554901	176.0
244.365479	140.0
246.532669	208.0
246.907822	144.0
251.110184	144.0
252.370224	156.0
253.099945	144.0
253.814117	160.0
254.033875	180.0
255.914444	180.0
256.532532	152.0
257.097107	176.0
257.627136	160.0
258.676056	172.0
258.740082	144.0
261.394592	252.0
262.915649	140.0
263.322449	176.0
264.061249	144.0
264.910675	172.0
265.143982	144.0
265.192596	228.0
265.737427	144.0
267.23526	152.0
268.182953	168.0
268.326385	188.0
270.135651	140.0
270.381073	164.0
270.823059	140.0
274.302917	236.0
274.972504	176.0
279.096954	140.0
281.322571	164.0
281.419403	152.0
283.72464	144.0
286.770233	180.0
287.735016	152.0
290.048981	168.0
294.67395	176.0
296.809814	152.0
298.067932	328.0
298.140381	424.0
298.224854	156.0
299.066956	180.0
299.148041	136.0
300.469513	216.0
302.252411	288.0
304.047516	156.0
304.804565	216.0
306.359833	140.0
310.45993	212.0
315.901886	208.0
316.421112	140.0
318.770264	188.0
321.020111	144.0
322.984497	148.0
323.707458	148.0
324.295013	200.0
325.072601	1188.0
326.028534	144.0
326.07431	392.0
327.071716	616.0
327.536102	140.0
328.07312	168.0
329.050751	248.0
334.361359	168.0
334.496033	152.0
336.070465	168.0
337.032104	200.0
337.078278	208.0
339.886932	164.0
341.087891	180.0
341.275391	232.0
342.965179	156.0
344.829132	184.0
351.036591	140.0
351.495422	140.0
353.063629	1144.0
354.05423	296.0
355.062683	324.0
359.100037	152.0
359.809448	188.0
360.515808	164.0
363.200226	144.0
363.754242	144.0
363.909882	180.0
365.612885	204.0
368.195099	456.0
368.239777	244.0
368.735382	152.0
369.198547	204.0
369.271851	148.0
369.42218	148.0
369.451538	204.0
369.493622	176.0
369.801178	140.0
369.845673	156.0
369.941376	164.0
370.098358	144.0
370.128113	144.0
370.194092	156.0
370.260559	152.0
370.574127	396.0
370.607788	196.0
370.683624	132.0
370.74353	172.0
370.810913	228.0
370.869781	172.0
370.907684	272.0
370.972809	320.0
371.080322	112192.0
371.194672	152.0
371.25116	108.0
371.317139	132.0
371.382416	152.0
371.54184	176.0
371.660187	108.0
371.711273	752.0
371.791199	148.0
371.823242	244.0
371.866852	160.0
371.916107	204.0
371.943115	236.0
371.980957	116.0
372.08194	22976.0
372.140991	408.0
372.215363	212.0
372.25766	104.0
372.300507	196.0
372.387238	160.0
372.506195	176.0
372.560699	108.0
372.615265	132.0
372.65332	136.0
372.842926	140.0
372.893982	236.0
372.982635	140.0
373.029053	128.0
373.076996	40176.0
373.19101	180.0
373.300964	152.0
373.440399	160.0
373.917786	160.0
373.979645	96.0
374.014069	148.0
374.077484	6348.0
374.306885	140.0
374.369598	108.0
374.396729	212.0
374.441467	224.0
374.489838	168.0
374.557251	108.0
374.748627	252.0
374.901703	100.0
375.071045	148.0
376.340179	116.0
376.389923	128.0
389.092926	1212.0
390.092865	140.0
391.091431	276.0
412.104492	156.0
656.22876	144.0
899.029785	148.0
905.726257	140.0
923.864258	204.0
1118.087036	196.0
1190.261597	164.0
1241.695435	160.0
1271.859619	184.0
1320.556885	148.0
1343.241821	232.0
1399.224243	224.0
1408.844971	232.0
1439.037598	140.0
1440.155273	160.0
1467.925415	208.0
1536.415771	144.0
1600.195435	160.0
1610.434937	240.0
1643.817749	144.0
1649.835205	160.0
1658.188965	192.0
1674.275635	160.0
1679.320679	156.0
1699.604126	164.0
1711.561401	168.0
1719.211426	144.0
1719.979004	156.0
1721.151367	156.0
1721.258667	156.0
1762.811279	148.0
1765.904663	208.0
1773.549316	200.0
1783.092651	168.0
1811.96936	168.0
1814.189819	196.0
1817.014038	192.0
1825.686768	140.0
1827.115845	200.0
1827.677368	180.0
1839.91687	168.0
1850.689819	160.0
1858.206787	144.0
1864.191772	148.0
1878.303467	164.0
1885.539062	196.0
1892.854614	136.0
1897.493652	216.0
1899.7052	176.0
1903.741211	180.0
1905.27002	184.0
1913.75	196.0
1914.690552	152.0
1924.116821	192.0
1933.365112	228.0
1938.619629	144.0
1939.031494	152.0
1944.890625	168.0
1951.936768	176.0
1952.701904	140.0
1956.406494	160.0
1956.934692	152.0
1958.792969	140.0
1969.519409	192.0
1986.302612	152.0
1990.891357	148.0
1993.130005	192.0
END IONS

BEGIN IONS
PEPMASS=320.041
CHARGE=1
MSLEVEL=2
SOURCE_INSTRUMENT=LC-ESI-qTof
FILENAME=Plate6_41_60_GD9_01_15776.mzXML
SEQ=*..*
IONMODE=Positive
ORGANISM=GNPS-SELLECKCHEM-FDA-PART2
NAME=Epalrestat [M+H]
PI=Dorrestein
DATACOLLECTOR=Garg_Neha
SMILES=C1=CC=CC(=C1)/C=C(/C=C2\SC(N(C2=O)CC(O)=O)=S)C
INCHI=N/A
INCHIAUX=N/A
PUBMED=N/A
SUBMITUSER=negarg
LIBRARYQUALITY=1
SPECTRUMID=CCMSLIB00000078402
USI=mzspec:GNPS:GNPS-SELLECKCHEM-FDA-PART2:accession:CCMSLIB00000078402
SCANS=2170
51.499088	200.0
56.948151	256.0
62.567215	164.0
70.865898	224.0
93.679085	180.0
98.099205	180.0
100.184044	184.0
105.193794	184.0
120.958542	220.0
121.013275	228.0
123.097847	152.0
128.060364	172.0
129.068375	208.0
141.012634	160.0
141.069855	1200.0
142.076996	308.0
143.080215	184.0
155.083969	200.0
155.932938	208.0
159.077789	152.0
161.044434	164.0
164.909164	164.0
169.063904	3848.0
170.066467	752.0
171.080505	512.0
172.036469	140.0
173.041016	176.0
174.051666	648.0
175.058197	320.0
175.091293	220.0
184.038818	172.0
185.047348	164.0
187.055496	312.0
188.056732	140.0
198.096054	224.0
200.044128	208.0
202.40448	144.0
203.053162	292.0
203.101669	208.0
208.944458	128.0
213.070938	236.0
214.042725	180.0
215.049759	232.0
218.952209	168.0
233.149948	164.0
238.010284	164.0
242.982803	148.0
245.006775	160.0
245.942307	168.0
246.041473	208.0
246.195206	152.0
256.988525	176.0
270.950745	236.0
273.021729	136.0
274.033173	1704.0
275.039551	212.0
276.026306	252.0
298.894806	180.0
301.020416	152.0
301.823395	168.0
302.029205	760.0
303.025513	132.0
304.377228	160.0
318.070526	168.0
319.038452	152.0
320.040405	1084.0
320.22171	208.0
321.034485	224.0
323.141388	164.0
366.808777	180.0
1747.060303	160.0
1862.65332	224.0
1921.585327	180.0
1929.20105	200.0
1936.542725	180.0
1977.255493	188.0
2002.684326	176.0
END IONS

BEGIN IONS
PEPMASS=308.11
CHARGE=1
MSLEVEL=2
SOURCE_INSTRUMENT=LC-ESI-qTof
FILENAME=Plate6_41_60_GD9_01_15776.mzXML
SEQ=*..*
IONMODE=Positive
ORGANISM=GNPS-SELLECKCHEM-FDA-PART2
NAME=Tolnaftate [M+H]
PI=Dorrestein
DATACOLLECTOR=Garg_Neha
SMILES=C1(N(C(OC2=CC=C3C(=C2)C=CC=C3)=S)C)=CC(=CC=C1)C
INCHI=N/A
INCHIAUX=N/A
PUBMED=N/A
SUBMITUSER=negarg
LIBRARYQUALITY=1
SPECTRUMID=CCMSLIB00000078410
USI=mzspec:GNPS:GNPS-SELLECKCHEM-FDA-PART2:accession:CCMSLIB00000078410
SCANS=2974
45.234623	156.0
45.517525	180.0
47.186958	172.0
47.639233	236.0
49.458698	208.0
50.641506	168.0
51.31369	184.0
53.827473	208.0
56.111744	188.0
56.885216	140.0
56.98584	156.0
58.069759	176.0
61.535702	184.0
62.007336	196.0
62.030079	184.0
63.529835	168.0
63.699699	224.0
63.971634	160.0
65.229034	140.0
65.264404	160.0
65.834862	172.0
66.21331	140.0
67.692078	184.0
67.857574	172.0
68.587509	244.0
69.761192	160.0
69.94252	220.0
70.155746	200.0
70.872772	164.0
71.02533	212.0
71.173027	144.0
73.047401	160.0
73.17675	220.0
73.515968	184.0
73.702103	180.0
73.909004	200.0
74.291084	176.0
75.13063	200.0
75.555634	168.0
76.217979	156.0
76.487556	144.0
77.712669	156.0
79.069321	200.0
80.160034	164.0
81.091164	160.0
81.365623	160.0
81.410515	168.0
83.95874	180.0
84.093758	172.0
84.972153	208.0
85.049225	160.0
85.291695	160.0
85.31559	200.0
85.359718	152.0
87.610489	148.0
87.716713	220.0
88.759987	160.0
89.462692	148.0
89.884888	156.0
90.311867	352.0
90.499222	176.0
90.764503	164.0
91.054382	868.0
91.625771	128.0
91.961151	152.0
92.0569	212.0
92.150215	152.0
93.065903	236.0
93.072685	180.0
93.078209	344.0
93.092659	160.0
93.758301	152.0
94.48629	204.0
95.088951	228.0
95.526146	140.0
96.6343	176.0
97.784264	204.0
99.17083	176.0
100.124519	144.0
100.994751	144.0
101.726158	160.0
101.973228	208.0
102.877678	176.0
103.052246	120.0
103.55307	188.0
103.954147	212.0
104.049774	140.0
104.712814	200.0
105.05619	136.0
106.080269	148.0
106.256203	196.0
107.049904	404.0
108.001091	152.0
108.050735	192.0
108.078957	260.0
108.297081	148.0
111.031685	336.0
111.535599	228.0
111.607086	172.0
111.630211	176.0
113.073257	144.0
113.321022	140.0
114.717346	200.0
114.747192	180.0
115.052284	264.0
115.218872	240.0
115.451866	164.0
115.745041	180.0
116.208031	244.0
117.207893	144.0
118.065735	204.0
118.25531	184.0
119.066025	200.0
119.566246	164.0
119.657677	224.0
119.916901	148.0
119.9496	180.0
119.988838	228.0
120.080261	13048.0
120.471161	152.0
121.015747	196.0
121.05954	148.0
121.083618	1944.0
121.638374	176.0
121.910728	144.0
122.089844	180.0
122.936981	168.0
123.026024	2656.0
123.394226	168.0
123.779236	144.0
124.028099	436.0
124.562157	172.0
125.019936	292.0
127.544197	212.0
127.87603	188.0
127.900795	152.0
129.073975	196.0
129.964188	160.0
130.561646	168.0
130.784607	168.0
130.896164	160.0
131.037399	148.0
132.080704	156.0
132.185944	204.0
132.86647	152.0
132.967422	212.0
133.049866	264.0
135.631516	168.0
136.000336	144.0
136.023026	248.0
136.146606	168.0
136.411484	184.0
136.548676	176.0
137.035599	120.0
137.959427	176.0
138.928986	148.0
139.166031	192.0
139.4832	160.0
140.031448	156.0
141.079147	168.0
147.26619	148.0
147.502991	252.0
147.604538	200.0
147.811829	144.0
147.959076	160.0
148.015121	244.0
148.075455	50180.0
148.155045	244.0
148.205704	148.0
148.501602	128.0
149.02739	4560.0
149.078506	3540.0
150.032593	572.0
150.081192	420.0
151.027328	208.0
152.050079	464.0
153.048492	124.0
153.857452	172.0
154.051422	184.0
154.453018	144.0
157.290802	212.0
158.358505	168.0
159.025589	620.0
160.030991	360.0
160.666168	172.0
161.022079	236.0
162.033691	164.0
162.759354	148.0
163.051498	144.0
163.082001	148.0
163.619888	104.0
163.725708	224.0
163.795929	196.0
163.847977	164.0
163.877853	160.0
164.052795	40712.0
164.129623	96.0
165.020966	776.0
165.05513	3736.0
166.048035	1508.0
166.342499	116.0
167.053268	184.0
179.069458	104.0
180.003281	144.0
180.047867	12656.0
180.318527	160.0
180.349335	176.0
181.04805	1664.0
182.043015	476.0
203.871582	172.0
214.4086	176.0
218.890869	140.0
224.211578	176.0
252.354935	196.0
280.116333	524.0
306.848389	144.0
307.215179	184.0
307.657806	148.0
307.710297	120.0
307.804443	148.0
308.111023	21136.0
308.221954	124.0
308.439209	112.0
308.886505	220.0
309.113861	3436.0
309.20575	140.0
310.109375	968.0
311.108002	260.0
322.459564	140.0
1391.650757	192.0
1416.448486	172.0
1423.708984	156.0
1484.783936	224.0
1496.926392	196.0
1521.654785	148.0
1521.887695	156.0
1557.210083	184.0
1564.326416	180.0
1601.584473	144.0
1617.682983	168.0
1623.965332	196.0
1640.917358	212.0
1644.418457	156.0
1697.439331	180.0
1712.775635	148.0
1717.746338	176.0
1728.47876	212.0
1764.219238	156.0
1771.709473	172.0
1781.550171	176.0
1788.319458	156.0
1803.76416	152.0
1818.69812	160.0
1829.851562	164.0
1844.268799	232.0
1851.019165	188.0
1857.369995	160.0
1860.090088	160.0
1865.59668	168.0
1865.889038	152.0
1892.974487	176.0
1902.911621	212.0
1915.478394	172.0
1952.609131	140.0
1986.768066	204.0
1997.606323	176.0
END IONS

BEGIN IONS
PEPMASS=308.222
CHARGE=1
MSLEVEL=2
SOURCE_INSTRUMENT=LC-ESI-qTof
FILENAME=Plate6_61_80_GD10_01_15777.mzXML
SEQ=*..*
IONMODE=Positive
ORGANISM=GNPS-SELLECKCHEM-FDA-PART2
NAME=Betaxolol (Betoptic) [M+H]
PI=Dorrestein
DATACOLLECTOR=Garg_Neha
SMILES=C1=CC(=CC=C1CCOCC2CC2)OCC(CNC(C)C)O
INCHI=N/A
INCHIAUX=N/A
PUBMED=N/A
SUBMITUSER=negarg
LIBRARYQUALITY=1
SPECTRUMID=CCMSLIB00000078431
USI=mzspec:GNPS:GNPS-SELLECKCHEM-FDA-PART2:accession:CCMSLIB00000078431
SCANS=1148
53.747181	160.0
76.89193	148.0
85.299042	244.0
94.178909	176.0
100.11132	408.0
105.498421	140.0
108.110741	232.0
109.098076	176.0
115.05014	140.0
115.533134	152.0
116.108139	128.0
124.266876	164.0
127.986336	156.0
128.062897	168.0
133.063614	516.0
136.602158	200.0
142.415634	188.0
151.058273	164.0
152.063492	440.0
159.080673	160.0
162.087128	140.0
164.072235	168.0
165.069305	880.0
166.081085	340.0
167.08519	5248.0
168.088959	372.0
170.071487	172.0
175.123413	192.0
177.08577	152.0
177.748566	200.0
179.059189	148.0
182.845016	148.0
185.562561	148.0
203.11348	168.0
204.97287	152.0
219.990616	176.0
221.10202	188.0
225.055786	172.0
225.112518	152.0
239.106049	1524.0
290.212769	136.0
298.183594	172.0
300.197174	164.0
306.092255	172.0
306.165375	148.0
307.218018	240.0
307.710144	176.0
308.221863	3780.0
308.44104	112.0
309.120819	188.0
309.222229	1044.0
310.234222	740.0
311.236084	204.0
311.460846	176.0
311.836792	172.0
312.13092	128.0
312.196228	7556.0
313.198547	240.0
325.066742	160.0
476.410522	160.0
END IONS

BEGIN IONS
PEPMASS=353.127
CHARGE=1
MSLEVEL=2
SOURCE_INSTRUMENT=LC-ESI-qTof
FILENAME=Plate7_61_80_GD5_01_15771.mzXML
SEQ=*..*
IONMODE=Positive
ORGANISM=GNPS-SELLECKCHEM-FDA-PART2
NAME=Itraconazole (Sporanox) [M+2H]
PI=Dorrestein
DATACOLLECTOR=Garg_Neha
SMILES=C1=CC(=CC=C1N2CCN(CC2)C3=CC=C(C=C3)N4C(N(N=C4)C(CC)C)=O)OC[C@@H]5O[C@@](OC5)(CN6C=NC=N6)C7=CC=C(C=C7Cl)Cl
INCHI=N/A
INCHIAUX=N/A
PUBMED=N/A
SUBMITUSER=negarg
LIBRARYQUALITY=1
SPECTRUMID=CCMSLIB00000078480
USI=mzspec:GNPS:GNPS-SELLECKCHEM-FDA-PART2:accession:CCMSLIB00000078480
SCANS=2312
45.026829	140.0
45.149788	168.0
45.84927	220.0
45.962547	164.0
46.081371	208.0
46.131378	148.0
46.193584	156.0
46.220646	232.0
46.563633	216.0
47.137188	176.0
47.216476	216.0
47.805035	216.0
47.920704	208.0
48.077908	164.0
48.383392	184.0
48.450623	184.0
48.799625	160.0
49.507114	144.0
49.544933	184.0
49.650063	180.0
51.487167	140.0
51.906479	168.0
52.024647	112.0
52.880383	204.0
52.941784	104.0
53.234135	184.0
53.933483	240.0
53.981728	228.0
54.416927	196.0
55.320694	264.0
55.473282	216.0
55.862362	220.0
56.366314	148.0
57.723766	232.0
57.834209	172.0
58.251217	140.0
58.880295	148.0
58.930706	204.0
59.180023	144.0
61.681725	132.0
62.032475	140.0
62.148533	184.0
63.235928	168.0
64.478111	176.0
64.892715	144.0
64.977722	152.0
65.006607	172.0
65.683968	220.0
65.763039	156.0
65.973038	184.0
66.312973	144.0
66.381065	140.0
67.432777	140.0
68.901886	140.0
69.072166	148.0
72.090248	160.0
72.149414	192.0
72.162941	156.0
72.448967	160.0
72.789886	192.0
75.442322	184.0
75.528786	204.0
75.54435	148.0
75.75209	172.0
77.042931	224.0
77.347214	148.0
77.522362	168.0
78.934204	212.0
79.625366	144.0
81.077644	192.0
81.280289	156.0
82.124054	172.0
82.845444	116.0
83.113655	140.0
83.155396	140.0
83.418777	152.0
84.358208	160.0
84.589943	164.0
84.844589	184.0
85.127159	180.0
85.358704	144.0
85.627388	212.0
85.970306	172.0
86.524841	172.0
87.045868	184.0
87.889114	148.0
88.048149	168.0
89.279106	196.0
89.343056	172.0
89.36187	184.0
89.414566	144.0
90.076393	148.0
90.507607	236.0
91.013885	272.0
91.034775	156.0
91.054855	364.0
91.350296	160.0
92.316734	156.0
92.338364	144.0
92.351753	160.0
93.062744	236.0
93.788025	164.0
94.036049	384.0
94.066269	212.0
94.550949	208.0
94.618698	196.0
94.816284	164.0
94.913216	160.0
95.052879	148.0
95.478325	244.0
96.052917	176.0
96.746658	168.0
96.774071	144.0
96.860245	180.0
97.045937	192.0
97.600143	216.0
98.1791	192.0
98.394188	144.0
98.520584	156.0
98.951729	184.0
99.779076	148.0
99.972023	140.0
100.520042	216.0
101.019547	164.0
102.045189	288.0
102.388481	176.0
102.96328	164.0
103.053238	296.0
103.399979	204.0
103.926872	144.0
103.941078	196.0
104.064896	172.0
105.057098	388.0
105.07769	324.0
105.589188	184.0
105.744682	192.0
106.06356	320.0
106.404755	184.0
106.421181	188.0
106.957291	176.0
107.050102	372.0
107.906738	148.0
107.956367	204.0
108.048058	560.0
108.556931	232.0
109.028183	140.0
109.096779	148.0
109.196587	164.0
109.269402	148.0
109.542122	148.0
110.572655	164.0
111.01358	144.0
111.912956	152.0
112.223854	124.0
112.363998	144.0
112.442078	164.0
113.352669	188.0
113.487114	140.0
113.601639	164.0
114.769279	196.0
115.054474	504.0
115.506096	184.0
115.553162	188.0
116.059158	268.0
116.195915	144.0
116.382652	220.0
116.556641	216.0
116.932991	152.0
117.019096	156.0
117.059448	448.0
117.294853	164.0
117.475998	148.0
118.064911	612.0
118.275543	144.0
118.470444	212.0
118.577919	228.0
118.594322	188.0
119.071976	2604.0
119.353806	148.0
119.49736	184.0
119.99395	184.0
120.045723	576.0
120.078926	1728.0
120.832634	140.0
121.003006	128.0
121.05291	1432.0
121.084213	236.0
121.55352	736.0
121.795029	140.0
122.058098	1268.0
122.21273	180.0
122.301422	228.0
122.34919	152.0
122.547417	156.0
122.834015	140.0
123.017967	112.0
123.463516	196.0
123.60067	196.0
124.26226	144.0
125.072113	160.0
125.584602	228.0
127.052063	168.0
128.047821	516.0
128.061813	616.0
128.340225	192.0
129.06749	512.0
130.065521	436.0
130.794434	152.0
131.048584	512.0
131.070297	1356.0
131.293411	160.0
131.667709	176.0
131.770493	160.0
132.057404	904.0
132.07959	1512.0
132.113434	232.0
132.195038	144.0
132.424744	156.0
132.498047	192.0
132.582077	368.0
133.062469	648.0
133.083191	428.0
133.445953	184.0
133.581635	184.0
134.058731	932.0
134.094116	204.0
134.279572	148.0
135.067474	772.0
135.412094	148.0
135.479263	228.0
135.520966	208.0
135.571487	396.0
136.073547	1240.0
136.105499	148.0
136.203049	144.0
136.674988	196.0
137.04657	280.0
137.077347	552.0
137.112793	140.0
138.020905	148.0
138.189316	156.0
138.34613	168.0
139.051682	152.0
139.074341	220.0
139.552048	220.0
140.087616	336.0
140.186768	144.0
140.590881	176.0
141.008911	144.0
141.576721	196.0
141.616989	208.0
141.868378	136.0
142.046021	188.0
142.067383	164.0
143.070999	400.0
143.094086	200.0
143.73764	164.0
143.856979	196.0
143.993088	152.0
144.079697	4680.0
144.134872	104.0
144.847	172.0
145.06517	812.0
145.086975	1376.0
145.200333	116.0
145.588135	208.0
146.056381	1848.0
146.094864	4636.0
146.564056	220.0
146.579895	168.0
147.062134	324.0
147.10051	832.0
147.143692	196.0
147.565048	192.0
148.03569	156.0
148.075912	3556.0
148.109024	156.0
148.306366	136.0
148.651672	180.0
149.05722	180.0
149.082321	644.0
149.11554	176.0
149.195755	180.0
149.237091	140.0
149.421936	184.0
149.492508	160.0
149.567947	256.0
150.008865	180.0
150.078049	296.0
150.123459	184.0
150.301544	204.0
150.413803	152.0
150.574951	184.0
151.019302	288.0
151.056488	160.0
151.090729	172.0
151.688278	148.0
152.968124	172.0
153.011826	128.0
153.059219	232.0
153.591843	480.0
153.929688	220.0
154.065491	328.0
154.085983	444.0
154.577164	248.0
155.063278	240.0
156.079239	492.0
156.304474	140.0
156.506088	152.0
157.066116	332.0
157.082764	520.0
157.209061	152.0
157.513672	148.0
157.54364	172.0
158.054779	500.0
158.072418	444.0
158.094666	752.0
158.299667	168.0
158.617203	156.0
158.938232	148.0
158.97551	8108.0
159.068497	512.0
159.103378	592.0
159.128983	148.0
159.309814	152.0
159.584732	332.0
159.978256	1080.0
160.041702	148.0
160.076187	1936.0
160.110031	284.0
160.578079	1068.0
160.74791	228.0
160.830795	144.0
160.893158	108.0
160.97348	5064.0
161.082199	2580.0
161.586624	4500.0
161.621307	320.0
161.976791	260.0
162.022751	148.0
162.063553	168.0
162.088104	1800.0
162.163773	176.0
162.589203	360.0
162.969376	444.0
163.026688	252.0
163.093826	436.0
163.149796	120.0
163.397919	156.0
163.810349	188.0
164.066132	328.0
164.09874	176.0
164.557602	184.0
165.01239	152.0
165.079468	152.0
165.575348	184.0
165.606094	160.0
166.005905	248.0
166.077713	192.0
166.573929	584.0
166.627075	164.0
167.079346	376.0
167.584824	2296.0
168.085709	348.0
168.125732	152.0
168.218643	216.0
168.342575	144.0
168.435562	216.0
168.478973	104.0
168.521606	252.0
168.575287	16772.0
168.744522	116.0
168.794464	304.0
169.078705	12000.0
169.178177	168.0
169.215469	132.0
169.353043	172.0
169.581345	3040.0
169.960464	184.0
170.053284	292.0
170.085754	1372.0
170.194962	132.0
170.498016	140.0
170.590256	468.0
170.642059	212.0
170.753555	112.0
170.790405	140.0
170.971344	144.0
171.003403	120.0
171.061783	140.0
171.10556	444.0
171.966766	108.0
172.024384	148.0
172.075455	1796.0
172.110397	1032.0
172.157547	204.0
172.669785	164.0
172.879074	300.0
172.952911	512.0
172.989014	160.0
173.082733	1848.0
173.11348	248.0
173.214218	164.0
173.585434	984.0
173.890717	140.0
173.936783	156.0
173.963684	120.0
174.001968	208.0
174.090088	7040.0
174.183655	128.0
174.321426	168.0
174.480286	168.0
174.594009	44148.0
174.642334	116.0
174.75412	204.0
174.778976	176.0
174.835861	156.0
174.859344	104.0
174.882217	224.0
174.952927	320.0
175.030975	112.0
175.095123	11184.0
175.188339	140.0
175.289368	128.0
175.335876	176.0
175.380966	96.0
175.583023	1388.0
175.780304	140.0
176.068939	1736.0
176.090347	520.0
176.532272	104.0
176.567154	180.0
176.586304	244.0
176.853882	112.0
176.910141	120.0
176.930481	216.0
176.984848	100.0
177.075531	1796.0
177.103989	228.0
177.420212	140.0
177.581665	580.0
177.697495	168.0
178.051743	180.0
178.081833	1116.0
178.328064	172.0
178.50618	160.0
178.591293	192.0
179.583145	564.0
179.694183	236.0
179.806259	164.0
180.092041	324.0
180.452713	140.0
180.490143	212.0
180.577362	560.0
180.746933	140.0
181.075958	372.0
181.580597	148.0
182.101471	376.0
182.366257	164.0
182.509262	192.0
182.529785	184.0
182.591202	5536.0
182.627594	160.0
182.71637	144.0
183.025894	156.0
183.090881	1020.0
183.262085	152.0
183.595581	380.0
184.034348	156.0
184.072159	144.0
184.098999	336.0
184.91716	164.0
185.048279	256.0
185.077423	332.0
185.641708	176.0
185.902145	232.0
185.961945	120.0
186.002563	172.0
186.089722	432.0
186.233368	204.0
186.268677	216.0
186.461945	96.0
186.970108	4340.0
187.059296	1192.0
187.093765	284.0
187.5849	448.0
187.973618	556.0
188.069778	2564.0
188.106201	1180.0
188.15593	176.0
188.352554	196.0
188.591385	17236.0
188.632263	212.0
188.803543	156.0
188.898254	108.0
188.966873	2260.0
189.039948	224.0
189.085373	3196.0
189.193924	120.0
189.338028	100.0
189.35939	100.0
189.412018	108.0
189.464233	140.0
189.486816	144.0
189.5905	576.0
189.809845	156.0
189.851578	200.0
190.038986	160.0
190.080658	600.0
190.25032	148.0
190.442535	180.0
190.535172	200.0
190.737411	152.0
190.880844	116.0
190.96347	388.0
190.989517	260.0
191.090073	564.0
191.136337	132.0
191.950394	140.0
192.100861	2996.0
192.16861	224.0
192.544037	176.0
192.602051	180.0
193.016602	148.0
193.048248	432.0
193.108231	328.0
193.135529	228.0
194.016144	224.0
195.536057	160.0
196.109344	160.0
196.371429	156.0
196.606339	2596.0
196.991104	176.0
197.109314	3008.0
197.278946	200.0
197.603348	1128.0
198.040085	196.0
198.101059	176.0
200.060654	144.0
200.105774	2172.0
200.295639	200.0
200.996628	164.0
201.076065	1576.0
201.110092	204.0
201.754608	176.0
201.890335	176.0
201.979218	104.0
202.048737	184.0
202.081696	300.0
202.114044	144.0
202.368561	156.0
202.620941	204.0
202.750977	172.0
202.997589	324.0
203.091904	11540.0
203.258606	148.0
203.613007	1812.0
204.034149	168.0
204.062439	180.0
204.095886	1248.0
204.295654	148.0
205.107437	6900.0
205.177292	112.0
206.111237	932.0
206.602478	140.0
206.97403	228.0
207.116119	268.0
207.253555	164.0
207.781464	136.0
208.48175	216.0
208.821014	152.0
208.875656	212.0
209.112854	284.0
209.644409	184.0
210.065369	164.0
210.11441	164.0
210.177887	212.0
210.463806	152.0
210.621735	7776.0
210.662933	192.0
211.035599	144.0
211.123169	3280.0
211.623123	664.0
211.860626	168.0
213.077072	136.0
214.583847	144.0
214.960129	232.0
215.091507	5316.0
216.023132	176.0
216.092865	796.0
216.622589	8984.0
216.74292	164.0
217.069275	100.0
217.121277	3072.0
217.291199	212.0
217.378799	140.0
217.500565	164.0
217.622818	168.0
218.114182	628.0
219.120087	176.0
219.229263	100.0
219.623535	148.0
220.028015	228.0
220.121902	184.0
220.26265	168.0
220.739044	128.0
221.028381	152.0
221.134918	208.0
221.667999	164.0
222.08046	128.0
222.322067	108.0
222.920288	164.0
223.07782	156.0
223.50795	148.0
224.051041	180.0
225.094925	164.0
225.32193	184.0
225.584915	208.0
225.628326	3088.0
225.996201	124.0
226.131317	692.0
226.637726	348.0
227.09227	192.0
228.027863	224.0
228.085571	160.0
228.554138	152.0
228.986328	356.0
229.106827	1228.0
230.050095	304.0
230.104675	784.0
230.368439	264.0
230.559525	184.0
231.045288	216.0
231.118683	772.0
231.988205	168.0
232.045807	216.0
232.118317	140.0
232.990921	148.0
233.100464	132.0
236.093765	164.0
236.389465	172.0
237.286942	168.0
237.796173	140.0
237.823792	172.0
237.995712	148.0
238.147705	196.0
238.275208	140.0
238.43808	244.0
239.99884	164.0
240.211639	164.0
241.713196	160.0
242.101883	1044.0
242.347977	216.0
242.509125	168.0
243.111664	492.0
243.635559	148.0
243.682159	200.0
244.006851	164.0
244.119705	668.0
244.633835	228.0
244.963928	140.0
245.069855	176.0
245.134613	368.0
245.453247	148.0
245.627899	160.0
245.99826	136.0
246.131775	220.0
246.505234	188.0
247.129974	156.0
250.147812	132.0
250.313522	152.0
251.208649	160.0
251.502106	152.0
252.109451	308.0
252.563797	200.0
252.61441	180.0
253.130859	204.0
253.29184	228.0
254.139374	120.0
254.719315	248.0
254.790298	104.0
255.024353	160.0
255.324951	132.0
255.784576	152.0
255.813339	116.0
256.003845	66420.0
256.078583	132.0
256.237518	108.0
256.285614	104.0
256.614838	204.0
256.743042	304.0
256.895691	236.0
257.005951	7340.0
257.44574	184.0
257.83548	172.0
257.963013	176.0
258.000153	33908.0
258.064636	352.0
258.297699	196.0
258.394196	116.0
258.429108	108.0
258.531525	100.0
258.620392	100.0
258.696869	180.0
258.741608	164.0
258.801575	180.0
258.891327	152.0
259.000122	4388.0
259.155426	948.0
259.738403	100.0
259.819275	176.0
259.997955	4372.0
260.057373	196.0
260.153656	220.0
260.997955	752.0
261.118561	172.0
262.01123	152.0
262.139099	140.0
264.164795	112.0
265.134888	148.0
265.306671	172.0
265.601776	172.0
266.020813	120.0
266.117798	176.0
267.096008	168.0
267.997803	172.0
268.123657	160.0
268.407104	196.0
268.992432	156.0
269.136627	172.0
270.134705	184.0
271.013885	140.0
271.043182	188.0
271.15506	556.0
272.109192	152.0
275.099152	292.0
276.010406	284.0
276.569519	204.0
278.11084	144.0
279.086365	648.0
279.656433	196.0
280.091614	96.0
280.141541	468.0
280.855957	180.0
281.099274	956.0
281.148041	224.0
281.643707	176.0
282.017944	168.0
282.140076	104.0
283.077484	168.0
283.100922	204.0
283.565918	172.0
283.591095	176.0
284.010559	160.0
284.089172	192.0
285.173431	292.0
286.012878	148.0
286.38327	144.0
288.009094	184.0
288.536255	140.0
288.627563	152.0
289.808868	148.0
290.144409	192.0
290.354645	144.0
290.577148	484.0
291.580292	132.0
292.158295	240.0
293.103516	268.0
293.130798	164.0
293.82431	140.0
294.110901	120.0
294.159576	180.0
295.129395	236.0
295.631897	256.0
296.033813	208.0
296.116211	120.0
296.141388	144.0
297.033752	104.0
299.150055	144.0
300.187561	132.0
300.294067	220.0
300.882355	116.0
300.970459	188.0
301.007263	304.0
302.003784	144.0
302.111023	184.0
303.004242	180.0
303.081879	200.0
304.006348	140.0
304.197235	148.0
304.575745	168.0
305.636108	140.0
305.949341	236.0
306.137543	152.0
307.130615	112.0
307.185638	156.0
308.144745	304.0
308.178009	144.0
308.803772	152.0
309.157135	248.0
309.608734	144.0
310.165497	224.0
311.443085	152.0
312.030457	168.0
312.114349	172.0
312.51535	220.0
312.670166	140.0
316.146423	156.0
317.173553	184.0
318.607361	656.0
319.126038	148.0
319.180786	120.0
319.613068	148.0
320.118103	120.0
320.144257	204.0
320.610809	168.0
321.113251	172.0
321.15509	2048.0
321.259491	188.0
322.130798	516.0
322.164307	1732.0
322.666626	208.0
322.727386	168.0
322.96344	216.0
323.159119	308.0
323.299744	184.0
323.328369	184.0
323.775116	212.0
323.987244	144.0
324.025635	128.0
324.082001	184.0
324.130554	176.0
324.398682	152.0
324.437073	192.0
324.576385	140.0
324.625244	156.0
324.678986	224.0
324.772369	268.0
324.82724	416.0
324.902985	276.0
324.939941	132.0
325.011475	120.0
325.095825	67060.0
325.193634	188.0
325.281067	172.0
325.318817	184.0
325.365265	144.0
325.422607	216.0
325.488861	228.0
325.520752	128.0
325.596832	27736.0
325.864502	232.0
325.936523	184.0
326.094391	49900.0
326.200684	320.0
326.242798	148.0
326.272705	196.0
326.297119	168.0
326.358612	196.0
326.45932	320.0
326.505493	144.0
326.594635	14776.0
326.714355	168.0
326.751434	256.0
326.836945	144.0
326.94043	132.0
327.092621	9264.0
327.167206	280.0
327.237946	132.0
327.27179	96.0
327.541565	116.0
327.594604	2336.0
327.699371	220.0
327.757996	164.0
327.893188	124.0
327.944977	160.0
328.092316	588.0
328.137634	108.0
328.187286	100.0
328.240784	196.0
328.329041	112.0
328.411865	164.0
328.531799	156.0
328.602448	164.0
328.839386	172.0
328.948181	120.0
329.032135	180.0
329.176544	196.0
329.216034	104.0
329.265747	184.0
329.354156	124.0
329.670807	108.0
329.84552	148.0
329.890076	128.0
330.053284	188.0
330.867218	100.0
331.097809	196.0
331.311523	248.0
331.612305	164.0
332.114532	132.0
332.127075	144.0
332.303314	136.0
332.569855	216.0
332.603668	100.0
333.115448	172.0
334.077881	192.0
334.166748	288.0
334.45639	228.0
335.053558	152.0
335.14856	400.0
335.642151	172.0
335.680481	188.0
336.031586	140.0
336.144501	4224.0
336.31897	228.0
337.078613	148.0
337.151642	2756.0
337.558105	192.0
338.093475	184.0
338.159515	3096.0
338.524048	192.0
339.161682	1800.0
339.24173	176.0
339.619415	216.0
340.672302	136.0
340.926483	160.0
341.466919	148.0
341.720276	128.0
342.895447	148.0
342.958099	144.0
343.621918	264.0
344.079956	148.0
344.30481	152.0
344.50235	176.0
345.099304	168.0
345.151062	144.0
345.467712	144.0
345.598846	148.0
346.112152	308.0
346.160706	128.0
346.316833	192.0
346.402039	176.0
346.596863	116.0
346.6651	164.0
346.943085	220.0
347.113647	140.0
347.171356	464.0
347.983795	144.0
348.179749	3520.0
348.78064	148.0
349.183441	484.0
349.472351	172.0
349.693298	208.0
350.158569	212.0
350.206451	172.0
350.453949	96.0
350.541046	168.0
350.637939	144.0
350.689484	164.0
350.802856	132.0
350.829468	148.0
350.950531	96.0
351.164642	124.0
351.210938	148.0
351.442871	104.0
351.508057	172.0
351.580933	236.0
351.721863	180.0
351.771393	456.0
351.811005	124.0
351.866608	172.0
351.955353	164.0
352.007629	144.0
352.05484	144.0
352.17215	204.0
352.213043	276.0
352.308228	292.0
352.389404	240.0
352.508636	200.0
352.561157	148.0
352.625885	444.0
352.680145	308.0
352.705383	324.0
352.755646	188.0
352.796204	340.0
352.832184	316.0
352.859528	364.0
352.925842	444.0
352.965454	360.0
353.013245	216.0
353.060791	432.0
353.079163	392.0
353.128357	168592.0
353.314758	156.0
353.378876	304.0
353.405151	304.0
353.454163	164.0
353.497864	360.0
353.54718	344.0
353.628784	89128.0
353.74939	628.0
353.829956	176.0
353.887451	324.0
353.920868	256.0
353.961456	308.0
353.979919	248.0
354.025238	384.0
354.050201	612.0
354.126831	118892.0
354.267822	272.0
354.32666	212.0
354.37973	508.0
354.469727	292.0
354.518524	212.0
354.627716	62092.0
354.721191	236.0
354.749298	200.0
354.760315	172.0
354.77359	224.0
354.850067	144.0
354.860596	256.0
354.895081	272.0
354.937042	152.0
354.962708	324.0
354.988373	248.0
355.021393	220.0
355.063324	200.0
355.125366	29776.0
355.220917	328.0
355.27829	224.0
355.352722	216.0
355.372131	112.0
355.400421	256.0
355.441528	236.0
355.475281	264.0
355.555084	184.0
355.625275	6792.0
355.687286	164.0
355.786652	356.0
355.823944	152.0
355.875946	100.0
355.905457	128.0
355.952484	200.0
355.972168	140.0
355.984009	236.0
356.077057	192.0
356.092102	280.0
356.122894	1588.0
356.201813	168.0
356.208374	148.0
356.250244	188.0
356.291534	244.0
356.326538	232.0
356.362366	232.0
356.447754	280.0
356.493256	188.0
356.530426	236.0
356.628357	288.0
356.670959	224.0
356.726227	192.0
356.821655	256.0
356.889954	184.0
356.941986	228.0
356.975647	216.0
357.059174	108.0
357.156464	348.0
357.321716	168.0
357.426727	196.0
357.498016	116.0
357.572296	276.0
357.633209	152.0
357.749542	120.0
357.827026	96.0
357.926819	104.0
358.053802	128.0
358.084351	120.0
358.159393	344.0
358.483002	152.0
358.540222	104.0
358.731232	116.0
358.796967	112.0
359.167084	372.0
359.262329	120.0
359.464752	156.0
359.622711	112.0
360.708923	112.0
362.183411	184.0
362.825012	168.0
363.185547	204.0
363.747864	112.0
364.173737	1448.0
364.449463	148.0
365.177673	468.0
365.22052	160.0
365.594818	192.0
366.14566	108.0
367.549713	104.0
367.711395	136.0
368.308716	196.0
368.408051	164.0
369.159546	264.0
369.308075	116.0
369.34256	164.0
370.833496	104.0
372.704346	116.0
373.273926	100.0
373.52829	140.0
373.64621	208.0
373.993988	100.0
374.156952	404.0
374.640228	120.0
375.141113	120.0
375.320496	252.0
375.649048	256.0
376.176483	7136.0
376.536102	204.0
377.179626	1892.0
377.220551	492.0
377.343719	176.0
378.058258	276.0
378.181976	416.0
379.169281	148.0
379.201843	212.0
379.409576	116.0
379.554626	140.0
379.585663	164.0
380.401886	160.0
381.223846	160.0
382.825836	188.0
385.065216	152.0
390.23407	308.0
391.670349	100.0
391.993561	148.0
392.20697	3232.0
392.375916	312.0
393.212036	1400.0
393.348907	112.0
393.516144	156.0
393.80838	156.0
394.18808	6412.0
394.220703	4956.0
394.294342	192.0
394.515686	144.0
394.561615	156.0
394.659515	204.0
394.801514	224.0
394.993347	160.0
395.191071	2140.0
395.213745	1448.0
395.314667	196.0
395.62738	140.0
396.142181	152.0
396.19104	452.0
396.224976	316.0
397.238251	144.0
398.824677	144.0
399.618164	152.0
403.232574	160.0
404.244049	7180.0
404.319305	212.0
405.245728	1844.0
406.087708	156.0
406.252472	364.0
407.215302	140.0
408.75531	172.0
411.48645	104.0
414.231384	240.0
415.235596	132.0
417.229126	180.0
418.971008	144.0
420.238647	2392.0
421.059235	132.0
421.241455	1084.0
422.199738	160.0
422.245758	176.0
422.805237	156.0
424.204865	180.0
426.159607	148.0
429.219482	128.0
430.23291	116.0
430.658264	172.0
431.096191	156.0
432.072998	172.0
432.239044	23680.0
432.404602	204.0
432.794067	124.0
432.882263	96.0
433.153534	180.0
433.241699	7340.0
433.410461	172.0
433.849274	148.0
434.097504	168.0
434.242371	1224.0
435.109924	220.0
435.238647	208.0
435.994049	100.0
436.119507	128.0
436.238983	156.0
438.425171	148.0
441.819916	144.0
447.101807	160.0
448.106812	148.0
448.24826	152.0
449.00708	148.0
449.150482	204.0
449.219147	132.0
449.981873	152.0
450.148499	156.0
450.249786	20160.0
450.358765	176.0
450.38797	320.0
451.047333	152.0
451.099945	116.0
451.155212	172.0
451.253235	5204.0
451.750702	120.0
452.257751	724.0
453.253387	272.0
453.767853	116.0
454.062897	168.0
454.287445	232.0
457.332764	160.0
463.221222	160.0
464.23703	148.0
473.316772	144.0
494.608673	156.0
503.17981	152.0
511.657959	148.0
544.295959	136.0
550.137512	148.0
565.883057	156.0
580.14856	204.0
583.13324	148.0
636.221191	400.0
638.204224	236.0
679.173523	108.0
705.32605	140.0
707.240234	136.0
731.663452	140.0
733.781738	152.0
834.463989	144.0
856.839844	144.0
980.088745	192.0
1025.24292	144.0
1138.91687	188.0
1203.291016	168.0
1228.553711	160.0
1293.982422	160.0
1368.174438	160.0
1393.52063	204.0
1402.055908	144.0
1427.487061	176.0
1446.931763	172.0
1471.856079	140.0
1509.440552	148.0
1530.866455	172.0
1543.821045	168.0
1552.02771	200.0
1578.106323	164.0
1583.550903	168.0
1589.322266	156.0
1615.567017	140.0
1625.470215	140.0
1643.309326	212.0
1667.34375	180.0
1669.376221	156.0
1670.474243	204.0
1674.527954	172.0
1676.344727	172.0
1690.505127	176.0
1720.094116	168.0
1750.00647	176.0
1750.123047	200.0
1757.68335	172.0
1778.027466	152.0
1785.91687	140.0
1795.746338	208.0
1803.27771	184.0
1822.311035	144.0
1835.385132	168.0
1836.553467	200.0
1841.521118	160.0
1849.986694	172.0
1850.123657	140.0
1854.646729	160.0
1856.524414	152.0
1860.299683	152.0
1864.860962	208.0
1877.249878	168.0
1879.208008	152.0
1879.397827	188.0
1895.828003	168.0
1896.261353	188.0
1901.022583	192.0
1901.239502	156.0
1914.358154	160.0
1923.050415	176.0
1925.38147	212.0
1933.103149	156.0
1935.017944	212.0
1940.502686	164.0
1946.434204	144.0
1947.681274	160.0
1948.471924	172.0
1952.075806	156.0
1959.777954	204.0
1974.794556	180.0
1978.52002	168.0
1984.970337	228.0
1985.404907	188.0
1985.937012	204.0
1987.037109	164.0
1988.856323	168.0
1990.108032	152.0
1991.990845	164.0
1998.952637	236.0
1999.068237	176.0
END IONS

BEGIN IONS
PEPMASS=361.139
CHARGE=1
MSLEVEL=2
SOURCE_INSTRUMENT=LC-ESI-qTof
FILENAME=Plate7_61_80_GD5_01_15771.mzXML
SEQ=*..*
IONMODE=Positive
ORGANISM=GNPS-SELLECKCHEM-FDA-PART2
NAME=Nitrendipine [M+H]
PI=Dorrestein
DATACOLLECTOR=Garg_Neha
SMILES=C1=CC(=CC(=C1)[N+]([O-])=O)C2C(=C(NC(=C2C(=O)OC)C)C)C(=O)OCC
INCHI=N/A
INCHIAUX=N/A
PUBMED=N/A
SUBMITUSER=negarg
LIBRARYQUALITY=1
SPECTRUMID=CCMSLIB00000078489
USI=mzspec:GNPS:GNPS-SELLECKCHEM-FDA-PART2:accession:CCMSLIB00000078489
SCANS=1932
45.421131	200.0
48.186886	164.0
48.709179	212.0
51.312962	164.0
51.46706	152.0
52.323051	148.0
54.289143	148.0
55.851822	168.0
58.307304	140.0
61.591045	172.0
62.971737	188.0
64.085396	144.0
64.471573	164.0
65.178627	240.0
65.829079	152.0
66.577278	152.0
67.475128	148.0
68.360893	180.0
68.999245	148.0
69.650528	156.0
71.560425	144.0
71.573891	144.0
71.958328	176.0
73.574661	188.0
75.198586	180.0
75.31427	188.0
75.462891	156.0
76.216896	192.0
76.272507	204.0
83.913788	152.0
84.94342	160.0
85.161858	188.0
85.494637	248.0
87.04567	144.0
87.512398	180.0
87.849731	180.0
88.432747	156.0
89.874176	140.0
90.858047	148.0
90.987099	168.0
91.761452	200.0
94.535255	220.0
94.957603	144.0
95.072067	144.0
96.773849	200.0
100.869339	148.0
101.089348	152.0
106.064789	180.0
110.617325	184.0
111.118202	148.0
111.279816	140.0
111.893745	196.0
113.103394	184.0
113.442329	224.0
113.788139	196.0
114.517548	164.0
115.057053	172.0
115.277061	192.0
115.743393	140.0
115.979057	144.0
116.631599	148.0
116.949944	176.0
117.158821	156.0
118.470169	180.0
119.288307	164.0
120.061272	172.0
120.644279	180.0
121.025787	208.0
121.099426	204.0
124.949432	172.0
125.950378	232.0
126.053383	348.0
126.455711	160.0
126.558685	232.0
128.058838	164.0
128.629318	216.0
129.033707	176.0
130.039505	436.0
130.075363	160.0
131.069702	236.0
131.434555	208.0
131.455093	180.0
132.97702	148.0
133.535324	144.0
134.05629	132.0
135.664352	220.0
135.743195	176.0
136.08197	168.0
138.233459	248.0
138.252182	164.0
139.051376	204.0
140.067947	316.0
140.39003	240.0
141.093689	140.0
141.488785	176.0
142.078918	164.0
143.255707	196.0
144.07724	120.0
145.095703	196.0
147.044373	148.0
148.038025	164.0
148.134903	144.0
148.251205	196.0
150.018021	440.0
150.051788	256.0
151.064514	204.0
151.325348	156.0
151.467392	192.0
152.059662	276.0
153.065613	168.0
153.973785	164.0
154.065186	148.0
154.084152	124.0
155.048172	276.0
155.067352	296.0
156.052612	176.0
156.080246	156.0
158.067276	188.0
159.028214	148.0
159.470276	144.0
162.183685	168.0
163.351761	148.0
163.713196	172.0
164.049515	172.0
164.541901	160.0
164.766647	144.0
165.068634	168.0
165.741486	196.0
165.777359	192.0
165.96962	180.0
166.057831	152.0
166.075775	184.0
166.783463	144.0
167.014877	152.0
167.075043	196.0
167.993744	204.0
168.054611	328.0
168.0793	1828.0
168.112442	188.0
169.079788	516.0
169.335312	168.0
170.057938	448.0
170.999588	176.0
171.05101	284.0
171.103073	308.0
171.259964	152.0
172.07428	120.0
172.104919	472.0
172.128418	156.0
172.76355	268.0
173.083145	268.0
174.066498	324.0
174.083328	364.0
175.579407	176.0
175.880203	220.0
176.035675	808.0
176.871445	140.0
177.036423	256.0
177.594818	144.0
178.04805	292.0
179.095215	168.0
180.035446	156.0
180.079987	664.0
181.040985	172.0
181.088791	368.0
181.378586	128.0
182.060074	168.0
182.094299	812.0
182.154083	168.0
182.751358	176.0
182.799362	172.0
182.947403	172.0
183.065872	156.0
183.103271	1144.0
184.070557	328.0
184.107437	144.0
184.831329	160.0
185.073685	440.0
186.023849	144.0
186.055557	328.0
186.082657	128.0
186.801056	180.0
187.0625	160.0
187.098373	200.0
187.893494	172.0
188.065414	160.0
189.064362	476.0
190.046936	140.0
191.071609	204.0
191.682877	200.0
191.892365	144.0
192.064911	148.0
192.085419	164.0
192.692764	140.0
193.074234	380.0
194.057632	128.0
194.086121	192.0
194.270828	164.0
195.061371	288.0
196.073959	1096.0
196.107834	136.0
197.060135	300.0
197.080719	524.0
197.11232	332.0
198.056015	268.0
198.087936	468.0
198.467834	196.0
198.936951	200.0
199.064697	160.0
199.094467	536.0
200.033096	612.0
200.074524	156.0
200.094528	144.0
201.034882	308.0
201.887054	148.0
202.048279	168.0
202.085052	196.0
203.090912	276.0
204.08606	196.0
205.585938	140.0
206.039948	140.0
207.066055	152.0
208.074585	1304.0
208.179626	140.0
208.809021	240.0
209.08194	2252.0
210.089203	4864.0
211.095032	1976.0
211.883316	172.0
212.070877	1124.0
212.104233	696.0
213.078186	100.0
213.102631	360.0
213.290787	152.0
214.047989	488.0
214.084595	436.0
214.115707	140.0
214.542542	180.0
215.057266	364.0
215.08989	528.0
215.68396	172.0
216.034866	140.0
216.06543	340.0
217.059845	920.0
218.05217	136.0
219.258957	168.0
219.713058	192.0
220.053726	156.0
222.053513	136.0
223.055969	132.0
223.085632	144.0
223.460968	140.0
224.075302	300.0
225.031708	148.0
225.072845	512.0
226.045868	152.0
226.084717	10496.0
227.084885	1568.0
227.138565	144.0
228.067642	544.0
228.089645	616.0
229.073166	120.0
229.102798	348.0
229.994202	176.0
230.063232	152.0
230.105896	208.0
230.296143	196.0
230.891556	140.0
231.080978	232.0
233.068161	140.0
235.063721	744.0
236.069473	884.0
236.379745	228.0
237.072128	452.0
238.070221	1352.0
238.106689	796.0
238.243942	152.0
239.081268	648.0
239.535995	152.0
239.579132	152.0
240.066849	552.0
240.095947	1012.0
240.556717	164.0
241.07135	880.0
241.10405	604.0
241.148026	140.0
242.045792	264.0
242.077682	1172.0
243.08577	2168.0
243.132156	184.0
243.649292	100.0
244.059341	136.0
244.0923	336.0
244.486984	156.0
245.045868	128.0
245.100067	132.0
246.929855	212.0
248.605972	156.0
249.067871	184.0
250.098877	116.0
250.55864	160.0
251.0466	124.0
251.874146	144.0
252.060669	156.0
252.635986	156.0
253.073303	1952.0
253.376801	144.0
254.079987	9748.0
254.143845	104.0
254.420212	196.0
254.70285	228.0
255.08371	5652.0
255.712967	140.0
255.995468	144.0
256.08902	1612.0
256.136414	116.0
256.800446	144.0
257.088654	776.0
258.071259	252.0
259.080933	156.0
262.212616	224.0
263.012512	176.0
263.939758	176.0
265.064209	128.0
266.067993	500.0
266.344513	208.0
267.084259	1288.0
267.928772	160.0
268.050232	160.0
268.095306	5228.0
268.1521	180.0
268.976715	172.0
269.066559	992.0
269.102295	4968.0
269.321716	148.0
269.66806	180.0
270.068268	864.0
270.104156	1052.0
271.039276	148.0
271.06897	376.0
271.102295	120.0
272.056519	140.0
272.093292	172.0
272.528992	220.0
272.880676	172.0
273.0914	336.0
273.216125	220.0
275.064697	140.0
276.943054	176.0
279.735687	196.0
280.086945	296.0
281.055481	152.0
281.091278	604.0
282.110931	488.0
282.940582	164.0
283.070007	5016.0
283.11853	768.0
283.188385	232.0
283.939148	200.0
284.076813	3512.0
284.966339	204.0
285.063141	2836.0
285.774902	144.0
286.066193	404.0
286.09491	500.0
287.077606	4532.0
288.078857	652.0
288.838928	128.0
289.087494	148.0
289.384827	220.0
290.269196	188.0
295.107849	140.0
296.199585	168.0
296.477112	140.0
297.086792	444.0
298.092743	3256.0
299.078247	2280.0
299.225128	176.0
299.934784	164.0
300.078217	856.0
300.338226	140.0
301.084717	8224.0
302.087952	2004.0
303.091309	320.0
303.424377	132.0
304.061157	148.0
304.111328	124.0
310.463165	216.0
311.315948	140.0
312.107971	896.0
312.662598	148.0
313.083588	576.0
313.338501	240.0
313.997681	260.0
314.089844	156.0
314.128754	176.0
314.265808	128.0
314.526947	140.0
314.562256	180.0
314.872986	168.0
314.972107	120.0
315.022736	176.0
315.097198	84776.0
315.359741	164.0
315.81424	208.0
315.956451	140.0
316.042969	292.0
316.099976	13660.0
316.17926	100.0
316.212952	140.0
316.275085	176.0
316.419891	104.0
316.613922	144.0
316.767548	108.0
316.822021	204.0
316.995636	140.0
317.103088	2388.0
317.83844	140.0
317.968719	104.0
317.998108	108.0
318.098694	548.0
318.131989	128.0
318.313232	140.0
318.360443	100.0
318.426544	156.0
319.13327	180.0
319.246307	148.0
327.684906	108.0
327.870819	148.0
328.659485	160.0
328.965363	204.0
329.113098	58676.0
329.384338	200.0
329.479065	120.0
330.06012	96.0
330.115051	9624.0
330.180023	204.0
331.117249	952.0
331.863983	100.0
332.039368	268.0
332.107971	136.0
332.217102	172.0
332.269257	128.0
332.347717	148.0
332.452393	128.0
332.601746	184.0
333.186432	140.0
339.658997	140.0
357.765503	188.0
359.121124	884.0
360.128723	452.0
361.137878	940.0
362.134064	176.0
362.265289	136.0
365.342102	140.0
365.500427	96.0
427.956085	144.0
1294.244385	148.0
1691.278809	152.0
1709.458008	192.0
1709.778931	208.0
1784.954102	140.0
1807.434448	160.0
1872.221436	168.0
1893.181396	160.0
1902.728271	184.0
1922.29541	188.0
1953.900879	192.0
END IONS

BEGIN IONS
PEPMASS=229.097
CHARGE=1
MSLEVEL=2
SOURCE_INSTRUMENT=LC-ESI-qTof
FILENAME=Plate7_81_88_Plate6_81_88_GD6_01_15772.mzXML
SEQ=*..*
IONMODE=Positive
ORGANISM=GNPS-SELLECKCHEM-FDA-PART2
NAME=Ozagrel [M+H]
PI=Dorrestein
DATACOLLECTOR=Garg_Neha
SMILES=C1=C(C=CC(=C1)/C=C/C(O)=O)CN2C=NC=C2
INCHI=N/A
INCHIAUX=N/A
PUBMED=N/A
SUBMITUSER=negarg
LIBRARYQUALITY=1
SPECTRUMID=CCMSLIB00000078493
USI=mzspec:GNPS:GNPS-SELLECKCHEM-FDA-PART2:accession:CCMSLIB00000078493
SCANS=975
44.978813	172.0
45.244846	156.0
45.366764	176.0
45.514351	156.0
46.169292	360.0
46.664249	164.0
46.809845	148.0
46.914761	148.0
47.261677	140.0
47.453438	224.0
47.937298	152.0
48.047607	148.0
48.173237	140.0
48.304565	224.0
48.441616	164.0
48.495655	168.0
48.651024	148.0
48.720463	176.0
48.956928	160.0
49.199551	160.0
49.323883	172.0
49.671162	140.0
50.517811	144.0
50.536201	152.0
50.894817	180.0
50.911858	188.0
51.083843	144.0
51.379433	116.0
51.866398	164.0
52.983261	156.0
53.05225	212.0
53.305382	188.0
53.501743	192.0
54.450768	244.0
54.747852	212.0
54.762581	216.0
55.430363	144.0
56.0098	216.0
56.176758	140.0
56.240925	176.0
56.354424	168.0
56.384312	144.0
57.265034	200.0
57.281605	216.0
57.504772	172.0
57.893326	140.0
58.514385	172.0
58.694183	140.0
58.895638	148.0
59.024017	200.0
59.370113	164.0
59.580406	144.0
60.086933	168.0
60.225868	152.0
60.817368	232.0
60.842205	152.0
61.316647	156.0
62.147038	144.0
62.60133	140.0
62.631252	148.0
62.954582	160.0
63.495842	144.0
64.912933	164.0
65.045204	184.0
65.094978	280.0
65.443916	160.0
65.558884	184.0
66.138359	188.0
66.300079	140.0
66.420067	236.0
66.845741	140.0
67.072128	148.0
67.191177	144.0
67.245033	208.0
67.738846	148.0
67.769974	220.0
69.393623	148.0
69.785385	196.0
70.413635	188.0
70.846878	188.0
70.965874	148.0
71.043022	200.0
71.192406	172.0
71.405113	180.0
71.542152	148.0
71.735886	204.0
71.999107	168.0
72.698303	196.0
73.107872	168.0
73.252602	188.0
73.549309	168.0
74.223389	148.0
74.405266	168.0
74.661301	180.0
74.781738	140.0
75.647301	236.0
75.794678	136.0
75.873489	144.0
76.024399	188.0
76.330147	172.0
76.856354	144.0
77.020317	164.0
77.282555	196.0
77.340668	176.0
77.752197	184.0
77.832954	176.0
78.358871	168.0
79.279503	208.0
79.568634	200.0
79.660988	160.0
79.998871	208.0
80.182343	204.0
80.228683	140.0
80.389214	176.0
80.676788	176.0
80.698242	176.0
81.528206	216.0
81.844818	204.0
82.216171	148.0
82.237831	192.0
82.629974	152.0
83.308022	144.0
83.413422	156.0
83.83934	148.0
84.196922	256.0
84.859352	144.0
84.989586	200.0
85.061157	168.0
85.329384	180.0
85.493095	148.0
85.721451	160.0
85.920586	188.0
86.302917	184.0
87.038544	180.0
88.118881	280.0
88.152512	252.0
88.348846	192.0
89.027382	192.0
89.072456	176.0
89.113792	168.0
89.749992	232.0
90.048164	188.0
90.18232	176.0
90.416847	152.0
90.44902	140.0
90.524757	168.0
90.632729	252.0
91.053276	1092.0
91.342789	224.0
91.485519	208.0
91.555969	156.0
92.055626	152.0
92.223755	196.0
92.978386	140.0
93.065758	288.0
93.145432	244.0
93.251114	140.0
93.576218	164.0
93.653252	152.0
93.765007	244.0
93.975197	164.0
94.388557	196.0
94.754387	172.0
94.800896	156.0
94.998665	156.0
95.871704	176.0
95.912636	168.0
96.086197	216.0
96.553055	164.0
96.607826	148.0
98.235573	140.0
98.732201	160.0
98.846939	192.0
98.870689	212.0
98.920174	200.0
99.114265	168.0
100.442352	240.0
100.625954	156.0
101.113708	220.0
101.418159	148.0
102.062599	172.0
102.312088	148.0
102.880608	188.0
102.960358	276.0
103.053192	456.0
103.092697	164.0
104.062988	160.0
105.045982	148.0
105.068283	2844.0
105.333809	168.0
105.456413	180.0
105.527962	140.0
106.071236	132.0
106.175056	144.0
106.441841	200.0
106.671257	200.0
106.737747	156.0
106.789162	184.0
107.052597	284.0
107.491692	152.0
107.706406	144.0
107.79525	164.0
107.927544	148.0
108.012337	144.0
110.111694	184.0
111.217224	152.0
111.242409	148.0
111.387306	176.0
111.830986	156.0
111.997322	208.0
112.987396	156.0
113.211769	252.0
114.043457	168.0
114.456184	280.0
114.552025	180.0
114.865387	164.0
114.880318	144.0
114.949677	172.0
114.974205	324.0
115.027565	192.0
115.053596	31328.0
115.287315	124.0
115.34671	160.0
115.485992	136.0
115.647453	212.0
115.994469	156.0
116.05661	2544.0
116.120972	160.0
116.326965	144.0
116.689774	128.0
116.78492	172.0
116.905151	164.0
116.950348	184.0
117.06987	216.0
117.480446	156.0
117.527977	136.0
117.732994	180.0
118.522583	224.0
118.54425	140.0
119.047462	2052.0
119.218262	192.0
119.467041	144.0
120.009354	176.0
120.055145	308.0
120.448021	164.0
120.533226	152.0
121.2313	176.0
121.354057	160.0
122.591629	148.0
122.688614	192.0
122.920212	180.0
123.034988	168.0
123.791191	148.0
124.392052	176.0
124.736366	164.0
125.047775	140.0
125.112328	212.0
125.776642	172.0
125.827988	192.0
127.076889	236.0
127.092598	140.0
127.92868	140.0
128.397354	208.0
128.878189	168.0
129.620392	172.0
129.921951	228.0
130.080811	156.0
130.162537	228.0
130.501114	160.0
131.133972	164.0
131.165878	144.0
131.298126	140.0
132.72081	136.0
133.030273	164.0
133.063263	5708.0
133.464508	164.0
133.809631	156.0
134.06633	408.0
134.254364	204.0
134.819977	152.0
135.041931	160.0
135.065063	200.0
135.111328	152.0
135.141403	200.0
135.319626	160.0
135.87587	276.0
136.562271	200.0
137.304138	164.0
138.095901	140.0
138.407166	164.0
138.7258	156.0
139.185669	140.0
140.004028	168.0
141.574524	144.0
141.835144	188.0
141.939468	156.0
142.136353	252.0
142.183807	172.0
142.373749	144.0
142.489014	144.0
143.048386	540.0
143.28241	160.0
143.9646	168.0
144.052979	148.0
144.079254	216.0
144.885498	188.0
145.432251	180.0
145.927612	168.0
146.483063	148.0
146.738525	360.0
146.931473	288.0
147.14386	152.0
147.204224	156.0
147.438568	160.0
147.907791	232.0
148.195984	192.0
148.559662	160.0
149.09935	152.0
149.137589	204.0
149.633865	212.0
150.04805	204.0
150.140717	204.0
150.479904	180.0
151.081131	180.0
152.37561	176.0
152.461624	180.0
153.285034	188.0
153.54982	152.0
153.957031	156.0
154.011368	164.0
154.050888	168.0
154.08548	176.0
154.622086	144.0
155.154648	180.0
155.607224	164.0
156.685608	224.0
156.730453	192.0
157.231705	188.0
157.631287	212.0
158.329254	180.0
158.569763	144.0
158.670044	156.0
158.875687	220.0
158.907944	136.0
158.943436	156.0
158.960999	156.0
159.184418	172.0
159.576416	152.0
160.034332	188.0
160.05336	660.0
160.218201	232.0
160.606415	168.0
160.678909	152.0
160.802307	188.0
160.855133	288.0
160.882309	180.0
160.941589	256.0
160.977325	380.0
161.009079	680.0
161.059891	175324.0
161.217468	128.0
161.239883	156.0
161.274384	104.0
161.299026	192.0
161.327789	204.0
161.352264	148.0
161.375473	172.0
161.426544	200.0
161.474365	2328.0
161.544678	100.0
161.602646	104.0
161.736862	128.0
161.772781	96.0
161.827576	132.0
161.933594	100.0
161.968857	144.0
162.062057	21476.0
162.148438	128.0
162.315231	108.0
162.598465	116.0
162.624786	140.0
162.776749	96.0
162.937576	220.0
162.986771	104.0
163.00943	116.0
163.065369	2448.0
163.100189	124.0
163.133743	160.0
163.192184	156.0
163.265503	200.0
163.293182	96.0
163.361725	248.0
163.389084	252.0
163.424576	232.0
163.764404	104.0
163.935562	156.0
164.058472	140.0
164.168442	144.0
164.45726	148.0
165.130219	184.0
165.647263	180.0
167.733871	188.0
168.901047	180.0
169.584625	164.0
169.944077	152.0
172.960419	200.0
174.879181	188.0
176.610092	212.0
178.817657	164.0
178.934784	160.0
179.931931	140.0
181.317566	184.0
181.456955	164.0
183.815933	220.0
186.472687	160.0
186.630371	224.0
186.953857	148.0
189.20874	160.0
189.41687	176.0
189.641556	148.0
190.11055	152.0
190.354874	148.0
195.299316	196.0
196.221085	176.0
197.466537	216.0
198.477509	188.0
198.699097	168.0
200.462112	160.0
204.967163	120.0
205.986389	156.0
207.474503	152.0
207.577713	184.0
209.097458	168.0
212.774429	172.0
214.216904	164.0
216.015137	144.0
216.413162	160.0
216.768646	156.0
220.177246	140.0
221.558624	152.0
222.74823	148.0
223.446869	156.0
223.756393	140.0
223.863586	144.0
225.068314	188.0
225.384933	220.0
227.007385	144.0
227.106369	164.0
227.202362	176.0
227.565521	204.0
227.78775	268.0
228.028656	184.0
228.1604	168.0
228.84523	136.0
228.896988	144.0
228.988556	152.0
229.0345	160.0
229.097366	81836.0
229.590698	260.0
229.930176	152.0
229.965698	120.0
230.036484	172.0
230.099182	10692.0
230.15361	236.0
230.4935	128.0
230.567581	132.0
231.101532	680.0
231.79483	124.0
231.816269	216.0
231.846939	144.0
231.897537	200.0
232.03093	160.0
233.111511	172.0
237.878448	112.0
264.160583	144.0
427.368958	148.0
1242.133545	168.0
1278.102661	196.0
1376.530029	152.0
1403.026611	200.0
1403.779663	152.0
1487.653076	140.0
1488.697266	152.0
1493.731567	192.0
1506.58252	188.0
1507.362915	144.0
1512.761597	156.0
1521.630615	164.0
1554.414185	200.0
1571.98645	156.0
1578.535156	152.0
1582.151123	168.0
1593.317871	212.0
1599.098877	160.0
1616.224976	232.0
1634.87439	164.0
1637.12854	188.0
1652.206665	156.0
1658.660889	164.0
1658.985229	144.0
1664.835449	176.0
1668.687012	144.0
1671.867554	180.0
1678.294922	160.0
1682.333496	240.0
1687.815796	172.0
1690.842651	176.0
1691.931396	152.0
1694.929077	208.0
1698.413452	232.0
1700.751953	152.0
1704.940796	168.0
1707.185181	188.0
1730.363892	224.0
1741.492798	152.0
1741.783447	160.0
1758.862183	148.0
1766.525024	160.0
1771.489258	168.0
1780.338257	152.0
1780.481079	152.0
1785.355591	180.0
1790.000854	156.0
1793.724854	144.0
1793.876587	144.0
1794.154785	172.0
1810.547485	204.0
1813.504395	144.0
1823.927979	160.0
1828.682739	184.0
1836.078125	192.0
1840.643677	140.0
1850.776611	224.0
1854.025269	200.0
1862.586182	176.0
1866.64978	152.0
1867.674805	152.0
1868.053345	140.0
1882.326294	148.0
1891.421631	176.0
1903.66394	196.0
1919.065918	148.0
1921.220093	160.0
1921.8396	152.0
1926.413818	196.0
1928.572876	156.0
1932.718262	144.0
1933.357056	148.0
1938.734253	180.0
1942.022095	220.0
1943.478394	152.0
1947.841675	148.0
1949.985718	156.0
1963.147583	212.0
1963.782593	168.0
1967.391724	204.0
1972.577393	164.0
1980.47937	160.0
1986.418457	184.0
1987.474243	164.0
1992.064331	164.0
1999.595703	164.0
END IONS

BEGIN IONS
PEPMASS=387.253
CHARGE=1
MSLEVEL=2
SOURCE_INSTRUMENT=LC-ESI-qTof
FILENAME=Plate8_41_60_GC11_01_15764.mzXML
SEQ=*..*
IONMODE=Positive
ORGANISM=GNPS-SELLECKCHEM-FDA-PART2
NAME=Medroxyprogesterone acetate [M+H]
PI=Dorrestein
DATACOLLECTOR=Garg_Neha
SMILES=C1C(C=C2[C@](C1)([C@]3([C@@](C[C@@H]2C)([C@]4([C@](CC3)([C@@](CC4)(C(=O)C)OC(C)=O)C)[H])[H])[H])C)=O
INCHI=N/A
INCHIAUX=N/A
PUBMED=N/A
SUBMITUSER=negarg
LIBRARYQUALITY=1
SPECTRUMID=CCMSLIB00000078513
USI=mzspec:GNPS:GNPS-SELLECKCHEM-FDA-PART2:accession:CCMSLIB00000078513
SCANS=2304
47.54277	148.0
48.105732	188.0
48.133343	160.0
53.338913	188.0
53.721901	188.0
53.771511	184.0
53.809467	172.0
53.89418	144.0
55.005966	172.0
55.295673	156.0
56.064999	144.0
57.280151	196.0
57.444466	140.0
58.531174	160.0
59.357872	204.0
59.91428	144.0
60.454708	152.0
60.608013	164.0
61.369652	176.0
61.777283	252.0
63.080967	164.0
63.243896	168.0
66.050682	244.0
68.352814	160.0
68.928314	176.0
70.525467	188.0
71.350327	144.0
76.852516	232.0
77.236862	188.0
77.559052	156.0
81.079269	224.0
81.328575	144.0
81.414757	160.0
82.123878	164.0
82.358521	168.0
83.80806	140.0
84.983757	140.0
85.03331	196.0
86.239723	144.0
86.806236	164.0
87.985909	148.0
88.850563	208.0
88.933128	140.0
90.23674	248.0
91.057854	208.0
92.057106	184.0
92.175545	224.0
93.069534	416.0
93.118103	160.0
93.235298	152.0
93.612358	228.0
95.048645	148.0
95.08329	152.0
96.650375	152.0
97.063614	2304.0
97.312881	196.0
97.843727	172.0
98.069748	576.0
98.975082	152.0
100.196602	232.0
100.250397	164.0
103.565536	180.0
104.216743	204.0
105.073341	340.0
105.290291	160.0
106.318024	168.0
106.983994	176.0
107.050835	148.0
107.08403	532.0
107.389938	172.0
108.24968	176.0
108.6269	172.0
109.064331	292.0
109.09996	276.0
109.873024	144.0
110.100548	164.0
110.309494	148.0
110.434952	200.0
111.080841	196.0
114.042686	180.0
115.048073	148.0
116.10302	160.0
117.066048	136.0
118.235893	160.0
118.890388	176.0
119.084938	1108.0
119.250916	156.0
120.091972	272.0
121.061562	152.0
121.101135	312.0
121.750351	152.0
121.893143	252.0
123.080376	13528.0
123.11483	348.0
123.703918	172.0
123.881073	172.0
124.016243	184.0
124.083862	828.0
124.637642	184.0
125.03125	216.0
125.094299	248.0
125.452232	148.0
126.515617	152.0
126.979454	156.0
127.140991	164.0
128.061905	160.0
128.09433	180.0
129.068695	292.0
129.413254	172.0
131.084854	1036.0
132.087479	176.0
132.416962	164.0
132.820374	176.0
133.06134	148.0
133.099716	908.0
134.102997	316.0
134.569397	176.0
135.07753	716.0
135.113129	428.0
136.082565	112.0
137.094376	2724.0
137.14444	144.0
138.101089	296.0
139.103485	144.0
139.118088	260.0
139.981644	148.0
141.071732	160.0
142.025986	196.0
142.074951	112.0
142.144608	156.0
143.086487	716.0
144.082275	116.0
144.338516	176.0
144.522705	140.0
144.544235	172.0
145.100372	1588.0
146.101349	380.0
147.079086	124.0
147.116806	1932.0
147.166687	200.0
147.294693	152.0
148.083221	188.0
148.118164	500.0
149.094711	136.0
149.130814	580.0
151.11351	512.0
151.145798	176.0
151.514389	96.0
151.723831	152.0
152.088638	120.0
152.116348	184.0
154.732025	144.0
154.91777	196.0
154.962357	156.0
155.004486	184.0
155.082214	220.0
156.091309	352.0
157.09964	820.0
158.104935	148.0
159.002136	180.0
159.079437	268.0
159.116241	1140.0
160.089233	136.0
160.121399	352.0
161.095245	552.0
161.130249	1836.0
161.767242	144.0
162.100677	224.0
162.135315	376.0
162.197876	164.0
162.763641	168.0
163.115005	272.0
163.147491	472.0
163.793655	148.0
163.959274	192.0
164.112854	192.0
164.165771	164.0
165.090225	164.0
165.131149	148.0
166.278961	184.0
168.086411	164.0
168.775223	176.0
169.099426	596.0
170.103287	168.0
171.116333	2220.0
172.080261	172.0
172.119522	560.0
173.132324	2188.0
174.138885	592.0
174.677734	128.0
175.109314	604.0
175.146408	4248.0
176.115997	256.0
176.148636	732.0
176.351791	180.0
177.1259	932.0
177.165771	112.0
178.125656	292.0
179.111343	160.0
179.513794	140.0
181.097092	112.0
181.666901	184.0
181.747391	156.0
182.107666	140.0
183.114288	660.0
183.14267	144.0
183.813965	204.0
184.125336	336.0
184.913879	152.0
185.095078	320.0
185.13205	1264.0
186.101852	156.0
186.136536	140.0
186.636505	260.0
187.111511	1008.0
187.146255	1056.0
187.589401	212.0
188.112854	148.0
188.150497	116.0
188.173233	212.0
189.128204	1340.0
189.162964	484.0
190.129974	508.0
190.164307	152.0
191.142532	1192.0
192.143402	468.0
193.004028	124.0
193.096497	180.0
194.169495	180.0
195.066345	152.0
195.115448	304.0
195.767502	176.0
196.121185	344.0
196.659653	140.0
197.098099	148.0
197.130981	1704.0
197.193115	140.0
197.900879	220.0
198.140274	448.0
199.114075	152.0
199.1474	1260.0
199.879761	144.0
200.153122	416.0
201.126266	388.0
201.161819	976.0
202.124817	172.0
202.167145	160.0
202.369339	188.0
202.553421	156.0
203.142288	1004.0
203.177429	128.0
204.147186	320.0
204.182632	268.0
204.424438	172.0
204.802826	128.0
205.158966	2468.0
206.160767	932.0
206.853317	140.0
207.122864	124.0
207.159729	196.0
208.123184	164.0
209.131638	468.0
210.141724	360.0
210.972198	144.0
211.146286	888.0
211.172363	208.0
212.029358	172.0
212.155396	472.0
213.073975	152.0
213.124084	548.0
213.161087	744.0
214.133148	4328.0
215.140396	3276.0
215.180649	412.0
216.146957	324.0
217.157928	828.0
218.162949	272.0
219.737747	172.0
219.855774	200.0
220.12529	176.0
220.328217	160.0
221.128952	252.0
222.133316	272.0
223.093246	156.0
223.147415	504.0
223.215149	144.0
224.157471	124.0
224.406189	164.0
225.12233	140.0
225.161942	1036.0
225.191299	172.0
225.415085	200.0
226.165649	296.0
227.143723	252.0
227.17923	1240.0
228.185318	132.0
229.156387	404.0
229.563766	144.0
230.155655	136.0
231.174515	1164.0
233.133621	180.0
233.157059	268.0
234.139145	184.0
235.147491	436.0
236.15889	240.0
237.162781	348.0
238.169769	124.0
239.142197	320.0
239.175491	444.0
240.150421	256.0
240.191101	216.0
241.154251	380.0
241.311432	144.0
242.149597	164.0
243.173843	300.0
243.217346	196.0
243.42778	160.0
244.165573	160.0
245.148056	192.0
245.187851	1288.0
246.133804	140.0
246.197479	316.0
246.389923	216.0
247.153473	172.0
248.123764	216.0
248.39032	148.0
249.165665	352.0
249.904587	168.0
250.167496	136.0
250.997574	144.0
251.178452	1356.0
252.180405	512.0
252.273102	140.0
253.156952	188.0
253.198349	116.0
253.824509	140.0
254.159027	156.0
255.179413	112.0
255.807053	144.0
256.170074	176.0
257.152679	2572.0
257.477844	192.0
258.018066	116.0
258.155457	716.0
259.15683	164.0
260.172729	172.0
261.160492	140.0
262.023193	156.0
262.167786	148.0
262.210114	164.0
263.17923	248.0
264.229584	120.0
265.193481	604.0
266.202698	2304.0
266.328949	160.0
267.172058	252.0
267.209808	4788.0
267.281494	156.0
267.5737	124.0
268.214935	1364.0
269.188812	1568.0
269.225464	132.0
269.917145	272.0
270.189819	616.0
270.597717	140.0
271.174255	160.0
273.15094	176.0
274.18811	144.0
274.554047	236.0
275.156586	156.0
275.286682	188.0
277.132446	152.0
279.766174	168.0
279.796143	192.0
281.197083	300.0
281.22821	180.0
281.379761	168.0
281.910858	208.0
282.19165	144.0
282.227539	192.0
282.55838	180.0
283.205597	2940.0
283.460236	236.0
284.21283	1412.0
284.795502	144.0
285.023712	172.0
285.221344	21096.0
285.415955	116.0
285.54248	184.0
285.767609	220.0
286.177673	248.0
286.223755	4420.0
287.226868	448.0
287.49176	180.0
287.580048	192.0
288.067169	108.0
288.241028	112.0
288.34967	116.0
288.948669	140.0
289.205841	144.0
291.210602	808.0
292.213806	364.0
292.74353	176.0
294.633148	152.0
294.968048	152.0
299.199463	136.0
299.311523	164.0
301.217621	292.0
302.220123	184.0
303.228302	280.0
304.255829	160.0
306.213562	156.0
307.444244	216.0
308.796326	148.0
308.848785	168.0
309.144958	152.0
309.221985	5268.0
309.296997	120.0
309.573242	240.0
310.223724	1376.0
311.228546	288.0
312.296722	152.0
317.177673	176.0
318.674133	168.0
319.787231	160.0
320.367645	156.0
320.786896	112.0
321.463684	188.0
322.397888	160.0
323.43866	148.0
325.223724	156.0
326.134338	168.0
326.164795	148.0
326.639465	176.0
326.792542	196.0
326.922791	96.0
326.952484	144.0
326.981293	144.0
327.005432	156.0
327.081573	116.0
327.155518	128.0
327.232208	81420.0
327.493011	236.0
327.557251	108.0
327.774597	116.0
327.82782	212.0
327.885254	140.0
327.922394	212.0
327.969452	248.0
328.235748	15076.0
328.4646	100.0
329.066803	124.0
329.238403	2256.0
330.071594	204.0
330.241791	280.0
330.281311	140.0
330.481659	144.0
330.527405	112.0
331.4104	176.0
331.59256	220.0
339.482849	212.0
340.139587	144.0
341.58371	168.0
343.237366	240.0
345.028107	156.0
345.068787	228.0
345.24292	1148.0
346.2612	256.0
348.18515	144.0
352.252563	156.0
354.879791	156.0
355.772705	168.0
356.460571	148.0
360.31839	224.0
360.501129	200.0
364.049408	140.0
366.40387	144.0
369.515472	144.0
370.736969	144.0
375.284424	164.0
382.996521	168.0
385.024353	96.0
385.227783	156.0
385.313721	180.0
385.399689	160.0
385.612885	128.0
386.000061	148.0
386.125366	220.0
386.226746	108.0
386.293182	144.0
386.386017	120.0
386.700897	120.0
386.833771	160.0
386.863617	120.0
387.0578	280.0
387.1091	140.0
387.14801	188.0
387.253693	104880.0
387.403992	188.0
387.444794	124.0
387.690155	216.0
387.726196	100.0
387.757935	136.0
387.792419	144.0
387.861664	212.0
387.899353	312.0
387.946808	124.0
388.098633	120.0
388.130798	160.0
388.158386	168.0
388.2052	96.0
388.256378	24428.0
388.617096	216.0
388.846863	204.0
389.18631	168.0
389.258942	2948.0
389.338013	100.0
389.69278	112.0
389.737244	144.0
390.259796	756.0
390.372925	320.0
390.574768	108.0
390.612213	132.0
390.793488	108.0
390.86911	204.0
391.071747	152.0
391.300781	96.0
391.670807	100.0
392.270538	100.0
399.498993	168.0
405.272125	164.0
410.308197	156.0
428.268005	196.0
461.945618	108.0
522.216431	152.0
575.631226	156.0
997.205933	144.0
1081.634155	144.0
1304.346191	160.0
1315.237427	144.0
1341.147095	148.0
1347.759033	196.0
1370.299194	220.0
1390.078735	140.0
1484.362183	180.0
1490.787476	228.0
1505.231323	156.0
1523.766724	172.0
1535.692627	140.0
1576.250244	212.0
1584.296875	160.0
1588.760132	176.0
1641.349976	184.0
1676.450806	212.0
1706.615601	192.0
1743.143433	156.0
1780.18396	160.0
1816.42627	188.0
1825.658691	156.0
1827.462036	204.0
1838.369019	240.0
1846.143066	208.0
1855.339111	188.0
1857.01123	184.0
1861.671509	176.0
1876.506104	216.0
1879.939209	180.0
1881.508179	172.0
1919.985229	152.0
1930.185059	176.0
1946.536377	152.0
1970.768677	172.0
1975.189087	204.0
1975.92334	180.0
2000.453003	188.0
END IONS

BEGIN IONS
PEPMASS=416.09
CHARGE=1
MSLEVEL=2
SOURCE_INSTRUMENT=LC-ESI-qTof
FILENAME=Plate8_61_80_GD1_01_15765.mzXML
SEQ=*..*
IONMODE=Positive
ORGANISM=GNPS-SELLECKCHEM-FDA-PART2
NAME=Acemetacin (Emflex) [M+H]
PI=Dorrestein
DATACOLLECTOR=Garg_Neha
SMILES=CC1N(C2=C(C=1CC(OCC(O)=O)=O)C=C(C=C2)OC)C(=O)C3=CC=C(C=C3)Cl
INCHI=N/A
INCHIAUX=N/A
PUBMED=N/A
SUBMITUSER=negarg
LIBRARYQUALITY=1
SPECTRUMID=CCMSLIB00000078527
USI=mzspec:GNPS:GNPS-SELLECKCHEM-FDA-PART2:accession:CCMSLIB00000078527
SCANS=2020
45.22517	148.0
45.27047	120.0
45.798523	148.0
46.834755	152.0
46.951969	148.0
47.75045	152.0
48.483566	172.0
48.762531	148.0
49.800674	208.0
49.838608	160.0
49.861092	200.0
50.266682	160.0
50.407894	164.0
50.496964	192.0
51.471886	152.0
52.35527	140.0
52.863434	148.0
54.235428	160.0
54.640739	164.0
55.100739	188.0
56.958508	156.0
57.111832	188.0
58.735672	188.0
59.470146	228.0
59.606831	160.0
60.600548	184.0
60.743179	184.0
61.499424	164.0
62.392338	196.0
62.954861	224.0
63.642113	196.0
64.020576	148.0
64.510422	188.0
64.703995	208.0
65.737549	216.0
66.373283	144.0
68.669441	152.0
69.295967	176.0
69.385468	140.0
70.178551	160.0
70.828659	156.0
71.93515	160.0
72.391655	188.0
72.932877	148.0
73.387428	156.0
75.837257	164.0
76.77961	140.0
77.254715	200.0
78.209328	200.0
78.829773	192.0
79.16626	176.0
80.972153	144.0
81.557076	224.0
84.997002	212.0
85.07592	220.0
87.71582	148.0
88.003128	172.0
88.197418	148.0
88.438713	156.0
88.785324	172.0
89.50695	220.0
89.883949	140.0
90.273094	168.0
90.896324	228.0
91.803726	160.0
92.3423	208.0
92.778893	152.0
93.035973	164.0
93.343391	196.0
93.595467	160.0
93.867165	144.0
93.880669	188.0
93.952034	204.0
94.073616	232.0
94.222321	160.0
94.328606	220.0
94.731117	208.0
95.57373	176.0
95.721672	232.0
96.193497	196.0
96.408348	204.0
97.181831	148.0
97.558922	176.0
98.143669	176.0
98.400642	116.0
99.344193	168.0
100.031776	260.0
100.272789	156.0
102.539604	180.0
103.292755	148.0
104.249741	156.0
104.286324	244.0
104.762489	228.0
104.882713	204.0
105.08461	160.0
105.362274	140.0
106.791069	168.0
107.114235	168.0
109.028137	176.0
110.99939	840.0
112.003433	144.0
112.996567	692.0
113.686417	160.0
113.841393	212.0
114.434654	184.0
114.992683	176.0
115.05294	168.0
116.863998	200.0
116.988831	188.0
118.216652	164.0
119.486328	160.0
119.926216	176.0
120.187912	200.0
121.285782	148.0
121.766296	156.0
122.401855	264.0
123.142853	144.0
123.748772	152.0
124.331772	180.0
124.476067	172.0
125.134232	152.0
126.386398	172.0
126.990273	156.0
127.422272	168.0
127.689774	168.0
128.534576	168.0
129.007339	536.0
129.932877	144.0
130.059967	180.0
131.010498	408.0
131.072891	176.0
132.399261	148.0
132.447693	140.0
133.832199	140.0
134.193939	144.0
134.276962	208.0
134.491531	148.0
136.126068	144.0
136.523453	168.0
136.798004	164.0
136.863205	140.0
138.233429	164.0
138.437088	176.0
138.488617	188.0
138.70462	108.0
138.833145	292.0
138.870667	224.0
138.93869	140.0
138.994568	88724.0
139.044174	108.0
139.152832	148.0
139.288544	152.0
139.381012	260.0
139.425537	156.0
139.447861	120.0
139.613937	144.0
139.997711	7048.0
140.701447	196.0
140.880524	140.0
140.938324	124.0
140.991425	26624.0
141.048874	228.0
141.088226	112.0
141.99501	1300.0
142.991318	200.0
145.34285	156.0
147.633759	172.0
150.887634	148.0
151.75531	124.0
156.092468	160.0
159.070663	188.0
162.084595	164.0
162.302582	172.0
174.091293	11892.0
175.094559	1712.0
176.095718	208.0
176.130661	168.0
181.606064	144.0
188.108582	152.0
193.901474	152.0
201.790268	184.0
202.081955	236.0
203.084427	156.0
204.274612	180.0
208.049713	144.0
211.795654	168.0
218.081772	152.0
220.095535	276.0
232.089996	304.0
233.103653	304.0
241.059113	144.0
254.187317	188.0
255.967438	168.0
257.05127	180.0
258.246094	140.0
259.921173	128.0
260.091248	9280.0
261.095276	1844.0
261.137756	144.0
262.091797	156.0
262.617676	128.0
276.079163	156.0
286.603424	224.0
297.044403	140.0
298.045197	156.0
303.185455	144.0
306.333435	164.0
310.261475	152.0
312.024323	192.0
312.078613	11168.0
313.083649	3564.0
314.075165	3784.0
315.079102	956.0
315.284454	152.0
316.083649	156.0
316.712372	96.0
333.329651	208.0
340.068512	376.0
342.068695	128.0
345.717712	212.0
365.488007	220.0
371.586121	148.0
375.53299	176.0
393.165039	148.0
414.080261	140.0
414.861481	156.0
415.080658	512.0
415.212219	136.0
415.336761	160.0
415.656189	132.0
415.74115	148.0
416.09024	19996.0
416.476318	108.0
416.922241	128.0
417.091339	4792.0
417.218811	152.0
418.087494	5572.0
419.029816	108.0
419.086151	1724.0
419.154327	144.0
419.274017	164.0
420.086212	264.0
420.357269	152.0
421.480225	172.0
1202.887817	168.0
1247.592407	140.0
1249.484253	152.0
1265.286255	152.0
1281.786133	192.0
1299.877808	228.0
1320.156494	172.0
1408.833496	160.0
1434.747681	144.0
1440.075195	164.0
1448.266724	160.0
1489.43457	144.0
1515.960083	140.0
1558.913086	144.0
1564.655029	224.0
1581.999756	188.0
1587.435059	140.0
1599.758423	160.0
1607.601318	200.0
1613.040527	204.0
1629.083618	140.0
1629.356812	172.0
1639.43103	144.0
1640.825439	192.0
1656.876221	168.0
1666.913086	140.0
1668.449341	184.0
1672.410889	180.0
1678.276489	164.0
1693.984619	212.0
1712.557129	204.0
1714.913574	164.0
1715.647217	152.0
1716.43042	140.0
1725.091431	160.0
1731.71106	164.0
1734.544922	200.0
1742.478516	188.0
1747.417114	144.0
1748.440674	180.0
1757.882812	196.0
1762.717773	148.0
1767.12439	156.0
1767.735229	152.0
1773.991821	176.0
1780.452637	284.0
1781.141357	200.0
1793.696167	244.0
1807.259521	204.0
1813.526245	188.0
1821.060791	236.0
1826.704834	168.0
1827.342896	164.0
1828.806641	164.0
1830.72998	228.0
1836.219238	144.0
1841.775635	260.0
1848.923462	148.0
1852.031494	184.0
1854.764893	148.0
1862.272827	144.0
1863.939453	176.0
1891.339233	160.0
1895.704346	192.0
1898.764648	184.0
1901.393433	144.0
1902.105225	184.0
1907.873413	152.0
1911.483032	152.0
1913.641602	152.0
1920.438965	168.0
1921.067017	184.0
1923.973145	148.0
1932.310791	164.0
1945.290039	200.0
1950.841919	188.0
1973.155396	260.0
1974.216553	232.0
1978.499146	180.0
1985.002686	148.0
1986.528198	180.0
1999.581055	192.0
2000.070679	224.0
END IONS

BEGIN IONS
PEPMASS=386.135
CHARGE=1
MSLEVEL=2
SOURCE_INSTRUMENT=LC-ESI-qTof
FILENAME=Plate9_81_88_Plate8_81_88_GC8_01_15759.mzXML
SEQ=*..*
IONMODE=Positive
ORGANISM=GNPS-SELLECKCHEM-FDA-PART2
NAME=Nilvadipine (ARC029) [M+H]
PI=Dorrestein
DATACOLLECTOR=Garg_Neha
SMILES=C1(NC(=C(C(C=1C(=O)OC(C)C)C2=CC=CC(=C2)[N+](=O)[O-])C(OC)=O)C#N)C
INCHI=N/A
INCHIAUX=N/A
PUBMED=N/A
SUBMITUSER=negarg
LIBRARYQUALITY=1
SPECTRUMID=CCMSLIB00000078533
USI=mzspec:GNPS:GNPS-SELLECKCHEM-FDA-PART2:accession:CCMSLIB00000078533
SCANS=2134
52.104984	144.0
54.708405	184.0
62.14875	168.0
63.713421	188.0
70.430283	152.0
74.588928	180.0
78.948181	148.0
87.101212	220.0
90.579109	176.0
117.723	152.0
118.237518	168.0
119.959969	208.0
120.188972	156.0
122.962837	240.0
134.460144	256.0
140.060867	168.0
141.333359	216.0
145.051056	140.0
146.471191	156.0
153.059418	152.0
154.066422	252.0
155.030685	156.0
155.063232	176.0
156.553528	148.0
159.018585	160.0
159.785019	188.0
160.568405	140.0
161.277878	148.0
164.047287	140.0
164.922836	172.0
165.049286	172.0
165.43187	168.0
166.059769	176.0
167.723221	208.0
168.042999	140.0
168.079117	156.0
168.314011	148.0
169.067627	144.0
169.848709	156.0
170.300354	148.0
170.809799	152.0
171.017975	152.0
172.152069	184.0
175.05629	204.0
177.067703	180.0
178.064621	164.0
179.066376	352.0
181.050095	200.0
181.137344	156.0
184.052704	140.0
184.198547	192.0
185.030533	176.0
185.608582	176.0
185.736053	140.0
188.931427	176.0
189.747559	172.0
191.048111	164.0
192.070068	216.0
193.035187	168.0
193.078293	276.0
194.059998	284.0
195.034637	208.0
195.067459	296.0
196.0784	216.0
196.102921	148.0
196.928787	184.0
197.074615	256.0
198.053177	168.0
198.075439	144.0
200.029984	168.0
200.061356	168.0
200.125702	140.0
201.039185	124.0
201.078522	172.0
202.72728	160.0
202.894516	168.0
203.043839	148.0
204.055695	152.0
205.052002	156.0
205.079269	180.0
206.077301	200.0
207.043686	544.0
208.061996	128.0
209.070312	248.0
209.847855	140.0
210.040436	196.0
211.059341	144.0
211.894119	232.0
213.056854	144.0
215.08287	164.0
218.042511	172.0
219.048141	200.0
219.48793	192.0
220.061874	688.0
220.225708	148.0
221.055862	2868.0
222.074875	420.0
223.045502	328.0
224.036606	152.0
224.097046	140.0
224.20433	148.0
225.064438	432.0
226.005768	152.0
226.044861	172.0
226.075989	136.0
226.771606	160.0
227.052536	336.0
227.851883	160.0
228.051712	112.0
228.663773	148.0
232.620407	160.0
234.043243	208.0
235.049118	144.0
236.054565	416.0
237.064636	2136.0
237.834106	180.0
238.058044	424.0
238.814255	148.0
239.017303	164.0
239.048584	548.0
240.048203	516.0
241.061905	124.0
242.052841	152.0
243.051331	132.0
243.076279	328.0
244.815369	164.0
247.045319	152.0
247.322418	140.0
248.055405	312.0
249.061752	488.0
249.565475	196.0
250.06279	492.0
250.090836	288.0
251.074478	200.0
252.051559	952.0
252.082367	336.0
253.020279	168.0
253.060608	448.0
254.074722	116.0
255.055527	184.0
255.126801	140.0
256.065491	160.0
257.053345	172.0
258.06311	204.0
258.837433	196.0
259.071014	148.0
260.035187	156.0
263.033051	144.0
263.081909	148.0
264.0513	880.0
264.613892	152.0
265.060974	1468.0
265.517334	108.0
266.062378	3260.0
267.068146	804.0
268.053375	104.0
268.076569	396.0
269.052429	144.0
270.060883	496.0
270.099945	232.0
270.153015	140.0
271.043182	280.0
271.932251	204.0
272.047272	116.0
273.046021	172.0
277.045197	140.0
278.066956	768.0
278.874969	144.0
279.073944	1128.0
280.049561	288.0
280.081665	2708.0
280.436005	164.0
281.048309	424.0
281.08786	1088.0
281.134064	180.0
282.061493	420.0
283.066376	248.0
283.366669	224.0
284.067078	396.0
285.06662	528.0
286.053314	164.0
286.097076	176.0
287.020233	156.0
292.068176	256.0
293.447601	216.0
294.048401	3368.0
294.92923	120.0
295.056213	2744.0
295.173309	204.0
296.044403	2548.0
296.43869	128.0
297.048218	288.0
297.076141	440.0
298.05658	896.0
299.061462	384.0
300.063141	124.0
302.095612	200.0
303.091675	224.0
305.315613	232.0
308.775269	148.0
309.072845	1776.0
309.629211	196.0
310.055511	944.0
310.112701	152.0
311.058105	192.0
311.431976	188.0
311.660309	156.0
312.063171	9464.0
313.06781	1912.0
313.409058	148.0
314.05365	1324.0
314.710571	148.0
314.963318	156.0
315.054871	360.0
316.093719	520.0
316.326233	188.0
317.095764	348.0
317.509308	124.0
318.091553	156.0
318.127045	224.0
325.327576	220.0
325.370636	176.0
325.528625	172.0
325.906158	156.0
326.017914	256.0
326.076874	26340.0
326.345978	96.0
326.462952	140.0
326.766998	204.0
327.079498	4936.0
327.228363	252.0
328.057037	840.0
329.055176	256.0
330.061615	184.0
330.188354	144.0
342.071533	288.0
343.004669	208.0
343.067322	144.0
343.683228	148.0
344.087799	3232.0
345.092346	780.0
346.088715	136.0
354.102142	316.0
355.111938	288.0
358.137115	560.0
359.137756	232.0
367.321869	156.0
368.118896	320.0
369.128357	176.0
370.105682	108.0
379.071655	140.0
385.1604	140.0
386.133209	4544.0
387.137054	1128.0
388.143188	248.0
388.248474	192.0
389.152832	196.0
END IONS

BEGIN IONS
PEPMASS=583.255
CHARGE=1
MSLEVEL=2
SOURCE_INSTRUMENT=LC-ESI-qTof
FILENAME=Plate9_21_40_GC5_01_15753.mzXML
SEQ=*..*
IONMODE=Positive
ORGANISM=GNPS-SELLECKCHEM-FDA-PART2
NAME=Azelnidipine [M+H]
PI=Dorrestein
DATACOLLECTOR=Garg_Neha
SMILES=C1(=C(C(C(=C(N1)C)C(=O)OC(C)C)C2C=C(C=CC=2)[N+](=O)[O-])C(=O)OC3CN(C3)C(C4C=CC=CC=4)C5C=CC=CC=5)N
INCHI=N/A
INCHIAUX=N/A
PUBMED=N/A
SUBMITUSER=negarg
LIBRARYQUALITY=1
SPECTRUMID=CCMSLIB00000078559
USI=mzspec:GNPS:GNPS-SELLECKCHEM-FDA-PART2:accession:CCMSLIB00000078559
SCANS=1626
44.894958	144.0
45.056469	168.0
45.065823	184.0
45.10725	160.0
45.143715	132.0
45.190166	188.0
45.211578	144.0
45.544083	140.0
45.561863	136.0
45.647568	148.0
45.698681	156.0
45.741749	156.0
45.767326	168.0
45.796329	172.0
45.818508	140.0
46.047878	108.0
46.134605	144.0
46.342731	240.0
46.354927	152.0
46.491894	240.0
46.581505	220.0
46.597931	176.0
46.629131	156.0
46.713364	160.0
46.740574	176.0
46.765072	152.0
46.819393	156.0
46.88356	140.0
47.211208	176.0
47.309723	148.0
47.364799	128.0
47.530388	152.0
47.861656	252.0
47.889202	152.0
47.942932	156.0
48.219456	176.0
48.402946	188.0
48.501312	200.0
48.613651	200.0
48.887417	148.0
48.957024	160.0
49.011353	244.0
49.081047	144.0
49.170326	168.0
49.201038	164.0
49.280014	124.0
49.454052	164.0
49.504456	148.0
49.581505	172.0
49.613743	168.0
49.734383	228.0
49.783524	180.0
49.811611	168.0
49.9958	140.0
50.060558	140.0
50.256306	120.0
50.273426	152.0
50.342602	156.0
50.356724	152.0
50.544746	172.0
50.683514	152.0
50.971565	140.0
51.031265	200.0
51.116608	196.0
51.159309	140.0
51.288937	252.0
51.33456	160.0
51.384483	152.0
51.414448	168.0
51.427509	160.0
51.700275	148.0
51.819122	164.0
51.852081	168.0
51.951019	176.0
52.070156	152.0
52.111816	144.0
52.236893	180.0
52.331879	192.0
52.401394	180.0
52.442802	140.0
52.496143	160.0
52.605801	184.0
52.618793	176.0
52.892017	144.0
53.324253	196.0
53.370773	200.0
53.526466	220.0
53.637192	140.0
53.650986	356.0
53.669266	196.0
53.679474	196.0
53.730526	180.0
53.84584	196.0
53.91597	148.0
53.980293	164.0
53.991989	196.0
54.101734	256.0
54.235035	152.0
54.303947	248.0
54.355293	188.0
54.450256	204.0
54.746323	208.0
54.853878	140.0
55.032391	180.0
55.196404	184.0
55.631996	152.0
55.801361	200.0
55.834076	216.0
55.924831	148.0
56.254257	160.0
56.322948	228.0
56.435032	156.0
56.619091	156.0
56.743462	184.0
57.040707	200.0
57.168118	180.0
57.386967	140.0
57.427685	160.0
57.696472	176.0
57.743347	144.0
57.861378	172.0
57.894691	184.0
57.947708	144.0
57.991653	168.0
58.097801	148.0
58.191895	184.0
58.601936	204.0
58.704685	184.0
58.793167	164.0
58.88884	144.0
58.921429	264.0
58.955044	160.0
59.195221	160.0
59.402721	124.0
59.481976	120.0
59.518768	156.0
59.783772	200.0
59.901726	204.0
60.125294	164.0
60.423523	184.0
60.644966	164.0
60.827099	176.0
60.93399	176.0
61.198006	156.0
61.328865	176.0
61.353806	188.0
61.439583	144.0
61.480152	204.0
61.536686	220.0
61.627739	132.0
61.83371	140.0
61.88501	172.0
62.273918	260.0
62.297482	176.0
62.327332	152.0
62.356632	124.0
62.448383	144.0
62.566402	152.0
62.58057	168.0
62.591595	168.0
62.623089	156.0
62.667198	152.0
62.727085	152.0
62.84613	124.0
63.056973	164.0
63.120209	172.0
63.230946	376.0
63.292397	132.0
63.419083	148.0
63.452713	172.0
63.486012	208.0
63.680763	236.0
63.700283	188.0
63.737591	224.0
63.767017	148.0
63.849735	152.0
63.899002	160.0
63.965843	172.0
63.986538	148.0
64.140503	160.0
64.225571	164.0
64.535393	144.0
64.546585	160.0
64.60154	240.0
64.625381	152.0
64.693779	156.0
64.714592	164.0
64.738678	180.0
64.872162	148.0
65.001511	176.0
65.034584	164.0
65.088722	200.0
65.190994	156.0
65.480827	156.0
65.71109	144.0
65.797791	184.0
66.002861	212.0
66.037407	212.0
66.387222	152.0
66.64045	188.0
66.705452	192.0
66.726593	156.0
66.862144	180.0
66.89045	116.0
67.037483	160.0
67.08667	112.0
67.099785	340.0
67.162529	168.0
67.454765	192.0
67.612328	152.0
67.902313	252.0
68.007317	212.0
68.022095	176.0
68.058212	180.0
68.204422	200.0
68.318352	156.0
68.433838	168.0
68.489082	216.0
68.505554	248.0
68.58136	220.0
68.602783	180.0
68.664696	212.0
69.027107	156.0
69.180031	188.0
69.238937	144.0
69.348282	172.0
69.613731	156.0
69.785522	124.0
69.956238	140.0
69.989532	144.0
70.041275	376.0
70.069481	144.0
70.096138	176.0
70.175446	208.0
70.281227	168.0
70.359673	152.0
70.443176	172.0
70.513351	176.0
70.606979	184.0
70.754692	172.0
70.821205	192.0
70.965332	184.0
70.978745	212.0
71.079384	180.0
71.091133	140.0
71.141487	168.0
71.181786	152.0
71.284248	204.0
71.296684	176.0
71.533173	144.0
71.55674	148.0
71.593788	164.0
71.752174	224.0
71.81794	184.0
71.838409	120.0
71.885902	156.0
71.932686	168.0
72.055046	184.0
72.113419	168.0
72.268997	156.0
72.304535	172.0
72.426437	144.0
72.55014	176.0
72.629845	164.0
72.983086	176.0
73.119171	192.0
73.131088	148.0
73.221985	216.0
73.326958	168.0
73.512848	208.0
73.565758	148.0
73.608437	140.0
73.981163	164.0
74.04966	140.0
74.095909	156.0
74.432083	152.0
74.554054	168.0
74.641724	240.0
74.655479	164.0
75.031494	212.0
75.082573	248.0
75.104591	152.0
75.286217	140.0
75.384689	176.0
75.502243	200.0
75.638931	192.0
75.76799	144.0
75.845055	180.0
75.896591	132.0
75.982056	224.0
76.00808	176.0
76.032372	160.0
76.071007	172.0
76.160858	156.0
76.179962	156.0
76.52372	220.0
76.834541	140.0
77.16288	164.0
77.304558	164.0
77.612854	152.0
77.658455	160.0
77.881363	148.0
77.960426	188.0
78.078209	172.0
78.153854	196.0
78.365143	168.0
78.536591	156.0
78.578476	192.0
78.643768	216.0
78.670242	160.0
78.815071	200.0
78.921127	172.0
79.284012	172.0
79.418755	152.0
79.493271	164.0
79.544739	172.0
79.569595	184.0
79.661942	168.0
79.772118	168.0
79.793449	160.0
79.898384	148.0
79.956467	160.0
80.063919	160.0
80.356308	124.0
80.386589	140.0
80.40979	248.0
80.6241	148.0
80.783234	200.0
80.844063	172.0
80.976547	156.0
81.110931	160.0
81.179062	180.0
81.39888	148.0
81.421333	172.0
81.487793	140.0
81.556084	160.0
81.726929	156.0
81.863731	164.0
81.885338	180.0
82.09079	164.0
82.112434	172.0
82.283859	148.0
82.377769	172.0
82.552933	176.0
82.622032	136.0
82.686958	176.0
82.80645	148.0
82.96566	196.0
83.363777	156.0
83.397942	248.0
83.433571	140.0
83.477936	164.0
83.595268	180.0
83.72361	160.0
83.967484	176.0
83.987885	168.0
84.071808	168.0
84.497559	164.0
84.760773	200.0
84.865692	156.0
84.924377	216.0
85.096878	152.0
85.398682	172.0
85.635681	176.0
85.770187	172.0
86.002602	212.0
86.148476	164.0
86.286011	160.0
86.339615	156.0
86.377701	176.0
86.46096	164.0
86.840767	268.0
87.176796	228.0
87.238136	200.0
87.645729	196.0
87.705452	168.0
87.806297	148.0
87.847076	260.0
87.984756	196.0
88.000114	144.0
88.396378	168.0
88.631454	200.0
88.718941	148.0
89.1446	184.0
89.259262	124.0
89.398468	148.0
89.543427	180.0
89.745064	164.0
89.858772	260.0
89.912956	152.0
89.969582	164.0
90.139565	144.0
90.347549	172.0
90.425133	228.0
90.445953	152.0
90.525467	172.0
90.598106	216.0
90.793205	156.0
90.919487	204.0
90.999504	220.0
91.054573	144.0
91.230377	136.0
91.261703	148.0
91.360603	160.0
91.450592	180.0
91.794487	140.0
91.878792	176.0
91.945572	180.0
92.081123	160.0
92.874832	176.0
92.959846	196.0
93.226776	160.0
93.357498	140.0
93.457527	140.0
93.490242	168.0
93.607666	156.0
93.644257	152.0
93.946892	148.0
93.97197	148.0
94.072327	156.0
94.094864	160.0
94.15921	156.0
94.290588	180.0
94.634918	192.0
94.803329	140.0
94.853828	164.0
95.016731	180.0
95.243858	148.0
95.766304	212.0
96.246819	168.0
96.293991	232.0
96.395409	176.0
96.510605	148.0
96.617653	208.0
96.665131	172.0
96.721886	144.0
96.905975	160.0
97.125534	196.0
97.260826	160.0
97.687332	216.0
97.70504	180.0
97.870369	172.0
97.892029	180.0
97.957024	152.0
98.096931	140.0
98.130447	180.0
98.164803	180.0
98.432335	188.0
98.644753	164.0
98.712936	172.0
98.744583	188.0
98.950378	156.0
99.089012	168.0
99.332855	140.0
99.410233	176.0
99.718056	140.0
99.797577	176.0
100.006348	152.0
100.032455	124.0
100.554558	180.0
100.824173	240.0
100.880142	152.0
101.138649	204.0
101.269173	200.0
101.432632	224.0
101.613121	176.0
101.759842	116.0
101.960625	336.0
101.98864	152.0
102.040909	176.0
102.149506	160.0
102.409164	164.0
102.455498	164.0
102.609734	136.0
102.671173	176.0
102.699409	200.0
102.840645	180.0
102.864868	164.0
103.275055	180.0
103.335693	160.0
103.392403	180.0
103.669846	168.0
103.701958	152.0
103.839279	112.0
103.927376	148.0
104.280724	188.0
104.346703	172.0
104.453552	184.0
104.622459	176.0
104.662933	132.0
104.742607	168.0
104.976173	120.0
105.471062	192.0
105.838669	128.0
105.910988	244.0
106.009323	140.0
106.044838	232.0
106.207886	180.0
106.234863	164.0
106.353882	188.0
106.4935	148.0
106.600327	196.0
106.631157	208.0
106.68129	164.0
106.888214	192.0
106.904678	180.0
107.067314	224.0
107.397079	156.0
107.502296	144.0
107.544838	176.0
107.834793	208.0
107.865799	156.0
108.244415	180.0
108.277939	252.0
108.416351	144.0
108.437073	172.0
108.517921	148.0
108.542801	144.0
108.935066	140.0
109.273933	156.0
109.307571	200.0
109.666328	240.0
109.853088	160.0
109.884384	180.0
109.960129	160.0
109.986641	164.0
110.197563	140.0
110.287422	160.0
110.354317	152.0
110.674438	196.0
110.743553	168.0
110.772873	272.0
110.963585	144.0
111.020195	152.0
111.036972	152.0
111.107933	140.0
111.217415	168.0
111.404297	196.0
111.43988	168.0
111.51413	164.0
111.761292	260.0
111.820633	196.0
112.094406	156.0
112.543694	192.0
112.687325	212.0
112.824699	160.0
113.017159	188.0
113.536148	196.0
113.599777	200.0
113.735588	180.0
113.807762	152.0
113.932281	356.0
113.947945	200.0
114.094589	140.0
114.391403	228.0
114.588341	160.0
114.688499	176.0
114.769508	192.0
114.880409	144.0
115.054634	444.0
115.130142	140.0
115.489197	168.0
115.510582	176.0
115.689537	128.0
115.998817	152.0
116.500961	204.0
116.591087	208.0
116.66214	164.0
116.907043	116.0
117.402824	240.0
117.537643	128.0
117.696297	196.0
118.339912	180.0
118.386101	172.0
118.40126	148.0
118.470573	160.0
118.513908	176.0
119.175201	164.0
119.230003	176.0
119.623695	132.0
119.756371	180.0
119.821869	196.0
120.013664	148.0
120.081268	172.0
120.35405	148.0
120.614021	172.0
120.638069	168.0
120.694916	144.0
120.749588	172.0
120.804268	176.0
120.915863	168.0
121.05159	220.0
121.073486	224.0
121.505302	196.0
121.618126	116.0
121.819237	188.0
121.889046	160.0
123.048103	156.0
123.109924	140.0
123.443611	164.0
123.76889	188.0
124.059128	172.0
124.318634	240.0
124.351921	228.0
124.54509	148.0
124.653954	200.0
124.996399	164.0
125.069839	192.0
125.254654	152.0
125.403946	164.0
125.448524	184.0
125.589005	156.0
125.859146	168.0
125.921562	204.0
126.047211	432.0
126.071251	148.0
126.10701	164.0
126.160652	200.0
126.194191	144.0
126.236671	148.0
126.274689	200.0
126.402206	152.0
126.677589	300.0
126.856865	180.0
127.053474	316.0
127.105934	156.0
127.177628	176.0
127.256203	156.0
127.638176	232.0
127.719139	164.0
127.901398	188.0
127.955421	140.0
127.993698	160.0
128.062881	548.0
128.122086	172.0
128.268555	160.0
128.315903	204.0
128.503098	144.0
128.618195	156.0
128.652054	180.0
128.824783	148.0
128.899246	204.0
128.916306	156.0
129.431168	200.0
129.49321	168.0
129.638199	208.0
129.761169	176.0
129.875473	140.0
129.902145	156.0
129.980621	180.0
129.996506	144.0
130.041885	156.0
130.060043	140.0
130.098633	180.0
130.216705	140.0
130.389374	208.0
131.00145	168.0
131.265839	160.0
131.66748	168.0
131.724915	108.0
131.806824	144.0
131.948532	144.0
132.170395	172.0
132.319168	152.0
132.445114	140.0
132.468033	208.0
132.52301	180.0
132.61467	172.0
132.633011	160.0
132.720123	160.0
132.86615	192.0
133.03215	184.0
133.110214	152.0
133.30777	164.0
133.533066	156.0
133.92894	144.0
134.087921	180.0
134.276123	228.0
134.369247	168.0
134.433853	176.0
134.671646	152.0
135.027573	184.0
135.085403	176.0
135.210342	172.0
135.238113	164.0
135.270523	156.0
135.321457	172.0
135.346924	164.0
135.633011	164.0
135.824341	188.0
136.254959	148.0
136.416473	160.0
136.453674	184.0
136.667648	192.0
136.718842	160.0
137.180023	176.0
137.233643	196.0
137.419617	136.0
137.606949	184.0
137.872421	192.0
138.046234	144.0
138.343369	148.0
138.726166	168.0
138.891708	156.0
139.055191	524.0
139.088806	168.0
139.267258	168.0
139.485779	212.0
139.546906	148.0
139.678604	184.0
139.961014	140.0
140.060059	300.0
140.231934	148.0
140.304382	152.0
140.67775	212.0
140.725403	168.0
140.758011	144.0
140.984802	160.0
141.071182	1504.0
141.207031	204.0
141.274994	212.0
141.332703	156.0
141.376175	224.0
141.469681	140.0
141.486252	172.0
141.510086	176.0
141.749146	228.0
141.907959	180.0
142.071198	472.0
142.138046	152.0
142.182495	164.0
142.211609	152.0
142.411118	160.0
143.41037	144.0
143.522415	196.0
143.62973	148.0
143.949539	212.0
143.966248	164.0
144.023575	140.0
144.064636	144.0
144.126297	184.0
144.143021	140.0
144.194824	172.0
144.329468	192.0
144.387665	152.0
144.633301	176.0
144.798508	380.0
145.244308	184.0
145.304291	172.0
145.364273	164.0
145.383469	148.0
145.496277	200.0
145.635559	148.0
145.707626	144.0
145.832581	184.0
145.854218	184.0
145.948517	160.0
146.068222	172.0
146.22702	156.0
146.28479	164.0
146.467804	156.0
146.559341	144.0
146.742523	156.0
146.792877	136.0
147.015091	144.0
147.271011	200.0
147.331406	280.0
147.548904	228.0
147.631119	212.0
147.99408	144.0
148.270233	156.0
148.35022	176.0
148.405991	212.0
148.636414	176.0
148.701935	200.0
149.051636	220.0
149.443115	160.0
149.61348	152.0
149.637817	164.0
150.005676	264.0
150.044052	964.0
150.337387	192.0
150.388565	136.0
150.517044	240.0
150.598618	192.0
150.766647	144.0
150.962769	204.0
151.05336	3364.0
151.109528	260.0
151.266159	304.0
151.293076	156.0
151.499588	280.0
151.589447	148.0
151.613953	200.0
151.672897	152.0
151.729156	156.0
151.801559	188.0
151.915543	156.0
151.935165	200.0
151.992371	148.0
152.062256	46724.0
152.12442	228.0
152.21994	156.0
152.444244	172.0
152.522476	212.0
152.585861	136.0
152.709549	112.0
153.024918	148.0
153.065186	4532.0
153.427963	144.0
153.480667	120.0
153.739563	216.0
154.069733	472.0
154.300613	212.0
154.333038	116.0
154.413193	140.0
154.785889	180.0
155.014771	204.0
155.045578	136.0
155.074249	140.0
155.104752	128.0
155.253433	160.0
155.530624	176.0
155.751617	156.0
155.811249	232.0
156.136871	196.0
156.724686	144.0
156.751755	184.0
156.82901	172.0
157.093323	220.0
157.19313	140.0
157.403351	292.0
157.6651	144.0
157.747055	220.0
157.922623	164.0
158.508438	244.0
158.831848	148.0
158.888733	248.0
159.011017	108.0
159.356522	188.0
159.41684	176.0
159.472122	172.0
159.514862	176.0
159.550049	188.0
159.972687	148.0
160.29454	172.0
161.039291	160.0
161.711838	152.0
162.003036	212.0
162.134781	180.0
162.198151	152.0
162.574677	244.0
162.662033	128.0
162.96965	152.0
163.053558	876.0
163.380112	116.0
163.452759	176.0
163.732788	236.0
164.025787	192.0
164.061401	860.0
164.207825	124.0
164.239975	176.0
164.273132	168.0
164.344574	176.0
164.627914	164.0
164.699417	160.0
164.769058	156.0
164.849121	148.0
164.870132	196.0
164.9478	164.0
165.044312	180.0
165.070251	57584.0
165.157257	128.0
165.186447	104.0
165.33551	208.0
165.443558	216.0
165.510117	180.0
165.557388	160.0
165.589508	232.0
165.677582	136.0
165.722626	120.0
165.768845	176.0
165.811203	136.0
165.854202	144.0
165.948975	100.0
165.986725	264.0
166.035446	308.0
166.076721	20628.0
166.136948	176.0
166.159546	116.0
166.189575	96.0
166.213013	164.0
166.294159	136.0
166.365845	224.0
166.439911	96.0
166.523605	144.0
166.590515	252.0
166.61264	436.0
166.635406	140.0
166.733002	140.0
166.772705	220.0
166.803009	208.0
166.864502	408.0
166.905045	208.0
166.913528	336.0
166.956223	484.0
166.996597	200.0
167.003067	568.0
167.020859	680.0
167.039474	552.0
167.087128	384136.0
167.170853	296.0
167.207489	96.0
167.256607	120.0
167.27887	256.0
167.308716	336.0
167.336288	344.0
167.366516	176.0
167.394867	228.0
167.429977	308.0
167.481522	692.0
167.50914	13704.0
167.543137	332.0
167.590256	160.0
167.634232	316.0
167.651581	284.0
167.698181	200.0
167.730423	216.0
167.75589	136.0
167.802917	144.0
167.854141	136.0
167.891159	188.0
167.922241	204.0
167.956161	108.0
167.961639	184.0
167.983139	108.0
168.056778	572.0
168.089294	119752.0
168.151367	248.0
168.192062	128.0
168.265442	144.0
168.361938	148.0
168.397736	128.0
168.427933	184.0
168.463791	140.0
168.551453	128.0
168.608383	216.0
168.703568	180.0
168.816284	104.0
168.882187	196.0
168.912949	116.0
168.94252	264.0
168.970917	392.0
168.998489	96.0
169.026199	240.0
169.064301	1084.0
169.091354	6312.0
169.131866	384.0
169.156906	380.0
169.197357	616.0
169.239594	252.0
169.310196	164.0
169.329483	268.0
169.376389	216.0
169.3965	300.0
169.419922	280.0
169.490372	224.0
169.516876	200.0
169.550079	192.0
169.650543	148.0
169.900955	108.0
170.037766	108.0
170.099869	268.0
170.139023	140.0
170.220871	100.0
170.289139	128.0
170.339584	108.0
170.410034	176.0
170.471756	132.0
170.695129	104.0
170.801987	108.0
171.251755	172.0
174.769577	172.0
175.718094	192.0
176.095673	116.0
176.680695	180.0
176.917587	120.0
177.270203	208.0
177.539429	108.0
178.233368	148.0
179.061829	952.0
179.506958	232.0
179.587296	108.0
180.055634	272.0
182.07251	104.0
182.633926	140.0
184.102768	148.0
185.408401	188.0
188.563751	168.0
189.187408	148.0
190.064438	200.0
191.95694	148.0
192.779572	160.0
195.060593	156.0
195.8564	212.0
196.052597	228.0
196.121445	164.0
196.785034	144.0
197.603943	216.0
202.434143	176.0
205.096298	160.0
205.464081	216.0
209.563995	160.0
210.130661	132.0
212.092651	168.0
213.396103	172.0
213.73349	176.0
215.48291	144.0
217.591629	204.0
218.796997	152.0
220.105347	188.0
221.561279	176.0
221.624405	128.0
221.709427	180.0
222.077591	136.0
222.127396	13304.0
222.303101	220.0
223.130081	2356.0
223.970428	184.0
224.134964	432.0
225.1436	228.0
228.102783	184.0
229.080765	208.0
229.17717	204.0
234.041656	200.0
234.465088	208.0
235.068909	192.0
237.277267	140.0
238.130325	164.0
238.487762	144.0
239.12648	332.0
239.730103	180.0
240.084625	160.0
240.138519	26168.0
240.19873	124.0
240.237564	96.0
240.488785	160.0
241.141144	6380.0
242.142044	660.0
242.688293	192.0
243.016068	112.0
243.076065	132.0
245.55545	152.0
252.689423	196.0
254.064865	108.0
255.076324	368.0
255.793121	208.0
256.081604	580.0
257.094727	148.0
257.645905	232.0
262.405426	140.0
266.061279	156.0
266.117767	140.0
267.075134	180.0
270.064056	164.0
271.071014	148.0
276.584473	140.0
276.776489	156.0
278.172241	148.0
278.388062	164.0
278.514252	140.0
281.073486	144.0
281.535065	144.0
282.762024	176.0
283.991608	164.0
284.065399	556.0
285.071716	264.0
286.082062	164.0
287.06076	168.0
288.078278	428.0
299.30957	156.0
300.060699	660.0
300.964661	140.0
302.015228	140.0
302.077423	8728.0
302.334412	116.0
303.078918	1624.0
304.081207	420.0
304.156586	156.0
304.472534	144.0
305.080597	164.0
311.078735	188.0
317.216797	172.0
318.072693	488.0
319.071289	284.0
319.169434	152.0
319.265442	244.0
320.083923	176.0
320.240631	184.0
322.860992	132.0
323.754913	188.0
324.016388	152.0
324.224213	144.0
326.162354	160.0
329.141754	180.0
329.600494	156.0
330.392303	160.0
337.330963	144.0
339.392151	148.0
341.455933	144.0
343.116638	148.0
343.821136	172.0
344.123169	10176.0
344.456207	164.0
345.12442	1488.0
345.61969	96.0
346.128326	412.0
349.272461	128.0
354.816803	156.0
357.092377	152.0
358.089752	164.0
358.745361	200.0
359.67334	156.0
360.117279	1004.0
361.117218	284.0
361.298248	140.0
361.540405	148.0
361.676666	212.0
368.37677	160.0
373.114746	384.0
374.124725	276.0
375.245056	108.0
375.90979	156.0
376.071991	132.0
378.418365	168.0
378.666199	140.0
379.871643	140.0
389.383972	164.0
390.842407	224.0
391.313354	160.0
393.459473	156.0
396.176361	160.0
396.402222	168.0
397.349854	152.0
399.749756	172.0
400.729279	204.0
402.177673	120.0
402.959564	172.0
403.555084	144.0
404.719421	192.0
407.511017	164.0
407.607452	140.0
413.827179	144.0
414.159241	184.0
415.161316	4192.0
415.261719	200.0
415.318481	156.0
416.160309	1548.0
417.155426	132.0
418.177063	124.0
419.637238	208.0
420.138885	148.0
421.894928	144.0
422.966705	152.0
423.265717	112.0
423.408875	140.0
423.642365	192.0
425.765259	112.0
425.853271	192.0
426.029907	156.0
426.0979	116.0
428.531281	192.0
429.035217	144.0
431.54425	148.0
432.421234	152.0
434.570526	120.0
434.80014	148.0
435.739502	128.0
437.693451	176.0
438.766418	152.0
438.901825	148.0
440.157227	148.0
440.73642	144.0
441.804535	144.0
442.310883	148.0
443.39566	172.0
443.630402	148.0
445.191223	184.0
445.523041	176.0
447.769196	140.0
449.393951	172.0
449.565155	160.0
449.966125	220.0
451.360443	160.0
454.741058	140.0
457.606171	192.0
458.232269	180.0
458.935516	152.0
459.01651	144.0
459.076233	188.0
460.608429	152.0
461.85675	176.0
462.147461	208.0
462.875122	200.0
463.47052	144.0
464.542358	140.0
465.299591	176.0
466.453247	140.0
469.897705	120.0
471.867859	164.0
472.075409	164.0
472.430084	184.0
473.070526	140.0
475.10733	140.0
476.296753	144.0
477.953125	156.0
478.723602	164.0
481.672729	132.0
482.455444	148.0
482.733978	164.0
483.245758	204.0
483.405334	108.0
484.944824	160.0
485.427063	176.0
486.91037	196.0
487.231018	168.0
487.367218	144.0
488.382751	184.0
489.738403	140.0
490.082031	216.0
494.223633	144.0
494.272308	140.0
494.564392	164.0
495.852905	148.0
496.469513	164.0
497.987335	168.0
498.942719	148.0
499.361694	140.0
499.479736	136.0
499.814453	148.0
502.465027	196.0
503.764587	236.0
504.810455	208.0
506.907715	96.0
507.313293	148.0
507.712341	144.0
508.214752	204.0
508.802704	240.0
510.077271	148.0
510.200043	1032.0
511.208191	320.0
511.358398	116.0
511.761047	148.0
511.86911	224.0
512.222839	112.0
512.5448	140.0
513.862549	168.0
514.887207	124.0
515.333252	148.0
515.938843	192.0
516.286987	184.0
517.961609	144.0
518.038635	172.0
518.786377	144.0
519.498352	184.0
519.552795	140.0
520.88739	212.0
521.173584	240.0
522.369263	168.0
522.805786	124.0
523.204163	168.0
523.356873	156.0
523.889709	164.0
524.186035	144.0
524.614319	156.0
525.111328	148.0
526.64032	168.0
527.16571	180.0
527.476501	184.0
528.216919	332.0
528.363647	184.0
529.216187	236.0
529.723267	260.0
533.090942	144.0
533.472412	212.0
534.5625	160.0
538.649841	120.0
539.081665	160.0
539.337891	112.0
539.553101	152.0
539.776917	132.0
541.20752	712.0
542.204529	308.0
542.99823	184.0
543.200562	148.0
543.434265	144.0
544.265076	160.0
544.924622	272.0
545.129089	144.0
545.914673	140.0
548.452026	152.0
550.500183	144.0
550.616943	152.0
557.823547	132.0
559.429138	116.0
560.892334	156.0
561.109192	192.0
562.137451	152.0
562.472534	292.0
564.210938	168.0
566.032532	140.0
567.101807	160.0
567.15863	136.0
567.610474	232.0
567.804932	208.0
569.46875	140.0
569.846069	188.0
570.430603	168.0
572.23053	104.0
572.476318	204.0
572.576477	208.0
572.669678	148.0
573.507507	128.0
574.265198	132.0
574.752991	96.0
575.198853	144.0
575.576843	236.0
576.015381	112.0
576.268127	156.0
576.552002	116.0
576.674805	168.0
576.808594	192.0
577.081116	208.0
577.497498	108.0
577.603699	148.0
577.832031	160.0
578.200134	112.0
578.259399	176.0
578.757935	96.0
578.894592	176.0
578.97522	116.0
579.019104	168.0
579.21698	180.0
579.52301	124.0
579.955933	120.0
580.057434	176.0
580.350525	168.0
580.486877	192.0
580.608093	132.0
580.760437	168.0
580.852844	104.0
580.93219	100.0
580.972107	276.0
581.063477	132.0
581.141541	100.0
581.233582	304.0
581.283203	232.0
581.371704	224.0
581.47467	296.0
581.531311	380.0
581.597351	172.0
581.668762	224.0
581.732849	248.0
581.859009	424.0
581.982178	252.0
582.000671	136.0
582.013062	508.0
582.095215	96.0
582.167358	184.0
582.194824	200.0
582.230591	616.0
582.247803	196.0
582.328064	468.0
582.413025	320.0
582.475891	556.0
582.588501	136.0
582.624695	288.0
582.645142	124.0
582.676514	428.0
582.69696	144.0
582.743896	540.0
582.792236	204.0
582.834595	428.0
582.935852	368.0
583.046082	500.0
583.086975	504.0
583.193054	1080.0
583.257385	230376.0
583.404053	292.0
583.43927	208.0
583.591248	344.0
583.643311	216.0
583.707825	552.0
583.771423	396.0
583.808289	584.0
583.851196	352.0
583.984009	864.0
584.052002	8256.0
584.106812	716.0
584.119934	964.0
584.259766	181020.0
584.420532	148.0
584.52301	228.0
584.595032	280.0
584.675354	172.0
584.724731	144.0
584.852356	452.0
584.909302	148.0
585.05304	468.0
585.116638	268.0
585.260681	43532.0
585.427673	244.0
585.491333	108.0
585.528992	256.0
585.569824	308.0
585.619934	144.0
585.66333	220.0
585.754517	172.0
585.816772	100.0
585.901917	312.0
586.059204	188.0
586.11731	264.0
586.263062	4404.0
586.394775	204.0
586.456726	180.0
586.486084	208.0
586.573303	180.0
586.628967	176.0
586.679932	260.0
586.782104	168.0
586.825378	140.0
586.873474	160.0
586.938477	104.0
587.011963	156.0
587.072144	176.0
587.111816	280.0
587.183655	244.0
587.266602	876.0
587.37207	200.0
587.391235	148.0
587.437256	300.0
587.490234	372.0
587.537598	228.0
587.71759	160.0
587.772461	356.0
587.840027	292.0
587.887817	224.0
588.030457	132.0
588.095215	248.0
588.153503	264.0
588.261108	124.0
588.366211	252.0
588.414062	212.0
588.483276	240.0
588.587219	292.0
588.690125	208.0
588.731873	300.0
588.829651	192.0
588.950134	96.0
589.021179	136.0
589.085388	116.0
589.192261	168.0
589.297729	112.0
589.338989	148.0
589.443604	172.0
589.515503	232.0
589.598083	128.0
589.788818	108.0
590.77832	172.0
591.089233	108.0
591.365723	144.0
592.693787	108.0
593.916199	160.0
596.494446	108.0
596.705872	128.0
597.974304	144.0
599.20929	96.0
599.635681	96.0
600.139832	124.0
600.407593	96.0
602.203369	100.0
602.329407	96.0
602.877258	96.0
603.126343	132.0
603.378296	104.0
603.715759	112.0
604.04303	120.0
607.58313	104.0
725.71521	144.0
764.554626	96.0
781.925964	140.0
819.768921	140.0
997.96283	120.0
1054.401489	140.0
1061.613281	180.0
1071.108887	144.0
1101.807739	144.0
1109.507324	192.0
1133.502075	148.0
1181.816895	168.0
1212.876465	180.0
1223.839111	164.0
1226.883667	188.0
1232.006104	172.0
1235.473511	168.0
1237.944336	204.0
1256.190186	200.0
1261.281494	164.0
1268.395264	176.0
1287.584717	152.0
1303.265503	152.0
1342.011475	144.0
1364.44458	200.0
1365.422607	144.0
1366.621582	236.0
1368.41748	144.0
1372.595215	208.0
1375.848999	144.0
1384.82605	156.0
1387.819824	172.0
1400.408569	144.0
1404.99292	160.0
1409.263428	160.0
1411.932129	176.0
1426.726196	164.0
1435.08313	180.0
1442.232178	168.0
1442.965454	144.0
1461.433838	168.0
1466.67334	168.0
1468.289673	192.0
1474.878662	156.0
1479.23877	196.0
1490.228516	172.0
1493.603394	156.0
1494.257324	152.0
1494.634399	164.0
1496.758789	168.0
1499.000366	188.0
1502.7323	164.0
1512.307007	200.0
1513.259155	168.0
1515.12561	184.0
1520.225342	172.0
1520.794067	152.0
1523.006958	172.0
1526.154419	140.0
1526.609497	128.0
1526.963135	148.0
1528.052124	184.0
1529.943359	180.0
1530.293701	236.0
1534.843994	156.0
1538.456299	184.0
1539.080933	244.0
1545.066895	168.0
1550.165039	216.0
1565.814087	188.0
1578.211304	148.0
1579.737671	188.0
1586.381714	164.0
1592.737793	188.0
1593.850098	172.0
1597.204956	148.0
1599.029907	140.0
1612.281982	248.0
1618.209229	180.0
1618.398438	160.0
1619.202148	168.0
1620.636108	188.0
1625.735962	204.0
1626.097168	152.0
1626.875732	176.0
1629.566162	148.0
1631.101074	200.0
1631.470825	228.0
1635.283691	156.0
1639.342651	228.0
1642.277588	168.0
1642.462769	152.0
1645.658569	160.0
1646.595215	160.0
1649.649536	160.0
1654.446655	208.0
1656.422607	216.0
1657.005859	208.0
1657.925903	124.0
1658.537476	176.0
1658.78064	168.0
1658.861694	148.0
1658.942749	184.0
1664.541016	168.0
1667.517578	128.0
1676.825073	144.0
1677.697876	160.0
1680.731323	156.0
1681.139282	172.0
1685.843018	160.0
1687.379761	176.0
1690.774414	152.0
1696.032593	164.0
1699.85437	172.0
1703.688721	180.0
1704.452759	220.0
1705.36499	172.0
1706.269165	156.0
1706.326782	224.0
1706.992798	200.0
1708.111328	176.0
1710.925659	180.0
1721.669556	152.0
1725.834229	232.0
1727.215332	168.0
1727.893677	184.0
1730.716064	236.0
1730.856812	208.0
1731.527588	168.0
1732.761841	144.0
1733.350098	148.0
1734.568359	268.0
1735.307129	176.0
1737.16394	152.0
1740.807495	140.0
1742.036743	156.0
1743.899902	124.0
1746.03479	156.0
1746.550415	168.0
1746.625244	156.0
1750.070679	200.0
1751.2948	196.0
1753.644409	176.0
1754.334229	184.0
1754.703125	140.0
1755.545288	228.0
1756.065796	176.0
1758.790649	200.0
1758.99939	152.0
1760.635864	140.0
1763.635254	148.0
1764.989624	140.0
1765.106689	156.0
1765.792358	164.0
1765.987549	144.0
1767.298096	208.0
1768.210327	140.0
1769.817505	156.0
1770.596313	156.0
1772.900146	192.0
1773.721558	152.0
1777.420532	128.0
1777.755737	168.0
1778.552979	188.0
1779.619141	184.0
1779.787109	200.0
1783.433105	188.0
1784.618408	164.0
1785.39209	144.0
1786.527588	164.0
1786.779907	144.0
1787.293945	140.0
1787.882202	188.0
1788.614502	148.0
1789.456299	152.0
1791.216431	236.0
1791.85498	144.0
1791.949341	144.0
1793.322876	176.0
1794.486206	184.0
1794.882568	156.0
1797.23584	224.0
1800.19873	156.0
1800.452026	160.0
1801.077026	188.0
1803.028809	180.0
1805.954102	160.0
1807.698975	180.0
1810.812256	156.0
1810.871582	188.0
1812.489624	280.0
1816.02478	152.0
1816.717896	164.0
1818.902466	140.0
1819.648193	164.0
1820.200195	200.0
1822.05957	140.0
1827.067627	160.0
1827.331421	144.0
1827.612183	156.0
1828.105713	208.0
1828.353027	144.0
1828.939819	164.0
1829.901733	144.0
1831.962769	148.0
1833.21521	144.0
1835.293945	148.0
1838.510986	140.0
1840.901245	228.0
1842.575439	184.0
1845.182129	148.0
1846.182495	172.0
1846.79834	148.0
1846.858154	140.0
1850.051025	168.0
1850.76062	140.0
1852.661865	156.0
1853.87854	168.0
1859.255615	168.0
1860.105347	236.0
1860.500244	148.0
1861.496216	148.0
1861.865479	192.0
1861.934204	160.0
1863.342896	140.0
1864.812378	140.0
1865.680542	168.0
1866.050171	188.0
1867.142212	148.0
1867.47229	212.0
1868.458374	156.0
1869.490845	176.0
1869.623535	172.0
1871.022949	140.0
1871.393188	140.0
1872.409302	164.0
1872.59021	144.0
1874.76123	140.0
1875.114502	180.0
1877.778687	160.0
1878.960449	152.0
1882.205688	160.0
1882.404297	164.0
1883.027588	136.0
1883.276611	212.0
1883.889893	208.0
1884.123169	152.0
1885.427856	140.0
1887.200928	164.0
1889.958008	164.0
1890.469604	184.0
1891.551514	216.0
1892.209473	216.0
1892.98877	152.0
1895.37085	196.0
1895.839722	176.0
1897.702393	196.0
1901.345703	204.0
1903.594116	152.0
1904.345703	160.0
1904.827393	172.0
1905.895996	156.0
1905.98291	164.0
1906.373901	144.0
1909.181885	228.0
1909.451538	156.0
1910.947632	160.0
1912.853516	180.0
1913.010254	160.0
1913.73291	192.0
1914.96106	116.0
1915.072754	208.0
1916.380615	156.0
1917.975464	148.0
1918.890747	160.0
1919.963257	200.0
1921.926025	200.0
1922.406006	184.0
1923.53186	208.0
1924.631836	184.0
1924.727905	144.0
1927.875122	160.0
1928.746704	148.0
1928.877808	244.0
1929.489746	188.0
1930.818848	200.0
1932.28833	160.0
1932.743286	180.0
1933.145874	180.0
1933.338379	148.0
1935.02771	192.0
1935.237915	144.0
1939.565918	120.0
1939.968872	156.0
1940.678955	144.0
1941.082275	224.0
1941.254517	164.0
1942.029419	140.0
1942.134766	188.0
1944.630249	240.0
1946.070801	148.0
1947.322021	144.0
1947.664551	224.0
1948.261841	184.0
1948.824097	244.0
1953.985107	208.0
1957.329712	152.0
1957.655518	164.0
1957.866943	148.0
1959.126465	156.0
1960.853516	164.0
1962.528442	180.0
1964.309937	148.0
1964.677002	188.0
1964.927368	184.0
1965.286011	128.0
1965.36853	164.0
1965.527344	144.0
1968.422729	200.0
1969.927002	148.0
1970.919922	168.0
1970.993164	176.0
1973.804077	248.0
1974.706055	152.0
1975.310181	240.0
1977.165649	152.0
1978.201172	156.0
1980.303955	184.0
1980.547729	140.0
1981.974121	204.0
1982.59021	112.0
1984.101196	144.0
1984.783936	172.0
1988.06604	176.0
1989.317505	160.0
1989.779175	160.0
1990.720337	156.0
1992.790039	200.0
1993.06543	160.0
1993.145386	156.0
1993.625244	200.0
1993.856323	156.0
1994.025269	172.0
1994.816284	140.0
1994.958496	204.0
1996.265503	292.0
1998.395996	116.0
1998.738403	164.0
2000.180176	152.0
2000.706177	232.0
END IONS

BEGIN IONS
PEPMASS=232.144
CHARGE=1
MSLEVEL=2
SOURCE_INSTRUMENT=LC-ESI-qTof
FILENAME=Plate9_81_88_Plate8_81_88_GC8_01_15759.mzXML
SEQ=*..*
IONMODE=Positive
ORGANISM=GNPS-SELLECKCHEM-FDA-PART2
NAME=Amidopyrine [M+H]
PI=Dorrestein
DATACOLLECTOR=Garg_Neha
SMILES=N1(N(C(C(=C1C)N(C)C)=O)C2C=CC=CC=2)C
INCHI=N/A
INCHIAUX=N/A
PUBMED=N/A
SUBMITUSER=negarg
LIBRARYQUALITY=1
SPECTRUMID=CCMSLIB00000078610
USI=mzspec:GNPS:GNPS-SELLECKCHEM-FDA-PART2:accession:CCMSLIB00000078610
SCANS=944
45.186512	152.0
48.479519	252.0
49.286625	188.0
49.364906	188.0
49.495045	172.0
52.567245	160.0
55.457401	196.0
63.878826	180.0
66.611732	196.0
81.228127	204.0
82.859642	144.0
84.965408	212.0
86.524582	144.0
91.778427	224.0
92.263382	144.0
97.075562	912.0
98.083931	1336.0
98.247589	176.0
99.090118	148.0
99.44812	164.0
105.028801	140.0
106.064796	220.0
106.599121	172.0
106.874657	148.0
107.777786	176.0
111.091682	2108.0
111.987854	168.0
112.095383	196.0
113.106903	5724.0
114.108025	444.0
114.817329	140.0
114.956001	184.0
117.926224	192.0
118.06562	384.0
120.071312	176.0
120.086578	232.0
121.333008	172.0
127.087791	164.0
128.95282	188.0
133.074524	176.0
134.061325	196.0
136.066757	148.0
139.085098	612.0
140.09166	180.0
146.062164	168.0
147.08989	124.0
149.106888	228.0
150.089767	152.0
150.11171	148.0
157.017242	152.0
159.089828	532.0
160.062073	148.0
171.8573	172.0
172.060883	156.0
174.11116	184.0
175.085968	476.0
175.107925	176.0
177.100739	532.0
177.619064	156.0
178.10733	148.0
187.086334	904.0
188.091263	128.0
188.980896	148.0
189.098572	140.0
197.043549	212.0
198.987244	172.0
199.926086	144.0
201.107849	180.0
204.145889	252.0
206.946182	164.0
214.140015	128.0
216.107376	180.0
222.221207	144.0
229.932877	196.0
230.01738	144.0
231.014587	176.0
231.132812	272.0
231.166031	152.0
232.14386	8820.0
233.147476	780.0
233.687393	140.0
234.163513	128.0
395.470703	152.0
511.46347	160.0
1338.757568	188.0
1456.253296	188.0
1468.247925	140.0
1531.988037	176.0
1556.80603	148.0
1663.62854	172.0
1740.563843	184.0
1833.400146	196.0
1865.153687	256.0
1889.143555	160.0
1926.96167	212.0
1944.659424	208.0
END IONS

BEGIN IONS
PEPMASS=231.102
CHARGE=1
MSLEVEL=2
SOURCE_INSTRUMENT=LC-ESI-qTOF
FILENAME=p1-A02_GA2_01_17875.mzXML
SEQ=*..*
IONMODE=Positive
ORGANISM=GNPS-PRESTWICKPHYTOCHEM
NAME=NCGC00021127-04!NAPROXEN M+H
PI=Dorrestein
DATACOLLECTOR=VVP/LMS
SMILES=COC1=CC=C2C=C(C=CC2=C1)C(C)C(O)=O
INCHI=N/A
INCHIAUX=N/A
PUBMED=N/A
SUBMITUSER=vphelan
LIBRARYQUALITY=1
SPECTRUMID=CCMSLIB00000078683
USI=mzspec:GNPS:GNPS-PRESTWICKPHYTOCHEM:accession:CCMSLIB00000078683
SCANS=2120
95.151199	136.0
95.376526	220.0
95.479568	168.0
96.003403	144.0
96.313698	112.0
96.589294	120.0
97.114197	128.0
98.489944	156.0
99.426376	160.0
101.170364	168.0
102.055077	68.0
102.077194	108.0
102.238113	220.0
102.324661	156.0
102.994125	208.0
103.055695	272.0
103.12748	76.0
103.943573	168.0
104.162819	100.0
104.335541	152.0
104.553169	180.0
105.708145	100.0
106.037834	108.0
107.194771	164.0
107.937843	136.0
108.109528	168.0
108.20681	132.0
108.745735	76.0
108.920135	156.0
109.656654	136.0
109.675407	60.0
110.042542	132.0
110.910652	208.0
111.076294	148.0
111.237854	204.0
111.344933	208.0
111.401642	128.0
111.63282	160.0
111.731674	164.0
111.893715	152.0
112.201286	212.0
112.426964	244.0
112.671883	136.0
112.735268	176.0
114.576904	140.0
115.007629	124.0
115.053932	2584.0
115.169891	120.0
115.411362	136.0
116.012932	196.0
116.058807	388.0
116.878418	172.0
116.951584	184.0
117.069984	168.0
117.369492	184.0
118.380714	132.0
118.6884	60.0
119.583366	56.0
121.41629	116.0
121.918991	156.0
122.779724	120.0
123.03125	136.0
123.418167	128.0
123.563835	188.0
123.678894	156.0
124.135254	136.0
127.052864	184.0
127.182663	172.0
128.063339	736.0
128.093277	204.0
128.388519	116.0
128.435883	72.0
128.869293	156.0
129.069046	380.0
130.038742	300.0
130.070007	188.0
130.217056	128.0
131.051865	160.0
133.011642	140.0
133.096588	180.0
133.163177	168.0
133.2229	156.0
133.72644	180.0
134.219406	76.0
134.482376	120.0
134.745605	168.0
135.397873	144.0
136.144577	92.0
137.179901	124.0
138.420441	44.0
139.052231	132.0
140.066681	244.0
140.351822	188.0
140.675034	180.0
140.715164	180.0
140.887558	132.0
141.043503	200.0
141.069885	2284.0
141.095505	72.0
141.500046	132.0
141.736877	52.0
142.041687	256.0
142.076447	2740.0
142.118607	212.0
142.496094	68.0
142.517471	236.0
142.564987	64.0
142.724243	156.0
143.016846	120.0
143.05101	440.0
143.080917	320.0
143.178741	44.0
143.839142	108.0
144.051575	580.0
144.132874	152.0
144.639847	208.0
145.05983	148.0
145.142929	252.0
145.988129	40.0
146.05307	180.0
148.104614	176.0
150.143646	172.0
150.538971	60.0
150.756378	80.0
151.054489	512.0
151.194092	108.0
152.061508	2312.0
152.110703	72.0
152.179443	48.0
152.496323	88.0
152.845505	180.0
152.98085	128.0
153.070053	4292.0
153.4711	104.0
153.725143	80.0
154.076904	3200.0
154.112793	164.0
154.347595	64.0
154.649399	68.0
154.827637	136.0
155.056717	376.0
155.084122	1236.0
155.335709	88.0
155.477127	48.0
156.058624	420.0
156.089523	256.0
157.06543	272.0
158.07254	1800.0
158.762512	256.0
158.830231	144.0
159.073868	192.0
159.525757	224.0
160.079239	188.0
160.144714	40.0
161.057724	196.0
162.003723	152.0
163.766464	156.0
164.15892	84.0
164.301743	148.0
165.067932	180.0
166.829239	136.0
166.998932	200.0
168.051468	132.0
168.088608	176.0
169.062958	1840.0
169.275024	28.0
169.32164	148.0
169.505554	68.0
169.985245	164.0
170.042328	128.0
170.07254	5964.0
170.125381	92.0
170.198074	60.0
170.275986	112.0
170.338318	92.0
170.87381	84.0
170.951859	184.0
171.075577	500.0
172.237122	52.0
172.720657	40.0
173.283463	176.0
173.383026	32.0
173.479996	76.0
176.594849	104.0
176.87265	88.0
178.078995	32.0
179.057999	420.0
180.204651	136.0
181.076111	484.0
182.047409	148.0
182.076889	208.0
183.077301	132.0
183.467972	96.0
183.837463	220.0
184.0867	256.0
184.910294	196.0
185.095398	4424.0
185.297501	52.0
185.435684	56.0
185.476349	84.0
185.672226	80.0
185.812592	156.0
186.056824	212.0
186.100006	260.0
186.456085	56.0
187.108871	32.0
187.550156	128.0
193.262085	72.0
196.777817	124.0
197.048721	132.0
219.156052	104.0
253.329498	40.0
281.230011	20.0
313.77356	48.0
326.075348	116.0
330.821899	48.0
341.443146	76.0
379.002777	80.0
473.154572	84.0
481.258331	88.0
499.178467	20.0
753.337708	68.0
763.746582	124.0
828.965393	80.0
844.468262	168.0
853.677246	160.0
879.749329	236.0
931.332275	212.0
933.422729	164.0
940.513672	176.0
952.526733	228.0
985.015381	168.0
987.796875	188.0
990.225281	96.0
1048.157715	224.0
1049.865967	172.0
1067.888794	80.0
1072.380981	32.0
1080.9552	48.0
1098.674438	84.0
1099.624512	52.0
1110.739746	192.0
1117.468872	200.0
1123.411133	220.0
1142.408325	152.0
1166.997559	204.0
1171.046265	160.0
1182.105225	96.0
1190.852417	224.0
1213.277466	76.0
1215.850708	172.0
1224.359497	144.0
1239.405518	124.0
1242.693726	232.0
1246.014282	156.0
1251.866089	220.0
1254.219116	112.0
1258.578613	184.0
1268.716553	52.0
1270.276611	196.0
1279.08728	196.0
1284.031738	128.0
1289.950562	164.0
1296.262695	136.0
1299.632568	164.0
1317.024414	180.0
1320.507935	232.0
1324.068481	176.0
1330.586792	40.0
1334.684448	244.0
1348.571167	160.0
1360.965454	52.0
1368.206909	176.0
1372.745361	140.0
1373.82959	132.0
1381.87439	176.0
1383.731934	164.0
1383.79126	200.0
1384.961182	164.0
1388.837402	128.0
1400.670044	72.0
1406.896362	48.0
1415.583862	136.0
1418.760498	128.0
1429.568115	204.0
1432.029785	172.0
1435.360596	188.0
1446.723145	136.0
1448.631348	160.0
1469.399536	160.0
1481.018311	160.0
1495.436768	192.0
1501.877686	112.0
1502.116821	76.0
1503.119751	68.0
1503.613525	216.0
END IONS

BEGIN IONS
PEPMASS=294.112
CHARGE=1
MSLEVEL=2
SOURCE_INSTRUMENT=LC-ESI-qTof
FILENAME=NCP003272_E2_F11_BC2_01_15715.mzXML
SEQ=*..*
IONMODE=Positive
ORGANISM=GNPS-NIH-CLINICALCOLLECTION1
NAME=OXAPROZIN [M+H]
PI=Dorrestein
DATACOLLECTOR=Garg_Neha
SMILES=OC(=O)CCc1nc(c(o1)c2ccccc2)c3ccccc3
INCHI=N/A
INCHIAUX=N/A
PUBMED=N/A
SUBMITUSER=negarg
LIBRARYQUALITY=1
SPECTRUMID=CCMSLIB00000078946
USI=mzspec:GNPS:GNPS-NIH-CLINICALCOLLECTION1:accession:CCMSLIB00000078946
SCANS=1662
45.089108	168.0
45.137234	184.0
45.303196	152.0
45.426746	196.0
45.503021	144.0
45.517792	152.0
45.657551	140.0
45.820423	168.0
45.86417	164.0
46.545403	212.0
46.582069	160.0
46.689449	140.0
46.882763	168.0
47.386982	160.0
47.511742	252.0
47.818169	168.0
47.914558	164.0
47.983471	208.0
48.15596	144.0
48.655853	140.0
48.740578	196.0
48.950733	152.0
49.261646	140.0
49.33012	188.0
49.400784	128.0
49.753189	204.0
49.795315	188.0
49.831837	220.0
49.843079	184.0
49.914768	168.0
50.168198	264.0
50.279629	208.0
50.436405	172.0
50.491547	204.0
50.592007	244.0
50.642986	144.0
50.984909	156.0
51.011913	228.0
51.091553	176.0
51.636166	184.0
51.662193	152.0
51.676498	144.0
51.748062	176.0
51.778133	208.0
52.02763	188.0
52.083633	160.0
52.184231	148.0
52.622231	176.0
52.640999	140.0
52.665554	172.0
52.677109	208.0
52.733459	176.0
52.869408	240.0
53.154888	152.0
53.412041	188.0
53.487514	212.0
53.707729	184.0
53.839085	204.0
53.936916	204.0
54.537945	268.0
54.634998	164.0
55.025547	184.0
55.321224	156.0
55.589493	168.0
55.708305	172.0
55.752846	184.0
55.911972	168.0
56.404171	156.0
56.510349	160.0
56.948082	148.0
57.169083	184.0
57.282005	180.0
57.533844	216.0
57.606331	152.0
57.79834	144.0
57.975513	148.0
58.078609	192.0
58.22382	148.0
58.270664	148.0
58.52845	172.0
59.003193	232.0
59.035065	160.0
59.093189	188.0
59.11002	156.0
59.283062	164.0
59.692932	176.0
59.78677	244.0
59.96542	156.0
60.269428	172.0
60.304974	144.0
60.858013	160.0
60.913921	156.0
61.116028	228.0
61.429176	176.0
61.504078	152.0
61.871433	144.0
62.237568	236.0
62.55904	148.0
62.696072	172.0
62.795395	144.0
62.826942	188.0
63.545593	164.0
63.853188	200.0
64.093758	200.0
64.526024	140.0
65.05658	144.0
65.724495	144.0
65.810043	176.0
66.107468	176.0
66.128502	176.0
66.504532	140.0
66.533752	172.0
66.608452	144.0
66.647438	148.0
66.691315	228.0
67.111115	156.0
67.223877	152.0
67.776794	148.0
68.035713	228.0
68.142464	160.0
68.458275	176.0
68.849113	156.0
69.054047	156.0
69.148354	148.0
69.259285	148.0
69.527878	144.0
69.727173	160.0
70.154953	224.0
70.32843	172.0
70.732933	188.0
70.927238	144.0
71.042946	176.0
71.36306	184.0
71.518486	196.0
71.594254	196.0
71.618225	188.0
71.980423	168.0
72.264389	192.0
72.543274	260.0
72.927444	260.0
73.299782	176.0
73.595238	156.0
73.70797	180.0
74.307243	184.0
74.570831	148.0
74.71785	168.0
74.877937	152.0
75.038193	172.0
75.184807	216.0
75.262489	148.0
75.4076	140.0
75.874969	144.0
75.93219	220.0
75.977295	180.0
76.020668	144.0
76.157822	148.0
76.220886	172.0
76.425537	148.0
76.869347	120.0
76.953659	148.0
77.239143	140.0
77.278748	192.0
77.797508	152.0
78.024132	208.0
78.172478	232.0
78.620186	172.0
78.73954	188.0
79.186996	160.0
79.305702	156.0
79.418449	184.0
79.43869	204.0
79.483047	224.0
79.561142	160.0
79.671242	228.0
79.969978	156.0
80.535187	160.0
80.585205	152.0
80.678139	184.0
80.697807	200.0
80.73893	184.0
80.813164	132.0
81.0522	224.0
81.439606	216.0
81.606827	148.0
82.00106	156.0
82.080376	160.0
82.13707	220.0
82.473938	156.0
82.696411	164.0
82.988068	224.0
83.051537	212.0
83.081825	184.0
83.343819	160.0
83.52198	196.0
83.607491	144.0
83.666046	188.0
83.858826	140.0
83.91169	168.0
84.097755	160.0
84.748779	184.0
84.829422	148.0
84.87159	164.0
84.897255	148.0
84.959618	168.0
85.121727	124.0
85.146843	172.0
85.319572	156.0
85.818504	368.0
85.862762	176.0
86.147011	140.0
86.185806	172.0
86.346634	156.0
86.526123	208.0
86.598343	176.0
87.284988	196.0
87.497101	220.0
87.664734	180.0
88.020142	136.0
88.073318	168.0
88.452896	152.0
88.54464	152.0
88.831413	172.0
89.714592	236.0
90.440628	184.0
90.552338	144.0
90.588326	220.0
90.60537	192.0
90.647057	172.0
90.903053	168.0
91.075821	144.0
91.532249	152.0
92.061157	176.0
92.469582	164.0
92.885361	148.0
92.946754	140.0
93.581047	140.0
94.180786	188.0
94.31411	176.0
94.503632	164.0
94.639114	176.0
94.732079	148.0
94.784569	168.0
95.102432	140.0
95.364647	172.0
95.512413	160.0
95.79467	152.0
95.896294	156.0
95.933022	164.0
96.133095	152.0
96.215897	156.0
96.403404	184.0
96.559807	148.0
96.986633	188.0
97.165077	224.0
97.434044	140.0
97.4478	160.0
98.030228	164.0
98.661827	164.0
98.855865	120.0
98.87941	176.0
98.934837	152.0
99.027901	156.0
99.19236	196.0
99.845589	204.0
100.092346	168.0
100.323463	220.0
100.403221	208.0
100.421165	188.0
100.62471	200.0
100.818459	196.0
100.874428	156.0
100.988396	192.0
101.025017	324.0
101.042412	168.0
101.094627	164.0
101.156479	148.0
101.280624	188.0
101.356758	156.0
101.551208	184.0
101.729858	124.0
102.047516	480.0
102.125198	108.0
102.572647	168.0
102.590347	128.0
102.643211	168.0
102.717834	172.0
102.821632	184.0
102.857063	164.0
102.897438	148.0
102.928482	168.0
102.966888	344.0
103.020561	112.0
103.055077	85340.0
103.106125	96.0
103.175369	112.0
103.191582	204.0
103.328552	228.0
103.386917	424.0
103.421173	96.0
103.700516	144.0
103.780159	152.0
103.876915	148.0
104.057411	7216.0
104.409065	212.0
104.595123	208.0
104.654053	144.0
104.7836	156.0
105.032959	324.0
105.055733	140.0
105.397743	168.0
105.44883	176.0
106.055122	196.0
106.832909	152.0
106.937843	216.0
107.310699	140.0
108.012848	172.0
108.226006	140.0
108.511932	164.0
108.800308	176.0
108.966454	144.0
109.059959	156.0
109.586456	144.0
110.197777	212.0
110.440269	208.0
110.844322	216.0
110.986855	172.0
111.774536	140.0
112.079857	140.0
112.147293	168.0
113.081245	104.0
113.176102	180.0
113.303177	192.0
113.832672	112.0
114.082016	152.0
114.47776	188.0
114.518227	164.0
114.895523	140.0
115.054489	2376.0
115.098282	152.0
115.151672	220.0
115.194603	200.0
115.504341	196.0
115.885902	188.0
116.056335	240.0
116.245628	212.0
116.352951	184.0
116.539803	148.0
116.602821	108.0
116.673058	164.0
117.021584	140.0
117.069984	6480.0
117.592834	156.0
118.073898	816.0
118.622421	172.0
119.143234	152.0
119.451927	156.0
119.927513	96.0
119.985466	180.0
120.321434	172.0
120.421883	168.0
120.955391	148.0
121.279564	164.0
122.1073	204.0
122.179886	156.0
122.512314	176.0
123.614052	196.0
123.826576	192.0
124.594063	228.0
125.899323	284.0
125.99984	148.0
126.20993	184.0
126.45153	164.0
126.514206	184.0
126.886093	168.0
127.321136	152.0
127.363258	132.0
127.548325	260.0
127.969009	148.0
128.050705	260.0
128.18074	164.0
128.462555	168.0
128.688232	180.0
129.031662	192.0
129.056625	144.0
129.106277	156.0
129.189957	208.0
129.280457	144.0
129.309891	144.0
129.985214	168.0
130.051025	176.0
130.92215	176.0
131.04689	200.0
131.163284	152.0
131.202042	188.0
131.233963	148.0
131.26886	212.0
131.40448	168.0
131.46434	180.0
131.635559	176.0
131.795441	168.0
132.021744	144.0
132.049393	136.0
132.597885	140.0
133.406631	176.0
133.565292	140.0
134.609314	220.0
134.887268	208.0
134.990585	144.0
135.055344	180.0
135.175644	164.0
135.328415	156.0
135.743179	144.0
135.894836	208.0
136.003006	168.0
136.542038	184.0
137.191666	144.0
137.798462	140.0
138.312927	228.0
138.432343	188.0
138.657227	152.0
139.093491	196.0
139.702103	188.0
139.904495	156.0
140.253113	144.0
140.602188	208.0
141.460175	164.0
142.065018	280.0
142.301773	200.0
142.702759	160.0
142.82695	176.0
143.072052	212.0
143.543808	352.0
144.080841	144.0
145.066803	180.0
145.661911	184.0
146.058517	288.0
146.969162	172.0
147.075348	140.0
147.471466	180.0
147.856003	140.0
147.909256	184.0
147.969772	148.0
148.672714	148.0
148.69455	156.0
148.966492	172.0
149.05397	160.0
149.681534	176.0
149.715622	208.0
150.039703	180.0
150.15918	144.0
150.193329	152.0
150.383636	148.0
150.747528	168.0
151.05069	180.0
151.217072	176.0
151.605759	192.0
151.85408	180.0
151.993912	160.0
152.06282	968.0
152.585846	172.0
152.649765	220.0
152.92038	164.0
153.070969	360.0
153.634964	176.0
153.869415	148.0
153.911392	160.0
154.076874	212.0
154.43187	156.0
154.568893	156.0
155.198044	140.0
155.503174	144.0
155.614868	180.0
155.670593	132.0
155.937805	180.0
156.04538	596.0
156.124268	148.0
156.141678	152.0
156.676834	200.0
156.985901	172.0
157.048325	124.0
157.315247	148.0
157.547485	140.0
157.573135	120.0
157.594727	128.0
158.061279	148.0
158.362946	372.0
158.438095	188.0
158.510757	172.0
158.804062	160.0
158.869278	156.0
159.947311	148.0
160.131104	340.0
160.243622	144.0
160.3629	144.0
160.428436	140.0
160.747025	140.0
160.84584	156.0
160.888107	168.0
161.16539	176.0
161.653412	224.0
162.023071	180.0
162.357651	176.0
162.410919	164.0
162.730667	172.0
163.119354	148.0
164.049728	196.0
164.229538	140.0
165.071136	856.0
165.238556	192.0
165.3358	172.0
165.37674	156.0
165.886871	224.0
165.986465	156.0
166.078125	996.0
166.422668	160.0
166.7155	168.0
166.946869	176.0
167.031738	200.0
167.086288	2828.0
167.337982	252.0
168.088333	816.0
168.242889	140.0
168.560883	168.0
169.064835	176.0
169.397293	128.0
169.665756	160.0
170.059402	936.0
170.304092	204.0
170.387222	172.0
170.566605	128.0
170.862976	232.0
170.899414	184.0
171.065384	320.0
171.167511	180.0
171.313354	148.0
171.931305	152.0
172.649719	164.0
173.071014	160.0
173.20459	148.0
173.24649	152.0
173.443024	176.0
173.699997	144.0
173.881042	140.0
174.05809	292.0
174.32486	188.0
174.603516	188.0
175.124634	144.0
175.168655	140.0
175.2827	160.0
176.031845	160.0
176.063797	280.0
176.44931	140.0
176.584167	160.0
177.070084	800.0
177.569412	144.0
177.877197	148.0
178.077347	1292.0
178.46431	204.0
178.897964	164.0
179.025772	148.0
179.085983	292.0
180.05751	160.0
180.405197	180.0
181.033951	184.0
181.064438	208.0
181.360809	140.0
181.47876	236.0
182.488297	224.0
182.743805	176.0
183.576126	152.0
184.005142	192.0
184.907974	144.0
185.086639	144.0
185.425262	140.0
186.23378	144.0
186.437546	208.0
186.58519	152.0
187.276291	124.0
187.65155	140.0
187.913956	152.0
187.970673	168.0
188.074249	172.0
188.306458	140.0
188.451248	176.0
189.073654	208.0
189.468994	180.0
189.935013	152.0
190.195679	164.0
190.610382	148.0
190.764282	204.0
191.075867	160.0
191.278687	196.0
191.556808	140.0
191.589859	152.0
191.895767	144.0
191.941788	192.0
192.077789	296.0
192.815765	168.0
193.052322	252.0
193.091843	632.0
193.525894	148.0
193.78624	144.0
193.908554	128.0
193.930344	192.0
194.032166	148.0
194.074112	552.0
194.095749	1856.0
194.127182	192.0
194.349091	160.0
194.790512	192.0
195.048935	172.0
195.081039	996.0
195.360367	196.0
195.496155	160.0
196.082031	136.0
196.296188	156.0
196.365906	220.0
197.217484	160.0
197.337677	156.0
197.494278	176.0
198.056885	140.0
198.093292	164.0
198.253006	172.0
199.34462	172.0
199.423309	140.0
199.757919	192.0
200.03392	148.0
200.230774	148.0
200.769653	208.0
201.423859	252.0
201.819504	200.0
201.904343	184.0
202.546814	156.0
202.818832	144.0
202.852844	140.0
203.079514	340.0
204.087158	264.0
204.486069	148.0
204.782166	176.0
205.0755	716.0
205.098083	384.0
205.686035	148.0
205.908737	140.0
206.055573	196.0
206.096268	14292.0
206.160141	172.0
206.265884	140.0
206.296997	124.0
206.383102	172.0
206.986847	252.0
207.09906	1924.0
208.100113	356.0
208.45163	136.0
208.883896	220.0
209.232101	284.0
209.488403	168.0
209.518799	112.0
209.593765	168.0
210.085129	140.0
210.155396	220.0
211.094299	108.0
211.304276	160.0
212.4254	168.0
213.971436	120.0
214.137421	176.0
215.526001	152.0
216.002533	140.0
216.076981	116.0
216.523514	148.0
216.655319	192.0
216.827057	204.0
216.904404	156.0
216.930786	140.0
217.094009	444.0
217.235764	164.0
217.321426	160.0
217.658386	164.0
217.737396	128.0
217.793488	148.0
217.822861	212.0
218.063782	160.0
218.092712	136.0
218.352386	172.0
218.56665	140.0
218.590195	164.0
218.860992	156.0
219.106873	300.0
219.420792	160.0
219.889816	152.0
220.112457	720.0
220.143692	164.0
220.226395	200.0
220.290344	188.0
220.341599	164.0
220.391815	148.0
220.749481	160.0
221.270248	156.0
222.092331	332.0
222.626495	128.0
222.696579	152.0
223.177994	140.0
224.661163	140.0
225.243927	196.0
225.368729	176.0
226.047485	140.0
226.434555	148.0
226.517532	196.0
226.952438	168.0
227.162018	160.0
227.480103	184.0
227.702301	164.0
228.62825	168.0
228.712524	140.0
228.953384	208.0
229.088928	144.0
229.924133	188.0
229.995682	136.0
230.094772	712.0
230.367981	216.0
230.565598	148.0
230.795959	144.0
230.913239	112.0
231.093445	132.0
231.138931	148.0
231.220642	228.0
231.393173	188.0
231.614243	200.0
232.026367	152.0
232.081512	192.0
232.326904	120.0
232.414581	220.0
232.444931	252.0
232.611847	176.0
233.088943	476.0
233.307495	252.0
233.337906	172.0
233.392624	172.0
233.974609	244.0
234.051208	160.0
234.091736	25112.0
234.141327	188.0
234.213715	184.0
234.633316	160.0
235.095108	5316.0
235.153412	160.0
235.266342	152.0
235.489365	208.0
235.590057	208.0
235.702271	148.0
235.812302	196.0
236.097687	428.0
236.466904	260.0
236.6819	140.0
236.80719	132.0
236.897781	140.0
237.981949	204.0
238.01265	140.0
238.242996	152.0
239.116257	164.0
239.654114	148.0
240.339645	144.0
240.4384	176.0
240.559921	136.0
240.650909	128.0
240.799606	184.0
241.389877	212.0
241.631134	196.0
241.82608	148.0
241.923004	128.0
241.971558	244.0
242.179047	148.0
242.408295	280.0
243.028442	160.0
244.028549	180.0
244.06897	152.0
244.488922	160.0
244.750397	172.0
244.893646	188.0
245.363007	148.0
245.425964	152.0
245.969376	244.0
246.225388	216.0
247.084991	160.0
247.883408	196.0
248.104996	1056.0
248.142059	176.0
248.16864	236.0
248.576401	156.0
249.114075	368.0
250.075455	172.0
250.302124	196.0
250.333618	144.0
250.468491	160.0
251.105713	152.0
252.897141	152.0
253.007935	156.0
253.796829	156.0
253.993454	140.0
254.596481	168.0
254.682236	144.0
255.063721	132.0
255.661469	148.0
255.696472	208.0
255.791962	148.0
256.074158	140.0
256.401886	184.0
256.766937	196.0
257.431793	196.0
258.101746	148.0
258.719238	144.0
258.882538	144.0
259.020264	152.0
260.450836	164.0
260.547211	168.0
260.704163	132.0
260.846069	156.0
261.048615	152.0
261.141876	224.0
261.209442	148.0
261.457184	192.0
261.569824	208.0
261.717926	156.0
261.866058	244.0
262.210785	180.0
262.346344	136.0
263.459503	156.0
263.789124	156.0
263.893585	156.0
264.166016	132.0
265.009216	152.0
265.229584	148.0
265.488953	148.0
265.672729	144.0
266.014557	152.0
266.445801	172.0
266.820221	148.0
267.581512	156.0
268.26889	172.0
268.836426	184.0
268.865784	144.0
269.35553	160.0
269.656128	192.0
270.022247	192.0
270.665894	112.0
270.978149	156.0
271.571472	160.0
272.139191	156.0
272.421295	116.0
273.69931	196.0
273.784821	132.0
273.95459	192.0
274.25116	180.0
274.42453	140.0
274.574249	164.0
274.655792	100.0
274.755676	160.0
274.953644	140.0
275.018402	104.0
275.074402	116.0
275.16037	172.0
275.326447	100.0
275.417236	184.0
275.457611	144.0
275.584229	100.0
275.623413	132.0
275.685364	168.0
275.769714	216.0
275.807983	192.0
275.836914	384.0
275.886658	132.0
275.915527	208.0
275.947998	252.0
276.003815	176.0
276.103851	149520.0
276.170502	120.0
276.221924	400.0
276.259308	176.0
276.356384	148.0
276.388184	112.0
276.424103	108.0
276.501038	176.0
276.529694	116.0
276.555969	224.0
276.647308	2200.0
276.694397	180.0
276.736786	124.0
276.830933	100.0
276.914948	124.0
276.949677	172.0
277.033997	184.0
277.106049	40332.0
277.218567	112.0
277.302704	192.0
277.454193	124.0
277.653595	156.0
277.744751	120.0
277.801697	140.0
277.830597	160.0
277.895111	120.0
277.969635	112.0
278.053467	132.0
278.108948	2932.0
278.168762	160.0
278.305725	108.0
278.338196	96.0
278.387421	168.0
278.447418	112.0
278.5177	120.0
278.647217	148.0
278.67865	132.0
278.804932	144.0
278.880676	148.0
278.954163	140.0
279.023499	96.0
279.057434	168.0
279.108124	256.0
279.141937	152.0
279.207886	132.0
279.237366	292.0
279.446259	148.0
279.496338	144.0
279.759155	120.0
280.086639	108.0
280.143951	160.0
281.128021	120.0
281.713989	204.0
281.977936	140.0
282.001343	160.0
282.265442	148.0
282.33902	200.0
282.470795	140.0
282.546387	180.0
283.256073	156.0
284.194763	144.0
284.396118	260.0
285.050995	188.0
285.857819	120.0
286.645203	132.0
287.357452	172.0
287.622559	144.0
287.782715	240.0
288.077942	124.0
288.133972	140.0
288.903809	128.0
289.029938	152.0
290.401947	144.0
290.464966	104.0
290.746002	196.0
290.919464	108.0
290.984802	116.0
291.050201	184.0
291.410156	148.0
291.508698	240.0
291.671173	212.0
291.990417	188.0
292.023285	108.0
292.093079	160.0
292.201172	120.0
292.27298	200.0
292.374725	156.0
292.445404	120.0
292.687958	108.0
292.864471	276.0
292.888916	128.0
292.953979	124.0
293.00885	124.0
293.050446	212.0
293.109406	124.0
293.135498	208.0
293.202576	112.0
293.22879	152.0
293.310455	296.0
293.382965	280.0
293.42392	368.0
293.473541	288.0
293.503235	268.0
293.613373	164.0
293.656006	392.0
293.718353	292.0
293.743774	136.0
293.788544	184.0
293.814758	340.0
293.872131	492.0
293.904907	204.0
293.930786	288.0
294.052216	712.0
294.115173	219560.0
294.221161	168.0
294.282715	128.0
294.345184	340.0
294.43161	1040.0
294.489319	464.0
294.534119	884.0
294.636353	1272.0
294.681213	10252.0
294.714508	484.0
294.745575	208.0
294.805054	180.0
294.834534	156.0
294.891327	148.0
294.93985	360.0
294.94519	436.0
295.021667	280.0
295.117371	104344.0
295.211731	336.0
295.284363	112.0
295.314514	208.0
295.349792	128.0
295.469696	124.0
295.546356	224.0
295.62442	144.0
295.809753	160.0
295.842529	112.0
295.873077	216.0
295.947754	128.0
296.062012	272.0
296.119141	11004.0
296.247925	132.0
296.287903	104.0
296.346344	164.0
296.377869	96.0
296.552063	124.0
296.616089	136.0
296.713684	136.0
296.7742	176.0
296.807922	348.0
296.852173	180.0
296.89389	204.0
296.92981	176.0
296.970367	168.0
297.00235	296.0
297.038605	172.0
297.1203	788.0
297.169861	188.0
297.207275	304.0
297.235168	248.0
297.307831	244.0
297.423187	136.0
297.480957	128.0
297.516022	184.0
297.572327	128.0
297.666168	112.0
297.718689	96.0
298.092926	216.0
298.227631	140.0
298.292694	132.0
298.326996	108.0
298.601013	104.0
298.671326	176.0
298.841553	128.0
298.95871	104.0
299.172333	104.0
301.570831	96.0
301.738312	120.0
303.182587	104.0
306.690552	140.0
307.857422	96.0
309.723877	100.0
323.305511	140.0
323.767334	148.0
329.612976	180.0
333.999695	172.0
338.009125	140.0
358.241852	144.0
392.080109	140.0
404.76059	144.0
458.671906	148.0
487.879028	100.0
519.487793	108.0
522.292175	144.0
581.094421	148.0
908.854492	164.0
945.921936	144.0
1134.81665	140.0
1169.15918	200.0
1207.739014	244.0
1261.528687	164.0
1271.828003	176.0
1279.142334	160.0
1350.803345	164.0
1352.171631	140.0
1360.226807	160.0
1367.12085	176.0
1368.438354	180.0
1369.277832	176.0
1376.60083	148.0
1378.97229	220.0
1416.848267	192.0
1428.559326	144.0
1432.127197	160.0
1436.831055	160.0
1463.517334	188.0
1480.415649	164.0
1481.020752	188.0
1486.364136	204.0
1490.341553	156.0
1493.85498	184.0
1494.531982	200.0
1497.118408	212.0
1503.210938	132.0
1518.712158	140.0
1520.690674	188.0
1525.661987	188.0
1528.158447	144.0
1529.193359	232.0
1529.839478	176.0
1530.143066	192.0
1530.633545	160.0
1532.328857	148.0
1533.227661	172.0
1538.882935	176.0
1542.40625	152.0
1543.391235	188.0
1546.786621	164.0
1558.56604	184.0
1561.411743	148.0
1567.02417	192.0
1571.612061	164.0
1580.691895	148.0
1584.555786	204.0
1588.55127	144.0
1596.374512	192.0
1598.641724	304.0
1601.842407	168.0
1608.57251	160.0
1615.436768	232.0
1617.069092	248.0
1619.150635	160.0
1620.696655	144.0
1623.406006	184.0
1624.208008	200.0
1630.301758	208.0
1630.896484	180.0
1640.322144	188.0
1641.071899	188.0
1653.706177	224.0
1655.114868	164.0
1655.851685	212.0
1658.241821	176.0
1661.436646	148.0
1668.94104	164.0
1687.547241	204.0
1701.097534	228.0
1713.32373	220.0
1714.949341	156.0
1729.511108	168.0
1734.729614	152.0
1745.705688	192.0
1746.254517	192.0
1749.890991	160.0
1761.700073	148.0
1762.134521	140.0
1775.804321	140.0
1777.440186	176.0
1790.604736	168.0
1792.77832	140.0
1794.059448	200.0
1796.494873	192.0
1798.555542	192.0
1800.159668	140.0
1804.418213	160.0
1806.329346	140.0
1809.155762	148.0
1810.341064	148.0
1818.013062	140.0
1824.043213	148.0
1824.765869	172.0
1825.165527	160.0
1837.182861	164.0
1839.324707	148.0
1840.793091	148.0
1844.637817	244.0
1845.039551	192.0
1851.182861	164.0
1853.812744	172.0
1863.835327	252.0
1868.417969	196.0
1870.345581	148.0
1872.265503	204.0
1883.892334	160.0
1884.488525	208.0
1887.556885	148.0
1900.541016	172.0
1909.592896	180.0
1917.350098	164.0
1921.614136	188.0
1927.717529	164.0
1930.777222	180.0
1932.929199	236.0
1936.194458	140.0
1937.306885	196.0
1939.252075	192.0
1946.595093	248.0
1946.735596	212.0
1951.902588	188.0
1953.028198	236.0
1953.387817	160.0
1953.503174	140.0
1959.383911	172.0
1967.250244	184.0
1968.907227	152.0
1969.819946	232.0
1969.996704	184.0
1973.469849	224.0
1975.079346	184.0
1976.645264	180.0
1979.291992	152.0
1982.666992	180.0
1986.089355	148.0
1988.804443	144.0
1994.409058	228.0
1994.649048	184.0
END IONS

BEGIN IONS
PEPMASS=614.37
CHARGE=1
MSLEVEL=2
SOURCE_INSTRUMENT=LC-ESI-qTof
FILENAME=NCP003272_G2_H11_BC3_01_15716.mzXML
SEQ=*..*
IONMODE=Positive
ORGANISM=GNPS-NIH-CLINICALCOLLECTION1
NAME=Indinavir Sulfate [M+H]
PI=Dorrestein
DATACOLLECTOR=Garg_Neha
SMILES=CC(C)(C)NC(=O)[C@@H]1CN(Cc2cccnc2)CCN1C[C@@H](O)C[C@@H](Cc3ccccc3)C(=O)N[C@@H]4[C@H](O)Cc5ccccc45
INCHI=N/A
INCHIAUX=N/A
PUBMED=N/A
SUBMITUSER=negarg
LIBRARYQUALITY=1
SPECTRUMID=CCMSLIB00000078964
USI=mzspec:GNPS:GNPS-NIH-CLINICALCOLLECTION1:accession:CCMSLIB00000078964
SCANS=1102
46.591549	188.0
46.678535	180.0
50.440609	152.0
58.152916	168.0
66.839264	156.0
68.481285	160.0
69.926704	188.0
78.900276	160.0
83.042412	156.0
84.346107	244.0
85.483208	180.0
94.065758	444.0
96.929733	192.0
97.076324	2440.0
98.083664	1168.0
101.94664	160.0
103.056923	148.0
105.024071	172.0
106.066887	208.0
107.242599	152.0
112.115601	156.0
113.055367	152.0
115.053368	164.0
116.179039	152.0
117.066719	152.0
117.081795	308.0
119.073647	148.0
121.075348	652.0
122.056641	164.0
123.090492	432.0
124.096336	384.0
124.542892	184.0
129.094879	180.0
129.898911	200.0
130.921692	176.0
131.08287	176.0
132.083038	344.0
133.063904	1336.0
133.086044	160.0
134.070053	160.0
135.085327	148.0
136.490784	172.0
139.593811	168.0
139.803177	148.0
143.082123	364.0
145.063049	616.0
146.0728	200.0
147.095581	200.0
147.672043	144.0
148.09317	168.0
149.109756	264.0
153.100006	192.0
155.656982	140.0
156.467529	164.0
157.06575	136.0
158.068237	112.0
161.08902	132.0
163.086197	140.0
164.895798	248.0
171.084457	376.0
172.082581	156.0
174.102081	2840.0
174.574463	140.0
175.075638	892.0
175.107849	1568.0
176.077164	480.0
176.117584	2096.0
177.123718	208.0
181.087387	160.0
183.128616	160.0
184.145432	168.0
187.880508	156.0
188.046967	188.0
188.107803	3676.0
188.634216	180.0
189.108154	508.0
189.476624	120.0
190.09729	164.0
190.124023	396.0
191.677887	152.0
191.799149	148.0
192.100693	1812.0
192.593811	164.0
193.108185	200.0
193.492538	212.0
194.11319	192.0
196.429932	144.0
200.115189	160.0
202.136169	188.0
202.356934	180.0
203.099396	152.0
206.116165	3572.0
207.121521	760.0
210.089859	116.0
211.119003	152.0
211.888947	184.0
212.515198	192.0
213.113297	144.0
213.145264	156.0
214.132004	2556.0
215.14093	428.0
216.142227	128.0
216.177917	148.0
221.140747	388.0
222.151596	292.0
223.167633	428.0
223.463364	144.0
224.168579	128.0
226.123291	136.0
227.162766	200.0
228.160324	116.0
232.602585	224.0
232.95787	172.0
241.720688	200.0
242.127396	292.0
242.43602	156.0
243.162842	216.0
243.509949	120.0
244.129349	136.0
246.147156	188.0
247.159027	156.0
247.945908	204.0
253.139481	216.0
253.178741	172.0
254.137466	180.0
255.143021	180.0
257.123169	140.0
257.163239	176.0
258.079193	280.0
259.155792	628.0
260.16803	184.0
261.196381	176.0
262.516876	144.0
270.159515	264.0
271.145325	980.0
271.230286	156.0
272.060211	212.0
272.151276	5816.0
272.34259	152.0
273.15448	1280.0
273.671173	172.0
274.155426	204.0
274.957428	128.0
275.180115	144.0
276.1362	308.0
277.202789	1916.0
278.213593	192.0
279.486725	196.0
279.513336	192.0
280.03598	148.0
280.139252	200.0
281.125549	212.0
281.360565	192.0
284.127472	168.0
286.002563	156.0
288.167847	132.0
288.292572	148.0
289.097412	228.0
289.179779	1296.0
290.184784	508.0
290.21524	176.0
290.608673	168.0
290.795319	140.0
294.15921	420.0
294.19577	144.0
295.172943	364.0
297.252167	200.0
298.159088	128.0
302.155487	128.0
302.355865	160.0
303.155548	136.0
304.484528	152.0
306.146393	880.0
306.543976	196.0
307.149506	288.0
307.387848	196.0
308.149017	216.0
311.909241	188.0
312.480774	96.0
313.341522	148.0
315.21817	4160.0
316.16391	304.0
316.219391	700.0
316.955994	200.0
317.178162	168.0
318.183197	160.0
319.202911	180.0
319.966583	252.0
320.161896	2032.0
320.21283	128.0
321.170837	476.0
322.191071	260.0
323.172882	152.0
324.158386	2360.0
325.159302	1008.0
325.976898	260.0
329.739227	156.0
333.337799	152.0
336.157013	136.0
336.198212	184.0
337.18222	140.0
338.174988	1832.0
339.17868	640.0
339.375153	148.0
340.188141	180.0
341.163086	192.0
341.339569	152.0
346.190643	172.0
348.202148	144.0
349.198181	176.0
353.439728	212.0
362.209351	312.0
363.218384	1632.0
364.202576	8916.0
365.206726	2088.0
366.212524	456.0
367.169586	132.0
367.197021	196.0
369.004639	140.0
369.191162	112.0
371.459412	180.0
372.157867	176.0
372.22406	300.0
373.199127	184.0
373.226044	144.0
375.627747	96.0
376.190613	156.0
380.222015	128.0
381.229218	268.0
384.120514	168.0
385.076782	168.0
385.213226	476.0
386.211548	260.0
387.173035	144.0
388.196259	148.0
393.256897	408.0
393.30249	228.0
394.260742	96.0
395.231049	148.0
397.771393	192.0
402.216644	124.0
403.224182	3660.0
404.227112	1256.0
405.071899	224.0
405.24115	356.0
405.97049	144.0
406.225372	120.0
407.419434	224.0
408.23938	144.0
409.23111	168.0
410.214996	128.0
417.04895	160.0
418.822937	168.0
419.222076	324.0
419.509155	180.0
419.613525	176.0
419.861389	148.0
419.992767	140.0
420.10202	112.0
420.225555	196.0
420.392578	156.0
420.437469	148.0
420.71756	152.0
421.101562	192.0
421.131744	160.0
421.236023	61316.0
421.357513	120.0
421.4086	116.0
421.499115	100.0
421.551025	112.0
421.795441	144.0
421.837524	112.0
421.926331	156.0
421.97876	144.0
422.008423	192.0
422.095367	104.0
422.145569	116.0
422.238739	16852.0
422.354645	180.0
422.572784	128.0
422.912018	128.0
423.242645	1924.0
423.651672	160.0
423.883942	216.0
424.245178	160.0
424.287079	240.0
424.392914	120.0
424.800262	200.0
424.890594	128.0
425.025421	136.0
425.246307	216.0
425.400696	156.0
426.116852	156.0
429.216156	156.0
431.214172	164.0
435.423492	196.0
440.17923	152.0
451.728851	140.0
452.41864	144.0
464.301086	492.0
464.898834	160.0
465.284393	5376.0
465.392456	176.0
466.068085	148.0
466.289093	1280.0
467.284668	492.0
468.291107	148.0
477.275909	164.0
478.272369	180.0
482.313293	192.0
490.650696	188.0
494.091034	188.0
495.272644	2248.0
495.928711	164.0
496.280579	512.0
497.287628	268.0
500.709259	160.0
504.311066	148.0
505.322418	132.0
508.008362	236.0
511.963623	176.0
513.285522	2480.0
513.347107	208.0
514.288696	600.0
515.284424	128.0
521.309814	144.0
523.898682	188.0
532.617493	164.0
540.314026	228.0
541.287109	112.0
556.948792	148.0
559.497498	148.0
564.262451	148.0
565.482849	204.0
576.569031	140.0
577.4104	164.0
579.35376	156.0
583.928162	140.0
594.360596	104.0
596.113464	124.0
596.159424	164.0
596.217773	192.0
596.356934	3744.0
597.363647	1676.0
598.369995	492.0
599.364136	220.0
599.95105	148.0
602.390991	152.0
605.785889	268.0
610.487854	160.0
610.712952	104.0
610.857666	104.0
611.555054	104.0
611.974792	112.0
612.53241	144.0
612.78656	160.0
613.080261	124.0
613.156982	116.0
613.194031	272.0
613.247498	208.0
613.313843	156.0
613.350464	116.0
613.415039	180.0
613.536377	224.0
613.672607	252.0
613.749878	172.0
613.892761	328.0
613.949768	184.0
614.010986	160.0
614.124634	368.0
614.17218	312.0
614.226868	356.0
614.298462	204.0
614.370911	102572.0
614.53418	280.0
614.673706	136.0
614.764709	208.0
614.847717	100.0
614.915527	156.0
614.99054	136.0
615.162598	176.0
615.226746	160.0
615.271851	108.0
615.373108	41012.0
615.48175	208.0
615.543762	224.0
615.708191	112.0
615.846497	260.0
615.931763	256.0
615.999512	244.0
616.054321	180.0
616.147156	140.0
616.376709	7768.0
616.53125	148.0
616.7146	168.0
616.7854	184.0
616.940613	100.0
617.378357	1508.0
617.738708	104.0
617.968445	196.0
618.133606	180.0
618.233398	148.0
618.393494	116.0
618.481812	216.0
618.721436	108.0
618.804077	112.0
618.887024	232.0
619.022705	116.0
619.069214	320.0
619.127258	136.0
619.173157	100.0
619.38092	112.0
619.546875	148.0
619.657532	124.0
619.742615	144.0
619.881287	280.0
620.219727	96.0
620.846497	112.0
621.071106	140.0
627.377075	144.0
633.347351	108.0
638.305298	96.0
706.095215	152.0
800.00708	148.0
804.629822	140.0
1390.495483	164.0
1395.048706	152.0
1399.304077	212.0
1466.159546	200.0
1698.987427	156.0
1721.688599	156.0
1761.398193	168.0
1797.87915	220.0
1843.670654	164.0
1850.667847	204.0
1908.77417	208.0
1912.349731	156.0
1924.620483	208.0
1963.040405	184.0
1968.68689	152.0
END IONS

BEGIN IONS
PEPMASS=342.148
CHARGE=1
MSLEVEL=2
SOURCE_INSTRUMENT=LC-ESI-qTof
FILENAME=NCP003352_A2_B11_BC4_01_15718.mzXML
SEQ=*..*
IONMODE=Positive
ORGANISM=GNPS-NIH-CLINICALCOLLECTION1
NAME=LEVOSULPIRIDE [M+H]
PI=Dorrestein
DATACOLLECTOR=Garg_Neha
SMILES=CCN1CCC[C@H]1CNC(=O)c2cc(ccc2OC)S(=O)(=O)N
INCHI=N/A
INCHIAUX=N/A
PUBMED=N/A
SUBMITUSER=negarg
LIBRARYQUALITY=1
SPECTRUMID=CCMSLIB00000078968
USI=mzspec:GNPS:GNPS-NIH-CLINICALCOLLECTION1:accession:CCMSLIB00000078968
SCANS=981
46.010506	140.0
46.038864	156.0
48.079945	152.0
48.288563	148.0
48.654381	236.0
50.155426	140.0
50.361431	176.0
50.405228	160.0
50.90527	168.0
51.043106	144.0
51.439178	156.0
51.473446	164.0
53.352329	240.0
55.047604	140.0
56.692936	156.0
57.003571	144.0
57.307518	160.0
58.992813	176.0
59.725128	196.0
60.185917	224.0
60.457981	224.0
60.488937	152.0
60.681034	196.0
61.002396	148.0
61.47744	196.0
62.167568	172.0
63.413483	188.0
63.46104	176.0
64.131897	168.0
64.846336	180.0
65.394028	220.0
66.089554	148.0
66.433022	144.0
67.909248	156.0
68.17028	156.0
68.561943	156.0
69.995102	152.0
70.231537	212.0
70.493652	308.0
70.964821	172.0
70.997536	168.0
71.272835	208.0
72.691254	148.0
72.725197	152.0
73.139931	212.0
73.421059	184.0
75.76046	188.0
76.30217	168.0
77.171928	140.0
77.408142	156.0
77.46244	160.0
79.259491	168.0
79.720863	180.0
80.388657	196.0
80.742371	168.0
81.898216	164.0
81.976486	136.0
82.017143	156.0
82.473801	168.0
82.57505	168.0
82.676361	152.0
83.085861	144.0
84.479515	168.0
85.405853	172.0
85.532814	152.0
86.967163	152.0
87.013573	164.0
88.078537	140.0
88.175926	164.0
88.95887	160.0
88.988907	204.0
89.159843	180.0
89.441963	212.0
89.632179	152.0
89.649139	160.0
92.140526	160.0
92.218872	152.0
93.839058	140.0
94.186424	172.0
94.455101	164.0
95.395584	208.0
95.794502	152.0
97.006569	172.0
97.657974	144.0
97.705185	156.0
98.096001	1864.0
98.223274	156.0
98.237083	140.0
98.262726	184.0
99.011894	152.0
99.099495	260.0
99.30323	156.0
99.893158	164.0
99.940903	204.0
100.880249	184.0
101.03624	160.0
101.520958	156.0
102.131508	144.0
102.802399	188.0
103.234703	148.0
103.524078	200.0
104.500427	224.0
104.549263	224.0
105.759537	176.0
106.17955	140.0
106.280067	140.0
106.902679	184.0
107.053947	224.0
107.616867	192.0
108.60714	176.0
110.09729	572.0
110.435898	156.0
110.607475	148.0
111.0961	156.0
111.337105	172.0
111.374908	176.0
111.833275	160.0
112.01857	168.0
112.112663	33212.0
112.217155	156.0
112.805672	180.0
113.087379	180.0
113.114967	2004.0
113.152618	208.0
113.994682	144.0
114.021103	100.0
114.115837	308.0
116.221832	160.0
116.586884	164.0
116.881485	160.0
117.776161	160.0
117.89283	172.0
118.197731	184.0
118.819557	144.0
120.04631	168.0
120.212097	148.0
121.051514	180.0
121.869682	204.0
124.052376	228.0
124.429512	144.0
126.017502	144.0
126.520454	180.0
127.116905	180.0
127.530128	144.0
128.130951	296.0
129.796722	188.0
130.122528	276.0
130.209732	144.0
130.286972	180.0
132.286942	144.0
133.027359	148.0
133.590363	192.0
133.707718	168.0
134.030106	164.0
134.216812	160.0
135.0345	136.0
138.984375	404.0
139.847763	152.0
141.758347	168.0
143.119431	152.0
143.140671	228.0
144.726349	156.0
146.065491	168.0
146.363907	168.0
148.395935	176.0
150.056503	140.0
150.586029	176.0
151.039963	388.0
152.094604	148.0
152.29071	160.0
154.363327	152.0
154.77655	148.0
155.587296	140.0
155.865479	176.0
156.290665	160.0
156.352875	164.0
156.69899	144.0
158.094803	160.0
158.768692	156.0
159.152618	200.0
160.395401	184.0
160.455902	168.0
161.099426	156.0
162.433472	148.0
163.442062	156.0
163.620224	148.0
164.247116	204.0
164.397644	160.0
164.492065	156.0
164.867523	204.0
165.642761	144.0
166.0289	364.0
166.836014	152.0
166.861725	176.0
167.022079	180.0
168.28392	156.0
169.152542	164.0
169.351929	176.0
169.725098	176.0
169.98967	144.0
170.563644	148.0
170.634201	140.0
170.997406	300.0
171.037048	152.0
171.255768	176.0
173.518753	144.0
174.08551	168.0
175.02359	156.0
175.772858	144.0
176.015701	156.0
176.578583	160.0
176.803467	196.0
177.139725	144.0
177.470993	224.0
177.688477	172.0
178.583679	172.0
179.337173	156.0
180.118958	176.0
180.215134	152.0
180.549271	164.0
180.795395	160.0
180.820511	156.0
181.12738	204.0
181.475769	256.0
183.004562	236.0
183.446396	188.0
184.020844	296.0
185.018646	140.0
186.130264	216.0
187.340546	172.0
187.828964	164.0
188.076797	180.0
188.368973	148.0
189.203033	216.0
189.444397	144.0
189.474152	148.0
190.170654	144.0
191.256561	148.0
192.292679	160.0
193.044098	224.0
194.124084	152.0
194.276627	188.0
195.668945	156.0
195.710709	156.0
196.234512	144.0
196.991425	148.0
197.069031	152.0
197.264664	148.0
197.76535	140.0
199.001801	508.0
199.574783	176.0
199.856049	164.0
200.038147	400.0
200.067123	172.0
201.048004	140.0
201.197601	160.0
201.609985	196.0
201.64389	188.0
202.03862	148.0
202.628632	188.0
203.493652	156.0
204.09494	160.0
204.423111	140.0
204.585358	144.0
205.785599	180.0
205.839844	236.0
206.176941	144.0
207.166931	180.0
208.202454	128.0
208.371841	152.0
208.785751	216.0
209.107971	168.0
210.618805	156.0
211.214233	176.0
211.614822	180.0
212.172745	152.0
212.863297	152.0
213.02504	156.0
213.517151	148.0
213.905579	136.0
213.956635	188.0
213.979889	148.0
214.017731	72484.0
214.134827	188.0
214.246109	100.0
214.299774	124.0
214.407516	136.0
214.524933	136.0
214.918304	140.0
215.020416	4052.0
215.439072	128.0
216.015137	2560.0
216.17186	188.0
216.407104	140.0
216.691711	176.0
216.715714	112.0
216.827835	140.0
217.009583	176.0
218.192764	160.0
218.639862	212.0
220.147217	152.0
220.654495	224.0
221.397186	168.0
223.008163	140.0
223.469101	228.0
225.900497	180.0
226.045547	148.0
226.196747	224.0
229.314529	224.0
229.625061	196.0
230.019165	136.0
230.07164	188.0
230.391754	140.0
230.950974	164.0
231.040451	576.0
231.074997	216.0
231.844101	172.0
232.049332	204.0
233.641632	180.0
233.903336	140.0
234.234833	152.0
234.48204	164.0
234.518616	140.0
234.649689	184.0
234.860107	188.0
234.924667	144.0
234.975266	112.0
235.082809	164.0
235.34993	148.0
237.80658	168.0
240.262115	164.0
240.79921	188.0
241.596695	176.0
243.433167	124.0
244.452209	180.0
245.656906	224.0
246.406143	220.0
246.943451	140.0
247.009491	172.0
248.692108	160.0
249.181976	152.0
249.254242	156.0
249.48053	168.0
250.389877	184.0
250.588333	196.0
251.01384	248.0
252.25145	144.0
253.4319	156.0
255.365158	152.0
255.641937	196.0
255.922043	148.0
256.10675	156.0
256.756927	164.0
257.008942	156.0
259.282532	156.0
261.427765	144.0
261.720703	140.0
262.113678	304.0
262.63916	184.0
262.935974	228.0
263.830719	240.0
265.417145	144.0
266.390808	140.0
267.828552	168.0
268.376678	204.0
269.093811	156.0
269.466156	192.0
269.917206	152.0
270.643585	156.0
271.669403	192.0
273.578308	164.0
274.616669	148.0
274.837677	140.0
276.155792	208.0
276.636017	152.0
277.175415	236.0
277.712463	168.0
278.037598	188.0
278.701752	224.0
279.384399	180.0
280.062347	160.0
280.325562	140.0
280.482178	168.0
280.805603	176.0
283.915894	152.0
284.003082	140.0
285.090027	428.0
287.37384	168.0
287.576324	212.0
288.045654	144.0
288.126709	196.0
288.606659	172.0
289.852264	184.0
290.337006	172.0
291.029266	140.0
291.684937	188.0
292.410461	104.0
294.46524	140.0
294.623657	188.0
296.751099	148.0
296.905396	148.0
297.088318	536.0
298.124084	152.0
299.097992	144.0
299.255768	192.0
299.438293	152.0
300.865814	212.0
301.228394	236.0
302.802185	168.0
303.707153	192.0
303.991272	172.0
304.758636	156.0
305.036682	144.0
305.412201	168.0
306.439148	172.0
308.484222	172.0
309.428772	204.0
309.950623	196.0
310.455414	184.0
311.002716	176.0
311.652405	180.0
311.951111	148.0
312.179657	192.0
312.731995	196.0
312.823517	160.0
314.11322	276.0
314.240234	156.0
314.504883	192.0
314.804993	172.0
314.90387	152.0
315.632843	128.0
316.732483	144.0
317.77713	100.0
317.888275	152.0
319.846527	152.0
319.966797	112.0
320.430542	168.0
320.462616	160.0
320.712067	208.0
321.154205	152.0
322.689728	160.0
322.811279	144.0
323.534027	232.0
324.138977	160.0
324.286255	160.0
324.669861	188.0
325.150604	148.0
325.574219	188.0
326.159851	200.0
326.526581	184.0
327.818542	156.0
328.013611	168.0
329.680511	132.0
331.070221	148.0
331.186127	144.0
332.12851	164.0
334.58136	156.0
334.821686	164.0
335.048492	132.0
335.49942	236.0
338.048828	144.0
338.167603	128.0
338.303284	136.0
338.370911	156.0
338.42218	152.0
338.640411	136.0
338.729248	128.0
339.799957	144.0
339.856201	284.0
339.923523	132.0
340.131104	448.0
340.207489	112.0
340.262054	384.0
340.334503	120.0
340.366364	168.0
340.414795	100.0
340.490814	184.0
340.730194	120.0
340.765656	116.0
340.863831	208.0
340.919312	152.0
340.950867	248.0
341.042511	164.0
341.106232	328.0
341.18335	276.0
341.25589	216.0
341.311981	128.0
341.382355	104.0
341.418762	132.0
341.457489	356.0
341.51123	192.0
341.566589	132.0
341.643555	344.0
341.675751	168.0
341.750732	204.0
341.805695	224.0
341.869324	320.0
341.917542	408.0
341.952637	112.0
341.981934	268.0
342.039612	260.0
342.073975	1020.0
342.150482	225632.0
342.243927	112.0
342.270844	168.0
342.378998	108.0
342.429169	280.0
342.49823	396.0
342.575653	380.0
342.629913	184.0
342.678284	184.0
342.709595	204.0
342.756622	8908.0
342.797211	536.0
342.82782	272.0
342.880585	364.0
342.9375	300.0
343.015045	328.0
343.078308	188.0
343.152039	78312.0
343.27124	168.0
343.334381	116.0
343.384033	136.0
343.415863	252.0
343.493622	256.0
343.548065	152.0
343.609344	168.0
343.689148	228.0
343.746063	268.0
343.860229	124.0
343.900879	160.0
343.952271	164.0
343.996155	412.0
344.039978	284.0
344.147675	21212.0
344.233917	136.0
344.322968	108.0
344.400391	164.0
344.564667	192.0
344.605957	188.0
344.638916	168.0
344.67395	176.0
344.838501	200.0
344.910187	288.0
344.990173	164.0
345.042725	284.0
345.069977	200.0
345.082764	156.0
345.148041	2888.0
345.248108	148.0
345.317902	188.0
345.34848	248.0
345.394775	192.0
345.415527	240.0
345.460327	192.0
345.49527	364.0
345.52597	276.0
345.598083	360.0
345.63031	200.0
345.770142	108.0
345.838715	112.0
345.944672	160.0
345.983154	192.0
346.100403	148.0
346.145569	284.0
346.214874	116.0
346.397308	124.0
346.428131	132.0
346.465759	148.0
346.703735	204.0
346.737549	120.0
347.160553	112.0
347.414886	264.0
347.748108	120.0
347.894165	132.0
348.857788	124.0
356.350006	96.0
356.394775	96.0
356.538422	112.0
357.50885	116.0
358.227814	132.0
360.935974	140.0
424.94223	148.0
488.013	148.0
577.103821	140.0
793.052246	152.0
875.26825	156.0
909.921326	152.0
1254.798706	148.0
1336.974854	160.0
1408.012085	208.0
1442.45459	164.0
1505.452148	196.0
1513.974243	212.0
1514.268433	140.0
1534.79187	140.0
1536.078735	164.0
1563.053223	192.0
1567.273682	184.0
1588.612061	156.0
1605.434204	204.0
1612.099976	148.0
1614.322266	176.0
1631.142944	152.0
1641.488403	232.0
1652.44104	152.0
1662.496704	184.0
1678.432251	164.0
1707.758545	156.0
1740.451172	152.0
1747.058472	152.0
1754.211792	224.0
1764.262695	156.0
1769.550049	148.0
1770.496216	148.0
1787.453369	140.0
1796.839478	164.0
1802.530273	212.0
1804.44043	172.0
1812.794678	152.0
1818.230591	152.0
1829.893066	200.0
1844.224365	200.0
1863.076172	196.0
1885.453125	140.0
1886.109985	160.0
1914.95105	140.0
1927.670654	164.0
1938.206055	180.0
1943.054565	144.0
1945.05542	264.0
1962.615234	176.0
1975.863403	168.0
1984.294678	140.0
1994.796753	148.0
END IONS

BEGIN IONS
PEPMASS=194.081
CHARGE=1
MSLEVEL=2
SOURCE_INSTRUMENT=LC-ESI-qTof
FILENAME=NCP003352_A2_B11_BC4_01_15718.mzXML
SEQ=*..*
IONMODE=Positive
ORGANISM=GNPS-NIH-CLINICALCOLLECTION1
NAME=ACTARIT [M+H]
PI=Dorrestein
DATACOLLECTOR=Garg_Neha
SMILES=CC(=O)Nc1ccc(CC(=O)O)cc1
INCHI=N/A
INCHIAUX=N/A
PUBMED=N/A
SUBMITUSER=negarg
LIBRARYQUALITY=1
SPECTRUMID=CCMSLIB00000078977
USI=mzspec:GNPS:GNPS-NIH-CLINICALCOLLECTION1:accession:CCMSLIB00000078977
SCANS=1036
45.167953	180.0
45.683064	148.0
45.945763	184.0
46.192982	156.0
46.573879	176.0
47.118778	180.0
47.658787	272.0
48.833675	168.0
48.911594	216.0
49.680168	152.0
51.250965	164.0
51.712227	176.0
52.044811	140.0
52.169807	172.0
52.329498	164.0
52.630844	156.0
53.096813	192.0
53.583771	160.0
53.999798	176.0
54.932522	184.0
55.540482	144.0
55.977425	212.0
59.829811	252.0
59.871387	192.0
61.466564	168.0
61.539925	148.0
62.188019	172.0
63.532459	168.0
63.745216	140.0
64.033165	148.0
64.889671	200.0
65.009972	160.0
65.479408	196.0
66.071808	140.0
66.092842	180.0
67.996254	144.0
68.333115	164.0
68.637825	156.0
69.653999	204.0
71.661568	160.0
72.103676	204.0
72.693008	292.0
73.145096	160.0
76.890747	196.0
77.741272	148.0
77.906319	148.0
78.280945	232.0
78.645889	192.0
79.33931	164.0
80.055359	144.0
81.436035	188.0
81.734459	164.0
82.064072	264.0
82.596817	152.0
83.509171	156.0
83.990028	180.0
84.388138	152.0
84.746872	180.0
85.10453	140.0
87.301643	188.0
87.789551	152.0
87.989204	152.0
89.53241	152.0
90.538994	156.0
90.769516	216.0
91.751274	144.0
92.777893	140.0
93.388519	192.0
94.043961	180.0
97.986786	224.0
98.367393	160.0
98.663719	192.0
98.96048	140.0
101.641396	180.0
102.826698	160.0
103.238823	172.0
103.422935	168.0
103.945801	228.0
104.676056	180.0
105.052605	196.0
105.252617	160.0
105.710503	168.0
105.72892	204.0
105.8927	208.0
106.004898	204.0
106.065788	36872.0
106.17659	108.0
106.22802	108.0
106.268997	116.0
106.295639	184.0
106.407318	104.0
106.97068	140.0
107.050079	664.0
107.069115	4016.0
107.149849	152.0
107.218437	152.0
107.626282	156.0
107.711082	136.0
107.836998	156.0
107.884964	116.0
108.054123	184.0
108.239365	144.0
111.320801	148.0
113.286125	164.0
113.945045	196.0
116.767555	168.0
116.786919	176.0
117.07962	152.0
119.177887	172.0
119.432243	160.0
119.652023	156.0
120.070389	208.0
124.238747	184.0
126.973427	272.0
128.812332	204.0
130.805542	144.0
131.003662	152.0
131.637711	176.0
134.7547	200.0
134.95578	172.0
136.544235	176.0
138.854034	212.0
140.387375	176.0
141.753723	148.0
142.546295	184.0
143.00766	148.0
143.079071	148.0
144.992355	180.0
146.224411	160.0
147.352921	144.0
147.802643	192.0
147.869095	180.0
148.004959	232.0
148.076843	42200.0
148.161652	128.0
148.78833	116.0
148.948502	124.0
149.079819	4388.0
150.082138	144.0
150.224197	112.0
151.06279	120.0
151.557327	192.0
152.072052	2684.0
152.105682	180.0
153.078171	324.0
154.08017	348.0
156.457535	180.0
156.91095	208.0
157.048111	204.0
160.002548	184.0
160.400101	216.0
160.53923	188.0
160.57959	168.0
161.848175	224.0
161.979858	168.0
163.124283	216.0
166.083771	332.0
168.922379	164.0
172.973999	188.0
176.06987	456.0
177.076279	336.0
184.09407	140.0
192.102432	152.0
193.456512	140.0
194.024414	188.0
194.082687	50552.0
194.200897	140.0
194.235519	128.0
194.347839	96.0
194.940353	164.0
194.968155	144.0
195.084457	4832.0
195.12381	140.0
195.155991	132.0
195.318268	120.0
196.086792	548.0
196.450241	108.0
196.690781	96.0
197.125763	160.0
210.229202	152.0
212.088348	196.0
232.032211	156.0
232.117111	168.0
238.043152	156.0
312.880096	144.0
434.800659	160.0
1256.329956	204.0
1380.457031	200.0
1397.56958	212.0
1405.385498	184.0
1415.311646	184.0
1451.510498	192.0
1471.430054	176.0
1474.370728	180.0
1482.199097	172.0
1489.810059	232.0
1495.84668	192.0
1496.66272	160.0
1507.508179	184.0
1512.759766	140.0
1549.063843	228.0
1549.894287	188.0
1573.56897	184.0
1574.761353	152.0
1576.673218	140.0
1599.627197	140.0
1605.754517	180.0
1630.485107	208.0
1652.321045	244.0
1655.858276	164.0
1658.613159	240.0
1700.020874	200.0
1700.505005	180.0
1708.557739	176.0
1714.016479	164.0
1715.862793	188.0
1722.803223	192.0
1745.562744	160.0
1746.460938	160.0
1761.581543	192.0
1766.797974	140.0
1769.492798	180.0
1772.55835	140.0
1788.052124	144.0
1807.562988	144.0
1809.128662	148.0
1814.915283	152.0
1819.411865	148.0
1823.455078	180.0
1827.775146	176.0
1840.842651	168.0
1843.747192	236.0
1855.002441	140.0
1858.175415	164.0
1861.6604	160.0
1881.420776	140.0
1890.392456	160.0
1903.603394	144.0
1905.088623	164.0
1910.443604	148.0
1914.403809	188.0
1917.566284	164.0
1920.993042	160.0
1924.431519	168.0
1927.174072	204.0
1940.959839	140.0
1947.52417	148.0
1955.217163	172.0
1960.449463	148.0
1962.057373	256.0
1967.327881	176.0
1978.626099	188.0
1982.186646	220.0
1991.954712	176.0
1993.198608	156.0
2001.515381	184.0
2001.95166	164.0
END IONS

BEGIN IONS
PEPMASS=382.168
CHARGE=1
MSLEVEL=2
SOURCE_INSTRUMENT=LC-ESI-qTof
FILENAME=NCP003352_C2_D11_BC5_01_15719.mzXML
SEQ=*..*
IONMODE=Positive
ORGANISM=GNPS-NIH-CLINICALCOLLECTION1
NAME=azelastine hydrochloride [M+H]
PI=Dorrestein
DATACOLLECTOR=Garg_Neha
SMILES=CN1CCCC(CC1)n2nc(Cc3ccc(Cl)cc3)c4ccccc4c2=O
INCHI=N/A
INCHIAUX=N/A
PUBMED=N/A
SUBMITUSER=negarg
LIBRARYQUALITY=1
SPECTRUMID=CCMSLIB00000078987
USI=mzspec:GNPS:GNPS-NIH-CLINICALCOLLECTION1:accession:CCMSLIB00000078987
SCANS=1167
45.030243	188.0
45.081013	156.0
45.196011	160.0
45.288383	208.0
45.568752	200.0
45.680336	204.0
46.510242	172.0
46.683926	244.0
46.938572	228.0
47.40197	156.0
47.454056	208.0
47.522636	148.0
48.057865	144.0
48.46714	176.0
48.51981	176.0
48.676594	184.0
48.759949	160.0
48.819729	196.0
49.496525	140.0
49.757313	220.0
49.819107	152.0
49.982201	144.0
50.539555	168.0
51.226704	152.0
51.467728	160.0
51.563442	168.0
51.780907	160.0
52.31506	148.0
52.415878	196.0
52.994476	176.0
53.347965	224.0
53.401764	148.0
53.76162	148.0
53.897423	176.0
54.113895	212.0
54.205612	148.0
54.307331	200.0
54.344006	160.0
54.50552	144.0
54.637844	212.0
55.364063	156.0
55.488533	140.0
55.629467	172.0
56.138317	152.0
56.790382	156.0
56.913441	228.0
57.006573	144.0
57.553406	168.0
57.637959	148.0
58.624313	156.0
58.932549	200.0
59.30658	108.0
59.336605	160.0
60.134972	160.0
60.935566	200.0
61.14082	176.0
62.524303	144.0
62.743248	160.0
63.264584	256.0
63.300232	132.0
63.594292	152.0
64.02037	156.0
64.115952	196.0
64.182907	156.0
65.167282	224.0
65.37793	252.0
65.672157	204.0
65.898758	152.0
65.94239	188.0
66.431396	224.0
66.525513	156.0
66.631073	168.0
66.785507	168.0
66.879875	160.0
66.891273	152.0
66.980835	148.0
67.080231	216.0
67.691277	168.0
67.997841	204.0
68.759842	172.0
68.773048	200.0
68.872116	196.0
69.067162	144.0
69.217766	192.0
69.27076	188.0
69.524437	168.0
69.582367	176.0
69.605782	152.0
69.801857	172.0
70.224861	172.0
70.52874	140.0
70.670891	192.0
71.811539	184.0
71.827736	152.0
72.286972	256.0
72.560646	156.0
73.12291	196.0
73.461861	184.0
74.27623	240.0
75.052795	168.0
75.490448	336.0
76.484573	180.0
76.547249	176.0
78.131271	192.0
79.303795	140.0
79.475807	152.0
81.297729	208.0
81.564117	124.0
81.595894	196.0
82.356354	144.0
82.482834	168.0
82.717987	184.0
85.66539	168.0
85.718819	172.0
86.364983	156.0
86.650063	140.0
86.97644	164.0
87.033989	148.0
87.433655	176.0
87.608681	168.0
87.918198	140.0
88.671883	224.0
88.731865	140.0
88.893173	192.0
89.174873	148.0
89.306488	144.0
89.409966	192.0
89.805611	168.0
90.243729	140.0
90.39505	156.0
91.288521	164.0
92.079399	208.0
93.700294	260.0
93.798569	160.0
93.997223	200.0
94.028099	148.0
94.352608	148.0
94.797783	168.0
95.158562	184.0
95.327553	208.0
95.387802	144.0
95.706863	164.0
96.087029	152.0
96.123993	172.0
96.149361	164.0
96.190353	228.0
96.53421	156.0
96.835594	172.0
97.088409	180.0
97.282661	172.0
97.306213	144.0
97.831123	204.0
98.097069	468.0
98.635956	148.0
98.695267	140.0
99.001984	204.0
99.138672	184.0
99.188225	204.0
99.684387	180.0
99.964775	192.0
100.114075	172.0
100.280556	164.0
101.346962	140.0
102.649078	256.0
102.921486	220.0
102.955818	148.0
102.986115	160.0
103.03257	140.0
103.053864	208.0
103.461311	164.0
103.557869	140.0
104.063446	140.0
104.555359	164.0
104.771385	216.0
104.795647	160.0
105.532455	208.0
106.518204	188.0
106.565453	192.0
106.721657	140.0
107.26722	148.0
107.543617	244.0
107.996109	144.0
108.337212	132.0
108.414314	192.0
108.528328	172.0
109.957443	152.0
110.097359	1144.0
110.519569	148.0
110.643059	164.0
110.659805	144.0
110.909096	144.0
111.055199	164.0
111.108498	176.0
111.601868	208.0
111.837479	196.0
111.899773	204.0
111.956413	196.0
112.02829	384.0
112.052742	144.0
112.077171	384.0
112.09153	388.0
112.113091	99900.0
112.192162	148.0
112.260979	256.0
112.281403	200.0
112.458435	112.0
112.719353	248.0
113.094841	156.0
113.116173	7332.0
113.158966	196.0
113.794487	96.0
113.908615	116.0
113.923454	148.0
113.946434	108.0
113.970985	100.0
113.996849	112.0
114.03923	112.0
114.116669	132.0
114.526543	160.0
114.755112	140.0
115.818794	216.0
116.018074	208.0
116.208954	152.0
118.100945	196.0
118.180412	176.0
118.457573	184.0
119.414742	164.0
119.768066	108.0
121.375816	164.0
121.942192	236.0
122.441612	140.0
122.603767	128.0
122.915382	236.0
124.933983	168.0
125.01577	2408.0
125.629028	196.0
126.017494	360.0
126.365761	120.0
126.444595	160.0
126.780525	180.0
127.013481	592.0
127.606552	192.0
128.010635	192.0
128.230087	232.0
128.92067	204.0
129.259872	156.0
129.549667	164.0
129.921463	196.0
130.032639	192.0
130.338547	136.0
131.050385	448.0
132.092422	148.0
132.914902	184.0
133.30986	172.0
134.703766	172.0
136.077057	200.0
136.409271	140.0
136.839645	140.0
137.163467	148.0
137.903366	164.0
138.464874	144.0
138.600754	160.0
138.694489	164.0
138.807022	172.0
139.198059	212.0
139.800674	148.0
141.549881	180.0
143.097992	160.0
145.397537	148.0
146.742188	172.0
148.864227	184.0
149.993118	148.0
150.559158	232.0
151.361252	172.0
153.053055	152.0
153.072754	176.0
153.237778	180.0
153.274734	228.0
153.368393	140.0
155.94426	164.0
156.375259	140.0
156.457413	180.0
156.636703	180.0
157.599686	140.0
158.152344	168.0
158.723541	172.0
158.818832	160.0
159.055786	5020.0
159.112442	200.0
160.061798	668.0
160.529007	140.0
161.079514	164.0
161.62529	160.0
162.618683	180.0
163.719528	140.0
164.428421	116.0
164.944183	168.0
164.977417	148.0
165.020874	176.0
165.629944	148.0
166.389008	192.0
167.02887	244.0
167.275894	176.0
168.746384	124.0
169.067123	152.0
169.258377	172.0
169.763977	176.0
171.018814	140.0
171.385315	136.0
171.49025	172.0
172.388321	168.0
172.994797	148.0
173.358307	196.0
174.106506	140.0
174.582169	188.0
175.166473	164.0
175.780762	148.0
176.692322	148.0
177.089081	180.0
177.529434	96.0
177.659286	148.0
179.265198	176.0
179.363449	148.0
179.467789	160.0
179.622467	168.0
179.710495	140.0
180.423584	168.0
180.996216	164.0
181.811066	168.0
182.071472	140.0
182.388504	212.0
183.053024	148.0
183.405945	228.0
183.435608	148.0
183.853653	224.0
184.212753	180.0
184.25058	228.0
184.458664	148.0
184.631699	148.0
184.726364	196.0
184.831879	152.0
185.074921	208.0
185.10257	152.0
185.210892	200.0
185.37886	156.0
186.021652	140.0
186.21225	164.0
186.244324	168.0
186.420914	144.0
186.619339	208.0
186.768906	172.0
186.89801	184.0
187.490402	160.0
187.632141	148.0
187.96489	152.0
188.265167	144.0
188.666824	228.0
188.825638	100.0
188.929352	148.0
189.934677	176.0
190.280457	164.0
191.67218	156.0
191.796204	156.0
192.485901	156.0
192.751083	172.0
193.293045	204.0
194.04921	148.0
194.271072	176.0
194.739166	112.0
194.871017	156.0
195.62439	144.0
195.788666	212.0
196.147766	140.0
196.340469	184.0
196.650345	172.0
197.075699	212.0
197.24707	164.0
197.41983	128.0
198.074921	164.0
199.119537	160.0
200.019257	176.0
200.072754	172.0
200.092453	152.0
200.57135	184.0
200.822296	160.0
200.923843	152.0
201.30629	184.0
201.502594	156.0
202.78447	184.0
202.842484	128.0
203.079025	188.0
203.201309	140.0
203.681061	144.0
203.982269	168.0
204.07608	172.0
204.716309	300.0
205.985489	152.0
207.021042	116.0
207.416214	228.0
208.282776	232.0
208.630478	152.0
208.983383	152.0
209.459229	172.0
210.70256	180.0
210.725677	148.0
211.04071	140.0
211.086975	168.0
211.115891	204.0
211.655029	104.0
212.779831	200.0
213.997269	176.0
214.13208	176.0
214.306	148.0
214.614944	180.0
214.781174	140.0
214.843643	136.0
215.014587	192.0
215.125504	180.0
215.296539	116.0
215.717422	128.0
215.75943	140.0
216.811752	148.0
217.361542	156.0
217.464249	240.0
217.555252	164.0
218.28978	152.0
218.339767	156.0
218.495667	164.0
219.069031	344.0
219.110962	180.0
219.162827	116.0
219.37619	168.0
219.508865	164.0
219.843338	140.0
220.068954	252.0
220.358932	192.0
220.610138	144.0
220.965027	172.0
221.080948	140.0
221.207687	140.0
221.31723	232.0
222.136841	144.0
222.562546	180.0
222.725891	164.0
223.528595	160.0
224.120346	260.0
224.308884	204.0
224.893509	164.0
224.953217	220.0
225.138336	212.0
225.238785	132.0
225.278702	176.0
226.032013	104.0
227.055573	404.0
227.338638	140.0
227.455688	188.0
227.52774	140.0
227.94223	176.0
228.060974	160.0
228.609802	268.0
229.300873	128.0
229.950882	188.0
232.070328	152.0
232.180603	180.0
232.520386	220.0
232.653946	148.0
233.507782	140.0
233.702469	148.0
234.356781	156.0
234.421082	184.0
236.499405	108.0
236.623322	144.0
236.92038	140.0
237.134872	140.0
237.23909	140.0
237.315735	152.0
237.924942	116.0
238.041626	152.0
238.537598	140.0
238.98967	196.0
239.302582	204.0
239.454498	140.0
240.052368	148.0
241.045242	224.0
241.417282	144.0
242.044891	112.0
242.42337	192.0
243.804321	144.0
243.847824	140.0
244.295578	164.0
245.058319	152.0
246.825455	152.0
247.106461	224.0
248.321869	152.0
249.059448	232.0
249.452225	140.0
249.939697	216.0
250.200928	160.0
252.267242	140.0
252.355759	232.0
252.694183	172.0
252.833405	172.0
253.426636	176.0
253.59848	176.0
254.036972	580.0
255.053177	364.0
255.272919	148.0
255.546463	156.0
255.638733	168.0
256.05246	340.0
257.050415	252.0
257.079132	160.0
257.522888	160.0
257.569885	200.0
258.05899	120.0
258.251617	196.0
258.385956	156.0
259.056396	256.0
259.253052	180.0
259.338287	204.0
259.378693	144.0
259.907837	184.0
262.687531	140.0
263.90506	148.0
264.267303	168.0
264.383789	168.0
265.041077	192.0
265.161041	140.0
265.264771	176.0
265.462524	144.0
265.793396	196.0
266.208893	156.0
267.395996	128.0
267.890411	200.0
268.017487	156.0
268.135498	184.0
268.555359	196.0
269.08728	140.0
269.129425	192.0
270.054535	156.0
270.077423	172.0
270.388489	164.0
270.426849	156.0
270.506073	168.0
270.659943	180.0
270.803925	96.0
270.908875	140.0
271.063965	20192.0
271.129974	108.0
271.181488	160.0
271.616913	176.0
271.823608	140.0
272.008575	180.0
272.066711	2264.0
272.611694	148.0
272.802246	152.0
273.016052	168.0
273.061768	6252.0
273.275909	184.0
273.614899	140.0
274.06311	856.0
274.114075	160.0
274.868103	112.0
275.293182	156.0
276.126007	152.0
276.397247	140.0
276.589203	144.0
276.729095	140.0
276.797791	244.0
277.397461	192.0
277.516785	184.0
278.097321	192.0
278.13385	152.0
278.990875	176.0
279.210327	156.0
279.455444	156.0
280.092804	136.0
280.912323	140.0
281.222656	220.0
281.256927	160.0
281.633331	168.0
281.763611	168.0
282.065125	328.0
282.295044	148.0
282.321808	220.0
282.392029	188.0
282.485687	180.0
282.686432	192.0
283.063812	10704.0
283.162659	164.0
283.457672	152.0
283.671875	124.0
283.771667	220.0
283.97287	176.0
284.066345	2128.0
284.480377	132.0
284.959778	148.0
285.061859	3836.0
285.211823	148.0
285.329468	140.0
285.379578	116.0
285.735016	124.0
285.874176	128.0
285.958496	200.0
286.06424	824.0
286.217285	156.0
286.254761	156.0
286.386108	152.0
286.589417	168.0
287.192566	164.0
287.552673	192.0
288.735138	144.0
289.43222	192.0
290.480927	128.0
290.806427	144.0
290.985107	140.0
291.012268	148.0
291.623718	164.0
292.130371	176.0
292.163971	132.0
292.463837	164.0
293.165405	144.0
293.196075	160.0
293.26767	192.0
293.584717	156.0
293.646118	240.0
294.035034	160.0
294.345703	140.0
294.434479	176.0
294.496613	192.0
295.093964	196.0
295.37439	140.0
295.641266	204.0
295.93222	164.0
296.106842	252.0
296.514557	152.0
296.620819	144.0
297.078644	764.0
297.612274	164.0
298.082855	152.0
298.337189	152.0
298.388763	164.0
298.729218	164.0
298.767059	152.0
299.072876	300.0
299.768982	152.0
300.565521	212.0
301.211487	108.0
301.459869	148.0
301.560089	168.0
301.83667	160.0
301.992279	192.0
303.030792	176.0
304.07074	128.0
304.237671	192.0
304.546722	232.0
304.753967	128.0
304.848969	168.0
305.697479	148.0
305.926239	120.0
305.959198	164.0
306.338104	140.0
306.961945	164.0
307.537598	228.0
308.016235	144.0
308.06485	160.0
308.187469	124.0
308.466705	140.0
308.659973	100.0
309.079529	1856.0
309.223175	148.0
309.941803	156.0
310.079742	436.0
310.140106	168.0
310.371246	208.0
310.964081	152.0
311.076385	404.0
311.329224	156.0
312.007355	140.0
312.08136	232.0
312.153168	116.0
313.529266	156.0
314.953308	176.0
315.3172	200.0
315.546967	160.0
315.702545	144.0
315.893555	144.0
316.020905	164.0
316.095215	216.0
316.417297	160.0
316.738617	144.0
317.756958	144.0
317.945038	188.0
318.415009	156.0
318.587708	148.0
318.640228	132.0
318.914612	160.0
320.434082	188.0
320.459045	172.0
321.246918	168.0
321.629578	136.0
321.925049	144.0
322.578888	204.0
322.859894	128.0
323.094727	304.0
323.405151	148.0
323.774719	340.0
324.10257	172.0
324.53717	168.0
324.759521	140.0
326.127472	152.0
326.587708	252.0
326.940308	140.0
327.512756	160.0
327.743317	168.0
328.132568	168.0
328.568939	160.0
328.619446	144.0
329.426636	96.0
329.558197	188.0
330.766083	164.0
331.182922	100.0
331.240417	148.0
331.802124	164.0
332.288116	160.0
332.600189	176.0
333.104919	148.0
333.453735	176.0
333.712708	148.0
333.853638	156.0
333.943665	180.0
334.141968	164.0
336.22525	244.0
336.772888	156.0
337.22229	196.0
338.28302	100.0
338.792053	188.0
339.124756	1144.0
339.44812	192.0
339.668152	148.0
340.128754	296.0
340.607849	160.0
341.074493	172.0
341.127106	364.0
342.131104	304.0
342.162048	120.0
343.276123	148.0
343.545349	224.0
344.217072	228.0
345.262878	168.0
345.288757	172.0
346.34729	140.0
346.380646	140.0
346.741669	184.0
347.084778	152.0
347.233124	156.0
347.485352	176.0
348.502655	160.0
348.73233	164.0
349.110748	108.0
351.054413	112.0
351.127197	3700.0
351.989044	172.0
352.129272	1292.0
352.624115	168.0
352.715485	124.0
352.810181	124.0
352.89328	172.0
353.123383	812.0
353.208557	236.0
353.349548	208.0
354.128662	216.0
354.294678	132.0
354.555267	192.0
355.419067	192.0
355.71048	140.0
355.988312	152.0
356.762299	164.0
357.322662	160.0
357.356506	140.0
357.721558	172.0
358.011475	144.0
358.561493	168.0
358.610504	160.0
358.957336	140.0
359.225098	152.0
359.659027	152.0
359.927094	184.0
360.108337	156.0
360.229218	168.0
360.312317	156.0
360.618408	208.0
360.852783	160.0
361.624451	188.0
362.309845	172.0
362.446228	140.0
362.515961	108.0
362.980682	140.0
363.667358	180.0
364.096375	188.0
364.483826	164.0
365.09967	148.0
365.400146	148.0
365.836121	180.0
365.971039	200.0
366.163422	116.0
367.262939	160.0
367.579559	236.0
367.797119	184.0
368.156006	140.0
369.115143	140.0
369.608582	148.0
369.738678	144.0
370.561951	152.0
370.588776	152.0
371.327911	200.0
371.442963	108.0
371.838867	140.0
372.030792	144.0
372.160339	188.0
372.470612	188.0
372.791656	200.0
373.452545	168.0
375.844849	212.0
376.15744	236.0
377.043091	148.0
377.106476	172.0
377.335571	220.0
377.464996	128.0
377.613434	136.0
378.320007	140.0
378.477081	188.0
378.592102	136.0
378.721069	236.0
378.848663	140.0
378.949615	172.0
378.982666	128.0
379.138092	140.0
379.326813	120.0
379.370697	220.0
379.42691	232.0
379.498322	208.0
379.523468	340.0
379.56723	116.0
379.612	188.0
379.730835	112.0
379.7789	152.0
379.855408	112.0
379.887146	120.0
379.928528	136.0
380.039276	148.0
380.084595	188.0
380.151154	440.0
380.20694	112.0
380.265686	232.0
380.3396	224.0
380.376343	264.0
380.458496	132.0
380.525543	192.0
380.594849	232.0
380.746674	256.0
380.770935	308.0
380.836151	224.0
380.944336	208.0
381.00882	260.0
381.044098	432.0
381.073517	468.0
381.112671	116.0
381.150513	384.0
381.181366	408.0
381.215393	144.0
381.26712	392.0
381.306915	180.0
381.351257	200.0
381.408508	320.0
381.454529	104.0
381.492981	240.0
381.537689	272.0
381.616089	340.0
381.668365	428.0
381.694611	528.0
381.733398	280.0
381.793121	336.0
381.838348	188.0
381.902466	316.0
381.954071	356.0
382.030426	460.0
382.09436	1092.0
382.171387	237704.0
382.312317	300.0
382.398773	108.0
382.44455	304.0
382.53598	576.0
382.59375	740.0
382.638763	224.0
382.65036	276.0
382.727905	148.0
382.764679	584.0
382.813293	11120.0
382.859528	924.0
382.921967	180.0
382.979431	412.0
383.027802	116.0
383.073853	220.0
383.17334	149040.0
383.292023	248.0
383.332336	192.0
383.384674	136.0
383.436035	268.0
383.4617	236.0
383.511017	256.0
383.552643	216.0
383.703735	288.0
383.748474	416.0
383.815216	924.0
383.955872	156.0
384.027374	156.0
384.096039	476.0
384.167938	172884.0
384.307831	112.0
384.360687	312.0
384.430603	436.0
384.515198	256.0
384.562134	208.0
384.609253	160.0
384.738678	224.0
384.809082	956.0
384.863678	384.0
384.936005	312.0
384.976929	348.0
385.00592	312.0
385.022736	248.0
385.033752	244.0
385.052338	180.0
385.062866	268.0
385.104614	148.0
385.168976	34708.0
385.259521	304.0
385.288727	276.0
385.357056	272.0
385.407257	376.0
385.472076	252.0
385.57132	124.0
385.617767	172.0
385.647583	160.0
385.67923	344.0
385.729431	272.0
385.835846	204.0
385.877441	300.0
386.001678	176.0
386.047302	212.0
386.176483	848.0
386.302063	216.0
386.423035	104.0
386.477081	352.0
386.537903	104.0
386.628479	172.0
386.670563	164.0
386.683502	228.0
386.855774	124.0
386.931885	144.0
387.001099	104.0
387.068756	152.0
387.270538	160.0
387.330902	260.0
387.371735	108.0
387.523071	156.0
387.618622	164.0
387.685059	432.0
387.73233	124.0
387.788513	188.0
387.850342	200.0
388.190094	128.0
388.512543	184.0
388.561798	268.0
389.045715	108.0
389.300873	156.0
393.43811	96.0
394.408569	124.0
395.437683	100.0
395.98056	96.0
396.545532	104.0
397.188934	128.0
397.33844	148.0
397.625977	100.0
397.692719	168.0
398.358612	216.0
398.586639	128.0
400.103241	168.0
402.945374	108.0
403.301666	96.0
406.899261	96.0
408.32428	148.0
409.159271	104.0
415.039001	140.0
426.337219	124.0
449.877472	168.0
521.231995	192.0
522.327637	144.0
526.781189	152.0
529.287415	148.0
536.083923	96.0
555.312317	132.0
559.765259	152.0
575.450623	148.0
599.536133	140.0
633.277649	152.0
653.734924	144.0
660.390442	100.0
745.435974	148.0
927.663757	168.0
930.922424	184.0
1210.560547	156.0
1215.710205	136.0
1216.377441	168.0
1250.213135	176.0
1276.74231	192.0
1294.969971	172.0
1300.397339	220.0
1356.226807	152.0
1366.095703	148.0
1383.778076	168.0
1384.985229	148.0
1392.483765	184.0
1392.647095	144.0
1403.713501	192.0
1412.331909	160.0
1415.302979	156.0
1476.594238	148.0
1477.695801	176.0
1482.565674	148.0
1484.014404	172.0
1484.367188	156.0
1484.949951	172.0
1486.154419	160.0
1488.579956	176.0
1518.399292	144.0
1519.151611	144.0
1521.425415	188.0
1525.115112	176.0
1534.316162	188.0
1539.044189	212.0
1547.637207	152.0
1552.919067	164.0
1556.953003	172.0
1557.919067	148.0
1561.267456	196.0
1573.093994	188.0
1579.795166	140.0
1582.351318	184.0
1583.380737	188.0
1588.842041	180.0
1590.087891	156.0
1596.530884	164.0
1611.7323	180.0
1612.683228	180.0
1613.138916	156.0
1618.947632	140.0
1621.326904	224.0
1621.920654	216.0
1632.429199	140.0
1635.124268	184.0
1638.771973	160.0
1640.061401	204.0
1641.109375	164.0
1647.929565	172.0
1654.595459	184.0
1655.476318	144.0
1659.544067	196.0
1662.050293	168.0
1670.288086	252.0
1683.777222	192.0
1689.220825	176.0
1692.265259	148.0
1697.058228	152.0
1697.632202	172.0
1712.071045	144.0
1725.7771	188.0
1728.879028	168.0
1729.739746	144.0
1737.695435	156.0
1738.292847	164.0
1762.173218	164.0
1768.536987	160.0
1773.495483	216.0
1775.004517	140.0
1781.626587	260.0
1786.208008	196.0
1786.90625	196.0
1793.938354	144.0
1794.056396	164.0
1797.556519	144.0
1803.99231	204.0
1804.753174	140.0
1805.962524	160.0
1809.474243	228.0
1814.752686	176.0
1815.558228	256.0
1818.332397	268.0
1823.89563	140.0
1826.352905	144.0
1829.543945	256.0
1831.545044	236.0
1831.613159	200.0
1841.661011	148.0
1857.050171	152.0
1858.457031	160.0
1860.585571	156.0
1862.695312	192.0
1863.711792	160.0
1870.437012	172.0
1870.944824	228.0
1872.684204	156.0
1876.303345	180.0
1883.111694	140.0
1883.921753	216.0
1884.165527	176.0
1886.213623	180.0
1895.447998	224.0
1895.846558	192.0
1897.493408	160.0
1897.66687	164.0
1898.577271	148.0
1903.393433	152.0
1906.685791	168.0
1909.815796	156.0
1912.661011	148.0
1919.142456	148.0
1921.061157	140.0
1925.442871	184.0
1925.888306	152.0
1930.231689	144.0
1932.287109	188.0
1932.724609	192.0
1933.77478	140.0
1944.098633	164.0
1944.748047	204.0
1952.49707	200.0
1953.25354	144.0
1957.847778	184.0
1962.147827	172.0
1967.175293	144.0
1970.576294	160.0
1973.6521	144.0
1975.5802	172.0
1979.031738	168.0
1979.403564	140.0
1983.567627	212.0
1987.522949	160.0
1993.534546	140.0
1995.490112	140.0
2001.121948	140.0
2002.626831	168.0
END IONS

BEGIN IONS
PEPMASS=558.132
CHARGE=1
MSLEVEL=2
SOURCE_INSTRUMENT=LC-ESI-qTof
FILENAME=NCP003352_G2_H11_BC7_01_15721.mzXML
SEQ=*..*
IONMODE=Positive
ORGANISM=GNPS-NIH-CLINICALCOLLECTION1
NAME=CEFPODOXIME PROXETIL [M+H]
PI=Dorrestein
DATACOLLECTOR=Garg_Neha
SMILES=COCC1=C(N2[C@H](SC1)[C@H](NC(=O)C(=NOC)c3csc(N)n3)C2=O)C(=O)OC(C)OC(=O)OC(C)C
INCHI=N/A
INCHIAUX=N/A
PUBMED=N/A
SUBMITUSER=negarg
LIBRARYQUALITY=1
SPECTRUMID=CCMSLIB00000079026
USI=mzspec:GNPS:GNPS-NIH-CLINICALCOLLECTION1:accession:CCMSLIB00000079026
SCANS=1319
45.256207	164.0
45.504646	340.0
45.85265	184.0
46.476498	108.0
46.508629	152.0
47.263634	168.0
47.288616	156.0
47.412899	164.0
47.447166	152.0
47.721756	144.0
48.09219	204.0
48.554436	200.0
48.814129	196.0
49.071724	156.0
49.295055	224.0
49.394321	164.0
49.901989	160.0
50.512634	140.0
51.045864	128.0
51.248032	232.0
51.550541	164.0
52.222927	200.0
52.235424	128.0
52.529736	196.0
52.575905	164.0
52.854805	172.0
52.875065	184.0
54.326359	152.0
54.783546	144.0
54.910309	160.0
55.208282	180.0
55.35973	156.0
55.418831	168.0
55.642403	200.0
55.659119	156.0
55.972866	180.0
56.147221	140.0
56.577557	176.0
56.758846	208.0
56.898384	204.0
56.956947	184.0
57.19001	152.0
57.227646	156.0
57.414497	172.0
58.092113	164.0
58.497852	180.0
58.535915	160.0
58.58313	156.0
58.686764	144.0
58.865082	144.0
59.149666	144.0
59.745075	160.0
59.988392	148.0
60.050068	192.0
60.510559	144.0
60.552368	156.0
60.736813	240.0
61.227955	176.0
61.610107	168.0
62.085941	140.0
62.31818	160.0
62.790504	140.0
62.894638	152.0
63.058903	184.0
63.361324	136.0
63.580696	156.0
63.660137	168.0
63.740345	248.0
63.81982	176.0
63.885029	152.0
64.213158	180.0
64.641296	164.0
64.710129	216.0
65.25209	100.0
65.546959	176.0
65.735626	148.0
65.861557	208.0
66.129959	160.0
66.155853	296.0
66.398903	180.0
66.439453	168.0
66.661896	148.0
67.56192	176.0
67.794426	220.0
67.910828	168.0
68.73999	200.0
69.738632	156.0
69.758575	160.0
69.818436	140.0
70.079773	144.0
70.386681	156.0
70.702629	172.0
70.781311	160.0
70.79303	152.0
70.855003	160.0
71.297981	152.0
72.135674	152.0
72.167793	204.0
72.743813	148.0
72.811111	176.0
73.046288	180.0
73.259071	148.0
73.272697	144.0
73.995132	160.0
74.236725	148.0
74.762398	320.0
75.043175	192.0
75.293381	144.0
75.499039	160.0
75.661133	176.0
75.754311	148.0
76.291428	140.0
76.895859	232.0
77.841209	180.0
78.043274	196.0
78.081963	172.0
78.152328	212.0
78.252647	176.0
78.889526	144.0
78.949646	176.0
79.027473	164.0
79.115967	180.0
79.271828	152.0
79.720299	100.0
80.370743	172.0
80.554634	176.0
80.790596	172.0
80.840698	168.0
81.997246	184.0
82.256973	164.0
82.331001	196.0
82.468307	168.0
82.960663	140.0
83.016869	200.0
83.461754	184.0
84.070168	208.0
84.117622	188.0
84.311226	248.0
84.508713	220.0
84.523354	152.0
85.146629	148.0
85.176018	184.0
85.323029	228.0
85.564041	144.0
85.685593	144.0
85.722443	160.0
85.857887	228.0
85.903122	156.0
85.952934	200.0
85.978775	140.0
86.100616	176.0
86.455566	148.0
86.603683	212.0
86.6185	172.0
87.100784	140.0
87.139793	164.0
87.162086	176.0
87.385208	164.0
87.420563	148.0
87.457787	200.0
88.323563	168.0
88.642151	116.0
88.784302	180.0
89.054558	140.0
89.585007	148.0
89.822517	156.0
90.63546	152.0
90.682838	164.0
90.807968	180.0
91.062294	216.0
91.202896	140.0
91.280838	168.0
91.440643	160.0
91.723816	132.0
92.526772	188.0
93.223679	180.0
93.440598	160.0
94.051186	208.0
94.073685	128.0
94.119186	160.0
94.279083	188.0
94.467995	176.0
94.727966	140.0
95.006126	220.0
95.060791	184.0
95.156548	160.0
95.352745	144.0
95.459663	204.0
95.774948	144.0
95.991272	152.0
96.040031	168.0
96.053688	172.0
97.010475	556.0
97.123642	148.0
97.357193	212.0
98.004364	160.0
98.064667	140.0
99.001556	132.0
99.100945	200.0
99.985535	272.0
100.012077	124.0
100.714317	188.0
100.824203	188.0
100.945702	144.0
100.995811	168.0
101.028152	148.0
101.478767	160.0
101.605118	148.0
101.789772	144.0
101.966553	252.0
102.002907	156.0
102.127396	160.0
102.567856	144.0
102.618759	172.0
102.721611	212.0
102.992088	160.0
103.008247	184.0
103.463257	252.0
103.984192	140.0
104.136467	164.0
104.701859	220.0
104.75074	140.0
104.999405	156.0
105.046753	1404.0
105.215698	144.0
105.466957	168.0
106.028572	320.0
107.042572	204.0
107.058479	408.0
107.514641	224.0
107.539406	152.0
107.750038	140.0
108.066078	452.0
108.184326	224.0
108.814362	208.0
109.078712	272.0
109.544518	208.0
109.634109	156.0
109.690384	148.0
109.811317	172.0
110.006439	1360.0
110.064911	272.0
110.389801	292.0
110.496475	144.0
110.609245	216.0
110.645065	168.0
110.682755	200.0
110.917389	160.0
111.012558	112.0
111.481964	144.0
111.624908	144.0
111.669075	156.0
111.698013	116.0
112.021942	2624.0
112.040413	1404.0
112.195435	132.0
112.300926	144.0
112.353661	164.0
112.537277	196.0
112.833061	288.0
112.885925	148.0
113.017998	140.0
113.042297	156.0
113.20546	152.0
113.531807	236.0
113.728386	228.0
113.746101	184.0
113.816162	152.0
114.000526	1060.0
114.113617	172.0
114.256111	164.0
114.271004	180.0
114.55719	144.0
114.775795	144.0
114.869637	140.0
115.01667	340.0
115.192291	132.0
115.219734	176.0
115.519028	172.0
115.604607	168.0
116.140213	148.0
116.296844	196.0
116.34407	148.0
116.429955	172.0
116.490097	176.0
116.898598	140.0
116.96962	160.0
116.995453	168.0
117.657295	148.0
117.709114	192.0
117.985672	160.0
118.031509	160.0
118.052696	164.0
118.431435	172.0
118.513756	164.0
119.064018	168.0
119.205948	176.0
119.50515	152.0
119.619179	196.0
119.955803	248.0
120.065666	320.0
120.107277	176.0
121.040756	600.0
121.071602	184.0
121.214752	160.0
121.237617	152.0
121.345024	152.0
121.371338	156.0
121.724617	168.0
121.843216	196.0
121.931114	204.0
122.004181	576.0
122.060715	176.0
122.084999	160.0
122.139984	148.0
122.612617	272.0
123.011765	400.0
123.058121	360.0
123.607101	200.0
123.866455	112.0
124.021667	900.0
124.746918	152.0
124.782661	220.0
124.836021	148.0
124.8983	148.0
125.004959	18940.0
125.073448	156.0
125.17218	124.0
125.224159	148.0
125.303452	284.0
125.45945	172.0
125.486206	168.0
125.541206	104.0
125.570938	156.0
125.736038	232.0
125.780678	180.0
125.941444	160.0
125.970482	232.0
126.012672	19244.0
126.034058	396.0
126.217537	96.0
126.237526	116.0
126.310249	160.0
126.464638	156.0
126.658524	156.0
126.817223	124.0
127.018761	2024.0
127.05397	152.0
127.980629	252.0
128.008865	888.0
128.245773	152.0
129.007446	148.0
129.03157	176.0
129.228088	172.0
129.393311	148.0
129.785278	160.0
130.00531	168.0
130.046951	216.0
130.889572	152.0
130.97496	292.0
131.021271	160.0
131.975677	172.0
132.019135	176.0
132.206711	192.0
132.453979	144.0
133.041153	580.0
133.080063	168.0
133.703003	168.0
133.730621	156.0
134.048355	568.0
134.546631	156.0
135.00412	268.0
135.054123	340.0
135.112839	148.0
135.332703	180.0
135.460083	148.0
135.625351	160.0
135.905197	200.0
135.998428	444.0
136.05838	144.0
136.160553	228.0
136.585892	156.0
136.890762	208.0
137.018265	2984.0
137.08226	176.0
137.123734	176.0
137.47821	200.0
137.752838	116.0
137.83316	152.0
137.942993	208.0
137.971054	168.0
138.016754	2196.0
138.057892	256.0
138.661575	144.0
139.01326	676.0
139.032074	3128.0
139.120056	120.0
139.530075	148.0
139.74646	172.0
139.786453	240.0
139.968781	132.0
140.016876	5216.0
140.06897	152.0
140.519974	168.0
140.970444	216.0
140.999939	6840.0
141.047546	648.0
141.071594	176.0
141.106552	136.0
141.178253	152.0
141.931274	156.0
142.005447	580.0
142.032639	1176.0
142.090485	188.0
142.391647	172.0
142.800003	156.0
142.971512	392.0
142.99765	836.0
143.020935	172.0
143.185989	156.0
143.328918	196.0
143.57576	116.0
143.977768	144.0
144.019089	324.0
144.046326	156.0
144.067062	568.0
144.137726	108.0
144.525177	228.0
144.77652	184.0
145.003021	140.0
145.068283	156.0
145.282257	192.0
145.483841	144.0
145.627914	140.0
145.880219	160.0
146.070114	288.0
146.632507	116.0
146.681808	204.0
146.74086	128.0
146.937424	140.0
147.00499	140.0
147.058075	188.0
147.195679	140.0
147.289871	140.0
147.42276	184.0
147.54361	148.0
147.819336	216.0
148.005722	188.0
148.310974	144.0
148.628662	160.0
148.993088	276.0
149.017975	416.0
149.171509	116.0
149.617859	148.0
149.647064	172.0
149.705505	244.0
150.000122	2300.0
150.054993	144.0
150.454056	144.0
151.007278	572.0
151.045059	332.0
151.128601	208.0
151.377991	172.0
151.874481	212.0
151.992584	536.0
152.016617	4364.0
152.13028	144.0
152.531372	168.0
152.619888	160.0
152.858475	168.0
153.020966	1092.0
153.049576	456.0
153.18988	112.0
153.918411	164.0
154.010559	576.0
154.031311	1248.0
154.751663	148.0
154.776428	156.0
154.820999	156.0
154.975677	144.0
155.017654	516.0
155.078659	140.0
155.110886	152.0
155.148071	164.0
155.262131	140.0
155.403519	144.0
155.942383	164.0
155.960754	176.0
156.020798	26216.0
156.0755	144.0
156.445663	144.0
156.561859	184.0
156.981705	344.0
157.021057	1696.0
157.056839	148.0
157.272415	160.0
157.319839	152.0
157.657394	112.0
157.982742	232.0
158.02182	944.0
158.073181	176.0
158.113159	124.0
158.14389	104.0
158.227325	140.0
158.372559	144.0
158.485291	196.0
158.931534	152.0
159.014359	152.0
159.328293	140.0
159.78334	168.0
159.819244	192.0
160.079987	116.0
160.433075	168.0
160.558273	160.0
160.735733	160.0
161.018692	140.0
161.037338	304.0
161.07933	168.0
161.341095	200.0
161.504807	104.0
161.736526	264.0
161.962524	204.0
162.01506	280.0
162.03508	120.0
162.255829	216.0
162.737869	148.0
163.024734	184.0
163.052322	132.0
163.396133	156.0
163.584457	164.0
164.004745	140.0
164.02742	192.0
164.054779	296.0
164.887924	116.0
164.968689	208.0
165.013412	12304.0
165.066879	1040.0
165.126984	96.0
165.226242	128.0
165.886063	164.0
166.030563	10092.0
166.073242	168.0
166.217926	140.0
166.482697	132.0
167.028061	11260.0
167.147095	148.0
167.966431	144.0
168.019745	1040.0
168.318054	236.0
168.834167	148.0
169.024292	816.0
169.665329	144.0
169.70372	152.0
169.97496	176.0
170.027054	8684.0
170.120865	144.0
170.262115	156.0
170.492905	172.0
170.581696	180.0
170.865158	152.0
170.896378	160.0
171.030579	1096.0
171.065002	432.0
171.176483	156.0
171.581345	148.0
172.002075	100.0
172.042664	6248.0
172.073715	184.0
172.110443	168.0
172.134491	184.0
172.171051	176.0
172.337128	104.0
172.458435	148.0
172.498123	108.0
172.748672	140.0
172.942307	160.0
173.046448	392.0
173.096771	220.0
173.862228	148.0
173.998718	148.0
174.035217	464.0
174.073013	192.0
174.436783	128.0
174.468979	140.0
174.663574	148.0
175.024704	196.0
175.606506	160.0
176.025192	296.0
176.075821	176.0
176.700119	152.0
177.011307	280.0
177.068054	160.0
177.464264	108.0
177.921875	176.0
177.995636	484.0
178.039963	396.0
178.330948	212.0
178.442596	144.0
178.969391	200.0
179.003082	3020.0
179.366348	140.0
179.62233	148.0
179.641006	196.0
179.686356	144.0
179.971939	192.0
180.010117	1328.0
180.053345	156.0
180.106415	156.0
180.48494	184.0
180.856796	184.0
180.981796	152.0
181.01889	4272.0
181.081818	172.0
181.505112	216.0
181.577515	148.0
181.993118	312.0
182.026825	5960.0
182.07515	132.0
182.829453	140.0
182.967422	172.0
182.991684	244.0
183.032516	4656.0
183.069626	164.0
183.11322	128.0
183.626892	184.0
183.651169	140.0
184.020035	1572.0
184.085449	180.0
184.829025	184.0
184.880447	140.0
184.982025	168.0
185.017563	584.0
185.036804	176.0
185.320679	104.0
185.981277	156.0
186.018875	180.0
186.059433	120.0
186.112564	272.0
187.373093	156.0
187.997498	144.0
188.039413	3864.0
188.407791	192.0
188.778778	140.0
188.852615	180.0
189.040726	656.0
189.473999	184.0
189.594559	176.0
190.042068	484.0
190.846283	164.0
191.014862	176.0
191.038513	600.0
192.005386	108.0
192.031677	120.0
192.485764	140.0
192.665283	200.0
192.723297	176.0
192.777466	160.0
193.009644	9408.0
193.106613	200.0
193.415344	176.0
193.488312	96.0
193.848816	172.0
194.014023	1232.0
194.064362	144.0
194.442261	160.0
194.476257	204.0
194.701141	176.0
194.762238	200.0
195.019821	752.0
195.07106	136.0
195.303177	148.0
195.496216	168.0
195.704056	240.0
195.948914	124.0
196.009613	1376.0
196.039017	992.0
196.069565	172.0
197.000565	372.0
197.008362	284.0
197.049057	11320.0
197.144318	184.0
197.407089	148.0
197.981812	328.0
198.004608	548.0
198.04924	1204.0
198.985321	116.0
199.01236	320.0
199.046326	644.0
199.161514	244.0
199.218643	116.0
199.28212	104.0
199.367813	224.0
199.995026	1728.0
200.034149	220.0
200.074844	656.0
200.695236	148.0
200.80098	208.0
200.822144	228.0
200.993454	124.0
201.043411	2924.0
201.821823	160.0
202.001236	136.0
202.029739	604.0
202.464172	148.0
203.013123	180.0
203.04097	388.0
204.024826	512.0
204.074326	184.0
204.169769	164.0
204.977386	164.0
205.020691	164.0
205.041107	168.0
205.374496	216.0
205.417282	156.0
205.465775	148.0
205.771149	140.0
205.992172	272.0
206.047501	296.0
206.202484	216.0
206.944382	148.0
206.980698	112.0
207.016953	180.0
207.04361	508.0
207.072235	148.0
207.969635	216.0
207.997559	364.0
208.039429	180.0
208.066544	180.0
208.578568	220.0
208.710815	204.0
209.013672	9376.0
209.06076	336.0
209.103485	176.0
209.210358	152.0
209.300674	188.0
209.716721	144.0
209.767395	180.0
210.02095	13892.0
210.102722	228.0
210.224533	192.0
210.898895	140.0
210.976746	272.0
211.02594	13864.0
211.205383	188.0
211.28096	192.0
211.71019	124.0
211.744934	192.0
211.934494	136.0
211.995499	1012.0
212.029129	1920.0
212.077271	264.0
212.457932	100.0
212.611862	108.0
213.043228	1676.0
213.07428	200.0
213.647858	172.0
213.911987	136.0
214.025192	328.0
214.05304	1820.0
215.042282	1120.0
215.557602	140.0
215.890839	180.0
215.990555	428.0
216.044022	448.0
216.60791	212.0
217.02951	472.0
217.050598	596.0
217.464081	188.0
217.988815	192.0
218.044586	416.0
218.548447	208.0
219.00795	240.0
219.061356	468.0
219.467422	164.0
219.572784	192.0
219.977798	148.0
220.002609	432.0
220.05368	112.0
220.944138	180.0
221.002518	888.0
221.174957	148.0
221.518448	184.0
222.01387	620.0
222.06221	376.0
222.123154	156.0
223.018631	640.0
223.939621	96.0
223.988937	328.0
224.037216	876.0
224.201172	144.0
224.678497	156.0
224.834503	140.0
224.905273	308.0
224.927734	100.0
224.991104	1172.0
225.0354	7876.0
225.182953	164.0
225.221527	140.0
225.544479	152.0
225.997894	2404.0
226.036224	1056.0
226.131439	116.0
226.172623	140.0
226.540924	160.0
226.951523	172.0
227.005737	5312.0
227.043762	648.0
227.089462	144.0
227.480499	148.0
227.512558	168.0
228.003448	1192.0
228.03595	452.0
228.114182	180.0
229.00412	316.0
229.035522	436.0
229.069046	264.0
229.281189	152.0
230.053375	736.0
230.084915	2756.0
230.261673	148.0
230.301743	136.0
230.523499	156.0
230.621216	184.0
231.055527	608.0
231.09021	488.0
231.986374	468.0
232.068985	824.0
232.371521	140.0
232.99675	428.0
233.049393	344.0
233.553223	144.0
233.990402	216.0
234.020294	116.0
234.050354	112.0
235.012436	400.0
235.533325	228.0
235.982101	120.0
236.01622	480.0
236.387451	204.0
236.458893	140.0
236.488449	204.0
236.621582	148.0
236.650696	140.0
236.678253	148.0
236.879745	96.0
236.990204	212.0
237.019409	304.0
237.046082	164.0
237.376999	184.0
237.524094	140.0
237.971573	356.0
237.994934	156.0
238.086609	144.0
238.13797	172.0
238.257767	144.0
238.307785	156.0
238.746475	144.0
239.015213	672.0
239.46698	108.0
239.516052	184.0
239.706924	140.0
240.034622	416.0
240.545822	160.0
240.657959	136.0
240.838257	164.0
240.884659	104.0
240.948502	212.0
240.98941	144.0
241.039658	62744.0
241.121735	132.0
241.342041	132.0
241.483032	152.0
241.518799	104.0
241.78833	148.0
241.991974	132.0
242.042633	6504.0
242.302933	144.0
242.715729	96.0
242.96579	216.0
243.036423	2388.0
243.317673	172.0
243.519989	104.0
243.603149	112.0
244.038834	292.0
244.066727	1376.0
244.692993	168.0
244.810501	104.0
244.997482	272.0
245.049347	752.0
245.282516	224.0
245.441513	164.0
245.697266	140.0
246.002792	168.0
246.048843	720.0
246.095154	164.0
246.295334	108.0
246.430939	216.0
247.012405	3212.0
247.057236	408.0
247.929779	156.0
248.018295	5848.0
248.415771	168.0
248.639679	100.0
249.025116	2352.0
249.079269	108.0
249.282318	180.0
249.591522	152.0
250.013123	988.0
250.878052	176.0
251.013885	292.0
251.042648	308.0
251.303818	140.0
252.025345	308.0
252.066833	228.0
252.792068	144.0
252.874359	140.0
252.986465	1116.0
253.028595	476.0
253.065399	456.0
253.308136	140.0
253.912918	148.0
253.988586	320.0
254.040726	152.0
254.239685	168.0
254.364731	212.0
254.993866	392.0
255.078781	140.0
255.508087	156.0
255.734421	96.0
256.000275	164.0
256.737579	156.0
257.017639	2680.0
257.206573	152.0
257.867737	148.0
257.966156	136.0
258.024109	824.0
258.561737	140.0
259.049408	1644.0
259.527069	208.0
260.000671	288.0
260.05658	660.0
260.213806	112.0
260.407104	124.0
260.96759	156.0
261.014862	668.0
261.048798	204.0
261.814636	128.0
261.920135	144.0
262.019989	976.0
262.07373	208.0
263.008545	960.0
263.060791	340.0
263.271515	212.0
263.982452	288.0
264.033905	596.0
264.286499	280.0
264.346039	140.0
264.623108	196.0
265.02475	580.0
265.235382	192.0
265.505951	104.0
265.627747	224.0
266.028107	140.0
266.085876	136.0
266.376312	160.0
266.4133	144.0
266.637512	168.0
266.920319	168.0
267.004883	268.0
267.064545	164.0
267.707825	140.0
268.027039	180.0
268.120453	132.0
268.568207	140.0
268.663513	112.0
268.893433	144.0
268.998932	152.0
269.049713	360.0
270.016632	168.0
270.078552	108.0
270.525513	224.0
270.7547	156.0
270.908661	140.0
271.033783	128.0
271.066772	168.0
271.426483	164.0
272.026825	520.0
272.181183	152.0
272.276428	140.0
273.003876	168.0
273.04361	248.0
273.091492	208.0
273.680542	160.0
274.020477	1456.0
274.074036	608.0
274.132507	336.0
274.70929	376.0
275.02887	2048.0
275.434814	136.0
275.69931	148.0
275.906311	172.0
276.014709	1016.0
276.036896	1888.0
276.53772	164.0
277.022858	3108.0
277.042084	3752.0
277.312073	132.0
278.028442	712.0
278.947449	184.0
279.03714	2616.0
279.871216	128.0
280.03891	624.0
280.993896	252.0
281.036743	340.0
282.026245	120.0
282.054901	152.0
283.020416	148.0
283.044556	160.0
283.092926	504.0
283.124756	152.0
283.148193	164.0
283.191742	164.0
283.831818	156.0
284.018494	192.0
284.030609	128.0
284.101501	184.0
285.011993	8432.0
285.315826	156.0
286.014343	804.0
286.037201	1660.0
286.079468	216.0
286.76825	172.0
287.007812	732.0
287.261475	152.0
287.433258	144.0
288.021576	216.0
288.055969	540.0
288.17041	180.0
288.981537	180.0
289.006836	332.0
289.054688	192.0
289.239044	144.0
289.283051	152.0
290.015381	1480.0
290.068634	620.0
290.109619	220.0
290.197754	156.0
290.764252	144.0
291.023773	1404.0
291.08429	212.0
291.460388	156.0
292.030243	776.0
292.082703	220.0
292.697113	108.0
292.909668	144.0
293.0401	2116.0
293.093628	192.0
293.582031	148.0
294.044464	568.0
294.081421	128.0
294.253296	156.0
294.613098	180.0
294.700684	168.0
294.986206	176.0
295.029999	508.0
295.343384	152.0
295.753967	188.0
296.06424	1200.0
296.10321	148.0
296.663269	176.0
297.049377	160.0
297.408386	204.0
298.940765	116.0
299.048981	156.0
299.086853	164.0
300.009521	200.0
300.075378	288.0
300.668823	164.0
300.737854	176.0
301.007263	192.0
301.038208	248.0
301.078949	160.0
301.235077	156.0
301.995575	1060.0
302.069366	332.0
302.196136	156.0
302.549164	140.0
303.003326	1104.0
303.026337	564.0
303.842773	160.0
303.873047	144.0
304.010345	1372.0
304.369385	152.0
305.013977	304.0
305.203278	152.0
305.345856	180.0
305.64502	152.0
305.996094	420.0
306.048737	6420.0
306.113464	264.0
307.048737	1160.0
307.603668	140.0
307.721832	128.0
308.061432	1272.0
308.930206	164.0
309.050568	488.0
309.242981	204.0
310.054169	264.0
311.025818	196.0
311.05423	192.0
311.868927	168.0
312.893677	144.0
313.312744	156.0
314.907135	200.0
315.027222	148.0
315.677551	152.0
315.865021	196.0
317.050903	136.0
317.100708	252.0
317.15741	180.0
317.474518	132.0
318.014801	580.0
318.063049	956.0
318.100464	3376.0
318.222992	180.0
319.018799	3184.0
319.067993	312.0
319.103851	556.0
319.497284	116.0
319.632721	212.0
320.024963	1072.0
320.101807	272.0
320.177612	124.0
321.020294	992.0
321.318024	180.0
322.043762	1916.0
322.098907	380.0
322.616516	168.0
323.042633	300.0
323.10199	248.0
323.277954	160.0
323.415649	168.0
323.4646	188.0
323.736176	232.0
323.878113	196.0
324.059357	17092.0
324.285126	100.0
324.384064	112.0
324.644501	172.0
324.876556	184.0
325.061798	2952.0
326.053223	1624.0
326.444794	96.0
326.597473	204.0
326.645721	288.0
327.059662	260.0
328.825775	108.0
328.85553	172.0
329.002869	388.0
330.165222	236.0
330.483551	140.0
330.669006	176.0
331.028229	132.0
331.841736	172.0
331.867126	172.0
331.97287	296.0
332.026642	220.0
332.360504	140.0
332.919434	172.0
333.010834	420.0
333.038666	148.0
333.110474	140.0
333.922485	140.0
334.042511	2220.0
334.182007	160.0
334.63205	152.0
334.876038	200.0
335.049591	708.0
335.188263	164.0
335.725189	148.0
336.039642	644.0
336.34967	172.0
336.820099	152.0
336.893158	140.0
337.031494	124.0
337.254913	240.0
338.033508	196.0
338.071411	144.0
338.107086	144.0
338.780792	140.0
339.028839	112.0
339.071442	320.0
339.111694	180.0
339.561523	140.0
340.94928	168.0
340.975006	176.0
341.581665	140.0
342.085815	240.0
342.700836	312.0
344.420624	148.0
344.940948	140.0
345.008698	144.0
345.728729	272.0
345.902679	204.0
346.002655	176.0
346.05661	300.0
347.013184	448.0
347.054901	256.0
347.620514	104.0
347.748566	148.0
348.021301	280.0
348.08786	216.0
348.736511	212.0
348.927185	108.0
349.009949	496.0
349.085297	180.0
349.130585	148.0
349.554688	232.0
349.597626	148.0
349.959259	144.0
350.038452	8788.0
350.332825	140.0
350.860107	172.0
350.9664	152.0
351.044189	2316.0
351.221802	116.0
351.522186	188.0
351.629303	152.0
352.052551	3964.0
352.222534	156.0
353.051971	724.0
354.067413	992.0
354.251495	140.0
354.566223	164.0
355.046936	160.0
355.405518	148.0
356.085571	504.0
357.083069	292.0
358.120422	172.0
358.346436	172.0
359.165924	108.0
359.266327	188.0
359.304047	156.0
360.591675	140.0
361.046021	180.0
362.075623	136.0
362.245148	332.0
362.813599	200.0
363.014038	120.0
363.053772	448.0
363.124512	196.0
363.170044	168.0
363.340851	124.0
363.705017	156.0
363.777161	184.0
364.058563	344.0
364.160645	244.0
364.692566	164.0
364.78067	112.0
364.871246	228.0
365.026093	1304.0
365.064148	268.0
366.067383	4276.0
366.500214	148.0
366.648804	192.0
367.021088	264.0
367.072418	948.0
367.274078	192.0
367.590729	148.0
368.048187	7160.0
368.819977	148.0
368.949799	232.0
369.052795	1404.0
369.272461	112.0
370.045624	1036.0
370.523346	176.0
370.565491	156.0
371.042877	136.0
371.393524	144.0
371.723877	148.0
371.771484	124.0
372.161041	148.0
373.229187	172.0
374.110229	144.0
374.167999	200.0
374.568481	136.0
375.042419	164.0
375.146484	196.0
375.510986	168.0
376.022064	140.0
376.068268	116.0
376.524231	276.0
377.416626	168.0
378.033661	5844.0
378.068481	1804.0
378.203857	96.0
379.038605	992.0
379.133911	164.0
380.036041	652.0
380.082031	408.0
380.228943	180.0
380.415253	192.0
380.681671	96.0
380.822968	164.0
380.857941	148.0
380.954498	112.0
381.033539	192.0
381.091309	316.0
381.647583	160.0
381.845154	172.0
382.06546	59968.0
382.327087	112.0
382.43576	120.0
382.520294	116.0
382.58194	112.0
382.653229	168.0
382.877594	100.0
382.958618	224.0
383.067139	10312.0
383.138062	252.0
383.231628	184.0
383.266724	108.0
384.062164	3612.0
384.115479	364.0
384.266022	132.0
384.467041	204.0
384.873016	160.0
384.927673	168.0
385.021393	128.0
385.065552	1304.0
385.126862	164.0
385.569122	100.0
385.629211	108.0
385.99881	136.0
386.064087	128.0
386.217377	152.0
386.894318	144.0
388.395142	148.0
390.50827	184.0
390.726593	104.0
390.82785	156.0
391.0466	124.0
391.303162	176.0
391.425201	192.0
391.626068	228.0
392.051208	204.0
392.371674	256.0
392.410248	180.0
392.463104	208.0
392.784882	156.0
393.033417	192.0
393.068176	104.0
393.099243	112.0
393.317566	192.0
393.566284	148.0
393.631958	152.0
393.712402	180.0
393.937531	148.0
394.10083	2436.0
394.451233	152.0
394.646088	164.0
395.100525	808.0
396.043579	12804.0
396.44278	124.0
396.645721	104.0
396.84436	100.0
396.964844	224.0
397.047394	3568.0
397.345398	144.0
397.576202	172.0
397.746857	152.0
398.040131	2276.0
398.199493	148.0
398.395538	124.0
398.561005	160.0
398.859039	168.0
399.050018	596.0
399.319122	112.0
399.484131	124.0
399.791199	128.0
400.075226	948.0
401.074066	364.0
401.696533	164.0
402.492371	140.0
403.835144	164.0
404.046021	144.0
404.163177	152.0
404.835663	160.0
404.903046	108.0
405.0271	140.0
405.806702	164.0
406.184387	116.0
406.378876	184.0
406.625	96.0
407.079498	116.0
407.298798	120.0
407.777863	104.0
407.888702	104.0
407.972198	164.0
408.060059	184.0
408.123413	116.0
408.17218	184.0
408.266449	96.0
408.398163	108.0
408.519165	256.0
408.548431	144.0
408.626953	96.0
408.71936	196.0
408.748566	156.0
408.779755	108.0
408.902679	100.0
408.961792	292.0
409.024414	196.0
409.112793	108.0
409.149353	264.0
409.214233	356.0
409.266693	192.0
409.3591	176.0
409.38855	192.0
409.435303	100.0
409.447205	196.0
409.464691	204.0
409.55722	108.0
409.600677	148.0
409.655884	124.0
409.688293	260.0
409.727905	212.0
409.790131	164.0
409.83139	324.0
409.877472	256.0
409.922485	276.0
410.061981	190484.0
410.210144	312.0
410.252167	252.0
410.307831	212.0
410.323914	172.0
410.370514	208.0
410.412659	132.0
410.451233	392.0
410.503632	136.0
410.559509	248.0
410.602509	140.0
410.724762	2952.0
410.804504	360.0
410.851868	212.0
410.893372	152.0
411.063354	60484.0
411.19928	232.0
411.244354	232.0
411.391327	164.0
411.441467	120.0
411.5383	108.0
411.595001	128.0
411.72403	308.0
411.793701	124.0
411.855072	116.0
411.966125	116.0
411.998993	516.0
412.057373	31976.0
412.201355	100.0
412.247833	128.0
412.342529	152.0
412.757812	172.0
412.912506	124.0
412.958649	200.0
413.057953	3672.0
413.237	172.0
413.315125	168.0
413.375885	140.0
413.452606	232.0
413.490723	304.0
413.569153	128.0
413.612946	432.0
413.676636	328.0
413.704132	300.0
413.749603	244.0
413.805511	140.0
413.919891	148.0
414.058228	352.0
414.177277	116.0
414.231415	132.0
414.316498	188.0
414.44632	96.0
414.545532	212.0
414.645752	180.0
414.84259	120.0
415.00827	112.0
415.163177	124.0
415.256317	176.0
415.359344	108.0
415.711151	184.0
416.117737	100.0
416.893738	156.0
417.950989	260.0
419.252014	104.0
419.335571	156.0
420.775482	188.0
421.055725	152.0
422.06012	3732.0
422.114014	100.0
422.85611	156.0
423.063812	912.0
423.271851	108.0
424.052429	228.0
424.110718	256.0
424.243561	116.0
424.557281	124.0
425.054108	136.0
425.10849	184.0
425.536987	236.0
426.091248	336.0
426.298615	120.0
426.436584	148.0
426.716125	256.0
426.900085	140.0
427.095642	112.0
427.125732	164.0
427.246643	96.0
427.293976	208.0
427.342712	324.0
427.42453	272.0
427.565643	160.0
427.68396	160.0
427.88678	248.0
427.931702	224.0
427.993286	304.0
428.07132	93076.0
428.213531	192.0
428.275208	104.0
428.388184	156.0
428.506866	128.0
428.596222	164.0
428.635254	144.0
428.668427	164.0
428.749878	256.0
428.825928	248.0
428.865021	172.0
429.072601	22556.0
429.18335	116.0
429.441132	156.0
429.572296	132.0
429.74704	144.0
429.806458	168.0
429.974854	164.0
430.068146	8812.0
430.192474	120.0
430.288696	112.0
430.516693	112.0
430.675629	152.0
431.06955	1392.0
431.259949	156.0
431.287079	176.0
431.381531	112.0
431.547913	252.0
431.62854	104.0
431.781006	192.0
431.848083	300.0
431.930115	104.0
432.062347	396.0
432.294586	100.0
432.632324	104.0
432.815155	120.0
433.235474	96.0
433.356934	240.0
435.875519	148.0
436.078278	176.0
437.984741	164.0
438.09079	5272.0
439.093536	1536.0
440.087738	1184.0
440.892761	140.0
441.030701	148.0
441.093384	200.0
442.122986	416.0
442.719849	140.0
443.115021	140.0
444.115509	320.0
445.118683	188.0
446.077454	200.0
451.060669	112.0
451.347412	140.0
452.110992	124.0
454.084564	2628.0
454.176361	212.0
455.090515	1168.0
456.085754	356.0
457.067535	132.0
457.099548	380.0
457.971985	148.0
458.598297	160.0
463.033112	148.0
465.786713	220.0
469.538574	108.0
470.117035	4020.0
470.199951	156.0
471.116608	2096.0
472.116638	376.0
473.108978	184.0
473.918488	108.0
476.185486	168.0
479.332825	172.0
481.575165	168.0
482.001526	128.0
482.113251	556.0
483.11554	204.0
484.615479	140.0
485.119476	200.0
485.680725	144.0
491.390747	184.0
493.245483	140.0
493.484222	164.0
494.504364	168.0
497.136444	128.0
498.109497	3764.0
499.110138	1284.0
499.190857	172.0
500.110687	592.0
501.111877	184.0
502.119232	188.0
505.856476	184.0
507.249603	144.0
510.72052	156.0
511.099762	252.0
512.129517	236.0
513.102661	152.0
514.105469	2140.0
515.108765	964.0
515.632507	104.0
516.105774	400.0
517.103455	176.0
518.845642	116.0
522.131653	144.0
522.23175	172.0
522.400635	116.0
523.393555	132.0
523.524231	160.0
525.978943	140.0
526.024048	128.0
526.107483	21308.0
526.377563	124.0
526.559998	216.0
526.834412	172.0
526.947632	176.0
526.995483	144.0
527.1073	5552.0
527.201904	120.0
527.368896	100.0
527.965759	120.0
528.107422	2736.0
528.184082	164.0
529.102722	584.0
529.154236	160.0
529.998718	100.0
530.130737	500.0
530.274048	124.0
531.142456	244.0
533.190857	180.0
537.224304	176.0
539.524109	228.0
544.537903	108.0
549.621216	160.0
551.184021	144.0
553.589172	124.0
553.94574	152.0
554.312012	116.0
554.65155	96.0
555.071045	164.0
555.127625	948.0
555.312988	128.0
555.381226	100.0
555.609924	144.0
555.66626	196.0
555.720459	108.0
556.033813	132.0
556.128113	204.0
556.305359	104.0
556.939819	100.0
557.012512	180.0
557.057312	128.0
557.137024	324.0
557.193848	244.0
557.241638	124.0
557.306641	136.0
557.482666	128.0
557.650818	152.0
557.719116	124.0
557.755981	208.0
557.808472	104.0
557.967834	276.0
558.033752	236.0
558.065369	192.0
558.134521	88492.0
558.336853	168.0
558.392029	140.0
558.470154	160.0
558.537964	136.0
558.625061	164.0
558.66803	184.0
558.765198	152.0
558.908325	180.0
558.986694	144.0
559.136414	25208.0
559.326233	220.0
559.399414	144.0
559.538269	136.0
559.614685	216.0
559.67688	128.0
559.77063	124.0
559.864685	140.0
560.130859	9752.0
560.679016	168.0
560.958496	124.0
561.131653	1976.0
561.289917	240.0
561.835205	144.0
561.937195	152.0
562.012207	164.0
562.053711	132.0
562.12738	472.0
562.190674	100.0
562.33197	244.0
562.485413	128.0
562.541504	232.0
563.138306	112.0
564.476624	100.0
581.118591	144.0
582.835876	148.0
594.813049	144.0
679.415649	144.0
700.435852	156.0
701.602295	104.0
712.988037	132.0
769.001282	180.0
887.806763	96.0
994.468872	140.0
997.854736	184.0
1012.506714	180.0
1014.914734	220.0
1040.660278	168.0
1042.728638	156.0
1045.759399	128.0
1069.909302	176.0
1159.668457	160.0
1190.14209	148.0
1193.763306	152.0
1200.187744	208.0
1252.507324	184.0
1252.915894	196.0
1260.599609	160.0
1283.042847	144.0
1290.060303	140.0
1348.482056	144.0
1366.536011	204.0
1369.075562	152.0
1373.35022	156.0
1398.393311	212.0
1405.786255	196.0
1409.400269	164.0
1411.213867	188.0
1413.909546	144.0
1414.201416	152.0
1429.428467	140.0
1493.335815	244.0
1495.559448	208.0
1499.618408	200.0
1510.14978	204.0
1536.077393	172.0
1592.889404	176.0
1597.72937	168.0
1615.272705	224.0
1619.53894	180.0
1620.17981	204.0
1624.572998	176.0
1627.478271	140.0
1632.074219	184.0
1636.193481	160.0
1637.264404	236.0
1647.112305	184.0
1652.350708	188.0
1654.811035	176.0
1657.378662	148.0
1662.284302	236.0
1666.360352	188.0
1675.806396	160.0
1678.055786	180.0
1680.559692	232.0
1681.571655	140.0
1690.479492	188.0
1692.272095	140.0
1697.606323	140.0
1700.535156	248.0
1702.899658	148.0
1704.781006	228.0
1705.874146	176.0
1721.652466	160.0
1725.750977	140.0
1729.084595	204.0
1751.768677	148.0
1754.918945	148.0
1759.323975	244.0
1760.153564	256.0
1764.018799	188.0
1770.829712	156.0
1772.521973	204.0
1780.61731	168.0
1781.490845	212.0
1784.035278	180.0
1785.945923	156.0
1788.764771	164.0
1795.404053	200.0
1803.483765	152.0
1805.140747	180.0
1805.199951	168.0
1815.039551	204.0
1821.531982	164.0
1828.989258	144.0
1835.796509	148.0
1842.641968	148.0
1843.786987	188.0
1844.419434	240.0
1850.775757	152.0
1859.966064	164.0
1861.331055	144.0
1863.418213	200.0
1867.200439	172.0
1867.879883	152.0
1870.788452	160.0
1874.7677	200.0
1878.662964	140.0
1883.110229	144.0
1885.062622	172.0
1891.886841	160.0
1893.895752	184.0
1901.707764	176.0
1904.873779	180.0
1906.658325	172.0
1916.369385	140.0
1917.022949	204.0
1924.899902	252.0
1927.852539	236.0
1930.719971	140.0
1936.732666	148.0
1937.056763	168.0
1945.483887	196.0
1946.291626	148.0
1946.631836	168.0
1953.577515	264.0
1955.064453	164.0
1957.943237	152.0
1960.462769	216.0
1961.176636	144.0
1969.956421	232.0
1970.636597	156.0
1971.238892	124.0
1972.297974	180.0
1973.349976	156.0
1974.331543	204.0
1976.321777	144.0
1978.88855	140.0
1981.829102	228.0
1983.471802	196.0
1986.829468	204.0
1987.299683	148.0
1990.539429	204.0
1994.421753	180.0
2000.541748	160.0
2003.275635	144.0
END IONS

BEGIN IONS
PEPMASS=264.196
CHARGE=1
MSLEVEL=2
SOURCE_INSTRUMENT=LC-ESI-qTof
FILENAME=NCP003432_A2_B11_BC8_01_15722.mzXML
SEQ=*..*
IONMODE=Positive
ORGANISM=GNPS-NIH-CLINICALCOLLECTION1
NAME=Tramadol [M+H]
PI=Dorrestein
DATACOLLECTOR=Garg_Neha
SMILES=COc1cccc(c1)[C@@]2(O)CCCC[C@@H]2CN(C)C
INCHI=N/A
INCHIAUX=N/A
PUBMED=N/A
SUBMITUSER=negarg
LIBRARYQUALITY=1
SPECTRUMID=CCMSLIB00000079046
USI=mzspec:GNPS:GNPS-NIH-CLINICALCOLLECTION1:accession:CCMSLIB00000079046
SCANS=1050
56.775269	168.0
58.082935	264.0
60.317108	148.0
63.337296	144.0
63.71484	148.0
66.00692	156.0
71.082939	156.0
75.694489	160.0
80.794075	204.0
87.18541	188.0
88.673576	156.0
93.076927	172.0
94.97789	156.0
97.655792	208.0
98.444107	204.0
99.737846	188.0
104.57753	168.0
106.158813	192.0
106.222397	144.0
108.105537	200.0
108.820648	144.0
116.466316	220.0
117.834236	144.0
117.91851	168.0
121.06369	292.0
122.025475	200.0
122.875603	144.0
123.016838	220.0
125.381271	224.0
127.127853	192.0
127.718727	208.0
129.807785	180.0
133.070694	180.0
133.102844	184.0
133.339462	196.0
133.781082	184.0
134.447205	192.0
135.080276	152.0
135.779755	204.0
136.962784	148.0
142.087631	152.0
143.245346	160.0
144.05545	272.0
144.25235	220.0
146.409348	140.0
147.081085	280.0
148.968353	184.0
150.019623	140.0
150.053757	140.0
153.126297	140.0
156.141068	148.0
156.424713	192.0
158.137009	216.0
158.537704	144.0
159.082748	260.0
161.086349	196.0
161.857834	144.0
167.460938	172.0
167.690247	156.0
172.074203	192.0
172.094101	200.0
173.094086	152.0
178.405136	216.0
183.637451	152.0
185.497726	172.0
189.117767	148.0
192.270187	192.0
194.134766	224.0
200.11174	160.0
201.12439	152.0
207.791458	152.0
214.792404	160.0
218.159958	148.0
221.479645	156.0
241.283829	216.0
243.514893	176.0
243.682632	144.0
244.158218	168.0
245.553818	152.0
246.185745	4452.0
247.189224	684.0
251.114212	156.0
251.142609	160.0
253.998825	140.0
254.608215	180.0
255.4823	168.0
261.18808	148.0
262.174835	184.0
262.87735	164.0
263.137421	132.0
263.165833	336.0
263.39621	180.0
263.519897	152.0
263.560364	136.0
263.724243	136.0
263.877228	200.0
264.13504	152.0
264.158905	152.0
264.19693	83600.0
264.279541	108.0
264.382874	152.0
264.444366	268.0
264.484741	200.0
264.559204	304.0
264.627472	268.0
264.726746	188.0
264.964294	132.0
265.017273	108.0
265.157257	188.0
265.199585	10556.0
265.522644	148.0
265.688171	112.0
265.731201	156.0
266.202759	1184.0
266.580872	160.0
266.806183	160.0
266.857849	252.0
267.045044	144.0
267.205383	420.0
267.270294	144.0
268.147705	132.0
328.157593	148.0
355.146912	152.0
1816.903076	140.0
1837.389038	172.0
END IONS

BEGIN IONS
PEPMASS=454.049
CHARGE=1
MSLEVEL=2
SOURCE_INSTRUMENT=LC-ESI-qTof
FILENAME=NCP003432_C2_D11_BD1_01_15723.mzXML
SEQ=*..*
IONMODE=Positive
ORGANISM=GNPS-NIH-CLINICALCOLLECTION1
NAME=CEFIXIME TRIHYDRATE [M+H]
PI=Dorrestein
DATACOLLECTOR=Garg_Neha
SMILES=Nc1nc(cs1)C(=NOCC(=O)O)C(=O)N[C@H]2[C@H]3SCC(=C(N3C2=O)C(=O)O)C=C
INCHI=N/A
INCHIAUX=N/A
PUBMED=N/A
SUBMITUSER=negarg
LIBRARYQUALITY=1
SPECTRUMID=CCMSLIB00000079064
USI=mzspec:GNPS:GNPS-NIH-CLINICALCOLLECTION1:accession:CCMSLIB00000079064
SCANS=1026
45.087505	200.0
45.643833	148.0
47.910145	244.0
48.815353	144.0
48.859863	176.0
51.849461	180.0
51.918274	196.0
52.558411	184.0
52.707138	220.0
53.153122	140.0
53.253292	156.0
53.873821	156.0
54.173714	156.0
54.334976	168.0
54.521458	212.0
56.318668	148.0
56.883179	160.0
56.922215	168.0
57.748074	144.0
58.823872	192.0
59.912674	176.0
60.238174	148.0
61.852283	188.0
62.451672	188.0
63.104534	188.0
64.015327	164.0
64.503532	140.0
64.833244	180.0
65.244156	236.0
66.019722	188.0
66.499268	156.0
66.660042	156.0
67.963097	172.0
68.913132	200.0
70.062881	224.0
72.034042	148.0
73.767349	164.0
75.405426	140.0
75.761879	172.0
75.829453	212.0
76.398994	192.0
76.804871	148.0
77.923492	204.0
78.180214	204.0
78.682564	152.0
81.110863	184.0
81.74305	172.0
81.795242	192.0
82.316277	140.0
82.710403	152.0
83.383308	148.0
83.869263	156.0
84.301804	160.0
84.658524	192.0
88.102684	172.0
88.56884	240.0
88.735245	164.0
88.80838	184.0
89.13504	164.0
89.705307	156.0
90.039268	188.0
90.360611	176.0
92.046555	180.0
92.115303	140.0
93.088249	156.0
95.025055	212.0
95.197006	164.0
95.720093	140.0
95.996803	176.0
96.084572	180.0
96.373528	176.0
97.010368	148.0
97.990242	148.0
98.999924	532.0
99.027321	160.0
99.98661	156.0
100.82386	160.0
100.991806	168.0
102.000092	248.0
102.316208	212.0
103.001839	160.0
103.131157	164.0
103.714088	172.0
104.035881	340.0
105.362381	140.0
106.027977	120.0
106.15654	152.0
107.048012	132.0
108.043594	256.0
108.409721	176.0
109.011612	360.0
110.034218	188.0
110.061363	180.0
110.743111	140.0
110.768242	164.0
110.998779	312.0
111.027542	380.0
111.208565	152.0
113.02037	140.0
114.009521	280.0
114.23658	224.0
114.993004	156.0
115.012062	164.0
115.405289	176.0
116.472519	164.0
117.048546	176.0
117.275085	168.0
117.359161	148.0
118.054459	156.0
119.060547	416.0
119.272919	144.0
120.06356	168.0
121.044434	140.0
121.077286	156.0
121.114517	200.0
121.313919	192.0
122.381645	160.0
123.011017	300.0
123.261734	144.0
123.376663	204.0
124.013031	160.0
124.052734	328.0
124.197258	188.0
124.377708	160.0
125.004189	2552.0
125.240654	176.0
125.753464	140.0
125.822662	152.0
126.012497	11992.0
126.059677	176.0
127.019066	1600.0
127.055565	184.0
127.707214	220.0
127.97802	232.0
128.011917	200.0
128.096619	144.0
129.015457	164.0
129.632965	144.0
130.018478	152.0
130.263702	172.0
132.048416	184.0
132.414597	164.0
133.04837	172.0
134.04985	192.0
135.055542	908.0
136.022507	564.0
136.515656	148.0
136.764587	148.0
137.023071	176.0
137.071991	164.0
137.456741	160.0
138.010727	440.0
138.036057	644.0
138.995239	128.0
139.018616	240.0
139.035294	184.0
139.963898	212.0
139.98909	156.0
140.025085	308.0
140.327728	168.0
140.584839	164.0
140.993973	220.0
141.539825	200.0
142.007401	2656.0
142.604996	160.0
142.972855	596.0
143.006943	352.0
143.285553	224.0
143.724243	144.0
143.978165	252.0
144.024307	128.0
144.287903	144.0
145.028793	160.0
145.262573	216.0
145.991058	336.0
146.062469	152.0
147.026215	168.0
147.053757	744.0
147.077942	140.0
148.039871	156.0
149.041351	164.0
149.076843	144.0
149.296173	200.0
149.35141	180.0
149.442123	160.0
150.059128	168.0
151.060776	256.0
151.563919	188.0
152.016983	6484.0
152.353928	152.0
153.02002	392.0
153.051666	380.0
154.00882	516.0
154.024872	588.0
155.015457	1060.0
155.036163	156.0
155.571747	188.0
155.83252	152.0
156.011185	152.0
156.265121	164.0
156.96254	188.0
156.98996	212.0
157.057297	160.0
157.984818	304.0
158.88089	156.0
159.677139	172.0
160.092392	160.0
160.303986	160.0
160.34935	164.0
161.035599	216.0
161.594254	160.0
162.041107	144.0
163.011642	144.0
163.035019	160.0
163.044083	120.0
163.627182	152.0
164.017578	984.0
164.047516	160.0
164.139297	160.0
164.190308	152.0
164.629242	184.0
164.996613	192.0
165.021393	428.0
165.070877	404.0
166.031235	3884.0
166.077805	176.0
166.853317	196.0
166.970963	236.0
167.0354	732.0
167.94989	176.0
167.98642	200.0
168.025864	328.0
169.05574	160.0
169.714005	148.0
170.026978	3804.0
170.190704	116.0
170.283905	96.0
170.993271	180.0
171.030182	708.0
171.559906	156.0
171.943329	172.0
172.018173	2324.0
173.014389	168.0
173.070007	160.0
174.040146	208.0
174.444733	156.0
174.507828	188.0
175.034058	164.0
176.033249	156.0
177.046585	200.0
178.668045	284.0
178.915543	148.0
179.027374	1112.0
180.010208	420.0
181.01767	2636.0
181.988464	224.0
182.025589	5220.0
182.550003	148.0
182.972885	224.0
183.031616	3280.0
184.003464	368.0
184.024796	352.0
184.660675	148.0
184.979965	188.0
185.001984	176.0
185.027237	444.0
189.013092	192.0
189.434998	184.0
191.010651	164.0
192.012497	172.0
193.01825	528.0
193.057816	540.0
193.093063	152.0
193.735229	144.0
194.001266	160.0
194.024246	516.0
194.070572	320.0
194.961624	156.0
195.031204	656.0
196.010422	228.0
196.047287	128.0
197.003265	132.0
197.026306	264.0
197.984299	156.0
198.014343	280.0
199.014557	580.0
199.666733	144.0
200.002625	1308.0
200.063477	156.0
201.000504	160.0
201.987991	152.0
202.205856	160.0
202.962219	152.0
202.999084	180.0
204.05542	156.0
205.316757	196.0
207.0224	2408.0
207.375229	204.0
207.690613	176.0
207.779541	188.0
208.024857	564.0
208.966888	144.0
209.012558	3344.0
209.042358	264.0
209.087906	168.0
209.815689	168.0
209.976242	332.0
210.021118	16664.0
210.069473	224.0
210.969788	176.0
210.987793	248.0
211.023148	2912.0
211.86467	216.0
212.01709	628.0
212.354538	192.0
212.422882	120.0
212.643341	96.0
213.012405	144.0
213.033142	148.0
213.815903	180.0
213.994873	284.0
214.751114	164.0
215.018433	128.0
215.092499	156.0
216.033432	208.0
216.996933	156.0
219.086487	148.0
222.051208	176.0
222.707138	228.0
222.974533	144.0
223.020294	232.0
223.078568	156.0
224.022888	192.0
224.986145	240.0
225.029953	236.0
225.705154	228.0
225.999634	1720.0
227.006531	3960.0
227.094696	228.0
228.006775	652.0
228.166702	180.0
229.001205	216.0
229.052002	636.0
229.613373	108.0
229.666321	160.0
230.001923	284.0
231.067978	180.0
231.219269	184.0
231.984985	100.0
232.055389	148.0
233.056915	176.0
234.970764	320.0
235.01265	180.0
235.992081	164.0
238.828705	144.0
239.022522	156.0
240.032974	288.0
241.039658	3944.0
241.256546	188.0
241.988388	312.0
242.039948	796.0
243.035049	284.0
244.043167	120.0
244.509262	156.0
245.0327	1320.0
245.088974	204.0
246.009583	112.0
246.045959	176.0
247.040222	188.0
247.069077	256.0
248.032379	140.0
248.057449	144.0
248.769531	144.0
249.031281	188.0
249.444901	216.0
251.06955	164.0
252.686798	144.0
252.985672	788.0
253.029724	828.0
253.067154	132.0
253.860977	152.0
253.990891	1276.0
254.122025	148.0
254.986786	172.0
255.017456	172.0
255.989197	124.0
256.06839	308.0
256.986084	160.0
257.034607	2976.0
257.989197	120.0
258.04187	480.0
259.035339	216.0
259.975494	280.0
260.001282	316.0
260.055481	128.0
260.677399	184.0
260.968384	120.0
261.029846	208.0
261.394501	152.0
262.002319	164.0
262.020081	164.0
263.043854	620.0
263.936279	188.0
264.024017	144.0
264.486267	224.0
264.693451	160.0
265.030334	168.0
266.017609	172.0
267.01355	268.0
268.02356	432.0
268.952332	208.0
269.037994	848.0
270.05014	160.0
270.998169	148.0
271.025696	148.0
271.251801	200.0
272.012817	148.0
273.041229	224.0
274.008575	416.0
274.069244	232.0
275.010956	484.0
275.08075	148.0
275.63559	180.0
276.00412	100.0
276.037384	188.0
277.021851	148.0
278.544434	200.0
279.032349	164.0
280.587677	152.0
280.991211	172.0
283.86438	164.0
284.054077	272.0
284.395935	200.0
284.441437	148.0
284.609314	144.0
284.726105	168.0
284.904846	152.0
284.947113	104.0
285.029297	51760.0
285.339691	112.0
285.540649	104.0
285.714233	136.0
286.030426	4112.0
287.02594	2196.0
287.376984	96.0
288.034088	520.0
289.028076	372.0
289.590179	148.0
289.871368	140.0
290.032318	400.0
290.824341	152.0
291.036316	2400.0
292.03894	884.0
293.03717	200.0
294.033325	328.0
297.02066	132.0
297.59729	164.0
299.403931	124.0
300.108978	192.0
301.005676	2760.0
301.880341	168.0
302.013153	1832.0
302.063751	536.0
303.019501	1304.0
304.016632	532.0
304.087158	140.0
304.410004	176.0
305.01593	140.0
306.050049	156.0
307.055542	260.0
309.034882	188.0
309.840729	172.0
310.085999	156.0
310.994385	208.0
311.047028	172.0
316.036102	264.0
316.444305	196.0
317.00769	356.0
318.015106	172.0
318.060822	180.0
319.029205	472.0
320.017853	192.0
321.022552	120.0
322.045135	156.0
325.924896	208.0
328.924835	216.0
329.00174	10856.0
329.112549	164.0
330.002014	2344.0
330.99765	1368.0
331.5289	192.0
331.995148	252.0
332.0242	192.0
332.453644	144.0
333.000885	156.0
334.032074	176.0
335.02655	1720.0
335.087463	124.0
335.263062	96.0
336.027222	416.0
336.063904	324.0
337.027069	336.0
337.067383	140.0
343.643524	152.0
345.001923	128.0
347.019928	152.0
348.074677	192.0
355.059784	116.0
363.018707	472.0
363.066406	196.0
364.05069	244.0
365.002014	144.0
365.037598	128.0
367.053619	316.0
367.215637	164.0
371.196686	152.0
371.956299	148.0
376.076874	248.0
380.0672	880.0
381.056793	252.0
381.649414	204.0
382.061157	356.0
383.062469	132.0
384.052185	144.0
390.837402	160.0
392.055023	304.0
393.083405	140.0
394.023102	152.0
398.702698	196.0
398.734497	236.0
408.044586	656.0
408.140747	176.0
409.062744	160.0
410.048523	200.0
411.037018	172.0
411.642365	148.0
412.041138	120.0
413.619324	256.0
414.712952	152.0
416.047485	152.0
420.061249	196.0
426.04483	568.0
426.095337	164.0
427.052765	536.0
428.053192	204.0
428.521454	148.0
430.414642	156.0
436.03479	584.0
436.164948	228.0
437.038391	144.0
437.304596	188.0
437.441956	180.0
438.054077	160.0
446.530029	144.0
447.291595	164.0
450.724518	156.0
450.776367	268.0
451.938049	164.0
453.004913	200.0
453.20401	184.0
453.343414	452.0
453.47522	148.0
453.582886	128.0
453.638428	168.0
453.754791	152.0
453.982697	132.0
454.049408	60452.0
454.190552	180.0
454.238037	100.0
454.355743	252.0
454.456757	152.0
454.644257	136.0
454.912292	248.0
455.050659	9752.0
455.186462	140.0
455.253021	160.0
455.316528	176.0
455.440155	140.0
455.488892	204.0
455.629913	112.0
455.875244	160.0
456.045593	5244.0
457.047058	1160.0
457.123627	236.0
457.691345	216.0
458.044098	268.0
458.07901	212.0
459.983002	144.0
468.90451	204.0
485.898438	172.0
547.698608	172.0
575.959229	144.0
652.80127	160.0
718.382507	140.0
1024.813965	184.0
1055.346924	196.0
1119.827881	196.0
1222.293701	244.0
1444.180054	172.0
1472.537476	148.0
1498.295654	176.0
1557.700562	168.0
1578.926392	152.0
1583.215698	164.0
1607.525513	180.0
1711.158081	148.0
1722.935059	152.0
1738.376953	140.0
1755.396606	172.0
1772.272949	168.0
1786.755859	216.0
1819.182129	208.0
1819.266968	192.0
1842.815186	160.0
1872.064941	140.0
1917.713623	168.0
1928.440308	176.0
1929.926392	172.0
1940.958862	160.0
1955.78833	204.0
1966.682617	156.0
1990.079834	164.0
1999.502441	144.0
END IONS

BEGIN IONS
PEPMASS=259.04
CHARGE=1
MSLEVEL=2
SOURCE_INSTRUMENT=LC-ESI-qTof
FILENAME=NCP003432_E2_F11_BD2_01_15724.mzXML
SEQ=*..*
IONMODE=Positive
ORGANISM=GNPS-NIH-CLINICALCOLLECTION1
NAME=Lofexidine hydrochloride [M+H]
PI=Dorrestein
DATACOLLECTOR=Garg_Neha
SMILES=CC(Oc1c(Cl)cccc1Cl)C2=NCCN2
INCHI=N/A
INCHIAUX=N/A
PUBMED=N/A
SUBMITUSER=negarg
LIBRARYQUALITY=1
SPECTRUMID=CCMSLIB00000079080
USI=mzspec:GNPS:GNPS-NIH-CLINICALCOLLECTION1:accession:CCMSLIB00000079080
SCANS=1067
46.698666	156.0
47.085735	196.0
48.594475	176.0
48.932205	156.0
51.276333	172.0
51.440361	212.0
52.181019	268.0
52.80975	172.0
53.311378	192.0
54.831955	180.0
55.078358	236.0
55.451214	152.0
56.224579	200.0
56.509987	148.0
56.653709	152.0
57.031853	144.0
57.438404	196.0
58.205715	236.0
58.654522	228.0
59.674095	232.0
59.83102	156.0
60.843647	196.0
62.437481	224.0
62.865986	140.0
63.988224	272.0
64.074226	216.0
66.293266	188.0
66.315956	240.0
67.884323	192.0
70.604454	216.0
72.57048	192.0
72.857307	212.0
72.95417	168.0
73.420708	156.0
73.437759	144.0
75.130836	156.0
75.657928	140.0
77.760147	252.0
78.255867	148.0
78.312218	160.0
79.447052	176.0
80.192101	220.0
81.365555	160.0
81.428398	172.0
82.907776	172.0
83.688866	184.0
83.825478	152.0
85.173851	176.0
85.342918	188.0
85.860367	196.0
87.455582	168.0
87.474197	176.0
88.012985	216.0
88.042862	144.0
88.257759	188.0
88.890884	168.0
92.725624	172.0
93.311089	228.0
93.942757	168.0
94.745026	184.0
95.187241	188.0
95.758987	244.0
96.772476	184.0
97.076759	24544.0
97.249893	96.0
97.986244	240.0
98.084053	21604.0
98.453514	112.0
98.848404	104.0
99.085655	440.0
100.095688	148.0
100.113609	212.0
104.375862	152.0
105.181427	116.0
109.273453	164.0
118.071701	140.0
118.578308	144.0
122.319939	152.0
122.906166	196.0
129.474319	168.0
133.380478	156.0
134.419159	176.0
137.738297	160.0
144.092148	164.0
147.424591	168.0
147.526108	160.0
147.90831	140.0
152.098465	160.0
156.633484	156.0
161.654907	212.0
165.629166	192.0
167.883163	152.0
168.004395	156.0
169.035278	160.0
175.089264	196.0
177.236908	204.0
183.879791	176.0
189.018753	160.0
194.038956	468.0
194.103745	172.0
198.092026	148.0
198.341415	200.0
198.874329	184.0
202.4832	152.0
204.018265	148.0
204.723892	144.0
205.921692	232.0
206.064514	168.0
207.06665	120.0
209.065643	176.0
209.881897	172.0
210.196304	152.0
211.453384	188.0
212.415329	148.0
212.992966	160.0
214.998993	164.0
218.300507	144.0
218.488754	160.0
223.065186	312.0
224.070618	972.0
225.072693	312.0
226.068832	136.0
227.073776	284.0
235.402222	224.0
237.351425	228.0
240.952515	196.0
243.172729	160.0
244.064285	244.0
246.933258	192.0
252.376709	164.0
256.197937	356.0
256.697144	1260.0
257.100861	136.0
257.199585	664.0
257.70694	148.0
258.21521	148.0
258.247192	144.0
258.611938	148.0
258.715729	152.0
258.822418	188.0
258.967346	324.0
259.040558	56772.0
259.34668	164.0
259.645264	176.0
259.879395	132.0
260.042908	4116.0
260.113617	176.0
260.207153	140.0
260.34137	156.0
260.478912	128.0
260.922302	200.0
261.03714	29636.0
261.421783	100.0
261.688538	180.0
261.833954	116.0
262.040375	2064.0
263.031555	196.0
263.235596	132.0
306.22171	144.0
355.272583	160.0
370.269745	116.0
371.275879	244.0
413.295349	180.0
1174.234009	220.0
1189.416626	176.0
1221.110474	192.0
1245.665283	220.0
1267.805664	228.0
1283.986206	180.0
1311.813599	172.0
1321.490845	164.0
1329.229248	208.0
1349.302856	164.0
1370.528687	160.0
1376.902222	148.0
1384.741699	220.0
1386.25293	152.0
1403.736816	220.0
1412.833984	160.0
1413.125732	208.0
1417.528442	212.0
1446.971558	168.0
1454.969849	160.0
1465.305298	200.0
1480.597534	164.0
1507.986694	144.0
1515.376709	152.0
1519.850464	168.0
1528.257568	168.0
1537.202759	208.0
1538.990234	148.0
1541.716309	144.0
1552.911743	220.0
1560.78833	176.0
1568.038574	144.0
1575.724243	192.0
1576.696167	176.0
1579.107422	180.0
1598.352905	184.0
1600.088013	144.0
1602.381714	160.0
1603.983521	184.0
1604.111084	140.0
1604.804688	228.0
1607.979492	144.0
1608.083252	160.0
1622.713989	148.0
1628.684448	212.0
1650.233276	148.0
1660.079468	204.0
1664.437012	168.0
1696.468262	168.0
1707.133667	180.0
1717.362305	160.0
1718.310913	144.0
1729.831055	152.0
1730.799683	184.0
1740.102417	196.0
1746.484497	168.0
1752.353394	264.0
1761.78064	236.0
1766.378296	144.0
1767.758789	140.0
1769.240234	224.0
1771.677246	144.0
1778.561646	204.0
1783.458496	160.0
1805.209839	172.0
1806.34314	228.0
1820.310303	188.0
1823.275146	164.0
1824.380005	168.0
1825.672485	168.0
1836.880981	172.0
1848.192261	232.0
1856.981445	144.0
1861.864746	172.0
1874.837891	176.0
1877.934204	176.0
1880.176147	188.0
1887.951172	160.0
1889.776367	180.0
1901.578857	164.0
1903.427979	148.0
1912.155884	188.0
1913.183105	168.0
1924.569336	184.0
1927.600342	172.0
1943.194458	144.0
1946.327881	176.0
1952.778198	140.0
1954.801636	212.0
1974.341431	168.0
1977.243164	208.0
1981.874512	152.0
1982.397217	152.0
1984.152222	160.0
1989.412964	148.0
1999.919678	192.0
END IONS

BEGIN IONS
PEPMASS=379.238
CHARGE=1
MSLEVEL=2
SOURCE_INSTRUMENT=LC-ESI-qTof
FILENAME=NCP003432_E2_F11_BD2_01_15724.mzXML
SEQ=*..*
IONMODE=Positive
ORGANISM=GNPS-NIH-CLINICALCOLLECTION1
NAME=DOXAPRAM HYDROCHLORIDE [M+H]
PI=Dorrestein
DATACOLLECTOR=Garg_Neha
SMILES=CCN1CC(CCN2CCOCC2)C(C1=O)(c3ccccc3)c4ccccc4
INCHI=N/A
INCHIAUX=N/A
PUBMED=N/A
SUBMITUSER=negarg
LIBRARYQUALITY=1
SPECTRUMID=CCMSLIB00000079081
USI=mzspec:GNPS:GNPS-NIH-CLINICALCOLLECTION1:accession:CCMSLIB00000079081
SCANS=1079
46.031898	144.0
46.458244	172.0
47.057068	164.0
47.389423	156.0
47.414089	176.0
47.818695	180.0
48.748608	160.0
48.833412	144.0
49.398022	164.0
49.476696	172.0
49.618195	164.0
49.817478	144.0
49.87228	164.0
51.105457	144.0
51.274914	144.0
52.04884	188.0
52.149403	192.0
52.283157	180.0
52.467525	164.0
52.783726	160.0
54.182484	196.0
54.378975	180.0
54.818703	152.0
55.226173	172.0
55.869671	164.0
55.996483	188.0
57.652805	152.0
57.714783	152.0
57.973633	156.0
59.02552	184.0
59.319473	228.0
60.097664	152.0
60.572277	236.0
63.068314	192.0
63.148785	180.0
63.730572	144.0
64.347466	188.0
65.438797	152.0
65.922699	160.0
66.468407	168.0
66.51223	188.0
66.603157	188.0
68.439735	164.0
68.606133	156.0
69.005661	152.0
69.027153	180.0
69.630371	172.0
70.164513	232.0
70.640495	160.0
70.797791	140.0
70.884895	152.0
70.95697	140.0
71.351501	248.0
71.737015	180.0
72.811455	172.0
73.690422	144.0
74.832695	140.0
76.242477	196.0
76.41288	164.0
78.067245	160.0
78.379173	140.0
78.830902	176.0
79.259125	140.0
79.622787	160.0
80.174286	144.0
80.31514	172.0
80.974663	176.0
81.876228	152.0
82.065437	216.0
82.198914	164.0
82.278328	140.0
82.612656	180.0
82.665123	172.0
82.962166	156.0
83.812737	156.0
85.1408	184.0
86.055977	140.0
87.565445	164.0
87.964462	176.0
88.216644	144.0
89.978813	176.0
90.266006	164.0
90.311394	196.0
90.547981	140.0
90.866432	184.0
91.054695	2668.0
91.229164	180.0
91.966331	156.0
92.058907	500.0
92.83683	172.0
92.974953	248.0
93.935059	204.0
94.294189	160.0
94.327049	200.0
94.553345	144.0
94.611412	160.0
95.245522	224.0
95.317406	192.0
96.081245	1844.0
97.08918	5740.0
97.121315	180.0
98.09359	1184.0
98.136047	164.0
98.292862	212.0
98.38858	160.0
99.662079	180.0
100.076767	828.0
100.586143	156.0
100.829819	148.0
101.143829	176.0
101.446304	184.0
102.267853	192.0
102.7071	140.0
103.054863	192.0
103.491211	172.0
104.241714	236.0
105.069626	1368.0
105.090805	164.0
106.071198	204.0
106.267265	264.0
106.32267	176.0
106.93306	140.0
107.190475	200.0
108.335091	160.0
108.393105	140.0
108.67717	164.0
109.03434	244.0
110.395653	216.0
112.547409	148.0
112.868584	140.0
113.981407	172.0
114.696487	160.0
114.718544	112.0
114.941742	184.0
115.016434	144.0
115.054291	260.0
115.420998	228.0
115.968246	184.0
116.058289	156.0
117.070221	2640.0
117.641441	124.0
118.047928	164.0
118.075447	188.0
118.212334	144.0
118.487312	156.0
118.513313	200.0
118.669365	160.0
120.6287	196.0
122.619507	148.0
122.652573	192.0
124.173759	148.0
124.637718	200.0
126.034096	128.0
127.02433	228.0
127.055962	616.0
128.062515	4324.0
128.101181	176.0
128.257111	180.0
128.872635	160.0
128.985626	144.0
129.028275	144.0
129.070724	18456.0
129.123489	272.0
129.802933	200.0
130.030914	152.0
130.074249	2048.0
130.409073	176.0
130.84436	124.0
130.920959	200.0
131.053162	108.0
131.08371	576.0
131.678116	180.0
131.694107	152.0
131.922607	220.0
132.066177	172.0
132.081848	200.0
133.203568	164.0
133.651871	204.0
134.094696	416.0
134.396103	156.0
134.807129	168.0
134.878769	252.0
136.011444	176.0
137.426361	228.0
137.508041	164.0
137.912094	180.0
139.600098	208.0
140.10675	296.0
140.613098	220.0
141.069946	472.0
141.312546	168.0
141.639236	204.0
141.743484	156.0
142.076248	296.0
142.837952	168.0
143.086121	24496.0
144.088547	3460.0
144.149231	152.0
144.960434	144.0
145.088287	428.0
146.105713	244.0
148.446167	172.0
149.437195	176.0
150.048508	152.0
151.872757	148.0
152.06279	572.0
152.331772	176.0
152.786133	120.0
152.999008	168.0
154.407135	144.0
155.059906	264.0
155.08551	196.0
155.894577	144.0
156.108368	168.0
156.270035	212.0
157.064529	2924.0
157.386658	172.0
158.067429	276.0
158.093033	164.0
158.712784	140.0
159.101669	180.0
159.66954	180.0
159.908554	236.0
160.074844	148.0
160.111542	356.0
160.417343	140.0
160.596375	160.0
160.876465	268.0
160.992615	176.0
161.114975	168.0
161.290741	148.0
161.336243	144.0
161.748566	188.0
161.845718	128.0
165.071381	1324.0
165.88031	184.0
166.026459	204.0
166.076447	892.0
166.187302	136.0
166.213715	152.0
166.683609	192.0
166.801834	156.0
166.884109	156.0
167.017822	148.0
167.053833	144.0
167.086014	36356.0
167.220947	116.0
167.985336	112.0
168.054993	156.0
168.088806	4780.0
168.249573	176.0
168.53801	100.0
169.063766	248.0
169.095627	180.0
169.527313	156.0
170.048584	168.0
170.098343	140.0
171.085724	140.0
171.617203	164.0
172.079529	164.0
172.11142	328.0
173.069031	140.0
173.117874	324.0
174.124481	452.0
174.244934	196.0
175.534653	148.0
175.650345	152.0
175.888168	176.0
175.933044	180.0
178.080994	480.0
179.05394	200.0
179.089661	248.0
181.059601	144.0
182.027679	172.0
182.052704	176.0
182.100189	164.0
184.641678	160.0
185.906815	160.0
186.088623	392.0
186.128067	624.0
186.588577	148.0
187.053772	152.0
187.09642	456.0
187.124542	144.0
188.105835	936.0
188.160553	168.0
189.113235	160.0
189.45137	176.0
189.94754	192.0
190.515762	164.0
191.065598	184.0
191.086151	144.0
192.090591	176.0
192.399445	140.0
193.101608	176.0
195.080826	2184.0
196.082138	644.0
196.111603	228.0
196.481827	220.0
197.519562	200.0
198.284302	192.0
200.074661	172.0
200.107452	660.0
200.432343	176.0
200.694473	244.0
201.114761	1448.0
201.569504	176.0
202.118561	368.0
202.554047	164.0
203.700027	152.0
203.879028	336.0
204.088318	236.0
204.120651	144.0
205.100006	164.0
205.627655	152.0
205.784653	180.0
206.104553	148.0
207.116516	2604.0
208.118362	468.0
208.500183	144.0
208.710037	168.0
209.124283	320.0
209.570633	212.0
209.711838	180.0
210.034775	180.0
210.128464	516.0
210.179016	160.0
212.603958	152.0
212.804245	140.0
213.318451	188.0
214.122818	1056.0
214.383698	168.0
215.126755	392.0
215.866638	152.0
216.092712	164.0
217.100754	104.0
217.416306	144.0
218.347595	140.0
219.119934	596.0
219.266144	144.0
220.123123	288.0
221.148468	180.0
221.573898	184.0
221.805038	216.0
222.125275	180.0
223.185516	180.0
224.871597	180.0
225.008911	140.0
225.032791	188.0
225.397186	156.0
228.347031	140.0
228.954956	140.0
229.098282	244.0
230.565948	148.0
231.117752	268.0
231.154556	156.0
231.527985	168.0
232.118896	116.0
233.667938	144.0
234.017944	140.0
234.505341	180.0
236.406738	176.0
236.469193	140.0
239.69986	256.0
239.958771	172.0
240.87532	148.0
241.252319	180.0
241.570831	188.0
242.169113	148.0
242.961761	264.0
243.036682	136.0
243.933746	156.0
244.121811	152.0
245.125534	264.0
246.125259	192.0
246.14859	380.0
246.73317	160.0
247.110733	232.0
247.640625	176.0
248.964096	172.0
249.9543	172.0
250.010941	156.0
251.883743	160.0
252.117554	152.0
253.186829	156.0
253.357864	160.0
253.760361	152.0
254.166351	148.0
254.798172	148.0
256.379578	152.0
257.572815	176.0
257.914703	160.0
258.106537	168.0
259.060272	184.0
259.137146	168.0
260.195526	144.0
260.37854	152.0
262.189789	160.0
262.234924	172.0
262.27359	148.0
262.541199	156.0
262.963837	192.0
263.168671	164.0
263.590332	160.0
263.975006	156.0
264.136444	152.0
264.174866	18732.0
264.242371	108.0
264.297028	172.0
264.600616	112.0
264.716034	252.0
264.91214	108.0
265.177246	3640.0
265.217926	156.0
266.183441	412.0
266.427765	160.0
266.895172	160.0
267.706818	164.0
268.971802	176.0
271.491058	200.0
272.146393	184.0
272.193298	196.0
274.158691	992.0
274.223053	160.0
275.166748	176.0
275.670929	172.0
276.111511	208.0
276.194214	140.0
276.747375	128.0
278.05957	224.0
279.594971	172.0
280.121033	168.0
281.982849	144.0
282.554657	160.0
282.988678	224.0
283.666473	212.0
285.775482	208.0
286.671173	152.0
287.50412	144.0
287.868713	196.0
288.088226	160.0
289.769623	144.0
291.622559	96.0
291.79718	288.0
291.980865	148.0
292.126007	144.0
292.169891	32516.0
292.315247	120.0
292.657654	108.0
292.800385	184.0
293.05249	144.0
293.128113	108.0
293.171844	10196.0
293.227844	292.0
293.302521	200.0
294.067841	164.0
294.176361	1320.0
294.600525	172.0
294.901215	224.0
295.175812	144.0
295.296967	264.0
295.347168	100.0
295.482239	140.0
296.388062	124.0
297.202484	156.0
298.42865	140.0
300.664246	140.0
300.812653	180.0
301.186035	252.0
301.790344	180.0
302.341217	140.0
302.492615	172.0
305.454346	132.0
305.984985	152.0
307.302399	228.0
308.82077	176.0
308.863922	196.0
309.084351	144.0
313.494781	192.0
314.415222	176.0
314.570526	144.0
314.941284	148.0
317.512817	160.0
317.837128	200.0
318.710602	156.0
319.218903	172.0
320.77475	152.0
320.888824	208.0
322.791931	180.0
323.496765	188.0
323.797516	220.0
325.224487	184.0
326.438782	168.0
330.286957	220.0
334.401459	172.0
334.856567	144.0
340.220734	148.0
343.278229	172.0
343.477386	144.0
343.643402	140.0
345.335266	152.0
345.875488	172.0
346.820007	180.0
347.346527	216.0
347.442963	192.0
347.654449	216.0
350.486572	176.0
351.774658	148.0
351.905304	144.0
354.036682	168.0
354.100342	184.0
354.752319	152.0
355.487427	164.0
359.736664	160.0
360.107788	204.0
360.684814	152.0
361.210388	188.0
361.240784	116.0
361.649323	148.0
361.781799	152.0
361.943451	196.0
362.308197	160.0
362.482483	144.0
366.941437	152.0
367.734375	172.0
369.614563	176.0
371.012512	160.0
371.779633	160.0
373.947174	224.0
374.674713	136.0
374.798218	140.0
375.283295	192.0
375.399536	168.0
375.801117	180.0
375.942444	112.0
376.216339	120.0
376.308289	172.0
376.352631	176.0
376.483917	164.0
376.928009	96.0
377.106018	172.0
377.258698	132.0
377.335144	192.0
377.362183	288.0
377.453094	124.0
377.625946	104.0
377.662842	108.0
377.722931	280.0
377.793243	128.0
377.872833	160.0
377.939697	192.0
378.041168	268.0
378.073761	184.0
378.147247	304.0
378.186584	160.0
378.226501	156.0
378.367371	264.0
378.450073	128.0
378.484985	296.0
378.52182	116.0
378.564148	360.0
378.720001	120.0
378.782013	196.0
378.85556	284.0
378.899902	264.0
378.991425	196.0
379.034882	132.0
379.062927	236.0
379.100342	212.0
379.130341	520.0
379.174896	360.0
379.240753	225992.0
379.383881	240.0
379.498505	144.0
379.598236	196.0
379.65155	296.0
379.750824	252.0
379.808258	224.0
379.818665	272.0
379.830658	464.0
379.878052	4820.0
379.919464	420.0
379.959656	308.0
380.00174	176.0
380.097961	232.0
380.139893	160.0
380.190186	352.0
380.242462	96776.0
380.372437	168.0
380.441498	108.0
380.49054	164.0
380.528564	200.0
380.625092	128.0
380.65979	204.0
380.722198	200.0
380.794891	268.0
380.822754	140.0
380.879791	256.0
381.04895	136.0
381.098877	304.0
381.243683	10624.0
381.353088	168.0
381.427002	140.0
381.460388	200.0
381.537659	108.0
381.748718	112.0
381.858917	96.0
381.964081	188.0
381.991638	208.0
382.049255	156.0
382.105286	104.0
382.163239	196.0
382.248169	412.0
382.313324	180.0
382.386353	284.0
382.471741	276.0
382.612823	192.0
382.66095	244.0
382.703186	204.0
382.782196	228.0
382.886505	280.0
382.958435	240.0
383.057831	132.0
383.360046	128.0
383.449188	128.0
383.597198	204.0
383.638611	156.0
383.689056	224.0
383.790527	148.0
383.966553	100.0
387.240234	112.0
392.030365	140.0
395.517731	184.0
396.319946	112.0
408.353729	144.0
477.080872	192.0
483.241669	144.0
513.109741	164.0
522.270691	144.0
844.409302	128.0
1027.39563	164.0
1027.504028	148.0
1058.834351	156.0
1061.238403	176.0
1108.580078	152.0
1136.023315	148.0
1160.728516	184.0
1167.10437	216.0
1170.635864	160.0
1177.687622	240.0
1183.9729	152.0
1190.631958	156.0
1193.827637	236.0
1205.539795	208.0
1220.436035	148.0
1229.303345	144.0
1269.039185	192.0
1274.852661	200.0
1287.918945	168.0
1299.88916	148.0
1315.781494	160.0
1326.647461	144.0
1333.245239	184.0
1339.138184	144.0
1348.645142	196.0
1357.594482	220.0
1365.876221	164.0
1374.134277	204.0
1375.005005	152.0
1375.329834	164.0
1383.37207	140.0
1390.035034	216.0
1408.050415	168.0
1408.886963	168.0
1419.905029	212.0
1431.500732	148.0
1444.678711	192.0
1449.956299	168.0
1451.578491	188.0
1452.223145	216.0
1453.492432	140.0
1457.195312	152.0
1466.83728	164.0
1497.51709	240.0
1497.809814	184.0
1499.970093	172.0
1504.333374	228.0
1504.889282	160.0
1506.233032	188.0
1526.958618	180.0
1531.021118	188.0
1551.712158	160.0
1553.500244	204.0
1554.174927	148.0
1571.421631	176.0
1576.886108	176.0
1611.884766	232.0
1612.100586	144.0
1624.077515	168.0
1624.382324	156.0
1625.994995	160.0
1635.88147	220.0
1636.308105	144.0
1639.570435	172.0
1642.569702	240.0
1657.437256	272.0
1661.450439	144.0
1665.444336	176.0
1670.288696	140.0
1677.617432	152.0
1679.639771	192.0
1683.508301	164.0
1685.926758	156.0
1691.528931	208.0
1701.308472	148.0
1705.275879	168.0
1706.459717	140.0
1709.050537	140.0
1709.963867	164.0
1716.372925	140.0
1721.315674	208.0
1727.158569	152.0
1727.44812	156.0
1727.779053	140.0
1749.122437	196.0
1750.471191	228.0
1760.102173	176.0
1769.173584	160.0
1770.797974	164.0
1779.947144	176.0
1783.139404	212.0
1791.654907	160.0
1797.463989	164.0
1810.524536	200.0
1816.092773	164.0
1819.062622	200.0
1821.329712	172.0
1829.484497	160.0
1830.421021	180.0
1832.57605	164.0
1840.781616	144.0
1844.139038	168.0
1844.43811	140.0
1845.002319	156.0
1850.2771	216.0
1857.479248	164.0
1866.075562	144.0
1877.234741	192.0
1879.037476	220.0
1880.072876	164.0
1885.072876	144.0
1886.282837	204.0
1896.407837	164.0
1898.58606	148.0
1903.063599	184.0
1905.556274	184.0
1912.138794	152.0
1917.19873	184.0
1920.869263	236.0
1929.304932	184.0
1930.458984	176.0
1944.282837	148.0
1945.125488	228.0
1948.690918	236.0
1951.705566	192.0
1954.485107	160.0
1958.023926	204.0
1960.922485	212.0
1968.421021	204.0
1976.455933	180.0
1984.595825	244.0
1987.567261	140.0
1988.543335	200.0
1996.05896	192.0
2001.744263	224.0
END IONS

BEGIN IONS
PEPMASS=469.23
CHARGE=1
MSLEVEL=2
SOURCE_INSTRUMENT=LC-ESI-qTof
FILENAME=NCP003512_C2_D11_BD5_01_15729.mzXML
SEQ=*..*
IONMODE=Positive
ORGANISM=GNPS-NIH-CLINICALCOLLECTION1
NAME=LOMERIZINE DiHCl [M+H]
PI=Dorrestein
DATACOLLECTOR=Garg_Neha
SMILES=COc1ccc(CN2CCN(CC2)C(c3ccc(F)cc3)c4ccc(F)cc4)c(OC)c1OC
INCHI=N/A
INCHIAUX=N/A
PUBMED=N/A
SUBMITUSER=negarg
LIBRARYQUALITY=1
SPECTRUMID=CCMSLIB00000079113
USI=mzspec:GNPS:GNPS-NIH-CLINICALCOLLECTION1:accession:CCMSLIB00000079113
SCANS=1443
44.927094	172.0
45.008507	160.0
45.123413	172.0
45.175571	184.0
45.198315	196.0
45.211697	144.0
45.395226	216.0
45.404613	160.0
45.864437	164.0
45.933975	176.0
45.988163	228.0
46.008778	140.0
46.080429	148.0
46.112789	164.0
46.139671	144.0
46.188507	152.0
46.26564	176.0
46.279179	192.0
46.321159	176.0
46.568024	200.0
46.683544	212.0
46.725288	168.0
46.765171	188.0
46.818268	184.0
47.212669	188.0
47.365963	152.0
47.757156	160.0
47.772285	232.0
47.806683	168.0
47.988506	188.0
48.034016	160.0
48.10043	184.0
48.191399	148.0
48.203205	176.0
48.374283	192.0
48.518024	160.0
48.634548	140.0
48.677586	144.0
48.862446	204.0
49.097851	216.0
49.168072	156.0
49.286304	168.0
49.311291	168.0
49.421932	180.0
49.455521	156.0
49.559681	176.0
49.801842	200.0
49.856636	164.0
50.121189	140.0
50.318653	156.0
50.413288	248.0
50.530651	168.0
50.567558	148.0
50.694901	180.0
50.73175	176.0
50.965927	200.0
51.306087	176.0
51.423054	140.0
51.852119	160.0
52.018475	208.0
52.147774	184.0
52.199528	144.0
52.27721	156.0
52.364208	176.0
52.437065	160.0
52.476517	152.0
52.497616	204.0
52.711258	260.0
52.757511	156.0
52.883354	164.0
53.209515	180.0
53.293919	176.0
53.452244	152.0
53.718864	196.0
53.78759	208.0
53.918362	184.0
53.948135	160.0
54.386116	160.0
54.558334	200.0
54.694786	164.0
54.951206	212.0
55.07373	144.0
55.11953	184.0
55.136738	124.0
55.193436	200.0
55.238949	124.0
55.286629	160.0
55.427307	192.0
55.716629	148.0
55.79837	124.0
55.817699	216.0
55.889095	144.0
56.085674	140.0
56.179619	160.0
56.266178	204.0
56.603024	152.0
56.638531	204.0
56.752426	152.0
56.858433	144.0
57.099312	172.0
57.429153	144.0
57.465359	188.0
57.788685	152.0
57.893131	240.0
58.008278	176.0
58.046185	180.0
58.060654	184.0
58.146305	176.0
58.214622	192.0
58.232742	108.0
58.317844	140.0
58.331612	144.0
58.5233	176.0
58.758011	232.0
58.875393	160.0
58.937069	188.0
59.016544	220.0
59.163002	180.0
59.178314	148.0
59.213852	168.0
59.323856	140.0
59.371899	108.0
59.427647	248.0
59.441952	160.0
59.538666	140.0
59.827732	140.0
60.040367	160.0
60.092815	172.0
60.157631	156.0
60.301281	140.0
60.367332	160.0
60.400238	176.0
60.658833	140.0
60.727055	152.0
60.871384	144.0
60.970806	184.0
61.005627	184.0
61.032986	184.0
61.048534	144.0
61.208813	164.0
61.236847	188.0
61.263325	204.0
61.394253	140.0
61.598717	144.0
62.138813	140.0
62.154503	144.0
62.427826	224.0
62.827896	192.0
63.158047	184.0
63.446709	220.0
63.490646	176.0
63.576607	216.0
63.652508	164.0
63.754173	200.0
64.051697	180.0
64.067627	168.0
64.30043	156.0
64.362686	156.0
64.461723	144.0
64.56723	148.0
64.701637	164.0
64.958046	152.0
65.068771	224.0
65.333946	192.0
65.377388	172.0
65.602882	160.0
65.671669	164.0
65.836838	364.0
65.977287	104.0
66.004898	184.0
66.045326	168.0
66.097099	232.0
66.378952	168.0
66.612663	144.0
66.819122	156.0
66.985168	204.0
67.024269	180.0
67.138374	140.0
67.264008	180.0
67.293396	140.0
67.775902	144.0
68.713081	160.0
68.798897	180.0
68.883118	184.0
69.122841	152.0
69.177803	136.0
69.702538	148.0
70.000969	176.0
70.062599	208.0
70.296021	216.0
70.551567	140.0
70.606743	164.0
70.728882	156.0
70.966766	148.0
70.988571	172.0
71.431961	184.0
71.472343	216.0
71.537979	216.0
71.719902	144.0
71.90374	156.0
72.043884	144.0
72.143593	148.0
72.3703	208.0
72.566833	208.0
72.780624	172.0
72.880836	176.0
73.049141	188.0
73.155724	248.0
73.181885	144.0
73.485268	384.0
73.53817	168.0
73.626945	168.0
73.737579	148.0
74.045952	164.0
74.532227	156.0
74.54689	212.0
74.59951	212.0
74.713669	172.0
74.916359	168.0
75.009865	216.0
75.144379	164.0
75.194351	104.0
75.315277	168.0
75.336006	212.0
75.495018	180.0
75.689621	160.0
75.836128	156.0
75.905273	184.0
76.148384	228.0
76.243935	180.0
76.292603	152.0
76.353462	188.0
76.539658	144.0
76.562302	272.0
77.034973	156.0
77.094376	204.0
77.125839	164.0
77.209755	212.0
77.407501	140.0
77.444283	196.0
77.526627	156.0
77.823067	184.0
78.280243	160.0
78.488167	360.0
78.511093	160.0
78.52697	140.0
78.609886	156.0
78.849655	140.0
78.892479	156.0
79.069359	176.0
79.186203	196.0
79.294334	124.0
79.317322	184.0
79.335045	224.0
79.395332	200.0
79.420166	180.0
79.560349	176.0
79.684662	144.0
79.721977	208.0
79.836823	140.0
79.914017	148.0
80.013687	144.0
80.161522	148.0
80.411186	144.0
80.539742	184.0
80.9869	160.0
81.38681	156.0
81.498177	148.0
81.548492	152.0
81.56826	188.0
81.638382	140.0
81.659966	140.0
81.769714	148.0
81.877731	152.0
81.931992	164.0
82.679977	224.0
82.701019	168.0
82.733604	152.0
82.787834	160.0
82.934669	264.0
83.310287	168.0
83.366615	196.0
83.728638	188.0
83.794212	148.0
83.90538	184.0
84.023926	160.0
84.054947	140.0
84.10524	156.0
84.656349	160.0
84.845078	144.0
84.95327	176.0
85.193756	144.0
85.300339	168.0
85.482414	160.0
85.605751	188.0
85.624168	148.0
85.898796	160.0
85.992897	200.0
86.07782	140.0
86.57711	172.0
86.706795	156.0
86.725327	176.0
87.336197	164.0
87.376213	164.0
87.395721	168.0
87.427361	140.0
87.855904	176.0
87.91748	232.0
87.956848	168.0
88.124748	200.0
88.466988	164.0
88.670876	160.0
88.725578	120.0
88.742393	160.0
88.963768	144.0
88.995682	144.0
89.089584	180.0
89.411118	144.0
89.750191	172.0
90.248657	192.0
90.31485	140.0
90.40377	148.0
90.524918	144.0
90.864204	160.0
90.953392	144.0
91.055779	468.0
91.228828	160.0
91.327705	168.0
91.38858	184.0
91.422836	208.0
91.451744	168.0
91.550377	172.0
91.63047	172.0
91.872498	260.0
91.895988	192.0
92.562462	176.0
92.637161	140.0
92.698471	208.0
92.938156	172.0
93.034119	144.0
93.070595	188.0
93.205048	172.0
93.386497	196.0
93.408836	160.0
93.522362	160.0
93.543663	184.0
93.629349	164.0
93.795876	184.0
93.919281	192.0
94.201103	192.0
94.349899	184.0
95.126724	160.0
95.398682	168.0
95.538696	184.0
95.573723	148.0
95.77034	176.0
96.566666	148.0
96.662529	144.0
96.911201	148.0
96.964104	192.0
96.985664	176.0
97.038597	228.0
97.085655	140.0
97.334869	140.0
97.397713	96.0
97.597397	204.0
97.6847	172.0
97.726013	220.0
97.798828	172.0
97.926857	152.0
98.031219	216.0
98.05751	124.0
98.317169	160.0
98.350716	192.0
98.429688	144.0
98.581787	152.0
98.769608	160.0
99.457169	232.0
99.530624	208.0
99.558426	208.0
99.820732	172.0
99.866478	180.0
100.22879	156.0
100.366158	192.0
100.440117	168.0
100.543861	140.0
100.915405	232.0
101.008583	164.0
101.133453	152.0
101.189507	168.0
101.337715	184.0
101.552208	168.0
101.660545	196.0
101.901497	164.0
101.995949	196.0
102.04821	180.0
102.287613	144.0
102.374184	284.0
102.60144	188.0
102.844231	188.0
102.959015	140.0
103.045303	200.0
103.070114	212.0
103.452362	160.0
103.592087	192.0
103.61235	144.0
103.673134	216.0
103.855598	176.0
103.980652	132.0
104.032135	160.0
104.306366	168.0
104.513809	200.0
104.819237	140.0
105.034019	148.0
105.214577	120.0
105.278214	188.0
105.574532	196.0
105.732468	140.0
105.75457	160.0
106.043022	276.0
106.067955	148.0
106.521439	168.0
106.640617	184.0
106.729012	160.0
107.032944	236.0
107.049477	184.0
107.124161	160.0
107.179787	168.0
107.408623	144.0
107.503525	172.0
107.567299	196.0
107.58815	140.0
107.823624	148.0
107.869095	152.0
107.918709	148.0
108.055969	316.0
108.220207	184.0
108.409286	140.0
108.570984	204.0
108.656029	160.0
108.75563	152.0
108.880203	212.0
109.011078	144.0
109.025627	168.0
109.062027	192.0
109.094215	192.0
109.117554	204.0
109.385445	204.0
109.510376	160.0
109.624954	172.0
109.695824	164.0
109.749191	260.0
109.929413	200.0
110.105751	188.0
110.148628	232.0
110.368195	196.0
110.397346	156.0
110.52494	240.0
110.746269	160.0
110.815094	180.0
110.841118	200.0
110.873764	236.0
111.096909	220.0
111.134674	156.0
111.254295	164.0
111.455925	164.0
111.49585	180.0
111.544189	192.0
111.626328	172.0
111.650803	204.0
111.994476	148.0
112.171471	164.0
112.189705	228.0
112.210548	164.0
112.44989	172.0
112.572334	232.0
112.595566	180.0
112.618797	164.0
112.673721	164.0
112.707527	292.0
112.798401	180.0
112.997185	216.0
113.065788	124.0
113.185562	152.0
113.217323	160.0
113.270271	164.0
113.503403	176.0
113.717659	160.0
114.42765	140.0
114.777077	140.0
115.372261	192.0
115.895515	172.0
116.248772	200.0
116.525139	140.0
116.549385	148.0
116.603111	164.0
116.869759	140.0
116.987129	208.0
117.035492	196.0
117.199188	164.0
117.727676	160.0
118.478218	160.0
118.495544	180.0
118.65062	188.0
118.93576	152.0
119.049812	136.0
119.594345	148.0
119.646591	228.0
119.742401	184.0
119.792496	168.0
119.927063	164.0
119.979912	152.0
120.054047	264.0
120.212158	100.0
120.291862	208.0
120.435974	184.0
120.903847	184.0
121.030457	948.0
121.065544	1296.0
121.497643	160.0
121.969772	172.0
122.024727	220.0
122.071991	504.0
122.172073	316.0
122.264488	184.0
122.519905	152.0
122.663139	156.0
122.890289	184.0
122.949867	172.0
123.045319	388.0
123.080948	2736.0
123.11544	180.0
123.420387	144.0
123.570786	236.0
123.727921	268.0
123.814278	148.0
124.084167	204.0
124.179573	252.0
124.277565	140.0
124.313065	168.0
124.377426	188.0
124.488434	276.0
124.532852	236.0
124.641708	272.0
124.715042	152.0
124.741714	144.0
124.761726	148.0
124.77729	176.0
124.80619	224.0
124.939636	184.0
125.344849	176.0
125.523178	220.0
125.770813	188.0
125.786438	232.0
125.871277	176.0
126.016457	204.0
126.069817	164.0
126.450272	220.0
126.508942	132.0
126.7033	164.0
126.757492	128.0
126.819824	176.0
126.908676	164.0
127.38752	140.0
127.531326	148.0
127.74044	184.0
127.902451	212.0
127.958733	144.0
128.066818	160.0
128.18396	176.0
128.213257	148.0
128.316956	276.0
129.313126	148.0
129.727631	196.0
129.786575	180.0
130.244995	156.0
130.329056	144.0
130.392685	176.0
130.524536	148.0
130.57457	184.0
130.71788	200.0
130.863556	144.0
130.920486	172.0
131.050323	176.0
131.095886	176.0
131.479019	168.0
131.568039	216.0
131.711899	176.0
131.878082	224.0
132.029587	176.0
132.082184	224.0
132.132523	152.0
132.17897	148.0
132.842682	176.0
133.005615	140.0
133.027328	160.0
133.159439	168.0
133.283493	180.0
133.423691	224.0
133.660583	140.0
133.775665	164.0
133.94606	144.0
133.987534	192.0
134.022095	232.0
134.040527	152.0
134.145081	152.0
134.889832	152.0
135.044022	5140.0
135.225159	168.0
135.927399	160.0
135.997025	188.0
136.024872	140.0
136.052429	21636.0
136.115417	216.0
136.20134	188.0
136.386597	148.0
136.683121	192.0
136.704788	140.0
137.055695	1864.0
137.125046	168.0
137.229935	164.0
137.631256	228.0
137.79007	200.0
137.848145	136.0
138.015167	144.0
138.065369	212.0
138.114227	132.0
139.077835	536.0
139.218628	180.0
139.287003	148.0
139.357468	196.0
139.484375	148.0
139.503189	140.0
139.527267	164.0
139.667786	164.0
139.990219	152.0
140.044785	140.0
140.101486	220.0
140.270584	184.0
140.493256	160.0
140.65979	156.0
140.902817	140.0
141.014084	160.0
141.226868	204.0
141.411423	140.0
141.842499	208.0
141.870941	200.0
142.070145	196.0
142.340714	164.0
142.383469	212.0
142.704254	156.0
142.835052	184.0
143.392197	156.0
143.413651	156.0
143.530457	168.0
144.086578	164.0
144.124802	228.0
144.371017	148.0
144.433853	176.0
144.497787	148.0
144.696426	184.0
145.6409	140.0
145.677277	172.0
145.728027	160.0
145.82692	100.0
145.874313	164.0
146.006561	152.0
146.051987	140.0
146.230301	160.0
146.606415	164.0
146.673477	232.0
146.929092	168.0
147.003891	168.0
147.040497	160.0
147.523178	168.0
147.71904	184.0
148.00705	164.0
148.050415	292.0
148.118454	168.0
149.023026	132.0
149.061447	832.0
149.32962	144.0
149.862732	220.0
149.962646	188.0
150.032654	192.0
150.061569	176.0
150.157684	156.0
150.491989	248.0
150.51886	176.0
150.626312	180.0
150.741135	168.0
150.807632	172.0
151.039398	5716.0
151.076721	1980.0
151.147049	176.0
151.303696	216.0
151.461227	160.0
152.041245	772.0
152.078629	396.0
152.181396	168.0
152.323837	168.0
152.513046	168.0
152.817978	164.0
153.046051	144.0
153.091599	3088.0
153.34494	140.0
153.404099	156.0
153.431229	212.0
153.511139	160.0
153.633438	288.0
153.660583	164.0
153.717331	144.0
154.093307	260.0
154.173569	180.0
154.248322	176.0
154.401611	176.0
154.465927	272.0
154.593781	184.0
155.079987	164.0
155.146912	304.0
155.62822	172.0
155.985962	164.0
156.100327	144.0
156.555725	208.0
156.635422	232.0
156.769958	144.0
156.961899	168.0
157.049728	148.0
157.580902	204.0
157.800842	164.0
158.181091	168.0
158.216141	148.0
158.358871	172.0
158.544266	144.0
158.619446	168.0
158.709702	160.0
158.812378	208.0
158.857574	112.0
158.970581	180.0
159.03331	192.0
159.455261	160.0
159.744965	148.0
159.81485	168.0
160.033829	196.0
160.172333	140.0
160.599762	188.0
160.87587	192.0
160.936462	148.0
160.959198	212.0
160.999603	172.0
161.042526	172.0
161.071838	132.0
161.419083	144.0
161.489899	208.0
161.732788	200.0
162.051865	152.0
162.163361	156.0
162.447357	148.0
162.960175	156.0
163.055374	308.0
163.092316	152.0
163.127899	140.0
163.458527	192.0
163.892639	216.0
163.911789	144.0
164.039215	148.0
164.059601	172.0
164.358383	160.0
164.53479	164.0
164.753738	200.0
164.933136	256.0
165.055435	5020.0
165.262512	204.0
165.286774	124.0
165.63414	144.0
165.889404	224.0
165.907898	244.0
165.933533	168.0
165.982071	156.0
166.002518	144.0
166.06369	164052.0
166.131622	220.0
166.149445	192.0
166.219437	112.0
166.272125	180.0
166.295227	148.0
166.362152	232.0
166.411209	112.0
166.442871	188.0
166.485214	176.0
166.531006	168.0
166.569962	208.0
166.813522	148.0
166.853195	148.0
166.914352	192.0
167.06636	14848.0
167.097778	336.0
167.149826	172.0
167.276443	216.0
167.604172	188.0
167.640259	160.0
167.816772	220.0
167.920532	100.0
168.06781	996.0
168.1297	232.0
168.197571	132.0
168.243805	192.0
168.273697	168.0
168.309433	340.0
168.346863	152.0
168.392075	124.0
168.476608	164.0
168.713333	160.0
168.945312	140.0
169.034683	172.0
169.068329	168.0
169.085861	400.0
169.117493	208.0
169.2547	160.0
169.306915	244.0
169.420456	188.0
169.578522	208.0
169.806671	168.0
170.055405	580.0
170.101074	104.0
170.577835	200.0
170.853485	224.0
171.05368	120.0
171.49144	140.0
171.57843	140.0
171.77565	188.0
171.934814	148.0
172.080994	160.0
172.151489	256.0
172.29776	180.0
172.381439	144.0
172.846817	144.0
173.255249	148.0
173.315506	176.0
173.493729	160.0
173.611725	184.0
173.887177	176.0
174.257431	232.0
174.29422	180.0
174.320496	152.0
174.507187	144.0
175.125519	144.0
175.178207	144.0
175.302032	160.0
175.519836	172.0
175.779327	144.0
175.85585	156.0
176.503082	148.0
176.725266	164.0
177.976303	192.0
178.064545	124.0
178.202072	168.0
178.33493	180.0
178.529007	196.0
178.622101	140.0
178.824326	176.0
179.071259	240.0
179.111877	176.0
179.623657	140.0
179.670929	256.0
179.729034	128.0
179.802429	140.0
179.882492	140.0
179.901184	168.0
179.972748	108.0
180.002258	100.0
180.058716	168.0
180.084351	148.0
180.106125	144.0
180.144882	264.0
180.35907	144.0
180.424408	140.0
180.484055	168.0
180.553802	156.0
180.598221	432.0
180.641068	160.0
180.737701	320.0
180.769028	132.0
180.791412	440.0
180.830658	196.0
180.860489	464.0
180.896667	104.0
180.946365	296.0
180.959259	268.0
180.998077	372.0
181.020569	268.0
181.053665	516.0
181.087936	295048.0
181.1875	112.0
181.261246	196.0
181.303055	160.0
181.324097	284.0
181.332077	404.0
181.40625	228.0
181.434692	232.0
181.477692	176.0
181.500366	588.0
181.52803	7400.0
181.561264	232.0
181.655228	204.0
181.757278	124.0
181.817978	220.0
181.857315	168.0
181.924133	144.0
182.017212	156.0
182.053345	296.0
182.090378	60448.0
182.158386	184.0
182.194778	300.0
182.242813	140.0
182.280685	128.0
182.344635	120.0
182.383316	140.0
182.424057	240.0
182.445389	172.0
182.479218	200.0
182.560074	224.0
182.600296	268.0
182.699829	144.0
182.745651	132.0
183.061325	20860.0
183.091568	4312.0
183.134109	152.0
183.177612	176.0
183.186066	176.0
183.229828	112.0
183.297989	140.0
183.3423	140.0
183.358856	248.0
183.380966	112.0
183.431778	260.0
183.483429	180.0
183.522995	264.0
183.591385	124.0
183.645172	136.0
183.672729	124.0
183.969986	132.0
184.064697	2404.0
184.093658	392.0
184.123428	132.0
184.288223	204.0
184.400803	184.0
184.45845	116.0
184.499893	172.0
184.99733	104.0
185.064911	460.0
185.145096	120.0
185.286926	108.0
185.405899	124.0
185.462112	116.0
186.040207	212.0
186.332428	196.0
186.359604	172.0
186.571594	168.0
186.743927	148.0
187.46434	164.0
188.044006	596.0
188.075241	172.0
188.124374	208.0
188.301865	160.0
189.141251	184.0
189.353333	216.0
189.610855	96.0
189.861816	200.0
190.627716	232.0
191.086899	192.0
192.097946	172.0
194.095123	272.0
195.686829	152.0
196.102081	180.0
197.14006	176.0
197.948486	140.0
199.095428	164.0
199.291321	168.0
199.854401	216.0
199.924744	148.0
200.16684	176.0
200.471069	164.0
201.006836	212.0
201.051132	6156.0
201.179001	176.0
202.057114	1504.0
202.267303	140.0
202.32959	180.0
202.384064	232.0
202.56871	108.0
202.659393	148.0
202.691025	288.0
202.738297	324.0
202.81778	212.0
202.904694	108.0
202.945801	176.0
202.996811	148.0
203.068268	210260.0
203.151276	284.0
203.183594	140.0
203.221115	184.0
203.243866	116.0
203.271286	216.0
203.344131	252.0
203.405014	120.0
203.437561	248.0
203.473114	220.0
203.507065	112.0
203.533066	352.0
203.703857	144.0
203.743378	200.0
203.998108	248.0
204.026917	124.0
204.070572	30176.0
204.199692	288.0
204.266907	204.0
204.284912	172.0
204.342148	120.0
205.072617	1048.0
205.121292	104.0
205.16011	112.0
205.204269	128.0
205.271896	136.0
205.374863	156.0
205.404709	156.0
205.443085	172.0
205.546234	144.0
205.580566	120.0
205.610657	132.0
205.74321	212.0
206.081589	212.0
206.177078	124.0
206.504013	168.0
207.12355	184.0
208.106995	176.0
209.210785	104.0
211.069031	356.0
212.075058	168.0
214.470352	140.0
215.042007	232.0
217.750198	160.0
220.088364	144.0
220.634933	196.0
221.093399	152.0
221.11412	232.0
222.114197	352.0
222.851807	180.0
224.134598	148.0
225.877701	164.0
227.300766	200.0
232.039215	212.0
234.275955	188.0
234.983231	144.0
235.141006	308.0
243.935974	148.0
247.273407	164.0
251.163147	188.0
260.920624	152.0
264.06134	224.0
264.489655	192.0
265.029236	372.0
265.155701	9980.0
265.204712	164.0
265.781494	144.0
266.122894	212.0
266.160461	1568.0
266.700531	172.0
267.025665	168.0
267.138489	152.0
267.161163	372.0
267.682343	96.0
268.139404	224.0
268.174957	216.0
269.134033	240.0
273.484283	152.0
275.403229	148.0
280.778076	100.0
281.707855	140.0
282.152313	172.0
284.954102	196.0
285.046143	184.0
287.13562	360.0
287.300629	184.0
288.139893	244.0
290.490631	180.0
291.166077	152.0
297.28717	180.0
297.997955	148.0
301.170654	148.0
303.073334	168.0
304.065094	152.0
305.061951	144.0
305.225372	152.0
309.394714	168.0
316.453644	168.0
325.011566	156.0
331.034882	144.0
333.018646	156.0
334.225555	180.0
340.164429	144.0
347.404602	144.0
351.08313	164.0
352.303619	164.0
361.795624	216.0
365.52652	176.0
368.806274	140.0
369.705048	156.0
371.1185	192.0
375.236237	156.0
376.868835	164.0
380.327057	160.0
384.011627	148.0
384.835022	156.0
386.237976	196.0
394.531311	160.0
394.796234	144.0
395.888428	180.0
396.308319	148.0
397.859039	164.0
406.969879	144.0
407.28714	176.0
409.378448	148.0
410.656006	184.0
419.275391	192.0
419.695251	156.0
420.315247	148.0
424.503937	152.0
425.845917	160.0
429.669983	168.0
430.066132	152.0
431.193665	152.0
431.846893	172.0
436.479126	160.0
438.210632	140.0
438.42569	104.0
439.419708	160.0
440.185791	168.0
445.137238	148.0
445.355621	140.0
445.771545	200.0
447.538177	176.0
448.987732	140.0
449.223175	3444.0
449.291443	388.0
449.676575	136.0
450.173584	152.0
450.227234	1036.0
451.223663	288.0
451.267944	148.0
451.441315	144.0
454.290436	140.0
455.161804	152.0
460.758362	168.0
461.156921	116.0
461.502014	160.0
462.460236	148.0
462.858368	168.0
463.200989	180.0
463.320953	196.0
465.229309	156.0
465.550476	120.0
465.705933	148.0
466.00824	96.0
466.638428	192.0
467.225464	152.0
467.318329	96.0
467.373291	112.0
467.552704	160.0
467.926727	140.0
468.055634	216.0
468.137299	172.0
468.211029	104.0
468.26059	196.0
468.340302	176.0
468.396118	208.0
468.42868	112.0
468.52774	288.0
468.593201	124.0
468.892975	208.0
468.94516	100.0
468.982361	272.0
469.041718	216.0
469.07785	264.0
469.132233	264.0
469.231995	147888.0
469.339874	160.0
469.37149	200.0
469.531982	128.0
469.638519	416.0
469.726349	132.0
469.803101	196.0
469.85965	132.0
469.897064	200.0
469.944092	832.0
470.000671	304.0
470.04071	176.0
470.10672	288.0
470.234406	65360.0
470.344757	200.0
470.546722	184.0
470.624725	120.0
470.694885	168.0
470.733643	184.0
470.889923	136.0
470.941925	232.0
471.084442	268.0
471.235352	7860.0
471.35376	124.0
471.636902	100.0
471.740845	136.0
471.860413	148.0
471.920807	128.0
472.155182	260.0
472.239777	588.0
472.312134	280.0
472.366882	240.0
472.44577	96.0
472.526031	100.0
472.618958	100.0
472.659302	108.0
472.7146	224.0
472.828522	272.0
472.9133	144.0
472.988617	184.0
473.118896	156.0
473.195648	108.0
473.240021	212.0
473.283081	116.0
473.47345	160.0
473.56311	140.0
473.950958	120.0
474.062622	100.0
474.167908	200.0
474.938904	96.0
475.193756	96.0
476.249176	204.0
491.492981	160.0
503.500885	152.0
599.828491	144.0
639.800293	144.0
763.997803	196.0
844.511108	156.0
1036.829468	188.0
1123.983154	196.0
1147.505737	160.0
1173.582031	160.0
1253.033447	152.0
1255.980103	240.0
1261.516113	176.0
1275.388062	164.0
1294.500977	208.0
1316.029297	176.0
1325.22937	164.0
1331.315186	168.0
1337.189331	296.0
1358.23938	156.0
1401.376465	140.0
1423.547119	204.0
1437.375122	200.0
1445.505737	232.0
1447.754028	160.0
1449.882812	264.0
1457.615479	152.0
1466.199341	168.0
1467.58667	180.0
1480.584717	236.0
1489.450928	160.0
1490.480347	180.0
1490.872314	176.0
1490.979858	144.0
1507.958252	184.0
1516.88269	160.0
1539.9375	200.0
1550.805054	140.0
1557.859253	204.0
1557.969238	180.0
1570.800537	184.0
1574.691772	216.0
1582.512573	204.0
1582.829224	152.0
1588.908447	168.0
1594.315674	140.0
1595.889526	140.0
1617.59729	144.0
1618.237671	156.0
1618.549927	180.0
1621.594116	148.0
1622.700317	232.0
1633.509644	220.0
1640.15271	208.0
1652.524536	184.0
1652.953369	176.0
1658.979126	160.0
1659.092651	184.0
1663.497559	200.0
1665.356934	180.0
1674.53125	220.0
1675.386597	168.0
1681.648926	192.0
1684.612915	156.0
1686.386108	156.0
1687.342407	140.0
1690.123291	184.0
1700.555298	224.0
1700.826172	184.0
1706.848022	152.0
1708.443604	148.0
1711.241821	220.0
1712.872314	160.0
1715.84729	176.0
1717.042847	148.0
1722.366455	216.0
1724.398804	148.0
1728.335327	204.0
1735.325806	148.0
1738.8927	140.0
1741.657593	160.0
1746.653076	204.0
1746.973999	164.0
1751.51416	144.0
1755.623047	172.0
1755.914917	168.0
1761.891479	208.0
1768.43042	164.0
1768.606201	156.0
1768.756836	164.0
1770.589111	176.0
1772.575928	188.0
1776.11377	200.0
1778.773682	192.0
1782.368164	176.0
1784.150024	172.0
1786.627563	236.0
1788.330566	160.0
1789.786987	208.0
1789.879639	160.0
1790.822754	144.0
1792.111694	160.0
1793.316772	144.0
1796.701172	172.0
1802.980225	176.0
1806.725952	196.0
1807.047363	172.0
1807.580444	160.0
1807.69043	144.0
1808.731445	168.0
1810.958252	252.0
1812.491699	184.0
1813.152588	228.0
1817.384033	220.0
1826.29541	176.0
1830.610229	180.0
1830.865723	160.0
1831.83667	172.0
1833.412964	160.0
1836.192139	160.0
1839.391724	164.0
1840.817505	160.0
1841.552002	160.0
1841.623779	120.0
1843.209351	180.0
1845.118896	196.0
1847.090698	164.0
1848.570801	140.0
1853.802979	152.0
1853.928955	124.0
1857.463867	168.0
1867.066162	168.0
1868.149902	160.0
1871.015625	188.0
1871.144775	208.0
1877.452026	160.0
1879.988281	176.0
1886.40564	148.0
1892.660645	184.0
1897.165771	204.0
1901.641602	224.0
1904.78479	144.0
1908.038818	176.0
1915.571045	148.0
1921.734619	188.0
1924.056152	148.0
1924.20459	148.0
1924.658569	176.0
1930.504395	200.0
1932.48999	148.0
1933.365112	204.0
1934.222778	144.0
1936.166504	164.0
1937.007324	188.0
1937.611694	156.0
1939.793823	192.0
1940.039307	192.0
1940.161987	148.0
1946.119141	196.0
1951.003906	216.0
1953.061523	224.0
1954.244141	168.0
1955.199585	152.0
1959.866577	176.0
1960.862427	184.0
1961.444092	224.0
1962.863525	148.0
1965.430298	164.0
1965.90686	156.0
1967.151245	180.0
1970.948853	188.0
1972.734131	148.0
1973.697876	148.0
1973.830444	188.0
1977.080688	164.0
1977.926636	148.0
1978.776489	148.0
1979.130615	168.0
1980.033813	144.0
1980.414673	188.0
1981.03479	140.0
1982.921997	144.0
1983.655396	216.0
1985.490234	156.0
1986.903442	156.0
1987.790649	144.0
1988.615967	164.0
1991.563721	160.0
1991.927856	140.0
1997.616943	176.0
1999.004883	208.0
1999.298584	140.0
1999.82373	180.0
2001.702148	140.0
2002.459106	184.0
2002.931152	168.0
END IONS

BEGIN IONS
PEPMASS=230.025
CHARGE=1
MSLEVEL=2
SOURCE_INSTRUMENT=LC-ESI-qTof
FILENAME=NCP003512_E2_F11_BD6_01_15730.mzXML
SEQ=*..*
IONMODE=Positive
ORGANISM=GNPS-NIH-CLINICALCOLLECTION1
NAME="1H-Imidazol-2-amine, N-(2,6-dichlorophenyl)-4,5-dihydro- [CAS]" [M+H]
PI=Dorrestein
DATACOLLECTOR=Garg_Neha
SMILES=Clc1cccc(Cl)c1NC2=NCCN2
INCHI=N/A
INCHIAUX=N/A
PUBMED=N/A
SUBMITUSER=negarg
LIBRARYQUALITY=1
SPECTRUMID=CCMSLIB00000079123
USI=mzspec:GNPS:GNPS-NIH-CLINICALCOLLECTION1:accession:CCMSLIB00000079123
SCANS=967
46.76791	156.0
46.837353	140.0
46.879589	184.0
46.980484	220.0
47.307095	168.0
47.674683	160.0
50.734604	172.0
53.373714	196.0
55.807308	228.0
56.9911	176.0
63.272003	144.0
63.81142	144.0
64.586449	192.0
64.618439	148.0
65.144279	172.0
67.069923	160.0
69.300041	208.0
69.601913	140.0
70.760712	156.0
72.163902	188.0
74.366585	172.0
75.604034	140.0
75.858643	208.0
76.08242	164.0
78.255615	160.0
78.278511	176.0
79.175606	144.0
80.266716	204.0
80.67379	156.0
81.087265	196.0
81.494606	160.0
81.695969	192.0
83.432076	164.0
84.630745	144.0
84.878105	188.0
85.89698	172.0
87.939903	180.0
88.055656	184.0
88.73867	256.0
88.976936	152.0
90.023827	140.0
91.746666	140.0
92.353897	160.0
92.417023	160.0
92.683174	144.0
93.990692	184.0
96.148605	156.0
96.601906	148.0
98.569969	236.0
100.388298	160.0
100.777527	236.0
100.829483	176.0
100.969429	176.0
101.075455	144.0
101.431938	144.0
101.92765	152.0
103.967224	160.0
104.637993	140.0
105.051697	192.0
105.343613	144.0
105.936844	140.0
108.722466	188.0
109.589569	200.0
111.168282	156.0
111.361427	204.0
113.987404	164.0
117.057068	176.0
117.518333	152.0
118.067001	152.0
118.27903	144.0
118.918434	212.0
119.013954	212.0
119.903664	160.0
120.529953	168.0
121.61618	168.0
121.903877	200.0
122.198517	144.0
123.020546	212.0
125.992905	288.0
126.15506	228.0
127.365097	184.0
127.717987	268.0
128.317001	156.0
129.043976	156.0
129.686874	176.0
129.968079	156.0
130.040695	204.0
130.310928	148.0
132.96492	176.0
133.453629	152.0
133.702057	244.0
134.631104	152.0
134.954071	156.0
136.113144	164.0
136.610504	212.0
138.379486	176.0
138.512985	160.0
138.648865	152.0
140.199921	152.0
141.025955	232.0
142.051224	144.0
144.965881	228.0
145.965729	156.0
149.008804	160.0
149.514572	164.0
151.019089	636.0
151.291504	180.0
151.460464	148.0
152.014496	292.0
152.471313	204.0
153.018356	172.0
153.300644	168.0
154.013641	140.0
155.018082	172.0
155.464447	144.0
155.86673	196.0
156.49353	204.0
156.540833	148.0
157.101624	180.0
157.481033	232.0
157.743393	176.0
158.069839	136.0
158.975647	140.0
159.078537	772.0
159.972198	572.0
160.08519	280.0
160.313477	200.0
160.983261	196.0
161.0914	148.0
161.970535	332.0
163.939697	124.0
163.980637	576.0
163.99855	152.0
164.475449	180.0
164.986343	144.0
165.020798	124.0
165.626083	144.0
166.01442	176.0
166.36972	144.0
166.518646	152.0
167.027557	176.0
167.624847	200.0
169.31691	140.0
169.441238	168.0
170.96022	140.0
171.972275	1368.0
172.967194	140.0
173.967972	588.0
174.186569	152.0
175.115051	176.0
175.615814	180.0
176.085617	172.0
176.690933	160.0
177.02179	156.0
178.515778	196.0
178.877609	176.0
178.962799	208.0
179.20517	176.0
180.903702	204.0
181.053635	140.0
181.947067	140.0
182.952164	160.0
184.854782	172.0
184.900787	140.0
184.964417	288.0
185.985153	240.0
186.256439	152.0
186.680405	192.0
186.925232	172.0
186.983398	1144.0
187.456223	260.0
187.938858	160.0
187.98378	140.0
188.564209	184.0
188.791107	224.0
188.97879	724.0
189.974335	148.0
190.965927	184.0
192.034561	144.0
192.343597	140.0
194.047348	844.0
194.078186	184.0
194.21962	188.0
195.055435	148.0
196.038681	160.0
196.656982	160.0
197.060562	244.0
197.53714	168.0
197.920563	152.0
198.854065	176.0
200.989975	176.0
203.009674	188.0
203.679474	188.0
204.07164	180.0
205.5271	148.0
207.254105	196.0
208.439148	208.0
208.625961	144.0
210.29953	208.0
210.518936	144.0
212.492981	164.0
212.998428	2312.0
213.509644	144.0
214.003235	284.0
214.931198	152.0
214.995224	2348.0
216.015076	156.0
216.386734	144.0
219.504196	192.0
220.779892	140.0
220.995834	184.0
223.2948	156.0
223.503036	284.0
224.814148	196.0
225.599686	164.0
228.000534	196.0
228.075668	144.0
228.12677	184.0
228.680222	232.0
229.229889	300.0
229.376007	204.0
229.644821	128.0
229.882614	164.0
229.906128	196.0
229.937515	144.0
229.9758	260.0
230.026321	124412.0
230.089066	140.0
230.187576	144.0
230.289032	296.0
230.354233	264.0
230.38765	196.0
230.523041	400.0
230.650314	144.0
230.756775	192.0
230.862961	152.0
230.92215	104.0
230.982925	144.0
231.027725	9536.0
231.082962	124.0
231.200256	168.0
231.294083	120.0
231.420151	112.0
231.572647	140.0
231.660278	228.0
231.680435	248.0
231.767593	136.0
231.826508	156.0
231.931183	120.0
231.951706	196.0
232.022659	60376.0
232.083176	128.0
232.128128	160.0
232.296478	176.0
232.321884	224.0
232.401642	132.0
232.453781	256.0
232.51709	428.0
232.656754	144.0
232.686554	304.0
232.741501	164.0
232.862106	152.0
232.901001	104.0
233.02507	3312.0
234.034058	208.0
234.702286	168.0
240.468277	96.0
241.981628	148.0
242.638428	156.0
243.033005	108.0
244.39035	100.0
580.31189	152.0
1329.406494	168.0
1516.418091	168.0
1570.256836	168.0
1707.506592	192.0
1765.042969	184.0
1945.364746	156.0
1949.668579	168.0
END IONS

BEGIN IONS
PEPMASS=358.201
CHARGE=1
MSLEVEL=2
SOURCE_INSTRUMENT=LC-ESI-qTof
FILENAME=NCP003592_C2_D11_BE1_01_15735.mzXML
SEQ=*..*
IONMODE=Positive
ORGANISM=GNPS-NIH-CLINICALCOLLECTION1
NAME=Nalbuphine [M+H]
PI=Dorrestein
DATACOLLECTOR=Garg_Neha
SMILES=OC1CC[C@@]2(O)[C@H]3Cc4ccc(O)c5OC1[C@]2(CCN3CC6CCC6)c54
INCHI=N/A
INCHIAUX=N/A
PUBMED=N/A
SUBMITUSER=negarg
LIBRARYQUALITY=1
SPECTRUMID=CCMSLIB00000079174
USI=mzspec:GNPS:GNPS-NIH-CLINICALCOLLECTION1:accession:CCMSLIB00000079174
SCANS=1014
45.583416	172.0
45.646595	140.0
46.269962	144.0
46.67429	176.0
46.967876	160.0
47.364861	188.0
47.52663	184.0
47.56094	164.0
48.0812	152.0
48.219307	168.0
48.864113	148.0
48.932312	144.0
49.233498	188.0
49.77544	184.0
49.851295	168.0
49.870972	160.0
49.927208	188.0
50.502644	156.0
50.879578	160.0
51.491875	144.0
51.611912	152.0
51.770752	140.0
51.980042	144.0
52.332203	152.0
52.359562	144.0
52.558495	180.0
52.893787	240.0
53.163364	180.0
53.818409	156.0
54.38789	148.0
54.786396	140.0
55.004642	168.0
55.14053	140.0
55.734776	188.0
55.770439	152.0
55.98468	232.0
56.106861	164.0
56.260521	140.0
56.540035	220.0
56.571468	140.0
56.62088	176.0
57.060539	144.0
57.131222	152.0
57.188404	152.0
57.417412	192.0
57.966171	160.0
58.477959	228.0
58.502316	196.0
58.632534	156.0
58.889622	148.0
59.163338	176.0
59.352722	152.0
59.646507	140.0
59.698826	164.0
59.729584	164.0
61.385242	180.0
61.414875	164.0
61.786655	160.0
62.236473	208.0
63.151211	120.0
63.213776	140.0
63.247009	200.0
64.219421	156.0
64.30558	140.0
64.915108	156.0
65.723068	124.0
66.730049	208.0
66.790215	204.0
67.514366	148.0
67.551987	164.0
69.052101	144.0
70.182991	192.0
70.291412	168.0
70.54361	140.0
71.519867	144.0
71.757393	180.0
71.954788	184.0
72.030777	144.0
72.066254	140.0
72.199799	204.0
72.299606	140.0
72.725006	160.0
72.903336	160.0
72.927132	144.0
73.172089	140.0
73.592613	148.0
74.368698	160.0
74.396164	196.0
74.645294	172.0
75.138107	200.0
75.234543	272.0
75.787987	188.0
76.588852	160.0
76.846863	140.0
76.976021	160.0
76.993484	192.0
77.204948	172.0
77.499023	156.0
77.517952	240.0
78.215546	196.0
78.492142	144.0
79.662018	232.0
79.796082	248.0
79.966827	208.0
80.06221	216.0
80.084129	216.0
80.122887	128.0
80.541382	172.0
80.790459	180.0
81.255524	216.0
81.500992	192.0
81.829575	144.0
81.84758	176.0
82.087234	284.0
82.256828	156.0
83.330742	172.0
83.392441	172.0
84.448196	224.0
84.874886	204.0
85.175865	176.0
85.218117	172.0
85.313942	144.0
86.274155	140.0
86.486877	172.0
87.511612	148.0
88.306572	188.0
88.355743	236.0
88.488083	176.0
88.643547	144.0
88.664162	208.0
88.874184	168.0
88.90377	172.0
89.067192	188.0
89.101364	212.0
89.577309	156.0
89.762009	140.0
89.83934	144.0
89.871414	164.0
89.897827	212.0
89.971436	160.0
90.101532	172.0
90.300224	164.0
90.36454	152.0
90.517746	136.0
90.540581	168.0
90.832466	192.0
91.722366	168.0
91.771935	148.0
91.836777	216.0
91.953156	324.0
92.031425	152.0
92.102081	156.0
92.681961	180.0
92.702827	172.0
92.825508	220.0
92.896286	164.0
93.153702	140.0
93.167152	188.0
93.372818	164.0
93.671158	164.0
93.927528	164.0
94.066887	160.0
94.18811	164.0
94.766541	180.0
94.797546	172.0
94.876793	176.0
95.150558	172.0
95.453659	144.0
95.605392	148.0
95.642372	164.0
95.901428	148.0
95.936508	176.0
96.078873	288.0
96.176445	156.0
96.309212	208.0
96.719826	148.0
96.950935	148.0
97.065964	212.0
97.129349	144.0
97.165627	132.0
97.638046	236.0
97.96373	216.0
98.058212	176.0
98.097389	644.0
98.224991	196.0
98.353249	140.0
98.418396	160.0
98.560608	156.0
98.740501	156.0
98.817642	160.0
98.880966	140.0
99.071053	188.0
99.346611	148.0
99.725868	156.0
100.496544	144.0
101.035973	188.0
101.649078	164.0
102.072914	164.0
102.206223	176.0
102.26403	148.0
102.447273	156.0
102.814178	140.0
102.838455	152.0
103.34771	172.0
103.625092	176.0
104.703819	148.0
104.887085	140.0
104.974747	184.0
105.078773	168.0
105.146423	176.0
105.215515	160.0
105.631264	160.0
106.066826	360.0
106.240807	164.0
106.291992	160.0
106.333138	212.0
106.622719	156.0
106.665878	176.0
107.048553	152.0
107.133003	168.0
107.16275	152.0
107.84903	168.0
107.99334	136.0
108.039276	144.0
108.08065	168.0
108.476219	260.0
109.084435	152.0
109.105225	180.0
109.613075	176.0
110.095001	152.0
110.159698	168.0
110.389603	176.0
110.777184	196.0
110.833366	180.0
111.019928	168.0
111.786682	220.0
111.889816	172.0
112.028809	152.0
112.077271	152.0
112.115967	372.0
112.197403	180.0
112.450531	160.0
112.598312	140.0
112.6782	132.0
112.783867	272.0
112.839203	208.0
112.913216	148.0
113.050728	180.0
113.086212	208.0
113.366257	176.0
113.576149	172.0
114.477272	196.0
114.598686	152.0
114.613602	172.0
114.96331	184.0
114.999588	152.0
115.208847	140.0
115.260124	196.0
116.058517	152.0
116.220284	172.0
116.281616	144.0
116.762863	208.0
117.461403	248.0
117.96817	160.0
118.064964	476.0
118.169289	172.0
118.524384	160.0
118.565552	216.0
118.86264	196.0
118.956108	124.0
119.075386	176.0
119.322052	148.0
119.688637	152.0
119.932632	204.0
119.967506	216.0
120.080864	340.0
120.287506	192.0
120.349304	148.0
120.775444	148.0
120.852013	172.0
121.086243	160.0
121.10376	156.0
121.281021	120.0
121.310738	140.0
121.419365	212.0
121.647552	148.0
121.715614	208.0
121.7771	184.0
122.081398	148.0
122.308365	232.0
122.716743	180.0
122.831421	168.0
122.846863	156.0
123.045776	104.0
123.58033	168.0
123.843765	176.0
123.921295	164.0
123.990532	180.0
124.027672	188.0
124.113815	1188.0
124.176224	176.0
124.380348	140.0
124.451393	188.0
125.114647	340.0
125.255157	152.0
125.327736	140.0
125.350014	208.0
126.034149	200.0
126.091148	148.0
126.228874	196.0
126.450989	176.0
126.574112	148.0
127.300644	172.0
127.336578	156.0
127.356789	152.0
127.752411	148.0
127.790649	172.0
127.828903	156.0
128.148636	208.0
128.2771	156.0
128.674133	160.0
128.735107	144.0
129.079529	200.0
129.315903	164.0
129.397614	168.0
129.764633	152.0
130.065277	160.0
130.268448	168.0
130.527542	164.0
130.559387	152.0
130.852905	192.0
130.87796	152.0
130.939438	176.0
131.047684	120.0
131.075974	304.0
131.210602	216.0
131.552795	204.0
131.692078	160.0
132.015472	232.0
132.082214	380.0
132.434204	240.0
132.505859	120.0
133.061447	148.0
133.083801	120.0
133.245178	160.0
133.495239	132.0
133.534821	144.0
134.057068	164.0
134.095291	200.0
134.500229	192.0
134.576401	156.0
135.533981	160.0
135.6035	208.0
135.628036	148.0
136.025635	148.0
136.075928	1228.0
136.113861	332.0
136.134766	152.0
136.163086	164.0
136.569366	164.0
136.947159	164.0
137.05896	1788.0
137.135147	164.0
137.725449	176.0
137.969223	136.0
138.089447	168.0
138.164917	192.0
138.18129	168.0
138.314194	156.0
138.388138	180.0
138.53714	192.0
138.649612	148.0
138.687103	212.0
138.792603	172.0
139.050644	168.0
139.118713	200.0
139.137497	148.0
139.169617	104.0
139.696793	160.0
140.059296	156.0
140.368042	140.0
140.714951	136.0
141.074219	376.0
141.779312	156.0
142.089294	180.0
142.432571	176.0
142.598083	172.0
142.772781	152.0
142.864395	144.0
143.085724	144.0
143.323898	160.0
143.790131	220.0
143.848587	148.0
143.953629	156.0
144.066528	164.0
144.08226	360.0
144.264236	160.0
144.401566	156.0
144.51535	172.0
144.773865	152.0
145.066757	156.0
145.103455	184.0
145.176468	164.0
145.690109	144.0
145.800629	152.0
145.858322	208.0
146.03624	144.0
146.060989	432.0
146.098785	180.0
146.125244	168.0
146.179443	132.0
146.293716	144.0
146.536957	160.0
146.941238	140.0
147.044113	628.0
147.077576	340.0
147.102173	320.0
147.137482	148.0
147.797302	168.0
148.003036	148.0
148.07605	2340.0
148.113373	808.0
148.23848	164.0
148.77887	172.0
149.060532	1136.0
149.080063	920.0
149.114624	544.0
149.235626	160.0
149.269653	188.0
149.503189	164.0
149.68576	204.0
149.702805	168.0
149.744202	144.0
149.817276	196.0
149.885498	144.0
150.06395	152.0
150.090134	332.0
150.1259	156.0
150.566101	140.0
150.641815	172.0
150.705338	204.0
151.066833	120.0
151.091568	152.0
151.140564	148.0
151.510269	168.0
152.063553	540.0
152.214172	192.0
152.42543	144.0
152.508987	144.0
152.57663	208.0
152.631897	156.0
153.069702	400.0
153.303909	156.0
153.466019	136.0
153.508713	136.0
153.668854	156.0
154.071899	264.0
154.122192	180.0
154.170105	200.0
154.217056	196.0
154.582031	132.0
154.632568	180.0
155.016434	192.0
155.056076	256.0
155.086624	1280.0
155.177536	160.0
155.222168	152.0
155.528702	144.0
155.591858	172.0
155.780594	180.0
155.863831	184.0
155.969452	172.0
156.004242	216.0
156.079987	300.0
156.26532	160.0
156.33754	200.0
156.78331	200.0
157.065247	1732.0
157.373581	168.0
157.47937	164.0
157.586792	204.0
157.744232	160.0
157.871506	208.0
158.066864	256.0
158.096436	308.0
158.239563	188.0
158.364777	140.0
158.642899	204.0
158.705582	140.0
158.735672	164.0
158.900269	128.0
159.077515	452.0
159.497742	132.0
159.710098	204.0
159.830856	172.0
159.979721	132.0
160.054871	152.0
160.078766	148.0
160.505844	144.0
160.751663	160.0
160.836395	144.0
161.059662	7300.0
161.12175	160.0
161.184906	156.0
161.344086	172.0
161.713455	184.0
161.894913	112.0
162.063965	648.0
162.095291	144.0
162.126022	512.0
162.178497	164.0
162.818253	156.0
163.074982	288.0
163.100861	144.0
163.197464	144.0
163.372955	140.0
163.479813	168.0
163.580902	200.0
164.059219	164.0
164.918213	208.0
165.069427	1388.0
165.255508	196.0
165.376038	168.0
165.947296	204.0
166.018112	176.0
166.037048	144.0
166.075226	140.0
166.119766	472.0
166.619705	140.0
167.082077	564.0
167.125076	192.0
167.167374	172.0
167.450562	148.0
168.051651	156.0
168.080933	136.0
168.110535	204.0
168.304123	196.0
168.345444	176.0
168.665802	172.0
168.720093	292.0
169.067215	156.0
169.099792	308.0
169.359253	264.0
169.556152	164.0
169.62355	152.0
169.807632	164.0
169.880692	208.0
169.939926	148.0
170.065521	132.0
170.101135	408.0
170.35791	200.0
170.480026	164.0
170.552795	152.0
170.649017	148.0
170.864944	124.0
171.026581	184.0
171.045181	312.0
171.07933	556.0
171.299591	156.0
171.342117	184.0
171.677521	144.0
172.080658	400.0
172.116302	156.0
172.262161	164.0
172.71698	344.0
172.813782	168.0
173.059586	2020.0
173.098404	324.0
173.295532	192.0
173.901291	236.0
173.969528	140.0
174.06221	308.0
174.100815	156.0
174.125137	196.0
174.27681	168.0
174.324112	144.0
174.430283	140.0
174.602768	164.0
174.90007	204.0
175.039062	152.0
175.074875	1088.0
175.24646	120.0
175.403839	172.0
175.77504	144.0
175.933395	148.0
176.069199	288.0
176.104401	288.0
176.149933	216.0
176.345459	196.0
176.387756	268.0
176.424759	172.0
176.530518	160.0
176.996246	152.0
177.061996	144.0
177.091583	148.0
177.126007	172.0
177.149857	140.0
177.65004	152.0
178.08287	128.0
178.12355	160.0
178.349228	252.0
178.490128	164.0
178.583206	168.0
178.665665	164.0
178.705582	152.0
179.046295	144.0
179.08812	644.0
179.130676	548.0
179.563324	188.0
179.584671	176.0
179.654022	152.0
179.689957	204.0
180.067749	156.0
180.086441	140.0
180.297501	240.0
180.499496	128.0
181.063675	960.0
181.10051	704.0
181.606705	152.0
181.829391	192.0
182.066971	392.0
182.097107	796.0
182.470261	168.0
182.869492	168.0
183.040344	208.0
183.08049	2196.0
183.343491	188.0
184.050797	248.0
184.083817	664.0
184.109772	448.0
184.647461	200.0
184.836823	160.0
185.060165	16308.0
185.148132	224.0
185.475204	112.0
185.585144	192.0
185.842072	204.0
185.874619	188.0
185.961472	156.0
186.063263	1588.0
186.131439	236.0
186.676834	124.0
187.07515	2896.0
187.143982	196.0
187.200928	188.0
187.343338	160.0
187.552612	144.0
188.013535	176.0
188.076157	684.0
188.146042	132.0
188.199158	192.0
188.283798	212.0
188.535141	204.0
188.628067	144.0
188.737427	260.0
188.797577	160.0
189.089905	332.0
189.112137	156.0
189.147415	556.0
190.091064	128.0
190.841431	200.0
191.021957	168.0
191.089401	324.0
191.63443	252.0
191.994217	144.0
192.064484	156.0
192.090744	140.0
192.114822	176.0
192.138367	336.0
192.214905	164.0
192.34462	224.0
192.532364	148.0
192.565506	152.0
192.88324	156.0
193.068695	976.0
193.096237	156.0
193.281494	200.0
193.395126	128.0
193.766022	216.0
193.945084	116.0
193.991898	128.0
194.072601	436.0
194.110443	180.0
194.348251	228.0
194.54808	208.0
194.605225	164.0
194.71109	272.0
194.959152	140.0
195.084045	720.0
195.25383	188.0
195.454132	184.0
195.534836	148.0
195.630798	112.0
195.66008	200.0
196.086609	536.0
196.122498	156.0
196.37677	212.0
196.43898	160.0
196.683136	196.0
196.769684	164.0
197.062134	800.0
197.097534	620.0
197.15332	112.0
197.245163	96.0
197.297516	128.0
197.56337	184.0
197.963318	152.0
198.070068	388.0
198.093933	844.0
198.122787	368.0
198.268967	184.0
198.442749	160.0
198.474686	124.0
199.075623	3936.0
199.13588	476.0
199.166763	172.0
199.212997	132.0
199.272659	184.0
199.397156	232.0
199.478668	148.0
199.644562	176.0
199.68956	160.0
199.712051	152.0
199.866776	156.0
200.073715	928.0
200.107132	1832.0
200.144104	7508.0
200.207382	172.0
200.297516	200.0
200.339462	184.0
200.570831	220.0
201.090256	1804.0
201.14592	1488.0
201.763	136.0
202.087769	1324.0
202.342056	152.0
202.39592	152.0
202.687592	184.0
202.801743	172.0
203.047623	212.0
203.10788	184.0
203.407959	144.0
203.606705	144.0
204.094421	152.0
204.137878	1604.0
204.186813	140.0
204.25473	184.0
204.294556	144.0
204.799362	152.0
204.883835	144.0
204.975006	188.0
205.062881	120.0
205.086197	264.0
205.128174	332.0
205.507507	216.0
205.796478	152.0
205.903534	196.0
206.147812	140.0
206.442261	152.0
207.080505	584.0
207.177841	216.0
207.313889	116.0
207.353241	176.0
207.393631	208.0
207.459717	156.0
207.75119	176.0
208.055389	156.0
208.081223	284.0
208.110672	456.0
208.184586	152.0
208.474731	176.0
208.67778	188.0
208.828354	180.0
208.943405	176.0
209.061325	760.0
209.094559	1224.0
209.610046	156.0
209.92453	196.0
210.061874	272.0
210.09256	1100.0
210.301346	132.0
210.43631	160.0
210.829163	204.0
211.005478	180.0
211.075806	9748.0
211.165405	144.0
211.2108	172.0
211.2547	100.0
211.426346	156.0
211.659363	336.0
211.786789	168.0
212.077362	1712.0
212.104767	556.0
212.463623	252.0
212.666733	132.0
212.778534	140.0
213.081161	2488.0
213.382828	180.0
213.48526	164.0
213.583481	212.0
213.859894	168.0
214.086594	1240.0
214.125153	304.0
214.17218	128.0
214.544434	200.0
214.649887	96.0
214.850647	152.0
214.960449	112.0
215.095093	1188.0
215.355637	152.0
215.616928	152.0
215.707779	124.0
215.849518	204.0
216.099472	1276.0
216.139862	2064.0
216.197479	152.0
216.329086	144.0
216.790863	132.0
216.991302	100.0
217.081436	504.0
217.104553	252.0
217.145355	2036.0
217.73674	168.0
217.82486	168.0
217.930618	144.0
218.087189	128.0
218.118698	168.0
218.147873	596.0
218.877731	160.0
219.084198	388.0
219.278366	148.0
219.310791	144.0
219.549591	140.0
219.734543	160.0
220.151611	148.0
220.268341	192.0
220.387924	180.0
220.458832	180.0
220.618439	144.0
220.916351	152.0
221.063324	108.0
221.089188	104.0
221.144119	220.0
221.208344	200.0
221.245605	160.0
221.328506	188.0
221.689896	188.0
222.069778	276.0
222.624344	216.0
222.828552	176.0
223.073685	168.0
223.095505	176.0
223.547577	196.0
224.109634	144.0
224.52597	156.0
224.546844	184.0
224.704941	152.0
224.842209	160.0
224.949661	144.0
224.975357	144.0
224.997421	204.0
225.090042	2388.0
225.334244	148.0
225.594894	208.0
225.872986	216.0
225.91188	148.0
226.086533	3328.0
226.120056	904.0
226.849182	280.0
227.068832	680.0
227.107758	1864.0
227.316254	120.0
227.581207	160.0
227.942978	144.0
228.1026	19036.0
228.231842	176.0
228.302368	164.0
228.356506	208.0
228.727371	124.0
228.821823	220.0
229.086685	6656.0
229.380859	152.0
229.427628	200.0
229.533386	140.0
229.621445	148.0
229.68219	188.0
229.933319	196.0
230.093384	708.0
230.117935	3360.0
230.198502	196.0
230.40567	144.0
230.607132	136.0
230.814285	224.0
231.116318	480.0
231.243851	152.0
231.644928	96.0
231.668259	332.0
231.731384	184.0
232.098053	164.0
232.272293	132.0
232.437866	164.0
232.510696	156.0
232.751877	212.0
233.048172	204.0
233.09375	160.0
233.251785	156.0
233.466629	300.0
233.564972	180.0
233.713409	212.0
233.969254	136.0
234.094528	240.0
234.17981	180.0
234.61554	164.0
234.646027	140.0
234.783249	180.0
235.07518	160.0
235.09903	232.0
235.453186	176.0
235.805984	156.0
236.032196	156.0
236.106522	508.0
236.497208	232.0
236.797577	112.0
237.089584	3324.0
237.26915	192.0
237.554337	196.0
238.093552	448.0
238.152466	196.0
238.722626	200.0
238.941513	132.0
239.103134	720.0
239.678772	160.0
239.731155	140.0
239.785736	124.0
240.104279	304.0
240.59787	172.0
240.900513	144.0
241.051895	148.0
241.082352	164.0
241.108826	392.0
241.302261	188.0
241.435226	160.0
241.816986	160.0
242.075424	252.0
242.116302	1108.0
242.487823	164.0
243.101501	732.0
243.216705	164.0
244.096893	1136.0
244.132568	680.0
244.245193	244.0
244.384277	276.0
244.60614	144.0
245.063934	172.0
245.122162	488.0
245.48999	116.0
245.740494	156.0
245.877792	156.0
245.994949	112.0
246.116684	148.0
246.212631	144.0
246.919785	160.0
247.002594	168.0
247.123962	216.0
247.378098	152.0
248.108002	192.0
248.142487	164.0
248.396515	148.0
249.093369	160.0
249.514465	172.0
250.092819	140.0
250.129883	148.0
250.1539	372.0
250.184555	196.0
250.921753	188.0
251.107254	428.0
251.145645	216.0
251.398026	204.0
251.429596	160.0
251.558578	148.0
252.029572	192.0
252.101379	956.0
252.140488	312.0
252.173965	288.0
252.206543	140.0
252.263443	140.0
252.715683	148.0
253.051071	120.0
253.112671	464.0
253.447083	164.0
253.548492	152.0
253.710419	140.0
253.875015	164.0
254.005051	176.0
254.029221	136.0
254.065323	160.0
254.118149	27524.0
254.167236	132.0
254.504333	184.0
254.641129	152.0
254.738007	164.0
255.122086	4292.0
255.224564	160.0
255.507767	196.0
255.801331	164.0
255.831665	156.0
256.095062	760.0
256.124603	636.0
256.167938	240.0
256.246246	184.0
256.786865	148.0
257.110443	196.0
257.841705	148.0
258.129303	204.0
258.750153	212.0
259.096039	188.0
259.19696	184.0
259.362	196.0
259.454956	200.0
259.605652	156.0
259.634521	184.0
259.857971	184.0
260.273804	144.0
260.433655	176.0
260.456146	140.0
261.128632	160.0
261.189636	208.0
261.610565	164.0
261.700684	140.0
261.852051	148.0
262.101746	240.0
262.596527	188.0
262.841705	152.0
263.015991	144.0
263.135437	152.0
263.658722	184.0
263.694275	172.0
263.781525	144.0
263.891449	172.0
264.114594	248.0
265.085846	188.0
265.461853	268.0
265.628204	184.0
266.023163	144.0
266.114349	280.0
266.153198	424.0
266.19278	148.0
266.297119	220.0
266.373871	144.0
266.96582	132.0
267.004395	212.0
267.106903	156.0
267.163635	252.0
267.788757	144.0
267.89624	144.0
267.96698	112.0
268.017883	144.0
268.132233	2600.0
268.168365	584.0
268.493774	112.0
268.565979	172.0
269.105194	320.0
269.135651	220.0
269.355896	172.0
269.402252	116.0
269.661499	152.0
269.743225	168.0
270.030518	132.0
270.114105	688.0
270.148041	640.0
270.332458	176.0
270.36792	140.0
270.957306	180.0
271.000763	140.0
271.119781	3060.0
271.232574	168.0
271.274384	212.0
271.427643	144.0
271.487396	104.0
271.563751	160.0
271.619507	172.0
271.68512	144.0
271.822906	176.0
271.921356	148.0
271.950897	144.0
271.993561	160.0
272.027344	124.0
272.070343	144.0
272.12851	34644.0
272.199371	164.0
272.253723	188.0
272.349854	220.0
272.398834	112.0
272.690948	160.0
272.766998	140.0
273.131439	4012.0
273.383789	148.0
273.418152	100.0
274.027527	184.0
274.133728	972.0
274.321381	204.0
274.966461	116.0
275.221527	164.0
275.41983	152.0
275.543518	144.0
275.662476	204.0
275.685608	144.0
275.8703	136.0
275.930206	220.0
276.078979	164.0
276.144531	152.0
276.446198	172.0
276.581879	172.0
276.677887	172.0
276.889862	140.0
277.128296	312.0
277.250824	184.0
277.758179	180.0
278.157074	480.0
278.514984	140.0
278.62793	160.0
278.674072	112.0
278.943604	144.0
279.134094	248.0
279.365936	152.0
279.415833	172.0
279.668732	144.0
279.725311	140.0
280.133545	292.0
280.168823	452.0
280.539551	196.0
280.664825	188.0
280.703033	116.0
280.991669	204.0
281.14151	3748.0
281.358795	192.0
281.467285	136.0
281.592529	172.0
281.641876	232.0
282.097076	188.0
282.146942	1428.0
282.966858	176.0
283.157959	1720.0
283.887909	264.0
284.125671	220.0
284.162415	1320.0
284.59967	160.0
284.962433	180.0
285.00946	152.0
285.115692	240.0
285.170776	144.0
285.24472	144.0
286.141876	1336.0
287.069519	216.0
287.14682	404.0
287.568817	212.0
287.747711	168.0
288.305664	132.0
288.376007	264.0
288.707336	224.0
288.764832	148.0
288.971191	144.0
289.032074	216.0
289.153503	132.0
289.44165	172.0
290.019806	176.0
290.132812	140.0
290.224365	204.0
291.072632	196.0
291.177917	180.0
291.782745	140.0
291.884064	148.0
292.122833	244.0
292.446259	140.0
292.572021	144.0
292.602661	144.0
292.878479	140.0
293.007935	212.0
293.195343	148.0
293.481689	140.0
294.149231	1944.0
294.24884	196.0
294.296387	240.0
294.514679	104.0
294.983826	148.0
295.151886	124.0
295.203766	172.0
295.288147	140.0
295.442047	184.0
295.666321	148.0
295.70993	140.0
295.744263	152.0
295.816772	96.0
295.945923	164.0
296.011139	184.0
296.10144	220.0
296.165253	30896.0
296.247437	120.0
296.272583	172.0
296.3172	136.0
296.454712	116.0
296.491211	156.0
296.644196	184.0
296.695465	200.0
297.123718	248.0
297.168671	5188.0
297.474609	200.0
297.739868	176.0
298.057861	172.0
298.177521	1752.0
298.802399	220.0
298.900299	116.0
299.180969	724.0
299.26532	152.0
299.644165	172.0
300.178436	160.0
300.342255	152.0
300.706238	140.0
300.802887	160.0
301.286682	172.0
301.355438	156.0
301.485199	196.0
301.583527	156.0
301.784119	124.0
301.815125	156.0
302.077972	140.0
302.443604	156.0
302.628235	140.0
303.386353	136.0
303.560333	208.0
303.674774	160.0
304.283691	200.0
304.391663	168.0
304.935089	156.0
304.976776	216.0
305.042816	144.0
305.152039	120.0
305.177612	244.0
305.209686	156.0
305.294525	172.0
305.324921	328.0
305.550537	144.0
305.883331	184.0
305.957733	156.0
306.044769	152.0
306.153778	132.0
307.156342	180.0
307.780792	112.0
308.169464	236.0
308.764343	136.0
308.922211	108.0
308.98349	148.0
309.279633	204.0
309.857666	368.0
310.163757	196.0
310.30127	128.0
310.725983	108.0
311.15332	524.0
311.382477	212.0
312.117737	128.0
312.159424	10840.0
312.333588	192.0
312.39859	108.0
312.886078	228.0
313.162445	2260.0
313.37561	140.0
314.022522	208.0
314.163086	568.0
314.289886	128.0
314.843018	148.0
315.211731	96.0
315.282104	124.0
315.464874	140.0
315.684082	232.0
316.126251	160.0
316.286469	116.0
316.423584	196.0
316.493774	168.0
316.553314	164.0
317.756165	168.0
317.798737	156.0
318.093292	188.0
318.391541	148.0
318.487427	280.0
318.736115	160.0
319.123535	164.0
319.772156	200.0
319.930481	164.0
320.130524	156.0
320.188751	148.0
320.633972	192.0
320.975037	140.0
321.14978	152.0
321.413788	152.0
321.474701	172.0
321.799255	204.0
321.870667	164.0
321.992096	288.0
322.02066	264.0
322.099243	228.0
322.180206	7276.0
322.413971	120.0
322.466705	128.0
322.759766	160.0
322.838989	168.0
322.970947	312.0
323.183746	1916.0
323.638214	132.0
323.829163	128.0
323.866211	156.0
324.183777	276.0
324.686951	192.0
324.884216	244.0
325.160919	108.0
325.248047	104.0
325.893066	172.0
325.918213	140.0
326.171143	144.0
327.375061	204.0
327.537109	148.0
327.803711	160.0
328.070435	172.0
329.517609	164.0
329.593475	156.0
329.801453	180.0
330.168243	152.0
331.398987	140.0
332.457794	152.0
332.515869	168.0
332.606598	200.0
332.658356	188.0
333.00235	152.0
333.394714	184.0
333.834595	156.0
333.884155	160.0
334.347534	124.0
334.540436	144.0
334.693359	184.0
335.257965	172.0
335.513123	188.0
335.819427	156.0
336.640564	180.0
336.810181	100.0
337.037231	296.0
337.206818	180.0
337.323761	176.0
337.415253	176.0
337.671204	172.0
337.854004	140.0
337.938171	172.0
338.098633	168.0
338.168457	172.0
338.246826	104.0
338.274841	188.0
338.363617	212.0
338.455811	140.0
338.61261	192.0
338.883667	140.0
338.940796	112.0
338.966553	176.0
339.01358	120.0
339.075378	192.0
339.154083	328.0
339.182617	156.0
339.318756	152.0
339.351288	188.0
339.406006	160.0
339.477448	128.0
339.546661	188.0
339.576965	148.0
339.633209	96.0
339.742401	136.0
339.78006	124.0
339.828979	184.0
339.994354	280.0
340.07196	304.0
340.121155	264.0
340.192535	285196.0
340.276489	332.0
340.294739	228.0
340.302551	240.0
340.385193	204.0
340.422485	368.0
340.454254	192.0
340.530975	148.0
340.570526	352.0
340.623627	132.0
340.652985	496.0
340.68634	168.0
340.731171	220.0
340.796906	1288.0
340.876709	236.0
340.908783	192.0
340.964874	144.0
340.996155	116.0
341.027527	248.0
341.074707	260.0
341.133911	432.0
341.19458	56180.0
341.300262	160.0
341.349731	116.0
341.398499	132.0
341.439636	100.0
341.633087	240.0
341.675476	160.0
341.953186	208.0
342.010864	144.0
342.048096	160.0
342.096252	120.0
342.19635	5612.0
342.428101	220.0
342.467285	132.0
342.53717	100.0
342.679108	132.0
342.842194	144.0
343.017151	152.0
343.094574	204.0
343.14566	112.0
343.202332	896.0
343.269348	132.0
343.354889	208.0
343.385803	324.0
343.460907	164.0
343.535767	120.0
343.651764	140.0
343.791687	140.0
344.145844	96.0
344.18866	140.0
344.281403	116.0
344.368256	100.0
344.41037	244.0
344.464752	108.0
344.5065	120.0
344.876099	160.0
345.308258	148.0
345.400116	152.0
345.585907	120.0
345.892365	200.0
346.228699	160.0
346.504761	240.0
346.546448	196.0
347.60321	144.0
347.742096	136.0
348.047516	172.0
348.188293	412.0
348.238037	180.0
348.515259	108.0
348.686523	180.0
350.090088	168.0
350.160858	164.0
350.276306	168.0
350.466309	188.0
350.815979	136.0
351.297699	160.0
351.52301	212.0
351.733521	156.0
352.350433	156.0
352.791443	188.0
352.85257	112.0
353.200592	104.0
353.494568	196.0
353.901184	144.0
353.962585	152.0
354.006287	144.0
354.092133	168.0
354.209656	176.0
354.50061	108.0
354.670502	208.0
354.987946	188.0
355.026215	156.0
355.189178	100.0
355.235809	144.0
355.326782	148.0
355.519226	192.0
355.590057	176.0
355.619965	96.0
355.676483	124.0
355.749176	208.0
355.805481	196.0
355.933014	184.0
355.971008	168.0
355.998322	248.0
356.1745	160.0
356.251495	204.0
356.280823	116.0
356.381805	176.0
356.444275	144.0
356.513885	180.0
356.5979	348.0
356.640533	184.0
356.756012	120.0
356.797668	120.0
356.883331	176.0
356.914978	116.0
356.950531	164.0
357.029602	100.0
357.07196	180.0
357.124847	144.0
357.195984	1184.0
357.244507	204.0
357.336182	276.0
357.362823	156.0
357.399811	160.0
357.458649	316.0
357.516144	232.0
357.619537	392.0
357.689514	416.0
357.797943	428.0
357.837158	316.0
357.879883	360.0
357.916321	184.0
357.926544	180.0
357.96637	508.0
358.029816	548.0
358.120819	500.0
358.153351	1276.0
358.204651	228724.0
358.342285	120.0
358.465393	280.0
358.55542	1328.0
358.614105	452.0
358.670959	876.0
358.777405	1432.0
358.829926	9872.0
358.86795	776.0
358.940216	352.0
358.968781	376.0
359.022522	232.0
359.138824	476.0
359.15152	424.0
359.206573	144032.0
359.307495	96.0
359.36972	160.0
359.457977	332.0
359.525391	148.0
359.563599	236.0
359.63855	120.0
359.660553	208.0
359.733276	240.0
359.781311	200.0
359.826538	1172.0
359.869476	328.0
359.898254	248.0
359.980225	192.0
360.050568	144.0
360.093719	240.0
360.149933	216.0
360.207947	18516.0
360.370117	140.0
360.431213	124.0
360.639221	128.0
360.68631	176.0
360.757111	140.0
360.842407	128.0
360.882843	132.0
360.937317	172.0
360.970245	176.0
361.019836	184.0
361.059296	164.0
361.110168	164.0
361.213043	2112.0
361.31543	184.0
361.3461	188.0
361.402771	256.0
361.435883	376.0
361.480865	236.0
361.513428	196.0
361.602295	356.0
361.633423	268.0
361.666443	408.0
361.72345	404.0
361.83551	112.0
361.894684	116.0
361.941833	96.0
361.973969	128.0
362.033905	172.0
362.116028	168.0
362.345306	112.0
362.41217	120.0
362.464905	188.0
362.49295	344.0
362.529449	128.0
362.595703	96.0
362.669312	272.0
362.733582	192.0
362.779694	104.0
363.026215	100.0
363.185699	160.0
363.430817	96.0
363.442169	176.0
363.621399	172.0
363.741333	168.0
364.290802	156.0
364.411652	132.0
364.826538	96.0
367.278748	232.0
370.83139	144.0
371.763153	124.0
373.904968	100.0
374.064575	108.0
374.114258	112.0
375.972626	172.0
377.711456	140.0
381.377197	108.0
381.826904	156.0
386.118896	140.0
389.440338	104.0
400.931946	144.0
427.849823	96.0
450.274658	132.0
463.563507	148.0
494.549438	172.0
507.376923	140.0
515.819336	140.0
523.218262	160.0
535.255371	152.0
548.102539	140.0
551.04895	172.0
565.53833	128.0
568.199585	96.0
588.023621	96.0
637.223938	148.0
663.56073	140.0
694.477051	112.0
744.168457	144.0
1034.30542	200.0
1049.651611	120.0
1083.674683	148.0
1190.881592	144.0
1212.608154	196.0
1278.126221	288.0
1337.655518	152.0
1383.093506	188.0
1545.879883	160.0
1553.346436	184.0
1553.997559	164.0
1574.345337	148.0
1575.040283	164.0
1615.549805	176.0
1629.852783	192.0
1642.894531	140.0
1656.330566	204.0
1676.764893	168.0
1677.677856	228.0
1713.812988	168.0
1716.401123	156.0
1754.490601	160.0
1762.920776	240.0
1766.072632	200.0
1829.666992	180.0
1879.498413	144.0
1892.766602	184.0
1896.717041	188.0
1930.891357	168.0
1940.979614	188.0
1942.154785	172.0
1945.30481	184.0
1950.381958	176.0
1960.908691	144.0
1983.624634	172.0
1989.81665	160.0
END IONS

BEGIN IONS
PEPMASS=372.159
CHARGE=1
MSLEVEL=2
SOURCE_INSTRUMENT=LC-ESI-qTof
FILENAME=NCP003592_C2_D11_BE1_01_15735.mzXML
SEQ=*..*
IONMODE=Positive
ORGANISM=GNPS-NIH-CLINICALCOLLECTION1
NAME=Trazodone hydrochloride 25332-39-2 [M+H]
PI=Dorrestein
DATACOLLECTOR=Garg_Neha
SMILES=Clc1cccc(c1)N2CCN(CCCn3nc4ccccn4c3=O)CC2
INCHI=N/A
INCHIAUX=N/A
PUBMED=N/A
SUBMITUSER=negarg
LIBRARYQUALITY=1
SPECTRUMID=CCMSLIB00000079178
USI=mzspec:GNPS:GNPS-NIH-CLINICALCOLLECTION1:accession:CCMSLIB00000079178
SCANS=1102
45.222645	140.0
45.320404	184.0
45.378036	208.0
45.449123	184.0
45.695004	160.0
46.123848	200.0
46.195515	148.0
46.376965	148.0
46.917645	384.0
46.953438	140.0
47.304592	208.0
47.948788	180.0
49.046528	180.0
49.059071	148.0
49.419476	144.0
50.00695	116.0
50.215908	204.0
50.398014	256.0
50.754707	160.0
50.902279	156.0
51.972851	200.0
52.084831	140.0
52.163864	148.0
52.580124	156.0
52.63065	184.0
53.558807	152.0
53.602512	168.0
53.634575	176.0
53.700188	168.0
54.043484	140.0
54.103489	160.0
54.978058	208.0
55.555111	256.0
55.61298	180.0
55.841789	148.0
55.953396	160.0
56.074051	156.0
56.203789	204.0
56.22916	204.0
56.244083	180.0
57.119171	156.0
57.426441	240.0
57.772354	140.0
57.926762	148.0
58.295444	168.0
58.57996	192.0
58.642433	152.0
59.219975	188.0
59.657291	140.0
59.963604	148.0
61.1604	156.0
61.427334	180.0
61.827705	212.0
61.885239	184.0
62.209766	220.0
62.222324	152.0
62.788799	168.0
63.024006	184.0
63.915123	160.0
64.25489	160.0
64.380592	204.0
64.537193	144.0
64.884621	156.0
64.90226	144.0
65.078102	216.0
65.260315	156.0
65.36808	220.0
65.69838	140.0
65.774223	168.0
65.901802	152.0
66.026276	232.0
66.491241	176.0
66.861786	144.0
67.922165	244.0
69.134796	200.0
69.678665	140.0
70.476738	192.0
71.138268	168.0
71.23735	180.0
71.27095	152.0
72.231911	220.0
72.394386	144.0
72.429955	140.0
72.882919	156.0
73.06144	224.0
73.132912	200.0
73.507843	148.0
74.089165	160.0
74.591972	196.0
74.674507	160.0
75.137878	184.0
75.36232	140.0
75.775833	164.0
75.963066	144.0
76.103638	232.0
76.213058	156.0
77.037132	180.0
77.474693	192.0
77.490242	144.0
77.644493	156.0
77.798904	180.0
79.176003	140.0
79.317741	148.0
79.507523	228.0
79.978508	168.0
80.638443	172.0
80.996887	132.0
81.398018	156.0
81.932205	156.0
82.007889	176.0
83.081993	176.0
83.454308	144.0
84.170387	140.0
84.446342	152.0
84.675117	184.0
85.626465	160.0
85.641197	176.0
85.864212	160.0
86.772133	208.0
86.936813	148.0
87.269714	156.0
87.320602	152.0
87.457314	232.0
87.560005	144.0
88.158852	164.0
88.921066	148.0
89.347618	204.0
89.637573	164.0
89.939323	260.0
90.060165	140.0
90.383438	172.0
90.572754	164.0
90.993744	164.0
91.693748	176.0
92.040421	220.0
92.932892	144.0
93.090294	204.0
93.142151	172.0
93.626823	148.0
93.694244	240.0
94.714203	164.0
94.871162	196.0
94.909943	152.0
95.059303	144.0
95.199066	176.0
95.221222	140.0
95.821503	148.0
96.166656	148.0
96.254501	152.0
96.299416	192.0
96.467461	236.0
96.915634	180.0
97.331467	148.0
97.435562	168.0
98.081017	196.0
98.880936	208.0
99.045273	224.0
99.308891	176.0
99.483505	140.0
99.622971	140.0
99.775536	152.0
100.354897	156.0
100.556023	160.0
101.177864	144.0
101.31221	244.0
101.560768	144.0
101.679146	204.0
102.334457	156.0
102.876778	232.0
103.216202	144.0
103.576439	212.0
103.606827	140.0
104.113907	216.0
104.420784	152.0
104.938011	172.0
105.045227	696.0
105.207314	268.0
105.370689	176.0
105.857498	184.0
106.050903	148.0
106.064125	412.0
106.097221	156.0
107.060677	180.0
107.193825	156.0
107.992027	248.0
108.438873	204.0
108.636024	148.0
108.745834	148.0
108.766541	176.0
109.003349	164.0
109.334984	160.0
110.007225	248.0
110.425117	152.0
110.770477	164.0
110.919258	152.0
111.091209	172.0
111.319977	148.0
111.723618	188.0
112.340767	212.0
112.5476	192.0
112.696892	176.0
113.114182	144.0
113.196754	204.0
113.525208	156.0
113.677948	208.0
114.002853	156.0
114.362274	216.0
114.901398	192.0
115.033707	140.0
115.919151	208.0
116.049995	456.0
116.380325	196.0
116.434006	144.0
116.745621	180.0
116.91127	160.0
116.932785	168.0
117.053604	196.0
117.079369	140.0
117.10527	180.0
117.245064	144.0
117.44342	192.0
117.672157	152.0
117.704544	176.0
117.80822	160.0
118.049423	168.0
118.067429	356.0
118.242828	172.0
118.392204	144.0
118.966782	140.0
119.058716	556.0
119.229599	192.0
119.349159	208.0
119.453552	196.0
119.499237	236.0
119.566689	152.0
120.035423	404.0
120.058281	404.0
120.083031	156.0
120.742599	184.0
120.779785	156.0
120.943886	204.0
121.040405	612.0
121.075737	888.0
121.658493	216.0
121.83857	140.0
122.047363	200.0
122.140984	176.0
122.77404	216.0
122.811531	144.0
123.005707	148.0
123.602417	140.0
123.967789	180.0
123.985519	172.0
124.083054	164.0
124.460236	192.0
124.522408	176.0
124.70237	236.0
124.726822	200.0
125.013725	256.0
125.277618	172.0
125.433937	148.0
125.876411	192.0
126.341988	164.0
126.453186	184.0
126.605423	140.0
126.703979	240.0
127.206306	156.0
127.417404	160.0
128.211685	200.0
128.626694	140.0
128.656036	184.0
129.232346	156.0
130.377472	160.0
130.793686	220.0
131.0616	424.0
131.130203	176.0
131.28566	128.0
132.001404	220.0
132.041718	176.0
132.067566	420.0
132.255157	196.0
132.41478	172.0
132.524734	144.0
133.03157	164.0
133.076035	5016.0
133.449692	148.0
134.078629	632.0
134.983032	144.0
135.043335	936.0
135.170395	160.0
135.624115	156.0
136.050613	1284.0
136.299652	164.0
136.488312	120.0
136.566986	152.0
137.055862	176.0
137.31929	216.0
137.470932	196.0
137.50145	264.0
137.678696	156.0
138.011093	224.0
138.590973	148.0
139.142151	212.0
139.99707	228.0
140.028641	180.0
140.111084	176.0
140.615692	188.0
140.754974	168.0
141.354507	260.0
141.833771	192.0
141.997375	144.0
142.286865	212.0
142.745438	240.0
143.671951	144.0
143.726822	144.0
143.86525	148.0
143.969101	160.0
144.049118	256.0
144.276138	164.0
144.749878	220.0
145.553162	156.0
145.704468	152.0
145.918365	172.0
146.035812	272.0
146.182953	176.0
146.447769	184.0
146.573044	272.0
147.059372	212.0
147.511871	200.0
147.785156	248.0
147.808243	128.0
147.884369	168.0
148.051437	110232.0
148.087357	17952.0
148.363297	168.0
148.544037	144.0
148.599228	172.0
148.717468	320.0
149.054504	7136.0
149.090286	2200.0
149.251343	140.0
149.334549	168.0
149.355103	184.0
149.468948	148.0
149.758774	144.0
150.058289	316.0
150.098022	216.0
150.121353	176.0
150.212631	180.0
150.251846	132.0
150.32103	108.0
150.369522	152.0
150.390274	140.0
151.184555	156.0
151.21637	224.0
151.605774	176.0
151.936783	148.0
152.157654	168.0
152.354126	196.0
152.523682	224.0
152.681915	112.0
153.370407	160.0
153.390137	148.0
153.923035	144.0
153.955139	168.0
154.041428	1080.0
154.578079	288.0
154.630051	220.0
154.662231	204.0
154.81572	200.0
155.934601	172.0
156.036942	188.0
156.225525	156.0
156.245422	200.0
156.676117	220.0
156.72345	144.0
156.8936	176.0
157.143723	176.0
158.034286	212.0
159.059265	160.0
160.045059	200.0
160.241211	140.0
161.409821	172.0
162.068771	96.0
162.36705	168.0
162.861969	168.0
162.950882	180.0
163.066849	188.0
163.093948	132.0
163.212662	164.0
163.300278	124.0
163.920303	144.0
164.044449	140.0
164.619247	148.0
165.529587	176.0
165.796005	156.0
166.044052	792.0
166.545166	148.0
166.5914	148.0
166.611954	172.0
167.049026	204.0
167.384872	132.0
167.731354	192.0
168.041611	180.0
168.309235	176.0
168.890717	180.0
169.296616	124.0
169.358871	156.0
169.532776	144.0
169.68959	168.0
170.503174	160.0
170.568344	156.0
170.91684	152.0
170.937653	160.0
171.073242	168.0
171.466629	188.0
171.960953	180.0
172.04274	204.0
172.458069	208.0
173.084183	144.0
173.214264	176.0
173.995728	164.0
174.031631	148.0
174.058746	176.0
174.140152	160.0
174.402893	180.0
174.563263	176.0
174.751602	144.0
175.071152	160.0
175.104111	132.0
175.442657	160.0
175.515244	128.0
175.594299	140.0
175.756516	340.0
175.788177	156.0
175.831635	156.0
175.905304	176.0
175.974976	152.0
176.048203	164.0
176.082809	153120.0
176.149261	236.0
176.211517	136.0
176.243561	128.0
176.295532	156.0
176.516083	160.0
176.557938	164.0
176.588577	148.0
176.715042	164.0
176.814804	108.0
177.038101	96.0
177.085083	10064.0
177.613678	176.0
177.926437	132.0
178.051651	256.0
178.085373	604.0
178.121002	156.0
178.163864	152.0
178.300385	180.0
178.394363	144.0
178.437683	268.0
178.479446	316.0
178.500885	124.0
179.051575	160.0
179.088852	168.0
179.366364	108.0
179.401367	144.0
179.507263	148.0
180.032974	104.0
180.057007	144.0
181.043839	172.0
181.065262	196.0
181.348404	112.0
182.320786	240.0
182.41217	148.0
182.987885	168.0
183.173691	152.0
184.463531	156.0
184.655518	152.0
185.437958	156.0
186.343124	128.0
186.765656	156.0
188.37114	192.0
188.488632	180.0
190.669952	156.0
190.788147	160.0
191.032898	164.0
191.065903	144.0
192.339035	176.0
192.996536	180.0
193.057495	148.0
193.480698	168.0
193.737686	280.0
194.059937	324.0
194.520264	180.0
195.06604	108.0
195.431808	148.0
195.451279	180.0
195.863556	208.0
196.062057	164.0
196.245102	140.0
197.051697	168.0
197.086716	560.0
197.4328	224.0
198.080124	180.0
198.835403	152.0
199.077744	484.0
199.147049	176.0
199.189178	140.0
199.804825	232.0
199.838577	152.0
199.920181	164.0
200.083435	168.0
200.903519	212.0
200.926086	184.0
201.450027	136.0
201.535919	196.0
203.143997	140.0
203.441956	156.0
204.835342	144.0
205.770721	156.0
206.762604	140.0
207.063202	160.0
208.075409	168.0
209.085617	2432.0
209.282959	164.0
209.323273	208.0
209.507599	176.0
209.651672	160.0
210.087509	316.0
210.540207	152.0
211.080429	1004.0
211.159866	148.0
211.552185	188.0
212.080902	324.0
212.662354	204.0
212.909134	140.0
213.685226	176.0
214.043243	148.0
214.337433	148.0
216.013229	156.0
216.540085	176.0
216.947372	172.0
217.783661	144.0
218.048096	144.0
218.468567	164.0
218.52066	152.0
218.912994	180.0
219.12709	432.0
219.28714	176.0
219.856339	148.0
220.429214	172.0
220.59314	224.0
220.973267	188.0
221.500214	164.0
221.675003	156.0
223.590439	140.0
223.795837	144.0
223.908997	156.0
226.09433	172.0
226.915863	120.0
227.060959	220.0
227.117905	224.0
227.947586	148.0
228.17601	140.0
228.392532	140.0
228.771667	212.0
229.069794	144.0
229.154144	168.0
229.446487	196.0
229.62439	148.0
230.270264	144.0
231.397034	172.0
231.940414	144.0
232.210266	196.0
233.376358	140.0
233.765182	144.0
234.051834	188.0
234.71608	156.0
234.969238	148.0
235.102081	388.0
236.057358	160.0
236.097534	136.0
236.858643	124.0
237.115494	2000.0
238.116745	456.0
239.111984	344.0
239.293686	148.0
239.510345	136.0
239.561615	144.0
240.113358	280.0
240.185028	128.0
240.491028	108.0
241.144531	148.0
241.608353	144.0
241.66095	140.0
243.834702	224.0
243.93782	156.0
244.416214	272.0
245.010895	176.0
245.101242	148.0
245.250824	148.0
245.812195	140.0
246.140106	148.0
246.302338	156.0
246.721069	140.0
247.080719	172.0
247.262207	200.0
247.935532	192.0
248.029556	168.0
248.264709	152.0
248.405838	208.0
248.62233	148.0
248.67569	164.0
248.801239	152.0
249.564697	140.0
250.198242	108.0
250.631699	164.0
250.890137	200.0
251.17395	196.0
251.695892	188.0
252.49733	156.0
253.570587	152.0
253.70372	176.0
253.970078	216.0
255.26265	164.0
255.921295	148.0
256.301483	156.0
256.774475	136.0
257.001801	192.0
257.285858	188.0
257.459167	128.0
258.183899	132.0
258.321228	152.0
259.147217	140.0
260.619904	200.0
262.747711	112.0
262.8255	196.0
262.909393	172.0
263.946747	152.0
264.302124	192.0
264.564301	164.0
265.098724	156.0
265.192688	188.0
265.468262	192.0
265.740723	148.0
265.84549	152.0
265.997101	148.0
266.484222	184.0
266.623962	152.0
267.889648	188.0
267.954803	140.0
268.010193	156.0
268.235046	152.0
268.410736	144.0
268.822113	152.0
269.345764	164.0
269.432678	148.0
269.717224	112.0
269.900055	148.0
270.001434	180.0
270.135529	144.0
270.973602	160.0
272.246002	136.0
272.58136	168.0
272.608887	96.0
273.80838	180.0
273.897308	188.0
274.02536	152.0
274.198364	184.0
275.110809	160.0
276.724152	180.0
277.456329	168.0
277.559113	148.0
277.618805	140.0
278.167786	136.0
278.455109	152.0
278.548096	148.0
278.624512	156.0
278.715363	116.0
279.525543	176.0
279.795135	176.0
281.255219	176.0
281.36203	160.0
281.57016	196.0
282.307617	144.0
282.779327	184.0
283.003601	148.0
283.191132	200.0
283.361969	156.0
283.715546	104.0
284.241333	164.0
284.284058	224.0
284.824585	144.0
284.962341	168.0
286.604248	160.0
287.005371	144.0
287.326385	220.0
287.973877	216.0
288.101562	140.0
288.453674	264.0
288.856079	148.0
288.889893	160.0
288.920349	172.0
290.641479	152.0
290.678802	156.0
290.797577	164.0
290.969208	100.0
291.84082	172.0
291.871063	164.0
291.94928	168.0
292.092102	140.0
292.200958	232.0
292.354095	176.0
293.045319	196.0
293.607758	164.0
294.129761	144.0
294.389252	160.0
295.759033	188.0
295.959564	204.0
296.208771	152.0
297.0383	176.0
297.076019	148.0
297.580505	148.0
297.710999	176.0
298.109497	212.0
299.339813	164.0
299.406616	136.0
299.799133	172.0
300.540497	148.0
301.438263	164.0
301.465912	144.0
301.835785	140.0
302.493134	212.0
302.586609	144.0
302.998718	160.0
303.093964	156.0
303.359131	184.0
303.553284	176.0
304.875885	148.0
304.907166	276.0
304.983643	152.0
305.863647	144.0
306.278015	164.0
306.365082	180.0
306.391754	160.0
307.20282	140.0
307.753143	180.0
307.882355	224.0
308.08493	148.0
308.315552	164.0
308.343506	160.0
308.860962	168.0
308.961884	132.0
309.809601	196.0
310.010956	124.0
311.416107	172.0
311.549591	180.0
315.092957	152.0
315.288025	168.0
315.489502	156.0
315.977539	192.0
316.18277	180.0
316.887421	192.0
317.929932	172.0
318.41629	288.0
318.497986	152.0
319.151886	180.0
319.569641	184.0
321.005157	152.0
321.039124	184.0
322.469482	156.0
322.8461	164.0
323.633331	144.0
324.550598	180.0
324.9487	144.0
325.001343	108.0
325.336304	232.0
325.619965	228.0
325.746979	164.0
326.090607	140.0
326.270325	140.0
326.486084	168.0
326.755859	176.0
327.691925	192.0
328.077545	152.0
328.578827	168.0
328.74118	140.0
328.892761	168.0
328.983002	180.0
329.575317	188.0
330.739777	164.0
330.913544	148.0
332.099945	184.0
332.503998	116.0
333.798126	144.0
333.889038	180.0
334.387451	152.0
334.791565	152.0
335.352631	156.0
336.213318	152.0
336.512634	164.0
337.827881	108.0
337.860657	184.0
338.593292	164.0
338.981598	152.0
340.808929	144.0
341.636139	196.0
343.10553	144.0
344.999359	172.0
347.014191	140.0
347.925995	164.0
348.126495	152.0
349.133575	164.0
349.178802	152.0
349.207977	176.0
349.885193	156.0
350.745697	144.0
350.797272	168.0
350.943298	164.0
351.155853	144.0
351.342346	180.0
352.290558	196.0
353.352295	152.0
354.162994	176.0
354.411865	148.0
354.655457	188.0
355.326691	220.0
355.703796	188.0
356.381683	192.0
356.438049	212.0
356.697357	160.0
357.126984	124.0
357.411926	144.0
358.306915	164.0
359.646698	200.0
360.031769	192.0
360.541779	156.0
361.354126	160.0
361.441986	152.0
361.490967	152.0
361.63858	140.0
361.748322	248.0
362.079468	136.0
362.119415	196.0
362.44519	164.0
362.511169	232.0
363.506927	140.0
363.537262	152.0
363.842224	152.0
363.939636	160.0
364.615784	152.0
365.395294	148.0
366.570679	112.0
366.773834	144.0
367.158905	168.0
367.529297	208.0
367.983124	184.0
368.14212	116.0
368.368835	176.0
368.930573	140.0
369.059662	180.0
369.140839	180.0
369.39978	188.0
369.549896	228.0
369.602722	128.0
369.846619	160.0
370.141907	148.0
370.258667	116.0
370.298492	160.0
370.390686	108.0
370.436035	220.0
370.479645	200.0
370.567993	124.0
370.647766	184.0
370.690826	268.0
370.743195	160.0
370.784454	124.0
370.840637	184.0
370.945831	236.0
371.007782	136.0
371.128998	132.0
371.165344	324.0
371.230072	200.0
371.310059	136.0
371.403992	332.0
371.441376	260.0
371.514587	316.0
371.566071	440.0
371.624451	116.0
371.634338	268.0
371.659637	264.0
371.702362	108.0
371.759155	372.0
371.802765	380.0
371.819489	404.0
371.866882	336.0
371.901184	228.0
371.929871	216.0
371.997742	192.0
372.051666	368.0
372.09848	564.0
372.16153	219524.0
372.293121	132.0
372.417542	136.0
372.458954	104.0
372.519592	960.0
372.570038	308.0
372.622589	300.0
372.743347	252.0
372.795166	8692.0
372.852875	664.0
372.892181	492.0
372.96637	124.0
372.994049	184.0
373.072723	212.0
373.16333	101136.0
373.267365	288.0
373.359009	196.0
373.391418	176.0
373.41684	256.0
373.467346	208.0
373.50827	160.0
373.591858	168.0
373.647034	120.0
373.693451	232.0
373.721283	316.0
373.795715	752.0
373.829285	276.0
373.906952	136.0
373.95517	204.0
374.03067	248.0
374.086029	376.0
374.099823	544.0
374.158142	139244.0
374.270966	280.0
374.350739	184.0
374.439087	152.0
374.494232	172.0
374.650391	156.0
374.71109	204.0
374.745636	184.0
374.789612	468.0
374.851196	148.0
374.927338	180.0
374.99411	300.0
375.079071	320.0
375.159119	24864.0
375.235474	184.0
375.318146	128.0
375.387817	224.0
375.457947	120.0
375.501953	116.0
375.567108	180.0
375.6409	248.0
375.68396	124.0
375.699554	248.0
375.785461	388.0
375.830719	284.0
375.856293	320.0
375.909851	104.0
375.98053	116.0
376.038666	124.0
376.092163	112.0
376.160126	416.0
376.257904	128.0
376.297211	132.0
376.347717	112.0
376.457184	168.0
376.524475	128.0
376.614838	128.0
376.695862	144.0
376.773865	112.0
376.946411	124.0
376.990936	96.0
377.230255	180.0
377.31189	100.0
377.393951	208.0
377.477631	132.0
377.608673	244.0
377.666443	360.0
377.737061	164.0
377.807007	204.0
378.083008	104.0
378.227173	116.0
378.819916	104.0
379.011353	132.0
379.678558	168.0
381.283936	108.0
381.769653	96.0
385.19635	152.0
386.380859	140.0
386.689819	96.0
389.146149	104.0
389.359833	160.0
390.603271	100.0
392.614471	144.0
393.573364	140.0
395.907928	124.0
407.861023	96.0
419.391754	160.0
449.479462	148.0
582.051697	140.0
613.449463	144.0
966.30603	144.0
1066.66748	148.0
1180.524902	120.0
1231.497437	184.0
1315.740356	224.0
1324.72937	156.0
1336.257812	164.0
1337.44397	164.0
1379.919556	188.0
1412.058594	208.0
1421.15271	180.0
1422.360962	148.0
1428.793457	204.0
1444.068481	188.0
1448.428223	208.0
1448.769043	172.0
1467.869019	164.0
1471.386353	168.0
1475.381958	144.0
1478.165894	232.0
1507.463989	164.0
1523.921753	148.0
1529.279785	140.0
1537.868896	168.0
1546.302002	260.0
1574.937134	156.0
1578.09021	144.0
1600.481079	256.0
1602.002197	220.0
1610.002197	160.0
1617.5979	140.0
1626.005737	216.0
1634.580322	220.0
1640.84668	204.0
1644.573486	200.0
1653.81189	188.0
1660.374512	156.0
1667.689575	244.0
1686.591187	172.0
1698.381958	148.0
1704.86792	164.0
1705.739136	172.0
1705.80481	196.0
1706.98877	196.0
1709.538818	172.0
1712.86499	156.0
1714.537598	200.0
1714.875488	176.0
1718.528564	204.0
1728.783081	208.0
1745.730957	156.0
1748.617676	248.0
1751.373535	152.0
1753.206421	180.0
1760.564453	188.0
1761.149048	160.0
1783.722412	184.0
1785.151611	140.0
1788.264404	148.0
1788.67688	156.0
1788.862061	160.0
1791.893799	180.0
1796.328003	176.0
1796.429321	172.0
1797.326538	168.0
1799.898071	184.0
1801.30835	172.0
1806.346436	148.0
1809.7146	208.0
1815.739624	224.0
1820.568359	176.0
1823.99231	148.0
1843.150757	216.0
1844.894287	204.0
1845.749268	244.0
1846.715576	208.0
1848.323975	184.0
1850.746216	168.0
1854.824097	244.0
1855.552856	184.0
1856.959106	212.0
1857.062012	152.0
1858.202881	212.0
1868.022217	140.0
1871.550781	180.0
1875.858398	220.0
1877.875977	180.0
1880.636963	228.0
1880.956299	208.0
1883.961426	192.0
1884.12561	156.0
1885.577271	184.0
1885.983398	148.0
1886.657715	200.0
1889.260742	144.0
1895.459839	208.0
1896.361084	168.0
1902.250732	244.0
1908.218872	184.0
1909.940796	176.0
1914.997681	164.0
1915.259033	176.0
1918.273926	180.0
1923.053833	156.0
1923.682373	160.0
1925.201538	160.0
1933.62915	176.0
1936.334473	144.0
1937.333008	188.0
1940.268799	156.0
1941.776978	152.0
1942.505005	188.0
1943.803467	140.0
1947.385254	192.0
1947.464355	196.0
1947.727783	148.0
1948.99292	164.0
1950.548462	188.0
1951.506592	156.0
1952.605835	196.0
1954.734741	164.0
1957.983154	192.0
1959.81543	140.0
1964.637939	280.0
1967.241211	140.0
1970.738525	168.0
1971.710571	188.0
1979.132324	144.0
1985.787476	144.0
1998.988892	184.0
END IONS

BEGIN IONS
PEPMASS=384.167
CHARGE=1
MSLEVEL=2
SOURCE_INSTRUMENT=LC-ESI-qTof
FILENAME=NCP003592_E2_F11_BE2_01_15736.mzXML
SEQ=*..*
IONMODE=Positive
ORGANISM=GNPS-NIH-CLINICALCOLLECTION1
NAME=Prazosin [M+H]
PI=Dorrestein
DATACOLLECTOR=Garg_Neha
SMILES=COc1cc2nc(nc(N)c2cc1OC)N3CCN(CC3)C(=O)c4ccco4
INCHI=N/A
INCHIAUX=N/A
PUBMED=N/A
SUBMITUSER=negarg
LIBRARYQUALITY=1
SPECTRUMID=CCMSLIB00000079185
USI=mzspec:GNPS:GNPS-NIH-CLINICALCOLLECTION1:accession:CCMSLIB00000079185
SCANS=1030
45.980793	156.0
46.161819	144.0
46.320171	184.0
47.333466	140.0
47.454041	148.0
47.480095	260.0
47.607727	192.0
47.64481	204.0
47.764408	144.0
47.893795	168.0
47.936504	184.0
48.00819	188.0
48.291309	248.0
48.307907	140.0
48.705746	196.0
50.63155	140.0
50.688213	172.0
50.73357	172.0
52.685665	196.0
52.909828	208.0
52.993828	168.0
53.442478	168.0
53.644917	144.0
53.747009	148.0
53.998272	160.0
54.049473	160.0
54.159275	144.0
54.194431	152.0
54.30291	140.0
54.343987	140.0
54.370399	152.0
54.419926	168.0
55.315186	160.0
55.32851	176.0
57.130016	176.0
57.708981	180.0
58.03754	144.0
58.260647	168.0
58.721626	128.0
59.255356	168.0
59.28294	160.0
59.605186	144.0
59.626701	208.0
59.652832	152.0
59.672817	172.0
59.706646	140.0
59.915985	144.0
60.009998	188.0
60.084663	196.0
60.523899	172.0
60.916904	152.0
61.872871	160.0
62.136162	152.0
62.407875	176.0
63.172779	204.0
63.392857	208.0
63.672066	176.0
64.979408	160.0
65.968231	208.0
66.700935	208.0
66.816391	152.0
67.311882	212.0
67.430847	156.0
67.447487	256.0
67.786263	172.0
67.92524	276.0
67.971558	160.0
68.152176	228.0
68.426849	140.0
68.481194	212.0
68.621262	192.0
68.649292	168.0
68.702072	236.0
69.186279	168.0
69.333702	184.0
69.924942	208.0
69.988197	176.0
70.084808	152.0
70.328285	164.0
70.35833	224.0
70.803108	148.0
70.89357	168.0
71.010925	176.0
72.030937	160.0
72.335312	180.0
73.381805	172.0
73.786438	244.0
74.007149	164.0
74.248764	168.0
74.260773	144.0
74.734901	204.0
74.891556	164.0
75.940704	168.0
75.956314	168.0
76.409721	144.0
76.866226	240.0
77.103416	160.0
77.135185	196.0
77.55352	180.0
77.765747	160.0
77.842995	168.0
77.855286	168.0
79.543221	160.0
79.580505	160.0
80.242363	148.0
81.035904	220.0
82.152351	156.0
82.168587	160.0
83.283699	148.0
84.020943	188.0
85.007149	148.0
85.352486	140.0
85.483086	164.0
85.810951	144.0
86.474113	152.0
86.668556	168.0
86.766792	148.0
86.82798	180.0
87.590027	208.0
87.614243	200.0
88.613762	140.0
88.893143	244.0
89.146652	176.0
89.649101	168.0
91.345238	124.0
91.370277	168.0
91.922829	156.0
91.987717	168.0
92.144318	152.0
92.530647	188.0
92.833656	120.0
93.175171	180.0
93.871803	216.0
94.028412	116.0
94.101418	184.0
94.313911	172.0
95.01384	11324.0
95.049843	144.0
95.224556	152.0
96.014954	380.0
96.878365	160.0
96.945274	176.0
97.023674	152.0
97.278702	156.0
97.630402	160.0
98.030022	176.0
98.219292	184.0
98.272552	180.0
98.625175	148.0
98.807976	140.0
99.102974	164.0
99.257576	156.0
99.364685	176.0
99.736031	164.0
99.994598	140.0
100.416969	168.0
100.874214	144.0
101.108231	160.0
101.134247	188.0
101.222336	248.0
101.40464	196.0
102.161636	212.0
102.582512	144.0
103.044662	168.0
103.119423	160.0
103.534164	188.0
103.799637	160.0
104.380379	216.0
104.958672	176.0
105.030045	176.0
106.193863	164.0
106.214371	160.0
106.678452	144.0
107.339348	228.0
108.192657	216.0
108.256844	196.0
108.554802	168.0
108.586357	184.0
108.995316	144.0
109.411285	144.0
109.86351	160.0
110.454681	180.0
110.77076	176.0
111.446297	140.0
111.561882	152.0
111.608139	152.0
112.037491	140.0
112.081734	156.0
112.294647	200.0
112.434128	108.0
112.545776	220.0
112.6894	156.0
113.693092	228.0
113.833199	152.0
114.352722	148.0
115.038269	144.0
115.066017	144.0
115.266792	140.0
116.59758	176.0
116.713661	152.0
116.730865	192.0
118.520309	156.0
118.708893	152.0
118.828331	188.0
119.060448	152.0
119.162544	204.0
119.828293	208.0
119.935074	156.0
119.996117	144.0
120.044968	1864.0
120.273163	200.0
120.722572	148.0
120.95295	156.0
121.029694	148.0
121.685143	164.0
122.613411	140.0
123.043541	152.0
123.350533	112.0
124.753815	168.0
125.042976	156.0
125.461739	228.0
126.2052	164.0
126.478127	148.0
127.788689	164.0
128.286392	140.0
129.746796	180.0
130.171082	204.0
130.298279	140.0
130.375534	176.0
130.816772	152.0
131.808884	192.0
132.015976	216.0
132.270859	168.0
132.621307	160.0
132.848328	144.0
133.105377	148.0
133.767502	196.0
134.071533	192.0
135.569031	148.0
136.078796	204.0
136.770813	124.0
137.07019	140.0
137.361618	152.0
137.415268	144.0
137.865982	168.0
137.915009	212.0
138.028458	176.0
138.055481	34860.0
138.10791	96.0
138.210083	116.0
138.434708	332.0
138.782501	100.0
139.057159	2460.0
139.266739	176.0
139.360916	152.0
139.497223	176.0
139.876297	108.0
139.956345	132.0
140.061157	436.0
140.290543	172.0
140.74353	176.0
141.065994	232.0
141.109741	164.0
142.902786	180.0
143.026535	200.0
143.174149	172.0
143.345657	164.0
144.326721	192.0
144.398453	156.0
145.452698	156.0
145.916336	216.0
146.022141	180.0
146.059753	164.0
146.74971	144.0
147.02919	172.0
147.050903	180.0
147.473572	164.0
148.067352	228.0
148.599609	172.0
148.9832	196.0
149.122009	156.0
149.479187	144.0
149.876083	148.0
150.466324	148.0
151.038147	152.0
151.419968	176.0
151.510605	140.0
151.593903	152.0
151.709106	160.0
152.070023	140.0
152.666672	152.0
152.879761	104.0
153.508865	152.0
153.590256	196.0
154.576004	144.0
154.816116	148.0
155.081207	144.0
155.684082	252.0
156.19606	184.0
156.424988	140.0
156.743774	172.0
156.781158	168.0
157.110291	144.0
157.202347	176.0
157.854584	204.0
157.904602	148.0
158.092239	152.0
158.36763	224.0
158.771133	168.0
159.054642	168.0
159.909225	216.0
159.961014	160.0
160.060486	140.0
160.458359	200.0
160.773651	180.0
160.962982	148.0
161.046326	192.0
161.07547	152.0
161.543808	184.0
161.680908	208.0
161.713806	176.0
161.78215	204.0
162.092728	288.0
162.121765	152.0
162.557266	196.0
163.052933	156.0
163.088791	568.0
163.266479	164.0
163.643082	164.0
163.789413	160.0
163.872299	168.0
163.925186	164.0
164.043045	156.0
164.071442	17636.0
164.12973	224.0
164.640091	144.0
165.074371	2924.0
165.686249	176.0
165.981201	100.0
166.073944	296.0
166.450562	232.0
167.242386	164.0
167.63385	140.0
167.827164	192.0
168.082199	160.0
168.611908	152.0
168.792862	152.0
170.444031	148.0
170.878235	144.0
170.940689	192.0
171.529282	148.0
172.822006	184.0
173.083755	168.0
173.159698	156.0
173.345703	164.0
173.37886	152.0
174.090927	280.0
174.524261	220.0
175.061066	156.0
175.084595	128.0
175.306046	232.0
175.877548	128.0
176.072708	220.0
176.451599	260.0
176.679031	184.0
176.819275	208.0
177.009872	156.0
177.071793	540.0
177.208527	152.0
177.51088	120.0
177.558426	140.0
177.706985	172.0
178.065338	168.0
178.08812	180.0
178.349625	196.0
178.570312	152.0
178.982788	184.0
179.082657	284.0
179.403748	176.0
179.43573	260.0
179.897263	176.0
180.078079	264.0
180.538513	172.0
180.894348	156.0
181.098434	616.0
181.43013	144.0
182.350815	148.0
182.611618	148.0
183.057846	128.0
183.511032	156.0
183.55687	168.0
184.047958	160.0
184.453201	192.0
184.796646	148.0
184.818283	196.0
184.861588	172.0
185.078049	256.0
185.12146	192.0
185.671158	128.0
186.064163	124.0
186.089035	536.0
187.051834	148.0
187.62117	212.0
188.042511	344.0
188.202301	184.0
188.300613	176.0
188.710495	176.0
189.07373	340.0
189.107147	312.0
189.956558	212.0
190.065002	412.0
190.109299	536.0
190.274902	176.0
190.791382	200.0
191.083496	608.0
191.212234	160.0
191.691406	160.0
192.07518	120.0
192.149109	180.0
192.676422	144.0
192.709579	192.0
192.880905	140.0
192.969376	184.0
194.218307	180.0
194.905243	120.0
194.984604	160.0
196.108994	252.0
196.129913	192.0
196.278992	180.0
196.811996	168.0
197.077347	204.0
197.613724	200.0
198.157318	168.0
198.241379	196.0
198.406754	160.0
199.302063	148.0
199.335785	180.0
199.616882	148.0
199.926315	144.0
200.0755	192.0
200.929413	140.0
201.078506	308.0
201.177765	140.0
201.604248	144.0
201.725784	156.0
201.80777	180.0
202.082489	836.0
202.133057	148.0
203.093094	4292.0
203.258957	180.0
203.47937	168.0
203.513443	140.0
204.076385	3320.0
204.441498	140.0
204.528656	144.0
204.704849	156.0
204.754929	128.0
204.848297	148.0
204.907852	184.0
205.07457	2328.0
205.136444	464.0
205.337509	144.0
205.374588	192.0
205.479721	140.0
205.599976	148.0
205.619949	144.0
206.080185	784.0
206.47084	140.0
207.060944	140.0
207.08873	180.0
207.178299	260.0
207.476349	152.0
207.530823	152.0
207.783203	164.0
208.058716	140.0
208.498184	176.0
208.699402	144.0
209.174088	160.0
209.430084	128.0
209.571518	216.0
209.597443	152.0
210.188553	164.0
210.599731	144.0
210.778992	168.0
211.709076	168.0
212.068314	288.0
212.336212	160.0
213.790527	180.0
214.059418	348.0
214.084213	400.0
215.093185	456.0
215.192581	224.0
215.277252	144.0
216.096924	236.0
216.897049	180.0
217.012421	176.0
217.071243	2936.0
217.109131	276.0
217.379074	276.0
218.028076	260.0
218.080063	912.0
218.163055	104.0
218.386749	196.0
218.663696	124.0
219.088074	996.0
219.15834	152.0
219.390457	144.0
219.67691	216.0
220.095169	2952.0
220.651459	208.0
221.103104	7392.0
221.290512	168.0
221.447906	312.0
222.088348	2164.0
222.138077	196.0
222.722839	160.0
223.087051	424.0
223.245926	244.0
223.296478	148.0
223.361908	196.0
223.72496	140.0
223.772583	152.0
223.835114	172.0
224.101761	208.0
224.711411	152.0
225.072556	164.0
225.233826	196.0
225.428024	260.0
225.726868	140.0
227.008591	140.0
227.05957	176.0
227.098862	348.0
227.49765	188.0
228.093597	196.0
228.311905	184.0
228.40213	148.0
228.73613	204.0
229.070099	712.0
229.108398	1048.0
229.18988	132.0
229.395813	168.0
229.789429	116.0
229.827087	156.0
230.088745	640.0
230.171997	148.0
230.563889	144.0
231.054779	280.0
231.088486	25772.0
231.457901	116.0
231.880386	196.0
231.966629	132.0
232.095596	18916.0
232.384079	144.0
233.051727	172.0
233.102737	8056.0
233.163147	160.0
233.252304	260.0
233.38118	112.0
233.558197	120.0
233.731506	204.0
233.75412	172.0
234.106445	1628.0
234.38443	156.0
234.414902	140.0
235.112366	208.0
235.281128	228.0
235.566162	148.0
236.011322	172.0
237.015289	140.0
237.072845	112.0
237.082169	304.0
237.389252	196.0
238.65126	196.0
238.998825	248.0
239.09729	248.0
239.237381	180.0
240.070786	168.0
240.28978	168.0
240.749695	232.0
241.090424	176.0
241.509979	144.0
241.70488	152.0
241.952484	164.0
242.079437	244.0
242.30864	200.0
243.085983	292.0
243.72345	160.0
243.825989	188.0
244.083511	272.0
244.119873	496.0
244.84642	140.0
245.104004	5352.0
245.457214	160.0
245.744171	168.0
245.79097	168.0
245.897064	176.0
246.108063	1732.0
246.643555	192.0
246.668564	160.0
246.708038	108.0
246.779236	168.0
246.804504	140.0
246.878967	176.0
246.991898	296.0
247.033798	148.0
247.084488	1112.0
247.119965	142620.0
247.206253	124.0
247.33284	184.0
247.394989	104.0
247.427521	156.0
247.552155	108.0
247.597	132.0
247.633286	300.0
247.677582	188.0
247.833908	152.0
247.902878	116.0
247.973221	120.0
248.122482	15436.0
248.217194	116.0
248.302765	128.0
248.330994	124.0
248.423447	136.0
248.45282	176.0
248.512527	184.0
248.538239	164.0
248.587936	236.0
248.613541	184.0
248.656509	152.0
248.83168	168.0
249.070724	124.0
249.124725	1808.0
249.207016	148.0
249.505096	136.0
249.621048	148.0
249.66713	144.0
249.720932	128.0
249.784714	116.0
249.851868	172.0
249.931122	280.0
250.113098	160.0
250.153625	192.0
250.575256	104.0
250.715683	116.0
250.789917	156.0
251.089432	184.0
251.190186	152.0
251.515366	176.0
251.805847	200.0
252.094589	180.0
252.316315	124.0
252.567566	184.0
252.618164	208.0
253.680176	136.0
253.959976	184.0
254.094437	140.0
254.123932	148.0
254.595963	156.0
254.70076	144.0
255.083878	636.0
256.083954	188.0
256.103699	300.0
256.128937	192.0
256.571899	140.0
256.721741	224.0
256.837494	156.0
257.104706	2972.0
258.050049	140.0
258.106659	1672.0
258.673889	204.0
258.750732	144.0
259.118225	1536.0
259.224762	148.0
259.48642	184.0
259.574158	172.0
259.955902	200.0
260.056213	136.0
260.114624	2004.0
260.755524	156.0
261.028778	180.0
261.135773	584.0
262.075165	180.0
263.416321	204.0
263.714233	176.0
264.07959	140.0
264.403107	144.0
264.963287	148.0
265.358704	148.0
266.101654	148.0
266.13739	160.0
267.561401	140.0
268.103851	172.0
268.897858	160.0
269.101135	236.0
269.221069	148.0
270.08139	136.0
270.578003	140.0
270.71225	144.0
270.938263	196.0
271.114929	876.0
271.454132	204.0
271.6604	156.0
272.116241	1168.0
272.151764	140.0
272.591888	152.0
272.831848	160.0
272.96994	224.0
273.058716	144.0
273.133575	3600.0
273.682251	116.0
274.094299	552.0
274.130188	2604.0
274.208313	208.0
274.442749	148.0
274.593475	156.0
274.685822	140.0
274.880463	148.0
275.098297	148.0
275.133972	712.0
275.327667	180.0
275.474762	188.0
275.596985	140.0
275.788666	140.0
276.080902	152.0
277.188568	204.0
278.193481	184.0
279.087189	144.0
281.269287	180.0
281.575012	252.0
282.318359	156.0
283.034454	148.0
283.088043	156.0
283.130768	184.0
283.345947	184.0
283.473267	152.0
284.08905	140.0
284.637238	168.0
285.119507	172.0
285.312592	140.0
285.389893	140.0
285.941589	140.0
286.091095	328.0
286.125671	168.0
286.965637	160.0
287.135498	1416.0
287.326508	220.0
287.434448	156.0
288.098541	180.0
288.145996	7692.0
288.231354	152.0
288.315826	152.0
289.106506	220.0
289.148285	1256.0
289.698059	140.0
289.86911	144.0
290.102966	260.0
290.156891	336.0
290.615051	140.0
291.130249	160.0
291.222717	152.0
292.026855	152.0
292.109863	164.0
292.480774	160.0
293.123596	376.0
293.690369	240.0
294.082733	200.0
294.133331	188.0
294.273895	152.0
294.311462	164.0
294.468536	160.0
294.670074	200.0
295.129211	144.0
295.713043	140.0
296.093048	152.0
296.291718	192.0
297.100616	628.0
297.17627	184.0
297.397217	124.0
297.711761	172.0
297.979675	144.0
298.085846	248.0
298.63623	152.0
298.942413	144.0
299.076508	456.0
299.122253	96.0
299.586273	140.0
300.109985	1260.0
301.114868	1092.0
301.345734	232.0
301.974884	220.0
302.120361	408.0
302.431305	128.0
302.982178	156.0
304.33017	172.0
305.27298	140.0
306.129028	168.0
306.865356	208.0
307.083923	284.0
307.195526	148.0
307.596832	208.0
307.862183	176.0
308.110687	244.0
308.805786	148.0
309.099213	188.0
309.122986	172.0
309.365723	140.0
309.620148	108.0
310.117554	192.0
310.216888	228.0
311.077515	164.0
311.132385	152.0
311.50473	144.0
312.092773	160.0
312.13031	156.0
313.072784	116.0
313.127869	180.0
313.637085	156.0
313.950867	184.0
314.13446	132.0
314.307159	148.0
315.10968	3116.0
315.564545	184.0
316.141235	4140.0
316.190643	208.0
316.275665	180.0
316.823242	140.0
317.140869	1032.0
317.278076	180.0
317.348999	188.0
318.147614	116.0
318.818542	160.0
319.046021	160.0
319.098236	124.0
321.124481	348.0
321.739288	140.0
321.825256	144.0
322.130707	2412.0
322.282135	184.0
322.356384	160.0
322.804016	160.0
322.993561	152.0
323.082855	212.0
323.135468	684.0
323.594788	148.0
324.097687	196.0
324.137665	280.0
324.415161	152.0
325.09256	2376.0
325.211487	176.0
326.098389	1920.0
326.907043	132.0
327.097565	612.0
327.512634	168.0
328.402893	140.0
329.121033	168.0
329.760437	160.0
330.024353	220.0
330.617584	160.0
331.153381	200.0
331.181519	204.0
331.416016	96.0
331.519287	224.0
331.805634	140.0
332.295258	148.0
332.603607	136.0
333.806244	168.0
334.128784	148.0
334.719574	168.0
335.003662	164.0
335.626892	156.0
336.114227	796.0
337.144867	104.0
337.165924	224.0
337.222168	172.0
337.28067	148.0
337.35376	148.0
337.924286	180.0
337.94989	152.0
338.160583	868.0
339.132904	720.0
339.16571	236.0
340.057098	144.0
340.139923	3024.0
340.763611	148.0
341.072845	96.0
341.12561	7752.0
341.24939	104.0
341.392944	136.0
341.453094	196.0
342.126648	1752.0
342.94519	140.0
343.086334	100.0
343.129333	560.0
343.264923	216.0
344.723022	164.0
345.011322	168.0
345.888031	144.0
346.636169	152.0
346.880768	156.0
347.689331	224.0
347.815521	148.0
348.053131	148.0
348.147125	100.0
348.848175	168.0
348.897949	184.0
348.937408	212.0
349.163116	128.0
349.696259	176.0
349.888306	168.0
350.038727	180.0
350.125031	7576.0
351.130859	3884.0
351.493683	148.0
352.023285	128.0
352.132446	1008.0
352.665131	168.0
352.691284	140.0
353.13623	184.0
353.162415	280.0
353.436615	132.0
353.495361	220.0
353.567535	168.0
353.615112	172.0
353.858429	172.0
354.118439	1180.0
354.840302	156.0
354.903778	140.0
355.127716	812.0
355.50769	172.0
356.122589	220.0
356.453979	188.0
356.64389	128.0
357.14856	128.0
357.736511	164.0
357.838135	196.0
358.366241	216.0
358.678223	168.0
360.859772	152.0
362.103271	160.0
362.230164	140.0
362.521912	212.0
362.548431	164.0
363.114014	152.0
363.170197	160.0
363.420563	156.0
363.454712	148.0
363.534393	164.0
364.552124	168.0
365.016174	148.0
365.147064	152.0
365.63974	180.0
365.974731	152.0
366.157166	25528.0
366.305969	160.0
366.341736	140.0
366.438995	212.0
367.002167	116.0
367.045441	148.0
367.160095	6180.0
367.22525	156.0
367.594147	136.0
367.775299	116.0
367.845276	132.0
367.988556	196.0
368.083313	176.0
368.135742	28248.0
368.297577	152.0
368.517029	124.0
368.822144	144.0
368.874176	168.0
368.900909	144.0
369.051514	212.0
369.141388	10928.0
369.246948	120.0
369.298035	108.0
369.478119	120.0
369.642883	152.0
369.83194	152.0
370.145844	2128.0
370.228577	264.0
370.577148	148.0
370.752563	160.0
371.018829	120.0
371.153198	444.0
372.593445	96.0
372.895508	132.0
373.312347	124.0
374.509094	112.0
375.613251	156.0
375.902618	152.0
375.991364	180.0
376.174866	96.0
377.072723	276.0
377.405182	160.0
377.856201	144.0
378.043427	200.0
378.260162	180.0
378.345337	240.0
378.498383	112.0
378.806152	164.0
379.145172	128.0
379.261078	200.0
379.604553	188.0
379.829498	180.0
380.387146	124.0
380.507446	276.0
380.731323	156.0
381.011047	160.0
381.092133	132.0
381.150848	216.0
381.351532	144.0
381.388733	140.0
381.487579	256.0
381.688477	108.0
381.720276	124.0
381.833649	232.0
381.87558	220.0
381.943909	104.0
382.109253	220.0
382.150818	776.0
382.275421	192.0
382.422699	248.0
382.473663	136.0
382.618591	136.0
382.655792	160.0
382.70636	204.0
382.734131	304.0
382.815002	176.0
382.863281	120.0
382.952087	96.0
383.024994	192.0
383.097076	276.0
383.157135	360.0
383.229279	232.0
383.316284	116.0
383.361023	148.0
383.440277	140.0
383.480682	136.0
383.594421	208.0
383.651062	120.0
383.687561	312.0
383.7388	172.0
383.850952	240.0
383.895416	296.0
383.961395	384.0
384.015594	244.0
384.040222	576.0
384.117157	828.0
384.169769	304268.0
384.272064	212.0
384.312775	236.0
384.367462	240.0
384.433594	356.0
384.493042	352.0
384.532043	544.0
384.606384	392.0
384.694336	432.0
384.738373	264.0
384.76709	280.0
384.811981	9692.0
384.874969	504.0
384.932037	364.0
385.032654	140.0
385.081879	288.0
385.107239	304.0
385.171356	145996.0
385.294067	212.0
385.377808	148.0
385.447052	236.0
385.475464	420.0
385.520447	156.0
385.531372	188.0
385.597351	224.0
385.632812	196.0
385.750824	240.0
385.815216	596.0
385.927643	384.0
386.038818	216.0
386.099731	116.0
386.172607	17620.0
386.25415	100.0
386.283386	312.0
386.318024	104.0
386.37262	160.0
386.409302	232.0
386.483551	124.0
386.516418	144.0
386.644897	180.0
386.727051	164.0
386.795013	136.0
386.903687	180.0
386.940704	172.0
386.998291	136.0
387.055023	152.0
387.099091	172.0
387.175446	1972.0
387.265625	148.0
387.30896	300.0
387.353821	180.0
387.389404	248.0
387.450348	336.0
387.494354	388.0
387.554352	356.0
387.629517	300.0
387.665344	180.0
387.694305	320.0
387.732666	312.0
387.811279	228.0
387.893799	124.0
387.929169	212.0
387.993927	212.0
388.079407	144.0
388.134064	132.0
388.236298	1632.0
388.311768	132.0
388.476135	100.0
388.53656	120.0
388.589142	160.0
388.653412	220.0
388.711212	172.0
389.309387	108.0
389.481934	112.0
389.537598	184.0
391.433258	144.0
391.607361	96.0
392.179901	100.0
392.410431	172.0
392.73233	132.0
394.239319	100.0
396.64035	128.0
396.730225	108.0
398.257538	176.0
399.473297	124.0
401.979279	136.0
402.784088	144.0
403.219604	140.0
408.894562	208.0
413.196014	196.0
496.056549	144.0
537.718262	160.0
572.475098	164.0
591.749268	96.0
616.42218	152.0
625.299072	152.0
627.871887	116.0
641.296326	156.0
644.142944	108.0
896.06366	144.0
938.893616	156.0
979.201355	148.0
1188.200317	176.0
1246.921387	216.0
1263.937744	172.0
1273.479736	164.0
1282.915039	176.0
1301.646118	240.0
1305.512085	176.0
1320.831055	160.0
1356.578247	252.0
1358.792969	160.0
1365.359741	152.0
1378.917725	172.0
1393.671875	144.0
1400.344604	172.0
1431.167847	148.0
1431.664917	140.0
1434.26416	248.0
1442.136597	140.0
1450.144287	248.0
1457.178711	216.0
1462.958496	152.0
1473.230591	204.0
1476.37207	248.0
1502.2948	196.0
1505.984497	140.0
1516.359741	200.0
1522.077026	144.0
1531.416992	144.0
1533.746704	248.0
1539.004761	188.0
1556.465576	208.0
1573.132935	152.0
1574.99646	188.0
1583.36438	180.0
1590.039673	204.0
1609.383423	148.0
1624.990845	276.0
1658.408569	160.0
1680.601318	148.0
1685.116333	208.0
1686.677246	168.0
1693.861572	188.0
1695.434692	152.0
1705.628296	156.0
1714.451294	140.0
1720.596313	188.0
1723.288696	200.0
1732.695557	192.0
1741.604858	144.0
1749.562744	164.0
1753.569336	184.0
1754.09436	236.0
1757.405273	212.0
1776.320679	164.0
1784.348999	220.0
1790.407349	216.0
1797.218384	172.0
1800.611938	268.0
1817.415283	152.0
1841.165039	140.0
1846.095947	140.0
1857.31543	160.0
1860.739502	172.0
1864.329834	208.0
1893.628052	208.0
1894.936157	164.0
1906.511353	176.0
1917.241577	144.0
1918.627441	156.0
1927.731079	172.0
1928.036865	192.0
1932.22522	180.0
1936.024048	140.0
1938.345459	156.0
1941.808228	168.0
1945.089722	148.0
1950.711548	144.0
1966.681274	184.0
1968.332153	164.0
1982.069214	172.0
1983.45166	192.0
1989.55481	144.0
END IONS

BEGIN IONS
PEPMASS=388.234
CHARGE=1
MSLEVEL=2
SOURCE_INSTRUMENT=LC-ESI-qTof
FILENAME=NCP003592_E2_F11_BE2_01_15736.mzXML
SEQ=*..*
IONMODE=Positive
ORGANISM=GNPS-NIH-CLINICALCOLLECTION1
NAME=URAPIDIL HYDROCHLORIDE [M+H]
PI=Dorrestein
DATACOLLECTOR=Garg_Neha
SMILES=COc1ccccc1N2CCN(CCCNc3cc(=O)n(C)c(=O)n3C)CC2
INCHI=N/A
INCHIAUX=N/A
PUBMED=N/A
SUBMITUSER=negarg
LIBRARYQUALITY=1
SPECTRUMID=CCMSLIB00000079194
USI=mzspec:GNPS:GNPS-NIH-CLINICALCOLLECTION1:accession:CCMSLIB00000079194
SCANS=1013
46.784603	224.0
46.892212	164.0
48.15863	140.0
48.500389	236.0
48.768276	144.0
49.83736	184.0
50.56926	168.0
50.837116	184.0
52.118011	180.0
52.433159	188.0
52.529766	240.0
52.760822	156.0
53.305801	236.0
53.933945	148.0
53.982193	144.0
54.52755	152.0
54.973778	184.0
56.162167	204.0
56.389114	216.0
57.585072	148.0
58.810364	228.0
58.982967	200.0
59.067066	156.0
59.909832	144.0
61.18906	144.0
61.454018	140.0
61.896362	148.0
62.491245	152.0
63.313656	216.0
63.850071	176.0
64.804657	204.0
64.987442	164.0
65.032372	192.0
65.107834	160.0
65.947227	156.0
66.185036	176.0
67.120979	188.0
67.204163	140.0
67.735481	180.0
68.032295	192.0
69.245903	204.0
69.946587	200.0
70.572189	168.0
71.135101	180.0
72.648819	152.0
73.931839	200.0
74.077377	204.0
74.267639	284.0
75.545784	176.0
75.665192	152.0
75.770836	192.0
76.401031	184.0
76.738907	276.0
77.063538	160.0
77.178902	164.0
77.325844	176.0
77.774536	216.0
80.005424	148.0
80.76918	160.0
80.993607	168.0
82.217316	156.0
82.765045	148.0
83.071327	144.0
83.447258	148.0
84.145279	160.0
84.479492	176.0
85.495979	144.0
86.744553	140.0
86.88549	168.0
87.776405	188.0
87.972305	200.0
88.654999	200.0
88.976677	184.0
89.590706	180.0
89.694351	152.0
90.253159	256.0
90.366646	164.0
90.965508	240.0
91.581581	156.0
91.970551	208.0
92.075562	192.0
92.718376	188.0
93.067497	192.0
93.669449	252.0
94.410591	184.0
94.656357	184.0
95.121658	172.0
95.323647	228.0
96.089783	328.0
96.516594	160.0
97.077187	596.0
97.117813	156.0
97.669746	160.0
98.085175	312.0
98.097931	384.0
98.539108	188.0
98.602341	180.0
98.891098	156.0
99.406364	168.0
99.549286	172.0
99.863297	228.0
100.494781	152.0
100.608543	152.0
100.652466	160.0
100.732353	220.0
100.806274	196.0
101.096237	140.0
101.538979	176.0
102.201889	168.0
102.220001	188.0
103.297371	144.0
103.439018	152.0
104.043121	152.0
105.868019	172.0
106.066238	184.0
107.044685	164.0
108.047798	144.0
108.151268	156.0
108.870689	156.0
108.980782	164.0
110.348038	184.0
110.774963	192.0
111.05484	468.0
112.033287	140.0
112.45079	164.0
112.543671	140.0
112.657722	216.0
113.070038	148.0
114.469017	220.0
114.946503	160.0
115.574715	196.0
115.698853	280.0
115.846611	168.0
115.910355	128.0
116.163872	196.0
117.055809	252.0
118.066399	368.0
118.161331	144.0
118.460953	128.0
119.07077	148.0
119.656258	168.0
120.044014	312.0
121.062912	328.0
122.056778	180.0
123.067345	300.0
123.134987	208.0
123.226868	216.0
123.439056	172.0
123.61824	204.0
124.082466	156.0
125.045212	156.0
125.075409	188.0
125.108414	112.0
125.899078	148.0
126.057686	188.0
126.080032	164.0
127.085457	156.0
128.061081	304.0
128.08812	196.0
128.599945	256.0
128.627029	168.0
128.645096	140.0
129.194229	168.0
129.302841	164.0
129.341324	284.0
130.069458	136.0
130.844116	152.0
131.001251	156.0
131.036057	156.0
131.057983	164.0
131.388794	156.0
131.457245	216.0
131.653564	212.0
131.829468	144.0
132.046646	216.0
132.080063	304.0
132.135864	144.0
132.56633	140.0
133.05011	156.0
133.790543	144.0
133.917191	148.0
134.059708	1944.0
134.097672	172.0
134.19603	176.0
134.362076	140.0
134.761185	152.0
135.078278	704.0
135.175583	140.0
135.469421	208.0
135.508804	208.0
136.0755	684.0
136.128113	144.0
137.075424	128.0
138.37587	172.0
138.612442	168.0
139.08667	4628.0
140.089996	576.0
140.838364	212.0
140.915955	148.0
141.065781	6368.0
141.116928	212.0
141.315521	156.0
141.68486	216.0
142.068954	416.0
142.508118	184.0
142.52951	148.0
143.133682	212.0
143.593613	160.0
144.078171	272.0
144.338684	184.0
144.721527	176.0
144.976349	156.0
145.070404	256.0
146.060349	348.0
146.084671	660.0
146.609573	148.0
146.705994	164.0
147.067001	448.0
147.082611	268.0
147.771027	172.0
148.075928	996.0
148.619034	172.0
148.650589	164.0
148.706406	176.0
148.742813	160.0
149.000214	140.0
149.081711	156.0
149.221375	184.0
149.600891	156.0
149.6642	140.0
150.091354	4204.0
150.159653	164.0
150.632401	196.0
150.669113	128.0
150.896332	172.0
151.092255	536.0
151.927368	180.0
152.101013	184.0
152.883163	228.0
153.605072	140.0
153.725967	144.0
154.066696	216.0
154.917679	184.0
155.582291	148.0
155.795868	160.0
156.322968	172.0
156.447418	156.0
156.875885	156.0
157.075378	204.0
157.7146	164.0
158.007172	144.0
159.067215	224.0
159.094315	336.0
159.195267	144.0
160.075027	232.0
160.592026	148.0
160.773682	152.0
160.801437	224.0
161.078842	196.0
162.091751	9428.0
163.093674	980.0
163.826462	140.0
164.10408	412.0
164.310837	140.0
164.651886	144.0
164.673309	148.0
164.857254	160.0
164.949265	148.0
165.104187	256.0
167.080704	148.0
167.118881	184.0
167.839249	224.0
168.077576	4464.0
168.157379	200.0
168.188354	160.0
168.694641	172.0
169.082596	220.0
169.276779	148.0
170.079361	140.0
170.179108	140.0
170.219467	148.0
170.729568	144.0
172.419327	168.0
172.878571	200.0
174.089355	1248.0
174.113602	476.0
174.149353	196.0
174.681503	200.0
175.087021	1068.0
175.122711	140.0
175.316605	152.0
175.727676	168.0
175.849335	140.0
176.105331	448.0
176.311523	172.0
177.104477	1308.0
178.103424	420.0
178.15036	156.0
178.5065	188.0
179.935074	200.0
180.292587	180.0
180.685638	160.0
180.765915	216.0
180.859573	140.0
182.06337	224.0
182.091507	608.0
182.132095	176.0
182.219162	184.0
182.738754	140.0
182.976746	128.0
183.052979	152.0
183.094879	200.0
183.742996	236.0
183.872513	184.0
185.075455	164.0
185.380219	148.0
185.414062	144.0
186.361084	156.0
187.081802	148.0
188.013977	160.0
188.136627	132.0
188.636703	148.0
188.664047	152.0
189.102203	1524.0
189.134552	156.0
189.350845	144.0
189.649475	148.0
189.959335	156.0
190.024643	124.0
190.071808	184.0
190.110779	48720.0
190.228958	172.0
190.255707	172.0
190.282684	288.0
190.746552	140.0
190.791412	200.0
190.886017	120.0
191.010468	156.0
191.07959	112.0
191.113174	4956.0
191.285522	104.0
191.39119	148.0
192.120056	488.0
192.231903	176.0
192.264175	104.0
192.389236	156.0
192.449966	156.0
192.585602	104.0
193.09584	132.0
193.133087	1756.0
193.179581	148.0
194.093201	540.0
194.137939	380.0
194.215546	156.0
194.337616	148.0
194.626266	144.0
194.99852	176.0
195.131943	168.0
195.159744	156.0
195.362778	140.0
195.560333	168.0
195.732941	164.0
195.944611	144.0
196.022629	148.0
196.076904	152.0
196.108627	38252.0
196.293015	172.0
196.797134	132.0
197.111404	2840.0
197.597397	164.0
197.766296	132.0
197.872528	132.0
198.113007	932.0
198.588455	136.0
199.116684	184.0
199.399506	128.0
200.127747	276.0
200.633316	172.0
201.431931	160.0
202.118927	200.0
202.693741	140.0
203.117294	2804.0
203.345993	156.0
203.874222	152.0
204.123734	648.0
204.348831	204.0
204.485672	192.0
204.82164	160.0
204.870071	160.0
205.018234	188.0
205.052338	120.0
205.069611	348.0
205.095703	196.0
205.13443	38312.0
205.252701	136.0
205.373642	164.0
205.421906	100.0
205.465378	176.0
205.569122	112.0
205.751282	140.0
206.065445	148.0
206.137695	4772.0
206.724823	132.0
206.835876	176.0
206.908508	148.0
207.116501	160.0
207.142929	540.0
207.816223	128.0
207.854965	180.0
207.887695	152.0
208.091995	140.0
209.14534	148.0
210.124222	144.0
210.425262	164.0
210.740082	200.0
212.370285	140.0
212.683243	168.0
213.115936	180.0
213.356415	232.0
213.490921	144.0
214.069656	164.0
215.116699	156.0
215.546021	188.0
215.741852	180.0
216.127151	140.0
216.310471	220.0
217.131241	1052.0
217.340958	204.0
218.140427	184.0
218.731033	192.0
219.149445	15860.0
219.694641	168.0
220.107834	180.0
220.153107	2256.0
221.155594	164.0
222.120316	332.0
222.253418	152.0
222.470459	148.0
223.400604	168.0
223.439285	196.0
224.624924	160.0
225.133514	468.0
228.104462	164.0
228.209686	148.0
228.266815	148.0
228.435242	232.0
229.139786	248.0
229.500015	116.0
230.144043	180.0
231.044693	160.0
231.091324	140.0
231.150879	936.0
231.998627	184.0
232.146759	984.0
232.901733	224.0
232.957565	160.0
233.03656	140.0
233.165451	26232.0
233.232666	136.0
233.516861	312.0
234.168091	4944.0
234.279938	156.0
234.515503	144.0
234.569427	168.0
234.927155	168.0
234.983185	116.0
235.172394	532.0
235.715942	112.0
235.772919	144.0
236.133896	184.0
236.225433	144.0
237.13176	140.0
237.288101	148.0
238.131958	200.0
239.035782	148.0
239.150879	912.0
239.439056	148.0
239.907394	180.0
239.944672	224.0
240.152496	496.0
242.04744	176.0
242.149185	144.0
242.553482	140.0
242.65889	192.0
242.773605	208.0
242.944199	148.0
243.111145	156.0
243.307297	148.0
243.329025	152.0
243.465652	208.0
244.205322	180.0
244.728119	176.0
245.893982	188.0
246.711166	168.0
246.893707	156.0
247.115906	356.0
247.168167	5376.0
247.222183	148.0
247.735657	176.0
247.763855	172.0
247.801453	228.0
248.174866	4132.0
248.296722	144.0
248.717148	188.0
249.023621	176.0
249.179688	1044.0
249.936508	152.0
250.178848	148.0
250.437057	148.0
253.314621	168.0
254.531754	140.0
255.781906	156.0
256.125793	160.0
257.138214	232.0
257.890259	144.0
257.963776	184.0
258.160736	188.0
259.017456	180.0
259.503662	248.0
260.119598	156.0
260.684875	168.0
260.861633	196.0
261.019165	152.0
261.714203	164.0
262.216705	168.0
263.144562	220.0
263.333008	148.0
264.20578	148.0
264.480499	160.0
265.162506	176.0
266.164978	128.0
266.403717	164.0
266.569427	188.0
266.940002	156.0
267.411713	148.0
267.834991	148.0
268.327057	188.0
268.447693	156.0
271.771057	192.0
272.191193	188.0
272.247009	140.0
273.127808	156.0
273.170593	148.0
274.178101	144.0
275.441772	152.0
276.168854	528.0
276.609009	144.0
277.176453	248.0
278.457184	148.0
280.098907	200.0
281.075745	224.0
281.265961	168.0
281.65329	148.0
282.104401	172.0
282.957489	156.0
284.140533	148.0
284.234497	156.0
287.13089	208.0
287.72757	128.0
288.900818	212.0
290.162628	156.0
291.12085	160.0
293.039276	212.0
293.267609	188.0
294.967438	152.0
295.702789	160.0
297.015076	160.0
297.632812	140.0
297.941925	176.0
298.203064	204.0
298.526215	152.0
298.562286	140.0
299.166168	160.0
299.565643	156.0
299.879211	152.0
299.979156	148.0
300.174011	388.0
300.907166	184.0
301.14093	120.0
302.466248	152.0
304.05365	268.0
304.536224	160.0
304.76886	124.0
306.000214	144.0
306.390289	152.0
308.082245	140.0
308.564545	140.0
310.219299	200.0
310.385193	224.0
313.075348	152.0
313.386902	180.0
313.742859	140.0
317.207214	200.0
317.955597	144.0
318.18277	172.0
318.34256	180.0
318.864777	144.0
319.63797	136.0
320.195374	168.0
322.112854	120.0
324.296936	140.0
324.669769	172.0
325.26178	188.0
325.421448	184.0
326.04834	140.0
326.27121	220.0
326.440186	148.0
327.555908	196.0
327.811707	172.0
328.284821	196.0
328.663696	128.0
329.90506	148.0
331.218628	184.0
332.280792	148.0
332.846985	180.0
335.353516	204.0
338.561218	164.0
339.61673	164.0
340.064362	168.0
341.567139	164.0
342.940552	168.0
343.478882	148.0
343.984406	180.0
345.052032	172.0
346.26944	168.0
346.643616	256.0
346.788147	144.0
348.116272	160.0
349.45813	180.0
351.82843	160.0
351.936707	148.0
353.742432	168.0
353.854736	140.0
355.428925	152.0
355.905609	172.0
355.94693	156.0
357.315063	148.0
358.629272	152.0
358.749878	172.0
359.06189	144.0
359.153351	240.0
359.207825	168.0
360.353821	160.0
360.591858	164.0
360.633453	188.0
360.659912	152.0
361.117401	180.0
361.705109	208.0
361.817444	184.0
362.249146	144.0
362.567413	164.0
362.737976	200.0
364.400177	144.0
364.664459	116.0
366.012848	152.0
366.203278	168.0
367.606201	148.0
369.053894	216.0
371.071625	144.0
372.622131	212.0
373.103485	164.0
374.079102	192.0
375.752167	148.0
376.125732	124.0
376.485565	140.0
377.103699	152.0
377.536682	168.0
378.426666	180.0
378.848816	164.0
380.194244	212.0
380.368896	160.0
381.266083	148.0
381.806458	220.0
381.876465	140.0
382.981842	164.0
383.137024	124.0
383.370148	108.0
383.571381	360.0
383.845245	124.0
384.067505	140.0
384.583099	112.0
384.660797	144.0
385.064575	144.0
385.365204	156.0
385.608215	168.0
385.656433	124.0
385.986847	184.0
386.21994	520.0
386.290527	140.0
386.361115	196.0
386.53418	104.0
386.586487	96.0
386.67041	200.0
386.722229	184.0
386.833771	172.0
386.865936	204.0
387.01535	136.0
387.042389	148.0
387.081268	152.0
387.137115	360.0
387.171722	152.0
387.202576	200.0
387.211029	352.0
387.239166	272.0
387.280548	160.0
387.32019	120.0
387.405518	228.0
387.468964	324.0
387.554657	144.0
387.624969	316.0
387.658539	120.0
387.705688	336.0
387.771759	308.0
387.817291	480.0
387.850494	332.0
387.897247	252.0
387.918243	440.0
387.952271	400.0
387.990784	452.0
388.048767	352.0
388.08844	580.0
388.135651	596.0
388.237488	226792.0
388.371979	300.0
388.498993	296.0
388.536407	176.0
388.552216	288.0
388.599213	360.0
388.640167	360.0
388.704041	200.0
388.75528	108.0
388.826569	368.0
388.883545	7012.0
388.942322	232.0
389.028534	556.0
389.057098	204.0
389.140015	232.0
389.149475	356.0
389.191162	284.0
389.238617	104264.0
389.367065	136.0
389.419373	164.0
389.464783	232.0
389.524384	352.0
389.556366	296.0
389.57019	104.0
389.62738	160.0
389.764771	108.0
389.843109	136.0
389.883575	696.0
389.965637	196.0
390.100616	240.0
390.179047	188.0
390.240143	14228.0
390.353668	132.0
390.534851	148.0
390.565247	200.0
390.662811	144.0
390.717346	160.0
390.788971	148.0
390.851746	196.0
391.034576	100.0
391.130127	344.0
391.243042	780.0
391.349152	160.0
391.389771	148.0
391.443085	116.0
391.51825	384.0
391.573425	252.0
391.638092	128.0
391.685089	184.0
391.733429	204.0
391.832428	188.0
391.874084	176.0
392.031342	152.0
392.070923	112.0
392.137085	108.0
392.387299	152.0
392.490723	176.0
392.667297	104.0
392.724915	112.0
392.780396	276.0
392.904694	204.0
392.941315	100.0
393.707458	104.0
393.850037	120.0
393.908936	108.0
394.135284	148.0
395.51944	152.0
396.254761	128.0
399.207245	96.0
407.110962	108.0
412.198425	108.0
480.082886	232.0
507.756531	144.0
579.190125	140.0
620.297485	160.0
707.697693	164.0
728.902954	140.0
795.194519	140.0
820.976074	140.0
870.72821	152.0
1111.038818	188.0
1197.638672	144.0
1326.160278	140.0
1426.774292	140.0
1475.339966	176.0
1479.134155	160.0
1487.48938	240.0
1509.86438	264.0
1525.814453	144.0
1528.871338	232.0
1550.958496	204.0
1604.867676	192.0
1608.042603	228.0
1646.943604	144.0
1654.552979	160.0
1659.227417	160.0
1672.557983	148.0
1674.585327	140.0
1685.002197	212.0
1702.481812	152.0
1710.308716	168.0
1714.146606	196.0
1734.112793	160.0
1753.019409	208.0
1757.53894	148.0
1764.220337	156.0
1782.424438	144.0
1816.321167	156.0
1818.815796	140.0
1830.386475	148.0
1866.203979	144.0
1872.390991	152.0
1955.32959	140.0
1957.838623	156.0
1972.025146	152.0
1976.75647	144.0
1977.358276	144.0
1985.127563	156.0
1985.368164	128.0
1997.864258	176.0
1998.193359	176.0
END IONS

BEGIN IONS
PEPMASS=359.197
CHARGE=1
MSLEVEL=2
SOURCE_INSTRUMENT=LC-ESI-qTof
FILENAME=NCP003512_A2_B11_BD4_01_15728.mzXML
SEQ=*..*
IONMODE=Positive
ORGANISM=GNPS-NIH-CLINICALCOLLECTION1
NAME=ITOPRIDE HCl [M+H]
PI=Dorrestein
DATACOLLECTOR=Garg_Neha
SMILES=COc1ccc(cc1OC)C(=O)NCc2ccc(OCCN(C)C)cc2
INCHI=N/A
INCHIAUX=N/A
PUBMED=N/A
SUBMITUSER=negarg
LIBRARYQUALITY=1
SPECTRUMID=CCMSLIB00000079265
USI=mzspec:GNPS:GNPS-NIH-CLINICALCOLLECTION1:accession:CCMSLIB00000079265
SCANS=1057
44.988564	236.0
47.618423	268.0
48.165237	148.0
49.611095	160.0
50.887905	196.0
52.724361	196.0
54.352463	188.0
55.137363	144.0
59.068233	216.0
59.709362	172.0
60.094467	164.0
60.817158	152.0
61.701969	164.0
62.43895	140.0
64.082085	176.0
64.793045	192.0
65.801437	148.0
66.047066	144.0
66.160339	164.0
68.191208	248.0
74.128319	144.0
75.434647	164.0
75.888222	144.0
77.763527	204.0
78.303276	140.0
78.410339	240.0
80.069031	148.0
81.404922	140.0
82.891327	156.0
84.159142	152.0
85.471535	188.0
86.493958	184.0
89.447037	144.0
90.898521	140.0
91.31646	220.0
91.583504	144.0
92.258423	180.0
92.738884	204.0
92.926811	176.0
93.266716	140.0
93.92717	152.0
93.99662	196.0
95.260887	272.0
96.285408	156.0
97.43129	160.0
97.588516	160.0
97.732101	148.0
98.043228	176.0
98.955811	160.0
99.657928	196.0
100.77169	204.0
102.066498	156.0
104.564873	148.0
105.07225	140.0
105.407104	168.0
105.468414	184.0
105.846886	156.0
106.023056	172.0
106.558617	140.0
109.027901	172.0
109.063232	160.0
110.495857	156.0
111.025795	160.0
112.327721	144.0
112.669701	148.0
113.478165	152.0
113.499367	156.0
114.123611	204.0
114.723991	148.0
116.017342	180.0
119.090141	188.0
121.028847	156.0
121.065666	308.0
123.042801	172.0
123.19297	152.0
124.633049	176.0
124.773071	176.0
124.988815	148.0
126.12619	168.0
126.177605	140.0
127.035316	172.0
127.783417	176.0
129.288467	144.0
129.551117	140.0
130.370193	200.0
132.26091	192.0
133.064896	1172.0
134.06842	144.0
134.950195	192.0
136.006546	180.0
136.180695	152.0
136.232773	152.0
137.058594	264.0
137.818359	172.0
139.816269	156.0
140.513733	204.0
141.06398	200.0
143.683365	160.0
144.756546	188.0
147.687866	160.0
147.750763	144.0
149.276382	228.0
149.843506	164.0
150.880737	164.0
154.78299	156.0
156.65065	152.0
157.816132	208.0
158.384201	188.0
158.657349	144.0
160.714645	204.0
162.797913	188.0
163.589142	160.0
164.110901	532.0
164.447632	156.0
164.733139	132.0
164.922684	156.0
165.018661	184.0
165.055313	21480.0
165.54332	116.0
165.712479	172.0
165.846146	96.0
165.979996	156.0
166.022049	108.0
166.057632	2192.0
166.12355	33580.0
166.182617	188.0
166.298096	164.0
166.76506	188.0
167.060364	228.0
167.126511	4216.0
167.562027	116.0
168.080399	140.0
168.126144	588.0
168.41069	148.0
170.908432	152.0
173.184845	172.0
175.015244	156.0
176.038345	144.0
177.316101	172.0
178.123459	5480.0
178.539978	160.0
178.80069	144.0
179.124893	584.0
180.127716	192.0
180.738037	164.0
181.847488	180.0
182.081055	192.0
189.283951	168.0
189.390762	208.0
192.653152	148.0
193.591202	104.0
193.723724	144.0
194.08522	148.0
194.161667	216.0
194.311447	160.0
194.833374	156.0
195.050125	168.0
196.699142	140.0
202.553665	180.0
204.515717	164.0
205.78714	200.0
206.229919	164.0
207.908203	164.0
210.057465	176.0
215.389862	164.0
218.42955	152.0
220.313217	160.0
222.971069	196.0
224.671265	160.0
226.923264	172.0
227.517288	188.0
228.253387	156.0
231.311798	168.0
231.666885	144.0
232.107681	144.0
233.032089	160.0
234.063187	160.0
234.319031	192.0
236.031311	148.0
238.112061	192.0
240.522873	152.0
242.703903	232.0
243.666046	140.0
243.889786	140.0
251.034302	164.0
251.671692	172.0
252.683075	216.0
256.532104	140.0
257.716095	172.0
259.184753	160.0
263.19577	140.0
263.26358	176.0
264.618408	168.0
266.441071	208.0
270.111023	584.0
271.025085	144.0
271.785767	180.0
273.837067	176.0
277.319458	176.0
278.427551	152.0
279.414764	156.0
279.814148	232.0
281.217529	160.0
281.507965	204.0
283.019379	148.0
283.221344	140.0
285.399994	148.0
285.667328	156.0
288.524902	164.0
288.699463	212.0
289.836853	140.0
291.421387	156.0
291.941437	148.0
294.548737	180.0
296.589325	176.0
299.11615	140.0
299.181549	148.0
299.918701	152.0
303.316498	152.0
303.344208	144.0
309.934631	176.0
310.484985	160.0
311.102509	172.0
314.651154	196.0
315.251587	188.0
316.185211	144.0
316.886322	144.0
317.467651	188.0
317.694641	160.0
320.054535	164.0
320.909637	192.0
321.455383	160.0
323.292145	140.0
325.643951	196.0
326.517303	164.0
326.600037	144.0
330.478088	180.0
332.090118	156.0
332.394836	184.0
332.863098	192.0
333.357117	160.0
334.153412	160.0
334.92514	184.0
337.797852	140.0
341.473114	172.0
344.23703	192.0
346.378418	168.0
346.923157	148.0
347.61673	152.0
349.463409	152.0
353.005524	160.0
354.069733	140.0
354.870758	156.0
355.628052	144.0
355.906555	140.0
356.061157	156.0
356.43985	148.0
356.519043	100.0
356.572296	228.0
356.770203	136.0
357.079865	144.0
357.156708	244.0
357.260193	236.0
357.365631	128.0
357.444427	128.0
357.564209	384.0
357.594086	100.0
357.695038	164.0
357.771973	140.0
357.861176	144.0
357.909302	128.0
357.992462	272.0
358.074921	108.0
358.238037	200.0
358.275604	188.0
358.337646	100.0
358.388641	316.0
358.425323	120.0
358.515625	124.0
358.546661	196.0
358.634125	144.0
358.685486	240.0
358.746765	208.0
358.820526	184.0
358.84906	196.0
358.90451	136.0
358.950409	216.0
359.005005	212.0
359.07016	304.0
359.19931	219836.0
359.349304	212.0
359.386566	112.0
359.55307	388.0
359.582245	228.0
359.631805	240.0
359.678986	200.0
359.716431	204.0
359.775269	428.0
359.818939	2232.0
359.876984	312.0
359.932404	172.0
359.988556	96.0
360.041504	124.0
360.084473	264.0
360.121216	284.0
360.155945	456.0
360.200806	53384.0
360.321777	224.0
360.381714	212.0
360.440796	188.0
360.486786	196.0
360.586121	188.0
360.702148	136.0
360.769562	108.0
360.912811	116.0
361.079376	256.0
361.151215	200.0
361.202606	8084.0
361.657745	192.0
361.713013	364.0
361.762146	96.0
361.810608	160.0
361.884613	112.0
361.998077	120.0
362.072479	140.0
362.135437	208.0
362.20755	528.0
362.2677	148.0
362.32486	192.0
362.375458	188.0
362.438538	204.0
362.483765	232.0
362.549103	116.0
362.575287	256.0
362.669067	360.0
362.755157	100.0
362.884338	124.0
362.94574	112.0
363.222595	112.0
363.282806	168.0
363.344452	172.0
363.435547	144.0
363.67749	100.0
363.743958	96.0
364.061249	148.0
364.518188	104.0
364.962463	120.0
366.071533	168.0
367.50473	160.0
375.287048	152.0
376.448486	156.0
383.221008	144.0
388.760162	116.0
426.845306	152.0
467.374756	156.0
542.599731	144.0
873.579468	152.0
1406.285889	188.0
1495.120117	176.0
1713.979492	152.0
1784.809082	152.0
1825.074219	172.0
1861.621216	140.0
1889.349243	144.0
1895.063354	212.0
1910.830078	152.0
1914.137573	236.0
1918.711792	164.0
1918.772827	156.0
1920.804688	196.0
1970.475464	168.0
END IONS

BEGIN IONS
PEPMASS=404.158
CHARGE=1
MSLEVEL=2
SOURCE_INSTRUMENT=LC-ESI-qTof
FILENAME=NCP002928_A2_B11_BA2_01_15696.mzXML
SEQ=*..*
IONMODE=Positive
ORGANISM=GNPS-NIH-CLINICALCOLLECTION2
NAME=Perphenazine aka 2-[4-[3-(2-chlorophenothiazin-10-yl)propyl]piperazin-1-yl]ethanol M+H
PI=Dorrestein
DATACOLLECTOR=Garg_Neha
SMILES=C1CN(CCN1CCCN2C3=CC=CC=C3SC4=C2C=C(C=C4)Cl)CCO
INCHI= 
INCHIAUX=N/A
PUBMED=N/A
SUBMITUSER=negarg
LIBRARYQUALITY=1
SPECTRUMID=CCMSLIB00000076970
USI=mzspec:GNPS:GNPS-NIH-CLINICALCOLLECTION2:accession:CCMSLIB00000076970
SCANS=1214
44.975765	168.0
45.001133	144.0
45.998642	168.0
46.696468	164.0
46.865273	148.0
47.239357	200.0
47.770248	152.0
48.094074	156.0
48.314419	248.0
48.33593	180.0
49.239567	188.0
49.823689	180.0
49.905209	152.0
50.435402	220.0
52.201813	172.0
52.374519	188.0
52.406216	184.0
52.522991	144.0
52.722237	184.0
53.339687	184.0
53.601662	220.0
54.118748	196.0
54.398773	184.0
54.538322	180.0
54.763443	148.0
55.059895	156.0
55.102734	160.0
55.632931	160.0
56.000221	208.0
56.39711	172.0
56.438972	144.0
56.670975	192.0
56.840412	168.0
56.945499	208.0
57.190582	160.0
57.317089	204.0
58.077541	164.0
58.200466	156.0
58.426929	196.0
58.463448	212.0
58.52586	164.0
58.544136	200.0
59.001892	212.0
59.176308	152.0
59.209999	156.0
59.395458	156.0
60.039913	192.0
60.276104	204.0
60.628937	200.0
60.777805	208.0
61.607662	184.0
62.215298	156.0
63.10862	172.0
63.239925	168.0
65.009018	164.0
65.54612	184.0
65.733177	208.0
66.068367	116.0
66.148544	176.0
66.521393	164.0
66.678947	152.0
66.771614	216.0
67.014168	168.0
67.610191	224.0
68.01667	148.0
68.28614	212.0
69.61158	144.0
69.845924	176.0
70.102318	140.0
70.738678	208.0
70.837479	152.0
70.877686	176.0
71.058769	160.0
71.327469	196.0
71.640465	152.0
72.041969	192.0
72.101112	188.0
72.145058	164.0
72.785507	172.0
72.93161	204.0
72.997917	152.0
73.919083	164.0
74.560463	148.0
74.802986	160.0
74.828812	164.0
74.935593	200.0
74.975227	224.0
75.006248	160.0
75.591743	140.0
76.146507	156.0
77.668526	148.0
77.807159	192.0
78.429901	148.0
78.994965	164.0
79.508804	156.0
80.081299	152.0
80.313004	204.0
81.045982	160.0
81.216293	180.0
81.390373	156.0
81.413719	200.0
81.847099	156.0
81.931755	140.0
81.991219	220.0
83.148697	152.0
83.674034	164.0
85.484314	148.0
85.668602	224.0
86.334763	172.0
86.482773	140.0
86.844078	260.0
88.109917	144.0
88.448402	164.0
89.132942	180.0
90.005081	184.0
90.80558	160.0
91.70871	256.0
92.442818	156.0
95.78038	140.0
96.447708	192.0
96.484856	192.0
96.553291	176.0
96.848831	140.0
96.952675	148.0
97.076828	760.0
98.045364	188.0
98.084091	6780.0
98.938187	148.0
99.086571	636.0
99.288246	108.0
99.829079	192.0
100.075714	8328.0
100.110794	328.0
100.277023	212.0
100.336823	244.0
101.078621	468.0
101.556656	200.0
101.806129	120.0
102.676933	216.0
102.733185	144.0
102.767708	148.0
102.88073	188.0
103.452843	152.0
103.560165	156.0
103.635117	160.0
104.652725	176.0
104.869148	200.0
105.378181	152.0
105.845184	184.0
106.027504	144.0
106.068497	300.0
106.173065	184.0
106.482971	188.0
106.58979	192.0
107.570152	164.0
108.4617	208.0
108.667007	208.0
109.232079	164.0
109.57766	148.0
110.061562	192.0
110.228043	148.0
110.358261	204.0
110.894173	200.0
112.076523	252.0
112.099564	804.0
112.475433	132.0
112.771637	144.0
112.881569	212.0
113.106201	1444.0
113.584717	148.0
113.858521	196.0
114.02636	220.0
114.090126	148.0
114.112694	352.0
114.160294	176.0
114.207085	216.0
114.266647	156.0
114.370926	152.0
114.594528	152.0
115.081245	144.0
115.228195	188.0
115.369247	192.0
116.31395	144.0
117.068031	252.0
117.299149	180.0
117.467346	164.0
117.639984	164.0
117.824364	116.0
118.511566	180.0
120.443428	192.0
120.471832	228.0
120.666336	176.0
120.788803	140.0
120.96167	144.0
121.364784	144.0
122.188423	160.0
122.35569	192.0
122.946426	160.0
123.067833	212.0
123.768761	192.0
123.937103	172.0
123.999153	180.0
124.098907	180.0
124.307411	156.0
125.109085	584.0
125.17881	176.0
126.015274	152.0
126.086449	136.0
126.113335	476.0
126.214203	152.0
127.096733	204.0
127.122215	192.0
127.671806	160.0
127.78653	144.0
127.912552	180.0
128.093506	2876.0
129.09494	512.0
130.126846	208.0
130.148499	184.0
130.568909	140.0
130.664444	180.0
131.119812	364.0
131.589767	176.0
131.863892	172.0
132.081116	248.0
132.119995	156.0
132.754471	156.0
133.075714	164.0
133.498505	156.0
135.15477	176.0
135.506699	188.0
136.021545	140.0
136.077255	180.0
136.81192	188.0
137.747055	148.0
137.896591	200.0
139.172165	116.0
140.552658	192.0
140.727325	172.0
141.102493	480.0
141.139542	1948.0
141.190475	168.0
141.463226	192.0
141.488632	156.0
141.519409	192.0
142.114578	112.0
142.140427	156.0
142.560318	156.0
142.591644	188.0
142.641556	148.0
142.772324	176.0
142.807999	160.0
142.850815	160.0
142.960266	156.0
142.993011	116.0
143.11821	85800.0
143.25032	180.0
143.381409	112.0
143.540176	204.0
143.820648	148.0
143.860413	180.0
144.120361	7944.0
144.942398	168.0
145.122101	320.0
145.384338	164.0
146.132263	180.0
146.174133	152.0
146.675079	196.0
147.517548	244.0
148.966675	160.0
150.042328	204.0
150.086227	172.0
150.159378	160.0
151.670425	168.0
151.882584	184.0
152.116867	140.0
152.519714	184.0
153.302368	160.0
153.462585	148.0
154.062317	176.0
154.109268	176.0
154.151276	492.0
155.000031	176.0
155.386841	196.0
156.12706	196.0
157.131607	308.0
157.986008	204.0
158.980042	144.0
159.098007	192.0
161.242401	176.0
162.317505	176.0
162.647324	156.0
162.715866	236.0
165.157181	204.0
165.589737	172.0
165.963882	236.0
165.997696	148.0
166.19986	204.0
167.077332	188.0
167.199493	160.0
169.055023	160.0
169.130035	284.0
169.827087	140.0
169.930847	140.0
169.956787	256.0
170.30101	104.0
170.849518	140.0
171.015762	212.0
171.044205	172.0
171.092575	180.0
171.149109	74260.0
171.267456	184.0
171.40773	152.0
171.518982	140.0
172.002457	196.0
172.151382	5892.0
172.500473	96.0
173.069016	140.0
173.091339	160.0
173.149521	372.0
173.238968	144.0
173.460968	112.0
173.500183	108.0
173.625504	212.0
174.131088	184.0
174.504242	164.0
175.322113	176.0
176.4077	148.0
177.058426	120.0
177.522369	196.0
178.629913	184.0
179.307846	104.0
179.636856	144.0
181.993835	160.0
183.504135	152.0
183.544586	148.0
184.032959	156.0
184.85199	168.0
184.983185	136.0
185.908844	144.0
186.631409	168.0
191.087006	168.0
191.814041	152.0
192.191879	152.0
192.865723	160.0
193.673676	164.0
195.027725	160.0
197.7276	188.0
198.037003	140.0
199.041855	432.0
199.638107	208.0
200.415024	152.0
201.055145	200.0
201.111588	188.0
201.216034	140.0
202.112015	140.0
202.522507	148.0
203.588913	164.0
204.049225	140.0
205.084702	172.0
205.658737	220.0
206.092224	136.0
206.378647	152.0
206.653229	144.0
207.105621	140.0
207.222992	160.0
208.112122	168.0
208.548782	140.0
209.475327	152.0
209.538712	140.0
209.844208	196.0
209.933594	172.0
210.033508	336.0
210.126862	148.0
210.256714	152.0
211.045471	2528.0
211.34903	144.0
212.052185	328.0
213.03685	488.0
214.041733	7084.0
214.61676	180.0
215.042603	1728.0
216.039261	2340.0
216.84726	140.0
217.040741	280.0
217.254852	188.0
218.041061	132.0
218.624084	208.0
220.145233	156.0
220.198395	152.0
220.287018	140.0
220.48793	156.0
221.799118	152.0
222.051147	160.0
222.540771	148.0
223.041077	276.0
223.081268	164.0
224.0513	408.0
226.058121	152.0
226.162872	172.0
227.559845	152.0
228.049515	160.0
228.494568	140.0
229.129807	180.0
230.674942	176.0
231.440369	200.0
231.66449	160.0
231.996033	204.0
233.004181	1880.0
233.727325	164.0
234.009048	496.0
235.004562	768.0
235.274307	172.0
235.67746	144.0
235.830261	212.0
236.014481	196.0
236.047318	148.0
237.057495	192.0
238.068176	724.0
238.306366	144.0
238.546082	148.0
238.925949	176.0
239.076767	10044.0
239.127792	136.0
239.486694	96.0
240.079102	1888.0
240.215118	160.0
240.60704	144.0
241.067307	1068.0
241.710464	148.0
242.064987	424.0
243.691803	168.0
244.081284	196.0
244.478516	292.0
245.126251	224.0
245.293213	112.0
245.92775	176.0
246.013611	18988.0
246.570221	144.0
247.015472	3840.0
247.303009	156.0
248.010178	6812.0
248.384018	140.0
248.53775	152.0
248.657913	152.0
248.81395	176.0
249.013931	1092.0
250.014526	268.0
250.236771	100.0
250.439713	208.0
250.877716	152.0
251.827515	140.0
255.418762	164.0
255.68602	152.0
258.013397	252.0
258.654358	172.0
259.021179	160.0
259.589905	148.0
260.025482	276.0
261.01712	156.0
261.749329	164.0
262.021576	120.0
262.509796	168.0
264.548553	140.0
264.571228	148.0
265.108887	156.0
266.679718	160.0
267.25531	228.0
267.387573	144.0
270.921783	168.0
272.030212	152.0
273.799164	144.0
273.865021	148.0
273.953979	160.0
274.04364	2588.0
274.395569	208.0
275.048645	772.0
276.042023	1248.0
276.106049	196.0
276.297913	160.0
276.344238	156.0
277.044312	348.0
279.293427	168.0
279.882477	160.0
282.525848	160.0
282.776825	140.0
284.086975	164.0
285.823975	216.0
286.638855	160.0
288.157227	164.0
289.415436	164.0
290.70694	144.0
294.072662	96.0
295.6073	152.0
295.966705	168.0
297.152618	200.0
297.37912	152.0
297.646881	160.0
298.16217	148.0
300.262299	176.0
302.418213	144.0
303.374268	156.0
304.120056	148.0
305.861481	216.0
312.44751	160.0
314.950378	240.0
316.832306	144.0
317.089508	116.0
319.152893	120.0
319.331299	184.0
320.940918	144.0
320.980164	148.0
321.015808	160.0
323.302124	160.0
324.136505	156.0
326.369171	156.0
326.642487	172.0
328.833221	176.0
331.073517	96.0
333.600067	148.0
334.877289	192.0
335.453003	180.0
336.171509	176.0
337.062531	168.0
337.837616	184.0
338.489105	156.0
338.730835	160.0
340.785278	144.0
341.836914	176.0
345.11615	216.0
345.652496	140.0
347.82428	152.0
348.793793	172.0
349.429718	252.0
349.641815	228.0
355.486664	144.0
356.160309	236.0
357.106842	144.0
358.095642	116.0
358.400909	156.0
359.241669	140.0
363.039124	208.0
368.328979	144.0
370.180603	140.0
370.693939	192.0
371.05423	212.0
371.226776	180.0
374.166199	184.0
374.278198	180.0
375.116486	148.0
377.631439	148.0
377.79776	172.0
378.060852	148.0
378.170227	172.0
380.755249	164.0
381.322479	280.0
384.340546	192.0
385.12915	164.0
386.168091	236.0
387.746643	152.0
389.881622	164.0
391.144165	144.0
391.256226	136.0
393.695099	140.0
394.173096	248.0
394.54068	160.0
397.828796	172.0
397.983643	160.0
398.041534	96.0
398.68277	204.0
398.833801	168.0
398.891968	120.0
399.337097	144.0
399.649048	208.0
400.508972	164.0
400.991821	184.0
401.101776	140.0
401.16333	148.0
401.33493	108.0
401.549469	136.0
401.853668	140.0
401.9841	104.0
402.086914	156.0
402.133301	156.0
402.184265	100.0
402.258301	148.0
402.289948	296.0
402.337006	144.0
402.348694	100.0
402.437683	100.0
402.501526	128.0
402.55835	160.0
402.585419	168.0
402.663696	152.0
402.826111	156.0
402.906006	156.0
402.94516	144.0
402.983307	172.0
403.055603	188.0
403.098541	548.0
403.182709	216.0
403.252502	112.0
403.331299	176.0
403.445374	432.0
403.494568	96.0
403.531281	168.0
403.575287	376.0
403.610413	112.0
403.647552	248.0
403.691101	104.0
403.730621	172.0
403.804535	184.0
403.858429	212.0
403.911224	216.0
403.949463	188.0
404.000031	284.0
404.063202	116.0
404.157532	228508.0
404.308289	128.0
404.4505	144.0
404.514313	152.0
404.559235	408.0
404.601562	284.0
404.689972	176.0
404.816895	3204.0
404.901123	228.0
404.931854	228.0
404.985779	248.0
405.02243	164.0
405.094482	412.0
405.101868	336.0
405.159149	83588.0
405.297882	172.0
405.591217	180.0
405.639679	316.0
405.697357	120.0
405.727325	288.0
405.822083	392.0
405.934082	160.0
405.987152	252.0
406.068237	284.0
406.154175	111736.0
406.253662	260.0
406.39798	96.0
406.456909	252.0
406.532745	152.0
406.57663	124.0
406.637848	108.0
406.721893	148.0
406.762909	272.0
406.814941	320.0
406.899109	148.0
406.942993	188.0
407.016144	144.0
407.063721	244.0
407.155182	19220.0
407.259552	152.0
407.322662	320.0
407.349792	292.0
407.429321	460.0
407.489227	220.0
407.561066	108.0
407.602264	260.0
407.671326	292.0
407.730927	208.0
407.797455	232.0
407.841339	120.0
407.904388	304.0
408.152527	1204.0
408.2164	112.0
408.293701	216.0
408.428894	136.0
408.538269	124.0
408.604706	268.0
408.639099	124.0
408.817352	96.0
408.989532	128.0
409.035706	104.0
409.129425	108.0
409.177124	156.0
409.206238	140.0
409.27652	152.0
409.405701	120.0
409.592804	132.0
409.621094	128.0
409.661926	112.0
409.764374	112.0
409.885986	148.0
409.928131	140.0
410.361542	112.0
410.525574	96.0
410.560638	160.0
411.145691	104.0
421.28714	112.0
427.850708	140.0
456.086639	140.0
465.421417	144.0
511.094482	148.0
598.01355	164.0
883.865295	128.0
974.347229	156.0
1016.334351	164.0
1151.024048	184.0
1184.965698	148.0
1190.645386	148.0
1193.194702	156.0
1197.447388	176.0
1208.969849	168.0
1215.844604	176.0
1236.068726	200.0
1269.288696	176.0
1278.182007	176.0
1283.003906	176.0
1284.330322	228.0
1291.022461	148.0
1307.033691	160.0
1315.588745	168.0
1339.4104	160.0
1348.750366	216.0
1355.637451	148.0
1360.412231	216.0
1367.748535	156.0
1381.658813	184.0
1436.381714	208.0
1441.024658	144.0
1456.942261	176.0
1459.921875	172.0
1460.925903	216.0
1467.704346	244.0
1470.48877	176.0
1471.61853	180.0
1472.41272	196.0
1488.318115	140.0
1493.505493	156.0
1494.251709	232.0
1497.81604	140.0
1499.688354	184.0
1511.109741	140.0
1518.786743	160.0
1537.342651	172.0
1554.958252	156.0
1560.355835	144.0
1560.434448	144.0
1580.832397	192.0
1582.977661	172.0
1584.149902	204.0
1594.88623	144.0
1611.070557	152.0
1619.181396	144.0
1623.845947	152.0
1628.709839	180.0
1645.871948	212.0
1647.57605	140.0
1657.900757	152.0
1661.947144	196.0
1667.436768	148.0
1675.736938	204.0
1677.823364	168.0
1679.356323	172.0
1685.748901	240.0
1689.109131	252.0
1689.829102	184.0
1704.727905	192.0
1710.526367	156.0
1721.731567	196.0
1721.954468	168.0
1736.413452	140.0
1737.077026	152.0
1752.148926	148.0
1753.523926	156.0
1757.309814	236.0
1777.449951	204.0
1779.027832	140.0
1788.78772	168.0
1794.358643	180.0
1800.203613	220.0
1804.496094	144.0
1809.919678	216.0
1815.130981	220.0
1822.388306	152.0
1830.528564	184.0
1833.135254	164.0
1834.993408	148.0
1839.301514	204.0
1841.547119	164.0
1841.666748	148.0
1842.896973	164.0
1868.601562	168.0
1873.802368	124.0
1877.818848	204.0
1886.540039	216.0
1888.952759	204.0
1889.359253	164.0
1895.168823	176.0
1898.445435	204.0
1901.750854	148.0
1902.523438	144.0
1902.896851	160.0
1905.215698	156.0
1923.782471	148.0
1933.336304	164.0
1938.004028	204.0
1947.240601	144.0
1947.41626	200.0
1948.725098	220.0
1955.601929	156.0
1956.675903	240.0
1957.010498	200.0
1968.579468	244.0
1970.814331	140.0
1973.766602	156.0
1974.394409	180.0
1974.580078	192.0
1988.623169	148.0
1993.96106	236.0
2002.208252	248.0
END IONS

BEGIN IONS
PEPMASS=329.188
CHARGE=1
MSLEVEL=2
SOURCE_INSTRUMENT=LC-ESI-qTof
FILENAME=NCP003017_E2_F11_BA8_01_15703.mzXML
SEQ=*..*
IONMODE=Positive
ORGANISM=GNPS-NIH-CLINICALCOLLECTION2
NAME=Labetalol  M+H
PI=Dorrestein
DATACOLLECTOR=Garg_Neha
SMILES=CC(NCC(O)C1=CC(C(N)=O)=C(O)C=C1)CCC2=CC=CC=C2
INCHI=CC(CCc1ccccc1)NCC(O)c2ccc(O)c(c2)C(=O)N
INCHIAUX=N/A
PUBMED=N/A
SUBMITUSER=negarg
LIBRARYQUALITY=1
SPECTRUMID=CCMSLIB00000077054
USI=mzspec:GNPS:GNPS-NIH-CLINICALCOLLECTION2:accession:CCMSLIB00000077054
SCANS=1087
45.481033	188.0
46.020878	152.0
46.234459	148.0
46.354984	240.0
46.429546	176.0
46.746078	184.0
47.24683	272.0
48.165131	160.0
48.372967	172.0
48.477814	156.0
49.699364	180.0
51.06081	148.0
51.078262	180.0
51.091064	184.0
51.929573	288.0
52.396755	144.0
52.705524	176.0
54.954235	148.0
55.764271	204.0
56.967148	232.0
57.198727	196.0
57.527348	168.0
57.670849	168.0
58.138844	168.0
59.451305	196.0
59.66481	212.0
60.672947	156.0
61.503643	188.0
61.833431	248.0
62.799698	220.0
62.944889	140.0
64.602646	184.0
68.815697	220.0
69.326828	164.0
70.581985	220.0
70.911774	172.0
71.279305	152.0
71.354942	236.0
72.218338	188.0
73.29126	176.0
73.419113	140.0
73.979553	168.0
75.172379	172.0
75.407249	168.0
75.716942	156.0
77.238174	184.0
77.841072	140.0
78.202126	224.0
78.305344	156.0
78.772774	144.0
78.979584	148.0
79.076897	188.0
79.369202	176.0
79.930511	168.0
81.198891	144.0
81.227592	152.0
81.516647	172.0
81.622704	148.0
82.128769	152.0
82.422386	188.0
83.603561	168.0
84.545242	208.0
84.75766	152.0
86.085793	140.0
86.187386	180.0
86.226196	168.0
86.435165	212.0
86.770409	172.0
87.893837	196.0
88.602455	196.0
88.86306	228.0
88.919357	192.0
89.120285	216.0
89.643394	140.0
89.656586	188.0
89.901749	160.0
90.011238	144.0
90.041451	220.0
91.054024	5028.0
91.44445	148.0
91.659645	188.0
92.056526	332.0
92.17485	156.0
92.923515	140.0
93.063622	156.0
93.153885	144.0
93.717583	216.0
94.006821	148.0
94.020332	200.0
94.067024	288.0
94.120712	140.0
94.155472	228.0
94.654404	156.0
94.933449	236.0
94.958656	180.0
96.016914	164.0
96.276237	144.0
96.313347	152.0
96.876709	220.0
97.251236	164.0
97.329765	180.0
98.308105	196.0
98.720978	160.0
98.804054	208.0
99.418297	140.0
100.536728	144.0
100.644516	156.0
100.776344	176.0
100.876274	260.0
101.146317	140.0
101.314529	156.0
101.926476	144.0
102.171768	140.0
103.49173	164.0
105.033234	168.0
105.091347	188.0
105.115837	184.0
105.512085	144.0
105.771889	168.0
105.91317	148.0
105.993073	168.0
106.065163	988.0
106.179619	188.0
106.471046	232.0
106.74025	152.0
107.049416	1028.0
107.958977	156.0
108.052956	120.0
108.58857	200.0
110.691338	172.0
111.280533	156.0
111.477982	164.0
112.351784	172.0
115.615578	152.0
116.049423	688.0
117.004349	148.0
117.033127	372.0
117.13356	188.0
117.381409	152.0
118.066551	164.0
118.117882	200.0
118.308311	196.0
118.798073	216.0
119.048347	256.0
119.16497	140.0
119.695694	152.0
120.045189	560.0
120.081421	140.0
120.266884	156.0
120.310539	176.0
122.038216	236.0
122.982033	164.0
124.854187	140.0
125.506653	204.0
125.890465	160.0
127.119446	160.0
129.861267	228.0
129.989868	180.0
130.271393	160.0
130.644211	160.0
130.72612	172.0
131.08136	144.0
131.124664	176.0
131.364075	140.0
131.884705	156.0
132.081345	216.0
132.507141	160.0
132.587341	184.0
132.993301	172.0
133.051941	576.0
133.105804	248.0
134.060074	7300.0
134.101852	208.0
134.404022	208.0
134.944504	152.0
135.043716	1132.0
135.065353	520.0
135.219772	144.0
136.047287	156.0
136.075577	532.0
138.054184	332.0
138.123596	160.0
139.932953	140.0
140.312256	144.0
140.368851	160.0
142.86763	144.0
143.828827	132.0
144.044495	2228.0
144.071259	140.0
144.107376	168.0
144.241196	160.0
144.554504	148.0
145.029449	328.0
146.03714	184.0
146.057495	164.0
147.043488	4928.0
147.226898	176.0
147.317093	168.0
147.943436	152.0
148.047745	824.0
148.077911	188.0
148.109085	184.0
148.551697	176.0
149.723236	144.0
149.881577	144.0
150.055634	160.0
150.128922	216.0
150.603699	156.0
151.259003	236.0
151.37204	168.0
151.518585	180.0
151.670517	148.0
152.578796	140.0
152.972412	272.0
154.265045	152.0
157.275696	144.0
158.068207	108.0
158.839584	184.0
159.045334	160.0
159.076797	376.0
159.628204	144.0
159.650833	144.0
160.090393	168.0
160.928391	152.0
161.050339	292.0
161.405945	160.0
161.960464	144.0
161.98439	184.0
162.020737	140.0
162.055664	93428.0
162.116379	156.0
162.434189	216.0
162.467682	96.0
162.517212	140.0
162.555206	120.0
162.797989	148.0
162.870773	200.0
163.057159	7568.0
163.53949	200.0
163.788376	124.0
163.849152	100.0
163.957214	196.0
164.069717	3540.0
164.136017	168.0
164.20314	160.0
164.245285	144.0
164.537888	100.0
164.842712	140.0
165.013962	140.0
165.054703	2000.0
165.407928	176.0
166.057434	296.0
167.920837	140.0
168.207245	140.0
168.341507	160.0
170.086502	168.0
170.951981	152.0
172.072174	520.0
172.172028	228.0
172.208588	156.0
174.438431	180.0
176.073853	192.0
177.016129	160.0
177.766327	180.0
177.922928	148.0
178.293457	100.0
178.675034	156.0
179.081711	9280.0
179.58873	140.0
179.635864	224.0
180.065872	1160.0
180.084259	932.0
180.229431	216.0
181.06778	196.0
181.086868	192.0
182.220169	300.0
183.336853	176.0
183.368958	220.0
183.932922	232.0
185.02504	156.0
186.089066	156.0
186.367584	192.0
186.454544	188.0
186.579575	156.0
188.151535	152.0
188.799118	156.0
189.464249	148.0
189.985123	140.0
190.08577	5176.0
190.971252	160.0
190.996017	156.0
191.089966	268.0
191.117065	196.0
191.545776	160.0
192.140884	236.0
193.147537	212.0
193.559891	148.0
195.394547	144.0
196.115784	168.0
196.693176	164.0
199.581573	168.0
200.042984	148.0
201.11412	140.0
202.510864	164.0
203.256454	188.0
204.259338	148.0
205.03949	196.0
205.105438	144.0
207.112747	12548.0
207.288544	208.0
207.441879	120.0
208.11499	1492.0
208.78418	224.0
209.056808	140.0
209.109268	172.0
209.14093	160.0
209.982254	148.0
210.319824	184.0
210.461288	224.0
211.279205	140.0
211.3255	156.0
213.797791	160.0
216.53334	156.0
216.829239	236.0
219.50737	140.0
223.987015	144.0
224.107758	184.0
226.28421	136.0
227.130188	168.0
230.713684	264.0
231.21579	188.0
232.006363	164.0
233.93541	204.0
235.070877	156.0
240.631088	144.0
242.40654	164.0
242.449921	156.0
243.107361	208.0
243.964615	156.0
246.00737	180.0
247.869141	212.0
248.87915	164.0
250.029678	152.0
250.130402	152.0
252.098328	264.0
253.106369	164.0
253.921982	160.0
254.318573	156.0
256.369934	148.0
256.653625	164.0
256.790771	160.0
259.598694	176.0
261.980377	148.0
262.46109	152.0
263.329102	148.0
263.693756	144.0
264.369659	148.0
264.593018	196.0
264.706329	180.0
265.036743	156.0
265.227936	148.0
268.10614	128.0
268.130035	144.0
268.169495	140.0
268.208618	172.0
268.782593	176.0
269.127289	244.0
270.144989	196.0
270.21698	212.0
271.241974	164.0
272.314941	144.0
277.214081	160.0
278.152679	228.0
280.314484	200.0
280.454468	164.0
281.618927	172.0
282.143555	144.0
282.745636	160.0
283.502502	152.0
284.471832	200.0
285.610962	148.0
285.99118	192.0
287.548309	144.0
287.595551	172.0
290.047852	160.0
290.519196	176.0
293.229218	144.0
294.148499	17512.0
294.361847	140.0
295.152222	3896.0
295.32901	168.0
296.15509	512.0
299.155029	208.0
301.305695	172.0
301.794312	268.0
303.204834	236.0
303.740601	196.0
305.727966	144.0
306.058655	140.0
306.257141	176.0
307.665924	172.0
308.814911	168.0
309.470703	132.0
309.647461	128.0
309.832397	240.0
310.03598	112.0
310.087402	124.0
310.145935	264.0
310.316284	224.0
310.358948	288.0
310.489685	236.0
310.627411	188.0
310.819366	236.0
310.855743	196.0
310.955658	288.0
311.021912	188.0
311.067047	280.0
311.109039	216.0
311.132385	508.0
311.177032	173508.0
311.273224	172.0
311.315918	116.0
311.403992	280.0
311.440491	296.0
311.493439	124.0
311.571808	252.0
311.642365	132.0
311.688202	184.0
311.753906	1700.0
311.802612	100.0
311.880798	348.0
311.92572	252.0
311.971558	148.0
312.021027	196.0
312.087067	156.0
312.121246	124.0
312.179352	32112.0
312.277344	96.0
312.581848	136.0
312.641541	116.0
312.690277	168.0
312.878571	172.0
312.943146	140.0
313.079041	104.0
313.182495	3556.0
313.589264	132.0
313.640839	128.0
313.754303	128.0
313.837372	164.0
313.896118	140.0
313.975159	164.0
314.071198	224.0
314.185883	308.0
314.213684	132.0
314.23941	452.0
314.268097	120.0
314.31427	212.0
314.351624	208.0
314.403229	180.0
314.469788	148.0
314.604034	112.0
314.636139	140.0
314.709991	176.0
315.039581	144.0
315.247314	132.0
315.282349	104.0
315.384186	204.0
315.471527	156.0
315.503815	192.0
316.133392	164.0
316.29715	136.0
318.185669	140.0
326.436005	176.0
328.155975	296.0
328.539459	168.0
328.680176	160.0
328.784821	160.0
329.102051	180.0
329.186951	58956.0
329.377777	120.0
329.527679	132.0
329.58432	108.0
329.620361	112.0
329.709351	120.0
329.748322	96.0
330.103394	140.0
330.18869	7476.0
331.127533	156.0
331.190186	2008.0
331.229065	128.0
332.179688	136.0
332.21524	176.0
332.265533	148.0
332.397736	108.0
332.446228	124.0
332.539764	108.0
332.806213	136.0
399.802032	144.0
435.452545	152.0
494.746521	176.0
502.787415	140.0
679.139282	144.0
766.789062	192.0
1016.014038	164.0
1186.256226	164.0
1210.709473	212.0
1211.367554	160.0
1310.440674	148.0
1310.65686	168.0
1316.615356	168.0
1343.304077	176.0
1417.076538	180.0
1431.30249	196.0
1455.324707	232.0
1466.301758	148.0
1473.275879	220.0
1474.941772	180.0
1484.16687	164.0
1490.653076	144.0
1497.184326	160.0
1500.220093	252.0
1501.160767	152.0
1502.988892	176.0
1536.889648	192.0
1553.263916	156.0
1556.010498	188.0
1577.146118	188.0
1579.913818	160.0
1610.726074	208.0
1636.026367	140.0
1637.701172	144.0
1646.387451	164.0
1648.600952	148.0
1651.196045	156.0
1654.772705	272.0
1657.810181	164.0
1658.499023	180.0
1664.689331	172.0
1679.607666	144.0
1680.186768	164.0
1702.434204	156.0
1712.830078	184.0
1716.637817	180.0
1721.457031	176.0
1723.439453	140.0
1737.722046	248.0
1739.058105	152.0
1748.657715	172.0
1751.963501	152.0
1756.239746	204.0
1766.999268	184.0
1773.086792	196.0
1775.031738	152.0
1777.481079	168.0
1793.948975	144.0
1808.884155	168.0
1814.314209	144.0
1828.950684	152.0
1850.523193	140.0
1876.76355	156.0
1887.193726	184.0
1890.645142	160.0
1896.647217	160.0
1901.825562	224.0
1918.631714	168.0
1931.162476	160.0
1973.108154	176.0
1974.991699	156.0
1979.159912	184.0
1981.312134	280.0
1988.361572	152.0
END IONS

BEGIN IONS
PEPMASS=396.211
CHARGE=1
MSLEVEL=2
SOURCE_INSTRUMENT=LC-ESI-qTof
FILENAME=p3-E08_GE8_01_18277.mzXML
SEQ=*..*
IONMODE=Positive
ORGANISM=GNPS-NIH-SMALLMOLECULEPHARMACOLOGICALLYACTIVE
NAME=MLS001076321-01! M+H
PI=Dorrestein
DATACOLLECTOR=VP/LMS
SMILES=Fc1ccc(cc1)C(=O)CCCN2CCC3(CC2)N(CNC3=O)c4ccccc4
INCHI=N/A
INCHIAUX=N/A
PUBMED=N/A
SUBMITUSER=vphelan
LIBRARYQUALITY=1
SPECTRUMID=CCMSLIB00000085089
USI=mzspec:GNPS:GNPS-NIH-SMALLMOLECULEPHARMACOLOGICALLYACTIVE:accession:CCMSLIB00000085089
SCANS=1663
44.935162	196.0
44.985878	128.0
45.000565	196.0
45.057999	188.0
45.087399	140.0
45.103901	184.0
45.11869	196.0
45.128838	172.0
45.186356	172.0
45.214458	136.0
45.247925	160.0
45.278419	176.0
45.291012	184.0
45.368252	148.0
45.397976	184.0
45.412968	168.0
45.442272	232.0
45.468613	172.0
45.49596	32.0
45.519726	120.0
45.543751	284.0
45.55505	144.0
45.63166	212.0
45.64645	160.0
45.672005	144.0
45.692184	128.0
45.75679	64.0
45.805275	204.0
45.827625	224.0
45.847607	268.0
45.864567	196.0
45.903191	204.0
45.948181	188.0
45.988667	156.0
46.006214	188.0
46.022415	152.0
46.071041	164.0
46.104824	120.0
46.188198	236.0
46.202183	168.0
46.215714	112.0
46.245487	164.0
46.269855	252.0
46.310211	260.0
46.324852	224.0
46.337578	148.0
46.353233	204.0
46.366035	144.0
46.402637	184.0
46.413483	244.0
46.427822	140.0
46.445843	308.0
46.466927	72.0
46.517036	212.0
46.528244	292.0
46.546471	156.0
46.561409	140.0
46.579067	104.0
46.596729	220.0
46.617111	172.0
46.693249	128.0
46.71524	160.0
46.725895	136.0
46.736084	156.0
46.744301	160.0
46.838894	144.0
46.867336	32.0
46.88522	64.0
46.908394	224.0
46.9193	80.0
46.938389	148.0
46.962448	100.0
46.972488	188.0
46.984768	148.0
47.005234	208.0
47.022976	32.0
47.065296	260.0
47.160934	188.0
47.226566	152.0
47.262138	112.0
47.286774	176.0
47.31963	108.0
47.347775	224.0
47.360714	116.0
47.425117	200.0
47.441566	208.0
47.479099	248.0
47.514256	220.0
47.527527	208.0
47.562721	196.0
47.582584	148.0
47.617214	152.0
47.626667	136.0
47.644688	172.0
47.674915	164.0
47.727158	108.0
47.74366	68.0
47.777473	168.0
47.800064	44.0
47.817955	104.0
47.923996	108.0
47.952938	344.0
47.998825	240.0
48.009464	208.0
48.087547	196.0
48.106651	204.0
48.121765	256.0
48.184776	144.0
48.206886	180.0
48.222092	144.0
48.24052	204.0
48.258034	124.0
48.274376	220.0
48.279274	344.0
48.310593	116.0
48.331345	184.0
48.354874	124.0
48.370098	216.0
48.404713	64.0
48.473389	320.0
48.50325	136.0
48.539135	388.0
48.595703	164.0
48.615433	172.0
48.644585	64.0
48.685966	184.0
48.704296	160.0
48.71402	160.0
48.768215	156.0
48.79324	144.0
48.812706	144.0
48.83913	244.0
48.897572	128.0
48.991585	164.0
49.032616	148.0
49.067524	220.0
49.094017	160.0
49.116337	152.0
49.140053	116.0
49.159588	192.0
49.195881	204.0
49.216824	76.0
49.233582	380.0
49.247547	224.0
49.261517	216.0
49.278282	168.0
49.304836	84.0
49.320572	200.0
49.338383	148.0
49.360756	76.0
49.394325	212.0
49.430702	140.0
49.445789	200.0
49.447891	156.0
49.472694	172.0
49.488094	224.0
49.570854	152.0
49.588963	128.0
49.640839	152.0
49.663239	188.0
49.680111	372.0
49.695545	232.0
49.713787	272.0
49.732033	164.0
49.741859	132.0
49.768791	44.0
49.788197	148.0
49.826126	56.0
49.837364	40.0
49.868282	176.0
49.894993	72.0
49.904835	172.0
49.934475	156.0
49.951248	88.0
49.982201	176.0
50.006126	136.0
50.08498	164.0
50.102844	176.0
50.172832	212.0
50.20454	288.0
50.255276	156.0
50.275974	160.0
50.293674	108.0
50.366917	332.0
50.381233	184.0
50.401012	188.0
50.446724	164.0
50.509357	152.0
50.563648	44.0
50.577805	304.0
50.607533	180.0
50.637272	176.0
50.655689	80.0
50.678356	144.0
50.689167	108.0
50.709534	172.0
50.746819	268.0
50.83271	216.0
50.853931	164.0
50.866989	124.0
50.885445	164.0
50.933731	176.0
50.945095	128.0
50.987167	204.0
51.057472	216.0
51.070194	164.0
51.110031	224.0
51.156998	112.0
51.174084	152.0
51.205414	168.0
51.219658	144.0
51.231689	224.0
51.252426	132.0
51.279503	252.0
51.322273	64.0
51.332256	144.0
51.427849	188.0
51.464024	224.0
51.475739	140.0
51.5121	184.0
51.542103	168.0
51.574974	176.0
51.586411	160.0
51.612148	60.0
51.640751	124.0
51.694767	180.0
51.729469	160.0
51.748695	196.0
51.762402	172.0
51.785316	156.0
51.816833	128.0
51.85144	160.0
51.868179	140.0
51.891365	172.0
51.903801	196.0
51.936123	212.0
51.980301	212.0
52.001827	116.0
52.06213	36.0
52.162624	196.0
52.187153	196.0
52.210659	220.0
52.231735	172.0
52.246124	220.0
52.284977	160.0
52.316643	144.0
52.328163	96.0
52.346882	236.0
52.372807	84.0
52.411705	224.0
52.440529	144.0
52.46936	104.0
52.525604	152.0
52.566006	220.0
52.595383	196.0
52.641701	264.0
52.676453	148.0
52.706081	112.0
52.755222	264.0
52.766788	60.0
52.810173	204.0
52.85046	208.0
52.878136	132.0
52.896088	172.0
52.906166	236.0
52.957813	44.0
52.983891	184.0
52.994034	120.0
53.009972	160.0
53.027363	120.0
53.063606	172.0
53.09116	140.0
53.168053	172.0
53.232304	172.0
53.255169	176.0
53.269829	132.0
53.310379	148.0
53.324429	300.0
53.352531	132.0
53.368042	156.0
53.383068	220.0
53.424065	152.0
53.43689	208.0
53.477638	84.0
53.521313	48.0
53.531509	144.0
53.580326	132.0
53.600098	96.0
53.633305	212.0
53.675777	320.0
53.722557	112.0
53.73365	196.0
53.81868	168.0
53.836563	160.0
53.855293	192.0
53.883053	232.0
53.929817	196.0
53.973587	136.0
53.997318	72.0
54.014629	172.0
54.03511	184.0
54.049744	176.0
54.118725	256.0
54.155106	232.0
54.158085	156.0
54.18372	176.0
54.292931	112.0
54.304661	160.0
54.320797	128.0
54.335636	176.0
54.373623	140.0
54.452908	180.0
54.479351	152.0
54.551361	176.0
54.62048	208.0
54.635189	224.0
54.652847	188.0
54.663147	164.0
54.733807	180.0
54.745586	36.0
54.792725	168.0
54.806244	184.0
54.828091	128.0
54.890514	176.0
54.915081	176.0
54.933502	180.0
55.008045	52.0
55.053333	232.0
55.07893	160.0
55.095181	120.0
55.111431	116.0
55.129841	152.0
55.172031	56.0
55.18372	168.0
55.187828	152.0
55.192238	120.0
55.199596	112.0
55.202221	192.0
55.284763	152.0
55.337742	228.0
55.349586	192.0
55.373283	148.0
55.391056	88.0
55.416245	164.0
55.429581	76.0
55.445881	100.0
55.463902	76.0
55.491837	88.0
55.525944	164.0
55.544552	184.0
55.6506	160.0
55.681789	92.0
55.726357	364.0
55.769451	132.0
55.834873	192.0
55.861649	148.0
55.878014	192.0
55.922661	164.0
55.940521	172.0
56.029881	124.0
56.04776	132.0
56.089493	160.0
56.116505	168.0
56.137203	152.0
56.165543	380.0
56.190399	224.0
56.229183	172.0
56.261051	76.0
56.290916	144.0
56.317799	180.0
56.331245	180.0
56.358135	180.0
56.380554	344.0
56.3955	128.0
56.434368	152.0
56.444836	160.0
56.498684	160.0
56.578007	52.0
56.601963	264.0
56.625107	192.0
56.656826	236.0
56.70084	188.0
56.714329	140.0
56.745811	52.0
56.793804	168.0
56.805805	152.0
56.841812	96.0
56.886841	68.0
56.903431	160.0
56.92588	164.0
56.989212	252.0
57.041576	152.0
57.0536	112.0
57.075745	252.0
57.0942	148.0
57.109241	176.0
57.145348	136.0
57.16444	204.0
57.193588	224.0
57.223618	292.0
57.243195	144.0
57.276329	112.0
57.298927	156.0
57.41465	104.0
57.481377	160.0
57.504017	140.0
57.5327	208.0
57.543266	104.0
57.553837	144.0
57.615765	140.0
57.681747	216.0
57.703426	88.0
57.726109	228.0
57.74728	196.0
57.765785	120.0
57.800232	92.0
57.824448	152.0
57.839771	160.0
57.906208	156.0
57.921356	104.0
57.948624	144.0
57.965294	228.0
57.98045	192.0
57.991058	136.0
58.018345	144.0
58.039574	96.0
58.054092	152.0
58.080418	172.0
58.116932	224.0
58.13818	148.0
58.148804	44.0
58.165501	164.0
58.192829	172.0
58.223198	144.0
58.245983	160.0
58.267071	168.0
58.305241	264.0
58.31588	164.0
58.346283	204.0
58.4132	116.0
58.516689	140.0
58.530396	104.0
58.5639	224.0
58.574562	144.0
58.59132	228.0
58.620274	172.0
58.683186	160.0
58.699547	100.0
58.717846	180.0
58.763245	216.0
58.837437	136.0
58.881157	96.0
58.913235	160.0
58.928513	236.0
58.939098	164.0
59.001877	108.0
59.014111	204.0
59.063049	136.0
59.088837	188.0
59.105888	140.0
59.124252	104.0
59.231434	160.0
59.278992	200.0
59.312653	80.0
59.347916	228.0
59.370918	68.0
59.38707	188.0
59.459747	168.0
59.5144	152.0
59.613483	208.0
59.656521	216.0
59.694962	156.0
59.748798	392.0
59.778034	68.0
59.798042	192.0
59.855003	88.0
59.907372	136.0
59.965931	84.0
60.00193	136.0
60.007874	172.0
60.02914	176.0
60.075413	148.0
60.101643	124.0
60.123249	172.0
60.194176	140.0
60.21743	120.0
60.235966	188.0
60.293137	180.0
60.310139	164.0
60.320961	88.0
60.345695	104.0
60.466362	200.0
60.518997	124.0
60.54842	168.0
60.573204	180.0
60.656273	152.0
60.690994	144.0
60.719528	120.0
60.753033	180.0
60.819763	140.0
60.842236	180.0
60.86013	204.0
60.886917	208.0
60.905167	172.0
60.938488	152.0
60.954884	172.0
61.019344	172.0
61.062191	180.0
61.096382	212.0
61.111938	112.0
61.122833	132.0
61.142315	200.0
61.177307	144.0
61.225578	156.0
61.255043	144.0
61.284775	148.0
61.324783	244.0
61.384541	292.0
61.405865	232.0
61.430233	136.0
61.457859	208.0
61.515854	176.0
61.548168	140.0
61.550423	120.0
61.556843	176.0
61.573902	184.0
61.578918	88.0
61.583359	144.0
61.613995	144.0
61.657749	180.0
61.700146	196.0
61.740612	128.0
61.816998	208.0
61.884583	132.0
61.962894	144.0
61.975147	196.0
62.020882	44.0
62.075756	252.0
62.095837	244.0
62.130653	176.0
62.209286	156.0
62.242687	280.0
62.292358	152.0
62.319065	228.0
62.363071	176.0
62.385078	136.0
62.427532	156.0
62.459564	156.0
62.479439	168.0
62.51878	168.0
62.531368	148.0
62.542389	180.0
62.559704	132.0
62.5723	212.0
62.591194	84.0
62.627419	196.0
62.638443	196.0
62.652946	248.0
62.673107	248.0
62.7062	124.0
62.740883	168.0
62.769264	188.0
62.783455	116.0
62.818233	168.0
62.863182	180.0
62.966537	180.0
62.987072	108.0
63.001865	164.0
63.040791	52.0
63.090244	240.0
63.134068	204.0
63.179939	168.0
63.193275	112.0
63.206837	172.0
63.260651	200.0
63.271732	196.0
63.331558	140.0
63.377857	148.0
63.396873	128.0
63.411137	168.0
63.491997	224.0
63.511948	132.0
63.564251	132.0
63.590366	104.0
63.615765	212.0
63.630962	112.0
63.64991	308.0
63.684048	172.0
63.71582	172.0
63.728531	352.0
63.809593	188.0
63.850986	136.0
63.878532	196.0
63.900253	192.0
63.940037	36.0
63.992569	208.0
64.003716	168.0
64.056274	204.0
64.113632	228.0
64.18856	112.0
64.202919	168.0
64.234818	152.0
64.31498	120.0
64.376122	196.0
64.41201	84.0
64.439323	216.0
64.517487	212.0
64.548035	192.0
64.589455	136.0
64.610245	144.0
64.623047	208.0
64.691872	92.0
64.703079	212.0
64.844048	64.0
64.866486	180.0
64.914589	48.0
64.93383	168.0
64.963539	164.0
64.978752	212.0
65.001793	188.0
65.052574	152.0
65.103958	168.0
65.163391	220.0
65.176247	152.0
65.246971	172.0
65.266266	132.0
65.300041	192.0
65.372398	172.0
65.398186	192.0
65.455925	204.0
65.511093	180.0
65.523796	144.0
65.585564	208.0
65.623734	240.0
65.638245	148.0
65.649529	140.0
65.691002	208.0
65.722122	160.0
65.801216	148.0
65.841583	164.0
65.870659	184.0
65.89328	140.0
65.936676	168.0
65.956306	56.0
65.99511	160.0
66.035538	196.0
66.105103	132.0
66.188889	148.0
66.192001	112.0
66.250832	140.0
66.289017	156.0
66.370773	204.0
66.386993	184.0
66.429543	120.0
66.482712	160.0
66.495689	104.0
66.523819	196.0
66.538025	156.0
66.574814	240.0
66.60611	68.0
66.633728	192.0
66.679771	192.0
66.69873	196.0
66.719467	180.0
66.768646	188.0
66.832092	156.0
66.851624	164.0
66.907448	176.0
66.919991	144.0
67.014465	208.0
67.063354	104.0
67.076393	236.0
67.089432	152.0
67.117157	136.0
67.157928	148.0
67.24501	216.0
67.283585	148.0
67.301544	236.0
67.326035	120.0
67.344002	140.0
67.362823	184.0
67.404457	192.0
67.42733	236.0
67.463295	196.0
67.523796	188.0
67.551605	212.0
67.569603	152.0
67.58596	216.0
67.600693	108.0
67.640984	244.0
67.667809	180.0
67.690727	116.0
67.718575	120.0
67.742157	300.0
67.748764	192.0
67.753258	232.0
67.825699	148.0
67.864548	108.0
67.878601	224.0
67.920189	232.0
67.934952	192.0
67.951355	200.0
67.971046	188.0
67.999359	144.0
68.020813	236.0
68.039986	404.0
68.053123	116.0
68.076111	332.0
68.102394	348.0
68.138535	136.0
68.220909	160.0
68.298088	72.0
68.327606	108.0
68.367104	148.0
68.396797	192.0
68.442871	160.0
68.470825	136.0
68.505417	48.0
68.55352	184.0
68.565369	156.0
68.577446	208.0
68.653763	148.0
68.665306	216.0
68.680153	180.0
68.711494	188.0
68.800621	116.0
68.818779	168.0
68.830338	172.0
68.875542	120.0
68.893105	192.0
68.921196	136.0
68.954247	80.0
68.990997	188.0
69.013062	256.0
69.053673	208.0
69.09845	200.0
69.116318	128.0
69.136177	116.0
69.184181	116.0
69.207359	128.0
69.25042	52.0
69.263664	176.0
69.30909	184.0
69.323311	144.0
69.359375	180.0
69.386307	192.0
69.404449	208.0
69.461151	120.0
69.480843	152.0
69.499092	80.0
69.533943	160.0
69.580421	276.0
69.60865	52.0
69.643532	168.0
69.655159	180.0
69.71331	156.0
69.772194	156.0
69.786453	168.0
69.847984	236.0
69.860451	236.0
69.889412	224.0
69.904556	164.0
69.949493	204.0
69.969475	132.0
70.051079	476.0
70.064407	148.0
70.084404	72.0
70.117424	196.0
70.150398	168.0
70.188873	172.0
70.211098	192.0
70.247795	228.0
70.267502	216.0
70.304527	136.0
70.333229	164.0
70.394676	144.0
70.408035	128.0
70.441444	204.0
70.524994	188.0
70.590202	48.0
70.624863	88.0
70.638702	124.0
70.652687	168.0
70.722893	128.0
70.744133	180.0
70.804413	132.0
70.820015	128.0
70.868073	92.0
70.923775	116.0
70.94146	168.0
70.960258	184.0
70.980385	248.0
71.017281	156.0
71.101173	200.0
71.124672	228.0
71.136421	200.0
71.195129	236.0
71.269104	172.0
71.301033	200.0
71.311905	188.0
71.329613	88.0
71.343056	132.0
71.369957	164.0
71.395187	220.0
71.417053	180.0
71.447327	240.0
71.494446	84.0
71.507912	228.0
71.528107	164.0
71.561783	140.0
71.612305	140.0
71.625778	76.0
71.67807	212.0
71.720139	136.0
71.743607	196.0
71.794807	168.0
71.809509	128.0
71.828064	140.0
71.873619	124.0
71.899796	148.0
71.939438	72.0
71.963531	224.0
72.004517	160.0
72.032326	132.0
72.12188	84.0
72.153999	168.0
72.189514	164.0
72.214882	152.0
72.251846	136.0
72.282555	228.0
72.296097	204.0
72.343491	36.0
72.366501	288.0
72.402756	160.0
72.45018	116.0
72.482376	384.0
72.50441	160.0
72.516785	224.0
72.564888	124.0
72.601044	136.0
72.623093	140.0
72.646584	156.0
72.663811	224.0
72.772438	164.0
72.819984	148.0
72.838669	176.0
72.853958	432.0
72.86496	168.0
72.882843	120.0
72.935532	144.0
72.950882	136.0
72.97123	128.0
73.022766	196.0
73.045464	136.0
73.093704	192.0
73.12944	184.0
73.141357	164.0
73.171997	164.0
73.204567	160.0
73.241028	132.0
73.277336	180.0
73.370293	260.0
73.440659	148.0
73.506088	132.0
73.518036	144.0
73.548759	100.0
73.576073	148.0
73.608513	156.0
73.64856	224.0
73.707596	240.0
73.794769	176.0
73.808449	252.0
73.851204	228.0
73.876259	180.0
73.920563	160.0
73.932587	184.0
73.950096	176.0
73.977837	144.0
74.016998	124.0
74.042908	204.0
74.07489	184.0
74.105576	212.0
74.152557	176.0
74.260582	184.0
74.33786	180.0
74.384125	204.0
74.401291	136.0
74.424026	116.0
74.452805	156.0
74.489746	188.0
74.516365	100.0
74.53183	224.0
74.587196	132.0
74.60746	144.0
74.668594	180.0
74.709625	128.0
74.796692	80.0
74.862122	172.0
74.893982	164.0
74.931023	176.0
74.967209	184.0
74.996506	136.0
75.034431	148.0
75.063744	248.0
75.136642	168.0
75.163803	124.0
75.196587	192.0
75.229385	124.0
75.274277	92.0
75.302017	196.0
75.390022	256.0
75.448799	120.0
75.49733	108.0
75.540459	64.0
75.615479	168.0
75.687569	120.0
75.720474	200.0
75.756134	192.0
75.768341	304.0
75.781105	148.0
75.807098	120.0
75.826164	88.0
75.860832	164.0
75.939667	224.0
75.968536	152.0
76.015205	132.0
76.107208	156.0
76.147308	132.0
76.221848	152.0
76.246002	116.0
76.257362	184.0
76.279205	196.0
76.303543	180.0
76.380066	168.0
76.432259	76.0
76.447807	120.0
76.47229	344.0
76.493179	148.0
76.677811	204.0
76.700478	192.0
76.734962	240.0
76.788544	128.0
76.817314	220.0
76.885323	192.0
76.908051	128.0
76.946457	152.0
76.983124	172.0
77.026878	168.0
77.04776	148.0
77.091438	148.0
77.122673	124.0
77.136887	232.0
77.180595	156.0
77.197441	196.0
77.215569	200.0
77.231316	116.0
77.254051	196.0
77.325798	188.0
77.344109	208.0
77.359055	120.0
77.376564	84.0
77.531799	220.0
77.620125	164.0
77.642921	216.0
77.656952	188.0
77.690483	176.0
77.727127	152.0
77.748184	168.0
77.804359	160.0
77.832451	36.0
77.856354	144.0
77.94136	172.0
77.980026	128.0
78.034523	232.0
78.05233	156.0
78.102592	192.0
78.115913	172.0
78.148849	152.0
78.178764	180.0
78.194603	196.0
78.238869	164.0
78.284332	112.0
78.307289	212.0
78.375618	204.0
78.398674	212.0
78.402008	184.0
78.464127	88.0
78.493431	252.0
78.505699	160.0
78.54525	56.0
78.569946	288.0
78.599945	212.0
78.621117	224.0
78.663483	112.0
78.684669	240.0
78.764137	204.0
78.803009	164.0
78.863472	168.0
78.88784	104.0
78.913124	120.0
78.933807	128.0
78.953262	176.0
78.967415	208.0
78.99218	188.0
79.025795	244.0
79.050568	156.0
79.066055	260.0
79.107208	164.0
79.18689	128.0
79.224915	192.0
79.296066	200.0
79.321556	132.0
79.362335	116.0
79.405296	160.0
79.461662	116.0
79.495377	152.0
79.518448	120.0
79.562828	136.0
79.665833	140.0
79.735138	140.0
79.764412	152.0
79.815536	176.0
79.886276	132.0
79.911186	176.0
79.953896	68.0
79.988083	192.0
80.026878	192.0
80.053078	152.0
80.081017	140.0
80.16761	152.0
80.180084	148.0
80.222862	140.0
80.281708	172.0
80.294189	192.0
80.328079	172.0
80.451218	60.0
80.531578	116.0
80.563728	124.0
80.599464	60.0
80.623047	164.0
80.660233	188.0
80.737114	160.0
80.751427	196.0
80.799576	136.0
80.83551	156.0
80.855194	196.0
80.882042	64.0
80.916061	168.0
80.949715	236.0
80.990616	120.0
81.003815	148.0
81.023521	164.0
81.053978	172.0
81.068314	56.0
81.089821	184.0
81.119385	132.0
81.141808	156.0
81.166916	116.0
81.209778	160.0
81.236862	100.0
81.290695	64.0
81.303253	168.0
81.335564	204.0
81.364288	200.0
81.397095	292.0
81.423546	136.0
81.443298	156.0
81.477432	184.0
81.491806	196.0
81.50798	132.0
81.596054	212.0
81.642479	176.0
81.693169	148.0
81.711166	88.0
81.739952	148.0
81.75975	172.0
81.777748	136.0
81.795746	168.0
81.815552	124.0
81.907394	204.0
81.947029	184.0
81.96505	176.0
81.985184	120.0
82.002892	252.0
82.02092	124.0
82.049767	132.0
82.071404	80.0
82.087296	128.0
82.13813	64.0
82.150757	136.0
82.194061	112.0
82.240982	156.0
82.266258	220.0
82.325844	148.0
82.340294	192.0
82.377335	164.0
82.409485	172.0
82.497498	160.0
82.522812	156.0
82.54451	200.0
82.660568	180.0
82.70372	132.0
82.743721	128.0
82.82238	204.0
82.877586	180.0
82.908386	164.0
82.946457	236.0
82.970482	344.0
83.000847	220.0
83.028046	80.0
83.051819	188.0
83.091537	84.0
83.111618	176.0
83.138069	224.0
83.162308	248.0
83.187798	192.0
83.205002	224.0
83.260353	108.0
83.276352	208.0
83.407532	180.0
83.43779	168.0
83.442612	108.0
83.448364	200.0
83.503899	148.0
83.520271	80.0
83.566933	192.0
83.58577	172.0
83.620346	144.0
83.657417	164.0
83.676781	228.0
83.738693	216.0
83.75145	152.0
83.77877	208.0
83.796989	256.0
83.817398	120.0
83.840729	156.0
83.869888	264.0
83.918373	208.0
83.934814	196.0
83.97747	164.0
84.058594	172.0
84.099609	200.0
84.132576	176.0
84.160355	188.0
84.176399	40.0
84.233551	152.0
84.270576	108.0
84.286003	132.0
84.300621	108.0
84.359116	164.0
84.394394	216.0
84.426765	36.0
84.504753	152.0
84.598488	204.0
84.652954	196.0
84.672012	148.0
84.695824	124.0
84.767281	212.0
84.780106	168.0
84.798431	160.0
84.853523	152.0
84.897438	148.0
84.939621	124.0
84.961426	208.0
84.997009	216.0
85.040176	80.0
85.057068	156.0
85.128159	128.0
85.175812	132.0
85.231689	156.0
85.271973	172.0
85.294449	136.0
85.3069	212.0
85.332817	168.0
85.384132	128.0
85.417236	152.0
85.441154	164.0
85.496361	120.0
85.516655	152.0
85.553421	60.0
85.573669	144.0
85.589806	184.0
85.656548	148.0
85.674973	168.0
85.719193	132.0
85.74958	200.0
85.787392	112.0
85.955231	140.0
85.9944	232.0
86.012444	112.0
86.099228	232.0
86.125732	204.0
86.15834	132.0
86.174965	148.0
86.187904	140.0
86.217468	200.0
86.230408	188.0
86.25074	356.0
86.298805	132.0
86.387581	176.0
86.456047	116.0
86.47155	184.0
86.493065	144.0
86.568977	272.0
86.596756	148.0
86.620834	176.0
86.682541	132.0
86.689789	168.0
86.762451	280.0
86.888443	160.0
86.908997	160.0
86.963882	156.0
87.056717	160.0
87.077141	112.0
87.105003	128.0
87.119087	176.0
87.180069	180.0
87.255539	164.0
87.275993	228.0
87.306931	220.0
87.352249	148.0
87.369644	148.0
87.389458	160.0
87.417366	156.0
87.508575	120.0
87.536507	148.0
87.562584	128.0
87.579346	88.0
87.625923	76.0
87.728424	124.0
87.751633	312.0
87.767578	208.0
87.784363	184.0
87.803009	160.0
87.816071	144.0
87.838608	192.0
87.858971	160.0
87.935478	116.0
87.948547	168.0
88.005226	200.0
88.056847	192.0
88.131569	196.0
88.215675	196.0
88.251198	100.0
88.271767	188.0
88.357811	144.0
88.376518	52.0
88.410202	180.0
88.452034	92.0
88.512238	172.0
88.546852	160.0
88.571228	188.0
88.642426	196.0
88.670532	184.0
88.749268	232.0
88.816559	200.0
88.906845	180.0
88.944389	152.0
88.959404	204.0
88.986534	168.0
89.023987	212.0
89.071175	192.0
89.129333	160.0
89.19046	148.0
89.216782	72.0
89.250626	156.0
89.270882	176.0
89.344994	140.0
89.378532	160.0
89.465385	168.0
89.4953	244.0
89.553024	152.0
89.601822	204.0
89.61956	168.0
89.657196	200.0
89.671021	104.0
89.759048	96.0
89.792648	132.0
89.809113	212.0
89.853355	96.0
89.891098	256.0
89.911903	164.0
89.930595	224.0
89.935303	208.0
89.971489	176.0
90.025131	132.0
90.100685	144.0
90.193291	88.0
90.299004	132.0
90.321472	152.0
90.374847	152.0
90.389587	208.0
90.41246	192.0
90.431404	200.0
90.50209	160.0
90.558479	128.0
90.600159	112.0
90.670265	180.0
90.691116	200.0
90.711189	176.0
90.736557	136.0
90.761261	108.0
90.780228	76.0
90.844719	112.0
90.859894	204.0
90.907333	152.0
90.926308	128.0
90.986786	200.0
91.006042	124.0
91.038322	196.0
91.116203	140.0
91.135201	128.0
91.17511	80.0
91.190025	184.0
91.195679	156.0
91.253052	156.0
91.278755	220.0
91.32341	196.0
91.351944	144.0
91.44519	112.0
91.571152	228.0
91.611252	268.0
91.627419	184.0
91.645485	160.0
91.681358	168.0
91.704224	80.0
91.723289	180.0
91.765228	172.0
91.780487	172.0
91.807182	152.0
91.824348	92.0
91.840996	88.0
91.915916	272.0
91.931183	216.0
91.987213	180.0
92.085625	168.0
92.114487	124.0
92.137405	96.0
92.181358	404.0
92.242928	224.0
92.340034	352.0
92.370163	192.0
92.397591	244.0
92.456749	136.0
92.491196	428.0
92.514168	168.0
92.54863	156.0
92.586929	188.0
92.615662	224.0
92.717209	140.0
92.753632	176.0
92.774719	164.0
92.797722	192.0
92.830322	164.0
92.845337	188.0
92.875877	208.0
92.945419	200.0
92.989563	144.0
93.049072	124.0
93.104759	120.0
93.127808	212.0
93.167206	180.0
93.18544	60.0
93.220024	140.0
93.260384	132.0
93.321907	176.0
93.364212	208.0
93.456795	156.0
93.477715	44.0
93.550858	104.0
93.579391	200.0
93.622581	352.0
93.68663	136.0
93.703003	180.0
93.743469	192.0
93.795509	100.0
93.845634	116.0
93.876488	176.0
93.909279	64.0
93.970108	172.0
94.017319	136.0
94.037392	180.0
94.059784	144.0
94.076645	224.0
94.156326	160.0
94.223938	184.0
94.248413	180.0
94.295441	184.0
94.310898	136.0
94.324432	116.0
94.365921	348.0
94.388237	108.0
94.402702	332.0
94.465599	168.0
94.481079	184.0
94.515823	200.0
94.54493	164.0
94.558479	128.0
94.577835	68.0
94.641724	140.0
94.692078	180.0
94.726944	236.0
94.75988	112.0
94.800568	224.0
94.862595	160.0
94.878105	192.0
94.907669	208.0
94.924637	244.0
94.948196	412.0
94.967308	204.0
94.98378	244.0
95.028099	4248.0
95.066254	312.0
95.114777	144.0
95.157837	156.0
95.173019	132.0
95.192444	152.0
95.233223	176.0
95.266808	180.0
95.282089	156.0
95.320656	152.0
95.373131	172.0
95.409592	148.0
95.474236	96.0
95.548149	236.0
95.573448	200.0
95.606087	176.0
95.655296	144.0
95.670761	124.0
95.702667	216.0
95.750595	128.0
95.766182	364.0
95.797348	156.0
95.810982	128.0
95.849953	116.0
95.883087	144.0
95.908424	152.0
95.924019	200.0
95.945457	240.0
95.964958	136.0
95.988358	200.0
96.033318	364.0
96.050766	160.0
96.064423	220.0
96.078217	116.0
96.092712	128.0
96.238785	220.0
96.261559	124.0
96.283043	164.0
96.376755	144.0
96.43544	60.0
96.519508	168.0
96.546883	136.0
96.592422	200.0
96.611435	144.0
96.630997	156.0
96.69558	68.0
96.734726	64.0
96.836548	228.0
96.875725	232.0
96.894012	120.0
96.952141	228.0
96.975662	132.0
97.063889	168.0
97.090691	132.0
97.125412	216.0
97.156075	420.0
97.230637	220.0
97.247322	72.0
97.310188	132.0
97.330757	116.0
97.354324	108.0
97.393608	172.0
97.409317	136.0
97.463768	196.0
97.508759	364.0
97.550003	224.0
97.59996	156.0
97.639297	100.0
97.690994	156.0
97.721825	220.0
97.743446	140.0
97.771988	248.0
97.81234	148.0
97.834511	152.0
97.873482	152.0
97.891205	392.0
97.918777	348.0
97.940437	108.0
97.981812	204.0
98.011932	152.0
98.032219	336.0
98.059555	51380.0
98.104126	244.0
98.132141	44.0
98.150581	160.0
98.180901	288.0
98.205887	60.0
98.240074	176.0
98.273865	96.0
98.301239	56.0
98.333992	148.0
98.364403	176.0
98.38092	232.0
98.412315	104.0
98.448082	136.0
98.5271	200.0
98.574394	152.0
98.592323	132.0
98.616776	204.0
98.669121	180.0
98.688408	192.0
98.704231	152.0
98.748337	212.0
98.773453	168.0
98.808739	220.0
98.814011	184.0
98.831398	180.0
98.871529	148.0
98.881432	56.0
98.884933	200.0
98.92601	136.0
98.965424	112.0
98.985229	48.0
99.02565	304.0
99.062454	2868.0
99.088226	204.0
99.121193	44.0
99.137901	148.0
99.163536	176.0
99.205818	132.0
99.379692	116.0
99.399536	84.0
99.417488	268.0
99.469002	104.0
99.52581	320.0
99.559052	136.0
99.567711	208.0
99.573738	284.0
99.609764	208.0
99.639793	240.0
99.685493	160.0
99.707359	220.0
99.760269	84.0
99.813019	172.0
99.832603	44.0
99.859146	120.0
99.916977	164.0
99.935364	140.0
99.955452	172.0
100.069885	328.0
100.115204	48.0
100.135124	196.0
100.161018	172.0
100.180939	72.0
100.206841	212.0
100.244698	100.0
100.266617	112.0
100.296516	140.0
100.309265	128.0
100.34436	124.0
100.368294	44.0
100.384247	72.0
100.418144	88.0
100.481979	124.0
100.549583	160.0
100.565796	228.0
100.595413	148.0
100.64138	144.0
100.670685	148.0
100.763504	240.0
100.817451	128.0
100.868301	408.0
100.881905	180.0
100.923401	32.0
100.949394	168.0
101.003403	132.0
101.1735	136.0
101.210487	76.0
101.266617	152.0
101.321709	164.0
101.379814	40.0
101.486504	180.0
101.504517	136.0
101.548401	136.0
101.604393	72.0
101.644524	144.0
101.704735	272.0
101.717949	140.0
101.736855	200.0
101.809143	132.0
101.825211	124.0
101.865379	228.0
101.919624	140.0
101.959778	180.0
101.964752	176.0
101.998009	156.0
102.016754	160.0
102.022446	52.0
102.029549	168.0
102.082336	136.0
102.101395	228.0
102.120667	168.0
102.160896	48.0
102.201141	264.0
102.217239	308.0
102.25145	212.0
102.265541	128.0
102.335999	176.0
102.364189	56.0
102.384331	120.0
102.436699	112.0
102.450798	168.0
102.474976	156.0
102.495125	56.0
102.537445	184.0
102.553574	96.0
102.591576	232.0
102.718918	200.0
102.75927	140.0
102.781464	212.0
102.829903	108.0
102.846046	196.0
102.874306	188.0
102.888443	152.0
102.906609	128.0
103.002228	140.0
103.009277	48.0
103.017151	180.0
103.051208	136.0
103.074265	192.0
103.134895	164.0
103.157135	100.0
103.173309	176.0
103.231941	156.0
103.266327	140.0
103.324188	236.0
103.338814	128.0
103.456543	160.0
103.513237	208.0
103.567917	104.0
103.590202	168.0
103.60791	140.0
103.689491	140.0
103.718018	160.0
103.768547	180.0
103.784515	160.0
103.888206	136.0
103.984695	156.0
104.001846	160.0
104.046082	180.0
104.062752	172.0
104.106041	112.0
104.133827	196.0
104.22525	56.0
104.257759	184.0
104.335007	188.0
104.380676	176.0
104.439514	228.0
104.513992	140.0
104.576546	168.0
104.670731	192.0
104.723679	164.0
104.756271	232.0
104.864632	204.0
104.935265	160.0
104.956009	192.0
104.994759	220.0
105.111046	180.0
105.143692	172.0
105.179176	240.0
105.209015	132.0
105.231476	80.0
105.364227	184.0
105.378532	168.0
105.458237	140.0
105.499115	156.0
105.52774	120.0
105.582954	292.0
105.629997	164.0
105.646362	220.0
105.676102	188.0
105.717979	128.0
105.756866	136.0
105.834663	124.0
105.893799	164.0
105.91658	108.0
105.941162	128.0
105.963699	200.0
105.988289	112.0
106.002632	136.0
106.026657	216.0
106.064377	10200.0
106.102936	168.0
106.152466	120.0
106.171265	188.0
106.19696	204.0
106.230156	148.0
106.284813	160.0
106.419037	100.0
106.472435	140.0
106.491386	176.0
106.515564	68.0
106.538162	192.0
106.597748	80.0
106.649132	148.0
106.665573	164.0
106.717873	164.0
106.764267	216.0
106.782784	36.0
106.879471	120.0
107.027679	152.0
107.069107	784.0
107.175507	188.0
107.194534	192.0
107.213081	204.0
107.226135	132.0
107.240356	208.0
107.266502	144.0
107.318214	180.0
107.433716	52.0
107.452278	80.0
107.485291	204.0
107.501801	152.0
107.561012	148.0
107.636497	224.0
107.673157	160.0
107.700012	48.0
107.739258	160.0
107.759972	164.0
107.813538	148.0
107.874939	264.0
107.899666	176.0
107.943886	92.0
107.962502	168.0
108.024979	152.0
108.200462	180.0
108.253815	136.0
108.380661	88.0
108.451126	120.0
108.496201	188.0
108.515388	168.0
108.581749	92.0
108.6502	240.0
108.664726	116.0
108.715286	176.0
108.743111	176.0
108.774719	156.0
108.801712	180.0
108.859848	172.0
108.88269	104.0
108.917999	180.0
108.935806	448.0
108.984482	136.0
109.001106	76.0
109.021324	296.0
109.045113	1188.0
109.077423	112.0
109.112068	136.0
109.171577	188.0
109.22509	140.0
109.275581	164.0
109.302635	180.0
109.319283	68.0
109.33593	76.0
109.364296	184.0
109.387001	172.0
109.410446	140.0
109.429604	228.0
109.53582	184.0
109.585815	96.0
109.617073	328.0
109.660843	192.0
109.70253	160.0
109.726448	136.0
109.766052	180.0
109.806793	224.0
109.883972	180.0
109.906929	168.0
109.954926	44.0
110.023811	124.0
110.05986	1832.0
110.098984	104.0
110.16774	48.0
110.270302	196.0
110.291206	208.0
110.339287	152.0
110.356018	168.0
110.527534	120.0
110.578056	172.0
110.596123	192.0
110.636887	164.0
110.656563	152.0
110.721519	368.0
110.772499	136.0
110.837448	104.0
110.875168	164.0
110.90451	116.0
110.927315	232.0
110.999214	332.0
111.023514	152.0
111.059677	48.0
111.081032	200.0
111.111504	68.0
111.137299	200.0
111.166679	132.0
111.208656	240.0
111.256073	312.0
111.271629	152.0
111.317825	128.0
111.338829	136.0
111.40184	148.0
111.511108	132.0
111.577309	104.0
111.645477	264.0
111.666702	184.0
111.689842	96.0
111.719978	292.0
111.780304	316.0
111.885551	160.0
111.911835	192.0
112.04554	220.0
112.074211	140.0
112.163628	88.0
112.194946	192.0
112.252182	192.0
112.266945	184.0
112.338661	132.0
112.359756	216.0
112.385071	116.0
112.411423	156.0
112.450493	92.0
112.467384	188.0
112.518044	152.0
112.533974	280.0
112.585617	176.0
112.613075	196.0
112.63842	132.0
112.663773	52.0
112.722885	176.0
112.779999	160.0
112.834961	252.0
112.872192	132.0
112.895454	184.0
112.927673	152.0
112.935684	108.0
112.974678	132.0
113.041885	540.0
113.065536	132.0
113.090935	200.0
113.145973	220.0
113.159142	184.0
113.198906	168.0
113.262444	52.0
113.347191	136.0
113.366745	124.0
113.38958	36.0
113.410774	148.0
113.438332	148.0
113.457413	40.0
113.482857	204.0
113.528343	284.0
113.561867	140.0
113.654663	156.0
113.745926	120.0
113.762787	136.0
113.839348	192.0
113.86483	184.0
113.891365	232.0
113.930679	180.0
114.015678	192.0
114.059105	152.0
114.096451	136.0
114.164497	192.0
114.196404	56.0
114.260216	56.0
114.283623	172.0
114.358109	52.0
114.373009	72.0
114.392166	152.0
114.417915	168.0
114.451782	80.0
114.50502	192.0
114.573189	184.0
114.59848	156.0
114.647766	192.0
114.669075	148.0
114.686127	48.0
114.722366	120.0
114.75882	216.0
114.792465	128.0
114.81192	184.0
114.863113	180.0
114.88018	112.0
114.912613	160.0
114.982605	140.0
115.05645	168.0
115.088821	212.0
115.117104	132.0
115.206329	176.0
115.247406	64.0
115.281601	192.0
115.308464	196.0
115.330757	104.0
115.409859	168.0
115.514229	140.0
115.556778	116.0
115.591682	164.0
115.619499	144.0
115.6409	124.0
115.660164	128.0
115.756516	248.0
115.782211	112.0
115.797203	156.0
115.850754	132.0
115.908607	180.0
115.925751	44.0
115.981476	216.0
115.998627	164.0
116.037216	144.0
116.072853	148.0
116.100258	120.0
116.142296	144.0
116.225967	172.0
116.400185	220.0
116.576691	160.0
116.601784	188.0
116.62973	124.0
116.649071	96.0
116.68132	160.0
116.699348	364.0
116.795296	184.0
116.810356	144.0
116.905029	124.0
116.9739	92.0
117.008347	112.0
117.023422	240.0
117.057877	316.0
117.100945	144.0
117.128944	128.0
117.214577	140.0
117.249611	212.0
117.312119	48.0
117.34446	92.0
117.415619	160.0
117.445908	196.0
117.482323	508.0
117.497589	200.0
117.583908	112.0
117.68969	148.0
117.706963	148.0
117.730721	272.0
117.760956	244.0
117.778236	240.0
117.817116	32.0
117.836563	92.0
117.866814	100.0
117.890587	176.0
117.92733	184.0
117.974884	200.0
118.064362	204.0
118.1241	224.0
118.141403	164.0
118.178185	120.0
118.193336	208.0
118.251015	208.0
118.292892	48.0
118.344032	188.0
118.4095	188.0
118.435814	164.0
118.450974	116.0
118.507301	212.0
118.580276	128.0
118.611328	192.0
118.667648	164.0
118.724075	88.0
118.758781	128.0
118.795654	140.0
118.813011	128.0
118.865654	200.0
118.936707	192.0
118.956245	144.0
118.986641	144.0
119.012695	116.0
119.112602	168.0
119.166573	180.0
119.211456	152.0
119.251663	148.0
119.325577	264.0
119.364716	164.0
119.399513	348.0
119.471291	192.0
119.486526	208.0
119.506104	56.0
119.580093	140.0
119.617104	156.0
119.659149	204.0
119.728447	172.0
119.749161	68.0
119.790672	204.0
119.840378	148.0
119.904282	180.0
119.950394	228.0
119.99836	176.0
120.039757	176.0
120.074677	272.0
120.112305	120.0
120.220856	224.0
120.24501	172.0
120.310349	136.0
120.332176	128.0
120.35183	288.0
120.428268	144.0
120.44574	140.0
120.474144	160.0
120.493805	152.0
120.52002	120.0
120.561546	116.0
120.585587	132.0
120.64679	92.0
120.692703	188.0
120.753937	204.0
120.78894	196.0
120.878639	156.0
120.953056	100.0
120.974945	160.0
121.043625	164.0
121.078712	164.0
121.101952	100.0
121.158905	112.0
121.176437	168.0
121.191772	228.0
121.207115	100.0
121.230125	180.0
121.301353	168.0
121.316864	164.0
121.343994	192.0
121.371513	64.0
121.397827	44.0
121.453133	148.0
121.48526	340.0
121.522865	144.0
121.609764	180.0
121.672112	104.0
121.716026	196.0
121.75116	152.0
121.784111	144.0
121.819252	144.0
121.841225	200.0
121.892242	200.0
121.918129	148.0
121.964851	576.0
122.001656	160.0
122.017052	224.0
122.058823	136.0
122.111603	248.0
122.215004	192.0
122.263153	204.0
122.306412	156.0
122.327942	164.0
122.409996	172.0
122.426331	180.0
122.459366	104.0
122.47699	136.0
122.496811	92.0
122.516342	176.0
122.551445	216.0
122.589355	104.0
122.626259	220.0
122.633537	164.0
122.638458	228.0
122.675316	320.0
122.69075	140.0
122.725868	168.0
122.746841	236.0
122.761307	528.0
122.789978	280.0
122.809113	160.0
122.817177	108.0
122.826256	196.0
122.863632	328.0
122.896988	144.0
122.912613	220.0
122.933113	552.0
122.939209	152.0
122.94593	388.0
122.952217	328.0
122.969345	176.0
122.99836	632.0
123.024155	171592.0
123.079811	100.0
123.102409	196.0
123.117165	188.0
123.125755	160.0
123.151604	76.0
123.171257	140.0
123.190147	280.0
123.209694	348.0
123.228714	212.0
123.252419	152.0
123.267395	96.0
123.28109	176.0
123.330627	112.0
123.364143	148.0
123.387032	1844.0
123.424477	160.0
123.460495	48.0
123.479378	88.0
123.524651	232.0
123.56839	192.0
123.598869	268.0
123.626785	68.0
123.681534	192.0
123.703888	120.0
123.730759	136.0
123.74971	184.0
123.812881	248.0
123.831726	72.0
123.853142	56.0
123.87751	56.0
123.911278	104.0
123.970634	192.0
124.026947	17868.0
124.113419	144.0
124.160301	112.0
124.179169	296.0
124.202652	124.0
124.235931	112.0
124.26265	328.0
124.280075	168.0
124.307648	188.0
124.338966	36.0
124.36805	56.0
124.383232	72.0
124.423073	132.0
124.451935	152.0
124.505745	208.0
124.528999	148.0
124.554253	112.0
124.570938	124.0
124.594086	32.0
124.618225	60.0
124.622017	84.0
124.648186	80.0
124.684479	228.0
124.759285	180.0
124.81395	200.0
124.846718	104.0
124.851639	92.0
124.891243	184.0
124.901024	56.0
124.908676	112.0
124.942726	112.0
124.96402	72.0
124.990967	104.0
125.028099	924.0
125.057968	184.0
125.102135	128.0
125.128708	160.0
125.203568	164.0
125.232521	56.0
125.265091	184.0
125.281906	164.0
125.348373	84.0
125.401863	128.0
125.506393	108.0
125.540092	284.0
125.578011	68.0
125.627083	224.0
125.644928	152.0
125.668358	88.0
125.685974	132.0
125.759468	232.0
125.789536	188.0
125.841339	120.0
125.861435	124.0
125.877068	156.0
125.931984	88.0
125.986511	136.0
126.052383	100.0
126.084831	180.0
126.102707	128.0
126.14518	64.0
126.281586	44.0
126.460579	68.0
126.545647	152.0
126.56356	148.0
126.601631	108.0
126.630745	40.0
126.711395	144.0
126.749481	36.0
126.85482	72.0
126.874786	84.0
126.90863	112.0
126.924332	48.0
126.940025	332.0
126.973663	88.0
126.989365	160.0
127.06115	144.0
127.084442	1072.0
127.123978	60.0
127.148666	52.0
127.164375	64.0
127.195801	48.0
127.220497	156.0
127.265396	68.0
127.339508	128.0
127.447342	144.0
127.476555	148.0
127.555664	220.0
127.582191	232.0
127.701378	172.0
127.724297	212.0
127.750862	172.0
127.766609	44.0
127.838615	192.0
127.872375	128.0
127.901634	116.0
127.951164	52.0
127.993942	140.0
128.025467	160.0
128.043488	68.0
128.067108	164.0
128.093231	172.0
128.117828	172.0
128.133591	32.0
128.343994	156.0
128.368011	60.0
128.392822	120.0
128.537201	76.0
128.713272	140.0
128.751663	132.0
128.776505	164.0
128.828461	108.0
128.914322	252.0
128.988922	108.0
129.018311	188.0
129.047699	136.0
129.208282	168.0
129.296524	128.0
129.364441	128.0
129.402924	212.0
129.43927	152.0
129.461578	160.0
129.656845	88.0
129.674774	212.0
129.720108	156.0
129.742767	140.0
129.843491	172.0
129.876572	104.0
130.064453	224.0
130.114853	92.0
130.182968	172.0
130.307907	296.0
130.363998	128.0
130.414719	96.0
130.439713	60.0
130.460175	68.0
130.548859	76.0
130.83783	200.0
130.860596	84.0
130.924362	228.0
130.942581	128.0
130.963074	200.0
131.017746	240.0
131.063873	184.0
131.097504	128.0
131.118011	64.0
131.149918	116.0
131.168167	36.0
131.252518	152.0
131.284439	44.0
131.42131	28.0
131.493896	164.0
131.518784	316.0
131.538696	148.0
131.578796	136.0
131.613052	140.0
131.873489	144.0
131.916916	128.0
131.939774	88.0
131.958069	116.0
131.978653	80.0
132.042679	68.0
132.074707	156.0
132.184525	88.0
132.229813	132.0
132.239014	104.0
132.272552	168.0
132.317276	168.0
132.382874	124.0
132.411163	116.0
132.473022	40.0
132.500504	200.0
132.617386	232.0
132.743469	232.0
132.791641	152.0
132.837509	180.0
132.871918	84.0
132.998138	128.0
133.021332	192.0
133.086258	188.0
133.117523	148.0
133.138199	128.0
133.217697	124.0
133.246155	184.0
133.340378	156.0
133.400146	196.0
133.535812	144.0
133.574905	164.0
133.593323	96.0
133.625519	200.0
133.72908	120.0
133.786636	152.0
133.839584	72.0
133.858917	248.0
133.883347	192.0
133.91098	124.0
133.957047	100.0
133.975479	380.0
133.996216	144.0
134.076187	244.0
134.171371	404.0
134.194427	144.0
134.233627	132.0
134.280136	168.0
134.337418	212.0
134.466644	172.0
134.512802	184.0
134.625946	180.0
134.658478	132.0
134.683685	124.0
134.759918	116.0
134.806137	96.0
134.94252	184.0
134.965637	148.0
135.020767	212.0
135.039642	188.0
135.060455	612.0
135.090744	220.0
135.338181	56.0
135.433136	236.0
135.61618	260.0
135.653275	372.0
135.741379	120.0
135.838791	96.0
135.9664	76.0
135.989609	144.0
136.010513	160.0
136.074249	356.0
136.114975	132.0
136.156784	56.0
136.196274	180.0
136.219498	192.0
136.500732	132.0
136.524689	192.0
136.561203	196.0
136.586792	204.0
136.682175	164.0
136.72406	152.0
136.74501	168.0
136.842789	144.0
136.905655	76.0
137.005814	332.0
137.038437	200.0
137.187103	188.0
137.261032	120.0
137.285522	180.0
137.500168	156.0
137.560852	100.0
137.719635	140.0
137.792053	64.0
137.81543	140.0
137.946304	124.0
138.002411	136.0
138.039825	128.0
138.089905	444.0
138.1521	200.0
138.266754	216.0
138.291641	120.0
138.360535	184.0
138.423615	212.0
138.573517	168.0
138.611008	84.0
138.674286	172.0
138.725861	84.0
138.775101	96.0
138.852478	184.0
138.93927	116.0
138.962738	112.0
139.008194	128.0
139.030792	188.0
139.05661	116.0
139.087921	152.0
139.10257	124.0
139.154617	196.0
139.17868	172.0
139.267929	96.0
139.352493	228.0
139.373642	160.0
139.40889	128.0
139.542877	212.0
139.558975	204.0
139.575699	92.0
139.584503	176.0
139.590347	216.0
139.679276	120.0
139.776291	172.0
139.81575	116.0
139.879837	160.0
139.966415	128.0
140.067688	148.0
140.115356	168.0
140.206696	56.0
140.227921	44.0
140.35051	200.0
140.43541	164.0
140.473145	160.0
140.49202	184.0
140.572235	324.0
140.702057	200.0
140.769653	216.0
140.843994	200.0
140.872101	124.0
140.916992	116.0
140.954803	160.0
140.982178	252.0
141.117889	88.0
141.144424	148.0
141.167557	192.0
141.224319	176.0
141.255066	136.0
141.426086	176.0
141.508301	56.0
141.541443	68.0
141.610123	140.0
141.70015	160.0
141.735687	136.0
141.889755	236.0
142.017807	148.0
142.055542	176.0
142.062408	160.0
142.133728	172.0
142.226624	208.0
142.252731	260.0
142.2836	172.0
142.485474	140.0
142.563889	200.0
142.620926	116.0
142.701813	168.0
142.75882	164.0
142.794495	164.0
142.812271	160.0
142.877762	112.0
142.953903	160.0
142.984833	228.0
143.044128	172.0
143.134811	152.0
143.230087	232.0
143.296783	128.0
143.320618	60.0
143.365891	44.0
143.404022	108.0
143.506531	132.0
143.788025	196.0
143.826218	136.0
143.893066	192.0
144.172852	92.0
144.249023	156.0
144.30162	208.0
144.387711	148.0
144.484436	264.0
144.543213	136.0
144.569534	212.0
144.598251	96.0
144.689224	220.0
144.722733	168.0
144.744293	152.0
144.890396	152.0
145.00441	232.0
145.045486	128.0
145.108505	116.0
145.170837	124.0
145.194824	160.0
145.238007	140.0
145.257187	188.0
145.339142	220.0
145.424255	128.0
145.569214	100.0
145.593231	116.0
145.634048	132.0
145.665283	112.0
145.73735	188.0
145.843094	164.0
145.971024	196.0
146.047943	192.0
146.096161	388.0
146.177399	172.0
146.309784	200.0
146.382019	152.0
146.497375	148.0
146.535675	56.0
146.544296	44.0
146.576324	212.0
146.649231	172.0
146.779633	40.0
146.818222	160.0
146.836273	344.0
146.883347	168.0
146.936417	88.0
146.999146	228.0
147.060928	820.0
147.119019	304.0
147.209183	172.0
147.308197	220.0
147.344437	120.0
147.404846	192.0
147.433853	188.0
147.461197	164.0
147.528122	48.0
147.549881	144.0
147.619995	168.0
147.898239	188.0
148.007172	184.0
148.068726	176.0
148.13797	140.0
148.244583	104.0
148.272263	188.0
148.414261	192.0
148.582489	212.0
148.605881	164.0
148.654419	144.0
148.733719	124.0
148.758774	208.0
148.831619	168.0
148.872894	144.0
148.967621	180.0
149.074982	676.0
149.232544	132.0
149.320084	148.0
149.396759	208.0
149.453888	72.0
149.47821	204.0
149.573135	68.0
149.641296	180.0
149.707047	220.0
149.724091	180.0
149.752243	108.0
149.804474	144.0
149.899506	104.0
149.928741	212.0
149.953125	184.0
149.970184	120.0
150.040878	108.0
150.093674	292.0
150.201828	164.0
150.318939	224.0
150.526428	68.0
150.587494	136.0
150.704758	156.0
150.751175	148.0
151.044586	36.0
151.078827	168.0
151.303986	120.0
151.416626	216.0
151.438675	172.0
151.600372	160.0
151.627335	84.0
151.700867	132.0
151.771973	184.0
151.862701	120.0
152.01236	212.0
152.076172	108.0
152.365952	184.0
152.45932	56.0
152.533051	220.0
152.560104	84.0
152.584686	148.0
152.651077	136.0
152.764221	200.0
153.057175	144.0
153.091583	180.0
153.145874	176.0
153.223572	180.0
153.244308	176.0
153.278793	176.0
153.347809	84.0
153.416824	164.0
153.517914	228.0
153.594055	124.0
153.655502	180.0
153.715271	132.0
153.752289	172.0
153.784378	188.0
153.972015	188.0
154.073303	132.0
154.140015	184.0
154.387222	108.0
154.404541	176.0
154.609879	148.0
154.707581	220.0
154.746033	172.0
154.825272	44.0
154.88472	132.0
154.974091	156.0
155.003632	132.0
155.117645	212.0
155.152359	76.0
155.236664	96.0
155.286255	48.0
155.431015	92.0
155.549286	108.0
155.581558	76.0
155.628723	136.0
155.652008	224.0
155.77774	60.0
155.850449	168.0
155.877136	92.0
155.909439	36.0
155.963165	168.0
155.97081	104.0
155.980423	136.0
156.059113	304.0
156.100861	76.0
156.221649	144.0
156.251999	152.0
156.272491	156.0
156.329727	176.0
156.362076	196.0
156.414352	132.0
156.582047	196.0
156.626007	164.0
156.650925	112.0
156.830338	48.0
156.917587	92.0
156.949326	148.0
157.03978	164.0
157.189468	196.0
157.23938	100.0
157.284317	80.0
157.346725	164.0
157.379181	124.0
157.40416	172.0
157.474075	180.0
157.629242	168.0
157.746445	140.0
157.961502	220.0
157.98587	168.0
158.091614	192.0
158.113815	216.0
158.231796	112.0
158.321884	376.0
158.408936	196.0
158.426651	224.0
158.574982	168.0
158.672058	176.0
158.737946	128.0
158.770538	152.0
158.883621	148.0
158.938629	208.0
158.998856	132.0
159.017609	188.0
159.099808	180.0
159.124359	108.0
159.157822	148.0
159.239883	40.0
159.262482	152.0
159.476059	168.0
159.548965	212.0
159.589188	148.0
159.636963	152.0
159.697327	156.0
159.828156	40.0
159.870148	128.0
159.966568	140.0
160.039581	128.0
160.107574	104.0
160.185669	124.0
160.205811	104.0
160.233536	144.0
160.304077	136.0
160.430115	172.0
160.454163	148.0
160.634384	88.0
160.659195	172.0
160.697906	176.0
160.775681	76.0
160.861801	196.0
161.078674	136.0
161.116562	104.0
161.13678	120.0
161.154465	176.0
161.22522	136.0
161.265656	152.0
161.356659	172.0
161.452744	128.0
161.488159	156.0
161.515976	236.0
161.599472	208.0
161.652603	96.0
161.822205	176.0
161.88298	156.0
161.976685	244.0
161.996948	92.0
162.065353	112.0
162.159119	148.0
162.252625	176.0
162.272644	340.0
162.372101	156.0
162.476105	120.0
162.625824	196.0
162.656281	172.0
162.684204	208.0
162.709595	68.0
162.790848	156.0
162.815887	196.0
162.858704	140.0
162.917847	172.0
163.006775	168.0
163.048538	288.0
163.077881	188.0
163.105057	120.0
163.136398	76.0
163.207596	196.0
163.225388	188.0
163.288971	156.0
163.369949	72.0
163.431427	116.0
163.449249	156.0
163.51033	112.0
163.587692	148.0
163.60556	196.0
163.660522	128.0
163.736923	168.0
163.792953	120.0
163.813324	84.0
163.836258	160.0
163.914352	136.0
163.9478	136.0
163.966217	160.0
164.056702	72.0
164.091125	292.0
164.159973	200.0
164.228836	104.0
164.277298	160.0
164.302094	156.0
164.339722	172.0
164.368729	152.0
164.389572	124.0
164.408203	540.0
164.426163	248.0
164.469559	212.0
164.488846	40.0
164.493454	68.0
164.502975	160.0
164.535065	168.0
164.564545	80.0
164.572891	44.0
164.589188	332.0
164.610016	156.0
164.641678	360.0
164.659302	392.0
164.72348	160.0
164.75412	316.0
164.783783	176.0
164.831345	196.0
164.857819	156.0
164.888809	404.0
164.914627	96.0
164.918915	136.0
164.946182	344.0
164.975815	388.0
165.014801	648.0
165.070969	272304.0
165.139053	108.0
165.161102	204.0
165.203537	172.0
165.244934	184.0
165.289734	148.0
165.321884	272.0
165.356644	204.0
165.378723	156.0
165.403152	216.0
165.423737	196.0
165.429916	192.0
165.462677	180.0
165.491653	3776.0
165.514343	232.0
165.56044	144.0
165.579895	112.0
165.58403	124.0
165.602524	156.0
165.622009	76.0
165.651672	156.0
165.688705	296.0
165.740204	148.0
165.766571	120.0
165.792938	196.0
165.82756	88.0
165.857559	84.0
165.889832	240.0
165.91806	148.0
165.952499	140.0
165.976562	212.0
166.000061	280.0
166.029099	304.0
166.073654	40644.0
166.151123	60.0
166.175034	116.0
166.224945	192.0
166.250305	160.0
166.292297	44.0
166.315735	68.0
166.339905	144.0
166.371384	152.0
166.391251	68.0
166.419952	88.0
166.442261	120.0
166.466324	236.0
166.523193	88.0
166.534866	56.0
166.54007	88.0
166.5784	128.0
166.617645	80.0
166.646851	116.0
166.673782	52.0
166.693787	104.0
166.74202	108.0
166.80365	92.0
166.853333	144.0
166.876709	80.0
166.906006	128.0
166.926941	132.0
166.970886	52.0
167.02713	52.0
167.076569	2332.0
167.125366	108.0
167.147751	88.0
167.169174	336.0
167.189392	136.0
167.214325	100.0
167.258011	124.0
167.281616	220.0
167.302567	144.0
167.330872	184.0
167.373337	192.0
167.395477	264.0
167.445679	212.0
167.491653	160.0
167.519226	88.0
167.539352	68.0
167.563049	128.0
167.58725	48.0
167.635208	168.0
167.6996	220.0
167.731567	44.0
167.765076	68.0
167.81665	68.0
167.837265	48.0
167.857895	56.0
167.875946	72.0
167.95224	76.0
167.995468	132.0
168.017746	132.0
168.079102	420.0
168.127701	48.0
168.173477	76.0
168.193298	84.0
168.22345	136.0
168.253799	116.0
168.363632	124.0
168.450607	156.0
168.482529	100.0
168.601395	112.0
168.661728	212.0
168.937546	60.0
169.092789	132.0
169.157501	92.0
169.175629	64.0
169.195084	116.0
169.23259	52.0
169.250717	68.0
169.286972	60.0
169.369843	44.0
169.507156	120.0
169.574539	68.0
169.745651	96.0
169.781952	180.0
170.298447	112.0
170.575027	192.0
170.649277	100.0
170.969238	136.0
171.260849	100.0
171.325974	84.0
171.367661	176.0
171.401535	104.0
171.542267	148.0
171.638504	180.0
172.534317	108.0
173.159714	112.0
173.463669	156.0
173.550186	68.0
173.641174	132.0
174.002808	144.0
174.067123	160.0
174.096008	84.0
174.177811	56.0
174.369247	224.0
174.542755	68.0
174.834763	76.0
175.000595	124.0
175.050125	124.0
175.066437	148.0
175.09111	228.0
175.124771	264.0
175.153351	52.0
175.187592	64.0
175.253464	60.0
175.272629	132.0
175.289368	96.0
175.340424	108.0
175.41423	80.0
175.531509	100.0
175.627823	76.0
175.692352	52.0
175.717514	100.0
175.962967	48.0
176.009232	92.0
176.070938	144.0
176.085953	300.0
176.116135	96.0
176.287872	104.0
176.338089	52.0
177.059998	188.0
177.086868	392.0
177.224625	120.0
177.251114	128.0
177.285568	56.0
177.378342	68.0
177.506302	152.0
177.789459	116.0
177.866425	132.0
177.887665	140.0
178.100098	84.0
178.155884	108.0
178.283432	68.0
178.349869	108.0
178.546631	60.0
178.583862	180.0
178.799866	180.0
178.841965	220.0
179.276093	80.0
179.30275	36.0
179.350723	216.0
179.526688	68.0
179.577362	120.0
179.82016	48.0
180.084488	84.0
180.191345	96.0
180.399811	128.0
180.728775	44.0
180.752853	36.0
180.937546	32.0
181.15448	112.0
181.277725	72.0
181.379578	56.0
181.473404	52.0
181.500214	180.0
181.620911	216.0
181.795303	56.0
181.926819	72.0
182.157776	60.0
183.444092	32.0
183.468353	36.0
183.886475	164.0
184.024155	80.0
184.48703	184.0
184.883774	100.0
185.154495	44.0
185.219513	80.0
185.615204	60.0
185.750809	184.0
186.084625	160.0
186.23941	68.0
186.45134	164.0
187.083145	44.0
187.253952	44.0
187.343842	56.0
187.452835	196.0
187.649094	140.0
187.864548	52.0
188.148376	192.0
188.492523	72.0
188.599121	188.0
188.957367	140.0
189.096924	160.0
189.236542	32.0
189.466599	132.0
190.19606	124.0
190.385498	84.0
190.533829	68.0
191.058945	76.0
191.135986	60.0
191.405746	212.0
191.75563	212.0
193.390762	164.0
194.095978	4508.0
194.529388	184.0
194.721634	156.0
194.866089	60.0
195.098907	636.0
195.179382	168.0
195.44722	212.0
195.678238	52.0
195.73671	92.0
196.154633	124.0
196.391647	56.0
196.464722	84.0
197.078415	208.0
197.100769	160.0
197.1371	176.0
197.181824	184.0
197.500565	60.0
197.548126	92.0
197.757996	88.0
197.953964	168.0
198.147232	276.0
198.61821	64.0
199.047623	28.0
200.062637	128.0
200.679642	112.0
201.094345	180.0
201.128204	104.0
201.650757	116.0
202.103241	112.0
202.38063	136.0
203.094803	48.0
203.120331	172.0
203.299072	72.0
203.699417	168.0
203.767609	232.0
203.975067	100.0
204.083099	156.0
204.118057	232.0
204.660721	92.0
205.053848	176.0
205.338959	156.0
206.109756	164.0
206.590103	184.0
207.09964	144.0
207.552444	212.0
207.601196	44.0
208.100494	120.0
208.698135	164.0
209.893127	144.0
210.224869	140.0
211.051025	60.0
211.470505	136.0
212.136749	124.0
212.264313	44.0
212.925995	176.0
213.10611	84.0
213.277573	108.0
213.693436	240.0
214.060196	136.0
214.095139	120.0
214.299057	184.0
215.028091	232.0
215.334656	40.0
216.018646	136.0
216.112427	156.0
217.11705	124.0
217.257843	44.0
217.909622	88.0
217.975983	240.0
218.833176	152.0
219.183701	68.0
220.10907	252.0
220.163101	188.0
220.310791	100.0
220.559021	164.0
220.887253	84.0
221.115082	144.0
221.482239	132.0
222.127625	968.0
222.535034	52.0
223.242249	52.0
223.637955	108.0
224.346924	56.0
225.355713	92.0
225.795135	80.0
226.100311	44.0
226.145203	48.0
226.270935	32.0
226.32782	156.0
226.513504	128.0
227.359055	84.0
227.536148	208.0
227.740356	184.0
228.079895	48.0
228.120529	148.0
228.266312	172.0
228.621292	76.0
228.819962	156.0
228.87114	188.0
228.919327	60.0
229.200546	268.0
229.35318	32.0
231.141113	120.0
231.301514	140.0
232.086197	148.0
232.144104	868.0
232.274231	100.0
232.811447	52.0
233.084854	108.0
233.147385	396.0
233.191223	128.0
233.775162	124.0
234.027817	76.0
234.826248	192.0
235.207657	168.0
235.320618	132.0
235.357178	156.0
235.601593	148.0
235.791046	196.0
236.200775	156.0
236.473099	76.0
237.047089	124.0
237.603851	152.0
237.649872	120.0
238.897247	144.0
239.152664	72.0
239.491364	180.0
240.614975	156.0
241.092651	52.0
241.364685	132.0
242.460571	168.0
242.556656	188.0
243.447128	112.0
243.732925	228.0
243.888321	84.0
243.97847	120.0
244.111404	892.0
244.283234	84.0
244.401459	144.0
244.50415	128.0
244.60376	120.0
244.784332	28.0
245.052216	44.0
245.113998	392.0
246.127319	552.0
247.012817	60.0
247.360168	180.0
248.478973	224.0
249.301666	136.0
250.377609	124.0
250.440613	128.0
250.613876	124.0
250.695816	188.0
252.277161	172.0
252.647171	160.0
253.093445	28.0
254.593399	160.0
254.663269	156.0
254.698212	200.0
254.780807	100.0
255.085892	148.0
255.133575	92.0
255.259308	188.0
255.941727	48.0
256.10733	124.0
256.371765	104.0
256.537537	56.0
256.932983	144.0
257.01593	120.0
258.044434	36.0
258.172333	168.0
258.489044	160.0
258.815552	172.0
259.055756	124.0
259.324921	80.0
259.363403	212.0
259.847626	116.0
260.065857	88.0
260.10437	144.0
260.338745	112.0
260.447968	140.0
260.518646	120.0
260.733917	204.0
260.782135	80.0
260.83255	220.0
261.007172	144.0
261.081146	112.0
261.155121	84.0
261.261261	108.0
261.470428	88.0
261.644257	152.0
261.705414	88.0
261.820282	156.0
261.966309	296.0
262.030731	68.0
262.122223	20236.0
262.172516	248.0
262.207947	44.0
262.237915	152.0
262.354034	100.0
262.52713	32.0
262.556152	40.0
262.602692	108.0
262.645264	100.0
262.69162	52.0
262.756165	44.0
262.791656	136.0
262.867096	168.0
262.978821	36.0
263.078888	36.0
263.125031	3064.0
263.172516	144.0
263.195129	68.0
263.279083	48.0
263.308136	160.0
263.450256	180.0
263.482574	60.0
263.511658	132.0
263.617676	84.0
263.673218	88.0
263.84433	60.0
263.999756	68.0
264.126617	420.0
264.284424	52.0
264.307068	48.0
264.410645	48.0
264.569244	132.0
264.646942	132.0
264.705231	48.0
264.773254	204.0
264.902802	100.0
264.99353	184.0
265.025909	100.0
265.304657	88.0
265.411652	116.0
265.515411	64.0
265.625702	72.0
265.765198	128.0
265.878784	32.0
265.985901	52.0
266.138489	112.0
266.200195	72.0
266.36908	48.0
266.564026	68.0
266.651764	68.0
268.383667	68.0
268.68045	44.0
268.807709	180.0
269.42157	188.0
269.941254	100.0
270.114624	180.0
272.238495	64.0
272.458588	92.0
273.050262	168.0
273.138702	560.0
273.175262	164.0
273.293701	140.0
273.320038	88.0
273.537231	104.0
274.008179	92.0
274.119904	1168.0
274.152496	200.0
274.535583	92.0
275.128693	612.0
275.314423	68.0
276.163849	44.0
276.372253	72.0
276.832397	112.0
278.225006	96.0
279.562195	112.0
280.820587	76.0
282.614563	108.0
283.029633	152.0
283.91095	148.0
284.991882	80.0
286.118622	184.0
286.253296	56.0
286.748535	112.0
286.883362	104.0
288.13208	116.0
288.49707	68.0
289.058533	140.0
289.129608	280.0
289.163452	124.0
289.251465	52.0
289.769592	120.0
290.065765	112.0
290.186493	256.0
290.440857	180.0
290.590118	60.0
290.72403	52.0
290.895569	144.0
290.939697	132.0
291.038147	160.0
291.102661	284.0
291.149231	27264.0
291.257416	92.0
291.286072	72.0
291.330475	56.0
291.368958	60.0
291.459351	44.0
291.50351	80.0
291.619843	168.0
291.653076	112.0
291.795837	68.0
291.819641	52.0
291.880859	68.0
292.000092	64.0
292.054291	68.0
292.15036	3300.0
292.219452	88.0
292.309479	56.0
292.387726	36.0
292.993866	44.0
293.041565	108.0
293.116516	148.0
293.156342	500.0
293.665405	116.0
293.692688	72.0
293.893982	68.0
293.955383	56.0
294.095337	124.0
294.142334	104.0
294.207977	72.0
294.248932	76.0
294.286499	68.0
294.43335	88.0
294.503235	60.0
294.740784	48.0
294.788635	76.0
294.921936	60.0
295.031311	44.0
295.106537	40.0
295.164673	104.0
295.345917	132.0
296.129761	108.0
296.486084	48.0
296.588898	140.0
297.216522	56.0
297.272858	72.0
297.367523	108.0
299.006958	84.0
299.347778	92.0
299.685364	92.0
301.562683	52.0
302.520874	48.0
302.971069	44.0
304.004364	36.0
304.22998	68.0
304.528625	64.0
305.321045	108.0
305.401031	120.0
306.375732	48.0
306.867157	128.0
306.912506	68.0
307.952484	56.0
312.559113	160.0
314.854095	128.0
314.960052	104.0
319.682678	124.0
321.180786	412.0
321.250427	108.0
322.678986	120.0
323.168976	116.0
323.426666	44.0
323.795441	132.0
324.562347	88.0
324.831329	136.0
326.681396	28.0
328.100342	104.0
332.941895	64.0
333.032684	60.0
334.097778	96.0
334.145081	152.0
334.91687	136.0
335.313995	124.0
335.339508	48.0
335.879181	120.0
335.915649	52.0
336.894012	84.0
337.31427	72.0
338.569275	180.0
339.187225	648.0
340.182617	108.0
342.521393	172.0
343.43924	72.0
343.675354	104.0
344.059204	120.0
344.192108	48.0
345.056732	112.0
346.60022	116.0
347.226715	56.0
347.282349	88.0
348.069153	132.0
350.088409	188.0
351.18042	120.0
352.184479	180.0
352.453461	64.0
353.115173	144.0
354.55661	64.0
358.630859	56.0
358.857025	84.0
359.532257	68.0
364.839081	108.0
365.474243	84.0
367.772308	60.0
368.291595	120.0
369.377197	88.0
370.563995	56.0
370.786255	152.0
370.95105	36.0
371.269318	144.0
378.20459	192.0
379.231049	68.0
380.693695	40.0
381.36972	60.0
383.448151	168.0
383.815094	64.0
384.657349	32.0
386.944366	104.0
387.281128	44.0
389.422729	48.0
389.788116	76.0
389.815613	60.0
391.357574	144.0
392.165192	48.0
392.53183	60.0
393.017029	112.0
393.320923	104.0
393.624908	80.0
393.952759	180.0
394.193756	152.0
394.237244	84.0
395.063629	128.0
395.198151	64.0
395.304993	60.0
395.752289	152.0
395.867126	212.0
396.061188	84.0
396.144379	168.0
396.206757	11468.0
396.275116	136.0
396.504944	104.0
396.584229	176.0
396.627838	132.0
396.708282	80.0
396.861725	44.0
396.893463	36.0
397.207581	3088.0
397.331482	120.0
397.363007	84.0
397.504333	68.0
397.742462	92.0
398.012451	60.0
398.210968	476.0
398.282501	36.0
399.210358	80.0
399.244354	140.0
399.300018	80.0
399.40741	28.0
399.502899	96.0
399.781403	68.0
399.916748	68.0
400.016266	100.0
401.171509	104.0
403.79895	28.0
408.508118	104.0
411.534882	96.0
412.231812	120.0
412.419617	192.0
413.018036	108.0
413.281006	76.0
416.751892	68.0
416.83316	76.0
420.441315	104.0
424.680023	100.0
427.938904	40.0
428.087158	48.0
429.901031	60.0
430.165192	48.0
430.553314	48.0
432.268951	60.0
437.515442	96.0
441.241119	68.0
442.994659	152.0
445.524353	140.0
446.028625	68.0
464.076813	48.0
464.964783	72.0
469.40451	92.0
474.294373	52.0
475.600006	52.0
482.124512	80.0
484.851044	44.0
492.259521	84.0
494.660339	56.0
497.954895	64.0
498.030396	44.0
498.230286	100.0
505.113464	68.0
505.444519	60.0
506.64447	92.0
508.473999	52.0
508.981293	100.0
512.922485	68.0
514.140259	120.0
516.643555	36.0
518.037903	40.0
531.047668	132.0
534.764771	100.0
537.239319	116.0
541.357666	40.0
542.961182	168.0
546.021851	148.0
559.569214	56.0
561.048584	76.0
563.739075	80.0
563.965942	80.0
564.921143	28.0
565.441589	80.0
565.957642	184.0
566.933472	84.0
572.148987	64.0
580.271118	64.0
584.892639	64.0
589.783813	92.0
595.394531	104.0
599.695496	92.0
599.79303	52.0
600.607361	60.0
605.411804	76.0
616.733032	84.0
634.675842	188.0
640.405029	92.0
640.969299	96.0
646.81781	68.0
651.854187	104.0
654.555359	100.0
659.039062	96.0
659.631897	76.0
667.142151	28.0
677.525818	136.0
685.090027	100.0
710.022095	180.0
711.683105	80.0
713.808594	140.0
719.200256	200.0
720.984192	72.0
750.694153	32.0
759.455872	72.0
763.745789	88.0
763.877808	160.0
765.887024	168.0
776.044678	96.0
780.358887	68.0
786.302795	100.0
788.693359	168.0
790.231262	212.0
791.944336	92.0
792.241211	124.0
793.031311	164.0
793.748901	108.0
801.461182	44.0
802.447571	216.0
809.374878	88.0
810.502136	64.0
811.329651	48.0
822.588074	64.0
825.822266	132.0
826.228394	184.0
826.766296	132.0
828.237732	200.0
829.618774	204.0
830.88623	204.0
832.786377	76.0
835.004944	160.0
838.274963	140.0
839.174194	56.0
839.797058	224.0
842.469727	220.0
843.255615	132.0
844.180603	88.0
851.750061	192.0
854.115906	192.0
857.627136	164.0
859.3125	92.0
860.503174	204.0
860.690002	160.0
861.864075	188.0
863.021423	156.0
863.875305	192.0
866.990356	172.0
869.682434	152.0
870.058167	260.0
871.467773	164.0
877.147034	188.0
880.138245	76.0
881.443726	132.0
881.957886	116.0
882.182495	40.0
884.477722	164.0
889.569824	44.0
890.395203	56.0
893.367249	200.0
894.366943	208.0
894.759827	164.0
896.250732	272.0
898.27002	124.0
902.624023	196.0
902.737671	168.0
905.472656	184.0
906.850708	40.0
907.752197	132.0
909.417908	100.0
911.471802	100.0
913.395752	100.0
913.473938	120.0
915.297607	136.0
916.912109	164.0
918.154053	216.0
921.081482	148.0
921.540588	44.0
921.643311	220.0
921.818542	200.0
922.187256	176.0
922.70105	144.0
923.825928	224.0
924.297852	172.0
925.593262	148.0
926.223145	112.0
926.447327	92.0
926.493347	120.0
926.598755	68.0
928.975281	144.0
930.085815	156.0
930.917603	160.0
933.542908	120.0
934.27887	100.0
935.556885	180.0
935.757812	168.0
936.502869	188.0
937.829102	196.0
937.969299	52.0
938.06073	168.0
938.564758	160.0
939.207153	120.0
939.347412	52.0
939.713501	156.0
940.085693	80.0
941.300537	136.0
943.127258	196.0
943.408447	168.0
943.536865	132.0
943.995422	188.0
944.405212	192.0
945.261719	156.0
947.220947	176.0
947.717224	172.0
950.139099	188.0
950.740417	68.0
952.183167	128.0
952.564026	144.0
953.264465	160.0
953.454956	64.0
954.204895	148.0
954.89978	156.0
955.797974	192.0
956.191833	172.0
957.367737	120.0
957.971375	200.0
958.414978	156.0
959.764893	136.0
959.869751	40.0
960.171936	84.0
960.227417	116.0
960.683899	112.0
961.239197	120.0
961.449036	212.0
961.955139	188.0
962.751648	180.0
963.282837	136.0
963.709167	144.0
967.370483	92.0
970.015686	72.0
970.982971	172.0
972.081055	168.0
972.366516	32.0
973.024536	104.0
973.502686	172.0
973.577148	124.0
976.118896	220.0
976.218384	204.0
977.736389	48.0
979.037537	168.0
979.523376	116.0
979.909607	140.0
980.913025	240.0
981.075073	172.0
982.927551	204.0
983.426819	200.0
983.532959	180.0
983.962646	172.0
984.675537	160.0
984.831726	204.0
985.331482	176.0
985.887573	112.0
986.11261	136.0
986.475159	32.0
986.731445	164.0
986.93158	116.0
989.064941	168.0
989.953979	156.0
990.110535	140.0
991.733337	148.0
991.864929	204.0
992.66748	164.0
993.32605	116.0
994.173096	88.0
994.223267	112.0
994.455505	92.0
995.515076	168.0
995.792908	128.0
996.471313	116.0
996.860901	208.0
998.564636	184.0
999.879639	60.0
1000.496521	140.0
1000.584656	244.0
1002.215942	140.0
1003.432434	216.0
1003.514404	172.0
1003.564819	168.0
1003.678345	204.0
1004.573975	212.0
1005.634033	172.0
1006.846313	124.0
1007.705383	196.0
1008.274109	112.0
1008.470032	172.0
1011.04425	152.0
1011.259399	144.0
1012.658691	136.0
1013.076111	172.0
1013.691406	180.0
1015.130432	160.0
1015.181152	228.0
1015.301636	140.0
1016.088196	176.0
1016.44989	160.0
1017.072693	152.0
1017.14801	220.0
1017.808289	128.0
1020.063782	120.0
1020.438843	180.0
1021.742676	88.0
1022.130798	164.0
1022.512634	148.0
1023.263794	160.0
1023.81781	108.0
1024.066162	212.0
1024.30188	180.0
1024.784424	176.0
1025.002686	200.0
1025.646484	160.0
1025.773926	172.0
1025.914185	152.0
1026.009766	180.0
1026.437012	184.0
1026.539062	68.0
1027.591187	168.0
1027.693604	184.0
1028.453003	176.0
1030.368896	228.0
1030.471069	136.0
1033.220337	168.0
1033.757812	172.0
1034.25061	144.0
1035.377441	224.0
1036.011597	140.0
1036.453735	116.0
1037.524048	196.0
1039.044067	80.0
1039.57019	112.0
1040.167114	68.0
1040.25061	140.0
1040.379028	156.0
1040.783447	100.0
1040.963257	216.0
1041.310059	144.0
1041.91394	188.0
1042.60144	156.0
1043.186401	144.0
1043.855103	132.0
1044.028687	116.0
1044.710571	216.0
1045.309937	160.0
1045.476196	120.0
1045.939697	52.0
1046.570557	144.0
1046.853882	252.0
1048.213135	320.0
1048.574097	56.0
1048.62561	172.0
1048.844727	204.0
1049.160645	168.0
1049.444336	192.0
1049.489502	124.0
1050.192383	104.0
1050.267456	184.0
1050.831055	172.0
1051.573242	164.0
1052.980713	128.0
1054.06604	188.0
1054.848145	176.0
1054.983887	208.0
1055.501099	116.0
1056.147827	132.0
1056.361328	144.0
1057.687866	152.0
1058.029541	168.0
1061.847778	108.0
1061.958008	64.0
1062.321289	176.0
1063.106323	184.0
1064.047607	136.0
1064.69043	84.0
1064.885254	188.0
1067.790527	132.0
1068.278442	220.0
1068.493164	68.0
1068.584229	156.0
1068.649292	136.0
1068.870483	144.0
1068.929077	112.0
1069.462769	140.0
1069.547363	184.0
1069.905396	76.0
1070.484863	160.0
1070.543457	96.0
1070.804077	180.0
1071.370728	176.0
1071.461914	152.0
1071.852905	216.0
1072.04834	196.0
1072.217896	180.0
1072.40686	100.0
1072.452515	192.0
1073.710815	112.0
1075.394165	80.0
1075.642212	36.0
1076.014282	80.0
1076.105713	212.0
1077.11145	216.0
1077.235596	80.0
1077.745239	168.0
1078.130737	96.0
1078.326782	160.0
1078.960938	120.0
1079.271118	172.0
1079.327026	32.0
1080.635254	84.0
1081.708618	144.0
1083.312988	228.0
1083.660278	140.0
1084.13855	176.0
1084.322144	132.0
1084.400757	188.0
1084.564575	160.0
1084.721924	176.0
1086.033447	144.0
1086.295776	160.0
1086.374512	144.0
1086.807495	140.0
1087.148804	128.0
1087.312866	160.0
1087.726318	148.0
1088.717773	192.0
1088.93457	156.0
1089.092163	200.0
1089.400879	132.0
1091.385742	116.0
1091.734253	268.0
1091.938232	156.0
1092.115723	124.0
1092.582886	156.0
1092.77771	176.0
1092.971069	164.0
1093.543579	132.0
1093.701538	160.0
1094.004395	200.0
1094.188721	40.0
1095.038208	168.0
1095.196289	96.0
1095.314819	208.0
1095.848511	176.0
1095.907715	148.0
1096.322876	152.0
1096.804077	168.0
1097.29187	172.0
1097.760132	172.0
1098.307495	172.0
1098.617554	164.0
1099.085938	160.0
1099.6073	128.0
1099.765747	148.0
1099.937378	224.0
1100.432495	36.0
1100.723511	264.0
1101.74292	148.0
1103.1875	112.0
1103.280029	168.0
1103.412354	140.0
1105.052612	120.0
1105.489258	180.0
1105.707764	168.0
1106.098267	188.0
1106.310059	128.0
1107.137695	184.0
1107.409302	72.0
1107.786865	96.0
1107.859741	152.0
1108.184448	156.0
1108.389771	44.0
1108.721191	180.0
1109.200317	176.0
1109.735352	136.0
1109.801636	180.0
1109.967407	168.0
1111.075195	148.0
1111.221069	168.0
1111.625854	128.0
1112.288086	220.0
1112.648071	164.0
1113.185913	168.0
1113.803589	60.0
1114.222046	84.0
1114.481201	104.0
1116.023315	124.0
1117.220459	140.0
1118.052246	172.0
1118.45166	160.0
1119.383667	196.0
1121.422363	144.0
1122.188965	148.0
1122.442383	160.0
1122.762451	156.0
1122.888306	172.0
1123.095947	176.0
1123.5896	152.0
1124.357056	64.0
1124.657349	52.0
1124.724121	156.0
1124.890991	132.0
1125.077881	140.0
1125.565308	148.0
1126.886963	232.0
1127.081665	144.0
1127.328857	96.0
1128.759521	192.0
1129.100586	240.0
1129.508545	120.0
1129.829712	168.0
1129.883179	200.0
1130.124023	140.0
1130.177612	140.0
1130.759766	204.0
1130.820068	168.0
1131.302002	144.0
1131.556396	164.0
1131.730469	132.0
1132.038574	108.0
1132.254395	244.0
1132.420288	168.0
1132.79541	204.0
1132.88916	188.0
1132.996338	160.0
1133.331421	124.0
1133.820557	136.0
1133.907715	164.0
1135.79187	188.0
1135.926025	40.0
1136.415771	136.0
1136.818359	72.0
1136.986084	140.0
1137.281494	180.0
1137.825195	144.0
1138.228027	148.0
1138.362427	160.0
1138.483276	200.0
1138.617554	212.0
1139.423706	184.0
1139.759644	128.0
1139.917847	208.0
1140.081909	192.0
1140.1427	172.0
1140.330811	168.0
1140.640015	160.0
1140.868652	76.0
1140.98291	60.0
1141.177856	136.0
1141.319092	184.0
1142.38855	212.0
1142.57019	184.0
1142.845947	164.0
1143.041138	140.0
1143.416748	148.0
1143.720947	192.0
1143.828613	220.0
1144.717285	176.0
1147.297974	128.0
1147.506958	84.0
1148.201538	236.0
1148.430908	80.0
1148.58606	160.0
1148.78833	132.0
1149.11438	148.0
1149.213379	188.0
1150.218994	124.0
1152.981567	100.0
1153.380371	204.0
1153.434448	120.0
1153.752197	124.0
1154.225464	184.0
1154.286255	44.0
1154.563599	152.0
1155.415894	136.0
1155.490356	140.0
1155.679688	168.0
1156.430908	112.0
1156.485107	164.0
1157.473511	204.0
1157.575073	132.0
1157.722778	108.0
1158.022095	192.0
1158.252441	180.0
1158.367554	108.0
1158.462402	88.0
1159.539795	204.0
1159.783813	176.0
1160.252563	108.0
1160.662231	168.0
1161.370483	152.0
1161.537354	192.0
1161.696045	124.0
1162.428833	204.0
1162.62561	184.0
1162.808838	168.0
1163.256836	136.0
1163.718506	200.0
1163.922241	164.0
1164.241455	220.0
1164.995361	164.0
1165.056519	60.0
1165.11084	48.0
1165.4198	156.0
1166.259399	100.0
1166.306885	28.0
1166.422485	148.0
1166.640015	132.0
1166.735229	144.0
1167.159424	232.0
1167.517212	148.0
1167.884399	204.0
1168.380981	156.0
1168.435425	120.0
1168.571533	144.0
1169.001465	160.0
1169.422241	116.0
1169.646851	176.0
1169.830566	160.0
1169.928223	180.0
1170.2323	176.0
1170.416138	180.0
1170.463867	180.0
1170.722534	172.0
1170.92688	52.0
1171.097168	88.0
1171.206177	260.0
1171.751221	184.0
1172.418945	120.0
1172.964233	120.0
1173.414185	140.0
1173.51355	184.0
1173.809692	172.0
1174.79187	152.0
1175.753906	240.0
1175.828979	200.0
1175.95874	120.0
1176.340942	156.0
1176.887085	244.0
1177.146606	144.0
1177.426636	52.0
1177.508545	192.0
1178.116577	44.0
1178.164307	252.0
1178.696045	168.0
1178.753174	164.0
1178.963745	188.0
1179.209839	96.0
1179.271362	124.0
1179.585815	120.0
1180.351562	88.0
1180.748169	184.0
1180.891846	140.0
1181.425415	84.0
1182.136963	116.0
1182.321777	172.0
1182.96521	116.0
1183.252686	144.0
1183.567627	136.0
1183.629272	168.0
1183.684082	100.0
1183.97168	220.0
1184.478516	152.0
1185.472046	168.0
1186.164307	220.0
1186.733398	112.0
1187.261353	132.0
1187.316284	116.0
1187.84436	184.0
1188.228516	56.0
1188.372681	180.0
1188.804932	180.0
1189.010864	116.0
1189.127563	168.0
1189.621704	176.0
1189.683472	204.0
1190.219116	176.0
1190.486938	104.0
1190.548218	156.0
1190.864624	116.0
1191.091309	188.0
1191.173706	136.0
1191.359253	56.0
1191.531006	132.0
1191.901978	220.0
1192.376221	164.0
1192.465576	176.0
1193.24231	120.0
1193.407349	172.0
1193.819946	180.0
1194.101929	160.0
1194.198242	240.0
1194.370117	48.0
1194.473389	172.0
1194.886108	132.0
1195.780762	136.0
1196.317383	104.0
1196.668701	228.0
1196.799561	136.0
1197.557129	160.0
1198.415039	208.0
1198.601318	200.0
1198.680054	172.0
1198.893799	44.0
1199.019165	168.0
1199.107422	32.0
1199.321045	184.0
1199.376221	108.0
1199.686401	112.0
1199.844971	204.0
1199.937988	148.0
1200.320801	172.0
1200.575928	216.0
1200.665527	140.0
1200.755249	212.0
1201.25061	196.0
1201.327759	104.0
1201.520874	224.0
1201.686523	336.0
1202.424927	208.0
1203.488037	216.0
1203.74353	156.0
1203.79187	196.0
1203.881592	124.0
1204.164795	264.0
1204.420288	164.0
1204.735352	168.0
1205.118042	188.0
1205.20105	176.0
1206.203125	132.0
1206.521118	120.0
1206.866821	204.0
1207.230957	176.0
1208.540771	176.0
1208.727539	232.0
1209.274292	184.0
1209.634277	188.0
1210.291992	184.0
1210.534302	132.0
1210.610474	164.0
1210.908325	184.0
1211.504028	132.0
1211.656494	188.0
1211.962891	132.0
1212.162231	196.0
1212.553467	212.0
1213.423828	76.0
1213.500122	184.0
1214.151978	432.0
1214.630493	180.0
1215.629639	164.0
1216.157104	72.0
1216.545776	116.0
1217.330444	164.0
1217.934692	216.0
1218.156982	216.0
1218.414062	140.0
1218.580688	152.0
1218.691895	132.0
1219.838623	148.0
1220.168945	172.0
1220.311401	148.0
1221.716309	140.0
1221.897217	204.0
1221.967773	144.0
1222.078125	164.0
1223.386597	156.0
1223.595459	160.0
1223.776489	156.0
1224.21521	128.0
1224.31958	88.0
1224.577271	204.0
1224.932617	116.0
1224.998779	208.0
1225.266968	176.0
1225.357544	184.0
1225.824341	124.0
1226.713501	228.0
1227.490479	160.0
1227.811279	72.0
1228.229736	148.0
1228.599487	348.0
1228.808838	156.0
1229.199585	40.0
1229.576416	72.0
1230.099854	160.0
1230.190674	60.0
1230.474731	192.0
1231.580322	188.0
1232.243896	192.0
1232.439575	132.0
1232.760986	96.0
1233.65564	160.0
1234.075195	204.0
1234.368896	188.0
1234.582886	148.0
1234.830444	152.0
1235.012329	180.0
1235.648926	216.0
1236.355713	124.0
1237.336304	212.0
1237.629761	104.0
1237.699707	232.0
1238.056885	212.0
1238.119873	192.0
1239.181274	180.0
1239.55603	220.0
1239.647095	224.0
1239.962524	120.0
1240.133179	116.0
1240.17981	168.0
1240.291992	200.0
1240.452271	184.0
1240.62146	184.0
1241.238403	164.0
1241.413818	200.0
1241.645142	192.0
1241.855591	136.0
1242.009888	116.0
1242.353638	148.0
1242.437866	204.0
1242.515015	148.0
1242.641357	148.0
1243.027222	112.0
1243.47644	180.0
1243.665894	152.0
1243.95105	140.0
1244.543457	116.0
1244.655762	68.0
1244.859497	156.0
1245.020996	164.0
1245.358154	164.0
1245.751465	128.0
1246.095703	136.0
1246.158936	172.0
1246.327637	168.0
1246.418945	188.0
1246.573486	116.0
1246.738892	200.0
1246.758423	104.0
1246.875732	176.0
1247.367798	232.0
1247.761475	248.0
1248.105957	152.0
1248.196899	120.0
1248.338013	216.0
1248.436523	164.0
1248.899536	144.0
1249.554932	120.0
1249.920776	128.0
1250.11792	152.0
1250.279785	120.0
1250.42749	112.0
1250.835815	136.0
1250.997681	188.0
1251.314453	128.0
1251.596191	124.0
1251.645386	152.0
1251.765137	176.0
1251.898926	176.0
1252.138428	160.0
1252.497681	112.0
1252.561035	128.0
1253.272583	164.0
1253.624878	108.0
1254.104248	108.0
1254.336792	152.0
1254.442505	212.0
1254.731567	156.0
1255.253418	168.0
1255.316895	212.0
1255.648315	156.0
1255.725952	136.0
1256.791138	100.0
1257.027832	156.0
1257.179199	172.0
1257.821533	168.0
1257.962769	188.0
1258.019165	240.0
1258.301636	288.0
1258.526123	156.0
1258.633423	120.0
1258.901855	44.0
1259.036011	216.0
1259.537476	104.0
1259.629272	196.0
1259.862427	236.0
1260.017822	184.0
1260.123901	112.0
1260.371094	156.0
1260.646729	144.0
1260.950684	92.0
1261.007202	296.0
1261.721191	144.0
1261.989868	160.0
1262.138306	180.0
1262.194824	228.0
1262.9729	152.0
1263.149658	200.0
1263.226074	144.0
1263.347778	128.0
1263.475098	160.0
1263.615234	204.0
1263.906738	152.0
1264.083618	136.0
1264.21106	120.0
1265.060425	152.0
1265.202026	200.0
1265.754272	136.0
1265.938354	160.0
1266.674927	168.0
1266.76001	184.0
1267.043335	172.0
1267.142578	188.0
1267.192139	136.0
1267.411743	144.0
1267.574829	44.0
1268.148804	128.0
1268.744263	36.0
1268.900269	236.0
1269.573975	172.0
1270.673462	152.0
1270.950073	88.0
1271.304932	184.0
1271.404297	148.0
1271.929565	160.0
1271.993408	156.0
1272.390991	120.0
1272.454834	112.0
1272.682129	120.0
1273.108154	100.0
1273.243042	196.0
1273.605347	204.0
1274.130981	128.0
1274.301514	208.0
1275.204102	160.0
1275.289307	236.0
1275.509644	100.0
1275.69458	112.0
1275.808228	108.0
1276.121094	220.0
1276.234863	120.0
1276.291748	56.0
1276.580688	224.0
1276.768188	88.0
1276.839355	124.0
1277.181519	156.0
1277.429688	140.0
1277.522217	160.0
1277.707153	156.0
1277.899292	136.0
1278.148315	168.0
1278.262207	148.0
1278.582397	124.0
1278.739014	188.0
1278.831543	124.0
1278.924072	52.0
1279.294189	64.0
1279.571899	144.0
1279.878052	164.0
1280.120117	228.0
1280.241211	36.0
1280.793579	108.0
1280.903564	160.0
1281.110229	180.0
1281.96521	148.0
1282.938477	204.0
1283.124634	308.0
1283.269653	340.0
1284.389404	120.0
1284.539185	172.0
1284.681885	168.0
1284.774658	128.0
1285.101929	200.0
1285.174194	36.0
1285.371704	312.0
1285.859253	220.0
1285.944824	180.0
1286.140015	240.0
1287.122803	156.0
1287.55127	120.0
1288.058472	124.0
1288.187012	164.0
1288.279907	140.0
1288.637085	80.0
1288.799316	156.0
1289.115845	136.0
1289.330322	52.0
1289.844971	224.0
1289.987915	140.0
1290.217896	156.0
1290.709961	168.0
1290.974609	168.0
1291.024658	180.0
1291.203491	188.0
1292.426758	116.0
1292.54834	132.0
1292.90625	252.0
1293.035034	148.0
1293.157471	148.0
1293.285522	164.0
1293.478882	180.0
1293.758057	216.0
1293.908325	144.0
1294.015747	148.0
1294.688843	256.0
1295.015625	168.0
1295.218872	240.0
1295.369385	104.0
1295.749023	160.0
1295.928101	148.0
1295.999756	156.0
1296.166016	60.0
1296.508545	264.0
1296.5802	108.0
1296.680542	128.0
1296.89563	152.0
1297.017456	160.0
1297.268433	160.0
1297.483398	180.0
1297.727173	112.0
1298.006836	84.0
1298.788574	200.0
1299.283569	160.0
1300.036987	36.0
1300.288208	152.0
1300.589722	128.0
1300.658569	176.0
1300.949707	208.0
1301.027588	132.0
1301.099365	176.0
1301.420044	120.0
1301.494263	168.0
1301.666626	176.0
1302.348877	176.0
1302.557251	48.0
1303.146362	44.0
1303.203857	100.0
1303.275635	164.0
1303.33313	136.0
1303.426514	172.0
1304.303345	172.0
1304.510986	172.0
1304.562134	212.0
1304.754028	116.0
1304.87854	140.0
1306.331299	88.0
1306.424805	148.0
1306.59021	112.0
1307.036377	140.0
1307.101074	124.0
1307.244995	84.0
1307.360229	184.0
1307.763184	208.0
1308.074341	136.0
1308.144775	216.0
1308.382324	112.0
1308.591064	160.0
1309.311157	104.0
1309.426392	144.0
1309.567017	148.0
1309.945068	188.0
1310.132324	216.0
1310.298096	164.0
1311.227661	180.0
1312.251343	128.0
1312.301758	156.0
1312.669556	60.0
1312.792114	164.0
1313.296997	148.0
1313.42688	72.0
1314.133789	56.0
1314.263672	92.0
1314.357544	184.0
1314.635986	224.0
1315.36792	224.0
1315.476196	208.0
1315.533936	196.0
1315.75061	176.0
1316.241577	160.0
1316.292114	172.0
1316.479858	176.0
1316.580933	128.0
1316.766724	132.0
1316.83374	200.0
1317.079346	156.0
1317.317749	224.0
1317.476685	140.0
1318.065063	200.0
1318.358154	264.0
1318.611084	156.0
1318.668945	120.0
1318.719604	200.0
1318.813477	224.0
1318.929199	196.0
1319.349121	220.0
1319.420776	136.0
1319.582642	196.0
1319.709961	192.0
1319.861816	248.0
1320.049805	152.0
1320.274048	228.0
1320.454834	184.0
1320.570557	184.0
1320.881592	188.0
1321.062378	128.0
1321.453125	128.0
1321.576172	164.0
1322.26355	152.0
1322.44458	196.0
1322.60376	196.0
1322.893311	32.0
1322.965698	136.0
1323.687012	212.0
1324.073608	112.0
1324.370605	188.0
1324.508179	216.0
1324.912598	184.0
1325.128296	260.0
1325.239868	152.0
1325.376709	196.0
1325.573242	124.0
1325.971802	164.0
1326.283936	160.0
1326.392212	112.0
1326.48645	124.0
1326.619141	192.0
1326.769165	180.0
1327.240479	120.0
1327.36377	112.0
1327.614502	196.0
1327.841675	212.0
1327.933594	144.0
1328.45874	160.0
1328.541504	220.0
1328.828979	76.0
1329.068481	176.0
1329.511108	136.0
1329.801392	144.0
1330.12085	184.0
1330.21521	160.0
1330.817749	160.0
1331.108154	136.0
1331.289795	204.0
1331.464111	168.0
1331.776367	152.0
1331.892578	408.0
1332.138794	152.0
1332.321167	88.0
1332.582764	128.0
1333.38208	184.0
1333.466309	180.0
1333.709229	132.0
1333.883667	184.0
1333.985474	236.0
1334.312622	176.0
1334.668823	156.0
1334.828857	116.0
1335.70166	220.0
1336.050781	300.0
1336.152588	148.0
1336.509155	116.0
1336.575684	120.0
1336.738159	152.0
1336.909424	172.0
1337.13501	152.0
1337.346069	144.0
1337.702759	168.0
1338.379883	120.0
1338.692993	76.0
1338.94458	212.0
1339.018921	176.0
1339.195557	204.0
1339.5625	168.0
1339.669067	156.0
1339.814697	140.0
1339.960449	136.0
1340.295654	148.0
1340.65271	192.0
1340.761963	140.0
1341.130249	168.0
1342.219971	212.0
1343.031372	192.0
1343.248413	40.0
1343.357788	140.0
1343.503662	204.0
1344.233398	176.0
1344.426147	124.0
1344.576416	180.0
1344.970459	228.0
1345.649414	124.0
1345.700562	180.0
1345.934204	168.0
1346.065674	40.0
1346.226318	76.0
1346.628052	164.0
1346.744873	176.0
1346.889771	124.0
1346.949341	276.0
1347.314697	164.0
1347.650757	112.0
1347.709229	108.0
1347.877319	112.0
1348.052612	136.0
1348.330322	160.0
1348.440063	240.0
1349.032104	104.0
1349.083252	148.0
1349.361084	144.0
1349.537476	156.0
1349.624268	88.0
1349.968018	180.0
1350.160522	264.0
1350.289795	156.0
1350.355591	128.0
1350.483276	152.0
1350.582397	172.0
1350.757935	64.0
1350.845703	236.0
1351.123657	188.0
1351.306641	144.0
1351.392578	124.0
1351.533447	80.0
1351.665161	108.0
1351.855469	136.0
1352.382324	64.0
1352.583496	168.0
1352.792358	48.0
1352.946045	160.0
1353.429321	156.0
1353.619629	236.0
1353.744141	156.0
1353.839355	160.0
1353.897949	112.0
1354.579346	168.0
1354.703613	120.0
1355.062622	176.0
1355.14978	188.0
1355.179321	168.0
1355.297119	136.0
1355.486816	196.0
1355.971313	252.0
1356.147217	160.0
1357.466919	152.0
1357.965576	172.0
1358.244385	172.0
1358.620117	188.0
1358.75061	160.0
1359.080688	116.0
1359.344849	160.0
1359.785278	196.0
1359.873291	100.0
1359.96875	132.0
1360.40918	200.0
1360.754272	140.0
1361.121338	152.0
1361.260864	196.0
1361.657471	64.0
1361.7677	108.0
1362.428711	192.0
1362.693237	196.0
1362.825562	200.0
1362.906372	240.0
1363.207642	124.0
1363.259033	36.0
1363.442749	104.0
1363.501587	232.0
1363.88916	148.0
1363.957275	160.0
1364.949829	124.0
1365.677979	76.0
1365.758911	164.0
1365.89856	228.0
1366.457764	168.0
1367.039062	140.0
1367.105225	128.0
1367.81189	112.0
1368.481812	176.0
1368.577515	128.0
1368.667969	216.0
1369.125366	188.0
1369.372925	52.0
1369.490723	204.0
1369.741211	152.0
1369.891235	188.0
1370.116943	120.0
1370.168457	52.0
1370.220093	56.0
1370.38208	136.0
1370.5	120.0
1370.780029	184.0
1370.852539	216.0
1370.979004	180.0
1371.568604	172.0
1371.686646	56.0
1371.900391	164.0
1372.018311	52.0
1372.104492	204.0
1372.246948	196.0
1372.409058	180.0
1372.58606	408.0
1372.652466	120.0
1373.353149	180.0
1373.655518	232.0
1373.707153	80.0
1374.303589	280.0
1374.367432	124.0
1374.422852	56.0
1374.518799	100.0
1374.629395	116.0
1374.718018	112.0
1374.991089	160.0
1375.091675	196.0
1375.404419	168.0
1375.913818	136.0
1376.231323	148.0
1376.342041	240.0
1376.393677	148.0
1376.984497	156.0
1377.102661	164.0
1377.154419	228.0
1377.353882	180.0
1377.509033	216.0
1377.627197	120.0
1377.981812	208.0
1378.851685	192.0
1378.949829	204.0
1379.134644	244.0
1379.215942	164.0
1379.289917	208.0
1379.600342	184.0
1379.777832	48.0
1379.873901	192.0
1379.933105	188.0
1380.243652	232.0
1380.29541	108.0
1380.665161	196.0
1380.716919	172.0
1380.835205	188.0
1381.717041	192.0
1381.938232	188.0
1382.10022	100.0
1382.307495	152.0
1382.38147	196.0
1382.529541	188.0
1383.025391	124.0
1383.114258	132.0
1383.217896	152.0
1383.432495	136.0
1383.750854	100.0
1383.911255	220.0
1384.80249	140.0
1385.017212	132.0
1385.120972	232.0
1385.195068	172.0
1385.454346	188.0
1385.583618	176.0
1385.669189	112.0
1385.889648	232.0
1386.032227	132.0
1386.395386	192.0
1386.443359	172.0
1386.610229	168.0
1386.810425	160.0
1387.28479	164.0
1387.573975	128.0
1388.078125	156.0
1388.140869	212.0
1388.389648	184.0
1388.523193	192.0
1388.641846	132.0
1388.738281	244.0
1388.790161	216.0
1388.894043	56.0
1389.079468	140.0
1389.420654	132.0
1389.828735	172.0
1390.140503	224.0
1390.310913	176.0
1390.749023	116.0
1391.023682	152.0
1391.424561	92.0
1391.558228	172.0
1391.647339	124.0
1391.751343	200.0
1391.988892	116.0
1392.739014	156.0
1392.798462	136.0
1393.548828	132.0
1393.623047	160.0
1393.764282	220.0
1394.254761	180.0
1395.191284	132.0
1395.273071	212.0
1395.343018	216.0
1395.502075	224.0
1395.607666	168.0
1395.786133	208.0
1396.202637	152.0
1396.418335	152.0
1396.552246	120.0
1396.876709	140.0
1397.139893	188.0
1397.241333	168.0
1397.392822	188.0
1397.950928	164.0
1398.200073	116.0
1398.613281	268.0
1398.717529	208.0
1398.784546	208.0
1398.888794	80.0
1399.119507	188.0
1399.907471	164.0
1400.094971	140.0
1400.296021	68.0
1400.897095	168.0
1401.128906	196.0
1401.234741	128.0
1401.294312	116.0
1401.517822	296.0
1401.659424	164.0
1402.136353	48.0
1402.605957	120.0
1402.672974	144.0
1402.824707	76.0
1403.528931	96.0
1403.870117	324.0
1403.992798	188.0
1404.268677	200.0
1404.320923	116.0
1404.961182	156.0
1405.275879	180.0
1405.469849	120.0
1405.744751	228.0
1405.887695	120.0
1406.089233	216.0
1406.156372	116.0
1406.738647	120.0
1407.040283	200.0
1407.283691	92.0
1407.462891	208.0
1407.64209	124.0
1407.694336	180.0
1407.754028	140.0
1407.963257	144.0
1408.022949	184.0
1408.512329	132.0
1408.635498	148.0
1408.956665	144.0
1409.225708	168.0
1409.485596	132.0
1410.735352	140.0
1410.922241	180.0
1411.161499	68.0
1411.363403	156.0
1411.5354	152.0
1411.628174	184.0
1412.126221	136.0
1412.260864	248.0
1412.627319	56.0
1413.016357	224.0
1413.345581	168.0
1413.80957	164.0
1414.348511	164.0
1414.775146	124.0
1415.06189	180.0
1415.501465	180.0
1415.628784	152.0
1416.24292	212.0
1416.460205	236.0
1417.217773	308.0
1417.501587	188.0
1417.748901	140.0
1418.138672	184.0
1418.513428	196.0
1418.618408	92.0
1418.700806	116.0
1418.848389	164.0
1419.030762	204.0
1419.278198	140.0
1419.37561	112.0
1419.758057	156.0
1420.035645	256.0
1420.973267	108.0
1421.130859	116.0
1421.438477	152.0
1421.731201	172.0
1422.06897	136.0
1422.196533	216.0
1422.436768	176.0
1422.526855	32.0
1423.089966	164.0
1423.225098	124.0
1423.916016	216.0
1424.12207	136.0
1424.554443	204.0
1424.719727	188.0
1425.230591	160.0
1425.576294	136.0
1425.658936	204.0
1425.824341	124.0
1426.320679	188.0
1426.478271	140.0
1426.606079	72.0
1426.750977	204.0
1426.981934	168.0
1427.102295	120.0
1427.739624	240.0
1428.001831	160.0
1428.335693	64.0
1428.395874	412.0
1428.546265	152.0
1428.610596	184.0
1428.779541	172.0
1428.847168	192.0
1428.942871	164.0
1429.113525	124.0
1429.171143	160.0
1429.483276	228.0
1429.750244	176.0
1429.915771	212.0
1429.968506	192.0
1430.495361	80.0
1430.78894	144.0
1431.067505	156.0
1431.136353	184.0
1431.406372	128.0
1431.459106	180.0
1431.647339	160.0
1431.737793	152.0
1431.805542	172.0
1432.167114	180.0
1432.230957	180.0
1432.811401	196.0
1433.033813	208.0
1433.380005	164.0
1433.516479	204.0
1433.80957	120.0
1433.930176	92.0
1434.080933	168.0
1434.359863	120.0
1434.503052	168.0
1434.819702	112.0
1434.955444	192.0
1435.400269	136.0
1435.64917	136.0
1435.701904	192.0
1435.860352	196.0
1435.973511	104.0
1436.079102	120.0
1436.139404	212.0
1436.343018	88.0
1436.463745	140.0
1436.66748	164.0
1436.96167	60.0
1437.44458	152.0
1437.663452	144.0
1438.176636	140.0
1438.584351	148.0
1438.667358	236.0
1438.727783	128.0
1438.96936	152.0
1439.029785	184.0
1439.256226	76.0
1439.407349	84.0
1439.467651	124.0
1439.641357	204.0
1439.875488	140.0
1439.973755	132.0
1440.207886	144.0
1440.578003	336.0
1440.751709	228.0
1441.141968	240.0
1441.350952	92.0
1441.439331	228.0
1442.028809	128.0
1442.111938	144.0
1442.1875	208.0
1442.27832	56.0
1442.36145	116.0
1442.452148	176.0
1442.626953	200.0
1442.981323	244.0
1443.140137	120.0
1443.397217	92.0
1443.896362	212.0
1443.945435	144.0
1444.170532	224.0
1444.244263	152.0
1444.735962	192.0
1444.811646	140.0
1445.083984	116.0
1445.230713	256.0
1445.628784	208.0
1445.984497	188.0
1446.03479	168.0
1446.085693	172.0
1446.362915	244.0
1446.733887	60.0
1446.855103	144.0
1446.998901	188.0
1447.210938	32.0
1447.566772	232.0
1447.839478	148.0
1447.984375	184.0
1448.113647	176.0
1448.55896	136.0
1448.619629	172.0
1448.960571	132.0
1449.149902	188.0
1449.286377	200.0
1449.346924	160.0
1449.816772	172.0
1450.044189	76.0
1450.172974	176.0
1450.453491	168.0
1450.734009	136.0
1451.158569	172.0
1451.241943	172.0
1451.484619	40.0
1451.689331	56.0
1451.985107	184.0
1452.280884	64.0
1452.356201	208.0
1452.538818	152.0
1452.627808	184.0
1453.403687	192.0
1453.509888	180.0
1453.625977	200.0
1453.881836	148.0
1454.071533	120.0
1454.175293	180.0
1454.274902	160.0
1454.35144	124.0
1454.549683	112.0
1454.618042	60.0
1454.81543	148.0
1454.929321	140.0
1455.081177	84.0
1455.149536	220.0
1455.331665	176.0
1455.43042	160.0
1455.661377	200.0
1455.810059	220.0
1455.984741	116.0
1456.372192	156.0
1456.789917	172.0
1456.949463	220.0
1457.177979	164.0
1457.291382	56.0
1457.789307	204.0
1457.884155	228.0
1458.601685	240.0
1458.653687	264.0
1458.765747	188.0
1459.127686	220.0
1459.244751	180.0
1459.411987	180.0
1459.584961	180.0
1459.693359	192.0
1459.860718	304.0
1460.081299	200.0
1460.489502	208.0
1460.621216	176.0
1460.689697	80.0
1460.743042	76.0
1460.841919	148.0
1461.214722	120.0
1461.273438	164.0
1462.541138	212.0
1462.858521	108.0
1463.216309	208.0
1464.160645	184.0
1464.221558	156.0
1464.396729	148.0
1464.766235	188.0
1464.863037	180.0
1464.94519	92.0
1465.051758	160.0
1465.227051	184.0
1465.92041	188.0
1466.194824	164.0
1466.301514	120.0
1466.575928	136.0
1466.782104	208.0
1466.865601	216.0
1466.918945	180.0
1467.025635	44.0
1467.094238	236.0
1467.70874	168.0
1467.868042	80.0
1467.940552	40.0
1468.123657	188.0
1468.294434	132.0
1468.657471	188.0
1468.726196	200.0
1468.993164	208.0
1469.306641	144.0
1469.427979	136.0
1469.649292	76.0
1469.813232	232.0
1470.122437	176.0
1470.442993	296.0
1470.588013	52.0
1470.744873	176.0
1471.168091	192.0
1471.49646	172.0
1471.565186	160.0
1471.817139	132.0
1471.924072	44.0
1472.130249	172.0
1472.2677	116.0
1472.504395	184.0
1472.611328	128.0
1472.840454	164.0
1473.10791	136.0
1473.436401	216.0
1473.726685	140.0
1473.958374	168.0
1474.047607	136.0
1474.108765	168.0
1474.269287	172.0
1474.42981	152.0
1475.01062	80.0
1475.301147	112.0
1475.446045	168.0
1475.538208	152.0
1475.645264	236.0
1475.884521	100.0
1476.341064	212.0
1476.578125	128.0
1476.700562	192.0
1476.784668	120.0
1476.979126	232.0
1477.243652	152.0
1477.358398	52.0
1477.557251	140.0
1477.649048	180.0
1477.825073	180.0
1477.893921	120.0
1478.038574	196.0
1478.215332	168.0
1478.299561	184.0
1478.65918	344.0
1478.781738	124.0
1478.881226	132.0
1478.934814	172.0
1479.049561	232.0
1479.169067	144.0
1479.631348	128.0
1479.815186	180.0
1479.903564	172.0
1480.228638	160.0
1480.435425	124.0
1480.573242	228.0
1480.71875	144.0
1480.986816	188.0
1481.255005	100.0
1481.31958	120.0
1481.466675	152.0
1482.231445	176.0
1482.328003	164.0
1482.511475	164.0
1482.639404	352.0
1482.703125	80.0
1482.963745	152.0
1483.155396	164.0
1483.392944	164.0
1483.714966	44.0
1483.837646	188.0
1483.941162	136.0
1484.108765	168.0
1484.167358	128.0
1484.826904	168.0
1484.881592	172.0
1485.003296	168.0
1485.647583	140.0
1485.969849	76.0
1486.046509	136.0
1486.200073	152.0
1486.875366	124.0
1487.017822	208.0
1487.069214	156.0
1487.120972	256.0
1487.182373	140.0
1487.243408	176.0
1487.383301	208.0
1487.512451	204.0
1487.834839	224.0
1487.89624	132.0
1488.157349	184.0
1488.280151	84.0
1488.479858	240.0
1488.54895	192.0
1488.633423	212.0
1488.812134	204.0
1488.948242	204.0
1489.250244	204.0
1489.347656	120.0
1489.931519	160.0
1490.054443	160.0
1490.292603	148.0
1490.653809	120.0
1490.753662	168.0
1490.961182	164.0
1491.376221	68.0
1491.559448	196.0
1492.046753	176.0
1492.206543	132.0
1492.421753	176.0
1492.752441	208.0
1492.821655	112.0
1493.021606	188.0
1493.154785	168.0
1493.384888	204.0
1493.867676	172.0
1494.013916	192.0
1494.714111	152.0
1494.844849	128.0
1495.052612	156.0
1495.283569	168.0
1495.526611	244.0
1496.307373	220.0
1496.438232	128.0
1496.692383	168.0
1496.988525	148.0
1497.154419	132.0
1497.216064	416.0
1497.628906	176.0
1497.747437	112.0
1497.801392	116.0
1497.870728	112.0
1498.014771	160.0
1498.180054	160.0
1498.47168	244.0
1498.679688	148.0
1498.741333	136.0
1498.94165	108.0
1499.091553	196.0
1499.405273	224.0
1499.496582	164.0
1499.727783	164.0
1499.897339	168.0
1499.972046	196.0
1500.167114	132.0
1500.244263	120.0
1500.544922	184.0
1500.715088	112.0
1500.868774	188.0
1500.961304	168.0
1501.269775	168.0
1501.41626	164.0
1501.577637	108.0
1501.825073	192.0
1501.92395	168.0
1502.087402	124.0
1502.395874	188.0
1502.666016	228.0
1502.920532	200.0
1503.113525	116.0
1503.314087	156.0
1503.378906	172.0
1503.754028	116.0
1503.889404	212.0
1504.018433	188.0
1504.124268	260.0
1504.564575	236.0
1505.39856	160.0
END IONS

BEGIN IONS
PEPMASS=338.254
CHARGE=1
MSLEVEL=2
SOURCE_INSTRUMENT=LC-ESI-qTof
FILENAME=p3-E08_GE8_01_18277.mzXML
SEQ=*..*
IONMODE=Positive
ORGANISM=GNPS-NIH-SMALLMOLECULEPHARMACOLOGICALLYACTIVE
NAME=MLS001148124-01! M+H
PI=Dorrestein
DATACOLLECTOR=VP/LMS
SMILES=CCCCCCCCN[C@H](C)[C@@H](O)c1ccc(SC(C)C)cc1
INCHI=N/A
INCHIAUX=N/A
PUBMED=N/A
SUBMITUSER=vphelan
LIBRARYQUALITY=1
SPECTRUMID=CCMSLIB00000085090
USI=mzspec:GNPS:GNPS-NIH-SMALLMOLECULEPHARMACOLOGICALLYACTIVE:accession:CCMSLIB00000085090
SCANS=2158
44.907135	128.0
44.923332	160.0
44.936352	200.0
44.939007	180.0
44.94458	180.0
44.973854	128.0
45.004562	112.0
45.032509	200.0
45.041489	148.0
45.055317	192.0
45.078033	212.0
45.091396	220.0
45.114227	152.0
45.143539	136.0
45.16732	196.0
45.197662	192.0
45.229313	112.0
45.255322	156.0
45.26532	144.0
45.276035	200.0
45.289429	168.0
45.298805	144.0
45.326942	156.0
45.358273	64.0
45.380562	108.0
45.390675	236.0
45.407104	152.0
45.435005	304.0
45.450314	120.0
45.481182	104.0
45.559071	144.0
45.573853	104.0
45.583256	220.0
45.606106	136.0
45.616787	144.0
45.662579	48.0
45.682758	180.0
45.698902	144.0
45.747604	216.0
45.772346	328.0
45.86153	196.0
45.894215	252.0
45.927933	152.0
45.938618	100.0
45.957272	188.0
45.983215	136.0
46.002155	148.0
46.029537	200.0
46.060074	144.0
46.091297	160.0
46.124264	184.0
46.168091	204.0
46.193295	348.0
46.221115	160.0
46.233845	168.0
46.25005	148.0
46.29084	332.0
46.302345	84.0
46.336552	176.0
46.353088	148.0
46.374157	312.0
46.385002	144.0
46.405338	176.0
46.44331	144.0
46.481709	120.0
46.507088	168.0
46.517948	140.0
46.562756	96.0
46.573624	60.0
46.583134	180.0
46.64262	124.0
46.675156	176.0
46.691875	100.0
46.717678	128.0
46.739494	148.0
46.757183	144.0
46.773518	192.0
46.78577	96.0
46.799961	164.0
46.820694	212.0
46.851143	180.0
46.871582	68.0
46.897476	120.0
46.907894	56.0
46.942471	204.0
46.962929	136.0
46.977936	180.0
47.013412	188.0
47.046173	152.0
47.065289	152.0
47.087139	204.0
47.125389	172.0
47.171326	232.0
47.249813	120.0
47.271637	156.0
47.368919	128.0
47.389473	60.0
47.403175	108.0
47.422878	160.0
47.471722	104.0
47.537666	116.0
47.574631	68.0
47.589405	184.0
47.60751	216.0
47.629562	152.0
47.641926	216.0
47.654293	228.0
47.665287	72.0
47.690025	48.0
47.751385	224.0
47.778038	104.0
47.796455	300.0
47.806934	216.0
47.819321	28.0
47.836674	112.0
47.857449	184.0
47.88541	168.0
47.907452	148.0
47.929497	168.0
48.002113	136.0
48.01635	200.0
48.038422	132.0
48.074295	136.0
48.090858	124.0
48.107426	184.0
48.118469	144.0
48.137802	120.0
48.164845	152.0
48.174534	108.0
48.189194	176.0
48.221664	140.0
48.232281	128.0
48.246964	40.0
48.258022	196.0
48.274616	136.0
48.285683	140.0
48.318882	184.0
48.328568	216.0
48.353477	100.0
48.370476	124.0
48.393623	92.0
48.443657	160.0
48.461494	124.0
48.503075	256.0
48.523869	172.0
48.575764	140.0
48.605709	124.0
48.645485	164.0
48.658455	212.0
48.669067	112.0
48.697227	248.0
48.70821	92.0
48.725124	100.0
48.761253	324.0
48.80888	280.0
48.829575	116.0
48.859985	148.0
48.874207	172.0
48.898952	192.0
48.913841	184.0
48.930969	148.0
48.96439	100.0
48.975533	172.0
48.997826	168.0
49.032341	156.0
49.037354	120.0
49.040188	200.0
49.087032	224.0
49.124607	192.0
49.151203	72.0
49.176327	164.0
49.205643	116.0
49.244743	172.0
49.265697	164.0
49.286839	168.0
49.315655	176.0
49.329601	132.0
49.356548	136.0
49.367737	116.0
49.384521	68.0
49.408302	112.0
49.420895	176.0
49.441887	140.0
49.468483	100.0
49.496487	48.0
49.536449	240.0
49.559307	316.0
49.591171	212.0
49.607174	104.0
49.623997	112.0
49.640827	168.0
49.65411	152.0
49.67028	168.0
49.72916	100.0
49.744656	180.0
49.76712	172.0
49.78397	276.0
49.812065	144.0
49.862648	28.0
49.909042	248.0
49.944202	192.0
49.96249	196.0
49.97234	136.0
50.013153	132.0
50.039902	140.0
50.049759	216.0
50.099056	160.0
50.153732	220.0
50.168114	144.0
50.18166	124.0
50.200542	136.0
50.250137	304.0
50.27034	304.0
50.298618	204.0
50.329731	360.0
50.351555	160.0
50.37133	192.0
50.413719	164.0
50.434921	148.0
50.481579	152.0
50.516941	176.0
50.546654	148.0
50.576374	156.0
50.599915	300.0
50.614601	72.0
50.653667	124.0
50.67551	112.0
50.692757	184.0
50.719444	92.0
50.750637	132.0
50.784672	152.0
50.803043	236.0
50.822979	116.0
50.871235	168.0
50.900288	172.0
50.920292	168.0
50.925755	92.0
50.93166	204.0
50.947926	172.0
50.959293	180.0
50.983452	248.0
51.047455	224.0
51.061089	264.0
51.070995	188.0
51.101479	140.0
51.117134	204.0
51.131546	152.0
51.1698	60.0
51.18404	184.0
51.19828	196.0
51.219646	152.0
51.279491	144.0
51.296597	268.0
51.323647	144.0
51.325928	140.0
51.331352	224.0
51.342228	112.0
51.363827	140.0
51.382168	244.0
51.400379	168.0
51.43084	116.0
51.457085	188.0
51.472687	164.0
51.536724	296.0
51.569206	144.0
51.583538	68.0
51.609146	132.0
51.639309	268.0
51.657906	152.0
51.692245	124.0
51.808224	292.0
51.828285	156.0
51.868008	212.0
51.894447	176.0
51.942661	196.0
51.983158	172.0
52.00325	216.0
52.017906	172.0
52.033398	164.0
52.056446	184.0
52.070736	260.0
52.092281	156.0
52.131077	164.0
52.146885	148.0
52.168449	140.0
52.207878	192.0
52.244995	160.0
52.273449	320.0
52.290722	136.0
52.315193	112.0
52.327248	204.0
52.33823	32.0
52.362713	132.0
52.406864	244.0
52.42178	412.0
52.436066	180.0
52.452049	140.0
52.467907	88.0
52.49963	136.0
52.52652	136.0
52.541462	156.0
52.568878	164.0
52.622288	232.0
52.639427	152.0
52.715038	192.0
52.727417	176.0
52.798592	168.0
52.813053	144.0
52.838593	220.0
52.851139	216.0
52.902405	156.0
52.927685	156.0
52.961559	128.0
52.975567	168.0
52.992573	216.0
53.008511	136.0
53.04409	164.0
53.062378	148.0
53.079544	180.0
53.098396	124.0
53.111412	144.0
53.143978	220.0
53.172394	204.0
53.185459	208.0
53.219894	200.0
53.241951	172.0
53.259514	256.0
53.281445	288.0
53.317635	128.0
53.361244	148.0
53.397598	164.0
53.423782	148.0
53.437183	76.0
53.449585	240.0
53.508198	248.0
53.518391	152.0
53.566402	116.0
53.583935	144.0
53.604729	148.0
53.626198	192.0
53.639317	44.0
53.652401	156.0
53.665558	296.0
53.677223	236.0
53.688614	188.0
53.710342	116.0
53.722313	144.0
53.760529	192.0
53.814392	152.0
53.83028	136.0
53.850182	172.0
53.862587	200.0
53.891808	144.0
53.923958	200.0
53.938576	124.0
53.966938	140.0
53.97702	352.0
53.999989	200.0
54.029247	76.0
54.042416	136.0
54.063671	152.0
54.089249	160.0
54.103363	212.0
54.136101	72.0
54.156605	184.0
54.180046	120.0
54.202023	200.0
54.260296	228.0
54.312744	216.0
54.345543	192.0
54.408325	168.0
54.477379	72.0
54.533707	116.0
54.570095	172.0
54.590328	108.0
54.617523	172.0
54.668472	140.0
54.69257	132.0
54.710003	228.0
54.739685	248.0
54.786961	84.0
54.822128	212.0
54.853424	184.0
54.925396	108.0
54.96228	132.0
54.987366	60.0
55.031654	132.0
55.041992	176.0
55.077438	140.0
55.098122	128.0
55.120285	192.0
55.157085	196.0
55.179409	112.0
55.192719	248.0
55.219337	84.0
55.238567	184.0
55.266678	88.0
55.285976	200.0
55.335144	172.0
55.351055	188.0
55.391045	64.0
55.404377	140.0
55.438457	148.0
55.453281	184.0
55.470722	148.0
55.501724	148.0
55.525417	184.0
55.571918	176.0
55.592312	248.0
55.616146	200.0
55.631958	184.0
55.659592	192.0
55.689201	128.0
55.707027	176.0
55.724857	104.0
55.740707	144.0
55.772221	156.0
55.828915	124.0
55.84428	60.0
55.885441	184.0
55.928051	192.0
55.946148	120.0
55.964058	144.0
56.041786	108.0
56.072277	244.0
56.10886	196.0
56.125801	344.0
56.149124	52.0
56.175972	176.0
56.211781	144.0
56.231842	172.0
56.250587	168.0
56.27597	124.0
56.287914	184.0
56.304344	156.0
56.351307	160.0
56.376057	100.0
56.408939	100.0
56.440338	152.0
56.455292	152.0
56.47324	108.0
56.485207	72.0
56.533085	112.0
56.555538	176.0
56.592964	148.0
56.611912	184.0
56.634899	144.0
56.65733	152.0
56.678989	268.0
56.736347	184.0
56.748798	188.0
56.766792	124.0
56.779381	184.0
56.793789	156.0
56.808899	168.0
56.847801	184.0
56.874477	176.0
56.892834	136.0
56.975437	104.0
57.003986	116.0
57.025028	200.0
57.038555	48.0
57.067581	156.0
57.110088	152.0
57.173927	128.0
57.196507	164.0
57.250618	200.0
57.26062	124.0
57.360703	68.0
57.399902	160.0
57.411968	180.0
57.431576	156.0
57.467785	144.0
57.506844	212.0
57.519863	292.0
57.532684	200.0
57.544762	104.0
57.570435	208.0
57.594398	180.0
57.641438	88.0
57.671204	184.0
57.686783	176.0
57.700386	156.0
57.715508	192.0
57.758644	184.0
57.762726	236.0
57.795677	216.0
57.823608	228.0
57.847137	96.0
57.880447	204.0
57.91074	132.0
57.927402	208.0
57.942471	196.0
57.988014	40.0
58.012268	108.0
58.025913	28.0
58.044109	128.0
58.075958	140.0
58.103745	208.0
58.116493	156.0
58.132095	144.0
58.142082	128.0
58.273476	152.0
58.288509	112.0
58.318909	132.0
58.33107	128.0
58.37212	188.0
58.382767	116.0
58.451504	196.0
58.477776	124.0
58.487751	216.0
58.513634	72.0
58.534321	188.0
58.55463	204.0
58.5606	76.0
58.592018	160.0
58.605022	180.0
58.623306	176.0
58.63855	176.0
58.660275	348.0
58.680706	208.0
58.705631	220.0
58.750111	200.0
58.756699	176.0
58.784252	124.0
58.796215	188.0
58.812435	152.0
58.832279	132.0
58.858234	120.0
58.873508	200.0
58.92239	52.0
58.961185	196.0
58.973557	124.0
58.998806	192.0
59.041622	176.0
59.070683	168.0
59.081394	40.0
59.101284	192.0
59.122135	128.0
59.136482	216.0
59.157913	220.0
59.173225	176.0
59.190353	236.0
59.209881	192.0
59.232952	224.0
59.246742	164.0
59.286579	124.0
59.300472	128.0
59.320301	116.0
59.397083	176.0
59.470634	88.0
59.496731	88.0
59.513618	120.0
59.575054	100.0
59.601013	188.0
59.607212	168.0
59.6469	152.0
59.661362	204.0
59.685642	156.0
59.76263	104.0
59.819576	144.0
59.875935	188.0
59.915062	92.0
59.943386	232.0
60.039337	184.0
60.05843	152.0
60.074451	208.0
60.127865	116.0
60.14613	188.0
60.160561	176.0
60.17572	144.0
60.307034	104.0
60.317856	136.0
60.328674	188.0
60.354961	156.0
60.370426	156.0
60.392078	276.0
60.402905	196.0
60.413734	120.0
60.435394	160.0
60.447777	156.0
60.46727	168.0
60.512787	128.0
60.525692	152.0
60.549953	116.0
60.568336	196.0
60.580025	232.0
60.604641	120.0
60.655628	96.0
60.673923	56.0
60.700615	168.0
60.72665	160.0
60.766075	164.0
60.784771	112.0
60.798019	176.0
60.815094	116.0
60.836369	68.0
60.870983	64.0
60.891174	44.0
60.903599	164.0
60.940296	216.0
60.984402	88.0
60.995281	76.0
61.018822	196.0
61.037262	184.0
61.062145	100.0
61.08392	128.0
61.11348	404.0
61.138092	152.0
61.167629	212.0
61.208477	152.0
61.228271	168.0
61.239857	180.0
61.264507	92.0
61.281647	132.0
61.292553	160.0
61.317856	220.0
61.331516	220.0
61.350224	120.0
61.361137	92.0
61.376812	148.0
61.39172	196.0
61.411041	196.0
61.422783	144.0
61.429676	76.0
61.433548	140.0
61.446468	124.0
61.450775	68.0
61.472115	164.0
61.490616	224.0
61.527069	136.0
61.54031	168.0
61.570316	172.0
61.59367	148.0
61.618668	196.0
61.631168	64.0
61.667114	172.0
61.679619	180.0
61.695789	128.0
61.708569	168.0
61.72707	228.0
61.804737	156.0
61.825081	180.0
61.845062	188.0
61.87204	168.0
61.904922	116.0
61.922153	248.0
61.933117	160.0
61.967583	56.0
62.00676	204.0
62.022434	156.0
62.052574	124.0
62.095791	148.0
62.173008	136.0
62.218529	128.0
62.240631	160.0
62.26878	160.0
62.282669	152.0
62.32848	140.0
62.341053	124.0
62.361485	140.0
62.383492	164.0
62.416424	148.0
62.421318	140.0
62.440098	184.0
62.463696	140.0
62.495159	212.0
62.50526	200.0
62.52034	172.0
62.539227	172.0
62.56218	124.0
62.610825	152.0
62.628025	160.0
62.640007	172.0
62.662922	88.0
62.679394	108.0
62.729462	136.0
62.774902	232.0
62.821301	128.0
62.849697	136.0
62.860744	116.0
62.884418	216.0
62.897045	88.0
62.972839	300.0
62.991795	52.0
63.021713	184.0
63.026413	180.0
63.075058	116.0
63.099262	180.0
63.124561	188.0
63.14196	196.0
63.197449	104.0
63.216316	412.0
63.233727	108.0
63.247974	168.0
63.265339	132.0
63.295471	164.0
63.307243	204.0
63.327145	140.0
63.503082	216.0
63.525078	148.0
63.558613	136.0
63.576752	204.0
63.592709	192.0
63.607811	140.0
63.630039	52.0
63.657291	220.0
63.680721	188.0
63.686768	172.0
63.731945	380.0
63.756344	164.0
63.774605	216.0
63.81897	172.0
63.861233	324.0
63.919331	148.0
63.932064	148.0
63.964336	116.0
63.983002	160.0
63.998924	108.0
64.018036	184.0
64.032364	160.0
64.043518	60.0
64.097687	192.0
64.12159	260.0
64.170303	172.0
64.188545	88.0
64.202606	200.0
64.233208	120.0
64.245972	168.0
64.268311	180.0
64.284798	168.0
64.309799	156.0
64.320976	124.0
64.332153	140.0
64.344597	176.0
64.362366	108.0
64.39283	260.0
64.442352	140.0
64.462929	196.0
64.530266	168.0
64.571838	60.0
64.594238	160.0
64.613434	104.0
64.629433	188.0
64.643837	104.0
64.664642	172.0
64.682251	228.0
64.696655	144.0
64.709465	92.0
64.74305	144.0
64.759109	160.0
64.791405	152.0
64.816788	112.0
64.840218	232.0
64.931831	320.0
64.963341	148.0
65.031693	120.0
65.045898	184.0
65.083069	156.0
65.139107	184.0
65.189087	112.0
65.216408	164.0
65.240524	184.0
65.275902	164.0
65.297241	176.0
65.351501	100.0
65.420708	160.0
65.449692	284.0
65.478676	180.0
65.493179	124.0
65.517342	104.0
65.535408	340.0
65.576912	124.0
65.623718	92.0
65.646599	208.0
65.684204	128.0
65.704361	156.0
65.723724	216.0
65.749542	92.0
65.788284	140.0
65.833496	124.0
65.854492	164.0
65.88839	172.0
65.904572	236.0
65.920113	136.0
65.952293	340.0
66.004791	104.0
66.040375	68.0
66.075966	124.0
66.091774	176.0
66.126251	216.0
66.158508	180.0
66.187523	200.0
66.20546	152.0
66.218987	172.0
66.238739	132.0
66.268639	128.0
66.285881	100.0
66.307831	152.0
66.344818	52.0
66.359406	176.0
66.383659	176.0
66.398331	64.0
66.417	160.0
66.437256	172.0
66.457115	168.0
66.472954	76.0
66.489182	152.0
66.502167	120.0
66.513535	96.0
66.577377	212.0
66.5896	104.0
66.605965	200.0
66.620865	128.0
66.671722	204.0
66.69384	200.0
66.745865	104.0
66.764565	160.0
66.801041	156.0
66.812912	144.0
66.828827	204.0
66.867393	212.0
66.889038	176.0
66.902977	164.0
66.926491	212.0
66.960686	176.0
66.986748	156.0
66.998154	48.0
67.022728	144.0
67.04052	184.0
67.058449	192.0
67.093239	152.0
67.128555	176.0
67.148125	140.0
67.170959	120.0
67.19278	160.0
67.205223	180.0
67.234596	128.0
67.248604	144.0
67.263466	140.0
67.275406	160.0
67.287529	112.0
67.298264	196.0
67.312958	100.0
67.329292	92.0
67.370125	212.0
67.386467	184.0
67.407707	296.0
67.435493	248.0
67.464966	248.0
67.487801	104.0
67.514999	184.0
67.530014	148.0
67.576134	224.0
67.589905	192.0
67.616135	180.0
67.67028	192.0
67.698906	148.0
67.710365	168.0
67.733299	120.0
67.758446	148.0
67.780815	128.0
67.79641	168.0
67.83326	284.0
67.871643	168.0
67.889008	152.0
67.913612	112.0
67.934387	144.0
67.96611	152.0
67.994011	28.0
68.015709	180.0
68.0448	140.0
68.077736	140.0
68.089233	132.0
68.104919	152.0
68.127014	136.0
68.153305	160.0
68.168732	196.0
68.214119	164.0
68.23819	180.0
68.252853	64.0
68.25946	152.0
68.28437	188.0
68.298882	132.0
68.34153	68.0
68.34668	120.0
68.352798	176.0
68.36615	212.0
68.379105	132.0
68.395065	80.0
68.414757	204.0
68.437874	144.0
68.479042	180.0
68.495514	148.0
68.520226	164.0
68.546593	220.0
68.638405	184.0
68.661995	120.0
68.675186	156.0
68.714783	120.0
68.754387	192.0
68.784096	124.0
68.814499	212.0
68.820702	184.0
68.833298	304.0
68.863358	116.0
68.901352	144.0
68.920563	224.0
68.945122	188.0
69.024849	224.0
69.089828	148.0
69.141121	140.0
69.15271	52.0
69.224297	216.0
69.240501	156.0
69.25563	164.0
69.291817	144.0
69.36142	220.0
69.391258	168.0
69.43438	168.0
69.463051	84.0
69.497551	152.0
69.533928	184.0
69.555504	136.0
69.650047	188.0
69.699997	208.0
69.729248	160.0
69.771469	136.0
69.831146	184.0
69.847733	308.0
69.867935	96.0
69.901726	168.0
69.918564	188.0
69.947815	136.0
69.978188	296.0
70.000908	144.0
70.033264	164.0
70.061058	144.0
70.076622	212.0
70.1465	180.0
70.184036	172.0
70.207748	48.0
70.226089	80.0
70.251114	100.0
70.281143	80.0
70.344566	164.0
70.371284	172.0
70.411362	140.0
70.456947	164.0
70.495232	220.0
70.526649	104.0
70.565308	196.0
70.605232	200.0
70.628647	104.0
70.657089	156.0
70.693901	140.0
70.70562	152.0
70.738602	204.0
70.76004	248.0
70.784302	108.0
70.82209	180.0
70.885231	176.0
70.920013	136.0
70.941307	204.0
70.982002	168.0
71.029007	76.0
71.089935	76.0
71.102242	68.0
71.124657	108.0
71.163742	412.0
71.179283	140.0
71.197563	184.0
71.218689	56.0
71.239723	276.0
71.290764	196.0
71.330299	176.0
71.346405	116.0
71.368263	132.0
71.384186	72.0
71.430489	148.0
71.480347	152.0
71.504951	80.0
71.538193	164.0
71.558395	84.0
71.578606	208.0
71.598808	172.0
71.62532	184.0
71.762276	216.0
71.780869	152.0
71.801056	156.0
71.821571	148.0
71.89254	160.0
71.916542	176.0
71.934471	60.0
71.97995	192.0
72.012039	148.0
72.023857	124.0
72.036575	152.0
72.052582	160.0
72.107178	208.0
72.120178	96.0
72.150604	136.0
72.245537	304.0
72.272385	160.0
72.297768	220.0
72.324852	132.0
72.357018	136.0
72.404427	180.0
72.417976	140.0
72.433228	216.0
72.458633	144.0
72.473885	148.0
72.516251	184.0
72.528122	144.0
72.577286	216.0
72.603981	200.0
72.638908	204.0
72.663788	144.0
72.68718	148.0
72.702934	280.0
72.730995	212.0
72.755913	188.0
72.784485	188.0
72.810143	188.0
72.828934	200.0
72.855484	396.0
72.870934	116.0
72.884529	156.0
72.928711	104.0
72.945709	220.0
72.958115	148.0
73.005646	176.0
73.016624	148.0
73.044342	112.0
73.098648	148.0
73.143044	136.0
73.178795	176.0
73.195473	156.0
73.258842	120.0
73.303146	128.0
73.371323	152.0
73.392235	188.0
73.412758	160.0
73.451477	128.0
73.511192	116.0
73.565811	228.0
73.577766	148.0
73.596542	164.0
73.622162	164.0
73.644363	144.0
73.670731	228.0
73.70929	192.0
73.743469	140.0
73.784492	212.0
73.796318	184.0
73.81356	196.0
73.841225	184.0
73.873428	140.0
73.895668	196.0
73.940094	176.0
73.964127	160.0
73.988091	136.0
74.006126	212.0
74.030006	136.0
74.049736	100.0
74.076019	188.0
74.1474	108.0
74.16111	204.0
74.184105	164.0
74.209114	244.0
74.250267	136.0
74.284576	336.0
74.341408	200.0
74.37381	108.0
74.408737	104.0
74.450363	116.0
74.474464	168.0
74.504326	136.0
74.526657	128.0
74.554153	156.0
74.566658	148.0
74.586807	140.0
74.635048	136.0
74.664238	124.0
74.714073	84.0
74.726112	108.0
74.75631	124.0
74.800117	152.0
74.848328	152.0
74.879135	148.0
74.896164	160.0
74.943062	184.0
74.997238	148.0
75.010719	284.0
75.059883	156.0
75.079254	168.0
75.118919	296.0
75.132271	168.0
75.13681	76.0
75.144516	168.0
75.187943	216.0
75.219009	164.0
75.246635	204.0
75.318504	184.0
75.325737	164.0
75.331894	152.0
75.336975	220.0
75.35199	156.0
75.380295	164.0
75.405563	176.0
75.540436	100.0
75.58152	376.0
75.647179	264.0
75.673294	136.0
75.679276	184.0
75.70475	176.0
75.733765	152.0
75.775604	144.0
75.780228	120.0
75.80323	220.0
75.819801	248.0
75.824989	180.0
75.846397	188.0
75.878151	152.0
75.913567	192.0
75.959663	76.0
75.990891	148.0
76.016922	80.0
76.037743	136.0
76.055099	204.0
76.081146	164.0
76.094017	268.0
76.133232	116.0
76.166237	148.0
76.18708	120.0
76.21183	168.0
76.232262	156.0
76.246162	72.0
76.295204	224.0
76.316391	140.0
76.336563	96.0
76.395935	208.0
76.41832	156.0
76.451385	80.0
76.520668	160.0
76.543648	180.0
76.559326	152.0
76.592415	164.0
76.608093	96.0
76.641197	136.0
76.662109	160.0
76.699234	200.0
76.717888	208.0
76.757118	264.0
76.789383	40.0
76.81665	184.0
76.848694	120.0
76.878365	236.0
76.918472	188.0
76.945953	188.0
76.965645	164.0
77.002319	136.0
77.028519	324.0
77.04599	168.0
77.115891	160.0
77.157845	120.0
77.170082	224.0
77.184074	136.0
77.224297	232.0
77.259285	104.0
77.27153	72.0
77.290779	200.0
77.308281	56.0
77.349846	160.0
77.401062	208.0
77.416237	132.0
77.432579	124.0
77.467613	64.0
77.513168	60.0
77.551727	184.0
77.578026	76.0
77.600815	192.0
77.62542	132.0
77.63665	120.0
77.653648	220.0
77.667458	36.0
77.718338	144.0
77.767883	224.0
77.821899	60.0
77.835945	200.0
77.862289	156.0
77.903091	140.0
77.953644	44.0
78.023369	140.0
78.045052	88.0
78.076706	144.0
78.106567	192.0
78.134964	100.0
78.160919	152.0
78.180504	124.0
78.22979	212.0
78.243874	188.0
78.294373	260.0
78.360123	96.0
78.390076	180.0
78.434135	124.0
78.448242	360.0
78.460579	140.0
78.497612	148.0
78.546997	148.0
78.575218	96.0
78.58757	204.0
78.599922	104.0
78.612274	200.0
78.630516	168.0
78.65477	208.0
78.689949	48.0
78.750145	184.0
78.836563	116.0
78.859489	172.0
78.935562	128.0
78.96209	88.0
78.981544	152.0
79.01162	140.0
79.067085	140.0
79.12236	112.0
79.158691	136.0
79.197868	192.0
79.2127	96.0
79.238243	144.0
79.266594	160.0
79.311684	96.0
79.354042	204.0
79.381821	204.0
79.397781	164.0
79.436569	148.0
79.481575	156.0
79.513107	160.0
79.532143	160.0
79.587669	152.0
79.605423	168.0
79.658173	276.0
79.707657	160.0
79.726227	160.0
79.740448	104.0
79.778282	212.0
79.829338	160.0
79.88092	176.0
79.894279	128.0
79.941422	136.0
79.963783	184.0
79.991531	196.0
80.041107	36.0
80.053574	184.0
80.069603	188.0
80.140862	104.0
80.159904	168.0
80.183632	240.0
80.201454	108.0
80.250717	152.0
80.299522	92.0
80.356674	168.0
80.415771	200.0
80.438599	204.0
80.472626	192.0
80.490479	136.0
80.540489	52.0
80.569771	180.0
80.5923	132.0
80.604805	112.0
80.701332	132.0
80.724922	148.0
80.757072	284.0
80.838097	176.0
80.858757	36.0
80.876656	216.0
80.891884	140.0
80.908081	204.0
80.920219	144.0
80.927299	152.0
80.953644	220.0
81.04142	96.0
81.061127	112.0
81.161865	164.0
81.192001	108.0
81.21711	128.0
81.240433	168.0
81.270935	140.0
81.283493	160.0
81.311684	136.0
81.346085	156.0
81.382225	84.0
81.436096	148.0
81.491791	136.0
81.538513	128.0
81.561882	152.0
81.667969	144.0
81.712944	272.0
81.752937	124.0
81.77137	136.0
81.807129	216.0
81.821854	172.0
81.85334	168.0
81.909561	168.0
81.927193	304.0
81.943405	152.0
81.968636	184.0
82.067772	76.0
82.12188	100.0
82.138115	180.0
82.22435	156.0
82.296928	76.0
82.325829	136.0
82.380013	188.0
82.414337	200.0
82.433388	156.0
82.439552	84.0
82.444588	152.0
82.458824	156.0
82.479637	152.0
82.553535	164.0
82.587898	172.0
82.608246	176.0
82.659561	176.0
82.694656	112.0
82.720795	200.0
82.725647	228.0
82.770691	84.0
82.787674	204.0
82.814545	204.0
82.863068	160.0
82.881187	156.0
82.924683	196.0
82.94825	148.0
82.988136	168.0
83.017143	176.0
83.05735	144.0
83.091515	112.0
83.14016	228.0
83.178627	224.0
83.203224	168.0
83.234909	76.0
83.251259	180.0
83.303932	48.0
83.318466	104.0
83.356049	140.0
83.373558	172.0
83.407509	84.0
83.423874	168.0
83.443871	164.0
83.476601	216.0
83.522072	156.0
83.5439	188.0
83.561302	144.0
83.576653	232.0
83.594742	348.0
83.630318	148.0
83.640961	108.0
83.662193	160.0
83.709579	176.0
83.731392	216.0
83.797462	208.0
83.858932	172.0
83.905655	152.0
83.971977	68.0
83.995689	56.0
84.008461	116.0
84.080658	136.0
84.103348	216.0
84.185509	136.0
84.209251	96.0
84.22654	224.0
84.252472	140.0
84.346298	168.0
84.370064	164.0
84.4048	112.0
84.440132	164.0
84.465157	204.0
84.485283	100.0
84.507423	160.0
84.531181	192.0
84.58593	212.0
84.611565	144.0
84.628929	184.0
84.651848	212.0
84.674873	216.0
84.783752	192.0
84.80912	208.0
84.840576	140.0
84.908226	148.0
84.959396	172.0
84.978134	152.0
85.001984	172.0
85.037476	156.0
85.057045	204.0
85.082748	148.0
85.101105	152.0
85.128654	80.0
85.154121	300.0
85.16906	152.0
85.181915	120.0
85.216827	128.0
85.266441	144.0
85.282982	228.0
85.305046	188.0
85.338814	108.0
85.380295	216.0
85.406181	52.0
85.48719	144.0
85.509224	148.0
85.52433	212.0
85.562607	180.0
85.575493	152.0
85.597588	156.0
85.616005	180.0
85.628899	152.0
85.656525	156.0
85.684395	160.0
85.721016	128.0
85.738617	116.0
85.754189	184.0
85.776306	148.0
85.796585	172.0
85.846283	260.0
85.8685	128.0
85.92569	32.0
85.962456	212.0
85.986588	136.0
86.027199	148.0
86.043808	140.0
86.073357	152.0
86.102905	208.0
86.117676	140.0
86.1343	148.0
86.163002	172.0
86.202667	176.0
86.219299	52.0
86.304337	200.0
86.324593	180.0
86.346954	176.0
86.363869	188.0
86.383865	120.0
86.419014	268.0
86.434837	192.0
86.465279	132.0
86.502724	264.0
86.517113	376.0
86.56337	220.0
86.577599	144.0
86.656013	172.0
86.736519	200.0
86.806259	156.0
86.841766	184.0
86.869225	124.0
86.88868	152.0
86.910042	232.0
86.962006	180.0
87.058548	148.0
87.142761	96.0
87.154869	212.0
87.203468	44.0
87.218208	112.0
87.220985	104.0
87.245781	84.0
87.286728	168.0
87.316887	144.0
87.335487	184.0
87.396881	60.0
87.434517	188.0
87.451553	136.0
87.475975	120.0
87.529037	180.0
87.542076	80.0
87.558838	212.0
87.5756	184.0
87.613556	320.0
87.654274	176.0
87.718132	196.0
87.747047	224.0
87.763832	136.0
87.816833	152.0
87.861122	124.0
87.883209	128.0
87.898132	192.0
87.927994	140.0
87.969063	96.0
88.00267	172.0
88.031395	148.0
88.104225	64.0
88.118469	200.0
88.137154	164.0
88.15712	156.0
88.179092	136.0
88.195	164.0
88.22126	132.0
88.241058	136.0
88.331596	236.0
88.348434	144.0
88.363403	164.0
88.385857	192.0
88.440132	168.0
88.473824	212.0
88.520638	140.0
88.546654	184.0
88.576828	168.0
88.589935	104.0
88.664894	156.0
88.713623	192.0
88.730499	144.0
88.756653	248.0
88.770905	124.0
88.790504	160.0
88.807388	204.0
88.876801	120.0
88.915939	140.0
88.937454	128.0
88.957001	148.0
88.984131	176.0
89.032616	180.0
89.064545	180.0
89.079575	156.0
89.113388	208.0
89.14109	108.0
89.156609	172.0
89.182922	240.0
89.231804	172.0
89.282463	128.0
89.331085	192.0
89.3489	244.0
89.384163	80.0
89.418037	108.0
89.43309	104.0
89.473328	140.0
89.488319	288.0
89.547951	136.0
89.574318	260.0
89.598816	192.0
89.616692	200.0
89.654892	100.0
89.68927	136.0
89.704346	184.0
89.740173	152.0
89.786476	288.0
89.80806	184.0
89.835548	336.0
89.866547	196.0
89.879753	136.0
89.919388	160.0
89.947701	140.0
89.994896	184.0
90.009209	208.0
90.056137	128.0
90.121452	160.0
90.210281	56.0
90.267334	184.0
90.282135	120.0
90.297264	108.0
90.311363	184.0
90.351768	192.0
90.442474	156.0
90.472137	232.0
90.51812	308.0
90.563423	176.0
90.628555	104.0
90.645607	144.0
90.683662	100.0
90.721428	48.0
90.747971	188.0
90.761246	196.0
90.82193	100.0
90.850288	160.0
90.889404	168.0
90.939255	188.0
90.988251	56.0
91.01931	64.0
91.053391	1232.0
91.109505	148.0
91.125679	48.0
91.186493	132.0
91.215004	220.0
91.230217	168.0
91.250648	112.0
91.283455	184.0
91.304375	148.0
91.332901	132.0
91.404915	132.0
91.424232	176.0
91.450874	116.0
91.511795	224.0
91.548347	164.0
91.602272	152.0
91.616104	156.0
91.641319	300.0
91.68055	224.0
91.720688	156.0
91.744232	124.0
91.796036	144.0
91.818138	196.0
91.87249	144.0
91.908264	128.0
91.921623	372.0
91.971245	56.0
92.013245	92.0
92.039978	172.0
92.056923	348.0
92.099808	208.0
92.14312	80.0
92.155983	152.0
92.211914	148.0
92.225296	188.0
92.265434	160.0
92.301765	184.0
92.315155	124.0
92.389542	180.0
92.417076	200.0
92.465576	224.0
92.468971	140.0
92.500488	148.0
92.533234	120.0
92.600319	140.0
92.622726	176.0
92.675034	144.0
92.70163	140.0
92.726776	152.0
92.762184	192.0
92.799622	176.0
92.818794	224.0
92.857559	132.0
92.885925	152.0
92.903679	140.0
92.945396	196.0
92.962044	208.0
92.985703	240.0
93.0355	136.0
93.074699	168.0
93.148911	120.0
93.175812	48.0
93.195023	76.0
93.224251	192.0
93.256523	116.0
93.287277	188.0
93.306503	156.0
93.399818	172.0
93.423012	152.0
93.460838	184.0
93.514259	92.0
93.543663	160.0
93.570091	156.0
93.601036	192.0
93.619423	168.0
93.655518	188.0
93.670235	152.0
93.683716	212.0
93.723351	132.0
93.75116	136.0
93.800606	196.0
93.832115	332.0
93.895752	156.0
93.935616	228.0
93.941689	152.0
93.948296	200.0
93.974846	200.0
93.999329	344.0
94.019226	52.0
94.053307	128.0
94.098694	120.0
94.191071	200.0
94.216187	112.0
94.250969	148.0
94.274155	212.0
94.314743	192.0
94.346863	124.0
94.35025	76.0
94.358238	152.0
94.428825	336.0
94.472275	204.0
94.501678	164.0
94.583618	508.0
94.618332	152.0
94.655258	160.0
94.712364	140.0
94.782387	172.0
94.81411	48.0
94.841248	172.0
94.873642	180.0
94.893593	136.0
94.916862	184.0
94.982803	108.0
95.019661	208.0
95.048767	136.0
95.08564	248.0
95.121567	112.0
95.180763	192.0
95.202484	176.0
95.268478	296.0
95.288292	380.0
95.346428	204.0
95.399147	192.0
95.496483	132.0
95.512932	132.0
95.593933	168.0
95.649704	352.0
95.680801	168.0
95.709679	140.0
95.781738	224.0
95.810188	172.0
95.828499	88.0
95.881111	188.0
95.896255	144.0
95.917419	156.0
95.932877	180.0
95.959389	208.0
95.993744	124.0
96.024414	144.0
96.037094	232.0
96.078644	348.0
96.113976	128.0
96.134644	144.0
96.158066	124.0
96.175629	252.0
96.194725	184.0
96.249123	256.0
96.280327	212.0
96.294373	316.0
96.322197	136.0
96.383347	292.0
96.447014	116.0
96.497742	132.0
96.513618	64.0
96.529259	124.0
96.558121	280.0
96.584023	164.0
96.687607	136.0
96.713173	128.0
96.733864	196.0
96.80323	124.0
96.909386	168.0
96.930565	176.0
96.958725	148.0
96.979561	52.0
97.011505	108.0
97.017914	156.0
97.083885	172.0
97.10701	228.0
97.141312	148.0
97.169785	184.0
97.203384	96.0
97.230614	244.0
97.253082	152.0
97.282425	244.0
97.338593	164.0
97.352333	112.0
97.387383	180.0
97.420456	176.0
97.436066	204.0
97.453667	176.0
97.468956	208.0
97.52523	168.0
97.553391	148.0
97.5616	48.0
97.565964	172.0
97.607803	156.0
97.63665	108.0
97.676643	128.0
97.698746	152.0
97.730644	196.0
97.757057	152.0
97.773056	132.0
97.796677	180.0
97.835655	160.0
97.857704	92.0
97.916779	140.0
97.96312	160.0
98.021919	76.0
98.046814	152.0
98.095642	2112.0
98.116615	136.0
98.17955	172.0
98.226242	116.0
98.251892	168.0
98.280266	136.0
98.320953	144.0
98.342667	168.0
98.394295	188.0
98.411758	172.0
98.451256	156.0
98.495644	156.0
98.510071	72.0
98.530266	164.0
98.546074	100.0
98.569786	172.0
98.591309	184.0
98.599335	164.0
98.613159	148.0
98.674767	180.0
98.717194	120.0
98.735382	168.0
98.769478	216.0
98.813049	156.0
98.866425	36.0
98.902054	208.0
98.931747	172.0
98.953758	136.0
98.996353	176.0
99.018707	144.0
99.066414	152.0
99.096687	344.0
99.132896	144.0
99.18531	196.0
99.203156	124.0
99.266273	164.0
99.33036	216.0
99.382317	216.0
99.418877	180.0
99.468979	128.0
99.504715	112.0
99.5345	140.0
99.550774	324.0
99.574219	188.0
99.647301	208.0
99.671562	100.0
99.73317	148.0
99.764977	72.0
99.806732	148.0
99.82505	164.0
99.838547	124.0
99.866096	160.0
99.894089	160.0
99.910835	188.0
99.943985	152.0
99.96769	140.0
99.980568	184.0
100.000633	204.0
100.019608	156.0
100.075356	136.0
100.093483	152.0
100.145981	164.0
100.190346	136.0
100.244675	148.0
100.266594	44.0
100.296516	192.0
100.328392	76.0
100.354309	124.0
100.378235	196.0
100.402893	428.0
100.432503	172.0
100.495224	136.0
100.525856	112.0
100.545815	56.0
100.619675	104.0
100.668358	200.0
100.693558	160.0
100.758682	192.0
100.780197	208.0
100.809433	92.0
100.823425	168.0
100.874702	184.0
100.911385	176.0
100.933372	176.0
100.95137	312.0
101.023216	196.0
101.056595	280.0
101.104645	124.0
101.131439	208.0
101.147453	144.0
101.169212	124.0
101.187027	156.0
101.234802	128.0
101.28672	124.0
101.329697	204.0
101.34761	132.0
101.391815	96.0
101.410126	240.0
101.427895	208.0
101.449516	276.0
101.463982	108.0
101.506088	136.0
101.530151	172.0
101.544189	384.0
101.574417	172.0
101.602364	164.0
101.616409	352.0
101.696686	112.0
101.712738	248.0
101.744858	160.0
101.785019	112.0
101.803093	120.0
101.822922	160.0
101.847191	172.0
101.856056	76.0
101.876778	236.0
101.957787	188.0
101.977539	116.0
101.996635	196.0
102.011192	232.0
102.054764	200.0
102.080421	152.0
102.096504	168.0
102.247902	160.0
102.304619	244.0
102.390343	148.0
102.428619	184.0
102.444733	380.0
102.481377	172.0
102.551529	252.0
102.576836	104.0
102.613869	256.0
102.630463	184.0
102.6922	120.0
102.724945	196.0
102.739067	184.0
102.791534	164.0
102.856598	200.0
102.882362	320.0
102.896492	188.0
102.916687	156.0
103.027313	160.0
103.034943	124.0
103.053856	1052.0
103.086365	148.0
103.111732	216.0
103.166191	148.0
103.181366	156.0
103.19957	200.0
103.270439	204.0
103.326988	64.0
103.36068	192.0
103.420242	196.0
103.458542	172.0
103.507133	132.0
103.534904	224.0
103.569923	136.0
103.596252	160.0
103.613342	140.0
103.630699	160.0
103.655014	172.0
103.705681	160.0
103.758385	48.0
103.780693	92.0
103.815163	152.0
103.845589	140.0
103.916992	160.0
103.954933	236.0
103.972923	184.0
103.997765	156.0
104.050385	184.0
104.089127	120.0
104.118385	216.0
104.156143	48.0
104.188652	100.0
104.237419	212.0
104.275642	124.0
104.30735	140.0
104.337013	148.0
104.358147	132.0
104.384132	208.0
104.410217	204.0
104.440933	160.0
104.522659	132.0
104.595444	120.0
104.629982	100.0
104.643456	148.0
104.660522	164.0
104.686874	156.0
104.72625	192.0
104.796661	336.0
104.821693	132.0
104.861687	164.0
104.884674	364.0
104.912216	168.0
104.929482	40.0
104.960068	192.0
104.980461	140.0
104.994736	128.0
105.022781	64.0
105.041649	88.0
105.068764	7764.0
105.100815	112.0
105.129669	276.0
105.214035	340.0
105.245743	212.0
105.284538	136.0
105.321304	308.0
105.353821	196.0
105.358704	208.0
105.381264	120.0
105.454521	184.0
105.482735	184.0
105.509315	124.0
105.558388	132.0
105.573288	200.0
105.597244	120.0
105.63166	160.0
105.648827	168.0
105.686806	144.0
105.736374	112.0
105.761353	176.0
105.786026	188.0
105.812111	136.0
105.828491	76.0
105.851021	148.0
105.865356	200.0
105.882729	224.0
105.940689	236.0
105.959579	148.0
105.982117	200.0
106.023575	260.0
106.0718	1372.0
106.139954	100.0
106.175034	152.0
106.19738	264.0
106.228149	164.0
106.250488	180.0
106.290672	120.0
106.330742	172.0
106.389061	168.0
106.417213	164.0
106.436249	112.0
106.455063	144.0
106.478203	224.0
106.502167	180.0
106.52787	92.0
106.542252	180.0
106.567177	184.0
106.59864	140.0
106.614937	192.0
106.638832	56.0
106.66761	120.0
106.686111	172.0
106.743683	180.0
106.758072	160.0
106.774529	144.0
106.80912	132.0
106.892975	132.0
106.963745	164.0
107.015297	76.0
107.033829	108.0
107.075287	336.0
107.158333	144.0
107.175964	240.0
107.200691	148.0
107.219238	112.0
107.233665	228.0
107.25428	184.0
107.289322	136.0
107.312004	156.0
107.347054	88.0
107.370926	216.0
107.408936	136.0
107.444519	128.0
107.482315	200.0
107.543053	140.0
107.578148	156.0
107.619957	144.0
107.652481	184.0
107.667999	132.0
107.691719	100.0
107.714447	100.0
107.730972	164.0
107.757828	168.0
107.78231	160.0
107.831238	168.0
107.857025	204.0
107.879768	316.0
107.914726	176.0
107.933525	148.0
107.960403	188.0
108.007416	148.0
108.073746	176.0
108.099945	248.0
108.159035	196.0
108.177666	112.0
108.198364	188.0
108.285339	140.0
108.299843	144.0
108.316414	68.0
108.355774	120.0
108.429291	176.0
108.446953	160.0
108.496506	84.0
108.523659	192.0
108.548546	140.0
108.573425	156.0
108.727821	180.0
108.768471	112.0
108.787247	256.0
108.811401	88.0
108.839058	152.0
108.897209	84.0
108.916466	528.0
108.949692	196.0
109.009941	140.0
109.05648	128.0
109.148674	192.0
109.179871	144.0
109.196503	176.0
109.274811	56.0
109.312675	420.0
109.348389	104.0
109.39888	156.0
109.438934	152.0
109.459015	280.0
109.475388	112.0
109.502464	120.0
109.537086	180.0
109.566872	148.0
109.58931	164.0
109.61705	140.0
109.639969	132.0
109.65873	92.0
109.706673	164.0
109.756714	212.0
109.813019	152.0
109.848938	232.0
109.87027	208.0
109.931946	292.0
109.946785	176.0
109.985069	176.0
110.017471	840.0
110.054375	172.0
110.096214	248.0
110.142822	188.0
110.181137	152.0
110.205498	112.0
110.221367	188.0
110.261917	112.0
110.313255	152.0
110.352905	164.0
110.393845	156.0
110.461372	124.0
110.508209	252.0
110.530457	244.0
110.546341	40.0
110.565926	212.0
110.598465	204.0
110.621429	220.0
110.652206	160.0
110.718681	188.0
110.747147	180.0
110.76619	136.0
110.780853	156.0
110.826035	240.0
110.878311	80.0
110.921127	200.0
110.980774	220.0
110.996735	212.0
111.024551	1488.0
111.059067	124.0
111.109634	116.0
111.123863	348.0
111.149864	116.0
111.168755	60.0
111.188492	152.0
111.202332	192.0
111.220993	144.0
111.24527	196.0
111.26416	132.0
111.284203	172.0
111.321999	252.0
111.345802	180.0
111.404968	96.0
111.44384	196.0
111.504646	176.0
111.52002	160.0
111.618301	176.0
111.656158	136.0
111.686333	208.0
111.727676	176.0
111.744507	136.0
111.781265	64.0
111.80764	168.0
111.862366	252.0
111.887627	188.0
111.91777	140.0
111.931564	180.0
111.957695	176.0
112.024521	144.0
112.060333	48.0
112.110718	2144.0
112.146736	132.0
112.178833	160.0
112.209984	116.0
112.254265	204.0
112.279022	216.0
112.301559	132.0
112.328087	40.0
112.391556	240.0
112.416702	180.0
112.445473	164.0
112.467354	96.0
112.485275	184.0
112.504234	144.0
112.556023	116.0
112.59404	208.0
112.623199	228.0
112.644539	132.0
112.666359	136.0
112.689102	148.0
112.719154	216.0
112.779968	148.0
112.811684	140.0
112.881454	104.0
112.904716	120.0
112.930099	112.0
112.959709	156.0
112.976639	88.0
112.995644	148.0
113.024536	220.0
113.060318	248.0
113.064804	120.0
113.133591	148.0
113.231346	212.0
113.27301	140.0
113.300041	132.0
113.337677	192.0
113.377914	160.0
113.448425	196.0
113.494469	100.0
113.514633	80.0
113.544044	120.0
113.549545	104.0
113.55574	168.0
113.569778	264.0
113.590988	140.0
113.616447	196.0
113.656761	216.0
113.677979	200.0
113.714058	360.0
113.731041	188.0
113.773499	188.0
113.822334	104.0
113.875427	172.0
113.926582	192.0
113.965103	168.0
114.011398	168.0
114.048157	164.0
114.065636	128.0
114.081543	160.0
114.109184	120.0
114.134697	152.0
114.164474	56.0
114.207069	132.0
114.241989	176.0
114.270828	76.0
114.32238	160.0
114.332115	192.0
114.37085	120.0
114.43898	180.0
114.458145	100.0
114.494347	64.0
114.51564	172.0
114.568565	128.0
114.626427	184.0
114.662964	172.0
114.686104	160.0
114.722343	172.0
114.754318	156.0
114.779907	44.0
114.805397	164.0
114.857063	132.0
114.866806	124.0
114.872528	216.0
114.888687	120.0
115.012459	140.0
115.028999	220.0
115.05349	18540.0
115.10202	160.0
115.109413	156.0
115.115585	224.0
115.146973	152.0
115.169914	252.0
115.208122	128.0
115.243111	36.0
115.275429	188.0
115.320007	156.0
115.35424	84.0
115.371346	192.0
115.386314	300.0
115.432281	228.0
115.468666	108.0
115.495377	156.0
115.515778	164.0
115.540108	184.0
115.565971	152.0
115.580956	116.0
115.625893	36.0
115.722664	136.0
115.741493	292.0
115.764275	132.0
115.783836	220.0
115.827415	140.0
115.865723	240.0
115.918068	168.0
115.940727	172.0
115.972878	196.0
115.993523	152.0
116.032028	272.0
116.061569	43452.0
116.108818	168.0
116.127258	116.0
116.172806	188.0
116.238815	180.0
116.257095	364.0
116.296524	112.0
116.318459	120.0
116.378731	132.0
116.399811	100.0
116.417366	56.0
116.444916	188.0
116.501259	192.0
116.545639	140.0
116.574059	116.0
116.595306	48.0
116.626472	180.0
116.668121	272.0
116.692856	148.0
116.746429	248.0
116.77153	104.0
116.795273	212.0
116.814629	160.0
116.846062	100.0
116.879654	128.0
116.94886	200.0
116.979248	196.0
117.064484	6848.0
117.103836	192.0
117.172722	216.0
117.208633	172.0
117.223724	168.0
117.238808	80.0
117.272354	188.0
117.294846	60.0
117.344429	56.0
117.361679	144.0
117.425362	68.0
117.447945	184.0
117.463043	104.0
117.479332	268.0
117.512436	184.0
117.553665	124.0
117.583878	252.0
117.60762	112.0
117.622734	180.0
117.661591	352.0
117.675987	96.0
117.708275	132.0
117.770126	92.0
117.799927	216.0
117.822533	100.0
117.886841	216.0
117.908546	384.0
117.944527	128.0
117.976967	160.0
118.007286	104.0
118.025452	240.0
118.066116	2028.0
118.10598	176.0
118.131622	180.0
118.150032	72.0
118.167343	76.0
118.193306	60.0
118.212784	144.0
118.263443	168.0
118.303688	192.0
118.46611	200.0
118.48484	124.0
118.533279	128.0
118.563622	196.0
118.591797	168.0
118.613472	144.0
118.627777	120.0
118.665504	52.0
118.693687	68.0
118.780869	128.0
118.855194	168.0
118.915421	188.0
118.946342	176.0
119.02404	168.0
119.045242	124.0
119.07209	436.0
119.156021	76.0
119.17765	184.0
119.206627	220.0
119.287796	208.0
119.362511	224.0
119.390785	132.0
119.432106	180.0
119.462563	144.0
119.538719	176.0
119.556129	148.0
119.585266	176.0
119.606186	288.0
119.630135	144.0
119.64537	128.0
119.672623	140.0
119.730293	168.0
119.75988	192.0
119.81089	192.0
119.880615	200.0
119.90023	184.0
119.946007	124.0
120.00705	384.0
120.021904	128.0
120.078461	204.0
120.094078	148.0
120.123924	196.0
120.170639	168.0
120.18972	188.0
120.209915	100.0
120.229553	220.0
120.250412	144.0
120.264824	112.0
120.278236	148.0
120.323418	152.0
120.353989	204.0
120.377281	204.0
120.410889	188.0
120.439468	112.0
120.482849	168.0
120.519997	256.0
120.554962	216.0
120.596542	144.0
120.663704	112.0
120.686119	136.0
120.701424	108.0
120.740791	168.0
120.760529	148.0
120.804405	144.0
120.852356	148.0
120.876427	100.0
120.898781	160.0
120.940048	172.0
120.988052	144.0
121.0075	136.0
121.056335	108.0
121.083305	136.0
121.138985	208.0
121.167305	148.0
121.215851	144.0
121.237762	180.0
121.264061	128.0
121.295784	204.0
121.318863	120.0
121.336403	28.0
121.359428	232.0
121.403313	140.0
121.42382	240.0
121.489929	140.0
121.544632	244.0
121.564529	204.0
121.589043	332.0
121.611588	172.0
121.674278	128.0
121.806046	80.0
121.845589	208.0
121.904915	116.0
121.920303	248.0
121.948875	192.0
121.965485	136.0
121.986931	192.0
122.017548	328.0
122.089584	156.0
122.12764	172.0
122.161476	240.0
122.232574	140.0
122.288078	360.0
122.338226	188.0
122.388245	144.0
122.435417	228.0
122.479164	156.0
122.523224	168.0
122.548561	88.0
122.584915	104.0
122.647446	184.0
122.663467	120.0
122.717178	144.0
122.741432	56.0
122.763481	116.0
122.810951	260.0
122.830017	120.0
122.837898	92.0
122.873772	184.0
122.905556	184.0
122.949989	188.0
122.989914	140.0
123.025513	21216.0
123.092293	80.0
123.109962	168.0
123.135269	292.0
123.151924	244.0
123.169594	140.0
123.192207	136.0
123.221138	188.0
123.236801	136.0
123.280922	208.0
123.32737	220.0
123.44117	224.0
123.478371	92.0
123.535339	204.0
123.592339	152.0
123.651031	224.0
123.710281	120.0
123.768951	124.0
123.795525	96.0
123.942032	148.0
123.978439	212.0
124.0326	5876.0
124.101326	164.0
124.142609	84.0
124.18338	64.0
124.212212	100.0
124.272858	112.0
124.32093	72.0
124.374199	172.0
124.436363	68.0
124.494095	144.0
124.521553	144.0
124.56295	176.0
124.595695	168.0
124.612328	160.0
124.638489	92.0
124.658493	144.0
124.685158	152.0
124.700714	48.0
124.752449	96.0
124.794029	168.0
124.808296	164.0
124.836517	148.0
124.86525	64.0
124.936272	172.0
124.958679	88.0
124.990486	176.0
125.020554	656.0
125.039185	1200.0
125.066109	204.0
125.083305	100.0
125.101112	104.0
125.118927	88.0
125.157753	204.0
125.186127	132.0
125.204773	148.0
125.279274	44.0
125.294868	244.0
125.368401	48.0
125.38623	260.0
125.424126	136.0
125.453102	84.0
125.47094	172.0
125.508842	176.0
125.598053	60.0
125.6259	180.0
125.65815	128.0
125.703377	192.0
125.732414	128.0
125.758713	200.0
125.776566	216.0
125.794426	120.0
125.865868	52.0
125.8815	168.0
125.932869	168.0
125.967415	172.0
126.028381	312.0
126.043564	288.0
126.082565	192.0
126.124474	408.0
126.151855	348.0
126.201042	88.0
126.238029	156.0
126.261421	192.0
126.305634	204.0
126.386696	156.0
126.402359	168.0
126.426979	184.0
126.465027	224.0
126.491631	140.0
126.520988	184.0
126.542053	176.0
126.566086	172.0
126.653114	160.0
126.697922	144.0
126.733765	104.0
126.803726	200.0
126.866005	132.0
126.895149	112.0
126.95314	144.0
126.978119	144.0
127.025223	144.0
127.083725	108.0
127.12619	92.0
127.14579	144.0
127.162163	148.0
127.215973	196.0
127.262199	184.0
127.295265	140.0
127.328247	100.0
127.343971	108.0
127.364182	136.0
127.409111	148.0
127.446167	448.0
127.507301	132.0
127.539452	180.0
127.583931	204.0
127.622635	156.0
127.703598	168.0
127.719337	128.0
127.736435	220.0
127.743469	132.0
127.749222	184.0
127.768829	200.0
127.817139	188.0
127.896477	216.0
127.948883	112.0
127.963829	176.0
127.988098	96.0
128.005081	104.0
128.060654	312.0
128.10878	136.0
128.141129	636.0
128.171875	96.0
128.189896	60.0
128.22821	168.0
128.285477	208.0
128.390533	136.0
128.464966	216.0
128.544067	148.0
128.564255	172.0
128.602966	288.0
128.624008	176.0
128.645508	40.0
128.672607	144.0
128.787292	168.0
128.826462	156.0
128.844254	180.0
128.937393	204.0
128.967209	224.0
129.020538	184.0
129.068634	2124.0
129.114777	108.0
129.140091	184.0
129.174316	144.0
129.216202	140.0
129.332718	228.0
129.35762	132.0
129.403687	160.0
129.43927	192.0
129.465897	248.0
129.59935	136.0
129.67247	108.0
129.70549	368.0
129.827774	176.0
129.859665	340.0
129.899673	184.0
129.934341	116.0
129.993988	172.0
130.026291	332.0
130.064316	5620.0
130.103241	80.0
130.126175	152.0
130.157639	2848.0
130.212463	252.0
130.241989	40.0
130.275467	196.0
130.336197	164.0
130.376038	92.0
130.406952	144.0
130.426041	156.0
130.444229	160.0
130.48288	152.0
130.512436	116.0
130.540405	124.0
130.567017	132.0
130.598862	136.0
130.635254	196.0
130.676147	160.0
130.700516	200.0
130.73764	216.0
130.890167	284.0
130.928879	188.0
130.949387	156.0
130.967117	148.0
130.989502	184.0
131.033142	232.0
131.071655	4892.0
131.111252	176.0
131.155182	264.0
131.181808	40.0
131.234238	56.0
131.323181	88.0
131.346817	144.0
131.40065	256.0
131.446381	116.0
131.486923	208.0
131.619873	112.0
131.726913	152.0
131.763763	184.0
131.792572	284.0
131.817352	280.0
131.857452	248.0
131.888535	168.0
131.939743	172.0
131.976334	124.0
131.994629	160.0
132.012924	92.0
132.03215	180.0
132.079697	17092.0
132.129227	320.0
132.144455	144.0
132.157852	112.0
132.192566	124.0
132.216141	184.0
132.259888	168.0
132.285995	144.0
132.330994	32.0
132.383652	164.0
132.42218	168.0
132.484436	104.0
132.505325	68.0
132.531921	136.0
132.562347	60.0
132.595596	136.0
132.63797	96.0
132.680008	84.0
132.703339	144.0
132.754913	120.0
132.770966	64.0
132.791611	232.0
132.850006	148.0
132.869507	100.0
132.880203	200.0
132.932617	180.0
132.951843	124.0
132.959351	148.0
132.98288	184.0
133.005768	348.0
133.020706	244.0
133.030731	144.0
133.087799	66308.0
133.130997	32.0
133.139679	96.0
133.155502	132.0
133.210114	104.0
133.250443	172.0
133.312378	164.0
133.342209	96.0
133.408707	68.0
133.465332	348.0
133.489716	160.0
133.526688	236.0
133.54776	192.0
133.584076	184.0
133.613983	100.0
133.632462	204.0
133.652847	132.0
133.696823	144.0
133.730606	136.0
133.754227	200.0
133.787201	168.0
133.813828	204.0
133.848618	268.0
133.865509	164.0
133.909164	196.0
133.969406	168.0
134.017517	38724.0
134.063965	180.0
134.091034	7056.0
134.139191	376.0
134.175949	112.0
134.205933	348.0
134.222061	168.0
134.24968	144.0
134.291946	180.0
134.314316	384.0
134.330475	68.0
134.35257	124.0
134.401993	152.0
134.438919	148.0
134.464722	108.0
134.485077	296.0
134.526627	48.0
134.544052	68.0
134.56337	160.0
134.612961	256.0
134.651718	184.0
134.707932	156.0
134.733368	160.0
134.746979	160.0
134.787613	96.0
134.803787	88.0
134.822281	40.0
134.849945	124.0
134.858414	88.0
134.897995	148.0
134.929382	96.0
134.946426	148.0
134.969849	148.0
135.021683	4652.0
135.045639	292.0
135.049561	120.0
135.09549	368.0
135.133774	132.0
135.171768	196.0
135.225937	156.0
135.244354	164.0
135.275635	124.0
135.308517	272.0
135.352036	148.0
135.369705	252.0
135.430786	144.0
135.463211	144.0
135.495651	152.0
135.518814	212.0
135.580856	176.0
135.620789	144.0
135.659714	192.0
135.694962	52.0
135.742508	56.0
135.76796	160.0
135.794678	64.0
135.834549	172.0
135.882843	128.0
135.935043	144.0
135.957092	32.0
135.974854	128.0
136.013458	1088.0
136.030914	1540.0
136.082443	184.0
136.132858	184.0
136.189041	216.0
136.263611	48.0
136.304871	116.0
136.370499	48.0
136.403046	164.0
136.4263	120.0
136.475113	144.0
136.521622	164.0
136.541367	256.0
136.568146	260.0
136.612335	72.0
136.645828	168.0
136.682144	40.0
136.751968	172.0
136.821793	128.0
136.842758	124.0
136.895538	120.0
137.001312	100.0
137.04039	2724.0
137.073181	160.0
137.082062	152.0
137.113754	336.0
137.147934	208.0
137.196884	132.0
137.250519	120.0
137.360138	120.0
137.409119	188.0
137.45813	40.0
137.495468	44.0
137.517426	204.0
137.535141	44.0
137.56842	124.0
137.607513	156.0
137.679901	80.0
137.733627	112.0
137.749969	172.0
137.778015	160.0
137.827072	108.0
137.851044	132.0
137.880829	104.0
137.927734	112.0
137.960297	48.0
137.981339	104.0
138.043152	864.0
138.088913	64.0
138.124115	168.0
138.18248	172.0
138.245667	128.0
138.269058	196.0
138.333374	144.0
138.379089	156.0
138.402496	220.0
138.452774	120.0
138.482132	136.0
138.502228	176.0
138.526627	168.0
138.554749	124.0
138.614059	152.0
138.675293	164.0
138.695358	180.0
138.711761	136.0
138.756729	132.0
138.861832	192.0
138.901535	172.0
138.93924	152.0
138.969742	108.0
138.98851	88.0
139.038757	344.0
139.094131	152.0
139.131683	168.0
139.162216	116.0
139.206833	160.0
139.253799	176.0
139.314865	116.0
139.333664	152.0
139.446457	168.0
139.465271	80.0
139.493469	156.0
139.519333	112.0
139.662781	52.0
139.69101	152.0
139.719238	116.0
139.768646	56.0
139.808655	68.0
139.827484	152.0
139.862061	220.0
139.883972	268.0
139.904663	104.0
139.962173	168.0
140.013474	164.0
140.037033	148.0
140.070007	148.0
140.104141	156.0
140.143265	2732.0
140.32399	172.0
140.348114	64.0
140.390564	124.0
140.479187	104.0
140.49408	176.0
140.597397	208.0
140.607407	140.0
140.611069	196.0
140.677551	176.0
140.722595	164.0
140.746399	152.0
140.772171	188.0
140.789398	188.0
140.824829	100.0
140.853165	180.0
140.893326	144.0
140.933502	52.0
140.968948	48.0
141.01857	168.0
141.035126	96.0
141.069931	324.0
141.103683	188.0
141.142487	372.0
141.161041	152.0
141.189163	156.0
141.273956	136.0
141.364166	164.0
141.394638	100.0
141.473969	116.0
141.532715	124.0
141.582733	204.0
141.597641	124.0
141.674057	172.0
141.707214	172.0
141.730911	152.0
141.761719	180.0
141.790924	316.0
141.813858	164.0
141.911057	92.0
141.953842	180.0
142.017776	144.0
142.04277	152.0
142.077332	1572.0
142.150635	192.0
142.170288	184.0
142.208572	168.0
142.231339	196.0
142.25032	128.0
142.297806	188.0
142.316193	172.0
142.362854	212.0
142.397537	72.0
142.471237	188.0
142.53009	156.0
142.575729	76.0
142.692215	40.0
142.777863	240.0
142.820633	52.0
142.844864	172.0
142.87059	148.0
142.991943	208.0
143.038437	384.0
143.083847	1056.0
143.122879	160.0
143.1586	176.0
143.175262	184.0
143.274277	256.0
143.291428	136.0
143.330109	244.0
143.387314	116.0
143.413528	156.0
143.456436	80.0
143.473129	176.0
143.49054	216.0
143.591522	184.0
143.622131	156.0
143.659134	228.0
143.704468	72.0
143.831268	156.0
143.868484	128.0
143.901596	148.0
144.079468	5532.0
144.164383	160.0
144.186844	164.0
144.23465	176.0
144.260941	148.0
144.282471	152.0
144.311157	148.0
144.327896	164.0
144.362381	152.0
144.419067	164.0
144.469009	188.0
144.503983	84.0
144.543182	208.0
144.574295	136.0
144.598221	120.0
144.614975	60.0
144.633133	164.0
144.643097	96.0
144.646851	140.0
144.691574	172.0
144.725098	192.0
144.765015	108.0
144.824997	56.0
144.856827	180.0
144.887054	156.0
144.917587	112.0
144.935883	216.0
144.957458	180.0
145.014969	160.0
145.048538	64.0
145.086563	2024.0
145.14444	116.0
145.175613	120.0
145.192749	272.0
145.211975	124.0
145.252365	144.0
145.295547	136.0
145.32193	136.0
145.357925	92.0
145.379532	104.0
145.454208	176.0
145.513306	120.0
145.615097	132.0
145.647385	92.0
145.65213	136.0
145.71936	168.0
145.745529	204.0
145.768555	176.0
145.823837	140.0
145.874313	184.0
145.917831	160.0
145.946442	152.0
145.975296	144.0
146.049744	160.0
146.094315	9244.0
146.158127	140.0
146.17897	156.0
146.201431	244.0
146.242355	44.0
146.376465	172.0
146.396439	104.0
146.418564	112.0
146.439789	220.0
146.459061	208.0
146.480743	112.0
146.50528	148.0
146.531326	144.0
146.567398	120.0
146.618088	80.0
146.655624	132.0
146.675934	156.0
146.724136	120.0
146.810944	64.0
146.909027	196.0
146.941208	236.0
146.981674	192.0
147.001144	264.0
147.02478	4200.0
147.073944	44.0
147.099228	1988.0
147.154785	244.0
147.199478	116.0
147.228455	116.0
147.259857	104.0
147.298508	184.0
147.340347	320.0
147.357712	180.0
147.408157	192.0
147.466843	160.0
147.531754	192.0
147.590942	104.0
147.656235	164.0
147.675583	164.0
147.709457	128.0
147.753006	176.0
147.789291	88.0
147.807404	356.0
147.840103	84.0
147.867096	184.0
147.944199	124.0
147.975662	392.0
148.031433	3080.0
148.077576	144.0
148.116135	96.0
148.150742	124.0
148.179123	64.0
148.234055	216.0
148.266357	124.0
148.309982	184.0
148.360886	188.0
148.39444	148.0
148.418747	212.0
148.462219	232.0
148.537399	228.0
148.566681	168.0
148.623962	216.0
148.634766	100.0
148.642593	220.0
148.678909	392.0
148.698059	120.0
148.721008	168.0
148.745575	56.0
148.750595	156.0
148.784119	124.0
148.794846	92.0
148.800308	204.0
148.831589	168.0
148.861725	156.0
148.887344	104.0
148.911606	168.0
148.921036	216.0
148.926483	228.0
148.952652	168.0
148.972412	444.0
148.99353	192.0
149.041504	161664.0
149.113846	164.0
149.150574	124.0
149.19342	100.0
149.214767	136.0
149.26297	56.0
149.287109	264.0
149.322769	132.0
149.348785	108.0
149.39212	384.0
149.415726	200.0
149.441162	1032.0
149.470825	168.0
149.478516	208.0
149.539032	56.0
149.576538	232.0
149.621094	112.0
149.638077	156.0
149.660156	164.0
149.694839	116.0
149.755966	208.0
149.805695	200.0
149.862198	136.0
149.886993	68.0
149.937393	100.0
149.960388	52.0
149.989426	152.0
150.005524	216.0
150.042755	20776.0
150.106674	120.0
150.12619	40.0
150.185944	84.0
150.20108	124.0
150.261932	172.0
150.30777	164.0
150.357956	36.0
150.39212	32.0
150.40921	204.0
150.429718	204.0
150.493546	192.0
150.512726	228.0
150.552139	96.0
150.566971	52.0
150.595535	116.0
150.626541	60.0
150.655991	68.0
150.67836	124.0
150.702682	192.0
150.746262	136.0
150.784668	216.0
150.825851	116.0
150.841583	160.0
150.872589	176.0
150.901932	140.0
150.916702	116.0
150.948242	212.0
150.965683	408.0
150.984558	132.0
151.043182	9368.0
151.092468	172.0
151.10968	104.0
151.160812	108.0
151.178329	200.0
151.192261	96.0
151.210251	172.0
151.255005	556.0
151.281021	176.0
151.301498	112.0
151.330276	140.0
151.366287	364.0
151.43721	96.0
151.470932	152.0
151.516266	52.0
151.520477	108.0
151.559204	188.0
151.582916	112.0
151.588577	140.0
151.661606	92.0
151.693604	80.0
151.732697	52.0
151.777237	144.0
151.824905	100.0
151.870026	148.0
151.936188	136.0
151.986298	256.0
152.053253	816.0
152.105179	192.0
152.132263	60.0
152.162064	72.0
152.203796	92.0
152.220993	148.0
152.244873	204.0
152.307571	112.0
152.324142	120.0
152.348709	136.0
152.382263	128.0
152.419968	92.0
152.454376	160.0
152.478943	72.0
152.515808	72.0
152.557877	76.0
152.574814	112.0
152.62645	180.0
152.692841	180.0
152.739578	60.0
152.766632	192.0
152.82077	128.0
152.887131	136.0
153.045746	456.0
153.153122	140.0
153.176254	112.0
153.199539	52.0
153.216553	176.0
153.25412	48.0
153.340378	80.0
153.360092	44.0
153.381561	124.0
153.407974	204.0
153.487473	156.0
153.525284	112.0
153.558212	160.0
153.611618	212.0
153.658493	92.0
153.806549	244.0
153.831238	104.0
153.849915	276.0
153.888031	148.0
153.923935	332.0
153.942352	60.0
153.962112	152.0
154.025879	308.0
154.059769	296.0
154.104218	296.0
154.157822	7120.0
154.209167	136.0
154.241302	44.0
154.345154	72.0
154.414398	200.0
154.503036	120.0
154.511551	100.0
154.548553	200.0
154.590286	104.0
154.635071	168.0
154.661362	128.0
154.738571	300.0
154.812805	176.0
154.85495	84.0
154.949081	132.0
155.060608	92.0
155.122574	148.0
155.161362	1332.0
155.208664	88.0
155.254929	188.0
155.398499	184.0
155.444061	164.0
155.551727	112.0
155.576553	32.0
155.643585	88.0
155.703186	164.0
155.755356	172.0
155.894485	188.0
156.054733	216.0
156.087585	112.0
156.143097	228.0
156.166153	384.0
156.195328	96.0
156.220215	224.0
156.337158	180.0
156.493027	104.0
156.513901	116.0
156.538147	196.0
156.584686	120.0
156.681442	212.0
156.728119	104.0
156.780457	220.0
156.823318	140.0
156.845261	176.0
156.927521	148.0
156.957443	104.0
156.979889	424.0
156.997345	128.0
157.100433	252.0
157.193542	168.0
157.240631	188.0
157.274292	116.0
157.361664	188.0
157.38913	40.0
157.449066	68.0
157.469925	92.0
157.494034	168.0
157.588409	92.0
157.718918	188.0
157.777863	144.0
157.796707	172.0
157.828918	192.0
157.84642	156.0
157.903946	44.0
157.92395	220.0
157.99649	100.0
158.05809	176.0
158.105957	376.0
158.134125	64.0
158.176422	160.0
158.343704	176.0
158.405045	144.0
158.439636	52.0
158.479721	120.0
158.502274	96.0
158.519806	64.0
158.574951	236.0
158.753845	152.0
158.850769	168.0
158.867584	108.0
158.874939	76.0
158.884644	80.0
158.921021	140.0
158.981247	192.0
159.00885	48.0
159.040787	204.0
159.103989	568.0
159.204681	120.0
159.321457	100.0
159.367462	140.0
159.447281	108.0
159.476028	172.0
159.518753	132.0
159.58696	124.0
159.63945	204.0
159.687225	188.0
159.72496	156.0
159.780304	60.0
159.797913	168.0
159.880951	84.0
159.933807	80.0
159.994232	64.0
160.011856	108.0
160.037033	160.0
160.109299	1164.0
160.147842	84.0
160.183105	92.0
160.296478	144.0
160.336411	316.0
160.372086	200.0
160.447723	152.0
160.477264	128.0
160.503189	136.0
160.629288	168.0
160.649475	168.0
160.67218	176.0
160.712555	128.0
160.848831	44.0
160.927094	156.0
160.947296	56.0
161.013107	136.0
161.042603	340.0
161.111328	528.0
161.15947	156.0
161.303528	100.0
161.394547	128.0
161.415421	220.0
161.611298	168.0
161.675339	268.0
161.758301	160.0
161.788544	144.0
161.798203	104.0
161.931061	156.0
161.98172	148.0
162.001984	112.0
162.035446	660.0
162.085587	76.0
162.115997	152.0
162.143875	144.0
162.192032	152.0
162.252884	60.0
162.290909	72.0
162.359375	140.0
162.432938	124.0
162.53949	188.0
162.569946	220.0
162.608017	148.0
162.691788	216.0
162.719711	64.0
162.836533	136.0
162.874619	144.0
163.001663	156.0
163.053619	640.0
163.13382	164.0
163.169418	188.0
163.2612	172.0
163.277588	200.0
163.311829	224.0
163.362701	68.0
163.421219	172.0
163.459381	176.0
163.487381	80.0
163.614655	108.0
163.636658	124.0
163.708862	88.0
163.752167	196.0
163.774017	176.0
163.799744	112.0
163.843994	156.0
163.911545	92.0
163.950882	112.0
164.051575	8340.0
164.119934	76.0
164.153488	68.0
164.194397	164.0
164.228516	72.0
164.304276	88.0
164.36911	76.0
164.399811	264.0
164.444672	132.0
164.495224	176.0
164.550339	140.0
164.572464	156.0
164.698456	304.0
164.716339	188.0
164.750961	312.0
164.772537	96.0
164.828751	116.0
164.864532	92.0
164.897095	152.0
164.920761	112.0
164.941208	48.0
164.99649	244.0
165.007202	268.0
165.059784	25428.0
165.1073	200.0
165.131378	320.0
165.168793	304.0
165.193283	168.0
165.21524	52.0
165.23999	72.0
165.370316	228.0
165.417007	152.0
165.469025	76.0
165.501495	36.0
165.524551	160.0
165.617661	200.0
165.662857	148.0
165.683472	80.0
165.713623	128.0
165.761398	252.0
165.792358	96.0
165.846878	488.0
165.875549	264.0
165.899353	56.0
165.936401	132.0
165.97197	184.0
165.992477	228.0
166.02626	388.0
166.067535	90120.0
166.147385	52.0
166.166992	56.0
166.190033	72.0
166.238953	248.0
166.260193	176.0
166.28389	308.0
166.323059	176.0
166.36441	140.0
166.404037	32.0
166.438828	88.0
166.462723	144.0
166.493576	112.0
166.537582	36.0
166.577484	120.0
166.601624	228.0
166.627487	96.0
166.657013	148.0
166.694641	60.0
166.737991	80.0
166.768829	36.0
166.791367	120.0
166.827957	172.0
166.850143	108.0
166.869919	100.0
166.903992	84.0
166.926102	92.0
166.97229	152.0
167.016068	84.0
167.069336	8268.0
167.124924	120.0
167.135315	56.0
167.146545	92.0
167.168518	108.0
167.215912	88.0
167.290833	128.0
167.313187	148.0
167.355392	92.0
167.378754	264.0
167.417191	40.0
167.464722	44.0
167.508804	148.0
167.540833	80.0
167.561676	44.0
167.60524	64.0
167.648239	140.0
167.679977	64.0
167.75087	200.0
167.793396	124.0
167.837234	68.0
167.873337	164.0
167.90686	224.0
167.937805	84.0
167.988998	128.0
168.063705	3276.0
168.108093	32.0
168.140518	92.0
168.1689	156.0
168.206177	144.0
168.234863	160.0
168.284744	168.0
168.319839	144.0
168.377213	128.0
168.404022	128.0
168.433411	148.0
168.485077	36.0
168.549667	164.0
168.601624	192.0
168.686661	132.0
168.719559	204.0
168.769394	88.0
168.789139	132.0
168.823685	112.0
168.854721	68.0
168.885498	336.0
168.953018	136.0
169.042145	108.0
169.066269	152.0
169.114288	164.0
169.17041	132.0
169.232544	88.0
169.277191	108.0
169.307938	116.0
169.387939	84.0
169.609177	160.0
169.826172	128.0
169.845917	196.0
169.942749	108.0
170.020599	176.0
170.046555	72.0
170.102402	148.0
170.228287	196.0
170.436096	108.0
170.464676	132.0
170.563278	184.0
170.667435	60.0
170.800079	124.0
170.884766	180.0
170.910645	144.0
170.984818	132.0
171.035126	220.0
171.117905	96.0
171.154022	136.0
171.234756	108.0
171.323318	76.0
171.341553	168.0
171.365005	56.0
171.406693	76.0
171.451004	144.0
171.594376	124.0
171.706497	52.0
171.766495	124.0
171.805618	40.0
171.852585	196.0
172.105942	312.0
172.241577	200.0
172.449539	204.0
172.521194	48.0
172.610092	168.0
172.641479	140.0
172.684128	156.0
172.777496	108.0
172.879547	124.0
172.913574	176.0
172.944977	48.0
173.01828	56.0
173.088974	380.0
173.112198	200.0
173.159683	160.0
173.180634	140.0
173.206833	240.0
173.264465	108.0
173.293274	152.0
173.324722	180.0
173.386353	216.0
173.446854	140.0
173.555389	120.0
173.586868	144.0
173.671738	220.0
173.7285	116.0
173.807205	172.0
173.86232	96.0
173.930557	80.0
174.125916	1032.0
174.224686	112.0
174.28511	132.0
174.340302	152.0
174.361313	128.0
174.550598	172.0
174.655029	108.0
174.766296	64.0
174.821564	36.0
174.958435	112.0
174.992661	112.0
175.054977	820.0
175.131302	532.0
175.187363	108.0
175.403641	116.0
175.540741	160.0
175.582947	76.0
175.683182	40.0
175.887589	112.0
175.906769	132.0
175.939163	112.0
176.057404	344.0
176.120392	192.0
176.139877	180.0
176.227051	104.0
176.250839	160.0
176.311615	160.0
176.338043	52.0
176.38562	184.0
176.409409	156.0
176.427917	52.0
176.449066	120.0
176.47551	180.0
176.615677	36.0
176.668579	132.0
176.734726	72.0
176.859116	32.0
176.888229	148.0
177.054703	444.0
177.092911	240.0
177.137146	136.0
177.15834	184.0
177.19809	164.0
177.317337	116.0
177.357086	204.0
177.375641	276.0
177.415405	220.0
177.471085	156.0
177.513519	116.0
177.566559	136.0
177.656738	40.0
177.707153	176.0
177.792068	64.0
177.826569	172.0
177.916824	120.0
177.957977	88.0
178.024155	208.0
178.067093	6512.0
178.153183	80.0
178.203201	148.0
178.23555	84.0
178.352493	52.0
178.382828	224.0
178.450851	68.0
178.534286	172.0
178.553406	92.0
178.737671	116.0
178.807312	60.0
178.831268	216.0
178.884674	128.0
178.943085	96.0
178.967041	48.0
179.02829	184.0
179.07486	10792.0
179.121521	156.0
179.164139	52.0
179.225418	76.0
179.358276	80.0
179.377258	132.0
179.39975	76.0
179.431335	212.0
179.518646	204.0
179.578537	88.0
179.713379	140.0
179.751755	168.0
180.023026	176.0
180.079208	1844.0
180.143219	132.0
180.199326	112.0
180.287506	92.0
180.308884	92.0
180.332932	164.0
180.359665	136.0
180.428284	96.0
180.533463	100.0
180.568222	64.0
180.688599	96.0
180.723389	216.0
180.747467	148.0
180.784927	156.0
180.814072	156.0
180.831589	212.0
180.851837	68.0
180.891998	228.0
180.93483	144.0
180.961594	80.0
180.985703	36.0
181.009796	176.0
181.071213	316.0
181.183243	296.0
181.242844	120.0
181.285721	76.0
181.409012	136.0
181.494812	64.0
181.545761	68.0
181.642258	176.0
181.679886	40.0
181.736801	148.0
181.795258	160.0
181.918732	172.0
181.953629	120.0
182.001129	196.0
182.069092	176.0
182.096451	192.0
182.359253	156.0
182.378082	128.0
182.422607	296.0
182.456039	84.0
182.488297	132.0
182.509811	60.0
182.528625	64.0
182.569336	148.0
182.599808	60.0
182.628143	120.0
182.743393	100.0
182.773422	96.0
183.002213	84.0
183.069534	76.0
183.096466	64.0
183.204208	156.0
183.367126	96.0
183.390137	184.0
183.406738	172.0
183.471008	184.0
183.675964	180.0
183.702942	160.0
183.829758	152.0
183.870239	44.0
183.913422	172.0
183.986313	160.0
184.028702	188.0
184.075409	144.0
184.237473	32.0
184.323929	200.0
184.353653	180.0
184.440384	136.0
184.490158	348.0
184.526657	116.0
184.843124	120.0
185.010941	148.0
185.105713	164.0
185.233002	48.0
185.44165	160.0
185.609741	180.0
185.63414	108.0
185.693802	80.0
185.799866	120.0
185.821304	140.0
185.851151	132.0
185.935272	228.0
185.981415	104.0
186.049286	60.0
186.129333	132.0
186.184128	1848.0
186.23938	120.0
186.299133	40.0
186.334457	84.0
186.35347	108.0
186.40239	156.0
186.538284	136.0
186.889114	104.0
187.082367	52.0
187.120483	148.0
187.146622	156.0
187.21579	68.0
187.262085	164.0
187.343796	204.0
187.378494	256.0
187.411911	128.0
187.507294	64.0
187.560226	220.0
187.583618	136.0
187.62178	120.0
187.927261	108.0
187.969543	152.0
188.014572	144.0
188.142609	124.0
188.235703	204.0
188.257553	36.0
188.325836	172.0
188.364731	232.0
188.508881	172.0
188.588135	240.0
188.610001	100.0
188.634613	160.0
188.686554	140.0
188.839691	76.0
188.867035	196.0
188.998367	136.0
189.064255	148.0
189.146149	172.0
189.272095	112.0
189.387115	32.0
189.406281	136.0
189.597992	112.0
189.651047	184.0
189.800949	108.0
189.820145	152.0
189.874985	148.0
189.989578	208.0
190.014893	68.0
190.06662	284.0
190.316803	80.0
190.377228	128.0
190.396454	120.0
190.445892	164.0
190.536285	132.0
190.58252	136.0
190.640381	116.0
190.726151	120.0
190.775635	180.0
190.891113	140.0
190.990128	136.0
191.042404	144.0
191.087082	1800.0
191.279068	104.0
191.317596	172.0
191.350632	60.0
191.529648	140.0
191.634338	84.0
191.776352	180.0
191.831009	176.0
191.918228	116.0
191.970627	36.0
192.025787	144.0
192.083191	10992.0
192.143433	68.0
192.178436	120.0
192.23912	160.0
192.298935	180.0
192.354141	56.0
192.404587	132.0
192.436966	184.0
192.515152	64.0
192.651337	156.0
192.713165	164.0
192.743561	244.0
192.766907	196.0
192.834763	128.0
192.866501	100.0
192.911484	180.0
192.946503	124.0
193.100418	8804.0
193.16658	44.0
193.203415	228.0
193.255112	388.0
193.296616	104.0
193.31424	76.0
193.37178	124.0
193.408966	128.0
193.448837	80.0
193.504211	92.0
193.528351	56.0
193.573441	44.0
193.695984	196.0
193.723007	72.0
193.889252	52.0
193.925293	60.0
193.950241	128.0
194.104172	1556.0
194.154297	140.0
194.238617	120.0
194.271072	120.0
194.321381	72.0
194.409058	112.0
194.484848	120.0
194.521667	80.0
194.541107	120.0
194.561249	164.0
194.592148	144.0
194.630783	120.0
194.677155	68.0
194.699371	60.0
194.808426	276.0
194.8452	124.0
194.916061	64.0
194.999435	36.0
195.096802	412.0
195.182922	132.0
195.266342	88.0
195.303955	92.0
195.347015	104.0
195.366486	36.0
195.466644	64.0
195.488907	160.0
195.616943	100.0
195.644791	184.0
195.664276	152.0
195.731094	112.0
195.781219	204.0
195.839706	68.0
195.8815	144.0
195.94278	32.0
195.976227	144.0
196.082123	40.0
196.104416	152.0
196.149017	160.0
196.439667	88.0
196.475296	80.0
196.494827	156.0
196.555069	228.0
196.8367	208.0
196.961029	168.0
197.015381	164.0
197.095139	144.0
197.117493	148.0
197.259552	160.0
197.388657	152.0
197.520096	236.0
197.617767	132.0
197.673981	296.0
197.785934	92.0
197.822327	100.0
197.847519	204.0
197.92218	156.0
197.987534	60.0
198.043549	32.0
198.068756	116.0
198.088364	84.0
198.141586	84.0
198.189224	212.0
198.215225	128.0
198.25647	48.0
198.287308	84.0
198.306931	184.0
198.42746	224.0
198.567673	52.0
198.735992	192.0
198.789307	28.0
198.834213	112.0
198.886642	188.0
199.008255	40.0
199.039154	156.0
199.114975	80.0
199.263077	160.0
199.314438	196.0
199.370636	96.0
199.407166	88.0
199.474625	36.0
199.553345	108.0
199.640518	156.0
199.713654	48.0
199.77272	52.0
200.003464	224.0
200.048508	48.0
200.081482	152.0
200.116074	132.0
200.147049	180.0
200.307587	104.0
200.375931	168.0
200.434372	96.0
200.471878	180.0
200.496368	88.0
200.576279	148.0
200.634491	224.0
200.771103	204.0
200.80481	108.0
200.823425	192.0
200.94191	32.0
201.102768	180.0
201.133804	144.0
201.215683	88.0
201.331451	148.0
201.390762	164.0
201.438782	84.0
201.532013	84.0
201.597015	188.0
201.650711	104.0
201.896683	164.0
201.957367	132.0
201.987198	172.0
202.156555	420.0
202.261673	52.0
202.403229	96.0
202.440842	176.0
202.468369	112.0
202.655334	184.0
202.794189	148.0
202.825378	128.0
202.850891	156.0
202.870728	140.0
202.969955	136.0
203.012497	52.0
203.083405	132.0
203.103256	164.0
203.276321	164.0
203.33876	196.0
203.605637	72.0
203.753357	144.0
203.949432	188.0
204.078659	128.0
204.102951	176.0
204.128555	200.0
204.15921	148.0
204.193954	188.0
204.230942	148.0
204.270752	196.0
204.359207	160.0
204.415863	192.0
204.467087	120.0
204.740402	168.0
204.783127	200.0
205.102692	132.0
205.150711	156.0
205.227692	164.0
205.309616	160.0
205.347473	116.0
205.421631	176.0
205.484406	140.0
205.624222	180.0
205.664185	144.0
205.755539	64.0
205.82692	216.0
205.88118	100.0
205.986862	128.0
206.006851	184.0
206.098297	8400.0
206.221161	164.0
206.309784	40.0
206.33551	120.0
206.386978	60.0
206.575745	108.0
206.631088	184.0
206.655853	52.0
206.698776	160.0
206.724533	120.0
206.761734	144.0
206.801804	284.0
206.844742	92.0
206.909225	76.0
206.952332	172.0
207.010803	176.0
207.04985	204.0
207.105682	2904.0
207.142548	108.0
207.187515	132.0
207.2285	56.0
207.253494	124.0
207.305862	96.0
207.348862	164.0
207.380386	212.0
207.409042	68.0
207.442551	64.0
207.475891	88.0
207.54953	112.0
207.578201	36.0
207.621216	128.0
207.661087	196.0
207.724472	136.0
207.756042	152.0
207.803604	180.0
207.83403	220.0
207.866776	332.0
207.91098	140.0
207.956909	336.0
208.005096	248.0
208.025604	388.0
208.114822	92728.0
208.18454	96.0
208.22023	56.0
208.260391	132.0
208.282028	140.0
208.3311	108.0
208.353531	100.0
208.393982	200.0
208.433228	112.0
208.437897	108.0
208.471252	132.0
208.50676	132.0
208.54805	160.0
208.588791	156.0
208.615311	136.0
208.671127	68.0
208.706711	76.0
208.738892	64.0
208.784927	60.0
208.809998	104.0
208.846054	140.0
208.879272	68.0
208.913803	36.0
208.959824	36.0
209.010544	160.0
209.043274	140.0
209.117294	9880.0
209.215759	136.0
209.255371	140.0
209.33403	60.0
209.35675	92.0
209.387466	72.0
209.426193	28.0
209.460754	76.0
209.480927	124.0
209.543945	96.0
209.600967	156.0
209.622101	84.0
209.679733	84.0
209.702805	144.0
209.755783	84.0
209.794281	76.0
209.858887	192.0
209.896515	164.0
209.921906	252.0
209.946213	48.0
209.992157	156.0
210.031509	52.0
210.073074	172.0
210.111252	2940.0
210.17334	92.0
210.251648	156.0
210.296967	124.0
210.375	120.0
210.428864	316.0
210.453506	124.0
210.481537	124.0
210.539108	184.0
210.54715	96.0
210.557297	192.0
210.599442	116.0
210.673752	116.0
210.678879	156.0
210.706284	140.0
210.756149	108.0
210.81395	104.0
210.834167	76.0
210.861191	104.0
210.882584	256.0
210.9151	68.0
210.941116	48.0
210.961349	40.0
211.089569	300.0
211.113953	332.0
211.15509	48.0
211.209427	56.0
211.238846	96.0
211.314194	124.0
211.346024	28.0
211.369171	48.0
211.418365	144.0
211.525757	76.0
211.55658	168.0
211.647049	52.0
211.687592	128.0
211.739731	88.0
211.768692	112.0
211.820831	92.0
211.844009	140.0
211.870071	132.0
211.910645	48.0
211.930923	40.0
212.110611	48.0
212.183075	120.0
212.270065	52.0
212.315277	136.0
212.34346	156.0
212.365768	48.0
212.435394	168.0
212.502121	144.0
212.523788	124.0
212.556091	140.0
212.624008	108.0
212.690765	136.0
212.713974	124.0
212.754166	180.0
213.024704	188.0
213.068283	64.0
213.146729	72.0
213.280426	128.0
213.405426	60.0
213.453705	180.0
213.536301	148.0
213.818512	184.0
213.959106	160.0
213.983017	156.0
214.077621	152.0
214.199951	76.0
214.261124	188.0
214.296143	208.0
214.348541	124.0
214.386414	132.0
214.450546	212.0
214.543823	148.0
214.610886	116.0
214.756699	40.0
214.836853	108.0
214.987183	68.0
215.065994	104.0
215.171204	152.0
215.340454	156.0
215.375504	180.0
215.53035	124.0
215.606323	196.0
215.810944	152.0
216.173004	440.0
216.604065	52.0
216.765213	216.0
216.876587	68.0
216.935211	108.0
216.961594	92.0
217.093536	56.0
217.266602	36.0
217.372238	176.0
217.405106	80.0
217.456039	116.0
217.848312	136.0
218.088593	48.0
218.215256	160.0
218.262299	116.0
218.403458	132.0
218.518188	124.0
218.588821	164.0
218.63205	168.0
218.662384	96.0
218.724197	108.0
218.847855	100.0
218.942078	148.0
218.96991	196.0
219.018661	52.0
219.103516	124.0
219.14534	184.0
219.168915	228.0
219.189545	192.0
219.304474	128.0
219.392914	76.0
219.743881	68.0
219.856018	188.0
219.934128	248.0
219.977036	108.0
220.000641	80.0
220.031647	112.0
220.078613	236.0
220.114426	2044.0
220.195526	164.0
220.266418	224.0
220.501984	144.0
220.67131	68.0
220.704941	148.0
221.119827	480.0
221.168304	180.0
221.189026	112.0
221.258865	88.0
221.325211	128.0
221.437759	136.0
221.479218	104.0
221.579941	84.0
221.62439	72.0
221.787384	72.0
221.85556	148.0
222.015686	116.0
222.074997	184.0
222.130203	1084.0
222.161453	240.0
222.24707	112.0
222.282684	108.0
222.317047	144.0
222.460754	108.0
222.534988	172.0
222.573578	124.0
222.704834	164.0
222.903305	100.0
223.08461	100.0
223.105423	108.0
223.132523	380.0
223.352249	192.0
223.471954	152.0
223.524811	140.0
223.637909	108.0
223.658737	52.0
223.703384	176.0
223.780792	152.0
223.876083	124.0
224.087585	116.0
224.118713	128.0
224.138031	172.0
224.287247	128.0
224.484024	36.0
224.660004	168.0
224.725647	144.0
224.782333	120.0
224.803223	104.0
224.943512	92.0
225.048004	120.0
225.173431	164.0
225.194336	128.0
225.292908	256.0
225.376572	116.0
225.406448	128.0
225.574768	152.0
225.600723	40.0
225.642578	128.0
225.675476	180.0
225.75621	184.0
225.786118	128.0
225.98056	96.0
226.555405	176.0
226.615326	136.0
226.744171	52.0
227.112976	176.0
227.271973	36.0
227.383011	164.0
227.581131	84.0
227.692245	224.0
227.734299	188.0
227.761337	148.0
227.833435	140.0
227.947601	144.0
228.040771	140.0
228.175308	164.0
228.215134	112.0
228.260239	208.0
228.344452	168.0
228.371521	144.0
228.488831	64.0
228.532166	120.0
228.807861	336.0
228.837967	136.0
228.961426	128.0
228.994568	204.0
229.183151	140.0
229.216385	140.0
229.350113	112.0
229.446579	120.0
229.600357	156.0
229.627502	156.0
229.861969	224.0
230.062027	260.0
230.186462	472.0
230.218964	164.0
230.252258	148.0
230.288498	136.0
230.445587	160.0
230.626923	132.0
230.835526	176.0
231.032135	112.0
231.104752	92.0
231.183426	136.0
231.204605	116.0
231.233826	196.0
231.259079	104.0
231.283295	136.0
231.341736	128.0
231.425583	80.0
231.461929	48.0
231.492203	148.0
231.658798	140.0
231.78302	92.0
231.889084	132.0
231.910309	112.0
231.946671	168.0
231.965744	124.0
232.189606	168.0
232.237778	80.0
232.365189	100.0
232.489594	56.0
232.547256	128.0
232.701736	140.0
232.771927	152.0
233.110153	140.0
233.188126	44.0
233.446548	112.0
233.510422	140.0
233.543869	136.0
233.709381	160.0
233.835968	40.0
233.963821	152.0
234.061249	52.0
234.087997	184.0
234.130005	3912.0
234.183075	136.0
234.21962	396.0
234.262268	140.0
234.289688	60.0
234.38414	128.0
234.426804	72.0
234.598694	204.0
234.640167	108.0
234.81691	120.0
234.881088	92.0
234.936005	40.0
235.08551	92.0
235.136597	1008.0
235.174026	152.0
235.235077	192.0
235.430481	48.0
235.577103	168.0
235.610703	152.0
235.785614	184.0
235.879639	196.0
235.93161	100.0
235.968292	140.0
236.026382	64.0
236.124252	144.0
236.270004	148.0
236.298615	124.0
236.390411	48.0
236.509766	52.0
236.953827	108.0
237.088654	416.0
237.110107	88.0
237.143417	152.0
237.238846	132.0
237.284836	188.0
237.318558	136.0
237.487228	184.0
237.519058	128.0
237.542435	64.0
237.757217	116.0
237.95369	192.0
237.996674	36.0
238.230087	180.0
238.371429	176.0
238.605026	152.0
238.691116	88.0
238.780304	120.0
238.823364	100.0
238.875656	176.0
238.98027	104.0
239.091049	196.0
239.171066	140.0
239.531342	144.0
239.571396	168.0
239.722382	208.0
239.750107	132.0
239.987473	172.0
240.280487	120.0
240.342194	92.0
240.680756	176.0
240.740402	176.0
240.817612	264.0
240.916473	80.0
240.964386	120.0
240.987534	136.0
241.154404	64.0
241.188766	140.0
241.219315	156.0
241.259506	152.0
241.562576	128.0
241.695618	136.0
241.726562	48.0
241.763687	212.0
241.961792	112.0
242.079468	156.0
242.234329	136.0
242.256012	160.0
242.333466	188.0
242.528702	180.0
242.631012	140.0
242.863586	72.0
243.08696	44.0
243.254562	168.0
243.288788	192.0
243.329071	128.0
243.384964	136.0
243.453278	344.0
243.534042	224.0
243.89447	204.0
244.014359	184.0
244.077896	120.0
244.124542	152.0
244.205185	708.0
244.298737	56.0
244.424942	156.0
244.460526	172.0
244.482315	108.0
244.644165	164.0
245.002319	140.0
245.211838	2000.0
245.29837	160.0
245.410599	180.0
245.613312	148.0
245.66011	48.0
245.738113	92.0
245.781784	140.0
246.000259	160.0
246.205688	176.0
246.303177	88.0
246.325043	116.0
246.478134	112.0
246.756317	152.0
246.809464	104.0
246.943939	200.0
246.972092	96.0
247.075333	176.0
247.133301	112.0
247.216141	272.0
247.278732	140.0
247.360107	168.0
247.425858	152.0
247.548431	164.0
247.991486	160.0
248.145203	4624.0
248.202896	132.0
248.268753	160.0
248.391083	124.0
248.497742	108.0
248.556595	132.0
248.693985	152.0
248.745071	168.0
248.839859	52.0
248.899521	188.0
248.930923	128.0
249.078949	180.0
249.106812	124.0
249.149582	1204.0
249.196259	144.0
249.370758	52.0
249.408478	36.0
249.439911	60.0
249.540512	80.0
249.691452	116.0
249.899078	52.0
250.139252	152.0
250.182327	144.0
250.536774	120.0
250.613815	100.0
250.654785	64.0
250.812363	112.0
250.85965	72.0
251.149765	80.0
251.23494	212.0
251.316971	32.0
251.405319	204.0
251.440033	84.0
251.654694	84.0
251.784164	128.0
252.046371	164.0
252.160141	56.0
252.198074	92.0
252.422546	96.0
252.723053	176.0
252.779999	116.0
252.811646	40.0
252.893936	196.0
253.007904	44.0
253.03006	204.0
253.327759	128.0
253.4133	140.0
253.625626	176.0
253.674759	176.0
253.999802	116.0
254.177475	76.0
254.342514	132.0
254.43457	136.0
254.587296	208.0
254.621918	108.0
254.742615	108.0
255.247971	164.0
255.311584	56.0
255.394272	96.0
255.550156	128.0
255.769745	52.0
255.88588	176.0
255.948029	144.0
256.062683	108.0
256.123199	92.0
256.374908	100.0
256.416321	112.0
256.559967	72.0
256.751099	160.0
256.811707	76.0
256.881866	88.0
256.983978	156.0
257.14032	120.0
257.191406	76.0
257.236084	128.0
257.724731	76.0
257.782257	140.0
257.817413	68.0
257.858948	136.0
257.930542	184.0
258.226654	100.0
258.376984	124.0
258.508179	44.0
258.578583	200.0
258.831512	108.0
258.873138	96.0
258.962799	152.0
259.10376	32.0
259.190277	196.0
259.222321	136.0
259.254364	80.0
259.404999	100.0
259.446686	124.0
259.469116	44.0
259.68396	152.0
259.882874	172.0
259.959869	104.0
260.040131	140.0
260.091461	28.0
260.113953	52.0
260.137817	144.0
260.319427	136.0
260.357971	132.0
260.383667	188.0
260.544281	124.0
260.70816	104.0
260.733856	180.0
260.769226	152.0
260.875275	124.0
261.005829	160.0
261.016754	96.0
261.027679	160.0
261.055359	68.0
261.125977	204.0
261.167847	164.0
261.351288	76.0
261.377838	220.0
261.445374	184.0
261.495514	176.0
261.506744	144.0
261.589447	92.0
261.612	208.0
261.721466	152.0
261.760101	92.0
261.782654	184.0
261.973755	168.0
262.032654	220.0
262.066101	56.0
262.11142	328.0
262.160919	18252.0
262.227234	68.0
262.277985	108.0
262.338745	156.0
262.391632	136.0
262.431305	144.0
262.481934	176.0
262.51416	72.0
262.559326	120.0
262.59317	112.0
262.720612	76.0
262.762543	92.0
262.811798	136.0
262.948883	388.0
263.027161	140.0
263.100555	132.0
263.129761	128.0
263.165436	5484.0
263.279022	140.0
263.362976	76.0
263.398529	88.0
263.501892	56.0
263.727905	64.0
263.876831	68.0
264.116119	60.0
264.159637	1680.0
264.219666	56.0
264.488251	168.0
264.51416	56.0
264.544434	136.0
264.682495	120.0
264.747284	120.0
264.94693	140.0
264.990204	88.0
265.080933	100.0
265.158478	464.0
265.301361	96.0
265.488495	100.0
265.512115	28.0
265.570496	124.0
265.726227	100.0
265.875488	100.0
265.917664	140.0
265.976685	108.0
266.02478	144.0
266.122192	88.0
266.164398	100.0
266.213104	144.0
266.252075	180.0
266.297546	44.0
266.385254	104.0
266.498962	120.0
266.726471	124.0
266.784973	176.0
266.807739	32.0
267.025604	76.0
267.158112	100.0
267.233795	52.0
267.272858	144.0
267.406281	72.0
267.5495	116.0
267.676483	180.0
267.741608	32.0
267.796997	148.0
267.937073	116.0
268.067413	96.0
268.129333	160.0
268.181458	164.0
268.32489	100.0
268.393372	120.0
268.448822	128.0
268.621674	88.0
268.649597	36.0
268.673431	152.0
268.801117	196.0
268.866394	92.0
269.134064	96.0
269.163452	60.0
269.454163	156.0
269.633881	132.0
269.905243	108.0
269.95755	48.0
269.990265	44.0
270.081848	84.0
270.160339	148.0
270.183258	164.0
270.215973	76.0
270.386139	96.0
270.418854	172.0
270.481049	204.0
270.536682	140.0
270.775726	132.0
270.998505	36.0
271.057465	124.0
271.218079	140.0
271.296753	120.0
271.332794	132.0
271.391815	144.0
271.486908	172.0
271.516449	92.0
271.559082	72.0
271.690277	92.0
272.188782	168.0
272.239502	224.0
272.274567	52.0
272.389526	120.0
272.458527	56.0
272.626099	164.0
272.698395	148.0
272.727997	128.0
273.076508	84.0
273.175201	236.0
273.237701	120.0
273.264038	144.0
273.336426	220.0
273.366028	116.0
273.494385	76.0
273.566803	136.0
273.619476	168.0
273.954071	128.0
274.031189	76.0
274.321198	140.0
274.350861	52.0
274.469574	76.0
274.515747	108.0
274.66745	268.0
274.779633	144.0
274.809326	124.0
275.053528	116.0
275.106354	132.0
275.231812	180.0
275.367218	172.0
275.591858	144.0
275.648041	96.0
275.710815	164.0
275.823181	148.0
275.869476	84.0
275.902527	80.0
276.048035	124.0
276.129059	120.0
276.177124	692.0
276.279541	136.0
276.473297	104.0
276.547607	64.0
276.584015	76.0
276.636963	160.0
276.703186	112.0
276.81012	188.0
276.900177	260.0
276.974731	100.0
277.02774	52.0
277.086304	136.0
277.12381	28.0
277.182983	2100.0
277.299469	32.0
277.322662	96.0
277.355804	96.0
277.387299	112.0
277.425415	68.0
277.514923	76.0
277.538147	76.0
277.579926	160.0
277.644348	148.0
277.697327	160.0
277.734955	104.0
277.821808	120.0
277.887665	192.0
277.902283	144.0
277.990173	104.0
278.03244	200.0
278.087219	164.0
278.140594	184.0
278.192841	57656.0
278.26651	108.0
278.293671	112.0
278.323792	172.0
278.380341	60.0
278.417267	120.0
278.44632	108.0
278.47052	116.0
278.550415	72.0
278.583954	80.0
278.610565	184.0
278.67334	52.0
278.711945	32.0
278.75293	84.0
278.793701	88.0
278.842804	88.0
278.905945	124.0
278.984802	144.0
279.028961	112.0
279.057068	124.0
279.102112	116.0
279.195404	6832.0
279.29834	56.0
279.321625	68.0
279.396698	112.0
279.454681	40.0
279.534546	52.0
279.564484	48.0
279.627747	96.0
279.654358	36.0
279.720947	48.0
279.748901	160.0
279.8974	64.0
279.977325	184.0
280.032471	52.0
280.073242	128.0
280.188965	2968.0
280.260468	120.0
280.285339	120.0
280.367096	56.0
280.422424	124.0
280.523773	96.0
280.553772	60.0
280.607117	84.0
280.705902	140.0
280.753845	256.0
280.811371	64.0
280.847229	156.0
280.948456	184.0
281.007355	68.0
281.044037	36.0
281.097076	112.0
281.134155	112.0
281.187317	292.0
281.192352	380.0
281.26767	112.0
281.317047	260.0
281.374481	128.0
281.401184	68.0
281.461304	56.0
281.581512	72.0
281.621613	32.0
281.644989	96.0
281.688416	36.0
281.77356	164.0
281.842102	104.0
281.949036	160.0
282.099457	148.0
282.169647	108.0
282.68158	224.0
282.761749	72.0
282.788513	116.0
283.063049	48.0
283.361145	80.0
283.471741	140.0
283.545471	48.0
284.014862	176.0
284.045074	136.0
284.076874	168.0
284.175903	52.0
284.286621	100.0
284.608887	68.0
284.632385	84.0
284.723083	160.0
285.385071	36.0
285.549866	148.0
285.630585	88.0
285.741608	52.0
285.832458	124.0
285.909851	140.0
286.044495	132.0
286.334076	80.0
286.360443	96.0
286.600189	84.0
286.947357	156.0
286.973755	116.0
287.068756	168.0
287.183411	132.0
287.223907	180.0
287.310303	184.0
287.446564	104.0
287.480316	160.0
287.817902	136.0
287.858398	180.0
288.040802	72.0
288.307709	132.0
288.68634	116.0
288.916351	136.0
289.222656	228.0
289.41391	128.0
289.596771	68.0
290.001068	184.0
290.101685	52.0
290.186035	624.0
290.291534	148.0
290.403473	236.0
290.457733	176.0
290.536743	220.0
290.590057	176.0
290.817413	80.0
290.993958	96.0
291.021118	160.0
291.194153	172.0
291.292816	120.0
291.347168	136.0
291.598602	132.0
291.656403	108.0
291.816193	64.0
291.86377	120.0
291.938599	104.0
292.05423	124.0
292.222076	156.0
292.357025	220.0
292.387665	104.0
292.479584	52.0
292.510193	140.0
292.629364	244.0
292.677032	40.0
292.704285	148.0
292.833679	224.0
292.976746	44.0
293.185669	140.0
293.323181	188.0
293.438782	144.0
293.569855	108.0
293.641449	68.0
293.907562	132.0
293.979218	76.0
294.149872	100.0
294.3479	88.0
294.399109	132.0
294.76123	192.0
294.798828	116.0
294.858246	128.0
294.897949	96.0
295.056824	200.0
295.106476	120.0
295.137238	128.0
295.393738	140.0
295.434814	164.0
295.516907	84.0
295.866028	208.0
295.948181	120.0
296.133118	32.0
296.246155	100.0
296.361725	148.0
296.40033	168.0
296.595673	120.0
296.938568	56.0
297.118652	232.0
297.281647	52.0
297.624908	96.0
297.782898	124.0
297.940918	188.0
297.989014	160.0
298.112701	92.0
298.340454	200.0
298.545868	84.0
298.683441	100.0
298.876099	168.0
298.965576	128.0
299.402802	148.0
299.6026	80.0
299.681824	32.0
299.730072	160.0
299.905853	56.0
299.943756	124.0
300.026489	52.0
300.48175	120.0
300.605957	60.0
300.668091	76.0
300.737122	116.0
300.871735	40.0
300.961517	180.0
301.120361	128.0
301.329559	180.0
301.458954	164.0
301.524597	152.0
301.569519	76.0
301.687073	112.0
301.776947	136.0
302.046722	124.0
302.143585	140.0
302.493103	156.0
302.579651	136.0
302.635712	144.0
302.794342	68.0
302.971008	128.0
303.019501	120.0
303.068024	128.0
303.217041	148.0
303.422363	52.0
303.601868	168.0
304.004303	108.0
304.049408	92.0
304.211243	148.0
304.27066	80.0
304.38269	152.0
304.461578	132.0
304.486847	124.0
304.525055	40.0
304.608429	156.0
304.723083	136.0
304.782135	48.0
304.809937	44.0
304.841217	76.0
304.938538	40.0
305.056122	120.0
305.101898	148.0
305.162018	140.0
305.214722	7540.0
305.317505	104.0
305.421844	216.0
305.536652	28.0
305.567963	32.0
305.627106	56.0
305.700165	52.0
305.766571	100.0
305.849854	144.0
305.905548	164.0
305.982117	132.0
306.034363	116.0
306.220703	1396.0
306.274658	28.0
306.41748	164.0
306.616119	68.0
306.671875	132.0
306.839203	48.0
307.211578	248.0
307.254242	104.0
307.397308	160.0
307.43219	48.0
307.634644	208.0
307.82666	116.0
307.889526	196.0
307.920959	48.0
308.05719	156.0
308.144531	196.0
308.186462	144.0
308.214417	132.0
308.242371	104.0
308.392639	136.0
308.419006	148.0
308.497528	40.0
308.710815	132.0
309.022125	136.0
309.162109	104.0
309.302094	156.0
309.344116	60.0
309.442139	144.0
309.687256	124.0
309.760834	172.0
309.893951	208.0
310.111237	84.0
310.156799	108.0
310.332092	48.0
310.816132	100.0
311.27951	176.0
311.325165	48.0
311.419983	148.0
311.486725	52.0
311.978699	100.0
312.305756	100.0
312.555542	128.0
312.629425	192.0
312.661102	136.0
312.791321	96.0
312.841553	164.0
312.92865	144.0
312.960327	40.0
313.6297	60.0
313.686096	96.0
313.753082	244.0
313.79184	124.0
313.837677	152.0
313.869415	152.0
314.229187	116.0
314.465637	128.0
314.658661	88.0
314.737457	132.0
314.896393	200.0
314.952911	212.0
315.080078	124.0
315.129547	132.0
315.507721	132.0
315.679077	160.0
315.705719	160.0
315.794159	112.0
316.024109	116.0
316.23642	104.0
316.2966	124.0
316.328461	128.0
316.590485	80.0
316.647125	32.0
316.686096	140.0
316.880951	92.0
316.909271	172.0
317.001404	196.0
317.047485	84.0
317.08078	164.0
317.231812	136.0
317.256622	100.0
317.313354	56.0
317.373627	136.0
317.507599	144.0
317.558044	100.0
317.596802	176.0
317.646576	104.0
317.675079	128.0
317.785065	92.0
317.838287	120.0
317.898621	144.0
317.923462	76.0
317.992004	192.0
318.071259	320.0
318.11969	172.0
318.179047	216.0
318.2323	236.0
318.278595	196.0
318.310425	84.0
318.368622	132.0
318.416962	76.0
318.444031	112.0
318.505066	184.0
318.56189	172.0
318.613037	200.0
318.654968	120.0
318.678467	104.0
318.767242	20.0
318.777496	140.0
318.81842	108.0
318.857513	132.0
318.93927	80.0
318.992584	252.0
319.028137	84.0
319.127686	188.0
319.177246	216.0
319.212708	316.0
319.262634	168.0
319.345215	212.0
319.3927	216.0
319.469269	136.0
319.514954	212.0
319.537781	156.0
319.599854	264.0
319.653137	284.0
319.68689	136.0
319.720154	144.0
319.747437	128.0
319.795532	268.0
319.822235	236.0
319.86026	208.0
319.909912	264.0
319.941925	228.0
319.970123	268.0
320.005951	224.0
320.046967	360.0
320.10495	300.0
320.174469	520.0
320.240509	214816.0
320.384521	368.0
320.419006	172.0
320.47287	160.0
320.493958	120.0
320.569092	380.0
320.618805	292.0
320.664062	88.0
320.69809	132.0
320.735046	156.0
320.747101	92.0
320.785645	228.0
320.829163	1328.0
320.871368	336.0
320.916718	308.0
320.971375	104.0
321.000031	200.0
321.056335	392.0
321.095673	180.0
321.161438	196.0
321.243439	51024.0
321.381104	164.0
321.415527	80.0
321.424194	44.0
321.468231	224.0
321.581055	104.0
321.614929	240.0
321.654694	228.0
321.676788	104.0
321.704132	216.0
321.742828	204.0
321.779266	100.0
321.853333	88.0
321.88739	256.0
321.931	80.0
321.981873	152.0
321.993896	96.0
322.002502	112.0
322.045135	176.0
322.072205	68.0
322.098358	108.0
322.130585	76.0
322.189941	176.0
322.23764	8648.0
322.323944	220.0
322.38736	80.0
322.455536	148.0
322.479767	144.0
322.520691	132.0
322.551575	108.0
322.566956	64.0
322.576416	84.0
322.624756	140.0
322.717834	72.0
322.76062	128.0
322.79068	128.0
322.852081	84.0
322.891571	212.0
322.93512	88.0
323.012848	232.0
323.027313	184.0
323.082672	88.0
323.12085	196.0
323.160187	152.0
323.191711	128.0
323.238342	1656.0
323.314423	220.0
323.360565	216.0
323.386993	168.0
323.414093	256.0
323.439728	264.0
323.498505	152.0
323.543701	296.0
323.596741	136.0
323.612091	72.0
323.620819	244.0
323.67337	128.0
323.679443	120.0
323.744171	108.0
323.773895	104.0
323.855499	148.0
323.889008	56.0
323.9151	76.0
323.985962	76.0
324.071198	100.0
324.139282	140.0
324.191254	88.0
324.233673	136.0
324.353394	144.0
324.397339	56.0
324.440918	80.0
324.469055	128.0
324.533569	144.0
324.586456	196.0
324.621429	88.0
324.659088	136.0
324.70929	68.0
324.809723	72.0
324.859955	44.0
324.940369	96.0
325.00705	104.0
325.091705	88.0
325.207886	100.0
325.283417	44.0
325.328369	76.0
325.336182	40.0
325.35025	104.0
325.416229	96.0
325.454224	132.0
325.495239	36.0
325.573883	40.0
325.778992	60.0
325.861603	36.0
325.990967	68.0
326.149109	28.0
326.18866	84.0
326.235382	44.0
326.289307	60.0
326.321686	40.0
326.37561	104.0
326.469116	28.0
326.713684	56.0
326.811951	52.0
326.86264	100.0
326.897217	112.0
326.990784	92.0
327.13208	128.0
327.622253	76.0
327.648254	68.0
327.721802	64.0
327.808289	52.0
327.920013	76.0
327.988495	52.0
328.6521	56.0
328.807251	100.0
329.27301	100.0
329.764374	88.0
330.129547	68.0
330.16571	64.0
330.238037	52.0
330.295898	72.0
330.46698	124.0
331.063232	68.0
331.505188	48.0
332.168701	52.0
332.248505	120.0
332.662231	64.0
332.98175	40.0
333.399567	108.0
333.966766	136.0
334.03952	88.0
334.141388	56.0
334.312408	68.0
334.352417	96.0
334.379974	48.0
334.739197	84.0
334.767456	80.0
334.887634	64.0
335.190033	100.0
335.255615	112.0
335.372253	80.0
335.463379	100.0
335.503479	80.0
336.050568	52.0
336.282959	76.0
336.38266	36.0
336.492188	100.0
336.583466	48.0
336.663818	96.0
337.332458	104.0
337.460419	76.0
337.610352	152.0
337.635956	76.0
338.209076	144.0
338.251984	248.0
338.58017	144.0
339.102264	112.0
339.24707	136.0
339.921936	48.0
340.134827	64.0
340.252289	208.0
340.505676	60.0
340.711365	132.0
341.012695	96.0
341.049438	40.0
341.281067	104.0
342.083099	88.0
342.337158	60.0
342.716583	88.0
342.978241	64.0
343.232635	132.0
344.14035	76.0
344.520752	84.0
344.668549	156.0
344.857025	44.0
345.289612	148.0
345.448669	44.0
345.670654	76.0
346.718719	92.0
346.837311	52.0
346.892914	80.0
347.515991	108.0
347.994781	88.0
349.883514	72.0
349.976624	64.0
350.516724	60.0
350.632263	124.0
350.717987	72.0
350.934204	88.0
352.513184	100.0
352.54306	72.0
353.111359	68.0
353.171204	140.0
353.38443	100.0
353.848541	48.0
354.223053	76.0
357.324005	100.0
358.174835	76.0
359.241638	96.0
360.064514	76.0
360.340271	48.0
362.360687	76.0
365.215454	100.0
366.14798	44.0
366.323181	68.0
366.490814	52.0
366.58609	76.0
368.134918	32.0
368.501617	84.0
369.545441	84.0
372.562775	100.0
372.820221	48.0
373.639252	48.0
377.198761	108.0
378.502594	76.0
379.021667	96.0
380.157867	108.0
382.727386	68.0
383.116852	84.0
383.580597	28.0
390.031677	68.0
390.141754	52.0
390.833984	56.0
391.101593	40.0
392.30307	108.0
393.080078	36.0
393.210297	76.0
393.427399	84.0
394.130432	104.0
395.012115	88.0
395.245544	76.0
395.308838	40.0
398.306244	88.0
400.310791	80.0
400.713104	84.0
400.872498	132.0
402.120789	60.0
402.168671	56.0
402.292419	48.0
402.903442	112.0
404.07489	108.0
404.971588	68.0
405.61673	48.0
405.877319	76.0
406.784058	76.0
407.932983	64.0
408.829926	56.0
408.894318	112.0
409.897095	92.0
410.292084	64.0
411.123016	84.0
412.427582	100.0
412.779327	36.0
414.175629	60.0
416.621765	100.0
417.674652	60.0
419.156616	52.0
419.845551	84.0
419.971985	52.0
421.221069	68.0
421.735931	88.0
423.220978	28.0
430.718445	40.0
430.982849	96.0
431.127472	72.0
435.211975	72.0
435.90567	88.0
438.802734	52.0
438.852753	64.0
439.753845	64.0
441.918579	72.0
443.862122	132.0
444.017303	60.0
445.679688	36.0
445.978088	84.0
446.941162	48.0
448.343445	64.0
450.229279	88.0
452.66095	56.0
453.588806	96.0
456.646027	32.0
456.800934	76.0
456.914032	92.0
457.49707	56.0
457.748291	136.0
457.816437	68.0
457.927155	108.0
462.748444	48.0
465.119202	48.0
465.514191	68.0
465.90506	108.0
466.016785	28.0
466.652893	112.0
469.917694	88.0
470.426971	48.0
470.690338	84.0
471.550049	92.0
472.142365	92.0
473.063995	44.0
473.609619	68.0
474.849243	48.0
475.022766	84.0
476.529236	72.0
477.194244	64.0
477.289886	92.0
478.852234	80.0
478.961121	92.0
479.026459	68.0
482.653351	100.0
482.983765	40.0
485.951599	56.0
486.228058	44.0
486.535339	88.0
488.583344	80.0
489.331543	96.0
495.315613	52.0
496.698639	40.0
496.769592	72.0
499.030182	120.0
501.129456	112.0
502.080536	60.0
502.276794	96.0
504.844971	72.0
504.929962	56.0
506.433807	60.0
507.72464	96.0
508.568146	120.0
509.376404	60.0
510.288696	100.0
512.543762	100.0
512.593323	40.0
513.95575	88.0
514.609619	96.0
514.663818	40.0
515.029602	64.0
517.340393	48.0
518.028748	60.0
519.683533	28.0
520.1828	84.0
521.713745	104.0
521.86377	124.0
521.909241	32.0
522.577881	84.0
524.996704	80.0
525.927429	48.0
526.466187	112.0
527.462219	84.0
528.129822	76.0
528.189331	92.0
528.683472	108.0
530.721924	72.0
530.776978	68.0
531.487976	40.0
534.856689	64.0
536.141785	84.0
537.409912	40.0
537.765198	80.0
538.074524	76.0
538.656433	80.0
540.926941	52.0
541.14917	156.0
541.658569	64.0
543.392456	96.0
544.580872	64.0
545.393982	108.0
548.284363	104.0
548.759888	72.0
548.974365	84.0
549.202881	48.0
551.696533	120.0
554.11145	96.0
555.170837	56.0
555.794739	52.0
557.067078	56.0
560.921143	92.0
561.4823	88.0
561.52002	60.0
564.741211	88.0
567.127625	48.0
567.473694	92.0
570.108215	112.0
574.250305	68.0
576.145386	48.0
576.580261	48.0
577.62738	104.0
579.178345	68.0
581.417419	64.0
583.232971	124.0
583.858032	60.0
585.489502	56.0
585.706299	88.0
589.426025	52.0
590.204285	120.0
590.320312	116.0
590.562134	156.0
595.413818	112.0
598.258362	44.0
598.662537	140.0
599.359131	112.0
600.577942	68.0
600.968201	100.0
601.651489	60.0
605.445984	48.0
606.798401	88.0
608.638428	88.0
609.47345	116.0
613.913696	76.0
617.365723	108.0
617.568481	36.0
617.860352	68.0
619.335571	124.0
620.039124	80.0
627.114685	88.0
628.777649	52.0
630.150879	96.0
631.195557	44.0
632.411255	36.0
632.856812	100.0
635.739197	80.0
638.537537	80.0
639.453247	80.0
642.491821	164.0
643.49115	80.0
649.838135	112.0
650.264404	76.0
651.005676	212.0
652.209778	120.0
656.78241	80.0
656.909912	136.0
657.246643	48.0
658.124573	128.0
658.655762	48.0
661.125305	88.0
661.278809	132.0
662.098022	104.0
662.487305	104.0
664.030212	136.0
664.563721	140.0
666.735901	68.0
668.999146	64.0
669.153564	80.0
671.426086	100.0
674.276001	80.0
676.060242	152.0
678.370361	80.0
679.044434	84.0
681.473938	128.0
686.221619	80.0
687.112671	48.0
690.22052	128.0
691.66449	68.0
691.784912	76.0
693.188599	52.0
693.351074	52.0
693.869995	68.0
695.575012	148.0
698.296814	72.0
698.959656	176.0
699.543884	184.0
700.233704	56.0
700.850037	44.0
701.218933	68.0
701.96759	80.0
704.023376	100.0
705.33606	80.0
705.579224	60.0
707.430847	44.0
712.686829	136.0
718.682434	80.0
720.182556	52.0
723.460571	76.0
727.395386	112.0
729.006714	124.0
729.329224	160.0
730.17334	80.0
732.175476	176.0
734.80603	168.0
736.150085	152.0
737.722412	88.0
739.967651	124.0
740.45166	116.0
741.853027	192.0
743.322876	60.0
744.97345	64.0
746.886902	124.0
748.966248	68.0
749.353088	88.0
752.238098	64.0
753.193726	168.0
757.438538	72.0
758.638672	88.0
759.143066	80.0
760.21283	124.0
760.503723	120.0
762.656921	132.0
764.703003	144.0
768.26825	132.0
772.251038	116.0
772.937073	220.0
773.318909	192.0
779.219299	120.0
780.786926	88.0
783.603638	84.0
784.333679	144.0
784.846558	168.0
785.276001	140.0
786.710083	44.0
787.648254	56.0
789.984924	96.0
790.035278	52.0
793.401123	168.0
796.566223	184.0
799.501282	92.0
799.540649	40.0
799.833374	224.0
802.740601	192.0
802.8703	72.0
805.410156	80.0
806.868164	56.0
807.757812	116.0
808.24823	144.0
808.41803	172.0
810.320618	56.0
813.053833	64.0
814.121155	120.0
814.274475	48.0
815.479004	144.0
818.716309	224.0
821.389526	72.0
821.429443	196.0
821.766052	192.0
823.724243	60.0
828.546936	156.0
829.125671	196.0
829.670227	140.0
830.409363	164.0
831.270508	196.0
832.723022	96.0
833.469849	244.0
833.625	120.0
836.454773	64.0
839.819885	40.0
840.016052	196.0
840.414124	116.0
841.886108	208.0
844.157288	120.0
845.997253	208.0
846.367798	188.0
849.393127	160.0
851.256226	268.0
851.889282	36.0
851.982239	140.0
852.877197	84.0
854.057556	156.0
854.959351	180.0
855.93158	144.0
856.886841	164.0
860.859131	76.0
860.929199	112.0
861.776245	144.0
862.442444	56.0
863.097229	116.0
863.46344	180.0
864.571411	144.0
867.705322	212.0
867.892944	204.0
867.980896	72.0
868.385559	48.0
868.672974	128.0
872.648987	64.0
873.190002	144.0
873.842957	60.0
874.696289	44.0
875.750305	56.0
876.027161	232.0
878.916138	124.0
881.319397	36.0
881.579407	176.0
881.762634	228.0
882.767639	204.0
883.039734	224.0
885.039978	64.0
885.158386	148.0
885.898743	200.0
888.471741	180.0
888.946411	184.0
891.832825	40.0
893.033936	180.0
894.390564	188.0
895.527832	96.0
896.224854	156.0
898.723267	156.0
902.007996	172.0
903.030518	152.0
905.712036	176.0
907.354065	144.0
907.929749	208.0
908.829529	220.0
909.855896	88.0
910.282227	128.0
910.594482	160.0
911.495667	120.0
911.838196	280.0
912.126709	168.0
913.912903	132.0
913.973083	104.0
914.725403	164.0
914.884705	204.0
916.273132	160.0
917.146973	112.0
921.014771	140.0
924.999756	72.0
925.387207	172.0
925.829224	124.0
926.404663	220.0
926.483459	132.0
927.234802	132.0
927.307556	132.0
927.937988	144.0
930.59552	116.0
930.686584	148.0
931.58551	96.0
934.418579	240.0
934.783691	136.0
935.733215	100.0
938.0849	52.0
938.292175	116.0
938.926331	84.0
939.713257	176.0
940.018372	128.0
940.178711	176.0
940.427246	64.0
941.12323	180.0
941.935486	32.0
943.628357	184.0
945.163635	132.0
949.169739	84.0
949.549988	140.0
950.414978	180.0
951.091736	172.0
951.556641	128.0
953.694458	60.0
953.823547	168.0
954.180115	216.0
954.524414	140.0
955.213257	148.0
955.385559	52.0
955.89624	100.0
956.025452	92.0
956.831848	124.0
956.961121	128.0
958.383972	216.0
958.963257	140.0
959.092712	216.0
960.140869	52.0
960.702148	68.0
960.77002	84.0
960.985962	140.0
961.430298	52.0
961.65863	192.0
962.646423	132.0
964.697815	136.0
965.272827	180.0
966.677063	156.0
967.13501	184.0
967.946106	180.0
968.838013	152.0
969.600159	180.0
971.317688	176.0
971.559631	80.0
972.155273	188.0
973.763245	148.0
974.378235	180.0
975.360168	92.0
976.454468	104.0
976.628662	204.0
977.051636	124.0
978.713501	48.0
978.844238	172.0
981.979065	392.0
982.365784	96.0
983.701233	124.0
984.350586	44.0
985.662415	152.0
986.081116	176.0
988.025879	172.0
988.08844	132.0
988.319946	128.0
989.083496	148.0
992.5979	68.0
993.577026	188.0
994.310913	164.0
994.379944	96.0
994.461548	128.0
995.453491	172.0
995.554016	204.0
996.062744	128.0
996.200928	108.0
997.693542	192.0
997.941833	56.0
998.87262	156.0
999.237549	156.0
999.495483	128.0
999.961182	184.0
1000.659973	176.0
1000.987366	120.0
1001.044067	112.0
1001.988892	100.0
1002.077087	192.0
1003.325012	192.0
1003.640259	164.0
1004.649414	136.0
1006.006226	128.0
1006.17041	124.0
1006.353516	264.0
1007.408203	192.0
1007.711487	152.0
1008.558289	44.0
1009.361267	232.0
1009.784973	180.0
1009.943115	196.0
1012.01886	184.0
1012.633118	72.0
1012.918152	136.0
1013.54541	76.0
1013.634094	164.0
1013.767212	152.0
1014.172852	112.0
1014.965271	164.0
1015.537964	200.0
1016.475037	116.0
1016.766968	184.0
1017.319214	176.0
1018.093811	136.0
1020.661194	136.0
1020.769287	60.0
1021.290771	152.0
1021.958801	172.0
1022.270569	36.0
1022.633362	48.0
1023.327271	160.0
1023.418884	124.0
1023.881287	236.0
1024.116943	132.0
1024.28894	52.0
1025.276489	224.0
1026.111572	152.0
1026.200806	160.0
1026.577026	184.0
1026.793945	92.0
1028.210205	152.0
1028.299561	96.0
1029.091187	112.0
1029.908691	208.0
1030.170532	108.0
1030.387817	148.0
1030.477173	144.0
1031.966431	120.0
1032.247803	164.0
1032.938599	160.0
1033.258423	56.0
1033.955933	208.0
1034.122314	196.0
1034.276001	120.0
1034.660034	44.0
1035.146729	204.0
1035.404663	100.0
1036.767456	200.0
1036.927734	184.0
1037.677734	160.0
1037.966309	136.0
1038.787231	56.0
1040.331787	188.0
1040.62915	196.0
1041.341919	144.0
1041.695312	184.0
1041.926514	144.0
1042.080688	152.0
1042.332642	184.0
1042.504883	132.0
1042.768311	52.0
1043.044678	192.0
1043.30188	48.0
1043.364868	216.0
1043.382812	172.0
1043.96875	228.0
1044.530151	80.0
1044.716675	192.0
1045.031982	172.0
1046.084717	176.0
1046.299927	68.0
1046.505981	136.0
1046.621826	208.0
1048.14209	88.0
1049.218384	144.0
1050.243774	212.0
1050.30188	164.0
1050.495361	188.0
1051.243774	164.0
1051.314819	152.0
1051.650391	140.0
1053.400391	148.0
1053.503662	152.0
1053.871948	148.0
1053.968872	200.0
1054.750977	144.0
1055.390991	48.0
1055.817749	184.0
1055.888916	68.0
1055.966553	72.0
1056.076538	100.0
1056.568115	64.0
1056.755737	252.0
1057.713623	104.0
1057.797729	176.0
1058.12793	68.0
1058.296265	120.0
1058.814331	208.0
1059.377808	212.0
1059.79895	52.0
1060.615601	80.0
1060.725708	156.0
1060.868408	152.0
1061.127686	124.0
1061.335205	132.0
1061.529663	164.0
1061.646484	128.0
1061.737183	80.0
1061.886353	120.0
1062.048584	32.0
1062.937378	68.0
1063.398193	196.0
1063.703247	164.0
1064.112305	160.0
1065.27478	192.0
1065.755615	224.0
1065.911499	144.0
1066.372925	224.0
1066.54187	184.0
1066.639404	80.0
1066.834473	188.0
1067.497681	196.0
1068.915771	144.0
1069.605713	176.0
1069.813965	136.0
1070.074463	148.0
1070.19165	56.0
1071.201172	188.0
1071.337891	196.0
1071.611572	112.0
1072.504395	144.0
1073.854126	200.0
1074.434692	200.0
1075.57666	204.0
1076.11853	168.0
1076.379761	168.0
1077.271606	144.0
1078.163208	164.0
1078.26123	136.0
1078.829712	136.0
1078.93457	156.0
1079.267944	84.0
1079.522949	136.0
1079.902344	172.0
1080.818237	216.0
1081.230469	124.0
1081.852295	256.0
1081.930908	112.0
1082.435059	136.0
1082.814941	216.0
1083.280029	72.0
1083.515869	168.0
1083.568237	84.0
1084.348022	168.0
1084.544678	96.0
1085.154419	156.0
1085.534668	112.0
1086.098755	92.0
1086.498901	200.0
1086.774414	52.0
1086.973389	156.0
1087.621094	164.0
1088.303833	176.0
1088.62561	80.0
1088.947388	160.0
1089.670044	172.0
1090.747803	192.0
1092.141846	200.0
1092.516846	208.0
1092.832642	120.0
1093.287598	144.0
1093.747437	64.0
1093.813232	152.0
1093.918579	172.0
1094.116089	152.0
1094.32019	240.0
1094.497925	72.0
1095.17627	144.0
1097.212524	188.0
1097.364136	60.0
1097.713623	180.0
1098.472168	116.0
1098.630493	140.0
1099.230957	164.0
1099.818237	132.0
1100.405884	56.0
1100.973755	208.0
1101.231323	132.0
1101.574829	200.0
1102.123169	208.0
1102.294922	184.0
1102.513062	168.0
1102.658447	164.0
1103.240112	132.0
1103.445068	152.0
1103.617065	68.0
1105.085449	176.0
1106.707031	180.0
1107.276611	144.0
1108.555664	200.0
1109.012573	184.0
1110.842651	208.0
1110.941284	164.0
1111.088135	180.0
1112.189697	140.0
1112.634521	132.0
1112.734131	208.0
1112.900146	148.0
1113.258667	56.0
1113.400024	268.0
1114.640503	140.0
1115.019287	64.0
1115.285156	144.0
1115.371582	184.0
1115.418091	188.0
1115.916626	188.0
1116.156006	120.0
1116.262451	84.0
1116.76123	252.0
1116.894287	120.0
1117.120483	284.0
1117.273438	124.0
1117.679321	216.0
1118.284912	160.0
1118.571167	172.0
1119.296875	208.0
1119.618774	192.0
1119.689819	136.0
1120.069458	128.0
1120.555786	160.0
1120.995605	224.0
1121.055542	144.0
1121.475464	184.0
1122.095337	140.0
1122.308716	152.0
1122.422119	124.0
1122.928955	132.0
1123.89624	112.0
1123.976318	164.0
1124.123169	128.0
1124.290039	108.0
1124.52356	52.0
1124.657104	48.0
1124.977539	140.0
1125.044312	116.0
1125.725342	164.0
1125.925659	172.0
1126.065918	188.0
1126.613647	164.0
1127.197632	152.0
1127.408813	172.0
1127.696289	144.0
1127.876709	188.0
1128.518555	164.0
1128.779297	108.0
1129.187256	172.0
1130.849365	232.0
1131.166626	180.0
1131.328491	72.0
1132.265991	128.0
1132.654419	100.0
1132.828613	224.0
1134.242554	184.0
1135.429321	104.0
1135.516602	208.0
1135.825073	216.0
1135.87207	136.0
1136.308105	124.0
1136.519165	172.0
1136.764404	172.0
1137.38855	216.0
1137.482544	116.0
1138.268066	160.0
1138.650879	180.0
1138.929932	184.0
1139.410034	156.0
1140.229736	164.0
1141.231445	156.0
1142.529541	156.0
1142.637207	112.0
1142.912964	104.0
1143.21582	100.0
1143.518677	132.0
1144.097656	176.0
1144.191895	132.0
1144.925781	212.0
1145.390625	40.0
1146.509033	188.0
1146.571899	232.0
1146.724731	160.0
1148.100098	224.0
1148.309204	168.0
1148.356445	116.0
1148.498047	156.0
1148.585693	104.0
1148.653198	152.0
1149.004028	148.0
1149.098511	44.0
1149.240112	160.0
1149.348145	148.0
1149.550537	176.0
1149.820557	124.0
1150.83313	120.0
1151.204468	36.0
1151.332764	124.0
1151.582764	180.0
1152.231201	120.0
1152.508301	92.0
1152.832642	160.0
1153.623413	208.0
1153.724854	176.0
1154.218384	192.0
1154.881714	148.0
1155.172119	164.0
1155.578003	48.0
1155.692993	208.0
1155.91626	168.0
1156.038086	92.0
1156.342651	160.0
1156.518677	200.0
1156.606689	188.0
1156.70813	136.0
1156.999268	80.0
1157.195679	204.0
1157.270142	44.0
1157.419067	180.0
1158.121216	136.0
1159.085449	64.0
1159.275146	204.0
1159.356567	228.0
1159.654785	152.0
1159.864868	208.0
1159.946167	152.0
1161.044678	180.0
1161.471924	148.0
1161.716309	156.0
1161.912842	208.0
1162.089355	40.0
1162.319946	136.0
1162.808594	236.0
1163.209106	184.0
1163.66394	136.0
1164.064575	188.0
1164.118896	132.0
1164.492432	144.0
1164.546753	184.0
1164.730225	208.0
1164.845703	60.0
1165.253296	208.0
1166.877686	256.0
1167.183716	164.0
1167.265259	220.0
1167.333252	144.0
1167.428467	156.0
1167.85022	148.0
1168.700562	88.0
1169.687378	156.0
1169.83606	372.0
1170.22522	152.0
1170.340942	232.0
1170.878906	144.0
1171.392822	164.0
1171.684937	136.0
1171.907593	200.0
1171.996216	132.0
1172.18042	116.0
1172.40625	188.0
1172.541382	176.0
1172.786743	168.0
1172.861694	140.0
1172.950317	160.0
1173.134399	184.0
1173.659424	136.0
1174.04126	116.0
1174.218628	124.0
1174.314087	80.0
1174.546021	116.0
1174.75061	172.0
1175.037109	184.0
1175.166748	164.0
1175.796021	156.0
1176.245117	148.0
1176.477051	176.0
1176.593262	72.0
1177.37561	212.0
1177.535645	204.0
1178.109375	136.0
1178.389526	132.0
1178.478394	128.0
1178.594482	188.0
1178.860962	128.0
1179.457153	164.0
1179.599243	200.0
1179.715454	132.0
1180.023071	132.0
1180.371826	140.0
1180.624878	96.0
1180.8573	96.0
1181.175659	128.0
1181.377197	164.0
1181.514038	184.0
1181.78772	176.0
1182.266724	124.0
1182.465942	164.0
1182.678589	164.0
1183.820801	92.0
1184.108398	196.0
1185.225098	156.0
1185.293579	168.0
1186.307983	108.0
1186.705688	152.0
1187.192505	148.0
1187.850952	120.0
1188.17334	204.0
1188.269409	92.0
1188.331177	104.0
1188.76355	136.0
1189.01001	184.0
1189.256836	220.0
1189.902954	172.0
1190.12146	168.0
1190.198242	156.0
1190.4729	144.0
1190.582764	136.0
1191.702515	176.0
1191.915527	120.0
1191.970459	68.0
1192.08728	176.0
1192.925781	124.0
1193.365845	120.0
1193.826538	164.0
1193.991577	108.0
1194.466187	196.0
1195.030396	132.0
1195.37439	76.0
1195.821777	140.0
1196.709839	128.0
1196.875	116.0
1197.136719	188.0
1198.411133	64.0
1198.56665	160.0
1199.114014	84.0
1199.272583	124.0
1199.92749	84.0
1200.35498	72.0
1200.775635	48.0
1200.92041	152.0
1201.030884	124.0
1201.281494	168.0
1201.665527	136.0
1201.713867	308.0
1201.996704	152.0
1202.513672	180.0
1202.776611	104.0
1202.914673	148.0
1203.2323	172.0
1203.287476	144.0
1203.377197	76.0
1203.908936	120.0
1204.806885	316.0
1205.034912	148.0
1205.470215	168.0
1205.974731	120.0
1206.050781	100.0
1206.292725	192.0
1206.437866	184.0
1206.825073	180.0
1207.13623	184.0
1207.31604	124.0
1207.800171	168.0
1208.433838	188.0
1208.734253	152.0
1208.914185	200.0
1209.089966	100.0
1209.737793	152.0
1210.20166	188.0
1210.277832	44.0
1210.840088	192.0
1211.039673	116.0
1211.365234	176.0
1211.455322	156.0
1211.648438	140.0
1211.891724	212.0
1212.376831	60.0
1212.955933	144.0
1213.00061	212.0
1213.17395	148.0
1213.250244	188.0
1213.340332	116.0
1213.645386	164.0
1213.901978	152.0
1214.616333	232.0
1214.803711	236.0
1214.907715	112.0
1215.129761	168.0
1215.178345	216.0
1215.372559	156.0
1215.442017	144.0
1216.024902	156.0
1216.12207	192.0
1217.587158	120.0
1217.788574	172.0
1217.871826	124.0
1218.226196	104.0
1218.879272	52.0
1219.153564	148.0
1219.761963	204.0
1219.914795	40.0
1220.401489	156.0
1220.87439	40.0
1221.173462	92.0
1221.423828	164.0
1221.736938	160.0
1221.980469	148.0
1222.258789	116.0
1222.585815	108.0
1222.67627	72.0
1222.773682	164.0
1223.128662	152.0
1223.268799	124.0
1223.337524	120.0
1223.462891	132.0
1223.734375	176.0
1224.033813	104.0
1224.152222	204.0
1224.256714	128.0
1224.542236	164.0
1225.371216	160.0
1226.493164	168.0
1226.597778	132.0
1226.709229	180.0
1226.779053	52.0
1227.413452	108.0
1227.497192	116.0
1228.069092	180.0
1228.215576	68.0
1228.836426	112.0
1228.98291	132.0
1229.338867	40.0
1229.480591	176.0
1229.799438	188.0
1230.176392	112.0
1231.014282	180.0
1231.32605	112.0
1231.461304	112.0
1231.859375	112.0
1231.957153	48.0
1232.0271	144.0
1232.103882	172.0
1232.348511	124.0
1232.411377	96.0
1232.481201	156.0
1232.58606	132.0
1233.099365	168.0
1234.508423	120.0
1234.82312	288.0
1235.23584	132.0
1235.403809	204.0
1235.893555	120.0
1236.264404	108.0
1237.006348	92.0
1237.132324	152.0
1237.412354	160.0
1237.461426	164.0
1237.699463	188.0
1237.923584	128.0
1238.133667	136.0
1238.378784	52.0
1238.785034	108.0
1239.000366	184.0
1239.128296	120.0
1239.408569	156.0
1239.786987	164.0
1239.906128	164.0
1240.221558	160.0
1240.291626	108.0
1240.466919	160.0
1240.607178	128.0
1240.663208	120.0
1241.343384	128.0
1241.476562	148.0
1242.248169	204.0
1242.830444	172.0
1243.019897	56.0
1243.111206	144.0
1243.36377	192.0
1243.777954	76.0
1243.897217	132.0
1244.227173	32.0
1244.437866	68.0
1244.613403	100.0
1244.978516	168.0
1245.238403	196.0
1245.898682	184.0
1245.959961	236.0
1246.074341	184.0
1246.155151	64.0
1246.545166	172.0
1246.819214	144.0
1246.904907	124.0
1247.247925	252.0
1247.423706	96.0
1247.486938	132.0
1248.197144	44.0
1248.464355	128.0
1248.822998	172.0
1249.174683	180.0
1249.343628	136.0
1249.885376	168.0
1249.976807	148.0
1250.047241	184.0
1250.237183	184.0
1250.363892	168.0
1250.71582	148.0
1250.927002	156.0
1251.206299	248.0
1251.483154	184.0
1251.762085	196.0
1251.905762	80.0
1251.962036	92.0
1252.264893	152.0
1252.356445	172.0
1252.469116	84.0
1252.772095	88.0
1252.863647	132.0
1252.920044	40.0
1252.96936	216.0
1253.166626	204.0
1253.476685	96.0
1254.505737	160.0
1254.555054	184.0
1254.608765	228.0
1255.147339	112.0
1255.260132	64.0
1255.4646	216.0
1255.563354	228.0
1256.141602	148.0
1256.18335	188.0
1256.229126	200.0
1256.42395	192.0
1256.699097	108.0
1256.84021	36.0
1256.895996	156.0
1257.29895	128.0
1257.397705	192.0
1257.546021	200.0
1257.687134	236.0
1257.792969	168.0
1258.018921	108.0
1258.710815	140.0
1258.781494	160.0
1259.106323	84.0
1259.508911	96.0
1259.869263	188.0
1259.939819	108.0
1260.267456	184.0
1260.321411	164.0
1260.964478	152.0
1261.40979	148.0
1261.614868	184.0
1262.010742	208.0
1262.074341	56.0
1262.244141	196.0
1262.477417	140.0
1262.823975	112.0
1262.894775	208.0
1263.071533	108.0
1263.227173	140.0
1263.319214	120.0
1263.375732	64.0
1263.446533	164.0
1263.545532	200.0
1263.948853	156.0
1264.274414	92.0
1264.323975	204.0
1264.798218	124.0
1264.953857	104.0
1265.067139	76.0
1265.123779	164.0
1265.385742	132.0
1266.008911	176.0
1266.575562	136.0
1266.668213	132.0
1267.177734	124.0
1268.170166	168.0
1268.254883	144.0
1268.339966	80.0
1268.474609	200.0
1269.34668	136.0
1269.715454	112.0
1269.8573	184.0
1269.984985	152.0
1270.162354	160.0
1270.382202	140.0
1270.666016	196.0
1270.875366	176.0
1271.077515	84.0
1271.240723	320.0
1271.35437	120.0
1271.567261	184.0
1271.709229	160.0
1271.872437	128.0
1272.490112	112.0
1273.051636	140.0
1274.572998	208.0
1274.637207	128.0
1274.690186	136.0
1274.74646	172.0
1275.530762	40.0
1275.586914	156.0
1275.722656	120.0
1275.840698	180.0
1275.914551	136.0
1275.971436	136.0
1276.092407	136.0
1276.284302	172.0
1276.447876	172.0
1277.038208	104.0
1277.464966	128.0
1277.678345	144.0
1277.856323	160.0
1278.105347	108.0
1278.171387	184.0
1278.582153	136.0
1278.696045	88.0
1278.855591	228.0
1279.030518	124.0
1279.233643	144.0
1279.792236	144.0
1280.376221	48.0
1280.468872	104.0
1280.580322	192.0
1280.703857	112.0
1280.753784	84.0
1281.32605	224.0
1281.624512	180.0
1282.078979	144.0
1282.171631	204.0
1283.133911	152.0
1284.025269	216.0
1284.086426	60.0
1284.160889	208.0
1284.727783	108.0
1285.073975	96.0
1285.238037	168.0
1285.392456	216.0
1286.223022	116.0
1286.596558	132.0
1286.687012	156.0
1286.979248	188.0
1287.801025	84.0
1288.243896	228.0
1288.473022	172.0
1288.786865	124.0
1288.886963	288.0
1288.941772	452.0
1289.35144	148.0
1289.601562	160.0
1289.723145	192.0
1289.973267	80.0
1290.151978	188.0
1290.845581	208.0
1290.974243	160.0
1291.045776	148.0
1291.174561	124.0
1291.331909	216.0
1291.424927	156.0
1291.61084	224.0
1292.125488	176.0
1292.233276	172.0
1292.333374	156.0
1292.56958	132.0
1292.913086	148.0
1293.006104	120.0
1293.063354	148.0
1293.406982	76.0
1293.5	180.0
1293.578735	292.0
1293.972534	184.0
1294.194458	168.0
1294.568115	208.0
1295.118286	144.0
1295.225708	184.0
1295.619751	168.0
1295.705688	64.0
1295.820312	140.0
1296.264648	244.0
1296.407959	156.0
1296.579956	128.0
1297.23938	44.0
1297.411499	44.0
1297.533325	164.0
1297.963501	192.0
1298.114136	180.0
1298.637695	136.0
1299.146973	132.0
1300.31665	124.0
1300.539185	236.0
1300.668335	176.0
1300.72583	288.0
1301.242676	176.0
1301.415039	148.0
1301.702271	220.0
1302.032227	148.0
1302.190552	144.0
1302.340942	128.0
1302.434814	176.0
1302.865845	152.0
1303.203491	144.0
1303.404663	88.0
1303.88623	160.0
1303.943726	120.0
1304.144897	32.0
1304.310303	304.0
1304.497192	184.0
1304.705688	156.0
1305.176636	176.0
1305.395874	208.0
1305.587646	132.0
1305.654785	144.0
1306.122314	144.0
1306.172729	128.0
1306.417236	152.0
1306.827393	132.0
1307.309448	144.0
1307.431885	56.0
1307.597412	192.0
1307.950073	192.0
1308.029297	164.0
1308.137207	164.0
1308.28125	156.0
1308.439575	168.0
1308.588013	204.0
1309.159668	156.0
1309.354126	148.0
1309.541382	132.0
1309.721436	164.0
1309.807861	140.0
1309.901489	156.0
1310.211304	96.0
1310.910278	164.0
1311.195557	68.0
1311.240967	336.0
1311.554932	376.0
1312.373535	224.0
1312.643433	260.0
1312.749268	152.0
1313.036987	160.0
1313.715088	232.0
1313.808838	112.0
1314.191284	144.0
1314.746948	228.0
1314.794434	160.0
1315.122192	188.0
1315.439819	136.0
1315.836914	164.0
1315.909058	144.0
1316.522827	220.0
1316.616821	148.0
1316.667358	68.0
1316.7323	192.0
1316.870239	176.0
1316.948975	172.0
1317.050171	164.0
1317.151245	152.0
1317.274048	88.0
1317.339111	168.0
1317.606323	108.0
1317.678589	52.0
1318.054321	176.0
1318.256714	264.0
1318.473511	172.0
1318.603638	160.0
1318.784302	76.0
1318.957764	164.0
1319.022827	132.0
1319.290283	152.0
1319.615601	152.0
1319.724121	196.0
1320.078491	204.0
1320.244751	148.0
1320.584717	152.0
1320.671509	108.0
1320.780029	160.0
1321.163452	108.0
1321.423828	196.0
1321.568359	184.0
1321.58728	180.0
1321.698853	144.0
1321.763916	116.0
1322.017212	128.0
1322.364624	152.0
1322.610718	96.0
1322.921997	152.0
1323.189819	132.0
1323.283936	152.0
1323.856079	128.0
1324.131226	148.0
1324.254395	188.0
1324.334106	112.0
1324.449951	196.0
1324.522339	152.0
1324.580322	124.0
1324.739746	84.0
1324.884644	164.0
1325.240723	236.0
1325.312012	112.0
1325.413574	128.0
1325.601929	80.0
1325.674438	200.0
1325.732422	172.0
1325.934692	156.0
1326.196167	92.0
1326.333984	124.0
1326.435425	100.0
1326.57312	172.0
1327.431396	320.0
1327.547119	160.0
1327.682495	168.0
1327.81311	104.0
1328.320801	196.0
1328.574707	120.0
1329.017334	108.0
1329.162476	136.0
1329.438232	96.0
1329.626953	116.0
1329.99707	48.0
1330.099243	152.0
1330.356445	188.0
1330.455444	180.0
1331.042603	164.0
1331.485596	64.0
1331.848755	176.0
1332.20459	116.0
1332.393555	128.0
1332.916748	128.0
1333.069336	188.0
1333.141968	132.0
1333.672485	172.0
1333.774292	152.0
1334.130493	148.0
1334.59668	256.0
1335.22876	208.0
1335.286743	160.0
1335.381226	100.0
1335.461304	136.0
1335.91394	168.0
1335.984985	92.0
1337.251221	120.0
1337.556885	60.0
1337.921997	184.0
1338.153809	156.0
1338.235107	172.0
1338.379517	244.0
1338.476562	172.0
1338.7146	164.0
1338.889282	204.0
1339.056885	168.0
1339.425049	192.0
1339.486572	180.0
1339.559448	124.0
1340.07666	128.0
1340.181885	184.0
1340.258911	88.0
1340.528442	120.0
1340.72522	156.0
1340.849121	88.0
1340.936646	232.0
1341.337524	188.0
1341.539795	212.0
1341.898926	208.0
1342.241577	184.0
1342.634888	172.0
1342.868774	96.0
1343.313721	136.0
1343.824463	120.0
1343.890137	440.0
1344.032837	184.0
1344.247681	232.0
1344.393555	200.0
1344.473877	164.0
1344.670898	148.0
1344.907715	216.0
1345.050537	140.0
1345.116211	180.0
1345.269531	40.0
1345.393555	120.0
1345.576172	124.0
1345.700195	36.0
1346.37207	164.0
1346.72998	148.0
1346.868774	140.0
1346.935547	196.0
1347.445923	108.0
1347.557617	212.0
1347.723511	176.0
1348.008545	132.0
1348.154663	152.0
1348.300781	124.0
1348.870972	172.0
1349.046387	184.0
1349.251099	132.0
1349.331543	332.0
1349.441162	80.0
1349.667847	148.0
1349.770264	148.0
1349.858032	172.0
1349.958008	160.0
1350.377197	164.0
1350.530884	112.0
1350.977051	172.0
1351.848389	176.0
1351.906372	80.0
1352.082153	156.0
1352.477173	192.0
1352.872559	72.0
1353.210571	188.0
1353.696167	332.0
1353.856323	212.0
1353.912231	120.0
1353.980469	140.0
1354.049927	160.0
1354.542236	148.0
1354.615479	124.0
1354.974365	56.0
1355.128296	164.0
1355.201538	188.0
1355.509277	160.0
1355.633911	148.0
1355.729126	176.0
1356.425415	204.0
1356.550049	204.0
1356.630737	68.0
1357.129272	76.0
1357.217285	136.0
1357.276001	172.0
1357.671997	144.0
1357.752563	172.0
1358.177979	184.0
1358.236694	136.0
1358.302002	292.0
1358.398071	120.0
1358.662231	116.0
1358.823608	100.0
1359.251587	148.0
1359.329956	100.0
1359.623413	272.0
1359.748169	156.0
1359.858276	184.0
1360.093262	140.0
1360.313477	64.0
1360.474976	180.0
1360.577759	80.0
1361.13623	160.0
1361.216553	168.0
1361.740845	236.0
1361.898315	236.0
1362.435791	108.0
1363.134644	204.0
1363.42041	188.0
1363.486572	136.0
1363.714478	52.0
1363.78064	136.0
1364.118774	180.0
1364.530396	52.0
1364.611328	148.0
1365.118652	152.0
1365.243652	108.0
1365.420166	156.0
1365.559937	60.0
1365.729126	92.0
1365.817383	164.0
1366.060181	128.0
1366.212524	168.0
1366.369141	200.0
1366.575195	176.0
1366.707642	76.0
1367.031372	152.0
1367.208008	88.0
1367.743774	176.0
1367.863037	84.0
1368.120728	216.0
1368.275391	188.0
1368.411743	160.0
1369.041138	164.0
1369.107422	200.0
1369.210571	180.0
1369.416748	104.0
1369.932373	144.0
1370.131348	56.0
1370.290161	240.0
1370.412964	200.0
1370.477539	156.0
1370.706055	144.0
1370.794434	144.0
1370.882935	176.0
1370.978638	204.0
1371.148193	164.0
1371.568359	96.0
1371.664185	204.0
1371.783447	212.0
1372.041992	208.0
1372.290771	160.0
1372.357178	184.0
1372.408813	180.0
1372.511963	132.0
1372.57019	148.0
1372.851196	112.0
1372.947144	212.0
1373.153564	56.0
1373.293701	172.0
1373.640503	240.0
1373.692139	56.0
1373.832275	176.0
1373.906006	132.0
1374.230713	220.0
1374.518433	172.0
1374.776733	180.0
1374.880005	160.0
1375.633423	192.0
1375.736328	124.0
1375.810059	156.0
1375.891357	88.0
1376.408203	132.0
1376.61499	116.0
1376.777466	60.0
1377.021118	148.0
1377.294434	168.0
1377.456909	104.0
1377.781982	140.0
1378.018433	128.0
1378.336182	88.0
1378.469116	180.0
1378.63916	128.0
1378.722168	156.0
1378.779541	156.0
1378.934814	152.0
1379.103638	192.0
1379.444824	232.0
1379.557007	156.0
1379.656128	156.0
1379.880981	64.0
1379.991943	160.0
1380.414307	208.0
1380.568726	48.0
1380.657471	252.0
1380.716553	88.0
1381.138184	132.0
1381.271362	228.0
1381.707764	124.0
1382.196167	148.0
1382.366333	240.0
1382.418213	196.0
1382.825195	156.0
1382.928833	180.0
1383.335938	80.0
1383.56543	176.0
1383.710571	184.0
1383.787598	196.0
1383.913452	208.0
1384.076294	156.0
1384.468872	132.0
1384.528076	60.0
1384.772461	72.0
1385.098389	108.0
1385.236328	148.0
1385.920776	152.0
1385.984863	236.0
1386.194946	112.0
1386.491333	132.0
1386.817505	208.0
1386.987915	188.0
1387.143677	148.0
1387.435547	140.0
1388.115356	152.0
1388.32251	144.0
1388.411621	232.0
1388.789795	168.0
1388.908447	160.0
1388.97522	132.0
1389.160767	208.0
1389.450073	108.0
1389.620728	208.0
1389.754272	68.0
1390.229126	108.0
1390.327881	208.0
1390.414673	88.0
1390.713867	80.0
1390.837769	192.0
1390.993652	160.0
1391.89209	168.0
1392.118652	208.0
1392.449463	208.0
1392.805542	116.0
1392.879883	88.0
1393.674805	48.0
1393.75647	64.0
1394.313843	180.0
1394.455078	176.0
1394.588867	104.0
1394.848877	168.0
1395.19104	124.0
1395.280273	136.0
1395.577637	40.0
1395.747803	132.0
1396.053589	164.0
1396.105591	136.0
1396.432861	200.0
1396.55188	148.0
1396.678345	132.0
1396.730103	124.0
1396.777466	180.0
1396.938721	40.0
1397.102295	44.0
1397.184204	124.0
1397.340454	168.0
1397.861328	160.0
1398.203613	104.0
1398.552612	204.0
1398.660156	240.0
1398.734619	204.0
1399.022461	124.0
1399.335083	176.0
1399.394653	172.0
1399.558472	132.0
1399.841431	144.0
1400.027588	92.0
1400.131958	172.0
1400.28833	360.0
1400.392578	132.0
1400.608643	200.0
1401.003418	204.0
1401.064087	192.0
1401.547363	144.0
1401.688843	168.0
1402.061523	136.0
1402.203125	160.0
1402.988403	184.0
1403.105103	156.0
1403.19458	180.0
1403.358643	136.0
1403.463013	152.0
1404.111816	168.0
1404.186401	148.0
1404.268433	416.0
1404.991943	120.0
1405.118774	160.0
1405.736938	144.0
1405.879883	120.0
1406.245605	168.0
1406.380005	164.0
1407.156372	180.0
1407.238525	176.0
1407.410278	48.0
1407.744019	196.0
1408.130493	248.0
1408.224243	156.0
1408.448364	112.0
1408.582764	160.0
1408.635132	192.0
1408.806885	76.0
1409.02356	144.0
1409.240234	176.0
1409.449463	144.0
1409.770508	172.0
1409.942749	156.0
1410.613037	160.0
1410.847168	92.0
1411.14624	132.0
1411.415405	100.0
1411.527588	136.0
1411.669678	232.0
1411.766846	128.0
1411.998779	200.0
1412.106934	160.0
1412.484863	108.0
1412.5896	160.0
1412.862793	124.0
1413.143311	200.0
1413.225586	96.0
1413.283813	200.0
1413.726929	176.0
1414.04126	128.0
1414.310791	116.0
1414.610107	48.0
1414.662598	180.0
1414.822998	164.0
1415.04541	148.0
1415.20166	180.0
1415.328857	196.0
1415.42627	124.0
1415.501099	168.0
1415.755737	132.0
1415.808228	200.0
1416.025391	168.0
1416.212646	156.0
1416.489746	156.0
1416.763306	164.0
1417.179077	116.0
1417.283936	344.0
1417.448853	128.0
1417.58374	128.0
1417.988403	64.0
1418.235718	128.0
1418.393188	164.0
1418.580566	164.0
1418.633057	120.0
1418.80542	144.0
1418.85791	52.0
1418.932983	192.0
1419.037842	52.0
1419.555298	180.0
1419.630249	152.0
1419.717896	168.0
1419.795288	100.0
1419.907715	216.0
1419.964233	224.0
1420.117798	148.0
1420.447876	132.0
1420.560303	148.0
1420.894775	172.0
1421.036743	440.0
1421.19812	268.0
1421.292847	224.0
1421.355713	164.0
1421.408203	136.0
1421.580811	216.0
1421.678345	104.0
1421.760864	176.0
1421.818481	180.0
1422.038574	136.0
1422.140747	192.0
1422.248779	148.0
1422.36377	196.0
1422.631592	156.0
1422.744263	104.0
1422.870728	136.0
1422.894409	116.0
1422.919067	136.0
1422.999512	112.0
1423.47522	176.0
1423.660278	76.0
1423.727905	144.0
1424.005737	28.0
1424.381348	216.0
1424.501587	220.0
1424.711914	148.0
1424.930176	344.0
1425.003906	144.0
1425.222778	176.0
1425.696167	32.0
1425.981812	52.0
1426.357666	68.0
1426.567261	180.0
1426.588745	160.0
1426.66394	260.0
1426.756104	148.0
1427.047241	220.0
1427.139526	184.0
1427.372681	156.0
1427.853882	216.0
1427.914062	56.0
1428.049438	88.0
1428.154785	216.0
1428.267578	116.0
1428.418091	148.0
1428.613647	140.0
1428.809326	116.0
1428.952271	128.0
1429.162842	140.0
1429.366089	232.0
1429.42627	184.0
1429.599365	164.0
1429.892822	36.0
1430.178833	148.0
1430.374634	192.0
1431.068115	180.0
1431.323242	196.0
1431.4104	200.0
1431.488892	156.0
1432.008545	156.0
1432.46521	148.0
1432.66394	152.0
1432.870239	228.0
1433.040649	88.0
1433.229004	132.0
1433.522949	128.0
1433.647095	156.0
1433.70752	104.0
1433.730103	200.0
1433.884644	152.0
1434.103271	132.0
1434.465088	152.0
1434.585693	112.0
1434.912842	204.0
1435.168091	144.0
1435.422607	164.0
1435.792114	124.0
1436.45874	340.0
1436.712402	168.0
1436.97644	60.0
1437.10498	208.0
1437.395874	196.0
1437.564453	408.0
1437.637085	176.0
1438.06311	156.0
1438.297119	180.0
1438.402832	196.0
1438.647339	200.0
1438.802856	132.0
1438.885986	152.0
1439.331421	144.0
1439.562378	208.0
1439.663696	168.0
1440.033813	56.0
1440.289917	172.0
1440.366211	160.0
1440.575928	172.0
1440.698486	100.0
1440.819214	180.0
1441.401245	108.0
1441.522095	116.0
1441.620361	268.0
1441.794189	228.0
1441.850342	160.0
1442.051147	160.0
1442.149414	184.0
1442.33374	168.0
1442.791992	200.0
1443.669067	144.0
1444.115356	116.0
1444.773438	188.0
1444.909668	76.0
1445.401489	168.0
1445.469604	216.0
1445.560425	120.0
1445.900879	164.0
1445.974854	140.0
1446.264282	236.0
1446.339966	120.0
1446.483765	100.0
1446.582153	156.0
1446.809326	116.0
1446.937988	196.0
1447.036377	144.0
1447.187866	164.0
1447.418701	160.0
1447.596802	156.0
1447.69519	128.0
1447.831543	152.0
1448.096558	112.0
1448.149658	52.0
1448.399536	92.0
1448.725342	152.0
1448.818604	96.0
1449.02832	216.0
1449.119263	176.0
1449.301147	196.0
1449.520874	108.0
1449.702759	144.0
1449.952881	124.0
1450.10376	228.0
1450.225708	136.0
1450.400024	156.0
1450.536499	92.0
1450.809448	148.0
1450.862549	132.0
1451.067139	188.0
1451.594971	112.0
1451.673828	132.0
1451.840698	208.0
1452.036255	156.0
1452.050049	124.0
1452.189575	176.0
1452.386719	152.0
1453.145386	104.0
1453.433716	144.0
1453.585449	124.0
1453.64624	148.0
1454.185059	152.0
1454.306519	160.0
1454.549438	152.0
1454.670898	112.0
1454.737305	176.0
1454.89856	200.0
1454.951782	120.0
1455.035278	168.0
1455.217529	204.0
1455.574341	144.0
1455.627563	140.0
1455.701416	160.0
1455.809814	208.0
1455.938843	148.0
1455.992065	48.0
1456.08313	108.0
1456.690796	64.0
1456.979492	164.0
1457.101074	68.0
1457.154297	88.0
1457.222656	100.0
1457.3927	176.0
1457.53418	180.0
1458.224243	232.0
1458.529785	196.0
1458.688477	196.0
1458.909912	184.0
1459.104736	140.0
1459.480103	200.0
1459.95166	124.0
1460.172119	176.0
1460.285034	172.0
1460.430786	128.0
1460.697021	80.0
1460.910034	128.0
1461.426758	184.0
1461.653564	172.0
1461.792114	120.0
1461.914429	164.0
1462.013306	160.0
1462.333008	144.0
1462.523315	92.0
1462.637451	136.0
1462.766846	192.0
1463.048584	200.0
1463.307373	180.0
1463.393311	164.0
1463.528198	88.0
1463.672852	72.0
1463.749023	136.0
1463.859253	316.0
1464.023193	232.0
1464.076538	204.0
1464.518188	156.0
1464.609619	128.0
1465.104858	160.0
1465.196289	148.0
1465.394287	168.0
1465.462891	96.0
1466.014282	232.0
1466.07251	176.0
1466.219238	144.0
1466.560303	176.0
1466.618896	140.0
1466.693115	192.0
1466.781372	160.0
1466.892212	200.0
1467.276855	204.0
1467.421753	168.0
1467.581909	192.0
1467.639893	140.0
1467.703857	168.0
1467.764893	124.0
1467.848755	124.0
1468.046509	168.0
1468.13855	148.0
1468.199585	168.0
1468.474121	188.0
1468.596191	168.0
1468.8479	108.0
1468.940796	132.0
1469.084351	128.0
1469.153076	148.0
1469.305664	224.0
1469.481079	112.0
1469.671875	160.0
1469.825195	160.0
1469.961792	116.0
1470.068604	164.0
1470.259399	36.0
1470.511353	88.0
1470.572388	168.0
1470.625854	156.0
1471.373901	128.0
1471.488403	184.0
1471.679321	176.0
1472.18335	164.0
1472.286255	168.0
1472.412476	128.0
1472.659912	216.0
1472.80957	160.0
1473.16394	196.0
1473.321411	120.0
1473.436035	164.0
1473.756958	128.0
1474.589966	112.0
1474.696899	144.0
1475.392578	224.0
1475.449707	140.0
1475.585083	112.0
1475.904785	156.0
1475.962646	152.0
1476.057739	132.0
1476.134277	192.0
1476.195435	240.0
1476.301514	132.0
1477.350342	124.0
1477.42688	176.0
1477.549316	104.0
1477.639038	144.0
1478.176758	184.0
1478.375732	48.0
1478.482788	192.0
1478.666504	168.0
1479.079834	224.0
1479.240601	184.0
1479.454956	168.0
1479.531494	144.0
1479.699951	160.0
1479.860718	172.0
1479.990967	168.0
1480.166992	120.0
1480.243652	168.0
1480.38147	152.0
1480.588257	104.0
1480.847168	168.0
1480.932861	100.0
1481.729614	124.0
1481.867554	172.0
1482.323242	120.0
1482.43457	152.0
1482.526489	84.0
1482.656738	104.0
1482.94043	144.0
1483.12439	176.0
1483.354248	204.0
1483.699219	160.0
1483.91394	224.0
1484.098022	204.0
1484.220703	140.0
1484.353882	96.0
1484.420044	224.0
1484.816406	152.0
1485.035767	296.0
1485.110229	216.0
1485.217651	224.0
1485.279053	216.0
1485.440186	112.0
1485.539917	208.0
1485.677979	136.0
1485.77002	160.0
1486.000244	180.0
1486.349976	196.0
1486.575684	136.0
1487.005493	120.0
1487.059204	152.0
1487.151245	180.0
1487.297119	164.0
1487.477051	396.0
1487.796143	144.0
1487.865234	168.0
1488.057129	148.0
1488.233765	120.0
1488.302856	152.0
1488.371948	368.0
1488.563965	120.0
1488.832764	192.0
1489.232178	136.0
1489.362671	120.0
1489.477905	152.0
1490.249268	152.0
1490.376831	200.0
1490.653442	100.0
1490.776367	184.0
1490.837891	96.0
1490.904053	196.0
1491.69873	56.0
1491.778809	184.0
1491.948242	188.0
1492.029297	104.0
1492.09082	64.0
1492.444458	192.0
1492.698242	100.0
1492.752075	172.0
1492.913574	44.0
1493.144287	240.0
1493.228882	200.0
1493.728882	152.0
1493.928955	48.0
1494.136597	88.0
1494.236694	80.0
1494.328979	148.0
1494.552124	64.0
1494.694336	124.0
1494.767578	124.0
1494.898438	132.0
1494.967651	132.0
1495.129272	96.0
1495.313965	152.0
1495.439941	140.0
1495.508545	176.0
1495.591064	156.0
1495.714233	40.0
1495.806641	104.0
1496.153076	132.0
1496.241699	164.0
1496.46875	160.0
1497.192505	208.0
1497.345825	124.0
1497.454468	164.0
1497.631592	52.0
1497.908936	136.0
1498.140015	188.0
1498.19397	136.0
1498.309448	76.0
1498.51355	180.0
1498.825684	168.0
1498.902832	184.0
1498.995239	184.0
1499.187866	212.0
1499.334351	76.0
1499.42688	120.0
1499.650391	144.0
1499.773682	160.0
1499.843018	288.0
1500.69104	156.0
1500.822144	224.0
1501.053467	120.0
1501.238525	40.0
1501.354248	56.0
1501.685913	160.0
1501.863281	132.0
1501.94812	212.0
1502.171875	48.0
1502.241333	172.0
1502.295288	104.0
1502.366577	168.0
1502.441895	124.0
1502.569824	164.0
1502.691162	104.0
1502.771973	72.0
1503.147217	164.0
1503.383301	192.0
1503.437256	156.0
1503.607056	128.0
1503.830933	348.0
1503.936157	100.0
1504.101074	36.0
1504.492188	144.0
1504.857666	164.0
1504.942505	148.0
1505.205078	112.0
END IONS

BEGIN IONS
PEPMASS=462.242
CHARGE=1
MSLEVEL=2
SOURCE_INSTRUMENT=LC-ESI-qTof
FILENAME=p3-F05_GF5_01_18286.mzXML
SEQ=*..*
IONMODE=Positive
ORGANISM=GNPS-NIH-SMALLMOLECULEPHARMACOLOGICALLYACTIVE
NAME=MLS001077311-01!2062-78-4 M+H
PI=Dorrestein
DATACOLLECTOR=VP/LMS
SMILES=Oc1nc2ccccc2n1C3CCN(CCCC(c4ccc(F)cc4)c5ccc(F)cc5)CC3
INCHI=N/A
INCHIAUX=N/A
PUBMED=N/A
SUBMITUSER=vphelan
LIBRARYQUALITY=1
SPECTRUMID=CCMSLIB00000085145
USI=mzspec:GNPS:GNPS-NIH-SMALLMOLECULEPHARMACOLOGICALLYACTIVE:accession:CCMSLIB00000085145
SCANS=1970
44.89209	96.0
44.904091	100.0
44.930447	196.0
44.942783	168.0
44.97081	132.0
44.980152	428.0
44.989498	120.0
45.024807	316.0
45.03624	168.0
45.065628	152.0
45.096367	168.0
45.127117	128.0
45.159897	188.0
45.171253	204.0
45.191517	180.0
45.23415	172.0
45.251556	104.0
45.263607	168.0
45.274578	84.0
45.291733	160.0
45.303791	136.0
45.331928	112.0
45.341312	112.0
45.357395	88.0
45.411034	128.0
45.445431	156.0
45.519691	356.0
45.549046	152.0
45.554451	124.0
45.578854	176.0
45.595959	132.0
45.609287	112.0
45.644947	168.0
45.655483	144.0
45.664898	140.0
45.685562	144.0
45.712746	156.0
45.729179	176.0
45.733322	160.0
45.767181	148.0
45.797653	160.0
45.81028	220.0
45.8251	184.0
45.860142	96.0
45.884407	64.0
45.911377	176.0
45.927998	180.0
45.932335	104.0
45.935944	132.0
45.955894	68.0
45.976139	104.0
45.999084	240.0
46.038242	156.0
46.054821	148.0
46.074715	76.0
46.105877	176.0
46.149757	192.0
46.162979	228.0
46.172047	132.0
46.19482	196.0
46.228867	80.0
46.251877	160.0
46.271885	144.0
46.312813	188.0
46.344032	184.0
46.358883	56.0
46.395481	148.0
46.407204	136.0
46.436508	204.0
46.471436	152.0
46.51894	184.0
46.551525	72.0
46.619453	80.0
46.673832	160.0
46.699673	196.0
46.713276	76.0
46.744572	160.0
46.763626	128.0
46.820301	224.0
46.856541	212.0
46.913471	176.0
46.947563	116.0
46.972115	144.0
47.004993	208.0
47.010906	204.0
47.032158	140.0
47.05127	140.0
47.07312	76.0
47.086777	232.0
47.095928	160.0
47.126354	156.0
47.155094	256.0
47.201576	148.0
47.219357	156.0
47.238506	196.0
47.2486	148.0
47.264503	128.0
47.285034	112.0
47.30172	188.0
47.332951	100.0
47.35178	208.0
47.411308	184.0
47.424744	160.0
47.445995	120.0
47.472088	212.0
47.521393	136.0
47.537212	156.0
47.559143	184.0
47.583885	284.0
47.596241	96.0
47.630413	144.0
47.641571	120.0
47.655807	48.0
47.659843	120.0
47.680992	64.0
47.692417	148.0
47.706161	160.0
47.72509	188.0
47.74604	216.0
47.783184	132.0
47.81287	140.0
47.840687	164.0
47.863018	112.0
47.890682	236.0
47.920872	164.0
47.951191	124.0
47.969112	176.0
48.029675	192.0
48.049103	164.0
48.060143	52.0
48.077126	104.0
48.089931	164.0
48.104961	200.0
48.131924	196.0
48.156525	256.0
48.159546	208.0
48.165524	140.0
48.177505	192.0
48.21896	80.0
48.251877	180.0
48.268784	104.0
48.279797	116.0
48.296394	168.0
48.344341	196.0
48.394657	140.0
48.422352	272.0
48.445782	136.0
48.47916	140.0
48.548477	168.0
48.641445	144.0
48.679913	144.0
48.696442	132.0
48.73172	156.0
48.78891	136.0
48.799618	132.0
48.823051	160.0
48.852116	268.0
48.874943	148.0
48.898762	208.0
48.943054	112.0
48.989117	148.0
49.009686	168.0
49.033707	172.0
49.049042	184.0
49.060043	112.0
49.072044	140.0
49.107605	60.0
49.163418	196.0
49.180164	112.0
49.199619	124.0
49.202503	116.0
49.217312	132.0
49.247192	172.0
49.270939	120.0
49.287708	96.0
49.305874	128.0
49.332436	208.0
49.357601	168.0
49.434685	120.0
49.45414	180.0
49.472336	184.0
49.49194	152.0
49.521885	136.0
49.559845	84.0
49.586704	236.0
49.590267	152.0
49.64048	140.0
49.656578	84.0
49.669937	124.0
49.68116	176.0
49.69519	120.0
49.721024	88.0
49.729214	164.0
49.787842	148.0
49.821556	176.0
49.841225	148.0
49.887611	160.0
49.908699	176.0
49.924168	236.0
49.945484	164.0
49.969116	168.0
49.990292	148.0
50.005775	152.0
50.024075	52.0
50.05505	232.0
50.08181	164.0
50.124077	200.0
50.138172	192.0
50.151237	192.0
50.17482	180.0
50.231236	160.0
50.274975	168.0
50.31839	160.0
50.337093	112.0
50.356865	220.0
50.374008	128.0
50.392185	184.0
50.427513	76.0
50.455788	164.0
50.491142	40.0
50.518894	116.0
50.547729	156.0
50.563297	168.0
50.592873	220.0
50.611435	164.0
50.63126	320.0
50.653923	160.0
50.697281	140.0
50.712513	220.0
50.744629	104.0
50.758808	132.0
50.775826	116.0
50.81271	184.0
50.860962	184.0
50.876579	164.0
50.892078	144.0
50.913498	272.0
50.970325	92.0
50.984539	192.0
50.99733	160.0
51.020073	176.0
51.035717	152.0
51.054203	200.0
51.073853	144.0
51.092609	176.0
51.108261	72.0
51.129494	152.0
51.132751	192.0
51.187645	204.0
51.249634	384.0
51.263485	196.0
51.287712	148.0
51.316132	120.0
51.351269	160.0
51.381836	116.0
51.391827	112.0
51.420368	80.0
51.435429	160.0
51.454731	212.0
51.477474	200.0
51.510254	152.0
51.560341	168.0
51.579823	232.0
51.608944	232.0
51.628796	168.0
51.660435	100.0
51.684761	168.0
51.694778	152.0
51.71159	224.0
51.72913	152.0
51.753468	128.0
51.807659	312.0
51.846588	216.0
51.862354	276.0
51.873138	132.0
51.89246	132.0
51.922607	176.0
51.945526	140.0
51.955566	28.0
52.034508	168.0
52.064663	216.0
52.076153	172.0
52.086208	192.0
52.121338	116.0
52.16444	128.0
52.19746	148.0
52.226376	128.0
52.258736	432.0
52.283787	180.0
52.297592	144.0
52.329266	200.0
52.345104	132.0
52.366707	208.0
52.376221	172.0
52.396362	196.0
52.412811	140.0
52.440193	192.0
52.453167	164.0
52.490654	240.0
52.509403	60.0
52.522385	140.0
52.546913	208.0
52.571102	204.0
52.585033	212.0
52.606358	148.0
52.644489	208.0
52.659515	100.0
52.676849	60.0
52.695633	144.0
52.714417	120.0
52.738987	128.0
52.750553	32.0
52.77224	196.0
52.804054	344.0
52.837326	320.0
52.867714	208.0
52.880741	148.0
52.90535	72.0
52.940334	208.0
52.95686	316.0
52.98349	164.0
53.011089	104.0
53.038628	136.0
53.06205	208.0
53.088219	60.0
53.094337	124.0
53.212883	180.0
53.278862	164.0
53.299877	208.0
53.315865	148.0
53.333469	176.0
53.416195	84.0
53.442383	308.0
53.511845	244.0
53.54842	148.0
53.56031	144.0
53.571739	260.0
53.631798	136.0
53.649208	72.0
53.67271	200.0
53.693192	196.0
53.734528	244.0
53.773201	128.0
53.795097	128.0
53.816898	176.0
53.822556	164.0
53.845463	112.0
53.887112	112.0
53.8988	128.0
53.948498	120.0
53.993828	104.0
54.011379	152.0
54.079407	172.0
54.091866	120.0
54.181202	172.0
54.200249	164.0
54.232491	152.0
54.266384	148.0
54.298203	172.0
54.332214	156.0
54.348354	152.0
54.373081	160.0
54.411469	248.0
54.434963	124.0
54.507221	160.0
54.526051	160.0
54.553982	156.0
54.602509	192.0
54.627514	148.0
54.649582	168.0
54.680489	40.0
54.720234	180.0
54.777676	168.0
54.808617	128.0
54.85368	160.0
54.87347	76.0
54.893421	192.0
54.921818	92.0
54.963451	184.0
54.982635	180.0
55.004128	148.0
55.0284	52.0
55.068272	152.0
55.085678	192.0
55.102249	224.0
55.155689	176.0
55.19981	144.0
55.21312	252.0
55.241226	184.0
55.254883	172.0
55.275257	156.0
55.290367	152.0
55.338909	184.0
55.381855	132.0
55.402973	236.0
55.436676	312.0
55.458626	168.0
55.495972	64.0
55.530083	292.0
55.540466	160.0
55.570137	252.0
55.589428	148.0
55.599815	144.0
55.6166	196.0
55.672142	252.0
55.711185	264.0
55.745983	128.0
55.766171	208.0
55.778061	192.0
55.788467	68.0
55.800362	232.0
55.834564	164.0
55.845856	156.0
55.864315	140.0
55.882168	104.0
55.955101	188.0
56.030121	272.0
56.047089	164.0
56.092167	216.0
56.127949	48.0
56.147373	168.0
56.166729	140.0
56.245815	40.0
56.260647	180.0
56.287624	56.0
56.308533	192.0
56.328197	152.0
56.380096	196.0
56.429577	124.0
56.44453	120.0
56.459488	208.0
56.472946	144.0
56.50901	152.0
56.640331	112.0
56.665169	228.0
56.693043	148.0
56.711029	48.0
56.735016	132.0
56.74551	144.0
56.7995	188.0
56.819004	176.0
56.849194	148.0
56.870026	140.0
56.882305	156.0
56.898552	152.0
56.93396	160.0
56.95562	36.0
57.002647	224.0
57.00964	168.0
57.014946	364.0
57.03075	128.0
57.066948	156.0
57.122482	56.0
57.141357	116.0
57.152573	60.0
57.167622	180.0
57.178158	212.0
57.245102	128.0
57.256447	132.0
57.268497	112.0
57.295612	92.0
57.348358	180.0
57.394512	124.0
57.432232	204.0
57.450905	72.0
57.476837	192.0
57.500023	116.0
57.535419	144.0
57.54882	128.0
57.567131	96.0
57.585255	128.0
57.59885	52.0
57.647202	172.0
57.681892	168.0
57.707664	144.0
57.727325	124.0
57.757576	152.0
57.772701	104.0
57.786644	168.0
57.851398	124.0
57.863514	184.0
57.936211	88.0
57.952877	116.0
57.974918	324.0
58.024593	140.0
58.03928	128.0
58.070408	160.0
58.089333	148.0
58.102985	156.0
58.14378	136.0
58.152721	160.0
58.177353	96.0
58.187981	44.0
58.206203	112.0
58.217377	156.0
58.271519	60.0
58.288235	176.0
58.307991	172.0
58.322918	156.0
58.33297	148.0
58.337143	180.0
58.349033	156.0
58.360256	84.0
58.390842	228.0
58.42601	144.0
58.455513	52.0
58.46769	196.0
58.485954	212.0
58.52998	144.0
58.559803	120.0
58.615414	208.0
58.636913	408.0
58.673336	60.0
58.7015	136.0
58.719086	152.0
58.750061	144.0
58.770954	132.0
58.795372	96.0
58.81216	120.0
58.841248	152.0
58.859489	168.0
58.876289	108.0
58.891563	104.0
58.916759	168.0
58.937397	160.0
59.022881	104.0
59.044411	36.0
59.05946	200.0
59.117847	212.0
59.131622	68.0
59.15152	180.0
59.164242	304.0
59.198986	192.0
59.228088	124.0
59.276497	112.0
59.289379	144.0
59.30164	144.0
59.375237	216.0
59.409283	184.0
59.442741	188.0
59.511818	132.0
59.524101	136.0
59.567108	180.0
59.580936	168.0
59.616177	220.0
59.670422	144.0
59.686993	64.0
59.708523	148.0
59.803814	176.0
59.846062	172.0
59.86689	196.0
59.894772	164.0
59.917881	56.0
59.961029	188.0
59.981068	156.0
60.002651	188.0
60.040211	168.0
60.055084	108.0
60.115669	132.0
60.160789	156.0
60.184723	160.0
60.19862	164.0
60.220245	164.0
60.246922	208.0
60.32996	180.0
60.384083	140.0
60.397083	328.0
60.421963	136.0
60.44574	192.0
60.451942	144.0
60.45742	200.0
60.495499	184.0
60.507141	292.0
60.524918	160.0
60.538857	204.0
60.591522	240.0
60.603916	132.0
60.641491	164.0
60.662815	92.0
60.752636	148.0
60.783794	172.0
60.796211	124.0
60.855202	220.0
60.889366	100.0
60.917397	176.0
60.932861	112.0
60.957726	152.0
60.998135	92.0
61.046337	140.0
61.062305	164.0
61.078999	144.0
61.094559	160.0
61.144352	208.0
61.159412	148.0
61.180954	148.0
61.215969	184.0
61.246441	156.0
61.264256	144.0
61.298534	108.0
61.321915	216.0
61.371799	196.0
61.387394	140.0
61.403511	132.0
61.406868	148.0
61.434189	40.0
61.464828	176.0
61.475445	200.0
61.493488	56.0
61.520439	160.0
61.584049	160.0
61.61998	144.0
61.638733	164.0
61.663876	188.0
61.687187	100.0
61.704384	112.0
61.758335	424.0
61.812313	172.0
61.827965	152.0
61.840485	156.0
61.889019	128.0
61.906158	156.0
62.011215	116.0
62.028458	268.0
62.039165	164.0
62.121025	144.0
62.18375	192.0
62.24498	156.0
62.272224	324.0
62.319881	176.0
62.357635	180.0
62.380104	116.0
62.391109	168.0
62.403687	176.0
62.466599	84.0
62.494919	100.0
62.533672	128.0
62.548431	156.0
62.570469	124.0
62.592514	176.0
62.609837	200.0
62.6399	188.0
62.663399	120.0
62.674427	44.0
62.697075	184.0
62.728016	304.0
62.743782	120.0
62.756371	144.0
62.791088	176.0
62.8027	240.0
62.836838	48.0
62.879444	252.0
62.913403	180.0
62.936279	104.0
62.969955	184.0
62.981361	384.0
63.019997	148.0
63.03896	112.0
63.10004	200.0
63.124329	72.0
63.198517	40.0
63.223469	176.0
63.235519	144.0
63.258995	108.0
63.2794	116.0
63.296818	212.0
63.346333	200.0
63.358074	232.0
63.383945	256.0
63.463203	160.0
63.49968	176.0
63.551197	124.0
63.564121	272.0
63.586945	72.0
63.599644	152.0
63.65255	152.0
63.672684	116.0
63.693573	132.0
63.7509	156.0
63.754208	128.0
63.774372	128.0
63.793812	176.0
63.812527	180.0
63.832329	164.0
63.850693	64.0
63.863419	176.0
63.896828	132.0
63.960484	136.0
64.013023	32.0
64.08754	180.0
64.129333	128.0
64.160118	128.0
64.194702	84.0
64.207458	64.0
64.223412	76.0
64.274467	116.0
64.291138	224.0
64.309647	180.0
64.326797	188.0
64.397171	56.0
64.422958	100.0
64.443008	172.0
64.49675	160.0
64.529884	168.0
64.562019	180.0
64.589211	148.0
64.610008	60.0
64.640411	124.0
64.698547	176.0
64.717247	180.0
64.731659	160.0
64.773308	136.0
64.85022	40.0
64.890297	148.0
64.920769	152.0
64.978516	64.0
65.032127	168.0
65.061974	36.0
65.08606	132.0
65.10051	144.0
65.156425	168.0
65.180664	292.0
65.19738	216.0
65.219406	160.0
65.253174	188.0
65.307846	176.0
65.324417	188.0
65.33989	148.0
65.35054	180.0
65.365059	172.0
65.383469	224.0
65.438202	132.0
65.479408	116.0
65.500969	140.0
65.524277	256.0
65.541298	200.0
65.567841	196.0
65.625114	292.0
65.646866	156.0
65.671883	136.0
65.686401	128.0
65.761452	204.0
65.776695	192.0
65.831665	140.0
65.855896	160.0
65.918907	88.0
65.939919	204.0
65.973976	188.0
66.012672	180.0
66.067665	188.0
66.123146	140.0
66.140488	168.0
66.168015	156.0
66.194565	120.0
66.240028	180.0
66.26033	220.0
66.299225	152.0
66.367966	208.0
66.389801	156.0
66.411095	184.0
66.4403	60.0
66.46788	184.0
66.544357	240.0
66.559113	128.0
66.573402	172.0
66.604263	80.0
66.623756	52.0
66.661133	220.0
66.742409	144.0
66.75502	236.0
66.784088	140.0
66.804932	164.0
66.830246	104.0
66.862793	180.0
66.909271	148.0
66.934425	48.0
66.953835	192.0
66.968628	212.0
66.988174	156.0
67.017029	124.0
67.038506	140.0
67.129982	216.0
67.147926	156.0
67.182182	180.0
67.209183	124.0
67.24276	160.0
67.278473	144.0
67.2948	196.0
67.337257	148.0
67.35849	168.0
67.375237	160.0
67.433662	112.0
67.45237	144.0
67.472893	164.0
67.494148	136.0
67.519951	160.0
67.579208	140.0
67.612724	120.0
67.633217	96.0
67.679054	136.0
67.703621	132.0
67.720001	276.0
67.749489	100.0
67.792908	128.0
67.805199	152.0
67.823235	124.0
67.840912	168.0
67.893738	160.0
67.908501	144.0
67.928185	164.0
67.939667	148.0
67.959351	160.0
67.990532	120.0
68.020081	132.0
68.044708	124.0
68.070976	244.0
68.149902	168.0
68.21228	180.0
68.225433	144.0
68.241875	164.0
68.261604	68.0
68.274765	96.0
68.302727	112.0
68.319176	148.0
68.330696	168.0
68.348793	164.0
68.3843	188.0
68.408051	108.0
68.459244	176.0
68.474251	136.0
68.479919	124.0
68.48436	188.0
68.500267	36.0
68.526772	184.0
68.557938	192.0
68.599144	132.0
68.661804	128.0
68.70977	176.0
68.769058	208.0
68.828117	160.0
68.845818	132.0
68.859871	128.0
68.882996	104.0
68.89621	120.0
68.925949	200.0
68.944702	220.0
68.959358	168.0
69.049942	112.0
69.075676	144.0
69.101227	152.0
69.119431	196.0
69.155075	216.0
69.174049	132.0
69.236504	328.0
69.266785	136.0
69.301086	144.0
69.391083	156.0
69.415955	40.0
69.44249	164.0
69.486397	148.0
69.56031	172.0
69.588531	140.0
69.620361	360.0
69.643761	140.0
69.680473	124.0
69.698158	72.0
69.753006	188.0
69.767899	180.0
69.836151	136.0
69.855171	184.0
69.877739	124.0
69.912689	112.0
69.930031	248.0
69.955963	152.0
69.987206	144.0
70.015907	144.0
70.047562	160.0
70.067551	148.0
70.089211	188.0
70.159218	176.0
70.170433	160.0
70.186546	164.0
70.277641	128.0
70.307678	132.0
70.327881	168.0
70.35376	172.0
70.37278	164.0
70.401772	156.0
70.433449	292.0
70.457962	184.0
70.478546	176.0
70.556572	168.0
70.609451	180.0
70.676147	312.0
70.698761	176.0
70.730263	156.0
70.755669	400.0
70.785812	120.0
70.80088	140.0
70.912506	200.0
70.93158	92.0
70.946671	84.0
71.003677	88.0
71.059631	204.0
71.075958	196.0
71.095955	212.0
71.137924	328.0
71.151352	140.0
71.168144	124.0
71.193329	164.0
71.212334	128.0
71.272232	160.0
71.277992	152.0
71.286377	156.0
71.291214	212.0
71.309258	116.0
71.336159	196.0
71.354652	148.0
71.376511	260.0
71.42865	140.0
71.447151	128.0
71.463982	204.0
71.475761	184.0
71.492584	116.0
71.615494	144.0
71.634026	96.0
71.654243	72.0
71.677834	200.0
71.70311	180.0
71.733452	180.0
71.751358	184.0
71.8144	84.0
71.851509	132.0
71.888634	176.0
71.954468	124.0
72.010193	108.0
72.064255	120.0
72.077774	144.0
72.10746	176.0
72.135239	152.0
72.172432	220.0
72.189346	188.0
72.207947	144.0
72.229935	112.0
72.241776	96.0
72.263771	132.0
72.378876	104.0
72.393501	44.0
72.422913	168.0
72.434715	136.0
72.47374	164.0
72.512718	164.0
72.553398	36.0
72.570351	136.0
72.585617	200.0
72.614403	164.0
72.639893	160.0
72.664078	172.0
72.680611	180.0
72.694183	124.0
72.709457	108.0
72.731529	220.0
72.75869	232.0
72.805153	176.0
72.838509	104.0
72.869003	156.0
72.904045	176.0
72.922951	64.0
72.93367	208.0
72.971069	64.0
72.985535	140.0
73.006401	144.0
73.00882	180.0
73.037399	100.0
73.053505	172.0
73.066315	112.0
73.095245	212.0
73.121544	208.0
73.141197	236.0
73.188866	136.0
73.245827	144.0
73.275734	148.0
73.333679	184.0
73.366066	124.0
73.379654	128.0
73.399117	220.0
73.412109	144.0
73.4394	172.0
73.476929	164.0
73.497406	260.0
73.541779	276.0
73.557137	124.0
73.589577	164.0
73.634735	100.0
73.668144	128.0
73.681808	148.0
73.767265	184.0
73.786064	232.0
73.81955	172.0
73.825531	100.0
73.831291	180.0
73.876823	188.0
73.912437	200.0
73.946449	196.0
74.04789	152.0
74.062469	168.0
74.099281	124.0
74.130249	220.0
74.13768	168.0
74.151154	164.0
74.184975	120.0
74.218216	176.0
74.244995	80.0
74.274712	172.0
74.292526	256.0
74.316994	152.0
74.343903	184.0
74.368347	116.0
74.418983	92.0
74.441757	160.0
74.48156	136.0
74.504196	60.0
74.521378	36.0
74.537849	132.0
74.573242	156.0
74.600433	204.0
74.636543	180.0
74.653305	160.0
74.676094	132.0
74.691574	112.0
74.719101	136.0
74.736313	216.0
74.762123	116.0
74.798271	148.0
74.810318	132.0
74.872139	200.0
74.876785	180.0
74.903366	124.0
74.939133	180.0
74.950119	204.0
75.020615	184.0
75.048088	124.0
75.064293	120.0
75.089478	168.0
75.10759	208.0
75.122147	132.0
75.146278	164.0
75.169586	184.0
75.239609	116.0
75.270683	304.0
75.301773	168.0
75.382973	144.0
75.408897	208.0
75.431374	220.0
75.450386	140.0
75.508705	160.0
75.543777	140.0
75.562042	144.0
75.581841	48.0
75.59742	180.0
75.628571	136.0
75.653107	116.0
75.706482	128.0
75.739395	88.0
75.79657	156.0
75.817368	148.0
75.833466	152.0
75.888443	160.0
75.92659	132.0
75.949142	116.0
75.961281	116.0
75.985573	256.0
76.00061	156.0
76.029831	140.0
76.061935	68.0
76.178284	112.0
76.223457	176.0
76.259956	64.0
76.282555	120.0
76.298203	176.0
76.341675	132.0
76.416138	248.0
76.486084	184.0
76.505234	180.0
76.527664	168.0
76.557724	180.0
76.564026	152.0
76.641312	344.0
76.671448	228.0
76.683792	192.0
76.698608	204.0
76.748611	360.0
76.771446	108.0
76.79451	148.0
76.80954	160.0
76.83812	204.0
76.859062	84.0
76.914909	108.0
76.979515	164.0
77.019684	140.0
77.093063	164.0
77.152496	124.0
77.180473	124.0
77.199486	220.0
77.267326	104.0
77.307602	232.0
77.36676	128.0
77.386826	172.0
77.406212	136.0
77.429993	212.0
77.436188	136.0
77.456711	144.0
77.474525	192.0
77.494507	168.0
77.598961	160.0
77.665604	192.0
77.688408	172.0
77.770889	136.0
77.791954	172.0
77.833374	224.0
77.861832	184.0
77.880196	136.0
77.889618	104.0
77.916649	132.0
77.928947	176.0
77.979912	56.0
78.020973	156.0
78.03968	84.0
78.055511	144.0
78.0942	68.0
78.126595	192.0
78.141701	44.0
78.182892	132.0
78.207726	240.0
78.222656	112.0
78.250397	232.0
78.270195	288.0
78.321266	176.0
78.367073	160.0
78.395271	156.0
78.411133	128.0
78.435806	220.0
78.462257	128.0
78.516273	228.0
78.536324	192.0
78.591011	312.0
78.603363	220.0
78.62101	168.0
78.668373	164.0
78.706299	168.0
78.767563	164.0
78.788765	124.0
78.855919	192.0
78.930168	148.0
78.949623	176.0
78.962006	140.0
78.983231	148.0
79.020859	164.0
79.045151	120.0
79.057541	84.0
79.07711	144.0
79.119499	192.0
79.175644	192.0
79.232941	144.0
79.247017	124.0
79.26651	164.0
79.287781	140.0
79.300186	156.0
79.318474	164.0
79.349823	228.0
79.374649	124.0
79.387062	136.0
79.415436	124.0
79.444817	236.0
79.461563	88.0
79.497017	180.0
79.525497	160.0
79.564507	116.0
79.61245	124.0
79.720375	140.0
79.733261	260.0
79.815041	212.0
79.852005	160.0
79.879066	148.0
79.905754	176.0
79.921768	172.0
79.952019	152.0
79.966263	236.0
80.021446	168.0
80.043129	68.0
80.067749	180.0
80.104546	196.0
80.140785	128.0
80.174644	160.0
80.193359	88.0
80.206726	52.0
80.242386	68.0
80.271446	196.0
80.303017	152.0
80.318893	160.0
80.386971	144.0
80.452629	176.0
80.478081	164.0
80.50042	116.0
80.533272	228.0
80.590096	188.0
80.620819	584.0
80.67981	168.0
80.704842	84.0
80.763855	144.0
80.776382	160.0
80.825203	108.0
80.853935	116.0
80.914185	128.0
80.935669	28.0
80.959892	176.0
80.975067	152.0
81.041351	128.0
81.113045	140.0
81.176964	240.0
81.193733	132.0
81.261902	148.0
81.295998	272.0
81.33548	144.0
81.38755	248.0
81.403709	196.0
81.421722	252.0
81.453949	132.0
81.472374	380.0
81.500717	140.0
81.525497	152.0
81.552834	152.0
81.655281	176.0
81.712883	168.0
81.736595	160.0
81.809662	156.0
81.837082	192.0
81.867645	204.0
81.894714	156.0
81.925339	200.0
81.939751	124.0
81.954163	112.0
81.970268	124.0
81.975227	116.0
82.009544	340.0
82.014275	124.0
82.055183	172.0
82.082146	64.0
82.116417	204.0
82.158455	196.0
82.181358	284.0
82.204697	128.0
82.274536	180.0
82.291466	136.0
82.305908	100.0
82.3452	164.0
82.373711	200.0
82.410675	80.0
82.434166	108.0
82.45224	44.0
82.477249	148.0
82.504662	176.0
82.523605	176.0
82.5354	332.0
82.576996	88.0
82.598701	36.0
82.621674	184.0
82.744293	224.0
82.767021	348.0
82.783318	160.0
82.820358	112.0
82.846718	108.0
82.868462	136.0
82.901695	140.0
82.930077	104.0
82.94989	292.0
82.977211	212.0
82.997154	76.0
83.00985	108.0
83.074066	168.0
83.109619	60.0
83.128319	340.0
83.173462	224.0
83.20134	208.0
83.234871	148.0
83.28199	140.0
83.310555	204.0
83.331139	188.0
83.360214	28.0
83.423294	104.0
83.442017	168.0
83.471581	276.0
83.555344	272.0
83.572914	204.0
83.602898	192.0
83.645775	128.0
83.671265	144.0
83.704041	272.0
83.720428	144.0
83.742287	164.0
83.762062	140.0
83.778717	160.0
83.793289	124.0
83.807869	76.0
83.822449	116.0
83.902756	132.0
83.940941	36.0
83.959526	248.0
83.986534	216.0
84.014771	132.0
84.048569	152.0
84.077087	420.0
84.092369	76.0
84.109802	116.0
84.126045	116.0
84.174522	148.0
84.194611	164.0
84.225662	164.0
84.285957	196.0
84.304863	344.0
84.357239	104.0
84.38781	144.0
84.410103	184.0
84.434036	160.0
84.54747	156.0
84.58007	172.0
84.633507	56.0
84.66098	64.0
84.688454	136.0
84.725365	188.0
84.747078	108.0
84.785561	132.0
84.835716	380.0
84.864388	80.0
84.882721	148.0
84.960136	176.0
85.016647	112.0
85.036835	172.0
85.068451	172.0
85.078903	48.0
85.084038	168.0
85.119446	152.0
85.224152	116.0
85.290314	152.0
85.309074	256.0
85.329826	284.0
85.352829	104.0
85.40741	136.0
85.454163	132.0
85.486855	140.0
85.512436	180.0
85.529449	124.0
85.568108	136.0
85.61599	108.0
85.634407	208.0
85.671249	152.0
85.696526	172.0
85.752327	120.0
85.776794	168.0
85.818054	184.0
85.834488	176.0
85.867569	136.0
85.912758	128.0
85.936356	208.0
85.997017	308.0
86.040108	196.0
86.053032	136.0
86.065956	88.0
86.093658	200.0
86.149071	116.0
86.222984	208.0
86.24147	140.0
86.289536	152.0
86.302475	56.0
86.339462	76.0
86.370903	184.0
86.431961	80.0
86.450462	124.0
86.476273	244.0
86.507843	316.0
86.524506	144.0
86.570267	256.0
86.61525	176.0
86.638718	180.0
86.681953	168.0
86.728287	140.0
86.744972	140.0
86.76722	168.0
86.783768	160.0
86.815849	208.0
86.820412	140.0
86.852272	148.0
86.871078	192.0
86.941589	176.0
86.983765	72.0
87.012123	104.0
87.062263	96.0
87.121239	176.0
87.149574	212.0
87.231354	124.0
87.260674	140.0
87.28904	156.0
87.331337	208.0
87.355949	204.0
87.39502	212.0
87.409904	116.0
87.438156	332.0
87.454575	108.0
87.50856	164.0
87.6045	104.0
87.622177	120.0
87.704178	104.0
87.726547	124.0
87.743324	116.0
87.761971	144.0
87.78994	124.0
87.812325	64.0
87.83638	152.0
87.935471	392.0
87.960938	224.0
88.004066	212.0
88.032555	176.0
88.046486	244.0
88.062439	92.0
88.102577	188.0
88.145149	132.0
88.168938	184.0
88.189491	184.0
88.206322	144.0
88.245583	36.0
88.259743	132.0
88.288589	168.0
88.315269	148.0
88.378334	148.0
88.41581	136.0
88.450142	212.0
88.506126	212.0
88.546867	148.0
88.567474	144.0
88.616035	148.0
88.635818	192.0
88.651848	124.0
88.773643	120.0
88.80056	160.0
88.835617	352.0
88.936584	156.0
88.968788	84.0
88.992516	188.0
89.040634	216.0
89.115807	248.0
89.149117	112.0
89.179184	128.0
89.244987	180.0
89.293877	120.0
89.35183	144.0
89.393593	184.0
89.429352	160.0
89.469368	140.0
89.493362	104.0
89.526146	264.0
89.557396	188.0
89.606377	104.0
89.625214	152.0
89.640289	160.0
89.653481	168.0
89.679871	104.0
89.725113	132.0
89.740196	128.0
89.764709	104.0
89.7798	152.0
89.796776	116.0
89.848289	168.0
89.934875	168.0
90.068581	168.0
90.080917	140.0
90.136597	168.0
90.161171	116.0
90.197914	208.0
90.250015	108.0
90.299271	188.0
90.329453	176.0
90.382431	136.0
90.409233	148.0
90.446777	40.0
90.489647	192.0
90.526299	368.0
90.571426	232.0
90.679764	116.0
90.742195	188.0
90.766304	160.0
90.785934	152.0
90.801109	176.0
90.82766	96.0
90.883316	112.0
90.918739	112.0
90.932281	116.0
90.949104	192.0
91.026947	128.0
91.080132	148.0
91.104828	100.0
91.149261	172.0
91.173233	96.0
91.201744	140.0
91.220749	116.0
91.26638	64.0
91.293007	128.0
91.323433	192.0
91.359581	44.0
91.376701	192.0
91.390022	164.0
91.451378	168.0
91.47567	172.0
91.496613	148.0
91.551834	164.0
91.633743	164.0
91.684517	188.0
91.746193	104.0
91.772888	188.0
91.797676	184.0
91.811028	180.0
91.830612	164.0
91.873268	172.0
91.898773	116.0
91.91964	184.0
91.934868	136.0
91.971245	140.0
92.005661	244.0
92.027542	208.0
92.049927	132.0
92.067429	328.0
92.084801	156.0
92.102432	220.0
92.118774	192.0
92.164192	308.0
92.192856	168.0
92.240585	136.0
92.30352	212.0
92.43956	168.0
92.452957	132.0
92.469254	188.0
92.521866	204.0
92.542923	112.0
92.579308	112.0
92.594475	148.0
92.680954	136.0
92.726837	120.0
92.756714	156.0
92.781158	176.0
92.818855	216.0
92.839333	308.0
92.842239	192.0
92.881432	160.0
92.895576	128.0
92.940575	124.0
92.948341	56.0
92.954353	152.0
93.008003	200.0
93.053627	308.0
93.081757	184.0
93.110565	204.0
93.139374	132.0
93.173958	140.0
93.194626	132.0
93.221992	80.0
93.256584	192.0
93.302727	104.0
93.352722	72.0
93.375801	312.0
93.393112	188.0
93.423889	192.0
93.45549	184.0
93.492531	196.0
93.519279	316.0
93.533577	128.0
93.564384	188.0
93.647621	160.0
93.694481	276.0
93.731956	132.0
93.763779	148.0
93.807129	160.0
93.857254	160.0
93.902115	168.0
93.91761	164.0
93.934219	192.0
93.953697	84.0
93.972992	148.0
93.992043	252.0
94.025093	148.0
94.065437	248.0
94.096947	180.0
94.141411	176.0
94.179558	80.0
94.201454	360.0
94.249115	208.0
94.264572	208.0
94.297424	96.0
94.316757	152.0
94.342529	144.0
94.362038	180.0
94.407486	108.0
94.45018	148.0
94.46566	124.0
94.488876	144.0
94.554665	160.0
94.568253	200.0
94.59404	152.0
94.639793	152.0
94.665909	140.0
94.699883	160.0
94.726418	160.0
94.756065	120.0
94.820007	64.0
94.87429	168.0
94.93634	124.0
94.954933	272.0
95.069679	400.0
95.145256	108.0
95.168427	120.0
95.175476	156.0
95.209496	128.0
95.249725	192.0
95.31675	184.0
95.371254	188.0
95.384857	204.0
95.398468	40.0
95.412079	188.0
95.437355	156.0
95.476242	32.0
95.493401	156.0
95.536545	144.0
95.550163	216.0
95.567673	176.0
95.622169	128.0
95.651367	164.0
95.674728	212.0
95.718208	108.0
95.749847	180.0
95.763565	116.0
95.769501	72.0
95.779121	164.0
95.824692	188.0
95.869514	184.0
95.894852	172.0
95.920189	112.0
95.961891	216.0
96.004669	160.0
96.034302	160.0
96.07885	1748.0
96.109375	124.0
96.124985	112.0
96.160118	40.0
96.17749	160.0
96.203369	152.0
96.292885	76.0
96.322182	108.0
96.348091	200.0
96.398384	72.0
96.417931	120.0
96.44529	48.0
96.48439	92.0
96.533745	248.0
96.550873	92.0
96.572388	140.0
96.611511	188.0
96.660431	148.0
96.674133	88.0
96.69957	144.0
96.723991	124.0
96.752213	236.0
96.800247	528.0
96.828796	128.0
96.850342	144.0
96.883644	160.0
96.930672	140.0
96.958107	132.0
96.979668	132.0
97.01413	200.0
97.042122	284.0
97.062012	228.0
97.086288	1036.0
97.118958	116.0
97.144386	384.0
97.192818	148.0
97.222878	200.0
97.270447	84.0
97.292679	128.0
97.304611	200.0
97.381912	124.0
97.434952	188.0
97.491936	120.0
97.545708	232.0
97.576462	48.0
97.590225	116.0
97.627586	116.0
97.662987	204.0
97.720039	148.0
97.739716	272.0
97.760536	76.0
97.788918	116.0
97.82238	108.0
97.847977	148.0
97.862434	340.0
97.888474	136.0
97.903114	124.0
97.918022	168.0
97.942505	136.0
97.989693	164.0
98.021317	140.0
98.052811	200.0
98.060013	132.0
98.066025	152.0
98.095428	21976.0
98.1455	104.0
98.160843	108.0
98.173904	184.0
98.212555	44.0
98.23896	104.0
98.271416	76.0
98.288818	92.0
98.299278	88.0
98.30529	132.0
98.360558	176.0
98.386215	204.0
98.40596	100.0
98.428902	168.0
98.445457	84.0
98.463226	152.0
98.477058	124.0
98.497246	216.0
98.541771	200.0
98.567932	120.0
98.583748	96.0
98.613388	164.0
98.63118	160.0
98.670723	116.0
98.7276	204.0
98.745041	200.0
98.807419	172.0
98.842285	164.0
98.85675	264.0
98.896774	104.0
98.918015	56.0
98.935837	124.0
98.95829	188.0
99.017021	140.0
99.034851	172.0
99.098358	2504.0
99.122383	176.0
99.151749	196.0
99.19883	172.0
99.227081	108.0
99.264908	152.0
99.290535	152.0
99.30442	36.0
99.318306	164.0
99.364548	128.0
99.399612	224.0
99.447281	176.0
99.4711	152.0
99.488968	160.0
99.517418	180.0
99.534637	192.0
99.562439	60.0
99.59819	156.0
99.630791	156.0
99.668915	160.0
99.690987	176.0
99.749153	132.0
99.775055	44.0
99.848885	288.0
99.920898	196.0
99.93338	160.0
99.962036	64.0
99.981934	64.0
100.037827	204.0
100.102425	284.0
100.155159	148.0
100.185043	148.0
100.202972	140.0
100.21891	104.0
100.289246	124.0
100.323349	120.0
100.368416	60.0
100.412285	144.0
100.44857	316.0
100.483788	152.0
100.521492	168.0
100.54303	176.0
100.583885	176.0
100.606979	120.0
100.630714	132.0
100.691711	164.0
100.721672	116.0
100.741104	132.0
100.774612	72.0
100.845955	164.0
100.880592	160.0
100.896156	156.0
100.922447	200.0
100.929443	92.0
100.93689	288.0
101.010811	100.0
101.041634	108.0
101.085564	172.0
101.10157	172.0
101.121338	196.0
101.152809	192.0
101.227692	180.0
101.243713	160.0
101.259735	96.0
101.273758	128.0
101.287781	116.0
101.305809	144.0
101.331856	216.0
101.361916	152.0
101.383026	112.0
101.445969	128.0
101.486221	272.0
101.506248	144.0
101.608543	44.0
101.650681	104.0
101.692825	148.0
101.735046	180.0
101.750198	160.0
101.783173	64.0
101.817924	184.0
101.863083	132.0
101.909805	188.0
101.976036	48.0
101.992119	108.0
102.016884	324.0
102.025444	104.0
102.035164	136.0
102.100693	160.0
102.122818	132.0
102.167076	204.0
102.201279	176.0
102.215363	120.0
102.254524	236.0
102.291847	104.0
102.401131	176.0
102.448929	140.0
102.516151	204.0
102.535576	56.0
102.55835	148.0
102.577911	172.0
102.630821	164.0
102.658562	128.0
102.700272	176.0
102.731171	192.0
102.749329	196.0
102.773781	172.0
102.836105	68.0
102.872437	84.0
102.910995	124.0
102.954002	172.0
102.989563	96.0
103.053368	3748.0
103.083305	192.0
103.115852	192.0
103.133026	28.0
103.151222	64.0
103.171165	148.0
103.188057	164.0
103.215919	164.0
103.23008	88.0
103.269699	192.0
103.3899	68.0
103.456696	140.0
103.48764	128.0
103.53347	236.0
103.554359	212.0
103.592384	252.0
103.606064	244.0
103.622078	128.0
103.665329	48.0
103.685593	60.0
103.720055	60.0
103.746407	432.0
103.799126	140.0
103.835632	120.0
103.877617	132.0
103.914742	180.0
103.935036	184.0
103.963448	208.0
103.98983	76.0
104.011505	124.0
104.046623	544.0
104.052498	128.0
104.14415	172.0
104.194939	192.0
104.255898	80.0
104.280289	152.0
104.328056	136.0
104.336365	68.0
104.340485	176.0
104.391212	180.0
104.418549	160.0
104.489746	108.0
104.519798	264.0
104.533607	140.0
104.560966	72.0
104.581322	160.0
104.629906	180.0
104.650536	124.0
104.664795	128.0
104.703484	196.0
104.730263	164.0
104.758324	152.0
104.888908	124.0
104.940773	192.0
104.999977	152.0
105.046227	192.0
105.070412	160.0
105.103058	80.0
105.127541	132.0
105.204147	136.0
105.234375	168.0
105.258194	92.0
105.272491	140.0
105.30925	136.0
105.343369	148.0
105.372581	200.0
105.393013	32.0
105.433884	124.0
105.460457	76.0
105.491119	184.0
105.52803	152.0
105.583649	144.0
105.622444	220.0
105.639618	104.0
105.660866	108.0
105.695648	176.0
105.727325	176.0
105.766388	156.0
105.795944	160.0
105.810272	132.0
105.849693	32.0
105.922913	200.0
105.961838	200.0
105.975517	136.0
106.023315	188.0
106.091957	164.0
106.160675	132.0
106.195541	164.0
106.245239	176.0
106.312485	104.0
106.361748	156.0
106.384331	212.0
106.403534	124.0
106.421402	208.0
106.439766	100.0
106.505486	152.0
106.523422	192.0
106.575607	168.0
106.597946	120.0
106.612328	88.0
106.704834	172.0
106.723335	164.0
106.752129	180.0
106.766525	84.0
106.807655	180.0
106.821365	172.0
106.868889	168.0
106.883781	176.0
106.927147	164.0
106.982903	128.0
107.025818	140.0
107.059258	724.0
107.091225	396.0
107.124054	132.0
107.159698	40.0
107.182365	184.0
107.229767	200.0
107.293671	244.0
107.355774	208.0
107.440102	100.0
107.456612	148.0
107.517891	184.0
107.565208	200.0
107.618225	160.0
107.696083	108.0
107.751862	208.0
107.781929	188.0
107.87368	216.0
107.941177	188.0
107.956505	216.0
107.975418	136.0
108.01442	208.0
108.05658	264.0
108.079514	332.0
108.113731	120.0
108.13868	156.0
108.188255	184.0
108.239456	352.0
108.292809	220.0
108.325912	160.0
108.34565	184.0
108.360153	172.0
108.401596	76.0
108.446701	152.0
108.478287	160.0
108.523903	164.0
108.557076	112.0
108.596329	164.0
108.63797	180.0
108.653236	56.0
108.666771	168.0
108.681541	164.0
108.703522	176.0
108.732605	192.0
108.74588	396.0
108.766632	96.0
108.785789	176.0
108.814384	76.0
108.834991	236.0
108.858818	140.0
108.91758	172.0
108.931725	168.0
108.955849	192.0
108.984032	376.0
109.044243	115560.0
109.094147	252.0
109.116592	208.0
109.160568	100.0
109.192436	268.0
109.22654	100.0
109.250702	112.0
109.278358	148.0
109.29821	224.0
109.301788	172.0
109.312523	308.0
109.3647	244.0
109.385498	1060.0
109.424362	172.0
109.458984	176.0
109.473557	232.0
109.493484	120.0
109.548546	52.0
109.566063	88.0
109.579796	132.0
109.608307	76.0
109.651512	192.0
109.711388	204.0
109.726929	204.0
109.732887	124.0
109.740799	208.0
109.756035	156.0
109.783035	112.0
109.812157	160.0
109.867516	32.0
109.893837	156.0
109.952942	156.0
109.98027	240.0
110.004463	148.0
110.019005	216.0
110.047272	8824.0
110.09481	4316.0
110.126999	132.0
110.155174	96.0
110.170235	64.0
110.246948	208.0
110.262009	148.0
110.270119	120.0
110.291443	80.0
110.34182	112.0
110.367416	176.0
110.380997	72.0
110.41317	184.0
110.434677	128.0
110.471283	96.0
110.493332	104.0
110.524529	88.0
110.547104	220.0
110.601028	144.0
110.620392	112.0
110.667091	108.0
110.705086	204.0
110.721687	148.0
110.76078	124.0
110.803116	80.0
110.843407	148.0
110.875938	336.0
110.912506	220.0
110.933067	252.0
110.958717	124.0
110.984421	164.0
111.046967	160.0
111.05764	92.0
111.099602	320.0
111.135445	184.0
111.183716	176.0
111.204704	100.0
111.224129	164.0
111.261383	116.0
111.288673	32.0
111.309677	140.0
111.345375	96.0
111.366379	172.0
111.389488	44.0
111.418098	136.0
111.458824	36.0
111.512764	156.0
111.538689	128.0
111.570328	156.0
111.635406	176.0
111.653633	168.0
111.717438	72.0
111.734268	360.0
111.748604	172.0
111.80014	216.0
111.831505	116.0
111.893417	136.0
111.919495	80.0
111.957397	120.0
111.986885	132.0
112.00795	76.0
112.025948	100.0
112.039551	128.0
112.110619	1652.0
112.138588	144.0
112.16449	280.0
112.199722	84.0
112.273529	208.0
112.338188	104.0
112.364235	172.0
112.377853	136.0
112.432182	200.0
112.524643	108.0
112.552094	184.0
112.571098	352.0
112.623741	208.0
112.628975	208.0
112.706291	136.0
112.723198	144.0
112.737991	120.0
112.780144	140.0
112.805626	144.0
112.827667	132.0
112.888092	204.0
112.945595	240.0
113.003716	200.0
113.019241	164.0
113.074265	264.0
113.111412	512.0
113.161964	168.0
113.190704	148.0
113.237297	188.0
113.259186	84.0
113.299736	168.0
113.345345	88.0
113.414398	172.0
113.474648	172.0
113.502213	148.0
113.548866	104.0
113.576111	208.0
113.608261	100.0
113.707993	168.0
113.731346	152.0
113.784721	140.0
113.820511	180.0
113.852364	176.0
113.869354	132.0
113.941582	116.0
113.971329	128.0
113.988327	192.0
114.007454	124.0
114.043587	56.0
114.079727	148.0
114.096405	128.0
114.125587	196.0
114.22023	56.0
114.271141	112.0
114.300926	124.0
114.320084	72.0
114.403198	80.0
114.522346	172.0
114.585266	172.0
114.648048	160.0
114.677887	264.0
114.693054	216.0
114.711998	156.0
114.743599	180.0
114.775955	156.0
114.814034	216.0
114.872681	220.0
114.974358	184.0
115.022453	172.0
115.052299	216.0
115.089638	144.0
115.104584	200.0
115.11953	172.0
115.149429	324.0
115.175064	144.0
115.217789	188.0
115.251289	212.0
115.349319	88.0
115.467896	208.0
115.485001	184.0
115.519234	148.0
115.544899	144.0
115.57058	212.0
115.617661	184.0
115.63308	216.0
115.707565	216.0
115.754669	64.0
115.778229	176.0
115.941055	172.0
116.022507	212.0
116.063797	356.0
116.088387	392.0
116.142967	164.0
116.19838	104.0
116.239151	188.0
116.279922	160.0
116.319336	276.0
116.357201	172.0
116.421623	376.0
116.465607	192.0
116.484161	152.0
116.526711	148.0
116.556961	48.0
116.606544	168.0
116.657524	132.0
116.690231	140.0
116.73539	92.0
116.781891	148.0
116.803452	364.0
116.822693	88.0
116.861526	200.0
116.896729	148.0
116.962944	172.0
117.008659	168.0
117.066254	340.0
117.088341	160.0
117.182785	184.0
117.208977	220.0
117.267166	144.0
117.315247	132.0
117.364182	152.0
117.39653	148.0
117.415939	336.0
117.431038	116.0
117.482811	152.0
117.514168	224.0
117.536751	96.0
117.597588	212.0
117.655464	128.0
117.672737	120.0
117.707283	124.0
117.748314	132.0
117.763435	120.0
117.864975	108.0
117.936028	148.0
117.968719	164.0
117.996826	196.0
118.0271	172.0
118.063034	188.0
118.076759	108.0
118.101997	368.0
118.15255	68.0
118.206642	148.0
118.230453	164.0
118.25692	188.0
118.282402	44.0
118.317039	136.0
118.344666	200.0
118.374443	148.0
118.418816	124.0
118.440475	136.0
118.462944	140.0
118.569176	212.0
118.588882	180.0
118.609497	164.0
118.631172	168.0
118.70845	144.0
118.776466	204.0
118.809982	160.0
118.841553	108.0
118.863251	104.0
118.896812	224.0
118.916954	416.0
118.960922	124.0
118.982635	116.0
119.010864	168.0
119.039093	28.0
119.059334	944.0
119.088799	176.0
119.115112	168.0
119.134659	180.0
119.152908	140.0
119.168159	96.0
119.199844	124.0
119.251213	396.0
119.275917	132.0
119.312767	332.0
119.356361	152.0
119.388977	80.0
119.47599	44.0
119.495567	160.0
119.541267	176.0
119.569557	136.0
119.584793	112.0
119.606964	108.0
119.645744	164.0
119.695824	116.0
119.724136	204.0
119.745865	168.0
119.752716	164.0
119.798195	64.0
119.835236	164.0
119.853653	176.0
119.859962	80.0
119.867065	204.0
119.900612	44.0
119.941444	196.0
119.963875	172.0
119.994347	140.0
120.011787	176.0
120.03141	156.0
120.054741	176.0
120.070671	124.0
120.135605	104.0
120.157928	160.0
120.208115	80.0
120.232117	128.0
120.378387	80.0
120.41552	184.0
120.491974	128.0
120.537857	116.0
120.584709	156.0
120.62529	76.0
120.657318	292.0
120.680801	112.0
120.723679	164.0
120.78595	280.0
120.815552	144.0
120.843994	148.0
120.90818	204.0
120.955605	176.0
120.99501	216.0
121.019829	132.0
121.043472	3244.0
121.08905	204.0
121.115417	204.0
121.163658	132.0
121.187759	148.0
121.255692	144.0
121.273224	108.0
121.288567	56.0
121.343376	328.0
121.366302	188.0
121.458817	200.0
121.464546	128.0
121.575897	156.0
121.606628	116.0
121.640808	56.0
121.662979	164.0
121.743484	340.0
121.768944	140.0
121.835007	192.0
121.85038	68.0
121.867004	184.0
121.981834	128.0
122.044708	428.0
122.098183	616.0
122.138374	48.0
122.175774	148.0
122.293571	136.0
122.338631	132.0
122.354042	72.0
122.371658	188.0
122.45314	124.0
122.533195	188.0
122.558884	152.0
122.596344	160.0
122.622795	72.0
122.756622	148.0
122.796974	100.0
122.812973	248.0
122.86676	200.0
122.885216	216.0
122.909492	44.0
122.929352	200.0
122.955742	276.0
123.00219	156.0
123.026474	112.0
123.059082	8400.0
123.102432	620.0
123.145714	176.0
123.170013	328.0
123.223038	92.0
123.238503	44.0
123.260597	116.0
123.321838	124.0
123.346794	116.0
123.367691	112.0
123.408699	64.0
123.435234	44.0
123.463982	124.0
123.519279	108.0
123.55571	172.0
123.594505	224.0
123.616631	132.0
123.640007	56.0
123.720665	136.0
123.747231	196.0
123.810051	176.0
123.833603	156.0
123.934601	196.0
123.993126	188.0
124.061455	1344.0
124.110992	7076.0
124.157188	52.0
124.241486	128.0
124.289558	192.0
124.348	76.0
124.527847	188.0
124.545616	96.0
124.616356	176.0
124.623253	148.0
124.657921	180.0
124.678925	144.0
124.730049	160.0
124.750053	108.0
124.776733	128.0
124.800652	148.0
124.830101	168.0
124.850113	152.0
124.875694	104.0
124.89238	48.0
124.925743	112.0
124.954285	192.0
124.988045	168.0
125.004921	164.0
125.036507	144.0
125.077065	160.0
125.116455	1444.0
125.164925	148.0
125.217346	128.0
125.241844	44.0
125.257439	96.0
125.273033	104.0
125.287842	68.0
125.329651	224.0
125.369934	312.0
125.391136	204.0
125.431259	88.0
125.482529	200.0
125.543816	120.0
125.584221	184.0
125.602959	100.0
125.623039	52.0
125.719589	148.0
125.739716	208.0
125.756927	160.0
125.774284	196.0
125.808014	176.0
125.832825	72.0
125.861275	216.0
125.947777	236.0
125.955864	128.0
125.964592	212.0
125.99041	60.0
126.039162	212.0
126.069611	116.0
126.125916	316.0
126.161255	116.0
126.206268	180.0
126.275299	108.0
126.293823	184.0
126.311882	152.0
126.337929	112.0
126.369255	120.0
126.398346	144.0
126.416901	192.0
126.505775	164.0
126.557274	136.0
126.582474	204.0
126.718544	176.0
126.850349	148.0
126.857719	120.0
126.864784	160.0
126.946121	152.0
126.974098	124.0
127.017181	116.0
127.052864	1696.0
127.097488	160.0
127.117683	132.0
127.136322	164.0
127.229912	152.0
127.265411	128.0
127.326469	116.0
127.351173	52.0
127.375885	160.0
127.425308	160.0
127.526436	152.0
127.546669	140.0
127.562401	168.0
127.611862	148.0
127.692825	176.0
127.740059	252.0
127.780556	108.0
127.809807	100.0
127.857903	140.0
127.895042	156.0
127.935852	96.0
127.970169	196.0
127.992142	160.0
128.053909	496.0
128.13179	208.0
128.17807	140.0
128.208405	100.0
128.225983	276.0
128.306152	196.0
128.325623	112.0
128.365112	156.0
128.397781	156.0
128.465454	160.0
128.492523	116.0
128.512833	200.0
128.539917	64.0
128.574844	216.0
128.603287	148.0
128.630188	72.0
128.700867	120.0
128.724915	176.0
128.730515	168.0
128.772446	184.0
128.802887	172.0
128.876373	100.0
128.907089	160.0
128.96225	128.0
128.991638	100.0
129.029404	124.0
129.069534	1236.0
129.096588	268.0
129.112473	348.0
129.14241	320.0
129.163498	168.0
129.181595	144.0
129.222321	100.0
129.247208	128.0
129.274368	108.0
129.303787	120.0
129.340225	160.0
129.392853	184.0
129.498505	48.0
129.54155	124.0
129.581009	152.0
129.623108	148.0
129.683624	176.0
129.755463	216.0
129.793121	104.0
129.811264	144.0
129.83168	200.0
129.867966	224.0
129.890656	116.0
130.040176	160.0
130.063614	4100.0
130.12764	180.0
130.142563	224.0
130.189331	156.0
130.244766	104.0
130.306107	160.0
130.383606	188.0
130.417465	136.0
130.488953	116.0
130.52887	36.0
130.560699	72.0
130.603912	196.0
130.634171	120.0
130.660797	132.0
130.685822	48.0
130.739609	156.0
130.798508	140.0
130.888412	144.0
130.936234	88.0
131.009125	124.0
131.071152	2184.0
131.157242	84.0
131.225647	172.0
131.278091	84.0
131.325989	132.0
131.389862	244.0
131.419525	196.0
131.458313	124.0
131.549606	124.0
131.588425	152.0
131.655548	112.0
131.730026	56.0
131.76886	156.0
131.800858	92.0
131.831375	192.0
131.872437	196.0
131.903702	160.0
131.949524	208.0
131.997437	204.0
132.030548	100.0
132.04776	128.0
132.075623	332.0
132.101883	300.0
132.106705	200.0
132.115173	168.0
132.132401	144.0
132.168488	232.0
132.248917	200.0
132.283447	44.0
132.326935	156.0
132.342972	88.0
132.358994	420.0
132.468002	168.0
132.546677	220.0
132.608185	204.0
132.651627	244.0
132.706024	160.0
132.849487	56.0
132.883911	184.0
132.945862	156.0
133.010864	212.0
133.043396	1288.0
133.074844	148.0
133.143845	168.0
133.168564	312.0
133.214508	136.0
133.237488	184.0
133.267349	84.0
133.290619	448.0
133.340897	160.0
133.36618	52.0
133.506424	116.0
133.522522	112.0
133.543228	204.0
133.580032	164.0
133.635239	84.0
133.711182	140.0
133.743774	124.0
133.837082	232.0
133.865616	160.0
134.050552	1720.0
134.105042	80.0
134.127029	156.0
134.159256	132.0
134.204178	392.0
134.303345	168.0
134.384094	132.0
134.436203	172.0
134.492554	176.0
134.538727	128.0
134.561813	176.0
134.610306	180.0
134.716553	196.0
134.752441	128.0
134.887451	172.0
134.934875	300.0
134.977737	196.0
135.024704	192.0
135.056015	19704.0
135.097031	100.0
135.121643	228.0
135.141586	48.0
135.1651	64.0
135.189514	220.0
135.236847	248.0
135.267471	140.0
135.303986	64.0
135.331772	160.0
135.357239	168.0
135.415146	156.0
135.457886	144.0
135.479996	188.0
135.494888	96.0
135.512436	84.0
135.53447	204.0
135.554138	164.0
135.581955	172.0
135.612091	180.0
135.639908	132.0
135.679306	120.0
135.727997	136.0
135.75351	108.0
135.809174	68.0
135.846298	160.0
135.878769	132.0
135.897339	152.0
135.931976	116.0
135.994247	184.0
136.02774	168.0
136.06044	1496.0
136.088684	284.0
136.116592	140.0
136.141083	188.0
136.168289	184.0
136.201263	92.0
136.227768	176.0
136.274963	176.0
136.357147	148.0
136.378723	436.0
136.484009	216.0
136.531509	148.0
136.604599	180.0
136.694992	148.0
136.724625	44.0
136.747894	136.0
136.792114	64.0
136.824707	144.0
136.845398	176.0
136.848587	156.0
136.857956	216.0
136.878265	52.0
136.983078	144.0
137.063156	216.0
137.084045	144.0
137.104736	164.0
137.167175	156.0
137.195145	76.0
137.23558	288.0
137.31041	112.0
137.435379	136.0
137.456268	80.0
137.498398	192.0
137.520767	176.0
137.559082	164.0
137.589432	180.0
137.619781	140.0
137.647476	56.0
137.7202	96.0
137.757584	176.0
137.783279	76.0
137.812164	192.0
137.827682	252.0
137.878448	220.0
137.915939	168.0
137.946869	120.0
138.014679	156.0
138.052948	196.0
138.076584	128.0
138.180374	168.0
138.213501	88.0
138.241592	64.0
138.261597	180.0
138.288391	136.0
138.319412	80.0
138.351593	36.0
138.37178	232.0
138.396088	104.0
138.534027	112.0
138.59285	116.0
138.627991	88.0
138.660812	164.0
138.766296	72.0
138.787399	180.0
138.88356	184.0
138.919754	168.0
138.953934	60.0
138.972702	192.0
139.00087	152.0
139.021988	108.0
139.094742	144.0
139.141693	108.0
139.18631	88.0
139.285965	216.0
139.468689	148.0
139.53186	124.0
139.575729	144.0
139.632828	148.0
139.685104	124.0
139.710449	124.0
139.736328	156.0
139.755157	148.0
139.778687	156.0
139.811493	180.0
139.841446	168.0
139.879135	168.0
139.896378	128.0
139.915207	116.0
139.952881	148.0
139.99292	152.0
140.055374	228.0
140.091843	124.0
140.149506	160.0
140.223801	132.0
140.268585	220.0
140.303955	308.0
140.367233	148.0
140.410065	168.0
140.442184	116.0
140.463104	164.0
140.492615	100.0
140.528015	128.0
140.612961	180.0
140.743484	140.0
140.82486	172.0
140.84436	124.0
140.919968	64.0
141.012924	200.0
141.052841	304.0
141.068268	144.0
141.139786	160.0
141.170532	188.0
141.22966	204.0
141.260406	192.0
141.279343	156.0
141.300629	160.0
141.32193	168.0
141.41658	132.0
141.440262	152.0
141.56337	164.0
141.598907	116.0
141.627319	64.0
141.724457	136.0
141.741043	124.0
141.766144	156.0
141.871216	148.0
141.959137	136.0
142.03978	200.0
142.096725	164.0
142.129944	160.0
142.210632	100.0
142.276947	184.0
142.280899	172.0
142.300598	80.0
142.338837	64.0
142.400574	152.0
142.505112	140.0
142.526489	112.0
142.555008	120.0
142.626587	68.0
142.74176	136.0
142.792755	152.0
142.880768	100.0
142.904556	180.0
142.930664	144.0
142.97081	352.0
143.056702	168.0
143.160339	208.0
143.223572	144.0
143.286667	128.0
143.306961	152.0
143.485123	128.0
143.502411	148.0
143.52626	148.0
143.562027	164.0
143.60257	144.0
143.65744	164.0
143.707535	60.0
143.808807	220.0
143.885376	148.0
143.962311	172.0
144.039383	172.0
144.076416	448.0
144.140579	260.0
144.260437	176.0
144.285538	120.0
144.311844	108.0
144.342926	272.0
144.359665	168.0
144.40303	60.0
144.430298	188.0
144.534851	104.0
144.555832	184.0
144.582153	44.0
144.632263	176.0
144.680298	240.0
144.721008	104.0
144.742249	216.0
144.764099	196.0
144.872604	336.0
144.905426	156.0
144.993881	172.0
145.038986	496.0
145.073441	3484.0
145.128342	296.0
145.144501	136.0
145.205078	160.0
145.269852	140.0
145.300674	160.0
145.316269	208.0
145.346146	160.0
145.399429	104.0
145.43782	192.0
145.481033	92.0
145.517044	136.0
145.560272	156.0
145.579147	176.0
145.661148	192.0
145.693069	324.0
145.733215	212.0
145.766861	80.0
145.786087	108.0
145.838959	64.0
145.879837	124.0
145.911621	180.0
145.936676	156.0
145.973602	216.0
146.002457	92.0
146.021698	96.0
146.051422	4104.0
146.114944	100.0
146.141678	64.0
146.25029	144.0
146.293671	164.0
146.368027	116.0
146.42186	200.0
146.449265	100.0
146.464767	152.0
146.505539	92.0
146.544388	96.0
146.573013	32.0
146.616394	88.0
146.633255	156.0
146.667389	172.0
146.747803	368.0
146.789963	188.0
146.828278	248.0
146.859909	88.0
146.879196	120.0
146.897797	220.0
146.926117	380.0
146.949173	196.0
146.965195	124.0
147.000458	208.0
147.02301	220.0
147.059723	99228.0
147.143829	208.0
147.162506	44.0
147.188126	156.0
147.21936	116.0
147.225876	108.0
147.240463	204.0
147.267746	108.0
147.295517	112.0
147.302719	60.0
147.342712	80.0
147.367706	160.0
147.387787	172.0
147.410446	68.0
147.45752	408.0
147.492554	104.0
147.537949	72.0
147.564011	100.0
147.60022	60.0
147.647003	132.0
147.668152	192.0
147.687042	100.0
147.722092	152.0
147.748093	144.0
147.790939	224.0
147.82814	224.0
147.860199	132.0
147.906998	72.0
147.935806	172.0
147.976395	92.0
148.015091	188.0
148.062134	11512.0
148.119995	124.0
148.194473	124.0
148.249054	124.0
148.273102	280.0
148.305862	60.0
148.334412	160.0
148.377853	144.0
148.423645	188.0
148.450684	160.0
148.486237	176.0
148.525208	176.0
148.566772	116.0
148.634979	120.0
148.679382	60.0
148.70726	124.0
148.757401	200.0
148.777634	144.0
148.804489	172.0
148.837189	140.0
148.870041	128.0
148.889145	116.0
148.910034	288.0
148.940796	260.0
148.969635	284.0
148.996384	96.0
149.018936	188.0
149.075378	46892.0
149.109329	372.0
149.139648	320.0
149.161377	128.0
149.179596	288.0
149.219406	184.0
149.246002	188.0
149.323227	76.0
149.340393	72.0
149.369446	128.0
149.393936	120.0
149.417801	64.0
149.440002	36.0
149.468658	124.0
149.477234	144.0
149.517868	48.0
149.571808	296.0
149.594452	84.0
149.613525	96.0
149.648117	48.0
149.668396	140.0
149.687439	124.0
149.724823	108.0
149.752991	156.0
149.810074	164.0
149.839584	72.0
149.870178	232.0
149.892914	76.0
149.935669	148.0
149.969513	100.0
149.981735	72.0
150.002594	144.0
150.021103	208.0
150.078049	5848.0
150.120789	48.0
150.139145	40.0
150.190979	156.0
150.210693	88.0
150.229385	212.0
150.27034	296.0
150.292831	40.0
150.31723	112.0
150.341629	180.0
150.363266	224.0
150.42218	128.0
150.458801	76.0
150.541565	112.0
150.558182	172.0
150.67128	88.0
150.733994	192.0
150.795914	56.0
150.857849	172.0
150.888184	172.0
150.940155	88.0
150.976837	100.0
150.998367	104.0
151.052658	136.0
151.076797	248.0
151.108932	108.0
151.155655	164.0
151.190186	192.0
151.228836	152.0
151.252792	212.0
151.290039	128.0
151.358597	144.0
151.412476	184.0
151.478607	104.0
151.495758	220.0
151.517807	216.0
151.569336	152.0
151.628082	120.0
151.667297	212.0
151.711426	32.0
151.760452	140.0
151.823669	108.0
151.862442	220.0
151.976303	80.0
152.037659	120.0
152.089203	132.0
152.133896	140.0
152.178482	124.0
152.270905	124.0
152.351089	168.0
152.393723	48.0
152.424454	172.0
152.519058	216.0
152.571762	164.0
152.617783	156.0
152.66597	364.0
152.701019	92.0
152.72316	140.0
152.762512	116.0
152.819397	100.0
152.863953	264.0
152.932266	264.0
152.96431	120.0
152.984009	168.0
153.02832	148.0
153.068176	152.0
153.163773	144.0
153.198257	96.0
153.257385	172.0
153.296814	164.0
153.327774	172.0
153.363831	104.0
153.397675	152.0
153.444717	168.0
153.523621	140.0
153.54335	172.0
153.593704	176.0
153.642029	64.0
153.66423	164.0
153.697296	124.0
153.804901	168.0
153.846863	176.0
153.878967	224.0
153.906998	68.0
153.980621	120.0
154.002441	144.0
154.041122	240.0
154.057602	168.0
154.090179	200.0
154.209991	240.0
154.280029	120.0
154.368225	144.0
154.392944	196.0
154.415207	196.0
154.444885	92.0
154.486938	144.0
154.519104	88.0
154.536423	144.0
154.590866	52.0
154.627991	156.0
154.650269	116.0
154.729675	184.0
154.832153	192.0
154.846786	140.0
154.887985	84.0
154.922668	120.0
155.016815	100.0
155.059326	2548.0
155.11348	72.0
155.171555	132.0
155.331696	92.0
155.372025	316.0
155.455704	156.0
155.560013	152.0
155.608917	184.0
155.651123	236.0
155.751221	88.0
155.808365	184.0
155.910233	40.0
155.927628	36.0
155.979828	192.0
156.059143	392.0
156.089233	228.0
156.114105	32.0
156.17688	148.0
156.235977	176.0
156.370361	156.0
156.42511	88.0
156.477402	172.0
156.497314	140.0
156.51973	80.0
156.654221	48.0
156.719009	120.0
156.773819	208.0
156.81868	128.0
156.838623	192.0
156.8741	192.0
156.907547	152.0
156.945831	132.0
157.018158	172.0
157.068039	136.0
157.135391	180.0
157.157852	116.0
157.192795	112.0
157.265244	132.0
157.335205	208.0
157.354965	156.0
157.407471	172.0
157.435852	208.0
157.702286	224.0
157.737274	244.0
157.877289	156.0
157.897308	164.0
157.927322	136.0
158.019882	80.0
158.046295	948.0
158.091675	196.0
158.11998	32.0
158.165024	132.0
158.187561	124.0
158.22261	72.0
158.301865	172.0
158.330292	48.0
158.372864	176.0
158.416504	152.0
158.436417	196.0
158.503143	108.0
158.547729	76.0
158.570816	224.0
158.625961	192.0
158.680588	192.0
158.845947	280.0
158.877701	308.0
158.901825	52.0
158.929428	120.0
159.000809	72.0
159.056061	388.0
159.081558	144.0
159.101105	148.0
159.119308	120.0
159.172913	156.0
159.293472	196.0
159.313568	132.0
159.333664	76.0
159.3927	112.0
159.43483	172.0
159.474823	164.0
159.521011	172.0
159.567413	52.0
159.65744	160.0
159.705719	56.0
159.740936	40.0
159.789444	172.0
159.831512	92.0
159.89444	172.0
159.924637	132.0
159.987564	140.0
160.04361	212.0
160.052704	152.0
160.098358	208.0
160.155914	132.0
160.20668	116.0
160.236908	68.0
160.272186	116.0
160.299896	104.0
160.34404	188.0
160.38559	176.0
160.405762	196.0
160.452454	92.0
160.473831	64.0
160.514175	116.0
160.533569	128.0
160.570175	248.0
160.630203	160.0
160.662994	44.0
160.704071	144.0
160.774017	84.0
160.810471	136.0
160.872467	40.0
160.935577	176.0
160.963348	100.0
160.998993	140.0
161.029022	120.0
161.070236	1104.0
161.097214	152.0
161.117432	144.0
161.167969	180.0
161.324661	156.0
161.381836	112.0
161.440979	152.0
161.7117	88.0
161.744598	156.0
161.772446	120.0
161.857407	136.0
161.934509	120.0
161.981293	136.0
162.008865	136.0
162.035843	88.0
162.079529	468.0
162.20192	112.0
162.22084	128.0
162.312119	84.0
162.334946	176.0
162.366409	176.0
162.411026	140.0
162.504898	136.0
162.53569	160.0
162.574707	188.0
162.593643	128.0
162.647568	92.0
162.677475	96.0
162.69606	200.0
162.763809	168.0
162.7892	168.0
162.839996	140.0
162.898422	176.0
162.923828	88.0
162.946686	344.0
162.98735	236.0
163.088501	400.0
163.13063	64.0
163.147476	104.0
163.204315	112.0
163.220749	220.0
163.252914	108.0
163.373016	140.0
163.501038	152.0
163.669067	100.0
163.722534	112.0
163.74292	152.0
163.771286	116.0
163.885574	380.0
163.926346	108.0
163.956924	124.0
164.008835	132.0
164.058044	180.0
164.086487	348.0
164.132828	124.0
164.155777	196.0
164.199615	108.0
164.258804	204.0
164.290771	104.0
164.406723	176.0
164.446396	128.0
164.52861	172.0
164.56662	68.0
164.601837	176.0
164.691757	132.0
164.763275	52.0
164.801605	108.0
164.842484	156.0
164.914047	112.0
164.951233	140.0
165.023987	156.0
165.070007	140.0
165.146729	36.0
165.182541	204.0
165.205566	152.0
165.278671	196.0
165.300247	32.0
165.34787	156.0
165.434586	156.0
165.548553	112.0
165.566483	108.0
165.648453	328.0
165.753494	172.0
165.791611	184.0
165.820129	140.0
165.937393	208.0
165.978439	144.0
166.021271	176.0
166.074326	176.0
166.103668	180.0
166.140091	124.0
166.189423	176.0
166.207382	88.0
166.251007	116.0
166.268967	188.0
166.328003	180.0
166.357361	476.0
166.443542	76.0
166.667023	100.0
166.767242	224.0
166.83136	132.0
166.844833	152.0
166.87941	324.0
166.903503	192.0
167.065536	64.0
167.104614	152.0
167.14389	124.0
167.165161	168.0
167.227661	92.0
167.263702	172.0
167.294586	168.0
167.342636	200.0
167.387924	192.0
167.454239	152.0
167.528946	156.0
167.626846	108.0
167.755722	184.0
167.790009	108.0
167.870743	124.0
167.954285	196.0
168.029099	120.0
168.096191	116.0
168.201477	152.0
168.239685	52.0
168.258804	164.0
168.300125	204.0
168.442169	196.0
168.480911	72.0
168.516006	192.0
168.599777	168.0
168.641129	140.0
168.770401	208.0
168.88678	60.0
168.920288	168.0
168.97258	144.0
169.074005	220.0
169.171432	176.0
169.241333	272.0
169.313843	128.0
169.352692	68.0
169.413055	212.0
169.456314	132.0
169.497772	92.0
169.531464	152.0
169.557388	88.0
169.575531	176.0
169.59436	176.0
169.640335	116.0
169.70015	56.0
169.763184	168.0
169.824448	176.0
169.855576	156.0
169.873734	44.0
169.920425	116.0
170.050995	316.0
170.076141	176.0
170.105179	192.0
170.13324	136.0
170.164398	148.0
170.278656	132.0
170.322815	128.0
170.409653	124.0
170.481308	128.0
170.525497	280.0
170.641098	136.0
170.689285	112.0
170.761673	120.0
170.83493	220.0
170.868759	84.0
170.897202	124.0
170.993668	168.0
171.027496	156.0
171.053345	1728.0
171.085648	188.0
171.134247	148.0
171.161514	212.0
171.227997	136.0
171.296799	180.0
171.341278	156.0
171.399933	136.0
171.462479	176.0
171.527634	124.0
171.595428	152.0
171.626709	180.0
171.644958	108.0
171.668732	104.0
171.746674	116.0
171.766373	160.0
171.834061	128.0
171.926651	164.0
171.98674	96.0
172.028503	304.0
172.060837	968.0
172.224365	132.0
172.253738	172.0
172.280518	184.0
172.305344	316.0
172.341919	188.0
172.372787	168.0
172.43573	76.0
172.499405	200.0
172.603317	76.0
172.640289	204.0
172.649002	180.0
172.677322	120.0
172.739319	156.0
172.773331	36.0
172.793823	120.0
172.8358	240.0
172.852676	160.0
172.889191	100.0
172.915253	160.0
172.943222	208.0
172.974457	428.0
172.993439	196.0
173.042511	492.0
173.070145	102640.0
173.143982	160.0
173.175751	88.0
173.217667	104.0
173.2341	92.0
173.267258	152.0
173.31337	140.0
173.350677	228.0
173.368378	112.0
173.405502	164.0
173.445099	160.0
173.458694	68.0
173.500397	492.0
173.538986	160.0
173.604416	136.0
173.634354	80.0
173.677948	76.0
173.704315	188.0
173.725494	244.0
173.750198	144.0
173.767593	188.0
173.799484	72.0
173.818787	52.0
173.865372	112.0
173.922623	192.0
173.947388	216.0
173.97049	348.0
174.011017	204.0
174.072449	12600.0
174.154205	116.0
174.193527	224.0
174.233643	68.0
174.266678	144.0
174.300034	76.0
174.354523	104.0
174.387955	128.0
174.425491	212.0
174.459671	68.0
174.500275	252.0
174.570099	76.0
174.593765	124.0
174.643738	124.0
174.662155	44.0
174.685837	32.0
174.767395	172.0
174.821274	168.0
174.872437	92.0
174.907043	172.0
174.943985	168.0
174.967422	56.0
174.98793	112.0
175.032181	188.0
175.078491	1080.0
175.119217	112.0
175.159668	32.0
175.211548	192.0
175.233337	160.0
175.250565	72.0
175.272812	212.0
175.301956	124.0
175.358719	308.0
175.408951	328.0
175.449982	172.0
175.506866	100.0
175.519958	140.0
175.543549	56.0
175.620972	136.0
175.673737	156.0
175.764755	160.0
175.829407	184.0
175.882202	56.0
175.927078	48.0
175.968338	64.0
176.022125	52.0
176.085571	272.0
176.114563	60.0
176.201752	60.0
176.241379	104.0
176.259872	44.0
176.294235	172.0
176.376465	192.0
176.508362	96.0
176.555969	240.0
176.577118	160.0
176.755814	176.0
176.780838	212.0
176.804657	92.0
176.831116	116.0
176.85759	68.0
176.876114	152.0
176.923767	48.0
176.97673	76.0
177.021744	112.0
177.068405	964.0
177.201859	112.0
177.254852	268.0
177.435104	124.0
177.487427	120.0
177.522598	144.0
177.561874	84.0
177.56691	68.0
177.576935	132.0
177.602585	152.0
177.623398	132.0
177.644623	76.0
177.684418	64.0
177.79274	184.0
177.835678	160.0
177.861252	88.0
177.90065	84.0
177.984344	144.0
178.02417	116.0
178.077805	208.0
178.10141	1800.0
178.215439	100.0
178.281876	88.0
178.430725	136.0
178.505188	52.0
178.542419	152.0
178.598267	140.0
178.638168	140.0
178.675415	124.0
178.71756	176.0
178.763229	52.0
178.811127	124.0
178.835083	168.0
178.890991	144.0
178.938904	176.0
178.96553	56.0
178.984177	260.0
179.073151	196.0
179.083267	148.0
179.112061	212.0
179.215118	172.0
179.261215	144.0
179.311859	88.0
179.426483	72.0
179.479813	144.0
179.643204	196.0
179.757233	172.0
179.810608	124.0
179.853317	216.0
179.884918	320.0
179.938736	192.0
179.972137	148.0
179.99205	244.0
180.069595	104.0
180.098969	32.0
180.118362	280.0
180.135925	168.0
180.272324	168.0
180.36084	108.0
180.39949	184.0
180.410233	140.0
180.459763	156.0
180.498688	164.0
180.596146	172.0
180.681747	40.0
180.751312	132.0
180.863724	116.0
180.930649	204.0
180.986542	156.0
181.002945	240.0
181.037766	140.0
181.074188	192.0
181.150253	196.0
181.230637	100.0
181.260101	32.0
181.27887	68.0
181.305054	136.0
181.424316	168.0
181.571091	104.0
181.654236	152.0
181.782639	108.0
181.858185	188.0
181.969849	148.0
181.974274	196.0
182.005844	160.0
182.027313	156.0
182.044922	144.0
182.10701	196.0
182.148621	148.0
182.193848	144.0
182.2435	176.0
182.27446	132.0
182.309387	76.0
182.330902	180.0
182.43573	200.0
182.492691	128.0
182.518478	180.0
182.54866	160.0
182.578247	152.0
182.618591	132.0
182.640106	144.0
182.658936	96.0
182.718124	68.0
182.736954	240.0
182.761002	192.0
182.788071	184.0
182.863434	136.0
182.898422	92.0
182.919952	156.0
182.944183	156.0
182.973801	72.0
183.019577	52.0
183.058914	7924.0
183.13269	132.0
183.163574	140.0
183.203644	140.0
183.325027	196.0
183.360504	72.0
183.382324	164.0
183.418304	140.0
183.477615	44.0
183.531418	176.0
183.615143	52.0
183.65419	252.0
183.690674	64.0
183.82515	124.0
183.938934	120.0
183.971329	80.0
184.02533	188.0
184.063385	1252.0
184.11174	124.0
184.130646	148.0
184.180557	200.0
184.244095	108.0
184.328537	160.0
184.35759	172.0
184.380737	192.0
184.425156	192.0
184.452194	116.0
184.473816	32.0
184.492737	96.0
184.636047	160.0
184.692856	196.0
184.736237	104.0
184.814606	52.0
184.897003	168.0
184.925552	168.0
184.952621	132.0
185.026276	136.0
185.06662	520.0
185.117783	264.0
185.230133	108.0
185.280304	56.0
185.299271	84.0
185.411697	156.0
185.434769	92.0
185.470001	56.0
185.526932	36.0
185.559464	132.0
185.635391	132.0
185.743546	100.0
185.792709	120.0
185.844254	124.0
185.896088	124.0
185.921387	180.0
186.078354	516.0
186.115692	128.0
186.159149	48.0
186.18631	108.0
186.21347	76.0
186.297668	56.0
186.332993	176.0
186.364731	152.0
186.436249	136.0
186.547699	140.0
186.642853	60.0
186.727158	88.0
186.792435	112.0
186.855942	176.0
186.947525	72.0
186.977463	100.0
187.085236	5692.0
187.114807	408.0
187.151688	44.0
187.173477	152.0
187.192535	112.0
187.223221	120.0
187.391388	132.0
187.437714	192.0
187.470413	60.0
187.514023	132.0
187.601242	220.0
187.680313	120.0
187.729401	72.0
187.756668	48.0
187.816681	204.0
187.838501	64.0
187.877426	148.0
187.901245	88.0
187.969467	168.0
188.040009	260.0
188.088211	884.0
188.138687	212.0
188.187836	52.0
188.220596	92.0
188.257584	172.0
188.31073	180.0
188.329849	76.0
188.463715	164.0
188.541367	48.0
188.562088	176.0
188.592163	140.0
188.633163	200.0
188.705139	208.0
188.790146	184.0
188.795486	76.0
188.806625	136.0
188.93399	160.0
189.010834	140.0
189.043442	136.0
189.097412	364.0
189.28981	64.0
189.330887	144.0
189.358276	184.0
189.391144	140.0
189.451416	132.0
189.470596	184.0
189.522659	76.0
189.5802	76.0
189.629532	144.0
189.769348	96.0
189.848862	140.0
189.870804	164.0
189.917435	152.0
190.102234	204.0
190.196487	196.0
190.326355	160.0
190.425232	252.0
190.471924	52.0
190.504883	148.0
190.53511	96.0
190.587311	144.0
190.631897	212.0
190.708237	140.0
190.760468	164.0
190.826447	200.0
190.892441	180.0
190.951721	180.0
191.000473	128.0
191.073975	80.0
191.110229	116.0
191.241852	56.0
191.302414	184.0
191.324432	72.0
191.467621	120.0
191.531036	160.0
191.553009	180.0
191.597092	44.0
191.664917	188.0
191.704544	196.0
191.751404	168.0
191.778961	220.0
191.831345	212.0
191.963684	164.0
191.991272	236.0
192.113602	752.0
192.147751	132.0
192.173325	132.0
192.206436	168.0
192.228516	184.0
192.275436	80.0
192.375259	120.0
192.532196	164.0
192.757523	92.0
192.802261	80.0
192.84993	212.0
192.888626	80.0
192.954987	40.0
192.985397	100.0
193.065582	216.0
193.101776	140.0
193.126434	180.0
193.237091	152.0
193.342255	108.0
193.364395	128.0
193.397598	100.0
193.422974	120.0
193.488068	136.0
193.530487	196.0
193.641266	76.0
193.699432	124.0
193.729904	164.0
193.804718	108.0
193.824112	116.0
193.868454	100.0
193.914749	164.0
193.969315	148.0
194.031998	176.0
194.059723	124.0
194.120728	156.0
194.17897	220.0
194.29953	156.0
194.353348	148.0
194.400909	136.0
194.556351	52.0
194.617432	104.0
194.672974	144.0
194.73407	140.0
194.809082	216.0
194.847977	120.0
194.917435	128.0
194.945221	64.0
195.055328	160.0
195.112	108.0
195.137024	196.0
195.198196	164.0
195.353958	144.0
195.559875	144.0
195.621124	168.0
195.68515	112.0
195.79097	88.0
195.829956	84.0
196.064346	464.0
196.133102	96.0
196.191452	204.0
196.222885	96.0
196.309326	96.0
196.33165	92.0
196.381851	148.0
196.462738	116.0
196.501801	164.0
196.577148	64.0
196.700577	72.0
196.733444	156.0
196.758575	52.0
196.831177	76.0
196.888351	168.0
196.941437	116.0
197.00769	328.0
197.036362	104.0
197.074524	4772.0
197.186859	264.0
197.294998	204.0
197.386871	56.0
197.447678	120.0
197.527115	68.0
197.574661	96.0
197.633423	180.0
197.681	228.0
197.736969	116.0
197.864365	188.0
197.888138	160.0
197.932938	72.0
197.958145	116.0
198.07576	824.0
198.110825	156.0
198.148621	120.0
198.185043	112.0
198.224274	124.0
198.299942	140.0
198.327972	240.0
198.428894	60.0
198.46785	148.0
198.524231	116.0
198.56987	132.0
198.619598	36.0
198.639236	104.0
198.672897	232.0
198.692535	156.0
198.743042	144.0
198.765488	200.0
198.810394	72.0
198.870682	116.0
198.900208	148.0
199.084198	160.0
199.116409	52.0
199.139542	168.0
199.265289	192.0
199.299011	168.0
199.490128	108.0
199.606659	108.0
199.644775	200.0
199.698212	92.0
199.720718	96.0
199.751389	192.0
199.875458	200.0
199.909225	184.0
199.957062	28.0
200.009125	348.0
200.096466	232.0
200.148499	140.0
200.168213	136.0
200.20929	116.0
200.252701	128.0
200.312363	200.0
200.356384	184.0
200.404831	112.0
200.434891	132.0
200.450912	136.0
200.489365	168.0
200.509094	180.0
200.568283	104.0
200.599304	144.0
200.620178	148.0
200.669785	124.0
200.697983	60.0
200.74028	144.0
200.803894	164.0
200.831497	140.0
200.867203	96.0
200.962021	152.0
201.011185	124.0
201.049194	2768.0
201.101196	82184.0
201.186203	136.0
201.218277	240.0
201.286407	196.0
201.320984	192.0
201.349869	208.0
201.384445	148.0
201.510468	48.0
201.540375	72.0
201.570358	152.0
201.591278	116.0
201.634735	160.0
201.663483	132.0
201.728287	152.0
201.792068	140.0
201.84726	180.0
201.912292	156.0
201.937759	104.0
201.969193	148.0
202.007309	116.0
202.058594	1536.0
202.103745	8388.0
202.171173	160.0
202.195312	120.0
202.218948	84.0
202.257492	84.0
202.285797	84.0
202.313278	124.0
202.350433	124.0
202.410507	124.0
202.450027	52.0
202.484009	48.0
202.508118	188.0
202.560486	204.0
202.582565	116.0
202.622818	56.0
202.645477	100.0
202.702148	236.0
202.721802	184.0
202.747498	108.0
202.782486	128.0
202.803635	104.0
202.82518	236.0
202.849213	172.0
202.87413	312.0
202.913254	144.0
202.940765	360.0
202.975266	152.0
203.001419	332.0
203.007996	320.0
203.018021	296.0
203.065765	54384.0
203.102051	948.0
203.148819	96.0
203.168427	36.0
203.214859	156.0
203.271194	132.0
203.282166	128.0
203.334579	76.0
203.365799	64.0
203.388504	196.0
203.431091	80.0
203.464355	56.0
203.516891	276.0
203.55574	72.0
203.579987	128.0
203.613678	40.0
203.636963	184.0
203.676392	116.0
203.707809	172.0
203.749176	76.0
203.789764	148.0
203.819336	52.0
203.862946	104.0
203.886963	108.0
203.935501	148.0
203.97937	44.0
204.068085	6456.0
204.116837	424.0
204.150284	36.0
204.200089	64.0
204.219589	72.0
204.231125	52.0
204.245422	144.0
204.280807	72.0
204.320633	64.0
204.363007	128.0
204.396393	96.0
204.44014	96.0
204.537933	112.0
204.59581	212.0
204.619476	44.0
204.650787	220.0
204.678314	144.0
204.703659	148.0
204.782684	64.0
204.835922	184.0
204.912842	76.0
204.982864	180.0
205.042862	116.0
205.072144	240.0
205.132278	268.0
205.168335	80.0
205.204926	188.0
205.259018	124.0
205.291962	128.0
205.329025	132.0
205.360413	60.0
205.387283	104.0
205.467758	76.0
205.505905	60.0
205.548706	164.0
205.575867	100.0
205.614746	112.0
205.668564	100.0
205.698074	152.0
205.724869	104.0
205.751358	64.0
205.791748	136.0
205.835251	116.0
205.908417	164.0
205.943985	136.0
206.01709	84.0
206.036957	168.0
206.091248	144.0
206.13295	212.0
206.159073	160.0
206.256775	152.0
206.311325	36.0
206.376221	200.0
206.423843	152.0
206.508636	200.0
206.548676	96.0
206.58873	48.0
206.654541	108.0
206.768997	116.0
206.854874	128.0
206.890823	56.0
206.945953	64.0
206.97226	140.0
207.132645	136.0
207.213379	332.0
207.275894	136.0
207.299683	112.0
207.347549	76.0
207.422073	52.0
207.456467	140.0
207.637115	76.0
207.751862	136.0
207.823593	152.0
207.878113	88.0
207.994858	136.0
208.054825	268.0
208.214737	188.0
208.235168	76.0
208.673782	68.0
208.739914	148.0
208.860718	128.0
208.892365	104.0
209.000534	168.0
209.065002	164.0
209.168625	92.0
209.204117	204.0
209.231949	40.0
209.374374	140.0
209.600479	228.0
209.633255	172.0
209.664032	156.0
209.744736	36.0
209.790863	60.0
209.886017	100.0
209.913681	208.0
210.073669	188.0
210.145615	128.0
210.296906	132.0
210.336334	48.0
210.358154	124.0
210.402481	116.0
210.615051	92.0
210.697083	28.0
210.769318	180.0
210.931168	248.0
210.954285	96.0
210.996429	152.0
211.067017	288.0
211.086212	140.0
211.153809	172.0
211.17984	168.0
211.205872	96.0
211.255051	160.0
211.411301	44.0
211.590759	160.0
211.663147	176.0
211.695007	116.0
211.741348	60.0
211.764511	140.0
211.81665	68.0
211.98053	136.0
212.079926	168.0
212.149918	104.0
212.236893	140.0
212.270813	132.0
212.344193	44.0
212.419617	96.0
212.637238	372.0
212.674973	128.0
212.786804	92.0
212.850876	80.0
212.901489	236.0
212.965332	144.0
212.991486	96.0
213.051956	108.0
213.110596	92.0
213.136749	132.0
213.232208	52.0
213.264618	160.0
213.441971	164.0
213.770691	264.0
213.872559	292.0
213.921555	100.0
214.057297	912.0
214.271515	64.0
214.420135	132.0
214.592133	312.0
214.691269	136.0
214.73468	168.0
214.850372	148.0
214.872131	168.0
214.957489	268.0
215.063065	1408.0
215.102676	144.0
215.136948	212.0
215.250076	120.0
215.272034	240.0
215.2948	180.0
215.443512	164.0
215.499878	120.0
215.572922	148.0
215.625534	188.0
215.722946	144.0
215.774612	152.0
215.79509	160.0
215.912048	52.0
215.955933	128.0
216.070206	704.0
216.211258	148.0
216.269012	116.0
216.438812	128.0
216.45932	160.0
216.55011	140.0
216.608688	152.0
216.784317	136.0
216.837234	180.0
216.863617	148.0
216.898788	192.0
216.954117	156.0
216.980881	112.0
217.028458	140.0
217.080414	13788.0
217.183228	72.0
217.216202	132.0
217.267136	172.0
217.286835	152.0
217.325348	208.0
217.365128	128.0
217.438492	56.0
217.582336	236.0
217.652802	152.0
217.695648	168.0
217.717407	112.0
217.737961	28.0
217.75853	200.0
217.811401	56.0
217.842239	136.0
217.899536	132.0
217.943604	44.0
218.00238	76.0
218.083954	1924.0
218.125839	3612.0
218.185959	132.0
218.281647	320.0
218.335449	124.0
218.372818	44.0
218.44342	76.0
218.466949	140.0
218.500549	96.0
218.555222	156.0
218.578766	84.0
218.608185	180.0
218.696487	72.0
218.735565	172.0
218.770081	108.0
218.879013	148.0
218.951111	216.0
219.041	52.0
219.092224	332.0
219.131485	716.0
219.236679	88.0
219.338623	44.0
219.421173	72.0
219.457993	132.0
219.502686	80.0
219.558716	112.0
219.589432	144.0
219.645309	168.0
219.727905	108.0
219.760162	116.0
219.822327	68.0
219.934494	176.0
219.984665	144.0
220.132294	144.0
220.309525	144.0
220.540024	32.0
220.640533	224.0
220.676407	120.0
220.702621	156.0
220.815002	124.0
220.86232	128.0
220.920395	140.0
220.986572	60.0
221.020599	96.0
221.076157	384.0
221.167099	88.0
221.318085	180.0
221.341782	176.0
221.403976	140.0
221.528381	144.0
221.593552	84.0
221.646896	108.0
221.715057	28.0
221.928482	108.0
222.01152	76.0
222.032288	140.0
222.183563	116.0
222.298813	100.0
222.4655	112.0
222.575363	120.0
222.628815	152.0
222.748764	128.0
222.815948	116.0
222.869431	160.0
222.893204	164.0
222.943726	184.0
222.994247	116.0
223.032898	164.0
223.089951	144.0
223.128021	184.0
223.148834	164.0
223.169647	28.0
223.368912	56.0
223.422455	128.0
223.470062	148.0
223.609924	144.0
223.937454	64.0
224.071503	160.0
224.154938	148.0
224.217514	180.0
224.238373	188.0
224.295013	48.0
224.319077	108.0
224.38147	104.0
224.414261	120.0
224.45845	88.0
224.49173	204.0
224.599167	176.0
224.630722	160.0
224.685684	196.0
224.721481	224.0
224.751328	140.0
224.876663	124.0
224.927414	196.0
224.948303	84.0
225.031906	64.0
225.070724	128.0
225.104294	432.0
225.229004	128.0
225.318634	60.0
225.425156	184.0
225.447113	148.0
225.539764	368.0
225.656357	48.0
225.745346	180.0
225.769989	116.0
225.821625	152.0
225.862717	40.0
225.961441	136.0
226.034363	152.0
226.084122	120.0
226.106613	176.0
226.185898	160.0
226.227951	180.0
226.332596	120.0
226.421707	148.0
226.467361	336.0
226.488327	164.0
226.677078	68.0
226.79245	108.0
226.904892	100.0
227.066376	160.0
227.201202	256.0
227.25882	120.0
227.389465	284.0
227.55896	120.0
227.610016	48.0
227.72113	104.0
227.748169	140.0
227.790222	68.0
227.946457	176.0
227.97879	116.0
228.030609	156.0
228.071884	376.0
228.108765	184.0
228.168884	208.0
228.212372	164.0
228.358337	148.0
228.490692	124.0
228.529816	156.0
228.803711	208.0
228.833817	72.0
228.884995	236.0
229.031097	204.0
229.065552	324.0
229.122314	152.0
229.156097	48.0
229.266052	164.0
229.306763	72.0
229.403229	68.0
229.454483	128.0
229.584137	108.0
229.623352	136.0
229.700943	248.0
229.805511	156.0
229.836609	124.0
229.88475	112.0
229.909973	208.0
229.993576	80.0
230.042068	140.0
230.067688	176.0
230.127579	11876.0
230.293411	48.0
230.31456	32.0
230.360504	144.0
230.400436	140.0
230.444092	128.0
230.486771	276.0
230.507919	156.0
230.607651	56.0
230.642197	140.0
230.707413	128.0
230.78299	60.0
230.825333	104.0
230.967484	108.0
231.04628	164.0
231.091522	124.0
231.130997	1860.0
231.200165	168.0
231.235291	120.0
231.260986	116.0
231.354828	56.0
231.444565	144.0
231.462875	140.0
231.533478	132.0
231.578918	156.0
231.615982	136.0
231.678879	40.0
231.79248	156.0
231.821289	200.0
231.925629	132.0
231.972839	124.0
232.147614	3048.0
232.213226	160.0
232.305145	44.0
232.378967	44.0
232.430817	112.0
232.464203	232.0
232.491516	168.0
232.527939	176.0
232.588638	104.0
232.615067	148.0
232.670609	80.0
232.737411	76.0
232.764099	132.0
232.831543	40.0
232.933609	120.0
233.001663	84.0
233.05275	196.0
233.088943	264.0
233.11821	112.0
233.151321	404.0
233.208298	208.0
233.267242	164.0
233.293411	144.0
233.424164	96.0
233.530609	56.0
233.606659	92.0
233.673584	104.0
233.740524	128.0
233.801392	228.0
233.822693	204.0
233.847046	216.0
233.917053	168.0
233.993164	96.0
234.06929	212.0
234.111923	128.0
234.13324	76.0
234.158615	144.0
234.356308	124.0
234.498856	104.0
234.549576	144.0
234.58725	112.0
234.697006	256.0
234.718353	104.0
234.761047	48.0
234.822052	136.0
234.901352	172.0
234.925766	40.0
234.950165	168.0
234.995926	152.0
235.061127	120.0
235.141251	136.0
235.203461	128.0
235.359161	136.0
235.380539	160.0
235.44902	132.0
235.490479	116.0
235.551575	156.0
235.679886	184.0
235.716568	52.0
235.780746	64.0
235.879623	204.0
236.003906	88.0
236.049774	148.0
236.095169	132.0
236.159866	124.0
236.199631	204.0
236.230225	80.0
236.30365	116.0
236.337311	176.0
236.401566	152.0
236.422989	132.0
236.545425	156.0
236.713821	204.0
236.753632	148.0
236.906143	76.0
237.145813	116.0
237.188629	144.0
237.216309	196.0
237.415619	176.0
237.450851	188.0
237.544434	72.0
237.602722	152.0
237.697845	144.0
237.826752	200.0
237.903488	64.0
237.980255	160.0
238.032455	124.0
238.106155	124.0
238.130722	84.0
238.253601	152.0
238.401093	168.0
238.551697	44.0
238.582443	128.0
238.61319	176.0
238.668533	216.0
238.840759	76.0
238.862289	168.0
238.982285	212.0
239.120758	132.0
239.210037	160.0
239.323944	152.0
239.422485	48.0
239.517975	180.0
239.607315	160.0
239.628876	124.0
239.659683	100.0
239.715164	76.0
239.767822	180.0
239.844604	132.0
239.992584	124.0
240.043884	132.0
240.055801	104.0
240.183792	144.0
240.322632	132.0
240.353485	84.0
240.375092	52.0
240.427002	136.0
240.473846	136.0
240.498245	188.0
240.668335	160.0
240.705399	56.0
240.764923	72.0
240.785202	128.0
240.811066	128.0
240.9216	68.0
240.97876	144.0
241.014297	144.0
241.075562	160.0
241.246094	108.0
241.289383	100.0
241.363586	136.0
241.533691	148.0
241.654343	136.0
241.739441	96.0
241.81218	96.0
242.087723	112.0
242.151337	148.0
242.322601	152.0
242.399689	312.0
242.450195	144.0
242.55867	192.0
242.602081	100.0
242.710587	204.0
242.788116	56.0
242.930801	124.0
242.985153	316.0
243.045593	84.0
243.096848	7636.0
243.138702	272.0
243.22049	136.0
243.266312	36.0
243.315643	168.0
243.377731	140.0
243.411896	116.0
243.52092	192.0
243.638641	196.0
243.679031	40.0
243.779907	112.0
243.836685	120.0
244.100662	1628.0
244.181442	124.0
244.204391	136.0
244.266602	116.0
244.34024	180.0
244.419067	96.0
244.447067	92.0
244.490631	52.0
244.513809	108.0
244.574677	96.0
244.61203	60.0
244.651413	104.0
244.836212	44.0
244.927704	140.0
245.07608	168.0
245.107803	236.0
245.169571	164.0
245.247482	68.0
245.284897	136.0
245.447021	48.0
245.49379	156.0
245.549927	136.0
245.618561	104.0
245.68718	76.0
245.714218	112.0
245.776779	248.0
245.846329	108.0
245.955566	212.0
246.102295	128.0
246.127274	192.0
246.205353	104.0
246.361526	164.0
246.399017	192.0
246.424011	192.0
246.477127	116.0
246.502136	68.0
246.586517	164.0
246.611526	184.0
246.727188	132.0
246.761581	168.0
246.852249	160.0
246.889786	136.0
246.977356	112.0
247.002274	120.0
247.118134	156.0
247.143173	68.0
247.16507	208.0
247.559509	120.0
247.816376	152.0
247.99501	116.0
248.082779	120.0
248.120392	116.0
248.161163	112.0
248.317963	120.0
248.342361	92.0
248.415192	92.0
248.540695	140.0
248.572083	168.0
248.656815	180.0
248.727325	60.0
248.785507	128.0
248.957397	156.0
248.995895	260.0
249.061859	140.0
249.087906	164.0
249.112122	168.0
249.467239	136.0
249.508102	88.0
249.570984	104.0
249.593002	140.0
249.630737	48.0
249.737671	140.0
249.87294	120.0
249.961044	104.0
250.020828	120.0
250.158096	92.0
250.197281	148.0
250.272675	132.0
250.420029	172.0
250.445343	116.0
250.452057	96.0
250.609711	72.0
250.732605	132.0
250.779892	124.0
250.972198	128.0
251.026382	144.0
251.053207	180.0
251.259216	148.0
251.369659	84.0
251.445251	88.0
251.536942	152.0
251.622177	72.0
251.672562	92.0
251.742172	100.0
251.775055	164.0
251.871658	184.0
251.922211	108.0
251.975906	112.0
252.051743	144.0
252.175003	128.0
252.209763	140.0
252.415268	92.0
252.459549	136.0
252.557602	120.0
252.649338	128.0
252.696793	88.0
252.858185	192.0
252.889832	172.0
252.943649	60.0
253.022797	128.0
253.146408	192.0
253.203293	100.0
253.236603	116.0
253.269806	164.0
253.377518	176.0
253.418701	140.0
253.478912	84.0
253.52327	56.0
253.577148	188.0
253.790222	208.0
253.84346	224.0
253.944519	120.0
253.954956	104.0
253.961548	136.0
254.002045	156.0
254.062317	108.0
254.144806	124.0
254.236847	56.0
254.332062	216.0
254.386017	172.0
254.457901	156.0
254.506546	204.0
254.563828	132.0
254.837006	56.0
255.046539	112.0
255.097	204.0
255.132599	148.0
255.196182	172.0
255.310654	32.0
255.336105	104.0
255.533325	248.0
255.623825	108.0
255.682892	48.0
255.749741	48.0
255.775192	168.0
255.963043	216.0
256.020355	164.0
256.342133	204.0
256.619446	168.0
256.660889	132.0
256.683228	88.0
256.759766	116.0
256.823547	96.0
256.873077	144.0
256.932007	128.0
257.108215	136.0
257.171356	52.0
257.229614	176.0
257.337738	136.0
257.479584	96.0
257.525787	120.0
257.642395	100.0
257.679108	164.0
257.717468	88.0
257.784546	148.0
257.93158	176.0
257.966736	116.0
258.075439	204.0
258.158081	244.0
258.273743	156.0
258.328125	264.0
258.374359	116.0
258.468903	224.0
258.494507	116.0
258.542511	108.0
258.622528	152.0
258.867462	260.0
258.968323	52.0
259.109283	140.0
259.166962	176.0
259.216644	172.0
259.240662	160.0
259.343201	140.0
259.387573	168.0
259.452209	148.0
259.562225	140.0
259.747253	76.0
259.90918	212.0
259.987885	132.0
260.036041	136.0
260.10022	56.0
260.160553	76.0
260.202972	196.0
260.389221	144.0
260.540192	128.0
260.588379	140.0
260.614075	104.0
260.667572	148.0
260.733002	152.0
260.758698	188.0
260.823517	144.0
261.025543	152.0
261.048035	128.0
261.18634	188.0
261.308594	84.0
261.430878	136.0
261.756012	160.0
261.785004	48.0
261.826874	188.0
262.174805	156.0
262.271515	160.0
262.36499	116.0
262.423035	148.0
262.448822	168.0
262.555237	72.0
262.645569	88.0
262.726196	80.0
262.81424	208.0
262.9198	124.0
263.003723	160.0
263.045685	156.0
263.11026	144.0
263.190979	124.0
263.333069	136.0
263.407379	180.0
263.501068	128.0
263.54306	124.0
263.608673	184.0
263.63678	72.0
263.80484	104.0
263.848602	156.0
263.879211	156.0
263.943878	212.0
263.995636	116.0
264.086182	124.0
264.228516	168.0
264.647736	124.0
264.710815	136.0
264.778809	140.0
264.810791	60.0
264.853333	56.0
264.953735	200.0
265.00235	92.0
265.203278	176.0
265.323212	308.0
265.401031	136.0
265.439941	44.0
265.585876	160.0
265.645721	216.0
265.696198	152.0
265.752258	144.0
265.829224	108.0
265.93161	160.0
265.981781	132.0
266.014221	156.0
266.069427	156.0
266.196045	128.0
266.37793	112.0
266.430023	132.0
266.592377	76.0
266.680145	144.0
266.768005	140.0
266.829681	116.0
266.914215	172.0
267.131531	212.0
267.285065	60.0
267.478699	176.0
267.6008	96.0
267.685455	136.0
267.896271	96.0
267.972107	104.0
268.024231	160.0
268.209991	48.0
268.493683	80.0
268.51651	236.0
268.588257	108.0
268.640442	136.0
268.695923	192.0
268.793793	204.0
268.831177	284.0
268.855927	124.0
268.957001	156.0
269.014771	132.0
269.081055	200.0
269.259094	120.0
269.311829	232.0
269.474487	148.0
269.550873	148.0
269.682129	84.0
269.731171	116.0
269.76059	64.0
269.816162	148.0
270.03894	124.0
270.097412	116.0
270.182465	160.0
270.313354	136.0
270.388611	104.0
270.442291	72.0
270.506287	84.0
270.614502	116.0
270.748749	128.0
270.807709	140.0
270.856842	140.0
270.90271	328.0
270.958405	124.0
271.043121	144.0
271.07309	116.0
271.458679	172.0
271.51239	132.0
271.679688	204.0
271.774811	204.0
271.801727	204.0
271.866699	144.0
271.906097	168.0
271.9422	116.0
272.073486	56.0
272.125458	112.0
272.23111	64.0
272.2771	96.0
272.50705	168.0
272.549744	108.0
272.635193	112.0
272.677917	112.0
272.75351	52.0
272.819275	168.0
272.875153	64.0
272.950775	184.0
273.072479	100.0
273.102478	128.0
273.134979	180.0
273.19223	168.0
273.230927	116.0
273.342255	72.0
273.404755	56.0
273.431091	96.0
273.495575	156.0
273.559479	72.0
273.607391	180.0
273.733978	124.0
273.766907	140.0
273.859131	88.0
273.895355	88.0
273.951355	148.0
274.060089	120.0
274.139252	10300.0
274.230255	164.0
274.264435	148.0
274.349304	204.0
274.37265	48.0
274.429688	92.0
274.483521	124.0
274.55246	56.0
274.622498	60.0
274.672791	132.0
274.798676	116.0
274.878174	128.0
274.902466	148.0
274.96405	136.0
274.993378	96.0
275.049683	140.0
275.075897	96.0
275.141479	1980.0
275.207855	140.0
275.322937	128.0
275.369781	72.0
275.424622	180.0
275.492004	100.0
275.535889	168.0
275.58783	176.0
275.652588	160.0
275.736511	100.0
275.809235	152.0
275.835693	92.0
275.882599	164.0
275.944794	104.0
276.001007	56.0
276.093689	156.0
276.143158	552.0
276.232513	184.0
276.421112	80.0
276.46347	132.0
276.530334	128.0
276.553497	172.0
276.581696	92.0
276.623016	140.0
276.685242	60.0
276.732544	140.0
276.801788	100.0
276.848145	116.0
276.881287	148.0
276.908966	144.0
276.995819	288.0
277.030334	128.0
277.140076	184.0
277.229126	72.0
277.274475	176.0
277.388245	128.0
277.434662	160.0
277.474426	184.0
277.590485	92.0
277.766266	172.0
277.882385	120.0
277.945435	116.0
278.141235	80.0
278.38031	68.0
278.450043	92.0
278.632751	368.0
278.732422	232.0
278.768982	128.0
278.890594	116.0
278.945129	52.0
279.014954	116.0
279.051544	84.0
279.147949	68.0
279.174408	88.0
279.271027	36.0
279.31427	112.0
279.364166	140.0
279.417389	184.0
279.47229	96.0
279.561188	152.0
279.676971	220.0
279.860077	156.0
279.966644	28.0
280.011108	180.0
280.13446	144.0
280.210266	216.0
280.289764	104.0
280.453064	140.0
280.546814	148.0
280.636444	68.0
280.876099	180.0
280.901703	104.0
280.939941	176.0
281.045624	124.0
281.256958	80.0
281.307037	88.0
281.33374	140.0
281.588684	168.0
281.70932	148.0
281.888275	176.0
282.078705	172.0
282.19574	192.0
282.312775	76.0
282.536865	124.0
282.577026	132.0
282.607147	64.0
282.657318	120.0
282.82132	184.0
282.899628	204.0
282.985352	84.0
283.065735	156.0
283.095551	132.0
283.226501	212.0
283.259979	120.0
283.501221	144.0
283.60849	120.0
283.72583	100.0
283.772766	116.0
284.041046	148.0
284.139832	268.0
284.239014	124.0
284.322906	152.0
284.403442	68.0
284.645172	260.0
284.6922	92.0
284.725769	100.0
284.819824	100.0
285.09198	192.0
285.406647	180.0
285.438232	144.0
285.468506	176.0
285.53241	144.0
285.646759	184.0
285.68042	104.0
285.740967	76.0
285.787689	172.0
285.838531	168.0
285.935699	120.0
285.998596	144.0
286.023651	140.0
286.138336	644.0
286.316589	208.0
286.417633	108.0
286.625732	156.0
286.683807	168.0
286.711243	172.0
286.855713	144.0
286.896149	160.0
287.141144	304.0
287.435822	212.0
287.564087	168.0
287.604584	140.0
287.665344	116.0
287.753113	88.0
287.856567	144.0
288.013153	132.0
288.063812	192.0
288.090851	148.0
288.155243	132.0
288.182068	148.0
288.236145	48.0
288.273315	176.0
288.347656	92.0
288.455841	88.0
288.506531	108.0
288.566223	164.0
288.712799	72.0
288.894226	188.0
288.986816	152.0
289.017242	108.0
289.139099	160.0
289.206787	144.0
289.274475	84.0
289.352356	176.0
289.376038	84.0
289.501343	80.0
289.531525	224.0
289.674072	56.0
289.982422	132.0
290.470703	88.0
290.518219	164.0
290.552124	228.0
290.616608	76.0
290.725189	120.0
290.806641	156.0
290.986572	76.0
291.037079	132.0
291.18692	244.0
291.224274	128.0
291.258789	188.0
291.292206	160.0
291.380554	144.0
291.448517	188.0
291.489288	144.0
291.54364	68.0
291.598022	112.0
291.657684	388.0
291.684418	84.0
291.723816	148.0
291.839386	176.0
291.910797	192.0
291.938019	100.0
291.989044	160.0
292.060455	80.0
292.131897	144.0
292.302002	148.0
292.397308	120.0
292.45517	208.0
292.479004	156.0
292.516449	156.0
292.584534	96.0
292.618561	140.0
292.690094	112.0
292.83313	140.0
292.914856	52.0
293.092041	160.0
293.177216	156.0
293.227295	196.0
293.383484	148.0
293.456757	140.0
293.492859	136.0
293.620422	52.0
293.682343	156.0
293.715942	52.0
293.756866	172.0
293.789673	144.0
294.005676	100.0
294.228943	196.0
294.319366	204.0
294.36969	220.0
294.705994	36.0
294.757263	168.0
294.805756	172.0
295.0401	160.0
295.205078	224.0
295.315033	132.0
295.426727	140.0
295.485565	184.0
295.543732	80.0
295.724792	156.0
295.779877	216.0
295.882599	136.0
295.91684	80.0
295.971619	52.0
296.077789	144.0
296.101746	108.0
296.197662	184.0
296.235352	168.0
296.447784	128.0
296.584869	104.0
296.78714	112.0
296.830597	296.0
296.903748	128.0
296.996338	116.0
297.414978	148.0
297.441284	108.0
297.524811	160.0
297.579742	144.0
297.648438	68.0
297.68277	180.0
297.830444	136.0
297.863251	160.0
297.895721	60.0
297.930084	132.0
297.954132	104.0
298.05722	200.0
298.146545	96.0
298.232483	188.0
298.33905	180.0
298.42157	128.0
298.46283	116.0
298.493774	100.0
298.538483	200.0
298.565979	72.0
298.610718	116.0
298.645111	192.0
298.73111	136.0
298.786133	140.0
298.875824	60.0
299.028046	240.0
299.06366	176.0
299.106201	120.0
299.140625	96.0
299.199127	144.0
299.274902	168.0
299.305878	148.0
299.422974	100.0
299.519409	76.0
299.581421	112.0
299.681335	300.0
299.73645	148.0
299.764038	156.0
299.82608	108.0
299.87088	52.0
299.991516	124.0
300.105286	208.0
300.148743	140.0
300.253571	88.0
300.284607	128.0
300.332916	164.0
300.567505	84.0
300.629639	116.0
300.722809	240.0
300.861755	176.0
300.895416	136.0
300.950653	44.0
301.00592	136.0
301.057709	140.0
301.112976	176.0
301.213135	160.0
301.403168	132.0
301.524109	144.0
301.641632	164.0
301.771912	152.0
301.911346	184.0
301.990875	140.0
302.052734	132.0
302.09726	340.0
302.181915	184.0
302.312653	120.0
302.361084	120.0
302.551483	276.0
302.603424	236.0
302.849304	164.0
302.970673	124.0
303.036377	92.0
303.272034	116.0
303.344818	196.0
303.396057	184.0
303.497375	96.0
303.532043	92.0
303.68811	156.0
303.722809	148.0
303.806061	128.0
303.979553	132.0
304.021179	104.0
304.052429	188.0
304.0802	100.0
304.122742	176.0
304.160034	48.0
304.199524	84.0
304.288483	152.0
304.323181	168.0
304.350983	276.0
304.406525	124.0
304.434326	168.0
304.569763	160.0
304.670502	32.0
304.739471	132.0
304.771271	132.0
304.802551	64.0
304.869263	160.0
304.913757	124.0
304.971008	160.0
305.011078	200.0
305.07016	148.0
305.167511	192.0
305.226624	152.0
305.268372	104.0
305.316284	184.0
305.449219	116.0
305.538879	148.0
305.61792	264.0
305.65799	104.0
305.713654	124.0
305.82251	72.0
305.8508	128.0
305.923462	160.0
305.957306	120.0
306.131409	112.0
306.16275	136.0
306.225464	128.0
306.377258	132.0
306.389862	164.0
306.434479	92.0
306.598236	36.0
306.723724	100.0
306.829987	132.0
306.894562	144.0
307.196991	196.0
307.309631	112.0
307.347107	76.0
307.410828	136.0
307.557404	108.0
307.672607	112.0
307.697052	108.0
307.721497	148.0
307.745941	116.0
307.983429	156.0
308.182556	128.0
308.241943	96.0
308.276886	164.0
308.438354	184.0
308.596863	108.0
308.937744	148.0
309.039215	128.0
309.221191	120.0
309.389221	168.0
309.532776	108.0
309.651825	124.0
309.721893	152.0
309.851501	96.0
309.942627	144.0
310.005676	144.0
310.058258	144.0
310.11084	380.0
310.183899	104.0
310.207306	192.0
310.36676	176.0
310.466003	160.0
310.551453	120.0
310.724518	144.0
310.752594	224.0
310.822784	160.0
310.889435	124.0
310.956116	152.0
311.173767	172.0
311.222931	180.0
311.535522	88.0
311.572479	116.0
311.637421	136.0
311.735809	160.0
311.785004	40.0
311.929108	200.0
312.326477	120.0
312.430817	152.0
312.477753	104.0
312.576263	104.0
312.637909	112.0
312.681854	116.0
312.706482	132.0
312.798004	148.0
312.893066	264.0
312.93634	176.0
313.037415	88.0
313.086731	80.0
313.162994	104.0
313.192383	140.0
313.227631	76.0
313.296173	208.0
313.37558	144.0
313.400238	60.0
313.470734	48.0
313.601135	124.0
313.638916	144.0
313.728027	76.0
313.946655	164.0
314.04541	220.0
314.167358	124.0
314.295898	124.0
314.365051	168.0
314.599426	76.0
314.804199	212.0
314.864258	116.0
314.927826	96.0
314.977295	96.0
315.002014	68.0
315.033813	188.0
315.072662	140.0
315.097382	80.0
315.16098	136.0
315.277618	132.0
315.447266	148.0
315.574554	128.0
315.687714	140.0
315.751373	32.0
315.889313	168.0
315.980286	140.0
316.04245	112.0
316.108673	124.0
316.147614	96.0
316.225464	208.0
316.342285	104.0
316.367065	92.0
316.448486	108.0
316.498077	64.0
316.537018	172.0
316.597229	120.0
316.705048	100.0
316.742432	132.0
316.912506	36.0
317.04007	148.0
317.100311	76.0
317.128662	128.0
317.206665	132.0
317.266937	76.0
317.380371	172.0
317.446625	176.0
317.500946	188.0
317.597351	136.0
317.64856	176.0
317.735077	116.0
317.827332	76.0
317.869904	80.0
318.047363	176.0
318.132568	56.0
318.292328	164.0
318.434387	72.0
318.516083	176.0
318.583588	100.0
318.663605	160.0
318.764801	176.0
318.904694	120.0
319.017151	160.0
319.052704	116.0
319.143463	124.0
319.212708	144.0
319.256897	112.0
319.344299	208.0
319.500824	68.0
319.710754	92.0
319.803314	52.0
319.828217	140.0
320.13797	120.0
320.173584	140.0
320.454285	240.0
320.522705	188.0
320.618927	128.0
320.658142	48.0
320.704468	160.0
320.779327	160.0
320.87851	132.0
321.018219	188.0
321.132355	140.0
321.207245	192.0
321.528381	84.0
321.679626	136.0
321.740631	148.0
321.822968	108.0
321.853241	316.0
322.053223	108.0
322.131836	96.0
322.185425	104.0
322.213135	244.0
322.410522	112.0
322.499878	76.0
322.635712	124.0
322.73584	132.0
322.800385	148.0
322.882446	144.0
323.036865	168.0
323.089935	72.0
323.117065	96.0
323.170197	184.0
323.277588	108.0
323.318939	144.0
323.359558	148.0
323.381348	92.0
323.422729	124.0
323.516846	96.0
323.683441	148.0
323.741394	80.0
323.77005	168.0
323.798706	112.0
323.852417	68.0
323.877502	152.0
323.924072	144.0
324.011078	124.0
324.156982	200.0
324.217865	156.0
324.273407	136.0
324.399536	152.0
324.522583	156.0
324.556915	124.0
324.611328	148.0
324.673187	148.0
324.773621	92.0
324.832672	168.0
324.938629	72.0
325.019073	164.0
325.114929	224.0
325.146759	56.0
325.18924	120.0
325.264526	164.0
325.378418	172.0
325.415985	188.0
325.481812	280.0
325.548248	148.0
325.638275	120.0
325.71048	144.0
325.757202	128.0
325.797607	176.0
325.844238	256.0
325.855072	164.0
325.911346	340.0
325.976349	56.0
326.01947	64.0
326.06311	252.0
326.113708	132.0
326.170135	57264.0
326.266327	196.0
326.316162	160.0
326.35144	92.0
326.381165	92.0
326.449097	132.0
326.50174	336.0
326.561951	120.0
326.59671	96.0
326.6297	212.0
326.695801	172.0
326.748505	132.0
326.795746	220.0
326.819733	180.0
326.844818	96.0
326.891693	136.0
326.960052	152.0
327.05719	188.0
327.172943	13816.0
327.242523	160.0
327.278168	88.0
327.314545	76.0
327.339661	112.0
327.36496	92.0
327.412567	200.0
327.459747	252.0
327.515594	148.0
327.559631	144.0
327.594055	268.0
327.617859	192.0
327.652679	180.0
327.692413	136.0
327.733826	196.0
327.779327	92.0
327.807373	396.0
327.857513	144.0
327.891785	180.0
327.936676	172.0
327.96756	376.0
327.996613	232.0
328.11441	588.0
328.186737	191684.0
328.343994	196.0
328.411713	148.0
328.441284	104.0
328.486176	508.0
328.566071	404.0
328.6008	228.0
328.672638	128.0
328.721924	180.0
328.779327	596.0
328.805603	280.0
328.817871	168.0
328.830994	208.0
328.880432	220.0
328.894409	184.0
328.919861	104.0
328.969269	212.0
328.996948	136.0
329.022125	236.0
329.05368	340.0
329.099457	108.0
329.189178	44240.0
329.307007	76.0
329.337891	164.0
329.387177	128.0
329.426392	224.0
329.477112	80.0
329.545532	48.0
329.586304	148.0
329.616852	168.0
329.670563	80.0
329.721405	124.0
329.762604	184.0
329.799774	292.0
329.831116	224.0
329.876129	152.0
329.883148	148.0
329.932831	152.0
329.976898	252.0
330.004242	112.0
330.061737	156.0
330.111633	304.0
330.193054	4036.0
330.334595	144.0
330.345551	36.0
330.361786	128.0
330.392365	80.0
330.45755	76.0
330.498322	40.0
330.547485	104.0
330.569366	172.0
330.612793	44.0
330.684021	76.0
330.728516	112.0
330.770691	96.0
330.810791	96.0
330.848755	128.0
330.889038	148.0
330.918274	148.0
330.962189	80.0
331.006287	84.0
331.03595	192.0
331.088287	132.0
331.127838	104.0
331.193054	236.0
331.244934	208.0
331.279816	104.0
331.305054	108.0
331.361206	88.0
331.405884	280.0
331.44693	176.0
331.476471	124.0
331.522095	164.0
331.566315	92.0
331.625488	132.0
331.693329	92.0
331.72403	104.0
331.762573	172.0
331.812347	208.0
331.835815	156.0
331.88562	72.0
331.911011	100.0
331.950897	76.0
331.974365	72.0
332.008942	104.0
332.037933	72.0
332.103973	92.0
332.19931	116.0
332.250519	80.0
332.319275	108.0
332.364441	32.0
332.461365	68.0
332.499451	184.0
332.63797	164.0
332.667816	68.0
332.704376	100.0
332.748566	68.0
332.756195	56.0
332.769287	120.0
332.800018	136.0
332.865387	56.0
332.930756	104.0
332.963867	68.0
333.043335	116.0
333.072418	36.0
333.097839	44.0
333.125183	76.0
333.25769	80.0
333.352173	80.0
333.450287	152.0
333.476715	148.0
333.50174	144.0
333.562988	40.0
333.617493	176.0
333.709747	88.0
333.777496	84.0
333.80899	168.0
333.85022	60.0
333.970245	68.0
333.999329	104.0
334.032074	44.0
334.13031	224.0
334.206726	60.0
334.25766	96.0
334.381378	188.0
334.548828	44.0
334.643494	68.0
334.763672	32.0
334.872925	84.0
335.10434	100.0
335.18988	128.0
335.407166	116.0
335.420898	72.0
335.428619	144.0
335.466888	44.0
335.499695	76.0
335.594482	96.0
335.671082	56.0
335.711182	76.0
335.930023	64.0
336.024872	88.0
336.165192	124.0
336.236542	104.0
336.298584	144.0
336.371582	36.0
336.466522	140.0
336.535889	60.0
336.809784	132.0
336.849976	32.0
336.889465	84.0
336.974182	72.0
337.018036	92.0
337.109375	116.0
337.22998	132.0
337.259247	64.0
337.495453	88.0
337.588287	52.0
337.807739	188.0
337.869934	64.0
337.932129	116.0
338.170013	76.0
338.334747	104.0
338.558105	112.0
338.766022	188.0
338.865814	136.0
338.927643	160.0
339.074677	148.0
339.206635	64.0
339.353302	224.0
339.432434	176.0
339.496307	56.0
339.576996	60.0
339.678345	164.0
339.852142	108.0
339.91452	68.0
339.987915	60.0
340.029327	112.0
340.087006	100.0
340.123718	156.0
340.296265	128.0
340.432129	68.0
340.472534	44.0
340.531281	72.0
340.663513	96.0
340.755371	180.0
340.795807	108.0
340.828857	104.0
340.921112	76.0
340.994232	84.0
341.03833	140.0
341.211121	124.0
341.336151	52.0
341.383942	124.0
341.531067	48.0
341.579529	68.0
341.607758	108.0
341.641418	72.0
341.983643	116.0
342.123535	88.0
342.156677	76.0
342.230316	168.0
342.451263	104.0
342.506531	136.0
342.587555	104.0
342.62442	108.0
342.69809	68.0
342.779175	208.0
342.878662	152.0
342.926575	172.0
342.970825	104.0
343.011353	184.0
343.059296	124.0
343.110901	92.0
343.324768	84.0
343.372711	100.0
343.409607	196.0
343.478271	220.0
343.627258	128.0
343.782227	128.0
343.837585	120.0
344.025848	160.0
344.092285	116.0
344.180908	76.0
344.276917	180.0
344.432068	152.0
344.5784	240.0
344.631561	208.0
344.675903	144.0
344.735016	160.0
344.767365	80.0
344.834808	192.0
345.057922	124.0
345.208221	124.0
345.252594	144.0
345.3573	144.0
345.456024	116.0
345.705292	176.0
345.8927	44.0
345.922333	80.0
346.003754	40.0
346.28891	104.0
346.388916	192.0
346.614929	156.0
346.748352	164.0
346.800232	52.0
346.993011	204.0
347.033783	92.0
347.113983	108.0
347.426941	72.0
347.588745	144.0
347.708557	112.0
347.760895	80.0
347.861145	124.0
347.916809	36.0
348.087616	188.0
348.176758	112.0
348.269592	192.0
348.295593	72.0
348.523865	64.0
348.826996	172.0
348.873566	128.0
349.035187	68.0
349.278168	152.0
349.369965	132.0
349.433197	108.0
349.474121	140.0
349.637878	76.0
349.742065	92.0
349.809937	160.0
349.861206	120.0
350.095795	200.0
350.171722	52.0
350.352814	220.0
350.591278	184.0
350.770203	68.0
350.796295	32.0
350.83728	100.0
350.952881	120.0
351.001343	144.0
351.086761	160.0
351.150513	136.0
351.254974	136.0
351.284058	100.0
351.340759	184.0
351.575836	112.0
351.792328	32.0
351.915558	44.0
352.213165	192.0
352.259155	48.0
352.449677	36.0
352.520691	124.0
352.595428	100.0
352.636536	96.0
352.86084	128.0
352.894501	96.0
352.995453	84.0
353.118866	72.0
353.186188	104.0
353.249786	196.0
353.657684	112.0
353.691345	148.0
353.978485	168.0
354.043304	72.0
354.305511	120.0
354.384216	128.0
354.417938	112.0
354.489136	144.0
354.530334	96.0
354.676514	160.0
354.77774	148.0
354.897705	192.0
354.983948	80.0
355.032715	128.0
355.066467	104.0
355.133972	80.0
355.212769	132.0
355.246521	200.0
355.302795	128.0
355.385345	172.0
355.456635	116.0
355.497925	132.0
355.779419	132.0
355.8461	148.0
355.853882	72.0
355.959656	132.0
356.026428	72.0
356.100067	124.0
356.154968	108.0
356.320251	124.0
356.696075	104.0
356.748688	168.0
356.887817	76.0
357.218781	80.0
357.2854	152.0
357.625183	148.0
357.881165	176.0
357.930115	140.0
358.043091	36.0
358.303009	120.0
358.355774	108.0
358.630859	132.0
358.781647	88.0
359.045624	116.0
359.166321	88.0
359.230438	120.0
359.264404	216.0
359.347382	100.0
359.721039	160.0
359.894684	156.0
359.940002	68.0
360.015533	120.0
360.121277	80.0
360.147736	140.0
360.238403	88.0
360.276154	196.0
360.397064	96.0
360.588226	132.0
360.756134	172.0
361.096436	156.0
361.296936	108.0
361.323425	200.0
361.78653	164.0
361.853302	196.0
361.9328	140.0
362.300201	180.0
362.33429	120.0
362.403564	100.0
362.497223	104.0
362.56546	112.0
362.622284	92.0
362.664001	128.0
362.762543	96.0
362.927856	212.0
363.001434	200.0
363.035553	188.0
363.284393	172.0
363.298431	104.0
363.361755	76.0
363.407288	84.0
363.468018	64.0
363.612213	228.0
363.69574	136.0
363.828583	160.0
363.953888	160.0
364.177948	116.0
364.212128	60.0
364.269135	180.0
364.310913	60.0
364.417297	124.0
364.611084	172.0
364.717529	124.0
365.033081	88.0
365.074921	72.0
365.261292	44.0
365.736938	96.0
365.803009	180.0
365.853577	112.0
366.191284	468.0
366.361481	156.0
366.41098	48.0
366.677734	120.0
366.738739	92.0
366.773041	120.0
366.799713	88.0
366.975098	136.0
367.036102	76.0
367.169556	208.0
367.204041	116.0
367.30307	112.0
367.474762	164.0
367.63501	128.0
367.883118	120.0
368.197876	148.0
368.303162	172.0
368.337555	132.0
368.42923	116.0
368.513306	144.0
368.574432	124.0
368.807556	128.0
368.868713	172.0
369.350555	88.0
369.576263	208.0
369.652802	152.0
369.687225	88.0
369.967712	88.0
369.993469	156.0
370.26535	104.0
370.372589	120.0
370.57431	176.0
370.644592	68.0
370.924377	88.0
371.020233	48.0
371.411377	112.0
371.468933	88.0
371.518799	140.0
371.887177	32.0
371.971619	188.0
372.034485	160.0
372.067596	120.0
372.155914	128.0
372.311768	164.0
372.443939	116.0
372.501556	84.0
372.532288	104.0
372.563049	68.0
372.724396	120.0
372.80127	76.0
372.951172	132.0
372.993439	144.0
373.135681	68.0
373.447174	172.0
373.474091	144.0
373.761475	104.0
373.808838	48.0
373.858856	100.0
373.905029	128.0
374.139252	264.0
374.263062	132.0
374.367035	84.0
374.401703	124.0
374.517242	180.0
374.676056	88.0
374.725281	176.0
374.783051	28.0
374.944916	124.0
375.180054	160.0
375.261017	124.0
375.303436	60.0
375.365143	88.0
375.415253	88.0
375.530975	164.0
375.654419	196.0
375.777863	164.0
376.090454	92.0
376.283478	160.0
376.360687	80.0
376.928528	120.0
377.187469	196.0
377.280273	64.0
377.450378	128.0
377.504517	116.0
377.575867	144.0
377.96875	156.0
378.065491	96.0
378.189331	124.0
378.371277	316.0
378.510681	76.0
378.603607	76.0
378.704315	108.0
379.07666	120.0
379.138245	120.0
379.173126	140.0
379.285553	136.0
379.661652	148.0
379.878845	140.0
379.944794	104.0
380.030151	76.0
380.29895	124.0
380.545563	132.0
380.624054	132.0
380.837646	44.0
381.082397	136.0
381.272827	128.0
381.369995	140.0
381.541687	144.0
381.599365	200.0
381.638245	160.0
381.751007	168.0
381.809357	220.0
381.92215	136.0
381.961029	112.0
382.027161	212.0
382.132202	108.0
382.198364	152.0
382.283966	112.0
382.381256	116.0
382.544769	164.0
382.665436	96.0
382.696594	200.0
382.722748	140.0
382.879608	176.0
382.922455	160.0
383.015961	144.0
383.179565	84.0
383.510803	36.0
383.572296	176.0
383.658936	140.0
383.811005	172.0
383.928009	68.0
383.970886	136.0
384.060608	108.0
384.162048	32.0
384.345398	44.0
384.638123	112.0
385.239502	76.0
385.317657	100.0
385.391876	140.0
385.423157	144.0
385.538147	168.0
385.602905	92.0
385.747528	124.0
386.019409	180.0
386.271545	120.0
386.518036	80.0
386.730133	144.0
387.109131	124.0
387.171814	208.0
387.46167	124.0
387.696686	144.0
387.971161	124.0
388.088776	100.0
388.116241	124.0
388.198578	144.0
388.237793	116.0
388.465302	120.0
388.516296	368.0
388.89386	148.0
389.115173	108.0
389.167816	68.0
389.34848	104.0
389.471069	92.0
389.537018	156.0
389.6745	180.0
390.138275	160.0
390.209045	128.0
390.287689	160.0
390.42926	128.0
390.478149	168.0
390.570862	136.0
390.8974	112.0
391.027283	156.0
391.142426	156.0
391.21228	136.0
391.424347	168.0
391.468231	192.0
391.82666	84.0
391.90152	160.0
392.465179	104.0
392.575592	168.0
392.97403	336.0
393.001648	76.0
393.155548	56.0
393.254211	148.0
393.353149	120.0
393.416046	128.0
393.467377	84.0
393.656921	140.0
393.704315	64.0
393.897858	204.0
393.929443	188.0
393.992645	56.0
394.134888	92.0
394.233704	176.0
394.458984	120.0
394.549896	104.0
394.628998	252.0
394.680389	80.0
394.806946	148.0
394.861755	176.0
394.941406	128.0
395.07196	92.0
395.139221	44.0
395.226257	64.0
395.3013	116.0
395.347321	168.0
395.467682	96.0
395.527039	116.0
395.561676	432.0
395.64978	112.0
395.721039	112.0
396.109161	136.0
396.208191	112.0
396.562775	96.0
396.600525	36.0
396.913727	128.0
396.98114	140.0
397.028717	136.0
397.25943	120.0
397.294495	88.0
397.385742	96.0
397.441864	164.0
397.50592	168.0
397.814362	40.0
397.953339	136.0
398.036133	140.0
398.151886	80.0
398.214691	196.0
398.294861	68.0
398.394196	136.0
398.561646	180.0
398.615173	208.0
398.675629	96.0
398.855042	128.0
398.954529	60.0
399.03009	152.0
399.197083	160.0
399.344238	196.0
399.578949	84.0
399.833618	160.0
399.986816	172.0
400.343231	76.0
400.626038	148.0
400.75351	188.0
400.853149	136.0
400.881042	112.0
400.968719	124.0
401.092285	80.0
401.156067	144.0
401.207886	112.0
401.355408	220.0
401.494995	152.0
401.754272	52.0
401.869965	56.0
402.25708	228.0
402.476685	84.0
402.576508	84.0
402.832153	100.0
403.091858	132.0
403.263702	128.0
403.379639	140.0
403.445374	144.0
403.499573	148.0
403.547424	156.0
403.644653	112.0
403.675507	108.0
403.739471	108.0
403.803467	140.0
404.049835	224.0
404.543762	184.0
404.844055	164.0
404.936157	56.0
405.176514	152.0
405.220581	52.0
405.36084	148.0
405.533173	132.0
405.95816	168.0
405.986237	44.0
406.523743	120.0
406.828857	92.0
406.858673	112.0
407.009552	164.0
407.073792	52.0
407.13916	128.0
407.230408	76.0
407.330841	60.0
407.459412	108.0
407.796967	148.0
407.929596	148.0
407.96579	128.0
408.182922	124.0
408.363892	144.0
408.428253	60.0
408.476501	92.0
408.806458	204.0
408.862793	32.0
408.93927	84.0
409.015747	200.0
409.088196	132.0
409.144562	140.0
409.253265	124.0
409.28952	80.0
409.615753	140.0
409.704376	164.0
409.760773	132.0
410.050903	56.0
410.079132	180.0
410.155701	100.0
410.40567	172.0
410.52832	136.0
410.611328	168.0
410.776733	76.0
410.950195	176.0
410.998627	140.0
411.160034	168.0
411.313416	80.0
411.474915	96.0
411.632385	120.0
411.660645	180.0
411.692963	120.0
411.765656	132.0
411.842407	156.0
411.955505	116.0
411.983795	76.0
412.092865	40.0
412.222168	112.0
412.282806	112.0
412.371704	96.0
412.424255	56.0
412.452545	160.0
413.120483	144.0
413.245209	184.0
413.370667	80.0
413.56897	196.0
413.738983	264.0
414.224976	120.0
414.46402	44.0
414.504517	60.0
414.57605	160.0
414.68689	68.0
414.715271	72.0
414.930115	132.0
415.027435	136.0
415.11261	140.0
415.222107	96.0
415.753571	124.0
415.810394	160.0
415.972748	92.0
416.07019	128.0
416.131104	156.0
416.187927	140.0
416.252899	60.0
416.309753	80.0
416.399109	64.0
416.43161	148.0
416.472229	176.0
416.500671	112.0
416.638916	112.0
416.780975	132.0
416.971985	140.0
417.045166	212.0
417.130524	64.0
417.175232	204.0
417.415131	108.0
417.585938	132.0
417.915436	56.0
417.969147	104.0
418.131134	156.0
418.200317	112.0
418.269531	128.0
418.456787	144.0
418.501587	124.0
418.548737	136.0
418.766296	144.0
418.900726	136.0
419.014801	196.0
419.251129	156.0
419.446777	160.0
419.681366	152.0
419.764801	48.0
419.796814	160.0
419.858582	96.0
420.42569	88.0
420.507294	324.0
420.695068	64.0
420.723663	116.0
420.795105	104.0
420.929382	136.0
421.087189	108.0
421.156525	144.0
421.340363	100.0
421.516052	232.0
421.577362	172.0
421.679535	80.0
421.926117	160.0
422.370544	108.0
422.476898	120.0
422.722412	100.0
422.801941	140.0
422.882019	68.0
422.914764	136.0
423.041656	120.0
423.258667	208.0
423.31601	60.0
423.373322	108.0
423.422485	108.0
423.475739	128.0
423.543823	160.0
423.684631	120.0
423.776306	128.0
423.844452	112.0
424.14682	144.0
424.205109	136.0
424.266602	28.0
424.340393	196.0
424.406006	128.0
424.623352	68.0
424.661835	304.0
424.869476	88.0
425.0336	60.0
425.144409	52.0
425.230591	144.0
425.304474	72.0
425.435852	76.0
425.657562	152.0
425.875214	48.0
425.92041	116.0
425.957367	136.0
426.031342	112.0
426.076508	32.0
426.162811	120.0
426.278503	52.0
426.355927	192.0
426.59433	132.0
426.816376	52.0
426.976746	88.0
427.059021	56.0
427.104248	152.0
427.157745	112.0
427.202972	212.0
427.359314	120.0
427.622711	136.0
427.980865	124.0
428.083801	112.0
428.192993	180.0
428.236206	180.0
428.281525	124.0
428.471863	76.0
428.572571	80.0
428.631714	132.0
428.730621	140.0
428.808075	176.0
429.122223	128.0
429.221191	100.0
429.31604	96.0
429.505768	120.0
429.885345	128.0
429.988525	60.0
430.021545	132.0
430.122925	204.0
430.182526	116.0
430.310516	76.0
430.343536	36.0
430.459167	204.0
430.628479	176.0
430.66153	88.0
431.008575	148.0
431.054016	160.0
431.25238	164.0
431.450806	84.0
431.698914	136.0
431.827118	80.0
431.8685	180.0
432.021545	124.0
432.075317	212.0
432.108429	128.0
432.542969	156.0
432.580231	76.0
432.683716	60.0
432.807953	128.0
432.870056	124.0
433.031555	112.0
433.072998	76.0
433.292542	108.0
433.450012	64.0
433.495575	148.0
433.710724	132.0
433.770111	84.0
434.046936	160.0
434.153992	200.0
434.279175	176.0
434.544678	68.0
434.860077	88.0
435.015717	120.0
435.04071	124.0
435.159332	276.0
435.237854	160.0
435.412262	68.0
435.453796	176.0
435.736298	44.0
435.890015	216.0
435.964813	144.0
436.064575	204.0
436.279694	160.0
436.526062	96.0
436.800568	108.0
436.852448	164.0
436.950317	124.0
437.04187	92.0
437.070984	140.0
437.204163	80.0
437.262421	44.0
437.308197	200.0
437.428925	36.0
437.605072	156.0
437.861969	132.0
437.916107	140.0
438.095245	208.0
438.14566	160.0
438.774567	104.0
438.895477	340.0
439.016418	200.0
439.049774	156.0
439.170715	176.0
439.204102	144.0
439.265045	124.0
439.325073	164.0
439.448517	164.0
439.617157	156.0
439.817505	80.0
439.876343	124.0
439.967773	128.0
440.070618	120.0
440.138977	136.0
440.388428	108.0
440.554047	112.0
440.694519	52.0
440.846954	92.0
440.941071	136.0
441.296387	224.0
441.434387	224.0
441.509674	200.0
441.627899	136.0
441.702087	92.0
441.823395	124.0
441.877777	56.0
442.246033	156.0
442.426056	140.0
442.488861	136.0
442.651367	188.0
442.702423	60.0
442.828064	140.0
442.865753	100.0
442.899261	92.0
442.983032	172.0
443.279388	176.0
443.294006	128.0
443.360138	100.0
443.457458	148.0
443.812897	216.0
443.846436	100.0
443.930298	228.0
443.959656	176.0
444.078613	144.0
444.358154	28.0
444.505035	168.0
444.635132	144.0
444.752655	48.0
444.899567	108.0
444.987915	96.0
445.075928	88.0
445.188263	124.0
445.239685	92.0
445.432922	64.0
445.684998	228.0
445.76062	104.0
446.668793	96.0
446.800964	124.0
446.900177	44.0
446.954895	88.0
447.013794	120.0
447.114807	112.0
447.321045	84.0
447.684906	172.0
447.919037	132.0
448.011688	88.0
448.129669	96.0
448.21817	168.0
448.271729	168.0
448.517395	88.0
448.614349	96.0
448.652283	80.0
448.760498	144.0
448.829041	96.0
448.86734	124.0
449.099304	80.0
449.183655	44.0
449.390381	52.0
449.449463	96.0
449.677338	92.0
449.749115	144.0
449.934845	176.0
450.040405	188.0
450.086853	76.0
450.227661	140.0
450.509216	204.0
450.919098	52.0
451.24884	180.0
451.278412	84.0
451.565887	148.0
451.579773	200.0
451.798645	112.0
451.853638	76.0
451.946747	88.0
451.993286	176.0
452.157837	140.0
452.251434	124.0
452.369965	72.0
452.399597	124.0
452.433472	124.0
452.666351	140.0
452.776459	160.0
452.835754	40.0
452.958588	180.0
453.013672	56.0
453.378082	116.0
453.450134	180.0
453.53064	168.0
453.589996	108.0
453.700226	164.0
453.806213	124.0
453.869812	72.0
453.97583	140.0
454.074249	188.0
454.153595	188.0
454.49762	116.0
454.556366	128.0
454.612183	132.0
454.837128	116.0
455.155548	48.0
455.251434	164.0
455.333923	224.0
455.533569	32.0
455.586609	132.0
455.652527	140.0
455.748352	116.0
455.869232	104.0
455.981506	180.0
456.094482	136.0
456.130493	204.0
456.226257	56.0
456.260284	112.0
456.430359	192.0
456.655762	200.0
456.813141	88.0
456.893982	120.0
456.932281	120.0
457.00885	160.0
457.081207	124.0
457.115234	112.0
457.213104	52.0
457.255676	100.0
457.315277	108.0
457.498322	88.0
457.545135	108.0
457.574951	76.0
457.609009	104.0
457.656982	104.0
457.736755	128.0
457.785156	192.0
457.846497	120.0
457.919891	48.0
458.175476	136.0
458.273468	124.0
458.384247	140.0
458.443909	52.0
458.543671	88.0
458.708191	148.0
458.760956	136.0
458.831818	124.0
458.874451	48.0
458.940674	188.0
458.994446	192.0
459.038879	100.0
459.083405	84.0
459.153961	88.0
459.205353	228.0
459.266602	96.0
459.313721	192.0
459.373138	120.0
459.407562	96.0
459.486084	168.0
459.569092	112.0
459.657379	116.0
459.704956	80.0
459.759338	136.0
459.814209	120.0
459.878845	72.0
459.919647	212.0
459.953796	96.0
459.987946	80.0
460.020477	204.0
460.07077	112.0
460.145203	96.0
460.218414	624.0
460.280609	156.0
460.328705	160.0
460.38504	328.0
460.437775	284.0
460.515594	328.0
460.586517	132.0
460.646057	388.0
460.71933	320.0
460.749084	268.0
460.823547	256.0
460.872192	104.0
460.913208	348.0
460.969788	236.0
461.018707	436.0
461.096497	272.0
461.154175	180.0
461.21225	400.0
461.257599	144.0
461.267731	224.0
461.317627	388.0
461.375244	260.0
461.434875	384.0
461.467194	300.0
461.513062	128.0
461.579742	92.0
461.627075	344.0
461.670258	124.0
461.706421	172.0
461.729736	164.0
461.777649	596.0
461.852478	180.0
461.889099	1256.0
461.928833	312.0
461.995239	452.0
462.01236	368.0
462.038422	568.0
462.110291	724.0
462.235443	250540.0
462.350983	164.0
462.381165	168.0
462.434753	116.0
462.472504	184.0
462.530426	244.0
462.564911	204.0
462.614655	368.0
462.655975	656.0
462.731476	332.0
462.738739	348.0
462.757202	524.0
462.79361	244.0
462.880829	248.0
462.942261	3928.0
462.993256	432.0
463.0914	432.0
463.156128	476.0
463.237915	131416.0
463.338623	272.0
463.36795	180.0
463.43103	144.0
463.505402	236.0
463.542877	284.0
463.584137	252.0
463.63443	136.0
463.678955	580.0
463.725494	104.0
463.762115	112.0
463.805328	168.0
463.877197	208.0
463.945953	564.0
464.007965	260.0
464.074219	200.0
464.115295	104.0
464.154114	452.0
464.240265	13520.0
464.38382	192.0
464.448486	212.0
464.502594	136.0
464.53949	208.0
464.577728	136.0
464.632507	196.0
464.664337	120.0
464.708038	232.0
464.782623	128.0
464.829956	80.0
464.870972	92.0
464.92746	116.0
464.971893	152.0
465.022064	188.0
465.071777	256.0
465.125092	136.0
465.18454	76.0
465.190826	84.0
465.242462	1924.0
465.319489	116.0
465.368347	172.0
465.398193	168.0
465.484314	92.0
465.516907	332.0
465.57486	320.0
465.615234	204.0
465.657715	256.0
465.675934	152.0
465.7435	220.0
465.762329	96.0
465.776886	108.0
465.804657	264.0
465.864746	344.0
465.96225	140.0
465.995239	220.0
466.030426	272.0
466.116608	104.0
466.17984	132.0
466.221741	344.0
466.274567	236.0
466.316467	200.0
466.386963	56.0
466.459076	104.0
466.523682	128.0
466.581024	132.0
466.594055	132.0
466.668182	204.0
466.806213	208.0
466.861938	80.0
466.948517	28.0
466.989441	76.0
467.053925	152.0
467.097778	124.0
467.129822	176.0
467.197296	180.0
467.245728	112.0
467.280579	300.0
467.346741	92.0
467.393829	116.0
467.458374	64.0
467.494171	68.0
467.62677	124.0
467.732849	28.0
467.784454	160.0
467.815186	100.0
467.830841	84.0
467.850616	56.0
467.864807	88.0
467.901978	52.0
467.987061	84.0
468.016998	184.0
468.053314	56.0
468.08313	136.0
468.151733	120.0
468.195831	84.0
468.242188	140.0
468.272339	48.0
468.312622	56.0
468.352448	100.0
468.461853	48.0
468.535583	72.0
468.61264	48.0
468.654144	120.0
468.703125	72.0
468.793976	52.0
468.862579	48.0
468.910004	36.0
468.948792	72.0
469.009125	64.0
469.086182	64.0
469.142761	52.0
469.215515	64.0
469.315216	92.0
469.378937	36.0
469.431641	60.0
469.565796	76.0
469.625732	40.0
469.744995	80.0
469.785339	76.0
469.837128	56.0
469.960297	104.0
470.1521	28.0
470.216858	68.0
470.292267	104.0
470.350647	64.0
470.385193	44.0
470.441315	56.0
470.516052	128.0
470.596741	36.0
470.674469	56.0
470.7565	108.0
470.844666	68.0
471.03891	52.0
471.146973	84.0
471.339691	104.0
471.426117	68.0
471.473663	36.0
471.512543	84.0
471.642212	84.0
471.750305	60.0
471.962158	80.0
472.044312	60.0
472.295166	104.0
472.400208	112.0
472.572052	76.0
472.700775	48.0
472.758118	84.0
473.0784	76.0
473.130371	88.0
473.203979	56.0
473.48111	52.0
473.632721	72.0
473.751617	80.0
474.096313	60.0
474.152649	88.0
474.187317	44.0
474.33905	100.0
474.373718	52.0
474.491211	116.0
474.542816	104.0
474.698914	80.0
474.802979	88.0
475.067596	64.0
475.123993	88.0
475.440765	88.0
475.544922	116.0
475.633911	72.0
476.291748	52.0
476.427979	68.0
476.508972	56.0
476.613251	40.0
476.656708	108.0
476.860962	140.0
476.921814	112.0
476.98703	140.0
477.139191	140.0
477.195709	88.0
477.247894	132.0
477.304413	76.0
477.756775	68.0
477.883362	40.0
477.931976	176.0
477.992645	76.0
478.064392	80.0
478.204956	76.0
478.47052	76.0
478.531464	52.0
478.932129	56.0
478.997467	176.0
479.04538	56.0
479.189148	72.0
479.341675	32.0
479.435028	104.0
479.549561	108.0
479.585724	32.0
479.620605	76.0
479.8255	176.0
479.877808	64.0
480.00293	104.0
480.046509	116.0
480.095856	28.0
480.343384	112.0
480.470978	52.0
480.545135	60.0
480.59314	124.0
480.68042	72.0
480.977203	104.0
481.357056	52.0
481.780731	64.0
481.959869	144.0
482.51059	140.0
482.554321	68.0
482.702972	88.0
482.759827	80.0
482.969788	60.0
483.074768	60.0
483.332886	84.0
483.424805	60.0
483.459808	36.0
483.788086	52.0
483.818726	132.0
483.954468	88.0
484.086884	100.0
484.147156	80.0
484.234741	108.0
484.707886	56.0
484.797729	96.0
484.918243	40.0
484.984009	40.0
485.040985	92.0
485.084808	52.0
485.634888	72.0
485.70752	108.0
485.843506	36.0
486.260376	44.0
486.778412	72.0
486.945312	48.0
487.476898	100.0
488.013184	44.0
488.052765	56.0
488.149506	100.0
488.26825	44.0
488.743347	92.0
489.055817	96.0
489.165863	44.0
489.20108	88.0
490.024658	56.0
490.117188	76.0
490.293488	44.0
490.628479	84.0
490.721069	108.0
491.091522	68.0
491.351776	108.0
492.124176	120.0
493.038605	48.0
493.679657	52.0
495.981995	52.0
497.050842	88.0
497.521332	124.0
498.765198	140.0
498.822968	64.0
499.031952	52.0
499.730255	96.0
499.903809	72.0
500.75415	56.0
501.734497	40.0
502.175537	80.0
502.336578	84.0
503.014862	136.0
503.090759	68.0
503.255951	68.0
504.256653	104.0
504.726044	68.0
506.803009	64.0
507.600922	64.0
508.637329	72.0
508.97406	80.0
510.510925	132.0
511.891632	84.0
513.672852	116.0
513.71344	64.0
513.754028	44.0
515.424622	68.0
515.971558	72.0
516.930481	72.0
517.15802	72.0
517.650269	72.0
517.777039	48.0
519.186584	48.0
519.594788	48.0
519.685547	44.0
520.225647	124.0
521.943115	104.0
522.097717	80.0
522.200317	100.0
522.461609	116.0
522.757385	32.0
525.240479	64.0
525.477722	100.0
526.121277	68.0
526.774292	100.0
528.282898	104.0
530.371094	60.0
530.426086	60.0
530.999268	52.0
531.636963	48.0
531.806763	80.0
532.683838	76.0
533.198486	72.0
534.983215	60.0
536.02417	100.0
538.090576	48.0
538.224487	96.0
538.298401	88.0
539.638428	108.0
540.262817	80.0
540.961609	40.0
542.504272	76.0
542.773193	84.0
542.856689	100.0
544.546021	48.0
546.754456	72.0
547.410889	76.0
547.657776	44.0
549.63916	64.0
554.615356	84.0
555.844116	108.0
556.853516	68.0
557.703979	88.0
558.112976	88.0
558.277588	108.0
558.959656	108.0
559.444458	100.0
559.632812	92.0
559.863525	80.0
560.637024	112.0
560.994385	92.0
561.352783	80.0
561.494263	256.0
561.777283	44.0
564.100708	108.0
564.460022	120.0
565.59082	80.0
565.623962	112.0
566.391052	100.0
567.097107	84.0
567.206116	44.0
567.343567	108.0
568.183044	84.0
568.648071	52.0
569.44574	68.0
569.904724	116.0
571.832581	68.0
573.065979	100.0
576.979736	80.0
577.027527	76.0
578.088806	132.0
579.133179	60.0
580.527893	64.0
581.051697	100.0
581.271423	72.0
582.889771	100.0
583.307922	80.0
584.077271	36.0
585.463501	68.0
585.954834	40.0
586.176453	36.0
587.285339	88.0
589.259827	96.0
589.298462	72.0
590.860168	64.0
591.958923	60.0
592.201111	128.0
592.462708	144.0
594.2323	56.0
594.712769	92.0
595.946289	60.0
596.00946	100.0
596.490601	116.0
596.685059	92.0
598.78241	64.0
599.147766	88.0
600.278564	60.0
600.898071	48.0
602.269897	84.0
602.401794	128.0
604.748962	136.0
605.199341	40.0
605.640076	96.0
605.943848	108.0
606.193726	48.0
606.242737	100.0
606.438782	80.0
606.830994	60.0
607.218384	60.0
607.704041	40.0
609.206421	136.0
609.51593	128.0
610.651611	60.0
612.581177	68.0
612.869263	120.0
613.665405	60.0
614.424988	116.0
614.464478	60.0
614.503906	92.0
615.960327	60.0
616.21228	68.0
617.101929	72.0
617.270081	60.0
619.096191	92.0
620.716675	100.0
620.979492	148.0
622.458435	72.0
622.637268	148.0
624.60553	100.0
625.506226	52.0
625.770081	124.0
626.113708	52.0
626.786255	48.0
626.94574	40.0
627.005493	132.0
627.324524	80.0
627.868042	96.0
628.237183	120.0
628.95575	112.0
629.040588	100.0
629.509949	88.0
629.764648	60.0
629.874573	76.0
631.044006	72.0
631.634155	44.0
631.669189	120.0
633.005554	120.0
633.125732	84.0
635.426575	96.0
638.375122	128.0
638.50592	128.0
638.950562	112.0
640.332886	40.0
640.539429	124.0
641.073486	124.0
641.638062	48.0
641.683411	48.0
642.732605	48.0
644.424133	116.0
644.954773	52.0
645.40979	28.0
645.531128	28.0
645.677795	68.0
648.107727	88.0
648.345947	68.0
650.440735	84.0
651.309021	60.0
652.757507	84.0
654.243286	116.0
657.699585	96.0
662.609009	132.0
663.116333	128.0
663.577698	116.0
666.574341	80.0
666.688416	120.0
666.929993	48.0
667.341309	76.0
667.660095	52.0
668.009888	80.0
668.189941	120.0
669.430481	68.0
669.832214	40.0
670.502075	48.0
671.084595	84.0
671.533264	44.0
672.336365	60.0
673.164124	60.0
673.339722	112.0
673.814941	68.0
673.964783	72.0
674.259338	72.0
674.774597	108.0
675.241699	40.0
675.412415	68.0
676.022949	52.0
676.400757	48.0
678.566284	80.0
678.861877	92.0
678.9552	128.0
681.77948	48.0
682.008179	80.0
682.580078	64.0
683.615295	44.0
683.734985	92.0
684.245117	108.0
684.672119	40.0
684.995056	60.0
685.797546	80.0
686.511841	68.0
688.202576	60.0
689.45105	80.0
690.161987	68.0
690.847168	92.0
691.009338	80.0
691.585022	60.0
691.76825	76.0
693.00946	44.0
693.538818	84.0
694.755432	44.0
695.175171	64.0
697.21283	136.0
697.675415	44.0
698.921936	44.0
699.932617	68.0
701.486938	88.0
703.892822	120.0
705.768738	96.0
706.160095	168.0
706.593872	72.0
708.828369	36.0
710.318237	80.0
710.519836	116.0
711.299927	40.0
712.207947	72.0
712.585144	68.0
716.128113	52.0
717.23114	132.0
717.396362	28.0
717.540344	116.0
718.121582	84.0
718.569702	68.0
719.781372	56.0
719.845459	72.0
720.598633	76.0
720.876465	96.0
721.261292	56.0
721.373535	64.0
721.576721	76.0
722.935364	60.0
723.208374	44.0
723.781189	40.0
723.936462	116.0
724.134644	92.0
724.188232	132.0
725.179443	128.0
725.715576	48.0
726.219666	52.0
728.221741	36.0
728.388245	84.0
728.737488	52.0
728.866455	32.0
728.963135	40.0
729.909302	56.0
730.269592	72.0
730.307251	56.0
730.716125	48.0
731.313477	84.0
732.902161	28.0
733.953308	116.0
735.183228	52.0
735.604248	116.0
736.219788	44.0
736.538452	60.0
738.780457	104.0
742.888367	44.0
745.902283	232.0
747.517639	32.0
747.572083	84.0
747.680908	76.0
748.110962	64.0
748.15448	44.0
748.666321	40.0
748.82666	116.0
749.554321	88.0
749.979431	76.0
750.573669	80.0
751.11908	108.0
752.024841	56.0
752.123108	68.0
753.635925	44.0
753.985657	100.0
754.379211	116.0
756.534668	64.0
757.279419	92.0
757.394409	44.0
757.788879	64.0
759.170227	52.0
760.882263	184.0
765.198242	184.0
769.95166	52.0
770.040039	64.0
771.034546	108.0
771.952271	80.0
772.682434	148.0
772.986755	44.0
773.307739	72.0
774.326477	84.0
775.916931	116.0
776.532471	140.0
777.397949	64.0
777.908569	76.0
778.025146	52.0
778.263916	112.0
778.419373	84.0
778.530457	112.0
779.808289	80.0
781.231873	76.0
781.309753	44.0
784.651428	56.0
785.627441	116.0
785.923157	104.0
786.103088	128.0
788.117554	68.0
788.195801	80.0
788.972717	184.0
790.169617	48.0
794.141418	184.0
794.837097	116.0
797.785828	104.0
800.497864	116.0
802.351685	68.0
804.100403	84.0
804.444763	56.0
804.919006	52.0
805.122314	176.0
810.241577	168.0
813.413086	156.0
813.513367	196.0
813.775085	64.0
813.928406	204.0
814.484985	76.0
814.752014	60.0
815.752197	88.0
816.753052	144.0
816.838379	168.0
817.077332	96.0
817.208191	48.0
818.551514	60.0
821.007751	60.0
822.439819	76.0
822.56543	176.0
823.381958	104.0
823.610413	156.0
823.958923	176.0
824.267456	92.0
824.776123	40.0
824.85614	64.0
825.279236	240.0
826.434631	64.0
826.686401	72.0
827.367554	64.0
829.424194	200.0
829.894287	56.0
830.002625	164.0
830.255554	200.0
831.690002	148.0
831.844971	264.0
832.057373	84.0
832.361694	100.0
832.734985	104.0
832.838379	100.0
836.271118	76.0
836.77771	108.0
837.249939	56.0
838.246582	104.0
839.468689	52.0
840.108948	144.0
840.264709	32.0
841.984924	48.0
843.03064	140.0
843.313843	44.0
843.73584	64.0
845.41333	36.0
846.003723	96.0
846.322144	48.0
847.544373	80.0
848.680481	184.0
849.86377	68.0
850.159729	208.0
851.663452	72.0
851.79126	164.0
852.906982	132.0
853.354614	96.0
853.587219	176.0
853.912903	160.0
854.610962	48.0
857.05658	192.0
857.208069	84.0
857.930847	88.0
858.064941	220.0
858.846375	128.0
859.634033	64.0
859.797424	88.0
860.311096	100.0
860.667297	88.0
862.273804	88.0
862.560242	128.0
862.758972	92.0
863.788269	104.0
865.210327	52.0
867.254822	252.0
867.577209	72.0
867.630005	52.0
868.42749	204.0
868.703186	36.0
868.826416	108.0
869.01416	80.0
869.565796	168.0
870.710693	68.0
873.567383	104.0
877.189087	228.0
877.283447	124.0
879.552551	80.0
880.948242	124.0
881.060486	60.0
881.515503	48.0
884.005127	72.0
884.401672	76.0
886.036133	128.0
887.172791	240.0
887.950867	200.0
888.027954	48.0
888.733948	212.0
889.618286	120.0
890.330811	48.0
890.378296	64.0
891.031738	100.0
891.168396	76.0
891.417969	40.0
893.380127	156.0
894.135803	140.0
895.034729	136.0
895.261047	140.0
896.86377	100.0
899.112366	120.0
899.321289	116.0
899.960083	112.0
901.788147	144.0
901.830017	176.0
902.344116	136.0
902.493591	76.0
902.936096	44.0
903.522339	108.0
906.238464	192.0
906.911804	148.0
907.859131	152.0
907.949097	44.0
908.608948	100.0
908.908936	60.0
908.99292	192.0
909.737183	168.0
910.782104	120.0
910.850525	256.0
910.968323	68.0
911.058411	168.0
911.725403	116.0
913.144287	40.0
914.305481	80.0
914.949585	120.0
915.919189	64.0
916.431274	68.0
916.877197	188.0
917.256897	100.0
919.530945	200.0
920.219116	196.0
920.895508	148.0
921.131104	52.0
921.233765	48.0
922.067627	64.0
922.829346	124.0
923.609497	172.0
925.037598	44.0
925.2677	72.0
925.770264	44.0
927.703125	92.0
928.734009	148.0
928.812866	48.0
930.469666	32.0
930.773254	168.0
931.423096	180.0
931.89093	60.0
931.994202	92.0
932.978821	204.0
933.106506	88.0
934.899719	96.0
935.55835	96.0
936.088074	124.0
936.307312	196.0
936.80072	60.0
937.080994	192.0
937.16626	108.0
937.720825	212.0
938.617065	100.0
942.077759	216.0
942.450439	60.0
943.10437	52.0
943.176086	104.0
943.856384	144.0
944.602539	76.0
944.737122	40.0
945.397949	148.0
946.150879	76.0
947.9823	112.0
948.840454	136.0
948.938599	124.0
949.815552	148.0
950.37384	172.0
951.28833	224.0
952.154114	120.0
952.307678	72.0
952.965027	124.0
954.981445	64.0
956.132019	172.0
956.31665	108.0
957.11084	60.0
957.197021	132.0
958.348938	164.0
959.076172	56.0
960.543762	96.0
960.889221	96.0
961.73468	152.0
961.907532	188.0
962.852234	112.0
962.907837	112.0
963.099304	132.0
963.593506	140.0
964.359802	164.0
964.724548	136.0
964.934753	108.0
966.245972	120.0
966.740967	184.0
967.359924	96.0
967.649292	180.0
967.880005	168.0
969.459717	164.0
969.521667	152.0
969.62085	184.0
970.680969	136.0
970.891785	44.0
971.133667	156.0
971.344604	288.0
971.505859	44.0
971.707092	168.0
971.934021	164.0
972.480103	132.0
973.119568	52.0
973.218872	100.0
973.299622	56.0
974.467346	48.0
975.785034	152.0
976.313599	148.0
976.437988	204.0
977.147156	88.0
977.800537	68.0
978.012146	76.0
979.519104	128.0
979.880432	136.0
980.142151	76.0
981.126953	52.0
981.962524	168.0
982.099792	124.0
982.698669	256.0
983.150635	168.0
983.859558	44.0
984.103088	68.0
985.00238	48.0
985.127319	96.0
985.356262	344.0
985.708618	120.0
985.833374	180.0
987.890503	188.0
988.178345	188.0
988.628845	196.0
988.678955	68.0
988.804138	164.0
989.148376	140.0
989.574097	196.0
990.479797	104.0
990.688904	160.0
990.952087	144.0
991.052307	112.0
991.190186	196.0
991.490967	136.0
992.688416	32.0
993.108582	164.0
993.227783	196.0
994.344666	160.0
994.389343	172.0
994.489014	44.0
994.595764	192.0
994.928467	132.0
995.493591	92.0
996.272461	116.0
996.460938	232.0
996.567749	92.0
996.96991	44.0
997.221313	56.0
998.075806	192.0
998.648621	52.0
999.227356	112.0
999.988831	144.0
1000.234314	96.0
1000.290955	52.0
1000.654541	168.0
1000.863892	136.0
1000.977234	76.0
1001.361389	92.0
1001.487366	88.0
1001.63855	164.0
1002.690857	208.0
1003.163147	108.0
1004.084229	140.0
1004.500488	56.0
1006.450745	120.0
1008.491333	160.0
1008.95282	156.0
1009.642029	104.0
1011.033875	104.0
1011.483276	200.0
1011.856812	104.0
1012.381165	272.0
1012.718079	96.0
1013.161499	88.0
1013.319885	168.0
1013.605042	40.0
1014.067688	132.0
1015.076843	184.0
1015.291321	192.0
1015.849548	180.0
1016.014465	112.0
1016.445923	152.0
1017.429749	120.0
1017.575806	108.0
1017.867859	132.0
1018.109192	140.0
1018.312439	96.0
1019.042969	180.0
1019.570435	56.0
1019.653625	168.0
1019.837341	76.0
1020.600281	44.0
1021.253845	188.0
1021.306213	80.0
1022.025085	56.0
1022.873962	140.0
1022.954346	224.0
1023.883972	76.0
1024.259766	84.0
1024.501831	160.0
1024.973389	216.0
1025.617065	228.0
1025.661621	184.0
1025.891113	148.0
1026.10791	196.0
1026.41394	48.0
1026.854004	160.0
1026.955078	148.0
1029.196167	200.0
1029.279175	144.0
1029.3302	196.0
1029.636841	100.0
1029.700684	88.0
1030.588623	100.0
1031.464233	160.0
1031.560059	72.0
1031.675171	236.0
1031.918091	260.0
1032.065186	240.0
1033.158936	228.0
1034.163574	136.0
1034.205444	132.0
1034.516846	84.0
1034.605347	156.0
1035.015015	260.0
1035.168701	52.0
1035.402466	224.0
1035.501831	96.0
1035.847656	116.0
1036.427612	148.0
1036.962646	116.0
1037.180542	140.0
1038.418091	168.0
1038.604126	156.0
1039.027466	100.0
1039.655396	120.0
1040.163452	144.0
1040.985229	164.0
1041.177856	144.0
1041.306396	96.0
1042.539917	144.0
1043.092651	96.0
1044.082886	148.0
1044.314453	124.0
1044.526733	224.0
1044.925537	104.0
1045.311646	112.0
1045.858765	100.0
1046.135498	180.0
1046.264282	140.0
1046.322266	48.0
1046.553955	44.0
1046.714966	48.0
1047.197998	192.0
1047.391235	200.0
1047.442749	140.0
1047.558716	40.0
1048.273926	36.0
1048.460815	132.0
1049.814697	152.0
1050.608032	192.0
1051.750244	92.0
1051.814819	188.0
1052.034302	76.0
1052.111816	56.0
1052.428223	116.0
1052.546753	196.0
1052.822144	88.0
1053.151489	144.0
1053.524902	176.0
1054.831543	296.0
1055.28418	228.0
1055.814453	156.0
1056.118408	176.0
1056.3125	212.0
1056.661865	112.0
1056.78479	148.0
1057.050049	168.0
1057.690796	112.0
1057.800903	124.0
1058.001587	148.0
1058.687866	148.0
1058.746216	152.0
1058.914551	96.0
1059.044189	76.0
1059.536499	184.0
1060.339966	136.0
1060.625244	148.0
1060.683472	172.0
1061.1698	36.0
1061.831177	128.0
1062.973022	128.0
1063.206665	196.0
1063.303955	152.0
1063.725952	132.0
1063.829834	224.0
1063.979126	184.0
1064.27124	172.0
1064.446655	80.0
1064.553467	176.0
1065.48584	228.0
1065.927734	60.0
1066.525635	176.0
1066.675171	204.0
1067.123779	116.0
1067.175781	196.0
1068.307495	172.0
1068.984009	148.0
1069.342041	144.0
1069.433228	152.0
1069.621948	120.0
1070.331665	148.0
1070.468384	104.0
1070.950317	124.0
1071.862427	152.0
1072.129639	44.0
1073.009644	88.0
1073.520752	216.0
1074.131348	256.0
1074.190063	180.0
1074.340088	120.0
1074.809937	104.0
1076.245972	152.0
1076.513672	216.0
1077.480469	116.0
1078.166504	176.0
1078.336548	180.0
1079.238647	136.0
1079.971191	140.0
1080.067505	120.0
1080.324341	128.0
1080.409424	124.0
1081.233887	188.0
1082.752808	152.0
1083.466919	180.0
1084.29248	148.0
1085.151245	192.0
1085.406982	116.0
1085.60376	156.0
1085.774292	40.0
1085.910522	124.0
1086.541748	152.0
1087.259155	196.0
1087.467041	60.0
1087.585205	168.0
1087.795288	208.0
1088.044678	168.0
1088.202271	156.0
1088.412354	176.0
1089.05603	236.0
1089.634155	172.0
1089.739258	192.0
1090.074341	172.0
1090.46875	108.0
1090.633057	64.0
1091.757324	148.0
1092.526978	144.0
1093.369141	164.0
1093.84314	64.0
1094.376343	108.0
1095.357666	156.0
1095.581665	152.0
1095.878174	124.0
1096.31311	136.0
1096.846924	76.0
1097.644775	32.0
1097.94812	156.0
1098.297729	136.0
1098.469238	80.0
1098.733032	144.0
1098.93103	116.0
1099.062988	136.0
1099.227905	60.0
1099.643677	128.0
1100.706665	160.0
1100.917969	132.0
1100.977417	100.0
1101.710571	204.0
1103.587646	84.0
1104.222534	84.0
1104.288696	52.0
1104.335815	144.0
1104.917114	140.0
1105.330322	152.0
1105.552368	144.0
1106.32019	196.0
1106.618042	156.0
1107.909058	148.0
1108.028809	128.0
1108.081909	164.0
1108.181274	164.0
1108.340332	148.0
1109.407349	116.0
1110.687256	136.0
1111.808594	188.0
1113.501587	172.0
1113.793823	64.0
1113.993164	148.0
1114.278809	212.0
1115.0896	104.0
1115.275635	168.0
1115.501709	216.0
1115.687866	48.0
1116.026123	160.0
1116.246338	48.0
1116.492432	176.0
1116.758423	140.0
1117.17749	60.0
1117.609985	164.0
1117.995972	172.0
1118.355347	220.0
1118.548462	96.0
1118.594971	140.0
1119.920166	68.0
1120.192261	116.0
1120.286499	136.0
1120.493042	88.0
1120.799561	140.0
1121.032837	132.0
1121.158569	148.0
1121.672607	184.0
1121.965942	88.0
1122.372681	196.0
1123.219727	140.0
1124.000366	124.0
1124.44751	76.0
1124.727783	156.0
1125.088257	100.0
1125.188477	192.0
1125.675903	192.0
1125.822754	204.0
1126.109985	116.0
1126.357178	104.0
1126.477417	180.0
1126.811401	132.0
1126.858154	160.0
1127.192261	128.0
1127.670654	200.0
1127.807129	116.0
1128.535889	104.0
1128.830078	72.0
1128.937134	180.0
1129.151123	224.0
1129.385254	44.0
1129.485596	196.0
1129.592529	60.0
1130.415527	100.0
1130.837158	92.0
1131.352661	180.0
1132.069092	128.0
1132.36377	124.0
1132.993408	80.0
1133.060425	172.0
1133.315063	100.0
1133.516113	156.0
1133.831055	128.0
1134.018677	120.0
1134.307007	64.0
1134.805786	172.0
1134.856689	164.0
1135.010986	172.0
1135.567627	160.0
1135.634644	112.0
1136.030396	140.0
1136.459839	116.0
1136.547119	188.0
1136.640991	120.0
1137.251709	228.0
1137.72168	184.0
1137.782104	188.0
1138.050659	176.0
1138.10437	148.0
1138.74231	64.0
1139.004272	248.0
1139.353638	196.0
1139.400635	132.0
1139.542847	156.0
1139.609009	224.0
1139.823975	412.0
1140.146606	144.0
1140.207031	168.0
1140.334717	92.0
1140.435547	88.0
1140.697754	196.0
1140.845581	144.0
1141.081299	192.0
1141.316284	136.0
1141.444092	84.0
1142.035889	160.0
1142.183838	48.0
1143.575073	100.0
1143.792114	232.0
1143.839233	72.0
1143.933472	140.0
1144.270142	200.0
1144.546143	168.0
1145.145508	32.0
1145.22644	148.0
1145.279907	192.0
1145.44873	184.0
1145.940552	156.0
1146.681763	116.0
1146.85022	144.0
1147.039062	116.0
1147.382812	48.0
1147.537964	152.0
1147.955933	124.0
1148.374146	100.0
1148.792358	180.0
1149.163452	144.0
1149.522583	180.0
1149.804565	152.0
1149.953003	144.0
1150.088013	136.0
1150.945435	88.0
1150.992676	44.0
1151.532959	124.0
1151.870728	132.0
1152.262573	128.0
1152.411133	124.0
1152.762573	180.0
1152.972046	208.0
1153.607422	184.0
1153.817017	120.0
1153.87793	104.0
1154.107788	104.0
1154.378296	152.0
1154.4729	180.0
1154.723145	168.0
1155.156128	48.0
1155.568848	192.0
1155.832642	112.0
1155.920654	152.0
1156.204834	156.0
1156.306396	236.0
1156.71936	100.0
1156.915649	180.0
1157.071289	112.0
1157.572388	88.0
1157.619873	80.0
1157.897461	184.0
1158.222656	144.0
1158.90686	80.0
1159.950562	64.0
1160.079346	112.0
1160.227661	144.0
1160.254395	124.0
1160.384521	216.0
1160.789429	180.0
1160.893066	148.0
1160.940552	60.0
1161.015137	120.0
1161.150757	148.0
1161.218628	140.0
1161.951172	144.0
1162.100464	88.0
1162.270142	220.0
1162.806274	228.0
1163.023438	40.0
1163.267212	200.0
1163.342529	92.0
1163.437622	144.0
1163.614136	196.0
1164.109741	168.0
1164.170898	100.0
1164.517334	156.0
1165.114136	144.0
1165.400391	196.0
1165.583862	204.0
1165.719849	156.0
1166.052856	132.0
1166.688721	144.0
1166.992065	152.0
1167.093018	168.0
1167.174561	144.0
1168.255981	60.0
1168.643799	60.0
1168.779907	156.0
1169.018066	156.0
1169.195068	164.0
1169.460449	96.0
1169.521729	100.0
1169.882568	188.0
1170.243408	160.0
1170.393188	160.0
1170.63147	128.0
1170.692749	184.0
1171.302368	172.0
1171.448853	104.0
1172.177856	128.0
1173.410522	148.0
1173.50708	144.0
1173.738892	124.0
1173.834351	224.0
1175.996948	172.0
1176.324829	188.0
1176.461304	48.0
1176.642456	168.0
1177.055298	60.0
1177.403687	144.0
1177.547119	160.0
1177.635864	176.0
1177.806641	184.0
1178.202881	124.0
1178.359985	60.0
1178.93396	172.0
1179.350952	184.0
1179.518555	176.0
1179.610718	160.0
1180.082397	196.0
1180.383301	32.0
1180.916748	180.0
1181.162964	184.0
1181.265625	168.0
1181.388672	168.0
1181.744507	136.0
1182.09668	136.0
1182.408325	184.0
1182.777954	176.0
1183.179932	184.0
1183.318726	172.0
1183.626831	148.0
1184.044678	132.0
1184.777588	84.0
1184.996216	172.0
1185.2229	68.0
1185.29834	172.0
1185.709351	176.0
1186.107056	160.0
1186.285278	256.0
1186.570679	220.0
1186.628052	44.0
1187.128662	148.0
1187.272705	120.0
1187.505859	148.0
1187.842041	160.0
1188.795654	168.0
1189.152588	168.0
1189.406616	152.0
1189.461426	216.0
1189.835083	152.0
1189.955811	156.0
1190.05188	132.0
1190.395264	220.0
1191.054565	88.0
1191.288208	88.0
1191.528564	228.0
1191.782837	156.0
1192.263916	76.0
1192.449463	196.0
1192.504639	144.0
1192.607544	136.0
1192.889404	116.0
1193.70752	60.0
1193.948242	36.0
1194.670532	232.0
1195.213135	148.0
1195.233398	128.0
1195.803345	148.0
1196.067505	128.0
1196.260254	60.0
1197.017578	120.0
1197.072754	116.0
1197.182861	136.0
1197.685669	72.0
1198.27124	204.0
1198.912109	96.0
1199.201538	148.0
1199.256714	196.0
1199.339478	184.0
1199.580688	108.0
1199.918579	152.0
1200.035767	160.0
1200.111572	72.0
1200.525391	196.0
1200.61499	184.0
1200.7323	208.0
1200.904663	156.0
1200.966797	120.0
1201.201294	156.0
1201.477295	148.0
1201.732544	148.0
1201.870483	140.0
1201.918823	184.0
1201.973999	156.0
1202.043091	64.0
1202.236328	208.0
1202.450195	172.0
1202.657349	56.0
1202.712524	128.0
1202.781494	160.0
1202.947266	56.0
1203.168091	124.0
1203.720581	164.0
1204.231567	160.0
1204.818726	208.0
1204.894775	116.0
1206.435913	232.0
1206.546631	116.0
1207.307251	128.0
1207.355591	136.0
1207.5354	132.0
1208.192627	128.0
1208.286987	148.0
1208.44165	148.0
1209.618286	136.0
1209.673584	124.0
1210.026733	220.0
1210.179077	172.0
1210.359009	104.0
1210.483643	136.0
1211.335571	176.0
1211.924561	200.0
1212.340332	120.0
1212.555176	128.0
1213.518799	156.0
1213.608887	132.0
1214.087402	192.0
1214.808716	140.0
1215.280518	148.0
1215.433228	196.0
1215.724609	140.0
1215.917114	196.0
1216.314575	172.0
1216.464111	68.0
1216.988037	172.0
1217.161621	96.0
1217.467163	72.0
1217.534546	188.0
1217.717285	152.0
1217.786743	216.0
1218.060059	196.0
1218.342407	32.0
1218.469971	192.0
1218.557861	184.0
1218.801025	116.0
1219.857422	96.0
1219.920044	260.0
1220.288452	100.0
1220.949097	52.0
1221.051636	188.0
1221.234253	156.0
1222.020386	164.0
1222.173462	84.0
1222.291748	68.0
1222.396118	108.0
1222.938965	52.0
1223.154785	168.0
1223.354248	148.0
1223.746582	160.0
1224.052979	68.0
1224.194336	208.0
1224.90271	72.0
1225.090698	156.0
1225.292847	140.0
1226.289307	156.0
1226.713013	192.0
1226.805176	176.0
1227.077026	160.0
1227.272339	76.0
1227.383911	96.0
1228.074341	52.0
1228.395142	144.0
1228.69519	236.0
1229.057983	168.0
1229.316162	180.0
1229.438721	216.0
1229.688477	172.0
1229.763184	192.0
1230.328247	144.0
1230.391113	164.0
1230.614502	56.0
1231.019531	144.0
1231.197021	196.0
1232.123169	164.0
1232.556396	180.0
1233.143433	216.0
1233.534912	164.0
1233.926392	168.0
1234.164185	156.0
1234.380005	120.0
1234.702637	160.0
1234.772583	112.0
1235.283203	172.0
1235.430054	52.0
1235.640015	200.0
1235.709961	104.0
1235.898804	216.0
1236.087769	84.0
1236.489136	144.0
1236.619751	88.0
1236.682739	200.0
1237.046631	216.0
1237.711792	136.0
1237.865845	152.0
1239.007568	128.0
1239.163574	184.0
1239.224854	144.0
1239.421021	84.0
1239.645264	252.0
1240.009644	140.0
1240.086792	196.0
1240.352051	172.0
1240.437256	176.0
1240.7948	112.0
1241.033203	120.0
1241.152466	136.0
1241.292725	148.0
1241.538086	124.0
1241.860718	136.0
1242.148315	148.0
1242.428467	164.0
1243.291992	188.0
1243.348145	84.0
1243.586792	88.0
1244.148438	164.0
1244.578979	188.0
1244.759277	144.0
1245.089355	148.0
1245.21582	152.0
1245.286011	160.0
1245.623169	152.0
1245.876099	180.0
1246.189575	188.0
1246.487427	188.0
1246.7052	120.0
1246.782593	80.0
1247.162109	96.0
1247.223267	152.0
1247.365967	392.0
1247.415161	188.0
1247.478394	184.0
1247.851074	220.0
1247.977661	112.0
1248.111206	168.0
1248.230713	144.0
1248.526123	204.0
1248.94812	136.0
1249.011475	136.0
1249.328003	128.0
1249.398315	184.0
1249.591675	188.0
1250.185669	72.0
1250.482056	204.0
1250.55896	156.0
1250.635986	160.0
1250.688599	216.0
1250.77063	156.0
1250.918457	132.0
1251.129639	64.0
1251.481689	128.0
1251.716187	192.0
1251.777466	164.0
1251.883057	216.0
1252.10144	144.0
1252.481812	44.0
1252.848145	96.0
1253.02417	192.0
1253.112549	156.0
1253.439941	56.0
1253.771118	136.0
1253.954468	124.0
1254.299805	112.0
1254.511353	256.0
1254.638184	152.0
1254.955444	136.0
1255.166992	104.0
1255.484375	124.0
1255.547852	164.0
1255.646606	144.0
1256.006348	136.0
1256.055664	204.0
1256.189697	148.0
1256.376221	228.0
1256.517822	136.0
1256.775269	224.0
1257.18457	116.0
1257.622192	192.0
1257.932739	116.0
1258.047607	208.0
1258.158691	108.0
1258.780029	180.0
1258.935425	32.0
1259.175537	184.0
1259.479248	72.0
1259.825439	48.0
1259.966675	192.0
1260.093872	184.0
1260.232178	120.0
1261.295288	100.0
1261.514404	88.0
1261.88208	168.0
1261.988159	136.0
1262.164917	388.0
1262.872192	32.0
1263.21167	144.0
1263.890869	124.0
1264.11731	164.0
1264.237671	160.0
1264.329712	244.0
1265.370239	248.0
1266.212891	160.0
1266.326294	188.0
1266.496216	124.0
1267.7323	172.0
1268.161377	160.0
1269.040527	136.0
1269.302856	128.0
1269.756714	120.0
1269.990723	132.0
1270.246094	112.0
1270.402222	292.0
1270.686035	84.0
1270.827881	108.0
1271.42395	104.0
1271.479492	156.0
1272.020264	148.0
1272.069946	72.0
1272.467529	156.0
1272.566895	152.0
1272.80835	116.0
1273.29126	44.0
1273.890747	196.0
1273.954834	180.0
1274.598389	124.0
1275.14563	260.0
1275.39978	164.0
1275.658936	156.0
1275.728516	64.0
1276.233276	120.0
1276.361328	144.0
1276.411133	124.0
1276.581787	160.0
1276.744751	144.0
1276.880493	264.0
1277.243286	172.0
1277.52063	164.0
1277.598877	120.0
1277.648682	144.0
1278.040039	192.0
1278.111206	204.0
1278.232178	148.0
1279.192993	152.0
1279.463623	180.0
1279.520508	132.0
1279.677124	144.0
1279.904175	144.0
1280.026123	220.0
1280.240601	196.0
1280.353638	176.0
1280.47644	152.0
1280.595825	128.0
1280.645752	180.0
1281.07312	120.0
1281.208496	176.0
1281.293945	116.0
1281.422241	140.0
1282.113403	224.0
1282.161011	112.0
1282.298706	180.0
1282.41272	312.0
1282.662231	164.0
1282.812012	100.0
1282.947388	184.0
1283.161987	168.0
1283.3396	104.0
1283.610474	140.0
1283.674683	216.0
1284.081177	76.0
1284.544922	112.0
1284.669067	196.0
1284.922974	160.0
1284.98584	220.0
1285.087036	132.0
1285.456421	232.0
1285.829224	136.0
1286.086182	108.0
1286.193237	76.0
1286.243286	144.0
1286.429932	192.0
1286.714478	168.0
1286.907227	112.0
1286.958984	160.0
1287.035767	124.0
1287.728516	236.0
1287.821289	124.0
1287.985596	152.0
1288.442871	196.0
1288.585693	112.0
1288.963257	156.0
1289.736328	164.0
1290.30188	176.0
1290.42981	188.0
1291.180664	108.0
1291.502441	164.0
1292.097778	116.0
1292.446899	116.0
1293.62793	184.0
1293.778076	128.0
1293.899902	180.0
1294.021606	76.0
1294.08606	172.0
1294.179077	144.0
1294.537109	160.0
1295.199829	196.0
1295.403809	220.0
1295.86853	152.0
1296.055786	72.0
1296.171875	120.0
1296.363892	148.0
1296.557373	156.0
1296.715088	48.0
1297.023315	120.0
1297.532349	116.0
1297.625488	148.0
1297.711548	412.0
1297.819092	132.0
1298.701294	108.0
1298.808838	152.0
1298.959473	244.0
1299.052979	132.0
1299.210571	120.0
1299.382812	224.0
1299.777344	180.0
1300.030762	156.0
1300.143433	88.0
1300.216431	152.0
1300.55249	152.0
1300.846802	180.0
1300.918579	168.0
1301.013306	216.0
1301.191406	160.0
1301.374634	232.0
1301.593506	260.0
1302.125	164.0
1302.466309	152.0
1302.656494	176.0
1302.749878	120.0
1302.83606	140.0
1303.094727	148.0
1303.281616	196.0
1303.353394	180.0
1303.461182	60.0
1303.540283	144.0
1303.705566	164.0
1303.834961	148.0
1304.036133	132.0
1304.25061	196.0
1304.359619	152.0
1304.460327	180.0
1304.532104	208.0
1305.071411	88.0
1305.229614	108.0
1305.300903	184.0
1305.430908	140.0
1306.01355	152.0
1306.207764	128.0
1306.404907	212.0
1307.150269	124.0
1307.301392	156.0
1307.385498	128.0
1307.949219	156.0
1308.21106	252.0
1308.280273	316.0
1308.633057	64.0
1309.007568	64.0
1309.274048	164.0
1309.410889	140.0
1309.857422	156.0
1309.994263	108.0
1310.138428	156.0
1310.54187	184.0
1310.592285	92.0
1310.862427	184.0
1311.034546	188.0
1311.300415	152.0
1311.810303	184.0
1311.940063	124.0
1312.286133	124.0
1312.581787	176.0
1312.646729	132.0
1312.902954	176.0
1312.963989	224.0
1313.245361	200.0
1313.339111	180.0
1313.483398	44.0
1313.613159	264.0
1313.670898	148.0
1313.721436	168.0
1314.111084	152.0
1314.4646	200.0
1314.529541	92.0
1314.738892	124.0
1315.200806	120.0
1315.857666	140.0
1315.929932	88.0
1316.796509	312.0
1316.955444	56.0
1317.338257	156.0
1317.52478	192.0
1317.612793	144.0
1317.909058	140.0
1318.010254	136.0
1318.234253	352.0
1318.465454	84.0
1318.780518	136.0
1319.021973	156.0
1319.231689	180.0
1320.186157	200.0
1320.381348	164.0
1320.540527	148.0
1320.960083	60.0
1321.010742	96.0
1321.285645	220.0
1321.423096	108.0
1321.697998	176.0
1321.763184	52.0
1321.828247	52.0
1322.04541	136.0
1322.689575	160.0
1322.928467	192.0
1322.979126	188.0
1323.073242	168.0
1323.135986	144.0
1323.254272	272.0
1323.514893	112.0
1324.043579	52.0
1324.282593	144.0
1324.405762	192.0
1324.709961	260.0
1324.862305	136.0
1324.970825	124.0
1325.33313	276.0
1325.499756	76.0
1325.654419	160.0
1326.159302	148.0
1326.543457	144.0
1326.905884	116.0
1327.043701	36.0
1327.312012	152.0
1327.652832	200.0
1328.021973	156.0
1328.124268	72.0
1328.233032	168.0
1328.450684	176.0
1328.740967	124.0
1329.081909	76.0
1329.451172	104.0
1330.039917	52.0
1330.16333	188.0
1330.356323	124.0
1330.475464	156.0
1330.542358	224.0
1331.52124	148.0
1331.804443	152.0
1331.898926	100.0
1332.094971	268.0
1332.67627	164.0
1333.192139	196.0
1333.788208	168.0
1333.969971	60.0
1334.202515	136.0
1334.435181	164.0
1334.627197	176.0
1335.344238	68.0
1335.569702	228.0
1336.333618	112.0
1336.675659	128.0
1336.923096	100.0
1337.10498	76.0
1337.22876	160.0
1337.337891	164.0
1337.403442	320.0
1337.519897	144.0
1338.116821	152.0
1338.895996	292.0
1338.968872	88.0
1339.056274	260.0
1339.333008	172.0
1339.397583	116.0
1339.580688	236.0
1339.682495	124.0
1339.856934	132.0
1340.010498	128.0
1340.331177	100.0
1340.593506	92.0
1341.344238	116.0
1341.453613	116.0
1341.555664	84.0
1341.876465	76.0
1341.934814	136.0
1342.117065	112.0
1342.437866	84.0
1342.637451	204.0
1342.78064	176.0
1342.948486	184.0
1343.188721	176.0
1343.313232	160.0
1344.057373	196.0
1344.188721	248.0
1344.254395	112.0
1344.353638	80.0
1345.181396	184.0
1345.371216	84.0
1346.539551	228.0
1347.284668	108.0
1347.430786	136.0
1347.671875	124.0
1347.737671	184.0
1347.788818	132.0
1347.869141	84.0
1348.008057	124.0
1348.175659	120.0
1348.263794	196.0
1348.388062	252.0
1348.895264	164.0
1348.95813	128.0
1349.235962	180.0
1349.294434	64.0
1349.572266	168.0
1349.623535	184.0
1349.99646	164.0
1350.054932	192.0
1350.252441	84.0
1350.396729	112.0
1350.545044	188.0
1350.705933	92.0
1351.020508	168.0
1351.174194	116.0
1351.56189	148.0
1351.832642	164.0
1352.126831	148.0
1352.213257	36.0
1352.322998	168.0
1352.451904	184.0
1352.945312	148.0
1353.003906	132.0
1353.150269	168.0
1353.208862	180.0
1354.138916	52.0
1355.071655	144.0
1355.486938	184.0
1355.587891	200.0
1355.973389	188.0
1356.212524	192.0
1356.337158	144.0
1356.395752	52.0
1356.571655	112.0
1357.407593	156.0
1357.649536	208.0
1358.096924	120.0
1358.15564	140.0
1358.808594	204.0
1359.420166	148.0
1359.441895	52.0
1359.466675	164.0
1359.541504	184.0
1359.755249	164.0
1359.843262	168.0
1360.423218	152.0
1360.599365	168.0
1360.658081	160.0
1360.705933	156.0
1360.914307	112.0
1361.054565	164.0
1361.1427	120.0
1361.304321	216.0
1361.392456	80.0
1361.614502	84.0
1361.670166	152.0
1361.939453	116.0
1362.104858	136.0
1362.288574	124.0
1362.466919	260.0
1362.677856	536.0
1362.72937	172.0
1362.92041	156.0
1363.049927	208.0
1363.287842	124.0
1363.368652	204.0
1364.390381	104.0
1364.449219	188.0
1364.574219	144.0
1364.927124	96.0
1365.117554	180.0
1365.368408	172.0
1365.537598	136.0
1365.714111	156.0
1365.91272	180.0
1366.096191	144.0
1366.167358	180.0
1366.229004	84.0
1366.331177	140.0
1366.40564	156.0
1367.045776	132.0
1367.178223	140.0
1367.399048	176.0
1367.53894	204.0
1367.840698	44.0
1367.951172	208.0
1368.135132	184.0
1368.297119	172.0
1368.598999	100.0
1368.687378	124.0
1368.754028	168.0
1368.878906	128.0
1369.129272	152.0
1369.616577	196.0
1369.806885	124.0
1369.887939	172.0
1370.013184	196.0
1370.086792	68.0
1370.226807	136.0
1370.307861	128.0
1370.587891	104.0
1370.88269	64.0
1371.818726	204.0
1372.895264	164.0
1373.138672	120.0
1373.418945	168.0
1373.839355	120.0
1374.09021	132.0
1374.292969	320.0
1374.392822	184.0
1375.342285	360.0
1375.713989	184.0
1376.068359	76.0
1376.238159	196.0
1376.422729	96.0
1377.109619	200.0
1377.161255	180.0
1377.279419	104.0
1377.486328	132.0
1377.589722	176.0
1377.818726	324.0
1377.951782	228.0
1378.023315	212.0
1378.106934	204.0
1378.358154	184.0
1378.602051	144.0
1378.665649	208.0
1378.764648	184.0
1378.860718	208.0
1379.47644	176.0
1379.666382	188.0
1379.755127	140.0
1379.932617	220.0
1380.043457	144.0
1380.280151	104.0
1380.49231	160.0
1380.738647	116.0
1380.834717	156.0
1380.947754	148.0
1381.024048	192.0
1381.196655	160.0
1381.381226	132.0
1381.581909	196.0
1381.700317	176.0
1381.907471	244.0
1381.959229	124.0
1382.092407	52.0
1382.380981	136.0
1382.839844	188.0
1383.206177	176.0
1383.728271	208.0
1384.016968	80.0
1384.187256	92.0
1384.239136	152.0
1384.750122	120.0
1385.053833	148.0
1385.431641	148.0
1385.751343	84.0
1386.044434	132.0
1386.224731	204.0
1386.557983	188.0
1386.854492	180.0
1386.913574	128.0
1387.062012	148.0
1387.173218	56.0
1387.620361	180.0
1387.843872	164.0
1387.964111	196.0
1388.389282	312.0
1388.500488	152.0
1388.589478	156.0
1388.715576	148.0
1388.805786	96.0
1389.123535	168.0
1389.234863	160.0
1389.290405	152.0
1389.368408	160.0
1389.553833	108.0
1389.806152	92.0
1389.95459	104.0
1390.13269	136.0
1390.875366	132.0
1390.993652	128.0
1391.090088	192.0
1391.149536	144.0
1391.340088	160.0
1391.409424	188.0
1391.535645	68.0
1392.192383	180.0
1392.594116	172.0
1392.760986	232.0
1393.01355	104.0
1393.065552	120.0
1393.243896	116.0
1393.637573	144.0
1393.858521	148.0
1394.239502	140.0
1394.473877	176.0
1394.953125	188.0
1395.296753	184.0
1395.454346	156.0
1395.518188	204.0
1396.380859	212.0
1396.497803	164.0
1396.827148	168.0
1396.886597	152.0
1397.154419	180.0
1397.26355	200.0
1397.638062	128.0
1397.801758	164.0
1397.861328	112.0
1397.957153	132.0
1398.248291	148.0
1398.449219	44.0
1399.476685	148.0
1399.627441	204.0
1400.425049	180.0
1400.639404	208.0
1400.891724	184.0
1400.973633	176.0
1401.182251	60.0
1401.636841	164.0
1402.329956	176.0
1402.583374	44.0
1402.668091	152.0
1403.313965	60.0
1403.403442	324.0
1403.574951	112.0
1403.634644	132.0
1403.873169	220.0
1404.067139	160.0
1404.126831	320.0
1404.365479	96.0
1404.581787	156.0
1405.021973	144.0
1405.096558	112.0
1405.215942	172.0
1405.387573	168.0
1405.454712	116.0
1405.827759	144.0
1405.924805	140.0
1406.195557	176.0
1406.46228	164.0
1406.589111	124.0
1406.738403	128.0
1407.134155	88.0
1407.395508	164.0
1407.4552	176.0
1407.559692	148.0
1407.641846	44.0
1408.022705	140.0
1408.127319	108.0
1408.583008	180.0
1408.739868	184.0
1408.814575	172.0
1408.904175	152.0
1409.143311	144.0
1409.404785	168.0
1409.943481	156.0
1410.050659	196.0
1410.40625	52.0
1410.533325	108.0
1410.630493	152.0
1410.767456	188.0
1410.922119	84.0
1411.079102	96.0
1411.318359	112.0
1411.460449	160.0
1411.692261	132.0
1412.11853	112.0
1412.170898	152.0
1412.275635	236.0
1412.462646	220.0
1412.544922	168.0
1412.799316	136.0
1412.911499	204.0
1413.061157	192.0
1413.95166	92.0
1414.670044	228.0
1414.992188	152.0
1415.182495	144.0
1415.261719	180.0
1415.366577	164.0
1415.868286	156.0
1416.446777	140.0
1416.699829	128.0
1416.971558	144.0
1417.276733	156.0
1417.33667	144.0
1417.56665	144.0
1417.966187	152.0
1418.041138	84.0
1418.318481	124.0
1418.438354	176.0
1418.498413	128.0
1418.640747	152.0
1418.910645	192.0
1419.120605	156.0
1419.233154	176.0
1419.983032	180.0
1420.065552	200.0
1420.268066	128.0
1420.320557	112.0
1420.876587	164.0
1420.980713	60.0
1421.10083	160.0
1421.276123	136.0
1421.378418	60.0
1421.798706	180.0
1422.249023	48.0
1422.505737	228.0
1422.699463	204.0
1423.104858	184.0
1423.315186	124.0
1423.367676	208.0
1423.465332	148.0
1423.593018	116.0
1424.148804	160.0
1424.329102	192.0
1424.516846	32.0
1424.937622	172.0
1425.057861	156.0
1425.230591	120.0
1425.358398	48.0
1425.478638	80.0
1425.636475	60.0
1425.704102	152.0
1425.771729	128.0
1425.959595	180.0
1426.012207	52.0
1426.170044	132.0
1426.39563	140.0
1426.628662	172.0
1426.944336	48.0
1427.042114	160.0
1427.342896	40.0
1427.523438	44.0
1427.718872	192.0
1427.94458	144.0
1428.013916	164.0
1428.102539	164.0
1428.275513	188.0
1428.538818	88.0
1428.65918	168.0
1429.020264	136.0
1429.072754	116.0
1429.128662	188.0
1429.276123	152.0
1429.38147	124.0
1429.584717	224.0
1429.780396	124.0
1429.968506	80.0
1430.053467	252.0
1430.108765	88.0
1430.128906	128.0
1430.478638	168.0
1430.623413	224.0
1430.706177	172.0
1430.789062	224.0
1431.316162	152.0
1431.45166	36.0
1431.655029	164.0
1431.881104	172.0
1431.993896	132.0
1432.265015	164.0
1432.438354	164.0
1432.656738	64.0
1432.837646	128.0
1433.086304	140.0
1433.256104	140.0
1433.349976	188.0
1433.681519	148.0
1433.794678	172.0
1434.261963	172.0
1434.367432	120.0
1434.457886	176.0
1434.744385	148.0
1435.08374	136.0
1435.619141	256.0
1436.026367	176.0
1436.207397	200.0
1436.260254	232.0
1436.312988	168.0
1436.373291	180.0
1436.479004	128.0
1436.569458	256.0
1436.63269	144.0
1436.697754	100.0
1436.924072	196.0
1437.00708	96.0
1437.08252	128.0
1437.256104	120.0
1437.541382	168.0
1437.563721	136.0
1438.161743	164.0
1438.418335	148.0
1438.516479	168.0
1438.622192	148.0
1438.682617	88.0
1438.961914	164.0
1439.316772	40.0
1439.437622	124.0
1439.505615	100.0
1439.656616	132.0
1439.928589	180.0
1440.140015	88.0
1440.404419	124.0
1440.56311	132.0
1440.643555	208.0
1440.835083	176.0
1441.008789	168.0
1441.175049	124.0
1441.545288	240.0
1441.983643	152.0
1442.210449	92.0
1442.338867	196.0
1442.527954	88.0
1442.625366	144.0
1442.951294	172.0
1443.079834	132.0
1443.268799	160.0
1443.813354	248.0
1443.881348	104.0
1443.989746	132.0
1444.205078	192.0
1444.39502	212.0
1444.826904	136.0
1445.114502	288.0
1445.417114	156.0
1445.545776	120.0
1445.62146	240.0
1445.787964	52.0
1445.871216	212.0
1445.954468	136.0
1446.204224	200.0
1446.365112	144.0
1446.514648	132.0
1446.798096	212.0
1447.147339	228.0
1447.272705	160.0
1447.567627	108.0
1447.688232	148.0
1447.88208	120.0
1448.278931	160.0
1448.347168	52.0
1448.506226	160.0
1448.752075	308.0
1449.036499	212.0
1449.241089	224.0
1449.422974	224.0
1449.544189	172.0
1449.741211	128.0
1450.203613	108.0
1450.43103	140.0
1450.499268	180.0
1450.59021	180.0
1450.794922	140.0
1450.931274	188.0
1450.984375	148.0
1451.090576	156.0
1451.712402	104.0
1451.795776	156.0
1451.87915	172.0
1452.068848	204.0
1452.121948	96.0
1452.262573	160.0
1452.853394	196.0
1453.051147	208.0
1453.417114	196.0
1453.578491	180.0
1453.639282	208.0
1453.866943	196.0
1453.920044	132.0
1454.026245	124.0
1454.284302	124.0
1454.337524	156.0
1454.887207	140.0
1455.002441	60.0
1455.142212	204.0
1455.468018	124.0
1455.493408	112.0
1455.508667	152.0
1455.620605	156.0
1455.714355	216.0
1455.810425	84.0
1456.083862	136.0
1456.213013	88.0
1456.668701	112.0
1456.972656	116.0
1457.056152	136.0
1457.139771	128.0
1457.24231	160.0
1457.304688	136.0
1457.990845	216.0
1458.044067	92.0
1458.431641	172.0
1458.606445	184.0
1458.674927	156.0
1459.033447	220.0
1459.273804	188.0
1459.354248	124.0
1459.549316	148.0
1460.142456	204.0
1460.241333	172.0
1461.169434	152.0
1461.424438	112.0
1461.667358	176.0
1462.234741	148.0
1462.301758	180.0
1462.70166	144.0
1463.186279	156.0
1463.422363	196.0
1463.643188	132.0
1463.932495	112.0
1464.237183	148.0
1464.564697	168.0
1464.686523	132.0
1464.838867	112.0
1464.998901	188.0
1465.249756	180.0
1465.338135	168.0
1465.864136	364.0
1466.018188	140.0
1466.324829	188.0
1466.759277	136.0
1466.82019	72.0
1467.064209	176.0
1467.414917	172.0
1467.651245	136.0
1467.895264	92.0
1468.181519	192.0
1468.261353	96.0
1468.673218	124.0
1468.940186	140.0
1469.34082	128.0
1469.434204	124.0
1469.489502	120.0
1469.608887	180.0
1469.970215	116.0
1470.473999	128.0
1470.550293	128.0
1470.977783	28.0
1471.229736	176.0
1471.321289	120.0
1471.521118	188.0
1471.580933	120.0
1471.664917	136.0
1471.79834	52.0
1471.932129	228.0
1472.261353	184.0
1472.428589	156.0
1472.627075	48.0
1472.925049	76.0
1473.123657	192.0
1473.673706	148.0
1474.028687	276.0
1474.178101	144.0
1474.262085	112.0
1474.510132	172.0
1474.690186	84.0
1475.217651	116.0
1475.500488	160.0
1475.553955	136.0
1475.68396	196.0
1475.836914	144.0
1475.959229	168.0
1476.028076	192.0
1476.196289	56.0
1476.502197	132.0
1476.601685	144.0
1476.674683	268.0
1476.961182	336.0
1477.160034	168.0
1477.557861	160.0
1478.789917	84.0
1478.996582	148.0
1479.06543	140.0
1479.172607	168.0
1479.379272	124.0
1479.700928	208.0
1480.121948	104.0
1480.178589	256.0
1480.267456	76.0
1480.512573	120.0
1480.640015	124.0
1480.75	212.0
1481.056396	136.0
1481.125366	148.0
1481.240234	120.0
1481.600342	212.0
1481.68457	148.0
1482.117554	148.0
1482.481689	176.0
1482.565796	128.0
1482.772705	192.0
1482.956665	172.0
1483.063965	164.0
1483.125244	184.0
1483.232544	116.0
1484.038818	172.0
1484.175659	196.0
1484.33667	128.0
1484.41333	32.0
1484.666382	204.0
1484.743164	136.0
1484.896484	136.0
1484.994385	144.0
1485.425781	224.0
1486.455444	160.0
1486.722534	112.0
1486.829956	48.0
1486.914307	188.0
1487.288208	152.0
1487.315796	108.0
1487.332031	184.0
1487.469849	144.0
1487.574463	236.0
1487.751099	112.0
1488.18103	196.0
1488.586792	224.0
1488.687866	40.0
1488.772339	128.0
1489.109375	164.0
1489.202393	164.0
1489.540405	128.0
1489.65564	100.0
1489.709473	44.0
1489.863037	120.0
1490.262573	136.0
1490.539185	160.0
1490.67749	136.0
1490.969604	144.0
1491.077148	48.0
1491.261597	104.0
1491.392334	192.0
1491.576782	36.0
1491.899658	176.0
1491.999634	136.0
1492.237915	68.0
1492.530151	164.0
1493.076172	140.0
1493.337646	188.0
1493.445312	120.0
1493.499146	108.0
1493.63855	136.0
1493.768433	36.0
1493.994995	156.0
1494.068481	184.0
1494.50708	268.0
1494.637817	128.0
1494.799805	152.0
1494.922607	124.0
1495.210693	172.0
1495.368896	116.0
1495.438232	132.0
1495.499756	180.0
1495.753784	152.0
1496.069458	192.0
1496.170532	192.0
1496.261963	132.0
1496.419922	168.0
1496.662354	116.0
1496.939575	192.0
1497.039673	192.0
1497.401611	188.0
1497.478638	168.0
1498.025513	216.0
1498.380005	132.0
1498.441528	184.0
1498.782104	216.0
1498.873047	116.0
1499.011841	72.0
1499.165894	156.0
1499.240845	200.0
1499.443359	140.0
1499.66687	156.0
1500.525269	196.0
1500.68457	164.0
1500.761597	132.0
1501.039185	184.0
1501.116333	80.0
1501.517334	184.0
1501.814331	136.0
1501.949341	52.0
1502.088135	108.0
1502.145874	160.0
1502.289673	192.0
1502.535645	60.0
1503.484741	152.0
1503.546509	352.0
1503.600464	96.0
1503.886108	120.0
1504.250854	140.0
1504.588623	208.0
1504.80481	72.0
1504.920654	52.0
1505.152222	172.0
END IONS

BEGIN IONS
PEPMASS=186.092
CHARGE=1
MSLEVEL=2
SOURCE_INSTRUMENT=LC-ESI-qTof
FILENAME=p3-F06_GF6_01_18287.mzXML
SEQ=*..*
IONMODE=Positive
ORGANISM=GNPS-NIH-SMALLMOLECULEPHARMACOLOGICALLYACTIVE
NAME=MLS000860042-01!Pirfenidone M+H
PI=Dorrestein
DATACOLLECTOR=VP/LMS
SMILES=Cc1ccc(=O)n(c1)c2ccccc2
INCHI=N/A
INCHIAUX=N/A
PUBMED=N/A
SUBMITUSER=vphelan
LIBRARYQUALITY=1
SPECTRUMID=CCMSLIB00000085154
USI=mzspec:GNPS:GNPS-NIH-SMALLMOLECULEPHARMACOLOGICALLYACTIVE:accession:CCMSLIB00000085154
SCANS=1575
44.932301	180.0
44.962994	88.0
45.048458	148.0
45.186165	180.0
45.410267	128.0
45.615341	200.0
45.643578	112.0
45.68124	180.0
45.817215	120.0
45.852253	36.0
45.946651	48.0
45.984436	192.0
46.197948	176.0
46.42009	224.0
46.429585	152.0
46.661797	68.0
46.849621	84.0
47.002335	188.0
47.063763	164.0
47.10474	160.0
47.122501	152.0
47.242817	232.0
47.493515	216.0
47.810913	232.0
47.831562	200.0
48.094856	136.0
48.254421	196.0
48.405945	116.0
48.417023	72.0
48.458584	176.0
48.515411	204.0
48.527889	36.0
48.598629	180.0
48.672199	152.0
48.769455	168.0
49.091084	136.0
49.28373	184.0
49.459953	164.0
49.541176	284.0
49.625271	108.0
49.771206	148.0
50.350021	68.0
50.487118	84.0
50.613068	248.0
50.638561	44.0
50.71933	164.0
50.756191	112.0
50.841312	220.0
50.905201	204.0
51.02314	224.0
51.068649	96.0
51.196747	136.0
51.278812	180.0
52.118046	228.0
52.130978	148.0
52.341011	144.0
52.410156	128.0
52.443306	148.0
52.612087	60.0
52.636635	352.0
52.759457	108.0
52.892551	128.0
52.902683	184.0
53.162148	84.0
53.188416	204.0
53.307377	80.0
53.647984	104.0
53.700481	68.0
53.891727	220.0
53.901958	140.0
54.00869	180.0
54.330982	232.0
54.596863	96.0
54.608627	160.0
54.621868	192.0
54.673367	152.0
55.137955	140.0
55.148304	40.0
55.392467	208.0
55.450256	164.0
55.678749	204.0
55.808041	160.0
55.837784	180.0
56.138634	168.0
56.852264	156.0
56.891293	148.0
57.28833	140.0
57.583996	104.0
57.597588	188.0
57.706406	224.0
57.726063	156.0
57.751774	184.0
57.871334	156.0
58.404037	164.0
58.553204	120.0
58.608047	140.0
58.632431	164.0
59.237537	148.0
59.718014	156.0
59.774937	148.0
59.890411	156.0
60.350323	168.0
60.922253	168.0
61.001816	184.0
61.52029	204.0
61.632751	140.0
61.704651	172.0
61.781288	192.0
61.818844	196.0
61.873631	112.0
62.471588	228.0
63.074005	116.0
63.232185	224.0
63.271759	128.0
63.295509	136.0
63.401653	160.0
63.857334	160.0
63.911423	48.0
64.292297	44.0
64.567101	192.0
64.860123	212.0
64.988426	228.0
65.007683	112.0
65.08313	188.0
65.113647	232.0
65.37571	152.0
65.420776	268.0
65.609276	164.0
65.723793	128.0
66.179634	72.0
66.369217	148.0
66.430855	184.0
66.476288	28.0
66.827286	204.0
66.859833	48.0
66.890762	172.0
67.188995	184.0
67.329384	116.0
67.411072	160.0
67.676079	148.0
67.913712	152.0
68.191208	140.0
68.372131	192.0
68.545052	152.0
68.723145	52.0
68.802368	188.0
68.903122	120.0
68.957649	128.0
69.773262	184.0
69.784904	168.0
70.134514	124.0
70.256256	184.0
70.490021	72.0
70.533478	216.0
70.81292	196.0
70.915123	160.0
71.106339	124.0
71.19532	180.0
71.853508	176.0
72.079773	140.0
72.552017	192.0
72.591019	112.0
72.663956	116.0
72.874504	124.0
72.922089	72.0
73.073441	172.0
73.17897	100.0
73.279465	180.0
73.424362	148.0
73.444832	152.0
73.641129	164.0
74.019096	128.0
74.036224	52.0
74.513107	148.0
74.544037	208.0
74.643745	160.0
74.991524	144.0
75.190086	164.0
75.224396	28.0
75.407501	196.0
75.552757	196.0
75.6064	152.0
75.698158	156.0
76.133453	204.0
76.338524	152.0
76.455086	196.0
76.812286	168.0
77.196548	216.0
77.371529	116.0
77.56073	192.0
77.681732	192.0
77.701027	208.0
77.960915	176.0
78.078712	136.0
78.152596	136.0
78.191315	220.0
78.441437	196.0
78.492569	168.0
78.573708	60.0
78.611572	176.0
78.646065	176.0
78.665482	172.0
79.408691	136.0
79.508049	200.0
79.70517	72.0
79.821381	260.0
80.462189	220.0
80.665855	136.0
80.717705	132.0
80.801781	216.0
80.925278	216.0
81.163597	220.0
81.40406	156.0
81.979752	148.0
82.004982	184.0
82.062668	116.0
82.216003	228.0
82.344193	220.0
82.499596	188.0
82.778244	80.0
82.805412	152.0
83.66938	232.0
84.03981	176.0
84.251602	212.0
84.536858	188.0
84.861092	60.0
85.334808	132.0
86.347237	188.0
86.817665	92.0
86.875168	116.0
87.055382	196.0
87.179688	176.0
87.453316	148.0
87.840683	116.0
88.188011	176.0
88.444275	132.0
88.744026	228.0
88.813416	176.0
88.999214	156.0
89.179573	192.0
89.469276	156.0
90.697212	224.0
90.712379	104.0
90.87738	120.0
90.966583	124.0
91.058006	220.0
91.455124	200.0
91.599846	192.0
91.767563	244.0
91.899178	148.0
91.969788	180.0
92.007965	180.0
92.048965	2732.0
92.075996	244.0
92.528008	244.0
92.844193	56.0
93.040672	204.0
93.052872	316.0
93.184792	204.0
93.455078	148.0
93.537834	76.0
93.653374	224.0
94.137482	148.0
94.483482	232.0
94.502831	184.0
94.646065	68.0
94.785538	144.0
94.917358	44.0
95.033745	176.0
95.113312	212.0
95.249245	176.0
96.199577	156.0
96.240578	176.0
96.334328	240.0
96.690689	196.0
96.717613	72.0
97.429482	72.0
97.569023	232.0
97.814934	100.0
97.855118	224.0
98.1203	116.0
98.161705	204.0
98.222847	176.0
98.376778	152.0
98.981804	124.0
99.029335	164.0
99.209663	136.0
99.419922	184.0
99.49337	164.0
99.769531	100.0
99.817245	152.0
100.075935	156.0
100.097839	104.0
100.434662	188.0
100.610275	108.0
101.037979	156.0
101.32428	104.0
101.462578	96.0
101.701302	108.0
101.731415	116.0
101.948341	288.0
102.046913	416.0
102.149414	236.0
102.261276	156.0
102.32048	144.0
102.568275	228.0
102.615654	168.0
102.630775	124.0
102.695312	196.0
102.806274	196.0
103.052322	512.0
103.317505	216.0
103.481445	108.0
103.86245	232.0
103.961868	128.0
104.048683	1548.0
104.40699	212.0
104.875092	60.0
105.050461	224.0
105.311752	148.0
105.354652	128.0
105.39756	144.0
105.647003	156.0
105.823021	232.0
105.855782	68.0
106.064766	160.0
106.13858	100.0
106.255493	52.0
106.315002	40.0
106.475143	148.0
106.847214	180.0
106.956284	188.0
107.137505	200.0
107.232292	136.0
107.715141	148.0
107.793655	136.0
107.861862	100.0
108.040642	216.0
108.312973	104.0
108.406212	148.0
108.563774	128.0
108.796173	68.0
109.018425	240.0
109.047409	148.0
109.2742	140.0
109.803329	236.0
109.949371	76.0
109.997383	200.0
110.024521	176.0
110.058891	4876.0
110.112228	144.0
110.149826	164.0
110.179649	188.0
110.23967	120.0
110.266838	48.0
110.423653	52.0
110.448753	52.0
110.54081	76.0
110.561737	32.0
110.815125	184.0
110.97023	156.0
110.995392	40.0
111.061317	336.0
111.453003	184.0
111.673744	156.0
111.865234	168.0
111.983162	196.0
112.040039	48.0
112.328857	216.0
112.685654	160.0
112.784981	236.0
112.899155	156.0
112.922424	76.0
113.192719	184.0
113.411537	116.0
113.443336	168.0
113.663925	60.0
113.7658	220.0
113.916588	96.0
113.986702	180.0
114.156769	172.0
114.362038	108.0
114.61232	104.0
114.633629	168.0
114.780724	104.0
115.052475	5260.0
115.188377	144.0
116.060127	1112.0
116.166702	96.0
116.233215	188.0
116.261116	192.0
116.327652	148.0
116.407097	200.0
116.611198	168.0
117.056129	872.0
117.722916	164.0
117.770432	116.0
117.934647	44.0
118.014641	148.0
118.061859	276.0
118.508148	180.0
118.649033	148.0
118.82254	132.0
119.631027	48.0
119.809608	44.0
120.051559	76.0
120.652046	212.0
120.857643	72.0
121.017433	148.0
121.429428	164.0
121.734489	36.0
122.290733	128.0
122.81736	48.0
123.062332	116.0
123.429138	144.0
123.506546	40.0
123.882874	140.0
124.29306	140.0
125.035324	180.0
125.211212	116.0
125.304771	228.0
125.985245	164.0
126.045723	168.0
126.398895	152.0
126.443649	204.0
126.537674	164.0
126.918587	160.0
127.05378	512.0
127.282104	192.0
127.497772	76.0
128.061584	1376.0
128.083298	140.0
128.193192	72.0
128.21347	176.0
128.782043	168.0
128.881454	48.0
128.928909	84.0
129.049683	300.0
129.066055	724.0
129.431122	160.0
129.619141	144.0
129.75061	32.0
129.850388	92.0
130.064148	896.0
130.336212	120.0
130.697769	188.0
130.725067	148.0
131.07225	1688.0
131.640778	144.0
131.719177	148.0
132.046036	140.0
132.07605	800.0
132.119247	64.0
133.049728	144.0
133.079575	80.0
133.150772	80.0
133.205902	136.0
133.668045	116.0
133.944321	200.0
133.97197	160.0
134.80957	172.0
135.08934	204.0
135.3694	176.0
135.475952	196.0
135.863129	196.0
136.269424	160.0
136.334488	156.0
136.450714	156.0
136.715469	196.0
136.855576	52.0
137.11882	204.0
137.433655	136.0
137.989563	132.0
138.069061	200.0
138.361572	156.0
138.434158	172.0
138.607513	156.0
138.684845	144.0
139.052155	588.0
139.12352	144.0
139.236237	176.0
140.050507	292.0
140.894592	140.0
141.031647	240.0
141.067505	3644.0
141.093811	172.0
141.642151	60.0
142.062927	3312.0
142.353699	96.0
142.439209	64.0
142.750565	160.0
142.909943	148.0
142.969437	208.0
143.012268	200.0
143.040833	212.0
143.071381	9500.0
143.240875	104.0
143.262314	160.0
143.29567	64.0
143.367157	212.0
143.393372	92.0
143.507797	72.0
143.715317	164.0
143.872849	136.0
143.899109	72.0
143.918213	32.0
143.980301	108.0
144.018509	72.0
144.05481	344.0
144.07637	1424.0
144.185776	28.0
144.220627	144.0
144.743179	32.0
144.872528	72.0
145.023483	108.0
145.070236	336.0
145.143356	68.0
145.229706	132.0
145.284882	176.0
145.85643	104.0
145.952591	76.0
146.089691	152.0
146.161865	144.0
146.720673	208.0
147.447266	160.0
148.105392	80.0
148.238647	108.0
148.97142	156.0
149.747391	100.0
150.043442	188.0
150.786789	48.0
151.028854	212.0
151.05069	536.0
151.528259	240.0
152.046585	364.0
152.06337	152.0
152.16597	120.0
152.428787	116.0
152.928055	56.0
153.056259	1784.0
153.874695	148.0
154.061401	828.0
154.366425	156.0
154.693024	108.0
154.764816	48.0
155.059326	176.0
155.3423	88.0
155.769287	124.0
155.876129	56.0
155.948196	216.0
156.079544	1080.0
156.1297	140.0
156.423309	192.0
156.709717	120.0
156.974152	188.0
157.033798	160.0
157.087326	2292.0
157.365707	72.0
157.428131	44.0
157.458939	40.0
158.067581	172.0
158.094727	7844.0
158.138184	300.0
158.233307	68.0
158.528885	48.0
158.641693	52.0
158.774582	108.0
159.073181	144.0
159.097549	796.0
159.31929	44.0
159.341904	164.0
159.457489	48.0
159.60582	76.0
159.849823	64.0
160.077454	124.0
160.1026	140.0
160.217453	72.0
160.364273	76.0
161.267227	156.0
161.307678	152.0
162.322968	104.0
162.680725	136.0
162.949936	208.0
163.40506	156.0
163.471222	280.0
163.593384	40.0
164.097839	172.0
165.055389	200.0
165.597946	136.0
165.946472	148.0
166.064285	888.0
166.246597	152.0
166.300491	84.0
166.564972	120.0
167.071228	3992.0
167.151184	108.0
167.488449	56.0
167.831223	152.0
168.079468	2140.0
168.176926	172.0
168.213074	136.0
168.280197	44.0
168.324097	40.0
168.422241	140.0
168.923721	120.0
169.065353	300.0
169.07373	144.0
169.080368	460.0
169.490738	100.0
169.954895	160.0
170.057434	1432.0
170.101395	36.0
170.523636	132.0
170.560028	36.0
170.786255	156.0
171.066055	1360.0
171.140198	208.0
171.215714	56.0
171.248505	68.0
171.353775	124.0
171.679611	56.0
172.240784	84.0
173.014862	164.0
173.407791	56.0
173.441864	76.0
173.567719	216.0
174.61557	92.0
174.710266	216.0
174.815521	180.0
175.257919	128.0
177.141693	136.0
177.30864	220.0
177.425262	180.0
177.555206	208.0
177.613556	156.0
178.545853	128.0
179.039597	208.0
179.365936	44.0
179.915497	80.0
179.94754	184.0
180.006287	196.0
180.059097	152.0
180.33757	64.0
182.299438	196.0
183.074234	160.0
183.233154	152.0
183.926239	104.0
183.94783	132.0
184.071426	664.0
185.004868	144.0
185.080872	164.0
185.356979	132.0
185.416595	204.0
185.525024	108.0
185.55484	204.0
185.642715	160.0
185.831497	140.0
185.850494	144.0
185.959488	100.0
186.01062	140.0
186.040451	180.0
186.090347	31972.0
186.164307	80.0
186.203415	100.0
186.233292	56.0
186.289856	132.0
186.312073	44.0
186.33606	152.0
186.363693	40.0
186.409882	68.0
186.453369	84.0
186.5186	104.0
186.546509	60.0
186.564819	104.0
186.59201	68.0
186.678558	72.0
186.733414	56.0
186.755173	52.0
186.774216	76.0
186.994614	60.0
187.019104	180.0
187.049057	68.0
187.09314	3504.0
187.215134	40.0
187.247818	144.0
187.62114	72.0
187.741119	60.0
187.847504	88.0
187.891144	84.0
188.093704	288.0
188.303345	80.0
188.327927	108.0
188.357864	96.0
188.401688	56.0
188.472733	72.0
188.494583	88.0
188.535583	152.0
188.658035	40.0
188.811707	112.0
189.337189	60.0
189.381012	52.0
191.058304	104.0
196.667313	84.0
197.044312	124.0
197.115341	48.0
198.435364	44.0
198.684982	88.0
200.287369	72.0
200.760895	48.0
202.278183	124.0
203.403595	56.0
207.847443	64.0
208.556824	40.0
208.919159	136.0
210.386078	40.0
215.039398	132.0
220.52916	48.0
244.641113	64.0
247.075409	76.0
249.308014	76.0
262.291992	56.0
288.703918	84.0
309.957977	104.0
322.99115	64.0
337.644623	68.0
365.418854	88.0
367.064392	92.0
373.995178	76.0
416.498413	84.0
428.827271	52.0
467.357391	88.0
482.976257	68.0
493.527008	56.0
505.11734	52.0
553.942993	68.0
586.926208	108.0
639.308594	68.0
649.951233	160.0
665.951477	44.0
728.439758	164.0
737.190002	124.0
740.002869	172.0
765.036438	48.0
836.188416	188.0
842.271606	196.0
844.479675	144.0
850.337524	128.0
850.639343	180.0
859.509399	188.0
915.393127	148.0
930.856262	176.0
936.609863	276.0
954.063171	192.0
955.028625	196.0
962.312988	128.0
962.664978	208.0
966.175903	160.0
969.123108	212.0
972.72644	144.0
972.782349	76.0
981.436707	212.0
985.837708	144.0
996.270508	192.0
1014.972351	168.0
1015.321106	148.0
1021.132568	176.0
1024.646484	172.0
1028.096191	148.0
1029.845703	64.0
1031.50061	136.0
1038.518799	232.0
1046.249512	160.0
1061.129028	40.0
1064.185059	168.0
1068.708984	156.0
1069.80896	180.0
1073.764282	220.0
1075.05603	228.0
1082.076538	212.0
1086.500488	152.0
1087.360107	100.0
1090.992798	128.0
1102.455444	160.0
1110.950806	44.0
1116.530518	132.0
1122.330933	116.0
1122.764404	124.0
1128.079468	252.0
1128.754761	132.0
1134.352173	144.0
1135.129883	184.0
1138.270508	144.0
1143.743286	208.0
1144.349121	176.0
1146.019531	224.0
1146.875488	204.0
1150.53186	128.0
1152.436523	72.0
1155.61438	224.0
1156.331787	156.0
1163.069214	172.0
1171.835449	152.0
1174.814941	204.0
1177.948364	164.0
1178.064453	84.0
1187.50415	88.0
1190.352295	212.0
1194.111694	236.0
1195.68042	104.0
1196.045166	84.0
1196.864502	208.0
1207.893433	100.0
1208.834473	192.0
1209.20813	176.0
1215.507812	168.0
1216.840576	56.0
1218.375488	128.0
1220.106079	172.0
1224.148804	60.0
1225.277222	92.0
1225.528076	244.0
1226.001953	144.0
1226.817505	148.0
1229.105225	188.0
1232.862305	184.0
1239.916992	244.0
1242.329102	124.0
1245.143921	148.0
1248.229126	144.0
1249.692261	204.0
1250.191895	236.0
1250.747925	60.0
1251.057617	180.0
1253.078979	164.0
1254.460327	164.0
1254.523804	176.0
1255.369873	88.0
1256.3927	112.0
1260.975586	128.0
1266.175903	96.0
1267.83374	212.0
1268.230713	88.0
1274.0	140.0
1275.926025	160.0
1276.672607	76.0
1285.392334	240.0
1285.570801	28.0
1288.405518	156.0
1295.710327	204.0
1298.305176	172.0
1301.039185	156.0
1301.599243	56.0
1302.310181	108.0
1302.640625	152.0
1305.868164	156.0
1306.918457	116.0
1309.351685	52.0
1310.230591	52.0
1319.071167	140.0
1319.439819	252.0
1320.300293	152.0
1322.934204	160.0
1324.498413	200.0
1326.324463	124.0
1327.187256	216.0
1331.87561	168.0
1332.151611	144.0
1341.583374	192.0
1341.65625	124.0
1344.997437	224.0
1345.245605	60.0
1345.435425	176.0
1347.202759	156.0
1347.889648	236.0
1348.035767	192.0
1351.062988	184.0
1352.707153	192.0
1353.815186	116.0
1356.189087	184.0
1357.076172	76.0
1357.970825	80.0
1359.291382	156.0
1361.368896	204.0
1368.34729	212.0
1370.306519	184.0
1370.608521	140.0
1373.941284	128.0
1374.531616	156.0
1378.002075	212.0
1380.212158	148.0
1386.260132	280.0
1388.73645	156.0
1389.901245	132.0
1390.175781	88.0
1391.801514	188.0
1393.955811	220.0
1394.758423	128.0
1396.781128	164.0
1398.336304	152.0
1403.431885	248.0
1405.132446	176.0
1405.490601	200.0
1405.86377	164.0
1410.315186	144.0
1410.666626	244.0
1414.279663	40.0
1416.046753	156.0
1417.245361	124.0
1418.092285	204.0
1418.654419	136.0
1425.913208	204.0
1432.820312	220.0
1433.424072	112.0
1440.811035	212.0
1446.35437	52.0
1451.104492	160.0
1451.347046	188.0
1453.275635	236.0
1453.364746	172.0
1453.911133	112.0
1457.298096	184.0
1460.460693	132.0
1461.335571	132.0
1461.594238	88.0
1462.512573	164.0
1462.563721	176.0
1463.88562	196.0
1466.437866	216.0
1466.971436	92.0
1467.489868	220.0
1468.077026	196.0
1469.175537	76.0
1469.228882	204.0
1469.595093	184.0
1469.862183	140.0
1470.862061	80.0
1471.136841	68.0
1471.694214	188.0
1472.511353	168.0
1473.810059	204.0
1474.024048	40.0
1475.728638	240.0
1476.500977	160.0
1484.872314	192.0
1484.987305	128.0
1487.10498	40.0
1489.231934	216.0
1489.900269	168.0
1490.069336	204.0
1494.475098	168.0
1495.598633	188.0
1495.883545	244.0
1498.116821	224.0
1500.282349	180.0
1500.398071	168.0
1500.752686	40.0
1500.853027	128.0
1503.576172	56.0
END IONS

BEGIN IONS
PEPMASS=250.088
CHARGE=1
MSLEVEL=2
SOURCE_INSTRUMENT=LC-ESI-qTof
FILENAME=p3-F08_GF8_01_18289.mzXML
SEQ=*..*
IONMODE=Positive
ORGANISM=GNPS-NIH-SMALLMOLECULEPHARMACOLOGICALLYACTIVE
NAME=MLS001074296-01!2-Phenyl-4-quinolinecarboxylic acid132-60-5 M+H
PI=Dorrestein
DATACOLLECTOR=VP/LMS
SMILES=OC(=O)c1cc(nc2ccccc12)c3ccccc3
INCHI=N/A
INCHIAUX=N/A
PUBMED=N/A
SUBMITUSER=vphelan
LIBRARYQUALITY=1
SPECTRUMID=CCMSLIB00000085173
USI=mzspec:GNPS:GNPS-NIH-SMALLMOLECULEPHARMACOLOGICALLYACTIVE:accession:CCMSLIB00000085173
SCANS=1816
44.907326	184.0
44.948483	164.0
44.983185	184.0
44.995564	88.0
45.050335	156.0
45.067329	116.0
45.162704	360.0
45.215775	232.0
45.263969	208.0
45.28138	244.0
45.321571	244.0
45.364231	184.0
45.377872	196.0
45.387257	144.0
45.396645	184.0
45.416271	176.0
45.42952	220.0
45.455673	140.0
45.479832	112.0
45.533543	192.0
45.612129	140.0
45.623577	180.0
45.650471	80.0
45.677372	212.0
45.694862	172.0
45.707745	168.0
45.776974	212.0
45.79179	236.0
45.82008	128.0
45.864555	176.0
45.883427	132.0
45.930748	176.0
45.94952	156.0
45.985954	152.0
45.998325	172.0
46.010254	140.0
46.049419	168.0
46.064278	120.0
46.075085	100.0
46.092651	168.0
46.102112	124.0
46.12434	180.0
46.169594	232.0
46.190029	180.0
46.206234	184.0
46.249542	112.0
46.272556	180.0
46.287453	108.0
46.312439	168.0
46.360607	136.0
46.371452	180.0
46.414104	148.0
46.428398	48.0
46.513882	152.0
46.523384	104.0
46.53788	184.0
46.558693	124.0
46.579067	112.0
46.589935	124.0
46.746307	152.0
46.758556	144.0
46.823112	136.0
46.842846	160.0
46.866146	184.0
46.896778	188.0
46.926121	48.0
46.957485	148.0
46.967037	132.0
47.00251	80.0
47.069401	72.0
47.103546	160.0
47.119942	132.0
47.13224	120.0
47.154945	172.0
47.182812	148.0
47.215446	184.0
47.221901	96.0
47.238888	168.0
47.258896	144.0
47.337456	180.0
47.349102	116.0
47.360722	228.0
47.401882	100.0
47.437607	152.0
47.460773	108.0
47.474262	148.0
47.4856	156.0
47.499176	72.0
47.510151	40.0
47.538071	208.0
47.619492	148.0
47.628872	184.0
47.647449	120.0
47.672184	328.0
47.694176	160.0
47.740925	180.0
47.782192	200.0
47.798702	136.0
47.853764	176.0
47.899525	212.0
48.017761	144.0
48.042591	176.0
48.075706	76.0
48.091438	172.0
48.10638	236.0
48.136452	164.0
48.162697	36.0
48.18626	208.0
48.244232	420.0
48.269119	152.0
48.306465	156.0
48.372253	136.0
48.460148	136.0
48.471233	68.0
48.485092	124.0
48.503113	192.0
48.54887	28.0
48.569675	52.0
48.625179	48.0
48.736279	76.0
48.766285	156.0
48.782146	152.0
48.837532	140.0
48.858639	176.0
48.907349	160.0
48.937977	132.0
48.976971	132.0
48.987255	220.0
49.019661	444.0
49.078712	120.0
49.08987	140.0
49.120556	172.0
49.188938	148.0
49.200104	152.0
49.2178	208.0
49.228458	196.0
49.272732	140.0
49.292297	372.0
49.335026	132.0
49.396072	168.0
49.422348	144.0
49.44054	112.0
49.501534	212.0
49.516144	128.0
49.541359	44.0
49.583397	220.0
49.631065	148.0
49.653503	116.0
49.664722	176.0
49.695591	192.0
49.713833	120.0
49.74501	132.0
49.819145	164.0
49.873955	48.0
49.904884	176.0
49.920353	120.0
49.931602	116.0
49.946373	112.0
49.991547	156.0
50.020252	112.0
50.038555	36.0
50.048412	224.0
50.086273	236.0
50.101936	132.0
50.112453	152.0
50.163948	136.0
50.186302	196.0
50.206249	156.0
50.245747	100.0
50.283379	216.0
50.32378	196.0
50.338909	184.0
50.368572	124.0
50.37846	136.0
50.391178	120.0
50.420853	164.0
50.461803	124.0
50.502861	76.0
50.539646	136.0
50.55497	140.0
50.583523	180.0
50.59996	156.0
50.613728	140.0
50.620163	164.0
50.625721	180.0
50.640163	136.0
50.658581	180.0
50.701542	196.0
50.72377	144.0
50.747871	196.0
50.762054	112.0
50.832985	216.0
50.870815	196.0
50.935215	184.0
50.946579	132.0
50.976883	172.0
51.046082	76.0
51.05888	132.0
51.08733	224.0
51.120743	224.0
51.135712	136.0
51.162762	116.0
51.175575	176.0
51.209755	180.0
51.231121	136.0
51.269596	208.0
51.359425	32.0
51.390812	192.0
51.446476	176.0
51.459328	128.0
51.496944	292.0
51.517883	140.0
51.569328	204.0
51.585052	156.0
51.613651	200.0
51.679451	180.0
51.701565	168.0
51.716663	156.0
51.766731	140.0
51.781849	76.0
51.798286	196.0
51.818344	408.0
51.830074	192.0
51.84127	208.0
51.887142	188.0
51.900047	136.0
51.941151	132.0
51.981815	232.0
52.139793	112.0
52.152729	140.0
52.188671	120.0
52.205929	208.0
52.226067	108.0
52.244766	132.0
52.300892	64.0
52.31097	156.0
52.328247	132.0
52.368977	92.0
52.424763	160.0
52.439175	144.0
52.45359	64.0
52.505894	204.0
52.532906	168.0
52.564651	200.0
52.599289	148.0
52.618057	192.0
52.645496	176.0
52.660366	364.0
52.686302	192.0
52.707615	208.0
52.730118	112.0
52.75082	184.0
52.756264	164.0
52.778446	140.0
52.840378	216.0
52.924599	68.0
52.94632	40.0
52.963703	216.0
53.020214	96.0
53.069504	168.0
53.088158	204.0
53.136547	200.0
53.147831	192.0
53.170368	288.0
53.221863	204.0
53.233482	100.0
53.262623	128.0
53.272701	188.0
53.284031	228.0
53.319199	172.0
53.360802	136.0
53.432629	160.0
53.456047	168.0
53.495209	184.0
53.506855	168.0
53.541729	224.0
53.562199	44.0
53.588425	80.0
53.613197	160.0
53.643543	156.0
53.649357	268.0
53.69503	188.0
53.731537	52.0
53.785313	204.0
53.804291	364.0
53.817432	188.0
53.840797	184.0
53.865627	152.0
53.922619	220.0
53.961662	220.0
54.054245	188.0
54.099503	152.0
54.120308	248.0
54.153801	144.0
54.223289	424.0
54.260357	220.0
54.271046	104.0
54.291	204.0
54.316513	52.0
54.360531	192.0
54.38525	152.0
54.400162	100.0
54.411503	204.0
54.432465	128.0
54.4589	228.0
54.479622	188.0
54.523552	136.0
54.552067	180.0
54.583828	208.0
54.59412	40.0
54.647449	48.0
54.686302	220.0
54.707424	72.0
54.754547	184.0
54.786953	116.0
54.815865	200.0
54.837177	196.0
54.870964	68.0
54.991936	120.0
55.0126	136.0
55.045086	88.0
55.077579	236.0
55.093204	196.0
55.111435	188.0
55.129292	196.0
55.140968	160.0
55.161144	136.0
55.176594	192.0
55.217304	204.0
55.241669	204.0
55.27422	124.0
55.302898	96.0
55.324547	212.0
55.343796	72.0
55.388226	184.0
55.401562	88.0
55.450462	104.0
55.462822	200.0
55.483131	184.0
55.513439	252.0
55.545364	116.0
55.557941	144.0
55.570583	116.0
55.588921	144.0
55.606266	184.0
55.667072	140.0
55.763111	212.0
55.766487	136.0
55.771553	200.0
55.815681	204.0
55.829063	224.0
55.872833	180.0
55.896011	152.0
55.92429	148.0
55.943642	320.0
55.967464	84.0
56.001717	200.0
56.012146	176.0
56.03059	168.0
56.057117	176.0
56.112	180.0
56.144238	136.0
56.162704	196.0
56.179115	132.0
56.200001	80.0
56.210449	140.0
56.223881	152.0
56.238804	132.0
56.250748	152.0
56.29517	128.0
56.30975	148.0
56.325417	168.0
56.364262	128.0
56.383545	224.0
56.447975	132.0
56.464314	176.0
56.488361	80.0
56.505566	152.0
56.519783	176.0
56.542229	120.0
56.589226	244.0
56.612938	176.0
56.696495	192.0
56.726192	212.0
56.745247	92.0
56.786457	192.0
56.801872	136.0
56.862537	164.0
56.911018	148.0
56.926037	172.0
57.02219	192.0
57.041733	192.0
57.055264	164.0
57.065788	156.0
57.084026	188.0
57.154537	148.0
57.17062	192.0
57.213238	144.0
57.243355	80.0
57.270466	152.0
57.29649	188.0
57.335255	188.0
57.356358	148.0
57.378971	108.0
57.406113	148.0
57.443821	180.0
57.457401	120.0
57.51022	120.0
57.575001	168.0
57.59478	148.0
57.643131	132.0
57.656116	216.0
57.660084	128.0
57.67638	172.0
57.694653	184.0
57.701576	132.0
57.740627	172.0
57.751987	220.0
57.797375	128.0
57.820965	340.0
57.849831	244.0
57.884399	164.0
57.92466	180.0
57.947285	216.0
58.00639	204.0
58.073112	36.0
58.120045	192.0
58.152016	68.0
58.197559	144.0
58.229141	256.0
58.259224	96.0
58.277142	68.0
58.30698	144.0
58.320618	164.0
58.431637	184.0
58.510784	148.0
58.527531	160.0
58.544636	208.0
58.580841	300.0
58.629601	124.0
58.649933	188.0
58.66161	180.0
58.679905	180.0
58.69434	232.0
58.713455	80.0
58.753117	136.0
58.789738	116.0
58.803474	116.0
58.84676	260.0
58.885925	140.0
58.896618	172.0
58.931759	108.0
59.064007	124.0
59.104786	208.0
59.118324	132.0
59.133629	172.0
59.158909	216.0
59.174961	68.0
59.21347	192.0
59.240818	128.0
59.268398	140.0
59.279125	208.0
59.299049	132.0
59.339291	64.0
59.349644	240.0
59.369579	184.0
59.438614	104.0
59.48159	180.0
59.530724	132.0
59.544544	92.0
59.592171	388.0
59.605999	44.0
59.668869	120.0
59.681324	160.0
59.70155	184.0
59.724728	108.0
59.745922	148.0
59.759769	104.0
59.818256	132.0
59.859123	232.0
59.901417	112.0
59.93531	36.0
59.955345	128.0
59.975384	196.0
59.987717	148.0
60.005615	144.0
60.029346	188.0
60.107685	128.0
60.128086	200.0
60.194473	184.0
60.242355	132.0
60.26553	192.0
60.345909	160.0
60.357437	148.0
60.390759	156.0
60.404678	200.0
60.438717	184.0
60.457287	172.0
60.478958	304.0
60.533028	176.0
60.615253	44.0
60.628201	152.0
60.669418	144.0
60.702065	80.0
60.792046	176.0
60.823086	144.0
60.834854	176.0
60.871555	184.0
60.914707	172.0
60.934906	88.0
60.981529	144.0
61.043716	172.0
61.05616	220.0
61.091618	136.0
61.110607	108.0
61.135506	164.0
61.205559	176.0
61.227364	108.0
61.256958	56.0
61.267864	120.0
61.308746	152.0
61.3302	160.0
61.34267	248.0
61.395508	212.0
61.461861	172.0
61.512714	228.0
61.534573	84.0
61.575172	144.0
61.589233	180.0
61.60553	120.0
61.62204	244.0
61.641521	196.0
61.687683	184.0
61.708008	172.0
61.723209	144.0
61.753361	216.0
61.765873	220.0
61.842548	184.0
61.890697	228.0
61.909874	112.0
61.976929	184.0
62.024254	120.0
62.043549	156.0
62.059368	232.0
62.073383	60.0
62.083637	156.0
62.099522	132.0
62.121483	96.0
62.148155	152.0
62.215649	112.0
62.228207	236.0
62.254902	144.0
62.291031	116.0
62.380608	204.0
62.448223	116.0
62.566113	136.0
62.600891	132.0
62.611916	148.0
62.635063	144.0
62.646572	148.0
62.67178	152.0
62.7033	60.0
62.724342	172.0
62.744286	168.0
62.807369	160.0
62.821564	220.0
62.868904	96.0
62.893791	156.0
62.896194	96.0
62.936787	152.0
62.958893	124.0
62.983105	268.0
62.999092	152.0
63.031567	208.0
63.067085	160.0
63.113766	192.0
63.153305	172.0
63.17812	316.0
63.344082	232.0
63.36544	100.0
63.381287	200.0
63.462128	116.0
63.490673	212.0
63.524155	188.0
63.579716	164.0
63.610928	188.0
63.673195	156.0
63.693844	168.0
63.720898	144.0
63.751045	220.0
63.779655	80.0
63.81781	188.0
63.852798	96.0
63.871887	172.0
63.886074	148.0
63.900524	172.0
63.913353	128.0
63.960999	148.0
64.027878	48.0
64.104347	80.0
64.145187	212.0
64.149361	132.0
64.168106	164.0
64.222328	148.0
64.236687	132.0
64.278175	140.0
64.305305	232.0
64.320648	196.0
64.357986	132.0
64.379379	184.0
64.417885	152.0
64.453835	168.0
64.476852	208.0
64.509026	264.0
64.532158	160.0
64.544952	212.0
64.590813	196.0
64.593277	184.0
64.616928	176.0
64.637009	184.0
64.648933	116.0
64.684151	128.0
64.69622	216.0
64.762268	112.0
64.780235	124.0
64.794655	180.0
64.842552	148.0
64.855591	160.0
64.898186	200.0
64.934708	196.0
64.953369	300.0
64.982246	140.0
64.995087	124.0
65.010765	176.0
65.027184	120.0
65.139587	192.0
65.193161	116.0
65.207077	164.0
65.223625	136.0
65.262939	240.0
65.311592	192.0
65.322433	184.0
65.359856	352.0
65.385605	240.0
65.426575	296.0
65.46933	196.0
65.487045	112.0
65.511093	172.0
65.541824	172.0
65.562775	156.0
65.606262	200.0
65.628868	152.0
65.640152	164.0
65.659508	168.0
65.677254	180.0
65.701447	164.0
65.742371	232.0
65.761154	160.0
65.782143	108.0
65.796669	244.0
65.816048	56.0
65.843506	228.0
65.867729	176.0
65.882271	168.0
65.896812	104.0
65.948524	80.0
65.959846	120.0
65.97924	144.0
65.997032	148.0
66.016434	160.0
66.03038	116.0
66.058044	116.0
66.090851	32.0
66.103416	120.0
66.128075	184.0
66.145874	152.0
66.183067	132.0
66.200928	136.0
66.221985	176.0
66.245132	292.0
66.301376	76.0
66.390549	104.0
66.403519	168.0
66.421509	136.0
66.486198	200.0
66.515488	172.0
66.560944	136.0
66.578812	276.0
66.645592	188.0
66.759209	160.0
66.82856	216.0
66.850311	168.0
66.876358	80.0
66.887749	188.0
66.917053	156.0
66.946365	156.0
67.017471	160.0
67.063675	196.0
67.08976	44.0
67.135834	236.0
67.168037	160.0
67.21862	176.0
67.243851	168.0
67.287178	144.0
67.303505	184.0
67.334534	52.0
67.359032	72.0
67.396561	120.0
67.429298	196.0
67.473434	172.0
67.484879	192.0
67.553574	212.0
67.584663	64.0
67.62394	80.0
67.641098	132.0
67.668137	140.0
67.711403	172.0
67.746758	288.0
67.799187	216.0
67.818855	88.0
67.841026	176.0
67.853287	64.0
67.8787	136.0
67.908455	200.0
67.914032	180.0
67.940208	180.0
67.963181	92.0
68.110947	92.0
68.13559	200.0
68.156944	168.0
68.176666	180.0
68.19146	144.0
68.224335	60.0
68.236748	140.0
68.281891	172.0
68.306564	68.0
68.3853	156.0
68.395897	84.0
68.41024	88.0
68.43988	168.0
68.478439	124.0
68.499596	156.0
68.530479	172.0
68.56179	116.0
68.598053	160.0
68.617836	276.0
68.6838	48.0
68.743279	172.0
68.760201	112.0
68.873634	128.0
68.890152	88.0
68.967476	172.0
69.01577	372.0
69.032303	244.0
69.06208	172.0
69.091454	124.0
69.119987	152.0
69.156395	152.0
69.174606	148.0
69.202751	184.0
69.249123	208.0
69.277283	172.0
69.336937	76.0
69.376717	260.0
69.529327	52.0
69.57415	68.0
69.588638	192.0
69.640572	152.0
69.683098	188.0
69.696114	196.0
69.708694	176.0
69.737732	148.0
69.751907	224.0
69.765205	120.0
69.794029	240.0
69.852119	108.0
69.889229	184.0
69.913246	184.0
69.925682	256.0
69.993156	120.0
70.006477	128.0
70.024803	160.0
70.088112	104.0
70.10144	172.0
70.121346	68.0
70.123489	140.0
70.137749	148.0
70.147278	152.0
70.244835	176.0
70.269859	92.0
70.306572	104.0
70.324936	176.0
70.361656	148.0
70.388557	168.0
70.405075	144.0
70.480751	240.0
70.558815	152.0
70.616188	144.0
70.634071	344.0
70.659164	148.0
70.716064	104.0
70.754562	108.0
70.796959	140.0
70.855057	184.0
70.90786	212.0
70.95562	168.0
70.989159	160.0
71.098259	136.0
71.11499	156.0
71.148567	176.0
71.217422	212.0
71.266022	172.0
71.311516	124.0
71.420815	196.0
71.441002	196.0
71.471283	204.0
71.484749	164.0
71.525139	328.0
71.541595	160.0
71.565552	176.0
71.579018	108.0
71.595863	224.0
71.607651	172.0
71.629547	232.0
71.673668	172.0
71.697433	168.0
71.710915	172.0
71.74752	124.0
71.764381	68.0
71.781242	160.0
71.845337	172.0
71.865585	184.0
71.933098	136.0
71.948288	148.0
71.970238	140.0
71.990501	140.0
72.002327	104.0
72.016602	132.0
72.046249	80.0
72.092133	180.0
72.105392	112.0
72.120605	48.0
72.133102	172.0
72.159485	160.0
72.174706	136.0
72.303276	132.0
72.328667	120.0
72.350677	84.0
72.36422	124.0
72.390266	124.0
72.447212	132.0
72.459068	108.0
72.540421	132.0
72.553986	172.0
72.603157	148.0
72.648956	164.0
72.674408	220.0
72.691116	236.0
72.697891	200.0
72.759277	48.0
72.788139	184.0
72.847588	180.0
72.861176	156.0
72.878166	156.0
72.893143	168.0
72.946152	204.0
72.968254	132.0
73.002266	124.0
73.034584	156.0
73.065201	152.0
73.105087	192.0
73.120804	208.0
73.143486	156.0
73.156479	264.0
73.184349	60.0
73.213295	60.0
73.267807	148.0
73.320633	164.0
73.436577	112.0
73.457047	284.0
73.516197	168.0
73.547417	92.0
73.567787	148.0
73.585045	120.0
73.645203	124.0
73.670441	128.0
73.707062	232.0
73.72036	208.0
73.79863	192.0
73.851646	252.0
73.863617	164.0
73.877304	416.0
73.917694	176.0
73.944046	204.0
73.971252	188.0
74.01252	160.0
74.106735	124.0
74.125725	240.0
74.181183	356.0
74.193611	128.0
74.240448	140.0
74.261024	132.0
74.300484	136.0
74.344238	96.0
74.374741	148.0
74.395111	116.0
74.410995	220.0
74.449821	68.0
74.48246	156.0
74.525406	120.0
74.552902	152.0
74.58857	240.0
74.640038	152.0
74.67498	100.0
74.693901	168.0
74.713547	312.0
74.748955	72.0
74.781654	216.0
74.800774	180.0
74.821251	264.0
74.836746	148.0
74.874634	188.0
74.885971	172.0
74.915977	180.0
75.00386	144.0
75.084221	212.0
75.105606	200.0
75.143555	136.0
75.17289	144.0
75.195328	168.0
75.207413	152.0
75.229851	216.0
75.266113	92.0
75.28511	76.0
75.304176	200.0
75.336929	68.0
75.3545	168.0
75.404854	168.0
75.449448	180.0
75.475204	236.0
75.542656	76.0
75.559959	180.0
75.584183	172.0
75.60495	228.0
75.629272	148.0
75.64476	176.0
75.656448	168.0
75.675926	132.0
75.710556	340.0
75.771187	132.0
75.804108	156.0
75.846077	168.0
75.880379	148.0
75.920479	192.0
75.989655	196.0
76.039978	128.0
76.062904	132.0
76.098999	136.0
76.115616	276.0
76.140678	120.0
76.174553	200.0
76.253616	128.0
76.296715	312.0
76.44529	172.0
76.484154	208.0
76.529175	172.0
76.550713	132.0
76.568535	176.0
76.580734	148.0
76.599892	128.0
76.692245	144.0
76.744553	136.0
76.768967	132.0
76.78466	256.0
76.830711	140.0
76.875381	104.0
76.9468	224.0
77.037598	160.0
77.063461	124.0
77.086693	100.0
77.149002	248.0
77.182846	164.0
77.217819	184.0
77.247559	244.0
77.286674	168.0
77.325066	164.0
77.454124	168.0
77.471642	300.0
77.497925	172.0
77.525269	232.0
77.538002	132.0
77.566277	112.0
77.585564	120.0
77.610107	160.0
77.636414	188.0
77.653954	180.0
77.679886	224.0
77.706581	112.0
77.718864	128.0
77.78907	116.0
77.807297	240.0
77.829727	192.0
77.847008	124.0
77.91552	124.0
77.93309	104.0
77.985725	140.0
78.027077	228.0
78.049103	156.0
78.151123	200.0
78.1828	296.0
78.212723	220.0
78.239128	164.0
78.332466	348.0
78.346565	152.0
78.372993	148.0
78.397537	228.0
78.404182	212.0
78.420311	160.0
78.448784	120.0
78.499916	124.0
78.514023	148.0
78.526039	172.0
78.572052	192.0
78.614586	132.0
78.648117	124.0
78.666725	184.0
78.705025	104.0
78.724045	80.0
78.755836	164.0
78.775269	184.0
78.797119	140.0
78.805481	180.0
78.838875	160.0
78.856552	120.0
78.895874	212.0
78.925552	252.0
78.941414	140.0
79.033401	128.0
79.057007	156.0
79.072014	236.0
79.084511	200.0
79.152	188.0
79.182114	124.0
79.246773	168.0
79.283501	160.0
79.303421	60.0
79.325638	164.0
79.366417	192.0
79.393959	204.0
79.437363	156.0
79.469299	108.0
79.512558	200.0
79.584679	104.0
79.630501	224.0
79.723236	156.0
79.7659	96.0
79.842354	280.0
79.87471	188.0
79.979362	88.0
80.00174	204.0
80.039062	360.0
80.059486	124.0
80.07373	92.0
80.123611	56.0
80.194893	164.0
80.230545	200.0
80.31588	188.0
80.33934	140.0
80.353615	184.0
80.371452	120.0
80.39193	160.0
80.480339	204.0
80.496986	200.0
80.58812	212.0
80.608955	216.0
80.625046	196.0
80.6894	172.0
80.743042	200.0
80.850395	140.0
80.899017	196.0
81.008827	340.0
81.058136	88.0
81.079033	160.0
81.138794	196.0
81.172867	272.0
81.201561	176.0
81.245499	140.0
81.345116	216.0
81.356964	188.0
81.393593	136.0
81.420525	124.0
81.515747	180.0
81.533279	132.0
81.539902	100.0
81.54348	176.0
81.61821	100.0
81.659576	128.0
81.679359	160.0
81.726135	144.0
81.875557	188.0
81.958427	124.0
81.986671	112.0
82.023308	140.0
82.111664	104.0
82.142326	184.0
82.163979	128.0
82.225769	180.0
82.272263	188.0
82.292122	140.0
82.423241	252.0
82.438446	224.0
82.461945	36.0
82.514366	272.0
82.534256	172.0
82.595749	136.0
82.622887	160.0
82.64225	176.0
82.731239	124.0
82.769501	160.0
82.783112	248.0
82.829269	180.0
82.860931	92.0
82.907181	144.0
82.936707	208.0
82.999634	168.0
83.041351	128.0
83.142952	212.0
83.155022	160.0
83.24099	208.0
83.2537	144.0
83.317276	64.0
83.355568	220.0
83.382011	148.0
83.43541	132.0
83.453598	132.0
83.489967	180.0
83.506332	172.0
83.535439	132.0
83.560913	68.0
83.584564	108.0
83.65863	52.0
83.675575	120.0
83.702888	216.0
83.722099	168.0
83.735672	156.0
83.764816	204.0
83.8769	176.0
83.894203	208.0
83.937531	200.0
83.970795	148.0
84.016396	124.0
84.034645	148.0
84.069313	112.0
84.120422	140.0
84.135033	236.0
84.162415	160.0
84.198944	164.0
84.262878	192.0
84.28846	144.0
84.303078	176.0
84.403625	144.0
84.43837	128.0
84.480446	92.0
84.513374	128.0
84.546318	160.0
84.579887	208.0
84.597572	232.0
84.612831	380.0
84.661659	184.0
84.712944	148.0
84.7276	136.0
84.749588	80.0
84.772652	116.0
84.779213	192.0
84.821068	232.0
84.857735	132.0
84.874237	184.0
84.888977	200.0
84.927422	96.0
84.956772	44.0
84.971451	200.0
85.087929	104.0
85.126366	152.0
85.171562	40.0
85.19706	168.0
85.272621	152.0
85.311111	132.0
85.405006	92.0
85.424591	176.0
85.44548	132.0
85.460205	92.0
85.473083	160.0
85.493324	196.0
85.520935	40.0
85.568802	200.0
85.616676	208.0
85.633255	120.0
85.647987	336.0
85.710632	148.0
85.725105	164.0
85.749336	136.0
85.800949	136.0
85.819389	168.0
85.87471	172.0
85.933945	112.0
85.948509	36.0
86.042191	164.0
86.047943	124.0
86.068497	132.0
86.084167	156.0
86.105431	108.0
86.122055	80.0
86.196144	156.0
86.210739	164.0
86.280472	188.0
86.316116	156.0
86.403053	164.0
86.430801	164.0
86.597427	180.0
86.645592	112.0
86.682648	136.0
86.719719	172.0
86.736961	356.0
86.752861	232.0
86.773476	64.0
86.786461	116.0
86.819611	164.0
86.87867	192.0
86.929298	196.0
86.953751	160.0
86.975327	200.0
87.046249	104.0
87.093491	156.0
87.228333	76.0
87.245064	112.0
87.259941	192.0
87.306427	76.0
87.323166	176.0
87.399445	108.0
87.412468	120.0
87.454987	384.0
87.479477	108.0
87.535332	140.0
87.567215	208.0
87.667648	184.0
87.700935	104.0
87.814896	100.0
87.82795	140.0
87.90258	116.0
87.934578	140.0
87.994003	200.0
88.023926	176.0
88.044777	144.0
88.086205	116.0
88.102371	208.0
88.117317	232.0
88.148476	208.0
88.201515	80.0
88.260605	152.0
88.2948	208.0
88.315117	164.0
88.351028	168.0
88.388451	200.0
88.457703	164.0
88.555458	176.0
88.577553	144.0
88.666672	164.0
88.689987	124.0
88.710609	168.0
88.758888	192.0
88.800613	176.0
88.82415	220.0
88.845131	224.0
88.864349	156.0
88.883163	144.0
88.917107	92.0
89.011223	164.0
89.03701	2936.0
89.068314	140.0
89.110367	168.0
89.135277	140.0
89.152794	148.0
89.198502	112.0
89.250435	240.0
89.273407	520.0
89.334099	220.0
89.420761	148.0
89.489151	188.0
89.525703	144.0
89.558113	100.0
89.597672	136.0
89.612747	120.0
89.667397	144.0
89.696205	152.0
89.73278	152.0
89.756004	88.0
89.812584	160.0
89.837112	216.0
89.858574	212.0
89.918251	120.0
89.942421	164.0
89.95005	132.0
89.997536	140.0
90.041374	288.0
90.155594	192.0
90.202682	148.0
90.231834	124.0
90.272041	184.0
90.312218	152.0
90.352882	116.0
90.466438	104.0
90.487259	152.0
90.500519	132.0
90.517555	180.0
90.538391	332.0
90.574379	148.0
90.671013	248.0
90.68428	124.0
90.719208	104.0
90.752533	164.0
90.847359	136.0
90.866333	200.0
90.958321	204.0
90.982109	96.0
91.013565	120.0
91.028015	204.0
91.051201	1000.0
91.073807	224.0
91.097961	72.0
91.123619	152.0
91.145462	76.0
91.208176	116.0
91.246109	168.0
91.280426	192.0
91.34787	128.0
91.363441	168.0
91.419304	92.0
91.499252	128.0
91.524002	120.0
91.543785	144.0
91.571617	120.0
91.588654	144.0
91.609711	236.0
91.660324	184.0
91.689056	144.0
91.703934	144.0
91.737396	196.0
91.754089	164.0
91.760094	124.0
91.767212	152.0
91.786591	180.0
91.862038	156.0
91.873497	88.0
91.9142	424.0
91.945312	108.0
91.963806	180.0
91.974648	196.0
92.023582	160.0
92.047356	720.0
92.064781	188.0
92.071693	164.0
92.096153	224.0
92.115257	128.0
92.132446	92.0
92.15538	96.0
92.175743	152.0
92.193596	68.0
92.224174	168.0
92.265259	196.0
92.298737	136.0
92.348465	212.0
92.388634	176.0
92.431252	252.0
92.463264	104.0
92.486237	204.0
92.50296	152.0
92.580055	172.0
92.624107	40.0
92.673279	192.0
92.689247	152.0
92.764	380.0
92.830147	188.0
92.880974	76.0
92.940453	176.0
92.970634	220.0
93.050499	168.0
93.107574	144.0
93.1651	128.0
93.191994	156.0
93.217934	160.0
93.244453	268.0
93.288948	108.0
93.316933	128.0
93.357315	148.0
93.405647	156.0
93.467735	200.0
93.498985	272.0
93.520859	140.0
93.538185	216.0
93.556587	100.0
93.59787	136.0
93.621033	132.0
93.674011	112.0
93.707352	200.0
93.728859	116.0
93.759689	120.0
93.843094	364.0
93.931305	112.0
94.014267	120.0
94.027779	200.0
94.056732	164.0
94.079903	52.0
94.128174	160.0
94.19577	116.0
94.263397	108.0
94.325249	64.0
94.340714	164.0
94.377449	344.0
94.414192	180.0
94.445137	104.0
94.458679	136.0
94.487701	176.0
94.503174	144.0
94.535149	132.0
94.547684	256.0
94.591942	176.0
94.59903	152.0
94.603004	180.0
94.616623	196.0
94.64254	148.0
94.696968	192.0
94.725822	80.0
94.741325	180.0
94.788551	148.0
94.834343	184.0
94.857605	132.0
94.914825	136.0
94.930061	172.0
94.997231	44.0
95.050301	148.0
95.086121	208.0
95.106964	204.0
95.153191	184.0
95.167229	204.0
95.218521	208.0
95.26503	144.0
95.303993	48.0
95.321556	348.0
95.478546	228.0
95.533424	172.0
95.562012	184.0
95.567352	128.0
95.607971	284.0
95.644348	172.0
95.73391	132.0
95.747543	152.0
95.795502	168.0
95.893669	92.0
95.959953	224.0
95.987251	44.0
96.082832	80.0
96.150505	196.0
96.158211	172.0
96.163292	224.0
96.17762	156.0
96.219452	52.0
96.238976	164.0
96.264366	76.0
96.302071	52.0
96.348358	160.0
96.401115	32.0
96.416748	164.0
96.438248	84.0
96.481255	140.0
96.529999	112.0
96.555565	164.0
96.571213	208.0
96.592728	148.0
96.653381	160.0
96.676865	136.0
96.702309	176.0
96.755165	100.0
96.872673	136.0
96.913811	240.0
96.949089	192.0
97.002052	192.0
97.027496	176.0
97.117706	240.0
97.164787	156.0
97.182449	128.0
97.221695	48.0
97.235435	228.0
97.260948	160.0
97.290398	148.0
97.355194	148.0
97.402336	116.0
97.453415	204.0
97.502548	180.0
97.559547	172.0
97.620506	120.0
97.718857	188.0
97.744438	152.0
97.787735	100.0
97.825134	160.0
97.838921	92.0
97.864517	136.0
97.886177	244.0
97.943291	184.0
98.0186	188.0
98.043777	156.0
98.092491	84.0
98.128731	128.0
98.152206	132.0
98.166008	188.0
98.197571	124.0
98.239235	32.0
98.260696	168.0
98.308052	92.0
98.359093	180.0
98.406754	112.0
98.471924	112.0
98.490486	80.0
98.513405	128.0
98.595337	232.0
98.599907	108.0
98.608902	208.0
98.631973	216.0
98.659653	112.0
98.721695	340.0
98.760506	64.0
98.784187	144.0
98.847557	120.0
98.863388	160.0
98.883179	124.0
98.897827	120.0
98.976227	152.0
99.023758	136.0
99.049515	124.0
99.110931	108.0
99.150566	224.0
99.193146	164.0
99.233826	28.0
99.269516	140.0
99.29332	44.0
99.348862	84.0
99.390526	380.0
99.404419	56.0
99.424263	100.0
99.50312	156.0
99.520538	216.0
99.569092	224.0
99.591042	212.0
99.608925	164.0
99.751068	172.0
99.783813	148.0
99.85714	156.0
99.879227	168.0
99.897179	356.0
99.937767	180.0
99.972786	300.0
99.994682	148.0
100.028519	156.0
100.049622	156.0
100.068985	172.0
100.104179	112.0
100.118118	120.0
100.15995	52.0
100.230675	128.0
100.269539	152.0
100.287476	164.0
100.371216	100.0
100.478928	168.0
100.655891	140.0
100.681679	204.0
100.718491	100.0
100.734398	112.0
100.777512	184.0
100.814156	68.0
100.836517	224.0
100.876358	200.0
100.940338	116.0
100.982338	180.0
101.005684	232.0
101.01297	140.0
101.037651	8248.0
101.070366	220.0
101.091141	208.0
101.108391	60.0
101.134407	28.0
101.190193	60.0
101.254547	96.0
101.280052	76.0
101.296661	144.0
101.332672	120.0
101.372749	208.0
101.412544	56.0
101.438889	76.0
101.452927	56.0
101.474503	84.0
101.488235	164.0
101.513077	160.0
101.619392	104.0
101.673576	180.0
101.701675	136.0
101.76767	156.0
101.844238	96.0
101.896477	244.0
101.924606	92.0
101.95475	104.0
102.034767	1580.0
102.075371	132.0
102.101517	52.0
102.121628	172.0
102.139244	180.0
102.157837	184.0
102.186005	132.0
102.227989	356.0
102.257492	160.0
102.310448	188.0
102.343544	120.0
102.371201	108.0
102.41349	192.0
102.439148	196.0
102.498108	180.0
102.520279	92.0
102.584778	208.0
102.653336	136.0
102.689636	192.0
102.706665	100.0
102.725426	232.0
102.773827	224.0
102.828857	136.0
102.859138	152.0
102.959343	204.0
103.018669	116.0
103.051231	1220.0
103.107925	140.0
103.123375	172.0
103.13649	200.0
103.259026	164.0
103.295631	140.0
103.325981	188.0
103.401939	144.0
103.433235	156.0
103.459557	108.0
103.566887	152.0
103.6045	196.0
103.637794	212.0
103.679123	172.0
103.743187	156.0
103.761436	180.0
103.812126	180.0
103.840523	76.0
103.855469	172.0
103.891235	124.0
103.974899	172.0
104.02449	476.0
104.049461	444.0
104.084106	164.0
104.104362	128.0
104.165298	164.0
104.205933	144.0
104.238441	44.0
104.277061	176.0
104.293839	204.0
104.338043	196.0
104.419388	132.0
104.476341	320.0
104.549088	176.0
104.565056	148.0
104.609314	132.0
104.64595	216.0
104.684692	56.0
104.72673	156.0
104.765434	196.0
104.785812	92.0
104.810265	156.0
104.831337	92.0
104.863693	184.0
104.923798	180.0
104.927757	56.0
104.95295	84.0
104.981499	88.0
105.032478	1616.0
105.075333	184.0
105.089615	228.0
105.110023	124.0
105.132469	92.0
105.150841	232.0
105.176506	196.0
105.205956	128.0
105.267212	184.0
105.299889	132.0
105.33461	168.0
105.407471	212.0
105.423218	220.0
105.471527	156.0
105.49292	224.0
105.53286	208.0
105.635117	176.0
105.696503	184.0
105.71492	44.0
105.807472	168.0
105.854965	176.0
105.874496	148.0
105.956543	100.0
106.001625	196.0
106.030754	168.0
106.078278	180.0
106.124619	352.0
106.218956	108.0
106.255882	124.0
106.296211	208.0
106.317444	104.0
106.373329	196.0
106.395447	136.0
106.415977	144.0
106.465767	212.0
106.481697	116.0
106.511742	216.0
106.555649	196.0
106.57003	84.0
106.602913	276.0
106.617294	52.0
106.658401	92.0
106.691299	104.0
106.72831	68.0
106.763779	224.0
106.796173	188.0
106.848511	132.0
106.868179	140.0
106.90728	204.0
106.925804	132.0
106.952209	140.0
106.963692	196.0
107.001968	136.0
107.039032	60.0
107.074898	164.0
107.107002	44.0
107.181122	180.0
107.199715	312.0
107.236816	124.0
107.253304	52.0
107.286285	172.0
107.30072	132.0
107.417435	148.0
107.440964	196.0
107.502869	204.0
107.531761	188.0
107.599884	84.0
107.624664	56.0
107.661835	152.0
107.67836	184.0
107.787216	208.0
107.820923	92.0
107.867989	176.0
107.873085	136.0
107.881584	208.0
107.926353	84.0
107.949097	172.0
108.01326	204.0
108.043991	192.0
108.091652	176.0
108.115776	160.0
108.172562	120.0
108.197403	84.0
108.226387	144.0
108.240883	244.0
108.369316	232.0
108.404541	244.0
108.425262	164.0
108.468796	108.0
108.495743	216.0
108.599907	140.0
108.626564	148.0
108.651291	268.0
108.728073	180.0
108.766296	144.0
108.79657	176.0
108.821487	192.0
108.863022	136.0
108.921173	108.0
108.941544	248.0
108.96656	104.0
108.993896	184.0
109.010521	180.0
109.056244	156.0
109.078323	152.0
109.135239	152.0
109.234535	140.0
109.29541	204.0
109.339302	132.0
109.39006	132.0
109.443199	192.0
109.511925	336.0
109.534843	160.0
109.572548	120.0
109.60218	212.0
109.610252	144.0
109.62027	240.0
109.653168	168.0
109.770363	136.0
109.824326	160.0
109.87674	196.0
109.935173	172.0
109.956039	56.0
110.006134	120.0
110.024925	112.0
110.04998	56.0
110.066689	172.0
110.08757	180.0
110.133522	100.0
110.152084	212.0
110.185745	132.0
110.246346	28.0
110.267242	140.0
110.346268	300.0
110.400902	164.0
110.431206	172.0
110.478134	108.0
110.504601	192.0
110.555473	192.0
110.595634	200.0
110.614471	96.0
110.645874	164.0
110.696129	72.0
110.731735	132.0
110.809242	160.0
110.858093	220.0
110.901451	148.0
110.924515	68.0
110.955681	60.0
110.976929	192.0
111.025162	140.0
111.039841	176.0
111.055443	164.0
111.083893	216.0
111.104866	36.0
111.130043	160.0
111.173836	152.0
111.218193	52.0
111.236275	240.0
111.262276	120.0
111.285019	192.0
111.293564	160.0
111.372833	180.0
111.424728	92.0
111.47863	152.0
111.52697	168.0
111.556404	116.0
111.571121	152.0
111.615273	160.0
111.644714	100.0
111.661537	152.0
111.680565	176.0
111.749893	144.0
111.821449	160.0
111.839005	92.0
111.861443	184.0
111.890915	196.0
111.945663	160.0
111.970932	84.0
112.00885	196.0
112.03624	128.0
112.160568	148.0
112.33033	156.0
112.390457	104.0
112.409447	300.0
112.434776	196.0
112.459084	240.0
112.497345	168.0
112.571999	412.0
112.60157	216.0
112.641701	180.0
112.6586	224.0
112.709312	436.0
112.755806	184.0
112.772713	184.0
112.79174	156.0
112.80912	180.0
112.854721	172.0
112.875069	184.0
112.914772	128.0
112.99688	176.0
113.077293	108.0
113.096344	252.0
113.174675	164.0
113.221268	200.0
113.243355	112.0
113.261513	140.0
113.295403	184.0
113.338531	204.0
113.371048	172.0
113.490402	152.0
113.547661	164.0
113.662216	112.0
113.691933	72.0
113.742714	160.0
113.842667	208.0
113.925507	156.0
113.946747	108.0
113.995567	152.0
114.025375	168.0
114.059898	148.0
114.162102	296.0
114.216743	236.0
114.235886	148.0
114.26355	116.0
114.301849	124.0
114.3508	148.0
114.397629	244.0
114.431236	292.0
114.448723	120.0
114.467888	176.0
114.519005	72.0
114.5467	80.0
114.597832	92.0
114.619141	84.0
114.64045	228.0
114.691605	132.0
114.730034	144.0
114.764084	144.0
114.825371	168.0
114.994492	84.0
115.010597	212.0
115.039314	132.0
115.07988	160.0
115.16581	136.0
115.312737	176.0
115.368317	228.0
115.391838	68.0
115.416107	240.0
115.496628	120.0
115.570908	228.0
115.638596	344.0
115.71492	156.0
115.750221	88.0
115.772408	208.0
115.799507	216.0
115.826279	140.0
115.845703	140.0
115.871399	240.0
115.889961	76.0
115.946274	200.0
115.97242	120.0
115.989143	220.0
116.048317	43864.0
116.090492	164.0
116.108467	240.0
116.126373	96.0
116.147827	76.0
116.178406	160.0
116.210037	116.0
116.258842	108.0
116.2873	48.0
116.351158	256.0
116.397614	184.0
116.412506	148.0
116.440407	168.0
116.464394	252.0
116.502037	164.0
116.568642	180.0
116.585838	160.0
116.614731	228.0
116.639572	160.0
116.673973	68.0
116.735786	160.0
116.753532	152.0
116.773148	164.0
116.824516	76.0
116.846954	140.0
116.882927	160.0
116.910583	148.0
116.949326	144.0
116.968697	68.0
117.031624	784.0
117.051659	5808.0
117.151749	60.0
117.184067	164.0
117.240326	224.0
117.257332	140.0
117.281044	304.0
117.313377	168.0
117.332787	80.0
117.386566	204.0
117.421303	160.0
117.438454	140.0
117.457863	112.0
117.4935	232.0
117.552803	76.0
117.579559	120.0
117.598122	160.0
117.63266	188.0
117.673683	88.0
117.703911	172.0
117.729828	164.0
117.748161	164.0
117.798676	64.0
117.860802	184.0
117.883469	168.0
117.934143	92.0
118.038383	168.0
118.056671	152.0
118.098969	480.0
118.150558	144.0
118.170807	116.0
118.192451	148.0
118.242226	152.0
118.274635	152.0
118.308342	272.0
118.343727	180.0
118.402443	116.0
118.517502	140.0
118.541092	44.0
118.613586	152.0
118.681999	200.0
118.749222	144.0
118.766579	176.0
118.787186	72.0
118.862038	112.0
118.892426	184.0
118.920639	128.0
118.943741	168.0
118.970566	36.0
119.005302	200.0
119.048325	1072.0
119.072624	164.0
119.092728	220.0
119.137794	124.0
119.166039	204.0
119.216049	252.0
119.309486	228.0
119.326881	192.0
119.344276	152.0
119.359497	60.0
119.410339	168.0
119.431267	128.0
119.446495	128.0
119.468246	120.0
119.485649	144.0
119.511765	160.0
119.581245	56.0
119.618408	96.0
119.703323	84.0
119.807182	164.0
119.834023	200.0
119.870392	52.0
119.899391	128.0
119.984406	72.0
120.042618	1472.0
120.084724	48.0
120.17971	140.0
120.195351	328.0
120.219994	192.0
120.32695	112.0
120.422142	156.0
120.447067	56.0
120.532272	64.0
120.581665	200.0
120.639374	64.0
120.760521	160.0
120.792717	168.0
120.820892	224.0
120.869034	208.0
120.906853	156.0
120.923744	96.0
120.956581	84.0
121.009125	336.0
121.029922	216.0
121.056198	240.0
121.115417	164.0
121.17569	164.0
121.254471	144.0
121.285164	152.0
121.306046	188.0
121.326813	156.0
121.353172	184.0
121.415482	284.0
121.471558	172.0
121.493492	72.0
121.525742	160.0
121.545288	132.0
121.559319	216.0
121.579262	136.0
121.616379	28.0
121.633942	164.0
121.649307	48.0
121.682243	84.0
121.712067	192.0
121.739334	128.0
121.754707	148.0
121.849167	124.0
121.928276	84.0
121.960144	136.0
122.022797	160.0
122.062378	184.0
122.09317	204.0
122.108566	40.0
122.206116	152.0
122.258171	184.0
122.273582	248.0
122.319801	88.0
122.355026	256.0
122.412079	164.0
122.439789	220.0
122.484962	212.0
122.506477	172.0
122.526817	192.0
122.615898	188.0
122.637001	216.0
122.665665	188.0
122.749664	240.0
122.78756	124.0
122.817818	156.0
122.839874	160.0
122.886208	172.0
122.903862	76.0
122.923721	124.0
122.992142	180.0
123.069412	116.0
123.094925	168.0
123.117134	212.0
123.16394	204.0
123.222771	240.0
123.345573	120.0
123.372108	248.0
123.493729	40.0
123.562309	148.0
123.602135	204.0
123.684029	92.0
123.761513	228.0
123.801376	76.0
123.836815	172.0
123.85453	184.0
123.881119	204.0
123.916565	160.0
123.960884	164.0
124.011856	80.0
124.073929	156.0
124.131577	84.0
124.1884	148.0
124.329025	40.0
124.346779	80.0
124.368973	100.0
124.431137	136.0
124.462219	192.0
124.482208	56.0
124.519958	236.0
124.537727	128.0
124.567482	160.0
124.641823	164.0
124.687622	208.0
124.784409	140.0
124.860542	164.0
124.940094	336.0
125.053589	124.0
125.08551	216.0
125.131508	168.0
125.182716	76.0
125.225746	100.0
125.300774	176.0
125.347572	156.0
125.363777	176.0
125.414429	156.0
125.430038	152.0
125.457245	156.0
125.474625	68.0
125.552666	152.0
125.718849	280.0
125.753471	156.0
125.775436	132.0
125.795647	152.0
125.822899	120.0
125.851562	192.0
125.878502	80.0
126.030968	564.0
126.08403	64.0
126.150726	172.0
126.20475	128.0
126.283478	196.0
126.353325	244.0
126.40831	176.0
126.430664	336.0
126.445557	56.0
126.486649	156.0
126.522469	72.0
126.542618	156.0
126.589645	136.0
126.697159	96.0
126.726288	140.0
126.75766	184.0
126.7929	132.0
126.916817	156.0
126.934753	120.0
126.970634	120.0
127.03952	1208.0
127.069336	80.0
127.111969	148.0
127.150124	92.0
127.172569	164.0
127.26413	168.0
127.340408	144.0
127.382248	140.0
127.40387	136.0
127.419594	148.0
127.487396	148.0
127.518471	128.0
127.540977	184.0
127.583664	136.0
127.599403	148.0
127.715164	264.0
127.73349	628.0
127.751236	164.0
127.791794	140.0
127.822037	240.0
127.85408	148.0
127.863075	168.0
127.880226	144.0
127.924576	164.0
127.946144	168.0
127.995003	216.0
128.048691	113872.0
128.084869	348.0
128.111633	168.0
128.115967	108.0
128.124756	216.0
128.145325	80.0
128.192368	184.0
128.215591	248.0
128.245148	180.0
128.269012	148.0
128.28714	176.0
128.318161	52.0
128.340012	52.0
128.359344	80.0
128.396423	132.0
128.418152	1236.0
128.441406	128.0
128.456131	88.0
128.477158	440.0
128.491165	176.0
128.499298	228.0
128.517303	200.0
128.541626	212.0
128.579315	40.0
128.595108	192.0
128.61821	52.0
128.640411	116.0
128.671219	28.0
128.695358	128.0
128.719284	56.0
128.73735	84.0
128.765121	136.0
128.78717	164.0
128.803452	132.0
128.853577	124.0
128.897079	148.0
128.926254	156.0
128.93988	272.0
128.991516	172.0
129.008728	156.0
129.050995	13928.0
129.131088	204.0
129.181503	176.0
129.198471	212.0
129.218994	56.0
129.239197	116.0
129.271698	84.0
129.2883	92.0
129.30307	144.0
129.372726	48.0
129.433868	172.0
129.4711	148.0
129.511307	212.0
129.562973	72.0
129.587891	144.0
129.644669	144.0
129.664078	136.0
129.70491	76.0
129.73349	100.0
129.787491	192.0
129.794708	116.0
129.804672	88.0
129.832718	76.0
129.861862	160.0
129.878433	316.0
129.897812	160.0
129.972305	248.0
130.02771	5280.0
130.055862	480.0
130.091064	108.0
130.123993	180.0
130.145889	108.0
130.184265	80.0
130.198654	164.0
130.232193	192.0
130.293518	40.0
130.333847	176.0
130.357147	148.0
130.409424	168.0
130.429871	236.0
130.480667	164.0
130.489639	56.0
130.495102	180.0
130.528778	72.0
130.552658	40.0
130.616348	60.0
130.634537	144.0
130.655014	140.0
130.679504	184.0
130.695969	196.0
130.72905	60.0
130.766525	132.0
130.862137	96.0
130.900848	164.0
130.937286	64.0
130.982834	44.0
131.030365	696.0
131.053192	132.0
131.068283	152.0
131.096771	68.0
131.192505	156.0
131.210739	64.0
131.228973	148.0
131.258621	124.0
131.288269	188.0
131.397766	80.0
131.439636	148.0
131.53241	124.0
131.557526	144.0
131.635147	40.0
131.653427	156.0
131.694534	164.0
131.719284	144.0
131.747482	112.0
131.797394	164.0
131.82019	216.0
131.877335	132.0
131.904755	128.0
131.928268	56.0
131.945908	136.0
131.968781	156.0
132.008926	108.0
132.042404	1052.0
132.076263	144.0
132.096848	236.0
132.117447	208.0
132.144897	52.0
132.174637	180.0
132.254745	188.0
132.323425	64.0
132.371506	124.0
132.481461	136.0
132.503006	236.0
132.584564	152.0
132.625824	72.0
132.671677	200.0
132.691238	204.0
132.71524	128.0
132.733582	164.0
132.761108	136.0
132.804672	124.0
132.868912	176.0
132.903336	132.0
133.008896	68.0
133.02681	280.0
133.093857	56.0
133.114517	212.0
133.148972	164.0
133.171936	52.0
133.199097	136.0
133.328232	160.0
133.346558	216.0
133.415604	220.0
133.535095	188.0
133.60289	120.0
133.638214	156.0
133.643723	108.0
133.655411	80.0
133.728378	68.0
133.744492	92.0
133.795135	132.0
133.885315	220.0
133.935608	208.0
133.962738	144.0
134.036987	156.0
134.058655	752.0
134.109146	64.0
134.200638	116.0
134.27478	216.0
134.374451	56.0
134.40593	128.0
134.49826	132.0
134.521332	244.0
134.555634	188.0
134.585983	132.0
134.604462	64.0
134.625244	160.0
134.789261	208.0
134.826233	208.0
134.85675	176.0
134.888641	176.0
134.968903	180.0
135.057449	84.0
135.079376	84.0
135.12352	196.0
135.163879	236.0
135.212479	44.0
135.228683	88.0
135.265823	176.0
135.36528	196.0
135.397705	168.0
135.420853	192.0
135.467194	228.0
135.518158	56.0
135.562607	200.0
135.584671	108.0
135.598587	260.0
135.632523	116.0
135.66185	160.0
135.736053	188.0
135.761566	60.0
135.802917	116.0
135.836716	100.0
135.869278	156.0
135.979645	148.0
136.016785	112.0
136.040009	124.0
136.079971	168.0
136.186295	164.0
136.223465	112.0
136.283875	128.0
136.314926	88.0
136.330353	220.0
136.372192	144.0
136.444244	184.0
136.50238	64.0
136.572159	172.0
136.590759	28.0
136.645065	208.0
136.709427	44.0
136.742004	60.0
136.776932	196.0
136.816498	100.0
136.835129	196.0
136.884018	76.0
136.918961	48.0
136.979172	136.0
137.012131	152.0
137.051743	128.0
137.075043	152.0
137.126328	100.0
137.16217	220.0
137.17836	124.0
137.198578	100.0
137.226562	92.0
137.242889	132.0
137.261536	116.0
137.291855	124.0
137.340973	140.0
137.417877	160.0
137.466827	284.0
137.487823	148.0
137.520508	156.0
137.539185	80.0
137.577133	124.0
137.643829	112.0
137.686279	56.0
137.751678	124.0
137.831116	172.0
137.908249	48.0
137.992401	88.0
138.047897	164.0
138.144424	164.0
138.254395	60.0
138.275467	152.0
138.303558	160.0
138.352295	156.0
138.370468	220.0
138.397202	148.0
138.610367	136.0
138.640823	96.0
138.736938	168.0
138.840103	88.0
138.87294	72.0
139.112289	36.0
139.131073	120.0
139.189774	112.0
139.220306	136.0
139.267273	144.0
139.288422	180.0
139.30722	100.0
139.373001	144.0
139.415298	188.0
139.452911	180.0
139.492874	104.0
139.514023	172.0
139.530487	84.0
139.626892	132.0
139.662384	208.0
139.704514	76.0
139.836304	188.0
139.890442	136.0
139.906921	132.0
139.972839	216.0
139.989334	88.0
140.02919	108.0
140.078827	116.0
140.148499	204.0
140.164581	160.0
140.189575	136.0
140.347672	124.0
140.36937	196.0
140.407654	120.0
140.453232	152.0
140.509674	152.0
140.56926	184.0
140.607742	116.0
140.631195	212.0
140.755753	112.0
140.795898	116.0
140.848572	208.0
140.884949	148.0
140.928177	44.0
141.034531	164.0
141.07637	132.0
141.15274	172.0
141.169296	196.0
141.202362	176.0
141.230789	216.0
141.25209	152.0
141.273376	84.0
141.396423	204.0
141.415359	72.0
141.455597	132.0
141.486374	84.0
141.535065	320.0
141.561295	232.0
141.621353	168.0
141.64267	120.0
141.690063	176.0
141.718491	48.0
141.757355	168.0
141.777725	108.0
141.806168	100.0
141.89151	140.0
141.983994	128.0
142.043289	152.0
142.142944	140.0
142.166672	164.0
142.214142	176.0
142.324738	200.0
142.358978	132.0
142.385101	136.0
142.406479	132.0
142.480118	132.0
142.501495	124.0
142.634583	120.0
142.6521	164.0
142.68689	196.0
142.760605	160.0
142.7939	260.0
142.810547	112.0
142.834991	132.0
142.895844	152.0
142.942398	124.0
143.050888	100.0
143.069931	172.0
143.09137	188.0
143.127792	160.0
143.261536	196.0
143.281265	148.0
143.412964	120.0
143.467804	112.0
143.494843	164.0
143.512375	184.0
143.564407	136.0
143.594177	164.0
143.649048	88.0
143.719879	232.0
143.761185	80.0
143.806534	48.0
143.834747	132.0
143.885315	96.0
143.903107	168.0
143.940231	136.0
143.985611	144.0
144.009048	192.0
144.042999	28456.0
144.087982	28.0
144.124161	128.0
144.176361	152.0
144.184586	128.0
144.189453	188.0
144.230179	112.0
144.249359	116.0
144.267578	40.0
144.301041	184.0
144.327347	132.0
144.343689	72.0
144.395935	228.0
144.441498	148.0
144.525101	196.0
144.554596	100.0
144.585709	136.0
144.621613	208.0
144.662308	176.0
144.811646	276.0
144.826294	192.0
144.925766	44.0
144.964111	236.0
144.981827	184.0
145.012039	152.0
145.044815	2272.0
145.110321	204.0
145.163086	104.0
145.246292	288.0
145.287811	48.0
145.333405	172.0
145.376587	68.0
145.410187	152.0
145.460602	168.0
145.494217	120.0
145.575851	208.0
145.648972	188.0
145.674332	240.0
145.741608	132.0
145.784851	128.0
145.811295	32.0
145.890625	104.0
145.938705	120.0
145.982422	68.0
146.00061	204.0
146.009842	152.0
146.029205	156.0
146.058762	8680.0
146.196106	96.0
146.220169	52.0
146.237015	76.0
146.277939	128.0
146.300064	128.0
146.332596	176.0
146.35257	104.0
146.376648	112.0
146.405548	68.0
146.430618	128.0
146.458542	96.0
146.504318	116.0
146.524384	108.0
146.712616	92.0
146.740509	160.0
146.786316	168.0
146.886185	164.0
146.921402	172.0
147.060226	504.0
147.095154	168.0
147.1362	80.0
147.188293	188.0
147.234802	164.0
147.271423	112.0
147.317322	48.0
147.339066	136.0
147.368057	124.0
147.397064	64.0
147.413971	232.0
147.479233	112.0
147.54451	140.0
147.580765	228.0
147.597702	36.0
147.619461	128.0
147.636383	184.0
147.727203	52.0
147.842026	160.0
147.891296	136.0
147.965485	116.0
148.026016	72.0
148.057495	148.0
148.156006	204.0
148.260376	152.0
148.292526	88.0
148.350693	160.0
148.391907	144.0
148.40889	180.0
148.451569	192.0
148.481094	164.0
148.852951	116.0
148.889374	208.0
148.947678	76.0
148.998688	152.0
149.044861	216.0
149.130203	136.0
149.168808	52.0
149.487442	112.0
149.560455	176.0
149.584793	148.0
149.64566	200.0
149.713852	104.0
149.735764	140.0
149.752808	200.0
149.823273	204.0
149.864883	160.0
149.991608	220.0
150.045349	300.0
150.073135	192.0
150.101318	140.0
150.12677	156.0
150.186691	188.0
150.242798	160.0
150.328201	48.0
150.43985	216.0
150.479538	180.0
150.513733	156.0
150.54303	364.0
150.562561	144.0
150.61142	176.0
150.630966	120.0
150.670044	168.0
150.723801	84.0
150.794678	172.0
150.833786	192.0
150.868011	160.0
150.951141	128.0
151.052826	1092.0
151.176208	192.0
151.225159	144.0
151.467575	180.0
151.516571	48.0
151.533722	160.0
151.603943	116.0
151.626846	100.0
151.688126	112.0
151.766586	192.0
151.791733	92.0
151.841003	160.0
151.858704	128.0
151.91864	144.0
152.00943	100.0
152.06015	1808.0
152.12233	168.0
152.1698	204.0
152.227921	364.0
152.257385	228.0
152.33844	172.0
152.392502	232.0
152.428207	176.0
152.510452	184.0
152.549789	40.0
152.567001	204.0
152.661591	120.0
152.734222	48.0
152.758347	164.0
152.811676	172.0
152.827713	220.0
152.869553	164.0
152.90892	132.0
152.991226	128.0
153.067123	868.0
153.140366	80.0
153.238907	132.0
153.26355	44.0
153.304031	196.0
153.337479	168.0
153.404037	140.0
153.445953	148.0
153.463211	144.0
153.537186	72.0
153.571716	84.0
153.638321	116.0
153.704941	80.0
153.751831	72.0
153.850571	172.0
153.887604	120.0
153.92218	152.0
154.028244	2136.0
154.06543	172.0
154.13858	192.0
154.1492	80.0
154.155701	180.0
154.213699	152.0
154.240891	44.0
154.339783	196.0
154.433762	104.0
154.45108	228.0
154.542618	68.0
154.568695	396.0
154.640015	168.0
154.701019	144.0
154.787674	176.0
154.844635	76.0
154.889221	128.0
154.923904	176.0
154.975784	132.0
154.982407	124.0
155.018066	116.0
155.038849	248.0
155.065155	192.0
155.139511	212.0
155.18663	128.0
155.251099	128.0
155.339478	216.0
155.385056	116.0
155.431931	152.0
155.499207	188.0
155.556503	192.0
155.583603	356.0
155.644531	164.0
155.740051	204.0
155.85434	40.0
155.911484	168.0
155.928894	60.0
155.998489	68.0
156.03154	276.0
156.170074	88.0
156.237244	152.0
156.261093	136.0
156.265594	80.0
156.275864	168.0
156.316864	152.0
156.356674	88.0
156.448776	232.0
156.493591	136.0
156.520981	168.0
156.555847	136.0
156.593781	140.0
156.640533	160.0
156.846497	80.0
156.869797	140.0
156.952087	172.0
156.987381	152.0
157.069214	112.0
157.083069	164.0
157.114212	48.0
157.204041	196.0
157.231491	104.0
157.296387	128.0
157.343811	168.0
157.421219	68.0
157.483658	124.0
157.528625	148.0
157.668549	272.0
157.786041	104.0
157.852753	136.0
157.88356	80.0
157.98613	140.0
158.003632	88.0
158.033661	176.0
158.087082	196.0
158.138763	120.0
158.158798	36.0
158.237289	168.0
158.241852	204.0
158.276459	176.0
158.314026	80.0
158.36412	344.0
158.464661	148.0
158.562057	128.0
158.624725	124.0
158.714981	148.0
158.735046	120.0
158.795227	280.0
158.81781	136.0
158.903107	160.0
158.92569	144.0
158.943253	164.0
159.005997	176.0
159.04866	132.0
159.096359	116.0
159.12323	228.0
159.221909	144.0
159.254562	60.0
159.312347	44.0
159.353745	148.0
159.523438	88.0
159.571152	156.0
159.654999	248.0
159.674316	60.0
159.694427	224.0
159.732788	212.0
159.827774	92.0
159.905792	152.0
159.957047	168.0
159.993896	160.0
160.034119	192.0
160.099655	88.0
160.124832	172.0
160.258347	228.0
160.278519	84.0
160.323868	180.0
160.361679	176.0
160.419662	212.0
160.487732	432.0
160.558334	188.0
160.591125	236.0
160.623917	52.0
160.67186	104.0
160.704651	184.0
160.752594	148.0
160.7854	176.0
160.82074	112.0
160.885406	272.0
160.934341	72.0
161.002533	160.0
161.094452	216.0
161.143997	156.0
161.384109	216.0
161.530807	124.0
161.548508	120.0
161.578873	160.0
161.61644	160.0
161.700424	140.0
161.768555	156.0
161.811722	204.0
161.91301	148.0
161.936584	248.0
161.976334	104.0
162.009277	152.0
162.053558	12016.0
162.205612	84.0
162.254028	64.0
162.282486	216.0
162.304199	176.0
162.372345	144.0
162.516357	60.0
162.555832	216.0
162.629044	120.0
162.665344	124.0
162.828613	80.0
162.898331	292.0
162.920059	68.0
162.962006	172.0
163.014069	232.0
163.054718	1272.0
163.097275	200.0
163.164032	164.0
163.198318	132.0
163.240326	100.0
163.32756	160.0
163.387848	104.0
163.481995	144.0
163.571091	52.0
163.60672	252.0
163.62709	136.0
163.695053	108.0
163.744232	36.0
163.797729	140.0
163.837051	128.0
163.887726	196.0
163.921722	128.0
164.057388	188.0
164.080612	160.0
164.131607	108.0
164.182602	184.0
164.205429	264.0
164.338211	140.0
164.363724	108.0
164.538971	152.0
164.571716	156.0
164.611343	36.0
164.659607	152.0
164.846909	168.0
164.946045	84.0
165.069687	1204.0
165.095047	188.0
165.135269	224.0
165.155731	140.0
165.176865	184.0
165.214569	72.0
165.272736	208.0
165.282913	152.0
165.373642	176.0
165.396271	96.0
165.416748	132.0
165.451263	224.0
165.506363	80.0
165.59343	92.0
165.664932	92.0
165.718964	268.0
165.77533	156.0
165.800598	224.0
165.88298	128.0
165.908615	276.0
165.937592	280.0
165.96843	172.0
166.024231	192.0
166.074097	468.0
166.113785	160.0
166.154831	248.0
166.201019	176.0
166.236938	120.0
166.26004	160.0
166.316513	232.0
166.362717	200.0
166.406357	120.0
166.547607	172.0
166.593842	196.0
166.620605	184.0
166.655518	120.0
166.678635	120.0
166.766022	136.0
166.817429	124.0
166.835419	200.0
166.974289	96.0
167.038589	160.0
167.081985	1204.0
167.225113	196.0
167.312668	120.0
167.398926	128.0
167.455582	52.0
167.514832	128.0
167.532867	232.0
167.586975	84.0
167.617889	168.0
167.641083	48.0
167.695206	64.0
167.713257	160.0
167.837006	120.0
167.932373	148.0
167.941376	144.0
167.946457	200.0
168.085464	536.0
168.18013	196.0
168.273071	120.0
168.332458	76.0
168.425446	88.0
168.513275	140.0
168.673508	144.0
168.709915	240.0
168.889038	172.0
169.027847	276.0
169.060165	448.0
169.105484	132.0
169.165024	156.0
169.23233	160.0
169.403275	172.0
169.42659	72.0
169.468048	164.0
169.504929	188.0
169.55513	172.0
169.584671	192.0
169.620346	172.0
169.895844	180.0
169.952927	80.0
169.976288	64.0
170.05603	408.0
170.113846	176.0
170.178238	20.0
170.241074	176.0
170.329376	148.0
170.446304	100.0
170.484741	172.0
170.489136	136.0
170.56012	140.0
170.610046	124.0
170.87793	152.0
171.021072	80.0
171.073318	372.0
171.10437	48.0
171.154953	216.0
171.231964	152.0
171.40947	152.0
171.456039	160.0
171.672424	140.0
171.727188	104.0
171.748062	100.0
171.789795	164.0
171.815887	116.0
171.872131	176.0
171.896774	140.0
171.956558	208.0
172.037445	8268.0
172.118668	28.0
172.16745	76.0
172.238495	68.0
172.253738	212.0
172.373291	116.0
172.426239	212.0
172.449539	136.0
172.471375	72.0
172.48967	144.0
172.583786	72.0
172.662247	236.0
172.685776	168.0
172.726547	184.0
172.77211	148.0
172.813965	204.0
172.85878	192.0
172.882004	96.0
172.999786	188.0
173.038284	920.0
173.078339	112.0
173.138565	68.0
173.16214	108.0
173.296112	176.0
173.388489	204.0
173.432022	68.0
173.628677	172.0
173.679626	256.0
173.712616	124.0
173.79657	124.0
173.880539	236.0
173.909424	140.0
173.938293	172.0
173.996048	152.0
174.042389	320.0
174.089386	176.0
174.132599	112.0
174.214035	160.0
174.261322	160.0
174.316498	132.0
174.432159	176.0
174.511032	184.0
174.608322	188.0
174.721436	112.0
174.889862	184.0
175.026764	136.0
175.052994	316.0
175.134735	76.0
175.168991	208.0
175.195328	208.0
175.271744	184.0
175.306168	184.0
175.450226	168.0
175.508972	128.0
175.527435	164.0
175.548538	144.0
175.663086	176.0
175.700409	76.0
175.770126	212.0
175.793884	128.0
175.854584	160.0
176.060287	4100.0
176.126556	100.0
176.166183	144.0
176.189362	36.0
176.308868	176.0
176.370224	176.0
176.427811	176.0
176.519974	164.0
176.61557	140.0
176.655243	220.0
176.689636	176.0
176.747849	244.0
176.774323	40.0
176.864304	132.0
176.94902	148.0
176.993942	120.0
177.003159	116.0
177.068161	6108.0
177.104416	188.0
177.147644	272.0
177.193512	156.0
177.258926	168.0
177.298691	140.0
177.317245	136.0
177.436523	104.0
177.478958	164.0
177.572235	136.0
177.595642	168.0
177.616867	184.0
177.638092	176.0
177.669922	192.0
177.715454	124.0
177.792419	144.0
177.830597	164.0
177.916748	96.0
177.948608	160.0
177.977814	168.0
178.007019	120.0
178.073761	3628.0
178.139206	184.0
178.199966	156.0
178.232819	104.0
178.299255	112.0
178.344437	184.0
178.405579	112.0
178.477371	192.0
178.634293	56.0
178.700806	152.0
178.757172	172.0
178.790054	140.0
179.002625	216.0
179.076035	776.0
179.163544	100.0
179.168472	80.0
179.1987	104.0
179.251999	140.0
179.291275	68.0
179.425262	96.0
179.470581	276.0
179.491913	96.0
179.547867	184.0
179.635941	188.0
179.772018	148.0
179.817398	140.0
179.838745	96.0
179.969559	148.0
180.030975	128.0
180.077393	2024.0
180.116104	156.0
180.177887	212.0
180.334442	200.0
180.362289	136.0
180.391693	84.0
180.439819	140.0
180.466553	168.0
180.493301	188.0
180.522705	160.0
180.568848	144.0
180.643066	184.0
180.692337	188.0
180.723343	164.0
180.776855	88.0
180.914185	216.0
180.934784	144.0
181.023148	96.0
181.061264	844.0
181.081451	524.0
181.101883	212.0
181.186539	196.0
181.205292	120.0
181.234772	176.0
181.293732	132.0
181.371445	96.0
181.434814	176.0
181.481369	32.0
181.510071	148.0
181.567184	132.0
181.585953	84.0
181.669113	176.0
181.692001	188.0
181.710175	144.0
181.790863	236.0
181.848907	112.0
181.977768	128.0
182.027939	152.0
182.050186	128.0
182.078186	224.0
182.101303	156.0
182.141586	236.0
182.173828	76.0
182.232925	132.0
182.270554	196.0
182.287674	176.0
182.485596	132.0
182.641571	180.0
182.665787	224.0
182.696747	172.0
182.743805	172.0
182.776093	76.0
182.986038	96.0
183.042587	164.0
183.062958	276.0
183.128769	132.0
183.247299	160.0
183.274063	180.0
183.301193	108.0
183.355362	160.0
183.445389	120.0
183.557297	192.0
183.606186	184.0
183.657074	180.0
183.794678	200.0
183.860596	172.0
183.944458	136.0
183.989548	160.0
184.070007	172.0
184.091156	164.0
184.169937	180.0
184.19426	88.0
184.233124	176.0
184.291519	144.0
184.364777	148.0
184.399429	180.0
184.405533	168.0
184.448273	112.0
184.475296	112.0
184.521255	124.0
184.553711	88.0
184.626724	192.0
184.723083	276.0
184.778198	192.0
184.802551	132.0
184.924332	112.0
184.954117	156.0
185.02449	168.0
185.105728	64.0
185.125946	124.0
185.214066	116.0
185.233032	80.0
185.369171	228.0
185.389481	216.0
185.438965	192.0
185.531128	156.0
185.552826	136.0
185.571793	140.0
185.607056	180.0
185.772491	344.0
185.802338	40.0
185.935303	164.0
185.957016	172.0
186.030319	88.0
186.052032	156.0
186.372528	148.0
186.410568	96.0
186.55191	76.0
186.704178	144.0
186.805984	140.0
186.834747	228.0
186.858643	164.0
186.957199	140.0
187.003464	80.0
187.022522	112.0
187.109634	124.0
187.158646	132.0
187.191315	124.0
187.221283	148.0
187.494965	168.0
187.65123	164.0
187.657288	128.0
187.666061	164.0
187.788177	128.0
187.812729	76.0
187.919128	188.0
188.063766	176.0
188.091064	48.0
188.154739	160.0
188.192078	156.0
188.26355	184.0
188.320435	76.0
188.369598	300.0
188.530807	140.0
188.563614	176.0
188.664749	104.0
188.744049	224.0
188.782333	132.0
188.867111	32.0
188.886261	132.0
188.957397	156.0
189.012115	144.0
189.057877	128.0
189.179077	172.0
189.20372	36.0
189.340637	108.0
189.407013	188.0
189.507736	100.0
189.548843	136.0
189.606857	116.0
189.628021	184.0
189.735229	140.0
189.836685	72.0
189.913483	124.0
190.04776	2884.0
190.097305	116.0
190.13298	216.0
190.201599	108.0
190.294937	124.0
190.326691	128.0
190.404785	144.0
190.484436	136.0
190.528397	160.0
190.572357	128.0
190.609314	116.0
190.689606	132.0
190.724304	276.0
190.761993	72.0
190.783981	72.0
190.880219	116.0
190.9254	188.0
190.959976	184.0
190.998489	96.0
191.07074	1400.0
191.136047	60.0
191.295685	96.0
191.319153	164.0
191.357101	196.0
191.507721	256.0
191.659134	196.0
191.669891	116.0
191.762787	112.0
191.813583	128.0
191.959717	180.0
191.990051	168.0
192.011749	92.0
192.058136	140.0
192.077972	480.0
192.248871	108.0
192.38739	136.0
192.445007	160.0
192.475754	68.0
192.527176	92.0
192.550308	88.0
192.611084	152.0
192.815552	116.0
192.898468	36.0
192.922195	460.0
192.998001	184.0
193.042252	208.0
193.08638	3592.0
193.118774	88.0
193.144592	196.0
193.197144	212.0
193.21022	116.0
193.217499	180.0
193.27739	200.0
193.296753	72.0
193.321671	120.0
193.363174	188.0
193.42453	168.0
193.498825	44.0
193.554199	32.0
193.60405	60.0
193.648361	216.0
193.731461	80.0
193.759171	200.0
193.797958	128.0
193.872772	80.0
193.928207	120.0
193.972565	112.0
194.055603	384.0
194.094666	2616.0
194.138931	108.0
194.180527	64.0
194.223969	124.0
194.241547	184.0
194.310745	132.0
194.341431	156.0
194.402481	128.0
194.482971	200.0
194.50795	252.0
194.57399	200.0
194.581329	148.0
194.663605	64.0
194.696762	140.0
194.749527	208.0
194.789337	144.0
194.830093	148.0
194.974579	132.0
194.996826	52.0
195.075974	196.0
195.097519	264.0
195.169174	176.0
195.210892	128.0
195.24704	140.0
195.347183	184.0
195.472794	192.0
195.516922	152.0
195.683945	156.0
195.731277	144.0
195.812042	148.0
195.831543	156.0
195.878891	204.0
195.968048	224.0
196.013474	132.0
196.05722	224.0
196.096237	124.0
196.126892	204.0
196.177078	192.0
196.204956	124.0
196.273972	196.0
196.352737	148.0
196.430847	240.0
196.628357	260.0
196.707123	168.0
196.732239	148.0
196.782791	192.0
196.846725	116.0
196.991837	188.0
196.998917	180.0
197.08136	164.0
197.154022	196.0
197.21228	52.0
197.296585	192.0
197.535538	352.0
197.627792	180.0
197.679779	168.0
197.716553	236.0
197.758148	116.0
197.78334	204.0
197.828125	104.0
197.934525	148.0
197.978836	156.0
198.225861	212.0
198.354797	100.0
198.396851	172.0
198.416473	168.0
198.472549	96.0
198.528625	164.0
198.587326	216.0
198.626801	136.0
198.855072	160.0
198.904617	140.0
198.943909	132.0
199.042313	168.0
199.082672	172.0
199.182861	176.0
199.315918	252.0
199.338272	264.0
199.359619	128.0
199.519852	68.0
199.622391	204.0
199.6492	180.0
200.010315	244.0
200.054382	140.0
200.076904	148.0
200.243042	60.0
200.299377	116.0
200.319107	88.0
200.364838	188.0
200.423355	140.0
200.459976	176.0
200.519165	116.0
200.657303	140.0
200.715302	84.0
200.758804	76.0
200.812393	184.0
200.857529	172.0
200.888565	332.0
200.944992	212.0
200.988083	160.0
201.052963	576.0
201.156647	152.0
201.184891	136.0
201.261124	220.0
201.323242	188.0
201.371262	180.0
201.410797	148.0
201.432602	152.0
201.487076	52.0
201.524048	140.0
201.588806	208.0
201.628372	140.0
201.663574	132.0
201.724472	104.0
201.772537	120.0
201.800812	136.0
201.848877	56.0
201.912918	180.0
202.062378	964.0
202.140244	60.0
202.202515	196.0
202.276108	148.0
202.453918	180.0
202.553619	112.0
202.583527	176.0
202.617172	148.0
202.660919	188.0
202.743454	156.0
202.834167	192.0
202.924667	156.0
203.021301	180.0
203.070496	8700.0
203.112823	252.0
203.148941	132.0
203.175217	152.0
203.216812	140.0
203.27095	52.0
203.344116	184.0
203.378799	216.0
203.432724	56.0
203.486664	200.0
203.550262	232.0
203.561356	92.0
203.567459	168.0
203.60025	136.0
203.624878	152.0
203.684052	168.0
203.730927	52.0
203.783188	152.0
203.847336	132.0
203.873001	216.0
203.907288	124.0
203.928635	180.0
204.013443	292.0
204.043488	456.0
204.079437	59328.0
204.175995	208.0
204.203751	36.0
204.237305	92.0
204.279037	296.0
204.31781	176.0
204.33934	36.0
204.367798	48.0
204.40239	104.0
204.428696	160.0
204.46759	60.0
204.496368	112.0
204.549179	72.0
204.608627	72.0
204.634171	140.0
204.675217	88.0
204.69516	204.0
204.769196	48.0
204.799423	76.0
204.826172	44.0
204.877441	144.0
204.900238	220.0
204.93158	56.0
204.973648	188.0
205.004974	196.0
205.02562	44.0
205.083664	10384.0
205.122208	292.0
205.160309	200.0
205.219467	60.0
205.257385	284.0
205.283539	144.0
205.337296	308.0
205.361252	212.0
205.411774	140.0
205.449219	128.0
205.475327	192.0
205.500137	188.0
205.532394	96.0
205.558365	120.0
205.617416	224.0
205.65538	384.0
205.710007	132.0
205.719513	180.0
205.793304	108.0
205.825241	200.0
205.87915	116.0
205.923859	116.0
205.955765	100.0
205.998428	148.0
206.058258	476.0
206.094986	65800.0
206.145065	396.0
206.198349	152.0
206.256378	80.0
206.275711	176.0
206.305603	228.0
206.336304	204.0
206.367386	304.0
206.401611	100.0
206.448746	100.0
206.498444	68.0
206.512589	40.0
206.562515	132.0
206.606262	296.0
206.634384	224.0
206.655182	216.0
206.663895	52.0
206.694016	332.0
206.740845	96.0
206.762085	100.0
206.783905	96.0
206.793365	60.0
206.800278	92.0
206.834915	64.0
206.866806	252.0
206.888031	136.0
206.931931	60.0
206.978165	124.0
207.019745	208.0
207.039795	160.0
207.066025	512.0
207.097198	7048.0
207.166534	112.0
207.220154	76.0
207.243851	132.0
207.297623	68.0
207.329147	56.0
207.368118	168.0
207.426605	44.0
207.449539	48.0
207.486801	36.0
207.518646	76.0
207.54129	68.0
207.585236	148.0
207.728073	96.0
207.77533	152.0
207.822388	56.0
207.851089	60.0
207.901718	136.0
208.021408	104.0
208.100739	1352.0
208.143875	44.0
208.197083	128.0
208.217987	144.0
208.258759	72.0
208.320847	88.0
208.35643	36.0
208.39447	116.0
208.459686	152.0
208.569092	360.0
208.627426	136.0
208.661087	148.0
208.693588	172.0
208.727219	180.0
208.774261	168.0
208.787415	60.0
208.792313	164.0
208.824295	180.0
208.900818	204.0
209.012009	52.0
209.083313	268.0
209.236511	212.0
209.337296	124.0
209.410599	88.0
209.449387	48.0
209.497711	92.0
209.533173	104.0
209.564865	52.0
209.622498	112.0
209.645554	52.0
209.677246	56.0
209.832916	152.0
209.858505	160.0
209.954025	84.0
210.023254	72.0
210.09581	104.0
210.147308	64.0
210.271393	152.0
210.386856	140.0
210.47348	212.0
210.603439	44.0
210.626541	104.0
210.658325	84.0
210.692307	152.0
210.710327	180.0
210.834579	40.0
211.058365	444.0
211.171295	244.0
211.201523	180.0
211.513672	148.0
211.53746	116.0
211.563507	168.0
211.624313	132.0
211.743042	176.0
211.831253	80.0
211.890778	172.0
212.067551	164.0
212.183517	268.0
212.229904	180.0
212.249268	148.0
212.319809	156.0
212.345901	204.0
212.453232	176.0
212.571228	192.0
212.604126	188.0
212.624435	164.0
212.650558	72.0
212.682495	156.0
212.712875	100.0
212.83345	144.0
212.85379	132.0
212.946716	160.0
212.969955	156.0
213.115219	116.0
213.135559	96.0
213.440781	164.0
213.495422	116.0
213.522202	52.0
213.621109	92.0
213.685104	156.0
213.789871	136.0
213.897552	172.0
213.926666	120.0
214.134399	200.0
214.212067	152.0
214.296555	96.0
214.346085	28.0
214.465576	156.0
214.520966	256.0
214.555145	288.0
214.579269	120.0
214.698837	124.0
214.779572	188.0
214.819534	96.0
214.868027	184.0
214.914703	220.0
214.9935	224.0
215.045441	100.0
215.329254	176.0
215.39827	204.0
215.600967	104.0
215.641876	128.0
215.662338	84.0
215.68573	48.0
215.711334	316.0
215.779282	184.0
215.802673	148.0
215.893326	104.0
215.996109	140.0
216.04834	132.0
216.16539	228.0
216.218063	104.0
216.433411	136.0
216.45813	88.0
216.478622	40.0
216.54306	128.0
216.733475	44.0
216.836044	144.0
216.860092	216.0
216.917007	72.0
216.950378	172.0
217.106949	100.0
217.202286	80.0
217.218475	124.0
217.264175	96.0
217.396225	120.0
217.531235	56.0
217.643021	112.0
217.722092	124.0
217.798462	228.0
217.883652	120.0
217.924484	276.0
218.030579	184.0
218.059967	132.0
218.230484	100.0
218.256577	176.0
218.377518	104.0
218.424591	136.0
218.486359	168.0
218.524612	196.0
218.545212	152.0
218.657028	116.0
218.718842	252.0
218.748291	184.0
218.79834	36.0
218.889618	180.0
218.957352	104.0
219.016251	152.0
219.078125	92.0
219.260803	44.0
219.314178	184.0
219.414093	204.0
219.561539	96.0
219.602829	32.0
219.642105	164.0
219.907715	240.0
220.010056	156.0
220.071762	780.0
220.122253	128.0
220.170502	196.0
220.246307	152.0
220.275848	152.0
220.408798	88.0
220.494507	80.0
220.557755	20.0
220.597961	120.0
220.621613	168.0
220.68074	132.0
220.734192	160.0
220.878891	144.0
221.030762	240.0
221.077713	424.0
221.132675	172.0
221.228806	164.0
221.318527	176.0
221.340591	96.0
221.379456	164.0
221.424606	196.0
221.476837	168.0
221.506454	160.0
221.579895	208.0
221.607193	156.0
221.639786	224.0
221.69313	96.0
221.716827	196.0
221.770187	152.0
221.807632	164.0
221.833267	156.0
221.873581	132.0
221.908585	156.0
221.933243	96.0
222.029892	540.0
222.042114	308.0
222.049255	784.0
222.090118	106364.0
222.191422	184.0
222.235291	56.0
222.275986	76.0
222.302658	76.0
222.328857	100.0
222.414124	116.0
222.445099	160.0
222.470779	68.0
222.504349	108.0
222.578949	328.0
222.648422	28.0
222.694489	172.0
222.719025	52.0
222.761887	132.0
222.815155	92.0
222.876129	148.0
222.899551	128.0
222.911774	68.0
222.920853	120.0
222.980606	272.0
223.04512	200.0
223.093094	14984.0
223.205368	156.0
223.259521	232.0
223.299316	28.0
223.370712	168.0
223.397476	32.0
223.433182	68.0
223.476044	108.0
223.513519	160.0
223.577255	124.0
223.603821	152.0
223.637573	228.0
223.655441	76.0
223.766296	160.0
223.80603	184.0
223.846924	60.0
223.870056	52.0
223.89325	76.0
223.933289	136.0
223.959442	72.0
223.989883	168.0
224.010742	32.0
224.034576	132.0
224.09288	1880.0
224.150589	124.0
224.191544	140.0
224.231247	120.0
224.269989	36.0
224.30278	64.0
224.323639	168.0
224.36586	128.0
224.419052	92.0
224.459396	128.0
224.507294	156.0
224.529388	148.0
224.561417	168.0
224.607788	100.0
224.635605	112.0
224.671127	116.0
224.698486	212.0
224.719467	100.0
224.761307	168.0
224.805847	144.0
224.888626	204.0
224.947128	32.0
224.994888	156.0
225.02475	160.0
225.090591	160.0
225.126282	68.0
225.150177	68.0
225.186005	56.0
225.27562	104.0
225.300873	124.0
225.445938	116.0
225.484787	56.0
225.552109	92.0
225.619904	208.0
225.717987	108.0
225.740204	204.0
225.771805	68.0
225.800415	128.0
225.833878	96.0
225.929062	84.0
226.115707	72.0
226.214661	152.0
226.307938	76.0
226.360733	172.0
226.466187	164.0
226.505127	92.0
226.564407	76.0
226.598007	356.0
226.696884	224.0
226.814529	112.0
226.924698	80.0
226.972672	360.0
227.05365	144.0
227.245636	144.0
227.272644	120.0
227.308655	156.0
227.476807	156.0
227.766403	156.0
227.906219	56.0
228.262466	324.0
228.312042	44.0
228.345139	88.0
228.408371	156.0
228.456436	108.0
228.531647	132.0
228.573776	156.0
228.624939	176.0
228.79953	108.0
228.844681	128.0
229.094666	100.0
229.133835	196.0
229.194092	168.0
229.438232	128.0
229.724747	172.0
229.812241	180.0
229.866547	132.0
229.91243	196.0
229.93898	40.0
230.002365	140.0
230.056702	196.0
230.210693	180.0
230.259018	188.0
230.533951	32.0
230.558121	132.0
230.621597	100.0
230.923965	204.0
231.052551	212.0
231.181122	180.0
231.396042	116.0
231.489914	40.0
231.517166	112.0
231.608414	128.0
231.632278	56.0
231.653473	136.0
231.779114	136.0
231.914078	136.0
231.959549	196.0
232.005753	200.0
232.069061	456.0
232.271896	196.0
232.296158	88.0
232.329529	96.0
232.415176	120.0
232.775711	96.0
232.827347	52.0
232.851639	88.0
233.060196	148.0
233.091644	104.0
233.158508	120.0
233.179779	76.0
233.24057	92.0
233.295288	64.0
233.4534	48.0
233.600388	112.0
233.624725	172.0
233.949371	184.0
234.004181	56.0
234.097412	156.0
234.174713	48.0
234.211273	152.0
234.263062	160.0
234.363602	180.0
234.458069	156.0
234.71109	96.0
234.805634	132.0
234.872742	196.0
234.945953	96.0
235.01918	156.0
235.059677	132.0
235.068954	168.0
235.10463	168.0
235.306091	48.0
235.345779	140.0
235.532089	80.0
235.80098	100.0
235.840714	184.0
235.895737	220.0
235.935471	124.0
235.993561	56.0
236.066696	144.0
236.103653	168.0
236.146469	176.0
236.244354	240.0
236.409088	48.0
236.449371	184.0
236.532028	148.0
236.691223	112.0
236.746353	104.0
236.780045	160.0
237.077072	2300.0
237.212082	132.0
237.264206	36.0
237.551956	184.0
237.604645	40.0
237.643036	148.0
237.796356	140.0
237.893127	128.0
238.009796	48.0
238.079193	244.0
238.19101	160.0
238.307755	148.0
238.433746	144.0
238.473694	136.0
238.888824	212.0
239.119614	36.0
239.215027	196.0
239.729324	136.0
239.923599	144.0
240.083954	112.0
240.133301	76.0
240.173386	144.0
240.358505	144.0
240.380112	152.0
240.5159	132.0
240.840134	48.0
241.074951	176.0
241.229492	216.0
241.275864	140.0
241.628448	180.0
241.967255	204.0
242.188782	224.0
242.387054	72.0
242.449036	124.0
242.51413	156.0
242.641235	124.0
242.759064	136.0
242.87381	212.0
243.059967	188.0
243.264816	124.0
243.311462	156.0
243.404526	148.0
243.457321	112.0
243.590881	136.0
243.954483	152.0
244.04776	52.0
244.421021	136.0
244.754105	108.0
244.850647	72.0
244.872437	60.0
244.940964	160.0
245.341309	180.0
245.405334	40.0
245.455231	32.0
245.576859	76.0
245.701645	272.0
245.973145	272.0
246.001251	124.0
246.054321	64.0
246.0793	92.0
246.157364	104.0
246.207321	116.0
246.604126	204.0
246.763565	160.0
246.822968	204.0
246.900299	204.0
247.020966	144.0
247.326675	96.0
247.404938	84.0
247.511398	64.0
247.645355	124.0
247.689911	148.0
247.72438	128.0
247.774506	116.0
247.840302	148.0
247.91864	60.0
247.962524	60.0
248.018936	84.0
248.068939	136.0
248.181961	128.0
248.203918	160.0
248.321228	168.0
248.376419	40.0
248.501907	156.0
248.548965	140.0
248.614868	68.0
248.661865	140.0
248.711349	200.0
248.737289	92.0
248.77182	232.0
248.793793	156.0
248.817398	52.0
248.862289	132.0
248.946869	128.0
248.985519	68.0
249.04187	132.0
249.07634	140.0
249.124039	192.0
249.164383	128.0
249.195801	80.0
249.238373	168.0
249.274368	172.0
249.32959	160.0
249.366608	252.0
249.419937	156.0
249.472061	216.0
249.518463	436.0
249.561615	164.0
249.588715	180.0
249.616791	196.0
249.639816	144.0
249.670212	284.0
249.706741	144.0
249.740204	248.0
249.750488	156.0
249.756027	140.0
249.78746	188.0
249.815887	304.0
249.882416	200.0
249.911209	120.0
249.955338	284.0
249.968948	292.0
249.996475	784.0
250.085678	253312.0
250.198761	256.0
250.256058	104.0
250.301941	232.0
250.34082	184.0
250.376999	364.0
250.408066	204.0
250.467636	216.0
250.513657	184.0
250.569977	104.0
250.603683	3264.0
250.629944	200.0
250.646088	172.0
250.662674	144.0
250.673584	144.0
250.725616	120.0
250.751648	104.0
250.80629	152.0
250.811966	60.0
250.826157	160.0
250.851151	120.0
250.888733	56.0
250.90918	260.0
250.956161	320.0
251.017059	60.0
251.088272	35508.0
251.158401	120.0
251.224075	36.0
251.278717	96.0
251.340698	44.0
251.369308	104.0
251.392685	80.0
251.40416	76.0
251.417358	124.0
251.449524	108.0
251.499084	304.0
251.543839	112.0
251.550735	172.0
251.592484	92.0
251.616089	216.0
251.654694	144.0
251.711563	60.0
251.746323	84.0
251.803635	104.0
251.825043	100.0
251.881409	180.0
251.914322	88.0
251.921921	120.0
251.952667	68.0
252.010483	80.0
252.043701	64.0
252.090332	4912.0
252.154907	64.0
252.199753	124.0
252.241882	144.0
252.267441	140.0
252.352356	140.0
252.402527	232.0
252.446014	208.0
252.466537	148.0
252.528549	264.0
252.551086	120.0
252.597626	192.0
252.634262	108.0
252.669815	72.0
252.691895	148.0
252.699036	132.0
252.746719	92.0
252.78476	184.0
252.810333	92.0
252.8461	96.0
252.909256	384.0
252.965851	332.0
252.999496	76.0
253.033737	260.0
253.062469	188.0
253.09343	168.0
253.148483	164.0
253.190445	120.0
253.266037	48.0
253.306686	80.0
253.333313	64.0
253.38588	68.0
253.408066	48.0
253.433411	40.0
253.468262	72.0
253.523041	56.0
253.563339	56.0
253.629913	44.0
253.673355	68.0
253.713913	36.0
253.74086	184.0
253.765533	92.0
253.799271	124.0
253.885559	120.0
253.931137	68.0
253.974869	76.0
254.000122	72.0
254.032639	100.0
254.05484	164.0
254.111954	52.0
254.178589	64.0
254.216675	96.0
254.267441	116.0
254.353149	28.0
254.400772	48.0
254.492844	44.0
254.519989	80.0
254.545471	104.0
254.607162	136.0
254.661163	40.0
254.702454	32.0
254.791565	108.0
254.858124	48.0
254.90712	44.0
254.978882	68.0
255.01384	28.0
255.075531	64.0
255.121933	104.0
255.17598	32.0
255.22049	68.0
255.268188	120.0
255.315887	104.0
255.455841	44.0
255.484482	200.0
255.525848	164.0
255.59584	68.0
255.662674	60.0
255.700867	64.0
255.901413	68.0
256.315521	96.0
256.599182	28.0
256.65567	96.0
257.074463	48.0
257.128723	44.0
257.297913	40.0
257.348999	92.0
257.649231	84.0
257.722717	164.0
258.630981	92.0
258.739838	64.0
258.883942	112.0
259.351715	104.0
259.621033	92.0
259.778198	104.0
259.883118	92.0
260.166534	108.0
260.1922	76.0
260.690094	104.0
260.786499	156.0
261.506989	76.0
261.581024	68.0
261.774231	124.0
261.915924	40.0
262.060913	144.0
262.251038	96.0
262.370331	40.0
262.405792	56.0
262.457397	84.0
262.541229	56.0
262.588989	64.0
262.64444	96.0
262.692841	68.0
262.725098	68.0
263.018768	80.0
263.741211	100.0
264.15625	80.0
264.295349	92.0
264.360077	104.0
264.550812	56.0
264.635223	84.0
264.819824	60.0
264.959106	56.0
265.08548	92.0
265.480988	44.0
265.669128	72.0
265.740509	88.0
265.766449	72.0
265.847595	72.0
265.935211	112.0
265.957947	52.0
266.081299	76.0
266.143005	64.0
266.33786	76.0
266.383331	40.0
266.692047	48.0
266.747284	124.0
267.306732	56.0
267.896057	52.0
267.961212	48.0
268.12088	112.0
268.472992	52.0
268.691559	60.0
269.102783	96.0
269.687561	52.0
270.305695	92.0
270.502075	64.0
273.097687	116.0
273.137177	60.0
275.365387	84.0
278.91748	44.0
279.336456	52.0
281.713379	108.0
283.684509	108.0
286.110107	64.0
286.453613	56.0
286.949036	104.0
287.755432	64.0
290.673218	124.0
292.760529	64.0
293.684204	196.0
294.151672	60.0
295.005737	52.0
295.679596	76.0
296.69696	56.0
297.084503	64.0
297.585571	36.0
299.890503	100.0
300.073212	124.0
302.481201	88.0
302.934875	128.0
303.978516	104.0
305.653473	52.0
305.719604	72.0
306.144318	84.0
306.876099	104.0
308.964722	80.0
309.402191	48.0
312.311401	32.0
313.367523	40.0
314.072632	64.0
316.135986	44.0
316.48999	92.0
319.570984	64.0
321.031494	112.0
322.152283	60.0
322.420258	80.0
329.015442	48.0
329.149048	48.0
331.565674	72.0
333.903809	44.0
333.954742	96.0
335.655518	40.0
336.334137	68.0
337.499573	84.0
337.609283	48.0
338.74762	76.0
341.09256	56.0
341.412445	56.0
342.255157	96.0
342.387726	88.0
344.312927	72.0
344.970673	80.0
345.347839	56.0
345.928802	88.0
346.773376	80.0
347.388916	40.0
349.439728	76.0
349.491821	64.0
350.106049	68.0
350.411499	108.0
354.274658	40.0
356.033875	68.0
357.082458	88.0
358.565918	68.0
359.822083	44.0
360.486877	120.0
360.876221	108.0
360.932953	84.0
364.226471	100.0
367.954803	60.0
368.092255	36.0
368.722626	52.0
370.302795	52.0
370.632263	56.0
371.483429	52.0
373.334808	60.0
373.727173	92.0
374.212158	48.0
374.593445	136.0
374.70517	56.0
377.175049	48.0
378.606659	92.0
381.489685	80.0
383.167053	72.0
384.309479	152.0
384.453857	80.0
387.198425	88.0
388.107605	108.0
388.182098	68.0
390.078522	44.0
392.160858	56.0
393.517914	68.0
394.628204	116.0
394.924805	56.0
395.391693	76.0
396.108368	96.0
396.960541	96.0
397.257996	68.0
398.532471	116.0
398.977631	84.0
399.311646	56.0
400.151306	52.0
402.703552	120.0
402.967224	64.0
403.29892	64.0
403.466827	64.0
403.730743	44.0
403.926727	68.0
404.198792	52.0
404.226807	72.0
405.917297	60.0
407.768066	96.0
408.242493	60.0
409.027069	56.0
412.282074	164.0
413.552063	120.0
414.755096	80.0
415.54184	88.0
419.168915	88.0
419.739624	72.0
419.910919	72.0
423.274353	92.0
426.634766	52.0
427.543823	52.0
430.276794	96.0
432.542297	88.0
433.660706	128.0
434.610413	120.0
434.90921	48.0
435.224731	52.0
435.536224	64.0
435.752258	52.0
442.232849	148.0
444.512787	44.0
445.747406	80.0
446.361145	44.0
449.748505	104.0
449.84137	104.0
449.955353	68.0
451.666901	100.0
452.21698	68.0
453.199493	48.0
453.322388	40.0
456.961487	64.0
459.47525	72.0
461.743561	96.0
462.881927	44.0
462.924744	76.0
463.75592	52.0
463.983124	100.0
464.133209	80.0
464.626465	124.0
466.421539	32.0
471.092896	56.0
471.291626	60.0
473.805481	104.0
474.763428	72.0
476.061066	120.0
480.71048	44.0
481.020355	120.0
481.09021	108.0
481.614227	76.0
483.92334	92.0
484.505859	64.0
487.348999	100.0
494.064026	96.0
498.542511	100.0
500.4776	96.0
501.301727	128.0
504.873199	100.0
506.385986	72.0
507.398743	56.0
509.908081	36.0
510.042938	124.0
510.856873	32.0
511.536407	80.0
511.576935	52.0
513.198914	96.0
515.68634	120.0
518.374695	104.0
521.006409	48.0
521.1427	48.0
522.174683	52.0
523.184875	124.0
525.655334	76.0
526.029602	120.0
529.614685	100.0
531.485229	120.0
531.94873	64.0
534.324768	92.0
534.545654	84.0
537.467163	76.0
539.032593	112.0
542.151733	108.0
543.705383	84.0
545.121826	40.0
547.773926	52.0
548.668701	40.0
549.079102	72.0
551.899719	40.0
552.358093	64.0
554.01532	76.0
554.812012	44.0
557.106934	72.0
558.197388	44.0
563.169617	44.0
564.166687	76.0
565.652161	156.0
566.485596	60.0
567.921936	32.0
570.291321	40.0
573.9953	108.0
583.254883	52.0
587.019958	68.0
587.536072	52.0
588.520691	52.0
592.835693	64.0
594.072144	68.0
594.940857	40.0
600.229797	84.0
602.895264	68.0
607.497986	96.0
611.527405	52.0
627.818237	40.0
627.987793	72.0
631.124084	96.0
633.882263	112.0
637.611084	64.0
638.103699	96.0
640.338074	92.0
641.270142	60.0
642.450134	192.0
644.141357	112.0
644.975098	116.0
645.688049	108.0
645.935913	76.0
646.634155	76.0
651.263489	80.0
662.424744	148.0
664.275391	76.0
664.56781	160.0
668.251892	120.0
668.946716	36.0
669.956116	48.0
672.049377	180.0
675.314392	76.0
678.33844	36.0
679.930847	100.0
681.358887	112.0
685.672729	44.0
692.09314	108.0
692.365479	44.0
696.241272	44.0
698.822327	68.0
702.937744	108.0
708.510864	48.0
708.955933	132.0
714.781616	60.0
722.759277	76.0
726.788818	44.0
728.136292	172.0
737.100891	192.0
737.74408	104.0
743.111328	40.0
745.652832	100.0
746.152954	180.0
746.620605	88.0
747.692383	124.0
749.157104	84.0
750.803284	84.0
751.708923	212.0
752.77887	112.0
759.039246	140.0
763.009155	112.0
763.993591	132.0
764.35675	108.0
765.072266	68.0
766.278442	48.0
766.86261	148.0
774.01709	116.0
774.759277	92.0
783.392639	64.0
789.784363	72.0
791.312134	196.0
792.331482	148.0
793.446838	32.0
793.486084	164.0
802.617493	148.0
806.705261	152.0
809.064392	68.0
813.140137	84.0
820.358643	80.0
820.449829	56.0
820.56958	108.0
822.507324	200.0
823.211548	112.0
826.309692	76.0
827.242554	132.0
827.402832	28.0
827.815125	224.0
831.742615	68.0
832.735962	84.0
835.035034	60.0
835.104065	108.0
835.155823	64.0
836.191528	212.0
843.153015	168.0
843.87561	132.0
844.615845	232.0
853.556458	176.0
858.380859	44.0
860.084534	120.0
861.807373	256.0
864.269104	64.0
868.827515	80.0
873.286194	52.0
877.302246	160.0
881.812134	152.0
884.343689	144.0
884.728455	192.0
886.807739	204.0
889.589783	164.0
899.036072	108.0
899.925537	140.0
902.177979	136.0
905.085815	108.0
907.182861	36.0
907.35321	192.0
907.656555	76.0
908.85022	44.0
910.152832	180.0
915.414551	100.0
916.721863	212.0
916.794189	52.0
919.592651	76.0
920.04541	160.0
920.769348	152.0
921.041809	212.0
922.613037	68.0
922.794434	136.0
922.873047	52.0
923.21167	88.0
924.48822	200.0
926.680298	48.0
927.649963	184.0
929.6698	64.0
930.216064	100.0
930.276794	184.0
932.171814	108.0
935.170227	176.0
935.547607	204.0
936.820435	160.0
941.602783	168.0
946.78302	180.0
946.960693	184.0
949.749573	188.0
951.179382	236.0
951.830139	96.0
952.806763	52.0
955.425903	36.0
955.659668	192.0
957.204712	188.0
958.621582	112.0
958.695557	92.0
958.806519	156.0
959.04071	180.0
960.730347	140.0
962.680908	84.0
964.466492	124.0
967.999268	156.0
969.362122	216.0
970.000549	192.0
972.860413	164.0
973.648987	192.0
974.145935	144.0
976.147339	48.0
976.290344	144.0
977.708801	72.0
979.156494	160.0
979.302734	144.0
980.150024	80.0
982.157593	164.0
982.2948	136.0
982.687866	144.0
982.825134	172.0
984.504395	228.0
985.197754	92.0
986.097534	140.0
987.641968	132.0
988.273865	172.0
989.212646	144.0
989.287781	188.0
990.314758	60.0
991.461365	128.0
994.070251	132.0
994.572327	136.0
996.23645	156.0
997.323608	236.0
1000.210876	84.0
1000.494141	140.0
1000.664185	76.0
1002.679993	120.0
1003.247314	144.0
1006.673523	200.0
1010.890137	108.0
1016.130493	160.0
1016.669861	64.0
1018.981262	152.0
1019.178284	88.0
1020.57666	224.0
1021.257141	160.0
1021.829712	164.0
1025.153687	160.0
1025.886719	176.0
1026.160767	160.0
1026.613525	164.0
1027.296021	108.0
1028.470215	100.0
1029.721069	188.0
1031.657959	216.0
1033.755859	200.0
1034.306274	60.0
1034.434326	168.0
1034.55603	52.0
1034.831299	144.0
1036.804321	252.0
1036.862061	100.0
1039.042236	160.0
1039.170532	100.0
1040.056274	148.0
1040.152466	152.0
1040.325806	184.0
1043.833984	188.0
1046.279175	124.0
1046.440063	132.0
1047.522095	200.0
1050.44873	184.0
1050.758423	164.0
1052.281738	56.0
1052.701416	64.0
1053.34082	148.0
1053.476196	208.0
1053.579834	148.0
1054.755981	32.0
1054.9823	164.0
1055.396118	156.0
1055.803467	72.0
1056.663818	188.0
1056.760864	124.0
1057.37561	84.0
1058.897217	92.0
1059.020264	140.0
1059.447754	76.0
1060.886597	96.0
1061.865723	192.0
1062.988037	100.0
1063.689087	116.0
1066.066284	52.0
1068.550293	176.0
1069.083862	172.0
1069.324707	160.0
1069.578491	220.0
1070.815674	92.0
1073.116089	128.0
1073.533447	140.0
1075.783813	172.0
1076.071777	168.0
1076.156616	60.0
1076.470093	104.0
1077.162476	124.0
1079.36499	216.0
1079.42395	80.0
1080.496582	160.0
1082.761597	108.0
1085.369873	72.0
1085.46814	188.0
1085.769897	148.0
1085.881348	160.0
1086.93103	248.0
1087.672729	120.0
1088.769165	268.0
1089.642822	144.0
1090.069946	92.0
1091.0625	44.0
1091.739746	52.0
1093.917725	216.0
1095.38623	152.0
1095.873779	140.0
1096.170288	124.0
1098.372437	172.0
1098.689087	116.0
1099.566772	32.0
1099.718628	156.0
1100.589966	132.0
1101.085327	196.0
1101.759033	172.0
1102.023438	216.0
1102.644531	204.0
1103.536987	168.0
1104.628296	68.0
1105.256836	196.0
1105.720093	172.0
1106.878662	160.0
1107.170044	104.0
1107.699951	72.0
1107.792603	188.0
1108.652344	108.0
1109.05835	152.0
1109.324097	196.0
1110.324707	180.0
1110.616577	160.0
1111.764404	136.0
1112.733643	208.0
1113.42688	188.0
1113.842651	216.0
1115.956055	112.0
1116.222046	168.0
1117.825317	208.0
1118.404297	116.0
1118.650635	60.0
1118.903564	120.0
1118.983643	140.0
1119.50293	40.0
1119.835938	172.0
1120.182251	160.0
1120.242188	168.0
1120.415405	104.0
1121.128418	156.0
1121.353516	68.0
1122.234985	240.0
1122.388428	160.0
1123.248779	104.0
1123.441406	140.0
1124.269653	56.0
1124.923706	120.0
1124.990479	92.0
1126.045532	128.0
1127.602295	172.0
1127.689209	148.0
1128.437988	168.0
1128.571655	180.0
1128.932739	132.0
1129.099976	124.0
1129.407715	152.0
1129.461182	36.0
1130.237305	108.0
1131.134155	132.0
1134.483643	64.0
1134.637939	164.0
1135.261475	184.0
1135.50293	204.0
1136.039551	40.0
1136.730713	100.0
1136.817871	184.0
1136.999146	52.0
1137.710693	180.0
1137.96582	212.0
1138.019531	204.0
1138.645996	208.0
1139.033569	96.0
1139.463623	52.0
1139.517334	120.0
1140.565674	156.0
1141.977783	96.0
1142.885986	88.0
1142.966797	192.0
1143.659912	184.0
1143.989868	140.0
1144.306274	188.0
1146.313599	128.0
1147.432495	40.0
1147.479736	176.0
1148.626221	208.0
1148.828613	128.0
1149.125488	152.0
1149.260376	192.0
1149.341431	200.0
1149.570801	156.0
1149.631592	128.0
1149.94873	116.0
1150.596802	156.0
1150.83313	160.0
1151.407104	228.0
1152.116455	112.0
1153.028687	144.0
1153.589722	172.0
1153.988525	164.0
1154.34021	140.0
1154.549805	120.0
1154.597168	72.0
1155.063965	160.0
1155.812378	208.0
1156.302124	120.0
1156.396973	164.0
1156.532349	220.0
1156.857178	72.0
1156.934448	300.0
1157.630371	164.0
1158.042236	120.0
1158.123535	184.0
1158.204834	108.0
1158.624878	188.0
1158.700562	68.0
1160.305664	124.0
1161.295776	192.0
1162.32019	136.0
1163.206787	164.0
1164.737183	132.0
1165.348633	176.0
1166.680786	128.0
1167.231567	168.0
1169.70813	144.0
1169.905518	184.0
1170.586426	180.0
1170.981445	64.0
1171.11084	116.0
1171.67627	192.0
1172.091919	48.0
1173.039307	56.0
1173.277954	60.0
1173.393799	148.0
1173.646118	156.0
1174.580444	52.0
1174.675903	72.0
1174.962524	80.0
1175.57666	124.0
1175.737061	68.0
1176.39563	68.0
1176.484497	188.0
1177.419922	136.0
1177.843384	188.0
1178.150879	156.0
1179.948364	124.0
1180.030396	112.0
1181.343506	120.0
1182.561523	64.0
1183.054443	152.0
1183.4104	176.0
1183.848633	132.0
1185.328369	56.0
1185.753296	136.0
1185.883545	192.0
1185.958984	196.0
1186.082275	44.0
1186.274292	136.0
1186.329102	184.0
1186.548462	120.0
1187.63208	120.0
1188.434692	112.0
1188.489624	164.0
1188.835327	144.0
1189.141602	96.0
1189.731934	56.0
1189.9104	164.0
1189.985962	184.0
1190.294922	180.0
1190.356689	184.0
1190.851196	144.0
1191.737427	128.0
1192.177246	124.0
1192.727051	152.0
1192.885254	216.0
1193.318359	128.0
1194.102295	96.0
1195.08606	176.0
1195.512695	156.0
1197.226929	172.0
1197.412964	172.0
1197.488647	120.0
1197.550659	104.0
1198.163818	100.0
1199.673096	196.0
1199.831665	164.0
1200.107422	124.0
1200.376343	156.0
1201.507568	156.0
1203.536865	100.0
1203.626587	116.0
1204.324219	164.0
1204.565918	164.0
1204.759399	72.0
1204.814697	108.0
1205.077148	44.0
1205.574707	148.0
1205.623047	228.0
1206.210571	56.0
1206.307373	184.0
1206.784424	80.0
1207.567627	236.0
1207.939453	176.0
1208.105469	124.0
1208.797363	152.0
1209.011963	288.0
1209.060425	176.0
1210.174927	140.0
1210.223389	296.0
1210.604248	144.0
1210.742798	184.0
1210.895142	188.0
1211.317627	236.0
1211.428467	148.0
1211.615601	172.0
1211.705566	108.0
1212.045166	100.0
1212.544067	248.0
1212.606445	224.0
1212.759033	136.0
1212.828247	180.0
1213.105591	160.0
1213.396729	136.0
1213.597778	68.0
1213.674072	200.0
1213.840576	168.0
1213.979248	192.0
1214.991943	88.0
1215.144653	128.0
1215.366577	180.0
1215.623413	140.0
1217.213135	152.0
1217.338135	144.0
1217.483887	92.0
1217.852051	220.0
1218.039551	176.0
1218.248047	76.0
1218.302856	172.0
1218.574585	284.0
1220.006226	100.0
1221.188477	44.0
1221.466675	132.0
1221.744995	208.0
1221.946411	180.0
1222.085938	192.0
1223.032349	136.0
1223.150757	108.0
1224.90271	180.0
1225.703003	152.0
1225.762573	216.0
1227.449463	88.0
1227.679688	92.0
1228.328369	144.0
1230.638428	180.0
1231.38562	212.0
1231.706055	148.0
1232.230957	144.0
1232.40564	164.0
1232.671143	156.0
1233.174316	180.0
1233.439209	144.0
1234.432739	156.0
1234.673828	208.0
1235.125244	236.0
1235.363037	156.0
1235.579956	176.0
1236.5177	120.0
1236.713623	200.0
1237.651733	184.0
1238.001953	120.0
1238.162964	156.0
1238.538086	328.0
1238.681274	160.0
1239.47998	176.0
1239.563354	188.0
1240.2229	48.0
1240.762695	68.0
1240.895996	44.0
1240.966064	56.0
1241.569092	64.0
1241.779541	124.0
1241.849731	84.0
1242.375854	172.0
1242.495117	156.0
1242.733643	48.0
1242.888062	236.0
1243.049438	176.0
1244.530518	156.0
1244.790405	116.0
1245.092407	152.0
1245.443481	128.0
1245.752686	140.0
1246.047729	140.0
1246.71521	80.0
1247.024536	128.0
1247.172119	100.0
1247.973633	148.0
1248.050903	184.0
1248.219727	140.0
1248.402588	248.0
1249.070679	156.0
1249.183228	220.0
1250.55542	140.0
1250.689209	132.0
1250.752563	144.0
1250.900391	144.0
1251.329834	160.0
1251.815674	192.0
1252.069214	156.0
1252.548218	168.0
1252.618652	244.0
1253.104736	104.0
1253.675537	160.0
1253.844727	152.0
1254.746948	148.0
1255.269531	180.0
1255.931763	116.0
1256.623169	160.0
1256.706909	152.0
1256.834839	64.0
1256.891235	140.0
1257.865234	112.0
1257.914673	204.0
1258.154663	160.0
1258.217163	176.0
1258.592407	220.0
1258.769043	160.0
1259.567139	152.0
1259.630615	128.0
1259.856689	96.0
1260.195923	164.0
1260.365479	92.0
1260.612793	136.0
1260.874268	148.0
1261.510498	208.0
1261.559937	132.0
1262.033691	124.0
1262.281128	184.0
1263.533081	220.0
1263.703003	56.0
1265.373291	144.0
1266.981079	152.0
1267.108643	96.0
1267.307007	152.0
1267.788818	164.0
1268.171631	128.0
1269.114502	208.0
1269.511597	60.0
1269.936401	180.0
1270.667847	188.0
1270.921021	108.0
1271.278076	64.0
1271.327759	208.0
1271.448364	208.0
1271.779907	248.0
1271.867188	160.0
1273.056763	104.0
1274.118408	188.0
1274.232056	68.0
1274.374146	136.0
1274.956909	204.0
1275.170166	40.0
1276.129761	216.0
1276.876465	116.0
1277.011597	208.0
1277.182373	176.0
1277.572021	176.0
1279.253174	248.0
1279.338623	124.0
1279.822754	160.0
1280.356812	196.0
1280.620361	124.0
1281.062012	120.0
1281.660522	112.0
1282.565674	200.0
1283.763428	124.0
1285.140259	236.0
1285.446167	156.0
1286.786743	232.0
1287.013184	92.0
1287.296021	156.0
1287.588867	172.0
1287.938843	196.0
1288.617554	176.0
1288.881836	136.0
1289.14624	212.0
1290.783325	148.0
1291.055054	216.0
1291.153809	156.0
1291.434082	204.0
1291.713135	164.0
1292.27832	136.0
1292.614624	136.0
1292.908081	152.0
1293.172852	200.0
1294.0177	212.0
1294.268311	100.0
1294.762329	212.0
1295.478638	152.0
1297.349121	184.0
1297.901245	128.0
1298.152222	140.0
1299.816528	132.0
1300.053345	136.0
1300.146729	96.0
1300.397827	168.0
1300.807007	124.0
1301.043945	184.0
1301.474731	188.0
1301.654297	140.0
1302.932861	152.0
1303.069336	168.0
1303.119629	232.0
1303.399902	40.0
1304.183228	156.0
1304.807129	124.0
1305.060303	128.0
1305.211304	128.0
1305.319214	52.0
1305.391113	184.0
1305.556519	180.0
1305.63562	168.0
1305.81543	120.0
1306.448486	120.0
1306.966431	152.0
1307.145264	124.0
1307.441406	264.0
1307.923706	100.0
1309.036011	144.0
1309.594238	172.0
1309.66626	180.0
1309.810303	128.0
1310.033691	136.0
1310.192139	116.0
1310.52356	100.0
1310.660522	80.0
1311.071289	224.0
1311.568604	156.0
1311.755981	192.0
1311.856934	152.0
1312.289551	100.0
1312.455322	160.0
1312.563477	68.0
1312.765503	160.0
1312.938599	100.0
1313.364136	68.0
1313.623779	72.0
1314.2948	144.0
1314.744629	240.0
1315.58667	148.0
1317.103271	72.0
1317.197144	104.0
1317.312744	232.0
1317.377808	168.0
1317.565552	196.0
1317.840088	132.0
1318.201416	140.0
1318.497803	168.0
1318.570068	144.0
1318.80127	160.0
1319.430298	208.0
1319.87854	28.0
1320.117188	76.0
1320.435425	60.0
1320.905518	148.0
1321.115356	152.0
1321.679688	184.0
1322.041504	156.0
1322.280396	56.0
1322.450439	128.0
1322.627808	204.0
1323.301147	188.0
1324.141113	204.0
1325.427002	188.0
1326.16272	212.0
1326.387329	124.0
1328.113159	148.0
1328.867676	160.0
1329.039673	184.0
1329.455444	136.0
1330.159546	124.0
1330.23938	152.0
1330.377319	84.0
1330.675049	180.0
1331.067139	176.0
1331.292236	120.0
1331.553711	152.0
1331.691406	268.0
1332.01123	48.0
1332.07666	152.0
1332.14209	124.0
1333.39917	164.0
1333.588135	164.0
1334.78772	68.0
1334.925903	88.0
1335.405396	196.0
1335.682251	156.0
1335.751099	172.0
1336.002441	188.0
1336.293457	164.0
1336.533569	48.0
1336.591797	104.0
1337.072021	180.0
1337.195801	176.0
1338.447998	164.0
1338.588013	88.0
1338.666504	108.0
1338.833984	112.0
1339.321899	124.0
1339.489502	164.0
1339.642456	212.0
1340.050415	196.0
1340.341919	208.0
1340.873901	128.0
1341.646606	148.0
1342.069458	136.0
1342.441406	88.0
1342.521606	128.0
1343.258301	144.0
1343.499023	224.0
1343.820068	184.0
1344.386108	208.0
1344.622803	140.0
1344.790649	196.0
1344.900146	148.0
1345.162964	100.0
1345.549927	184.0
1345.644775	180.0
1345.93689	164.0
1346.068359	52.0
1346.893677	168.0
1347.156616	148.0
1347.375854	108.0
1347.580444	168.0
1347.880005	168.0
1348.194214	160.0
1348.698608	120.0
1348.822876	152.0
1349.03479	184.0
1349.114502	188.0
1349.317261	216.0
1349.648926	240.0
1349.83606	124.0
1350.19751	172.0
1351.660645	136.0
1352.092407	184.0
1352.165527	72.0
1352.32666	200.0
1352.57959	136.0
1352.670654	52.0
1352.853638	172.0
1353.102539	264.0
1353.270996	168.0
1353.46875	172.0
1353.973999	188.0
1354.398804	160.0
1354.596558	176.0
1355.226685	40.0
1355.314575	148.0
1355.541748	228.0
1355.746948	160.0
1356.098755	244.0
1356.340698	144.0
1357.484497	132.0
1357.795044	172.0
1357.917114	108.0
1357.990479	44.0
1358.122559	184.0
1358.547974	56.0
1359.377197	140.0
1359.509277	104.0
1359.59729	120.0
1360.830566	124.0
1360.881958	212.0
1361.0802	92.0
1361.491455	140.0
1361.572266	136.0
1361.697144	124.0
1362.519897	236.0
1363.144409	116.0
1363.907715	228.0
1364.055786	188.0
1364.254395	184.0
1364.769043	160.0
1364.93811	240.0
1365.019043	144.0
1365.298462	108.0
1365.66626	212.0
1365.938354	112.0
1366.085571	80.0
1366.166504	56.0
1366.306274	296.0
1366.46814	176.0
1366.703613	72.0
1366.843384	176.0
1367.608765	180.0
1367.689697	180.0
1368.138794	160.0
1368.315552	216.0
1368.470093	172.0
1368.742554	120.0
1369.436646	84.0
1369.869507	224.0
1369.928467	200.0
1370.046265	168.0
1370.134644	120.0
1370.495728	160.0
1370.834717	120.0
1371.195801	176.0
1371.276855	180.0
1371.785522	164.0
1372.13208	116.0
1372.235229	212.0
1372.657471	156.0
1372.679199	196.0
1373.090698	88.0
1373.304565	220.0
1373.62915	196.0
1373.820923	72.0
1374.167725	140.0
1374.69165	188.0
1374.92041	80.0
1375.370605	144.0
1375.67334	124.0
1375.975952	116.0
1376.455933	128.0
1376.522461	176.0
1376.832642	124.0
1376.950806	124.0
1377.519531	84.0
1377.696899	152.0
1378.095825	144.0
1378.391357	128.0
1378.491333	124.0
1378.590942	140.0
1378.849609	184.0
1379.227539	60.0
1379.403931	156.0
1379.473877	216.0
1380.121094	148.0
1380.246826	196.0
1380.453857	204.0
1380.705322	292.0
1381.119507	120.0
1381.415405	280.0
1381.703979	152.0
1382.532715	124.0
1383.095215	176.0
1383.569092	48.0
1383.813354	124.0
1385.309448	156.0
1385.361328	152.0
1385.524292	188.0
1386.272705	124.0
1386.398682	184.0
1386.702515	132.0
1386.974365	132.0
1387.310425	92.0
1387.398926	136.0
1387.658813	192.0
1387.896118	176.0
1388.014771	164.0
1389.335083	44.0
1389.5354	148.0
1389.847046	364.0
1390.114136	188.0
1391.539307	200.0
1391.68042	76.0
1391.732422	108.0
1391.873535	184.0
1392.497314	124.0
1393.225342	104.0
1394.510864	132.0
1395.12793	256.0
1395.362427	224.0
1395.663208	156.0
1395.77478	104.0
1396.525879	164.0
1396.845825	136.0
1397.485596	216.0
1397.664185	128.0
1397.880005	60.0
1398.133057	232.0
1398.631714	40.0
1399.078369	188.0
1399.160278	120.0
1399.294312	140.0
1399.547485	128.0
1399.674072	140.0
1400.024048	128.0
1400.105957	120.0
1400.372192	172.0
1400.433716	116.0
1400.515625	252.0
1401.037109	168.0
1401.208496	160.0
1401.312744	84.0
1401.722534	116.0
1401.946167	192.0
1402.341187	56.0
1402.609497	76.0
1403.243164	212.0
1403.317749	164.0
1403.593628	144.0
1403.888062	128.0
1404.152954	156.0
1404.809448	36.0
1404.898926	144.0
1405.033203	120.0
1406.003296	144.0
1406.578003	236.0
1406.645264	120.0
1406.802002	76.0
1407.018555	184.0
1407.160156	140.0
1407.458984	136.0
1407.966919	236.0
1409.070435	152.0
1409.22937	160.0
1409.453491	96.0
1410.649414	44.0
1410.798828	124.0
1411.259766	100.0
1412.144897	168.0
1412.242188	240.0
1412.473022	216.0
1413.057617	176.0
1413.109985	124.0
1413.40918	204.0
1414.000488	196.0
1414.569336	200.0
1414.741577	96.0
1415.707275	192.0
1415.842285	188.0
1415.927979	136.0
1416.531372	140.0
1416.703735	96.0
1416.935913	240.0
1417.265625	216.0
1417.333008	156.0
1418.667236	184.0
1418.854614	176.0
1419.596924	44.0
1419.844482	124.0
1420.099487	120.0
1420.306396	196.0
1420.512085	196.0
1420.565674	140.0
1420.654541	120.0
1420.782104	128.0
1420.909668	176.0
1421.052246	164.0
1421.17981	32.0
1421.262329	132.0
1421.69751	232.0
1422.177856	176.0
1422.59082	128.0
1423.04126	132.0
1423.108887	160.0
1423.820923	228.0
1424.15271	252.0
1424.24292	132.0
1424.888916	192.0
1426.008667	168.0
1426.151489	204.0
1427.031006	124.0
1427.11377	176.0
1427.715332	168.0
1427.843262	172.0
1428.038818	172.0
1428.147461	184.0
1428.542725	144.0
1428.828613	212.0
1429.031738	84.0
1429.219849	224.0
1429.325195	160.0
1430.070312	116.0
1431.229736	136.0
1431.839722	136.0
1432.098145	280.0
1432.298218	148.0
1432.427246	76.0
1432.541992	148.0
1433.22583	116.0
1433.715698	80.0
1433.821167	120.0
1434.062378	176.0
1434.115234	140.0
1434.477051	140.0
1434.559937	136.0
1434.703125	132.0
1434.791748	204.0
1435.065063	208.0
1435.195435	176.0
1436.30188	172.0
1436.392456	132.0
1436.867676	180.0
1437.071411	168.0
1437.441162	148.0
1437.540039	156.0
1437.758179	96.0
1437.86377	180.0
1438.120483	164.0
1438.346924	84.0
1438.543213	124.0
1438.769653	72.0
1440.793701	136.0
1441.080811	132.0
1441.420898	140.0
1441.768555	208.0
1441.821411	76.0
1442.962891	140.0
1443.030884	152.0
1443.605591	200.0
1443.945923	144.0
1444.05188	108.0
1445.337891	144.0
1445.739014	132.0
1446.433472	176.0
1447.116699	136.0
1447.298462	156.0
1447.404541	108.0
1447.495361	60.0
1447.783081	372.0
1448.070923	172.0
1448.525391	212.0
1448.889038	148.0
1448.949707	128.0
1449.017822	136.0
1449.182983	188.0
1449.599609	120.0
1449.611572	92.0
1449.642212	152.0
1449.720459	188.0
1449.927246	148.0
1450.162231	52.0
1450.632202	156.0
1450.760986	132.0
1451.367554	184.0
1451.708862	172.0
1451.807495	176.0
1451.898438	104.0
1452.270142	136.0
1452.44458	120.0
1452.550781	68.0
1452.793579	248.0
1452.97644	168.0
1453.112183	176.0
1453.203247	108.0
1453.544678	132.0
1454.106323	164.0
1454.48584	88.0
1454.994507	204.0
1455.366455	100.0
1455.511108	172.0
1455.563965	260.0
1455.936035	252.0
1456.817139	128.0
1456.87793	116.0
1457.052734	152.0
1457.21228	104.0
1457.432617	156.0
1457.561768	204.0
1457.827759	36.0
1458.116577	140.0
1458.260986	156.0
1458.375	164.0
1458.458618	172.0
1459.0896	148.0
1459.74353	184.0
1459.926025	180.0
1460.041138	196.0
1460.466064	184.0
1461.021362	84.0
1461.865967	116.0
1462.132324	156.0
1462.231323	200.0
1462.566162	188.0
1463.00769	228.0
1463.129517	168.0
1463.259033	124.0
1463.380859	188.0
1463.624512	216.0
1463.89856	84.0
1464.043335	144.0
1464.125732	140.0
1464.599365	136.0
1464.934448	136.0
1465.787842	96.0
1466.229858	156.0
1467.441895	200.0
1467.582397	172.0
1467.663086	148.0
1467.85376	128.0
1468.006226	208.0
1468.166382	152.0
1468.43335	124.0
1468.578247	196.0
1469.341064	176.0
1469.913452	152.0
1470.325562	148.0
1471.382812	176.0
1471.574707	176.0
1472.203613	164.0
1472.661865	92.0
1472.723022	112.0
1473.005615	132.0
1473.227173	112.0
1474.082886	132.0
1474.136475	200.0
1474.228149	168.0
1474.778442	184.0
1475.076538	104.0
1475.252441	196.0
1475.417603	280.0
1476.078125	208.0
1476.781738	184.0
1476.896484	188.0
1477.103027	44.0
1477.409058	120.0
1477.474365	180.0
1477.791626	252.0
1478.120605	116.0
1478.326294	188.0
1478.641113	220.0
1479.307007	100.0
1479.937012	184.0
1480.030396	124.0
1480.202881	104.0
1480.398926	136.0
1480.70459	148.0
1481.550903	108.0
1481.757812	100.0
1481.842041	184.0
1481.995239	60.0
1482.11792	128.0
1482.960938	152.0
1483.919189	128.0
1484.133911	180.0
1484.233521	92.0
1484.532593	192.0
1484.74585	260.0
1485.038818	248.0
1485.14624	152.0
1485.399414	112.0
1485.476074	128.0
1485.928711	220.0
1486.688354	244.0
1487.202637	156.0
1487.310059	184.0
1487.624878	156.0
1487.793701	160.0
1488.400269	168.0
1488.592285	204.0
1488.838013	32.0
1488.907227	96.0
1489.634888	152.0
1489.905762	148.0
1490.12854	176.0
1490.735596	60.0
1491.142944	212.0
1491.619507	172.0
1491.796387	152.0
1492.142334	132.0
1492.319214	212.0
1492.713257	204.0
1492.80188	184.0
1493.111206	40.0
1493.241943	208.0
1493.463257	224.0
1493.534302	208.0
1494.426758	112.0
1494.826904	52.0
1494.880737	80.0
1494.942261	200.0
1495.894287	152.0
1496.06604	112.0
1496.474121	132.0
1497.0979	112.0
1497.190308	264.0
1497.47522	184.0
1497.564209	124.0
1498.276367	204.0
1498.330322	104.0
1498.643066	216.0
1498.792725	184.0
1498.916016	132.0
1499.925659	128.0
1500.185669	184.0
1500.311035	200.0
1500.449829	392.0
1500.95105	112.0
1501.371338	152.0
1501.397461	76.0
1501.417358	144.0
1501.567993	132.0
1501.791748	184.0
1501.927856	136.0
1502.046265	236.0
1502.408813	156.0
1502.524536	204.0
1502.794556	164.0
1503.00293	156.0
1503.537109	184.0
1503.952271	224.0
1504.53894	104.0
1505.326538	156.0
END IONS

BEGIN IONS
PEPMASS=363.095
CHARGE=1
MSLEVEL=2
SOURCE_INSTRUMENT=LC-ESI-qTof
FILENAME=p3-H03_GH3_01_18308.mzXML
SEQ=*..*
IONMODE=Positive
ORGANISM=GNPS-NIH-SMALLMOLECULEPHARMACOLOGICALLYACTIVE
NAME=MLS002154123-01!Piretanide55837-27-9 M+H
PI=Dorrestein
DATACOLLECTOR=VP/LMS
SMILES=NS(=O)(=O)c1cc(cc(N2CCCC2)c1Oc3ccccc3)C(=O)O
INCHI=N/A
INCHIAUX=N/A
PUBMED=N/A
SUBMITUSER=vphelan
LIBRARYQUALITY=1
SPECTRUMID=CCMSLIB00000085312
USI=mzspec:GNPS:GNPS-NIH-SMALLMOLECULEPHARMACOLOGICALLYACTIVE:accession:CCMSLIB00000085312
SCANS=1982
45.081238	36.0
45.535431	96.0
45.664467	172.0
45.906898	184.0
46.054016	252.0
46.286644	112.0
46.495422	144.0
46.544296	180.0
46.616295	212.0
46.685631	172.0
46.703312	132.0
46.884403	164.0
47.031925	152.0
47.191559	120.0
47.383183	112.0
47.535389	108.0
47.56284	168.0
47.755219	116.0
47.981068	120.0
48.077629	132.0
48.690971	184.0
48.902317	156.0
49.383709	204.0
50.063026	292.0
50.119377	92.0
50.533104	196.0
50.999691	44.0
51.305759	88.0
51.441292	188.0
51.617126	128.0
52.767403	132.0
52.873005	188.0
52.900505	188.0
52.967121	156.0
52.987404	156.0
53.803349	124.0
54.286228	172.0
54.543175	144.0
54.942272	180.0
54.968834	256.0
55.168236	172.0
55.507313	204.0
55.534008	148.0
55.624523	128.0
55.636402	156.0
55.841473	144.0
56.170673	112.0
56.674522	212.0
56.743473	184.0
56.798962	148.0
56.917534	172.0
57.200195	196.0
57.317673	220.0
57.869022	136.0
58.097885	116.0
58.52346	140.0
59.065266	112.0
59.411488	196.0
59.643379	172.0
59.909611	116.0
60.448494	132.0
61.326008	160.0
61.360306	92.0
62.071774	164.0
62.23497	56.0
62.258526	68.0
62.388947	104.0
62.590347	172.0
62.763687	140.0
62.885166	156.0
63.047844	128.0
63.088943	216.0
63.130054	204.0
63.304138	96.0
63.502796	140.0
63.6562	36.0
63.749928	64.0
64.203667	132.0
64.447906	164.0
64.955437	128.0
65.254158	40.0
65.703529	164.0
66.139862	148.0
66.332634	216.0
66.540298	188.0
66.626373	224.0
66.67025	100.0
67.209282	136.0
67.776703	128.0
68.239586	220.0
68.407402	100.0
68.633125	156.0
68.644669	136.0
68.712296	168.0
68.85096	28.0
69.562973	164.0
69.742378	220.0
70.607742	160.0
70.786819	144.0
70.914146	148.0
70.940964	116.0
71.113747	36.0
71.438065	220.0
72.417145	184.0
72.544235	112.0
72.556107	44.0
72.695198	100.0
72.735931	84.0
72.895584	196.0
73.867462	164.0
73.959869	160.0
74.318054	148.0
74.740768	164.0
74.952568	160.0
75.143967	140.0
75.382263	76.0
76.016083	120.0
76.346169	216.0
76.433151	232.0
78.031914	140.0
78.088188	176.0
78.248322	104.0
78.290588	160.0
78.317009	132.0
78.435066	92.0
78.468567	160.0
78.524994	148.0
79.016098	164.0
79.505173	136.0
79.61525	32.0
80.298691	176.0
80.493217	152.0
80.59861	124.0
81.236015	196.0
81.347282	196.0
81.780495	64.0
82.23111	240.0
82.361122	188.0
82.386406	132.0
83.741493	108.0
84.027702	204.0
84.106171	100.0
84.979141	164.0
85.685181	196.0
86.523689	64.0
86.558868	152.0
86.577393	132.0
86.877678	68.0
86.912926	52.0
86.994591	132.0
87.172905	68.0
87.353264	132.0
87.59713	216.0
87.91597	88.0
87.990639	60.0
88.076546	60.0
88.276535	156.0
88.59848	172.0
89.528297	100.0
89.745003	192.0
89.795921	60.0
90.054512	140.0
90.464851	220.0
90.506508	124.0
90.84008	144.0
90.952042	148.0
91.705292	180.0
91.880737	168.0
92.004791	44.0
92.092628	144.0
92.153763	32.0
92.222565	120.0
92.34111	140.0
92.586098	236.0
92.616737	216.0
93.284538	156.0
93.9123	56.0
94.058945	196.0
94.259811	232.0
94.350662	180.0
94.433815	148.0
94.883087	104.0
95.195488	148.0
95.244049	152.0
95.401451	144.0
95.428673	112.0
95.551208	136.0
95.625153	168.0
95.755608	132.0
95.790665	112.0
96.079597	176.0
96.153351	68.0
96.411156	176.0
96.516716	144.0
96.904282	152.0
96.921913	168.0
97.059128	172.0
97.076782	64.0
98.020386	148.0
98.450447	208.0
98.525513	196.0
98.568977	144.0
98.66188	132.0
98.752846	172.0
99.025986	160.0
99.442368	120.0
99.490013	160.0
99.652878	196.0
99.927261	48.0
99.941193	208.0
100.126328	188.0
100.200035	216.0
100.249847	32.0
100.535034	180.0
100.578941	88.0
101.437119	144.0
101.499268	172.0
101.603569	228.0
101.748077	196.0
102.097717	96.0
102.544685	96.0
102.853302	148.0
102.907806	208.0
104.033508	156.0
104.047714	172.0
104.767677	148.0
104.851227	196.0
105.057175	200.0
105.124512	204.0
105.342979	216.0
105.455368	120.0
105.772423	180.0
106.067406	168.0
106.251976	160.0
107.049515	80.0
107.325645	92.0
107.527817	208.0
107.717789	104.0
108.036148	100.0
108.788437	220.0
109.760422	156.0
110.091911	168.0
110.685822	64.0
111.722694	164.0
111.897377	128.0
112.221855	80.0
112.453911	188.0
113.041451	184.0
113.107063	68.0
113.59446	60.0
114.034004	228.0
114.106285	32.0
114.276443	112.0
114.5383	152.0
114.80899	184.0
114.979675	76.0
115.052773	868.0
115.118439	60.0
115.30645	212.0
115.329956	128.0
115.49247	168.0
115.871384	152.0
116.060005	232.0
116.461334	148.0
116.889168	76.0
117.044159	180.0
117.066772	156.0
117.941666	152.0
118.056259	144.0
118.080048	192.0
118.554192	120.0
119.029282	108.0
119.046654	140.0
119.181335	100.0
119.372627	208.0
119.690338	168.0
120.043556	208.0
120.646004	100.0
120.726913	72.0
120.860352	120.0
121.039848	196.0
121.073219	152.0
121.25235	176.0
121.792114	156.0
121.862411	48.0
122.165817	164.0
122.372704	200.0
123.012062	164.0
123.054008	140.0
123.195358	120.0
123.49157	212.0
123.637596	124.0
123.81028	232.0
123.845718	156.0
124.051804	120.0
124.238091	172.0
124.406754	176.0
124.880798	196.0
125.267395	152.0
125.878532	172.0
126.046066	140.0
126.166771	188.0
127.078331	212.0
127.096283	124.0
127.201767	188.0
127.221977	184.0
128.057571	348.0
128.572556	168.0
128.836746	148.0
128.988159	176.0
129.068604	164.0
129.182632	52.0
129.927994	144.0
130.002869	212.0
130.063828	364.0
130.261703	128.0
131.050613	332.0
131.142334	92.0
131.347549	88.0
131.573486	168.0
131.710495	196.0
132.080994	152.0
132.172333	68.0
132.398972	128.0
132.48143	172.0
132.770248	196.0
132.834473	172.0
132.949188	216.0
132.969849	100.0
132.985916	112.0
133.043304	112.0
133.709915	124.0
134.696793	100.0
134.96489	128.0
135.25177	140.0
135.318909	88.0
135.884445	124.0
136.070129	80.0
137.033035	156.0
137.452759	136.0
137.508759	144.0
137.793655	176.0
138.053131	216.0
138.312836	124.0
138.535309	128.0
139.05162	752.0
139.951553	164.0
140.044571	164.0
140.063766	224.0
140.142349	120.0
140.479492	128.0
140.975342	168.0
141.001694	132.0
141.068924	4796.0
141.391586	136.0
141.533615	136.0
141.929337	212.0
142.072052	1252.0
142.128586	68.0
142.396851	100.0
142.520386	112.0
143.07457	140.0
143.150772	132.0
143.684708	92.0
143.765839	88.0
144.043732	208.0
144.083786	152.0
144.234665	208.0
144.848953	88.0
145.357254	72.0
145.508469	152.0
145.571335	132.0
145.681396	44.0
146.054001	152.0
146.09729	176.0
147.172256	240.0
147.271271	148.0
147.454773	164.0
147.791046	116.0
147.931427	140.0
148.036514	276.0
148.355377	180.0
148.522705	136.0
148.830917	160.0
149.024323	232.0
149.042252	64.0
149.711227	180.0
149.840332	184.0
149.918304	140.0
149.935364	112.0
149.962173	188.0
150.025558	60.0
150.157227	184.0
150.41832	164.0
150.877594	108.0
150.938721	132.0
151.019424	232.0
151.05368	156.0
151.308197	152.0
151.969955	156.0
152.043076	176.0
152.064041	160.0
152.259628	80.0
152.296478	140.0
153.067749	248.0
153.177109	48.0
153.667709	52.0
154.071533	412.0
155.047546	408.0
155.084274	128.0
155.575912	108.0
155.70256	68.0
156.050461	200.0
156.083069	212.0
156.515762	244.0
156.814713	52.0
156.89946	148.0
157.062271	156.0
157.281143	136.0
157.32753	172.0
157.793289	240.0
158.015884	144.0
158.065933	164.0
158.872726	100.0
159.018265	136.0
159.040863	132.0
159.073486	224.0
159.364822	112.0
159.651398	36.0
159.958359	148.0
160.041443	132.0
160.071289	132.0
160.275711	128.0
161.013519	224.0
161.64183	248.0
161.98111	72.0
162.013916	444.0
162.090042	156.0
162.665787	172.0
162.909576	144.0
163.018845	136.0
163.044601	148.0
164.034973	140.0
164.37616	176.0
164.917603	116.0
165.037766	120.0
165.063599	280.0
165.127274	124.0
165.244949	60.0
165.439453	140.0
165.646881	184.0
165.669937	160.0
166.047852	800.0
166.068588	452.0
166.185272	176.0
166.765671	36.0
166.963638	212.0
167.045853	552.0
167.070663	1316.0
167.12056	148.0
167.43721	124.0
167.591766	164.0
167.756714	172.0
168.006882	112.0
168.055832	1992.0
168.078522	1764.0
168.135895	60.0
168.246887	52.0
168.306274	168.0
168.605942	132.0
168.626617	80.0
168.68866	48.0
169.063644	3316.0
169.265625	60.0
169.338135	76.0
169.39772	72.0
169.656876	56.0
169.895462	48.0
169.968124	124.0
170.025208	144.0
170.066879	620.0
170.28627	168.0
170.500488	180.0
170.924377	272.0
171.002457	88.0
171.042908	156.0
171.424362	136.0
171.961624	124.0
172.07431	144.0
173.043884	196.0
173.481415	124.0
174.043686	184.0
174.062851	140.0
174.373901	168.0
174.915756	128.0
175.086899	232.0
175.949173	120.0
176.028397	176.0
176.060074	192.0
177.039978	348.0
177.067734	168.0
177.651886	192.0
177.892395	232.0
178.049057	204.0
178.069687	476.0
178.647125	44.0
178.785492	164.0
178.987808	152.0
179.068665	196.0
179.08754	344.0
179.758194	164.0
179.830261	108.0
179.886322	164.0
179.985107	240.0
180.080475	876.0
180.161377	136.0
180.947678	136.0
181.009262	196.0
181.03479	136.0
181.062485	1340.0
181.089661	420.0
181.11908	52.0
181.228912	124.0
181.446014	96.0
181.58815	56.0
181.649841	120.0
181.923569	96.0
182.070435	788.0
182.135712	172.0
182.251236	56.0
182.366791	236.0
182.444748	100.0
182.990921	92.0
183.067596	692.0
183.098801	320.0
183.171356	120.0
183.365372	52.0
184.067215	372.0
184.106186	232.0
184.263977	140.0
184.977951	80.0
185.054703	256.0
185.153946	176.0
186.054703	168.0
186.081421	168.0
186.812439	64.0
186.921265	212.0
187.152649	72.0
187.446838	52.0
188.101425	140.0
188.738007	164.0
188.989655	112.0
189.074432	208.0
189.271591	64.0
189.35376	184.0
189.452362	164.0
189.929352	136.0
190.08992	196.0
190.313568	44.0
190.60199	196.0
191.084335	544.0
191.61731	120.0
192.06813	740.0
192.146683	60.0
192.237732	156.0
192.5	172.0
192.737564	256.0
193.051407	308.0
193.087585	588.0
193.143967	184.0
193.188232	160.0
193.337646	196.0
193.958084	172.0
194.06012	800.0
194.095444	348.0
194.296402	56.0
195.00174	44.0
195.061234	1144.0
195.092651	284.0
196.007278	124.0
196.075867	4840.0
196.137405	236.0
196.170853	64.0
196.282379	88.0
196.304688	28.0
196.324203	148.0
196.393936	44.0
196.533432	40.0
196.625519	40.0
196.999695	120.0
197.077667	1076.0
197.226044	184.0
197.553207	64.0
197.875061	68.0
198.034683	144.0
198.075455	216.0
198.096313	144.0
198.133514	144.0
198.443832	28.0
198.560654	128.0
199.051376	132.0
199.127487	52.0
199.277451	88.0
199.35614	252.0
199.842606	136.0
200.06778	72.0
200.798004	140.0
201.073486	184.0
201.602234	188.0
202.072189	120.0
203.03476	200.0
203.086044	176.0
203.704636	64.0
204.064728	1468.0
204.150879	184.0
204.202072	192.0
204.569138	196.0
205.030579	176.0
205.066452	192.0
205.084549	372.0
205.438339	172.0
206.079559	732.0
206.443756	108.0
206.684052	220.0
207.024704	176.0
207.066681	976.0
207.374252	132.0
208.011032	124.0
208.072617	876.0
208.112595	568.0
208.220642	56.0
208.341293	56.0
209.0802	1588.0
209.116364	304.0
209.149368	176.0
209.425797	72.0
209.772263	64.0
210.048737	144.0
210.085632	420.0
210.126144	3524.0
210.168152	56.0
210.233078	28.0
210.305237	40.0
210.380295	96.0
210.513107	48.0
211.04747	168.0
211.088181	168.0
211.132217	384.0
211.597443	72.0
211.675629	52.0
211.884171	60.0
211.913147	76.0
212.039902	152.0
212.069641	316.0
212.140305	260.0
212.176895	92.0
212.281281	128.0
212.466919	56.0
212.736832	56.0
212.803604	56.0
213.052689	152.0
213.091141	156.0
214.0159	60.0
214.855515	192.0
214.922623	144.0
215.083267	176.0
215.76088	144.0
215.991913	128.0
216.088455	156.0
217.089844	548.0
218.026764	184.0
218.055649	184.0
218.093765	176.0
218.099838	312.0
218.338409	164.0
218.561981	192.0
218.812164	160.0
219.074341	132.0
219.368988	100.0
219.569489	28.0
220.05658	128.0
220.080933	348.0
220.109406	432.0
220.697571	76.0
221.025909	196.0
221.048798	136.0
221.084518	812.0
221.118927	420.0
221.295273	124.0
221.455185	156.0
221.490738	76.0
221.579605	44.0
221.75444	28.0
222.021286	164.0
222.050064	452.0
222.089249	1628.0
222.414566	68.0
222.499023	108.0
222.528717	132.0
223.096909	524.0
223.185379	76.0
223.390594	68.0
223.750702	164.0
224.196213	128.0
224.525467	36.0
225.050674	356.0
225.247787	144.0
225.863571	104.0
226.043091	156.0
226.070023	176.0
226.120895	156.0
226.570068	204.0
226.908737	136.0
227.013687	144.0
227.046677	140.0
227.071899	172.0
227.8181	80.0
228.02243	160.0
228.066574	144.0
228.11261	32.0
228.338135	56.0
229.024384	148.0
229.069946	160.0
229.102783	152.0
229.238297	120.0
229.521667	44.0
230.034561	208.0
230.983444	48.0
232.8992	128.0
233.266891	140.0
234.025848	260.0
234.039139	92.0
234.049576	204.0
234.088669	392.0
234.161484	68.0
234.194992	72.0
235.057785	176.0
235.080566	124.0
235.10051	212.0
235.442444	64.0
235.476044	108.0
235.7724	140.0
235.92218	124.0
235.968033	184.0
236.00473	148.0
236.038361	84.0
236.067169	284.0
236.105347	13980.0
236.171463	164.0
236.308411	136.0
236.338135	76.0
236.399338	80.0
236.442184	152.0
236.469727	60.0
236.592163	120.0
236.782028	56.0
236.841034	188.0
236.907608	56.0
236.935181	80.0
236.956635	72.0
237.035065	80.0
237.057755	124.0
237.110748	4980.0
237.232452	64.0
237.345901	40.0
237.505386	92.0
237.600479	36.0
237.667984	44.0
237.815292	72.0
237.870544	148.0
237.935013	56.0
237.979172	136.0
238.045761	332.0
238.064911	200.0
238.120316	4032.0
238.214478	68.0
238.257492	84.0
238.478745	84.0
238.574036	132.0
238.737	68.0
238.903107	112.0
238.9431	92.0
239.02002	104.0
239.060532	244.0
239.122223	584.0
239.364792	48.0
239.423309	68.0
239.638931	96.0
239.709808	96.0
239.842331	64.0
239.944061	40.0
240.062424	1212.0
240.095657	184.0
240.132172	144.0
240.687683	48.0
241.008926	164.0
241.068085	428.0
241.102722	204.0
241.144897	28.0
241.364395	72.0
242.066849	104.0
242.308456	32.0
243.176743	56.0
243.536926	60.0
244.077682	112.0
244.551605	108.0
245.419754	104.0
245.700455	40.0
246.093918	316.0
246.124954	68.0
246.190521	132.0
246.340454	72.0
246.56543	92.0
248.074295	184.0
248.168213	216.0
248.23407	96.0
248.908752	56.0
249.077072	244.0
249.91777	136.0
250.07019	184.0
251.125473	224.0
251.989334	104.0
252.046204	144.0
252.068329	312.0
252.125793	264.0
253.045731	120.0
253.074219	132.0
253.123184	164.0
253.172394	108.0
253.340271	32.0
254.080414	148.0
254.107864	316.0
254.555069	108.0
255.047531	144.0
255.079819	164.0
255.103027	140.0
256.064301	152.0
256.129425	36.0
257.906769	56.0
258.021851	204.0
258.856995	92.0
259.033142	140.0
260.024445	264.0
261.911346	68.0
262.036987	136.0
262.084015	172.0
262.749542	140.0
262.984039	204.0
264.101898	1368.0
265.102173	344.0
266.085388	180.0
267.089783	148.0
267.139374	32.0
267.380157	64.0
267.50058	64.0
267.891388	44.0
268.015045	208.0
268.064056	52.0
268.096649	236.0
268.148804	156.0
269.05661	392.0
269.71228	84.0
269.833221	224.0
270.06369	292.0
270.109222	192.0
270.693787	144.0
271.053772	180.0
272.041382	152.0
272.507751	100.0
273.484467	60.0
274.090454	132.0
274.901672	36.0
277.011139	32.0
278.065582	140.0
280.050568	120.0
280.093567	1556.0
281.096619	412.0
281.167511	76.0
281.240936	100.0
281.431244	64.0
281.604889	40.0
281.695099	80.0
282.058838	164.0
282.110229	5656.0
282.27832	72.0
282.808594	68.0
282.955902	80.0
283.036255	120.0
283.113983	1408.0
283.213776	60.0
284.038361	76.0
284.122223	152.0
284.273224	116.0
284.521606	64.0
284.692871	156.0
284.917908	88.0
285.001923	172.0
285.028809	148.0
285.126251	180.0
285.213654	84.0
285.469177	40.0
285.52298	76.0
286.002136	128.0
286.030151	192.0
286.373138	64.0
287.321777	80.0
287.963135	40.0
288.027313	124.0
288.061096	168.0
289.529083	80.0
292.013489	148.0
293.68927	88.0
294.385529	108.0
295.010803	88.0
298.102509	164.0
300.150726	144.0
303.026581	92.0
304.029633	1164.0
305.008179	184.0
305.042419	184.0
306.042969	132.0
309.050293	172.0
326.96225	164.0
329.053009	192.0
329.17218	148.0
332.706116	72.0
340.014038	60.0
341.248352	128.0
346.059326	280.0
347.086121	120.0
348.470642	88.0
350.085022	144.0
351.919678	56.0
352.352936	52.0
353.706726	68.0
361.244324	92.0
362.080872	116.0
363.102783	740.0
364.093842	248.0
365.097961	276.0
371.657227	64.0
387.019348	144.0
388.622498	112.0
411.73349	196.0
412.097046	48.0
415.128937	72.0
428.788361	172.0
438.091095	140.0
443.552948	96.0
455.125763	72.0
460.615601	100.0
462.5784	28.0
511.059387	132.0
550.950623	76.0
551.99762	52.0
565.4245	44.0
575.71759	72.0
587.617493	40.0
657.928162	52.0
673.570923	72.0
683.520386	112.0
721.805176	88.0
732.873657	88.0
772.287842	72.0
815.227234	76.0
823.09436	48.0
835.256226	84.0
854.05896	20.0
880.668213	104.0
911.248108	124.0
925.246826	44.0
926.936768	172.0
942.490417	156.0
957.286499	220.0
984.031311	88.0
998.626587	76.0
1047.780762	164.0
1062.800781	120.0
1072.569214	112.0
1087.758667	184.0
1112.382202	204.0
1115.697266	96.0
1117.053833	48.0
1121.768677	152.0
1125.578369	56.0
1161.146606	120.0
1174.703125	136.0
1190.088745	192.0
1196.159424	200.0
1196.290283	92.0
1223.86731	84.0
1224.758667	44.0
1229.269653	168.0
1239.962891	96.0
1258.273926	76.0
1261.332886	48.0
1275.19751	124.0
1275.332642	124.0
1279.067017	180.0
1284.625488	144.0
1291.855103	40.0
1292.928345	208.0
1298.9104	160.0
1300.303345	132.0
1301.868408	116.0
1325.465454	52.0
1329.591919	80.0
1342.170044	168.0
1356.397583	96.0
1357.475342	148.0
1376.572144	180.0
1377.591431	136.0
1378.241699	192.0
1393.446167	140.0
1394.085205	152.0
1394.709473	160.0
1403.121704	136.0
1403.658569	188.0
1404.866943	108.0
1405.314575	128.0
1411.402222	140.0
1426.750488	168.0
1428.397461	184.0
1432.221436	224.0
1433.999634	132.0
1453.904053	192.0
1468.689819	152.0
1476.641235	188.0
1479.036133	148.0
1484.307251	164.0
1485.595825	140.0
1501.626587	56.0
1502.667969	48.0
1504.450806	120.0
END IONS

BEGIN IONS
PEPMASS=369.226
CHARGE=1
MSLEVEL=2
SOURCE_INSTRUMENT=LC-ESI-qTof
FILENAME=p3-H08_GH8_01_18313.mzXML
SEQ=*..*
IONMODE=Positive
ORGANISM=GNPS-NIH-SMALLMOLECULEPHARMACOLOGICALLYACTIVE
NAME=MLS001148649-01!298-57-7 M+H
PI=Dorrestein
DATACOLLECTOR=VP/LMS
SMILES=C(/C=C/c1ccccc1)N2CCN(CC2)C(c3ccccc3)c4ccccc4
INCHI=N/A
INCHIAUX=N/A
PUBMED=N/A
SUBMITUSER=vphelan
LIBRARYQUALITY=1
SPECTRUMID=CCMSLIB00000085357
USI=mzspec:GNPS:GNPS-NIH-SMALLMOLECULEPHARMACOLOGICALLYACTIVE:accession:CCMSLIB00000085357
SCANS=2048
44.907093	80.0
44.916431	120.0
44.92915	160.0
44.964314	176.0
44.977989	184.0
45.003181	148.0
45.048592	176.0
45.093918	148.0
45.118019	152.0
45.136806	140.0
45.167568	144.0
45.184963	160.0
45.209381	192.0
45.233242	160.0
45.262024	172.0
45.278667	124.0
45.304119	76.0
45.329578	244.0
45.348721	212.0
45.368126	132.0
45.393925	144.0
45.433529	312.0
45.451611	180.0
45.465031	124.0
45.485165	48.0
45.516045	116.0
45.553654	128.0
45.57515	164.0
45.593964	152.0
45.607407	320.0
45.627571	156.0
45.636982	76.0
45.647083	96.0
45.655807	200.0
45.673336	136.0
45.688553	216.0
45.698856	196.0
45.718048	188.0
45.732502	116.0
45.75808	144.0
45.776932	104.0
45.793095	164.0
45.828953	136.0
45.832394	164.0
45.862759	156.0
45.883385	88.0
45.908443	168.0
45.951763	312.0
46.024055	188.0
46.03809	204.0
46.095306	188.0
46.127354	148.0
46.154568	172.0
46.172367	148.0
46.187244	108.0
46.199856	212.0
46.210247	232.0
46.232613	144.0
46.286049	152.0
46.328388	216.0
46.347004	152.0
46.357845	172.0
46.40258	228.0
46.424278	92.0
46.466572	200.0
46.585804	156.0
46.595314	112.0
46.606186	140.0
46.642879	316.0
46.656475	168.0
46.670071	192.0
46.68639	144.0
46.704071	192.0
46.721416	112.0
46.748974	212.0
46.77211	144.0
46.787086	184.0
46.804497	224.0
46.814388	160.0
46.847744	208.0
46.863361	140.0
46.884609	128.0
46.978237	140.0
46.996471	116.0
47.045101	224.0
47.053799	148.0
47.067738	116.0
47.07024	200.0
47.085724	352.0
47.096756	160.0
47.137642	152.0
47.156776	148.0
47.175911	204.0
47.190556	248.0
47.203259	140.0
47.227226	184.0
47.242924	128.0
47.277134	152.0
47.289452	116.0
47.301773	96.0
47.322308	208.0
47.331894	204.0
47.352928	200.0
47.375725	192.0
47.388054	96.0
47.40313	148.0
47.423042	196.0
47.455219	184.0
47.473083	144.0
47.48539	104.0
47.503223	188.0
47.546921	52.0
47.563602	156.0
47.602764	176.0
47.62677	72.0
47.647785	256.0
47.687435	160.0
47.712009	156.0
47.724346	156.0
47.740849	228.0
47.782116	232.0
47.794502	156.0
47.817898	180.0
47.848183	128.0
47.86195	92.0
47.877571	108.0
47.893627	184.0
47.914291	144.0
47.93634	208.0
47.9515	132.0
47.987507	136.0
48.010788	124.0
48.060448	132.0
48.104614	128.0
48.115662	76.0
48.126705	164.0
48.155708	128.0
48.192951	184.0
48.224796	28.0
48.253311	172.0
48.293934	120.0
48.303616	408.0
48.331696	136.0
48.368614	412.0
48.391407	168.0
48.414349	120.0
48.425892	180.0
48.446209	148.0
48.457291	144.0
48.485699	152.0
48.500252	180.0
48.525208	140.0
48.586853	216.0
48.609825	132.0
48.627865	40.0
48.641747	132.0
48.670902	48.0
48.709164	160.0
48.736191	96.0
48.746906	396.0
48.759815	196.0
48.79179	132.0
48.812645	168.0
48.858547	208.0
48.898937	208.0
48.917233	144.0
48.955727	172.0
48.974094	144.0
48.989418	160.0
49.003712	200.0
49.040127	236.0
49.049969	240.0
49.084198	156.0
49.104778	148.0
49.117382	232.0
49.134411	124.0
49.15601	192.0
49.16806	212.0
49.187538	188.0
49.220673	100.0
49.223995	156.0
49.229679	128.0
49.315956	196.0
49.329082	180.0
49.383274	120.0
49.39703	176.0
49.416649	204.0
49.426445	176.0
49.436241	172.0
49.461433	136.0
49.487923	204.0
49.493134	156.0
49.511703	124.0
49.519966	184.0
49.54266	88.0
49.573231	176.0
49.578896	144.0
49.584839	156.0
49.604321	148.0
49.622547	160.0
49.650593	44.0
49.664318	112.0
49.67382	336.0
49.696953	176.0
49.722149	176.0
49.731972	232.0
49.769878	140.0
49.806396	192.0
49.826065	296.0
49.844753	160.0
49.869629	352.0
49.892288	100.0
49.948372	44.0
49.965256	160.0
49.977451	288.0
50.00325	172.0
50.018703	192.0
50.049297	192.0
50.068737	156.0
50.093372	160.0
50.110279	148.0
50.121552	116.0
50.145832	192.0
50.168064	124.0
50.193348	236.0
50.21883	188.0
50.234344	188.0
50.246788	196.0
50.252323	140.0
50.258163	272.0
50.286289	212.0
50.299259	240.0
50.325607	172.0
50.354332	188.0
50.382584	212.0
50.393887	72.0
50.406605	172.0
50.423367	116.0
50.458904	200.0
50.488987	132.0
50.569248	112.0
50.58765	88.0
50.620216	40.0
50.642876	148.0
50.663452	176.0
50.673653	188.0
50.737823	52.0
50.752003	84.0
50.764626	200.0
50.77895	76.0
50.79229	168.0
50.796806	68.0
50.802376	140.0
50.818779	104.0
50.885384	128.0
50.918045	176.0
50.927986	88.0
50.93935	176.0
50.963505	204.0
50.975662	140.0
51.018784	224.0
51.077274	264.0
51.111305	200.0
51.167366	160.0
51.18399	216.0
51.196804	136.0
51.216747	56.0
51.230991	196.0
51.249187	340.0
51.263763	212.0
51.285145	124.0
51.310802	128.0
51.332191	168.0
51.382324	276.0
51.406376	148.0
51.426437	144.0
51.440632	148.0
51.472042	180.0
51.489182	108.0
51.530609	92.0
51.583488	140.0
51.609222	316.0
51.619232	120.0
51.634964	260.0
51.644978	128.0
51.666718	164.0
51.689621	196.0
51.709648	224.0
51.726402	160.0
51.753746	184.0
51.766636	160.0
51.78112	208.0
51.80101	124.0
51.811039	328.0
51.832531	132.0
51.846863	176.0
51.892735	160.0
51.906494	336.0
51.937195	140.0
51.950104	192.0
51.968758	120.0
52.027569	164.0
52.029289	160.0
52.036758	32.0
52.042896	172.0
52.073013	244.0
52.085819	200.0
52.106598	116.0
52.123695	120.0
52.141087	64.0
52.163006	144.0
52.182056	80.0
52.199772	332.0
52.219654	192.0
52.237427	112.0
52.261887	152.0
52.296425	124.0
52.31802	104.0
52.346817	184.0
52.36055	224.0
52.372501	168.0
52.37793	140.0
52.42461	212.0
52.44479	232.0
52.45488	148.0
52.475063	164.0
52.487175	160.0
52.502464	228.0
52.524097	180.0
52.535641	40.0
52.580425	168.0
52.625126	148.0
52.675674	152.0
52.69479	104.0
52.735535	188.0
52.756603	204.0
52.768169	220.0
52.849171	88.0
52.864708	168.0
52.904171	144.0
52.940369	80.0
52.975132	176.0
52.985703	188.0
53.005562	224.0
53.027298	256.0
53.051941	108.0
53.072243	388.0
53.096615	248.0
53.117203	204.0
53.12669	184.0
53.137512	128.0
53.189758	88.0
53.199921	180.0
53.231865	128.0
53.250275	160.0
53.26963	192.0
53.2798	140.0
53.308861	132.0
53.330662	160.0
53.35062	148.0
53.3536	108.0
53.377186	128.0
53.388313	160.0
53.394413	104.0
53.399406	144.0
53.419365	148.0
53.468708	88.0
53.522705	64.0
53.558884	176.0
53.592625	88.0
53.60997	208.0
53.62323	100.0
53.63982	220.0
53.66259	100.0
53.693214	200.0
53.703423	184.0
53.71801	132.0
53.761703	156.0
53.796394	180.0
53.807037	112.0
53.828941	128.0
53.843544	116.0
53.8713	156.0
53.888832	232.0
53.899059	104.0
53.912212	64.0
53.941376	184.0
53.951679	152.0
53.97361	196.0
53.983849	192.0
53.995876	268.0
54.005264	168.0
54.08662	232.0
54.122787	148.0
54.150692	52.0
54.166805	176.0
54.177063	120.0
54.203434	164.0
54.218761	204.0
54.263535	160.0
54.297264	92.0
54.320732	160.0
54.365547	140.0
54.36797	144.0
54.388332	180.0
54.401447	76.0
54.412724	176.0
54.421024	180.0
54.439938	168.0
54.485161	44.0
54.501324	248.0
54.526306	164.0
54.536594	80.0
54.550579	156.0
54.57761	348.0
54.588013	148.0
54.622986	160.0
54.643951	224.0
54.674854	172.0
54.695461	172.0
54.715336	156.0
54.744598	160.0
54.762074	184.0
54.78146	80.0
54.82983	124.0
54.886993	140.0
54.900265	124.0
54.917965	152.0
54.930305	164.0
54.947468	184.0
54.968575	132.0
54.998867	232.0
55.025066	188.0
55.062614	100.0
55.109886	192.0
55.123734	140.0
55.155701	184.0
55.172241	128.0
55.185272	136.0
55.227402	160.0
55.245911	132.0
55.269585	120.0
55.285664	120.0
55.310165	196.0
55.321388	220.0
55.333233	144.0
55.355042	420.0
55.419666	180.0
55.451019	188.0
55.495476	112.0
55.555317	156.0
55.568138	164.0
55.638268	184.0
55.663021	156.0
55.681721	136.0
55.698059	68.0
55.728828	152.0
55.751549	136.0
55.769756	160.0
55.793171	152.0
55.816959	140.0
55.866043	36.0
55.878742	224.0
55.906219	52.0
55.955837	204.0
55.976189	104.0
55.995193	240.0
56.007759	204.0
56.031303	60.0
56.044712	144.0
56.062595	100.0
56.082893	200.0
56.08625	124.0
56.092697	308.0
56.165474	204.0
56.198296	56.0
56.217697	236.0
56.236698	100.0
56.277409	168.0
56.293835	184.0
56.310261	144.0
56.325199	188.0
56.359562	208.0
56.432644	148.0
56.44643	168.0
56.470467	196.0
56.524052	148.0
56.558002	152.0
56.575054	160.0
56.58625	188.0
56.615372	128.0
56.630348	164.0
56.643017	172.0
56.663307	132.0
56.696274	180.0
56.791908	148.0
56.80793	176.0
56.938076	144.0
56.970871	196.0
57.038498	164.0
57.080662	368.0
57.115189	208.0
57.130234	72.0
57.149792	48.0
57.17086	276.0
57.231075	84.0
57.246136	188.0
57.26722	160.0
57.284119	172.0
57.304882	148.0
57.31995	148.0
57.332298	248.0
57.353107	172.0
57.382637	204.0
57.440571	200.0
57.47139	136.0
57.505455	148.0
57.549236	96.0
57.603607	140.0
57.621738	100.0
57.651958	172.0
57.668583	108.0
57.694984	168.0
57.71545	144.0
57.733212	236.0
57.777466	164.0
57.792526	168.0
57.822861	192.0
57.840469	272.0
57.883419	120.0
57.915226	68.0
57.948555	132.0
57.964775	176.0
57.989162	176.0
58.041874	248.0
58.080452	116.0
58.092587	132.0
58.103207	208.0
58.119896	232.0
58.141647	144.0
58.16391	188.0
58.201866	144.0
58.232239	136.0
58.248951	184.0
58.270218	128.0
58.289974	128.0
58.316753	204.0
58.327404	172.0
58.349377	148.0
58.365669	180.0
58.391834	164.0
58.434429	160.0
58.454208	192.0
58.517151	284.0
58.544029	204.0
58.566471	192.0
58.592987	144.0
58.638489	184.0
58.678886	168.0
58.702389	180.0
58.743706	168.0
58.758255	164.0
58.80925	168.0
58.820396	280.0
58.839001	172.0
58.871922	80.0
58.896358	212.0
58.917702	268.0
58.939762	216.0
58.964661	160.0
58.977818	156.0
59.026272	96.0
59.069447	192.0
59.088985	120.0
59.099697	156.0
59.1502	140.0
59.176399	36.0
59.200729	124.0
59.225849	160.0
59.241451	164.0
59.271198	116.0
59.29134	228.0
59.311478	184.0
59.326378	188.0
59.360146	168.0
59.384346	160.0
59.396557	152.0
59.419933	120.0
59.435276	184.0
59.449085	128.0
59.464436	188.0
59.498207	148.0
59.610336	188.0
59.628265	120.0
59.646873	176.0
59.658195	380.0
59.687199	284.0
59.700439	164.0
59.705406	100.0
59.710766	148.0
59.737034	120.0
59.74506	136.0
59.7477	204.0
59.768726	116.0
59.801048	100.0
59.82106	116.0
59.878033	172.0
59.911694	136.0
59.936604	136.0
59.978214	224.0
59.99823	188.0
60.046032	164.0
60.093853	180.0
60.138611	148.0
60.160221	128.0
60.181835	92.0
60.212723	140.0
60.235298	204.0
60.264687	452.0
60.291325	128.0
60.306973	112.0
60.330162	200.0
60.347168	152.0
60.381191	176.0
60.399754	172.0
60.436882	132.0
60.449265	124.0
60.477253	140.0
60.511353	72.0
60.53286	140.0
60.551445	140.0
60.580875	164.0
60.623856	168.0
60.666111	208.0
60.717281	180.0
60.738331	288.0
60.768272	152.0
60.846764	152.0
60.864712	160.0
60.915916	124.0
60.939911	224.0
60.987923	280.0
61.012821	200.0
61.029427	260.0
61.054806	236.0
61.076569	180.0
61.094749	216.0
61.128983	96.0
61.14299	236.0
61.16011	192.0
61.227062	180.0
61.269119	216.0
61.295406	184.0
61.314312	140.0
61.367641	236.0
61.4063	212.0
61.425476	164.0
61.44062	188.0
61.492233	160.0
61.509438	164.0
61.54649	164.0
61.562073	292.0
61.577991	144.0
61.60022	156.0
61.619091	168.0
61.654549	168.0
61.674568	208.0
61.692062	136.0
61.706135	164.0
61.725151	320.0
61.753048	192.0
61.778343	164.0
61.808098	128.0
61.82909	184.0
61.85305	216.0
61.89077	276.0
61.925179	144.0
61.933346	172.0
61.967522	172.0
62.000427	112.0
62.020088	184.0
62.035549	148.0
62.06115	196.0
62.067272	144.0
62.083523	184.0
62.096069	108.0
62.107048	152.0
62.136257	200.0
62.154114	112.0
62.177654	320.0
62.198059	228.0
62.240948	156.0
62.307991	116.0
62.333134	160.0
62.347275	320.0
62.372967	220.0
62.398087	236.0
62.416809	156.0
62.428635	176.0
62.458912	160.0
62.498245	184.0
62.533192	116.0
62.564022	192.0
62.585274	236.0
62.608032	200.0
62.644669	72.0
62.66172	204.0
62.690365	296.0
62.706123	160.0
62.72657	136.0
62.75275	208.0
62.789688	128.0
62.816505	180.0
62.828506	348.0
62.832279	212.0
62.837837	260.0
62.887512	136.0
62.900143	124.0
62.919086	128.0
62.946899	156.0
62.996471	200.0
63.023331	104.0
63.054939	120.0
63.082657	200.0
63.111851	160.0
63.153477	212.0
63.183975	160.0
63.219975	252.0
63.241577	96.0
63.25779	192.0
63.270576	164.0
63.308075	168.0
63.333599	176.0
63.365223	156.0
63.412643	176.0
63.425323	128.0
63.43959	148.0
63.468132	120.0
63.486214	288.0
63.503021	144.0
63.552605	220.0
63.595051	108.0
63.609337	188.0
63.62038	184.0
63.67411	164.0
63.69191	116.0
63.740463	200.0
63.745193	112.0
63.749496	148.0
63.779308	68.0
63.801918	180.0
63.840897	136.0
63.860401	256.0
63.902431	216.0
63.929611	144.0
63.948788	168.0
63.97657	184.0
64.005272	144.0
64.019562	144.0
64.04586	156.0
64.086464	136.0
64.097618	200.0
64.11834	140.0
64.134277	176.0
64.180511	308.0
64.199646	40.0
64.220383	232.0
64.234741	92.0
64.253883	48.0
64.338623	208.0
64.35997	176.0
64.378853	140.0
64.416725	72.0
64.42791	160.0
64.442627	224.0
64.461464	180.0
64.474251	144.0
64.487038	132.0
64.503761	164.0
64.602448	156.0
64.635773	100.0
64.683479	208.0
64.723206	212.0
64.768654	44.0
64.800339	324.0
64.82682	84.0
64.843201	176.0
64.857323	120.0
64.895264	84.0
64.919319	304.0
64.939392	248.0
65.002319	168.0
65.020393	140.0
65.039658	176.0
65.057846	144.0
65.07016	76.0
65.098526	156.0
65.137611	200.0
65.164917	192.0
65.17617	124.0
65.208878	228.0
65.237244	136.0
65.273254	116.0
65.284874	228.0
65.311707	264.0
65.326385	220.0
65.338562	212.0
65.355873	132.0
65.407768	192.0
65.443016	116.0
65.450012	176.0
65.475395	128.0
65.495529	148.0
65.567535	212.0
65.612366	136.0
65.635056	140.0
65.683807	228.0
65.701736	184.0
65.741409	188.0
65.758247	148.0
65.794785	184.0
65.810349	136.0
65.864731	180.0
65.878654	232.0
65.894814	140.0
65.930367	164.0
65.959549	140.0
65.969551	196.0
65.988556	300.0
66.000351	164.0
66.038689	136.0
66.059258	280.0
66.065025	200.0
66.102852	140.0
66.112862	588.0
66.127686	164.0
66.158005	220.0
66.173012	164.0
66.198921	192.0
66.218285	168.0
66.24427	188.0
66.284462	144.0
66.306114	196.0
66.336197	188.0
66.341125	136.0
66.368965	200.0
66.390152	136.0
66.409615	152.0
66.438812	152.0
66.456665	364.0
66.469643	140.0
66.506973	172.0
66.539444	64.0
66.562172	236.0
66.588158	192.0
66.619019	164.0
66.641281	160.0
66.653145	252.0
66.697151	156.0
66.784836	132.0
66.815742	156.0
66.834305	176.0
66.854202	208.0
66.866188	220.0
66.89386	120.0
66.927124	168.0
66.95974	164.0
66.986832	180.0
67.01545	152.0
67.033936	144.0
67.09214	124.0
67.107285	104.0
67.138275	48.0
67.184532	364.0
67.196678	164.0
67.253418	320.0
67.273163	72.0
67.291664	136.0
67.319313	268.0
67.33902	132.0
67.35862	232.0
67.432152	280.0
67.448502	148.0
67.463211	220.0
67.486923	224.0
67.527199	216.0
67.556152	188.0
67.583046	300.0
67.607155	196.0
67.633347	148.0
67.644806	188.0
67.662811	180.0
67.692505	180.0
67.711937	156.0
67.725082	156.0
67.745773	188.0
67.761086	180.0
67.772552	212.0
67.805328	120.0
67.879379	188.0
67.89386	148.0
67.908623	96.0
67.923386	216.0
67.977531	112.0
68.025131	164.0
68.041832	184.0
68.07402	144.0
68.099022	156.0
68.110519	172.0
68.164742	144.0
68.184464	112.0
68.204185	228.0
68.233772	152.0
68.260086	80.0
68.283112	132.0
68.317604	228.0
68.335991	164.0
68.365372	144.0
68.41301	132.0
68.439491	176.0
68.463036	148.0
68.481735	192.0
68.551468	88.0
68.571243	160.0
68.59597	76.0
68.615753	156.0
68.63884	140.0
68.675644	316.0
68.699867	120.0
68.71801	96.0
68.775772	108.0
68.788475	300.0
68.812096	164.0
68.835213	140.0
68.896324	136.0
68.911194	196.0
68.944244	144.0
68.964561	204.0
68.996513	240.0
69.016396	180.0
69.033966	148.0
69.069908	160.0
69.083138	196.0
69.131126	124.0
69.146019	128.0
69.187401	208.0
69.200653	140.0
69.230453	128.0
69.26403	148.0
69.29837	120.0
69.313286	84.0
69.328033	156.0
69.352959	196.0
69.368317	220.0
69.380775	156.0
69.416069	184.0
69.448479	180.0
69.483963	184.0
69.52224	160.0
69.540497	180.0
69.575356	224.0
69.595757	208.0
69.620193	144.0
69.646568	68.0
69.690384	220.0
69.7099	132.0
69.738152	188.0
69.75145	188.0
69.765564	180.0
69.770721	88.0
69.775879	144.0
69.816299	156.0
69.840561	204.0
69.874519	152.0
69.917786	172.0
69.931099	168.0
69.956749	176.0
69.991508	140.0
70.004356	144.0
70.03933	136.0
70.053711	324.0
70.075363	188.0
70.100075	236.0
70.112648	204.0
70.139313	108.0
70.176651	232.0
70.196579	244.0
70.281578	228.0
70.297066	200.0
70.316124	184.0
70.370201	244.0
70.387909	252.0
70.420807	252.0
70.484795	284.0
70.506073	212.0
70.518715	176.0
70.556999	164.0
70.586311	280.0
70.610184	224.0
70.645081	204.0
70.65773	140.0
70.685463	160.0
70.710571	128.0
70.739952	232.0
70.775917	204.0
70.80098	172.0
70.826103	132.0
70.941734	180.0
70.966965	160.0
70.990356	188.0
71.010483	164.0
71.040115	240.0
71.056351	200.0
71.074234	104.0
71.106117	168.0
71.17054	280.0
71.18335	164.0
71.200142	144.0
71.227013	36.0
71.253899	176.0
71.292542	216.0
71.305992	156.0
71.358025	180.0
71.362869	172.0
71.36898	324.0
71.401733	152.0
71.412048	156.0
71.455658	296.0
71.475845	124.0
71.491837	288.0
71.52919	156.0
71.55159	172.0
71.566467	168.0
71.572227	140.0
71.579063	204.0
71.621437	160.0
71.667809	272.0
71.687904	160.0
71.698608	204.0
71.71331	212.0
71.746147	92.0
71.769966	172.0
71.813423	204.0
71.833534	68.0
71.89209	152.0
71.903908	328.0
71.919098	140.0
71.974808	96.0
72.017029	144.0
72.035614	40.0
72.067711	140.0
72.085274	224.0
72.097984	176.0
72.121796	184.0
72.161789	152.0
72.197884	132.0
72.209717	176.0
72.239784	244.0
72.27916	172.0
72.301079	156.0
72.314621	144.0
72.359741	196.0
72.378952	200.0
72.40097	144.0
72.481018	192.0
72.496674	180.0
72.524658	180.0
72.539917	116.0
72.560257	280.0
72.608459	160.0
72.650711	228.0
72.671097	136.0
72.711235	160.0
72.733047	188.0
72.769768	224.0
72.784233	160.0
72.848778	144.0
72.864067	196.0
72.8787	204.0
72.903145	188.0
72.942238	148.0
72.972084	72.0
73.025558	48.0
73.041206	180.0
73.084633	156.0
73.154884	152.0
73.168465	168.0
73.200119	184.0
73.225189	140.0
73.240028	132.0
73.276588	96.0
73.329292	176.0
73.364319	180.0
73.396439	176.0
73.414322	396.0
73.427521	172.0
73.439461	188.0
73.461639	192.0
73.480408	148.0
73.517944	128.0
73.54184	156.0
73.575912	180.0
73.615257	168.0
73.634041	200.0
73.655823	144.0
73.669914	216.0
73.695541	192.0
73.712631	172.0
73.736557	84.0
73.808357	124.0
73.847694	184.0
73.943245	156.0
73.965759	176.0
73.988014	176.0
74.005371	176.0
74.082214	164.0
74.126762	160.0
74.14241	160.0
74.162079	224.0
74.198578	200.0
74.217613	120.0
74.257057	160.0
74.278847	216.0
74.318817	112.0
74.345055	180.0
74.36515	112.0
74.406349	104.0
74.428673	176.0
74.442413	304.0
74.464737	140.0
74.505966	212.0
74.520721	348.0
74.534668	176.0
74.553406	224.0
74.597008	184.0
74.615959	128.0
74.696426	132.0
74.717438	224.0
74.741524	316.0
74.774223	168.0
74.825867	188.0
74.860306	136.0
74.896225	140.0
74.915947	184.0
74.956963	112.0
74.977455	160.0
74.991241	160.0
75.008484	64.0
75.031052	172.0
75.057678	192.0
75.107544	188.0
75.168884	60.0
75.20858	180.0
75.243111	168.0
75.263824	368.0
75.303146	172.0
75.324272	160.0
75.350189	176.0
75.389931	156.0
75.419319	140.0
75.440269	132.0
75.460709	204.0
75.5075	84.0
75.543823	136.0
75.562851	140.0
75.603065	168.0
75.626884	96.0
75.656311	192.0
75.721359	128.0
75.743698	140.0
75.805275	204.0
75.837105	224.0
75.950912	76.0
75.96653	116.0
75.983086	212.0
76.006432	160.0
76.02552	156.0
76.085793	204.0
76.126213	144.0
76.150528	160.0
76.182587	120.0
76.268684	144.0
76.312027	272.0
76.328026	144.0
76.339966	156.0
76.374756	88.0
76.406067	76.0
76.430428	68.0
76.465233	140.0
76.502747	284.0
76.559769	200.0
76.592339	184.0
76.637642	88.0
76.681206	112.0
76.719559	144.0
76.775352	48.0
76.796288	376.0
76.815773	140.0
76.82943	48.0
76.848114	332.0
76.883247	176.0
76.907959	40.0
76.928902	188.0
76.972061	420.0
77.018356	432.0
77.069817	224.0
77.115814	140.0
77.133293	120.0
77.176651	40.0
77.21373	92.0
77.233826	188.0
77.257462	184.0
77.283707	144.0
77.307816	200.0
77.379974	212.0
77.434258	136.0
77.493797	160.0
77.514534	252.0
77.539383	164.0
77.554054	140.0
77.595596	288.0
77.629761	196.0
77.668808	236.0
77.701996	164.0
77.756866	132.0
77.777931	76.0
77.81192	188.0
77.855896	168.0
77.88504	92.0
77.902611	148.0
77.937263	160.0
77.977379	312.0
78.036186	96.0
78.050247	188.0
78.067833	184.0
78.094215	192.0
78.107689	200.0
78.136436	116.0
78.168106	172.0
78.191833	364.0
78.21563	132.0
78.231476	180.0
78.285149	224.0
78.319519	188.0
78.419479	176.0
78.435822	224.0
78.486954	152.0
78.509628	196.0
78.529282	60.0
78.557014	440.0
78.603378	156.0
78.646034	140.0
78.689865	152.0
78.718178	128.0
78.756973	268.0
78.778175	120.0
78.797607	156.0
78.821167	168.0
78.847084	84.0
78.920006	208.0
78.936836	172.0
78.94352	132.0
78.946907	244.0
78.962013	208.0
79.031006	136.0
79.060982	276.0
79.100029	164.0
79.131897	132.0
79.151161	168.0
79.223991	220.0
79.255882	316.0
79.274261	172.0
79.295761	56.0
79.33387	128.0
79.349068	224.0
79.385292	260.0
79.398956	176.0
79.422935	160.0
79.456245	172.0
79.475761	156.0
79.546753	160.0
79.559181	148.0
79.57338	136.0
79.607124	76.0
79.630211	180.0
79.642647	168.0
79.664017	132.0
79.672691	92.0
79.686646	96.0
79.738594	168.0
79.761353	164.0
79.795479	152.0
79.836372	132.0
79.87677	152.0
79.980492	124.0
80.046371	120.0
80.058838	168.0
80.071304	172.0
80.112274	40.0
80.137215	172.0
80.171074	232.0
80.190727	156.0
80.223648	268.0
80.244156	148.0
80.267342	120.0
80.311928	216.0
80.356529	208.0
80.395782	128.0
80.418983	164.0
80.447548	60.0
80.470757	116.0
80.503021	120.0
80.562607	216.0
80.604729	168.0
80.661919	120.0
80.701248	84.0
80.741554	164.0
80.775375	324.0
80.796043	148.0
80.822884	212.0
80.855095	148.0
80.903427	124.0
80.918518	160.0
81.019836	172.0
81.043129	160.0
81.055672	112.0
81.139915	176.0
81.170403	148.0
81.184746	168.0
81.211266	188.0
81.213928	148.0
81.221252	228.0
81.251114	108.0
81.286385	140.0
81.315804	136.0
81.38298	124.0
81.42524	128.0
81.454529	184.0
81.482727	164.0
81.501747	212.0
81.516594	188.0
81.536346	176.0
81.578552	236.0
81.599548	120.0
81.626526	116.0
81.649292	252.0
81.683861	204.0
81.702065	152.0
81.730858	92.0
81.78125	344.0
81.793846	84.0
81.811852	36.0
81.860466	52.0
81.888763	172.0
81.922539	156.0
81.96302	280.0
81.979362	184.0
82.006401	156.0
82.02623	92.0
82.064476	148.0
82.110977	128.0
82.156876	188.0
82.175919	172.0
82.212975	112.0
82.280602	132.0
82.296852	32.0
82.33709	296.0
82.356445	148.0
82.372704	72.0
82.394638	176.0
82.418015	152.0
82.462761	148.0
82.491974	300.0
82.504631	92.0
82.522713	144.0
82.538422	256.0
82.564301	128.0
82.601089	180.0
82.633041	480.0
82.663971	128.0
82.678467	220.0
82.693466	196.0
82.708214	152.0
82.725548	176.0
82.757881	180.0
82.778641	176.0
82.792343	112.0
82.862984	136.0
82.881104	104.0
82.904663	108.0
82.959038	152.0
83.009125	148.0
83.059776	208.0
83.082367	416.0
83.115021	236.0
83.131256	72.0
83.162209	200.0
83.179672	264.0
83.225754	160.0
83.243912	160.0
83.292946	96.0
83.3311	100.0
83.34745	268.0
83.412262	164.0
83.443787	52.0
83.461548	172.0
83.481972	152.0
83.498344	292.0
83.542	160.0
83.576004	192.0
83.600227	168.0
83.634804	164.0
83.663933	152.0
83.686943	244.0
83.699692	100.0
83.727814	148.0
83.748802	152.0
83.762276	72.0
83.778671	176.0
83.79689	152.0
83.818756	148.0
83.836975	108.0
83.853752	236.0
83.871246	292.0
83.900772	96.0
83.913536	44.0
83.939354	164.0
83.967064	176.0
83.986488	128.0
84.003632	160.0
84.044868	140.0
84.059464	376.0
84.141602	60.0
84.181778	180.0
84.211594	196.0
84.267632	200.0
84.312767	148.0
84.357185	140.0
84.398254	224.0
84.433075	156.0
84.448608	152.0
84.46463	148.0
84.483368	244.0
84.512642	184.0
84.545586	148.0
84.577156	128.0
84.621964	44.0
84.637779	132.0
84.805664	192.0
84.84539	148.0
84.90284	120.0
84.938377	192.0
84.950523	224.0
85.001587	116.0
85.036774	184.0
85.067978	100.0
85.102859	168.0
85.118088	96.0
85.132576	188.0
85.194695	140.0
85.232361	240.0
85.253494	116.0
85.288414	164.0
85.310898	156.0
85.371155	100.0
85.387428	184.0
85.402863	132.0
85.464966	188.0
85.489021	172.0
85.507294	108.0
85.538589	164.0
85.563751	132.0
85.638596	204.0
85.706184	64.0
85.719086	184.0
85.731987	176.0
85.749573	160.0
85.768852	160.0
85.814941	188.0
85.83522	264.0
85.886864	192.0
85.912689	96.0
85.961662	192.0
85.984146	160.0
86.002296	156.0
86.021042	112.0
86.051109	148.0
86.067726	168.0
86.08989	88.0
86.106514	208.0
86.13237	148.0
86.182251	128.0
86.20443	96.0
86.226608	112.0
86.263573	124.0
86.284355	200.0
86.308701	256.0
86.337532	140.0
86.38633	84.0
86.41523	172.0
86.437431	164.0
86.457069	164.0
86.479012	112.0
86.518875	168.0
86.55719	144.0
86.573959	160.0
86.611465	132.0
86.62999	92.0
86.657784	160.0
86.692993	92.0
86.731743	128.0
86.75972	148.0
86.805984	84.0
86.833893	176.0
86.848732	192.0
86.863571	136.0
86.878418	168.0
86.908104	168.0
86.922943	212.0
86.935936	48.0
86.956352	140.0
86.999664	168.0
87.013733	224.0
87.02549	164.0
87.106758	196.0
87.154167	200.0
87.197807	60.0
87.21447	120.0
87.231262	128.0
87.275887	144.0
87.300056	148.0
87.337257	92.0
87.350281	120.0
87.374466	124.0
87.417511	120.0
87.454483	152.0
87.473099	152.0
87.499451	372.0
87.530815	140.0
87.556892	104.0
87.579239	124.0
87.599731	124.0
87.627678	296.0
87.653954	156.0
87.708351	152.0
87.724937	128.0
87.746964	184.0
87.76001	172.0
87.810364	152.0
87.874802	140.0
87.901779	316.0
87.93351	124.0
87.96151	184.0
87.983002	296.0
88.00663	188.0
88.036194	144.0
88.051132	152.0
88.064209	140.0
88.077286	236.0
88.10157	52.0
88.137016	140.0
88.155754	168.0
88.180153	148.0
88.211189	140.0
88.232391	124.0
88.260437	120.0
88.333664	208.0
88.368347	168.0
88.394089	152.0
88.406349	256.0
88.437683	168.0
88.440582	124.0
88.448265	204.0
88.470863	144.0
88.508255	140.0
88.521828	180.0
88.548637	48.0
88.57299	204.0
88.593636	204.0
88.607811	188.0
88.664803	180.0
88.74086	176.0
88.754784	116.0
88.77449	168.0
88.813553	84.0
88.827271	148.0
88.855568	208.0
88.884216	296.0
88.899231	120.0
88.914124	124.0
88.940521	56.0
88.972435	116.0
89.003922	52.0
89.047554	152.0
89.071968	240.0
89.120903	168.0
89.148064	56.0
89.164909	156.0
89.190353	128.0
89.21479	152.0
89.227951	116.0
89.26638	228.0
89.288124	132.0
89.330841	220.0
89.384071	196.0
89.400917	168.0
89.407166	148.0
89.414726	208.0
89.436768	164.0
89.461243	152.0
89.475105	132.0
89.489479	128.0
89.512932	176.0
89.567039	180.0
89.585892	148.0
89.61235	224.0
89.628555	312.0
89.645828	132.0
89.667305	240.0
89.696724	132.0
89.7118	200.0
89.726547	228.0
89.743851	172.0
89.787224	56.0
89.836273	188.0
89.863953	148.0
89.892876	172.0
89.931526	152.0
89.945724	144.0
89.994133	156.0
90.009911	120.0
90.056839	184.0
90.072777	212.0
90.110023	168.0
90.145927	132.0
90.19696	196.0
90.222855	212.0
90.240135	148.0
90.243492	124.0
90.264359	80.0
90.285828	112.0
90.379852	148.0
90.397697	188.0
90.434624	124.0
90.445923	208.0
90.459221	200.0
90.49086	208.0
90.562157	372.0
90.591217	176.0
90.624756	280.0
90.702377	156.0
90.736504	48.0
90.751671	152.0
90.780113	172.0
90.795288	144.0
90.818047	148.0
90.854614	248.0
90.880653	44.0
90.907219	132.0
90.981247	128.0
91.002129	216.0
91.034416	176.0
91.052879	336.0
91.129395	140.0
91.152191	80.0
91.228218	152.0
91.24662	100.0
91.26815	156.0
91.28302	200.0
91.309296	360.0
91.344223	156.0
91.372765	132.0
91.395592	148.0
91.429848	196.0
91.45269	100.0
91.500282	176.0
91.526939	188.0
91.585808	180.0
91.650749	180.0
91.708992	208.0
91.788002	84.0
91.838737	152.0
91.866196	168.0
91.933693	236.0
92.008049	172.0
92.036064	140.0
92.058052	164.0
92.081665	132.0
92.127747	184.0
92.15831	116.0
92.191422	148.0
92.224831	196.0
92.250053	232.0
92.26535	152.0
92.282555	116.0
92.308289	200.0
92.322708	128.0
92.347572	104.0
92.380096	148.0
92.407478	140.0
92.443237	116.0
92.508316	116.0
92.532188	188.0
92.572937	192.0
92.619385	256.0
92.646202	264.0
92.676857	160.0
92.702171	200.0
92.727638	96.0
92.75222	136.0
92.788025	196.0
92.80336	136.0
92.828781	236.0
92.849388	224.0
92.875298	188.0
92.891586	180.0
92.908852	156.0
92.938721	148.0
92.945961	224.0
93.010559	132.0
93.04393	220.0
93.087357	188.0
93.142021	192.0
93.145592	88.0
93.153305	132.0
93.186005	136.0
93.21138	172.0
93.26329	252.0
93.305244	204.0
93.323662	152.0
93.347649	116.0
93.378334	292.0
93.400948	176.0
93.416718	168.0
93.423088	60.0
93.444397	312.0
93.47953	108.0
93.51886	64.0
93.535339	152.0
93.556519	192.0
93.573845	228.0
93.588799	188.0
93.610435	212.0
93.625839	400.0
93.672066	140.0
93.697113	44.0
93.733353	232.0
93.745804	236.0
93.760704	156.0
93.782967	192.0
93.823509	208.0
93.903374	152.0
93.946541	148.0
93.995979	208.0
94.057739	188.0
94.074608	92.0
94.092491	176.0
94.119522	156.0
94.16201	120.0
94.199066	260.0
94.218025	128.0
94.233009	196.0
94.240219	148.0
94.344734	220.0
94.365631	152.0
94.397835	156.0
94.450005	172.0
94.49485	156.0
94.555573	208.0
94.583527	116.0
94.597076	136.0
94.665459	148.0
94.711327	184.0
94.728523	228.0
94.735542	200.0
94.768974	228.0
94.797356	156.0
94.817413	164.0
94.820976	156.0
94.843094	160.0
94.885742	112.0
94.956642	176.0
94.985535	148.0
95.023453	208.0
95.063469	196.0
95.1166	100.0
95.130188	48.0
95.161255	136.0
95.180672	212.0
95.194267	136.0
95.209801	140.0
95.235054	56.0
95.262695	104.0
95.283615	156.0
95.314102	192.0
95.330254	192.0
95.361351	200.0
95.380791	240.0
95.41198	180.0
95.437164	100.0
95.454666	276.0
95.474419	104.0
95.494133	192.0
95.513245	136.0
95.581108	100.0
95.6063	144.0
95.63755	172.0
95.684273	240.0
95.703743	128.0
95.725922	184.0
95.775803	160.0
95.815712	140.0
95.830353	164.0
95.851898	200.0
95.877121	148.0
95.891983	128.0
95.9161	164.0
95.939491	176.0
96.067879	380.0
96.097656	212.0
96.175537	140.0
96.273163	160.0
96.311989	168.0
96.325897	244.0
96.361061	64.0
96.431412	180.0
96.452911	176.0
96.518082	84.0
96.548164	140.0
96.572189	56.0
96.603676	212.0
96.6586	216.0
96.691544	196.0
96.722656	188.0
96.751244	456.0
96.783554	104.0
96.906502	208.0
96.951172	184.0
96.985344	160.0
97.012787	176.0
97.040237	88.0
97.102501	192.0
97.118683	192.0
97.179497	180.0
97.20108	176.0
97.222847	88.0
97.256035	80.0
97.287445	164.0
97.339523	236.0
97.36898	160.0
97.389427	184.0
97.411377	220.0
97.434738	76.0
97.448494	148.0
97.489761	80.0
97.514702	296.0
97.600075	200.0
97.633278	128.0
97.655518	232.0
97.700157	108.0
97.745407	136.0
97.761993	176.0
97.825676	152.0
97.833611	188.0
97.838188	144.0
97.867294	176.0
97.991539	172.0
98.040802	196.0
98.077278	172.0
98.190094	144.0
98.226151	156.0
98.256821	196.0
98.301125	100.0
98.332703	204.0
98.346519	80.0
98.370201	192.0
98.389946	44.0
98.410751	156.0
98.437035	180.0
98.492638	192.0
98.51239	140.0
98.542023	144.0
98.572487	220.0
98.623055	228.0
98.644745	156.0
98.689262	144.0
98.723129	168.0
98.750038	180.0
98.767395	120.0
98.787079	156.0
98.795319	140.0
98.826752	84.0
98.848518	220.0
98.904686	148.0
98.929008	72.0
98.945503	132.0
98.970894	196.0
99.021164	156.0
99.036598	192.0
99.054428	232.0
99.089142	344.0
99.153503	268.0
99.167252	128.0
99.193146	116.0
99.242706	128.0
99.268372	408.0
99.297516	176.0
99.347824	104.0
99.387512	100.0
99.426964	192.0
99.476822	148.0
99.538368	148.0
99.577866	140.0
99.611862	212.0
99.647034	204.0
99.685371	132.0
99.715622	128.0
99.764877	124.0
99.784538	176.0
99.86232	196.0
99.890213	184.0
99.941895	140.0
99.969757	156.0
99.999611	128.0
100.017525	148.0
100.035439	100.0
100.0774	204.0
100.109108	192.0
100.166115	148.0
100.244576	164.0
100.282776	124.0
100.298386	216.0
100.3582	176.0
100.375984	196.0
100.428001	204.0
100.458809	176.0
100.508034	172.0
100.543716	132.0
100.563683	160.0
100.591118	188.0
100.635544	160.0
100.666832	180.0
100.687469	216.0
100.703445	160.0
100.739403	148.0
100.756859	92.0
100.781357	188.0
100.831322	156.0
100.852913	388.0
100.879295	40.0
100.925278	164.0
100.945335	136.0
100.966759	184.0
100.980606	276.0
101.037605	176.0
101.073303	80.0
101.091064	132.0
101.095726	116.0
101.10183	156.0
101.129333	168.0
101.174301	232.0
101.195404	184.0
101.209785	152.0
101.23745	168.0
101.257477	176.0
101.315575	140.0
101.334961	124.0
101.342857	84.0
101.350677	176.0
101.383698	148.0
101.399734	200.0
101.415771	156.0
101.440536	56.0
101.467514	148.0
101.538078	144.0
101.567467	164.0
101.5802	236.0
101.600258	204.0
101.61631	204.0
101.678337	220.0
101.708626	60.0
101.817047	212.0
101.875298	132.0
101.911575	148.0
101.963776	124.0
102.021133	184.0
102.044884	196.0
102.106461	148.0
102.132614	160.0
102.153664	152.0
102.182907	148.0
102.202934	172.0
102.245285	160.0
102.263397	184.0
102.315742	176.0
102.360039	160.0
102.378159	176.0
102.435074	140.0
102.561081	132.0
102.579651	52.0
102.620178	160.0
102.654251	72.0
102.679153	188.0
102.735657	224.0
102.759148	100.0
102.801521	140.0
102.853233	244.0
102.861435	152.0
102.868622	196.0
102.907936	144.0
102.932739	160.0
102.977165	152.0
102.995346	188.0
103.011505	100.0
103.027664	256.0
103.055542	188.0
103.129303	204.0
103.179245	144.0
103.250023	252.0
103.27285	152.0
103.288452	176.0
103.320816	132.0
103.337006	336.0
103.403786	180.0
103.417953	120.0
103.432121	152.0
103.468094	156.0
103.484756	144.0
103.537407	80.0
103.555504	176.0
103.577919	188.0
103.592102	132.0
103.627663	116.0
103.657722	196.0
103.705574	184.0
103.742065	108.0
103.760315	240.0
103.778641	164.0
103.798836	104.0
103.813034	140.0
103.831284	96.0
103.84671	152.0
103.892136	168.0
103.906342	108.0
103.957497	152.0
103.995987	184.0
104.01593	160.0
104.097145	48.0
104.115417	184.0
104.129639	172.0
104.159119	148.0
104.18338	192.0
104.221054	152.0
104.294861	104.0
104.324715	192.0
104.339577	180.0
104.378517	148.0
104.444695	132.0
104.478683	192.0
104.526199	220.0
104.583008	172.0
104.601379	128.0
104.640106	164.0
104.649643	164.0
104.670601	176.0
104.68486	144.0
104.735779	148.0
104.760223	168.0
104.822479	180.0
104.883881	164.0
104.908989	120.0
104.984306	132.0
105.02813	180.0
105.045624	132.0
105.080307	140.0
105.102753	152.0
105.131729	192.0
105.167213	216.0
105.200722	76.0
105.221138	156.0
105.255844	80.0
105.291916	236.0
105.353889	152.0
105.410194	172.0
105.447884	136.0
105.466278	176.0
105.481552	404.0
105.498985	84.0
105.548058	112.0
105.564415	160.0
105.578735	172.0
105.609413	176.0
105.654678	208.0
105.697388	136.0
105.715828	180.0
105.764923	96.0
105.794579	136.0
105.812012	152.0
105.830963	172.0
105.851143	288.0
105.885567	152.0
105.984062	108.0
106.039391	136.0
106.053741	144.0
106.068436	96.0
106.102943	52.0
106.166512	120.0
106.182915	220.0
106.217789	132.0
106.232147	152.0
106.311623	136.0
106.321121	224.0
106.351166	128.0
106.385223	176.0
106.41275	208.0
106.475815	316.0
106.497177	144.0
106.572647	156.0
106.596771	192.0
106.642838	120.0
106.686005	124.0
106.71273	156.0
106.754807	188.0
106.772369	144.0
106.827904	120.0
106.869049	176.0
106.877396	144.0
106.885338	184.0
106.927002	100.0
106.967728	148.0
106.980293	160.0
107.031158	196.0
107.061455	172.0
107.088188	252.0
107.102806	192.0
107.144951	144.0
107.15937	60.0
107.212952	40.0
107.235619	160.0
107.260353	32.0
107.274788	136.0
107.349014	92.0
107.435646	164.0
107.452148	76.0
107.478973	228.0
107.493416	84.0
107.516708	320.0
107.560051	240.0
107.580109	432.0
107.598206	172.0
107.661964	180.0
107.68129	148.0
107.751526	144.0
107.790779	192.0
107.833748	76.0
107.863121	136.0
107.885864	88.0
107.918938	188.0
107.94281	176.0
107.961601	308.0
107.995461	348.0
108.026489	204.0
108.05545	136.0
108.096832	160.0
108.119598	368.0
108.136002	160.0
108.149086	196.0
108.229317	120.0
108.256241	196.0
108.279022	176.0
108.367104	160.0
108.382599	60.0
108.40625	184.0
108.453064	92.0
108.494797	212.0
108.53392	172.0
108.587837	60.0
108.614807	160.0
108.633476	220.0
108.662521	84.0
108.701942	116.0
108.747604	40.0
108.784889	204.0
108.816109	116.0
108.842964	300.0
108.881218	340.0
108.903328	180.0
108.998894	196.0
109.027992	152.0
109.052933	184.0
109.103363	216.0
109.166916	136.0
109.183922	164.0
109.212433	192.0
109.250481	132.0
109.291718	156.0
109.330589	56.0
109.35614	196.0
109.379501	156.0
109.404976	204.0
109.423225	200.0
109.496109	120.0
109.580681	120.0
109.613564	200.0
109.629143	168.0
109.654449	156.0
109.678009	172.0
109.709892	248.0
109.796227	108.0
109.898628	184.0
109.933922	148.0
109.953568	184.0
110.068489	204.0
110.091301	208.0
110.107201	240.0
110.133675	140.0
110.154007	224.0
110.219093	220.0
110.243332	200.0
110.303612	256.0
110.34124	308.0
110.374695	132.0
110.437439	196.0
110.456848	200.0
110.47509	196.0
110.497986	140.0
110.533676	112.0
110.548325	124.0
110.57135	188.0
110.610016	228.0
110.625771	264.0
110.659592	180.0
110.725563	240.0
110.761887	192.0
110.791214	104.0
110.836014	200.0
110.851982	180.0
110.879227	148.0
110.898087	52.0
110.914856	200.0
110.939064	168.0
110.97361	168.0
111.002914	156.0
111.055458	152.0
111.07003	180.0
111.107315	192.0
111.123093	164.0
111.166542	216.0
111.185432	140.0
111.221115	60.0
111.256798	144.0
111.284096	36.0
111.29982	188.0
111.323204	160.0
111.366745	168.0
111.384903	192.0
111.43412	196.0
111.47776	268.0
111.510078	220.0
111.542145	188.0
111.580345	128.0
111.599266	140.0
111.646385	256.0
111.696014	228.0
111.725922	204.0
111.775963	176.0
111.800491	252.0
111.904366	116.0
111.945839	304.0
111.963326	144.0
112.022301	180.0
112.039154	128.0
112.089722	108.0
112.123444	164.0
112.140305	104.0
112.17614	176.0
112.190895	48.0
112.219093	192.0
112.24572	164.0
112.261536	96.0
112.290009	212.0
112.365875	240.0
112.383835	168.0
112.416191	192.0
112.45031	176.0
112.466599	92.0
112.483238	200.0
112.501022	192.0
112.524483	176.0
112.555237	224.0
112.587593	168.0
112.678421	40.0
112.699554	92.0
112.731789	156.0
112.782677	188.0
112.82502	176.0
112.873192	164.0
112.90097	200.0
112.919411	128.0
112.94268	120.0
112.971214	192.0
113.014908	140.0
113.037788	172.0
113.040932	164.0
113.124031	160.0
113.144783	412.0
113.169205	140.0
113.198769	108.0
113.246445	188.0
113.27005	104.0
113.315269	184.0
113.347054	52.0
113.364937	128.0
113.37545	160.0
113.379738	192.0
113.414154	108.0
113.44455	152.0
113.462624	160.0
113.496414	156.0
113.529366	256.0
113.559059	120.0
113.57682	172.0
113.599541	276.0
113.679008	172.0
113.714798	276.0
113.752151	132.0
113.783073	156.0
113.798866	196.0
113.813728	164.0
113.83596	144.0
113.927505	192.0
113.956039	148.0
113.970909	136.0
113.989128	160.0
114.004509	168.0
114.079308	228.0
114.145576	120.0
114.170738	144.0
114.247314	252.0
114.287735	84.0
114.302635	160.0
114.34449	132.0
114.372971	80.0
114.402672	168.0
114.434608	32.0
114.453766	92.0
114.487839	144.0
114.504883	160.0
114.526176	176.0
114.551743	200.0
114.568787	76.0
114.595276	248.0
114.609993	164.0
114.628441	320.0
114.668053	96.0
114.671646	132.0
114.732887	112.0
114.752075	232.0
114.773399	120.0
114.796326	160.0
114.814949	232.0
114.854439	160.0
114.894974	244.0
114.955193	180.0
115.003807	144.0
115.020882	156.0
115.054665	2892.0
115.131783	108.0
115.151131	112.0
115.168221	164.0
115.188583	60.0
115.214165	276.0
115.23658	64.0
115.264359	280.0
115.342888	192.0
115.371078	152.0
115.392502	156.0
115.418266	208.0
115.437515	124.0
115.512375	152.0
115.529488	96.0
115.545441	168.0
115.562325	92.0
115.592468	120.0
115.725357	204.0
115.797066	280.0
115.823807	160.0
115.874184	160.0
115.913391	104.0
115.940613	136.0
115.966721	176.0
115.984474	128.0
116.057121	916.0
116.09156	232.0
116.141441	120.0
116.182915	140.0
116.277328	168.0
116.297554	264.0
116.366646	108.0
116.406143	76.0
116.43679	192.0
116.482208	192.0
116.524284	88.0
116.597343	260.0
116.628372	128.0
116.649971	140.0
116.67688	364.0
116.756439	108.0
116.786552	96.0
116.812363	168.0
116.834686	192.0
116.868698	196.0
116.889824	200.0
116.919952	64.0
116.943626	132.0
116.990982	164.0
117.016815	148.0
117.034042	164.0
117.069977	7792.0
117.120186	160.0
117.140907	188.0
117.163795	148.0
117.184822	56.0
117.21994	160.0
117.240845	136.0
117.259422	144.0
117.3125	232.0
117.328613	184.0
117.374504	260.0
117.389595	148.0
117.409294	212.0
117.474815	360.0
117.517326	160.0
117.564339	160.0
117.583763	184.0
117.616142	188.0
117.645485	184.0
117.670113	188.0
117.701035	360.0
117.722862	140.0
117.754333	116.0
117.815453	148.0
117.847221	164.0
117.86451	184.0
117.886841	216.0
117.908112	228.0
117.925018	88.0
117.944702	152.0
117.96331	140.0
118.002762	104.0
118.031334	160.0
118.073891	700.0
118.115303	44.0
118.142349	344.0
118.173073	200.0
118.221321	188.0
118.266769	128.0
118.286957	308.0
118.307747	224.0
118.329117	104.0
118.359863	300.0
118.424835	52.0
118.456696	156.0
118.476654	148.0
118.491989	180.0
118.574341	180.0
118.617401	208.0
118.661049	156.0
118.685715	204.0
118.702248	160.0
118.758636	56.0
118.806358	208.0
118.82135	176.0
118.849754	124.0
118.9561	120.0
119.006035	164.0
119.025581	152.0
119.046303	184.0
119.061028	184.0
119.142387	164.0
119.191147	164.0
119.205338	144.0
119.225479	204.0
119.28952	300.0
119.313766	180.0
119.336304	88.0
119.378555	200.0
119.384575	140.0
119.427643	164.0
119.453743	120.0
119.468971	148.0
119.508133	224.0
119.553833	160.0
119.619133	148.0
119.656143	236.0
119.674965	292.0
119.793343	132.0
119.817307	88.0
119.837631	220.0
119.87178	180.0
119.897934	168.0
119.942474	156.0
119.967308	160.0
120.020012	140.0
120.054901	216.0
120.082993	100.0
120.124702	152.0
120.174881	280.0
120.218521	292.0
120.233803	196.0
120.253441	132.0
120.268723	104.0
120.299286	72.0
120.328316	108.0
120.382568	168.0
120.445786	136.0
120.482735	256.0
120.584747	104.0
120.647209	108.0
120.69693	104.0
120.718796	120.0
120.74942	192.0
120.773125	200.0
120.816307	176.0
120.832542	180.0
120.849197	176.0
120.937584	60.0
120.961487	200.0
120.998878	180.0
121.036102	192.0
121.088661	156.0
121.112755	176.0
121.131554	248.0
121.180672	136.0
121.200394	212.0
121.224693	220.0
121.242027	144.0
121.25737	148.0
121.277092	136.0
121.294632	88.0
121.316551	204.0
121.364792	92.0
121.381508	128.0
121.448128	228.0
121.508369	208.0
121.56002	44.0
121.625862	52.0
121.656021	92.0
121.691032	280.0
121.708481	228.0
121.735992	176.0
121.768585	168.0
121.79055	132.0
121.811699	172.0
121.869637	88.0
121.900398	116.0
121.917984	44.0
121.933365	176.0
121.983925	164.0
122.03669	108.0
122.071869	216.0
122.105095	160.0
122.126122	200.0
122.142448	88.0
122.196884	168.0
122.247864	172.0
122.265465	168.0
122.298485	160.0
122.324753	184.0
122.410324	140.0
122.455673	172.0
122.504471	144.0
122.579552	148.0
122.599731	180.0
122.647713	300.0
122.686737	160.0
122.708237	160.0
122.766777	204.0
122.785255	112.0
122.820709	128.0
122.871445	148.0
122.902138	224.0
122.933746	272.0
122.975555	204.0
123.046906	96.0
123.072296	52.0
123.160637	128.0
123.215866	132.0
123.237961	184.0
123.254501	124.0
123.27533	136.0
123.295418	212.0
123.319733	196.0
123.350677	144.0
123.377205	172.0
123.403275	192.0
123.46344	156.0
123.513626	156.0
123.536919	164.0
123.560768	148.0
123.619827	116.0
123.666992	108.0
123.686913	200.0
123.706024	76.0
123.731186	148.0
123.758324	116.0
123.780991	244.0
123.802048	152.0
123.82338	180.0
123.844131	92.0
123.864067	192.0
123.890648	160.0
123.935822	248.0
123.963768	180.0
124.032478	172.0
124.081245	140.0
124.114914	152.0
124.152054	176.0
124.181343	144.0
124.283089	172.0
124.30851	204.0
124.374077	200.0
124.407379	212.0
124.42514	204.0
124.458382	148.0
124.493317	108.0
124.503967	116.0
124.565926	344.0
124.581245	124.0
124.585625	168.0
124.640587	140.0
124.656143	232.0
124.691055	192.0
124.725708	188.0
124.74234	256.0
124.840714	176.0
124.885139	144.0
124.956009	140.0
124.996384	144.0
125.047234	160.0
125.088509	204.0
125.105446	172.0
125.133293	188.0
125.149971	220.0
125.295837	176.0
125.323051	256.0
125.346649	204.0
125.371201	168.0
125.418999	188.0
125.45298	196.0
125.468582	192.0
125.510948	196.0
125.526558	172.0
125.573395	188.0
125.604622	224.0
125.65593	204.0
125.702789	148.0
125.733841	184.0
125.810127	132.0
125.838951	124.0
125.890312	148.0
125.955086	72.0
125.981888	52.0
126.003174	280.0
126.028809	136.0
126.04818	552.0
126.071266	168.0
126.088234	208.0
126.109261	192.0
126.13588	132.0
126.191978	56.0
126.224373	196.0
126.274719	264.0
126.299324	152.0
126.347847	168.0
126.367828	116.0
126.376633	72.0
126.386345	156.0
126.389404	212.0
126.422379	76.0
126.455948	128.0
126.496239	164.0
126.532059	156.0
126.55056	168.0
126.567886	144.0
126.594757	68.0
126.673286	512.0
126.699921	156.0
126.723518	108.0
126.747086	212.0
126.773979	132.0
126.79863	196.0
126.816559	140.0
126.865303	172.0
126.884209	68.0
126.900238	208.0
126.921928	204.0
126.95108	260.0
126.974373	124.0
126.995743	180.0
127.012405	164.0
127.051544	408.0
127.090164	220.0
127.105553	140.0
127.137222	144.0
127.163063	260.0
127.176941	120.0
127.197891	120.0
127.222588	132.0
127.24279	156.0
127.279869	164.0
127.337105	96.0
127.430511	228.0
127.464828	164.0
127.487633	188.0
127.506836	352.0
127.552925	176.0
127.582039	76.0
127.60788	188.0
127.638252	40.0
127.678726	204.0
127.701218	176.0
127.732712	208.0
127.802452	152.0
127.820457	156.0
127.850266	212.0
127.919136	168.0
127.951004	148.0
127.99379	156.0
128.009552	60.0
128.026917	124.0
128.061554	2892.0
128.145218	156.0
128.169495	180.0
128.187515	168.0
128.22583	168.0
128.250259	380.0
128.279922	172.0
128.304718	196.0
128.331787	116.0
128.363342	248.0
128.405075	240.0
128.454224	204.0
128.528015	312.0
128.56076	188.0
128.591644	248.0
128.654419	100.0
128.683029	208.0
128.713287	244.0
128.747345	176.0
128.791245	240.0
128.821136	208.0
128.873489	48.0
128.910858	188.0
128.929443	164.0
128.935318	124.0
128.954895	192.0
129.006836	172.0
129.029449	148.0
129.064407	760.0
129.095032	220.0
129.111267	152.0
129.167404	84.0
129.219437	108.0
129.251114	192.0
129.278	172.0
129.342941	128.0
129.427673	72.0
129.445786	188.0
129.47142	156.0
129.504669	140.0
129.546646	168.0
129.579437	380.0
129.595291	124.0
129.620224	216.0
129.657486	116.0
129.722214	148.0
129.753952	108.0
129.836319	348.0
129.861725	128.0
129.917236	212.0
129.933121	144.0
129.971695	180.0
130.032318	456.0
130.070877	108.0
130.080276	76.0
130.091888	172.0
130.098206	168.0
130.106598	296.0
130.131348	180.0
130.166916	192.0
130.23732	188.0
130.307739	136.0
130.33046	160.0
130.348648	84.0
130.375916	136.0
130.422104	188.0
130.455688	164.0
130.489578	128.0
130.525955	108.0
130.553238	156.0
130.573715	124.0
130.635132	76.0
130.651047	136.0
130.672104	144.0
130.692001	152.0
130.733444	188.0
130.767105	192.0
130.794418	72.0
130.828568	88.0
130.896866	76.0
130.921204	140.0
130.943924	212.0
130.977051	140.0
131.038101	124.0
131.06778	148.0
131.0905	208.0
131.111023	56.0
131.150909	128.0
131.188293	84.0
131.229553	172.0
131.275864	224.0
131.300064	204.0
131.3526	164.0
131.401581	124.0
131.407883	152.0
131.478195	184.0
131.564941	188.0
131.606033	32.0
131.637314	264.0
131.656281	156.0
131.701416	188.0
131.759186	156.0
131.843613	184.0
131.871048	288.0
131.893814	116.0
131.953339	136.0
132.012787	336.0
132.051666	108.0
132.084	180.0
132.115097	192.0
132.155975	188.0
132.175201	144.0
132.189682	136.0
132.217819	212.0
132.260864	104.0
132.280487	148.0
132.344589	132.0
132.378937	72.0
132.433914	144.0
132.460693	180.0
132.471252	120.0
132.493088	188.0
132.564499	172.0
132.580551	172.0
132.603348	172.0
132.637848	128.0
132.689514	148.0
132.720383	148.0
132.750198	128.0
132.791656	156.0
132.828171	176.0
132.853409	200.0
132.909164	212.0
132.946808	188.0
132.95282	164.0
132.993896	196.0
133.020187	392.0
133.046661	192.0
133.066269	244.0
133.084366	260.0
133.13559	124.0
133.179718	136.0
133.226486	172.0
133.264709	216.0
133.299316	76.0
133.319534	200.0
133.349411	64.0
133.367798	180.0
133.402283	112.0
133.429871	132.0
133.447784	204.0
133.49884	108.0
133.518112	192.0
133.537354	140.0
133.575104	52.0
133.60701	172.0
133.681015	148.0
133.725952	168.0
133.797974	112.0
133.83252	68.0
133.857849	204.0
133.876266	140.0
133.894684	216.0
133.920029	116.0
133.982224	124.0
133.998352	136.0
134.039825	140.0
134.055954	232.0
134.103378	184.0
134.13414	212.0
134.182739	384.0
134.210403	188.0
134.228851	168.0
134.248093	128.0
134.274979	96.0
134.295731	28.0
134.346481	188.0
134.383392	116.0
134.401855	56.0
134.431854	80.0
134.503403	276.0
134.550964	160.0
134.604996	100.0
134.631454	252.0
134.653488	172.0
134.690674	168.0
134.705917	172.0
134.794418	152.0
134.829086	112.0
134.852188	260.0
134.89209	108.0
134.966492	148.0
134.991821	232.0
135.074554	192.0
135.094986	100.0
135.133148	132.0
135.169037	120.0
135.187546	184.0
135.220871	180.0
135.287079	76.0
135.328186	176.0
135.370438	156.0
135.435287	108.0
135.463699	164.0
135.490875	160.0
135.510605	148.0
135.52179	116.0
135.531158	188.0
135.553436	40.0
135.588196	124.0
135.617126	108.0
135.674805	144.0
135.734253	148.0
135.826797	176.0
135.861282	188.0
135.867859	236.0
135.879608	156.0
135.885376	184.0
135.933746	172.0
135.950989	192.0
136.002335	384.0
136.052124	140.0
136.110168	148.0
136.15062	192.0
136.228622	140.0
136.307617	116.0
136.365723	152.0
136.400589	184.0
136.435349	164.0
136.473877	184.0
136.512192	152.0
136.544754	52.0
136.609879	336.0
136.665604	152.0
136.684601	176.0
136.716919	60.0
136.745377	324.0
136.77504	168.0
136.798386	192.0
136.840286	176.0
136.884521	148.0
136.924759	132.0
136.962296	216.0
137.003311	148.0
137.038269	456.0
137.080215	56.0
137.147888	224.0
137.18277	184.0
137.243378	220.0
137.347504	124.0
137.369324	152.0
137.443985	144.0
137.481323	120.0
137.498825	136.0
137.517227	156.0
137.565353	136.0
137.606308	192.0
137.663422	124.0
137.679764	148.0
137.722336	124.0
137.78978	120.0
137.852402	144.0
137.917953	144.0
137.925781	136.0
137.94455	176.0
137.964844	72.0
137.992889	148.0
138.028397	176.0
138.052719	184.0
138.079422	56.0
138.119186	164.0
138.170639	72.0
138.187027	68.0
138.2034	100.0
138.261902	200.0
138.297012	132.0
138.332123	120.0
138.353195	152.0
138.376602	176.0
138.427048	208.0
138.446854	164.0
138.467941	104.0
138.519302	228.0
138.547577	136.0
138.56633	124.0
138.583847	340.0
138.61084	124.0
138.630432	168.0
138.648941	172.0
138.692871	220.0
138.725693	240.0
138.786987	216.0
138.873413	132.0
138.910645	152.0
138.915939	192.0
138.932495	260.0
138.973938	196.0
139.023575	312.0
139.053696	604.0
139.101028	216.0
139.159729	168.0
139.217331	136.0
139.244934	296.0
139.278442	112.0
139.305344	180.0
139.371124	52.0
139.395706	204.0
139.445007	180.0
139.474533	228.0
139.550095	168.0
139.603516	172.0
139.629974	144.0
139.699142	280.0
139.749695	180.0
139.780273	152.0
139.821106	80.0
139.883102	168.0
139.912094	80.0
140.018051	160.0
140.054459	308.0
140.100494	256.0
140.131119	104.0
140.201645	160.0
140.230103	76.0
140.266739	272.0
140.357407	160.0
140.395142	176.0
140.487762	148.0
140.518814	144.0
140.550827	276.0
140.612183	184.0
140.668839	188.0
140.768005	96.0
140.812317	200.0
140.842941	160.0
140.883667	120.0
140.925385	160.0
140.945175	116.0
140.963058	148.0
141.011337	216.0
141.06955	5284.0
141.167374	180.0
141.188248	336.0
141.208755	208.0
141.302216	76.0
141.328293	164.0
141.347168	96.0
141.37793	212.0
141.396866	160.0
141.430008	168.0
141.473816	176.0
141.534164	84.0
141.55722	240.0
141.581528	216.0
141.601395	228.0
141.628906	84.0
141.645477	36.0
141.681946	72.0
141.726028	112.0
141.741379	92.0
141.792557	172.0
141.811356	48.0
141.842163	48.0
141.89827	84.0
141.980499	144.0
141.998047	168.0
142.033051	180.0
142.07312	708.0
142.152863	244.0
142.174225	144.0
142.205078	168.0
142.237823	212.0
142.269608	244.0
142.327179	192.0
142.345154	172.0
142.432541	188.0
142.51619	168.0
142.55896	152.0
142.580048	160.0
142.61058	144.0
142.632629	124.0
142.649277	136.0
142.722046	112.0
142.796707	132.0
142.82048	156.0
142.841904	116.0
142.874222	184.0
142.908508	180.0
142.943436	184.0
143.037033	184.0
143.073074	164.0
143.103683	44.0
143.139404	152.0
143.158463	108.0
143.176163	156.0
143.192459	152.0
143.218002	96.0
143.239105	172.0
143.289459	52.0
143.338196	348.0
143.365616	96.0
143.394318	188.0
143.445572	212.0
143.512344	268.0
143.556244	248.0
143.627991	128.0
143.661545	176.0
143.721039	344.0
143.75206	124.0
143.861847	136.0
143.892883	176.0
143.92392	200.0
143.98877	156.0
144.038559	128.0
144.079453	136.0
144.105453	152.0
144.148636	408.0
144.164734	144.0
144.181	372.0
144.198654	268.0
144.227341	140.0
144.258408	108.0
144.283295	192.0
144.311005	320.0
144.33493	100.0
144.406662	204.0
144.454132	180.0
144.460052	264.0
144.54303	112.0
144.576584	248.0
144.596878	176.0
144.626801	104.0
144.68486	188.0
144.725784	192.0
144.744598	140.0
144.851883	60.0
144.877014	156.0
144.893723	224.0
144.939407	236.0
144.974091	140.0
145.00238	144.0
145.066696	312.0
145.104126	144.0
145.113251	152.0
145.148087	116.0
145.208069	168.0
145.22583	156.0
145.242615	144.0
145.309799	40.0
145.376816	188.0
145.417786	172.0
145.436981	148.0
145.463394	152.0
145.488144	116.0
145.554626	224.0
145.621872	144.0
145.668152	164.0
145.691528	148.0
145.708344	116.0
145.741989	144.0
145.775635	112.0
145.800827	164.0
145.826096	96.0
145.859756	244.0
145.907837	100.0
145.969254	124.0
146.016037	196.0
146.096451	292.0
146.14917	364.0
146.186859	228.0
146.222946	100.0
146.247025	244.0
146.266281	116.0
146.283127	112.0
146.320114	208.0
146.345886	188.0
146.410751	160.0
146.442047	44.0
146.481781	172.0
146.548416	128.0
146.586609	124.0
146.60524	192.0
146.632401	136.0
146.654083	180.0
146.678192	84.0
146.79393	180.0
146.84256	168.0
146.911392	176.0
146.946091	172.0
147.035278	184.0
147.090134	140.0
147.139374	168.0
147.158295	112.0
147.187256	144.0
147.233139	132.0
147.286682	148.0
147.329773	52.0
147.35582	128.0
147.380508	164.0
147.438919	208.0
147.468597	140.0
147.513428	48.0
147.532776	316.0
147.571106	184.0
147.61261	188.0
147.636108	92.0
147.653671	168.0
147.687531	160.0
147.732727	152.0
147.774628	156.0
147.844803	160.0
147.88353	136.0
147.936783	116.0
147.962524	152.0
147.981827	232.0
148.000885	160.0
148.057266	180.0
148.106293	140.0
148.138901	132.0
148.159592	104.0
148.244186	228.0
148.276611	120.0
148.302917	164.0
148.320068	164.0
148.374695	164.0
148.398315	72.0
148.426208	168.0
148.469849	156.0
148.489258	100.0
148.530838	112.0
148.566879	192.0
148.608124	280.0
148.644531	164.0
148.661514	212.0
148.686264	220.0
148.717331	204.0
148.748886	132.0
148.767746	240.0
148.812637	188.0
148.863007	188.0
148.887283	124.0
148.965668	148.0
149.00145	220.0
149.07193	136.0
149.105942	176.0
149.170654	148.0
149.215332	156.0
149.238602	176.0
149.278564	48.0
149.305313	216.0
149.417206	152.0
149.475937	256.0
149.507233	112.0
149.553787	160.0
149.588394	176.0
149.609467	268.0
149.631927	144.0
149.701813	220.0
149.732315	124.0
149.766754	212.0
149.78598	224.0
149.841873	228.0
149.87854	160.0
149.921326	168.0
149.948837	336.0
149.97731	152.0
150.046585	692.0
150.111755	164.0
150.133347	208.0
150.167496	148.0
150.18457	172.0
150.208969	144.0
150.28833	204.0
150.306549	268.0
150.33316	168.0
150.379578	148.0
150.411957	212.0
150.487183	376.0
150.513672	156.0
150.565323	124.0
150.587311	356.0
150.659241	152.0
150.668427	192.0
150.702118	232.0
150.727646	144.0
150.763214	144.0
150.808304	188.0
150.833481	160.0
150.868637	188.0
150.898773	184.0
150.935349	248.0
150.994263	144.0
151.053604	7400.0
151.12413	148.0
151.131577	140.0
151.140106	200.0
151.178894	148.0
151.215027	232.0
151.264633	60.0
151.309097	336.0
151.331802	212.0
151.366135	104.0
151.400284	208.0
151.433334	340.0
151.470901	188.0
151.511978	160.0
151.53746	220.0
151.570786	52.0
151.599472	136.0
151.620682	188.0
151.636597	252.0
151.658325	128.0
151.686142	112.0
151.732666	268.0
151.765945	148.0
151.784042	192.0
151.831253	64.0
151.865295	248.0
151.896805	248.0
151.91597	216.0
151.931839	264.0
151.952255	220.0
151.957031	220.0
151.998886	232.0
152.016235	276.0
152.062408	145836.0
152.149628	164.0
152.186462	168.0
152.210968	148.0
152.232574	76.0
152.262741	220.0
152.304855	228.0
152.369904	492.0
152.403107	120.0
152.444382	40.0
152.466141	852.0
152.490494	132.0
152.516663	148.0
152.548584	128.0
152.576172	116.0
152.600235	180.0
152.623184	60.0
152.672363	64.0
152.70253	152.0
152.734833	152.0
152.746201	64.0
152.755859	200.0
152.78215	132.0
152.828003	48.0
152.866013	168.0
152.901825	120.0
152.941086	172.0
152.946457	148.0
152.973206	140.0
153.002625	160.0
153.065277	21328.0
153.112076	212.0
153.152969	44.0
153.177597	36.0
153.229599	244.0
153.270584	244.0
153.331451	136.0
153.364868	192.0
153.398285	88.0
153.435562	160.0
153.443512	40.0
153.478226	168.0
153.506241	332.0
153.555954	88.0
153.565414	176.0
153.596756	192.0
153.633163	40.0
153.659485	112.0
153.683746	120.0
153.737289	160.0
153.775253	136.0
153.823273	168.0
153.829041	252.0
153.903351	192.0
153.935715	172.0
153.98172	144.0
154.002487	232.0
154.067749	1292.0
154.11264	292.0
154.13121	260.0
154.17662	240.0
154.187332	204.0
154.212357	172.0
154.24855	264.0
154.306625	248.0
154.352417	276.0
154.373077	156.0
154.39624	204.0
154.459946	248.0
154.559372	144.0
154.627014	92.0
154.669098	156.0
154.718613	140.0
154.753265	276.0
154.780502	200.0
154.805466	152.0
154.82756	372.0
154.885025	120.0
154.911774	76.0
155.008408	144.0
155.049423	776.0
155.108444	88.0
155.169815	176.0
155.214157	64.0
155.250076	160.0
155.276154	128.0
155.310791	232.0
155.341705	140.0
155.399353	132.0
155.423721	272.0
155.454773	104.0
155.519302	84.0
155.544128	156.0
155.566467	240.0
155.596268	196.0
155.680679	176.0
155.720428	164.0
155.745636	52.0
155.77507	336.0
155.807373	148.0
155.842148	160.0
155.968903	140.0
156.018616	156.0
156.058395	36.0
156.079681	148.0
156.138428	108.0
156.190201	96.0
156.227158	140.0
156.259247	192.0
156.282257	164.0
156.314011	220.0
156.439056	156.0
156.458969	92.0
156.485687	60.0
156.518723	84.0
156.572617	156.0
156.58728	212.0
156.628311	148.0
156.678131	80.0
156.710526	168.0
156.727966	132.0
156.758652	392.0
156.802719	152.0
156.842606	136.0
156.867538	152.0
156.952301	164.0
157.040268	276.0
157.084488	164.0
157.131897	164.0
157.220474	240.0
157.268997	136.0
157.300095	192.0
157.319489	288.0
157.346527	52.0
157.374588	256.0
157.448914	168.0
157.513855	148.0
157.578812	104.0
157.686264	144.0
157.756256	92.0
157.806046	196.0
157.887283	176.0
157.930161	132.0
157.939774	72.0
157.947678	160.0
157.974594	180.0
157.99884	164.0
158.029144	36.0
158.092209	200.0
158.120392	188.0
158.141479	196.0
158.161499	200.0
158.182953	144.0
158.205139	160.0
158.266647	176.0
158.28418	128.0
158.314224	308.0
158.349289	76.0
158.387436	160.0
158.441986	176.0
158.473373	120.0
158.527176	128.0
158.55304	136.0
158.612396	124.0
158.641068	96.0
158.675064	128.0
158.715179	52.0
158.75531	180.0
158.800446	92.0
158.838074	64.0
158.888245	108.0
158.92337	32.0
158.981094	168.0
159.036301	172.0
159.073807	136.0
159.084061	304.0
159.11412	92.0
159.154297	64.0
159.207031	132.0
159.224609	176.0
159.284897	156.0
159.317551	124.0
159.375565	204.0
159.430634	124.0
159.5065	64.0
159.565109	264.0
159.599121	208.0
159.682037	220.0
159.716553	176.0
159.762543	200.0
159.814407	132.0
159.832153	340.0
159.90094	196.0
159.953476	160.0
159.989044	80.0
160.009171	68.0
160.044434	188.0
160.062057	48.0
160.142639	148.0
160.204117	168.0
160.245926	200.0
160.37027	176.0
160.424866	80.0
160.511551	168.0
160.527206	156.0
160.625137	192.0
160.69606	220.0
160.753189	192.0
160.801651	184.0
160.831589	172.0
160.94606	128.0
160.969864	116.0
161.024582	136.0
161.054794	160.0
161.085297	240.0
161.156784	204.0
161.193436	96.0
161.241592	36.0
161.247253	140.0
161.427261	124.0
161.493988	172.0
161.538284	148.0
161.5466	132.0
161.556488	172.0
161.616592	184.0
161.666168	216.0
161.689438	208.0
161.738403	384.0
161.771362	152.0
161.791092	260.0
161.900986	104.0
161.907013	112.0
161.91655	168.0
161.951157	164.0
162.016586	172.0
162.041733	180.0
162.070236	128.0
162.093033	72.0
162.136124	228.0
162.17128	160.0
162.232437	224.0
162.286346	196.0
162.312531	136.0
162.323456	80.0
162.330109	128.0
162.351089	176.0
162.389297	256.0
162.454666	216.0
162.506348	340.0
162.529633	136.0
162.559631	88.0
162.588242	148.0
162.61293	84.0
162.632156	208.0
162.661163	136.0
162.714478	60.0
162.777954	52.0
162.849335	228.0
162.876999	72.0
162.919235	160.0
162.941315	216.0
162.960846	228.0
163.024368	128.0
163.05275	1140.0
163.098648	228.0
163.143829	188.0
163.192139	184.0
163.220108	164.0
163.247147	176.0
163.259674	100.0
163.269043	132.0
163.303802	88.0
163.347275	160.0
163.393066	120.0
163.489761	56.0
163.519882	168.0
163.591583	104.0
163.675598	200.0
163.695969	80.0
163.72937	140.0
163.762192	132.0
163.787659	148.0
163.823318	152.0
163.846252	236.0
163.879379	164.0
163.930328	132.0
163.948807	224.0
163.978439	184.0
164.032288	204.0
164.059906	632.0
164.106216	180.0
164.14447	232.0
164.184311	64.0
164.216873	164.0
164.256683	284.0
164.326416	192.0
164.40596	128.0
164.435303	204.0
164.494568	316.0
164.523697	216.0
164.550171	112.0
164.583374	120.0
164.621674	156.0
164.649353	148.0
164.679382	172.0
164.723938	100.0
164.748016	164.0
164.786346	196.0
164.814468	308.0
164.832779	400.0
164.874939	428.0
164.905853	372.0
164.944077	408.0
164.980652	236.0
165.003464	392.0
165.070236	150292.0
165.14093	244.0
165.166077	228.0
165.201096	300.0
165.239853	216.0
165.260178	96.0
165.303864	148.0
165.321442	92.0
165.354614	232.0
165.38179	124.0
165.398254	144.0
165.414734	276.0
165.438675	144.0
165.489929	784.0
165.532639	72.0
165.556641	184.0
165.57428	336.0
165.59198	312.0
165.622345	232.0
165.653427	200.0
165.67482	180.0
165.7229	148.0
165.769333	456.0
165.834503	156.0
165.854309	164.0
165.863403	148.0
165.891861	56.0
165.925507	152.0
165.950607	160.0
165.971451	68.0
165.979813	156.0
166.025391	216.0
166.032654	432.0
166.07663	68256.0
166.155777	144.0
166.201019	152.0
166.226303	152.0
166.251968	360.0
166.305206	192.0
166.326584	184.0
166.357529	236.0
166.394577	200.0
166.422699	220.0
166.432129	160.0
166.44133	164.0
166.46434	184.0
166.497299	180.0
166.551041	132.0
166.5802	104.0
166.620102	360.0
166.667023	208.0
166.68605	188.0
166.695129	208.0
166.704315	268.0
166.742142	316.0
166.760117	556.0
166.802002	236.0
166.860458	584.0
166.896103	392.0
166.900543	108.0
166.941849	608.0
166.99379	568.0
167.051849	1388.0
167.086349	420768.0
167.16185	144.0
167.18396	376.0
167.212112	144.0
167.254639	496.0
167.32373	252.0
167.345413	368.0
167.3806	212.0
167.387863	172.0
167.399872	224.0
167.404449	312.0
167.428467	108.0
167.449371	300.0
167.481842	548.0
167.509644	8552.0
167.542603	332.0
167.581528	192.0
167.612579	72.0
167.638794	128.0
167.661469	68.0
167.693924	252.0
167.709854	460.0
167.741318	196.0
167.747513	244.0
167.753494	48.0
167.758591	120.0
167.762939	172.0
167.783478	232.0
167.816208	112.0
167.833725	272.0
167.852249	188.0
167.900467	264.0
167.916916	148.0
167.968491	276.0
167.976379	216.0
167.997925	204.0
168.019836	292.0
168.055817	644.0
168.088852	81496.0
168.165802	104.0
168.171005	52.0
168.200089	160.0
168.208588	176.0
168.216095	52.0
168.236206	232.0
168.243439	148.0
168.253845	288.0
168.268387	116.0
168.277603	172.0
168.310455	160.0
168.327408	276.0
168.349762	112.0
168.353836	112.0
168.364044	252.0
168.387619	84.0
168.409317	108.0
168.418655	216.0
168.443039	112.0
168.460373	128.0
168.478699	64.0
168.524155	104.0
168.592148	48.0
168.624054	52.0
168.667877	64.0
168.685928	56.0
168.714157	84.0
168.746841	96.0
168.774521	56.0
168.80925	148.0
168.81601	124.0
168.864746	132.0
168.888184	108.0
168.915268	280.0
168.934891	232.0
168.96489	212.0
168.987762	200.0
168.998489	176.0
169.004959	228.0
169.03566	100.0
169.064377	2276.0
169.092255	2992.0
169.128479	88.0
169.14389	240.0
169.16655	288.0
169.184357	124.0
169.212173	184.0
169.251785	248.0
169.267303	176.0
169.277512	84.0
169.29776	276.0
169.331268	244.0
169.39534	256.0
169.399857	272.0
169.413452	292.0
169.421951	480.0
169.454529	208.0
169.480637	328.0
169.517136	240.0
169.554245	300.0
169.582275	132.0
169.630569	60.0
169.663513	108.0
169.740112	128.0
169.776566	28.0
169.823242	48.0
169.845474	84.0
169.891876	88.0
169.935852	108.0
169.968231	104.0
169.988724	108.0
170.021179	124.0
170.067047	692.0
170.094131	348.0
170.128296	124.0
170.162888	96.0
170.235901	56.0
170.285248	36.0
170.303436	56.0
170.324219	48.0
170.343704	88.0
170.376236	344.0
170.436768	160.0
170.460403	76.0
170.510101	264.0
170.53685	144.0
170.571075	32.0
170.617493	56.0
170.646469	124.0
170.708878	80.0
170.727081	48.0
170.773575	88.0
170.89357	152.0
170.945602	52.0
170.969025	60.0
170.995056	48.0
171.015884	68.0
171.08876	36.0
171.149597	176.0
171.357025	80.0
171.380478	44.0
171.463867	52.0
171.607239	52.0
171.672424	40.0
171.776764	28.0
171.995956	28.0
172.069046	96.0
172.120697	128.0
172.130249	228.0
172.160446	52.0
172.228348	80.0
172.305923	52.0
172.330246	76.0
172.54718	32.0
172.664841	92.0
173.183075	76.0
173.230225	80.0
173.308838	92.0
173.494919	84.0
173.799164	44.0
173.857941	60.0
173.961884	48.0
174.024902	56.0
174.123596	56.0
174.258667	52.0
174.445267	80.0
174.663528	36.0
174.699173	124.0
174.738693	132.0
174.784546	100.0
174.816116	68.0
174.881927	164.0
174.987213	120.0
175.042511	104.0
175.097824	92.0
175.125504	164.0
175.29805	140.0
175.445648	44.0
175.466736	100.0
175.838394	72.0
176.068375	84.0
176.115921	60.0
176.148148	120.0
176.242737	100.0
176.276123	188.0
176.376541	76.0
176.41188	92.0
176.472687	140.0
176.507065	76.0
176.612854	72.0
176.65094	80.0
176.91983	104.0
176.987122	72.0
177.007202	80.0
177.038315	48.0
177.084	136.0
177.211151	128.0
177.372818	60.0
177.465607	92.0
177.547821	188.0
177.619431	84.0
177.68576	64.0
177.730865	92.0
177.773315	36.0
177.831711	32.0
177.914688	108.0
177.975067	28.0
178.017548	76.0
178.105911	68.0
178.147705	112.0
178.189056	52.0
178.232727	100.0
178.306244	60.0
178.34169	100.0
178.466629	100.0
178.594284	104.0
178.884338	44.0
178.946671	96.0
178.998825	44.0
179.060532	2272.0
179.241226	76.0
179.29187	96.0
179.470474	32.0
179.667847	76.0
179.795929	108.0
179.857315	48.0
179.985458	160.0
180.060516	260.0
180.116333	108.0
180.209824	68.0
180.247238	88.0
180.332764	112.0
180.391571	32.0
180.514557	96.0
180.586761	136.0
180.70108	104.0
180.969452	84.0
181.05986	184.0
181.164963	36.0
181.379349	136.0
181.403473	124.0
181.599228	92.0
181.617996	40.0
181.74678	92.0
181.848755	80.0
181.886337	124.0
182.152176	104.0
182.2892	44.0
182.348328	56.0
182.478943	68.0
182.625275	80.0
182.887268	108.0
182.991257	60.0
183.076797	156.0
183.263306	64.0
183.460052	76.0
183.750793	124.0
183.967224	48.0
184.086029	72.0
184.396713	104.0
184.429153	76.0
184.507553	40.0
185.295135	56.0
185.414368	160.0
185.528214	168.0
185.560745	104.0
185.821121	44.0
185.842834	80.0
186.070816	60.0
186.122406	56.0
186.372314	148.0
186.630539	76.0
187.136627	48.0
187.861588	108.0
188.385742	64.0
188.437653	64.0
188.503235	68.0
188.721909	88.0
188.817627	72.0
190.800186	64.0
191.083481	88.0
191.683746	104.0
191.822281	100.0
192.754425	80.0
193.076447	604.0
194.102524	164.0
194.874191	44.0
195.082626	148.0
195.527679	48.0
196.050888	384.0
196.837952	64.0
197.064209	200.0
197.11171	128.0
197.243073	88.0
197.90892	84.0
198.284302	96.0
199.050186	136.0
199.789398	56.0
200.735794	80.0
201.138474	712.0
201.548767	76.0
202.104736	168.0
202.677795	96.0
202.913055	76.0
204.000397	84.0
205.512726	120.0
205.781036	76.0
206.904648	80.0
207.704193	36.0
208.114594	168.0
208.450668	52.0
208.729507	164.0
208.884827	152.0
210.340057	48.0
211.066544	88.0
211.791656	88.0
211.901733	100.0
213.29184	92.0
215.048264	76.0
215.898468	140.0
216.03009	92.0
219.858749	124.0
220.074234	72.0
220.978683	104.0
221.260757	92.0
221.304276	88.0
222.117401	108.0
222.603058	108.0
224.069489	100.0
224.093323	96.0
224.570297	88.0
224.641891	100.0
224.848267	48.0
224.973145	100.0
226.707993	72.0
226.848862	108.0
228.732376	60.0
230.765747	108.0
232.91748	64.0
234.825958	140.0
235.769363	88.0
236.130127	56.0
237.78154	36.0
239.142517	100.0
239.571152	92.0
239.728302	80.0
240.928589	68.0
241.083084	96.0
241.237625	72.0
244.992722	84.0
246.134277	92.0
246.256073	96.0
246.652908	68.0
247.835907	48.0
248.585358	148.0
249.172531	96.0
249.820175	56.0
250.134857	84.0
251.31041	100.0
251.607086	164.0
252.564621	108.0
252.744949	52.0
254.183563	68.0
254.818619	60.0
255.041077	52.0
255.091934	72.0
255.524445	84.0
255.947784	96.0
257.117737	92.0
257.178375	100.0
257.315643	116.0
257.465729	36.0
257.708496	92.0
258.021729	92.0
259.526581	32.0
260.055908	52.0
261.41861	120.0
262.346252	108.0
263.340118	76.0
263.760162	72.0
263.828064	56.0
264.148224	76.0
264.345581	116.0
265.145508	64.0
266.011536	164.0
267.106659	116.0
267.161957	72.0
267.31488	128.0
268.25293	80.0
268.813019	72.0
269.591156	88.0
270.529205	116.0
272.277588	76.0
273.138733	88.0
273.760803	48.0
275.175415	84.0
275.578369	52.0
275.779938	60.0
276.146973	148.0
276.99765	116.0
277.140106	120.0
277.189819	44.0
278.204742	60.0
278.729523	76.0
278.86911	112.0
278.985474	64.0
279.334656	168.0
279.877136	120.0
280.400146	52.0
281.487732	60.0
281.855194	60.0
281.881927	48.0
283.049377	36.0
283.099609	64.0
283.253662	136.0
285.085632	44.0
285.32428	120.0
286.313568	100.0
286.896515	52.0
288.48996	64.0
288.919464	64.0
290.016632	100.0
290.131897	100.0
291.370667	56.0
291.686707	76.0
292.509918	64.0
293.221802	60.0
293.300201	136.0
293.429749	88.0
295.499512	72.0
298.36676	84.0
299.96759	28.0
301.35498	96.0
301.565765	72.0
302.301361	64.0
302.98111	96.0
305.76947	152.0
305.870422	112.0
306.912109	72.0
307.630829	72.0
308.46225	48.0
309.757019	84.0
309.799042	60.0
309.851593	76.0
310.300232	48.0
310.875488	92.0
310.931641	84.0
311.809692	136.0
312.122559	60.0
314.610046	116.0
317.664124	92.0
317.976379	120.0
318.832306	124.0
320.490601	32.0
320.929047	44.0
322.33902	72.0
322.760803	148.0
323.147125	72.0
324.242889	164.0
324.572693	48.0
325.322571	92.0
326.317749	92.0
326.368103	92.0
326.475983	116.0
326.522736	52.0
328.30545	72.0
330.599518	44.0
331.030304	40.0
331.301941	84.0
335.291718	48.0
335.834991	72.0
337.207855	72.0
340.398834	36.0
340.450226	88.0
340.688995	60.0
341.049103	64.0
342.185852	112.0
343.911133	80.0
344.546295	28.0
345.818359	40.0
348.076141	128.0
348.860107	104.0
349.857117	68.0
350.259308	40.0
350.28537	72.0
352.023468	92.0
353.096039	48.0
354.196472	40.0
356.680603	64.0
357.440308	88.0
357.884491	32.0
358.102905	56.0
359.354462	92.0
359.913086	68.0
360.200134	48.0
361.058136	92.0
361.803558	108.0
363.384003	60.0
364.044495	88.0
365.591766	56.0
367.199524	64.0
368.268219	56.0
369.21225	76.0
369.265808	72.0
369.34613	104.0
369.460907	64.0
371.227081	116.0
373.573486	92.0
373.758148	60.0
374.555115	68.0
374.944275	100.0
376.325287	80.0
377.186798	96.0
377.557983	60.0
383.720581	64.0
384.750549	76.0
387.339417	60.0
388.295807	64.0
391.506744	56.0
391.577637	76.0
392.657562	60.0
393.78241	64.0
395.929993	76.0
396.762115	52.0
399.657562	140.0
400.688812	80.0
400.975708	100.0
401.649567	44.0
401.876953	92.0
402.603485	80.0
404.598785	72.0
407.01651	76.0
407.892365	84.0
413.547607	92.0
416.909851	112.0
420.440796	92.0
422.275238	88.0
422.496124	36.0
422.582031	40.0
423.679291	56.0
424.417053	112.0
426.391632	100.0
433.688995	96.0
434.692657	80.0
435.124329	108.0
435.323639	64.0
435.938477	52.0
437.86261	20.0
440.282166	56.0
442.110626	96.0
444.516083	48.0
448.781403	100.0
449.975464	84.0
450.038818	84.0
451.585541	64.0
452.757904	80.0
452.982391	68.0
459.073151	52.0
461.815063	100.0
462.418365	100.0
464.60379	72.0
465.088684	48.0
467.568695	56.0
470.841003	56.0
471.847839	48.0
472.63504	88.0
477.0242	76.0
477.276367	64.0
480.220337	124.0
480.255219	88.0
480.783173	104.0
482.35556	80.0
484.350952	72.0
484.42981	128.0
486.486572	52.0
492.12204	124.0
492.409088	88.0
492.598999	144.0
493.646515	48.0
496.974915	52.0
501.44693	100.0
511.39035	40.0
511.646942	196.0
517.02301	108.0
519.542358	128.0
519.728394	64.0
520.313904	108.0
531.129578	96.0
535.040344	56.0
543.313049	44.0
545.435303	64.0
545.542236	112.0
546.449097	120.0
548.895935	96.0
549.855591	72.0
560.270264	52.0
560.958313	60.0
565.360474	84.0
565.677612	60.0
573.086548	76.0
580.644409	136.0
581.440857	80.0
583.083374	48.0
589.019592	72.0
590.580933	124.0
592.439758	108.0
592.720764	60.0
600.182312	68.0
602.823181	76.0
608.868652	84.0
612.621704	48.0
612.872986	80.0
617.681641	56.0
620.454895	88.0
626.822083	140.0
627.410217	100.0
634.324158	96.0
639.236206	48.0
640.298462	108.0
642.576965	128.0
653.801086	84.0
665.425354	124.0
672.715393	112.0
676.862	52.0
678.893372	72.0
679.785645	96.0
680.232056	60.0
684.53186	40.0
687.153748	44.0
689.148254	64.0
690.408081	68.0
699.7854	76.0
709.570496	56.0
719.594421	84.0
724.954285	108.0
729.909119	72.0
735.458313	56.0
744.983582	104.0
747.48468	96.0
747.571716	72.0
748.856567	76.0
751.817078	104.0
754.53186	52.0
755.85553	44.0
762.260437	152.0
767.688354	60.0
771.315796	64.0
774.813293	48.0
775.190125	244.0
777.44165	52.0
788.535889	84.0
794.033936	216.0
797.464478	84.0
801.291138	160.0
801.741943	32.0
801.905396	104.0
805.765259	36.0
812.604736	52.0
814.392944	132.0
816.763245	176.0
817.793152	168.0
826.296082	52.0
827.755676	68.0
829.950317	68.0
832.492432	140.0
833.77356	72.0
835.550964	196.0
839.167419	168.0
839.29425	76.0
839.986389	120.0
841.481079	200.0
847.780396	100.0
848.476013	116.0
849.125488	76.0
850.082703	44.0
851.383118	112.0
855.721069	36.0
856.390808	144.0
858.209045	220.0
859.130554	108.0
859.363953	172.0
859.935852	240.0
862.079224	172.0
864.494507	296.0
864.693481	112.0
867.516846	136.0
868.384705	228.0
870.732361	68.0
873.559692	88.0
878.331238	160.0
879.328369	148.0
882.216919	64.0
883.973572	232.0
894.478943	92.0
894.688171	140.0
897.583069	160.0
897.851379	116.0
900.202759	56.0
905.118225	68.0
905.573364	40.0
906.346191	224.0
907.215271	112.0
907.796875	168.0
910.113159	164.0
910.653687	104.0
912.636841	116.0
913.887939	136.0
914.230957	132.0
915.459045	112.0
916.085449	108.0
918.255493	80.0
919.238831	40.0
920.494507	172.0
920.929321	180.0
921.654297	108.0
923.389282	160.0
924.048645	208.0
924.254395	152.0
925.634521	152.0
927.864319	188.0
930.187866	84.0
932.897217	116.0
935.592285	76.0
937.37085	104.0
938.285156	212.0
939.352356	56.0
941.128418	188.0
942.160583	52.0
943.963745	280.0
944.550842	188.0
946.840027	184.0
947.667053	116.0
952.734863	84.0
953.502991	212.0
953.595154	168.0
954.751038	220.0
955.858337	44.0
956.319946	168.0
957.040222	128.0
957.3974	164.0
958.056458	160.0
968.434387	148.0
969.778931	208.0
970.374084	64.0
972.936401	212.0
973.756104	168.0
973.874084	228.0
974.476685	132.0
975.067078	196.0
975.626526	44.0
975.918701	260.0
977.772522	152.0
977.977905	116.0
978.052612	224.0
978.301636	148.0
981.441772	40.0
982.838989	172.0
983.575439	140.0
985.092834	140.0
985.424011	168.0
985.680176	152.0
986.148865	116.0
987.562012	140.0
987.956055	148.0
988.162537	224.0
988.262634	144.0
988.500427	64.0
989.044922	140.0
989.126282	200.0
989.921448	172.0
990.234619	148.0
991.951477	184.0
992.377808	212.0
992.635437	148.0
994.153015	132.0
994.749329	200.0
996.049194	168.0
996.495239	184.0
998.324463	164.0
1000.312744	216.0
1001.206787	184.0
1002.649536	108.0
1003.103394	88.0
1003.778015	204.0
1004.837708	48.0
1005.291992	100.0
1006.02417	180.0
1008.064331	204.0
1009.309631	136.0
1009.524658	244.0
1009.954712	212.0
1011.213867	160.0
1011.397461	80.0
1011.732971	92.0
1012.055847	44.0
1012.195129	148.0
1012.260437	92.0
1012.771484	108.0
1012.872864	264.0
1013.70282	80.0
1014.907227	84.0
1015.370178	112.0
1016.924622	240.0
1020.952698	92.0
1021.57605	148.0
1022.396851	144.0
1023.141602	216.0
1024.568237	156.0
1025.154419	112.0
1025.5177	188.0
1028.266724	232.0
1028.892212	168.0
1030.533691	136.0
1030.987427	84.0
1031.191895	164.0
1031.427734	172.0
1031.505127	180.0
1031.728882	248.0
1032.304321	168.0
1032.368286	92.0
1033.218994	64.0
1034.473389	180.0
1035.1521	164.0
1036.144897	148.0
1037.210815	216.0
1038.202515	148.0
1038.96582	72.0
1040.833618	64.0
1042.021851	128.0
1042.15686	212.0
1043.339478	160.0
1043.397339	204.0
1044.392578	168.0
1046.041382	188.0
1047.245483	160.0
1048.753296	164.0
1049.907349	204.0
1051.042725	128.0
1052.017334	140.0
1052.520874	152.0
1053.179688	164.0
1053.43811	56.0
1054.982544	164.0
1056.709473	152.0
1057.363037	192.0
1057.939087	224.0
1058.172729	244.0
1058.47644	184.0
1058.729004	48.0
1059.273071	184.0
1059.480469	156.0
1059.707153	56.0
1059.836792	212.0
1059.914551	156.0
1060.426514	212.0
1060.517212	164.0
1060.646851	36.0
1062.287476	160.0
1062.650879	132.0
1062.735229	248.0
1063.118042	192.0
1063.76062	136.0
1063.948853	152.0
1064.533325	152.0
1064.669678	124.0
1064.754028	236.0
1064.922974	196.0
1066.534424	220.0
1067.425049	116.0
1068.205566	108.0
1068.511353	148.0
1069.845459	144.0
1071.499756	136.0
1071.916748	248.0
1072.092651	420.0
1073.67688	112.0
1073.931274	132.0
1074.329224	52.0
1074.714111	200.0
1074.838135	204.0
1075.536499	200.0
1075.582153	196.0
1076.272705	188.0
1076.999146	84.0
1077.515259	92.0
1078.416992	56.0
1078.513184	196.0
1078.743896	120.0
1078.99231	124.0
1079.947021	192.0
1080.882568	172.0
1081.563232	140.0
1081.825073	180.0
1082.466797	100.0
1083.881714	76.0
1084.274902	200.0
1084.950073	128.0
1085.540161	168.0
1085.618896	196.0
1086.189453	80.0
1087.239258	152.0
1088.723022	108.0
1090.043457	180.0
1090.19458	160.0
1091.009644	88.0
1091.088623	116.0
1091.344971	44.0
1091.390991	204.0
1091.60144	144.0
1091.779053	180.0
1092.522339	200.0
1092.719604	200.0
1094.398071	148.0
1096.22937	84.0
1096.446777	196.0
1098.57666	164.0
1100.134033	128.0
1100.266113	148.0
1100.913208	140.0
1101.593506	200.0
1102.439331	160.0
1102.580322	116.0
1103.113403	36.0
1103.596069	140.0
1105.071045	164.0
1105.818848	148.0
1106.275635	220.0
1108.520996	168.0
1108.633667	192.0
1109.130737	196.0
1109.356079	184.0
1110.065552	156.0
1110.350708	72.0
1110.443604	140.0
1110.642578	104.0
1110.927856	160.0
1111.485107	144.0
1112.646729	116.0
1113.4104	152.0
1113.596313	156.0
1113.695923	136.0
1116.506958	164.0
1116.813354	116.0
1117.125977	224.0
1117.239136	176.0
1118.170654	168.0
1118.843018	136.0
1119.64209	60.0
1119.808594	180.0
1119.968384	184.0
1121.421021	108.0
1121.527588	260.0
1121.694336	92.0
1121.827637	180.0
1122.174316	48.0
1122.907837	208.0
1122.967896	116.0
1124.983032	168.0
1125.396973	60.0
1125.897827	192.0
1126.445557	136.0
1126.699463	156.0
1127.534668	148.0
1128.303467	144.0
1128.396973	180.0
1128.718018	152.0
1129.059082	208.0
1129.253052	52.0
1129.366699	184.0
1129.975464	64.0
1130.075806	100.0
1130.979248	236.0
1131.106445	224.0
1131.160034	196.0
1131.387695	168.0
1132.284912	96.0
1133.872803	64.0
1134.114136	48.0
1134.402344	72.0
1134.703979	124.0
1135.327637	180.0
1135.54895	140.0
1135.984985	152.0
1136.662598	144.0
1137.152588	84.0
1137.36731	144.0
1137.87085	152.0
1138.04541	132.0
1138.522217	140.0
1139.408813	152.0
1139.617188	192.0
1141.627075	80.0
1142.366943	176.0
1144.460083	56.0
1144.985352	48.0
1145.07959	124.0
1145.200806	244.0
1145.348999	188.0
1146.191162	184.0
1146.831421	124.0
1146.90564	176.0
1147.087646	200.0
1147.155029	68.0
1147.680908	196.0
1147.970825	160.0
1148.227173	172.0
1148.496948	32.0
1148.901611	136.0
1149.090576	48.0
1149.394165	208.0
1149.900391	140.0
1149.994873	104.0
1151.298706	168.0
1151.351929	120.0
1151.41272	56.0
1152.527344	128.0
1153.946777	92.0
1154.142944	116.0
1155.042358	196.0
1155.186768	148.0
1155.312988	144.0
1155.488892	168.0
1159.958618	172.0
1161.084229	108.0
1161.192749	100.0
1161.653931	180.0
1163.432007	148.0
1163.628906	136.0
1164.776611	192.0
1165.435547	164.0
1166.02002	192.0
1166.781372	140.0
1167.134888	120.0
1167.46814	112.0
1167.672119	100.0
1168.175537	132.0
1168.692627	128.0
1169.47522	180.0
1169.550049	176.0
1170.632568	120.0
1171.749756	144.0
1171.885986	168.0
1172.383423	128.0
1172.778809	160.0
1173.358154	180.0
1173.474121	196.0
1173.965088	56.0
1174.040039	176.0
1174.763062	164.0
1175.186157	76.0
1175.445435	248.0
1175.711548	180.0
1175.936035	176.0
1176.312256	84.0
1176.373657	432.0
1177.124634	136.0
1177.390991	156.0
1177.49353	224.0
1179.003418	192.0
1179.276733	120.0
1179.680054	180.0
1179.980835	60.0
1180.120361	168.0
1180.384277	124.0
1181.451294	172.0
1181.601807	116.0
1181.772827	192.0
1182.11499	168.0
1182.78479	140.0
1183.011597	184.0
1183.100708	132.0
1183.415649	176.0
1183.497803	136.0
1184.074341	180.0
1185.744751	192.0
1185.833862	236.0
1186.258789	76.0
1186.320557	144.0
1186.6427	212.0
1188.199951	116.0
1188.480957	148.0
1188.59082	164.0
1189.428101	212.0
1189.942993	196.0
1191.000488	156.0
1191.247803	128.0
1191.934937	128.0
1192.374756	112.0
1192.451294	124.0
1192.945312	168.0
1193.144653	176.0
1193.426514	200.0
1193.577759	176.0
1193.901001	236.0
1194.568237	176.0
1194.974121	140.0
1195.359497	144.0
1195.607178	164.0
1196.653564	140.0
1197.080444	116.0
1197.355957	184.0
1197.411011	60.0
1197.962036	168.0
1198.017212	228.0
1198.334106	52.0
1198.664917	192.0
1198.740601	164.0
1199.057739	120.0
1199.347168	144.0
1200.098633	56.0
1200.270996	172.0
1200.378296	208.0
1200.602051	184.0
1200.946899	216.0
1201.905884	196.0
1201.995483	276.0
1202.092163	176.0
1202.271606	152.0
1202.658081	148.0
1203.431274	36.0
1204.757324	136.0
1204.81958	192.0
1205.234131	192.0
1205.296265	84.0
1205.697144	144.0
1205.911377	148.0
1206.218994	104.0
1206.319214	176.0
1206.519653	124.0
1208.006592	160.0
1208.331665	144.0
1208.73999	180.0
1208.989014	148.0
1209.272827	44.0
1209.833496	224.0
1209.944336	148.0
1209.992798	44.0
1210.103516	28.0
1211.059204	180.0
1211.135376	164.0
1211.190796	160.0
1211.987549	152.0
1212.042969	220.0
1212.133057	172.0
1212.410278	132.0
1212.819214	196.0
1213.041016	160.0
1213.158936	148.0
1213.561035	180.0
1213.678833	124.0
1213.910156	76.0
1214.101929	140.0
1214.38623	144.0
1214.878784	156.0
1214.975952	164.0
1215.190918	152.0
1215.544922	168.0
1216.009888	92.0
1216.197266	172.0
1216.849854	276.0
1216.926147	144.0
1217.078979	212.0
1217.217773	216.0
1217.822021	140.0
1218.032837	180.0
1218.141602	156.0
1218.280518	184.0
1218.509766	204.0
1218.919678	140.0
1219.232422	160.0
1219.288086	144.0
1219.774658	180.0
1220.19873	116.0
1220.887085	148.0
1220.991455	180.0
1221.123535	196.0
1221.408691	220.0
1221.826172	192.0
1222.037109	356.0
1222.104492	208.0
1222.609009	192.0
1222.814331	164.0
1223.120605	48.0
1223.719238	128.0
1224.130127	128.0
1225.04248	156.0
1225.140015	156.0
1225.286377	192.0
1225.349121	68.0
1226.296753	120.0
1226.652344	112.0
1226.70105	160.0
1228.625854	124.0
1228.744507	152.0
1229.623779	256.0
1230.154297	176.0
1230.475342	176.0
1231.320312	196.0
1231.425049	260.0
1231.613647	160.0
1231.802246	160.0
1232.067749	216.0
1232.724609	192.0
1233.381592	144.0
1233.996826	140.0
1234.311401	180.0
1234.437256	228.0
1234.856934	212.0
1235.038818	120.0
1235.360596	100.0
1235.528442	72.0
1236.151245	124.0
1236.381592	156.0
1237.621216	144.0
1238.356567	136.0
1238.496582	136.0
1238.549561	212.0
1239.008057	196.0
1239.316284	116.0
1239.491455	220.0
1239.603638	180.0
1239.729736	148.0
1239.799805	136.0
1240.570801	192.0
1240.753174	124.0
1241.124756	164.0
1241.685791	144.0
1241.903198	292.0
1242.043457	136.0
1242.176758	52.0
1242.611694	176.0
1242.660889	64.0
1242.983643	152.0
1244.015381	324.0
1244.879028	164.0
1246.06604	168.0
1246.361206	160.0
1246.902344	180.0
1247.626343	152.0
1247.865356	144.0
1248.174805	172.0
1248.30835	216.0
1248.420898	148.0
1249.236816	176.0
1249.50415	220.0
1249.799683	168.0
1249.954468	128.0
1250.03186	216.0
1250.494751	188.0
1250.869507	128.0
1250.925781	100.0
1251.29895	252.0
1251.404541	144.0
1251.503052	116.0
1251.669312	176.0
1252.073486	220.0
1252.749756	200.0
1253.066772	212.0
1254.419922	172.0
1255.365723	140.0
1256.01355	144.0
1256.888428	140.0
1257.170654	192.0
1258.02478	64.0
1258.356567	68.0
1259.691406	164.0
1259.891846	200.0
1260.214111	108.0
1260.984497	168.0
1261.705444	152.0
1261.818604	172.0
1261.952881	152.0
1262.009521	124.0
1262.398438	96.0
1262.971313	128.0
1263.098633	156.0
1263.155273	132.0
1263.289673	148.0
1263.508911	148.0
1264.060791	132.0
1264.195312	148.0
1264.308594	44.0
1264.478394	200.0
1264.945557	116.0
1265.20752	76.0
1265.334961	104.0
1265.504883	108.0
1265.929688	172.0
1266.344238	164.0
1266.652222	160.0
1267.112671	128.0
1267.316772	160.0
1267.906372	112.0
1267.973877	168.0
1268.884521	112.0
1269.09729	144.0
1269.473022	168.0
1270.047607	204.0
1270.153931	56.0
1270.629272	64.0
1271.253662	28.0
1271.324707	204.0
1271.942139	132.0
1272.084106	156.0
1272.290039	156.0
1272.637939	188.0
1273.000122	64.0
1273.710327	112.0
1274.307129	76.0
1274.534424	212.0
1274.790283	196.0
1275.03186	200.0
1275.28772	92.0
1275.479736	56.0
1275.721436	56.0
1276.610229	116.0
1276.97998	200.0
1277.307251	132.0
1277.366577	116.0
1277.498291	180.0
1277.862183	188.0
1277.933228	120.0
1278.348389	192.0
1278.474121	112.0
1278.623535	184.0
1279.093384	112.0
1279.762573	236.0
1279.812378	72.0
1280.114258	204.0
1280.275269	84.0
1280.38916	176.0
1281.047363	188.0
1281.322388	96.0
1281.999268	184.0
1282.612305	156.0
1282.769043	176.0
1282.904541	196.0
1283.310913	216.0
1283.603271	192.0
1283.938477	124.0
1284.313721	180.0
1284.822998	168.0
1284.944214	228.0
1285.015625	236.0
1285.779175	136.0
1285.939209	236.0
1286.007568	144.0
1286.243164	200.0
1286.314453	164.0
1286.371582	192.0
1287.513184	192.0
1287.571167	348.0
1288.557007	148.0
1288.742676	36.0
1288.935669	160.0
1289.228638	144.0
1289.628906	184.0
1289.936279	108.0
1290.057739	136.0
1290.129272	132.0
1290.300903	188.0
1290.479614	136.0
1290.644043	156.0
1290.794189	144.0
1290.858643	156.0
1291.051636	208.0
1292.117554	144.0
1292.174683	188.0
1292.435547	184.0
1292.589722	244.0
1292.646973	144.0
1293.011963	144.0
1293.348389	184.0
1293.65625	180.0
1293.783203	180.0
1293.892456	104.0
1294.479614	216.0
1294.694458	112.0
1295.074097	56.0
1295.389282	124.0
1295.496704	88.0
1295.62561	124.0
1295.947998	216.0
1296.198853	168.0
1296.24707	164.0
1297.137817	164.0
1297.238159	204.0
1297.847534	172.0
1298.292114	160.0
1298.342285	164.0
1298.937622	180.0
1299.124146	108.0
1299.619263	140.0
1299.748413	208.0
1300.021118	132.0
1300.638306	136.0
1302.203613	200.0
1302.325806	216.0
1302.54126	88.0
1303.044189	96.0
1303.410645	184.0
1303.647705	88.0
1303.949585	108.0
1304.287354	120.0
1304.761841	180.0
1304.862549	128.0
1305.41626	184.0
1306.200195	44.0
1306.264893	132.0
1306.372803	128.0
1306.639038	108.0
1306.757935	192.0
1306.890869	160.0
1307.020386	152.0
1307.387329	164.0
1307.444946	160.0
1307.567261	144.0
1307.63208	108.0
1307.84082	156.0
1307.976807	176.0
1308.049561	176.0
1308.450073	196.0
1308.503052	60.0
1308.611084	116.0
1308.733521	280.0
1308.79834	208.0
1309.37439	204.0
1309.574463	136.0
1309.77063	228.0
1310.051514	144.0
1310.613525	96.0
1310.865723	200.0
1311.161255	32.0
1311.218872	184.0
1311.31665	168.0
1311.435791	188.0
1311.658569	176.0
1311.925293	180.0
1312.307373	116.0
1312.415527	128.0
1312.530884	52.0
1313.511841	152.0
1313.872437	116.0
1313.995117	244.0
1314.493042	192.0
1314.709473	188.0
1315.214722	156.0
1315.2677	164.0
1315.373535	176.0
1315.915039	156.0
1316.774292	180.0
1316.983765	184.0
1317.31604	180.0
1317.810425	168.0
1318.154175	92.0
1318.696289	152.0
1318.790161	144.0
1318.974487	184.0
1319.158813	184.0
1319.216675	120.0
1319.505859	176.0
1319.983154	132.0
1320.229004	160.0
1320.460449	184.0
1320.590576	140.0
1320.90625	152.0
1321.276245	88.0
1321.393555	120.0
1321.451538	52.0
1321.602539	128.0
1321.621216	112.0
1321.651855	180.0
1321.834961	120.0
1322.023193	184.0
1322.294189	152.0
1322.38501	252.0
1322.435669	164.0
1322.927979	148.0
1322.98584	164.0
1323.210327	256.0
1323.50708	72.0
1323.637451	40.0
1323.943115	200.0
1324.441406	40.0
1324.934204	152.0
1325.158569	160.0
1325.375977	152.0
1325.520874	124.0
1325.817993	172.0
1326.202148	224.0
1326.455811	156.0
1326.716797	332.0
1327.064819	164.0
1327.217163	164.0
1327.688477	84.0
1327.753784	248.0
1327.819092	112.0
1328.682251	156.0
1328.827393	200.0
1328.885376	208.0
1329.872314	200.0
1330.051636	132.0
1330.380493	104.0
1330.467651	80.0
1331.055786	148.0
1331.29895	212.0
1331.389771	196.0
1331.440674	196.0
1331.678955	192.0
1331.905518	316.0
1332.261475	132.0
1332.421265	172.0
1332.5448	244.0
1332.72644	236.0
1333.046143	84.0
1333.184204	140.0
1333.627563	164.0
1333.751221	112.0
1333.925659	124.0
1334.034668	156.0
1334.328491	188.0
1334.43457	232.0
1334.623535	224.0
1334.696289	196.0
1334.776245	324.0
1334.856323	68.0
1334.972656	188.0
1335.299927	108.0
1335.401733	112.0
1335.627197	144.0
1335.772705	108.0
1335.975098	108.0
1336.085571	56.0
1336.289307	172.0
1336.800781	176.0
1336.95874	176.0
1337.082397	212.0
1337.198853	164.0
1337.504639	204.0
1337.817627	124.0
1338.414673	240.0
1338.982666	136.0
1339.215698	124.0
1339.28125	216.0
1339.383301	140.0
1339.461182	260.0
1339.543579	156.0
1340.126343	152.0
1340.235718	152.0
1340.315796	192.0
1340.415039	152.0
1340.58313	128.0
1340.64917	152.0
1340.760376	148.0
1340.979004	136.0
1341.052612	196.0
1341.248657	256.0
1341.496582	180.0
1342.240234	156.0
1342.342285	164.0
1342.561157	120.0
1342.794556	144.0
1343.224854	168.0
1343.334229	44.0
1343.961792	148.0
1344.078491	184.0
1344.458008	136.0
1344.509033	140.0
1344.910522	80.0
1344.983521	168.0
1345.061646	136.0
1345.275513	284.0
1345.589355	192.0
1345.670532	136.0
1345.852295	120.0
1346.246582	148.0
1346.470215	240.0
1346.58252	160.0
1347.108521	240.0
1347.44458	128.0
1347.655273	172.0
1347.736816	40.0
1348.131348	40.0
1348.635742	56.0
1348.847656	156.0
1348.9646	196.0
1349.052368	192.0
1349.630005	180.0
1349.688477	172.0
1350.032104	172.0
1350.34668	168.0
1351.136719	104.0
1351.217163	136.0
1351.484497	60.0
1351.744019	84.0
1352.117188	100.0
1352.183105	100.0
1352.380737	224.0
1352.468506	68.0
1352.746704	100.0
1352.821899	180.0
1353.383667	164.0
1353.492188	200.0
1353.603394	144.0
1354.137939	180.0
1354.262451	220.0
1355.038208	180.0
1355.632568	88.0
1355.683838	132.0
1355.837769	84.0
1356.057617	148.0
1356.153931	168.0
1356.314209	240.0
1356.449463	148.0
1356.754028	176.0
1357.07666	164.0
1357.384644	232.0
1357.706909	180.0
1358.518188	168.0
1359.115723	208.0
1359.445923	164.0
1359.55603	140.0
1359.768921	116.0
1360.348755	216.0
1360.663574	188.0
1360.840698	124.0
1361.090332	152.0
1361.508911	156.0
1361.729248	132.0
1361.837646	204.0
1361.942261	176.0
1362.085083	172.0
1362.294922	148.0
1362.88269	52.0
1363.022217	108.0
1363.286743	92.0
1364.080566	124.0
1364.25708	64.0
1364.411377	144.0
1364.484985	80.0
1364.573242	180.0
1365.080566	176.0
1365.25708	160.0
1365.308472	156.0
1365.910156	252.0
1366.021973	128.0
1366.875488	240.0
1367.133057	56.0
1367.206665	92.0
1367.464233	44.0
1367.523071	160.0
1367.950073	220.0
1368.472778	188.0
1368.929321	72.0
1369.047119	116.0
1369.135498	108.0
1369.430176	168.0
1369.960449	176.0
1370.085693	100.0
1370.572021	252.0
1370.638306	124.0
1370.736694	200.0
1370.888916	224.0
1371.419556	148.0
1371.699707	136.0
1371.987183	136.0
1372.141968	84.0
1373.189941	344.0
1373.631714	140.0
1373.897339	140.0
1373.957642	112.0
1374.125977	196.0
1374.399048	136.0
1374.450684	164.0
1374.716309	192.0
1374.908203	148.0
1374.996826	164.0
1375.100098	200.0
1375.151733	172.0
1375.58728	76.0
1376.251709	176.0
1376.79187	168.0
1377.108398	196.0
1377.182251	144.0
1377.305908	152.0
1377.751099	208.0
1377.935791	104.0
1378.172241	172.0
1378.445679	112.0
1378.546509	204.0
1378.667358	116.0
1379.12561	144.0
1379.184692	192.0
1379.258667	140.0
1379.672607	196.0
1379.894409	160.0
1380.079224	120.0
1380.471191	132.0
1380.829956	180.0
1380.959351	132.0
1381.07019	188.0
1381.28479	188.0
1381.477051	252.0
1381.654663	108.0
1381.706421	136.0
1381.891357	192.0
1382.046753	236.0
1382.342773	252.0
1382.957031	124.0
1383.060669	124.0
1383.301025	224.0
1383.623291	96.0
1383.860229	112.0
1383.949097	176.0
1384.000977	48.0
1384.297119	216.0
1385.045166	216.0
1385.212646	132.0
1385.44519	176.0
1385.593384	160.0
1385.65271	148.0
1385.971069	164.0
1386.119507	144.0
1386.401123	152.0
1386.771606	156.0
1387.031128	160.0
1387.283081	104.0
1387.587036	176.0
1387.905884	152.0
1388.180298	60.0
1388.358276	232.0
1388.425537	188.0
1388.514038	96.0
1388.617798	52.0
1388.743896	144.0
1388.929443	124.0
1389.099976	160.0
1389.196411	92.0
1389.789185	248.0
1390.027466	140.0
1390.123901	176.0
1390.468506	184.0
1390.645264	204.0
1390.940308	148.0
1391.133301	156.0
1391.541626	144.0
1391.742188	212.0
1391.95752	184.0
1392.062256	176.0
1392.289917	156.0
1392.403076	160.0
1392.952759	88.0
1393.212769	180.0
1393.449585	304.0
1393.688232	88.0
1393.784912	48.0
1393.866577	212.0
1394.038574	164.0
1394.183472	168.0
1394.446289	64.0
1394.498291	156.0
1394.646973	124.0
1394.914551	176.0
1395.033569	240.0
1395.130127	224.0
1395.568848	96.0
1395.85144	240.0
1396.183838	324.0
1396.394287	160.0
1396.572754	132.0
1396.758789	144.0
1397.190186	100.0
1397.338989	152.0
1397.646851	232.0
1397.703613	116.0
1398.165039	128.0
1398.44043	108.0
1398.738159	40.0
1398.820068	84.0
1399.140137	212.0
1399.229492	132.0
1399.333008	172.0
1399.601807	116.0
1399.892212	116.0
1399.981567	88.0
1400.324219	124.0
1400.547607	40.0
1400.643311	232.0
1400.942383	120.0
1401.486328	156.0
1401.784424	204.0
1401.940918	208.0
1402.025146	480.0
1402.358276	196.0
1402.552002	140.0
1402.619141	268.0
1402.984375	336.0
1403.901611	176.0
1404.058228	184.0
1404.541016	204.0
1405.080078	148.0
1405.314209	192.0
1405.483032	60.0
1405.744263	176.0
1405.900879	160.0
1406.027832	140.0
1406.192017	184.0
1406.513306	168.0
1407.147583	152.0
1407.341675	144.0
1407.747437	212.0
1408.200439	56.0
1408.3125	116.0
1408.484375	112.0
1408.893555	164.0
1408.984863	228.0
1409.306152	112.0
1409.590088	132.0
1409.642334	184.0
1409.694702	184.0
1409.829224	196.0
1409.930908	180.0
1410.599121	136.0
1410.724609	196.0
1410.814697	196.0
1411.037109	144.0
1411.309326	172.0
1411.731812	228.0
1411.847778	192.0
1411.959961	188.0
1412.027222	64.0
1412.38623	68.0
1412.512451	160.0
1413.104492	160.0
1413.186768	144.0
1413.39624	164.0
1413.635742	156.0
1413.718018	236.0
1413.871094	220.0
1414.062378	92.0
1414.137207	220.0
1414.341553	216.0
1414.421631	196.0
1414.611816	212.0
1414.668701	168.0
1414.900757	104.0
1415.102905	192.0
1415.252686	200.0
1415.374146	172.0
1415.896606	208.0
1416.161621	180.0
1416.318237	128.0
1416.690674	124.0
1417.702148	184.0
1417.792847	120.0
1417.921387	244.0
1417.994507	108.0
1418.054443	108.0
1418.301758	168.0
1418.406738	152.0
1418.545654	212.0
1419.282837	132.0
1419.35144	172.0
1419.531372	172.0
1419.696411	152.0
1419.782471	172.0
1419.954224	228.0
1420.041382	164.0
1420.161377	156.0
1420.221436	132.0
1420.311646	124.0
1420.393433	176.0
1420.619019	156.0
1420.859009	120.0
1421.384277	140.0
1421.984619	144.0
1422.14978	220.0
1422.435059	140.0
1422.501587	152.0
1422.772827	124.0
1423.035645	160.0
1423.358521	200.0
1423.501221	144.0
1423.621338	136.0
1423.98938	208.0
1424.357422	64.0
1424.477539	112.0
1424.583496	164.0
1424.718018	136.0
1424.898315	188.0
1425.258911	132.0
1425.341553	172.0
1425.424316	140.0
1425.627197	224.0
1426.073486	136.0
1426.179443	156.0
1426.265991	168.0
1426.461426	152.0
1426.521606	188.0
1427.047852	232.0
1427.175659	116.0
1427.388184	220.0
1427.824219	148.0
1427.920166	140.0
1428.070679	204.0
1428.175903	168.0
1428.233398	224.0
1428.348999	132.0
1428.491943	132.0
1428.785278	168.0
1428.837891	184.0
1428.913208	188.0
1429.153931	124.0
1429.319458	76.0
1429.402222	136.0
1429.492554	88.0
1429.695801	164.0
1429.758911	176.0
1429.775879	68.0
1429.805298	152.0
1429.913086	164.0
1430.011841	132.0
1430.20752	112.0
1430.538818	232.0
1430.779663	168.0
1431.425537	228.0
1431.668213	204.0
1431.751099	180.0
1432.391357	116.0
1432.526855	188.0
1433.099854	148.0
1433.544067	208.0
1433.619507	208.0
1433.717407	64.0
1433.838013	148.0
1433.893677	188.0
1434.003784	92.0
1434.056519	228.0
1434.297729	136.0
1434.493774	220.0
1434.817993	136.0
1435.138794	212.0
1435.247681	104.0
1435.32312	80.0
1435.918945	196.0
1436.243286	132.0
1436.40564	144.0
1436.796997	200.0
1437.027466	168.0
1437.299438	164.0
1437.352295	156.0
1437.485107	124.0
1437.548462	132.0
1437.714478	136.0
1437.782471	48.0
1437.925903	176.0
1437.993774	92.0
1438.061646	192.0
1438.292236	300.0
1438.733521	132.0
1438.791016	124.0
1438.899658	128.0
1439.20166	108.0
1439.260132	172.0
1439.488647	180.0
1439.692505	156.0
1439.798218	100.0
1439.987061	128.0
1440.289185	180.0
1440.644287	124.0
1440.825562	132.0
1441.105103	136.0
1441.175537	172.0
1441.282471	156.0
1441.339355	144.0
1441.44519	84.0
1441.958984	144.0
1442.405029	160.0
1442.571289	128.0
1442.737671	140.0
1442.919067	56.0
1442.988892	152.0
1443.198853	168.0
1443.609497	180.0
1443.909668	128.0
1444.068481	144.0
1444.219849	132.0
1444.476929	200.0
1444.658569	144.0
1444.824951	148.0
1444.938477	148.0
1445.127563	116.0
1445.301636	144.0
1445.400024	256.0
1445.453003	176.0
1445.672485	152.0
1445.763306	160.0
1445.914673	164.0
1446.084839	196.0
1446.836792	228.0
1447.254517	136.0
1447.330322	52.0
1447.466553	168.0
1447.633179	96.0
1447.859253	128.0
1448.004272	160.0
1448.193604	136.0
1448.451172	144.0
1448.693604	120.0
1449.466431	112.0
1449.883179	76.0
1450.163696	184.0
1450.385132	168.0
1450.497192	64.0
1450.755859	220.0
1450.861084	192.0
1451.287842	140.0
1451.695068	172.0
1452.051636	212.0
1452.30188	48.0
1452.60791	176.0
1452.751587	172.0
1452.905396	216.0
1452.96582	124.0
1453.462646	180.0
1454.084961	184.0
1454.19873	208.0
1454.547974	112.0
1454.828857	40.0
1454.942749	108.0
1455.003418	76.0
1455.178101	80.0
1455.270996	52.0
1455.641235	132.0
1455.770386	68.0
1455.931152	160.0
1456.001587	144.0
1456.192383	164.0
1456.324829	140.0
1456.385498	64.0
1456.537476	132.0
1456.697021	160.0
1456.750122	176.0
1456.890991	216.0
1457.03125	104.0
1457.358032	48.0
1457.479614	188.0
1457.821533	64.0
1457.882324	172.0
1457.950684	120.0
1458.11792	120.0
1458.21875	152.0
1458.475098	144.0
1458.642334	208.0
1458.900879	144.0
1458.963379	208.0
1459.075684	204.0
1460.033813	108.0
1460.459717	184.0
1460.528198	248.0
1460.703125	208.0
1460.771606	116.0
1461.045532	172.0
1461.113159	148.0
1461.228149	156.0
1461.365112	208.0
1461.418335	152.0
1461.593384	140.0
1462.114014	172.0
1462.182373	168.0
1462.369629	136.0
1462.666504	228.0
1462.795898	116.0
1462.940552	172.0
1463.138428	196.0
1463.206909	148.0
1463.450562	192.0
1463.572388	192.0
1464.031982	184.0
1464.265381	152.0
1464.333984	180.0
1464.455811	196.0
1464.684326	120.0
1464.75293	80.0
1465.011963	240.0
1465.549683	188.0
1465.682373	224.0
1465.854126	148.0
1466.055786	112.0
1466.137329	180.0
1466.391113	128.0
1466.479004	196.0
1466.589355	128.0
1466.939941	228.0
1467.17627	128.0
1467.264893	168.0
1467.50415	204.0
1468.465088	160.0
1468.602295	180.0
1468.754883	188.0
1468.876953	180.0
1469.128662	148.0
1469.227905	168.0
1469.28894	144.0
1469.388062	72.0
1469.456787	156.0
1469.79248	160.0
1469.884033	68.0
1470.113037	144.0
1470.257935	124.0
1470.319092	136.0
1471.112915	152.0
1471.259766	180.0
1471.48877	248.0
1471.610107	204.0
1471.876343	152.0
1472.106934	128.0
1472.311646	160.0
1472.487305	140.0
1472.617188	176.0
1472.762329	192.0
1473.213013	220.0
1473.442261	164.0
1473.503296	212.0
1473.877686	140.0
1473.969482	124.0
1474.068726	116.0
1474.221558	132.0
1474.806519	208.0
1474.886597	136.0
1475.316528	144.0
1476.079224	188.0
1476.412231	144.0
1476.578003	244.0
1477.318359	172.0
1477.56311	120.0
1478.014526	108.0
1478.182861	140.0
1478.586304	220.0
1478.695679	132.0
1479.685181	200.0
1479.912842	140.0
1479.989502	188.0
1480.142578	184.0
1480.441284	180.0
1480.494873	188.0
1480.66333	216.0
1480.747559	144.0
1480.877808	204.0
1481.111572	112.0
1481.184204	152.0
1481.306763	132.0
1481.368042	172.0
1481.429321	160.0
1481.774048	360.0
1481.850708	116.0
1481.911987	220.0
1482.111206	148.0
1482.356445	224.0
1482.640015	188.0
1482.693604	188.0
1483.329834	160.0
1483.613525	128.0
1483.690186	184.0
1483.950806	140.0
1484.027466	112.0
1484.174805	188.0
1484.260376	88.0
1484.47644	152.0
1484.556641	204.0
1484.917114	124.0
1485.369629	68.0
1485.484741	320.0
1485.944946	196.0
1485.998657	108.0
1486.138672	200.0
1487.034668	156.0
1487.218872	124.0
1487.286011	212.0
1487.748535	116.0
1488.338501	204.0
1488.439819	180.0
1488.611938	236.0
1488.946411	68.0
1489.422729	232.0
1489.553223	184.0
1489.630127	144.0
1489.816772	148.0
1489.921997	132.0
1490.206299	116.0
1490.521362	120.0
1490.705811	144.0
1490.862183	144.0
1490.95874	100.0
1491.297607	132.0
1491.38208	88.0
1491.797241	124.0
1491.881714	184.0
1492.143188	180.0
1492.300415	292.0
1492.374878	168.0
1492.612183	120.0
1492.865967	152.0
1492.9198	144.0
1493.004395	132.0
1493.365845	208.0
1493.427368	96.0
1494.165894	232.0
1494.373657	172.0
1494.465942	88.0
1494.570312	200.0
1494.655151	176.0
1494.71936	160.0
1494.812256	188.0
1494.927734	152.0
1495.02002	184.0
1495.326416	172.0
1495.60498	152.0
1495.712769	144.0
1495.859009	32.0
1495.959106	212.0
1496.145386	160.0
1496.205444	160.0
1496.492065	140.0
1496.575073	180.0
1496.68811	160.0
1496.790649	124.0
1496.921509	168.0
1497.281006	172.0
1497.337402	176.0
1497.503784	212.0
1497.842651	156.0
1498.084595	148.0
1498.238647	92.0
1498.546143	152.0
1498.70459	256.0
1498.816528	156.0
1498.901245	168.0
1499.218872	204.0
1499.406494	272.0
1499.560059	300.0
1499.648804	136.0
1499.787598	196.0
1499.849243	160.0
1500.496826	152.0
1500.967163	164.0
1501.352783	136.0
1501.776978	136.0
1501.830933	120.0
1501.938965	164.0
1502.077759	328.0
1502.351074	104.0
1502.610107	48.0
1502.758911	200.0
1502.808105	168.0
1503.227417	60.0
1503.466675	156.0
1503.775391	112.0
1504.098511	212.0
1504.464111	164.0
1504.69397	216.0
1504.825195	192.0
1504.891235	204.0
1505.018311	172.0
1505.139893	212.0
1505.317993	236.0
END IONS

BEGIN IONS
PEPMASS=277.043
CHARGE=1
MSLEVEL=2
SOURCE_INSTRUMENT=LC-ESI-qTof
FILENAME=p4-A09_GA9_01_18333.mzXML
SEQ=*..*
IONMODE=Positive
ORGANISM=GNPS-NIH-SMALLMOLECULEPHARMACOLOGICALLYACTIVE
NAME=MLS001148665-01!94-20-2 M+H
PI=Dorrestein
DATACOLLECTOR=VP/LMS
SMILES=CCCNC(=O)NS(=O)(=O)c1ccc(Cl)cc1
INCHI=N/A
INCHIAUX=N/A
PUBMED=N/A
SUBMITUSER=vphelan
LIBRARYQUALITY=1
SPECTRUMID=CCMSLIB00000085435
USI=mzspec:GNPS:GNPS-NIH-SMALLMOLECULEPHARMACOLOGICALLYACTIVE:accession:CCMSLIB00000085435
SCANS=1839
46.494671	176.0
46.839027	176.0
47.304298	68.0
48.419594	76.0
48.823448	148.0
49.210827	200.0
49.23317	180.0
49.372921	180.0
49.573109	124.0
49.76387	148.0
49.983139	116.0
50.08873	216.0
50.183151	136.0
50.468361	180.0
50.77565	172.0
50.805435	144.0
50.836651	136.0
52.10891	196.0
52.702522	144.0
53.346004	192.0
53.484192	156.0
54.226173	144.0
54.725418	120.0
54.762444	144.0
55.12093	116.0
55.996201	120.0
56.328819	164.0
58.108284	184.0
58.931976	164.0
59.359028	180.0
59.477161	164.0
60.465126	176.0
60.744022	212.0
60.818504	172.0
60.952061	168.0
61.246094	232.0
61.409752	220.0
61.579876	136.0
61.928658	208.0
61.939621	168.0
62.437164	120.0
62.509529	176.0
62.541004	84.0
62.583508	200.0
62.629177	52.0
63.074142	180.0
63.366905	140.0
63.466606	208.0
63.87809	116.0
64.448837	124.0
64.768791	160.0
66.278343	164.0
67.600578	156.0
67.772507	168.0
67.834785	188.0
68.213982	176.0
70.519691	112.0
70.596596	132.0
70.60997	176.0
71.408295	180.0
72.918098	244.0
73.195389	216.0
73.282257	200.0
73.991035	176.0
74.186333	164.0
75.453392	148.0
75.723335	32.0
76.520378	184.0
77.052315	112.0
77.605377	112.0
78.380516	184.0
80.026016	140.0
80.838173	156.0
80.92588	76.0
81.327438	184.0
82.009117	156.0
82.178627	140.0
83.1903	164.0
83.828697	168.0
84.073059	156.0
84.603119	100.0
84.670868	184.0
85.129333	40.0
85.370064	112.0
86.758553	148.0
86.912491	204.0
87.002304	516.0
87.031281	216.0
87.745735	124.0
87.904274	192.0
88.005074	224.0
88.296577	132.0
88.997681	432.0
89.378983	148.0
90.309029	224.0
90.363892	128.0
90.909599	148.0
91.272415	40.0
91.738869	124.0
91.904793	216.0
93.03466	328.0
93.089653	212.0
93.279861	164.0
93.387535	228.0
93.899849	176.0
93.996307	108.0
94.034737	140.0
94.063858	172.0
94.765862	136.0
94.808495	224.0
95.049797	128.0
95.478256	80.0
95.653366	144.0
96.023575	208.0
96.183563	56.0
96.597816	144.0
96.681953	196.0
96.905174	180.0
97.358292	88.0
97.387749	156.0
97.517426	140.0
98.113861	56.0
98.510521	240.0
98.998398	256.0
99.016869	128.0
99.149605	220.0
99.931976	156.0
100.997253	116.0
101.55407	184.0
102.023941	160.0
103.30854	220.0
104.096962	132.0
105.075996	208.0
105.471077	192.0
105.658249	204.0
105.834267	88.0
105.965347	164.0
106.373451	264.0
106.558273	140.0
107.01281	148.0
107.045753	184.0
107.612785	168.0
107.866882	156.0
108.021561	120.0
108.050934	160.0
108.117149	104.0
109.649826	144.0
109.720695	132.0
110.367928	124.0
110.738335	164.0
110.79908	228.0
111.000954	9356.0
111.030632	136.0
111.054932	176.0
111.068558	116.0
111.275154	40.0
111.392754	56.0
111.426369	240.0
111.548256	84.0
111.647072	64.0
112.002975	620.0
112.280975	112.0
112.753876	40.0
112.933586	40.0
112.998802	3428.0
113.126144	128.0
113.236244	48.0
113.312508	56.0
113.533676	140.0
113.985107	536.0
114.001175	192.0
114.229599	136.0
114.685272	184.0
114.770546	88.0
114.953987	120.0
114.995346	1980.0
115.171753	60.0
115.449585	168.0
115.99411	184.0
116.49984	172.0
116.639511	56.0
116.964317	212.0
116.993355	632.0
117.022705	160.0
118.181473	112.0
118.224747	144.0
118.686142	104.0
118.749031	156.0
118.855331	116.0
119.241875	60.0
120.820572	236.0
121.100754	128.0
121.315491	72.0
121.752129	164.0
121.996017	132.0
122.403046	40.0
122.806335	244.0
123.603844	148.0
125.935913	148.0
125.96048	232.0
125.985054	112.0
126.011589	372.0
126.994781	772.0
127.866318	88.0
127.918083	164.0
128.004868	176.0
128.986542	120.0
129.010742	2408.0
129.618729	128.0
129.677643	184.0
130.013245	196.0
130.669983	108.0
130.708664	200.0
131.005554	908.0
131.698074	32.0
131.743759	68.0
132.006592	196.0
133.255798	68.0
134.841187	160.0
135.144104	184.0
135.676788	120.0
136.043335	204.0
136.612671	152.0
138.213165	60.0
138.937119	132.0
139.006653	9848.0
139.104599	76.0
139.131912	164.0
139.204697	60.0
139.30098	188.0
139.317429	108.0
139.479568	252.0
140.010361	540.0
140.303482	116.0
140.598312	52.0
140.7612	56.0
141.002716	2860.0
141.075439	80.0
141.09671	160.0
141.439728	80.0
141.726273	116.0
142.008759	308.0
143.115768	68.0
143.461227	80.0
145.082047	184.0
145.319473	188.0
145.757111	164.0
147.735886	160.0
149.025665	208.0
149.68483	120.0
149.974747	60.0
150.116135	40.0
150.332123	260.0
150.394257	144.0
150.814377	140.0
151.090698	120.0
153.401566	188.0
154.614304	152.0
157.346069	32.0
164.130936	120.0
164.792007	168.0
166.456909	156.0
166.950302	116.0
168.365112	128.0
169.684769	136.0
171.368927	152.0
171.801712	152.0
173.056183	172.0
173.189743	60.0
173.968521	120.0
173.986908	204.0
174.628281	92.0
174.867477	156.0
174.962189	5068.0
175.096527	100.0
175.288834	56.0
175.349442	180.0
175.713333	100.0
175.824158	76.0
175.96582	344.0
176.709366	68.0
176.84433	176.0
176.891968	104.0
176.958145	2456.0
176.995224	48.0
177.204468	104.0
177.286606	68.0
177.429733	36.0
177.954315	216.0
179.00267	200.0
179.191788	64.0
185.388199	88.0
190.963135	92.0
191.946274	48.0
191.986252	932.0
193.985001	168.0
195.163788	52.0
196.071259	56.0
202.32399	84.0
203.021011	148.0
204.048889	104.0
207.506332	32.0
217.973572	172.0
219.171158	84.0
220.106201	128.0
222.017822	128.0
229.089813	168.0
229.931061	112.0
238.0504	180.0
238.286911	52.0
247.94072	144.0
253.198822	168.0
254.781616	104.0
265.966797	132.0
274.941376	148.0
276.739594	108.0
277.190063	248.0
277.272919	108.0
279.225037	168.0
285.94986	172.0
307.214569	132.0
357.079773	56.0
369.009735	176.0
403.729218	56.0
475.729645	68.0
555.83783	92.0
600.274597	128.0
667.914673	96.0
706.874878	152.0
858.937988	168.0
922.413147	164.0
931.217041	164.0
938.58667	224.0
942.774231	128.0
950.416321	128.0
961.961975	172.0
963.709717	100.0
981.10614	176.0
981.89801	128.0
1002.328369	136.0
1014.50116	228.0
1048.332642	296.0
1054.541016	208.0
1058.733398	208.0
1062.940552	140.0
1068.990234	204.0
1114.169678	112.0
1116.955078	132.0
1119.450806	100.0
1121.522827	136.0
1122.322754	128.0
1125.685791	152.0
1126.473877	116.0
1130.518921	104.0
1134.624878	160.0
1135.731323	184.0
1135.932495	132.0
1137.355103	268.0
1171.994751	188.0
1172.703491	104.0
1179.672607	236.0
1184.476318	176.0
1188.027222	96.0
1189.214355	184.0
1191.377319	204.0
1198.429199	212.0
1204.174561	136.0
1211.029663	68.0
1212.477661	176.0
1215.147217	156.0
1216.2854	204.0
1218.535278	220.0
1220.592651	208.0
1220.805908	60.0
1221.197754	128.0
1222.81189	236.0
1225.973633	132.0
1228.002441	140.0
1228.267456	80.0
1229.488403	112.0
1232.707764	148.0
1245.816772	120.0
1249.732788	200.0
1251.358643	176.0
1251.598022	160.0
1252.844604	144.0
1261.185303	192.0
1263.037842	208.0
1268.851807	212.0
1271.618286	168.0
1272.711426	168.0
1279.544067	184.0
1289.123291	140.0
1289.52356	120.0
1291.918945	224.0
1293.063721	152.0
1302.758057	236.0
1304.748657	192.0
1311.976685	288.0
1312.798584	252.0
1322.892212	160.0
1328.64624	204.0
1331.832886	176.0
1339.149902	176.0
1348.63501	128.0
1349.176025	248.0
1351.34082	232.0
1356.467163	212.0
1366.616577	160.0
1367.300903	172.0
1368.868896	152.0
1369.848389	256.0
1370.879883	172.0
1373.453003	144.0
1376.338501	96.0
1380.151245	140.0
1386.035645	176.0
1387.154785	164.0
1391.049194	216.0
1391.383301	140.0
1392.541626	152.0
1399.278809	180.0
1400.947021	200.0
1406.039673	208.0
1407.256348	124.0
1409.086182	136.0
1414.582764	156.0
1415.466309	140.0
1420.352661	212.0
1421.823242	60.0
1423.917847	180.0
1428.435181	132.0
1431.422974	124.0
1431.912476	80.0
1446.273071	192.0
1450.181274	120.0
1458.948608	88.0
1459.906616	224.0
1460.157593	148.0
1461.7323	208.0
1461.89978	176.0
1462.485718	164.0
1468.222778	264.0
1468.626953	56.0
1470.31311	176.0
1471.129761	180.0
1480.16687	60.0
1480.384888	212.0
1491.021606	164.0
1493.035889	176.0
1496.129028	164.0
1500.76709	148.0
1501.399414	124.0
1503.196777	180.0
END IONS

BEGIN IONS
PEPMASS=310.207
CHARGE=1
MSLEVEL=2
SOURCE_INSTRUMENT=LC-ESI-qTof
FILENAME=p4-B02_GB2_01_18338.mzXML
SEQ=*..*
IONMODE=Positive
ORGANISM=GNPS-NIH-SMALLMOLECULEPHARMACOLOGICALLYACTIVE
NAME=MLS002154017-01! M+H
PI=Dorrestein
DATACOLLECTOR=VP/LMS
SMILES=CC(C)(C)NCC(O)COc1cccc2CC(O)C(O)Cc12
INCHI=N/A
INCHIAUX=N/A
PUBMED=N/A
SUBMITUSER=vphelan
LIBRARYQUALITY=1
SPECTRUMID=CCMSLIB00000085451
USI=mzspec:GNPS:GNPS-NIH-SMALLMOLECULEPHARMACOLOGICALLYACTIVE:accession:CCMSLIB00000085451
SCANS=1221
44.902447	144.0
44.915749	200.0
44.927753	156.0
44.967785	140.0
44.978462	168.0
45.050571	120.0
45.182919	172.0
45.220387	132.0
45.268581	168.0
45.281616	136.0
45.389179	184.0
45.450882	164.0
45.471012	152.0
45.491142	144.0
45.512627	140.0
45.52874	172.0
45.589191	112.0
45.648338	168.0
45.687344	192.0
45.725021	148.0
45.737133	72.0
45.826012	188.0
45.836792	168.0
45.892056	156.0
45.937908	156.0
45.957214	180.0
45.983784	100.0
46.01078	52.0
46.079659	168.0
46.09182	168.0
46.220276	180.0
46.254108	200.0
46.278477	164.0
46.28931	52.0
46.409904	148.0
46.465687	184.0
46.57547	144.0
46.593128	240.0
46.667877	116.0
46.707317	164.0
46.733162	140.0
46.746265	292.0
46.785789	216.0
46.904755	148.0
46.935467	144.0
46.979755	176.0
47.132999	164.0
47.214687	164.0
47.237938	92.0
47.250252	152.0
47.275764	192.0
47.521523	68.0
47.584656	136.0
47.71236	172.0
47.734421	48.0
47.761929	104.0
47.86377	88.0
47.934017	160.0
47.99329	172.0
48.008457	316.0
48.030525	76.0
48.04018	216.0
48.081573	84.0
48.266682	172.0
48.369057	184.0
48.459072	424.0
48.517281	168.0
48.533157	180.0
48.575523	196.0
48.601883	40.0
48.640743	148.0
48.856133	52.0
48.949383	156.0
48.967487	176.0
49.063633	164.0
49.08176	136.0
49.115231	96.0
49.284149	128.0
49.300919	304.0
49.492558	140.0
49.519165	64.0
49.70842	44.0
49.757545	172.0
49.836197	164.0
49.846031	80.0
50.073929	160.0
50.171154	88.0
50.202175	144.0
50.261417	240.0
50.292717	224.0
50.374363	168.0
50.399796	180.0
50.445019	160.0
50.506294	180.0
50.519966	152.0
50.653851	160.0
50.908321	156.0
50.925236	132.0
50.962299	172.0
50.972244	208.0
51.019146	64.0
51.051849	180.0
51.121555	232.0
51.211246	216.0
51.371769	160.0
51.385155	132.0
51.403706	112.0
51.545071	148.0
51.60574	188.0
51.659447	136.0
51.688061	124.0
51.739273	164.0
51.930168	172.0
51.983246	180.0
52.136906	268.0
52.395905	184.0
52.430485	88.0
52.442013	68.0
52.47517	132.0
52.519875	92.0
52.580471	152.0
52.616558	48.0
52.781265	160.0
52.794281	168.0
52.86227	100.0
52.972305	192.0
53.004177	128.0
53.043308	180.0
53.060703	140.0
53.081001	152.0
53.140472	160.0
53.197071	192.0
53.210136	160.0
53.260963	136.0
53.321983	220.0
53.511173	184.0
53.534382	116.0
53.5606	172.0
53.599934	172.0
53.652405	156.0
53.68594	152.0
53.700523	124.0
53.799747	116.0
53.887371	152.0
53.937057	96.0
54.058449	136.0
54.075298	132.0
54.0965	108.0
54.121391	116.0
54.188763	136.0
54.557129	104.0
54.589474	48.0
54.657139	136.0
54.779335	156.0
54.798489	268.0
54.829433	180.0
54.848591	124.0
54.878075	176.0
55.027092	140.0
55.19405	88.0
55.272446	128.0
55.324245	108.0
55.373108	188.0
55.540592	204.0
55.700008	200.0
55.785603	128.0
56.008804	116.0
56.046047	188.0
56.111626	116.0
56.122063	164.0
56.245888	136.0
56.396744	104.0
56.408703	28.0
56.480476	160.0
56.496933	160.0
56.622665	232.0
56.648129	200.0
56.673595	176.0
56.685581	192.0
56.73954	208.0
56.897064	128.0
57.050297	108.0
57.090893	204.0
57.110447	152.0
57.136017	124.0
57.165791	188.0
57.235352	148.0
57.313679	168.0
57.437298	92.0
57.471302	160.0
57.484066	156.0
57.517269	184.0
57.639599	160.0
57.689472	80.0
57.822578	188.0
57.89373	104.0
58.058914	176.0
58.127178	164.0
58.145554	164.0
58.156013	240.0
58.190926	64.0
58.27446	196.0
58.533035	140.0
58.580246	160.0
58.630527	36.0
58.667107	152.0
58.705227	100.0
58.720474	240.0
58.741829	180.0
58.856293	80.0
58.889889	176.0
58.917381	144.0
58.932663	148.0
58.952526	48.0
59.084019	196.0
59.163597	188.0
59.223278	156.0
59.312187	216.0
59.338245	148.0
59.376583	68.0
59.425667	84.0
59.474773	84.0
59.502407	152.0
59.542332	140.0
59.602242	160.0
59.623753	168.0
59.689854	208.0
59.945381	136.0
59.987366	216.0
60.128895	72.0
60.182926	188.0
60.263241	184.0
60.400829	208.0
60.564899	200.0
60.589684	136.0
60.619125	136.0
60.642368	120.0
60.761772	40.0
60.817635	236.0
60.885948	176.0
60.915459	192.0
61.061562	184.0
61.097546	180.0
61.128456	152.0
61.161854	132.0
61.231201	172.0
61.262356	204.0
61.320007	160.0
61.373653	164.0
61.401596	216.0
61.43539	192.0
61.54464	160.0
61.727455	116.0
61.777504	156.0
61.849487	156.0
61.960667	196.0
61.973202	48.0
62.053135	200.0
62.318378	168.0
62.365524	256.0
62.411476	208.0
62.514931	48.0
62.570019	204.0
62.670818	220.0
62.707062	52.0
62.7244	136.0
62.754353	40.0
62.956326	212.0
63.134899	256.0
63.145969	160.0
63.166531	192.0
63.269394	192.0
63.289974	148.0
63.44207	160.0
63.453167	124.0
63.513424	152.0
63.534046	204.0
63.567368	136.0
63.643559	168.0
63.700729	144.0
63.71344	172.0
63.870811	104.0
64.033157	196.0
64.112816	204.0
64.181358	160.0
64.272278	148.0
64.297806	92.0
64.328133	184.0
64.352081	172.0
64.371239	192.0
64.390404	148.0
64.438324	200.0
64.462296	212.0
64.511841	84.0
64.532623	156.0
64.553413	176.0
64.585396	136.0
64.596596	84.0
64.623787	156.0
64.641388	36.0
64.707016	52.0
64.735832	184.0
64.780678	128.0
64.830345	176.0
64.889656	136.0
64.912102	32.0
65.051682	136.0
65.083794	124.0
65.12394	144.0
65.149643	180.0
65.212311	180.0
65.238029	164.0
65.291084	176.0
65.36026	176.0
65.474548	228.0
65.538986	144.0
65.580887	84.0
65.606674	192.0
65.642143	188.0
65.717392	228.0
65.845482	280.0
65.943108	188.0
65.987679	56.0
66.036194	180.0
66.196404	204.0
66.209358	76.0
66.345352	172.0
66.366539	144.0
66.423302	152.0
66.478256	124.0
66.68309	192.0
66.699341	40.0
66.842995	196.0
66.995506	184.0
67.024834	152.0
67.065575	32.0
67.093285	60.0
67.165031	192.0
67.182976	112.0
67.197662	144.0
67.210007	256.0
67.333145	136.0
67.517815	136.0
67.560341	116.0
67.611069	204.0
67.660172	124.0
67.68309	152.0
67.707657	132.0
67.719124	56.0
67.750244	220.0
67.822342	40.0
67.860046	148.0
67.915802	192.0
67.994553	160.0
68.037231	144.0
68.109482	204.0
68.189995	268.0
68.236023	104.0
68.413696	132.0
68.445168	140.0
68.496033	160.0
68.556992	120.0
68.698784	188.0
68.721886	172.0
68.807404	200.0
68.885323	168.0
68.898537	156.0
69.000999	152.0
69.120087	124.0
69.165405	188.0
69.318794	120.0
69.482941	172.0
69.567574	204.0
69.593033	192.0
69.620659	136.0
69.640633	136.0
69.679802	160.0
69.741989	160.0
69.855988	188.0
69.919945	160.0
69.963226	256.0
70.068138	116.0
70.463539	152.0
70.510323	104.0
70.572174	120.0
70.726082	192.0
70.749512	172.0
70.779655	188.0
70.804771	172.0
70.844971	144.0
70.911995	176.0
71.041107	52.0
71.067947	156.0
71.130043	132.0
71.276154	136.0
71.36187	188.0
71.392136	148.0
71.496437	200.0
71.602501	76.0
71.683365	168.0
71.880653	156.0
71.954918	204.0
72.024155	132.0
72.139061	164.0
72.205002	116.0
72.223602	204.0
72.255745	124.0
72.303123	112.0
72.364059	136.0
72.384377	160.0
72.418251	184.0
72.430107	120.0
72.533012	224.0
72.550423	252.0
72.626724	100.0
72.711555	140.0
72.75399	180.0
72.830406	164.0
72.911957	140.0
72.970001	160.0
73.104126	196.0
73.139297	144.0
73.236916	152.0
73.267303	148.0
73.409042	224.0
73.485802	292.0
73.680428	200.0
73.798355	116.0
73.877029	192.0
73.933487	188.0
74.01223	120.0
74.149277	180.0
74.174988	204.0
74.214417	148.0
74.434044	184.0
74.485077	184.0
74.617889	224.0
74.700432	104.0
74.716423	204.0
74.748604	144.0
74.872551	172.0
74.9673	192.0
75.022453	184.0
75.070732	156.0
75.113846	160.0
75.188042	228.0
75.4869	204.0
75.504189	216.0
75.533592	176.0
75.556084	80.0
75.632217	152.0
75.698006	148.0
75.775955	164.0
75.801941	208.0
75.867805	196.0
75.91288	60.0
76.221863	192.0
76.267349	96.0
76.299751	216.0
76.435738	308.0
76.484467	132.0
76.503616	140.0
76.558372	152.0
76.639465	184.0
76.751015	56.0
76.835396	220.0
77.152573	48.0
77.240005	180.0
77.264252	224.0
77.287468	184.0
77.366859	244.0
77.469322	124.0
77.546417	156.0
77.667397	124.0
77.707741	212.0
77.734062	124.0
77.839386	144.0
78.009804	156.0
78.078377	196.0
78.141701	180.0
78.156822	192.0
78.254341	144.0
78.268425	284.0
78.294838	184.0
78.349548	208.0
78.370583	156.0
78.454262	224.0
78.49044	140.0
78.550407	100.0
78.596275	204.0
78.613922	256.0
78.67746	188.0
78.74456	144.0
78.900055	160.0
78.954872	132.0
78.976097	72.0
79.131821	148.0
79.176086	164.0
79.192024	224.0
79.280609	148.0
79.30365	188.0
79.452599	176.0
79.509468	164.0
79.715012	176.0
79.74559	188.0
79.816696	184.0
79.829147	96.0
80.12104	104.0
80.179848	172.0
80.233513	180.0
80.277893	160.0
80.490242	200.0
80.599197	152.0
80.67247	204.0
80.774399	140.0
80.826279	228.0
80.853127	92.0
80.907501	144.0
80.926514	128.0
80.982025	152.0
81.066231	92.0
81.234764	48.0
81.344223	172.0
81.394493	192.0
81.498672	132.0
81.595726	124.0
81.678444	236.0
81.719826	152.0
81.836815	152.0
82.029579	176.0
82.25325	172.0
82.269493	148.0
82.341484	180.0
82.526039	228.0
82.676178	72.0
82.705132	148.0
82.725044	124.0
83.03125	132.0
83.054832	124.0
83.089294	136.0
83.399818	200.0
83.421631	168.0
83.510727	80.0
83.532555	140.0
83.554382	92.0
83.576118	152.0
83.689064	216.0
83.716377	128.0
83.740051	124.0
83.767372	116.0
83.808769	168.0
83.93322	48.0
83.975159	112.0
84.106529	284.0
84.128433	140.0
84.192337	200.0
84.219734	176.0
84.25444	264.0
84.506737	164.0
84.653175	124.0
84.81073	236.0
84.900566	164.0
84.959259	60.0
84.988609	68.0
85.014305	180.0
85.030823	252.0
85.10302	132.0
85.155663	188.0
85.321037	280.0
85.494606	208.0
85.622803	180.0
85.821815	248.0
85.914032	144.0
85.956467	116.0
86.096764	196.0
86.137398	272.0
86.309273	108.0
86.472061	168.0
86.583138	312.0
86.607101	188.0
86.855591	200.0
87.051712	208.0
87.213142	340.0
87.228821	152.0
87.326454	220.0
87.385033	128.0
87.429688	124.0
87.46505	136.0
87.509727	140.0
87.583206	148.0
87.615891	188.0
87.8461	212.0
87.893692	148.0
87.942207	128.0
88.120819	140.0
88.139252	188.0
88.162582	160.0
88.2304	200.0
88.351433	112.0
88.379494	136.0
88.514267	188.0
88.538605	156.0
88.622902	132.0
88.684746	132.0
88.722229	176.0
88.919182	176.0
89.076904	160.0
89.144539	68.0
89.242279	176.0
89.259895	120.0
89.313744	172.0
89.353668	212.0
89.368294	148.0
89.430397	216.0
89.527206	240.0
89.641327	104.0
89.746407	192.0
89.809113	132.0
89.863815	96.0
89.877022	156.0
89.948738	208.0
90.016708	128.0
90.060143	164.0
90.096031	168.0
90.186737	140.0
90.237778	256.0
90.408012	84.0
90.527275	176.0
90.582199	76.0
90.665565	152.0
90.735695	200.0
90.970932	112.0
90.995613	104.0
91.029785	128.0
91.055397	1800.0
91.073738	216.0
91.092461	304.0
91.21978	192.0
91.236977	88.0
91.278717	76.0
91.297729	252.0
91.328163	180.0
91.408066	92.0
91.720398	244.0
91.827171	152.0
91.968361	160.0
91.993172	228.0
92.057281	224.0
92.115387	144.0
92.201675	172.0
92.226212	356.0
92.314156	116.0
92.403542	196.0
92.461456	224.0
92.53611	120.0
92.591637	112.0
92.608879	188.0
92.769829	228.0
92.821594	104.0
92.913658	108.0
92.961632	204.0
92.99617	40.0
93.034561	224.0
93.048004	204.0
93.06295	224.0
93.157463	124.0
93.270836	132.0
93.30928	148.0
93.363121	132.0
93.422745	180.0
93.540131	148.0
93.690338	192.0
93.759697	116.0
93.861214	188.0
93.877296	188.0
93.91008	140.0
93.962166	168.0
93.97567	200.0
94.000748	176.0
94.058647	288.0
94.133942	172.0
94.350342	132.0
94.369675	184.0
94.421883	240.0
94.495392	144.0
94.762573	152.0
94.783882	180.0
94.807137	164.0
94.847839	48.0
94.907112	264.0
94.956413	148.0
95.201553	200.0
95.348587	120.0
95.425377	200.0
95.442703	220.0
95.578049	32.0
95.749352	72.0
95.778564	80.0
95.829216	156.0
95.893524	172.0
95.918861	176.0
96.008545	224.0
96.123642	260.0
96.207565	160.0
96.227089	100.0
96.250519	188.0
96.277855	152.0
96.350128	164.0
96.529945	108.0
96.56514	168.0
96.694267	164.0
96.762779	128.0
96.792152	72.0
96.862656	120.0
96.980217	184.0
96.993935	228.0
97.031181	68.0
97.046867	156.0
97.101448	192.0
97.421715	108.0
97.457077	176.0
97.48262	176.0
97.527824	160.0
97.769737	172.0
97.891785	40.0
97.913445	148.0
98.11837	84.0
98.201187	60.0
98.31562	184.0
98.353119	140.0
98.428139	144.0
98.441956	136.0
98.623718	148.0
98.643478	220.0
98.667389	168.0
98.730476	112.0
98.799706	160.0
98.950111	52.0
99.154137	236.0
99.259201	144.0
99.298866	228.0
99.396065	152.0
99.459572	128.0
99.521118	184.0
99.546928	168.0
99.577919	152.0
99.634323	188.0
99.658165	132.0
99.72374	148.0
99.769455	200.0
99.803253	140.0
99.926567	220.0
99.958405	128.0
100.047966	172.0
100.06987	72.0
100.105995	140.0
100.197327	128.0
100.310921	232.0
100.326866	124.0
100.348801	204.0
100.470451	128.0
100.504372	156.0
100.690018	148.0
100.753937	72.0
100.789894	112.0
100.833862	48.0
101.125862	168.0
101.13987	180.0
101.185913	192.0
101.268013	176.0
101.282036	28.0
101.318092	152.0
101.356155	160.0
101.600761	124.0
101.867752	172.0
101.881813	104.0
101.974243	160.0
101.990326	152.0
102.051033	220.0
102.102913	112.0
102.223618	164.0
102.292046	116.0
102.426956	176.0
102.697044	152.0
102.737389	144.0
102.846352	224.0
102.890762	156.0
102.925087	164.0
102.978172	180.0
103.056534	1408.0
103.250427	44.0
103.390022	180.0
103.47908	68.0
103.671509	192.0
103.740425	156.0
103.787048	72.0
103.947296	160.0
103.996002	208.0
104.034569	144.0
104.061668	432.0
104.096855	200.0
104.300667	176.0
104.328537	164.0
104.366058	172.0
104.388092	204.0
104.461311	184.0
104.544724	104.0
104.58136	48.0
104.628181	180.0
104.736107	132.0
104.758514	148.0
104.854279	188.0
104.941925	276.0
105.036308	332.0
105.07177	1708.0
105.095177	204.0
105.15612	156.0
105.182648	156.0
105.222649	148.0
105.352135	232.0
105.386673	168.0
105.397972	268.0
105.636284	172.0
105.6772	88.0
105.851181	176.0
105.934364	208.0
106.043747	192.0
106.078598	308.0
106.105247	128.0
106.144699	132.0
106.164703	180.0
106.19957	196.0
106.277527	168.0
106.302147	132.0
106.353455	112.0
106.425308	176.0
106.540314	176.0
106.708839	56.0
106.731941	152.0
106.752014	208.0
106.86515	136.0
106.881607	212.0
106.900124	164.0
107.049835	2496.0
107.079315	192.0
107.169868	236.0
107.32151	112.0
107.361572	44.0
107.508041	40.0
107.640152	160.0
107.774414	52.0
107.82814	264.0
107.859138	212.0
107.995605	120.0
108.054337	492.0
108.130089	156.0
108.332458	228.0
108.364082	116.0
108.401375	124.0
108.473915	196.0
108.575508	196.0
108.670929	224.0
108.693756	40.0
108.766632	416.0
108.828667	136.0
108.883408	156.0
108.927834	144.0
109.046783	228.0
109.075882	160.0
109.163208	292.0
109.492004	120.0
109.552406	88.0
109.627419	60.0
109.940224	240.0
110.090523	224.0
110.115585	252.0
110.307816	180.0
110.339172	172.0
110.426994	176.0
110.473015	204.0
110.648804	180.0
110.707428	252.0
110.743034	188.0
110.818443	180.0
110.898071	92.0
110.975639	76.0
111.132942	164.0
111.166512	72.0
111.181206	184.0
111.222961	156.0
111.254669	156.0
111.342857	160.0
111.431076	196.0
111.521439	236.0
111.626549	60.0
111.689644	312.0
111.721199	156.0
111.744339	200.0
111.914818	48.0
112.142326	200.0
112.157082	64.0
112.214005	196.0
112.23719	84.0
112.557922	196.0
112.61705	180.0
112.638176	156.0
112.716339	200.0
112.936203	228.0
112.96582	140.0
113.050446	136.0
113.200745	140.0
113.215569	144.0
113.253693	132.0
113.36174	156.0
113.584351	152.0
113.60556	176.0
113.626778	148.0
113.705284	136.0
113.807182	168.0
113.856018	152.0
113.955856	248.0
113.991974	148.0
114.07061	116.0
114.183304	168.0
114.257751	208.0
114.282188	180.0
114.308815	188.0
114.394661	212.0
114.547264	136.0
114.566437	192.0
114.623962	132.0
114.658058	144.0
114.690025	264.0
114.732658	208.0
114.762505	196.0
114.849937	132.0
114.899002	152.0
115.010201	172.0
115.05587	4564.0
115.132164	136.0
115.197868	252.0
115.237701	168.0
115.405174	220.0
115.54847	164.0
115.593399	220.0
115.6362	96.0
115.734673	172.0
115.843895	40.0
115.938171	156.0
115.985321	216.0
116.061897	1704.0
116.141846	156.0
116.219078	164.0
116.302773	148.0
116.41011	200.0
116.493492	180.0
116.536842	212.0
116.55188	108.0
116.717392	140.0
116.824928	144.0
116.891624	36.0
117.07103	8068.0
117.095642	176.0
117.126289	156.0
117.154289	152.0
117.190918	64.0
117.324539	140.0
117.412048	80.0
117.42588	132.0
117.44313	56.0
117.488434	188.0
117.576897	240.0
117.665398	204.0
117.695625	248.0
117.740974	208.0
117.814407	132.0
117.833351	172.0
118.017563	80.0
118.042702	356.0
118.07299	736.0
118.091087	208.0
118.285828	152.0
118.326958	76.0
118.362877	268.0
118.469887	160.0
118.489388	196.0
118.55439	252.0
118.573891	168.0
118.595566	108.0
118.612907	144.0
118.660599	104.0
118.743156	164.0
118.810242	80.0
118.834717	156.0
118.933929	48.0
119.050232	740.0
119.086197	1692.0
119.370605	360.0
119.474998	184.0
119.516342	220.0
119.548981	108.0
119.579445	144.0
119.651276	120.0
119.751442	160.0
119.779762	220.0
119.825508	68.0
120.03257	116.0
120.061562	148.0
120.092857	260.0
120.129906	212.0
120.167801	232.0
120.303726	184.0
120.379524	184.0
120.482178	112.0
120.549911	152.0
120.751038	184.0
120.82103	172.0
120.972031	148.0
120.98735	96.0
121.023201	160.0
121.064491	172.0
121.239235	132.0
121.377342	116.0
121.434357	156.0
121.454094	88.0
121.502357	144.0
121.592323	200.0
121.675728	148.0
121.877792	168.0
121.899765	108.0
121.963501	120.0
122.042641	272.0
122.229599	144.0
122.291222	200.0
122.317635	100.0
122.366066	232.0
122.448662	188.0
122.745033	200.0
122.837662	188.0
122.855309	192.0
123.003159	100.0
123.064972	144.0
123.206322	164.0
123.35659	176.0
123.551193	112.0
123.599869	160.0
123.688393	144.0
123.727806	164.0
123.760506	132.0
123.912056	232.0
123.940857	232.0
124.000687	152.0
124.122612	84.0
124.19136	132.0
124.359985	156.0
124.542046	156.0
124.988892	140.0
125.006691	204.0
125.151375	132.0
125.231544	200.0
125.320122	168.0
125.405334	208.0
125.469971	100.0
125.592621	148.0
125.748802	116.0
125.786743	156.0
125.809067	124.0
125.884979	140.0
126.030167	172.0
126.048042	208.0
126.126266	120.0
126.26265	40.0
126.305145	228.0
126.415527	200.0
126.562508	184.0
126.750656	120.0
126.804436	204.0
126.878998	168.0
126.97258	176.0
127.054283	1856.0
127.086983	164.0
127.107178	144.0
127.170685	188.0
127.315948	152.0
127.340652	216.0
127.487717	208.0
127.52713	128.0
127.567528	188.0
127.826233	124.0
127.956421	228.0
127.995277	80.0
128.033508	52.0
128.062729	6536.0
128.134094	164.0
128.265396	96.0
128.303726	204.0
128.432251	176.0
128.495422	136.0
128.593826	176.0
128.642105	156.0
128.69313	180.0
128.714355	212.0
128.759521	172.0
128.784363	108.0
128.924423	188.0
129.002365	200.0
129.070145	5544.0
129.184448	204.0
129.220642	148.0
129.27269	56.0
129.290787	216.0
129.406235	228.0
129.467361	188.0
129.521729	100.0
129.553436	88.0
129.608902	100.0
129.628204	172.0
129.74379	192.0
129.793671	40.0
129.854279	132.0
129.95018	116.0
129.979675	136.0
130.000092	156.0
130.050018	184.0
130.07457	964.0
130.098145	220.0
130.127914	168.0
130.247559	68.0
130.420853	256.0
130.964645	136.0
131.049911	3180.0
131.085693	2296.0
131.118973	148.0
131.173676	104.0
131.20787	68.0
131.228378	244.0
131.255737	92.0
131.37056	152.0
131.457535	164.0
131.479294	124.0
131.508972	112.0
131.746445	156.0
131.766998	104.0
131.803558	308.0
131.82869	152.0
131.901825	72.0
131.961273	180.0
132.05658	2388.0
132.089798	488.0
132.144241	52.0
132.208298	164.0
132.229263	176.0
132.360733	156.0
132.38916	28.0
132.40976	132.0
132.550537	124.0
132.629715	160.0
132.701889	148.0
132.74205	56.0
132.797089	200.0
132.826904	120.0
132.880737	112.0
132.955399	92.0
132.987518	112.0
133.017365	80.0
133.065689	4016.0
133.096344	180.0
133.11528	224.0
133.143646	200.0
133.180389	188.0
133.308746	212.0
133.353622	172.0
133.423965	216.0
133.442352	56.0
133.474548	176.0
133.53894	164.0
133.573441	172.0
133.757523	156.0
133.787445	64.0
133.934814	224.0
134.070892	760.0
134.105316	196.0
134.149124	236.0
134.190613	124.0
134.27298	156.0
134.430496	84.0
134.486801	172.0
134.5159	52.0
134.557449	108.0
134.63826	240.0
134.670044	124.0
134.744553	204.0
134.887787	176.0
134.966568	108.0
134.987198	88.0
135.046402	140.0
135.080536	916.0
135.109787	44.0
135.223175	112.0
135.315689	128.0
135.341232	164.0
135.408386	160.0
135.496414	200.0
135.545059	60.0
135.679489	232.0
135.77919	168.0
135.811661	168.0
135.871979	204.0
135.942474	168.0
136.092468	344.0
136.117996	136.0
136.19928	132.0
136.271301	164.0
136.287567	184.0
136.503738	96.0
136.580475	128.0
136.610718	196.0
136.734039	220.0
136.750336	168.0
136.920288	128.0
136.950562	84.0
137.001816	216.0
137.237198	180.0
137.311813	120.0
137.533463	208.0
137.783325	204.0
137.841736	192.0
138.005356	144.0
138.026398	200.0
138.103577	176.0
138.176086	164.0
138.339905	208.0
138.405457	268.0
138.691269	240.0
138.944519	132.0
139.059494	88.0
139.134613	112.0
139.482285	204.0
139.505783	360.0
139.58989	140.0
139.609879	148.0
139.646866	124.0
139.682144	64.0
139.879807	252.0
139.973984	52.0
140.072891	152.0
140.089386	108.0
140.136505	128.0
140.171844	100.0
140.346268	116.0
140.388718	116.0
140.492493	212.0
140.532593	80.0
140.948166	100.0
140.976517	176.0
141.071808	2272.0
141.104156	152.0
141.212921	160.0
141.267334	32.0
141.343033	52.0
141.369064	208.0
141.399826	88.0
141.432968	100.0
141.468475	212.0
141.494507	148.0
141.532394	164.0
141.705292	56.0
142.044571	248.0
142.08287	508.0
142.191406	176.0
142.253113	168.0
142.26973	132.0
142.45636	128.0
142.497711	128.0
142.540482	40.0
142.72113	120.0
142.79248	56.0
142.813873	192.0
142.840042	184.0
142.944839	172.0
142.96376	180.0
143.048935	284.0
143.085724	8020.0
143.147064	32.0
143.242325	108.0
143.272751	104.0
143.354309	92.0
143.406738	172.0
143.490158	152.0
143.525925	180.0
143.585541	196.0
143.659485	204.0
143.735825	120.0
143.764465	176.0
143.865295	132.0
143.986481	176.0
144.012756	164.0
144.057693	2400.0
144.090561	1124.0
144.203888	60.0
144.271103	168.0
144.289642	160.0
144.332977	108.0
144.43103	80.0
144.48819	148.0
144.615265	60.0
144.660248	228.0
144.723907	156.0
144.833542	228.0
144.866684	44.0
144.999512	192.0
145.02037	124.0
145.065887	28180.0
145.102188	1768.0
145.163345	108.0
145.240631	176.0
145.274216	100.0
145.299469	128.0
145.33493	272.0
145.355774	96.0
145.39418	168.0
145.415771	52.0
145.451508	72.0
145.541122	112.0
145.603043	72.0
145.658279	92.0
145.69191	36.0
145.76767	180.0
145.831284	40.0
145.951477	176.0
145.968307	60.0
145.992355	104.0
146.039474	168.0
146.069626	2200.0
146.102051	348.0
146.1642	228.0
146.208862	112.0
146.254593	60.0
146.2883	44.0
146.355698	140.0
146.413498	56.0
146.437576	40.0
146.536346	188.0
146.624954	176.0
146.762253	108.0
146.8293	60.0
146.92659	180.0
146.941742	184.0
146.960678	84.0
146.987625	176.0
147.039322	184.0
147.048004	128.0
147.0811	17244.0
147.141693	112.0
147.1586	52.0
147.18515	80.0
147.222534	140.0
147.245529	92.0
147.281754	104.0
147.312225	176.0
147.328247	144.0
147.368713	136.0
147.467789	76.0
147.502045	72.0
147.540451	136.0
147.569321	44.0
147.661209	164.0
147.724106	136.0
147.777222	96.0
147.953995	104.0
148.03389	212.0
148.084518	1472.0
148.121078	188.0
148.152924	240.0
148.171951	156.0
148.230103	48.0
148.285843	40.0
148.360992	96.0
148.440994	48.0
148.557419	84.0
148.613205	96.0
148.641083	188.0
148.746689	172.0
148.78067	156.0
148.84137	84.0
148.889938	148.0
148.990677	92.0
149.092621	400.0
149.130463	72.0
149.148758	76.0
149.188797	84.0
149.221085	172.0
149.25444	132.0
149.29335	168.0
149.339554	104.0
149.436859	140.0
149.452927	128.0
149.487961	56.0
149.784973	72.0
149.858063	72.0
149.912521	172.0
149.982346	104.0
150.067673	184.0
150.089615	76.0
150.25058	68.0
150.412415	188.0
150.563019	96.0
150.594757	224.0
150.726685	184.0
150.885544	164.0
151.000473	136.0
151.021866	204.0
151.06163	52.0
151.122787	100.0
151.252487	116.0
151.269623	84.0
151.34552	112.0
151.362656	192.0
151.416534	220.0
151.521851	36.0
151.632126	136.0
151.649277	236.0
151.798828	172.0
151.987701	84.0
152.007324	72.0
152.060455	536.0
152.139862	176.0
152.208603	192.0
152.301926	104.0
152.333862	140.0
152.503403	204.0
152.547653	276.0
152.653366	128.0
152.697632	124.0
152.764053	132.0
152.796021	200.0
152.825546	124.0
153.002747	144.0
153.019989	80.0
153.071289	3960.0
153.180054	156.0
153.485657	164.0
153.559631	156.0
153.692841	156.0
153.734802	152.0
153.781204	168.0
153.912521	44.0
153.986603	148.0
154.078018	1428.0
154.139771	160.0
154.17189	60.0
154.369659	184.0
154.410126	76.0
154.478485	132.0
154.552704	52.0
154.589813	60.0
154.818954	192.0
154.867096	116.0
154.891861	176.0
154.911682	92.0
154.976089	56.0
155.017853	216.0
155.061478	1732.0
155.086121	9972.0
155.137177	248.0
155.1595	36.0
155.18924	200.0
155.226639	148.0
155.261154	224.0
155.30809	236.0
155.362854	140.0
155.385178	36.0
155.411224	232.0
155.431732	68.0
155.551453	60.0
155.607086	68.0
155.680557	124.0
155.744614	96.0
155.795868	160.0
155.924011	56.0
156.022797	156.0
156.061081	396.0
156.091888	1720.0
156.180099	44.0
156.23233	56.0
156.279602	160.0
156.381638	68.0
156.400345	232.0
156.44635	64.0
156.568359	140.0
156.65802	80.0
156.745224	220.0
156.762665	80.0
156.782593	148.0
156.858398	116.0
156.972046	96.0
157.002945	164.0
157.027771	188.0
157.065536	8336.0
157.133484	196.0
157.140793	104.0
157.211533	40.0
157.236481	48.0
157.258942	64.0
157.435364	108.0
157.526108	160.0
157.577301	232.0
157.598572	144.0
157.616058	108.0
157.763519	204.0
157.876022	96.0
158.071426	2068.0
158.106567	156.0
158.168747	84.0
158.192764	148.0
158.241348	52.0
158.258865	56.0
158.2789	40.0
158.341507	128.0
158.366547	52.0
158.476776	56.0
158.516861	96.0
158.635086	180.0
158.74498	152.0
158.805161	116.0
158.960709	232.0
158.978271	104.0
159.046112	540.0
159.081497	17600.0
159.136414	216.0
159.214874	112.0
159.287094	72.0
159.548431	196.0
159.674149	48.0
159.696793	40.0
159.748596	128.0
159.799927	64.0
159.857666	72.0
159.878876	64.0
160.051086	1500.0
160.08345	2016.0
160.148102	64.0
160.213379	140.0
160.328705	60.0
160.363708	72.0
160.510208	148.0
160.706955	132.0
160.752365	60.0
160.830597	68.0
160.911377	196.0
160.956833	132.0
160.977036	60.0
161.011307	160.0
161.06015	1348.0
161.095886	1308.0
161.179108	140.0
161.239761	164.0
161.26503	248.0
161.28273	64.0
161.305466	92.0
161.361084	76.0
161.502701	132.0
161.565933	132.0
161.854462	68.0
162.067093	200.0
162.09697	252.0
162.104584	236.0
162.168594	44.0
162.239563	104.0
162.319702	112.0
162.419601	196.0
162.444977	116.0
162.531235	128.0
162.574371	48.0
162.818085	184.0
162.863235	92.0
162.899353	184.0
162.960327	112.0
163.077103	1880.0
163.176361	216.0
163.588486	144.0
163.641937	92.0
163.792191	56.0
163.873718	204.0
163.914474	36.0
164.077057	164.0
164.230606	204.0
164.4832	240.0
164.536819	100.0
164.684921	100.0
164.702789	64.0
165.024796	224.0
165.070953	2772.0
165.162888	144.0
165.29335	132.0
165.339417	60.0
165.359894	52.0
165.490448	56.0
165.58519	180.0
165.82428	112.0
165.982391	140.0
166.074417	348.0
166.270935	192.0
166.439133	224.0
166.724258	152.0
166.811646	168.0
166.983917	72.0
167.357056	220.0
167.648117	64.0
167.684204	80.0
167.769257	148.0
167.893021	112.0
167.944611	124.0
168.057648	1416.0
168.096817	120.0
168.114883	208.0
168.140686	184.0
168.232437	168.0
168.432434	52.0
168.548691	128.0
168.843384	148.0
168.936508	148.0
169.036392	92.0
169.061981	1116.0
169.218582	64.0
169.366196	132.0
169.45491	160.0
169.485367	112.0
169.775681	140.0
169.848297	184.0
170.009155	44.0
170.029922	276.0
170.070602	1944.0
170.112976	148.0
170.419434	36.0
170.445404	44.0
170.514191	172.0
170.702744	200.0
170.843201	300.0
170.871811	84.0
170.910843	52.0
170.998901	148.0
171.022736	168.0
171.053482	380.0
171.08139	26464.0
171.171127	36.0
171.213638	144.0
171.239105	80.0
171.309174	80.0
171.358673	64.0
171.473328	48.0
171.585403	188.0
171.64357	104.0
171.676666	68.0
171.890564	36.0
171.916656	132.0
171.974075	76.0
171.994965	120.0
172.084396	3480.0
172.201233	72.0
172.235184	64.0
172.320358	184.0
172.350128	220.0
172.428528	76.0
172.695206	92.0
172.930679	92.0
172.962677	88.0
173.063995	1076.0
173.097534	4076.0
173.180542	68.0
173.21608	64.0
173.252747	164.0
173.273697	52.0
173.297836	76.0
173.368881	136.0
173.399475	100.0
173.417831	48.0
173.457138	144.0
173.501709	136.0
173.680801	240.0
173.70639	156.0
173.761337	52.0
173.952911	112.0
174.0522	208.0
174.065414	344.0
174.094849	1504.0
174.15509	56.0
174.178741	76.0
174.310089	48.0
174.467789	156.0
174.604523	116.0
174.833389	232.0
174.887924	104.0
174.954468	128.0
175.022919	232.0
175.07576	4060.0
175.17041	164.0
175.383835	72.0
175.433929	104.0
175.658066	52.0
175.795258	208.0
175.906113	120.0
175.990585	28.0
176.082031	204.0
176.151688	204.0
176.254715	196.0
176.601028	48.0
176.844452	136.0
176.89473	132.0
176.990051	180.0
177.074478	172.0
177.095856	176.0
177.186035	116.0
177.358276	164.0
177.4272	116.0
177.594254	176.0
177.668533	144.0
177.726898	168.0
177.913605	160.0
178.061371	136.0
178.093246	124.0
178.26062	100.0
178.667419	184.0
178.816422	148.0
178.914917	84.0
179.085327	152.0
179.485062	76.0
179.607742	152.0
179.719788	104.0
180.048126	148.0
180.17366	172.0
180.200378	180.0
180.427536	104.0
180.566589	176.0
180.887665	104.0
180.95459	108.0
181.06839	392.0
181.104553	172.0
181.44487	152.0
181.632584	56.0
181.815018	108.0
181.919693	92.0
182.072632	372.0
182.10202	160.0
182.215103	80.0
182.255402	168.0
182.350021	248.0
182.701706	96.0
182.760895	160.0
182.907791	116.0
182.997742	132.0
183.080795	24028.0
183.144913	92.0
183.170105	60.0
183.231659	80.0
183.291336	56.0
183.315582	92.0
183.34523	48.0
183.406494	60.0
183.455734	52.0
183.511948	132.0
183.612122	36.0
183.693039	36.0
183.729675	44.0
183.863022	60.0
183.90686	148.0
183.925095	84.0
184.084702	2736.0
184.132996	60.0
184.268051	188.0
184.384247	80.0
184.42749	52.0
184.716812	108.0
184.841263	248.0
184.881851	148.0
184.995529	60.0
185.079712	504.0
185.08609	336.0
185.169891	200.0
185.206726	68.0
185.250076	132.0
185.27623	152.0
185.40451	92.0
185.426193	112.0
185.456009	68.0
185.531906	100.0
185.64035	156.0
185.689178	168.0
186.064041	660.0
186.091415	136.0
186.174957	144.0
186.348801	104.0
186.370529	128.0
186.457489	68.0
186.490097	160.0
186.775589	60.0
186.944275	144.0
187.072189	420.0
187.099411	144.0
187.156586	48.0
187.205612	52.0
187.317276	60.0
187.505264	140.0
188.405716	244.0
188.430298	36.0
188.72821	140.0
189.090881	1140.0
189.187836	136.0
189.269974	152.0
189.996262	172.0
190.102859	188.0
190.171875	80.0
190.957657	116.0
191.040176	76.0
191.075943	32.0
191.109253	172.0
191.329132	124.0
191.68718	148.0
191.772614	192.0
192.112961	148.0
192.318726	152.0
192.680466	220.0
192.862839	80.0
192.965134	76.0
193.014893	60.0
193.073212	92.0
193.090134	152.0
193.77327	152.0
194.09201	176.0
194.169647	72.0
194.189072	84.0
194.324997	204.0
195.90686	40.0
196.099121	256.0
196.375137	140.0
196.55368	112.0
196.96965	56.0
197.397247	148.0
197.514709	140.0
198.082947	120.0
198.422028	112.0
198.755783	240.0
198.80069	240.0
199.075165	164.0
199.179703	136.0
199.459503	152.0
199.505661	168.0
199.87973	128.0
200.108215	704.0
200.209076	88.0
200.335831	120.0
200.459793	100.0
200.561249	44.0
200.690353	116.0
200.75296	96.0
200.867599	316.0
200.896805	40.0
200.956497	152.0
201.019806	196.0
201.051529	96.0
201.092209	42900.0
201.141174	60.0
201.164261	160.0
201.188934	124.0
201.206955	80.0
201.267578	32.0
201.326996	80.0
201.348419	72.0
201.390778	60.0
201.434402	108.0
201.466156	112.0
201.491409	96.0
201.560593	112.0
201.612259	56.0
201.708939	60.0
201.905151	120.0
201.954361	60.0
201.990692	180.0
202.018295	84.0
202.043762	192.0
202.095078	5264.0
202.162598	28.0
202.306702	48.0
202.397537	108.0
202.510818	60.0
202.547638	36.0
202.598618	104.0
202.719788	120.0
202.748795	112.0
202.809296	92.0
202.863113	144.0
202.944046	68.0
202.981247	152.0
203.09938	708.0
203.134399	40.0
203.157089	40.0
203.270569	148.0
203.350037	112.0
203.42099	96.0
203.469254	116.0
203.564636	148.0
203.600464	228.0
203.693588	80.0
203.724838	244.0
203.756088	40.0
203.77597	128.0
203.881119	128.0
204.410034	96.0
204.466949	80.0
204.512497	168.0
204.69754	84.0
204.892258	76.0
204.988083	52.0
205.082138	192.0
205.412888	48.0
205.721558	48.0
206.120407	644.0
207.059219	116.0
207.099319	108.0
207.128235	164.0
207.408768	244.0
208.447678	52.0
208.726486	104.0
208.778259	224.0
209.299088	140.0
209.402756	132.0
209.866714	68.0
210.120514	88.0
210.825043	84.0
211.079422	112.0
211.800049	48.0
212.437759	104.0
212.696014	92.0
212.74826	44.0
213.320526	104.0
213.372864	112.0
213.483353	56.0
213.710236	60.0
213.748062	84.0
214.726868	136.0
214.779373	96.0
214.852295	184.0
215.269669	148.0
215.383575	72.0
216.202209	80.0
216.582809	80.0
216.887268	216.0
217.201279	224.0
217.641479	52.0
218.116455	1996.0
218.187958	196.0
218.570312	136.0
218.908813	184.0
219.101059	1112.0
219.341904	76.0
219.878708	68.0
220.100143	316.0
220.162109	112.0
221.108124	128.0
221.185074	144.0
221.291656	40.0
221.753769	40.0
222.011688	124.0
222.340988	168.0
222.438934	32.0
223.122177	136.0
223.282745	204.0
223.342224	100.0
223.979202	76.0
224.40535	52.0
224.563385	52.0
224.742371	68.0
225.79686	104.0
226.075073	164.0
226.494217	60.0
227.414719	104.0
227.459732	52.0
227.720963	180.0
227.907211	108.0
228.628891	136.0
229.128723	116.0
229.547668	68.0
230.287048	116.0
230.64357	172.0
230.824966	124.0
231.35141	160.0
231.39682	80.0
231.857239	84.0
233.61525	112.0
234.690308	76.0
235.02887	120.0
235.444031	292.0
235.465408	56.0
235.495941	148.0
235.581467	124.0
235.773956	52.0
235.835083	156.0
235.865646	220.0
235.914566	92.0
235.951248	104.0
236.027679	200.0
236.129318	18596.0
236.195892	28.0
236.223419	68.0
236.285675	136.0
236.348846	128.0
236.403931	160.0
236.477371	72.0
236.535538	92.0
236.670227	68.0
236.834625	88.0
236.857239	64.0
236.884613	48.0
236.919922	76.0
236.997971	52.0
237.053116	152.0
237.086823	104.0
237.132568	1976.0
237.172638	68.0
237.240082	144.0
237.399521	116.0
237.516052	104.0
237.632629	60.0
237.706268	60.0
237.752304	60.0
238.143433	348.0
238.314926	136.0
238.47403	112.0
238.584686	80.0
238.624649	36.0
238.679993	68.0
238.72612	144.0
238.913742	260.0
239.061417	60.0
239.138092	140.0
239.406204	60.0
239.513992	132.0
240.054306	104.0
240.479065	32.0
241.177094	80.0
242.049515	116.0
243.252426	144.0
244.305862	180.0
244.589035	100.0
245.554901	68.0
245.723343	108.0
246.688324	176.0
246.919708	120.0
249.022675	124.0
251.125107	124.0
252.321884	56.0
252.638138	164.0
252.998901	244.0
253.252213	200.0
253.416946	76.0
253.442291	152.0
253.543686	164.0
253.645111	148.0
253.927307	164.0
254.016113	116.0
254.138748	14928.0
254.224777	92.0
254.323105	64.0
254.433807	108.0
254.501663	72.0
254.615982	80.0
254.806564	68.0
254.873291	56.0
254.924133	44.0
254.974976	104.0
255.002609	184.0
255.142059	1464.0
255.267441	48.0
255.537811	92.0
255.582352	56.0
255.661896	48.0
255.961121	36.0
256.002533	28.0
256.147156	300.0
256.212738	64.0
256.483612	188.0
256.572845	80.0
256.639801	80.0
257.156586	64.0
257.766541	56.0
258.239685	68.0
258.598022	76.0
261.431824	68.0
262.062958	108.0
262.462616	80.0
265.155396	52.0
267.835846	52.0
268.62793	140.0
268.960785	72.0
269.166443	68.0
270.294159	76.0
281.593994	76.0
283.088867	140.0
284.997467	52.0
286.356506	72.0
289.40921	44.0
289.764832	76.0
290.758362	128.0
294.301971	84.0
298.588837	44.0
307.025299	96.0
310.035278	240.0
310.200012	904.0
311.204285	184.0
311.846222	76.0
312.320862	72.0
312.66214	108.0
314.53717	84.0
318.950684	112.0
320.915741	64.0
322.207733	64.0
323.348389	128.0
332.031006	96.0
333.617706	92.0
333.759521	76.0
334.246918	44.0
336.367981	80.0
338.360291	48.0
351.978149	92.0
352.714142	52.0
355.369263	124.0
358.825623	44.0
363.800446	80.0
367.404266	40.0
379.321777	188.0
381.227448	76.0
383.940796	76.0
384.518188	104.0
396.355194	128.0
407.459137	48.0
409.329407	140.0
413.228455	132.0
413.499542	60.0
419.323547	108.0
420.23288	88.0
435.821594	56.0
437.843262	120.0
440.207764	80.0
446.060699	140.0
446.695648	52.0
449.632355	60.0
456.805664	28.0
457.959198	108.0
487.050018	60.0
496.056091	88.0
508.621887	36.0
517.842468	64.0
551.549438	152.0
557.821167	116.0
569.956238	60.0
570.461609	156.0
571.702942	44.0
579.011902	56.0
607.529053	88.0
644.797607	116.0
667.066956	36.0
675.456665	32.0
675.953308	272.0
680.800171	36.0
711.17334	76.0
720.224976	148.0
734.06604	100.0
739.268066	40.0
752.192505	48.0
753.787231	48.0
755.755676	196.0
755.892456	92.0
773.753235	64.0
787.577515	56.0
802.65155	148.0
807.044434	176.0
818.158752	140.0
820.226562	112.0
832.854858	52.0
835.493347	64.0
850.169495	148.0
852.190247	212.0
855.691467	60.0
864.692566	124.0
869.979553	88.0
873.970154	160.0
875.730286	184.0
876.07782	96.0
880.9505	132.0
885.108215	160.0
890.522583	116.0
894.553955	232.0
896.793579	140.0
899.406067	208.0
906.427124	164.0
907.763855	200.0
913.04248	68.0
914.54657	172.0
932.765259	116.0
944.026123	100.0
945.329102	200.0
945.892151	148.0
946.571716	148.0
954.973206	44.0
956.431396	260.0
959.764221	136.0
960.072571	80.0
960.1651	124.0
961.793884	116.0
962.102539	184.0
963.152283	168.0
969.72937	212.0
970.894958	60.0
978.568909	260.0
982.532654	148.0
988.192993	52.0
997.662903	204.0
999.329529	176.0
1000.884155	168.0
1002.402222	240.0
1007.506531	156.0
1011.319519	132.0
1012.889771	224.0
1019.361023	128.0
1020.689514	132.0
1026.203491	192.0
1030.869385	224.0
1033.644653	236.0
1034.39978	40.0
1034.790405	148.0
1036.87854	208.0
1037.647705	160.0
1040.168945	160.0
1041.029175	176.0
1043.863037	76.0
1044.710327	164.0
1045.606445	168.0
1047.653931	164.0
1049.484375	188.0
1050.425903	124.0
1054.571167	64.0
1056.265259	92.0
1057.048096	28.0
1057.675903	148.0
1058.187256	208.0
1058.43335	216.0
1059.048584	104.0
1059.275269	180.0
1060.033203	164.0
1066.900146	200.0
1070.446045	168.0
1072.120239	176.0
1073.241455	176.0
1074.265381	32.0
1074.337158	176.0
1077.424927	212.0
1079.096069	196.0
1079.863159	88.0
1080.098633	144.0
1081.930908	140.0
1083.561523	140.0
1083.882568	248.0
1086.400269	40.0
1087.837402	84.0
1093.417725	132.0
1093.522949	108.0
1096.710815	168.0
1098.63623	140.0
1099.797607	228.0
1101.501099	236.0
1102.94165	172.0
1107.844971	144.0
1112.540039	180.0
1113.117676	260.0
1113.403198	232.0
1113.768433	176.0
1115.183716	92.0
1116.885864	124.0
1119.06189	148.0
1120.307373	96.0
1122.733521	172.0
1123.220337	136.0
1124.034302	156.0
1124.461426	220.0
1124.855225	180.0
1125.395996	168.0
1126.678223	120.0
1127.359741	208.0
1127.600342	148.0
1129.586182	204.0
1138.050415	248.0
1138.312256	200.0
1142.230469	80.0
1143.78479	168.0
1144.404175	176.0
1144.451294	176.0
1145.218994	128.0
1145.811768	156.0
1146.640625	124.0
1147.334839	104.0
1147.692139	132.0
1148.514893	64.0
1149.513428	168.0
1149.749634	144.0
1150.525757	92.0
1150.856689	204.0
1151.059204	168.0
1151.295532	112.0
1151.937134	136.0
1153.173706	180.0
1154.58667	80.0
1156.433716	144.0
1158.106079	136.0
1159.352661	156.0
1160.016846	140.0
1160.559204	96.0
1161.549316	96.0
1162.404175	156.0
1162.49231	164.0
1163.293213	156.0
1167.866211	128.0
1168.668945	112.0
1169.62854	156.0
1169.703369	52.0
1170.207153	140.0
1172.60498	184.0
1174.220703	148.0
1175.039307	156.0
1175.148438	136.0
1175.298584	60.0
1176.185669	120.0
1176.335938	168.0
1177.91333	144.0
1178.049927	140.0
1178.343628	100.0
1178.5896	132.0
1179.478027	52.0
1180.414673	68.0
1182.932373	184.0
1183.240479	220.0
1184.322388	128.0
1184.986938	156.0
1185.843506	160.0
1186.87854	156.0
1187.818115	128.0
1188.511108	160.0
1188.737549	236.0
1189.650269	172.0
1190.508545	216.0
1192.59021	140.0
1193.985962	180.0
1200.859253	180.0
1201.438721	68.0
1201.52832	184.0
1202.949951	152.0
1206.728882	144.0
1207.565552	160.0
1207.717773	120.0
1209.329102	200.0
1209.862793	228.0
1210.67981	168.0
1210.894531	212.0
1212.384033	164.0
1214.436157	152.0
1214.505615	52.0
1216.67749	196.0
1216.746948	136.0
1218.044556	148.0
1218.545654	220.0
1218.990356	164.0
1219.136353	172.0
1221.055054	180.0
1222.94751	212.0
1225.043457	140.0
1225.614746	44.0
1225.997925	168.0
1232.117188	140.0
1233.165405	196.0
1233.402954	168.0
1233.689575	108.0
1234.165039	152.0
1234.213989	80.0
1234.675415	188.0
1234.766357	180.0
1238.47583	200.0
1240.45874	164.0
1242.289062	116.0
1242.478394	204.0
1243.046753	160.0
1243.130981	152.0
1243.187134	172.0
1243.615234	192.0
1244.289062	136.0
1246.810791	152.0
1247.956543	164.0
1248.845581	168.0
1249.334961	180.0
1251.939209	176.0
1252.763306	168.0
1254.947998	76.0
1258.48999	152.0
1258.574707	92.0
1260.185059	72.0
1262.114624	64.0
1262.793457	152.0
1263.253296	128.0
1264.378296	148.0
1265.11438	176.0
1265.912842	192.0
1267.621582	148.0
1267.869629	160.0
1269.14563	192.0
1270.677612	56.0
1270.897461	216.0
1271.905273	152.0
1272.089844	216.0
1275.435425	196.0
1276.459229	144.0
1277.241455	212.0
1277.433594	120.0
1277.582886	204.0
1277.988403	132.0
1278.479492	108.0
1278.671631	156.0
1279.376221	132.0
1279.74646	208.0
1280.536865	124.0
1281.049805	168.0
1281.128174	132.0
1282.075806	200.0
1282.225464	228.0
1282.389282	88.0
1282.638794	212.0
1282.988159	204.0
1283.294678	152.0
1283.979248	128.0
1284.599731	220.0
1284.828003	160.0
1285.15625	160.0
1285.406006	200.0
1285.477295	176.0
1286.60498	188.0
1286.919189	144.0
1286.979858	212.0
1287.647583	200.0
1288.661865	232.0
1291.385376	128.0
1292.408447	196.0
1296.833984	92.0
1297.156616	136.0
1297.887817	180.0
1298.16748	84.0
1298.282227	196.0
1300.735962	208.0
1301.120483	176.0
1301.489746	156.0
1303.493774	152.0
1304.514404	104.0
1307.247437	176.0
1307.945557	140.0
1308.125488	136.0
1308.262329	188.0
1309.363892	160.0
1310.530884	208.0
1312.129272	236.0
1313.876221	128.0
1314.085327	128.0
1314.597656	168.0
1314.655396	48.0
1314.749268	220.0
1315.05957	160.0
1316.68396	56.0
1318.649048	124.0
1319.465942	148.0
1320.593994	132.0
1320.724121	156.0
1321.085815	140.0
1321.136475	156.0
1322.824707	172.0
1322.932495	112.0
1324.212769	168.0
1325.009644	40.0
1326.03125	192.0
1328.511108	208.0
1328.939209	188.0
1330.296265	64.0
1331.131226	100.0
1331.37085	144.0
1331.479736	172.0
1332.148071	160.0
1333.455933	116.0
1334.030151	228.0
1334.902588	176.0
1335.920776	140.0
1336.146362	152.0
1336.568359	44.0
1338.358887	168.0
1339.762085	204.0
1340.638916	192.0
1342.001953	200.0
1342.147827	168.0
1343.365723	192.0
1344.460205	140.0
1344.562378	168.0
1345.482056	156.0
1345.934692	188.0
1347.877686	72.0
1348.908203	160.0
1348.959351	140.0
1350.202271	88.0
1350.897095	220.0
1351.314087	52.0
1351.677856	148.0
1352.682617	144.0
1352.741211	120.0
1353.246338	124.0
1353.422119	176.0
1353.612427	44.0
1356.865601	124.0
1358.053467	136.0
1358.904419	160.0
1359.352051	128.0
1359.586914	208.0
1359.873047	108.0
1361.598389	160.0
1361.76001	208.0
1361.896851	228.0
1362.611084	212.0
1363.097046	40.0
1363.170532	140.0
1363.596802	148.0
1363.80249	168.0
1363.993652	148.0
1366.229126	84.0
1366.317383	164.0
1368.213135	248.0
1372.371704	176.0
1373.352173	80.0
1373.743164	120.0
1375.491943	60.0
1375.816772	172.0
1378.985596	208.0
1381.359131	160.0
1381.470093	136.0
1381.588501	212.0
1382.209961	60.0
1383.024048	144.0
1384.475098	164.0
1386.579102	140.0
1386.897827	172.0
1387.031128	216.0
1389.033203	144.0
1389.515503	140.0
1389.567383	208.0
1390.814087	248.0
1390.940308	196.0
1390.992188	72.0
1391.244629	144.0
1391.979614	188.0
1392.930298	232.0
1393.108521	100.0
1394.884521	192.0
1395.498291	224.0
1395.514771	124.0
1395.54834	196.0
1397.390747	160.0
1397.777588	144.0
1398.395264	144.0
1399.027954	52.0
1400.412964	220.0
1400.882202	152.0
1401.470825	112.0
1401.880615	184.0
1402.20105	40.0
1402.61853	184.0
1403.088135	208.0
1404.63916	220.0
1405.653809	168.0
1406.109131	104.0
1406.235962	144.0
1407.101807	172.0
1407.93811	120.0
1408.02771	152.0
1408.483398	156.0
1410.530762	148.0
1413.619507	180.0
1414.158447	80.0
1414.592529	232.0
1414.727295	112.0
1414.921875	188.0
1416.112549	104.0
1418.982544	160.0
1419.612305	196.0
1421.13501	112.0
1421.352661	176.0
1423.664673	192.0
1425.091797	124.0
1425.460083	172.0
1425.843262	172.0
1426.933228	92.0
1426.993408	232.0
1428.02356	208.0
1428.241699	56.0
1429.227173	184.0
1429.919556	132.0
1430.039917	124.0
1430.295898	180.0
1431.244385	156.0
1431.732422	144.0
1432.637695	60.0
1432.728149	196.0
1433.255493	116.0
1434.432495	172.0
1435.094604	172.0
1435.313232	240.0
1435.795898	216.0
1436.286133	104.0
1436.761353	208.0
1436.912231	172.0
1437.259399	168.0
1437.568726	192.0
1438.164917	172.0
1438.731079	156.0
1438.949951	156.0
1439.19165	160.0
1439.35022	92.0
1440.581177	152.0
1441.26123	104.0
1441.518066	232.0
1442.054688	148.0
1442.175537	172.0
1442.79541	160.0
1443.249023	212.0
1443.362427	144.0
1443.748169	228.0
1444.776855	144.0
1445.677246	172.0
1447.418213	168.0
1447.660522	208.0
1449.705933	184.0
1450.062012	88.0
1450.85791	164.0
1453.884399	204.0
1454.279053	128.0
1454.848267	164.0
1457.278564	140.0
1458.266479	116.0
1459.254639	220.0
1459.490356	156.0
1460.43335	204.0
1460.775635	252.0
1461.407104	136.0
1461.536377	92.0
1461.642944	136.0
1461.810303	172.0
1462.738892	140.0
1462.853027	108.0
1463.682861	196.0
1464.497803	104.0
1464.718628	176.0
1465.046265	144.0
1467.937256	216.0
1469.071289	168.0
1469.864746	144.0
1470.520996	176.0
1471.543945	228.0
1472.536621	124.0
1472.597656	76.0
1472.910889	152.0
1473.942261	144.0
1474.293701	200.0
1475.325562	204.0
1476.365479	184.0
1476.969604	112.0
1477.428589	244.0
1478.086548	124.0
1478.193726	116.0
1478.377441	180.0
1479.303467	192.0
1479.502563	76.0
1479.839355	160.0
1480.000122	176.0
1480.398315	180.0
1481.463013	244.0
1482.397705	216.0
1482.642944	168.0
1483.064453	180.0
1483.677734	132.0
1484.360107	120.0
1485.119263	236.0
1485.303345	188.0
1485.610229	196.0
1487.828003	136.0
1487.996948	68.0
1488.39624	144.0
1488.565186	148.0
1488.703369	132.0
1489.04895	132.0
1490.792847	120.0
1491.061768	244.0
1491.845825	212.0
1492.207153	152.0
1492.437744	152.0
1493.25293	188.0
1494.699219	160.0
1495.053223	292.0
1495.207031	56.0
1496.646606	156.0
1497.085449	180.0
1497.385864	132.0
1497.516724	172.0
1497.621338	208.0
1498.248535	140.0
1499.334961	152.0
1499.558472	164.0
1499.735718	120.0
1500.028687	160.0
1500.104248	224.0
1502.010376	148.0
1503.036377	128.0
1503.808105	96.0
1504.703613	208.0
1504.966064	176.0
END IONS

BEGIN IONS
PEPMASS=576.018
CHARGE=1
MSLEVEL=2
SOURCE_INSTRUMENT=LC-ESI-qTof
FILENAME=p4-D04_GD4_01_18364.mzXML
SEQ=*..*
IONMODE=Positive
ORGANISM=GNPS-NIH-SMALLMOLECULEPHARMACOLOGICALLYACTIVE
NAME=MLS002153829-01!Cefotetan69712-56-7 M+H
PI=Dorrestein
DATACOLLECTOR=VP/LMS
SMILES=CO[C@]1(NC(=O)C2SC(=C(C(=O)N)C(=O)O)S2)[C@H]3SCC(=C(N3C1=O)C(=O)O)CSc4nnnn4C
INCHI=N/A
INCHIAUX=N/A
PUBMED=N/A
SUBMITUSER=vphelan
LIBRARYQUALITY=1
SPECTRUMID=CCMSLIB00000085609
USI=mzspec:GNPS:GNPS-NIH-SMALLMOLECULEPHARMACOLOGICALLYACTIVE:accession:CCMSLIB00000085609
SCANS=1328
44.894375	168.0
45.284626	224.0
45.878555	96.0
46.045876	168.0
46.484497	236.0
46.507568	176.0
46.631168	184.0
47.620365	208.0
47.657455	208.0
48.375999	204.0
48.428616	212.0
48.964729	160.0
49.826401	172.0
50.183887	144.0
50.968037	232.0
51.016361	176.0
51.155773	176.0
51.2911	188.0
51.313908	160.0
52.111115	196.0
52.30238	180.0
53.431133	160.0
54.133209	172.0
54.605762	128.0
55.279968	192.0
55.678749	152.0
56.328152	80.0
56.50156	100.0
56.927242	116.0
57.315338	164.0
57.614075	188.0
57.657894	124.0
57.815174	224.0
58.210835	212.0
58.295902	148.0
58.584991	128.0
59.343033	152.0
59.484173	132.0
59.843918	100.0
59.982567	132.0
60.146072	168.0
60.616234	188.0
60.710793	144.0
61.103779	180.0
61.228306	160.0
61.365433	216.0
61.471497	168.0
63.27914	136.0
63.551754	140.0
63.832905	136.0
63.937897	116.0
63.977692	64.0
64.361931	160.0
64.481743	188.0
64.545685	168.0
65.112984	64.0
65.815094	184.0
66.646019	160.0
66.982788	252.0
67.294273	128.0
68.4272	144.0
68.56189	172.0
69.411972	92.0
70.738174	168.0
71.357216	188.0
72.048203	184.0
72.330605	192.0
73.036484	144.0
73.882591	160.0
73.916809	220.0
74.280022	160.0
74.506622	204.0
74.554733	176.0
74.654442	132.0
74.936737	176.0
75.062561	144.0
75.167786	240.0
75.383636	176.0
75.967117	168.0
76.001816	104.0
76.079918	148.0
76.599869	180.0
76.87709	104.0
77.822327	144.0
77.866226	140.0
79.744347	180.0
79.91684	68.0
80.118019	128.0
80.451508	132.0
80.524719	160.0
82.611626	100.0
83.425865	136.0
84.560425	120.0
84.573242	92.0
84.87735	108.0
84.972733	116.0
85.051636	160.0
85.163643	108.0
85.395226	124.0
85.411781	156.0
85.741356	144.0
86.006462	200.0
86.428299	132.0
86.568985	232.0
86.960159	128.0
87.857056	236.0
88.146454	116.0
89.23735	240.0
89.337021	180.0
90.006096	160.0
90.257408	160.0
90.310356	148.0
90.401169	148.0
90.425774	176.0
90.56588	72.0
90.617027	116.0
91.372658	136.0
91.940491	116.0
92.053116	136.0
92.16964	36.0
92.307266	204.0
92.469879	152.0
92.594322	136.0
92.647957	176.0
93.152481	168.0
93.658379	136.0
93.930161	156.0
93.993828	148.0
94.051727	152.0
95.015419	184.0
95.157097	60.0
95.629471	52.0
96.11277	160.0
96.14399	164.0
96.222069	160.0
96.268929	152.0
96.483856	108.0
96.6325	124.0
97.367577	180.0
97.434364	112.0
97.626991	148.0
98.00296	48.0
98.247437	164.0
98.49221	100.0
98.508011	192.0
98.687859	184.0
98.855988	76.0
99.030212	68.0
99.853874	140.0
99.887688	168.0
100.13649	188.0
100.495308	204.0
100.637024	188.0
101.018738	136.0
101.226891	160.0
101.353088	152.0
101.477356	48.0
101.683968	164.0
102.005341	176.0
102.691956	136.0
102.776688	172.0
102.919991	36.0
102.940186	108.0
102.967041	4848.0
103.010872	64.0
103.031075	76.0
103.249382	184.0
103.338379	172.0
103.388969	96.0
103.451714	124.0
103.544853	40.0
103.631958	68.0
103.798172	96.0
103.911758	148.0
103.971169	300.0
104.015076	272.0
104.051796	108.0
104.204117	200.0
104.749329	92.0
104.796181	72.0
104.963943	952.0
105.057137	96.0
105.422615	64.0
105.862442	192.0
105.967552	164.0
106.005836	180.0
106.030426	124.0
106.052971	220.0
107.492584	160.0
107.690773	108.0
107.772942	180.0
107.796135	132.0
108.054588	128.0
108.692757	112.0
108.736336	120.0
109.07489	156.0
109.332794	132.0
109.505592	92.0
110.005478	1076.0
110.060509	456.0
110.283836	204.0
110.603859	68.0
111.014671	176.0
111.474228	136.0
111.556198	200.0
111.922272	228.0
112.021408	820.0
112.039116	552.0
112.076035	72.0
112.09079	216.0
112.183525	152.0
112.21093	144.0
112.632988	216.0
112.996597	140.0
113.025978	284.0
113.233673	188.0
113.636436	180.0
113.999527	176.0
114.037689	464.0
114.060272	172.0
114.714668	100.0
115.053856	248.0
115.284538	68.0
115.374313	96.0
115.453423	192.0
115.526146	180.0
115.913673	136.0
115.975822	248.0
116.020836	116.0
116.316872	144.0
116.338341	180.0
117.394775	132.0
118.04261	124.0
118.358536	172.0
118.552902	176.0
118.859245	160.0
119.05764	192.0
119.241447	168.0
120.112381	172.0
121.562927	164.0
122.021996	196.0
122.046776	280.0
122.517166	108.0
122.627342	208.0
122.722137	80.0
122.867699	136.0
123.053116	204.0
123.256287	104.0
123.616722	80.0
123.762817	88.0
123.886841	180.0
124.068077	192.0
124.265945	208.0
124.950241	236.0
125.041473	100.0
125.066345	160.0
125.083763	160.0
125.179497	256.0
125.37999	140.0
126.038414	156.0
126.107567	168.0
126.12545	164.0
126.143333	188.0
126.738647	228.0
127.06823	104.0
127.683708	156.0
128.016785	148.0
128.050644	196.0
128.219528	184.0
128.246582	136.0
128.487854	184.0
128.63681	88.0
128.964905	320.0
128.986938	364.0
129.002762	32.0
129.023102	56.0
129.045715	200.0
129.075104	44.0
129.928986	148.0
129.999863	304.0
130.564987	216.0
130.599106	76.0
130.957733	160.0
131.001999	196.0
131.702286	148.0
131.919373	60.0
131.992538	156.0
132.015396	120.0
132.418182	176.0
132.814697	148.0
132.995972	204.0
133.508316	132.0
133.554306	152.0
133.825867	204.0
134.005508	160.0
134.046982	124.0
134.305191	96.0
134.559036	168.0
134.822357	140.0
135.055878	164.0
135.910721	160.0
136.019791	168.0
136.054611	204.0
136.691467	156.0
136.714737	128.0
136.997314	304.0
137.01564	432.0
137.04538	196.0
137.06926	644.0
137.098984	80.0
137.171234	116.0
137.528122	212.0
137.782654	104.0
138.0186	176.0
138.046677	108.0
138.077774	1220.0
138.306458	28.0
138.353271	36.0
138.624969	40.0
139.007797	692.0
139.034653	656.0
139.083374	340.0
139.244308	112.0
139.994522	136.0
140.012726	312.0
140.03154	144.0
140.697159	52.0
140.982971	132.0
141.024689	196.0
141.044006	232.0
141.212296	52.0
141.995163	156.0
142.026596	120.0
142.96315	172.0
143.032166	92.0
143.878433	188.0
143.95723	112.0
144.011414	372.0
144.253494	136.0
145.007462	472.0
145.948502	96.0
145.973846	2396.0
146.0495	156.0
146.100021	56.0
146.143326	80.0
146.179413	116.0
146.958023	312.0
146.977798	308.0
147.176819	92.0
147.965225	648.0
148.050293	128.0
148.85054	132.0
148.950119	196.0
149.015701	188.0
149.032715	176.0
149.570175	112.0
149.752777	64.0
149.928192	184.0
150.003754	140.0
150.074463	164.0
150.223221	60.0
150.660202	232.0
151.029312	180.0
151.119827	172.0
152.021606	180.0
152.294067	148.0
152.965332	112.0
152.982574	164.0
153.014282	240.0
153.066284	272.0
153.430923	196.0
153.58136	112.0
153.976257	156.0
154.019897	876.0
154.070114	144.0
154.146713	152.0
154.20108	144.0
154.529968	160.0
155.022705	260.0
155.040054	176.0
155.762054	44.0
155.983215	132.0
156.010727	380.0
156.029816	192.0
156.941605	404.0
156.979095	140.0
157.019516	388.0
157.273483	64.0
157.353363	88.0
157.948135	168.0
158.028931	348.0
158.468842	108.0
158.956894	180.0
159.017563	192.0
159.41481	164.0
159.583221	176.0
159.95369	184.0
160.974121	128.0
161.014526	152.0
161.742691	80.0
162.307648	164.0
162.929474	160.0
162.965042	164.0
163.153122	148.0
163.262451	116.0
164.051758	100.0
165.008743	408.0
165.051788	168.0
165.385162	160.0
165.485001	124.0
166.000534	672.0
166.041061	152.0
166.947617	156.0
167.004196	300.0
167.030914	332.0
167.949478	216.0
168.605255	56.0
168.700897	148.0
169.007446	172.0
169.042252	1808.0
169.086304	48.0
169.241623	44.0
169.531738	192.0
170.030777	172.0
170.062164	160.0
170.504929	176.0
170.975647	192.0
171.057571	3512.0
171.194321	36.0
171.249008	68.0
171.553879	60.0
171.572128	124.0
171.953171	496.0
171.994446	192.0
172.055573	352.0
172.117432	44.0
172.899048	56.0
172.934814	204.0
172.942078	136.0
173.054321	288.0
173.0849	116.0
173.150375	44.0
173.213242	120.0
173.391403	148.0
173.967926	188.0
174.646408	256.0
174.833206	148.0
174.856888	108.0
174.950317	148.0
174.972702	180.0
175.006927	188.0
175.035904	144.0
175.378372	168.0
175.922958	196.0
175.964859	200.0
176.037933	188.0
176.458069	204.0
176.772827	36.0
176.951492	156.0
177.009552	208.0
177.071976	144.0
178.021393	120.0
178.074509	176.0
178.14357	96.0
178.231247	120.0
178.398682	172.0
178.991989	156.0
179.021271	180.0
179.045242	144.0
179.826401	180.0
180.001846	480.0
180.032288	140.0
180.986954	348.0
181.041718	252.0
181.120514	188.0
181.238388	184.0
182.023239	320.0
182.067276	124.0
182.462265	116.0
183.023224	536.0
183.0569	204.0
183.159241	40.0
183.396362	132.0
183.995209	168.0
184.004272	232.0
185.380081	132.0
185.76236	36.0
185.965866	132.0
186.022079	180.0
186.987793	152.0
187.053116	168.0
187.990692	168.0
188.042542	168.0
189.015411	180.0
189.417862	136.0
189.910065	268.0
189.962524	7116.0
190.110077	76.0
190.273468	56.0
190.339371	68.0
190.487671	112.0
190.556351	72.0
190.674515	72.0
190.930191	152.0
190.96463	696.0
190.999039	184.0
191.048462	164.0
191.331924	84.0
191.957901	1420.0
192.026321	148.0
192.487183	56.0
192.663956	108.0
192.962311	188.0
193.00943	300.0
193.039841	300.0
193.501923	88.0
193.992279	160.0
194.025543	140.0
194.058823	132.0
194.744247	120.0
195.023376	216.0
195.208359	112.0
195.700867	48.0
195.994461	288.0
196.972565	188.0
197.037201	2620.0
197.190506	76.0
197.29393	56.0
197.626755	108.0
198.02359	232.0
198.029114	276.0
198.122299	80.0
198.974854	128.0
199.025162	252.0
199.207947	176.0
199.94899	640.0
200.043457	136.0
200.457153	112.0
200.482513	172.0
200.899811	244.0
200.928787	736.0
201.018311	176.0
201.94043	120.0
201.948547	160.0
202.032639	76.0
202.191086	72.0
202.930634	164.0
202.998474	104.0
203.338898	64.0
203.975128	108.0
205.986908	132.0
207.022598	172.0
208.041901	164.0
208.971283	76.0
209.037033	536.0
209.141068	188.0
209.90451	52.0
209.991028	144.0
210.041611	164.0
210.138138	68.0
210.758911	104.0
210.961227	144.0
210.998535	348.0
211.017441	72.0
211.042618	184.0
212.006088	216.0
213.002686	188.0
213.036118	240.0
213.963821	188.0
214.036606	160.0
214.08902	152.0
214.636856	80.0
214.966476	52.0
215.04805	5408.0
215.103882	100.0
215.15036	116.0
215.962708	172.0
216.050735	680.0
216.846924	88.0
216.978027	144.0
217.040543	408.0
217.586136	72.0
217.768188	136.0
217.806381	104.0
217.91214	196.0
217.95517	524.0
218.053192	184.0
218.932831	156.0
218.958878	200.0
219.360046	44.0
219.483871	200.0
219.942337	196.0
220.019302	252.0
220.026398	64.0
220.99025	168.0
221.010971	116.0
221.061569	160.0
222.038879	148.0
222.270264	128.0
222.338516	40.0
223.015244	304.0
223.434967	88.0
224.009094	352.0
224.924973	200.0
225.014862	396.0
225.719666	64.0
225.969299	252.0
226.015549	236.0
226.051697	260.0
226.138489	72.0
226.213318	104.0
226.617615	56.0
227.010361	156.0
227.052277	140.0
227.844711	40.0
227.943863	184.0
227.988937	164.0
229.141388	136.0
229.177536	76.0
229.955566	168.0
230.901215	124.0
230.955658	164.0
231.973068	72.0
232.249008	164.0
232.922852	108.0
233.993301	132.0
234.660522	40.0
234.918564	156.0
234.938065	224.0
235.011841	176.0
236.028366	164.0
236.984528	208.0
237.007904	152.0
237.037338	296.0
237.921875	168.0
237.987045	176.0
238.033691	200.0
238.932968	136.0
239.019119	192.0
239.95546	184.0
240.011032	172.0
240.933792	152.0
240.961121	132.0
241.014816	396.0
241.147003	84.0
241.5737	72.0
241.955963	272.0
242.025879	156.0
242.955353	144.0
243.03064	60.0
243.597946	80.0
243.896255	100.0
243.945984	132.0
243.986404	208.0
244.319168	132.0
246.57045	60.0
246.976913	196.0
246.99881	140.0
247.048859	132.0
247.734421	40.0
249.498108	44.0
250.098923	164.0
250.997864	184.0
251.020584	132.0
252.003662	148.0
252.974579	160.0
253.029541	288.0
253.981613	220.0
254.035995	280.0
254.95694	184.0
254.993439	192.0
255.039581	412.0
255.777527	44.0
255.978104	108.0
256.041779	92.0
256.986511	300.0
257.949799	144.0
258.791199	92.0
258.976929	124.0
260.156952	140.0
260.770477	96.0
261.935242	140.0
261.980347	136.0
263.006317	208.0
263.209137	148.0
264.453796	220.0
264.993927	184.0
265.471069	76.0
265.980438	156.0
266.003143	204.0
266.938843	160.0
267.026672	140.0
267.947876	148.0
267.993469	184.0
268.648773	132.0
268.967316	156.0
269.003357	1348.0
269.429016	128.0
269.481293	152.0
270.406708	56.0
270.996704	144.0
271.838837	72.0
272.012787	156.0
272.347717	36.0
275.457184	32.0
275.993317	148.0
276.952301	144.0
277.88382	96.0
277.960114	172.0
277.996613	32.0
278.554413	124.0
278.966461	164.0
278.998962	164.0
279.724915	72.0
281.014618	104.0
281.655579	52.0
283.006653	324.0
283.981201	152.0
284.962036	168.0
285.943939	144.0
286.516388	68.0
286.924164	204.0
287.018372	488.0
288.014099	152.0
288.531158	36.0
288.960693	168.0
289.018646	356.0
289.505646	92.0
291.959229	152.0
292.435547	208.0
292.949707	148.0
292.993988	152.0
293.082581	68.0
294.010193	176.0
294.945923	44.0
294.983521	128.0
295.944885	156.0
297.968445	116.0
299.892029	40.0
302.704193	48.0
302.925842	180.0
302.975189	184.0
303.920837	164.0
303.955536	252.0
305.964478	40.0
306.10376	104.0
306.984039	164.0
307.973053	156.0
308.119781	80.0
309.004303	176.0
309.963684	132.0
315.896149	184.0
319.938171	36.0
320.946442	112.0
321.956299	136.0
325.943359	172.0
326.011627	140.0
326.496948	136.0
327.001526	328.0
327.360626	88.0
327.998322	136.0
331.826691	64.0
334.966553	44.0
335.907013	120.0
338.366455	56.0
338.951965	172.0
344.021088	132.0
350.965973	144.0
351.988373	120.0
352.972412	408.0
353.087036	36.0
353.973175	196.0
354.374725	104.0
357.950562	160.0
364.688446	88.0
364.937805	160.0
369.998413	180.0
370.975311	156.0
371.995697	388.0
372.057129	176.0
374.044556	96.0
379.840759	44.0
380.372375	116.0
384.947052	148.0
385.028137	120.0
388.010956	140.0
388.969391	160.0
390.25647	80.0
390.488495	76.0
395.962585	120.0
396.959625	232.0
397.889709	200.0
397.977081	192.0
398.954407	92.0
399.988678	160.0
413.977112	168.0
415.010376	196.0
416.885712	136.0
423.970245	132.0
428.947601	96.0
432.992645	108.0
441.198212	84.0
442.478394	144.0
442.851105	188.0
443.970093	156.0
462.905151	88.0
465.989166	116.0
472.378204	228.0
474.387512	68.0
478.723663	136.0
504.604797	120.0
506.797913	124.0
540.246826	80.0
593.747437	120.0
610.985596	144.0
639.168213	40.0
887.539612	84.0
897.391846	116.0
902.371277	140.0
908.054077	172.0
910.22644	220.0
916.210999	188.0
959.20636	168.0
960.371765	204.0
964.273865	144.0
965.918579	152.0
977.570251	76.0
1008.123352	52.0
1011.886902	204.0
1028.502563	52.0
1068.706665	192.0
1069.168579	144.0
1080.228027	216.0
1084.621826	144.0
1084.667725	152.0
1099.624878	196.0
1123.966797	92.0
1140.078491	148.0
1141.486572	176.0
1151.072266	156.0
1162.132446	76.0
1163.23877	196.0
1165.717773	168.0
1175.312134	84.0
1190.831543	172.0
1191.147461	160.0
1199.080811	172.0
1211.705444	124.0
1216.719727	136.0
1224.194336	56.0
1243.11792	172.0
1249.005371	184.0
1255.27356	104.0
1256.014038	212.0
1256.853638	136.0
1261.854248	208.0
1276.823364	176.0
1285.414673	176.0
1288.920776	204.0
1289.571045	164.0
1289.65686	136.0
1297.172607	140.0
1298.420288	144.0
1298.786011	136.0
1299.654053	164.0
1300.213867	92.0
1303.416626	148.0
1306.86792	228.0
1314.585327	188.0
1321.377319	168.0
1321.883789	104.0
1322.918823	120.0
1331.235107	148.0
1333.094849	172.0
1334.039673	52.0
1336.687134	172.0
1346.981567	212.0
1354.779663	180.0
1366.923584	160.0
1368.837402	128.0
1376.092896	176.0
1379.476562	168.0
1387.412354	212.0
1403.605957	132.0
1413.578247	144.0
1418.581299	192.0
1419.908447	112.0
1421.386353	120.0
1421.716553	216.0
1429.426636	152.0
1430.555664	176.0
1433.915039	140.0
1435.596191	188.0
1438.734985	156.0
1443.706787	188.0
1452.098145	156.0
1456.097778	176.0
1456.880127	180.0
1463.512085	168.0
1466.52124	120.0
1473.816895	120.0
1476.484741	28.0
1480.540771	124.0
1487.364502	132.0
1498.038818	148.0
1498.615601	64.0
1500.04126	140.0
1501.282593	128.0
1502.485962	172.0
END IONS

BEGIN IONS
PEPMASS=338.216
CHARGE=1
MSLEVEL=2
SOURCE_INSTRUMENT=LC-ESI-qTof
FILENAME=p4-E04_GE4_01_18376.mzXML
SEQ=*..*
IONMODE=Positive
ORGANISM=GNPS-NIH-SMALLMOLECULEPHARMACOLOGICALLYACTIVE
NAME=MLS001066617-01!DANAZOL M+H
PI=Dorrestein
DATACOLLECTOR=VP/LMS
SMILES=C[C@@]12CC[C@H]3[C@@H](CCC4=Cc5oncc5C[C@]34C)[C@@H]2CC[C@@]1(O)C#C
INCHI=N/A
INCHIAUX=N/A
PUBMED=N/A
SUBMITUSER=vphelan
LIBRARYQUALITY=3
SPECTRUMID=CCMSLIB00000085695
USI=mzspec:GNPS:GNPS-NIH-SMALLMOLECULEPHARMACOLOGICALLYACTIVE:accession:CCMSLIB00000085695
SCANS=2411
44.893974	200.0
44.977238	204.0
44.992367	100.0
45.092552	72.0
45.11795	152.0
45.212921	236.0
45.275032	204.0
45.317371	124.0
45.383049	192.0
45.400482	220.0
45.416576	196.0
45.450115	168.0
45.483669	212.0
45.534691	204.0
45.55442	168.0
45.596493	136.0
45.616657	212.0
45.81987	188.0
45.830647	148.0
45.84547	176.0
45.871078	128.0
45.916924	100.0
45.956043	180.0
45.983036	176.0
45.992481	200.0
46.039738	164.0
46.062698	40.0
46.150547	128.0
46.196529	148.0
46.302479	176.0
46.459347	96.0
46.500057	96.0
46.516346	164.0
46.578808	172.0
46.61618	144.0
46.644035	112.0
46.660721	176.0
46.713387	212.0
46.736515	152.0
46.853607	164.0
46.943569	152.0
47.062286	68.0
47.085503	192.0
47.107357	392.0
47.12785	160.0
47.138783	220.0
47.170216	72.0
47.3522	60.0
47.372746	164.0
47.396038	180.0
47.412483	228.0
47.441269	168.0
47.533165	100.0
47.56847	204.0
47.58395	128.0
47.636135	228.0
47.773609	144.0
47.809383	136.0
47.844841	216.0
47.89275	160.0
47.897816	88.0
47.902336	180.0
47.920921	48.0
47.944347	200.0
48.00087	128.0
48.113144	140.0
48.138863	176.0
48.158199	292.0
48.203793	84.0
48.24802	132.0
48.337925	224.0
48.386372	144.0
48.423759	148.0
48.538788	108.0
48.635403	156.0
48.662277	136.0
48.761856	164.0
48.780369	140.0
48.798439	432.0
48.831818	132.0
48.866592	132.0
48.932007	32.0
48.943146	136.0
48.983536	180.0
49.067154	332.0
49.129913	160.0
49.225357	188.0
49.261139	152.0
49.289871	176.0
49.315636	164.0
49.382748	136.0
49.419537	416.0
49.454514	192.0
49.543728	160.0
49.566185	148.0
49.599781	176.0
49.654465	116.0
49.672699	144.0
49.690937	180.0
49.786388	192.0
49.804649	176.0
49.848202	144.0
49.86647	108.0
49.918686	256.0
49.981789	208.0
50.011345	124.0
50.066254	140.0
50.11274	208.0
50.135284	76.0
50.145149	168.0
50.253735	232.0
50.318661	164.0
50.411888	96.0
50.475727	176.0
50.489643	152.0
50.522091	136.0
50.56321	152.0
50.600014	176.0
50.669415	164.0
50.779984	204.0
50.825378	168.0
50.992954	236.0
51.010014	156.0
51.031338	220.0
51.054268	128.0
51.068314	144.0
51.179935	160.0
51.230587	160.0
51.304695	140.0
51.358536	164.0
51.430225	156.0
51.443073	224.0
51.473057	72.0
51.485909	168.0
51.505417	176.0
51.543053	80.0
51.593243	244.0
51.630604	148.0
51.67746	120.0
51.781963	92.0
51.836403	204.0
51.872234	44.0
51.969757	176.0
51.988411	84.0
52.04583	244.0
52.08086	256.0
52.160767	436.0
52.228352	164.0
52.299767	152.0
52.326206	204.0
52.36797	184.0
52.428482	180.0
52.443993	236.0
52.572083	132.0
52.603008	108.0
52.630436	112.0
52.803852	164.0
52.853039	164.0
52.889221	116.0
52.922447	168.0
52.936996	108.0
52.993595	112.0
53.039864	156.0
53.1646	108.0
53.202339	196.0
53.267017	136.0
53.326168	388.0
53.350521	152.0
53.456699	168.0
53.487263	172.0
53.512012	152.0
53.543396	152.0
53.635841	152.0
53.647503	224.0
53.682499	76.0
53.701458	204.0
53.819664	160.0
53.986252	132.0
54.087208	104.0
54.112095	228.0
54.144085	156.0
54.158955	168.0
54.170673	108.0
54.245674	112.0
54.260071	104.0
54.273266	64.0
54.312862	156.0
54.349541	140.0
54.361282	124.0
54.38036	224.0
54.412655	140.0
54.502087	144.0
54.533112	116.0
54.624279	156.0
54.644058	108.0
54.706688	212.0
54.744675	160.0
54.862846	160.0
54.91003	160.0
54.96019	160.0
55.010368	208.0
55.038422	128.0
55.06271	152.0
55.125576	132.0
55.172874	140.0
55.190617	220.0
55.271973	136.0
55.307491	188.0
55.318604	120.0
55.354752	164.0
55.396339	180.0
55.442524	164.0
55.46302	132.0
55.47488	152.0
55.526779	124.0
55.6544	328.0
55.67519	168.0
55.758915	180.0
55.797035	156.0
55.819836	264.0
55.899414	164.0
55.914551	88.0
56.078384	140.0
56.103725	196.0
56.123108	120.0
56.136528	204.0
56.239471	152.0
56.255894	224.0
56.304024	204.0
56.466972	152.0
56.487656	176.0
56.578808	148.0
56.611748	156.0
56.643204	176.0
56.703136	116.0
56.742111	228.0
56.764603	208.0
56.785599	80.0
56.805099	128.0
56.817101	164.0
56.86512	204.0
56.950703	80.0
56.97023	120.0
56.982742	156.0
57.010799	144.0
57.183754	152.0
57.236092	220.0
57.268074	240.0
57.313721	200.0
57.359989	128.0
57.531963	152.0
57.559139	112.0
57.56971	56.0
57.605961	120.0
57.66489	176.0
57.686054	216.0
57.703197	176.0
57.71629	168.0
57.737461	136.0
57.754101	136.0
57.767712	148.0
57.782841	144.0
57.885769	128.0
57.940296	176.0
58.028202	212.0
58.05835	168.0
58.078247	152.0
58.198071	176.0
58.227287	184.0
58.249775	176.0
58.295357	76.0
58.342476	132.0
58.360756	168.0
58.520481	160.0
58.553249	120.0
58.58445	120.0
58.636257	208.0
58.689613	196.0
58.756721	172.0
58.839138	136.0
58.89418	176.0
58.939945	172.0
59.137226	172.0
59.344036	160.0
59.403851	148.0
59.419189	152.0
59.561962	112.0
59.761818	132.0
59.857254	116.0
59.883434	136.0
59.93119	140.0
60.068401	116.0
60.083832	96.0
60.096172	128.0
60.122406	152.0
60.176434	148.0
60.201141	128.0
60.439198	120.0
60.519688	64.0
60.578537	40.0
60.677475	200.0
60.711838	208.0
60.761475	140.0
60.811131	148.0
60.832863	196.0
60.975765	176.0
60.995972	140.0
61.101723	120.0
61.135956	180.0
61.232479	52.0
61.27454	172.0
61.291679	244.0
61.37429	220.0
61.388325	180.0
61.40704	168.0
61.456959	196.0
61.495975	200.0
61.558422	216.0
61.572479	228.0
61.624027	172.0
61.706867	112.0
61.744396	72.0
61.766293	128.0
61.797581	96.0
61.824184	320.0
61.83514	36.0
61.935349	148.0
61.952579	192.0
62.032501	212.0
62.049747	60.0
62.070129	144.0
62.141602	184.0
62.182457	192.0
62.219189	96.0
62.269436	132.0
62.305946	132.0
62.379429	164.0
62.41087	108.0
62.426598	104.0
62.629623	188.0
62.640652	196.0
62.748974	180.0
62.829826	156.0
62.842449	136.0
62.870853	164.0
62.888214	148.0
62.959263	148.0
63.071331	116.0
63.163155	172.0
63.224998	228.0
63.240841	204.0
63.329357	124.0
63.430767	116.0
63.451374	204.0
63.468815	148.0
63.487846	176.0
63.573513	132.0
63.611607	184.0
63.68465	60.0
63.697357	156.0
63.757736	180.0
63.787933	160.0
63.86108	96.0
63.975651	184.0
64.015457	160.0
64.045715	376.0
64.077576	72.0
64.195534	140.0
64.217857	128.0
64.339134	72.0
64.382248	136.0
64.399818	116.0
64.446144	116.0
64.542046	152.0
64.556442	148.0
64.626823	128.0
64.638023	164.0
64.700447	188.0
64.770584	236.0
64.810959	192.0
64.859261	124.0
64.875069	180.0
64.955254	132.0
64.979317	192.0
65.001778	176.0
65.023018	156.0
65.04924	148.0
65.251389	140.0
65.295769	56.0
65.313461	148.0
65.348854	100.0
65.361725	172.0
65.406792	164.0
65.429329	176.0
65.479248	148.0
65.524353	224.0
65.57914	236.0
65.593651	176.0
65.643631	168.0
65.709763	40.0
65.830658	196.0
65.869583	100.0
65.941574	196.0
65.976242	152.0
66.005348	144.0
66.029602	192.0
66.054237	52.0
66.071663	124.0
66.116684	180.0
66.183342	108.0
66.3405	224.0
66.389137	164.0
66.439697	164.0
66.5065	216.0
66.520569	264.0
66.574142	168.0
66.588707	116.0
66.616379	160.0
66.643997	120.0
66.689499	176.0
66.706161	192.0
66.765915	144.0
66.80658	176.0
66.937477	184.0
66.956329	148.0
66.977974	124.0
67.010086	196.0
67.151909	160.0
67.205742	48.0
67.218796	140.0
67.522568	140.0
67.548233	164.0
67.583191	144.0
67.629013	192.0
67.683037	132.0
67.722343	120.0
67.791153	104.0
67.807541	184.0
67.82885	216.0
67.906967	180.0
68.068024	156.0
68.142296	148.0
68.166008	208.0
68.222832	152.0
68.270515	204.0
68.299187	92.0
68.313278	132.0
68.365929	192.0
68.387329	152.0
68.418358	160.0
68.47715	176.0
68.520714	172.0
68.540482	164.0
68.552017	256.0
68.611359	128.0
68.657524	152.0
68.740402	168.0
68.761467	240.0
68.796127	76.0
68.827278	176.0
68.880348	112.0
68.969582	156.0
68.983673	144.0
69.020828	124.0
69.07045	152.0
69.138283	124.0
69.259148	168.0
69.285652	164.0
69.315475	100.0
69.388985	220.0
69.416595	156.0
69.482941	148.0
69.506172	160.0
69.661964	168.0
69.718735	152.0
69.732033	200.0
69.761948	228.0
69.77359	160.0
69.791878	176.0
69.823471	108.0
69.853409	152.0
69.976562	32.0
70.028725	212.0
70.108162	160.0
70.125755	144.0
70.17984	100.0
70.204849	92.0
70.298271	132.0
70.323303	192.0
70.334862	152.0
70.427025	172.0
70.450218	72.0
70.495331	180.0
70.515381	80.0
70.533768	192.0
70.592285	112.0
70.689751	192.0
70.736176	152.0
70.788078	140.0
70.819901	148.0
70.876572	188.0
70.96241	100.0
70.983421	176.0
71.15934	116.0
71.178795	188.0
71.219101	148.0
71.276222	132.0
71.299751	272.0
71.331337	116.0
71.343452	168.0
71.368675	172.0
71.483055	68.0
71.531868	36.0
71.607635	176.0
71.666595	176.0
71.725586	208.0
71.744125	200.0
71.757614	36.0
71.786507	332.0
71.847	180.0
71.872307	208.0
71.929695	112.0
72.07325	156.0
72.13134	140.0
72.171288	160.0
72.195618	184.0
72.208488	108.0
72.312431	212.0
72.326927	200.0
72.340469	212.0
72.400955	172.0
72.42514	164.0
72.484436	188.0
72.569183	148.0
72.617905	184.0
72.717621	264.0
72.922287	96.0
72.95118	128.0
73.000488	260.0
73.145111	152.0
73.15873	80.0
73.191078	228.0
73.236382	260.0
73.310318	160.0
73.36657	200.0
73.383614	112.0
73.406563	180.0
73.438187	168.0
73.482544	108.0
73.497894	140.0
73.588364	192.0
73.639595	312.0
73.67205	84.0
73.752365	236.0
73.825882	160.0
73.848114	168.0
73.861801	100.0
73.883743	184.0
74.027817	176.0
74.056931	128.0
74.074059	164.0
74.16272	92.0
74.192307	176.0
74.212883	136.0
74.226601	160.0
74.355263	324.0
74.420494	140.0
74.435448	232.0
74.472015	148.0
74.490906	44.0
74.521835	236.0
74.639542	192.0
74.671387	72.0
74.693016	140.0
74.714394	148.0
74.745361	120.0
74.785011	220.0
74.917542	100.0
74.93132	204.0
74.967506	136.0
75.091682	168.0
75.207237	208.0
75.224503	152.0
75.241768	176.0
75.286659	60.0
75.379944	156.0
75.460167	204.0
75.602295	208.0
75.62899	120.0
75.698242	188.0
75.713829	164.0
75.751938	88.0
75.810844	132.0
75.885384	168.0
75.980774	164.0
76.173965	212.0
76.312508	72.0
76.338585	160.0
76.352501	324.0
76.376854	68.0
76.430786	116.0
76.516068	196.0
76.559601	188.0
76.578758	156.0
76.598763	144.0
76.657158	68.0
76.674583	104.0
76.744873	124.0
76.766983	68.0
76.793144	148.0
76.819046	296.0
77.02005	148.0
77.074211	168.0
77.115822	148.0
77.149368	148.0
77.18084	204.0
77.193077	124.0
77.236801	176.0
77.268288	112.0
77.296288	120.0
77.310287	64.0
77.331291	116.0
77.483597	164.0
77.545746	172.0
77.619629	160.0
77.669456	36.0
77.697525	128.0
77.753677	108.0
77.816872	196.0
77.839699	264.0
77.902931	172.0
77.965401	160.0
78.168327	148.0
78.293411	120.0
78.429077	52.0
78.483055	156.0
78.489433	204.0
78.536369	160.0
78.587799	180.0
78.614265	188.0
78.71489	184.0
78.787308	236.0
78.836777	100.0
78.861526	284.0
78.950485	228.0
79.017143	164.0
79.036606	128.0
79.082619	108.0
79.095009	128.0
79.118019	92.0
79.151657	184.0
79.171509	116.0
79.291611	108.0
79.40863	56.0
79.458458	224.0
79.598518	116.0
79.61628	152.0
79.666016	112.0
79.735313	44.0
79.755905	184.0
79.864647	108.0
79.882896	112.0
79.94339	44.0
79.970085	120.0
80.009247	152.0
80.03595	248.0
80.080475	140.0
80.110756	124.0
80.174904	100.0
80.233727	76.0
80.251556	264.0
80.306839	112.0
80.444237	140.0
80.626427	176.0
80.660385	148.0
80.733688	96.0
80.853554	44.0
80.887566	184.0
80.996025	228.0
81.089966	92.0
81.117477	164.0
81.145538	148.0
81.22879	228.0
81.262123	204.0
81.414696	148.0
81.42907	188.0
81.50811	160.0
81.599777	156.0
81.622574	136.0
81.707695	144.0
81.720284	176.0
81.763474	112.0
81.808472	100.0
81.857086	112.0
81.885902	168.0
81.929642	156.0
82.011932	152.0
82.082336	220.0
82.168915	124.0
82.199593	144.0
82.311508	96.0
82.361816	84.0
82.385559	192.0
82.418083	168.0
82.430733	72.0
82.446999	148.0
82.463264	164.0
82.58802	368.0
82.707443	152.0
82.741837	184.0
82.79435	136.0
82.850502	200.0
82.889748	444.0
82.926613	80.0
82.991875	156.0
83.024513	68.0
83.115494	224.0
83.138062	156.0
83.176926	148.0
83.196892	320.0
83.224121	216.0
83.462158	156.0
83.500343	184.0
83.611328	160.0
83.638626	68.0
83.686615	220.0
83.797066	216.0
83.822578	200.0
83.911888	124.0
84.019493	96.0
84.054161	112.0
84.174637	200.0
84.23941	168.0
84.284241	148.0
84.297028	120.0
84.357346	156.0
84.401222	152.0
84.432312	160.0
84.47139	164.0
84.501823	108.0
84.52195	96.0
84.551231	180.0
84.575027	152.0
84.599365	244.0
84.628113	96.0
84.644592	176.0
84.937836	128.0
84.996544	88.0
85.054642	152.0
85.071793	164.0
85.084648	128.0
85.101166	184.0
85.117699	44.0
85.174629	224.0
85.305099	200.0
85.321648	144.0
85.363937	128.0
85.470627	152.0
85.492706	220.0
85.551201	216.0
85.687897	144.0
85.798477	52.0
85.831665	184.0
85.931267	236.0
85.975548	144.0
85.990318	160.0
86.008774	200.0
86.038307	188.0
86.064156	72.0
86.091858	92.0
86.190987	200.0
86.21933	92.0
86.245209	160.0
86.313202	144.0
86.40609	212.0
86.429855	152.0
86.513435	180.0
86.528244	136.0
86.546486	244.0
86.570831	56.0
86.630104	224.0
86.657089	184.0
86.711632	132.0
86.754265	220.0
86.80217	184.0
86.898926	120.0
86.934181	224.0
86.984299	208.0
87.049278	156.0
87.066032	176.0
87.10128	152.0
87.123573	128.0
87.205338	108.0
87.223923	60.0
87.31131	308.0
87.339211	180.0
87.385719	192.0
87.419212	180.0
87.43782	124.0
87.462021	172.0
87.625603	176.0
87.678078	180.0
87.706032	216.0
87.760094	160.0
87.799255	132.0
87.830513	116.0
87.857079	52.0
87.882332	120.0
87.953232	160.0
87.990379	188.0
88.174515	156.0
88.253029	188.0
88.294174	228.0
88.354027	96.0
88.412033	192.0
88.428879	132.0
88.499901	200.0
88.610519	132.0
88.698601	188.0
88.739845	188.0
88.755661	160.0
88.769844	204.0
88.873016	196.0
88.899284	120.0
88.939735	160.0
88.998779	112.0
89.055115	140.0
89.09832	156.0
89.250565	148.0
89.282532	196.0
89.34272	180.0
89.368744	164.0
89.445274	224.0
89.481995	156.0
89.514	104.0
89.564857	80.0
89.722946	332.0
89.826874	144.0
89.977844	152.0
90.023766	212.0
90.068489	140.0
90.098717	132.0
90.157295	160.0
90.174301	180.0
90.2537	176.0
90.266937	120.0
90.306656	76.0
90.456055	184.0
90.478851	92.0
90.497787	104.0
90.550812	164.0
90.577332	164.0
90.747894	192.0
90.780128	180.0
90.812019	196.0
90.850304	152.0
90.947083	176.0
90.967964	148.0
91.021126	116.0
91.054352	4480.0
91.081398	240.0
91.112297	236.0
91.224419	84.0
91.294769	140.0
91.315689	124.0
91.376564	148.0
91.429848	180.0
91.445068	336.0
91.49012	120.0
91.523125	148.0
91.586647	168.0
91.646935	28.0
91.689865	264.0
91.701454	144.0
91.772736	156.0
91.814682	232.0
91.841217	176.0
91.929146	40.0
91.948235	196.0
91.969231	216.0
92.02459	124.0
92.051666	824.0
92.09716	140.0
92.188866	160.0
92.410538	164.0
92.475746	160.0
92.515945	156.0
92.544662	212.0
92.590622	92.0
92.620811	168.0
92.636589	192.0
92.661499	116.0
92.701736	244.0
92.745811	136.0
92.805069	220.0
92.822502	156.0
92.85894	88.0
92.938385	116.0
93.025131	216.0
93.069244	1908.0
93.181435	112.0
93.194885	48.0
93.340973	172.0
93.383286	104.0
93.458305	128.0
93.489098	220.0
93.51989	92.0
93.533363	80.0
93.631561	180.0
93.649017	196.0
93.752937	132.0
93.826607	216.0
93.849319	172.0
93.912956	108.0
93.932251	152.0
93.947678	196.0
93.995918	184.0
94.028725	316.0
94.065338	1280.0
94.119453	180.0
94.24501	160.0
94.268196	140.0
94.318443	56.0
94.372581	36.0
94.386116	132.0
94.401581	136.0
94.418991	188.0
94.492493	232.0
94.537003	252.0
94.635719	32.0
94.653145	148.0
94.699631	36.0
94.780991	40.0
94.810059	172.0
94.990379	136.0
95.047928	592.0
95.068329	220.0
95.087158	696.0
95.130104	140.0
95.161163	128.0
95.190292	148.0
95.215759	176.0
95.2369	156.0
95.34182	204.0
95.357368	68.0
95.384583	148.0
95.452629	180.0
95.520699	40.0
95.556137	148.0
95.698601	196.0
95.843887	84.0
95.88871	128.0
95.968636	68.0
96.045128	668.0
96.078896	180.0
96.137444	208.0
96.21283	348.0
96.292572	144.0
96.317963	148.0
96.378532	72.0
96.588676	184.0
96.603371	196.0
96.642494	72.0
96.673805	60.0
96.810844	252.0
96.842178	104.0
96.906097	204.0
96.940552	208.0
96.97345	168.0
97.002853	128.0
97.044022	232.0
97.063225	152.0
97.104004	184.0
97.155815	120.0
97.170769	168.0
97.271599	36.0
97.307648	100.0
97.328537	152.0
97.418724	100.0
97.470581	204.0
97.58004	196.0
97.609528	224.0
97.640999	220.0
97.673447	168.0
97.694107	208.0
97.739357	160.0
97.814148	184.0
97.90078	200.0
97.934258	72.0
97.961838	100.0
97.983505	180.0
98.011093	152.0
98.030792	136.0
98.058388	408.0
98.235847	152.0
98.255577	124.0
98.291092	172.0
98.362144	192.0
98.391754	192.0
98.415451	256.0
98.50235	152.0
98.577423	220.0
98.713829	192.0
98.826576	92.0
98.953041	152.0
99.093872	200.0
99.129791	156.0
99.413116	240.0
99.442352	208.0
99.695114	216.0
99.713005	168.0
99.858147	92.0
99.956688	180.0
100.065102	200.0
100.081024	48.0
100.100937	160.0
100.322105	44.0
100.393883	168.0
100.43	148.0
100.483643	172.0
100.541512	156.0
100.569252	156.0
100.580353	260.0
100.595406	176.0
100.611374	152.0
100.639328	180.0
100.727203	56.0
100.775146	96.0
100.829102	96.0
100.889069	76.0
100.975052	108.0
101.001053	332.0
101.041061	84.0
101.115105	236.0
101.185165	116.0
101.199181	84.0
101.281288	184.0
101.329369	204.0
101.363426	148.0
101.395493	164.0
101.473671	56.0
101.569931	200.0
101.589989	124.0
101.604034	88.0
101.636139	196.0
101.682297	116.0
101.814796	168.0
101.844925	144.0
101.947441	160.0
102.02681	112.0
102.047859	328.0
102.166557	164.0
102.232956	52.0
102.29174	176.0
102.35173	164.0
102.365822	156.0
102.396034	160.0
102.497185	76.0
102.53875	248.0
102.843735	172.0
102.958725	188.0
103.00518	76.0
103.054153	2560.0
103.118332	48.0
103.132477	196.0
103.245552	108.0
103.252548	176.0
103.283607	140.0
103.365059	224.0
103.38327	264.0
103.407555	192.0
103.440536	164.0
103.484482	116.0
103.593689	156.0
103.599869	144.0
103.715431	120.0
103.747864	136.0
103.845474	164.0
103.871567	128.0
103.908081	184.0
103.99128	56.0
104.01767	100.0
104.056717	352.0
104.0867	128.0
104.109039	144.0
104.126335	224.0
104.151688	64.0
104.169968	80.0
104.22686	252.0
104.292206	204.0
104.346779	136.0
104.403717	192.0
104.437286	268.0
104.513802	136.0
104.563477	136.0
104.570091	72.0
104.577919	192.0
104.649933	200.0
104.741577	148.0
104.774178	208.0
104.794548	112.0
104.821953	108.0
104.851608	184.0
104.882179	152.0
104.910721	132.0
104.92907	160.0
104.973923	168.0
105.004517	148.0
105.036209	356.0
105.06987	8804.0
105.116814	204.0
105.245003	104.0
105.280037	96.0
105.296371	52.0
105.367867	172.0
105.420998	80.0
105.439384	168.0
105.581779	136.0
105.656136	192.0
105.768692	112.0
105.858772	92.0
105.895157	144.0
105.930458	120.0
105.97348	132.0
106.034958	132.0
106.065018	5036.0
106.102608	52.0
106.13131	148.0
106.155914	164.0
106.172325	164.0
106.194885	100.0
106.223602	156.0
106.270782	188.0
106.334404	156.0
106.492493	108.0
106.689766	168.0
106.704155	40.0
106.776131	84.0
106.889275	216.0
106.913971	208.0
106.936607	52.0
106.955132	44.0
107.0494	1044.0
107.084312	2028.0
107.161438	180.0
107.24662	172.0
107.260544	120.0
107.313591	212.0
107.354836	136.0
107.54052	152.0
107.569412	160.0
107.587997	224.0
107.62516	192.0
107.658508	160.0
107.682434	212.0
107.718094	52.0
107.732559	112.0
107.800743	108.0
107.912361	72.0
107.933037	108.0
108.012337	128.0
108.04731	448.0
108.081055	1624.0
108.115082	180.0
108.191666	196.0
108.22686	52.0
108.276566	80.0
108.35775	144.0
108.397636	208.0
108.508644	144.0
108.541824	104.0
108.635155	160.0
108.743057	156.0
108.799622	176.0
108.886314	204.0
108.965248	160.0
109.025513	144.0
109.063553	1068.0
109.102112	1004.0
109.158554	140.0
109.250076	160.0
109.300011	144.0
109.320282	220.0
109.488647	200.0
109.5811	136.0
109.597519	164.0
109.631111	152.0
109.670715	72.0
109.738976	236.0
109.7687	64.0
109.804153	128.0
109.8563	160.0
109.908455	200.0
110.00029	188.0
110.06041	588.0
110.101692	152.0
110.152725	172.0
110.225853	136.0
110.338722	204.0
110.449554	76.0
110.510223	160.0
110.524872	40.0
110.558357	188.0
110.577194	148.0
110.637894	108.0
110.674828	156.0
110.723747	184.0
110.811264	72.0
110.83268	140.0
110.876686	156.0
110.924896	40.0
110.945862	172.0
110.969711	256.0
111.00013	172.0
111.05455	168.0
111.080994	264.0
111.160248	112.0
111.31514	40.0
111.367645	112.0
111.400131	120.0
111.42646	136.0
111.476669	188.0
111.504814	140.0
111.638763	132.0
111.823906	344.0
111.847054	212.0
112.023972	252.0
112.045006	64.0
112.082932	160.0
112.178398	176.0
112.23259	76.0
112.272659	44.0
112.348595	360.0
112.506874	188.0
112.530098	228.0
112.597672	132.0
112.73922	188.0
112.802628	116.0
112.825882	160.0
112.84491	80.0
112.880859	176.0
112.983353	152.0
113.021233	184.0
113.077606	152.0
113.109352	128.0
113.153809	112.0
113.17498	156.0
113.206749	200.0
113.227928	152.0
113.257576	164.0
113.33596	192.0
113.352913	120.0
113.40802	168.0
113.427094	44.0
113.454651	104.0
113.480095	256.0
113.526749	148.0
113.639168	264.0
113.662506	204.0
113.863518	140.0
113.877914	152.0
113.893921	268.0
113.919411	200.0
113.940659	184.0
114.01503	172.0
114.059662	188.0
114.087296	188.0
114.119392	168.0
114.174477	28.0
114.189362	208.0
114.21489	128.0
114.338295	84.0
114.365753	248.0
114.407829	204.0
114.461769	176.0
114.549088	164.0
114.5811	156.0
114.623657	160.0
114.637375	124.0
114.655624	180.0
114.732361	192.0
114.877373	220.0
114.924316	52.0
114.960587	144.0
114.977661	168.0
114.992599	160.0
115.054337	4376.0
115.144188	152.0
115.176231	148.0
115.276642	184.0
115.327934	204.0
115.543922	108.0
115.601692	196.0
115.641098	136.0
115.715141	188.0
115.747009	172.0
115.787949	100.0
115.823715	80.0
115.906097	188.0
115.926521	164.0
116.031731	208.0
116.062286	3232.0
116.095688	176.0
116.126579	48.0
116.148033	140.0
116.167336	180.0
116.193085	188.0
116.210243	220.0
116.360779	148.0
116.42276	140.0
116.450676	132.0
116.476456	156.0
116.538757	52.0
116.601074	136.0
116.689209	116.0
116.891556	252.0
116.923676	104.0
117.031311	196.0
117.069626	5144.0
117.135712	76.0
117.169159	80.0
117.203629	148.0
117.220871	40.0
117.314629	96.0
117.356667	48.0
117.401955	64.0
117.451561	176.0
117.488228	200.0
117.546486	52.0
117.598282	160.0
117.760216	148.0
117.781815	140.0
117.799095	112.0
117.814217	172.0
117.930908	244.0
117.974144	92.0
118.039001	148.0
118.06855	1608.0
118.09668	324.0
118.242363	204.0
118.264008	96.0
118.309464	160.0
118.357094	60.0
118.387413	200.0
118.426399	36.0
118.488319	176.0
118.517387	268.0
118.813019	140.0
118.842628	144.0
118.879517	144.0
118.92292	212.0
118.972847	32.0
118.997681	64.0
119.029297	136.0
119.050827	516.0
119.084625	5436.0
119.133553	44.0
119.161797	64.0
119.19854	88.0
119.255241	64.0
119.340027	172.0
119.379166	124.0
119.457466	36.0
119.494453	92.0
119.544754	136.0
119.581497	28.0
119.596733	164.0
119.668571	56.0
119.688164	100.0
119.712898	112.0
119.790527	104.0
119.890755	116.0
119.916908	136.0
119.962967	184.0
120.044373	2396.0
120.080978	10876.0
120.12188	216.0
120.139328	156.0
120.159836	60.0
120.233154	40.0
120.306511	124.0
120.391045	312.0
120.572762	144.0
120.673843	124.0
120.784416	120.0
120.836258	152.0
120.915039	60.0
120.936928	76.0
121.002693	180.0
121.064789	10260.0
121.085686	2148.0
121.1306	80.0
121.185081	176.0
121.207588	144.0
121.234787	44.0
121.344383	36.0
121.386185	64.0
121.400154	120.0
121.462692	164.0
121.503624	132.0
121.528625	56.0
121.594055	220.0
121.608612	244.0
121.613373	136.0
121.621437	212.0
121.640549	168.0
121.671288	80.0
121.752533	136.0
121.84259	56.0
121.868652	144.0
121.90062	156.0
121.923889	188.0
121.968521	248.0
121.996429	128.0
122.021118	160.0
122.062057	2444.0
122.095779	2148.0
122.133354	164.0
122.18116	132.0
122.227364	184.0
122.258171	76.0
122.325172	164.0
122.350624	40.0
122.396858	184.0
122.432091	168.0
122.451912	240.0
122.56427	116.0
122.718559	112.0
122.742813	184.0
122.808975	180.0
122.917076	112.0
122.947975	156.0
122.976051	188.0
123.068001	892.0
123.097206	348.0
123.115669	176.0
123.158722	132.0
123.193062	140.0
123.252716	152.0
123.270393	176.0
123.301338	44.0
123.34996	228.0
123.47821	88.0
123.509171	124.0
123.588814	148.0
123.920937	140.0
123.94088	52.0
124.076576	836.0
124.175873	140.0
124.213577	208.0
124.25573	180.0
124.29567	232.0
124.326736	176.0
124.42218	136.0
124.453262	140.0
124.495461	132.0
124.52433	40.0
124.635406	140.0
124.86438	84.0
124.953354	172.0
125.040138	132.0
125.084312	208.0
125.098572	192.0
125.184853	156.0
125.282852	120.0
125.309586	44.0
125.367523	232.0
125.423241	136.0
125.484772	200.0
125.510193	208.0
125.54364	132.0
125.737732	144.0
125.853813	156.0
125.882843	112.0
125.947609	168.0
125.965485	92.0
125.987823	196.0
126.005692	168.0
126.048515	196.0
126.091492	284.0
126.168846	172.0
126.241173	208.0
126.306656	168.0
126.403694	144.0
126.628128	272.0
126.652206	120.0
126.91217	168.0
126.954781	172.0
127.053421	1032.0
127.154449	216.0
127.174652	88.0
127.197098	124.0
127.212807	56.0
127.268936	188.0
127.291389	208.0
127.347534	212.0
127.49807	52.0
127.531784	216.0
127.594727	72.0
127.653183	108.0
127.779144	124.0
127.830078	208.0
127.866905	64.0
127.938942	192.0
127.972206	160.0
128.06221	7088.0
128.197968	40.0
128.240784	164.0
128.279114	156.0
128.320206	176.0
128.371552	220.0
128.398087	156.0
128.441467	224.0
128.487244	184.0
128.527191	128.0
128.552017	104.0
128.608444	180.0
128.635025	108.0
128.653595	160.0
128.691971	48.0
128.790665	120.0
128.850067	212.0
128.864349	112.0
128.938202	148.0
128.982651	144.0
129.039917	136.0
129.068939	9124.0
129.202759	304.0
129.363434	140.0
129.392868	156.0
129.465332	128.0
129.501572	76.0
129.531906	152.0
129.551407	184.0
129.685089	260.0
129.714569	156.0
129.789383	212.0
129.8302	208.0
129.900513	220.0
129.982193	196.0
130.074051	1800.0
130.132004	88.0
130.152435	112.0
130.184219	68.0
130.327332	120.0
130.412689	136.0
130.536453	144.0
130.575119	188.0
130.59787	80.0
130.689438	172.0
130.725266	172.0
130.748032	72.0
130.793549	168.0
130.911942	60.0
130.936996	124.0
130.955215	136.0
130.971161	200.0
131.012573	188.0
131.049454	1100.0
131.084747	6268.0
131.129456	124.0
131.159454	184.0
131.23703	180.0
131.270584	84.0
131.308487	60.0
131.333359	168.0
131.374634	68.0
131.392197	144.0
131.43396	188.0
131.47731	172.0
131.530396	264.0
131.561768	80.0
131.77298	200.0
131.817581	152.0
131.849579	168.0
131.883865	152.0
131.940125	176.0
131.982162	56.0
132.019211	96.0
132.056534	1132.0
132.084198	1752.0
132.12854	84.0
132.183456	40.0
132.210922	348.0
132.252121	208.0
132.348267	68.0
132.384903	88.0
132.421555	80.0
132.458206	208.0
132.474243	216.0
132.527893	124.0
132.559006	152.0
132.614014	204.0
132.669037	48.0
132.703415	88.0
132.719467	196.0
132.735519	120.0
132.783676	120.0
132.827255	80.0
132.852493	168.0
132.883926	172.0
132.913162	172.0
132.945053	152.0
132.96051	168.0
133.062592	1396.0
133.099152	2416.0
133.153442	72.0
133.17157	136.0
133.240479	56.0
133.256561	80.0
133.35997	180.0
133.580719	212.0
133.68483	208.0
133.704971	164.0
133.783966	88.0
133.820068	116.0
133.989639	172.0
134.033997	164.0
134.059189	1424.0
134.095581	2024.0
134.133377	76.0
134.188705	220.0
134.261063	220.0
134.463364	196.0
134.482025	152.0
134.521606	164.0
134.555557	56.0
134.599426	200.0
134.980698	152.0
135.077042	1008.0
135.103104	844.0
135.111557	532.0
135.178589	184.0
135.276855	120.0
135.383362	96.0
135.409836	180.0
135.476013	64.0
135.513077	144.0
135.529297	84.0
135.596497	168.0
135.772705	156.0
135.809814	92.0
135.82605	160.0
135.86911	212.0
135.891006	208.0
135.925812	72.0
135.953659	136.0
136.076416	904.0
136.110641	304.0
136.197449	92.0
136.299667	84.0
136.360092	192.0
136.42749	132.0
136.464691	100.0
136.5112	120.0
136.532135	184.0
136.562256	172.0
136.62059	132.0
136.63681	180.0
136.655411	256.0
136.708939	92.0
136.776428	180.0
136.853668	208.0
137.056625	156.0
137.080551	180.0
137.086853	292.0
137.093765	112.0
137.186417	76.0
137.324387	144.0
137.342651	184.0
137.424316	92.0
137.440643	204.0
137.470154	156.0
137.496643	136.0
137.850937	104.0
137.93576	84.0
137.956802	168.0
137.998886	144.0
138.052673	72.0
138.090469	148.0
138.164948	100.0
138.359192	48.0
138.401337	116.0
138.4552	200.0
138.555298	168.0
138.591064	112.0
138.626205	52.0
138.669022	164.0
138.977951	192.0
139.058807	176.0
139.107025	132.0
139.132858	96.0
139.17276	128.0
139.506393	220.0
139.526169	192.0
139.56282	92.0
139.579269	244.0
139.600433	228.0
139.785278	160.0
139.901611	232.0
140.002319	88.0
140.127701	116.0
140.16069	212.0
140.188965	116.0
140.221954	124.0
140.262024	148.0
140.297394	116.0
140.353973	164.0
140.370483	148.0
140.445953	188.0
140.474258	84.0
140.6064	176.0
140.63707	148.0
140.66777	88.0
140.880295	56.0
140.932281	172.0
140.977173	196.0
140.996078	92.0
141.014984	208.0
141.03154	168.0
141.070053	5864.0
141.194153	108.0
141.215958	164.0
141.26326	160.0
141.284561	28.0
141.331879	156.0
141.375092	216.0
141.417068	176.0
141.516495	144.0
141.58754	96.0
141.620941	160.0
141.736786	172.0
141.79129	212.0
141.807877	148.0
141.85054	164.0
141.890854	60.0
141.914551	44.0
142.076828	6776.0
142.139893	64.0
142.244751	68.0
142.301086	180.0
142.490601	160.0
142.690948	216.0
142.748016	176.0
142.845535	152.0
142.924042	160.0
142.940704	200.0
142.997391	136.0
143.024002	112.0
143.045258	480.0
143.084091	7252.0
143.138275	132.0
143.193054	156.0
143.295486	124.0
143.474228	76.0
143.560074	68.0
143.657867	176.0
143.832062	148.0
143.882187	88.0
143.910843	124.0
143.949051	44.0
144.008759	72.0
144.054382	712.0
144.085098	1504.0
144.166336	180.0
144.187943	160.0
144.316406	172.0
144.355286	196.0
144.479675	176.0
144.513168	120.0
144.534698	108.0
144.608887	44.0
144.685486	148.0
144.733368	148.0
144.772858	180.0
144.820236	176.0
144.848328	188.0
144.87468	180.0
144.915405	48.0
144.984909	128.0
145.063797	2052.0
145.099487	4364.0
145.138321	156.0
145.17627	68.0
145.222549	132.0
145.25824	168.0
145.318222	64.0
145.361404	148.0
145.46257	164.0
145.560654	112.0
145.663925	152.0
145.779251	160.0
145.801926	256.0
145.860962	76.0
145.91626	100.0
145.952332	208.0
145.976379	188.0
146.069443	560.0
146.09761	2076.0
146.156296	176.0
146.195282	36.0
146.286743	132.0
146.303604	32.0
146.327682	72.0
146.399918	92.0
146.552414	144.0
146.786789	156.0
146.891602	28.0
147.028824	120.0
147.080795	5448.0
147.108566	1280.0
147.195007	152.0
147.265747	32.0
147.379288	176.0
147.430038	60.0
147.463867	236.0
147.524307	52.0
147.613754	64.0
147.662125	120.0
147.707626	184.0
147.862946	144.0
147.93129	220.0
148.003342	220.0
148.036514	184.0
148.075775	18360.0
148.110291	656.0
148.181702	44.0
148.256454	140.0
148.287735	92.0
148.302658	80.0
148.418442	104.0
148.461349	84.0
148.485596	48.0
148.546234	64.0
148.563217	168.0
148.621445	36.0
148.672409	64.0
148.742798	28.0
148.781631	28.0
148.944336	52.0
148.978348	104.0
149.020981	176.0
149.057312	148.0
149.080658	2628.0
149.12822	348.0
149.148453	204.0
149.211655	40.0
149.243256	160.0
149.326981	224.0
149.54248	64.0
149.674011	136.0
149.773804	124.0
149.978485	68.0
150.058395	128.0
150.090469	1632.0
150.21257	88.0
150.321594	140.0
150.383377	72.0
150.401855	176.0
150.441956	156.0
150.606461	120.0
150.759491	156.0
151.006409	188.0
151.058807	168.0
151.091141	212.0
151.1483	232.0
151.177673	72.0
151.199402	200.0
151.329437	184.0
151.34903	64.0
151.402893	152.0
151.432281	112.0
151.448898	92.0
151.495972	172.0
151.561905	132.0
151.615433	144.0
151.812164	176.0
151.836685	156.0
151.924988	48.0
151.956879	148.0
151.978973	116.0
152.061798	1176.0
152.104126	160.0
152.175323	56.0
152.248032	236.0
152.285828	96.0
152.339874	176.0
152.359528	140.0
152.438156	136.0
152.534012	184.0
152.567123	76.0
152.634811	172.0
152.824203	124.0
152.848816	192.0
153.068634	3692.0
153.102371	36.0
153.194336	144.0
153.250168	160.0
153.516388	140.0
153.548447	316.0
153.578049	116.0
153.629852	200.0
153.661926	32.0
153.6866	108.0
153.814926	56.0
153.896408	68.0
153.960602	56.0
154.007538	192.0
154.076385	3172.0
154.107559	164.0
154.148743	156.0
154.190369	176.0
154.336212	44.0
154.353531	96.0
154.719711	88.0
154.916443	248.0
154.957474	144.0
155.084793	7748.0
155.13591	76.0
155.204544	164.0
155.267334	128.0
155.311981	152.0
155.334305	40.0
155.384888	68.0
155.409607	68.0
155.676819	224.0
155.751328	144.0
155.768723	156.0
155.91748	188.0
155.923676	164.0
156.091827	4612.0
156.144043	204.0
156.221146	156.0
156.260956	196.0
156.325653	40.0
156.358414	120.0
156.412766	132.0
156.497406	68.0
156.53476	148.0
156.714096	112.0
156.741516	104.0
156.782745	176.0
156.868622	196.0
156.98082	64.0
157.020721	128.0
157.067154	588.0
157.100479	6224.0
157.147949	92.0
157.167587	188.0
157.250259	52.0
157.271942	64.0
157.28894	88.0
157.32515	36.0
157.371613	300.0
157.39006	48.0
157.420029	36.0
157.453491	100.0
157.468719	80.0
157.495163	188.0
157.537415	140.0
157.584885	136.0
157.627365	76.0
157.668289	148.0
157.71402	184.0
157.742325	64.0
157.827332	204.0
157.844833	88.0
157.864838	80.0
157.899857	136.0
157.969894	112.0
158.021271	52.0
158.069733	692.0
158.099472	2996.0
158.169098	304.0
158.232437	268.0
158.290253	68.0
158.337845	84.0
158.435532	196.0
158.498169	108.0
158.545776	68.0
158.708725	96.0
158.824081	56.0
158.869232	100.0
158.889313	152.0
158.967087	156.0
159.039871	40.0
159.08049	2996.0
159.115219	2836.0
159.178284	152.0
159.254974	48.0
159.298508	56.0
159.326141	92.0
159.406555	44.0
159.45932	124.0
159.519653	140.0
159.600098	108.0
159.660461	96.0
159.770294	60.0
159.806351	144.0
159.952316	112.0
160.076096	940.0
160.112289	1584.0
160.175049	124.0
160.221786	84.0
160.241928	64.0
160.279724	36.0
160.451126	52.0
160.53685	160.0
160.680634	244.0
160.973419	172.0
161.013824	68.0
161.096161	1284.0
161.233627	80.0
161.274063	84.0
161.327148	84.0
161.392883	212.0
161.914185	156.0
161.936981	204.0
162.057663	220.0
162.091034	2496.0
162.126114	564.0
162.218246	204.0
162.256989	196.0
162.334885	100.0
162.441406	44.0
162.535278	36.0
162.794205	92.0
162.885635	108.0
162.934799	140.0
162.959305	136.0
163.020935	96.0
163.047348	112.0
163.098267	544.0
163.148422	128.0
163.17189	144.0
163.203323	56.0
163.521301	36.0
163.635742	176.0
163.71225	96.0
163.862473	172.0
163.920227	156.0
164.088211	184.0
164.096176	120.0
164.108902	188.0
164.113129	176.0
164.136932	172.0
164.27829	100.0
164.298508	160.0
164.334213	172.0
164.362289	160.0
164.420975	204.0
164.461823	152.0
164.580704	148.0
164.870468	104.0
165.011063	184.0
165.069229	4836.0
165.128693	128.0
165.159378	68.0
165.30777	88.0
165.392227	148.0
165.515121	200.0
165.599625	44.0
165.735397	200.0
165.791779	152.0
165.927628	28.0
165.948151	180.0
166.02507	172.0
166.075638	3216.0
166.143066	172.0
166.195724	84.0
166.216003	84.0
166.30986	204.0
166.350937	76.0
166.849319	136.0
166.872467	36.0
166.991409	248.0
167.085632	5064.0
167.182953	216.0
167.268646	148.0
167.33815	64.0
167.356171	176.0
167.428284	44.0
167.46434	128.0
167.531311	136.0
167.554504	136.0
167.636948	180.0
167.660233	120.0
167.680771	244.0
167.786804	144.0
168.090698	2044.0
168.204376	40.0
168.23793	104.0
168.333603	72.0
168.454849	112.0
168.576294	112.0
168.723618	76.0
168.788254	68.0
168.832214	192.0
168.930511	64.0
169.010712	352.0
169.100021	5140.0
169.169159	180.0
169.209442	164.0
169.264389	32.0
169.339493	52.0
169.378342	116.0
169.525238	172.0
169.686737	152.0
169.764526	208.0
169.831955	160.0
169.878784	152.0
170.100601	1928.0
170.213455	72.0
170.247223	136.0
170.29657	36.0
170.326935	144.0
170.371887	192.0
170.566788	148.0
170.707184	100.0
170.863251	136.0
170.914658	160.0
170.949127	104.0
171.0298	212.0
171.079666	1936.0
171.115707	2928.0
171.187943	92.0
171.225082	44.0
171.34491	72.0
171.443924	108.0
171.50386	124.0
171.610748	228.0
171.628998	228.0
171.647263	140.0
171.715057	208.0
171.738541	60.0
171.910721	32.0
171.942047	148.0
171.993011	144.0
172.081985	592.0
172.112793	1636.0
172.22229	96.0
172.26059	264.0
172.359879	140.0
172.534424	152.0
172.712814	140.0
172.812225	44.0
172.943069	144.0
172.961395	36.0
173.095184	2200.0
173.12709	860.0
173.238968	136.0
173.262558	136.0
173.286133	32.0
173.451233	48.0
173.524643	236.0
173.63739	48.0
173.734451	108.0
173.800049	136.0
173.926834	128.0
174.090958	1376.0
174.127899	1924.0
174.156067	176.0
174.256912	148.0
174.312088	68.0
174.489166	128.0
174.515076	160.0
174.730164	52.0
174.748566	116.0
174.816986	112.0
174.890686	92.0
174.930161	60.0
175.030212	132.0
175.049957	128.0
175.074402	168.0
175.105362	468.0
175.341064	208.0
175.388504	156.0
175.412231	84.0
175.46759	144.0
175.673309	136.0
175.807648	48.0
175.932388	160.0
176.023285	180.0
176.078476	168.0
176.106888	860.0
176.140549	120.0
176.240936	204.0
176.317566	68.0
176.425949	148.0
176.542282	120.0
176.703644	60.0
176.740692	64.0
176.870361	72.0
177.064789	304.0
177.114105	244.0
177.145767	144.0
177.262344	144.0
177.675964	176.0
177.705154	164.0
177.824127	168.0
178.021027	40.0
178.077713	2116.0
178.118408	336.0
178.20166	76.0
178.286697	32.0
178.37175	60.0
178.427567	48.0
178.556137	148.0
178.637665	112.0
178.698853	192.0
178.893143	120.0
178.93573	160.0
179.050598	212.0
179.084396	3976.0
179.148788	36.0
179.23671	44.0
179.564621	156.0
179.625961	204.0
179.673981	148.0
179.770035	156.0
179.802063	56.0
179.860779	172.0
179.906158	116.0
179.929794	160.0
180.089569	2120.0
180.143845	44.0
180.181244	48.0
180.340103	196.0
180.389694	60.0
180.411072	108.0
180.603607	152.0
180.855133	52.0
180.93811	100.0
180.96489	184.0
181.065903	776.0
181.099396	4624.0
181.169327	132.0
181.345291	120.0
181.369415	48.0
181.423019	160.0
181.473969	148.0
181.56514	128.0
181.672424	136.0
181.938507	196.0
182.018661	64.0
182.070755	684.0
182.105453	2140.0
182.169067	172.0
182.246979	108.0
182.276535	108.0
182.303864	96.0
182.322327	112.0
182.382736	140.0
182.413605	80.0
182.626953	176.0
182.903183	192.0
182.978561	108.0
183.079391	840.0
183.115509	4508.0
183.342209	112.0
183.361069	80.0
183.392136	44.0
183.479675	88.0
183.555176	104.0
183.671143	48.0
183.722397	136.0
183.787155	40.0
183.811432	48.0
183.887009	36.0
183.912979	96.0
183.972382	248.0
184.084015	740.0
184.115906	1008.0
184.53804	180.0
184.684067	64.0
184.83287	164.0
184.868042	144.0
184.957367	56.0
185.095596	2876.0
185.130157	988.0
185.275269	200.0
185.528946	100.0
185.596725	80.0
185.659103	156.0
185.79744	148.0
185.876114	108.0
186.094223	612.0
186.128784	1140.0
186.313263	120.0
186.416504	188.0
186.452362	104.0
186.574158	124.0
187.110092	876.0
187.149002	652.0
187.333435	156.0
187.420609	120.0
187.521454	100.0
187.62471	136.0
187.780457	116.0
187.865021	284.0
187.946869	56.0
188.009644	112.0
188.074768	176.0
188.10997	1516.0
188.140839	344.0
188.329071	112.0
188.386826	144.0
188.424683	112.0
188.472473	180.0
188.635117	216.0
188.747208	148.0
188.80191	160.0
188.848404	152.0
189.02623	128.0
189.06868	596.0
189.119781	144.0
189.160339	52.0
189.264374	160.0
189.620499	84.0
189.828857	132.0
189.861771	88.0
189.955032	136.0
190.048233	160.0
190.075302	812.0
190.120789	168.0
190.173782	124.0
190.484146	156.0
190.616699	48.0
190.762375	132.0
190.888855	192.0
190.930099	68.0
191.084473	2224.0
191.119385	84.0
191.124435	236.0
191.144241	176.0
191.329086	132.0
191.805664	116.0
191.871826	104.0
191.953003	76.0
191.995911	140.0
192.039291	172.0
192.09137	3616.0
192.131073	136.0
192.313202	80.0
192.365646	228.0
192.418091	164.0
192.650085	172.0
192.81311	100.0
192.860092	76.0
192.87944	76.0
192.930756	144.0
193.099609	3856.0
193.142136	72.0
193.180862	192.0
193.296143	72.0
193.352417	64.0
193.474213	124.0
193.567307	64.0
193.673584	52.0
193.767776	56.0
193.823196	176.0
193.856445	136.0
194.014435	60.0
194.036606	120.0
194.058289	76.0
194.105209	2012.0
194.239059	184.0
194.319504	60.0
194.752579	204.0
194.783127	76.0
194.927597	104.0
194.988739	88.0
195.081482	1144.0
195.115143	3268.0
195.208359	64.0
195.28067	96.0
195.34465	64.0
195.36969	140.0
195.447586	76.0
195.561691	64.0
195.745438	128.0
195.876343	116.0
196.084869	408.0
196.125381	1456.0
196.180084	176.0
196.202393	84.0
196.241425	144.0
196.324951	88.0
196.475693	92.0
196.503601	36.0
196.598465	44.0
196.765945	160.0
197.096832	1400.0
197.131775	1500.0
197.285599	176.0
197.324738	96.0
197.422592	40.0
197.444977	84.0
197.590424	160.0
197.692566	128.0
197.889908	176.0
197.9487	136.0
197.993515	32.0
198.100494	504.0
198.129013	872.0
198.236603	228.0
198.262466	160.0
198.338135	44.0
198.47551	64.0
198.531601	96.0
198.68306	76.0
198.713928	240.0
198.78688	152.0
199.033905	56.0
199.070068	168.0
199.110718	840.0
199.144547	644.0
199.213654	96.0
199.289505	96.0
199.528412	172.0
199.663376	132.0
199.767456	184.0
199.860306	176.0
200.10675	1140.0
200.147812	420.0
200.217804	148.0
200.443176	156.0
200.634842	40.0
200.68277	128.0
201.074875	124.0
201.120468	476.0
201.433472	116.0
201.648224	28.0
201.947922	124.0
202.078033	1048.0
202.101395	184.0
202.123917	768.0
202.154449	160.0
202.259171	196.0
202.290314	140.0
202.749161	128.0
202.805847	60.0
202.961777	192.0
202.995804	168.0
203.041183	172.0
203.085617	1772.0
203.120132	392.0
203.142731	368.0
203.287994	48.0
203.674118	136.0
203.875839	124.0
204.09288	1516.0
204.13501	220.0
204.1772	216.0
204.248306	104.0
204.310883	60.0
204.345032	196.0
204.424698	116.0
204.521469	48.0
204.663818	156.0
204.791962	180.0
204.834686	56.0
204.920151	96.0
205.062637	156.0
205.100586	3396.0
205.177719	172.0
205.780151	92.0
205.812927	120.0
206.059662	176.0
206.108093	1664.0
206.147141	160.0
206.272888	64.0
206.467316	80.0
206.616058	120.0
206.71907	60.0
206.885086	144.0
206.998138	124.0
207.075836	372.0
207.116287	2640.0
207.268875	144.0
207.28894	84.0
207.363449	52.0
207.41217	108.0
207.460907	140.0
207.555527	60.0
207.624344	44.0
207.987381	220.0
208.115906	1272.0
208.198318	56.0
208.245468	136.0
208.327576	36.0
208.453995	120.0
208.543091	168.0
208.632202	76.0
208.658081	148.0
208.71846	156.0
208.75296	68.0
208.784607	56.0
208.82486	76.0
208.948563	132.0
209.046387	180.0
209.094208	960.0
209.131851	2760.0
209.224854	80.0
209.322739	40.0
209.488007	148.0
209.509964	172.0
209.636734	76.0
209.677094	32.0
209.733429	80.0
210.043274	172.0
210.100327	852.0
210.131149	1664.0
210.216385	96.0
210.291412	52.0
210.76503	72.0
210.854614	60.0
211.071182	136.0
211.110916	1332.0
211.148331	872.0
211.195786	128.0
211.249985	60.0
211.389633	32.0
211.470673	104.0
211.548828	28.0
211.583557	68.0
211.829712	88.0
211.85289	196.0
211.942703	124.0
212.07666	144.0
212.115128	696.0
212.145126	996.0
212.470398	64.0
212.534225	104.0
212.595169	52.0
212.839005	136.0
212.963882	132.0
213.088806	168.0
213.128082	1160.0
213.160019	800.0
213.21666	56.0
213.271881	52.0
213.356186	144.0
213.37944	68.0
213.52774	72.0
213.690643	76.0
213.754669	104.0
213.856522	184.0
213.952591	120.0
214.088867	164.0
214.124359	476.0
214.159302	776.0
214.319565	92.0
214.62854	208.0
214.686859	140.0
214.745193	144.0
214.786026	116.0
214.838531	28.0
214.930832	164.0
215.084137	1084.0
215.138504	928.0
215.428238	60.0
215.550949	128.0
215.735077	80.0
216.033371	92.0
216.091553	596.0
216.140152	308.0
216.165924	184.0
216.674515	156.0
216.941208	64.0
217.099899	1996.0
217.149399	48.0
217.17131	152.0
217.43692	88.0
217.624802	148.0
217.689392	72.0
217.748138	100.0
217.830383	56.0
217.921448	180.0
217.986099	136.0
218.006668	72.0
218.106659	1520.0
218.150375	184.0
218.215363	40.0
218.315338	176.0
218.427109	112.0
218.594818	44.0
218.670044	128.0
218.850906	72.0
218.942184	80.0
219.083298	316.0
219.115936	1764.0
219.160172	44.0
219.180801	44.0
219.758728	160.0
219.90332	80.0
219.980072	132.0
220.08992	368.0
220.119385	1696.0
220.160187	64.0
220.299011	84.0
220.343323	108.0
220.786713	108.0
221.095993	620.0
221.132187	1272.0
221.186142	80.0
221.49411	116.0
221.64267	244.0
221.923828	180.0
221.974228	60.0
222.131638	1060.0
222.288666	132.0
222.371765	48.0
222.576614	228.0
222.62709	72.0
222.676102	168.0
222.897415	32.0
222.942001	80.0
222.989548	104.0
223.025208	140.0
223.106796	1224.0
223.143906	752.0
223.224411	36.0
223.327347	268.0
223.480225	88.0
223.666412	104.0
223.873154	64.0
224.111969	468.0
224.143539	556.0
224.230652	68.0
224.287277	120.0
224.582474	68.0
224.660034	124.0
225.124908	880.0
225.162216	2432.0
225.245132	120.0
225.340729	28.0
225.370605	76.0
225.490143	44.0
225.537964	56.0
225.586517	184.0
225.730759	132.0
225.823563	116.0
226.076324	176.0
226.120438	572.0
226.166031	484.0
226.303818	32.0
226.40564	40.0
226.906052	132.0
227.087357	196.0
227.140976	796.0
227.319977	52.0
227.557114	92.0
227.710251	52.0
227.858673	88.0
227.91153	92.0
228.091293	236.0
228.136551	532.0
228.173767	272.0
228.90419	116.0
229.098694	324.0
229.150085	308.0
229.184326	52.0
229.359116	92.0
229.609375	164.0
229.850708	136.0
230.10965	584.0
230.149048	144.0
230.188797	144.0
230.276382	172.0
230.324707	88.0
230.366989	40.0
230.877808	152.0
230.947372	120.0
231.004852	48.0
231.11525	2208.0
231.16272	156.0
231.510315	124.0
231.622375	116.0
231.655701	100.0
231.722351	100.0
232.013763	104.0
232.082626	120.0
232.121384	1160.0
232.175201	140.0
232.340836	32.0
232.395447	152.0
232.48233	152.0
233.094925	324.0
233.101013	360.0
233.131058	1552.0
233.324844	68.0
233.534668	88.0
233.863266	124.0
234.103302	392.0
234.133926	776.0
234.223846	144.0
234.426697	92.0
234.563858	72.0
234.716293	116.0
234.993866	272.0
235.110825	428.0
235.145828	1228.0
235.210541	80.0
235.357697	100.0
235.467026	68.0
235.818375	92.0
235.93454	72.0
236.01709	48.0
236.060837	92.0
236.116196	288.0
236.146347	716.0
236.182236	172.0
236.705582	224.0
236.791687	204.0
236.87709	60.0
236.910797	132.0
237.033356	100.0
237.082382	264.0
237.124451	1212.0
237.153381	432.0
237.284683	48.0
237.723328	140.0
238.018021	32.0
238.094788	140.0
238.127548	252.0
238.157898	364.0
238.798599	180.0
238.971863	112.0
239.14061	764.0
239.830078	112.0
240.096161	304.0
240.139557	552.0
240.179565	472.0
240.255615	36.0
240.37085	128.0
240.440765	200.0
240.561142	128.0
241.1026	164.0
241.157471	424.0
241.788254	124.0
241.940948	160.0
241.983261	56.0
242.112579	288.0
242.152679	220.0
242.161453	284.0
242.190262	936.0
242.277496	140.0
242.829254	68.0
242.981247	60.0
243.049515	60.0
243.11554	276.0
243.166885	248.0
243.188004	360.0
243.294708	76.0
243.555557	56.0
243.931549	56.0
244.062119	140.0
244.124588	584.0
244.16951	168.0
244.345169	80.0
244.612793	44.0
244.777817	180.0
245.097473	180.0
245.130295	1476.0
245.177444	156.0
245.301239	232.0
245.622421	152.0
245.685532	108.0
245.815857	48.0
245.971909	48.0
246.006256	80.0
246.091034	104.0
246.137756	812.0
246.243561	188.0
246.69664	180.0
246.824829	40.0
246.868607	108.0
246.893631	36.0
247.113922	456.0
247.146729	1320.0
247.334793	64.0
247.425583	48.0
247.469406	100.0
247.660431	220.0
247.876617	76.0
248.055252	136.0
248.113022	544.0
248.14682	520.0
248.202606	68.0
248.259064	128.0
248.347794	124.0
248.437851	84.0
248.500595	140.0
248.600998	52.0
248.757935	84.0
248.848984	184.0
248.886658	60.0
248.990295	36.0
249.130508	812.0
249.153503	460.0
249.288742	208.0
249.391098	180.0
249.527634	96.0
250.015198	52.0
250.046448	116.0
250.123932	548.0
250.163361	668.0
250.254425	172.0
250.292221	60.0
250.437088	48.0
250.875092	72.0
250.966522	116.0
251.06427	104.0
251.104126	116.0
251.146439	596.0
251.176086	340.0
251.673309	60.0
251.834366	56.0
251.929138	48.0
252.140549	348.0
252.170837	648.0
252.510742	92.0
252.6436	92.0
252.849274	36.0
252.931564	44.0
252.953735	140.0
253.110703	148.0
253.15654	724.0
253.219711	72.0
253.400269	104.0
253.812317	104.0
254.008957	176.0
254.103348	168.0
254.159836	308.0
254.370712	84.0
255.115021	880.0
255.156616	248.0
255.188843	284.0
255.352539	64.0
255.410522	140.0
256.115997	176.0
256.141907	184.0
256.162506	172.0
256.855957	96.0
257.072906	148.0
257.134216	324.0
257.178558	152.0
257.268951	48.0
257.666809	128.0
257.717926	76.0
257.839355	156.0
258.096771	216.0
258.134216	548.0
258.174377	152.0
258.424561	116.0
258.866302	204.0
258.891907	120.0
259.105408	152.0
259.141632	332.0
259.712402	96.0
259.782959	64.0
260.150421	496.0
260.656281	60.0
260.688416	152.0
260.726959	172.0
260.784821	100.0
261.128052	512.0
261.162415	804.0
261.244659	156.0
261.885223	132.0
261.975433	48.0
262.129028	432.0
262.158722	756.0
262.387939	76.0
262.707214	132.0
262.733032	140.0
263.094482	196.0
263.144104	680.0
263.172302	444.0
263.64682	92.0
263.669434	80.0
263.708221	80.0
263.853699	108.0
263.892487	68.0
264.025055	128.0
264.054169	36.0
264.141449	384.0
264.176483	568.0
264.361511	64.0
264.465607	76.0
264.915192	156.0
265.086914	128.0
265.115112	216.0
265.163666	164.0
265.210052	140.0
265.394867	132.0
265.839264	56.0
265.93988	156.0
266.125488	112.0
266.1586	224.0
266.190826	160.0
266.816956	120.0
267.106384	140.0
267.170929	128.0
267.199432	168.0
267.366669	116.0
268.105957	152.0
268.141785	248.0
268.170715	348.0
268.207001	192.0
268.461304	148.0
268.575439	68.0
269.127533	144.0
269.163086	128.0
269.17041	316.0
270.055084	32.0
270.134308	296.0
270.145538	144.0
270.185638	756.0
270.670349	48.0
270.807892	92.0
271.151917	196.0
271.186462	332.0
271.473206	56.0
271.8078	40.0
271.878021	172.0
272.140076	324.0
273.136597	360.0
273.175262	168.0
274.050323	216.0
274.129028	168.0
274.158081	444.0
274.986877	52.0
275.124725	224.0
275.175476	508.0
275.287292	108.0
275.821167	164.0
276.140472	584.0
276.17395	560.0
276.331818	140.0
276.672699	68.0
276.864777	60.0
277.166565	724.0
277.225861	100.0
277.394897	76.0
277.610413	108.0
277.855865	72.0
278.164429	416.0
278.185944	576.0
278.469971	128.0
279.133911	256.0
279.166779	776.0
279.35083	128.0
279.400757	76.0
279.540497	116.0
279.58374	60.0
279.999908	68.0
280.168182	288.0
280.266022	204.0
280.473022	96.0
280.666412	84.0
280.796448	92.0
281.12674	144.0
281.178833	492.0
281.306976	36.0
281.834656	40.0
282.186279	376.0
282.226227	152.0
282.312683	56.0
283.170776	1596.0
283.229736	100.0
283.316833	56.0
283.39389	40.0
283.651947	36.0
283.87323	168.0
283.936951	140.0
284.176941	364.0
284.197937	192.0
284.232178	52.0
284.416748	124.0
285.027985	200.0
285.147736	132.0
285.175842	236.0
286.157379	172.0
286.596008	132.0
286.720703	156.0
287.047699	212.0
287.153564	144.0
287.168243	108.0
287.176239	324.0
287.945404	64.0
288.147583	692.0
288.394745	56.0
288.428558	156.0
288.962891	68.0
289.159973	220.0
289.568817	148.0
289.782227	124.0
289.843231	76.0
290.090637	108.0
290.152374	156.0
290.184113	252.0
290.283905	64.0
290.562042	76.0
290.59256	108.0
290.796173	164.0
290.942139	64.0
291.180328	280.0
291.46521	40.0
292.131592	52.0
292.204529	868.0
292.499115	88.0
292.774902	80.0
293.151672	160.0
293.192078	864.0
293.787231	140.0
293.985138	136.0
294.138733	84.0
294.184967	988.0
294.292358	72.0
294.476746	60.0
294.531403	240.0
294.558746	40.0
294.760315	52.0
295.016663	96.0
295.098694	56.0
295.190521	3504.0
295.238892	248.0
295.365448	32.0
295.403076	76.0
295.471497	52.0
295.540649	136.0
295.642578	44.0
295.739197	156.0
296.165314	1036.0
296.200165	1400.0
296.374146	88.0
296.464508	60.0
296.512482	60.0
296.594727	60.0
297.071381	192.0
297.180847	124.0
297.202026	700.0
297.287537	84.0
297.599915	36.0
297.933075	80.0
298.080811	104.0
298.156403	200.0
298.314514	68.0
298.448608	244.0
300.091003	88.0
300.167053	148.0
300.246185	68.0
300.301361	68.0
300.34964	120.0
302.205139	176.0
302.56131	112.0
303.17569	328.0
303.593872	48.0
304.163544	368.0
304.190674	328.0
305.121704	136.0
305.183868	228.0
305.716492	80.0
306.082031	96.0
306.179535	104.0
306.743988	56.0
306.813721	212.0
307.164917	192.0
307.281036	216.0
307.399689	144.0
307.958282	60.0
308.154968	184.0
308.204254	176.0
309.186737	448.0
309.303345	172.0
309.626587	76.0
309.696655	52.0
309.801727	44.0
309.889313	180.0
309.927856	100.0
310.008453	88.0
310.217133	8332.0
310.464203	48.0
310.537842	160.0
310.695709	68.0
310.786926	60.0
310.822021	128.0
310.895721	124.0
310.965912	84.0
311.077789	96.0
311.158966	184.0
311.220154	1912.0
311.274841	188.0
311.397766	80.0
311.664734	140.0
311.752594	124.0
312.191895	112.0
312.222931	488.0
312.272919	76.0
312.659943	56.0
312.916901	112.0
313.198639	136.0
313.406494	48.0
313.667267	100.0
313.981079	72.0
314.104523	72.0
314.570343	48.0
315.121277	56.0
315.867218	88.0
316.001648	88.0
316.203064	100.0
316.507812	52.0
317.730621	56.0
318.177795	140.0
318.778076	44.0
319.168457	160.0
319.446503	180.0
320.129883	144.0
320.199829	928.0
320.307953	124.0
320.963715	72.0
320.988678	64.0
321.186768	540.0
321.210754	572.0
321.341827	64.0
321.381073	88.0
321.787964	180.0
322.030792	140.0
322.185272	384.0
322.388062	36.0
323.18985	268.0
323.847778	64.0
323.955231	88.0
324.019714	128.0
324.191711	124.0
324.306396	148.0
324.840668	80.0
325.292847	172.0
325.619568	88.0
326.226837	128.0
326.424591	176.0
327.183838	360.0
327.291809	176.0
327.317017	64.0
327.367432	32.0
328.084442	172.0
328.239471	88.0
328.585754	124.0
329.007996	104.0
330.544128	48.0
331.058167	124.0
331.706726	64.0
331.90976	172.0
333.881622	120.0
334.078064	108.0
336.355621	108.0
336.706146	76.0
337.038574	88.0
337.495483	128.0
337.609314	88.0
337.663696	120.0
337.993805	256.0
338.048584	172.0
338.102722	188.0
338.142975	180.0
338.211243	13576.0
338.288147	164.0
338.357605	120.0
338.423035	72.0
338.460938	56.0
338.50174	64.0
338.669128	68.0
338.699524	84.0
338.801849	60.0
338.996277	112.0
339.135773	64.0
339.213989	2004.0
339.388519	64.0
339.480194	40.0
339.531525	48.0
339.615875	60.0
339.641571	112.0
340.026825	116.0
340.125916	60.0
340.16629	176.0
340.214813	448.0
340.485748	112.0
340.746552	36.0
341.117737	52.0
341.220215	128.0
341.316254	72.0
341.34201	100.0
341.474396	84.0
341.683472	124.0
342.457123	120.0
343.33429	52.0
343.802826	32.0
344.116577	72.0
344.981079	80.0
345.720856	116.0
346.368774	40.0
348.364532	84.0
349.111603	88.0
351.331573	64.0
352.563751	56.0
353.771912	72.0
355.147156	116.0
356.506256	88.0
357.224396	136.0
360.591614	84.0
364.742065	48.0
365.753876	104.0
367.945862	68.0
368.851257	76.0
377.030487	44.0
377.730316	60.0
378.763855	88.0
393.125122	88.0
394.270386	80.0
395.611267	64.0
397.688385	56.0
398.379333	76.0
400.81427	48.0
401.827026	60.0
404.004395	56.0
404.132416	144.0
404.576691	72.0
408.268188	124.0
416.84259	84.0
420.516022	136.0
430.645355	112.0
430.723846	144.0
435.840393	52.0
436.750854	96.0
441.70636	52.0
447.708405	100.0
461.919128	76.0
465.914581	60.0
471.166321	40.0
472.082672	44.0
472.90036	52.0
473.757721	40.0
476.06958	136.0
476.438782	88.0
477.738647	84.0
479.301697	88.0
486.180481	64.0
488.35968	40.0
494.187286	76.0
498.590668	84.0
505.010956	92.0
506.295441	68.0
508.87384	180.0
509.336395	44.0
513.865295	76.0
520.532715	104.0
525.631042	128.0
532.511902	48.0
535.321899	44.0
538.277832	48.0
544.571655	112.0
549.244873	56.0
551.401978	128.0
552.341797	152.0
553.671082	40.0
554.406616	88.0
561.302917	56.0
562.194519	68.0
564.06488	84.0
569.143677	48.0
572.596191	100.0
575.295044	32.0
576.159424	96.0
592.837158	136.0
607.822876	40.0
610.146118	60.0
616.939697	88.0
627.175659	52.0
627.21051	64.0
627.773926	56.0
639.130066	52.0
647.712769	36.0
653.719055	48.0
655.659363	72.0
661.011353	128.0
663.141785	84.0
678.825073	100.0
683.619873	88.0
699.27887	112.0
699.973755	84.0
708.297363	104.0
713.333191	56.0
720.500977	96.0
721.361389	76.0
737.80658	112.0
740.479675	112.0
744.900391	220.0
751.717041	72.0
753.546265	188.0
754.95105	100.0
755.591064	188.0
760.127869	196.0
760.77002	60.0
766.269714	56.0
790.32312	104.0
794.379395	216.0
796.220459	32.0
796.978821	156.0
799.323608	168.0
805.655396	92.0
806.282593	112.0
806.836548	52.0
814.157471	232.0
814.378967	120.0
814.509644	224.0
818.507812	236.0
821.106506	120.0
825.589722	68.0
831.427551	136.0
836.574768	20.0
836.96344	196.0
838.657166	208.0
839.729614	64.0
840.964355	244.0
845.802368	64.0
847.812134	152.0
849.766296	192.0
853.320801	136.0
857.675354	260.0
863.455688	36.0
863.794922	68.0
864.10498	88.0
868.164307	48.0
870.805359	136.0
876.093567	208.0
876.889038	156.0
878.55188	192.0
880.706543	200.0
882.976135	216.0
883.277832	168.0
889.357361	132.0
890.818115	180.0
894.40979	80.0
896.673157	148.0
901.238342	128.0
904.198486	164.0
904.282227	164.0
907.325317	132.0
909.160767	132.0
911.016174	224.0
912.795227	68.0
913.390625	176.0
914.106628	60.0
915.720032	176.0
916.304382	144.0
918.305725	192.0
918.522888	164.0
919.814209	32.0
926.902466	172.0
928.175415	108.0
929.552429	180.0
931.477051	180.0
931.701843	112.0
933.987549	104.0
934.364746	92.0
934.486389	36.0
936.885193	112.0
938.238159	148.0
938.713745	116.0
945.191284	172.0
945.390808	88.0
945.947754	48.0
948.036377	64.0
949.262451	132.0
949.452576	120.0
950.139526	204.0
950.483154	148.0
952.662781	232.0
956.235352	156.0
956.813965	140.0
957.509766	224.0
957.977905	180.0
959.124084	28.0
961.628357	144.0
964.828125	148.0
966.646606	132.0
968.980957	72.0
970.232849	60.0
974.111511	108.0
976.038208	212.0
976.355347	136.0
978.744995	220.0
979.616943	180.0
984.375854	176.0
987.694519	152.0
989.703491	208.0
990.64917	124.0
991.620422	200.0
992.021606	184.0
992.479309	204.0
995.861877	208.0
997.04303	260.0
998.696594	168.0
999.527039	252.0
1001.050415	132.0
1003.217896	136.0
1003.299866	168.0
1003.987122	164.0
1005.785339	124.0
1006.403992	84.0
1006.467163	164.0
1007.768311	64.0
1007.957886	80.0
1008.495056	60.0
1009.740662	164.0
1009.797546	180.0
1009.955688	84.0
1012.120117	132.0
1012.607727	152.0
1014.2995	36.0
1015.244202	208.0
1017.941284	68.0
1019.376953	160.0
1020.991638	188.0
1021.837708	116.0
1022.015869	156.0
1023.498962	128.0
1025.951904	188.0
1026.736206	160.0
1030.444946	136.0
1030.572754	128.0
1032.752686	200.0
1034.480469	184.0
1035.024658	136.0
1035.709961	116.0
1038.38269	56.0
1038.934326	48.0
1038.998535	144.0
1039.877563	212.0
1040.185669	92.0
1041.155273	44.0
1042.228027	160.0
1042.59436	108.0
1043.661499	140.0
1043.770752	168.0
1044.12439	136.0
1047.271729	200.0
1049.024414	144.0
1050.133545	160.0
1050.959351	184.0
1051.114136	48.0
1054.123413	168.0
1054.226807	124.0
1054.407715	96.0
1054.924805	152.0
1055.694214	168.0
1055.862427	148.0
1056.496338	108.0
1056.735718	48.0
1058.237305	136.0
1059.454834	100.0
1060.556519	56.0
1061.152954	160.0
1061.217773	128.0
1061.353882	168.0
1062.625244	144.0
1065.358398	120.0
1066.060181	148.0
1068.648193	204.0
1070.138672	160.0
1071.493408	184.0
1072.223267	168.0
1073.331421	132.0
1073.579224	208.0
1074.16626	152.0
1075.869507	164.0
1075.941406	228.0
1076.176392	32.0
1078.051147	116.0
1078.260254	196.0
1082.447144	60.0
1083.907959	176.0
1084.111084	68.0
1086.825928	112.0
1088.302734	208.0
1088.788696	132.0
1090.772949	88.0
1091.160889	108.0
1091.463257	136.0
1091.969727	268.0
1093.956909	212.0
1094.964355	120.0
1096.222656	240.0
1096.954224	168.0
1098.035645	140.0
1098.404907	152.0
1098.451172	188.0
1101.045166	120.0
1101.104614	164.0
1104.336548	204.0
1104.726807	228.0
1104.812866	196.0
1105.86499	180.0
1106.189331	132.0
1106.87793	160.0
1107.7323	160.0
1108.240479	220.0
1110.436646	112.0
1110.582642	188.0
1110.682129	164.0
1112.374146	76.0
1113.084595	216.0
1113.32373	56.0
1113.589355	256.0
1113.694946	196.0
1114.426392	152.0
1114.599121	172.0
1115.077637	136.0
1115.649292	216.0
1117.744385	188.0
1118.383301	136.0
1119.954712	100.0
1121.100708	60.0
1121.960449	136.0
1122.193848	160.0
1123.407715	144.0
1125.356445	108.0
1125.503418	200.0
1125.944092	180.0
1126.926147	216.0
1127.69458	88.0
1127.814941	188.0
1128.60376	48.0
1128.924805	144.0
1130.021729	60.0
1130.082031	192.0
1130.717651	36.0
1132.512085	80.0
1134.435303	120.0
1135.105713	232.0
1135.280029	196.0
1135.588623	60.0
1137.158569	132.0
1137.917114	180.0
1138.125366	144.0
1139.018555	184.0
1140.846436	148.0
1141.00769	160.0
1141.236328	172.0
1141.32373	156.0
1143.173584	192.0
1143.786133	156.0
1143.988037	168.0
1144.04187	224.0
1144.620972	164.0
1145.105835	128.0
1145.651367	152.0
1146.0354	152.0
1146.102783	160.0
1147.235107	112.0
1148.044189	168.0
1148.1521	144.0
1148.428711	236.0
1151.317383	160.0
1151.600952	188.0
1151.844238	72.0
1152.033325	168.0
1152.431885	108.0
1154.554565	196.0
1154.642456	144.0
1154.737183	188.0
1155.359497	156.0
1156.036133	168.0
1156.679077	176.0
1157.559204	196.0
1159.096924	124.0
1162.168579	140.0
1163.288452	188.0
1163.519287	152.0
1163.607544	152.0
1165.80835	156.0
1166.991089	196.0
1167.161133	144.0
1170.931152	260.0
1171.264893	140.0
1171.428467	128.0
1171.632812	196.0
1173.207153	88.0
1174.366333	172.0
1174.454956	248.0
1175.40332	56.0
1176.078979	72.0
1176.235962	156.0
1176.652344	172.0
1176.775269	148.0
1179.439575	164.0
1180.465088	140.0
1180.581421	164.0
1182.052246	136.0
1182.647583	196.0
1184.482666	52.0
1184.660767	152.0
1185.414551	152.0
1185.791382	176.0
1185.942261	216.0
1186.127319	140.0
1186.257568	176.0
1186.737427	236.0
1187.279175	192.0
1187.635864	248.0
1188.287598	160.0
1188.486572	144.0
1188.548218	156.0
1189.358154	128.0
1189.77002	264.0
1191.89917	164.0
1193.52832	156.0
1193.603882	148.0
1194.112793	156.0
1194.298584	184.0
1195.984375	152.0
1196.514282	180.0
1196.734741	184.0
1196.858643	156.0
1197.464722	160.0
1197.623047	160.0
1198.346436	204.0
1198.670288	200.0
1200.607422	128.0
1203.685303	228.0
1203.871704	156.0
1204.935425	160.0
1205.366577	256.0
1205.737061	76.0
1206.200073	188.0
1206.303833	128.0
1208.399292	224.0
1208.682983	92.0
1209.063599	40.0
1209.319702	36.0
1210.378906	132.0
1210.912109	120.0
1211.905396	276.0
1212.055176	128.0
1212.893799	196.0
1213.649536	104.0
1213.857544	160.0
1214.134888	168.0
1214.301392	112.0
1214.356812	232.0
1214.897949	92.0
1215.109863	220.0
1218.049561	140.0
1218.237061	124.0
1218.619263	128.0
1218.716431	156.0
1218.931885	224.0
1219.870239	152.0
1220.064819	60.0
1220.182983	144.0
1220.746216	132.0
1221.34436	248.0
1221.490479	144.0
1221.615723	192.0
1221.713013	180.0
1222.019165	208.0
1222.589844	176.0
1223.724365	152.0
1224.650635	128.0
1225.34729	224.0
1225.653809	180.0
1227.117554	140.0
1229.838257	92.0
1230.08252	212.0
1230.859009	176.0
1231.723511	172.0
1233.316772	144.0
1234.715088	172.0
1234.875977	160.0
1235.253662	184.0
1236.086182	156.0
1236.660156	196.0
1237.157104	180.0
1239.531494	144.0
1239.608521	264.0
1239.952026	132.0
1240.218262	184.0
1242.12561	72.0
1242.806152	104.0
1242.953491	164.0
1243.38855	176.0
1243.451782	172.0
1243.915039	216.0
1244.013306	132.0
1245.530029	216.0
1246.063965	176.0
1246.246704	164.0
1246.675293	200.0
1246.865112	272.0
1247.097046	192.0
1247.293823	172.0
1247.40625	200.0
1247.814575	212.0
1248.700073	204.0
1249.910034	164.0
1249.980469	144.0
1250.261963	184.0
1250.656128	164.0
1250.719482	184.0
1250.923584	136.0
1251.222778	152.0
1252.007935	172.0
1253.423828	160.0
1254.001709	152.0
1254.61499	164.0
1256.251099	72.0
1257.655396	180.0
1259.392334	180.0
1259.505371	144.0
1259.802124	188.0
1259.978638	116.0
1261.505127	176.0
1261.943481	172.0
1263.733032	140.0
1264.242432	28.0
1264.596313	104.0
1264.929077	172.0
1265.254639	188.0
1265.495361	160.0
1266.08313	172.0
1266.161011	60.0
1266.224731	148.0
1266.345215	200.0
1269.293335	132.0
1270.754517	144.0
1271.293823	108.0
1272.017822	220.0
1272.436646	68.0
1272.575439	144.0
1274.425415	112.0
1275.171509	72.0
1276.067261	152.0
1276.216553	160.0
1279.703003	164.0
1280.58606	192.0
1280.899414	176.0
1281.127441	152.0
1281.590454	156.0
1282.630981	176.0
1283.130005	188.0
1283.450928	140.0
1284.142578	156.0
1284.577759	136.0
1284.813599	132.0
1285.041504	40.0
1287.197144	56.0
1287.411377	180.0
1288.468506	40.0
1290.348145	196.0
1290.562622	192.0
1290.920166	148.0
1291.849976	48.0
1292.13623	120.0
1292.229248	192.0
1292.34375	160.0
1293.624756	156.0
1294.498291	52.0
1295.006714	136.0
1295.472412	60.0
1295.601318	92.0
1295.715942	156.0
1295.916626	208.0
1296.174561	180.0
1296.50415	136.0
1297.271118	188.0
1297.407349	228.0
1297.68689	132.0
1298.109985	164.0
1298.425537	136.0
1298.518799	220.0
1299.020874	184.0
1299.487183	164.0
1299.903442	116.0
1300.147339	124.0
1300.664185	124.0
1301.128418	216.0
1301.78418	160.0
1302.7323	176.0
1303.450806	216.0
1303.881958	180.0
1304.744507	144.0
1305.226318	60.0
1305.42041	184.0
1306.736816	124.0
1307.175659	232.0
1307.42041	168.0
1307.729858	72.0
1307.80896	80.0
1307.902588	180.0
1308.111328	212.0
1308.269775	164.0
1308.70166	152.0
1309.537109	128.0
1310.019653	140.0
1310.877075	32.0
1311.035645	224.0
1311.331177	144.0
1311.381592	120.0
1311.576172	60.0
1311.79248	156.0
1311.8573	152.0
1312.304321	108.0
1313.155273	172.0
1314.886841	172.0
1314.995117	140.0
1315.132202	176.0
1315.796387	220.0
1316.345093	172.0
1316.489502	140.0
1316.987915	80.0
1317.060181	56.0
1318.013794	156.0
1318.440186	100.0
1318.62085	176.0
1319.148438	260.0
1319.604004	216.0
1319.748535	160.0
1320.14624	224.0
1320.240234	140.0
1321.527832	264.0
1321.716064	148.0
1321.933105	180.0
1322.664062	188.0
1322.779907	180.0
1324.372925	60.0
1326.198853	252.0
1326.554077	200.0
1326.647949	172.0
1327.141357	160.0
1327.293579	244.0
1327.910034	136.0
1328.585938	176.0
1329.172363	140.0
1329.651367	212.0
1330.326416	152.0
1331.480835	52.0
1332.069214	200.0
1332.635864	152.0
1332.832031	144.0
1335.071045	40.0
1336.402222	192.0
1337.10083	140.0
1337.515747	180.0
1337.56665	144.0
1338.265625	192.0
1339.255981	156.0
1340.239502	172.0
1340.596558	156.0
1341.02478	168.0
1341.172363	228.0
1341.420166	164.0
1341.704468	112.0
1341.901367	184.0
1341.988892	224.0
1342.171143	164.0
1343.345337	128.0
1344.629517	156.0
1345.009155	116.0
1345.761108	180.0
1345.863281	160.0
1345.936279	176.0
1347.017212	44.0
1347.501587	156.0
1347.791626	148.0
1347.893921	124.0
1349.377808	168.0
1349.787231	172.0
1349.984619	148.0
1350.598999	120.0
1350.730713	120.0
1351.842773	136.0
1352.179443	88.0
1352.6698	168.0
1352.830933	156.0
1353.885254	152.0
1354.639771	136.0
1355.027954	216.0
1355.665527	180.0
1355.790039	124.0
1355.951294	180.0
1356.14917	200.0
1356.449707	144.0
1356.830933	164.0
1357.219604	172.0
1358.137329	144.0
1358.344849	212.0
1358.598389	160.0
1358.891846	212.0
1359.053345	144.0
1359.22937	236.0
1359.596313	208.0
1359.845825	120.0
1361.535034	172.0
1363.329834	136.0
1363.738647	184.0
1364.098877	144.0
1364.334106	212.0
1364.444336	136.0
1364.70166	76.0
1364.767822	156.0
1364.892822	124.0
1365.929932	116.0
1366.584595	180.0
1367.828369	160.0
1367.960938	164.0
1368.019775	196.0
1368.255371	36.0
1368.623535	180.0
1368.682373	180.0
1368.895996	240.0
1369.330444	124.0
1369.74292	172.0
1369.890259	176.0
1370.516479	212.0
1371.010254	148.0
1371.260864	196.0
1371.585205	188.0
1371.806274	172.0
1371.9021	164.0
1372.838501	168.0
1373.118774	212.0
1373.192505	80.0
1373.487549	196.0
1373.553955	108.0
1374.1073	216.0
1374.240112	148.0
1374.419678	164.0
1374.645874	132.0
1375.155151	112.0
1375.494629	164.0
1376.06311	56.0
1376.491455	148.0
1377.141357	264.0
1378.718872	92.0
1379.047607	164.0
1379.202881	144.0
1379.29895	80.0
1379.350708	144.0
1379.68335	148.0
1379.757202	132.0
1379.845947	40.0
1380.282227	124.0
1380.807251	40.0
1381.214111	152.0
1381.310303	176.0
1381.887329	124.0
1382.118164	212.0
1382.434937	220.0
1382.679077	144.0
1383.249023	144.0
1384.167114	144.0
1386.152344	152.0
1386.31543	148.0
1386.982422	120.0
1387.464233	196.0
1387.794556	268.0
1388.027832	164.0
1388.381592	164.0
1388.606201	160.0
1390.112305	180.0
1391.143921	140.0
1391.210815	160.0
1391.626587	208.0
1391.804688	192.0
1391.961792	240.0
1392.049805	184.0
1392.926147	204.0
1393.007324	236.0
1393.840088	172.0
1393.996094	120.0
1394.419678	112.0
1394.486572	172.0
1395.476685	108.0
1395.638916	192.0
1396.085083	172.0
1396.189209	132.0
1396.694946	64.0
1397.401611	160.0
1397.989502	192.0
1399.046509	228.0
1399.418701	236.0
1399.776123	280.0
1400.208008	148.0
1400.431519	160.0
1400.83374	132.0
1400.982788	128.0
1401.742676	160.0
1402.428345	176.0
1403.583984	44.0
1404.001587	188.0
1404.135742	148.0
1404.232788	124.0
1404.486328	76.0
1404.642944	128.0
1405.113037	144.0
1405.896484	56.0
1406.053223	104.0
1406.635376	156.0
1406.971313	168.0
1407.172241	164.0
1407.531372	128.0
1407.718018	40.0
1407.800171	156.0
1408.352783	164.0
1409.159668	200.0
1409.241821	144.0
1409.40625	200.0
1409.869507	212.0
1410.101196	180.0
1410.474976	164.0
1410.744019	112.0
1411.373047	176.0
1411.626343	140.0
1412.434082	156.0
1412.96521	92.0
1413.025024	132.0
1413.451538	172.0
1413.878174	84.0
1414.695068	196.0
1415.487671	184.0
1415.734741	132.0
1416.341431	204.0
1416.745972	160.0
1417.008179	176.0
1417.519165	296.0
1418.162231	128.0
1418.731934	76.0
1418.964355	188.0
1419.526733	156.0
1419.654175	104.0
1419.984131	216.0
1420.531738	148.0
1421.31958	36.0
1421.687256	220.0
1421.747314	116.0
1421.912354	164.0
1423.466431	180.0
1423.759277	176.0
1424.09729	164.0
1424.164795	40.0
1424.390137	68.0
1424.465332	164.0
1424.585449	212.0
1424.810913	128.0
1424.953491	148.0
1425.201538	132.0
1425.259766	172.0
1425.765137	176.0
1426.419067	156.0
1427.752319	260.0
1428.283936	168.0
1428.457031	132.0
1428.524658	140.0
1428.930542	152.0
1429.59314	148.0
1430.511353	72.0
1432.81958	200.0
1433.192505	140.0
1433.856934	176.0
1434.345703	152.0
1434.865845	112.0
1435.227783	164.0
1435.853638	292.0
1436.072388	160.0
1436.434448	200.0
1436.827515	180.0
1437.520874	192.0
1437.664307	40.0
1438.019043	164.0
1438.17749	104.0
1438.351074	48.0
1438.592651	180.0
1439.385498	160.0
1439.717773	184.0
1440.752563	208.0
1441.568604	152.0
1442.044678	152.0
1442.362183	216.0
1442.558716	152.0
1443.904663	192.0
1445.205811	188.0
1445.266357	200.0
1445.886841	36.0
1446.02124	220.0
1446.409058	240.0
1446.795166	140.0
1446.911987	212.0
1447.057129	196.0
1447.711426	52.0
1448.491455	192.0
1448.961182	160.0
1449.12793	196.0
1449.665894	180.0
1449.953857	152.0
1450.135742	160.0
1450.704224	120.0
1451.265259	208.0
1451.454834	176.0
1452.182861	240.0
1452.607666	168.0
1452.729126	136.0
1452.895996	144.0
1453.67749	172.0
1453.806519	168.0
1454.284668	168.0
1454.778076	188.0
1455.05896	108.0
1455.49939	144.0
1455.863892	152.0
1455.962524	228.0
1456.173218	168.0
1456.600586	160.0
1456.813232	164.0
1457.816284	88.0
1457.930176	68.0
1457.983398	144.0
1458.218994	156.0
1458.371094	96.0
1458.933594	32.0
1459.146484	188.0
1460.411987	204.0
1460.58374	124.0
1460.872803	144.0
1460.968506	160.0
1461.260864	36.0
1462.067383	80.0
1462.661133	152.0
1462.714355	144.0
1462.950317	144.0
1463.254883	192.0
1463.726929	108.0
1464.572388	160.0
1464.762817	176.0
1464.983643	252.0
1465.113159	156.0
1465.357056	112.0
1465.425537	104.0
1465.599854	184.0
1467.087036	60.0
1467.16333	128.0
1467.277588	184.0
1467.948608	188.0
1468.52063	132.0
1468.726562	80.0
1468.963013	56.0
1469.191895	92.0
1469.619141	188.0
1469.741211	164.0
1470.069336	148.0
1470.176147	132.0
1470.725708	192.0
1470.802002	128.0
1471.11499	188.0
1471.596069	44.0
1472.092407	196.0
1472.405518	140.0
1472.581177	200.0
1473.069946	164.0
1473.199829	200.0
1474.32312	152.0
1474.50647	156.0
1475.209717	148.0
1475.301392	120.0
1475.683716	180.0
1477.182739	164.0
1477.328003	132.0
1477.542236	180.0
1477.871216	176.0
1478.223267	152.0
1478.582886	160.0
1479.317749	136.0
1479.653198	136.0
1480.94104	188.0
1481.339478	132.0
1482.710938	140.0
1482.810547	124.0
1482.887207	172.0
1482.948608	64.0
1483.032837	56.0
1483.176392	176.0
1483.301147	148.0
1483.4646	164.0
1483.991089	76.0
1484.474243	140.0
1484.796265	172.0
1484.903687	164.0
1485.087769	52.0
1485.647705	120.0
1485.946899	212.0
1486.092773	120.0
1487.435791	132.0
1487.635376	48.0
1488.011597	80.0
1488.103638	140.0
1488.410767	216.0
1489.263306	120.0
1489.424561	144.0
1489.693481	64.0
1489.96228	40.0
1490.308105	200.0
1491.161133	96.0
1491.460815	112.0
1492.460327	156.0
1492.5448	176.0
1492.706299	176.0
1492.950073	200.0
1493.183105	128.0
1494.106201	80.0
1494.252441	152.0
1494.460083	196.0
1494.521729	212.0
1495.052612	140.0
1495.451782	148.0
1495.547607	152.0
1495.876221	100.0
1496.130249	168.0
1496.499878	144.0
1496.569092	180.0
1497.254517	128.0
1497.513428	352.0
1498.186523	180.0
1498.417603	240.0
1498.594849	172.0
1498.679565	324.0
1499.465698	180.0
1499.719971	156.0
1500.683594	180.0
1501.662964	184.0
1501.794189	196.0
1502.673584	140.0
1502.959106	124.0
1503.849854	176.0
1504.070435	172.0
1504.410034	132.0
1504.842407	148.0
1505.120361	128.0
1505.213013	100.0
END IONS

BEGIN IONS
PEPMASS=288.084
CHARGE=1
MSLEVEL=2
SOURCE_INSTRUMENT=LC-ESI-qTof
FILENAME=p4-E07_GE7_01_18379.mzXML
SEQ=*..*
IONMODE=Positive
ORGANISM=GNPS-NIH-SMALLMOLECULEPHARMACOLOGICALLYACTIVE
NAME=MLS002153927-01!Sulmazole73384-60-8 M+H
PI=Dorrestein
DATACOLLECTOR=VP/LMS
SMILES=COc1cc(ccc1c2nc3ccc[nH]c3n2)S(=O)C
INCHI=N/A
INCHIAUX=N/A
PUBMED=N/A
SUBMITUSER=vphelan
LIBRARYQUALITY=1
SPECTRUMID=CCMSLIB00000085721
USI=mzspec:GNPS:GNPS-NIH-SMALLMOLECULEPHARMACOLOGICALLYACTIVE:accession:CCMSLIB00000085721
SCANS=1233
44.893791	88.0
44.920467	120.0
44.9645	128.0
45.008553	156.0
45.040607	124.0
45.07267	80.0
45.090046	160.0
45.128811	184.0
45.151546	84.0
45.172947	96.0
45.182831	216.0
45.20372	76.0
45.230488	160.0
45.239857	192.0
45.288063	156.0
45.29744	96.0
45.31218	164.0
45.346733	168.0
45.364445	176.0
45.379192	92.0
45.38858	152.0
45.440979	120.0
45.45565	224.0
45.495914	176.0
45.516056	196.0
45.529217	200.0
45.538715	276.0
45.558544	252.0
45.602036	108.0
45.612789	184.0
45.688099	224.0
45.713661	200.0
45.775585	124.0
45.789055	92.0
45.806564	92.0
45.840248	244.0
45.867203	116.0
45.879604	100.0
45.942722	136.0
45.957561	128.0
45.966263	84.0
46.019341	192.0
46.069397	144.0
46.107456	384.0
46.158829	148.0
46.170998	148.0
46.226467	128.0
46.250378	120.0
46.254753	80.0
46.257984	112.0
46.284676	160.0
46.328014	152.0
46.36731	160.0
46.401878	272.0
46.422276	184.0
46.433743	32.0
46.467358	144.0
46.47987	200.0
46.492081	112.0
46.517872	164.0
46.576263	160.0
46.587132	120.0
46.623295	188.0
46.636253	212.0
46.663826	120.0
46.67392	140.0
46.68005	132.0
46.713558	208.0
46.727161	204.0
46.753017	108.0
46.776154	124.0
46.789219	180.0
46.804153	156.0
46.807716	88.0
46.812664	172.0
46.870697	124.0
46.886726	112.0
46.949196	100.0
46.981934	148.0
46.991482	132.0
47.026962	112.0
47.088406	100.0
47.113804	204.0
47.143051	176.0
47.183399	244.0
47.207306	96.0
47.220676	144.0
47.236027	112.0
47.254269	276.0
47.297737	124.0
47.356483	196.0
47.396214	112.0
47.414028	156.0
47.444473	132.0
47.467491	168.0
47.500408	68.0
47.539307	400.0
47.592361	56.0
47.610214	132.0
47.622353	148.0
47.626518	124.0
47.650047	164.0
47.700897	228.0
47.722893	144.0
47.741783	152.0
47.757275	120.0
47.774288	152.0
47.815063	180.0
47.85223	160.0
47.905685	172.0
47.936253	120.0
47.961063	208.0
47.988174	220.0
48.001465	184.0
48.01897	128.0
48.034145	204.0
48.0438	156.0
48.060978	116.0
48.163563	148.0
48.194294	44.0
48.256767	172.0
48.273087	92.0
48.286491	144.0
48.308384	208.0
48.356873	256.0
48.382397	196.0
48.426708	132.0
48.450256	192.0
48.4884	160.0
48.490578	192.0
48.504303	192.0
48.531815	204.0
48.554218	128.0
48.591671	148.0
48.614872	128.0
48.639263	216.0
48.681896	160.0
48.693008	204.0
48.70229	152.0
48.751358	168.0
48.794449	132.0
48.818085	52.0
48.83408	176.0
48.86977	144.0
48.887646	68.0
48.902954	48.0
48.922443	220.0
48.934971	100.0
48.95792	100.0
48.989288	152.0
49.004955	196.0
49.03109	172.0
49.048946	192.0
49.066532	204.0
49.081276	272.0
49.091038	168.0
49.156601	132.0
49.171589	168.0
49.19289	128.0
49.208248	168.0
49.218021	124.0
49.233383	128.0
49.268303	88.0
49.27948	196.0
49.346569	112.0
49.402512	200.0
49.4235	112.0
49.438892	164.0
49.475285	160.0
49.493488	144.0
49.557919	148.0
49.577538	112.0
49.619591	84.0
49.635014	52.0
49.658058	120.0
49.688313	100.0
49.733551	116.0
49.743046	112.0
49.784393	80.0
49.809044	124.0
49.842541	252.0
49.84581	212.0
49.856113	152.0
49.877899	144.0
49.898987	244.0
49.92289	164.0
49.955242	128.0
49.99242	160.0
50.01046	132.0
50.023163	240.0
50.0425	96.0
50.065029	112.0
50.093609	180.0
50.112923	172.0
50.156193	176.0
50.166477	252.0
50.187626	96.0
50.207367	164.0
50.236988	132.0
50.306442	168.0
50.317432	176.0
50.328728	136.0
50.344261	340.0
50.364037	160.0
50.379887	180.0
50.395931	180.0
50.41066	192.0
50.453064	80.0
50.515285	136.0
50.53368	156.0
50.545315	72.0
50.573303	168.0
50.608696	160.0
50.628521	204.0
50.665348	108.0
50.685074	152.0
50.687977	140.0
50.730541	192.0
50.78017	52.0
50.829823	160.0
50.89938	208.0
50.91642	124.0
50.927784	184.0
50.939148	140.0
50.975464	220.0
51.037823	96.0
51.091259	80.0
51.102642	176.0
51.112522	148.0
51.147678	192.0
51.169426	156.0
51.205135	120.0
51.236473	136.0
51.270672	112.0
51.314159	152.0
51.324844	132.0
51.339535	132.0
51.35907	132.0
51.379391	180.0
51.411053	152.0
51.422962	144.0
51.436123	92.0
51.448414	156.0
51.478336	184.0
51.507523	124.0
51.524921	204.0
51.563587	168.0
51.595226	356.0
51.636166	300.0
51.652966	164.0
51.666203	240.0
51.71629	124.0
51.746349	112.0
51.777855	156.0
51.822262	348.0
51.869556	140.0
51.912567	160.0
51.954163	184.0
51.998646	168.0
52.024487	160.0
52.043148	132.0
52.071873	160.0
52.104633	180.0
52.186295	128.0
52.196899	168.0
52.278896	140.0
52.292061	244.0
52.309124	160.0
52.340797	172.0
52.36816	132.0
52.378242	212.0
52.3964	192.0
52.425789	156.0
52.4575	192.0
52.533176	168.0
52.551243	184.0
52.575817	132.0
52.588764	116.0
52.624855	128.0
52.686275	160.0
52.697311	160.0
52.727123	176.0
52.755177	216.0
52.767258	168.0
52.7808	160.0
52.802795	176.0
52.821404	156.0
52.835606	132.0
52.853683	128.0
52.863052	188.0
52.907082	156.0
52.92271	96.0
52.95602	156.0
52.992233	136.0
53.048431	200.0
53.077755	180.0
53.101337	212.0
53.125618	176.0
53.141575	60.0
53.153324	208.0
53.169899	216.0
53.20108	80.0
53.257713	104.0
53.280956	208.0
53.318737	176.0
53.330364	28.0
53.340538	192.0
53.377602	268.0
53.408882	212.0
53.456913	164.0
53.487461	136.0
53.516575	156.0
53.541332	180.0
53.557354	140.0
53.580662	340.0
53.598145	192.0
53.633121	224.0
53.656448	116.0
53.675404	144.0
53.691444	92.0
53.705517	284.0
53.735207	160.0
53.751255	92.0
53.761471	148.0
53.781548	180.0
53.786972	136.0
53.81321	160.0
53.866596	148.0
53.883835	180.0
53.898739	140.0
53.918545	116.0
53.945511	100.0
53.974751	168.0
54.002537	144.0
54.01696	144.0
54.02887	232.0
54.083282	264.0
54.093258	264.0
54.119858	272.0
54.157688	240.0
54.174652	204.0
54.191383	108.0
54.208965	220.0
54.257336	44.0
54.274933	144.0
54.349739	204.0
54.365005	248.0
54.386429	176.0
54.437817	176.0
54.451035	284.0
54.464252	64.0
54.474533	216.0
54.489227	168.0
54.523529	140.0
54.560547	228.0
54.616428	152.0
54.646545	160.0
54.681862	220.0
54.718433	152.0
54.759899	176.0
54.799671	64.0
54.812935	140.0
54.876316	144.0
54.886635	136.0
54.901382	176.0
54.941208	120.0
54.964817	84.0
55.120594	144.0
55.143513	152.0
55.153858	184.0
55.211376	164.0
55.258858	152.0
55.294373	188.0
55.304523	220.0
55.349178	184.0
55.374321	184.0
55.399265	300.0
55.423428	136.0
55.475082	216.0
55.486942	40.0
55.497322	124.0
55.520092	156.0
55.583355	48.0
55.605663	156.0
55.618298	236.0
55.63139	176.0
55.65015	180.0
55.667969	128.0
55.708073	148.0
55.719955	208.0
55.766956	176.0
55.794266	136.0
55.84185	124.0
55.883503	128.0
55.9697	132.0
56.002598	84.0
56.021965	208.0
56.048664	200.0
56.053867	184.0
56.073185	136.0
56.079765	208.0
56.098587	192.0
56.111385	76.0
56.159103	156.0
56.202366	136.0
56.218784	180.0
56.325134	328.0
56.334862	156.0
56.347198	144.0
56.378578	64.0
56.39502	112.0
56.417442	124.0
56.438278	192.0
56.468662	220.0
56.493771	152.0
56.529621	132.0
56.552818	152.0
56.585003	36.0
56.65094	148.0
56.6656	212.0
56.694351	84.0
56.763802	176.0
56.779026	156.0
56.814342	168.0
56.847317	132.0
56.863827	148.0
56.877335	120.0
56.889149	184.0
56.922375	124.0
56.943794	152.0
57.0065	220.0
57.026039	104.0
57.03656	96.0
57.081661	96.0
57.107231	116.0
57.128288	56.0
57.156876	92.0
57.202026	160.0
57.232826	184.0
57.278431	152.0
57.296902	144.0
57.34877	268.0
57.375275	148.0
57.411118	192.0
57.436672	168.0
57.459732	104.0
57.482365	192.0
57.515846	152.0
57.548782	208.0
57.582005	184.0
57.594086	140.0
57.60466	172.0
57.615234	188.0
57.672661	200.0
57.711475	216.0
57.745892	172.0
57.769436	164.0
57.790619	160.0
57.859463	140.0
57.936752	160.0
57.948864	140.0
57.966267	216.0
57.993389	152.0
58.019318	200.0
58.043579	140.0
58.058743	108.0
58.085392	140.0
58.10273	196.0
58.154327	120.0
58.169506	140.0
58.204426	232.0
58.219433	276.0
58.239353	152.0
58.26062	120.0
58.29557	76.0
58.333431	136.0
58.365494	96.0
58.376141	204.0
58.404125	140.0
58.427856	100.0
58.456764	228.0
58.489487	168.0
58.512001	152.0
58.546585	144.0
58.659336	180.0
58.680679	152.0
58.71941	180.0
58.737106	152.0
58.752361	116.0
58.763039	132.0
58.782875	276.0
58.79356	144.0
58.807293	120.0
58.837826	108.0
58.870029	156.0
58.894329	168.0
58.909603	200.0
58.979664	164.0
59.001751	148.0
59.035233	144.0
59.049961	160.0
59.068623	300.0
59.094593	128.0
59.137444	144.0
59.149689	256.0
59.21553	120.0
59.240036	180.0
59.281406	88.0
59.307461	136.0
59.362801	168.0
59.374889	180.0
59.390263	140.0
59.430149	136.0
59.446575	176.0
59.545284	136.0
59.568321	180.0
59.592903	136.0
59.612881	76.0
59.62825	168.0
59.653957	160.0
59.664364	160.0
59.674366	236.0
59.69128	136.0
59.764019	152.0
59.791023	164.0
59.822926	200.0
59.857471	212.0
59.894436	128.0
59.915123	196.0
59.991516	176.0
60.020813	124.0
60.040859	44.0
60.080528	172.0
60.096394	172.0
60.116451	308.0
60.151951	216.0
60.190552	128.0
60.205994	152.0
60.22607	192.0
60.26474	132.0
60.277054	212.0
60.298691	140.0
60.33115	140.0
60.375992	140.0
60.413116	164.0
60.447155	208.0
60.464497	136.0
60.48373	228.0
60.532295	144.0
60.578758	140.0
60.631958	180.0
60.65004	60.0
60.661407	96.0
60.681046	172.0
60.699654	64.0
60.712059	188.0
60.727638	88.0
60.741528	164.0
60.7691	172.0
60.779625	144.0
60.837643	124.0
60.864136	148.0
60.906071	152.0
60.918495	128.0
60.948677	188.0
60.967575	232.0
60.985313	212.0
60.999149	120.0
61.017414	240.0
61.096973	164.0
61.114391	288.0
61.159523	180.0
61.192215	172.0
61.246719	136.0
61.268532	108.0
61.292126	140.0
61.376076	124.0
61.434635	264.0
61.450943	64.0
61.463428	68.0
61.500881	288.0
61.516064	204.0
61.549046	160.0
61.588825	236.0
61.612209	96.0
61.647694	132.0
61.741493	176.0
61.771214	72.0
61.784962	152.0
61.807198	120.0
61.81815	200.0
61.838497	176.0
61.88076	104.0
61.894855	172.0
61.917015	160.0
61.92931	164.0
61.946537	200.0
61.964489	192.0
62.045422	124.0
62.111134	96.0
62.135418	192.0
62.173893	108.0
62.301079	180.0
62.330933	144.0
62.378082	72.0
62.43626	136.0
62.46772	104.0
62.480305	100.0
62.494465	152.0
62.544823	168.0
62.575161	140.0
62.585758	188.0
62.607803	180.0
62.669083	204.0
62.732281	240.0
62.768543	332.0
62.800083	92.0
62.814026	172.0
62.837944	156.0
62.852146	136.0
62.901073	148.0
62.912121	184.0
62.931068	152.0
62.950016	156.0
62.96423	164.0
63.00214	180.0
63.111195	80.0
63.187115	168.0
63.207684	136.0
63.284012	216.0
63.297913	224.0
63.313747	80.0
63.347012	164.0
63.361271	144.0
63.397713	92.0
63.429775	192.0
63.472221	144.0
63.483322	80.0
63.496006	140.0
63.516232	112.0
63.545181	92.0
63.589615	148.0
63.614971	144.0
63.62109	140.0
63.648354	120.0
63.700768	144.0
63.75161	156.0
63.765915	112.0
63.799175	172.0
63.829506	44.0
63.842228	96.0
63.861313	140.0
63.89761	176.0
63.921768	180.0
63.964741	176.0
64.001358	140.0
64.100121	140.0
64.167061	148.0
64.217186	168.0
64.293167	152.0
64.315422	180.0
64.379921	200.0
64.410332	152.0
64.446571	136.0
64.463959	216.0
64.483955	148.0
64.495247	132.0
64.563057	180.0
64.59346	184.0
64.619057	156.0
64.635063	56.0
64.655869	148.0
64.675072	208.0
64.690857	172.0
64.735909	132.0
64.753525	204.0
64.769547	128.0
64.79808	108.0
64.838799	108.0
64.858475	120.0
64.884926	156.0
64.940582	136.0
65.021278	204.0
65.040535	312.0
65.061401	180.0
65.088699	108.0
65.101547	156.0
65.115997	76.0
65.127243	152.0
65.143517	152.0
65.156158	80.0
65.199547	96.0
65.217224	112.0
65.242279	164.0
65.248978	96.0
65.299225	120.0
65.364754	208.0
65.426346	48.0
65.484047	48.0
65.518143	172.0
65.553375	204.0
65.576157	168.0
65.608879	120.0
65.643867	76.0
65.677734	164.0
65.743889	124.0
65.782623	156.0
65.821373	168.0
65.835907	160.0
65.895073	172.0
65.91259	156.0
65.96032	108.0
66.011658	212.0
66.014198	160.0
66.044403	156.0
66.055725	120.0
66.079994	120.0
66.12854	148.0
66.162537	160.0
66.188438	224.0
66.220833	148.0
66.233788	144.0
66.25161	64.0
66.272667	116.0
66.298599	92.0
66.313904	224.0
66.327774	124.0
66.35685	128.0
66.384521	180.0
66.406998	172.0
66.441292	236.0
66.460762	148.0
66.489967	204.0
66.53714	136.0
66.578247	188.0
66.59713	152.0
66.610123	228.0
66.676743	164.0
66.704285	152.0
66.744743	144.0
66.761276	180.0
66.803566	184.0
66.918869	208.0
66.93866	148.0
66.950058	120.0
66.973152	136.0
67.024117	216.0
67.062477	156.0
67.078781	116.0
67.127861	188.0
67.143997	184.0
67.181519	144.0
67.230469	64.0
67.276169	152.0
67.311096	236.0
67.353088	76.0
67.369255	120.0
67.421539	104.0
67.485298	256.0
67.498375	160.0
67.517998	144.0
67.534149	188.0
67.563797	140.0
67.586708	124.0
67.601433	212.0
67.617439	144.0
67.631538	152.0
67.657089	176.0
67.698021	120.0
67.745522	188.0
67.797951	116.0
67.827423	220.0
67.868439	152.0
67.889351	224.0
67.901237	180.0
67.924202	152.0
67.958656	216.0
67.991478	72.0
68.004608	164.0
68.042358	216.0
68.055237	128.0
68.09333	180.0
68.108047	184.0
68.122833	96.0
68.145836	36.0
68.173767	160.0
68.240097	176.0
68.277344	140.0
68.31517	88.0
68.35466	180.0
68.382637	132.0
68.455078	120.0
68.466606	140.0
68.519318	248.0
68.532494	156.0
68.549873	256.0
68.585236	156.0
68.616554	124.0
68.641289	104.0
68.667389	164.0
68.70726	92.0
68.718811	196.0
68.73098	216.0
68.77327	192.0
68.83931	132.0
68.860779	168.0
68.872345	88.0
68.903732	128.0
68.988014	172.0
69.065918	144.0
69.085587	264.0
69.110405	160.0
69.169983	192.0
69.21965	160.0
69.281693	132.0
69.314072	132.0
69.337273	212.0
69.356018	216.0
69.375397	160.0
69.398613	164.0
69.416847	156.0
69.435089	144.0
69.4673	196.0
69.496475	72.0
69.513062	172.0
69.564514	132.0
69.589424	248.0
69.61599	116.0
69.652359	196.0
69.70237	128.0
69.742256	44.0
69.820404	144.0
69.877716	308.0
69.89193	144.0
69.911903	168.0
69.925217	128.0
69.951851	132.0
70.001801	172.0
70.075768	196.0
70.110085	120.0
70.137939	168.0
70.185318	108.0
70.21048	128.0
70.238464	168.0
70.256447	200.0
70.300201	152.0
70.320229	124.0
70.341927	168.0
70.405373	172.0
70.432098	76.0
70.448799	136.0
70.475533	40.0
70.523994	128.0
70.572945	100.0
70.586601	216.0
70.602577	288.0
70.620979	164.0
70.632683	124.0
70.654434	92.0
70.674507	140.0
70.728065	164.0
70.812263	128.0
70.823509	132.0
70.85434	208.0
70.871414	276.0
70.893875	116.0
70.911316	216.0
70.972618	148.0
70.986076	176.0
71.00708	144.0
71.021385	156.0
71.039749	124.0
71.096802	212.0
71.108543	192.0
71.14212	32.0
71.190529	96.0
71.207603	140.0
71.249603	148.0
71.282524	176.0
71.305779	176.0
71.311775	56.0
71.31768	156.0
71.346626	60.0
71.379021	92.0
71.417702	148.0
71.434525	76.0
71.535118	72.0
71.654037	132.0
71.672867	120.0
71.719101	208.0
71.737762	180.0
71.773613	180.0
71.79274	160.0
71.848953	188.0
71.87207	140.0
71.88945	80.0
71.913887	216.0
71.958656	228.0
71.977226	112.0
72.007629	80.0
72.024643	164.0
72.049858	216.0
72.075203	164.0
72.087029	200.0
72.125603	204.0
72.154045	240.0
72.186768	116.0
72.245964	272.0
72.288269	84.0
72.337349	156.0
72.350319	364.0
72.384758	128.0
72.42588	156.0
72.492226	284.0
72.506729	32.0
72.525375	168.0
72.613541	196.0
72.638985	192.0
72.662247	248.0
72.726593	172.0
72.731812	108.0
72.746819	264.0
72.769051	100.0
72.775131	128.0
72.795135	88.0
72.813812	168.0
72.835892	28.0
72.849487	124.0
72.899368	160.0
72.977707	144.0
72.988853	172.0
73.012711	132.0
73.053268	160.0
73.055901	276.0
73.073898	124.0
73.087509	56.0
73.108139	132.0
73.164101	144.0
73.223701	104.0
73.262878	180.0
73.33786	192.0
73.395821	92.0
73.417992	192.0
73.430908	168.0
73.443451	172.0
73.446617	112.0
73.455101	212.0
73.491341	108.0
73.515228	140.0
73.534004	208.0
73.580093	160.0
73.632462	104.0
73.653526	140.0
73.665482	152.0
73.733833	140.0
73.746048	136.0
73.786819	184.0
73.819061	168.0
73.847664	132.0
73.862068	88.0
73.894569	136.0
73.915108	120.0
73.943497	68.0
73.955566	112.0
73.972809	196.0
73.998375	160.0
74.0298	72.0
74.057205	200.0
74.08918	192.0
74.136009	116.0
74.154861	44.0
74.168579	180.0
74.230301	124.0
74.259453	196.0
74.280037	80.0
74.298904	156.0
74.316063	316.0
74.351875	152.0
74.356834	132.0
74.435135	204.0
74.453957	220.0
74.492897	60.0
74.515236	172.0
74.532417	68.0
74.555397	172.0
74.574074	116.0
74.60804	264.0
74.635551	228.0
74.678543	280.0
74.712944	112.0
74.755959	208.0
74.76973	204.0
74.781776	56.0
74.811043	84.0
74.848923	128.0
74.897949	148.0
74.928146	104.0
74.940208	152.0
74.999649	128.0
75.031555	56.0
75.097321	148.0
75.110886	108.0
75.133308	48.0
75.148209	120.0
75.171272	96.0
75.186226	156.0
75.216385	124.0
75.245529	200.0
75.278297	152.0
75.312843	72.0
75.337029	52.0
75.357758	128.0
75.406143	184.0
75.419106	164.0
75.432076	128.0
75.444176	120.0
75.47184	228.0
75.535828	92.0
75.560043	132.0
75.598114	400.0
75.642975	152.0
75.67601	80.0
75.689857	76.0
75.721031	152.0
75.740089	444.0
75.773003	128.0
75.789261	208.0
75.803192	180.0
75.828453	156.0
75.880867	220.0
75.915138	144.0
75.935951	236.0
75.979797	144.0
76.01049	128.0
76.043518	204.0
76.0896	220.0
76.146729	280.0
76.178963	152.0
76.206757	100.0
76.264107	116.0
76.298042	200.0
76.303352	104.0
76.308144	156.0
76.4039	256.0
76.457069	152.0
76.48951	172.0
76.528534	76.0
76.579041	204.0
76.606911	192.0
76.626595	176.0
76.65918	156.0
76.674805	120.0
76.692291	148.0
76.718765	300.0
76.744591	148.0
76.763771	168.0
76.805634	60.0
76.837036	96.0
76.866699	228.0
76.90509	232.0
76.92308	220.0
76.950478	172.0
76.982834	128.0
77.053528	88.0
77.090218	140.0
77.153145	272.0
77.18811	196.0
77.202103	116.0
77.25808	144.0
77.292702	148.0
77.317566	112.0
77.334793	204.0
77.396347	132.0
77.410355	208.0
77.485672	124.0
77.504944	116.0
77.539993	180.0
77.561028	192.0
77.590828	160.0
77.682022	56.0
77.76976	136.0
77.803116	160.0
77.815399	148.0
77.830147	172.0
77.887405	164.0
77.910858	96.0
77.933807	172.0
77.975258	204.0
77.996353	120.0
78.013931	172.0
78.036125	128.0
78.056129	132.0
78.08075	196.0
78.093056	152.0
78.133514	96.0
78.159134	172.0
78.189827	144.0
78.202148	48.0
78.263763	148.0
78.293701	144.0
78.30603	88.0
78.332451	180.0
78.353592	200.0
78.38002	352.0
78.42408	204.0
78.448753	444.0
78.466385	144.0
78.492836	148.0
78.528107	108.0
78.557312	200.0
78.592285	220.0
78.633965	160.0
78.711372	168.0
78.776993	56.0
78.822929	196.0
78.847672	224.0
78.868988	132.0
78.921387	304.0
78.946678	212.0
78.987045	132.0
79.015663	228.0
79.048347	236.0
79.068748	204.0
79.082909	140.0
79.105919	172.0
79.119354	144.0
79.228111	200.0
79.253273	180.0
79.275871	192.0
79.298988	132.0
79.311401	92.0
79.327354	132.0
79.340607	168.0
79.362808	116.0
79.398094	152.0
79.434044	144.0
79.475723	228.0
79.493233	220.0
79.514359	176.0
79.586128	140.0
79.622025	164.0
79.652588	144.0
79.740829	136.0
79.749924	136.0
79.783707	192.0
79.808487	160.0
79.845833	144.0
79.876068	252.0
79.899193	124.0
79.940125	140.0
79.992249	168.0
80.009537	132.0
80.022003	176.0
80.046547	192.0
80.07505	196.0
80.112831	92.0
80.135994	148.0
80.150246	140.0
80.173416	112.0
80.221535	152.0
80.251373	136.0
80.321396	228.0
80.396339	164.0
80.499878	204.0
80.55703	232.0
80.582047	44.0
80.6017	168.0
80.619568	88.0
80.635414	180.0
80.67498	132.0
80.689949	268.0
80.723251	172.0
80.735771	168.0
80.764931	92.0
80.7948	92.0
80.817223	188.0
80.847672	88.0
80.866379	152.0
80.882957	152.0
80.931854	212.0
80.946938	144.0
80.972015	192.0
81.016098	164.0
81.050568	180.0
81.099228	148.0
81.128281	96.0
81.217567	224.0
81.242683	156.0
81.278229	128.0
81.338577	112.0
81.35215	184.0
81.366432	180.0
81.407814	152.0
81.427567	112.0
81.443733	224.0
81.476997	192.0
81.513802	164.0
81.529976	128.0
81.612663	120.0
81.627052	152.0
81.650429	224.0
81.679893	232.0
81.71862	176.0
81.758484	128.0
81.776375	152.0
81.817406	136.0
81.82431	108.0
81.829742	204.0
81.889801	172.0
81.910599	220.0
81.95105	144.0
81.97448	76.0
82.001472	192.0
82.051987	248.0
82.095734	228.0
82.129532	72.0
82.196281	156.0
82.217934	44.0
82.230568	52.0
82.27636	164.0
82.291946	116.0
82.322372	160.0
82.328064	136.0
82.35154	300.0
82.38044	128.0
82.394897	144.0
82.421997	232.0
82.442596	216.0
82.451599	136.0
82.483444	188.0
82.537392	224.0
82.543518	168.0
82.568428	36.0
82.587418	176.0
82.634369	136.0
82.655632	184.0
82.673355	152.0
82.693268	176.0
82.717964	192.0
82.73011	192.0
82.749817	184.0
82.804184	152.0
82.842194	292.0
82.859184	128.0
82.874359	240.0
82.917854	220.0
82.932556	140.0
82.979485	96.0
82.992172	128.0
83.029976	156.0
83.037125	132.0
83.075607	180.0
83.10463	176.0
83.126404	96.0
83.171783	148.0
83.226349	284.0
83.287994	148.0
83.306511	188.0
83.337044	212.0
83.380157	220.0
83.455185	96.0
83.522476	144.0
83.600716	196.0
83.622551	132.0
83.638931	120.0
83.651672	100.0
83.691727	148.0
83.733452	92.0
83.769157	132.0
83.791908	168.0
83.804657	92.0
83.822884	176.0
83.868446	148.0
83.914017	188.0
83.990616	200.0
84.039871	132.0
84.080017	104.0
84.103745	100.0
84.126274	192.0
84.156425	188.0
84.168312	208.0
84.182251	80.0
84.228882	128.0
84.256622	156.0
84.273582	148.0
84.308304	236.0
84.328407	136.0
84.382896	144.0
84.390434	116.0
84.417992	136.0
84.5196	124.0
84.526489	180.0
84.546051	148.0
84.57299	172.0
84.593636	44.0
84.637581	388.0
84.662949	136.0
84.701096	164.0
84.719452	160.0
84.749313	168.0
84.768188	320.0
84.783997	180.0
84.834908	188.0
84.857452	112.0
84.878616	140.0
84.887489	224.0
84.916824	252.0
84.954659	148.0
84.984009	112.0
85.053749	76.0
85.092201	144.0
85.112495	80.0
85.141876	96.0
85.154739	156.0
85.168335	208.0
85.190178	176.0
85.213516	172.0
85.241081	144.0
85.281517	124.0
85.32563	112.0
85.346436	64.0
85.403175	144.0
85.43708	160.0
85.477356	172.0
85.540878	104.0
85.555603	84.0
85.583221	204.0
85.611435	144.0
85.65873	160.0
85.719719	196.0
85.734589	236.0
85.746796	196.0
85.784576	192.0
85.828804	144.0
85.880791	200.0
85.913078	276.0
85.929733	204.0
85.97657	240.0
85.999359	104.0
86.006401	140.0
86.011345	180.0
86.044167	172.0
86.062935	192.0
86.142296	216.0
86.169754	112.0
86.193771	148.0
86.210037	180.0
86.228889	144.0
86.304642	176.0
86.323174	212.0
86.386055	204.0
86.411957	124.0
86.426758	168.0
86.456367	120.0
86.474876	148.0
86.558182	112.0
86.579353	84.0
86.602631	112.0
86.634315	180.0
86.654503	160.0
86.691566	132.0
86.713081	232.0
86.741608	80.0
86.771782	136.0
86.812065	136.0
86.825043	160.0
86.862137	144.0
86.877464	184.0
86.89093	108.0
86.932648	48.0
87.014626	144.0
87.047188	244.0
87.096024	56.0
87.119522	228.0
87.144325	148.0
87.181496	200.0
87.211227	132.0
87.274437	164.0
87.309769	152.0
87.341042	216.0
87.371155	128.0
87.421394	196.0
87.480957	356.0
87.650444	124.0
87.706352	164.0
87.758553	236.0
87.803307	68.0
87.832092	204.0
87.859268	172.0
87.902184	208.0
87.918976	104.0
87.948837	96.0
87.989906	72.0
88.017914	124.0
88.036324	168.0
88.042656	144.0
88.068336	176.0
88.08889	260.0
88.101967	148.0
88.131859	204.0
88.156151	160.0
88.204742	336.0
88.226738	132.0
88.249275	132.0
88.275124	180.0
88.304871	168.0
88.344543	224.0
88.395515	116.0
88.461021	52.0
88.489105	104.0
88.502213	96.0
88.521027	212.0
88.571503	96.0
88.585831	136.0
88.610847	132.0
88.6427	132.0
88.661438	136.0
88.67643	124.0
88.69046	224.0
88.740173	152.0
88.777672	100.0
88.800179	48.0
88.862762	132.0
88.882721	160.0
88.912994	216.0
88.989716	184.0
89.00386	60.0
89.025391	132.0
89.040413	168.0
89.053566	144.0
89.089256	252.0
89.107315	196.0
89.132309	152.0
89.137108	136.0
89.144005	116.0
89.171928	188.0
89.20446	236.0
89.264053	152.0
89.35434	96.0
89.37632	164.0
89.399498	144.0
89.454369	156.0
89.472908	204.0
89.495499	172.0
89.516212	188.0
89.54258	224.0
89.602859	140.0
89.620094	520.0
89.636772	28.0
89.717819	144.0
89.753647	152.0
89.789474	68.0
89.812111	164.0
89.830971	128.0
89.857384	140.0
89.897301	164.0
89.97538	248.0
90.015938	232.0
90.044266	128.0
90.065041	88.0
90.095268	140.0
90.14817	120.0
90.167068	92.0
90.187859	116.0
90.212433	204.0
90.259705	140.0
90.293747	164.0
90.314552	152.0
90.339142	108.0
90.405365	200.0
90.423645	164.0
90.437622	180.0
90.486755	148.0
90.590919	132.0
90.617004	172.0
90.635582	172.0
90.665688	156.0
90.71209	132.0
90.769081	136.0
90.84874	84.0
90.873405	368.0
90.903763	156.0
90.926537	84.0
90.946175	208.0
90.972092	148.0
90.996811	156.0
91.011368	216.0
91.042961	260.0
91.059441	160.0
91.114525	124.0
91.143028	180.0
91.171532	176.0
91.200836	240.0
91.279892	120.0
91.297493	140.0
91.329338	196.0
91.346458	140.0
91.369286	148.0
91.395927	140.0
91.433983	208.0
91.460869	208.0
91.490089	228.0
91.495605	108.0
91.503227	268.0
91.531075	160.0
91.577362	184.0
91.590721	128.0
91.605354	100.0
91.645363	144.0
91.668228	180.0
91.691101	84.0
91.712021	188.0
91.719078	164.0
91.726501	236.0
91.778252	128.0
91.810326	172.0
91.841988	144.0
91.887505	148.0
91.906586	132.0
91.923759	88.0
91.942841	184.0
91.962662	136.0
91.984489	176.0
92.002014	188.0
92.037926	208.0
92.058601	276.0
92.173912	76.0
92.208313	112.0
92.233162	188.0
92.26757	164.0
92.292427	144.0
92.319916	192.0
92.342148	136.0
92.384232	116.0
92.409103	172.0
92.425133	148.0
92.441635	200.0
92.487564	112.0
92.532074	156.0
92.54538	180.0
92.562233	80.0
92.643562	140.0
92.65609	224.0
92.669495	184.0
92.685219	360.0
92.711655	152.0
92.82476	148.0
92.842018	152.0
92.869659	156.0
92.989746	140.0
93.031395	132.0
93.045616	852.0
93.081894	240.0
93.104431	176.0
93.107246	220.0
93.123138	160.0
93.156799	204.0
93.17025	196.0
93.188179	228.0
93.202911	192.0
93.243271	136.0
93.27018	160.0
93.291321	128.0
93.323036	152.0
93.341835	148.0
93.379776	144.0
93.406708	212.0
93.447105	96.0
93.461945	180.0
93.490311	172.0
93.51638	124.0
93.544472	76.0
93.58049	120.0
93.595818	160.0
93.618423	88.0
93.651161	96.0
93.692871	172.0
93.714737	152.0
93.762108	220.0
93.777321	84.0
93.813026	212.0
93.868126	180.0
93.960716	164.0
94.025208	180.0
94.050461	324.0
94.079254	168.0
94.105858	328.0
94.146835	156.0
94.227966	192.0
94.267387	224.0
94.293663	48.0
94.330391	188.0
94.384186	184.0
94.452217	76.0
94.469627	144.0
94.504723	84.0
94.533516	200.0
94.570709	84.0
94.612831	172.0
94.657364	280.0
94.746468	104.0
94.804825	168.0
94.829788	144.0
94.849174	176.0
94.898727	252.0
94.934479	132.0
94.97715	176.0
95.002365	104.0
95.062515	196.0
95.107155	264.0
95.130447	124.0
95.151802	56.0
95.212067	124.0
95.231049	248.0
95.270271	180.0
95.287758	152.0
95.310715	296.0
95.349945	120.0
95.365494	68.0
95.391045	152.0
95.408257	88.0
95.441307	160.0
95.463509	176.0
95.505486	112.0
95.636978	152.0
95.655518	116.0
95.674789	160.0
95.715378	188.0
95.756615	184.0
95.768867	192.0
95.793579	84.0
95.811111	120.0
95.851143	220.0
95.941689	184.0
95.967033	412.0
95.99823	184.0
96.032547	376.0
96.07235	388.0
96.086006	148.0
96.138695	144.0
96.195297	200.0
96.231941	184.0
96.259727	136.0
96.287064	128.0
96.354385	156.0
96.482468	228.0
96.559227	164.0
96.651756	188.0
96.683945	196.0
96.717216	124.0
96.730919	112.0
96.789658	124.0
96.824821	184.0
96.866669	148.0
96.969994	148.0
97.030655	260.0
97.062836	116.0
97.085556	132.0
97.112198	172.0
97.139671	224.0
97.155907	176.0
97.173683	160.0
97.230736	164.0
97.264107	100.0
97.281769	108.0
97.307716	160.0
97.322998	132.0
97.340675	84.0
97.382385	236.0
97.431023	152.0
97.457863	152.0
97.47818	128.0
97.511589	64.0
97.550903	168.0
97.564667	148.0
97.633636	208.0
97.681343	120.0
97.759628	168.0
97.836159	240.0
97.851906	132.0
97.873566	64.0
97.893257	240.0
97.90789	132.0
97.928703	124.0
97.942497	180.0
97.969681	120.0
98.00119	220.0
98.020081	136.0
98.052834	184.0
98.088463	128.0
98.145485	128.0
98.184929	160.0
98.202675	164.0
98.218452	160.0
98.281586	136.0
98.35762	152.0
98.392113	156.0
98.430023	180.0
98.4842	216.0
98.506935	172.0
98.524384	152.0
98.547913	168.0
98.610672	212.0
98.708252	96.0
98.733963	132.0
98.749786	132.0
98.834305	284.0
98.912041	80.0
98.951859	212.0
98.971428	192.0
99.030846	144.0
99.048668	100.0
99.077393	212.0
99.110085	160.0
99.130501	172.0
99.15963	196.0
99.189362	172.0
99.224594	160.0
99.268669	48.0
99.292465	172.0
99.371811	152.0
99.395622	32.0
99.43969	156.0
99.469055	140.0
99.492882	180.0
99.520676	112.0
99.568336	180.0
99.584221	96.0
99.617989	128.0
99.631897	132.0
99.64978	180.0
99.66304	172.0
99.714447	152.0
99.729271	44.0
99.751137	108.0
99.817055	204.0
99.861198	136.0
99.934105	144.0
99.959969	176.0
99.981857	124.0
100.007736	148.0
100.030159	212.0
100.073425	180.0
100.139595	196.0
100.201904	172.0
100.225754	132.0
100.2519	172.0
100.266655	176.0
100.300362	180.0
100.354012	112.0
100.360947	160.0
100.416191	132.0
100.450096	160.0
100.469185	148.0
100.493988	176.0
100.528671	200.0
100.584991	180.0
100.645683	120.0
100.713501	196.0
100.755539	156.0
100.797493	104.0
100.837868	200.0
100.894905	152.0
100.910126	200.0
100.945419	148.0
100.989418	160.0
101.02343	72.0
101.099457	140.0
101.125481	152.0
101.148933	156.0
101.25425	164.0
101.325287	72.0
101.351173	120.0
101.366714	176.0
101.391853	100.0
101.410934	208.0
101.414497	108.0
101.443214	244.0
101.502113	160.0
101.523239	120.0
101.603516	180.0
101.625099	128.0
101.687027	92.0
101.712776	120.0
101.777016	160.0
101.79509	128.0
101.822639	384.0
101.851326	136.0
101.8694	132.0
101.885475	172.0
101.905563	192.0
101.961311	124.0
101.993988	72.0
102.022133	164.0
102.105019	292.0
102.140778	204.0
102.166931	252.0
102.195099	184.0
102.210884	128.0
102.265533	424.0
102.340019	148.0
102.360153	140.0
102.412521	116.0
102.429115	84.0
102.454231	136.0
102.462296	96.0
102.509224	144.0
102.523094	136.0
102.543488	88.0
102.58783	224.0
102.631767	136.0
102.667419	76.0
102.749168	44.0
102.769348	192.0
102.801628	264.0
102.832062	152.0
102.909401	216.0
102.985352	152.0
103.001511	124.0
103.025566	152.0
103.045959	132.0
103.070206	148.0
103.114662	204.0
103.128815	176.0
103.161156	144.0
103.20977	92.0
103.233948	60.0
103.256187	100.0
103.270348	184.0
103.28653	260.0
103.316872	132.0
103.385674	168.0
103.418228	92.0
103.435982	188.0
103.527382	208.0
103.559792	160.0
103.62664	152.0
103.705673	168.0
103.723869	176.0
103.770546	120.0
103.808884	176.0
103.845573	64.0
103.875999	112.0
103.906433	176.0
103.934837	140.0
103.950417	236.0
103.958839	160.0
103.961769	192.0
103.987602	200.0
104.047897	684.0
104.083015	168.0
104.105354	140.0
104.147827	188.0
104.163803	36.0
104.181023	220.0
104.219109	192.0
104.25354	144.0
104.271942	164.0
104.290237	128.0
104.306503	108.0
104.324448	164.0
104.344376	228.0
104.389709	164.0
104.405952	140.0
104.432076	164.0
104.487038	180.0
104.492615	108.0
104.499977	236.0
104.564026	184.0
104.625885	136.0
104.653358	132.0
104.670677	136.0
104.684937	176.0
104.735069	188.0
104.764374	56.0
104.784744	132.0
104.803078	256.0
104.834541	164.0
104.868294	116.0
104.898872	128.0
104.941681	152.0
104.955956	216.0
105.026382	128.0
105.045692	140.0
105.062012	76.0
105.090576	300.0
105.137512	192.0
105.163307	100.0
105.186501	136.0
105.202019	172.0
105.218971	128.0
105.234497	156.0
105.282463	148.0
105.337608	132.0
105.394646	192.0
105.476562	160.0
105.501091	124.0
105.515404	112.0
105.594749	160.0
105.63105	176.0
105.65448	200.0
105.716843	208.0
105.805328	152.0
105.875542	132.0
105.923912	64.0
105.939041	72.0
105.975922	200.0
106.035957	328.0
106.144104	144.0
106.174759	64.0
106.20475	116.0
106.240402	168.0
106.310158	216.0
106.336838	144.0
106.421005	168.0
106.474396	176.0
106.519585	172.0
106.533966	164.0
106.575058	172.0
106.589439	144.0
106.62027	136.0
106.650116	84.0
106.664948	168.0
106.685341	232.0
106.702438	156.0
106.777596	84.0
106.811485	180.0
106.866432	152.0
106.885551	140.0
106.973976	220.0
106.996696	112.0
107.02964	144.0
107.101913	172.0
107.116142	280.0
107.139336	248.0
107.161461	120.0
107.241837	140.0
107.274811	184.0
107.313988	184.0
107.342339	160.0
107.380943	188.0
107.401291	180.0
107.431541	104.0
107.464554	136.0
107.483124	128.0
107.512016	152.0
107.538422	156.0
107.573936	192.0
107.604904	152.0
107.621422	136.0
107.697472	92.0
107.751541	44.0
107.774826	284.0
107.840973	156.0
107.856934	200.0
107.907684	168.0
107.945839	96.0
107.999611	172.0
108.055176	172.0
108.099388	160.0
108.134102	192.0
108.169289	176.0
108.198273	108.0
108.215897	172.0
108.23761	120.0
108.28524	128.0
108.300247	196.0
108.319763	192.0
108.334343	148.0
108.357742	164.0
108.376335	152.0
108.413696	164.0
108.432343	152.0
108.448929	92.0
108.469582	112.0
108.511116	220.0
108.562958	156.0
108.584526	160.0
108.606514	60.0
108.635551	68.0
108.656296	36.0
108.701942	180.0
108.733078	236.0
108.767159	164.0
108.811958	360.0
108.828568	112.0
108.849052	172.0
108.856506	132.0
108.86264	224.0
108.882675	184.0
108.9132	244.0
109.040016	488.0
109.061241	176.0
109.094498	144.0
109.161034	112.0
109.175591	144.0
109.198601	128.0
109.217194	120.0
109.251808	192.0
109.26712	156.0
109.296967	192.0
109.333237	200.0
109.3899	136.0
109.404472	204.0
109.429459	108.0
109.467995	176.0
109.600258	100.0
109.616928	84.0
109.654434	56.0
109.712807	148.0
109.736015	208.0
109.754501	184.0
109.874214	140.0
109.896339	168.0
109.921379	156.0
109.954773	104.0
110.002777	128.0
110.043694	160.0
110.107384	184.0
110.151039	88.0
110.169846	216.0
110.213715	160.0
110.236755	168.0
110.284775	104.0
110.320312	100.0
110.372581	284.0
110.420677	120.0
110.435318	148.0
110.483429	148.0
110.517113	124.0
110.55426	80.0
110.579689	180.0
110.6007	200.0
110.636208	100.0
110.659233	184.0
110.690643	192.0
110.738815	240.0
110.791534	164.0
110.816322	168.0
110.881287	36.0
110.900543	252.0
110.929489	136.0
110.953636	188.0
110.969322	180.0
110.984001	72.0
111.02594	140.0
111.044815	164.0
111.09726	132.0
111.113106	188.0
111.158218	152.0
111.187485	64.0
111.26725	216.0
111.297646	176.0
111.348763	192.0
111.386292	228.0
111.445778	196.0
111.49411	168.0
111.530762	128.0
111.546661	160.0
111.57399	140.0
111.610069	148.0
111.666512	364.0
111.767494	96.0
111.82431	48.0
111.927467	196.0
111.948524	168.0
111.963264	148.0
111.990646	256.0
112.042542	208.0
112.077019	108.0
112.106522	136.0
112.152893	104.0
112.192291	168.0
112.234024	132.0
112.270958	140.0
112.285721	100.0
112.377731	332.0
112.405975	136.0
112.457443	176.0
112.503059	276.0
112.575264	184.0
112.598083	168.0
112.621315	52.0
112.654175	144.0
112.716385	96.0
112.743858	136.0
112.775864	140.0
112.824181	36.0
112.859398	164.0
112.896072	136.0
112.921448	132.0
112.955292	240.0
113.061722	172.0
113.067764	204.0
113.137283	192.0
113.158455	124.0
113.232574	76.0
113.283409	172.0
113.297165	124.0
113.399956	92.0
113.42009	216.0
113.459305	176.0
113.504692	128.0
113.531296	192.0
113.624733	152.0
113.717232	244.0
113.783913	152.0
113.819313	160.0
113.837776	292.0
113.875221	104.0
113.902832	136.0
113.91983	336.0
113.958069	132.0
114.064178	164.0
114.147614	140.0
114.181274	132.0
114.206795	220.0
114.23658	184.0
114.270615	132.0
114.294022	168.0
114.321686	124.0
114.372765	156.0
114.472832	164.0
114.489868	164.0
114.558563	176.0
114.602196	104.0
114.626587	180.0
114.664398	152.0
114.692207	128.0
114.75016	208.0
114.790352	76.0
114.811676	136.0
114.835136	168.0
114.879929	140.0
114.918335	160.0
114.937538	172.0
114.952477	56.0
114.994934	156.0
115.018639	56.0
115.035713	148.0
115.065651	160.0
115.116844	164.0
115.161697	68.0
115.202286	112.0
115.217239	196.0
115.281342	148.0
115.296295	92.0
115.329826	140.0
115.359985	156.0
115.424561	60.0
115.452362	128.0
115.486588	100.0
115.506264	240.0
115.533646	228.0
115.567879	160.0
115.584991	148.0
115.601578	160.0
115.61438	104.0
115.639137	188.0
115.652306	336.0
115.697975	188.0
115.716133	196.0
115.745422	224.0
115.80336	192.0
115.818352	92.0
115.86425	208.0
115.895477	276.0
115.920082	300.0
115.961914	68.0
115.981201	160.0
116.004784	216.0
116.020981	180.0
116.045311	192.0
116.064064	340.0
116.080757	120.0
116.184921	180.0
116.199944	212.0
116.219254	184.0
116.277191	188.0
116.305099	152.0
116.336258	208.0
116.352325	244.0
116.380234	44.0
116.395264	156.0
116.439034	220.0
116.448479	252.0
116.463341	236.0
116.52816	156.0
116.601501	220.0
116.641441	112.0
116.655235	140.0
116.69075	232.0
116.787392	160.0
116.803612	128.0
116.918297	200.0
116.941322	136.0
116.999443	156.0
117.025284	204.0
117.048965	160.0
117.064041	228.0
117.098694	176.0
117.126228	164.0
117.206215	160.0
117.242844	168.0
117.278458	268.0
117.31398	104.0
117.348129	152.0
117.378662	132.0
117.393753	152.0
117.449211	128.0
117.477798	120.0
117.493935	152.0
117.51239	120.0
117.543945	148.0
117.570656	136.0
117.595604	204.0
117.64257	88.0
117.660103	164.0
117.687225	132.0
117.708359	132.0
117.721771	204.0
117.771446	48.0
117.797371	40.0
117.816811	180.0
117.831932	104.0
117.914047	288.0
117.987541	120.0
118.011436	160.0
118.02845	152.0
118.051003	316.0
118.080765	144.0
118.112968	136.0
118.193901	216.0
118.231972	156.0
118.267754	188.0
118.28653	160.0
118.309227	272.0
118.375946	200.0
118.390007	228.0
118.414139	196.0
118.476654	252.0
118.503311	176.0
118.54599	140.0
118.563324	184.0
118.584999	68.0
118.659363	224.0
118.729736	248.0
118.745438	216.0
118.797501	164.0
118.83625	116.0
118.894203	176.0
118.929871	192.0
118.949402	152.0
118.986107	128.0
119.044029	564.0
119.078239	108.0
119.101402	84.0
119.127113	120.0
119.1492	128.0
119.201347	136.0
119.227425	200.0
119.264374	104.0
119.345375	168.0
119.392883	268.0
119.414398	184.0
119.444847	112.0
119.514465	228.0
119.540443	124.0
119.543884	116.0
119.552269	184.0
119.601524	72.0
119.649414	132.0
119.697311	124.0
119.74762	160.0
119.797501	192.0
119.812752	140.0
119.851974	52.0
119.876762	180.0
119.902092	176.0
119.926071	324.0
119.958641	144.0
120.029739	168.0
120.053795	2724.0
120.083054	56.0
120.117691	132.0
120.153984	124.0
120.18013	128.0
120.227051	184.0
120.294708	112.0
120.331825	120.0
120.371124	144.0
120.420303	192.0
120.440338	116.0
120.454979	132.0
120.475967	84.0
120.512962	180.0
120.550255	144.0
120.596153	136.0
120.628021	152.0
120.648613	140.0
120.675888	160.0
120.742638	96.0
120.769043	284.0
120.783867	132.0
120.810448	112.0
120.878273	188.0
120.893593	240.0
120.935181	108.0
120.992844	152.0
121.011795	172.0
121.036888	388.0
121.144211	204.0
121.150604	148.0
121.178253	104.0
121.226349	160.0
121.376984	168.0
121.430351	196.0
121.480804	104.0
121.56221	152.0
121.590515	116.0
121.698792	160.0
121.720985	204.0
121.791359	260.0
121.904556	332.0
121.967896	176.0
121.976723	144.0
122.004364	128.0
122.018623	152.0
122.048462	224.0
122.091049	140.0
122.124245	104.0
122.153008	68.0
122.198738	168.0
122.214142	208.0
122.243217	116.0
122.28582	212.0
122.323532	112.0
122.4002	140.0
122.443054	164.0
122.459763	156.0
122.498619	324.0
122.562515	72.0
122.580139	112.0
122.60218	112.0
122.617607	268.0
122.637444	148.0
122.716545	376.0
122.758698	132.0
122.778549	116.0
122.818245	120.0
122.904289	284.0
122.924149	116.0
122.941803	120.0
122.979324	212.0
123.00753	180.0
123.070229	180.0
123.112358	140.0
123.160378	148.0
123.200142	176.0
123.262352	204.0
123.30722	140.0
123.383575	212.0
123.463181	216.0
123.508118	100.0
123.584839	84.0
123.706955	204.0
123.799561	96.0
123.817276	80.0
123.850502	48.0
123.877083	128.0
123.891769	176.0
123.929245	200.0
124.019806	108.0
124.078751	164.0
124.120605	128.0
124.169144	180.0
124.196289	192.0
124.211815	152.0
124.227341	112.0
124.282806	160.0
124.329407	160.0
124.351883	188.0
124.45372	188.0
124.555878	164.0
124.571426	40.0
124.595734	136.0
124.624748	72.0
124.662529	52.0
124.691414	204.0
124.713577	132.0
124.735214	176.0
124.758102	128.0
124.775124	168.0
124.793678	84.0
124.813683	120.0
124.879272	220.0
124.936874	176.0
124.996475	184.0
125.021194	156.0
125.085114	88.0
125.133247	252.0
125.185303	144.0
125.225395	136.0
125.269943	156.0
125.284821	176.0
125.369392	328.0
125.445076	204.0
125.499496	372.0
125.528358	212.0
125.535133	200.0
125.559708	56.0
125.615471	176.0
125.635551	580.0
125.662323	60.0
125.7248	144.0
125.778854	148.0
125.811852	180.0
125.829712	100.0
125.860977	228.0
125.9142	216.0
125.920876	180.0
125.990517	124.0
126.051826	204.0
126.093262	192.0
126.131065	228.0
126.151421	188.0
126.187195	32.0
126.202843	212.0
126.22744	216.0
126.247566	132.0
126.292297	132.0
126.316902	152.0
126.334801	116.0
126.36129	100.0
126.387985	140.0
126.393303	108.0
126.400375	156.0
126.503677	148.0
126.531746	124.0
126.59668	136.0
126.632515	216.0
126.672829	116.0
126.697472	152.0
126.72612	188.0
126.749008	164.0
126.784859	204.0
126.818481	76.0
126.838654	216.0
126.867798	128.0
126.928329	256.0
127.00811	128.0
127.038231	304.0
127.065155	144.0
127.08371	208.0
127.135735	140.0
127.154915	92.0
127.170624	192.0
127.188583	152.0
127.267159	116.0
127.387611	304.0
127.446846	80.0
127.462578	276.0
127.494041	116.0
127.549355	72.0
127.56971	120.0
127.610931	144.0
127.672729	116.0
127.73687	208.0
127.759369	120.0
127.775116	124.0
127.806618	100.0
127.835869	72.0
127.943909	136.0
127.971367	164.0
128.02272	172.0
128.050385	240.0
128.097046	220.0
128.128448	192.0
128.171387	112.0
128.21196	132.0
128.227737	96.0
128.28183	164.0
128.324402	104.0
128.32872	100.0
128.403549	224.0
128.437424	128.0
128.466751	212.0
128.509613	80.0
128.584091	148.0
128.62027	132.0
128.655853	136.0
128.692444	128.0
128.715027	156.0
128.744385	128.0
128.764709	176.0
128.798584	304.0
128.83699	176.0
128.893478	68.0
128.909286	100.0
128.943192	192.0
128.97258	152.0
129.004227	180.0
129.044098	632.0
129.068161	300.0
129.096924	184.0
129.123779	196.0
129.128265	172.0
129.207764	156.0
129.225357	180.0
129.253006	200.0
129.268845	96.0
129.290558	168.0
129.347214	192.0
129.379135	264.0
129.411453	116.0
129.474854	200.0
129.506088	152.0
129.574783	180.0
129.64122	136.0
129.712769	184.0
129.835205	184.0
129.860153	136.0
129.912323	88.0
129.997192	160.0
130.013321	368.0
130.048187	636.0
130.084793	136.0
130.123398	68.0
130.149841	228.0
130.193787	148.0
130.209686	176.0
130.36644	172.0
130.392715	132.0
130.44371	196.0
130.641785	204.0
130.66658	80.0
130.732574	124.0
130.784927	140.0
130.809967	92.0
130.842514	120.0
130.898758	152.0
130.936096	172.0
130.97847	176.0
131.001251	188.0
131.055832	200.0
131.117462	128.0
131.185654	144.0
131.191162	132.0
131.222321	272.0
131.239517	172.0
131.261078	144.0
131.313385	132.0
131.345459	156.0
131.367569	188.0
131.388809	240.0
131.423035	168.0
131.440125	164.0
131.461823	264.0
131.482361	132.0
131.531311	196.0
131.587372	72.0
131.627747	128.0
131.66272	340.0
131.683273	172.0
131.701553	144.0
131.728958	96.0
131.765518	108.0
131.783783	88.0
131.827209	132.0
131.868881	168.0
131.909485	172.0
131.950638	88.0
131.978622	196.0
132.021027	220.0
132.056274	488.0
132.108093	236.0
132.120193	232.0
132.138184	136.0
132.158768	144.0
132.190811	180.0
132.206833	176.0
132.267944	188.0
132.320084	200.0
132.369827	200.0
132.447235	100.0
132.470139	292.0
132.509277	140.0
132.527542	140.0
132.566116	328.0
132.58699	160.0
132.603043	188.0
132.621368	128.0
132.664932	312.0
132.681793	168.0
132.73349	124.0
132.79718	156.0
132.820908	248.0
132.913834	184.0
132.974594	176.0
133.034271	164.0
133.055832	164.0
133.091675	196.0
133.121521	148.0
133.220291	160.0
133.242828	208.0
133.252014	168.0
133.304565	200.0
133.365738	436.0
133.397476	196.0
133.454712	112.0
133.493805	188.0
133.514511	144.0
133.583511	152.0
133.601913	216.0
133.62262	124.0
133.652527	192.0
133.693512	148.0
133.724548	204.0
133.748856	56.0
133.80101	156.0
133.852798	124.0
133.942612	124.0
133.993942	156.0
134.002945	192.0
134.029938	176.0
134.050903	128.0
134.069336	80.0
134.12262	200.0
134.156921	184.0
134.215485	120.0
134.242233	156.0
134.295288	188.0
134.313736	132.0
134.426788	188.0
134.442932	116.0
134.463715	152.0
134.500641	148.0
134.523727	100.0
134.553741	152.0
134.603561	88.0
134.68425	140.0
134.717712	100.0
134.813278	208.0
134.860977	112.0
134.918762	116.0
134.951141	48.0
134.997559	172.0
135.024429	232.0
135.064453	64.0
135.092834	60.0
135.11998	156.0
135.163193	136.0
135.205597	152.0
135.221786	132.0
135.265762	124.0
135.302811	212.0
135.38385	208.0
135.420914	132.0
135.457977	180.0
135.486984	152.0
135.509918	208.0
135.615677	196.0
135.638718	144.0
135.671173	168.0
135.692032	184.0
135.733826	172.0
135.864792	180.0
135.889435	188.0
135.915024	144.0
135.935593	184.0
135.977356	136.0
136.004913	156.0
136.049454	324.0
136.163101	128.0
136.184998	160.0
136.200256	204.0
136.218185	380.0
136.316422	196.0
136.351288	56.0
136.393387	208.0
136.451981	140.0
136.482208	164.0
136.50473	136.0
136.568924	152.0
136.595428	100.0
136.645844	120.0
136.664398	136.0
136.704788	164.0
136.723404	140.0
136.825821	216.0
136.914307	40.0
136.930603	136.0
136.946915	184.0
136.965637	96.0
136.985443	164.0
137.033112	148.0
137.051743	136.0
137.084366	148.0
137.13797	88.0
137.175262	192.0
137.197067	160.0
137.252213	192.0
137.361282	172.0
137.408478	204.0
137.443176	280.0
137.494736	120.0
137.515823	176.0
137.560181	160.0
137.625549	396.0
137.644226	124.0
137.665237	156.0
137.699631	144.0
137.746994	136.0
137.779694	100.0
137.830551	136.0
137.877838	192.0
137.908218	128.0
137.943344	180.0
137.990036	144.0
138.015762	136.0
138.055511	128.0
138.118668	144.0
138.193527	244.0
138.2099	404.0
138.239929	192.0
138.26474	204.0
138.333939	360.0
138.358826	140.0
138.383102	260.0
138.451019	136.0
138.502548	208.0
138.554077	148.0
138.587799	276.0
138.613968	316.0
138.633743	168.0
138.675064	208.0
138.704056	68.0
138.732193	148.0
138.762665	44.0
138.788254	140.0
138.804947	124.0
138.849426	68.0
138.885086	140.0
138.910416	140.0
139.03067	192.0
139.046509	108.0
139.084061	148.0
139.100571	124.0
139.142746	72.0
139.16153	184.0
139.210709	140.0
139.219925	60.0
139.228561	132.0
139.257874	148.0
139.283661	208.0
139.32811	140.0
139.33754	124.0
139.368225	160.0
139.403473	144.0
139.419922	128.0
139.473984	176.0
139.54216	200.0
139.603302	100.0
139.619766	160.0
139.655045	168.0
139.742233	128.0
139.789139	124.0
139.812317	208.0
139.843857	192.0
139.858673	208.0
139.902115	180.0
139.925659	32.0
139.944504	108.0
139.982178	148.0
140.008072	120.0
140.042816	296.0
140.078735	204.0
140.10936	112.0
140.201263	240.0
140.254364	332.0
140.315979	216.0
140.359207	76.0
140.377029	148.0
140.395874	168.0
140.429962	152.0
140.516602	268.0
140.609268	148.0
140.654114	56.0
140.694244	160.0
140.767441	84.0
140.803986	164.0
140.831207	80.0
140.858368	200.0
140.876083	64.0
140.903015	120.0
140.944611	56.0
140.984772	276.0
141.024963	132.0
141.051926	128.0
141.095108	364.0
141.114487	92.0
141.1259	212.0
141.135056	176.0
141.175064	248.0
141.240128	192.0
141.262253	188.0
141.292175	124.0
141.313461	140.0
141.381256	192.0
141.472778	152.0
141.588058	148.0
141.608551	184.0
141.653961	184.0
141.685028	112.0
141.716827	144.0
141.73494	36.0
141.777588	180.0
141.795303	124.0
141.810776	200.0
141.829544	52.0
141.880219	176.0
141.903824	244.0
141.944321	204.0
141.992279	180.0
142.019424	136.0
142.050323	152.0
142.095337	132.0
142.140411	104.0
142.166519	140.0
142.218735	208.0
142.235352	212.0
142.318665	128.0
142.406311	188.0
142.423096	172.0
142.474762	220.0
142.540222	96.0
142.56311	128.0
142.599609	56.0
142.636795	144.0
142.682434	140.0
142.703354	84.0
142.789444	180.0
142.832092	92.0
142.926941	404.0
142.980804	144.0
142.998337	204.0
143.022141	180.0
143.059723	636.0
143.129898	212.0
143.155472	136.0
143.179291	104.0
143.219498	208.0
143.284088	48.0
143.340195	88.0
143.361862	132.0
143.410385	116.0
143.436615	176.0
143.455688	152.0
143.478836	124.0
143.54628	156.0
143.579666	144.0
143.629761	184.0
143.722809	160.0
143.743225	172.0
143.7677	192.0
143.808716	144.0
143.861237	168.0
143.898468	180.0
143.92569	104.0
143.954346	204.0
143.97345	188.0
144.018829	148.0
144.055145	1176.0
144.083328	104.0
144.108017	204.0
144.128723	44.0
144.15741	164.0
144.174133	144.0
144.195648	68.0
144.221085	124.0
144.276917	108.0
144.336685	168.0
144.366608	132.0
144.394089	160.0
144.415604	140.0
144.437134	40.0
144.472595	136.0
144.488693	160.0
144.511307	144.0
144.56633	56.0
144.661224	156.0
144.670975	100.0
144.674576	128.0
144.707565	136.0
144.784195	140.0
144.815323	112.0
144.839279	128.0
144.857681	296.0
144.889587	352.0
144.916718	136.0
144.942291	68.0
144.989624	216.0
145.065155	280.0
145.088501	132.0
145.119675	196.0
145.160873	308.0
145.237183	144.0
145.258774	72.0
145.280365	152.0
145.316116	128.0
145.342743	160.0
145.38269	136.0
145.477936	196.0
145.508362	204.0
145.552902	116.0
145.609207	152.0
145.645233	188.0
145.693283	100.0
145.789398	208.0
145.822235	152.0
145.851639	200.0
145.866821	224.0
145.89035	148.0
145.952591	292.0
145.991837	192.0
146.033997	10392.0
146.093399	84.0
146.113388	140.0
146.165939	192.0
146.208054	332.0
146.255997	180.0
146.289688	284.0
146.311844	80.0
146.368103	160.0
146.427963	76.0
146.447708	172.0
146.472702	148.0
146.581131	164.0
146.610474	176.0
146.63414	128.0
146.679443	492.0
146.696808	44.0
146.734543	148.0
146.771561	148.0
146.79567	104.0
146.846054	184.0
146.88768	160.0
146.907867	108.0
146.94603	200.0
146.988647	160.0
147.037338	1256.0
147.070709	96.0
147.092438	172.0
147.109329	204.0
147.163742	208.0
147.210739	116.0
147.234894	136.0
147.268707	144.0
147.319427	44.0
147.341171	136.0
147.409607	124.0
147.426895	84.0
147.448547	184.0
147.465256	184.0
147.520004	124.0
147.539352	168.0
147.590408	136.0
147.635635	156.0
147.667206	196.0
147.694107	152.0
147.720673	208.0
147.754593	148.0
147.788467	52.0
147.832016	108.0
147.873169	164.0
147.982101	104.0
148.01358	116.0
148.045746	184.0
148.075012	304.0
148.168594	104.0
148.215897	140.0
148.260727	152.0
148.349014	152.0
148.366135	152.0
148.40863	232.0
148.505539	76.0
148.530685	220.0
148.563751	212.0
148.612411	148.0
148.685089	132.0
148.733627	184.0
148.779175	184.0
148.796738	60.0
148.828979	200.0
148.850159	104.0
148.904739	76.0
148.932327	144.0
148.998505	160.0
149.044601	128.0
149.0858	188.0
149.107666	192.0
149.163574	68.0
149.190323	156.0
149.219498	80.0
149.286362	160.0
149.309464	180.0
149.341492	164.0
149.419067	140.0
149.478271	164.0
149.513779	184.0
149.614243	188.0
149.636322	200.0
149.706146	156.0
149.732941	88.0
149.76828	152.0
149.788956	136.0
149.810883	32.0
149.837692	160.0
149.867691	140.0
149.884155	168.0
149.952835	280.0
149.996094	228.0
150.035095	120.0
150.112549	120.0
150.165024	140.0
150.247269	120.0
150.308441	184.0
150.337555	132.0
150.364243	192.0
150.388809	196.0
150.422409	204.0
150.449829	132.0
150.488892	168.0
150.508423	204.0
150.553864	112.0
150.594223	188.0
150.613403	148.0
150.630539	196.0
150.683258	244.0
150.714188	204.0
150.734436	92.0
150.762482	208.0
150.821136	192.0
150.906708	100.0
150.928711	88.0
150.981415	196.0
150.999634	160.0
151.078751	128.0
151.171631	156.0
151.189941	208.0
151.203415	232.0
151.241852	216.0
151.281021	44.0
151.329285	168.0
151.364273	172.0
151.381409	168.0
151.410797	140.0
151.436951	112.0
151.455902	164.0
151.492737	196.0
151.545319	188.0
151.574936	72.0
151.592087	172.0
151.631302	180.0
151.665619	136.0
151.724442	244.0
151.761383	124.0
151.824982	200.0
151.842148	164.0
151.901245	208.0
151.940536	108.0
151.977066	72.0
152.01387	88.0
152.046524	172.0
152.125687	144.0
152.146423	92.0
152.189072	184.0
152.232361	168.0
152.27356	160.0
152.310959	136.0
152.34256	212.0
152.426422	120.0
152.478027	52.0
152.500153	192.0
152.568237	120.0
152.59111	220.0
152.638504	72.0
152.708221	224.0
152.743576	156.0
152.766983	288.0
152.862442	220.0
152.931473	224.0
152.952744	212.0
152.977936	204.0
153.040756	236.0
153.092514	172.0
153.122635	276.0
153.179291	164.0
153.212067	156.0
153.219208	196.0
153.259735	116.0
153.29509	300.0
153.33873	136.0
153.363327	160.0
153.38382	156.0
153.505493	136.0
153.549866	232.0
153.568741	168.0
153.667938	132.0
153.684692	168.0
153.763657	152.0
153.80069	124.0
153.831177	148.0
153.907501	180.0
153.98587	52.0
154.016373	160.0
154.049728	184.0
154.089615	100.0
154.12941	188.0
154.253967	200.0
154.268417	104.0
154.376343	132.0
154.416168	116.0
154.462921	148.0
154.488373	192.0
154.509918	172.0
154.535385	164.0
154.660873	172.0
154.73941	132.0
154.77475	124.0
154.794556	108.0
154.819321	124.0
154.844879	88.0
154.871338	240.0
154.905579	224.0
154.98085	136.0
155.006775	48.0
155.059647	12940.0
155.105118	180.0
155.161026	156.0
155.208389	100.0
155.240616	508.0
155.269394	176.0
155.314438	152.0
155.347275	100.0
155.396896	112.0
155.432938	144.0
155.453964	52.0
155.506088	160.0
155.530899	184.0
155.56813	40.0
155.61557	148.0
155.638718	84.0
155.664963	108.0
155.685471	220.0
155.764313	112.0
155.789154	124.0
155.832443	216.0
155.878601	132.0
155.915878	176.0
155.946808	180.0
156.014862	176.0
156.058319	1124.0
156.113739	232.0
156.176941	188.0
156.199326	108.0
156.241623	224.0
156.26384	176.0
156.313782	168.0
156.364273	180.0
156.395905	124.0
156.421997	224.0
156.446381	156.0
156.475571	184.0
156.527863	224.0
156.567703	240.0
156.585129	96.0
156.605057	144.0
156.624252	176.0
156.739594	192.0
156.791931	144.0
156.814362	140.0
156.856735	128.0
156.88913	204.0
156.937469	140.0
157.036255	124.0
157.062424	2084.0
157.103607	84.0
157.148514	192.0
157.270798	192.0
157.323227	168.0
157.388321	156.0
157.423096	148.0
157.453064	156.0
157.473709	288.0
157.531052	200.0
157.549225	88.0
157.573776	184.0
157.605453	40.0
157.62294	100.0
157.642929	124.0
157.667923	244.0
157.767899	68.0
157.807907	80.0
157.840408	136.0
157.867584	148.0
157.902939	164.0
157.938126	296.0
158.000488	176.0
158.069427	1300.0
158.123108	56.0
158.14563	84.0
158.218216	152.0
158.258286	112.0
158.28212	92.0
158.320892	116.0
158.368469	164.0
158.401031	176.0
158.421082	120.0
158.453461	164.0
158.488724	140.0
158.531326	208.0
158.548859	424.0
158.621216	180.0
158.68483	216.0
158.711807	88.0
158.74942	36.0
158.787033	88.0
158.829681	84.0
158.914825	192.0
158.921371	160.0
158.989609	128.0
159.023865	276.0
159.052231	148.0
159.073929	260.0
159.097397	172.0
159.122559	192.0
159.168442	184.0
159.253876	88.0
159.294128	88.0
159.320221	136.0
159.375763	148.0
159.414673	192.0
159.43428	184.0
159.490067	252.0
159.552917	116.0
159.600693	64.0
159.638412	92.0
159.693741	152.0
159.709991	104.0
159.745789	156.0
159.796875	108.0
159.865295	168.0
159.890518	132.0
160.046051	136.0
160.138184	184.0
160.1819	216.0
160.249054	168.0
160.289185	200.0
160.314743	156.0
160.332108	188.0
160.358444	72.0
160.413895	112.0
160.444183	160.0
160.522308	132.0
160.540375	124.0
160.565186	48.0
160.653458	124.0
160.691315	148.0
160.784668	124.0
160.82605	184.0
160.976837	168.0
161.049774	160.0
161.070236	160.0
161.130615	280.0
161.166046	180.0
161.20137	172.0
161.246857	96.0
161.298294	240.0
161.352661	168.0
161.416473	164.0
161.457794	120.0
161.484528	104.0
161.580643	208.0
161.621124	144.0
161.63884	92.0
161.679337	172.0
161.805893	144.0
161.823624	84.0
161.85907	164.0
161.88678	140.0
162.010971	144.0
162.061707	152.0
162.117462	160.0
162.14534	128.0
162.171448	172.0
162.228973	32.0
162.27774	156.0
162.331131	208.0
162.376663	148.0
162.409271	208.0
162.505417	132.0
162.551102	100.0
162.568863	156.0
162.617081	220.0
162.672928	212.0
162.710358	196.0
162.740768	252.0
162.796387	172.0
162.865845	180.0
163.086975	172.0
163.117477	208.0
163.154419	292.0
163.272568	164.0
163.320892	132.0
163.389587	140.0
163.412476	52.0
163.529541	44.0
163.572815	128.0
163.631363	188.0
163.68483	128.0
163.733368	136.0
163.760056	320.0
163.779068	112.0
163.817978	184.0
163.847855	176.0
163.87738	156.0
163.923157	168.0
163.940948	148.0
163.999695	148.0
164.045471	3704.0
164.087418	168.0
164.118729	244.0
164.153717	176.0
164.176331	120.0
164.202164	148.0
164.220016	76.0
164.268494	144.0
164.316956	204.0
164.366211	80.0
164.457321	176.0
164.506531	144.0
164.561981	172.0
164.62265	184.0
164.663757	140.0
164.695068	128.0
164.712662	156.0
164.732635	132.0
164.756088	156.0
164.77652	144.0
164.796967	188.0
164.819962	168.0
164.881287	108.0
164.899185	156.0
164.917068	208.0
164.973312	168.0
165.009872	212.0
165.045822	316.0
165.085815	148.0
165.144577	156.0
165.151978	152.0
165.18045	160.0
165.207489	208.0
165.236984	164.0
165.267426	164.0
165.310852	128.0
165.359558	272.0
165.377472	160.0
165.423553	108.0
165.441467	124.0
165.469635	148.0
165.625854	132.0
165.71843	116.0
165.751389	216.0
165.77179	156.0
165.838516	164.0
165.930801	168.0
165.956451	216.0
165.976959	112.0
165.994904	52.0
166.039383	288.0
166.074417	164.0
166.121384	180.0
166.15239	100.0
166.218079	148.0
166.287369	136.0
166.323303	192.0
166.348862	176.0
166.41217	188.0
166.436264	188.0
166.461533	148.0
166.527649	164.0
166.557434	140.0
166.610916	172.0
166.646881	152.0
166.670013	92.0
166.688004	112.0
166.734253	84.0
166.768539	176.0
166.806229	168.0
166.852509	48.0
166.976791	160.0
167.01709	124.0
167.043152	412.0
167.101974	152.0
167.166977	92.0
167.192047	140.0
167.246094	216.0
167.310181	232.0
167.34906	144.0
167.395416	68.0
167.413437	148.0
167.440247	156.0
167.48555	116.0
167.506165	112.0
167.5242	100.0
167.570572	160.0
167.616943	148.0
167.689102	136.0
167.720032	164.0
167.766434	148.0
167.801331	240.0
167.838776	204.0
167.898895	152.0
167.905121	56.0
167.926407	312.0
168.066986	668.0
168.087555	196.0
168.111633	188.0
168.143616	176.0
168.197235	204.0
168.215317	148.0
168.270691	200.0
168.314316	80.0
168.359894	48.0
168.445129	120.0
168.560364	180.0
168.601227	68.0
168.618256	160.0
168.648453	204.0
168.669952	208.0
168.706146	116.0
168.75267	136.0
168.776749	132.0
168.885605	324.0
168.933716	172.0
168.993225	64.0
169.027771	216.0
169.066574	596.0
169.158554	136.0
169.187332	180.0
169.226654	84.0
169.244293	200.0
169.277954	36.0
169.316803	372.0
169.345291	68.0
169.363419	152.0
169.386734	148.0
169.454086	200.0
169.474823	168.0
169.537003	140.0
169.617828	132.0
169.661423	108.0
169.702911	192.0
169.720016	120.0
169.762299	248.0
169.798019	224.0
169.835175	136.0
169.852234	148.0
169.89743	128.0
169.921951	284.0
169.963608	196.0
169.983047	144.0
170.011597	208.0
170.071121	2732.0
170.143845	160.0
170.18988	188.0
170.22966	56.0
170.279007	464.0
170.335495	64.0
170.3703	216.0
170.496048	176.0
170.520569	316.0
170.640213	124.0
170.748535	236.0
170.762848	196.0
170.813797	176.0
170.873474	168.0
170.956284	168.0
170.990387	208.0
171.073776	232.0
171.120972	128.0
171.23613	112.0
171.284729	188.0
171.334351	124.0
171.369781	196.0
171.408066	136.0
171.428055	220.0
171.45726	100.0
171.513504	88.0
171.567062	104.0
171.604675	196.0
171.621811	188.0
171.671356	112.0
171.705261	164.0
171.762634	124.0
171.851334	180.0
171.913971	44.0
171.962814	156.0
171.992264	116.0
172.013153	164.0
172.050049	336.0
172.078323	216.0
172.104523	196.0
172.152512	116.0
172.162643	140.0
172.186829	128.0
172.236572	156.0
172.304764	192.0
172.33699	44.0
172.364258	360.0
172.424652	184.0
172.446747	96.0
172.478119	192.0
172.499023	152.0
172.535629	180.0
172.56691	124.0
172.622513	156.0
172.653778	152.0
172.686737	152.0
172.773621	52.0
172.824097	96.0
172.837585	176.0
172.846298	180.0
172.875656	216.0
172.904449	224.0
172.949921	140.0
173.003922	144.0
173.065186	168.0
173.09436	176.0
173.136307	136.0
173.182678	120.0
173.231567	116.0
173.248962	244.0
173.302429	184.0
173.423035	108.0
173.452484	172.0
173.485947	224.0
173.542877	140.0
173.575089	92.0
173.613449	160.0
173.655792	88.0
173.683334	192.0
173.74295	216.0
173.885178	200.0
173.924026	68.0
173.971283	164.0
173.994904	144.0
174.063232	192.0
174.108704	188.0
174.144577	160.0
174.168228	80.0
174.239151	300.0
174.257538	136.0
174.289078	140.0
174.33374	168.0
174.367905	244.0
174.486206	176.0
174.530899	124.0
174.576309	176.0
174.62294	200.0
174.680817	160.0
174.707123	60.0
174.727051	104.0
174.73764	60.0
174.748077	140.0
174.914352	160.0
174.94133	152.0
174.975555	152.0
175.027344	120.0
175.036041	128.0
175.045914	228.0
175.171616	108.0
175.204681	144.0
175.225769	164.0
175.345535	256.0
175.381241	148.0
175.423416	200.0
175.452423	128.0
175.51944	160.0
175.541306	192.0
175.661346	180.0
175.697693	128.0
175.745178	144.0
175.766296	120.0
175.791626	164.0
175.840179	60.0
175.882416	180.0
176.001221	132.0
176.024979	116.0
176.048752	180.0
176.077713	204.0
176.122696	132.0
176.14119	188.0
176.165634	156.0
176.238937	180.0
176.270645	144.0
176.289688	204.0
176.34201	124.0
176.362717	172.0
176.447617	176.0
176.479477	248.0
176.525299	72.0
176.574677	200.0
176.60112	196.0
176.646088	124.0
176.690826	128.0
176.796906	168.0
176.828659	168.0
176.901184	240.0
176.929245	96.0
176.990143	136.0
177.019562	148.0
177.097702	104.0
177.125046	124.0
177.171799	208.0
177.255035	192.0
177.28949	72.0
177.395508	124.0
177.420456	196.0
177.569458	160.0
177.631699	172.0
177.72438	304.0
177.756226	124.0
177.798874	112.0
177.857117	152.0
177.922699	172.0
177.9543	148.0
177.975891	152.0
178.000443	252.0
178.023468	220.0
178.042923	92.0
178.091003	196.0
178.122604	160.0
178.170319	200.0
178.231537	140.0
178.282028	260.0
178.372391	144.0
178.477829	232.0
178.538437	160.0
178.561172	136.0
178.609055	196.0
178.683548	160.0
178.739517	108.0
178.861847	228.0
178.889206	188.0
178.955017	152.0
178.973663	88.0
179.007095	160.0
179.061157	356.0
179.120132	168.0
179.151062	228.0
179.224045	124.0
179.291351	108.0
179.364365	92.0
179.39537	184.0
179.474258	156.0
179.5466	52.0
179.618622	164.0
179.65596	120.0
179.677124	120.0
179.720001	148.0
179.749344	96.0
179.818665	148.0
179.840088	152.0
179.895828	104.0
179.95462	204.0
179.984253	180.0
180.029648	136.0
180.054962	324.0
180.095535	172.0
180.160522	176.0
180.277313	108.0
180.320847	136.0
180.414413	140.0
180.433121	188.0
180.513336	168.0
180.559677	180.0
180.631027	100.0
180.679169	156.0
180.703247	140.0
180.739502	320.0
180.796906	132.0
180.820999	108.0
180.903976	140.0
180.926468	208.0
180.985794	328.0
181.013245	328.0
181.063049	9388.0
181.108719	148.0
181.145554	132.0
181.174454	112.0
181.208908	256.0
181.246796	92.0
181.27948	180.0
181.287674	172.0
181.323013	132.0
181.371506	148.0
181.417114	124.0
181.487366	240.0
181.511963	152.0
181.554047	208.0
181.591385	188.0
181.6409	140.0
181.655777	96.0
181.671204	232.0
181.69632	140.0
181.75943	224.0
181.787552	164.0
181.798691	104.0
181.842697	156.0
181.889755	180.0
181.912735	172.0
181.956238	244.0
181.9841	296.0
182.017776	248.0
182.071091	101100.0
182.140182	84.0
182.16568	144.0
182.210037	128.0
182.237839	144.0
182.275284	140.0
182.297104	148.0
182.324722	300.0
182.359863	228.0
182.397293	100.0
182.401962	124.0
182.414505	308.0
182.434982	56.0
182.469086	176.0
182.493805	140.0
182.512939	932.0
182.549957	144.0
182.579895	208.0
182.621323	60.0
182.64241	144.0
182.694336	192.0
182.725204	188.0
182.756989	56.0
182.775421	220.0
182.840485	140.0
182.884827	60.0
182.894531	52.0
182.969635	248.0
182.992096	148.0
183.027161	220.0
183.073257	11448.0
183.147934	136.0
183.173553	188.0
183.242233	160.0
183.275513	48.0
183.317795	156.0
183.336212	68.0
183.387344	180.0
183.403137	360.0
183.445297	36.0
183.488434	48.0
183.51001	40.0
183.553146	220.0
183.600983	152.0
183.641388	156.0
183.663727	204.0
183.701202	156.0
183.72702	60.0
183.751404	56.0
183.774139	172.0
183.825958	268.0
183.879578	48.0
183.922516	68.0
183.982605	168.0
184.01828	104.0
184.053299	252.0
184.079758	692.0
184.114456	36.0
184.136063	104.0
184.174561	192.0
184.207581	92.0
184.221298	128.0
184.246872	112.0
184.273804	380.0
184.345673	252.0
184.408951	236.0
184.429855	144.0
184.474716	216.0
184.503036	260.0
184.540298	116.0
184.590988	96.0
184.616287	184.0
184.645813	92.0
184.656799	140.0
184.678848	384.0
184.706314	144.0
184.776718	172.0
184.800461	160.0
184.828125	92.0
184.875122	152.0
184.898483	404.0
185.020294	120.0
185.056961	1520.0
185.083328	136.0
185.10965	84.0
185.131317	104.0
185.17128	180.0
185.209229	208.0
185.250488	204.0
185.320938	64.0
185.360428	160.0
185.40564	168.0
185.44017	52.0
185.502518	96.0
185.526917	76.0
185.579926	188.0
185.605423	148.0
185.64621	200.0
185.684769	204.0
185.7547	168.0
185.79068	164.0
185.8246	156.0
185.888229	152.0
185.913406	180.0
185.941925	152.0
185.971786	248.0
185.997986	220.0
186.021271	108.0
186.065186	4176.0
186.131958	196.0
186.189438	48.0
186.220169	100.0
186.242096	108.0
186.294922	144.0
186.332413	40.0
186.348602	132.0
186.365936	288.0
186.419907	76.0
186.491089	84.0
186.527161	168.0
186.569397	128.0
186.58844	112.0
186.606781	96.0
186.652374	220.0
186.721558	112.0
186.743439	80.0
186.789673	172.0
186.890335	48.0
186.931152	180.0
186.97197	184.0
187.068161	1064.0
187.095062	180.0
187.151642	140.0
187.203384	124.0
187.26329	128.0
187.28508	108.0
187.334122	196.0
187.366806	132.0
187.489426	152.0
187.519409	64.0
187.568466	160.0
187.596191	188.0
187.622025	112.0
187.627228	72.0
187.640854	152.0
187.672852	152.0
187.721146	120.0
187.758041	148.0
187.805695	224.0
187.830246	168.0
187.890259	104.0
187.912094	156.0
187.983032	44.0
188.03215	160.0
188.067902	236.0
188.088638	156.0
188.127686	52.0
188.193222	160.0
188.217789	172.0
188.247025	172.0
188.277527	208.0
188.35199	144.0
188.398056	232.0
188.437164	140.0
188.482758	100.0
188.521011	168.0
188.583878	96.0
188.638809	164.0
188.698685	160.0
188.720566	128.0
188.75589	148.0
188.76358	136.0
188.849091	112.0
188.890121	68.0
188.909271	44.0
188.963989	120.0
189.036697	216.0
189.092789	168.0
189.149261	188.0
189.1884	220.0
189.22673	96.0
189.253387	60.0
189.339005	196.0
189.37735	52.0
189.427643	428.0
189.467743	72.0
189.498856	184.0
189.534256	264.0
189.571869	148.0
189.63559	60.0
189.701172	112.0
189.73085	56.0
189.752777	164.0
189.835037	172.0
189.86795	152.0
189.906342	180.0
189.96817	188.0
190.005096	136.0
190.028885	108.0
190.048065	164.0
190.093811	228.0
190.164261	228.0
190.192886	144.0
190.234879	148.0
190.26857	144.0
190.287796	128.0
190.32103	176.0
190.370804	132.0
190.409363	152.0
190.503525	116.0
190.614655	48.0
190.6828	176.0
190.727341	132.0
190.754822	184.0
190.785065	84.0
190.840744	96.0
190.862045	108.0
190.907883	60.0
190.9543	192.0
191.003784	112.0
191.061218	116.0
191.120605	136.0
191.170135	152.0
191.266464	316.0
191.293991	108.0
191.360077	132.0
191.381149	176.0
191.426163	384.0
191.45369	40.0
191.508026	132.0
191.558365	188.0
191.593018	180.0
191.618286	116.0
191.663055	160.0
191.729874	144.0
191.787064	180.0
191.839447	164.0
191.869766	136.0
191.894577	152.0
191.958008	152.0
191.991104	76.0
192.116028	124.0
192.170532	168.0
192.239563	120.0
192.311142	224.0
192.349777	168.0
192.393951	136.0
192.436478	188.0
192.495193	156.0
192.532013	172.0
192.576202	228.0
192.614868	100.0
192.661835	204.0
192.683945	64.0
192.725388	268.0
192.74472	80.0
192.795975	184.0
192.819336	176.0
192.848114	120.0
192.871857	148.0
192.910553	56.0
192.938644	124.0
192.961105	184.0
192.9935	112.0
193.037613	168.0
193.058044	348.0
193.087311	108.0
193.142838	124.0
193.162201	132.0
193.266327	164.0
193.313248	176.0
193.380798	108.0
193.410202	128.0
193.438919	220.0
193.483002	200.0
193.513672	164.0
193.557968	68.0
193.582901	180.0
193.632751	164.0
193.685379	96.0
193.740021	204.0
193.82547	120.0
193.859924	288.0
193.897522	184.0
194.004059	200.0
194.068344	1216.0
194.151016	140.0
194.202789	96.0
194.245316	176.0
194.314667	124.0
194.37294	176.0
194.411789	124.0
194.464523	192.0
194.486725	112.0
194.528366	84.0
194.548462	184.0
194.598984	168.0
194.658859	124.0
194.702011	176.0
194.720367	188.0
194.798492	204.0
194.818512	212.0
194.9422	68.0
194.989456	208.0
195.008911	132.0
195.028366	128.0
195.079117	9060.0
195.142181	172.0
195.186417	164.0
195.224838	60.0
195.256363	140.0
195.337112	120.0
195.364838	80.0
195.41864	260.0
195.461288	180.0
195.478638	248.0
195.529007	36.0
195.591721	128.0
195.612503	184.0
195.654266	140.0
195.793869	120.0
195.812988	152.0
195.888199	112.0
195.919434	168.0
195.941132	80.0
195.977524	252.0
196.013565	180.0
196.041336	204.0
196.085663	26476.0
196.12265	360.0
196.173874	88.0
196.219833	80.0
196.264267	64.0
196.32074	176.0
196.352325	164.0
196.390152	332.0
196.431778	188.0
196.456497	116.0
196.488876	112.0
196.51088	80.0
196.557327	40.0
196.619797	240.0
196.656815	172.0
196.685715	212.0
196.772568	288.0
196.822327	116.0
196.860153	92.0
196.914673	112.0
196.950989	60.0
196.978912	36.0
197.025513	324.0
197.057968	5024.0
197.088058	2728.0
197.14006	160.0
197.167511	104.0
197.216751	68.0
197.270706	48.0
197.347824	136.0
197.395081	184.0
197.402466	272.0
197.451065	200.0
197.475159	112.0
197.50972	148.0
197.600433	200.0
197.634552	144.0
197.716278	92.0
197.778641	32.0
197.897842	108.0
197.908615	132.0
198.006134	64.0
198.023788	196.0
198.065002	11632.0
198.160202	172.0
198.200333	56.0
198.218353	132.0
198.266907	172.0
198.286133	172.0
198.313629	112.0
198.42543	164.0
198.463852	144.0
198.487457	168.0
198.521103	160.0
198.570587	192.0
198.734283	68.0
198.762344	132.0
198.836243	180.0
198.86058	160.0
198.902679	52.0
198.936356	188.0
198.988708	168.0
199.069916	1504.0
199.138535	232.0
199.161011	128.0
199.228424	176.0
199.2509	60.0
199.338013	136.0
199.380234	140.0
199.467285	136.0
199.513535	188.0
199.53476	116.0
199.588181	124.0
199.621933	156.0
199.648849	188.0
199.713333	168.0
199.861023	144.0
199.889175	148.0
199.917679	216.0
199.980499	212.0
200.027893	128.0
200.055222	140.0
200.082947	860.0
200.14624	148.0
200.201645	104.0
200.236618	144.0
200.283325	76.0
200.310684	188.0
200.381332	172.0
200.406113	208.0
200.449539	164.0
200.508102	144.0
200.547852	100.0
200.559204	88.0
200.564514	116.0
200.592896	176.0
200.62384	100.0
200.66095	76.0
200.695221	160.0
200.784912	204.0
200.840057	172.0
200.872452	248.0
200.97966	88.0
201.042419	184.0
201.082748	108.0
201.153244	224.0
201.209167	128.0
201.244995	112.0
201.277069	156.0
201.309937	164.0
201.337234	60.0
201.363602	184.0
201.391846	116.0
201.50766	56.0
201.531555	140.0
201.583954	196.0
201.671936	124.0
201.787476	168.0
201.925934	228.0
201.953033	224.0
202.001373	132.0
202.043152	7988.0
202.099792	76.0
202.126892	52.0
202.189148	56.0
202.228775	132.0
202.254242	96.0
202.288223	168.0
202.375977	140.0
202.418716	176.0
202.475098	236.0
202.561691	164.0
202.647888	176.0
202.673111	40.0
202.695663	140.0
202.747787	204.0
202.806595	32.0
202.828018	300.0
202.866119	168.0
202.931778	100.0
202.993713	128.0
203.043365	1452.0
203.112823	180.0
203.165436	228.0
203.20845	192.0
203.263199	232.0
203.371567	236.0
203.416458	220.0
203.44899	208.0
203.569778	136.0
203.652145	140.0
203.672028	176.0
203.768616	144.0
203.802704	176.0
203.839645	192.0
203.870758	164.0
203.939117	120.0
203.964188	224.0
204.045578	244.0
204.098312	112.0
204.143814	160.0
204.223587	164.0
204.257584	128.0
204.392227	100.0
204.415955	144.0
204.448212	216.0
204.490265	108.0
204.544983	96.0
204.614731	160.0
204.646317	104.0
204.738464	160.0
204.784164	76.0
204.804108	112.0
204.843979	72.0
204.906662	132.0
205.020645	176.0
205.046295	148.0
205.091888	64.0
205.128952	96.0
205.157455	40.0
205.28006	120.0
205.357071	132.0
205.379883	144.0
205.417419	124.0
205.463806	152.0
205.493988	144.0
205.549896	144.0
205.580261	208.0
205.64238	236.0
205.719452	316.0
205.756577	52.0
205.780533	184.0
205.855972	136.0
205.927277	184.0
205.971954	208.0
206.013306	152.0
206.040024	348.0
206.070465	2732.0
206.109726	44.0
206.163788	164.0
206.213623	68.0
206.247925	148.0
206.302231	96.0
206.340088	280.0
206.365128	256.0
206.388	216.0
206.406967	156.0
206.473801	80.0
206.568192	92.0
206.590973	120.0
206.651978	140.0
206.67691	96.0
206.724945	192.0
206.825729	92.0
206.865799	196.0
206.917328	192.0
206.944107	124.0
207.022903	152.0
207.075439	612.0
207.117798	152.0
207.17157	176.0
207.229523	112.0
207.292557	236.0
207.321213	76.0
207.344147	140.0
207.369934	148.0
207.455933	176.0
207.491516	192.0
207.526489	244.0
207.590683	72.0
207.656647	112.0
207.688202	124.0
207.731369	172.0
207.754181	172.0
207.785736	220.0
207.83432	176.0
207.883301	300.0
207.97374	148.0
208.046906	104.0
208.07724	128.0
208.154358	216.0
208.21344	152.0
208.24791	120.0
208.30249	164.0
208.345978	116.0
208.472	156.0
208.493927	204.0
208.573044	184.0
208.634918	136.0
208.673218	132.0
208.768112	160.0
208.812439	260.0
208.840012	132.0
208.893112	148.0
208.925156	180.0
208.967026	132.0
209.050766	172.0
209.120178	176.0
209.135559	112.0
209.139893	144.0
209.197784	156.0
209.24971	108.0
209.284042	260.0
209.326385	64.0
209.346542	88.0
209.38974	140.0
209.431427	220.0
209.461761	212.0
209.522247	112.0
209.550766	100.0
209.598328	128.0
209.622711	88.0
209.653473	104.0
209.690857	196.0
209.726852	148.0
209.752792	116.0
209.806747	232.0
209.834534	136.0
209.844208	96.0
209.936157	156.0
209.986115	296.0
210.066299	132488.0
210.133972	192.0
210.156799	132.0
210.177216	288.0
210.224319	132.0
210.257431	188.0
210.283035	224.0
210.318161	112.0
210.345291	80.0
210.406311	60.0
210.432983	144.0
210.450699	92.0
210.481873	228.0
210.508514	180.0
210.540298	1036.0
210.58786	168.0
210.634277	180.0
210.692032	172.0
210.70282	80.0
210.714722	188.0
210.736481	168.0
210.761292	128.0
210.790161	216.0
210.807907	212.0
210.864365	148.0
210.896729	252.0
210.930908	192.0
210.990585	140.0
211.002335	72.0
211.006897	136.0
211.067978	17020.0
211.114075	108.0
211.133087	128.0
211.163879	40.0
211.207458	120.0
211.261124	128.0
211.314667	156.0
211.334229	212.0
211.400238	200.0
211.472626	88.0
211.532227	52.0
211.565002	168.0
211.608017	44.0
211.639343	92.0
211.696518	232.0
211.756989	144.0
211.804794	156.0
211.830795	116.0
211.853668	72.0
211.946381	112.0
211.991974	120.0
212.025223	568.0
212.074051	1680.0
212.124603	140.0
212.157394	132.0
212.189484	124.0
212.253922	264.0
212.277695	204.0
212.313309	132.0
212.324692	60.0
212.336487	92.0
212.383926	348.0
212.430115	52.0
212.438263	128.0
212.510345	136.0
212.532318	192.0
212.560898	104.0
212.605423	244.0
212.64325	176.0
212.684235	192.0
212.71933	144.0
212.742599	232.0
212.781723	124.0
212.849899	124.0
212.88916	168.0
212.938477	244.0
213.029449	312.0
213.085571	524.0
213.159317	148.0
213.192184	124.0
213.226166	160.0
213.246506	116.0
213.281693	184.0
213.310455	184.0
213.338409	136.0
213.425491	132.0
213.45401	112.0
213.541214	188.0
213.572159	164.0
213.617065	128.0
213.673965	160.0
213.699646	92.0
213.709641	124.0
213.732162	252.0
213.781631	88.0
213.818222	140.0
213.851486	124.0
213.904953	140.0
213.949265	160.0
213.975693	180.0
214.042511	7960.0
214.098145	144.0
214.118088	56.0
214.16098	136.0
214.183426	48.0
214.214478	200.0
214.266693	96.0
214.286453	184.0
214.334717	60.0
214.356689	68.0
214.389221	152.0
214.445663	156.0
214.466064	60.0
214.48938	140.0
214.517624	220.0
214.556427	152.0
214.611832	80.0
214.652649	276.0
214.709656	204.0
214.720459	112.0
214.731384	172.0
214.796555	188.0
214.85318	48.0
214.880157	92.0
214.929764	144.0
214.964783	128.0
215.047211	1252.0
215.119476	172.0
215.187592	36.0
215.231613	64.0
215.285904	36.0
215.320953	40.0
215.462418	168.0
215.497971	60.0
215.521713	132.0
215.640549	92.0
215.662796	144.0
215.753937	180.0
215.788498	136.0
215.825439	176.0
215.940552	32.0
215.995667	136.0
216.038956	316.0
216.104385	76.0
216.133636	132.0
216.162903	124.0
216.192673	140.0
216.248688	128.0
216.269562	244.0
216.332657	140.0
216.354523	128.0
216.382431	44.0
216.406601	360.0
216.451187	136.0
216.513855	100.0
216.526779	148.0
216.539261	144.0
216.549896	84.0
216.648941	128.0
216.707001	88.0
216.783722	60.0
216.815231	208.0
216.866882	168.0
216.906815	156.0
216.968384	140.0
216.988907	152.0
217.029709	280.0
217.06221	184.0
217.091537	148.0
217.120865	164.0
217.191254	96.0
217.252853	232.0
217.379028	136.0
217.411301	152.0
217.455322	168.0
217.478806	152.0
217.525772	168.0
217.565292	208.0
217.77243	72.0
217.807678	172.0
217.86348	136.0
218.016281	176.0
218.089752	284.0
218.141144	104.0
218.202026	124.0
218.234451	200.0
218.29686	152.0
218.330841	108.0
218.36319	104.0
218.410263	120.0
218.445557	132.0
218.469086	204.0
218.575012	144.0
218.610321	112.0
218.702072	116.0
218.781036	144.0
218.82225	168.0
218.85759	72.0
218.905197	168.0
218.940048	124.0
219.005676	184.0
219.020355	208.0
219.15213	188.0
219.18161	144.0
219.202225	112.0
219.231873	204.0
219.340759	44.0
219.429474	168.0
219.469833	116.0
219.600235	188.0
219.691666	88.0
219.731201	120.0
219.762482	124.0
219.80864	384.0
219.836258	124.0
219.870712	136.0
219.918884	36.0
219.989853	200.0
220.031067	64.0
220.057632	148.0
220.077087	136.0
220.119644	148.0
220.16098	156.0
220.181656	140.0
220.279129	224.0
220.314575	188.0
220.55722	148.0
220.58638	288.0
220.616028	240.0
220.678101	168.0
220.762772	120.0
220.770844	188.0
220.873291	128.0
220.923584	128.0
220.961365	156.0
221.044891	92.0
221.10408	112.0
221.124802	152.0
221.154388	60.0
221.195831	44.0
221.248093	128.0
221.332016	172.0
221.352753	128.0
221.39711	176.0
221.403305	172.0
221.443207	96.0
221.471222	156.0
221.574905	96.0
221.610458	168.0
221.669708	84.0
221.762115	220.0
221.811981	100.0
221.877197	416.0
221.915741	144.0
221.944946	164.0
222.065277	368.0
222.128555	140.0
222.181396	224.0
222.254272	148.0
222.275696	124.0
222.316193	188.0
222.366653	176.0
222.468933	96.0
222.474106	136.0
222.541794	84.0
222.562576	124.0
222.663544	312.0
222.719971	156.0
222.74968	132.0
222.832367	148.0
222.878723	120.0
222.960648	140.0
222.999283	128.0
223.023056	136.0
223.067307	140.0
223.156357	424.0
223.206284	140.0
223.305786	168.0
223.335266	56.0
223.357819	296.0
223.400711	120.0
223.434479	216.0
223.484512	120.0
223.540543	92.0
223.587387	108.0
223.614944	180.0
223.662582	160.0
223.698303	144.0
223.758804	144.0
223.780121	116.0
223.823349	144.0
223.853119	32.0
223.924591	144.0
223.963318	100.0
223.993103	104.0
224.015961	184.0
224.042725	340.0
224.08017	8844.0
224.139893	260.0
224.176285	208.0
224.22551	392.0
224.259613	56.0
224.317917	140.0
224.358047	156.0
224.404724	136.0
224.440155	200.0
224.467728	128.0
224.506134	188.0
224.534149	176.0
224.552673	104.0
224.580078	304.0
224.627548	96.0
224.64061	132.0
224.677261	208.0
224.729385	216.0
224.764114	176.0
224.771729	224.0
224.807709	160.0
224.841766	248.0
224.878906	272.0
224.904831	116.0
224.927643	312.0
224.954315	732.0
224.983688	304.0
225.012878	472.0
225.048126	796.0
225.089386	157360.0
225.1698	200.0
225.214142	156.0
225.27301	256.0
225.305405	268.0
225.361679	316.0
225.381592	204.0
225.405426	260.0
225.436508	144.0
225.45694	100.0
225.479767	60.0
225.515152	224.0
225.54129	76.0
225.581604	1268.0
225.613434	208.0
225.635559	132.0
225.659409	164.0
225.664902	108.0
225.732162	124.0
225.799637	140.0
225.821793	88.0
225.873703	144.0
225.923386	184.0
225.954895	56.0
225.983139	100.0
226.005341	64.0
226.048904	420.0
226.091812	27764.0
226.184402	144.0
226.189285	60.0
226.22142	60.0
226.269058	180.0
226.294922	48.0
226.343399	140.0
226.364532	220.0
226.409454	180.0
226.475525	132.0
226.500381	124.0
226.540207	56.0
226.579941	156.0
226.600586	212.0
226.644012	256.0
226.666901	124.0
226.709045	56.0
226.730026	244.0
226.755173	156.0
226.783203	312.0
226.83493	64.0
226.867157	96.0
226.888565	136.0
226.929138	56.0
226.970093	188.0
227.056793	956.0
227.091858	2004.0
227.138062	92.0
227.169724	56.0
227.211594	80.0
227.271545	172.0
227.328827	196.0
227.348938	80.0
227.403168	136.0
227.445221	112.0
227.478607	228.0
227.536041	136.0
227.584229	244.0
227.64917	156.0
227.6884	352.0
227.734741	284.0
227.748001	124.0
227.7603	172.0
227.786011	148.0
227.797134	136.0
227.808853	88.0
227.820801	276.0
227.841034	140.0
227.869888	152.0
227.918381	140.0
227.971207	124.0
227.976913	100.0
228.015839	236.0
228.075897	6732.0
228.140503	164.0
228.182877	140.0
228.215942	116.0
228.245224	244.0
228.297134	40.0
228.322327	204.0
228.36203	132.0
228.405411	76.0
228.440811	172.0
228.480621	216.0
228.512192	168.0
228.588943	128.0
228.631546	116.0
228.673203	60.0
228.706894	160.0
228.733902	120.0
228.769531	72.0
228.790604	32.0
228.818436	164.0
228.865875	120.0
228.895981	128.0
228.937164	184.0
228.962234	136.0
229.041763	860.0
229.076309	1140.0
229.13208	104.0
229.16188	220.0
229.185242	92.0
229.21228	56.0
229.242416	124.0
229.274872	104.0
229.329819	68.0
229.353928	48.0
229.384323	96.0
229.41568	84.0
229.471497	52.0
229.492599	148.0
229.546036	184.0
229.57402	132.0
229.643387	76.0
229.69165	168.0
229.712769	248.0
229.737061	164.0
229.810165	92.0
229.838837	176.0
229.947388	180.0
230.037857	85184.0
230.117584	188.0
230.1548	144.0
230.189987	140.0
230.216507	152.0
230.245239	260.0
230.306229	152.0
230.341843	108.0
230.39888	232.0
230.421143	144.0
230.447205	44.0
230.454025	68.0
230.479996	192.0
230.535919	100.0
230.575073	256.0
230.601517	144.0
230.682114	212.0
230.721924	204.0
230.797012	76.0
230.832489	272.0
230.888504	148.0
230.910019	68.0
230.947617	60.0
230.981766	112.0
231.041016	8748.0
231.09343	316.0
231.129745	112.0
231.160004	60.0
231.190262	180.0
231.259872	124.0
231.29216	48.0
231.36348	124.0
231.40274	164.0
231.48349	260.0
231.514191	228.0
231.544479	60.0
231.565674	60.0
231.589905	32.0
231.63736	228.0
231.67775	320.0
231.756531	164.0
231.805008	64.0
231.841217	80.0
231.886841	140.0
231.944427	60.0
232.034195	2332.0
232.144409	96.0
232.208221	60.0
232.234802	144.0
232.274948	68.0
232.321701	120.0
232.372025	120.0
232.431274	128.0
232.452225	188.0
232.472809	132.0
232.523758	116.0
232.562851	100.0
232.568909	160.0
232.623306	120.0
232.632141	96.0
232.644516	188.0
232.649582	168.0
232.695877	120.0
232.703644	108.0
232.725159	156.0
232.780731	148.0
232.818237	104.0
232.8638	196.0
232.929916	172.0
232.97316	100.0
233.032425	472.0
233.103806	136.0
233.158508	144.0
233.19194	92.0
233.213211	56.0
233.24057	172.0
233.365219	176.0
233.480774	80.0
233.541595	40.0
233.630966	168.0
233.672409	40.0
233.781952	228.0
233.847778	76.0
233.876297	108.0
233.945694	156.0
234.040695	136.0
234.112656	108.0
234.161591	172.0
234.214294	172.0
234.446167	76.0
234.48851	76.0
234.53215	164.0
234.592148	72.0
234.688049	132.0
234.727249	180.0
234.759842	28.0
234.790344	316.0
234.842194	148.0
234.900146	156.0
234.936752	188.0
235.025238	100.0
235.058792	124.0
235.084549	164.0
235.119827	60.0
235.190033	96.0
235.254135	176.0
235.381577	124.0
235.510635	100.0
235.583954	140.0
235.62291	112.0
235.721451	88.0
235.77034	60.0
235.852859	152.0
235.892609	148.0
235.987061	116.0
236.006042	116.0
236.043259	160.0
236.0867	100.0
236.167801	224.0
236.297668	116.0
236.311356	52.0
236.320663	164.0
236.349579	212.0
236.513565	140.0
236.587036	140.0
236.636017	32.0
236.660522	88.0
236.700317	136.0
236.721756	64.0
236.7677	96.0
236.859589	128.0
236.945358	172.0
236.995651	144.0
237.049789	196.0
237.086319	100.0
237.126633	52.0
237.190521	76.0
237.353012	100.0
237.417404	120.0
237.504639	172.0
237.529633	144.0
237.68277	88.0
237.720047	172.0
237.835312	136.0
237.883789	132.0
237.905289	80.0
237.960541	44.0
238.021591	168.0
238.039673	176.0
238.101044	196.0
238.176666	128.0
238.249237	200.0
238.350632	100.0
238.495071	152.0
238.536911	144.0
238.605743	152.0
238.658005	228.0
238.746445	164.0
238.947128	220.0
239.039948	144.0
239.063431	136.0
239.187164	188.0
239.211792	192.0
239.25798	212.0
239.334122	164.0
239.402695	208.0
239.448883	96.0
239.513565	80.0
239.559784	220.0
239.64296	116.0
239.701508	160.0
239.732849	208.0
239.794418	164.0
239.821701	296.0
239.864853	96.0
239.898758	148.0
239.923431	160.0
240.024887	212.0
240.072861	500.0
240.139282	64.0
240.197891	64.0
240.250336	128.0
240.2966	116.0
240.373749	48.0
240.43663	116.0
240.478668	100.0
240.526581	184.0
240.551086	140.0
240.589798	220.0
240.616562	112.0
240.861557	208.0
240.942688	196.0
240.966583	196.0
241.026764	152.0
241.036575	80.0
241.082733	8604.0
241.15509	48.0
241.201462	88.0
241.241653	108.0
241.294205	172.0
241.318939	76.0
241.340576	52.0
241.383865	44.0
241.479736	196.0
241.699387	192.0
241.783813	216.0
241.865692	120.0
241.934616	40.0
241.984146	108.0
242.055573	1120.0
242.085464	1560.0
242.189362	144.0
242.258728	176.0
242.364166	232.0
242.392731	196.0
242.417801	156.0
242.46875	100.0
242.544876	152.0
242.721588	204.0
242.802231	140.0
242.900238	240.0
242.99144	120.0
243.043793	1264.0
243.092285	408.0
243.154068	196.0
243.211777	100.0
243.249023	264.0
243.354584	136.0
243.437164	404.0
243.461685	92.0
243.533508	128.0
243.612366	64.0
243.735077	52.0
243.813812	132.0
243.932434	96.0
243.988403	144.0
244.053085	1372.0
244.094116	320.0
244.156311	168.0
244.193634	68.0
244.24028	32.0
244.308105	140.0
244.520309	56.0
244.607468	148.0
244.651047	156.0
244.710205	144.0
244.772476	108.0
244.803619	44.0
244.839493	196.0
244.865906	64.0
245.015427	176.0
245.053391	520.0
245.143173	60.0
245.205505	96.0
245.242905	52.0
245.294754	240.0
245.358978	220.0
245.445557	148.0
245.534164	116.0
245.617081	116.0
245.737	72.0
245.788681	136.0
245.924057	84.0
245.960327	228.0
245.985306	124.0
246.049896	144.0
246.313187	180.0
246.363159	136.0
246.4319	44.0
246.481888	184.0
246.57251	72.0
246.606903	160.0
246.65065	196.0
246.688171	140.0
246.831985	68.0
246.910172	148.0
247.013397	120.0
247.047806	116.0
247.335693	124.0
247.451523	164.0
247.492233	156.0
247.55925	240.0
247.664474	84.0
247.701874	200.0
247.749878	136.0
247.811722	68.0
247.896317	128.0
247.937057	108.0
247.964035	208.0
247.999741	56.0
248.162003	132.0
248.197922	168.0
248.224823	176.0
248.263107	28.0
248.294022	168.0
248.35405	164.0
248.37915	164.0
248.460709	124.0
248.542282	112.0
248.595642	216.0
248.631271	204.0
248.661545	160.0
248.796524	144.0
248.878143	188.0
248.918976	136.0
248.972351	136.0
249.064728	136.0
249.361938	84.0
249.399658	204.0
249.431091	160.0
249.458908	132.0
249.600861	136.0
249.662292	172.0
249.827316	68.0
249.931137	184.0
249.981491	128.0
250.066467	160.0
250.226227	128.0
250.299423	52.0
250.352966	128.0
250.429398	148.0
250.535645	132.0
250.680588	132.0
250.73732	188.0
250.876007	120.0
250.951675	112.0
251.033188	136.0
251.185043	152.0
251.229218	116.0
251.28772	132.0
251.323868	64.0
251.394226	104.0
251.640945	200.0
251.667908	52.0
251.828964	92.0
252.069077	144.0
252.120651	112.0
252.236588	56.0
252.325104	88.0
252.366196	140.0
252.400986	52.0
252.470551	180.0
252.606567	184.0
252.64769	112.0
252.679321	72.0
252.821716	76.0
252.856537	156.0
252.91983	136.0
252.954651	132.0
253.021133	84.0
253.043304	104.0
253.100021	184.0
253.188965	68.0
253.220627	136.0
253.258636	196.0
253.312485	120.0
253.348694	168.0
253.407532	208.0
253.496246	120.0
253.604004	88.0
253.740326	92.0
253.863983	68.0
253.902039	100.0
253.945648	176.0
254.034714	1004.0
254.1073	192.0
254.146301	188.0
254.285934	124.0
254.317429	152.0
254.368454	76.0
254.455765	136.0
254.517273	188.0
254.584366	144.0
254.692352	172.0
254.742599	156.0
254.778122	120.0
254.968781	216.0
255.041992	912.0
255.18811	120.0
255.274841	188.0
255.33049	160.0
255.366196	76.0
255.42569	272.0
255.483887	128.0
255.550705	216.0
255.576157	108.0
255.818039	220.0
255.85347	92.0
255.964203	148.0
256.051544	956.0
256.126251	212.0
256.155304	176.0
256.18042	172.0
256.223083	328.0
256.2854	328.0
256.307495	212.0
256.338928	236.0
256.370148	152.0
256.398834	164.0
256.422485	148.0
256.451508	208.0
256.489288	188.0
256.509979	172.0
256.520111	156.0
256.56839	192.0
256.604584	272.0
256.657257	196.0
256.700012	128.0
256.736511	296.0
256.768524	108.0
256.803406	172.0
256.849182	160.0
256.929321	416.0
256.965363	68.0
256.998077	240.0
257.006012	184.0
257.079071	190916.0
257.146637	84.0
257.158478	100.0
257.179749	440.0
257.210175	284.0
257.272491	272.0
257.332825	180.0
257.378906	292.0
257.44577	64.0
257.483276	220.0
257.529449	124.0
257.563446	132.0
257.605316	888.0
257.642242	288.0
257.666779	116.0
257.722015	168.0
257.760345	172.0
257.789185	84.0
257.8461	168.0
257.890656	124.0
257.937988	64.0
257.967438	196.0
258.031586	10608.0
258.081635	24792.0
258.198547	72.0
258.223206	48.0
258.250122	364.0
258.289825	116.0
258.320343	188.0
258.345856	76.0
258.364716	60.0
258.393311	64.0
258.428192	100.0
258.452301	144.0
258.47934	116.0
258.526093	128.0
258.56778	156.0
258.600555	108.0
258.636932	60.0
258.710175	68.0
258.783569	60.0
258.828613	64.0
258.886444	144.0
258.941956	60.0
258.976135	56.0
259.034576	1972.0
259.082092	2944.0
259.122559	120.0
259.153564	76.0
259.175537	84.0
259.232422	120.0
259.269287	92.0
259.336914	108.0
259.416321	136.0
259.453308	200.0
259.495087	68.0
259.556	120.0
259.597443	116.0
259.624176	92.0
259.644531	96.0
259.670319	96.0
259.693024	184.0
259.738464	148.0
259.806824	60.0
259.835022	84.0
259.860901	128.0
259.906799	252.0
259.969666	248.0
260.027649	952.0
260.08963	384.0
260.129852	252.0
260.181854	72.0
260.204346	40.0
260.262115	40.0
260.329559	76.0
260.38736	92.0
260.419495	128.0
260.464447	64.0
260.50943	84.0
260.551208	136.0
260.630981	220.0
260.699005	84.0
260.772919	116.0
260.812775	80.0
260.854706	108.0
260.900421	176.0
260.967865	56.0
260.989624	136.0
261.014038	60.0
261.067963	52.0
261.090057	268.0
261.161987	64.0
261.293854	80.0
261.316376	56.0
261.363556	108.0
261.393616	76.0
261.43866	52.0
261.570618	88.0
261.612488	92.0
261.673645	128.0
261.767029	124.0
261.82724	160.0
261.889404	152.0
262.027924	92.0
262.076263	64.0
262.10202	120.0
262.131042	72.0
262.166473	100.0
262.1987	204.0
262.366333	84.0
262.473663	84.0
262.566254	212.0
262.640442	76.0
262.740448	44.0
262.853363	40.0
262.968842	92.0
263.047028	64.0
263.243958	56.0
263.379608	44.0
263.495911	32.0
263.75766	124.0
263.799683	108.0
263.835266	140.0
264.016327	112.0
264.048676	60.0
264.300995	128.0
264.394836	32.0
264.453217	120.0
264.804565	88.0
264.897858	80.0
264.938843	80.0
264.961517	164.0
265.363403	204.0
265.402313	148.0
265.467163	184.0
265.713684	36.0
265.755859	100.0
265.950562	172.0
266.022003	80.0
266.081635	140.0
266.171326	84.0
266.254974	96.0
266.330475	132.0
266.509155	188.0
266.570892	68.0
266.626129	64.0
266.759399	192.0
266.863434	208.0
266.938232	36.0
267.097595	92.0
267.146393	136.0
267.488068	144.0
267.51413	148.0
267.60202	112.0
267.784393	92.0
268.015686	28.0
268.038483	100.0
268.234039	104.0
268.282928	112.0
268.305756	92.0
268.404572	144.0
268.550323	72.0
268.582947	168.0
268.824371	128.0
268.85376	100.0
268.954926	192.0
269.023499	200.0
269.069183	128.0
269.144287	44.0
269.180206	128.0
269.229187	144.0
269.268372	156.0
269.340546	132.0
269.531982	140.0
269.609283	112.0
269.856598	48.0
269.995453	112.0
270.026642	108.0
270.065887	140.0
270.102142	144.0
270.170563	104.0
270.343994	36.0
270.442169	92.0
270.481445	132.0
270.60257	84.0
270.713287	108.0
270.782684	88.0
270.884216	44.0
271.062378	160.0
271.139801	124.0
271.210205	124.0
271.222504	156.0
271.30368	176.0
271.346313	112.0
271.372528	196.0
271.395477	104.0
271.435608	104.0
271.506989	128.0
271.562744	48.0
271.605377	144.0
271.667328	140.0
271.699188	160.0
271.808258	164.0
271.883575	384.0
272.0047	196.0
272.049103	2944.0
272.101532	144.0
272.156738	156.0
272.216248	84.0
272.245026	308.0
272.269043	160.0
272.310455	104.0
272.346405	244.0
272.393188	112.0
272.443695	108.0
272.464783	96.0
272.506134	296.0
272.543945	168.0
272.557098	248.0
272.568695	152.0
272.611542	148.0
272.664337	236.0
272.705841	340.0
272.76532	160.0
272.792114	368.0
272.838623	204.0
272.870911	332.0
272.901215	276.0
272.946747	416.0
272.983154	444.0
273.017639	928.0
273.056854	219440.0
273.143158	180.0
273.192139	104.0
273.226501	188.0
273.294312	236.0
273.32962	48.0
273.340576	160.0
273.36792	308.0
273.400818	160.0
273.447021	80.0
273.493011	136.0
273.538116	76.0
273.598389	1764.0
273.627655	188.0
273.683929	172.0
273.744507	260.0
273.830902	212.0
273.868866	272.0
273.938232	160.0
273.974792	76.0
273.983887	60.0
274.001495	92.0
274.011322	116.0
274.058411	32280.0
274.109375	136.0
274.121216	328.0
274.152618	92.0
274.194458	164.0
274.220459	160.0
274.262421	80.0
274.289276	68.0
274.32843	152.0
274.349762	188.0
274.39212	60.0
274.439392	156.0
274.448212	120.0
274.515167	56.0
274.549591	52.0
274.573212	172.0
274.605133	56.0
274.648376	76.0
274.686432	68.0
274.718658	68.0
274.769531	96.0
274.815033	64.0
274.85257	68.0
274.887848	200.0
274.921906	324.0
274.991425	168.0
275.052612	11584.0
275.133118	48.0
275.197418	148.0
275.232758	96.0
275.290314	112.0
275.324249	108.0
275.372589	100.0
275.417511	144.0
275.429169	136.0
275.492157	132.0
275.514221	200.0
275.551331	72.0
275.585419	152.0
275.647614	224.0
275.67099	92.0
275.743073	80.0
275.777802	136.0
275.79776	112.0
275.80423	180.0
275.835449	196.0
275.883423	236.0
275.920654	148.0
275.952484	192.0
275.981201	52.0
276.007477	260.0
276.051819	752.0
276.137817	92.0
276.177002	220.0
276.216187	76.0
276.255035	148.0
276.289825	48.0
276.335693	116.0
276.34671	144.0
276.372528	72.0
276.508209	72.0
276.559814	68.0
276.600891	136.0
276.647644	100.0
276.703522	48.0
276.730011	128.0
276.761292	64.0
276.789612	84.0
276.834564	188.0
276.894043	60.0
276.941956	200.0
277.009552	108.0
277.031403	52.0
277.056122	128.0
277.100952	28.0
277.127472	136.0
277.170532	112.0
277.213623	76.0
277.282257	152.0
277.306427	116.0
277.357605	112.0
277.425751	48.0
277.448944	68.0
277.62738	156.0
277.764008	44.0
277.846924	36.0
277.923248	60.0
277.958466	52.0
278.212006	52.0
278.301636	80.0
278.32489	88.0
278.427826	44.0
278.484283	52.0
278.532318	76.0
278.660339	48.0
278.700226	128.0
278.733459	44.0
278.823181	44.0
278.936188	48.0
279.018799	104.0
279.055878	112.0
279.225464	36.0
279.341888	120.0
279.681305	72.0
279.804474	96.0
279.854401	48.0
279.927673	68.0
280.187469	72.0
280.250763	124.0
280.384064	40.0
280.48407	52.0
280.600739	84.0
280.727448	60.0
281.007385	128.0
281.085114	72.0
281.151123	168.0
281.451569	108.0
281.782227	84.0
282.059601	88.0
282.440796	44.0
282.994873	100.0
283.177185	44.0
283.901093	84.0
284.340607	96.0
284.384216	48.0
284.491638	84.0
284.63266	88.0
284.719971	132.0
285.479492	36.0
285.503021	40.0
285.560211	40.0
285.600555	84.0
285.819244	48.0
286.189484	40.0
286.398285	92.0
286.455566	80.0
286.883545	52.0
287.220764	120.0
287.355682	84.0
287.483917	60.0
287.618927	36.0
287.922791	60.0
288.077698	704.0
288.365387	80.0
288.767731	80.0
288.828613	60.0
288.906433	52.0
289.073608	156.0
289.153442	44.0
289.200836	80.0
289.759583	44.0
289.830719	80.0
290.56311	64.0
290.593628	40.0
290.861725	116.0
290.943207	36.0
291.06543	84.0
291.136749	92.0
291.456085	72.0
291.806152	88.0
292.172089	88.0
292.224518	92.0
292.510376	92.0
292.67041	108.0
293.191589	44.0
293.665497	72.0
293.743958	76.0
294.129547	132.0
294.440247	40.0
294.686218	40.0
294.853668	76.0
294.928864	52.0
295.657349	112.0
295.722382	36.0
296.075043	72.0
296.102417	104.0
296.13324	64.0
296.787811	108.0
297.326385	72.0
299.020752	128.0
299.206635	72.0
299.706055	172.0
301.303528	68.0
301.327728	72.0
301.421021	44.0
301.57309	108.0
303.106201	200.0
303.154724	88.0
303.80658	68.0
303.95282	80.0
304.025177	52.0
304.195251	52.0
305.390594	60.0
305.571472	72.0
305.926453	56.0
306.598724	72.0
307.540405	52.0
307.756866	100.0
309.347626	48.0
309.732819	100.0
312.26001	104.0
312.309235	120.0
312.911011	84.0
313.097626	56.0
313.502777	60.0
314.317383	40.0
314.423248	136.0
314.504425	48.0
315.848419	56.0
315.939117	40.0
316.438141	76.0
316.540833	88.0
317.774353	36.0
318.281921	56.0
319.849762	92.0
321.29303	68.0
322.285614	88.0
322.61084	40.0
323.680634	100.0
323.945679	64.0
326.619995	96.0
327.836945	140.0
329.308929	76.0
329.507599	108.0
329.937683	84.0
330.024475	80.0
332.651093	120.0
332.698303	56.0
332.814484	76.0
333.090485	56.0
334.876465	136.0
336.148804	72.0
338.089325	64.0
338.129578	32.0
338.25769	76.0
338.594543	100.0
339.122131	56.0
343.512604	72.0
344.10675	52.0
345.037811	120.0
345.14502	68.0
345.588898	68.0
346.27005	88.0
347.166901	32.0
347.908997	112.0
348.819153	100.0
348.848907	72.0
349.551849	84.0
350.41571	92.0
350.881592	60.0
351.702271	60.0
353.335327	108.0
353.627228	48.0
354.833435	60.0
355.977875	80.0
357.793976	80.0
358.004852	112.0
358.140411	64.0
359.248688	116.0
359.980896	40.0
360.471985	100.0
360.698761	60.0
360.759247	44.0
360.800842	108.0
360.970978	96.0
361.356812	44.0
361.508148	80.0
362.284363	112.0
362.974182	64.0
364.101257	104.0
364.655975	88.0
364.69397	132.0
364.973145	64.0
365.896057	104.0
366.455658	116.0
366.598572	92.0
367.306091	96.0
368.64621	72.0
368.680603	108.0
369.395599	40.0
369.713165	88.0
370.203186	100.0
370.958252	64.0
372.354706	108.0
372.646637	120.0
372.927185	56.0
373.150146	64.0
373.384705	104.0
374.027252	116.0
374.177399	80.0
374.955505	48.0
375.10199	132.0
375.491425	100.0
376.579834	92.0
377.012543	116.0
378.761383	128.0
379.916565	76.0
380.937561	80.0
381.139587	116.0
381.27948	72.0
382.134979	28.0
382.929108	44.0
382.983643	52.0
383.778656	104.0
384.215485	48.0
384.363739	32.0
384.74234	136.0
384.988342	72.0
385.41803	60.0
386.293823	92.0
386.532471	124.0
388.354218	100.0
390.711151	96.0
390.959045	80.0
391.348755	84.0
391.687439	28.0
392.179993	92.0
393.122589	80.0
394.2995	100.0
394.335052	48.0
394.876709	76.0
395.604797	56.0
397.376343	84.0
397.804962	76.0
399.858734	116.0
400.062988	76.0
400.337708	100.0
402.107849	88.0
402.690765	88.0
403.753876	64.0
404.502106	144.0
405.547577	108.0
405.844238	80.0
406.253326	76.0
406.57431	76.0
407.112274	48.0
407.232758	44.0
407.670685	116.0
408.269684	100.0
410.488617	120.0
411.703308	104.0
411.731567	68.0
413.271729	116.0
413.915314	60.0
416.023651	60.0
416.966034	48.0
417.384735	40.0
418.845825	68.0
420.076874	52.0
421.10553	100.0
422.233551	68.0
422.528076	68.0
422.867706	40.0
424.104675	68.0
424.301453	28.0
424.613098	40.0
426.740234	84.0
426.863586	64.0
429.606689	40.0
429.879028	48.0
431.291504	112.0
432.139282	68.0
432.736725	68.0
433.054169	84.0
433.319275	44.0
435.941711	60.0
436.270081	32.0
436.498749	104.0
437.355804	108.0
438.851379	64.0
439.652313	40.0
439.723236	108.0
442.385895	76.0
442.833954	56.0
445.077576	84.0
446.54422	124.0
447.503693	64.0
447.768982	112.0
448.472626	40.0
448.658112	96.0
448.687622	96.0
448.759277	104.0
449.054474	52.0
450.819214	100.0
450.962921	40.0
451.601379	44.0
453.087189	88.0
453.159241	40.0
454.083344	44.0
454.927765	80.0
456.117188	48.0
456.640198	36.0
456.954987	84.0
458.036316	64.0
458.08316	48.0
460.518799	72.0
461.030396	140.0
461.929382	68.0
462.695435	136.0
462.965179	40.0
463.055115	84.0
464.945831	56.0
465.108948	44.0
465.516815	48.0
465.903381	52.0
467.175903	80.0
470.705872	128.0
473.283051	40.0
473.720459	68.0
474.348816	40.0
475.120758	64.0
475.320343	60.0
477.740417	56.0
478.541199	60.0
478.650055	72.0
479.368835	44.0
480.345459	36.0
481.082947	64.0
482.223022	36.0
483.018829	36.0
483.241943	116.0
483.272583	88.0
485.835632	52.0
486.498291	100.0
486.893463	52.0
487.824982	104.0
488.273499	80.0
488.348267	36.0
488.436218	48.0
488.541809	52.0
488.94223	60.0
489.820984	124.0
491.643799	52.0
492.367828	80.0
492.82724	88.0
493.530029	108.0
495.619263	52.0
495.716766	88.0
498.165924	60.0
498.445831	52.0
498.503601	36.0
498.596924	64.0
498.805847	36.0
501.917908	80.0
502.14978	72.0
502.546814	152.0
504.529846	64.0
507.700043	32.0
509.913391	48.0
510.80368	32.0
511.798309	48.0
514.214661	176.0
514.264282	92.0
515.199036	48.0
516.27478	92.0
516.405945	76.0
516.537109	80.0
522.766602	108.0
525.195007	112.0
525.226929	56.0
528.937317	116.0
531.517639	60.0
533.911011	60.0
534.743774	100.0
537.568848	56.0
537.610413	32.0
538.344421	104.0
538.787842	56.0
540.716064	56.0
543.826843	124.0
544.007141	120.0
544.773376	92.0
545.149719	120.0
545.967896	132.0
546.051636	52.0
546.260925	92.0
547.447815	76.0
548.253784	72.0
548.640625	60.0
549.083618	80.0
550.259583	80.0
551.301208	72.0
551.754578	84.0
552.619873	76.0
552.849121	40.0
555.562134	96.0
555.651245	92.0
556.397461	40.0
556.444397	80.0
559.514526	40.0
561.715271	112.0
562.064453	32.0
562.295654	104.0
563.296692	176.0
564.629578	72.0
566.172729	76.0
567.224304	100.0
568.06842	152.0
568.253418	100.0
568.36731	56.0
569.212219	100.0
569.877258	40.0
570.685242	108.0
572.579224	80.0
573.074646	88.0
574.80072	36.0
579.16095	32.0
579.711914	104.0
581.908813	108.0
582.922302	40.0
583.071289	100.0
587.105713	60.0
589.833679	64.0
590.370361	44.0
591.033081	72.0
593.532532	60.0
598.707031	84.0
600.043091	104.0
601.67749	104.0
601.843506	72.0
606.344055	76.0
607.879089	44.0
608.860901	72.0
612.190369	60.0
624.389709	60.0
625.539062	84.0
628.709106	52.0
629.622742	44.0
630.821899	48.0
631.101868	60.0
632.407593	40.0
639.243164	144.0
642.150024	80.0
645.705688	64.0
645.832153	60.0
646.236877	44.0
646.672058	52.0
649.910339	68.0
650.938843	52.0
652.36853	68.0
654.938293	44.0
655.009583	104.0
659.229065	164.0
663.072449	172.0
665.370544	104.0
666.192749	84.0
668.238403	72.0
669.494446	56.0
670.133179	48.0
674.328613	136.0
675.362732	76.0
676.369568	116.0
679.060913	92.0
680.721619	80.0
681.490417	128.0
683.840942	44.0
689.540405	116.0
691.372192	84.0
693.28894	64.0
693.917969	40.0
694.384644	96.0
697.740112	80.0
698.634155	56.0
701.409363	72.0
702.748901	160.0
704.068604	48.0
710.208191	144.0
713.341125	64.0
715.458435	76.0
716.464966	80.0
719.104553	52.0
720.866943	76.0
722.561951	48.0
723.407532	72.0
724.280396	64.0
725.067993	108.0
725.632751	56.0
726.03302	172.0
727.492493	56.0
728.061646	52.0
728.28186	48.0
729.168396	32.0
729.227478	60.0
730.206055	48.0
731.142151	112.0
735.497131	56.0
740.30365	84.0
743.230896	68.0
745.680115	112.0
746.000793	40.0
748.781311	96.0
749.102661	40.0
749.832825	88.0
751.523315	112.0
752.205505	84.0
752.582214	68.0
755.446106	52.0
761.074768	92.0
761.48114	56.0
761.997559	104.0
762.926331	100.0
766.862183	184.0
767.198425	100.0
771.930298	40.0
782.04425	84.0
782.806946	96.0
789.101074	72.0
790.695374	36.0
794.056946	116.0
794.460815	52.0
798.077759	40.0
798.797668	88.0
801.17334	52.0
801.393066	56.0
806.03125	36.0
813.110168	176.0
820.881348	52.0
820.966919	188.0
821.839661	104.0
823.415283	104.0
826.2677	96.0
826.376404	60.0
829.818665	124.0
831.103455	68.0
840.22876	108.0
843.0755	76.0
845.105164	84.0
846.859253	76.0
847.450134	36.0
847.855774	112.0
855.709412	60.0
858.0224	52.0
865.202576	44.0
871.290222	56.0
872.547913	52.0
873.78302	64.0
876.090881	88.0
883.251465	92.0
890.150208	136.0
890.672852	72.0
891.813721	108.0
892.158447	152.0
892.324951	52.0
895.073914	56.0
895.318054	108.0
895.693298	124.0
896.152039	88.0
904.094055	68.0
904.183777	108.0
905.728577	156.0
907.010864	88.0
907.430542	168.0
909.002075	92.0
912.618164	136.0
913.261658	68.0
914.022827	176.0
914.832214	224.0
916.416199	52.0
917.868835	100.0
923.043823	124.0
924.035828	192.0
924.931458	96.0
926.094055	120.0
930.648438	96.0
934.721069	188.0
935.96283	52.0
938.906189	40.0
941.683167	136.0
942.813477	148.0
946.796204	76.0
947.788574	36.0
949.848572	48.0
951.794067	68.0
955.783447	28.0
958.837891	152.0
960.626038	60.0
962.681396	116.0
965.610779	76.0
968.668518	56.0
977.55957	128.0
978.101074	64.0
980.256042	280.0
980.897949	80.0
982.563049	144.0
989.913757	104.0
1008.264893	168.0
1011.408386	72.0
1014.842102	88.0
1016.535706	52.0
1018.57373	84.0
1022.235901	208.0
1022.414124	56.0
1027.881836	124.0
1039.220459	252.0
1042.296143	68.0
1043.594482	96.0
1047.533203	48.0
1050.053589	76.0
1050.105103	88.0
1050.479248	164.0
1054.282349	68.0
1058.914673	216.0
1061.954468	132.0
1062.570679	172.0
1064.894653	100.0
1066.922119	212.0
1070.025391	60.0
1074.783447	56.0
1075.005371	68.0
1075.155518	40.0
1077.323242	104.0
1083.466309	68.0
1089.771484	164.0
1090.119751	140.0
1090.606079	348.0
1093.171021	76.0
1096.127808	28.0
1097.182373	164.0
1098.38916	204.0
1099.095093	56.0
1101.88147	208.0
1103.527222	96.0
1103.771851	136.0
1103.963623	72.0
1105.412354	48.0
1105.736694	200.0
1106.848877	96.0
1107.451538	164.0
1108.080811	176.0
1111.734497	124.0
1112.736816	132.0
1114.018555	56.0
1118.853394	172.0
1119.585815	188.0
1122.131226	184.0
1124.472778	96.0
1127.030396	148.0
1127.692017	100.0
1128.27356	168.0
1129.082642	168.0
1130.98291	224.0
1132.388916	92.0
1134.486328	248.0
1134.881836	152.0
1136.364258	36.0
1138.055664	156.0
1138.65332	136.0
1146.046387	108.0
1146.848389	136.0
1148.561035	224.0
1149.95105	152.0
1151.855103	96.0
1152.760498	184.0
1154.112427	176.0
1155.769653	192.0
1156.033569	52.0
1156.087646	188.0
1157.170776	132.0
1159.324829	76.0
1159.636597	220.0
1160.063599	96.0
1161.412964	160.0
1161.487671	196.0
1161.887939	80.0
1162.722534	136.0
1163.387695	108.0
1165.894165	152.0
1168.396484	64.0
1168.968018	132.0
1169.512451	220.0
1171.50769	164.0
1177.735718	160.0
1179.067993	88.0
1179.22522	152.0
1181.17395	156.0
1181.570679	160.0
1182.754639	60.0
1185.192749	184.0
1185.507935	176.0
1185.734131	140.0
1186.179565	128.0
1188.195801	136.0
1189.142822	116.0
1189.897949	60.0
1190.460938	68.0
1191.168457	52.0
1193.94519	204.0
1195.03894	168.0
1195.376221	140.0
1197.00769	124.0
1197.971924	172.0
1201.260132	140.0
1201.715454	252.0
1204.62207	156.0
1205.216187	140.0
1207.110229	48.0
1211.387573	136.0
1214.604004	120.0
1216.956665	60.0
1220.124878	140.0
1220.542114	140.0
1221.905396	188.0
1223.297241	184.0
1223.345947	80.0
1225.135742	48.0
1225.755859	128.0
1226.864136	60.0
1227.589233	172.0
1228.537842	188.0
1229.437866	180.0
1231.965576	184.0
1232.140259	76.0
1232.685181	164.0
1234.572754	160.0
1235.279175	96.0
1235.586914	176.0
1236.272705	204.0
1237.350708	48.0
1238.53418	48.0
1239.150635	76.0
1240.363037	48.0
1240.692505	184.0
1240.748657	192.0
1241.344604	120.0
1241.526978	140.0
1241.653198	184.0
1243.021118	144.0
1245.878784	236.0
1246.539307	160.0
1246.630615	140.0
1247.902954	120.0
1249.372925	84.0
1251.111206	68.0
1251.259033	220.0
1253.012695	152.0
1253.069092	144.0
1253.942871	228.0
1255.148438	156.0
1255.719604	148.0
1255.910034	164.0
1257.187134	108.0
1257.349365	192.0
1257.660034	156.0
1258.429443	148.0
1259.955078	188.0
1260.661621	116.0
1264.317871	84.0
1264.700073	104.0
1265.245117	132.0
1266.165649	216.0
1268.014771	372.0
1268.064453	216.0
1268.886719	56.0
1270.383179	176.0
1270.63147	184.0
1271.404907	108.0
1271.947876	160.0
1272.334839	84.0
1272.732422	60.0
1275.20459	140.0
1275.368042	64.0
1275.460449	76.0
1275.936768	120.0
1276.135864	180.0
1276.605225	84.0
1279.30896	92.0
1279.373047	168.0
1282.949341	228.0
1284.211548	148.0
1284.347046	188.0
1285.360107	184.0
1286.073853	124.0
1289.831055	132.0
1292.047852	56.0
1292.19104	48.0
1292.834961	48.0
1293.178589	228.0
1293.24292	172.0
1294.094849	172.0
1295.061646	176.0
1295.391113	168.0
1296.379883	152.0
1296.508911	144.0
1300.589966	148.0
1301.336548	156.0
1303.189697	100.0
1303.671143	228.0
1305.755981	60.0
1306.216309	168.0
1306.547241	152.0
1307.105347	236.0
1307.684204	172.0
1309.354614	124.0
1310.413574	196.0
1311.407959	156.0
1311.624268	120.0
1311.948608	152.0
1312.604736	124.0
1314.855591	164.0
1315.09375	140.0
1315.187622	72.0
1316.075562	164.0
1317.910156	160.0
1318.365479	56.0
1318.423218	148.0
1318.560547	164.0
1318.734009	172.0
1319.196655	120.0
1319.464111	152.0
1320.187256	108.0
1320.252319	152.0
1320.736938	192.0
1320.816528	140.0
1321.265015	104.0
1321.416992	248.0
1322.068237	44.0
1322.126099	136.0
1322.307007	40.0
1323.653564	116.0
1323.765381	212.0
1325.49353	40.0
1325.797852	300.0
1326.959717	180.0
1327.813354	160.0
1328.61853	164.0
1328.807129	148.0
1332.095825	164.0
1333.679932	132.0
1333.948975	40.0
1335.919678	152.0
1336.428955	104.0
1336.501709	132.0
1336.552002	124.0
1337.433228	148.0
1338.525269	116.0
1339.297363	364.0
1340.200684	168.0
1341.097046	96.0
1341.250122	180.0
1341.585449	100.0
1341.796875	160.0
1341.913574	176.0
1343.526855	236.0
1346.116455	88.0
1347.255859	104.0
1347.891602	132.0
1348.673584	164.0
1349.207275	148.0
1350.852661	180.0
1352.594238	60.0
1355.267456	144.0
1355.721802	120.0
1357.048584	56.0
1357.693848	188.0
1357.877197	152.0
1357.987183	148.0
1358.185181	64.0
1359.85083	156.0
1361.796509	140.0
1362.847046	184.0
1363.104248	68.0
1364.442017	152.0
1364.787598	184.0
1365.236084	72.0
1365.486206	132.0
1368.083618	176.0
1370.013184	204.0
1370.44043	160.0
1370.668945	184.0
1371.571777	176.0
1371.907959	192.0
1372.231567	220.0
1372.821411	164.0
1373.411499	96.0
1374.887085	156.0
1375.248779	104.0
1375.425903	128.0
1375.758057	248.0
1375.898315	132.0
1377.748901	176.0
1377.892456	128.0
1378.077148	192.0
1378.963989	208.0
1379.244507	172.0
1379.311401	76.0
1379.873169	156.0
1380.213257	152.0
1380.834473	124.0
1382.121704	176.0
1382.513916	84.0
1382.780396	140.0
1382.884033	132.0
1383.002441	120.0
1383.718384	244.0
1384.54248	192.0
1384.631348	112.0
1385.742432	132.0
1385.816528	148.0
1386.424194	136.0
1386.572388	132.0
1389.212158	56.0
1390.265747	128.0
1390.51062	128.0
1390.985718	112.0
1392.411377	168.0
1392.515381	92.0
1392.745605	180.0
1394.39502	164.0
1395.339111	116.0
1395.539917	32.0
1396.87854	188.0
1397.243042	160.0
1397.335449	248.0
1397.414185	148.0
1397.50354	112.0
1397.949951	184.0
1398.314575	172.0
1398.96228	168.0
1399.714233	128.0
1399.855713	40.0
1399.915283	216.0
1400.935669	80.0
1401.144287	168.0
1401.889404	144.0
1402.209839	156.0
1402.537842	120.0
1403.842651	168.0
1404.648071	240.0
1405.871704	116.0
1406.01355	64.0
1406.110596	140.0
1407.499146	76.0
1407.902344	152.0
1407.977051	212.0
1408.245972	180.0
1408.320679	164.0
1408.850952	116.0
1408.978027	172.0
1409.067627	168.0
1409.306763	212.0
1410.166138	116.0
1410.977783	184.0
1411.085571	164.0
1411.437012	180.0
1412.618774	152.0
1413.770996	168.0
1414.67627	208.0
1415.140869	160.0
1415.86731	128.0
1416.204346	100.0
1416.44397	80.0
1417.103271	200.0
1418.077515	120.0
1418.212402	116.0
1418.2948	156.0
1420.994629	124.0
1421.557373	180.0
1422.240356	48.0
1422.337891	192.0
1423.043579	100.0
1424.387939	144.0
1425.041504	56.0
1425.432251	140.0
1426.334106	176.0
1426.777588	72.0
1427.236328	264.0
1427.40918	128.0
1427.552124	156.0
1427.740112	188.0
1428.68042	124.0
1428.932983	180.0
1430.095093	168.0
1430.727417	128.0
1430.802612	152.0
1431.013428	140.0
1432.067749	232.0
1432.53479	160.0
1432.858765	156.0
1433.182739	152.0
1434.433838	148.0
1434.886719	208.0
1434.961548	128.0
1436.02478	136.0
1437.126221	72.0
1437.775146	160.0
1438.628174	164.0
1438.839478	192.0
1440.229004	164.0
1441.422729	76.0
1441.641846	220.0
1442.155762	64.0
1442.768066	48.0
1443.093262	36.0
1443.751099	112.0
1443.993164	48.0
1444.159546	188.0
1444.310791	132.0
1444.401611	140.0
1444.658813	224.0
1446.240234	132.0
1446.512817	96.0
1446.697144	116.0
1446.838257	124.0
1448.314941	100.0
1448.466431	168.0
1448.678589	228.0
1449.981934	96.0
1450.034912	144.0
1450.307861	156.0
1450.406372	248.0
1451.869629	64.0
1452.051758	160.0
1453.136475	180.0
1453.546265	152.0
1454.373413	136.0
1454.479736	104.0
1454.593628	116.0
1454.722656	176.0
1455.303589	168.0
1455.626099	232.0
1456.112183	56.0
1456.651489	144.0
1457.183228	152.0
1457.30835	116.0
1457.684814	40.0
1457.965942	76.0
1458.12561	180.0
1458.619629	164.0
1458.68042	96.0
1460.28479	196.0
1460.482544	180.0
1460.794434	192.0
1460.946655	72.0
1461.098755	132.0
1461.182495	40.0
1462.133667	164.0
1462.384766	180.0
1462.910034	64.0
1463.46582	152.0
1463.636597	164.0
1464.250122	132.0
1464.424927	156.0
1465.697632	112.0
1466.223389	120.0
1468.907349	112.0
1469.281128	132.0
1469.967896	52.0
1470.629517	180.0
1471.143311	36.0
1472.426147	60.0
1472.640015	156.0
1473.121216	120.0
1473.192749	184.0
1473.411499	76.0
1473.495605	208.0
1473.549072	96.0
1473.900513	96.0
1474.786987	200.0
1474.916992	212.0
1475.360352	120.0
1476.285522	56.0
1476.627686	212.0
1476.950928	116.0
1478.473511	160.0
1479.261841	168.0
1479.81311	148.0
1480.065796	152.0
1480.119385	168.0
1480.862305	124.0
1480.984863	204.0
1481.11499	120.0
1481.658936	120.0
1482.294922	124.0
1483.07666	108.0
1484.410645	136.0
1484.594727	180.0
1484.686646	132.0
1485.699219	116.0
1486.405151	148.0
1486.642944	148.0
1487.072754	156.0
1487.172607	208.0
1487.272339	100.0
1488.431641	80.0
1488.976807	168.0
1489.276367	176.0
1489.814087	160.0
1489.998535	144.0
1490.459473	124.0
1490.974365	200.0
1492.10437	48.0
1492.534912	152.0
1492.942505	64.0
1493.742432	180.0
1494.642578	144.0
1495.204346	92.0
1495.55835	156.0
1495.70459	132.0
1497.791382	184.0
1498.076416	120.0
1498.292114	136.0
1498.561768	144.0
1498.708252	136.0
1499.68689	188.0
1500.241943	164.0
1500.388428	48.0
1500.92041	96.0
1501.946167	108.0
1502.007935	60.0
1502.06189	112.0
1502.293335	156.0
1502.601929	164.0
1502.717651	104.0
1502.7948	160.0
1503.088013	324.0
1503.489258	96.0
1503.558716	148.0
1503.674561	120.0
1504.199341	132.0
1504.315186	176.0
1504.875122	156.0
1505.118164	116.0
END IONS

BEGIN IONS
PEPMASS=218.015
CHARGE=1
MSLEVEL=2
SOURCE_INSTRUMENT=LC-ESI-qTof
FILENAME=p4-F06_GF6_01_18390.mzXML
SEQ=*..*
IONMODE=Positive
ORGANISM=GNPS-NIH-SMALLMOLECULEPHARMACOLOGICALLYACTIVE
NAME=MLS002207241-01!Propanil709-98-8 M+H
PI=Dorrestein
DATACOLLECTOR=VP/LMS
SMILES=CCC(=O)Nc1ccc(Cl)c(Cl)c1
INCHI=N/A
INCHIAUX=N/A
PUBMED=N/A
SUBMITUSER=vphelan
LIBRARYQUALITY=1
SPECTRUMID=CCMSLIB00000085785
USI=mzspec:GNPS:GNPS-NIH-SMALLMOLECULEPHARMACOLOGICALLYACTIVE:accession:CCMSLIB00000085785
SCANS=2059
44.961533	160.0
44.977551	184.0
45.376217	188.0
45.691845	144.0
45.722794	36.0
45.832512	228.0
45.90871	68.0
46.108521	168.0
46.228886	176.0
46.552891	160.0
46.709194	136.0
46.947552	172.0
46.973469	148.0
47.069008	216.0
47.456245	120.0
47.612686	180.0
47.666264	180.0
47.996635	212.0
48.19817	208.0
48.282497	36.0
48.486019	220.0
48.53315	164.0
48.567822	140.0
48.652473	120.0
48.695518	200.0
48.895733	212.0
49.160526	60.0
49.354702	132.0
49.470829	216.0
49.570274	184.0
49.617931	44.0
49.732964	208.0
49.797554	172.0
49.9142	100.0
50.007294	116.0
50.069588	168.0
50.338364	124.0
50.806873	136.0
51.194923	128.0
51.303215	204.0
51.481575	92.0
51.551575	160.0
51.716049	128.0
51.908031	160.0
52.327606	188.0
52.548126	152.0
52.654953	140.0
52.899319	152.0
53.012295	120.0
53.376667	152.0
53.398479	180.0
53.682476	140.0
53.83717	212.0
53.965763	172.0
54.009636	232.0
54.142826	156.0
54.21022	136.0
54.258591	168.0
54.284985	188.0
54.390621	180.0
54.412643	192.0
54.465511	60.0
54.611031	40.0
54.683125	64.0
54.709621	172.0
54.856747	152.0
55.192093	164.0
55.4156	196.0
55.451164	156.0
55.503052	192.0
55.71233	188.0
56.553375	112.0
56.649212	168.0
56.788616	176.0
56.98077	88.0
57.040882	76.0
57.394691	144.0
57.785759	212.0
57.869148	144.0
57.926697	228.0
58.105591	152.0
58.135937	108.0
58.158703	244.0
58.248295	168.0
58.47942	120.0
58.490078	152.0
58.55555	200.0
58.602776	204.0
58.706432	172.0
58.735409	36.0
59.089836	148.0
59.951286	288.0
59.975945	36.0
60.320175	224.0
60.761547	152.0
60.834488	156.0
60.899708	56.0
60.996048	152.0
61.241905	184.0
61.541332	132.0
61.650681	152.0
61.680374	112.0
61.747478	188.0
62.277386	160.0
62.40625	72.0
62.536823	152.0
62.645477	120.0
62.768414	112.0
63.131626	176.0
63.248711	156.0
63.348473	192.0
63.381744	120.0
63.578388	204.0
63.653	92.0
63.73719	176.0
63.975769	144.0
64.060173	132.0
64.345642	152.0
64.625816	192.0
64.766235	140.0
64.814301	144.0
64.833527	148.0
65.424637	156.0
65.456841	136.0
65.489052	136.0
65.80513	176.0
66.382805	144.0
66.847412	188.0
67.43454	152.0
67.570267	144.0
67.786407	184.0
68.027512	180.0
68.198349	160.0
68.315102	200.0
68.394089	216.0
68.664314	160.0
69.204689	192.0
69.277565	144.0
69.363739	124.0
69.45826	48.0
69.522964	208.0
69.547867	184.0
69.619255	176.0
69.910187	76.0
70.035057	168.0
70.42704	96.0
70.651047	164.0
70.692879	132.0
71.879295	184.0
72.388123	156.0
72.805305	148.0
73.139961	140.0
73.628738	144.0
74.055489	120.0
74.136009	192.0
74.184006	136.0
74.525543	176.0
74.826538	168.0
75.506439	168.0
75.752228	184.0
76.078255	140.0
76.324982	188.0
76.370193	132.0
76.432823	124.0
76.741135	140.0
76.947021	196.0
77.922585	172.0
77.945427	124.0
78.036827	140.0
78.198669	116.0
78.320168	120.0
78.771744	128.0
78.85833	224.0
79.330956	204.0
79.346916	192.0
79.499458	136.0
79.513657	164.0
79.53141	220.0
79.705452	220.0
80.180611	148.0
80.592842	216.0
80.852135	200.0
81.041954	172.0
81.076004	148.0
81.135155	100.0
81.404305	220.0
81.454597	184.0
81.468964	196.0
81.744064	116.0
81.799339	208.0
82.221642	208.0
82.554054	192.0
82.753105	164.0
82.861778	48.0
83.023109	116.0
83.072083	188.0
83.370865	188.0
83.606285	80.0
83.957893	148.0
84.359604	176.0
84.502251	172.0
84.696312	240.0
84.963959	160.0
85.277969	208.0
85.452675	160.0
85.478432	128.0
85.579445	164.0
85.645973	120.0
86.092316	104.0
86.134796	100.0
86.147728	160.0
86.195763	148.0
86.23642	76.0
86.325165	176.0
86.474854	172.0
86.547218	84.0
86.745461	240.0
86.825195	224.0
86.851158	132.0
87.157486	260.0
87.389915	224.0
87.977005	176.0
88.029282	160.0
88.062904	148.0
88.2659	84.0
88.335815	176.0
88.354523	164.0
88.369484	224.0
88.391533	200.0
88.414398	180.0
88.536087	104.0
88.670982	212.0
89.192787	124.0
89.260468	120.0
89.399681	240.0
89.548416	144.0
90.625221	140.0
90.651749	156.0
90.829971	176.0
90.932434	148.0
91.01976	120.0
91.086235	128.0
91.242073	160.0
91.297211	184.0
91.985054	148.0
92.049301	344.0
92.583519	144.0
92.619911	196.0
92.690796	64.0
93.014931	188.0
93.055244	176.0
93.306213	96.0
93.528168	48.0
93.865326	192.0
94.160599	168.0
94.288109	196.0
94.733154	112.0
95.132645	208.0
96.26976	188.0
96.297104	180.0
97.062309	100.0
97.505447	236.0
97.551193	112.0
97.905365	172.0
97.929001	232.0
98.157608	184.0
98.175362	160.0
98.272018	160.0
98.301613	236.0
98.754044	172.0
98.894524	108.0
98.99736	336.0
99.100487	252.0
99.130211	148.0
99.219406	196.0
99.542831	148.0
99.616318	192.0
100.005783	1268.0
100.79982	112.0
100.999855	304.0
101.130478	156.0
101.181862	224.0
101.243935	76.0
101.326065	128.0
101.406219	52.0
101.779366	204.0
101.875771	128.0
102.00444	496.0
102.485397	136.0
102.592216	68.0
102.99379	220.0
103.022072	104.0
103.349609	176.0
103.908829	164.0
104.925758	92.0
104.974693	176.0
105.058319	140.0
105.546463	208.0
105.910759	64.0
106.056244	228.0
106.103394	160.0
106.162857	204.0
106.622726	228.0
106.818062	140.0
106.888016	164.0
107.073296	144.0
107.089775	168.0
107.159813	124.0
107.256676	204.0
107.31028	184.0
107.388641	104.0
107.555779	100.0
107.743698	120.0
108.068306	140.0
108.19249	224.0
108.501183	144.0
108.981758	148.0
109.090782	40.0
109.344551	56.0
109.796661	184.0
109.88636	108.0
109.99279	136.0
110.080482	208.0
110.578056	172.0
110.982368	124.0
111.322319	176.0
111.574463	132.0
111.742722	116.0
111.865685	196.0
112.098572	176.0
112.495102	132.0
112.71476	40.0
113.059464	56.0
113.139954	148.0
113.663429	120.0
114.400955	160.0
114.95726	144.0
114.985008	176.0
115.304474	172.0
115.553429	128.0
115.778191	116.0
116.209061	160.0
116.262711	208.0
116.793404	176.0
116.819221	152.0
116.873009	84.0
117.139977	64.0
117.215385	132.0
117.379211	204.0
117.415878	152.0
117.590637	168.0
117.998917	156.0
118.507553	264.0
118.90657	192.0
119.38018	152.0
119.717499	200.0
120.020401	168.0
120.162178	208.0
120.47438	156.0
120.633911	200.0
120.843864	140.0
120.948914	168.0
121.062386	184.0
121.099998	192.0
121.727234	148.0
121.977707	188.0
122.034866	184.0
122.07225	144.0
122.31427	244.0
122.587379	152.0
122.666725	192.0
122.896095	136.0
123.789131	136.0
123.82457	252.0
123.971581	212.0
124.183624	140.0
124.596519	252.0
124.707634	112.0
124.896629	204.0
125.021233	168.0
125.226059	196.0
125.261696	188.0
125.382019	176.0
126.006828	108.0
126.033646	112.0
126.107391	168.0
126.165512	36.0
126.319817	212.0
126.402603	136.0
126.465263	160.0
126.526009	120.0
126.554817	176.0
126.624626	92.0
126.776581	148.0
126.824547	184.0
126.836929	104.0
126.845604	176.0
126.927704	232.0
126.934906	96.0
126.943848	196.0
126.964233	148.0
126.969963	124.0
126.976814	180.0
127.018173	59904.0
127.050224	340.0
127.076225	160.0
127.132759	112.0
127.183563	140.0
127.21138	132.0
127.245399	88.0
127.261116	104.0
127.279076	84.0
127.306023	32.0
127.385841	128.0
127.436813	160.0
127.466438	52.0
127.607132	40.0
127.63636	36.0
127.706078	72.0
127.758354	204.0
127.800835	168.0
127.827568	68.0
128.02066	3596.0
128.042877	200.0
128.08371	104.0
128.111267	44.0
128.176605	104.0
128.254608	72.0
128.282532	148.0
128.318604	76.0
128.63446	124.0
128.677353	120.0
128.742828	60.0
128.763153	132.0
128.871597	100.0
128.905746	136.0
128.940643	156.0
129.014709	12384.0
129.080139	160.0
129.137604	84.0
129.160965	60.0
129.192642	60.0
129.208481	64.0
129.321625	48.0
129.394058	48.0
129.659103	92.0
129.681763	80.0
129.740707	144.0
129.85408	60.0
129.974716	204.0
130.017517	360.0
130.061356	136.0
130.118515	128.0
130.137741	60.0
130.888107	88.0
131.074905	80.0
131.209381	36.0
131.862244	72.0
135.079132	120.0
136.156952	68.0
136.463699	96.0
137.486328	44.0
137.61705	64.0
137.99556	180.0
138.147583	180.0
138.869064	36.0
139.120132	120.0
139.319763	68.0
139.745316	120.0
140.91478	68.0
142.927872	172.0
146.957367	332.0
147.025833	172.0
147.100662	152.0
156.001511	68.0
157.831558	156.0
158.339569	112.0
160.236145	172.0
160.975662	156.0
161.523666	100.0
161.936798	56.0
161.945557	172.0
161.954041	160.0
161.986267	5476.0
162.085724	188.0
162.15921	88.0
162.220047	132.0
162.268219	88.0
162.321472	52.0
162.425461	144.0
162.455902	72.0
162.52948	60.0
162.989105	896.0
163.083115	176.0
163.983414	3248.0
164.030029	96.0
164.073273	124.0
164.114151	52.0
164.26207	100.0
164.295242	80.0
164.795654	56.0
164.989899	176.0
165.029953	160.0
167.031235	132.0
168.017899	132.0
171.081238	56.0
171.474564	124.0
171.977966	160.0
172.955551	176.0
175.113907	132.0
178.084229	164.0
178.121414	72.0
181.411789	96.0
187.668213	48.0
193.966949	124.0
201.077438	44.0
218.00795	172.0
220.01062	168.0
263.585999	72.0
265.281982	36.0
309.852051	56.0
311.999969	52.0
384.552155	128.0
442.902802	68.0
580.899963	88.0
593.914856	220.0
618.94519	156.0
651.357056	124.0
670.174438	208.0
671.870667	76.0
694.148926	184.0
715.246033	132.0
745.80603	56.0
752.414001	176.0
761.416382	132.0
768.286011	196.0
773.630127	116.0
783.694031	172.0
794.075256	256.0
801.597473	144.0
820.689331	184.0
821.750244	256.0
821.91571	52.0
829.883667	148.0
843.678772	116.0
845.182556	100.0
850.584106	168.0
860.883911	72.0
870.781677	160.0
888.200317	144.0
891.329102	204.0
898.384644	104.0
901.136963	144.0
903.026001	148.0
910.746155	192.0
913.679749	172.0
914.973755	132.0
922.569336	84.0
924.595703	144.0
925.970093	100.0
953.462463	100.0
954.329224	56.0
955.448608	196.0
957.110474	156.0
963.377625	160.0
966.214539	160.0
967.960022	72.0
968.443115	204.0
977.028381	224.0
980.185181	240.0
992.198608	152.0
996.290527	160.0
1006.153076	172.0
1010.741882	28.0
1011.938232	192.0
1012.413147	156.0
1016.717834	124.0
1018.158997	176.0
1019.169067	164.0
1022.609558	184.0
1022.832336	144.0
1024.653687	176.0
1043.438599	116.0
1044.647705	180.0
1045.928223	164.0
1049.142822	28.0
1049.478027	80.0
1050.993896	220.0
1053.763794	152.0
1055.03064	204.0
1060.131104	164.0
1061.907593	172.0
1062.712036	120.0
1062.802856	116.0
1068.019653	204.0
1070.323608	92.0
1079.09314	148.0
1082.679077	144.0
1088.358154	152.0
1089.599487	200.0
1089.790039	148.0
1090.940186	236.0
1093.183105	128.0
1096.298096	220.0
1097.069214	128.0
1099.127075	164.0
1101.589722	60.0
1108.742554	208.0
1111.594238	164.0
1118.453125	224.0
1122.297241	196.0
1129.617065	156.0
1131.778931	64.0
1138.558716	208.0
1141.919189	144.0
1149.991089	140.0
1150.740356	152.0
1151.956055	184.0
1153.375122	120.0
1155.81665	152.0
1156.608521	220.0
1158.958496	156.0
1161.066772	132.0
1162.328613	52.0
1164.310913	40.0
1165.64917	228.0
1167.321533	164.0
1173.715698	124.0
1175.468872	144.0
1180.031738	248.0
1182.357544	204.0
1185.028198	176.0
1190.515869	240.0
1192.391479	156.0
1194.743164	60.0
1196.959473	136.0
1203.261719	220.0
1210.265869	204.0
1210.598267	112.0
1215.471558	140.0
1215.693604	160.0
1217.630615	156.0
1221.961426	112.0
1224.571899	80.0
1228.545288	180.0
1228.608032	188.0
1232.741699	216.0
1232.867432	156.0
1234.964966	128.0
1237.66626	60.0
1239.060181	196.0
1240.209473	184.0
1241.471436	172.0
1242.25	120.0
1244.783813	180.0
1250.668457	144.0
1250.886597	228.0
1251.534302	192.0
1252.224487	200.0
1255.706299	172.0
1256.672729	212.0
1256.962036	200.0
1258.507935	64.0
1258.889282	192.0
1261.546021	128.0
1265.85498	88.0
1267.73938	160.0
1268.12915	48.0
1270.384155	192.0
1273.812866	164.0
1274.516235	140.0
1275.482788	124.0
1277.786987	164.0
1279.324219	164.0
1281.012085	176.0
1284.933105	200.0
1285.296997	176.0
1286.98877	152.0
1288.474365	164.0
1290.654419	244.0
1290.918945	64.0
1291.047729	132.0
1294.103271	160.0
1296.130371	180.0
1298.496094	52.0
1299.737183	128.0
1302.264282	156.0
1303.794678	72.0
1303.959961	40.0
1304.247437	172.0
1304.319336	40.0
1305.95874	172.0
1306.375977	248.0
1307.836792	212.0
1308.182373	96.0
1308.743896	136.0
1309.89624	140.0
1311.676147	224.0
1312.844238	44.0
1316.279175	180.0
1316.712524	128.0
1319.697021	156.0
1320.145386	176.0
1321.809204	52.0
1321.939453	212.0
1322.257935	184.0
1324.357666	144.0
1324.690918	216.0
1325.495117	192.0
1325.755981	136.0
1327.524902	112.0
1328.33728	120.0
1328.438843	176.0
1330.848389	200.0
1331.422119	152.0
1331.705322	68.0
1331.807007	184.0
1332.998535	140.0
1333.485474	208.0
1335.383179	212.0
1336.598022	236.0
1338.359619	144.0
1338.636353	140.0
1338.891235	152.0
1339.685181	84.0
1339.794434	192.0
1343.19165	184.0
1344.015991	44.0
1344.877197	208.0
1346.826782	176.0
1347.119019	176.0
1348.405029	44.0
1351.754517	204.0
1352.2229	200.0
1352.581543	184.0
1355.393921	72.0
1357.431885	140.0
1361.460693	92.0
1361.512207	192.0
1363.503174	128.0
1366.348999	152.0
1368.04895	92.0
1368.321411	128.0
1369.831177	168.0
1371.341675	60.0
1371.503906	144.0
1373.354614	152.0
1374.439209	156.0
1375.930176	200.0
1377.709961	168.0
1378.116333	168.0
1379.690674	132.0
1380.008545	152.0
1380.141602	172.0
1381.28064	152.0
1381.332397	132.0
1384.130005	108.0
1387.686768	132.0
1389.125488	104.0
1390.899048	128.0
1391.485596	232.0
1391.634033	172.0
1393.483521	92.0
1394.538696	36.0
1395.378784	192.0
1399.165771	208.0
1400.238037	132.0
1401.206421	60.0
1401.996338	124.0
1403.360474	160.0
1404.195679	156.0
1410.273438	132.0
1410.834106	120.0
1411.01355	184.0
1415.40564	176.0
1417.645508	148.0
1418.185181	132.0
1418.350098	120.0
1418.492432	140.0
1419.452148	184.0
1419.677124	140.0
1420.884888	140.0
1421.867798	156.0
1424.022705	180.0
1425.495239	172.0
1427.524902	204.0
1428.216797	100.0
1432.530151	116.0
1432.929443	144.0
1433.163086	212.0
1435.793945	72.0
1436.012695	112.0
1437.936646	200.0
1438.223511	208.0
1440.186768	104.0
1441.327515	176.0
1443.791992	184.0
1447.008057	204.0
1448.537842	212.0
1448.79541	224.0
1452.426514	148.0
1456.206543	176.0
1456.958618	160.0
1458.539307	224.0
1460.021973	128.0
1460.356567	216.0
1460.88147	52.0
1461.695557	228.0
1461.901001	120.0
1462.943848	40.0
1464.520142	140.0
1465.464722	156.0
1466.478271	160.0
1467.385498	124.0
1471.360474	196.0
1471.780396	204.0
1472.376099	52.0
1473.804688	128.0
1475.226196	164.0
1476.220215	188.0
1478.002563	164.0
1480.161255	208.0
1484.299194	168.0
1485.357544	60.0
1485.817871	168.0
1487.183838	164.0
1491.231689	188.0
1491.869751	52.0
1492.446411	60.0
1493.5	140.0
1493.923584	192.0
1496.578369	132.0
1501.016724	172.0
1501.417847	124.0
1502.582642	124.0
1502.9375	188.0
END IONS

BEGIN IONS
PEPMASS=224.131
CHARGE=1
MSLEVEL=2
SOURCE_INSTRUMENT=LC-ESI-qTof
FILENAME=p4-F09_GF9_01_18393.mzXML
SEQ=*..*
IONMODE=Positive
ORGANISM=GNPS-NIH-SMALLMOLECULEPHARMACOLOGICALLYACTIVE
NAME=MLS001146918-01! M+H
PI=Dorrestein
DATACOLLECTOR=VP/LMS
SMILES=CCN(CC)C(=O)c1ccc(O)c(OC)c1
INCHI=N/A
INCHIAUX=N/A
PUBMED=N/A
SUBMITUSER=vphelan
LIBRARYQUALITY=1
SPECTRUMID=CCMSLIB00000085813
USI=mzspec:GNPS:GNPS-NIH-SMALLMOLECULEPHARMACOLOGICALLYACTIVE:accession:CCMSLIB00000085813
SCANS=1507
44.943115	184.0
45.266609	176.0
45.349674	200.0
45.387211	192.0
45.661175	192.0
45.968342	144.0
46.458149	208.0
46.962833	160.0
47.046074	140.0
47.07338	108.0
47.622581	120.0
47.641811	116.0
47.681664	176.0
48.130768	148.0
48.27742	164.0
48.447506	236.0
49.061783	136.0
49.52153	184.0
49.736065	84.0
49.807678	200.0
50.029869	184.0
50.180622	120.0
50.414948	172.0
51.047222	140.0
51.15963	140.0
51.227985	128.0
51.287838	256.0
51.486164	160.0
51.660549	68.0
51.724945	112.0
51.883961	116.0
51.931282	72.0
52.15097	180.0
52.172531	152.0
52.516701	156.0
53.047394	244.0
53.063343	136.0
53.201172	132.0
53.221497	176.0
53.289764	252.0
53.852093	88.0
54.232521	152.0
54.346912	188.0
54.612823	144.0
54.667259	72.0
54.869061	124.0
55.167282	60.0
55.660671	136.0
55.699287	224.0
56.338371	188.0
56.619587	156.0
56.921021	136.0
57.123928	248.0
57.137466	160.0
57.392014	196.0
57.760521	164.0
57.898258	168.0
57.993713	164.0
58.725079	164.0
59.00148	172.0
59.140686	228.0
59.16671	180.0
59.249413	148.0
59.616146	224.0
59.923901	140.0
60.113567	168.0
60.453548	168.0
60.65955	40.0
60.896961	100.0
61.16441	120.0
61.435562	120.0
61.585423	152.0
61.818378	148.0
62.043934	68.0
62.056477	92.0
62.486835	196.0
63.095631	196.0
63.225342	164.0
63.266495	132.0
63.344093	128.0
63.720089	140.0
63.731213	160.0
63.759815	184.0
63.770943	112.0
63.785248	124.0
64.62413	116.0
64.694557	252.0
65.220726	140.0
65.534546	192.0
65.749023	280.0
65.897583	216.0
66.23085	216.0
66.26487	152.0
67.13942	120.0
67.269958	152.0
67.287918	204.0
67.860573	196.0
68.164238	176.0
68.213547	172.0
68.44059	136.0
68.494942	172.0
69.327682	204.0
69.420525	196.0
69.854027	244.0
70.14212	176.0
70.228828	64.0
70.36734	64.0
70.467552	240.0
71.068649	176.0
71.154251	192.0
71.189514	196.0
71.298714	156.0
71.386139	164.0
71.778503	88.0
72.087425	168.0
72.253136	124.0
72.546127	212.0
72.561386	128.0
72.956161	152.0
73.023285	192.0
73.077721	192.0
73.580521	204.0
73.954903	128.0
74.076477	168.0
74.448685	184.0
74.465858	168.0
74.830429	180.0
75.309845	124.0
75.553589	160.0
76.01796	132.0
76.109962	148.0
76.215919	264.0
76.614357	152.0
76.741585	116.0
77.099442	160.0
77.327522	236.0
77.360069	212.0
77.547501	156.0
77.661469	152.0
78.049599	256.0
78.10939	180.0
78.781044	228.0
78.989647	180.0
79.072807	148.0
79.311928	192.0
79.533653	144.0
80.364761	160.0
80.573662	60.0
81.471245	152.0
81.812943	156.0
82.016502	172.0
82.478607	136.0
83.150597	228.0
83.259529	216.0
83.406372	244.0
83.466698	200.0
83.521263	196.0
83.991226	176.0
84.03318	136.0
84.532028	56.0
84.59243	180.0
85.171898	164.0
85.545197	128.0
85.814178	260.0
86.219887	180.0
86.24617	64.0
86.35157	176.0
86.972282	128.0
87.148712	192.0
87.260231	136.0
87.658569	204.0
87.817039	188.0
87.87114	120.0
88.070892	172.0
88.089569	112.0
88.405563	136.0
88.889053	236.0
89.056145	184.0
89.146324	156.0
89.579079	196.0
90.018547	152.0
90.701561	192.0
91.354813	228.0
91.979866	152.0
92.019958	136.0
92.425179	204.0
92.894577	220.0
93.033493	200.0
93.184479	176.0
93.334404	32.0
93.399796	164.0
93.50177	236.0
93.948814	132.0
94.528473	156.0
94.766647	188.0
95.014435	180.0
95.04921	508.0
95.535492	160.0
95.903534	192.0
96.014664	172.0
96.051727	200.0
96.160995	184.0
96.196129	180.0
96.336739	132.0
96.367996	100.0
96.665222	208.0
97.445641	220.0
97.630417	116.0
98.545074	112.0
99.045601	176.0
99.073334	36.0
99.44812	240.0
99.839523	120.0
100.074905	608.0
100.29747	72.0
100.872368	104.0
100.948349	64.0
100.97435	108.0
101.074371	164.0
101.114395	200.0
102.506149	172.0
102.602898	64.0
102.661377	152.0
102.77636	204.0
104.031212	128.0
104.959	148.0
105.175255	192.0
106.16835	220.0
106.559654	136.0
106.68502	76.0
107.03849	172.0
107.080109	160.0
107.564667	100.0
107.597702	40.0
107.649323	128.0
107.734009	72.0
107.80426	220.0
107.942764	156.0
107.995468	132.0
108.019691	6536.0
108.14946	128.0
108.230392	172.0
108.414764	220.0
108.48938	52.0
108.678123	88.0
108.737808	84.0
108.91687	136.0
109.023293	864.0
109.047775	192.0
109.732666	84.0
109.768112	64.0
109.844032	140.0
109.876572	100.0
109.932915	140.0
110.034256	276.0
110.053673	224.0
110.359047	236.0
110.553589	196.0
111.042107	164.0
111.146637	208.0
111.280975	144.0
111.297775	196.0
111.579323	68.0
111.64241	136.0
111.665543	136.0
112.013046	152.0
112.377579	188.0
113.439278	192.0
114.614616	152.0
114.923798	184.0
114.951538	156.0
115.318878	44.0
115.402252	72.0
115.682518	92.0
115.82814	80.0
116.362137	176.0
116.533966	156.0
116.680115	168.0
117.509323	88.0
117.671204	200.0
117.774864	148.0
117.822388	104.0
117.917465	176.0
118.18779	124.0
119.398285	176.0
119.539696	172.0
119.639816	188.0
119.757408	176.0
119.792259	140.0
119.877235	220.0
120.75489	208.0
121.008736	136.0
121.035118	160.0
121.063477	156.0
121.146713	132.0
121.447029	84.0
121.637939	148.0
121.730148	140.0
122.381035	228.0
122.912262	204.0
123.043121	2884.0
123.080025	80.0
123.150696	76.0
123.166161	80.0
123.210342	60.0
123.429161	64.0
123.508781	144.0
123.814224	160.0
124.048309	116.0
124.408485	72.0
124.763939	136.0
125.137718	208.0
125.476379	192.0
126.459297	128.0
127.028458	292.0
127.044159	248.0
128.544937	196.0
129.677994	100.0
129.875259	184.0
130.056793	192.0
130.181656	140.0
130.954926	140.0
131.292252	140.0
132.283905	72.0
132.992218	140.0
133.658707	64.0
133.819824	136.0
133.981049	176.0
134.405304	68.0
135.031769	180.0
135.193314	176.0
135.95578	76.0
136.015182	2016.0
136.345947	120.0
136.380814	64.0
136.499374	60.0
137.025421	176.0
137.274841	72.0
138.101791	220.0
138.267731	160.0
138.305176	48.0
139.0336	332.0
139.20079	72.0
139.287689	160.0
139.440414	136.0
139.943848	172.0
140.523666	160.0
141.054077	776.0
141.109421	56.0
141.274979	188.0
141.442993	116.0
141.542435	212.0
141.864655	80.0
141.921555	60.0
141.999817	176.0
142.05191	192.0
142.170639	188.0
143.064377	180.0
143.121521	104.0
143.278717	256.0
144.666275	172.0
144.690216	172.0
144.886597	184.0
144.956085	212.0
146.262634	128.0
146.356537	128.0
146.770981	212.0
147.142563	156.0
147.833878	164.0
148.15834	168.0
148.340103	180.0
148.555939	88.0
148.912766	164.0
149.009933	236.0
149.238403	80.0
149.313797	84.0
149.971191	176.0
150.044312	140.0
150.14917	44.0
150.393158	160.0
150.56163	136.0
150.605591	84.0
150.686218	132.0
150.717972	148.0
150.769302	160.0
150.810852	232.0
150.830399	112.0
150.93309	204.0
150.95372	152.0
150.984879	200.0
151.038986	39032.0
151.089432	52.0
151.113937	80.0
151.139557	116.0
151.180527	160.0
151.221771	144.0
151.265823	64.0
151.320389	124.0
151.34906	92.0
151.439987	128.0
151.522964	44.0
151.586685	48.0
151.608734	52.0
151.733749	96.0
151.770523	48.0
151.807312	84.0
151.949585	56.0
152.006012	84.0
152.041321	3112.0
152.10173	180.0
152.126282	28.0
152.160645	44.0
152.185211	60.0
152.288345	68.0
152.330109	60.0
152.357132	40.0
152.376785	40.0
152.605362	104.0
152.647171	96.0
152.757263	84.0
152.816895	36.0
153.014359	104.0
153.037537	288.0
153.051315	324.0
153.168945	72.0
153.23053	56.0
153.306931	136.0
153.335648	68.0
154.242371	60.0
154.36351	32.0
155.542862	88.0
156.965988	132.0
160.108612	76.0
160.191742	60.0
160.635422	76.0
160.791855	104.0
161.014038	112.0
163.969818	124.0
165.031784	84.0
166.957626	192.0
171.157745	44.0
200.737259	52.0
208.098877	164.0
208.854691	192.0
209.100464	384.0
210.11647	212.0
222.046722	84.0
224.127762	476.0
225.022522	48.0
225.138992	148.0
226.0448	184.0
233.517944	68.0
237.976654	112.0
241.539322	100.0
252.070068	60.0
296.755249	56.0
299.50116	56.0
308.006744	40.0
345.151337	44.0
462.344971	72.0
523.860901	64.0
542.464172	164.0
628.981873	88.0
747.148193	148.0
789.845398	160.0
797.521851	112.0
802.690186	84.0
824.507507	152.0
824.976257	140.0
877.377441	232.0
880.475403	152.0
893.123901	116.0
918.558899	152.0
934.857666	96.0
949.655273	124.0
952.208557	232.0
952.251587	80.0
967.501404	232.0
970.518738	164.0
975.230774	180.0
978.0672	68.0
983.515137	200.0
988.515137	96.0
1008.882019	204.0
1009.672424	216.0
1010.260681	164.0
1012.032837	160.0
1014.022034	216.0
1015.137817	220.0
1022.914795	176.0
1024.226562	36.0
1029.086182	168.0
1037.018799	196.0
1063.178955	144.0
1063.743652	176.0
1073.07959	260.0
1079.498413	72.0
1079.681519	120.0
1080.976807	216.0
1097.695557	168.0
1100.849854	144.0
1108.682861	176.0
1117.940552	200.0
1119.005615	216.0
1119.638184	168.0
1121.263916	200.0
1126.101074	32.0
1128.854614	216.0
1138.283325	164.0
1143.150391	124.0
1143.325317	208.0
1149.680664	268.0
1151.233398	212.0
1151.929077	212.0
1153.375122	140.0
1156.033203	240.0
1162.939453	116.0
1166.464844	196.0
1167.940552	84.0
1170.86731	116.0
1172.284302	188.0
1176.226562	168.0
1177.05957	176.0
1181.344971	168.0
1184.36377	160.0
1189.870605	124.0
1192.467285	192.0
1197.483154	208.0
1201.046631	108.0
1201.536499	176.0
1202.902954	156.0
1204.898804	172.0
1210.86853	196.0
1223.27002	112.0
1225.965576	144.0
1232.602173	188.0
1233.538696	168.0
1233.699463	64.0
1233.860352	84.0
1235.713745	236.0
1239.663086	204.0
1240.770508	132.0
1243.990723	212.0
1245.282715	136.0
1245.964111	132.0
1250.380127	144.0
1251.203735	128.0
1257.117676	164.0
1261.185791	208.0
1264.248291	212.0
1268.547729	120.0
1274.412476	208.0
1274.893311	180.0
1276.343506	256.0
1281.603882	136.0
1283.671021	216.0
1287.024902	168.0
1287.503418	120.0
1287.924805	220.0
1289.811279	228.0
1290.34021	180.0
1290.533325	136.0
1290.833618	120.0
1292.142578	192.0
1294.196777	160.0
1294.311401	196.0
1295.056152	236.0
1296.152344	172.0
1299.292847	84.0
1300.821411	200.0
1307.930908	228.0
1312.318359	240.0
1313.356812	168.0
1314.309082	160.0
1321.505859	136.0
1321.932861	160.0
1323.453003	136.0
1323.952637	152.0
1324.619019	204.0
1325.00293	72.0
1328.025879	164.0
1331.21936	144.0
1333.173584	132.0
1333.267944	52.0
1333.769531	140.0
1334.169312	164.0
1339.700317	192.0
1342.667114	200.0
1345.848755	200.0
1346.542603	172.0
1350.123779	252.0
1352.948242	96.0
1353.709717	84.0
1355.33606	164.0
1355.863647	180.0
1356.889893	92.0
1357.021851	112.0
1357.124512	88.0
1361.924194	156.0
1362.408936	156.0
1366.371704	220.0
1366.423218	76.0
1367.063354	128.0
1367.696411	148.0
1368.704956	192.0
1371.180298	160.0
1371.320312	200.0
1376.410767	252.0
1380.770996	136.0
1384.612183	144.0
1384.760376	176.0
1387.175903	180.0
1390.061157	140.0
1390.825562	204.0
1392.466553	84.0
1398.407227	204.0
1405.539429	116.0
1412.353027	144.0
1414.740112	160.0
1415.885864	152.0
1416.559937	136.0
1417.301636	132.0
1425.323242	188.0
1427.420532	184.0
1428.255371	180.0
1428.654053	128.0
1430.377441	204.0
1433.465454	232.0
1433.72168	180.0
1433.955322	216.0
1438.216919	140.0
1439.062378	156.0
1441.99353	124.0
1446.993774	132.0
1447.857056	184.0
1449.28125	136.0
1451.267212	176.0
1453.838745	156.0
1457.46106	180.0
1462.335815	204.0
1462.411987	176.0
1462.564209	136.0
1464.117432	212.0
1470.094482	220.0
1470.27002	180.0
1473.354858	168.0
1474.416992	168.0
1476.328369	172.0
1485.550415	172.0
1485.8573	212.0
1495.37085	144.0
1495.824951	136.0
1500.601562	212.0
1503.417114	152.0
1504.767944	128.0
END IONS

BEGIN IONS
PEPMASS=300.083
CHARGE=1
MSLEVEL=2
SOURCE_INSTRUMENT=LC-ESI-qTof
FILENAME=p4-G08_GG8_01_18404.mzXML
SEQ=*..*
IONMODE=Positive
ORGANISM=GNPS-NIH-SMALLMOLECULEPHARMACOLOGICALLYACTIVE
NAME=MLS000069723-01!FENBENDAZOLE43210-67-9 M+H
PI=Dorrestein
DATACOLLECTOR=VP/LMS
SMILES=COC(=O)Nc1nc2cc(Sc3ccccc3)ccc2[nH]1
INCHI=N/A
INCHIAUX=N/A
PUBMED=N/A
SUBMITUSER=vphelan
LIBRARYQUALITY=1
SPECTRUMID=CCMSLIB00000085891
USI=mzspec:GNPS:GNPS-NIH-SMALLMOLECULEPHARMACOLOGICALLYACTIVE:accession:CCMSLIB00000085891
SCANS=1861
44.894836	208.0
44.919537	152.0
44.928875	280.0
44.974792	196.0
44.988934	168.0
45.008762	216.0
45.026665	116.0
45.050663	180.0
45.067028	212.0
45.099808	88.0
45.13858	140.0
45.157303	120.0
45.176033	60.0
45.189411	184.0
45.227943	136.0
45.236397	224.0
45.253658	148.0
45.26437	172.0
45.277763	120.0
45.295483	192.0
45.325989	176.0
45.335369	176.0
45.346092	256.0
45.367542	212.0
45.378414	144.0
45.391674	140.0
45.401505	280.0
45.414474	60.0
45.42923	112.0
45.484253	84.0
45.495373	196.0
45.520504	172.0
45.535275	160.0
45.548706	60.0
45.558834	116.0
45.57692	108.0
45.593048	132.0
45.602455	168.0
45.615898	36.0
45.626205	200.0
45.636066	192.0
45.650593	184.0
45.668949	92.0
45.679901	148.0
45.701973	152.0
45.714085	200.0
45.723438	160.0
45.746872	324.0
45.773315	68.0
45.782745	148.0
45.800255	136.0
45.817768	192.0
45.844715	216.0
45.864643	224.0
45.884136	164.0
45.90324	360.0
45.917519	104.0
45.92831	116.0
45.963387	96.0
45.979584	152.0
45.997131	284.0
46.019264	132.0
46.095726	56.0
46.107887	152.0
46.121407	100.0
46.134922	272.0
46.15115	152.0
46.170082	120.0
46.189453	112.0
46.202545	320.0
46.213066	136.0
46.227924	148.0
46.246605	208.0
46.332649	164.0
46.350132	200.0
46.378029	164.0
46.396214	152.0
46.408417	40.0
46.421978	148.0
46.436604	148.0
46.468098	224.0
46.478954	180.0
46.488403	112.0
46.498032	144.0
46.523975	212.0
46.539486	184.0
46.572632	280.0
46.5998	148.0
46.619083	148.0
46.646008	188.0
46.675983	340.0
46.722168	152.0
46.731689	136.0
46.745296	36.0
46.75864	204.0
46.772518	184.0
46.86245	208.0
46.88792	276.0
46.919647	112.0
46.945557	56.0
46.96056	316.0
46.975601	152.0
46.99057	156.0
47.002914	88.0
47.037506	184.0
47.094322	112.0
47.118912	160.0
47.132576	204.0
47.159184	248.0
47.188618	184.0
47.225739	84.0
47.240139	268.0
47.25938	120.0
47.323917	172.0
47.340508	240.0
47.361053	132.0
47.378349	352.0
47.396782	104.0
47.42033	168.0
47.437794	112.0
47.45013	156.0
47.460644	168.0
47.483078	152.0
47.529686	176.0
47.573608	232.0
47.594204	104.0
47.61068	160.0
47.625324	124.0
47.646397	164.0
47.658665	168.0
47.680748	180.0
47.716446	212.0
47.735977	164.0
47.753281	320.0
47.770126	112.0
47.780579	188.0
47.804527	216.0
47.822418	152.0
47.837864	168.0
47.859589	124.0
47.87394	104.0
47.911846	332.0
47.929726	144.0
47.960159	128.0
47.990917	232.0
48.060837	152.0
48.076015	64.0
48.105003	148.0
48.116989	164.0
48.136761	228.0
48.157475	180.0
48.174053	84.0
48.209976	132.0
48.223515	156.0
48.237621	368.0
48.258358	36.0
48.272438	200.0
48.291771	100.0
48.303307	132.0
48.316448	116.0
48.333054	140.0
48.344879	196.0
48.360733	136.0
48.378727	108.0
48.391415	196.0
48.407806	156.0
48.427197	164.0
48.472366	152.0
48.499249	116.0
48.53783	140.0
48.550945	140.0
48.56427	148.0
48.574287	176.0
48.597713	96.0
48.62318	192.0
48.633408	200.0
48.669891	236.0
48.693501	140.0
48.704613	120.0
48.730209	200.0
48.773506	160.0
48.796337	156.0
48.83498	132.0
48.847794	156.0
48.864487	112.0
48.875301	140.0
48.897781	316.0
48.920158	156.0
48.943829	184.0
48.957905	148.0
48.973072	180.0
48.992702	220.0
49.013477	160.0
49.034378	384.0
49.072018	136.0
49.091541	140.0
49.102547	296.0
49.111515	144.0
49.131992	108.0
49.145454	200.0
49.155712	80.0
49.171062	160.0
49.189209	128.0
49.221321	116.0
49.244514	152.0
49.267414	232.0
49.278591	128.0
49.289772	180.0
49.304249	100.0
49.326111	96.0
49.353767	128.0
49.368439	320.0
49.39299	208.0
49.394917	156.0
49.41209	376.0
49.452	92.0
49.491199	116.0
49.506603	84.0
49.592068	184.0
49.609936	204.0
49.635529	132.0
49.669762	128.0
49.707691	136.0
49.732677	180.0
49.767433	120.0
49.777264	112.0
49.808163	168.0
49.818974	172.0
49.837688	224.0
49.858746	160.0
49.90889	156.0
49.933167	184.0
49.949535	140.0
49.96843	164.0
49.983009	176.0
50.010647	296.0
50.052883	148.0
50.086685	80.0
50.112041	124.0
50.128498	112.0
50.163406	144.0
50.188156	132.0
50.247398	164.0
50.269974	72.0
50.303406	204.0
50.32534	180.0
50.349033	128.0
50.367397	140.0
50.399918	200.0
50.406784	132.0
50.411594	184.0
50.429642	216.0
50.446423	132.0
50.46067	176.0
50.475227	176.0
50.496021	152.0
50.518703	244.0
50.559689	132.0
50.587395	196.0
50.605736	76.0
50.622055	156.0
50.649288	204.0
50.671165	136.0
50.68401	168.0
50.706985	92.0
50.727219	248.0
50.763695	188.0
50.778698	148.0
50.785011	212.0
50.814762	132.0
50.828949	216.0
50.84882	96.0
50.86977	116.0
50.892735	184.0
50.946667	208.0
50.955647	140.0
50.979481	148.0
50.995113	348.0
51.011452	160.0
51.036503	140.0
51.071247	152.0
51.083275	132.0
51.138771	148.0
51.161549	148.0
51.18433	132.0
51.194298	160.0
51.212814	168.0
51.229908	184.0
51.256798	156.0
51.29546	164.0
51.32814	148.0
51.373898	284.0
51.39304	244.0
51.406715	120.0
51.419559	536.0
51.435654	136.0
51.455246	84.0
51.466667	140.0
51.49107	140.0
51.515594	188.0
51.549522	240.0
51.560074	208.0
51.581799	96.0
51.606701	296.0
51.633762	160.0
51.655327	88.0
51.68642	120.0
51.691551	88.0
51.72831	156.0
51.748684	104.0
51.769833	164.0
51.801342	240.0
51.840565	160.0
51.874195	172.0
51.879246	72.0
51.91362	96.0
51.93763	108.0
51.959042	164.0
51.995941	84.0
52.045162	96.0
52.059254	128.0
52.073887	176.0
52.103313	132.0
52.131355	32.0
52.143909	136.0
52.168331	204.0
52.212746	104.0
52.25013	212.0
52.260445	244.0
52.271053	252.0
52.302509	204.0
52.319786	148.0
52.346207	468.0
52.361546	156.0
52.374508	88.0
52.379444	140.0
52.385368	148.0
52.398998	128.0
52.417164	168.0
52.445114	176.0
52.45924	120.0
52.479713	40.0
52.505669	152.0
52.51865	120.0
52.533077	140.0
52.553276	116.0
52.566261	112.0
52.57925	92.0
52.595314	216.0
52.623009	128.0
52.644863	188.0
52.66444	136.0
52.681774	100.0
52.700737	136.0
52.730904	88.0
52.767044	324.0
52.781502	160.0
52.806736	152.0
52.823444	116.0
52.840118	128.0
52.850937	176.0
52.876534	180.0
52.906887	140.0
52.923309	176.0
52.956448	168.0
52.965462	188.0
53.004978	208.0
53.018921	84.0
53.038792	212.0
53.066757	200.0
53.132023	136.0
53.150887	68.0
53.162495	152.0
53.181362	120.0
53.222015	100.0
53.234013	316.0
53.249607	52.0
53.259773	180.0
53.272846	168.0
53.291737	200.0
53.310341	164.0
53.329521	160.0
53.341148	208.0
53.366138	128.0
53.386223	160.0
53.410542	128.0
53.412998	216.0
53.444412	76.0
53.482449	188.0
53.507	152.0
53.53323	260.0
53.554379	112.0
53.581276	120.0
53.60022	160.0
53.613289	128.0
53.639877	172.0
53.673439	52.0
53.690605	212.0
53.708107	136.0
53.721237	180.0
53.735825	128.0
53.760632	124.0
53.779266	132.0
53.794205	100.0
53.814644	144.0
53.827785	136.0
53.849964	220.0
53.864384	140.0
53.873779	196.0
53.88448	64.0
53.903942	212.0
53.939251	192.0
54.00024	168.0
54.014866	124.0
54.035347	236.0
54.106331	128.0
54.115902	208.0
54.138428	124.0
54.172966	204.0
54.190281	132.0
54.194889	108.0
54.199562	236.0
54.222607	160.0
54.263836	144.0
54.281254	168.0
54.310505	160.0
54.315697	132.0
54.3363	256.0
54.360645	172.0
54.394405	136.0
54.429131	172.0
54.453201	188.0
54.477253	212.0
54.492802	136.0
54.535419	88.0
54.552738	160.0
54.600761	164.0
54.621845	160.0
54.656017	152.0
54.669262	124.0
54.692299	196.0
54.719845	256.0
54.739925	148.0
54.755306	180.0
54.790043	160.0
54.825371	136.0
54.839352	164.0
54.853374	132.0
54.863693	52.0
54.886822	292.0
54.907932	212.0
54.927402	200.0
54.971371	132.0
54.990555	124.0
55.03286	140.0
55.046658	52.0
55.061424	116.0
55.083672	132.0
55.097439	116.0
55.116085	128.0
55.129387	108.0
55.145645	124.0
55.155991	132.0
55.182167	116.0
55.195774	88.0
55.201302	196.0
55.206978	132.0
55.27216	176.0
55.277515	96.0
55.282452	192.0
55.295654	228.0
55.310486	192.0
55.363132	104.0
55.384315	172.0
55.409229	204.0
55.425354	184.0
55.449062	92.0
55.463326	232.0
55.475746	144.0
55.49057	156.0
55.502434	112.0
55.524677	96.0
55.539513	108.0
55.551376	124.0
55.561764	84.0
55.638832	148.0
55.655983	196.0
55.683487	152.0
55.748859	156.0
55.769665	132.0
55.787506	192.0
55.811565	152.0
55.82914	148.0
55.864979	152.0
55.887154	156.0
55.906498	172.0
55.936268	88.0
55.96101	192.0
56.003895	260.0
56.026676	192.0
56.053932	116.0
56.074795	192.0
56.090652	204.0
56.115047	84.0
56.125484	164.0
56.149345	88.0
56.177723	152.0
56.198574	72.0
56.223942	264.0
56.250809	208.0
56.273205	252.0
56.285149	284.0
56.309925	156.0
56.320992	232.0
56.332344	220.0
56.350872	64.0
56.37384	108.0
56.404675	156.0
56.424107	160.0
56.443077	140.0
56.459995	296.0
56.499332	184.0
56.538033	176.0
56.558746	120.0
56.570724	104.0
56.588688	120.0
56.603664	184.0
56.614071	128.0
56.637302	104.0
56.66058	236.0
56.687553	204.0
56.704037	192.0
56.723526	148.0
56.738518	64.0
56.767006	108.0
56.777504	352.0
56.812004	196.0
56.822506	420.0
56.867851	148.0
56.88512	100.0
56.905567	200.0
56.941097	120.0
56.96513	156.0
56.984936	224.0
57.012299	200.0
57.053219	260.0
57.077854	156.0
57.088383	284.0
57.10643	140.0
57.147049	132.0
57.162098	132.0
57.177147	172.0
57.218563	156.0
57.237362	124.0
57.252422	140.0
57.275536	184.0
57.310833	124.0
57.344326	160.0
57.372971	108.0
57.410576	136.0
57.449463	208.0
57.460445	168.0
57.478619	180.0
57.504208	76.0
57.514774	400.0
57.536098	200.0
57.579178	104.0
57.593292	60.0
57.603867	212.0
57.621998	44.0
57.646172	76.0
57.663712	152.0
57.678944	176.0
57.713215	172.0
57.736881	148.0
57.757023	152.0
57.77441	168.0
57.801933	148.0
57.82093	212.0
57.848854	148.0
57.86702	104.0
57.877621	180.0
57.902016	220.0
57.921539	116.0
57.933659	164.0
57.944267	320.0
57.956387	208.0
57.994274	48.0
58.026112	96.0
58.042789	132.0
58.053406	72.0
58.070087	156.0
58.095875	148.0
58.111187	132.0
58.142914	208.0
58.164165	92.0
58.188354	304.0
58.205158	172.0
58.23061	184.0
58.256798	44.0
58.270473	140.0
58.290226	116.0
58.303902	168.0
58.322922	164.0
58.370792	144.0
58.39817	128.0
58.422508	192.0
58.436237	172.0
58.446854	192.0
58.468159	208.0
58.48241	168.0
58.500019	120.0
58.538189	52.0
58.561031	124.0
58.602165	264.0
58.644836	112.0
58.658554	324.0
58.687523	112.0
58.706379	164.0
58.73785	92.0
58.7882	216.0
58.799915	100.0
58.852314	100.0
58.892021	188.0
58.91341	156.0
58.941208	124.0
58.951607	152.0
58.974483	240.0
58.986717	132.0
58.991295	112.0
59.00927	244.0
59.029934	156.0
59.057102	164.0
59.070572	184.0
59.094898	368.0
59.139591	132.0
59.143852	144.0
59.16116	120.0
59.191784	104.0
59.202503	188.0
59.221848	116.0
59.240795	92.0
59.268669	208.0
59.2827	172.0
59.295959	180.0
59.30748	272.0
59.345592	192.0
59.397953	348.0
59.426308	160.0
59.435947	92.0
59.450863	172.0
59.467743	60.0
59.489235	284.0
59.53154	152.0
59.547798	144.0
59.561409	108.0
59.584454	204.0
59.606079	164.0
59.618889	176.0
59.632092	136.0
59.651367	108.0
59.662834	128.0
59.707428	144.0
59.719734	184.0
59.747807	160.0
59.763802	192.0
59.801285	112.0
59.828991	228.0
59.853085	176.0
59.878803	184.0
59.922943	68.0
59.933727	200.0
59.975395	112.0
59.99123	156.0
60.027821	100.0
60.041637	132.0
60.066704	144.0
60.088528	152.0
60.100262	132.0
60.122662	180.0
60.155823	72.0
60.192909	192.0
60.208321	148.0
60.238674	172.0
60.274216	224.0
60.311993	204.0
60.357807	148.0
60.36314	156.0
60.36919	176.0
60.399422	176.0
60.427341	152.0
60.43763	156.0
60.453148	156.0
60.500484	144.0
60.530495	184.0
60.571808	92.0
60.594738	160.0
60.616741	224.0
60.627586	184.0
60.641537	200.0
60.653938	140.0
60.678127	192.0
60.693447	124.0
60.722164	208.0
60.738644	128.0
60.742695	168.0
60.773357	176.0
60.807793	148.0
60.824718	296.0
60.840355	144.0
60.886051	188.0
60.899693	92.0
60.916191	192.0
60.927067	196.0
60.980999	136.0
61.021252	192.0
61.052975	116.0
61.07164	280.0
61.099251	96.0
61.129204	160.0
61.15255	184.0
61.185242	184.0
61.202366	188.0
61.237888	296.0
61.246681	212.0
61.255753	216.0
61.27264	136.0
61.292713	168.0
61.316898	216.0
61.359596	176.0
61.40028	132.0
61.417439	40.0
61.435287	132.0
61.458	156.0
61.479645	152.0
61.493896	144.0
61.512627	160.0
61.525116	132.0
61.555126	236.0
61.573524	116.0
61.600079	184.0
61.670395	120.0
61.695408	216.0
61.737625	64.0
61.78997	216.0
61.801762	140.0
61.816616	236.0
61.831497	164.0
61.854866	116.0
61.8815	208.0
61.92366	176.0
61.956768	376.0
61.999077	128.0
62.014324	148.0
62.033558	144.0
62.063026	136.0
62.08102	184.0
62.109222	204.0
62.137543	232.0
62.166882	76.0
62.18803	228.0
62.207821	148.0
62.229671	140.0
62.249252	128.0
62.27454	140.0
62.300789	228.0
62.327057	56.0
62.341404	124.0
62.348537	144.0
62.352745	220.0
62.388958	316.0
62.423363	152.0
62.44746	192.0
62.473282	148.0
62.513683	160.0
62.5378	200.0
62.572433	124.0
62.587265	220.0
62.607075	192.0
62.618099	148.0
62.670086	148.0
62.695301	100.0
62.714214	148.0
62.759434	164.0
62.770542	220.0
62.797291	168.0
62.823021	152.0
62.835644	140.0
62.852303	272.0
62.879829	104.0
62.911396	120.0
62.925606	168.0
62.955608	84.0
62.966663	100.0
62.986862	168.0
63.011574	140.0
63.082016	52.0
63.096241	160.0
63.116798	56.0
63.137356	172.0
63.166119	108.0
63.186108	176.0
63.190392	144.0
63.227852	120.0
63.260296	92.0
63.290394	136.0
63.335995	136.0
63.342979	176.0
63.376396	136.0
63.408314	200.0
63.425526	280.0
63.46516	200.0
63.496052	104.0
63.523346	188.0
63.536533	124.0
63.548992	108.0
63.555664	180.0
63.625088	140.0
63.639534	168.0
63.658943	176.0
63.735008	96.0
63.74931	220.0
63.763466	172.0
63.767323	156.0
63.773708	68.0
63.779823	180.0
63.796993	44.0
63.810905	176.0
63.828026	176.0
63.843105	144.0
63.864021	160.0
63.886963	212.0
63.91151	188.0
63.944927	96.0
63.975174	204.0
63.987301	148.0
64.010201	100.0
64.022942	112.0
64.034088	152.0
64.072319	108.0
64.103226	172.0
64.142441	196.0
64.159981	104.0
64.172737	244.0
64.199844	188.0
64.21579	132.0
64.238121	328.0
64.282837	184.0
64.300354	148.0
64.324753	132.0
64.340263	152.0
64.357826	272.0
64.369003	108.0
64.384972	152.0
64.396156	124.0
64.439285	216.0
64.481918	220.0
64.504814	36.0
64.530388	156.0
64.544785	176.0
64.560776	116.0
64.583168	108.0
64.599159	136.0
64.61882	140.0
64.634361	172.0
64.656769	140.0
64.671173	208.0
64.71492	388.0
64.73201	144.0
64.752312	112.0
64.793037	80.0
64.815216	72.0
64.828125	300.0
64.856979	76.0
64.873009	128.0
64.896416	120.0
64.928413	144.0
64.943565	144.0
64.962097	152.0
64.996506	236.0
65.01107	164.0
65.025864	152.0
65.038239	204.0
65.068298	160.0
65.086403	104.0
65.100853	156.0
65.135963	116.0
65.157074	108.0
65.174751	108.0
65.188171	148.0
65.208496	180.0
65.231003	236.0
65.266373	148.0
65.285667	136.0
65.317833	148.0
65.332314	184.0
65.344925	252.0
65.38398	184.0
65.403122	156.0
65.455368	208.0
65.483627	304.0
65.499741	248.0
65.510635	236.0
65.52874	132.0
65.568329	260.0
65.604485	176.0
65.62706	192.0
65.641571	188.0
65.665764	128.0
65.691574	144.0
65.710594	192.0
65.741379	212.0
65.760017	168.0
65.783142	156.0
65.801315	188.0
65.844528	116.0
65.901459	160.0
65.927315	144.0
65.972572	144.0
66.025299	112.0
66.051811	180.0
66.069237	140.0
66.073624	108.0
66.080025	192.0
66.097115	76.0
66.110062	176.0
66.126465	144.0
66.147285	372.0
66.194237	208.0
66.207191	388.0
66.276154	260.0
66.304367	196.0
66.320503	120.0
66.372795	192.0
66.414658	136.0
66.469818	152.0
66.490707	160.0
66.495689	136.0
66.529877	172.0
66.552956	168.0
66.57534	252.0
66.586159	140.0
66.616348	136.0
66.639099	160.0
66.667946	120.0
66.704391	132.0
66.734047	144.0
66.75248	52.0
66.76841	156.0
66.799644	80.0
66.848457	28.0
66.895027	144.0
66.900322	88.0
66.904343	132.0
66.941841	252.0
66.991745	312.0
67.012062	156.0
67.027092	244.0
67.041916	116.0
67.044846	216.0
67.074852	156.0
67.10746	80.0
67.126167	240.0
67.135765	160.0
67.225342	180.0
67.303337	84.0
67.317963	124.0
67.332657	164.0
67.356148	136.0
67.382423	180.0
67.42318	240.0
67.447037	40.0
67.474823	156.0
67.487679	88.0
67.499352	108.0
67.512772	116.0
67.541878	80.0
67.572578	156.0
67.620415	136.0
67.644073	204.0
67.663269	136.0
67.687157	208.0
67.707191	132.0
67.750664	192.0
67.794022	168.0
67.810043	180.0
67.830139	108.0
67.848114	72.0
67.863197	192.0
67.877151	180.0
67.894028	152.0
67.92215	108.0
67.970268	132.0
67.991104	164.0
68.01223	184.0
68.03186	96.0
68.047607	176.0
68.081116	212.0
68.116142	160.0
68.133636	140.0
68.197868	140.0
68.215851	112.0
68.230057	200.0
68.249847	184.0
68.279083	192.0
68.321106	208.0
68.345787	164.0
68.358948	152.0
68.372116	132.0
68.394539	288.0
68.429733	144.0
68.468376	180.0
68.489014	92.0
68.503487	184.0
68.530205	148.0
68.550941	124.0
68.594482	140.0
68.619209	108.0
68.630257	208.0
68.643944	196.0
68.674988	180.0
68.719162	180.0
68.734673	320.0
68.755157	212.0
68.785583	132.0
68.788429	112.0
68.7948	196.0
68.830414	160.0
68.842316	168.0
68.853531	136.0
68.898132	104.0
68.926224	96.0
68.960136	156.0
69.010803	156.0
69.041054	148.0
69.061089	396.0
69.091568	160.0
69.104805	168.0
69.124664	136.0
69.150444	236.0
69.183685	176.0
69.224884	184.0
69.255905	176.0
69.292267	144.0
69.324936	300.0
69.359016	168.0
69.375946	124.0
69.380119	88.0
69.387337	144.0
69.394394	172.0
69.411247	164.0
69.42466	264.0
69.487541	104.0
69.504135	108.0
69.524048	84.0
69.540794	92.0
69.568871	112.0
69.605247	312.0
69.617958	192.0
69.622864	108.0
69.629028	140.0
69.663918	288.0
69.71698	100.0
69.729996	180.0
69.760902	168.0
69.778664	160.0
69.791504	168.0
69.813126	180.0
69.823708	132.0
69.844833	168.0
69.852333	112.0
69.858894	232.0
69.887978	128.0
69.950874	132.0
69.977341	44.0
69.997841	164.0
70.029488	236.0
70.048019	160.0
70.067947	188.0
70.114464	60.0
70.147141	152.0
70.182808	188.0
70.197815	132.0
70.243774	152.0
70.286232	188.0
70.306999	200.0
70.336617	148.0
70.350876	148.0
70.399086	188.0
70.425293	136.0
70.438164	128.0
70.45295	160.0
70.475983	160.0
70.493797	152.0
70.515022	136.0
70.528397	164.0
70.565178	64.0
70.601967	184.0
70.627998	184.0
70.637482	136.0
70.650475	144.0
70.667206	176.0
70.717827	128.0
70.734146	80.0
70.752563	152.0
70.776131	156.0
70.790108	184.0
70.812843	128.0
70.827919	148.0
70.878181	52.0
70.889915	124.0
70.901649	136.0
70.92511	328.0
70.972908	392.0
70.985466	144.0
71.014168	180.0
71.048393	156.0
71.068077	228.0
71.082428	128.0
71.09787	468.0
71.14151	236.0
71.161659	200.0
71.180893	212.0
71.201187	148.0
71.223282	272.0
71.235558	220.0
71.279243	244.0
71.302765	88.0
71.342804	132.0
71.442467	100.0
71.47094	168.0
71.485382	260.0
71.499855	168.0
71.543678	372.0
71.558464	212.0
71.624146	180.0
71.646042	180.0
71.668686	164.0
71.688469	112.0
71.718468	184.0
71.750534	180.0
71.762337	136.0
71.77684	180.0
71.808319	180.0
71.848358	120.0
71.866913	264.0
71.888855	176.0
71.924294	272.0
71.958061	124.0
71.981735	200.0
72.028992	108.0
72.042503	156.0
72.06234	184.0
72.067184	172.0
72.085007	260.0
72.113945	216.0
72.12944	204.0
72.142212	68.0
72.189667	124.0
72.214928	188.0
72.233536	164.0
72.262299	156.0
72.280907	172.0
72.293411	100.0
72.311043	124.0
72.343536	264.0
72.357224	184.0
72.368614	192.0
72.389862	164.0
72.407036	216.0
72.423973	168.0
72.456123	224.0
72.478317	104.0
72.497673	100.0
72.525917	216.0
72.55191	64.0
72.575211	92.0
72.584023	156.0
72.589218	152.0
72.594955	156.0
72.621437	96.0
72.63501	108.0
72.651978	148.0
72.697784	176.0
72.755501	60.0
72.775871	208.0
72.830215	164.0
72.84198	156.0
72.868286	128.0
72.907578	136.0
73.015488	132.0
73.040924	152.0
73.075981	204.0
73.114166	208.0
73.126152	188.0
73.156715	276.0
73.173744	156.0
73.205788	264.0
73.236847	256.0
73.260605	184.0
73.274231	56.0
73.310333	212.0
73.345078	196.0
73.410599	84.0
73.42765	224.0
73.44471	140.0
73.492477	116.0
73.514664	164.0
73.543335	200.0
73.591476	184.0
73.606842	192.0
73.612411	168.0
73.666626	116.0
73.701523	188.0
73.723007	216.0
73.754929	172.0
73.794807	176.0
73.835846	220.0
73.863304	164.0
73.89769	148.0
73.911118	156.0
73.967598	116.0
73.982758	168.0
74.001839	120.0
74.038177	216.0
74.073769	300.0
74.115761	124.0
74.134544	196.0
74.171997	200.0
74.23317	180.0
74.245766	196.0
74.300064	180.0
74.325806	100.0
74.36731	172.0
74.386482	236.0
74.406708	232.0
74.448555	268.0
74.452682	136.0
74.459625	256.0
74.488907	188.0
74.519829	116.0
74.545609	180.0
74.559357	156.0
74.589233	356.0
74.627586	104.0
74.634644	156.0
74.644814	232.0
74.679108	148.0
74.728844	184.0
74.746811	160.0
74.779503	148.0
74.801888	76.0
74.816109	92.0
74.831154	288.0
74.858994	188.0
74.927338	312.0
74.946556	224.0
74.995766	140.0
75.091599	148.0
75.15451	160.0
75.193161	172.0
75.213875	168.0
75.227684	168.0
75.304398	200.0
75.336487	100.0
75.364128	76.0
75.382095	192.0
75.412346	160.0
75.422348	216.0
75.43499	236.0
75.507614	164.0
75.611656	176.0
75.628502	92.0
75.640846	104.0
75.665474	172.0
75.710106	108.0
75.751678	136.0
75.768524	204.0
75.795761	36.0
75.812057	156.0
75.818626	132.0
75.82177	240.0
75.859123	128.0
75.880348	132.0
75.908134	176.0
75.939659	80.0
75.985725	144.0
76.027367	196.0
76.055138	108.0
76.081177	172.0
76.121117	140.0
76.148903	228.0
76.163887	172.0
76.186844	176.0
76.209709	92.0
76.239342	216.0
76.267059	116.0
76.291397	160.0
76.304054	200.0
76.330498	344.0
76.369644	116.0
76.403389	192.0
76.433441	192.0
76.451805	184.0
76.474045	84.0
76.505348	220.0
76.556442	200.0
76.580261	164.0
76.676086	132.0
76.703979	80.0
76.763184	96.0
76.795891	180.0
76.82605	192.0
76.843498	144.0
76.855705	48.0
76.912689	68.0
76.923447	232.0
76.937744	68.0
76.956879	208.0
76.968338	176.0
76.981392	152.0
77.025551	228.0
77.056458	156.0
77.082809	156.0
77.110535	144.0
77.117455	132.0
77.1334	76.0
77.172897	156.0
77.196342	160.0
77.208588	200.0
77.226074	168.0
77.277153	164.0
77.294357	140.0
77.31881	116.0
77.373077	268.0
77.391258	448.0
77.431862	168.0
77.45562	320.0
77.4729	420.0
77.487495	180.0
77.523712	108.0
77.565781	192.0
77.581558	148.0
77.614868	176.0
77.634506	164.0
77.683273	144.0
77.704323	140.0
77.736763	244.0
77.760529	152.0
77.797012	168.0
77.828949	112.0
77.847633	224.0
77.852798	144.0
77.860168	164.0
77.881485	148.0
77.938362	124.0
77.965973	88.0
77.985306	84.0
78.009911	308.0
78.036598	204.0
78.060905	140.0
78.090408	180.0
78.120247	168.0
78.133469	172.0
78.150612	140.0
78.180534	168.0
78.192307	216.0
78.207863	136.0
78.22065	176.0
78.2351	172.0
78.256226	84.0
78.281357	248.0
78.330933	228.0
78.37429	152.0
78.393707	264.0
78.413773	148.0
78.449821	104.0
78.479126	156.0
78.509979	196.0
78.524155	104.0
78.563324	212.0
78.587898	164.0
78.624611	180.0
78.642738	136.0
78.667015	148.0
78.692551	164.0
78.719139	180.0
78.739037	188.0
78.762375	184.0
78.838242	224.0
78.857788	220.0
78.869156	140.0
78.909058	156.0
78.94619	136.0
78.963943	128.0
78.976768	124.0
79.007118	144.0
79.025208	180.0
79.039948	268.0
79.101898	192.0
79.128448	40.0
79.174873	204.0
79.188034	184.0
79.221893	168.0
79.255241	180.0
79.276558	144.0
79.318138	204.0
79.375854	160.0
79.399574	188.0
79.427956	148.0
79.439507	148.0
79.474083	132.0
79.500702	228.0
79.517525	108.0
79.546852	56.0
79.589462	104.0
79.612549	92.0
79.637344	128.0
79.672218	168.0
79.695862	160.0
79.708122	40.0
79.71328	136.0
79.739609	316.0
79.760017	180.0
79.78846	144.0
79.813354	104.0
79.832916	148.0
79.854408	160.0
79.905846	136.0
79.925415	140.0
79.944992	168.0
80.025963	140.0
80.033257	168.0
80.050591	176.0
80.092773	92.0
80.126724	168.0
80.167267	192.0
80.205032	296.0
80.225449	196.0
80.25827	172.0
80.27446	336.0
80.326294	148.0
80.351265	96.0
80.370895	92.0
80.393097	160.0
80.428001	108.0
80.477951	160.0
80.491966	160.0
80.542282	220.0
80.56295	180.0
80.594017	260.0
80.636986	192.0
80.653122	140.0
80.675629	136.0
80.687042	220.0
80.732338	296.0
80.747757	172.0
80.754601	164.0
80.787193	144.0
80.80687	132.0
80.842659	196.0
80.856979	172.0
80.874878	36.0
80.901726	76.0
80.92038	172.0
80.938538	136.0
80.959908	148.0
80.976936	148.0
80.99485	188.0
81.023422	160.0
81.032776	324.0
81.05471	156.0
81.075386	160.0
81.132835	184.0
81.150284	108.0
81.178429	204.0
81.197449	124.0
81.226089	160.0
81.24762	192.0
81.270233	292.0
81.325462	180.0
81.359474	184.0
81.379066	368.0
81.428925	148.0
81.471489	204.0
81.486404	160.0
81.540314	116.0
81.552643	112.0
81.581909	116.0
81.611145	140.0
81.649323	172.0
81.662582	156.0
81.694962	148.0
81.718735	168.0
81.747139	112.0
81.759735	204.0
81.788536	88.0
81.810135	144.0
81.822739	200.0
81.856949	164.0
81.942589	192.0
81.96962	152.0
81.994057	116.0
82.024696	156.0
82.051025	192.0
82.093025	144.0
82.135353	120.0
82.159767	136.0
82.174202	136.0
82.193016	128.0
82.203934	244.0
82.222923	164.0
82.249992	140.0
82.268051	264.0
82.317551	152.0
82.336662	144.0
82.385376	124.0
82.392662	200.0
82.417084	124.0
82.441452	136.0
82.454102	148.0
82.47226	88.0
82.49929	108.0
82.517372	32.0
82.530029	160.0
82.557152	124.0
82.573265	176.0
82.591698	40.0
82.662079	220.0
82.723618	68.0
82.74353	236.0
82.806015	148.0
82.81778	200.0
82.864723	148.0
82.887566	180.0
82.919243	180.0
82.940941	136.0
82.955399	144.0
82.9972	164.0
83.042542	196.0
83.073372	132.0
83.086075	168.0
83.104218	168.0
83.129623	128.0
83.159492	188.0
83.20845	84.0
83.215439	116.0
83.239326	120.0
83.242691	168.0
83.263969	84.0
83.287582	160.0
83.30938	124.0
83.323914	152.0
83.347771	220.0
83.372978	200.0
83.439392	216.0
83.467506	268.0
83.48111	276.0
83.499817	172.0
83.522072	156.0
83.543343	216.0
83.561279	184.0
83.62397	192.0
83.644501	156.0
83.671295	148.0
83.683212	100.0
83.711288	112.0
83.715401	108.0
83.722656	136.0
83.782867	216.0
83.81337	144.0
83.831459	168.0
83.872192	160.0
83.897209	168.0
83.937325	44.0
83.955559	100.0
83.968834	620.0
84.00116	160.0
84.03363	180.0
84.080063	132.0
84.125252	184.0
84.143509	132.0
84.165421	188.0
84.183266	140.0
84.19529	168.0
84.211075	136.0
84.245781	368.0
84.27684	172.0
84.309677	348.0
84.345757	232.0
84.371887	144.0
84.395653	204.0
84.412109	120.0
84.432228	148.0
84.490761	104.0
84.517616	212.0
84.565788	276.0
84.621002	304.0
84.679314	144.0
84.692131	120.0
84.713432	228.0
84.73793	32.0
84.773643	360.0
84.796577	68.0
84.817047	312.0
84.843918	164.0
84.865517	124.0
84.882088	108.0
84.911705	180.0
84.945099	184.0
85.010269	216.0
85.04525	172.0
85.090698	328.0
85.158028	176.0
85.187424	204.0
85.209465	180.0
85.233353	112.0
85.260918	72.0
85.290039	232.0
85.312386	156.0
85.352539	172.0
85.403137	332.0
85.432243	164.0
85.476326	180.0
85.484749	124.0
85.501846	168.0
85.516479	312.0
85.54895	224.0
85.5718	188.0
85.596519	208.0
85.613258	164.0
85.637283	208.0
85.660202	168.0
85.682312	180.0
85.734192	148.0
85.793915	132.0
85.827919	136.0
85.847588	168.0
85.852814	112.0
85.861908	112.0
85.901695	196.0
85.94413	164.0
85.95636	208.0
85.969963	172.0
85.984825	148.0
86.033791	352.0
86.049339	232.0
86.081299	220.0
86.113152	144.0
86.151733	136.0
86.184174	116.0
86.222984	244.0
86.290924	180.0
86.338684	128.0
86.363503	140.0
86.38015	72.0
86.402908	200.0
86.422455	148.0
86.430542	152.0
86.434128	184.0
86.451447	100.0
86.471199	156.0
86.498581	152.0
86.534683	72.0
86.54866	184.0
86.565315	92.0
86.592094	128.0
86.613396	92.0
86.715302	184.0
86.728279	76.0
86.75238	168.0
86.800583	120.0
86.835823	152.0
86.847656	124.0
86.873772	232.0
86.884827	176.0
86.918365	260.0
86.94529	92.0
87.013969	132.0
87.034393	212.0
87.062248	124.0
87.092461	120.0
87.145844	132.0
87.160706	108.0
87.197876	196.0
87.237976	160.0
87.285675	248.0
87.316864	124.0
87.33535	196.0
87.408028	124.0
87.461998	152.0
87.515991	124.0
87.539108	168.0
87.566269	128.0
87.607254	144.0
87.659424	168.0
87.679924	116.0
87.698563	44.0
87.744171	316.0
87.769287	168.0
87.787369	120.0
87.808975	200.0
87.827217	56.0
87.859116	128.0
87.881813	192.0
87.902847	120.0
87.91658	152.0
87.95224	160.0
87.966476	188.0
88.00489	220.0
88.017586	100.0
88.034393	132.0
88.052826	340.0
88.062813	184.0
88.1633	336.0
88.20871	136.0
88.214157	172.0
88.24929	144.0
88.327835	216.0
88.378349	184.0
88.411263	92.0
88.431206	164.0
88.464447	160.0
88.500969	140.0
88.535599	148.0
88.548706	176.0
88.580551	192.0
88.603035	116.0
88.634888	160.0
88.672966	188.0
88.707977	140.0
88.729111	176.0
88.756729	204.0
88.771729	88.0
88.794235	136.0
88.817116	240.0
88.837379	104.0
88.854263	164.0
88.890953	364.0
88.903969	180.0
88.925575	104.0
88.944809	160.0
88.976257	128.0
89.016594	100.0
89.062645	216.0
89.076294	372.0
89.09082	156.0
89.109802	156.0
89.13028	140.0
89.150948	132.0
89.168869	116.0
89.182899	132.0
89.233658	56.0
89.259979	152.0
89.296837	288.0
89.312645	128.0
89.33522	84.0
89.353584	84.0
89.395424	116.0
89.413841	112.0
89.42997	292.0
89.435936	160.0
89.44297	216.0
89.478249	128.0
89.495193	160.0
89.519676	128.0
89.544159	116.0
89.568642	176.0
89.610092	76.0
89.623283	136.0
89.655121	152.0
89.694901	40.0
89.711868	124.0
89.791229	136.0
89.825409	192.0
89.840103	200.0
89.883499	164.0
89.930885	148.0
89.953339	196.0
89.97599	104.0
90.00486	220.0
90.031265	148.0
90.05249	228.0
90.086914	132.0
90.105591	168.0
90.126762	320.0
90.141579	48.0
90.14637	160.0
90.155197	156.0
90.159431	140.0
90.256302	124.0
90.279938	136.0
90.306297	152.0
90.31398	220.0
90.353989	68.0
90.37291	56.0
90.395615	176.0
90.416428	180.0
90.464928	204.0
90.494713	148.0
90.50882	264.0
90.531136	284.0
90.556541	136.0
90.580246	132.0
90.592529	164.0
90.605789	164.0
90.676941	248.0
90.730881	224.0
90.756874	152.0
90.77449	368.0
90.787766	100.0
90.81012	312.0
90.853081	184.0
90.869331	176.0
90.900444	172.0
90.918671	148.0
90.933678	88.0
90.985107	144.0
91.023453	184.0
91.036957	200.0
91.049667	116.0
91.066765	112.0
91.080055	164.0
91.144653	112.0
91.211174	148.0
91.232086	232.0
91.260605	60.0
91.285324	88.0
91.310051	188.0
91.336678	156.0
91.37706	124.0
91.403625	252.0
91.423103	208.0
91.448944	180.0
91.497665	208.0
91.517479	200.0
91.568893	140.0
91.658432	116.0
91.675583	160.0
91.688927	96.0
91.717514	144.0
91.740433	100.0
91.76136	136.0
91.793541	160.0
91.919685	180.0
91.969307	200.0
91.982666	80.0
92.010239	108.0
92.045181	156.0
92.059235	160.0
92.091255	152.0
92.113609	224.0
92.117119	128.0
92.127037	148.0
92.139175	128.0
92.213791	168.0
92.230377	160.0
92.244995	160.0
92.295998	100.0
92.315285	140.0
92.339363	124.0
92.395821	140.0
92.420334	136.0
92.47271	152.0
92.502731	76.0
92.549599	120.0
92.578514	180.0
92.606033	108.0
92.646255	112.0
92.687164	232.0
92.711952	112.0
92.743988	132.0
92.757408	56.0
92.782333	164.0
92.832184	140.0
92.862869	152.0
92.90699	136.0
92.920425	100.0
92.947281	116.0
92.999565	164.0
93.067383	184.0
93.072723	104.0
93.087845	192.0
93.114304	124.0
93.140877	200.0
93.172287	176.0
93.19838	220.0
93.211258	60.0
93.227623	208.0
93.250717	232.0
93.269318	136.0
93.285889	176.0
93.296288	108.0
93.301178	144.0
93.316704	160.0
93.34108	188.0
93.369087	176.0
93.383301	180.0
93.405289	104.0
93.443024	172.0
93.468964	176.0
93.529625	160.0
93.579376	128.0
93.601532	184.0
93.610214	56.0
93.706146	228.0
93.721199	152.0
93.746948	48.0
93.770668	148.0
93.797783	152.0
93.855217	132.0
93.883644	260.0
93.911598	120.0
93.924362	188.0
93.944138	176.0
93.971062	136.0
93.989761	168.0
94.008263	176.0
94.024757	104.0
94.043732	176.0
94.0765	168.0
94.107994	100.0
94.122551	292.0
94.140816	124.0
94.172844	172.0
94.225815	84.0
94.239334	56.0
94.272072	132.0
94.293449	72.0
94.322441	232.0
94.341774	168.0
94.361107	128.0
94.39946	316.0
94.417831	148.0
94.451996	128.0
94.487328	168.0
94.514214	128.0
94.518204	128.0
94.561119	72.0
94.58519	164.0
94.645538	108.0
94.661026	300.0
94.693954	108.0
94.730759	184.0
94.752312	156.0
94.785004	152.0
94.820221	140.0
94.825752	164.0
94.850693	160.0
94.885605	160.0
94.891617	144.0
94.926521	96.0
94.951729	136.0
94.975006	160.0
94.993248	828.0
95.019623	92.0
95.039024	56.0
95.063957	184.0
95.092087	224.0
95.113838	180.0
95.141891	80.0
95.155487	236.0
95.181068	280.0
95.215683	208.0
95.231224	152.0
95.251656	208.0
95.283676	96.0
95.336136	196.0
95.376953	152.0
95.421333	164.0
95.43808	100.0
95.47142	272.0
95.503342	144.0
95.517593	216.0
95.536415	156.0
95.608414	140.0
95.659019	204.0
95.674591	200.0
95.718643	212.0
95.802101	144.0
95.865089	140.0
95.881073	48.0
95.912254	196.0
95.94735	140.0
95.964302	148.0
95.995041	412.0
96.019501	224.0
96.055138	88.0
96.087776	160.0
96.12233	152.0
96.136559	172.0
96.154121	52.0
96.175591	108.0
96.192772	120.0
96.22049	112.0
96.264778	248.0
96.34449	204.0
96.365944	144.0
96.475189	120.0
96.501846	120.0
96.5214	180.0
96.539093	168.0
96.556389	148.0
96.570549	172.0
96.607811	260.0
96.677895	228.0
96.693787	200.0
96.713127	96.0
96.760109	120.0
96.803299	132.0
96.821503	148.0
96.854111	160.0
96.873238	136.0
96.901276	164.0
96.985397	76.0
97.008812	148.0
97.023705	304.0
97.057602	164.0
97.087357	148.0
97.103043	112.0
97.132469	132.0
97.146194	204.0
97.163857	104.0
97.178665	320.0
97.197212	156.0
97.225555	208.0
97.299934	168.0
97.33094	144.0
97.346405	224.0
97.38961	172.0
97.491776	160.0
97.513268	120.0
97.55468	180.0
97.591988	188.0
97.617592	164.0
97.643166	200.0
97.703079	216.0
97.717911	152.0
97.776543	192.0
97.806396	100.0
97.828125	92.0
97.875381	128.0
97.89901	124.0
97.917076	208.0
97.956131	148.0
98.004982	116.0
98.022896	140.0
98.056084	132.0
98.090088	164.0
98.125618	44.0
98.13942	204.0
98.18766	164.0
98.218307	132.0
98.252792	276.0
98.29998	172.0
98.335495	164.0
98.352287	116.0
98.37867	168.0
98.42482	172.0
98.441681	176.0
98.478752	216.0
98.510468	84.0
98.536148	44.0
98.558327	232.0
98.609268	188.0
98.629036	388.0
98.642868	148.0
98.669533	164.0
98.740143	248.0
98.77932	72.0
98.806358	156.0
98.823814	220.0
98.870338	96.0
98.884193	64.0
98.907944	224.0
98.933678	92.0
98.95546	40.0
98.98912	124.0
99.052498	472.0
99.066689	128.0
99.101463	196.0
99.14563	136.0
99.176277	172.0
99.195175	136.0
99.277473	168.0
99.298286	172.0
99.314156	264.0
99.355812	156.0
99.373672	264.0
99.448578	220.0
99.461456	120.0
99.518608	212.0
99.541695	136.0
99.549889	88.0
99.554817	140.0
99.605949	168.0
99.633911	324.0
99.665558	236.0
99.692726	172.0
99.727859	160.0
99.74704	340.0
99.768906	176.0
99.80072	136.0
99.858192	160.0
99.865005	172.0
99.875832	160.0
99.913071	140.0
99.937965	132.0
99.965828	328.0
99.98175	280.0
100.053322	148.0
100.089249	144.0
100.105865	128.0
100.12133	144.0
100.172295	172.0
100.216728	152.0
100.271675	168.0
100.288849	148.0
100.314384	204.0
100.33432	120.0
100.376198	168.0
100.411247	132.0
100.41713	176.0
100.453979	56.0
100.471939	100.0
100.492523	88.0
100.518768	144.0
100.54657	180.0
100.571106	236.0
100.591675	220.0
100.632553	152.0
100.658257	116.0
100.7015	176.0
100.7314	124.0
100.779259	152.0
100.809288	80.0
100.83065	200.0
100.865822	188.0
100.887054	404.0
100.901337	116.0
100.92733	136.0
100.953102	144.0
100.985062	176.0
100.99099	168.0
101.033333	140.0
101.06424	252.0
101.111809	120.0
101.15834	164.0
101.183441	272.0
101.227684	124.0
101.255531	112.0
101.287575	140.0
101.330147	192.0
101.367722	132.0
101.383751	144.0
101.399788	504.0
101.413818	100.0
101.433861	192.0
101.472557	212.0
101.487671	200.0
101.543091	160.0
101.56041	144.0
101.587112	164.0
101.626396	132.0
101.64827	120.0
101.677338	124.0
101.715706	68.0
101.734772	92.0
101.764893	136.0
101.786629	320.0
101.819107	96.0
101.881378	156.0
101.89846	120.0
101.917282	160.0
101.94989	212.0
101.986938	148.0
102.050209	436.0
102.113037	148.0
102.148094	164.0
102.164558	112.0
102.222656	148.0
102.271706	200.0
102.316849	360.0
102.34388	196.0
102.374184	132.0
102.410439	160.0
102.462418	324.0
102.499084	132.0
102.52327	112.0
102.555656	108.0
102.590965	116.0
102.609314	168.0
102.632126	96.0
102.648254	92.0
102.662369	120.0
102.690605	184.0
102.704727	88.0
102.728935	160.0
102.777359	200.0
102.818291	240.0
102.852028	116.0
102.872215	164.0
102.898552	236.0
102.914612	216.0
102.930771	108.0
102.975197	84.0
102.992516	204.0
103.039825	1948.0
103.080254	180.0
103.104507	120.0
103.122696	160.0
103.138756	144.0
103.169716	184.0
103.211647	236.0
103.23996	92.0
103.258163	184.0
103.281815	236.0
103.361336	44.0
103.375504	124.0
103.399788	172.0
103.428123	104.0
103.444321	136.0
103.461601	204.0
103.492912	176.0
103.507088	112.0
103.527542	160.0
103.543541	104.0
103.60228	204.0
103.618492	148.0
103.642807	172.0
103.690781	208.0
103.703835	380.0
103.737686	192.0
103.76239	100.0
103.80497	160.0
103.819168	68.0
103.898277	124.0
103.91684	136.0
103.93074	324.0
103.953911	124.0
103.970695	256.0
104.036659	11804.0
104.093918	160.0
104.109383	164.0
104.13578	160.0
104.171776	212.0
104.204857	148.0
104.275276	76.0
104.290207	100.0
104.305939	284.0
104.33696	88.0
104.351196	140.0
104.375595	140.0
104.402031	176.0
104.440674	136.0
104.51548	104.0
104.585861	216.0
104.607254	160.0
104.695877	104.0
104.719536	212.0
104.735832	176.0
104.77533	144.0
104.801132	76.0
104.820618	208.0
104.86216	196.0
104.875481	184.0
104.919235	44.0
104.939865	172.0
104.963036	152.0
104.986748	148.0
105.040489	1288.0
105.065399	132.0
105.119972	232.0
105.188522	468.0
105.227249	340.0
105.282448	96.0
105.315125	188.0
105.349854	224.0
105.382545	156.0
105.429543	60.0
105.452026	112.0
105.473122	112.0
105.513351	128.0
105.541977	200.0
105.557373	228.0
105.592323	156.0
105.626747	116.0
105.641624	144.0
105.683113	100.0
105.703766	156.0
105.727051	188.0
105.750648	260.0
105.801697	128.0
105.867348	148.0
105.894112	200.0
105.934502	136.0
105.961624	180.0
105.997559	300.0
106.027153	196.0
106.050804	332.0
106.080444	152.0
106.111198	152.0
106.129646	136.0
106.152206	28.0
106.166565	252.0
106.211418	188.0
106.281982	168.0
106.295807	104.0
106.320427	56.0
106.336853	128.0
106.368538	124.0
106.387344	176.0
106.423073	60.0
106.508972	116.0
106.551987	324.0
106.585342	148.0
106.607948	100.0
106.648766	56.0
106.661278	152.0
106.675568	156.0
106.729973	380.0
106.748207	176.0
106.792992	140.0
106.807388	72.0
106.832069	132.0
106.877335	108.0
106.912788	232.0
106.97068	212.0
106.997658	180.0
107.014252	108.0
107.044075	108.0
107.087326	108.0
107.132317	376.0
107.166908	136.0
107.190117	152.0
107.215065	188.0
107.235146	172.0
107.256287	164.0
107.29287	188.0
107.316078	248.0
107.352219	136.0
107.373817	176.0
107.398567	96.0
107.416008	176.0
107.446831	332.0
107.460327	124.0
107.468979	124.0
107.496162	212.0
107.512886	108.0
107.559235	120.0
107.623421	172.0
107.668953	144.0
107.694176	160.0
107.723793	116.0
107.741249	148.0
107.754395	112.0
107.813568	52.0
107.828041	116.0
107.844299	120.0
107.870399	152.0
107.885918	136.0
107.916931	240.0
107.972229	140.0
108.000404	468.0
108.026161	196.0
108.04789	188.0
108.096893	176.0
108.146561	148.0
108.163124	116.0
108.210503	176.0
108.238113	180.0
108.289085	96.0
108.322571	172.0
108.38887	196.0
108.426819	116.0
108.431358	56.0
108.455078	140.0
108.526886	332.0
108.549591	256.0
108.579422	140.0
108.635094	228.0
108.661743	140.0
108.685402	116.0
108.699928	88.0
108.733131	192.0
108.770561	124.0
108.797478	88.0
108.813255	168.0
108.829193	128.0
108.874306	344.0
108.905464	112.0
108.920006	208.0
108.95517	140.0
108.981476	296.0
109.010162	30352.0
109.065117	96.0
109.081795	212.0
109.109116	56.0
109.125252	184.0
109.145973	224.0
109.188004	124.0
109.244217	200.0
109.295433	152.0
109.327072	184.0
109.349487	232.0
109.36499	144.0
109.423279	64.0
109.446022	152.0
109.496857	264.0
109.526489	196.0
109.560165	116.0
109.577408	44.0
109.606575	48.0
109.627419	68.0
109.643181	312.0
109.712082	220.0
109.73246	164.0
109.777519	188.0
109.796288	112.0
109.826645	180.0
109.841148	204.0
109.87764	144.0
109.905846	116.0
109.948357	256.0
109.969963	116.0
110.014153	1568.0
110.05629	128.0
110.116295	100.0
110.133324	176.0
110.159637	52.0
110.207535	216.0
110.226189	168.0
110.266045	128.0
110.29113	68.0
110.33503	180.0
110.37957	132.0
110.420769	52.0
110.44693	236.0
110.461823	180.0
110.487183	144.0
110.503746	132.0
110.521179	136.0
110.546532	176.0
110.576698	204.0
110.602295	184.0
110.63089	192.0
110.66375	144.0
110.688644	64.0
110.716164	144.0
110.723549	120.0
110.760803	132.0
110.793816	188.0
110.816414	140.0
110.879288	76.0
110.904434	88.0
110.929588	112.0
110.953651	276.0
110.979385	176.0
111.005852	1028.0
111.055405	176.0
111.093163	148.0
111.119225	132.0
111.150436	188.0
111.19532	304.0
111.210518	264.0
111.245468	300.0
111.273659	124.0
111.298851	112.0
111.320656	376.0
111.365059	272.0
111.414673	84.0
111.451294	240.0
111.481331	180.0
111.502228	356.0
111.535301	228.0
111.577911	192.0
111.628769	136.0
111.647697	92.0
111.705788	148.0
111.725525	156.0
111.746078	104.0
111.792854	140.0
111.832848	168.0
111.902939	248.0
111.959175	200.0
112.028687	124.0
112.09211	148.0
112.136093	144.0
112.150902	176.0
112.181427	140.0
112.199905	308.0
112.220474	168.0
112.271088	140.0
112.294418	188.0
112.320114	276.0
112.345573	152.0
112.416862	220.0
112.44429	164.0
112.505936	184.0
112.53714	100.0
112.558983	196.0
112.603279	140.0
112.625671	76.0
112.646797	84.0
112.670036	92.0
112.716522	116.0
112.750336	60.0
112.775696	84.0
112.80529	148.0
112.854034	144.0
112.936394	156.0
112.95755	220.0
112.978607	88.0
112.999168	196.0
113.023705	164.0
113.040062	124.0
113.105675	108.0
113.139549	168.0
113.167068	36.0
113.225609	112.0
113.252991	156.0
113.286583	384.0
113.30262	140.0
113.332283	148.0
113.366188	136.0
113.421295	204.0
113.473503	384.0
113.505173	128.0
113.532478	228.0
113.557671	164.0
113.570648	92.0
113.60643	132.0
113.630508	252.0
113.665199	168.0
113.81498	100.0
113.871132	228.0
113.919426	136.0
113.982536	136.0
114.025063	132.0
114.045357	268.0
114.077774	136.0
114.127312	124.0
114.152374	132.0
114.21608	208.0
114.259262	192.0
114.285675	116.0
114.312904	136.0
114.351646	148.0
114.368675	176.0
114.39209	116.0
114.423279	160.0
114.462418	128.0
114.499786	104.0
114.512192	288.0
114.565979	104.0
114.611465	168.0
114.690315	232.0
114.771011	188.0
114.809715	216.0
114.833176	136.0
114.851555	156.0
114.87442	132.0
114.915108	108.0
114.96759	124.0
114.982529	108.0
115.028328	236.0
115.052765	164.0
115.081627	304.0
115.159744	408.0
115.176834	156.0
115.208878	120.0
115.223831	164.0
115.243057	152.0
115.267479	188.0
115.334953	60.0
115.422615	56.0
115.446136	188.0
115.465866	152.0
115.482498	92.0
115.506027	164.0
115.540253	104.0
115.559792	212.0
115.600166	124.0
115.642967	156.0
115.664795	144.0
115.691422	316.0
115.710274	172.0
115.737755	128.0
115.768745	188.0
115.872108	100.0
115.917107	240.0
115.933426	208.0
115.939339	128.0
115.957428	108.0
115.96608	108.0
115.997559	156.0
116.015701	116.0
116.037933	704.0
116.06089	308.0
116.0886	236.0
116.147697	152.0
116.163818	196.0
116.180779	188.0
116.200844	212.0
116.228043	136.0
116.246063	352.0
116.313889	196.0
116.329056	176.0
116.35923	168.0
116.387741	340.0
116.451309	180.0
116.495399	168.0
116.543686	168.0
116.56221	116.0
116.580223	88.0
116.595261	88.0
116.633987	152.0
116.655449	168.0
116.679657	400.0
116.717804	200.0
116.754669	224.0
116.843613	184.0
116.870522	96.0
116.906242	160.0
116.934433	224.0
116.986031	324.0
117.001816	144.0
117.022675	204.0
117.037651	212.0
117.063614	212.0
117.096565	144.0
117.117516	176.0
117.149429	236.0
117.189201	180.0
117.208595	148.0
117.266663	240.0
117.281067	108.0
117.31472	84.0
117.355164	208.0
117.3853	160.0
117.429771	188.0
117.466148	200.0
117.487892	156.0
117.561493	136.0
117.590309	112.0
117.611893	48.0
117.651505	344.0
117.670181	140.0
117.705154	144.0
117.753265	160.0
117.784531	156.0
117.819206	136.0
117.836212	244.0
117.877548	52.0
117.925919	136.0
117.943077	144.0
118.024536	144.0
118.050865	712.0
118.093742	160.0
118.140144	80.0
118.158646	32.0
118.178116	128.0
118.212738	84.0
118.243034	128.0
118.281998	196.0
118.333954	56.0
118.375099	144.0
118.396751	156.0
118.410965	148.0
118.432549	412.0
118.480408	156.0
118.508034	212.0
118.534752	200.0
118.549278	268.0
118.585251	172.0
118.622101	156.0
118.650284	140.0
118.666512	148.0
118.691483	176.0
118.722893	148.0
118.756538	172.0
118.776062	128.0
118.846222	260.0
118.913994	296.0
118.936546	192.0
118.964859	148.0
118.980057	180.0
119.016968	172.0
119.058533	1688.0
119.090805	104.0
119.1147	168.0
119.15567	168.0
119.199562	140.0
119.234207	88.0
119.258583	224.0
119.284203	200.0
119.307571	208.0
119.330559	124.0
119.371231	152.0
119.393478	216.0
119.418083	144.0
119.451645	120.0
119.473404	172.0
119.497482	356.0
119.580025	124.0
119.623932	164.0
119.660576	116.0
119.680168	112.0
119.754593	228.0
119.778175	200.0
119.796074	148.0
119.809235	156.0
119.841354	128.0
119.8927	220.0
119.924164	184.0
119.951546	204.0
119.991714	176.0
120.03154	204.0
120.058311	496.0
120.133507	212.0
120.170593	156.0
120.192413	132.0
120.212059	80.0
120.242607	184.0
120.285645	84.0
120.325562	108.0
120.376747	100.0
120.420425	100.0
120.436935	160.0
120.460884	216.0
120.481888	264.0
120.502472	216.0
120.524323	80.0
120.554916	244.0
120.576981	128.0
120.611237	428.0
120.640167	132.0
120.655464	72.0
120.670769	48.0
120.692635	60.0
120.729813	172.0
120.76329	364.0
120.790489	164.0
120.817307	116.0
120.839188	140.0
120.884575	188.0
120.907562	132.0
120.972374	168.0
120.981323	144.0
120.997765	520.0
121.018669	104.0
121.04158	156.0
121.058083	28.0
121.07341	168.0
121.093124	112.0
121.1203	128.0
121.147888	136.0
121.177834	108.0
121.183693	164.0
121.201599	132.0
121.24649	116.0
121.279366	224.0
121.294716	104.0
121.323212	144.0
121.353905	224.0
121.391464	184.0
121.413933	172.0
121.421928	212.0
121.428467	176.0
121.435577	148.0
121.45797	124.0
121.475601	164.0
121.522797	144.0
121.548248	60.0
121.556412	88.0
121.630005	160.0
121.667892	184.0
121.68998	168.0
121.735725	160.0
121.784332	160.0
121.82724	204.0
121.871918	96.0
121.889496	80.0
121.935646	144.0
121.961311	148.0
121.978287	160.0
122.004807	15408.0
122.031784	100.0
122.057724	240.0
122.098343	244.0
122.120277	152.0
122.144531	128.0
122.16568	184.0
122.201736	196.0
122.223083	120.0
122.275024	160.0
122.300766	108.0
122.322777	36.0
122.344109	140.0
122.39859	468.0
122.429657	160.0
122.458611	216.0
122.494545	32.0
122.526665	88.0
122.580475	120.0
122.598969	112.0
122.636635	172.0
122.66423	184.0
122.701706	224.0
122.71714	144.0
122.736984	176.0
122.783295	124.0
122.807266	212.0
122.856087	152.0
122.906487	192.0
122.926697	128.0
122.958649	152.0
123.008041	840.0
123.037056	60.0
123.056931	312.0
123.088951	168.0
123.121933	156.0
123.145264	112.0
123.191116	232.0
123.233627	112.0
123.25573	72.0
123.280037	112.0
123.309898	180.0
123.355186	92.0
123.391548	116.0
123.445839	184.0
123.474586	164.0
123.492279	208.0
123.507256	156.0
123.56781	220.0
123.593018	120.0
123.644943	144.0
123.667084	72.0
123.709274	128.0
123.726852	180.0
123.759209	128.0
123.769531	192.0
123.799919	132.0
123.82428	132.0
123.842003	104.0
123.866653	156.0
123.910675	180.0
123.944016	156.0
124.00296	452.0
124.064888	116.0
124.112381	32.0
124.132744	108.0
124.173012	176.0
124.192215	140.0
124.216446	152.0
124.234222	124.0
124.27874	172.0
124.365288	304.0
124.417595	228.0
124.426025	176.0
124.479591	128.0
124.494766	152.0
124.504799	48.0
124.513313	144.0
124.56514	120.0
124.580688	108.0
124.596245	144.0
124.614014	208.0
124.634018	96.0
124.674019	160.0
124.700356	136.0
124.85778	152.0
124.889336	128.0
124.914154	184.0
124.991348	132.0
125.014275	104.0
125.029854	128.0
125.067696	52.0
125.085503	132.0
125.101082	120.0
125.117584	136.0
125.172264	132.0
125.205734	128.0
125.227463	308.0
125.27256	152.0
125.310623	192.0
125.328148	160.0
125.384499	236.0
125.419632	76.0
125.438438	156.0
125.470146	164.0
125.499184	300.0
125.539818	168.0
125.561905	124.0
125.582405	124.0
125.602486	52.0
125.619087	180.0
125.644806	132.0
125.660858	144.0
125.697838	152.0
125.716278	200.0
125.734131	140.0
125.768593	116.0
125.805557	148.0
125.827881	68.0
125.871605	212.0
125.918503	176.0
125.935074	184.0
125.969673	180.0
126.011032	76.0
126.053345	128.0
126.073601	172.0
126.1493	92.0
126.176422	132.0
126.230087	168.0
126.280434	148.0
126.303894	184.0
126.341919	140.0
126.458122	208.0
126.478432	176.0
126.524529	124.0
126.60067	128.0
126.604584	140.0
126.648605	208.0
126.664291	220.0
126.704613	48.0
126.735985	116.0
126.751671	196.0
126.772667	216.0
126.792007	104.0
126.823387	164.0
126.854767	84.0
126.89064	124.0
126.926514	140.0
126.997719	176.0
127.040306	180.0
127.057602	144.0
127.178688	216.0
127.211578	132.0
127.26812	168.0
127.294533	360.0
127.350685	108.0
127.366409	160.0
127.444901	192.0
127.448875	124.0
127.521446	168.0
127.541679	200.0
127.575394	156.0
127.604622	84.0
127.623917	124.0
127.660835	188.0
127.690079	384.0
127.705818	212.0
127.753059	164.0
127.773308	156.0
127.827309	124.0
127.861557	228.0
127.875328	172.0
127.892578	136.0
127.919296	192.0
127.968819	180.0
128.06044	1008.0
128.088486	56.0
128.153824	72.0
128.180466	208.0
128.202148	124.0
128.229507	192.0
128.250717	148.0
128.298859	160.0
128.339462	132.0
128.361191	152.0
128.386002	92.0
128.41655	156.0
128.456116	192.0
128.477234	280.0
128.495132	360.0
128.545074	148.0
128.593689	160.0
128.631943	156.0
128.677261	172.0
128.695038	144.0
128.719116	112.0
128.727798	88.0
128.733963	152.0
128.767303	220.0
128.812607	88.0
128.835754	196.0
128.857697	204.0
128.882645	68.0
128.9021	156.0
128.918793	140.0
128.945923	184.0
128.984268	168.0
129.03009	220.0
129.047256	184.0
129.061661	192.0
129.151672	168.0
129.169769	144.0
129.207153	268.0
129.249588	156.0
129.272247	136.0
129.305527	156.0
129.33371	108.0
129.359985	68.0
129.374023	192.0
129.396088	164.0
129.456284	204.0
129.482132	96.0
129.497986	196.0
129.530869	124.0
129.547821	308.0
129.568909	188.0
129.602325	160.0
129.638458	248.0
129.713257	144.0
129.738693	160.0
129.76767	200.0
129.806213	108.0
129.881058	132.0
129.930298	284.0
129.955917	168.0
129.982422	288.0
129.999039	128.0
130.038727	2356.0
130.06778	308.0
130.112534	188.0
130.145752	196.0
130.182449	152.0
130.199799	176.0
130.226074	40.0
130.28598	192.0
130.32225	108.0
130.362396	128.0
130.394485	128.0
130.410767	112.0
130.43512	120.0
130.457855	144.0
130.474884	212.0
130.49501	148.0
130.525085	168.0
130.547577	148.0
130.565842	204.0
130.589752	96.0
130.636871	140.0
130.671249	160.0
130.734619	160.0
130.747208	136.0
130.769241	220.0
130.792252	120.0
130.829407	224.0
130.867386	112.0
130.885269	316.0
130.925446	196.0
130.960739	428.0
131.00116	204.0
131.02179	408.0
131.047791	71664.0
131.100235	148.0
131.152161	152.0
131.174469	184.0
131.196304	280.0
131.225113	52.0
131.244492	48.0
131.258392	168.0
131.324173	216.0
131.348618	128.0
131.373352	120.0
131.421051	364.0
131.450073	212.0
131.476028	124.0
131.493118	160.0
131.526245	56.0
131.558212	144.0
131.5784	52.0
131.615601	60.0
131.62204	272.0
131.685272	124.0
131.722061	176.0
131.782028	36.0
131.799728	188.0
131.816315	172.0
131.840469	84.0
131.856049	196.0
131.894852	132.0
131.924774	208.0
131.94397	216.0
131.974869	132.0
132.013931	164.0
132.050186	5824.0
132.088379	128.0
132.11203	64.0
132.154236	172.0
132.185562	184.0
132.235687	172.0
132.262344	108.0
132.296234	136.0
132.329239	132.0
132.356171	208.0
132.388229	148.0
132.445312	144.0
132.48912	156.0
132.507339	204.0
132.564423	188.0
132.594421	40.0
132.658417	52.0
132.676056	124.0
132.702164	152.0
132.718216	56.0
132.749161	148.0
132.769089	148.0
132.81427	244.0
132.861832	104.0
132.882767	156.0
132.923798	180.0
132.947784	208.0
133.005966	152.0
133.017807	48.0
133.040924	668.0
133.061829	784.0
133.081299	184.0
133.105484	280.0
133.140945	168.0
133.168015	108.0
133.195587	128.0
133.216248	140.0
133.236938	96.0
133.25531	68.0
133.310455	112.0
133.340469	136.0
133.372681	200.0
133.391495	172.0
133.413895	68.0
133.471375	176.0
133.487473	152.0
133.565857	140.0
133.589508	168.0
133.611572	160.0
133.666901	164.0
133.740555	164.0
133.777924	240.0
133.804367	116.0
133.859192	176.0
133.932678	108.0
133.950104	228.0
133.992004	148.0
134.048965	744.0
134.074524	148.0
134.102173	172.0
134.122925	192.0
134.187469	76.0
134.346619	100.0
134.367371	204.0
134.397369	152.0
134.413528	220.0
134.464294	52.0
134.496613	332.0
134.538895	176.0
134.555618	128.0
134.605682	180.0
134.641129	172.0
134.660553	68.0
134.685608	108.0
134.720612	256.0
134.739502	180.0
134.778366	140.0
134.817657	120.0
134.845032	52.0
134.906204	180.0
134.930923	168.0
134.998672	1036.0
135.043564	548.0
135.076614	160.0
135.120056	156.0
135.246185	128.0
135.273315	136.0
135.326569	188.0
135.383057	348.0
135.408752	144.0
135.432327	156.0
135.467697	264.0
135.484772	156.0
135.525772	124.0
135.552078	136.0
135.595291	128.0
135.654709	132.0
135.678741	148.0
135.694962	72.0
135.72168	200.0
135.73671	308.0
135.759888	76.0
135.799316	352.0
135.848038	80.0
135.87355	76.0
135.89444	204.0
135.943436	136.0
135.96637	220.0
136.009186	1024.0
136.025116	824.0
136.06279	180.0
136.121918	168.0
136.154602	108.0
136.184631	248.0
136.207855	180.0
136.235245	244.0
136.270004	144.0
136.293106	156.0
136.310089	200.0
136.348236	144.0
136.377411	140.0
136.413071	232.0
136.437927	100.0
136.535583	116.0
136.577454	96.0
136.6129	204.0
136.665863	156.0
136.712952	168.0
136.760986	160.0
136.817139	48.0
136.84465	160.0
136.864807	196.0
136.885513	132.0
136.914948	120.0
136.938232	124.0
136.968384	148.0
136.994888	188.0
137.013046	296.0
137.105804	156.0
137.113037	80.0
137.145599	144.0
137.218826	148.0
137.255188	132.0
137.316986	132.0
137.337646	212.0
137.395126	112.0
137.413788	108.0
137.44986	184.0
137.45871	244.0
137.512833	136.0
137.549149	200.0
137.578308	188.0
137.596558	132.0
137.616852	152.0
137.657349	164.0
137.705444	132.0
137.766327	392.0
137.800262	192.0
137.817368	104.0
137.823578	88.0
137.830368	148.0
137.887848	220.0
137.908875	132.0
137.927582	168.0
137.973267	180.0
138.001587	192.0
138.030396	356.0
138.077225	168.0
138.093597	84.0
138.119324	96.0
138.140381	52.0
138.182495	156.0
138.222275	112.0
138.285019	300.0
138.341629	200.0
138.396606	104.0
138.41188	128.0
138.465744	180.0
138.491501	300.0
138.520905	248.0
138.564026	200.0
138.587555	76.0
138.606308	228.0
138.639114	56.0
138.664886	176.0
138.700058	228.0
138.745361	240.0
138.794861	168.0
138.829666	352.0
138.878265	140.0
138.894684	172.0
138.91362	108.0
138.93222	336.0
139.051895	124.0
139.084747	276.0
139.105881	92.0
139.157959	172.0
139.21701	288.0
139.242065	208.0
139.272598	160.0
139.290207	144.0
139.316803	236.0
139.352127	108.0
139.357986	92.0
139.36879	140.0
139.46199	160.0
139.510254	120.0
139.538162	152.0
139.566376	100.0
139.585068	156.0
139.632217	180.0
139.655731	180.0
139.686386	128.0
139.756897	192.0
139.845032	168.0
139.891052	80.0
139.925018	156.0
139.96875	132.0
140.022476	236.0
140.072372	80.0
140.125687	192.0
140.192551	116.0
140.21524	152.0
140.262512	128.0
140.289185	120.0
140.317474	96.0
140.359222	168.0
140.385864	96.0
140.454254	164.0
140.482559	132.0
140.501434	56.0
140.550308	112.0
140.57222	280.0
140.60527	120.0
140.623856	196.0
140.664551	136.0
140.738144	140.0
140.761185	368.0
140.787048	140.0
140.83902	208.0
140.854309	160.0
140.876816	108.0
140.905167	52.0
140.930496	144.0
140.950058	132.0
140.966599	120.0
140.998291	184.0
141.039871	140.0
141.065872	156.0
141.112244	124.0
141.140076	176.0
141.167542	124.0
141.197144	124.0
141.227188	108.0
141.264511	156.0
141.300003	128.0
141.318924	152.0
141.361526	48.0
141.394714	164.0
141.457169	108.0
141.479538	312.0
141.542267	160.0
141.593323	272.0
141.633804	124.0
141.683548	128.0
141.70488	148.0
141.733307	68.0
141.790131	180.0
141.82811	60.0
141.886978	172.0
141.908951	196.0
141.934799	152.0
141.975113	148.0
142.014389	236.0
142.036774	48.0
142.069992	148.0
142.088867	192.0
142.115356	128.0
142.156219	172.0
142.19989	216.0
142.263397	80.0
142.296677	164.0
142.354813	264.0
142.392105	320.0
142.468491	140.0
142.547241	120.0
142.602509	172.0
142.642044	144.0
142.685028	128.0
142.713562	136.0
142.739792	48.0
142.773087	228.0
142.806015	156.0
142.825516	176.0
142.870193	208.0
142.912766	84.0
142.93367	112.0
142.95076	176.0
142.968033	144.0
142.996735	52.0
143.022919	196.0
143.067032	180.0
143.115768	100.0
143.165771	76.0
143.196732	236.0
143.253448	192.0
143.296249	176.0
143.351593	156.0
143.37648	108.0
143.396866	212.0
143.423096	192.0
143.501755	156.0
143.526611	196.0
143.570221	124.0
143.601929	140.0
143.625778	192.0
143.656784	88.0
143.678253	144.0
143.760513	136.0
143.792023	132.0
143.81189	136.0
143.84053	112.0
143.92836	92.0
143.945419	108.0
143.976791	180.0
144.002914	172.0
144.025467	188.0
144.073746	184.0
144.0811	120.0
144.089401	152.0
144.128845	196.0
144.158371	112.0
144.21019	128.0
144.214172	96.0
144.223755	168.0
144.249023	180.0
144.277618	108.0
144.319214	112.0
144.344666	144.0
144.402054	104.0
144.426559	180.0
144.492966	220.0
144.5121	144.0
144.543213	144.0
144.570847	124.0
144.586761	128.0
144.621277	300.0
144.670059	192.0
144.694	108.0
144.74028	292.0
144.767624	176.0
144.796143	156.0
144.885605	72.0
144.936661	168.0
145.012619	120.0
145.031784	112.0
145.05336	204.0
145.070145	140.0
145.127792	84.0
145.155594	148.0
145.178192	132.0
145.226242	212.0
145.267258	248.0
145.333191	172.0
145.342575	124.0
145.35231	180.0
145.420364	124.0
145.443237	440.0
145.471725	168.0
145.484634	108.0
145.488174	144.0
145.556824	204.0
145.597031	188.0
145.634064	180.0
145.672501	160.0
145.701797	140.0
145.739883	156.0
145.807053	152.0
145.827942	244.0
145.886368	180.0
145.95369	268.0
145.972931	92.0
146.010117	148.0
146.034103	1912.0
146.070419	2364.0
146.111053	160.0
146.165405	156.0
146.206696	276.0
146.250458	264.0
146.273682	52.0
146.312622	116.0
146.350723	120.0
146.393326	300.0
146.447052	164.0
146.495239	112.0
146.532532	108.0
146.557068	248.0
146.606079	168.0
146.634995	52.0
146.685608	164.0
146.70311	172.0
146.753113	152.0
146.782059	108.0
146.799713	212.0
146.830292	164.0
146.861786	208.0
146.893005	208.0
146.921951	144.0
146.946075	96.0
147.000031	1760.0
147.02179	460.0
147.039597	592.0
147.078537	1152.0
147.131851	140.0
147.168518	100.0
147.192276	156.0
147.279221	164.0
147.34874	232.0
147.380692	104.0
147.397202	48.0
147.512772	160.0
147.530548	116.0
147.584824	152.0
147.684402	148.0
147.719971	184.0
147.817978	344.0
147.848022	144.0
147.881439	136.0
147.905502	116.0
147.939392	184.0
148.001144	328.0
148.045883	204.0
148.083878	252.0
148.101349	100.0
148.130707	172.0
148.155289	84.0
148.179169	152.0
148.230057	232.0
148.256714	136.0
148.307602	216.0
148.326996	168.0
148.360733	192.0
148.428299	184.0
148.489456	108.0
148.596191	124.0
148.634125	196.0
148.643707	124.0
148.688477	144.0
148.749084	152.0
148.808456	352.0
148.836487	60.0
148.885056	52.0
148.907715	160.0
148.930603	144.0
148.946457	160.0
148.972504	100.0
148.992691	312.0
149.015579	160.0
149.049606	164.0
149.121094	188.0
149.146408	328.0
149.190643	168.0
149.200577	128.0
149.232559	104.0
149.26207	172.0
149.295776	116.0
149.315231	176.0
149.365417	356.0
149.405243	128.0
149.434433	76.0
149.531784	136.0
149.597	136.0
149.634354	204.0
149.671082	164.0
149.690018	180.0
149.727142	232.0
149.826828	120.0
149.901962	96.0
149.919998	140.0
149.939423	204.0
149.961792	164.0
149.97995	88.0
150.011581	144.0
150.018326	140.0
150.026184	248.0
150.05896	356.0
150.152817	192.0
150.165649	204.0
150.216492	160.0
150.238449	120.0
150.279083	140.0
150.311646	120.0
150.32872	104.0
150.414154	92.0
150.469162	212.0
150.497162	144.0
150.533539	232.0
150.572861	112.0
150.599731	92.0
150.641815	176.0
150.682785	184.0
150.70961	192.0
150.778091	48.0
150.817139	196.0
150.843384	252.0
150.86853	164.0
150.912537	144.0
150.966721	180.0
151.022598	164.0
151.067886	116.0
151.108215	180.0
151.159592	76.0
151.188965	224.0
151.230576	172.0
151.252609	276.0
151.274643	92.0
151.365234	336.0
151.387268	40.0
151.463196	168.0
151.495041	188.0
151.538025	264.0
151.563644	188.0
151.615112	200.0
151.640671	152.0
151.676376	120.0
151.71315	140.0
151.735214	148.0
151.760101	164.0
151.801514	204.0
151.823196	168.0
151.844894	128.0
151.902802	156.0
151.92897	176.0
151.95105	112.0
151.980499	128.0
152.014847	132.0
152.050186	232.0
152.125015	136.0
152.177002	144.0
152.212387	136.0
152.250534	124.0
152.267715	128.0
152.290665	212.0
152.334045	244.0
152.393921	324.0
152.417572	72.0
152.425735	176.0
152.513428	168.0
152.535553	128.0
152.562592	40.0
152.579803	168.0
152.624054	88.0
152.710129	140.0
152.730316	116.0
152.74707	212.0
152.762665	180.0
152.787704	276.0
152.806076	132.0
152.872513	148.0
153.03006	172.0
153.051468	180.0
153.071915	196.0
153.160294	204.0
153.24855	192.0
153.270309	104.0
153.282898	172.0
153.313904	224.0
153.43985	112.0
153.472	200.0
153.481384	72.0
153.487534	212.0
153.520432	52.0
153.569962	228.0
153.59935	84.0
153.636353	120.0
153.653625	196.0
153.684464	188.0
153.754807	164.0
153.777008	324.0
153.808167	176.0
153.824692	164.0
153.867599	132.0
153.877563	120.0
153.881592	144.0
153.952301	104.0
153.988068	108.0
154.016525	236.0
154.064529	1520.0
154.111313	216.0
154.132645	172.0
154.159088	160.0
154.265869	168.0
154.318024	140.0
154.347244	196.0
154.394684	96.0
154.430008	128.0
154.460526	148.0
154.509781	136.0
154.533844	140.0
154.573441	220.0
154.658218	208.0
154.685883	116.0
154.726273	136.0
154.765884	76.0
154.788162	68.0
154.812927	128.0
154.832413	152.0
154.870178	160.0
154.901871	88.0
154.937302	132.0
154.956604	208.0
154.973953	192.0
155.03447	180.0
155.06427	228.0
155.166275	148.0
155.229263	160.0
155.266464	108.0
155.303665	200.0
155.387421	168.0
155.415314	32.0
155.454697	160.0
155.493256	216.0
155.525421	220.0
155.545547	132.0
155.577515	152.0
155.605118	136.0
155.675964	304.0
155.705261	216.0
155.75296	116.0
155.867188	264.0
155.902435	308.0
155.950211	124.0
155.998962	148.0
156.035278	112.0
156.079834	92.0
156.117416	188.0
156.136841	188.0
156.163574	184.0
156.242691	144.0
156.306229	168.0
156.324799	44.0
156.362625	120.0
156.391785	140.0
156.452988	136.0
156.48761	216.0
156.534119	140.0
156.558823	176.0
156.576248	136.0
156.627335	144.0
156.645996	220.0
156.683365	152.0
156.718246	144.0
156.745651	132.0
156.790512	172.0
156.80748	168.0
156.824844	144.0
156.851074	292.0
156.892715	240.0
156.950974	216.0
156.994736	184.0
157.027374	188.0
157.057297	144.0
157.093689	160.0
157.119537	228.0
157.144547	144.0
157.199509	136.0
157.226959	144.0
157.267731	132.0
157.321823	208.0
157.351776	140.0
157.389465	180.0
157.429047	228.0
157.446671	340.0
157.481628	152.0
157.581558	344.0
157.598831	140.0
157.624039	92.0
157.694016	112.0
157.724014	48.0
157.743195	208.0
157.782806	116.0
157.834015	148.0
157.87056	196.0
157.904282	124.0
157.932419	184.0
157.956573	144.0
157.973541	132.0
157.995148	208.0
158.033798	4124.0
158.089172	236.0
158.152023	180.0
158.201096	84.0
158.246872	204.0
158.273285	388.0
158.327484	84.0
158.344894	152.0
158.363373	100.0
158.395508	80.0
158.418442	96.0
158.453217	196.0
158.486572	144.0
158.503708	396.0
158.531433	100.0
158.540833	92.0
158.559723	344.0
158.582504	160.0
158.599091	156.0
158.603836	124.0
158.642838	184.0
158.662903	84.0
158.685822	404.0
158.741928	256.0
158.746475	280.0
158.780396	388.0
158.821274	152.0
158.854187	600.0
158.922226	512.0
158.944351	512.0
158.965057	600.0
158.998611	932.0
159.043198	299956.0
159.105392	164.0
159.125885	148.0
159.135925	140.0
159.162445	136.0
159.213043	300.0
159.27449	956.0
159.299194	192.0
159.324112	272.0
159.352386	340.0
159.382874	324.0
159.42627	632.0
159.458511	6492.0
159.482132	500.0
159.509506	244.0
159.514694	200.0
159.534729	204.0
159.585953	128.0
159.612366	64.0
159.633942	176.0
159.649048	456.0
159.671326	132.0
159.6819	148.0
159.689026	472.0
159.724869	156.0
159.763687	212.0
159.797943	164.0
159.813644	172.0
159.851578	116.0
159.885391	400.0
159.912598	240.0
159.947601	204.0
159.986664	52.0
160.005417	208.0
160.045273	44492.0
160.131042	100.0
160.159576	284.0
160.189636	112.0
160.228119	88.0
160.249039	140.0
160.27504	192.0
160.311722	52.0
160.346939	212.0
160.387192	132.0
160.421127	108.0
160.440262	52.0
160.460312	144.0
160.511749	92.0
160.536087	116.0
160.553741	224.0
160.586517	104.0
160.635818	96.0
160.66806	148.0
160.700043	156.0
160.721344	200.0
160.762131	164.0
160.796204	164.0
160.841522	140.0
160.86145	172.0
160.883652	120.0
160.915283	144.0
160.93895	176.0
160.961121	256.0
161.004395	204.0
161.047653	2932.0
161.1035	120.0
161.130493	380.0
161.159271	180.0
161.17421	380.0
161.194611	236.0
161.198685	144.0
161.204803	224.0
161.225677	240.0
161.246155	300.0
161.270691	384.0
161.286438	204.0
161.314514	328.0
161.341888	232.0
161.380371	292.0
161.40715	308.0
161.415771	164.0
161.44664	164.0
161.471527	200.0
161.481979	84.0
161.526184	40.0
161.546417	120.0
161.576065	184.0
161.60141	60.0
161.632126	160.0
161.638992	204.0
161.689499	68.0
161.747604	104.0
161.777588	196.0
161.782547	88.0
161.832413	144.0
161.853516	132.0
161.869827	36.0
161.904663	240.0
161.935211	128.0
161.953415	36.0
161.982941	264.0
162.008636	564.0
162.054184	216.0
162.081146	160.0
162.112549	88.0
162.13588	236.0
162.156677	348.0
162.188202	152.0
162.2285	60.0
162.269608	116.0
162.303055	148.0
162.366882	136.0
162.384903	240.0
162.441299	144.0
162.491409	92.0
162.545242	128.0
162.57515	336.0
162.6259	192.0
162.64621	28.0
162.708725	128.0
162.823944	220.0
162.841736	52.0
162.867599	108.0
162.900146	32.0
162.922058	148.0
162.959427	96.0
162.97699	148.0
163.018921	2752.0
163.062775	84.0
163.094589	156.0
163.137024	276.0
163.209305	100.0
163.325439	120.0
163.351624	124.0
163.372208	64.0
163.402542	184.0
163.489014	128.0
163.523132	180.0
163.546051	40.0
163.619873	136.0
163.678436	108.0
163.754837	40.0
163.815964	104.0
163.845398	160.0
163.915344	160.0
164.026108	3328.0
164.056549	160.0
164.125015	188.0
164.221512	84.0
164.241684	40.0
164.292297	204.0
164.328476	196.0
164.376907	148.0
164.425385	40.0
164.494308	108.0
164.524948	200.0
164.555573	256.0
164.606644	112.0
164.662827	228.0
164.685822	228.0
164.711365	148.0
164.732361	164.0
164.846786	144.0
164.904663	148.0
164.961792	124.0
164.987366	176.0
165.017151	268.0
165.076859	164.0
165.128006	92.0
165.15358	144.0
165.194504	152.0
165.229355	240.0
165.36084	112.0
165.388992	116.0
165.406906	56.0
165.442307	188.0
165.540054	100.0
165.606735	216.0
165.706543	76.0
165.850067	100.0
165.87825	64.0
165.914154	124.0
165.95517	72.0
166.024414	148.0
166.061569	468.0
166.16806	172.0
166.224503	100.0
166.257874	116.0
166.303055	192.0
166.312988	228.0
166.370819	188.0
166.426239	68.0
166.470947	152.0
166.537735	56.0
166.662781	148.0
166.704727	56.0
166.789551	116.0
166.925461	468.0
166.950729	324.0
166.977249	128.0
167.012222	180.0
167.068771	752.0
167.116974	140.0
167.165192	144.0
167.215897	180.0
167.283447	228.0
167.327209	156.0
167.355545	100.0
167.461121	192.0
167.546127	236.0
167.571899	216.0
167.607971	172.0
167.685287	64.0
167.721375	44.0
167.750946	160.0
167.847702	88.0
167.881226	168.0
167.91217	128.0
167.946884	176.0
168.00795	108.0
168.092758	48.0
168.115982	64.0
168.141037	68.0
168.188263	152.0
168.26828	92.0
168.304428	108.0
168.327682	280.0
168.3535	172.0
168.384491	112.0
168.409668	208.0
168.518829	124.0
168.565338	124.0
168.61702	132.0
168.635117	208.0
168.655792	108.0
168.705154	124.0
168.717361	208.0
168.787643	140.0
168.818436	208.0
168.883331	152.0
168.93248	184.0
168.991989	136.0
169.042892	288.0
169.060471	172.0
169.090332	148.0
169.123978	112.0
169.144684	84.0
169.218475	56.0
169.242538	176.0
169.356262	96.0
169.406235	176.0
169.538376	252.0
169.563095	60.0
169.626144	144.0
169.652435	120.0
169.69133	152.0
169.730209	164.0
169.752014	112.0
169.778732	124.0
169.823578	216.0
169.858124	188.0
169.898804	92.0
169.916977	40.0
169.965454	192.0
169.989624	68.0
170.031143	52.0
170.079315	108.0
170.128143	340.0
170.207672	88.0
170.228455	84.0
170.254425	128.0
170.280396	156.0
170.398407	168.0
170.463928	124.0
170.498642	140.0
170.537521	108.0
170.579208	116.0
170.623413	164.0
170.651031	64.0
170.672806	152.0
170.717026	56.0
170.743027	108.0
170.774231	108.0
170.819458	156.0
170.854874	180.0
170.930328	140.0
170.957611	208.0
170.983734	208.0
171.024918	7180.0
171.081055	136.0
171.102127	168.0
171.124817	140.0
171.162018	128.0
171.222397	192.0
171.271393	44.0
171.305832	164.0
171.327225	84.0
171.380814	112.0
171.442749	152.0
171.524155	128.0
171.5849	176.0
171.687363	264.0
171.738571	176.0
171.761459	136.0
171.799896	136.0
171.873642	164.0
171.920609	136.0
171.941879	108.0
171.988312	128.0
172.030701	1572.0
172.099228	188.0
172.199188	148.0
172.248779	112.0
172.346268	164.0
172.390686	208.0
172.41008	176.0
172.437729	160.0
172.516159	84.0
172.602432	88.0
172.675201	180.0
172.802765	80.0
172.848328	60.0
172.866638	116.0
172.884964	36.0
172.930206	140.0
172.98967	160.0
173.029114	912.0
173.154831	152.0
173.197769	128.0
173.269882	128.0
173.301147	60.0
173.335388	44.0
173.444107	100.0
173.465195	84.0
173.487411	136.0
173.547714	44.0
173.58786	148.0
173.610657	176.0
173.644745	48.0
173.744431	108.0
173.846008	236.0
173.890228	100.0
173.989822	216.0
174.028793	1848.0
174.083038	232.0
174.125061	68.0
174.144867	96.0
174.163803	208.0
174.206482	76.0
174.298447	92.0
174.321045	100.0
174.345749	188.0
174.366776	136.0
174.403564	68.0
174.582352	364.0
174.611282	156.0
174.695465	136.0
174.731415	120.0
174.740448	80.0
174.749069	128.0
174.771759	68.0
174.848068	36.0
174.937576	152.0
174.958633	212.0
174.998123	152.0
175.03688	1716.0
175.074493	48.0
175.148239	56.0
175.181351	84.0
175.208832	160.0
175.246597	180.0
175.278	112.0
175.35112	108.0
175.380173	208.0
175.487015	168.0
175.534622	80.0
175.723679	116.0
175.841705	232.0
175.944656	100.0
176.014023	148.0
176.041016	176.0
176.131897	164.0
176.21669	100.0
176.264252	96.0
176.302979	152.0
176.420197	188.0
176.494232	116.0
176.538071	128.0
176.560349	80.0
176.600021	36.0
176.679367	64.0
176.708481	228.0
176.786102	60.0
176.946686	112.0
176.975815	148.0
177.007584	132.0
177.042007	116.0
177.092865	240.0
177.13472	84.0
177.336105	96.0
177.373215	148.0
177.418549	200.0
177.462692	80.0
177.521683	112.0
177.615555	180.0
177.654312	204.0
177.702072	168.0
177.720825	164.0
177.757782	204.0
177.804825	116.0
177.858871	144.0
177.909088	112.0
177.960312	176.0
178.044052	196.0
178.07695	184.0
178.144089	136.0
178.172012	80.0
178.196579	208.0
178.29689	136.0
178.318161	100.0
178.392761	180.0
178.493622	168.0
178.709076	144.0
178.746338	104.0
178.844803	180.0
178.884048	136.0
178.928864	132.0
179.020523	100.0
179.067657	848.0
179.097763	112.0
179.199005	168.0
179.366898	132.0
179.40155	112.0
179.486877	108.0
179.566879	88.0
179.652237	160.0
179.725113	244.0
179.774979	92.0
179.828354	104.0
179.847046	108.0
179.897766	116.0
179.927124	120.0
179.958481	156.0
180.024246	116.0
180.067032	360.0
180.164825	116.0
180.252991	256.0
180.378616	116.0
180.528351	156.0
180.621964	40.0
180.726303	184.0
180.761887	160.0
180.786469	124.0
180.832764	148.0
180.83963	228.0
180.865463	120.0
180.961838	44.0
181.069702	332.0
181.125198	216.0
181.22493	216.0
181.266434	308.0
181.312759	80.0
181.339264	156.0
181.436371	176.0
181.481644	200.0
181.614761	120.0
181.655975	40.0
181.693542	140.0
181.755005	176.0
181.76001	160.0
181.986099	184.0
182.058594	160.0
182.083496	348.0
182.123276	144.0
182.171402	232.0
182.190216	124.0
182.222458	60.0
182.257385	224.0
182.330688	144.0
182.356827	116.0
182.631073	132.0
182.649902	196.0
182.708405	248.0
182.727142	68.0
182.737259	128.0
182.851715	156.0
182.873245	192.0
183.02858	120.0
183.073502	164.0
183.094437	192.0
183.180222	144.0
183.278	164.0
183.371536	48.0
183.428131	72.0
183.458145	60.0
183.476654	160.0
183.594849	140.0
183.619583	180.0
183.651947	56.0
183.678925	160.0
183.73558	40.0
183.754456	108.0
183.827316	48.0
183.873199	152.0
183.89209	152.0
183.935883	160.0
183.994675	88.0
184.032272	244.0
184.064575	148.0
184.161209	184.0
184.197205	32.0
184.251465	148.0
184.309357	128.0
184.46373	96.0
184.572983	116.0
184.618256	396.0
184.674957	140.0
184.72435	144.0
184.775757	100.0
184.821747	140.0
184.873169	84.0
184.894821	72.0
184.946243	144.0
184.989548	140.0
185.022034	288.0
185.040466	104.0
185.116806	124.0
185.141129	228.0
185.176392	152.0
185.309128	76.0
185.363327	172.0
185.39856	148.0
185.422943	180.0
185.489441	136.0
185.558487	128.0
185.605209	132.0
185.694077	164.0
185.75647	124.0
185.824295	136.0
185.874939	132.0
185.900269	28.0
185.959976	92.0
185.987122	64.0
186.036072	1464.0
186.08757	136.0
186.133728	180.0
186.160889	92.0
186.213928	136.0
186.408096	112.0
186.462051	220.0
186.530396	132.0
186.554871	168.0
186.582062	108.0
186.648285	220.0
186.698761	100.0
186.728897	84.0
186.866409	80.0
186.974808	168.0
187.042603	268.0
187.111771	208.0
187.158875	56.0
187.186737	280.0
187.216904	52.0
187.292969	172.0
187.410522	324.0
187.478119	168.0
187.513199	188.0
187.539902	84.0
187.578445	120.0
187.616623	132.0
187.695694	152.0
187.804779	112.0
188.052521	584.0
188.094025	120.0
188.159012	208.0
188.169556	168.0
188.175415	152.0
188.198822	104.0
188.249649	44.0
188.29776	220.0
188.338364	116.0
188.429932	216.0
188.449051	52.0
188.472031	108.0
188.512146	184.0
188.556915	120.0
188.577499	188.0
188.648575	160.0
188.689575	96.0
188.801697	168.0
188.826309	68.0
188.850922	100.0
188.876785	196.0
188.934021	212.0
188.967346	216.0
189.025101	192.0
189.056168	136.0
189.14299	344.0
189.171432	156.0
189.195724	160.0
189.226517	144.0
189.261429	128.0
189.329895	128.0
189.354538	224.0
189.386627	152.0
189.420288	104.0
189.473465	224.0
189.499741	92.0
189.531296	124.0
189.590164	36.0
189.620316	112.0
189.661423	276.0
189.692612	144.0
189.724472	168.0
189.747726	92.0
189.770828	168.0
189.782684	172.0
189.846909	172.0
189.875076	276.0
189.903595	316.0
189.926987	132.0
189.962753	296.0
189.966278	400.0
190.006638	73640.0
190.089279	120.0
190.115555	104.0
190.189392	84.0
190.214096	216.0
190.233154	172.0
190.269547	124.0
190.295609	48.0
190.339722	384.0
190.36351	148.0
190.381195	144.0
190.418732	64.0
190.458572	188.0
190.505997	192.0
190.545868	28.0
190.604996	308.0
190.633591	96.0
190.653702	144.0
190.689606	196.0
190.729858	188.0
190.777328	144.0
190.808945	92.0
190.866348	296.0
190.920822	248.0
190.940933	116.0
191.029404	41188.0
191.067551	1028.0
191.107605	48.0
191.145813	68.0
191.166519	88.0
191.185593	56.0
191.232056	128.0
191.245651	192.0
191.280212	204.0
191.32251	252.0
191.373901	60.0
191.435303	152.0
191.446503	160.0
191.452026	148.0
191.478836	240.0
191.495316	104.0
191.505173	104.0
191.535461	144.0
191.560257	92.0
191.599655	84.0
191.642914	192.0
191.668137	52.0
191.720078	100.0
191.753555	76.0
191.794495	276.0
191.820679	112.0
191.855133	120.0
191.913727	132.0
191.941071	168.0
192.011658	2044.0
192.031769	4944.0
192.061081	228.0
192.104004	116.0
192.150879	104.0
192.197189	184.0
192.219391	72.0
192.248199	136.0
192.28212	100.0
192.308701	76.0
192.336899	144.0
192.365738	184.0
192.391373	128.0
192.441528	52.0
192.470581	144.0
192.498871	220.0
192.53775	136.0
192.559738	180.0
192.574814	40.0
192.581985	108.0
192.63237	92.0
192.689453	80.0
192.73465	164.0
192.781464	100.0
192.876434	96.0
192.938629	52.0
193.007858	1240.0
193.035416	680.0
193.07016	352.0
193.098816	240.0
193.12265	108.0
193.163406	152.0
193.200516	108.0
193.236282	180.0
193.256775	56.0
193.283997	88.0
193.302475	160.0
193.339645	148.0
193.396378	168.0
193.417618	60.0
193.438797	268.0
193.46579	100.0
193.50177	48.0
193.592484	132.0
193.64769	52.0
193.723053	120.0
193.733704	108.0
193.764893	52.0
193.817535	360.0
193.854736	180.0
193.895401	84.0
193.931168	200.0
193.955872	92.0
194.003235	120.0
194.034912	104.0
194.082962	496.0
194.130783	196.0
194.206909	72.0
194.2733	168.0
194.32695	128.0
194.372131	176.0
194.441513	188.0
194.474823	108.0
194.555313	56.0
194.594193	92.0
194.680267	296.0
194.699707	80.0
194.721924	56.0
194.827484	96.0
194.891388	128.0
194.910843	260.0
195.008118	100.0
195.093262	148.0
195.168716	104.0
195.23053	92.0
195.266693	116.0
195.287445	132.0
195.399643	156.0
195.419693	124.0
195.439163	148.0
195.505951	160.0
195.58667	172.0
195.611725	84.0
195.68132	100.0
195.705856	148.0
195.748154	64.0
195.873489	112.0
195.945923	136.0
196.021088	1232.0
196.063644	148.0
196.08696	196.0
196.308289	76.0
196.330597	72.0
196.419083	144.0
196.456116	104.0
196.511765	76.0
196.545395	40.0
196.597092	132.0
196.619141	160.0
196.760315	84.0
196.905533	144.0
197.02803	464.0
197.100281	124.0
197.140213	148.0
197.210083	124.0
197.260391	144.0
197.411377	180.0
197.461716	52.0
197.582001	216.0
197.604385	112.0
197.710724	128.0
197.737366	108.0
197.769501	96.0
197.794693	96.0
197.912277	144.0
198.036255	9796.0
198.185257	192.0
198.256836	196.0
198.296082	80.0
198.357788	144.0
198.379745	132.0
198.413818	164.0
198.531586	144.0
198.586655	120.0
198.621338	84.0
198.694275	160.0
198.726639	164.0
198.784073	120.0
198.836426	304.0
198.929321	144.0
198.963303	164.0
198.970764	140.0
199.041748	4844.0
199.092117	152.0
199.129395	40.0
199.171524	172.0
199.19606	136.0
199.273911	72.0
199.297943	116.0
199.334473	120.0
199.371002	72.0
199.393494	120.0
199.483444	304.0
199.527817	56.0
199.556534	168.0
199.579041	176.0
199.60434	84.0
199.699966	188.0
199.798416	92.0
199.818115	144.0
199.87439	132.0
199.916595	52.0
199.990753	92.0
200.041183	1468.0
200.093933	172.0
200.16272	140.0
200.261154	168.0
200.316422	76.0
200.368546	152.0
200.430634	172.0
200.488388	124.0
200.510849	64.0
200.584137	140.0
200.634872	132.0
200.67717	104.0
200.733566	116.0
200.815353	104.0
200.866119	80.0
200.900558	96.0
200.932892	252.0
201.037216	552.0
201.081757	116.0
201.103149	108.0
201.153961	112.0
201.224533	52.0
201.2556	80.0
201.281006	80.0
201.322205	68.0
201.342621	108.0
201.410934	180.0
201.440582	56.0
201.470245	52.0
201.534637	112.0
201.577621	68.0
201.612335	156.0
201.744385	164.0
201.899902	244.0
201.938141	100.0
201.983841	184.0
202.015594	280.0
202.039322	188.0
202.066803	96.0
202.086609	116.0
202.304535	124.0
202.341339	128.0
202.372482	48.0
202.400803	76.0
202.428101	188.0
202.505585	184.0
202.533615	116.0
202.576401	48.0
202.692566	236.0
202.77475	92.0
202.837112	76.0
202.859787	132.0
202.888138	72.0
203.126358	88.0
203.163239	108.0
203.219986	160.0
203.262543	164.0
203.316467	216.0
203.344849	104.0
203.378021	140.0
203.443268	208.0
203.682739	172.0
203.793533	140.0
203.895844	156.0
203.97258	164.0
204.023758	136.0
204.109055	116.0
204.128967	96.0
204.187256	156.0
204.219971	48.0
204.288239	148.0
204.330185	156.0
204.365067	52.0
204.396301	188.0
204.447586	176.0
204.484589	76.0
204.541504	136.0
204.59845	120.0
204.621231	144.0
204.752213	116.0
204.86615	100.0
204.974289	160.0
205.082718	112.0
205.164642	212.0
205.188202	108.0
205.216721	56.0
205.276779	124.0
205.342194	188.0
205.433472	164.0
205.580826	56.0
205.624649	160.0
205.663177	144.0
205.738831	96.0
205.784515	68.0
205.814087	112.0
205.88446	264.0
205.922653	196.0
205.981567	136.0
206.025467	196.0
206.067581	316.0
206.110138	156.0
206.235886	168.0
206.310211	124.0
206.361679	208.0
206.504669	172.0
206.545563	216.0
206.607651	152.0
206.633392	248.0
206.672943	156.0
206.69426	176.0
206.782501	192.0
206.842316	136.0
206.873795	168.0
206.902435	80.0
206.951096	144.0
207.020065	144.0
207.075867	1000.0
207.117203	116.0
207.197906	72.0
207.330399	276.0
207.463959	88.0
207.52417	76.0
207.575775	160.0
207.610184	52.0
207.793777	124.0
207.922913	32.0
207.984116	100.0
208.014664	128.0
208.054947	276.0
208.087387	644.0
208.175552	112.0
208.321075	120.0
208.469757	160.0
208.505936	104.0
208.534683	160.0
208.569168	176.0
208.678406	120.0
208.698547	196.0
208.7388	132.0
208.812363	180.0
208.850967	160.0
208.97467	244.0
209.013977	472.0
209.055237	76.0
209.092743	1628.0
209.213547	56.0
209.308563	60.0
209.337372	164.0
209.4785	124.0
209.513062	48.0
209.585098	196.0
209.65715	128.0
209.76091	184.0
209.781082	76.0
209.936783	56.0
209.962738	100.0
210.013321	172.0
210.059906	240.0
210.093048	140.0
210.156021	44.0
210.316986	124.0
210.36235	172.0
210.398468	88.0
210.463684	156.0
210.565948	120.0
210.797073	44.0
210.834641	144.0
210.92424	172.0
211.033447	532.0
211.06012	152.0
211.099396	204.0
211.16423	152.0
211.193161	132.0
211.28862	64.0
211.355179	148.0
211.378326	156.0
211.444885	176.0
211.474243	112.0
211.511627	136.0
211.551987	68.0
211.57515	124.0
211.601212	36.0
211.624374	56.0
211.65715	136.0
211.751785	96.0
211.789444	120.0
211.812622	128.0
211.937195	216.0
212.035202	308.0
212.070511	132.0
212.379639	124.0
212.435883	148.0
212.583847	152.0
212.637054	180.0
212.827698	156.0
212.874161	100.0
212.911911	152.0
212.946762	116.0
213.04628	2452.0
213.109451	164.0
213.246033	68.0
213.331741	140.0
213.501892	164.0
213.565872	112.0
213.717148	96.0
213.754654	140.0
213.786987	208.0
213.836472	108.0
213.888855	156.0
213.993668	144.0
214.049454	244.0
214.098495	88.0
214.185883	144.0
214.209183	136.0
214.261627	136.0
214.305328	168.0
214.451035	60.0
214.562027	168.0
214.628876	144.0
214.761093	160.0
215.056473	488.0
215.156982	128.0
215.250427	288.0
215.446121	104.0
215.580536	164.0
215.609756	152.0
215.665283	140.0
215.727859	128.0
215.778214	396.0
215.861176	92.0
216.185898	80.0
216.209305	128.0
216.264511	172.0
216.535751	280.0
216.712982	144.0
216.797974	176.0
216.847794	216.0
216.881012	96.0
216.912277	96.0
217.111664	84.0
217.21138	192.0
217.33461	136.0
217.390366	204.0
217.467438	152.0
217.554733	104.0
217.660431	192.0
217.704483	192.0
217.736786	96.0
217.848404	192.0
218.068802	248.0
218.095245	108.0
218.152069	364.0
218.206955	112.0
218.353989	132.0
218.377518	184.0
218.468384	176.0
218.533447	108.0
218.598175	184.0
218.677643	52.0
218.710022	144.0
218.789734	152.0
218.980911	184.0
219.11937	52.0
219.190079	84.0
219.423416	132.0
219.45607	184.0
219.493622	148.0
219.549728	108.0
219.685425	92.0
219.744431	92.0
219.782776	164.0
219.995285	136.0
220.0271	160.0
220.122253	160.0
220.160645	264.0
220.292694	92.0
220.313293	124.0
220.411743	204.0
220.500397	96.0
220.535172	168.0
220.594986	120.0
220.636383	164.0
220.707336	140.0
220.77536	48.0
220.816757	152.0
220.911423	128.0
220.946213	216.0
221.077118	192.0
221.112625	220.0
221.322815	80.0
221.373154	56.0
221.402771	216.0
221.427856	164.0
221.524216	132.0
221.544952	156.0
221.784988	128.0
221.853165	104.0
221.887848	140.0
221.933212	108.0
221.989822	132.0
222.021042	268.0
222.042938	40.0
222.070755	140.0
222.197189	124.0
222.264908	112.0
222.276413	92.0
222.287628	176.0
222.312927	80.0
222.333694	32.0
222.485077	176.0
222.706375	200.0
222.743439	120.0
222.815994	220.0
222.841492	120.0
222.883377	160.0
222.985245	156.0
223.030365	1208.0
223.058884	476.0
223.104095	144.0
223.195206	240.0
223.22197	168.0
223.504562	76.0
223.549194	136.0
223.635513	104.0
223.823059	144.0
223.927292	100.0
223.973785	132.0
224.03624	1016.0
224.072189	112.0
224.263992	100.0
224.338516	164.0
224.404099	176.0
224.457779	188.0
224.509567	152.0
224.5383	48.0
224.56813	128.0
224.597946	212.0
224.666565	152.0
224.732208	124.0
224.756073	104.0
224.824707	144.0
224.91127	92.0
224.98291	188.0
225.004364	104.0
225.046524	7516.0
225.090408	68.0
225.116043	136.0
225.159088	64.0
225.227783	172.0
225.251678	28.0
225.311432	140.0
225.382538	60.0
225.416901	124.0
225.487732	56.0
225.571426	52.0
225.610291	40.0
225.677414	104.0
225.722031	108.0
225.728897	48.0
225.759796	72.0
225.789703	112.0
225.862335	212.0
225.912354	168.0
225.948242	32.0
225.982361	140.0
226.05365	7976.0
226.205627	160.0
226.229568	48.0
226.263641	116.0
226.344894	116.0
226.414047	100.0
226.511063	136.0
226.569244	124.0
226.582047	52.0
226.593506	108.0
226.725128	164.0
226.864685	140.0
226.906662	68.0
226.95163	136.0
226.999802	192.0
227.055603	1336.0
227.094543	184.0
227.189575	96.0
227.227585	76.0
227.248581	136.0
227.306549	152.0
227.350601	68.0
227.407639	168.0
227.451065	60.0
227.502121	48.0
227.605774	68.0
227.626801	36.0
227.647812	184.0
227.7229	116.0
227.794998	120.0
227.888123	100.0
227.945221	92.0
228.052292	428.0
228.116547	128.0
228.239807	116.0
228.503265	116.0
228.543625	164.0
228.597778	112.0
228.654968	80.0
228.731674	132.0
228.806473	132.0
228.874725	192.0
228.946167	140.0
228.974106	212.0
229.010254	76.0
229.061462	156.0
229.115692	52.0
229.178955	180.0
229.20607	60.0
229.346603	236.0
229.528625	68.0
229.640198	132.0
229.679413	156.0
229.71109	144.0
229.760864	80.0
229.781982	140.0
229.902695	100.0
229.978043	128.0
230.123047	156.0
230.171356	104.0
230.325394	120.0
230.379272	172.0
230.449051	120.0
230.524796	164.0
230.545959	164.0
230.76973	164.0
230.802917	132.0
230.895111	164.0
230.975296	132.0
231.011597	100.0
231.15683	180.0
231.318085	72.0
231.41716	144.0
231.470154	136.0
231.5504	108.0
231.592804	152.0
231.677628	204.0
231.75943	212.0
231.80072	224.0
231.86853	176.0
231.917023	228.0
231.939804	132.0
232.023117	112.0
232.068604	60.0
232.098923	292.0
232.121689	128.0
232.256638	104.0
232.473938	192.0
232.523636	108.0
232.646484	172.0
232.669342	176.0
232.70578	80.0
232.739182	184.0
232.805984	208.0
232.836365	144.0
232.89711	104.0
232.9366	176.0
232.973053	236.0
233.003433	148.0
233.097626	124.0
233.131058	204.0
233.184235	128.0
233.361603	128.0
233.438095	132.0
233.581055	100.0
233.758469	204.0
233.794037	144.0
233.815338	128.0
233.845779	164.0
233.94928	152.0
233.988846	112.0
234.062836	216.0
234.16243	156.0
234.205063	244.0
234.333023	112.0
234.442719	144.0
234.590363	112.0
234.674393	48.0
234.726227	76.0
234.805328	128.0
234.836029	144.0
234.875671	240.0
234.909225	116.0
234.936691	164.0
234.973297	96.0
235.019073	140.0
235.071365	1568.0
235.202255	164.0
235.257126	136.0
235.343811	184.0
235.378799	52.0
235.406738	128.0
235.495316	176.0
235.607788	264.0
235.627899	160.0
235.72139	32.0
235.816132	200.0
235.858932	40.0
235.927689	260.0
236.004547	152.0
236.078064	912.0
236.24118	136.0
236.388046	124.0
236.415588	52.0
236.440079	144.0
236.479858	128.0
236.513535	140.0
236.681915	180.0
236.727859	36.0
236.749283	188.0
236.780411	124.0
236.810547	176.0
236.853424	116.0
236.949921	148.0
237.069427	112.0
237.202759	112.0
237.297806	120.0
237.359131	144.0
237.414001	304.0
237.469528	112.0
237.567688	56.0
237.63826	196.0
237.699631	212.0
237.807037	64.0
238.018066	136.0
238.039429	644.0
238.234924	188.0
238.316422	148.0
238.436676	160.0
238.627274	112.0
238.648788	168.0
238.67955	108.0
238.707214	56.0
238.739838	132.0
238.824097	88.0
238.877518	196.0
239.002533	128.0
239.048218	4192.0
239.116394	296.0
239.155441	180.0
239.227203	104.0
239.260971	72.0
239.290421	120.0
239.362686	124.0
239.433517	88.0
239.467392	128.0
239.501266	68.0
239.522827	112.0
239.556213	160.0
239.667633	132.0
239.898788	128.0
239.920837	400.0
239.960449	76.0
239.998856	168.0
240.057343	11472.0
240.117722	168.0
240.146866	80.0
240.171829	140.0
240.222595	108.0
240.247284	44.0
240.327499	36.0
240.367615	40.0
240.460205	52.0
240.484894	224.0
240.515762	92.0
240.558975	240.0
240.61763	84.0
240.639252	32.0
240.69371	100.0
240.716446	120.0
240.778275	172.0
240.861603	100.0
240.951187	76.0
240.99736	276.0
241.062943	3388.0
241.114975	68.0
241.139694	92.0
241.187424	168.0
241.405579	168.0
241.427231	36.0
241.461243	80.0
241.512329	264.0
241.628296	160.0
241.667023	56.0
241.711838	44.0
241.802536	180.0
241.959457	180.0
241.98732	56.0
242.068359	1112.0
242.157639	52.0
242.222687	88.0
242.250015	300.0
242.324921	40.0
242.365204	44.0
242.410049	72.0
242.504669	140.0
242.556152	176.0
242.613159	148.0
242.647263	172.0
242.708389	168.0
242.749588	60.0
242.786804	120.0
242.828232	112.0
242.904663	132.0
242.935684	120.0
242.988434	72.0
243.019455	72.0
243.057571	464.0
243.115662	112.0
243.159103	124.0
243.584503	80.0
243.627991	60.0
243.687027	124.0
243.876602	36.0
243.982285	128.0
244.007156	104.0
244.092621	148.0
244.115997	208.0
244.234177	88.0
244.399063	116.0
244.458191	68.0
244.502716	196.0
244.654282	44.0
244.679199	168.0
244.707214	184.0
244.794403	188.0
244.821594	176.0
244.942017	172.0
245.018677	60.0
245.179214	176.0
245.29924	132.0
245.358383	128.0
245.445694	148.0
245.520538	84.0
245.561081	108.0
245.677109	144.0
245.754501	28.0
245.812408	136.0
245.910538	160.0
245.935501	144.0
245.963593	88.0
246.004181	112.0
246.069748	184.0
246.138428	104.0
246.216507	144.0
246.260239	116.0
246.312637	160.0
246.443558	188.0
246.522675	132.0
246.560181	48.0
246.644562	188.0
246.871536	160.0
247.107422	120.0
247.279526	240.0
247.423523	132.0
247.487793	172.0
247.722519	136.0
247.783707	128.0
247.821304	120.0
247.876053	152.0
247.968582	208.0
248.006195	244.0
248.152191	148.0
248.250748	104.0
248.376205	120.0
248.699402	76.0
248.80928	60.0
248.878357	56.0
249.035385	220.0
249.066788	116.0
249.315002	236.0
249.497314	80.0
249.531906	52.0
249.563354	156.0
249.704865	168.0
250.01004	140.0
250.208344	148.0
250.557938	164.0
250.67453	224.0
250.721802	116.0
250.805161	152.0
250.926697	124.0
251.024445	160.0
251.100143	124.0
251.134827	172.0
251.160065	116.0
251.233643	236.0
251.276794	116.0
251.355667	208.0
251.469284	108.0
251.516632	144.0
251.743958	172.0
251.860825	176.0
251.977707	308.0
252.023056	136.0
252.076843	180.0
252.107269	152.0
252.145187	108.0
252.21463	128.0
252.222382	124.0
252.315384	152.0
252.502457	64.0
252.685928	132.0
252.708084	212.0
252.736557	120.0
252.818832	116.0
252.983429	120.0
253.027573	136.0
253.087921	116.0
253.171799	172.0
253.211426	116.0
253.252594	96.0
253.331787	108.0
253.473648	160.0
253.498291	156.0
253.575775	196.0
253.613815	128.0
253.768372	96.0
253.816727	120.0
253.867462	168.0
253.947891	188.0
254.086334	104.0
254.159897	144.0
254.203735	148.0
254.244232	184.0
254.58786	132.0
254.635498	88.0
254.683136	64.0
254.797501	120.0
254.888535	240.0
254.921432	132.0
255.46196	116.0
255.541504	104.0
255.59877	108.0
255.723297	124.0
255.777008	132.0
255.799286	164.0
255.888428	144.0
256.086426	648.0
256.133636	116.0
256.175049	116.0
256.214996	180.0
256.251526	176.0
256.477783	116.0
256.573425	148.0
256.630829	160.0
256.83493	120.0
256.968903	176.0
257.019958	188.0
257.086334	160.0
257.267273	108.0
257.345551	144.0
257.38385	168.0
257.61734	160.0
257.701447	140.0
257.747192	108.0
257.855286	184.0
257.923798	144.0
257.965759	188.0
258.074066	148.0
258.643524	120.0
258.733154	60.0
258.824738	152.0
258.89325	140.0
258.947723	104.0
259.101471	252.0
259.143127	56.0
259.178375	136.0
259.22644	196.0
259.264893	184.0
259.309753	176.0
259.367462	168.0
259.498901	192.0
259.54364	84.0
259.614349	100.0
259.74585	176.0
259.893433	140.0
259.967224	136.0
260.134125	48.0
260.211182	148.0
260.238831	124.0
260.346069	96.0
260.419922	116.0
260.532349	224.0
260.644806	196.0
260.673737	76.0
260.834442	100.0
260.888275	80.0
261.197815	124.0
261.234375	176.0
261.348541	224.0
261.376038	152.0
261.409149	180.0
261.445557	140.0
261.490692	148.0
261.529236	132.0
261.57431	176.0
261.603271	176.0
261.648346	72.0
261.728851	80.0
261.806122	80.0
262.029236	168.0
262.112183	224.0
262.151489	180.0
262.221741	176.0
262.28299	144.0
262.312012	144.0
262.389374	136.0
262.559204	216.0
262.598969	120.0
262.624786	88.0
262.711456	156.0
262.786102	156.0
262.81189	72.0
262.876434	88.0
262.976501	208.0
263.015228	116.0
263.193268	132.0
263.279968	76.0
263.378113	248.0
263.40918	56.0
263.513763	140.0
263.522797	168.0
263.582275	176.0
263.632111	132.0
263.669708	108.0
263.722382	116.0
263.780792	140.0
263.809906	56.0
263.837585	124.0
264.023315	140.0
264.068573	72.0
264.094452	124.0
264.120331	112.0
264.162384	156.0
264.269165	116.0
264.320923	164.0
264.353302	240.0
264.43045	172.0
264.50412	232.0
264.706146	236.0
264.775391	148.0
264.838928	92.0
264.916687	128.0
264.965271	152.0
265.028198	264.0
265.057434	76.0
265.08194	128.0
265.147095	116.0
265.161072	96.0
265.171509	156.0
265.183685	40.0
265.256958	96.0
265.301117	96.0
265.412567	144.0
265.539062	196.0
265.565002	140.0
265.590942	48.0
265.697998	188.0
265.795349	112.0
265.82959	196.0
265.85376	136.0
265.8927	76.0
265.942719	76.0
266.037354	2076.0
266.097198	164.0
266.134216	152.0
266.159912	248.0
266.184875	92.0
266.231201	136.0
266.256317	136.0
266.287201	212.0
266.365845	200.0
266.412231	100.0
266.438232	136.0
266.460968	72.0
266.490204	236.0
266.537506	124.0
266.558441	168.0
266.579803	148.0
266.643829	176.0
266.690765	124.0
266.723358	76.0
266.793152	256.0
266.831482	220.0
266.854248	84.0
266.877014	100.0
266.926788	156.0
266.963074	268.0
266.999847	300.0
267.041901	1280.0
267.127838	204.0
267.17038	204.0
267.205872	400.0
267.246307	156.0
267.270416	236.0
267.283203	220.0
267.303009	160.0
267.347534	168.0
267.37027	316.0
267.405884	120.0
267.434021	152.0
267.461853	184.0
267.489594	96.0
267.532806	276.0
267.577576	192.0
267.601074	168.0
267.64682	228.0
267.70224	192.0
267.718109	216.0
267.75647	188.0
267.793213	504.0
267.82959	632.0
267.871765	488.0
267.920532	344.0
268.005219	1124.0
268.05426	323260.0
268.17392	276.0
268.216797	140.0
268.26886	156.0
268.278656	212.0
268.309814	340.0
268.358429	748.0
268.398895	552.0
268.433319	416.0
268.473999	248.0
268.536926	200.0
268.544891	188.0
268.590973	5324.0
268.621857	84.0
268.661896	320.0
268.703278	208.0
268.714233	180.0
268.760925	232.0
268.807495	88.0
268.854156	212.0
268.875641	196.0
268.885498	348.0
268.89386	412.0
268.923737	196.0
268.974548	160.0
269.055878	66340.0
269.117462	180.0
269.18512	120.0
269.223511	136.0
269.257568	40.0
269.283142	208.0
269.31076	56.0
269.34906	212.0
269.391083	244.0
269.437897	140.0
269.487213	124.0
269.562042	80.0
269.614594	188.0
269.652954	196.0
269.683014	164.0
269.713715	196.0
269.761963	140.0
269.79361	196.0
269.837585	68.0
269.875427	76.0
269.888214	100.0
269.958099	164.0
269.990631	232.0
270.050598	20008.0
270.140228	104.0
270.177185	268.0
270.206177	76.0
270.252502	80.0
270.283356	172.0
270.313416	52.0
270.351288	176.0
270.38855	68.0
270.430878	124.0
270.439545	52.0
270.455597	224.0
270.463867	160.0
270.505585	92.0
270.544891	244.0
270.593231	180.0
270.652924	128.0
270.690063	372.0
270.714142	160.0
270.743622	128.0
270.750275	136.0
270.778259	196.0
270.805054	368.0
270.813385	256.0
270.825317	136.0
270.887024	244.0
270.91922	68.0
270.964996	316.0
271.050385	1740.0
271.096344	176.0
271.111755	196.0
271.118195	136.0
271.147003	236.0
271.175873	76.0
271.207458	168.0
271.245453	124.0
271.28598	140.0
271.322723	128.0
271.381012	88.0
271.409088	76.0
271.417816	72.0
271.453796	92.0
271.487793	80.0
271.524048	56.0
271.571136	56.0
271.608612	108.0
271.621552	44.0
271.644928	160.0
271.671661	48.0
271.697906	80.0
271.738068	132.0
271.788116	88.0
271.846802	64.0
271.869385	132.0
271.91861	172.0
271.956543	88.0
272.010132	280.0
272.055634	68.0
272.109344	120.0
272.160675	76.0
272.188171	128.0
272.296021	104.0
272.320251	96.0
272.376709	60.0
272.404877	128.0
272.430023	28.0
272.471191	104.0
272.492432	76.0
272.599304	76.0
272.690887	152.0
272.713928	60.0
272.778534	144.0
272.845367	116.0
272.899994	28.0
272.925049	116.0
272.976105	56.0
273.011139	176.0
273.041412	144.0
273.077087	80.0
273.153229	52.0
273.194092	76.0
273.443665	108.0
273.51178	92.0
273.67627	48.0
273.716034	72.0
273.745697	32.0
273.781921	108.0
273.815277	120.0
273.894104	64.0
273.956482	52.0
274.06192	52.0
274.121216	56.0
274.236572	80.0
274.312408	60.0
274.435944	76.0
274.70813	120.0
274.759949	68.0
274.962189	36.0
275.048035	60.0
275.320801	84.0
275.389099	96.0
275.457489	48.0
275.569824	72.0
275.694092	92.0
275.811066	128.0
275.887115	120.0
275.913544	64.0
276.328552	108.0
276.505676	84.0
276.886414	100.0
277.075226	100.0
277.160065	80.0
277.290619	36.0
277.386749	40.0
277.472961	124.0
277.572418	56.0
278.054565	108.0
278.262604	148.0
278.338959	40.0
278.435272	92.0
278.637909	64.0
278.714325	104.0
278.900452	136.0
278.945435	104.0
279.079956	96.0
279.106567	80.0
279.163086	152.0
279.297668	80.0
279.365997	64.0
279.439178	88.0
279.622223	72.0
279.705414	144.0
279.94516	44.0
280.005096	60.0
280.158325	32.0
280.278259	288.0
280.308258	80.0
280.341583	204.0
280.381592	72.0
280.411591	100.0
280.464905	60.0
280.531586	80.0
280.714966	104.0
280.988495	60.0
281.015167	100.0
281.295502	68.0
281.596039	80.0
281.646149	48.0
281.696259	56.0
281.766418	80.0
281.856628	36.0
281.883362	108.0
281.980286	104.0
282.010345	44.0
282.037109	108.0
282.083893	132.0
282.274475	100.0
282.36142	60.0
282.428314	60.0
282.480713	84.0
282.538727	76.0
282.712708	72.0
282.81311	52.0
282.913544	40.0
283.161346	120.0
283.214935	96.0
283.432709	72.0
283.496368	40.0
283.702057	76.0
283.762939	48.0
283.794708	80.0
284.069733	84.0
284.113342	48.0
284.257629	68.0
284.730988	64.0
284.804871	56.0
284.97226	160.0
285.386292	56.0
285.487152	68.0
285.517426	76.0
285.611603	100.0
285.741272	96.0
285.857208	48.0
286.146698	96.0
286.278015	104.0
286.379059	64.0
286.458771	48.0
286.962067	60.0
287.255493	108.0
287.481537	76.0
287.734711	148.0
287.80899	108.0
287.954193	40.0
288.00824	208.0
288.035278	32.0
288.329224	56.0
288.423859	84.0
288.535431	56.0
288.59967	96.0
288.914215	100.0
289.635284	92.0
289.76062	128.0
290.760986	92.0
290.818665	156.0
290.998596	108.0
291.89566	56.0
292.327698	32.0
292.388947	68.0
292.708954	96.0
292.804321	116.0
293.23703	40.0
293.596436	124.0
293.673462	80.0
294.27066	48.0
295.265076	40.0
295.925537	104.0
296.011139	56.0
296.614777	108.0
296.850739	92.0
297.145721	192.0
297.43399	128.0
297.934204	128.0
298.540344	44.0
298.660706	68.0
298.719208	136.0
299.042664	68.0
299.17691	40.0
299.225098	124.0
299.516754	104.0
299.686646	64.0
299.734894	108.0
300.020966	80.0
300.078644	5808.0
300.208344	60.0
300.53833	80.0
300.565918	48.0
300.590088	72.0
300.628052	64.0
300.74884	88.0
300.790253	44.0
300.862762	92.0
300.907654	60.0
301.082214	916.0
301.22937	124.0
301.367554	204.0
301.667694	80.0
301.806	32.0
302.07901	328.0
302.134583	56.0
302.671082	80.0
302.882324	104.0
302.958557	76.0
303.097656	132.0
303.735077	32.0
304.050812	140.0
305.019897	52.0
305.611145	48.0
305.725983	52.0
305.934814	76.0
306.147217	80.0
308.673798	96.0
308.789215	100.0
309.080353	164.0
309.226562	48.0
310.063629	100.0
310.852722	124.0
311.41095	52.0
312.106781	80.0
312.8703	76.0
313.874481	80.0
314.29071	64.0
314.633087	120.0
315.442078	52.0
315.778015	84.0
315.809845	56.0
316.51767	72.0
317.162476	64.0
317.325531	68.0
317.726318	112.0
318.13089	80.0
318.656525	116.0
319.168365	64.0
320.439087	76.0
320.877472	88.0
322.830719	96.0
323.134766	76.0
323.7612	120.0
323.822083	36.0
324.675079	88.0
325.145081	32.0
325.299408	80.0
325.497559	44.0
325.7052	60.0
326.147186	52.0
327.417297	56.0
327.546967	48.0
328.127167	136.0
329.086914	72.0
329.596222	80.0
329.628754	40.0
329.831146	72.0
330.178253	28.0
330.536407	76.0
330.967163	156.0
332.297424	72.0
332.703918	92.0
333.008942	60.0
333.172394	100.0
335.428711	32.0
335.789673	72.0
335.953827	96.0
336.289551	100.0
337.586548	44.0
338.186584	52.0
340.691162	80.0
341.827332	68.0
342.69635	84.0
343.746643	72.0
343.961334	108.0
344.142212	96.0
344.493103	40.0
344.825653	100.0
345.476471	64.0
345.790985	108.0
346.768799	44.0
347.247101	60.0
347.5513	44.0
348.992523	100.0
349.08548	112.0
349.345856	72.0
350.090271	36.0
350.127533	148.0
350.593231	112.0
352.175171	104.0
352.276031	92.0
353.16571	52.0
353.292877	132.0
353.700775	76.0
353.861755	84.0
355.353516	44.0
355.649994	100.0
355.751343	100.0
356.427399	96.0
356.675446	96.0
360.08548	48.0
361.257263	72.0
363.287842	60.0
365.03125	36.0
365.776978	76.0
366.641602	48.0
367.091461	44.0
368.828644	48.0
369.100098	92.0
370.389862	80.0
370.734711	132.0
370.769196	80.0
370.884186	76.0
371.38266	68.0
371.532257	52.0
374.080231	96.0
374.503815	60.0
374.592407	68.0
374.638641	108.0
375.799133	116.0
376.43219	84.0
378.40036	116.0
380.152435	40.0
380.785278	64.0
381.018341	124.0
382.243164	124.0
382.601257	108.0
385.616638	44.0
385.722168	84.0
385.95285	60.0
386.786163	52.0
386.872284	92.0
386.997589	96.0
387.228638	96.0
387.643921	52.0
387.781097	60.0
388.259399	84.0
390.525635	48.0
390.631866	64.0
390.742004	84.0
390.808899	40.0
391.096191	84.0
391.367828	128.0
392.58551	112.0
394.164551	80.0
395.430084	40.0
395.56073	72.0
395.707214	56.0
397.237	52.0
398.376343	60.0
400.456757	40.0
401.050446	128.0
401.728363	40.0
403.081879	36.0
405.671478	100.0
406.77066	88.0
407.694489	60.0
408.97348	72.0
411.21051	88.0
412.648651	44.0
412.717377	72.0
412.790161	68.0
413.486023	80.0
414.380951	52.0
414.437683	68.0
415.349884	132.0
415.678497	64.0
416.01944	60.0
419.289856	56.0
421.930939	44.0
421.963623	68.0
422.388947	64.0
422.528046	112.0
423.313965	52.0
423.584259	84.0
424.465454	92.0
424.588501	96.0
425.125946	52.0
425.548737	104.0
425.610321	56.0
426.333344	104.0
426.464844	60.0
426.678619	100.0
432.896973	40.0
437.22287	56.0
437.393524	96.0
437.447632	80.0
438.701599	76.0
441.281738	36.0
441.478271	60.0
441.988647	40.0
442.415558	64.0
443.135925	96.0
445.632446	80.0
446.818115	40.0
447.803162	56.0
448.717621	40.0
449.286987	180.0
449.979156	64.0
450.278961	68.0
450.78595	48.0
451.796509	92.0
456.755676	56.0
458.693237	88.0
458.79126	48.0
459.153717	56.0
460.246216	76.0
460.41275	84.0
460.515259	68.0
461.147614	88.0
461.763306	72.0
461.942963	100.0
463.964355	44.0
465.496155	56.0
465.706604	64.0
465.932983	132.0
466.325348	40.0
467.353149	168.0
467.865356	116.0
468.09787	60.0
468.351044	76.0
469.382019	48.0
469.679596	72.0
470.296661	72.0
472.483307	72.0
472.539551	52.0
474.586884	100.0
474.844147	44.0
476.002899	72.0
476.432892	60.0
478.459564	48.0
479.160767	80.0
479.217407	80.0
480.813477	100.0
483.496948	36.0
484.228119	68.0
485.012421	44.0
486.4776	76.0
487.136322	40.0
487.281311	72.0
489.87262	48.0
490.018005	60.0
491.486298	48.0
494.951843	40.0
495.292877	52.0
496.334381	64.0
496.392029	92.0
496.52063	84.0
498.1008	68.0
500.555878	40.0
503.534973	64.0
503.972778	68.0
504.173889	68.0
507.316132	80.0
507.481995	68.0
507.670349	112.0
511.241882	112.0
511.84964	88.0
513.111267	76.0
515.404175	48.0
515.892334	40.0
517.172485	48.0
517.733948	60.0
519.084412	72.0
519.324768	104.0
519.578857	72.0
520.831787	60.0
522.836914	108.0
525.060242	92.0
526.954651	52.0
528.307983	40.0
529.681335	92.0
529.85083	88.0
532.28186	100.0
533.389099	76.0
536.081665	44.0
536.565613	64.0
536.814636	40.0
538.189758	112.0
538.780945	44.0
542.585327	84.0
546.928894	84.0
550.897339	72.0
550.981445	44.0
552.407288	92.0
553.263733	36.0
554.209839	52.0
556.268738	48.0
556.940247	140.0
558.562012	68.0
558.656067	76.0
558.81604	48.0
559.677429	60.0
560.685547	60.0
561.7323	36.0
562.595947	76.0
565.621399	40.0
567.687195	92.0
570.507629	88.0
570.754883	60.0
570.907043	56.0
572.887146	52.0
574.26001	92.0
575.510376	44.0
575.634521	120.0
575.968811	88.0
580.755554	48.0
581.768066	52.0
583.036194	120.0
585.518677	80.0
586.56427	56.0
590.238464	104.0
590.780151	56.0
592.474609	56.0
592.770203	92.0
593.070679	112.0
595.720215	88.0
596.522034	92.0
596.964478	136.0
597.270935	44.0
597.689331	52.0
603.61615	60.0
605.843201	56.0
606.730286	60.0
607.225525	52.0
608.13324	84.0
609.036743	60.0
612.39624	104.0
612.494751	48.0
613.702209	92.0
615.463745	36.0
615.78479	68.0
619.841553	68.0
622.987244	80.0
623.374817	84.0
624.5979	84.0
624.752075	80.0
625.105347	48.0
625.403992	120.0
626.150818	36.0
628.553772	64.0
629.931763	112.0
635.629578	68.0
636.021057	80.0
639.398682	48.0
640.21936	68.0
640.476196	80.0
640.647522	80.0
646.064514	76.0
647.107117	112.0
647.259033	92.0
647.623657	60.0
649.620911	60.0
653.553406	124.0
658.91217	92.0
659.520325	48.0
663.779968	60.0
666.675293	84.0
666.721558	52.0
670.447693	56.0
671.64386	48.0
675.766479	64.0
677.532043	48.0
682.629211	84.0
685.904114	120.0
689.343628	64.0
691.461731	84.0
691.639648	40.0
692.393677	64.0
701.510315	36.0
703.636414	56.0
705.289978	56.0
709.466736	40.0
710.946655	76.0
713.905762	60.0
720.67041	56.0
720.734497	32.0
720.868103	52.0
721.926575	152.0
722.017517	124.0
724.110229	68.0
728.138123	44.0
734.807861	104.0
736.80011	80.0
738.389343	60.0
739.758362	164.0
741.312866	60.0
744.307312	128.0
744.643982	44.0
745.067688	220.0
745.290466	40.0
752.152771	72.0
754.441711	32.0
757.785706	116.0
758.925842	76.0
761.120667	256.0
761.950073	168.0
762.7854	204.0
765.977112	76.0
766.456421	88.0
768.309021	40.0
770.578247	52.0
772.933716	52.0
774.544861	60.0
777.278198	100.0
779.816223	72.0
781.2453	136.0
785.919861	56.0
786.444458	152.0
788.404907	256.0
789.836243	80.0
791.828918	112.0
792.192993	76.0
793.560547	100.0
793.930603	36.0
797.271057	44.0
797.394714	196.0
797.945618	108.0
798.896057	64.0
800.624146	224.0
803.278931	188.0
805.254578	48.0
806.944214	84.0
813.561646	124.0
813.618469	80.0
814.351013	80.0
815.117981	84.0
815.771606	156.0
815.817078	92.0
818.855713	76.0
819.060791	72.0
820.679321	112.0
823.184387	96.0
824.709839	128.0
826.11084	88.0
826.305359	208.0
830.189087	148.0
830.366882	56.0
831.399597	64.0
831.889832	128.0
832.398499	272.0
834.127869	172.0
835.76123	68.0
835.841797	68.0
836.235168	84.0
836.434631	180.0
842.3396	104.0
842.518677	176.0
842.645813	88.0
844.646118	188.0
844.871704	136.0
851.520569	88.0
854.415466	100.0
855.736694	56.0
856.208374	128.0
856.540344	84.0
857.391052	104.0
857.641663	152.0
859.525452	200.0
860.097412	120.0
860.144104	44.0
861.668396	160.0
863.12384	116.0
864.750183	216.0
865.241943	156.0
865.394165	140.0
865.458557	128.0
867.479858	128.0
867.984131	48.0
868.236267	164.0
869.321594	32.0
871.723511	100.0
871.935059	252.0
872.887451	192.0
873.746216	148.0
873.958008	92.0
874.51123	88.0
874.929199	144.0
876.165955	72.0
876.719849	200.0
877.863586	64.0
881.706909	164.0
881.896057	140.0
883.350708	68.0
883.676086	188.0
884.68219	104.0
884.8302	128.0
885.185486	112.0
887.466858	104.0
888.504822	84.0
890.594421	208.0
899.096802	52.0
899.150513	104.0
899.781311	184.0
900.266907	56.0
901.886108	112.0
902.268677	148.0
902.471985	60.0
903.476746	192.0
905.104797	92.0
905.158691	188.0
906.057129	216.0
906.54248	48.0
907.633545	184.0
908.449219	136.0
908.62323	56.0
911.499329	96.0
912.070312	68.0
913.952759	160.0
914.121216	140.0
914.945862	148.0
915.066284	176.0
916.64447	76.0
916.831238	72.0
921.985352	92.0
922.553528	52.0
923.738831	120.0
926.293457	104.0
926.63269	152.0
926.965942	160.0
927.426575	32.0
928.257202	76.0
928.966797	140.0
929.069946	176.0
929.731384	152.0
930.356567	136.0
930.720886	80.0
932.895996	136.0
933.54657	124.0
933.929749	48.0
936.997925	160.0
938.607117	136.0
938.759583	176.0
941.121094	44.0
944.280579	160.0
944.696533	144.0
945.314514	132.0
946.661316	128.0
947.837524	56.0
950.49884	172.0
950.627686	52.0
951.401123	180.0
953.919861	160.0
955.14978	40.0
955.457397	36.0
957.913757	96.0
958.751709	120.0
959.016785	84.0
959.978577	68.0
960.576843	116.0
961.428345	44.0
962.922424	128.0
965.542969	180.0
966.347168	144.0
966.638	124.0
967.430298	44.0
968.180725	204.0
968.867065	124.0
969.387573	208.0
970.605957	124.0
971.371643	204.0
971.43988	176.0
971.725281	72.0
974.767883	52.0
977.914795	52.0
979.558716	52.0
979.720703	40.0
979.880127	188.0
980.393616	168.0
981.933594	120.0
982.224731	160.0
982.732117	100.0
982.944275	152.0
983.175171	44.0
984.036621	80.0
985.273254	60.0
985.710632	172.0
987.035889	224.0
987.301392	112.0
987.999084	112.0
990.359131	180.0
991.587219	64.0
994.05011	124.0
994.962036	152.0
995.822388	192.0
996.098755	32.0
996.21814	152.0
996.789856	168.0
997.361816	108.0
998.065979	144.0
999.154053	232.0
1000.299438	48.0
1001.735291	100.0
1003.361206	172.0
1004.729797	136.0
1004.83075	144.0
1004.988525	56.0
1006.528687	132.0
1008.247009	156.0
1009.157288	160.0
1009.966797	212.0
1010.453918	36.0
1010.631104	124.0
1010.890564	152.0
1011.010803	180.0
1011.200623	108.0
1011.384216	112.0
1012.501831	124.0
1013.372803	60.0
1014.792542	220.0
1017.920837	104.0
1018.77832	128.0
1019.032471	48.0
1019.140503	244.0
1019.839539	60.0
1020.348145	192.0
1022.173645	64.0
1024.223755	152.0
1026.269531	64.0
1027.564331	132.0
1030.55249	184.0
1030.903931	64.0
1031.504761	172.0
1031.639038	92.0
1032.355103	212.0
1033.698608	180.0
1034.421753	184.0
1035.446289	96.0
1036.259888	136.0
1036.311157	132.0
1036.932739	72.0
1038.997559	124.0
1039.196411	44.0
1039.446777	188.0
1040.570068	120.0
1041.115845	124.0
1041.578247	140.0
1042.773438	148.0
1043.02417	140.0
1043.242676	156.0
1043.866333	132.0
1044.606079	120.0
1045.037109	180.0
1046.234253	128.0
1046.562622	204.0
1047.303223	172.0
1047.432007	40.0
1047.618896	124.0
1047.85083	172.0
1048.102051	44.0
1048.456543	188.0
1049.004395	192.0
1049.907104	184.0
1049.978027	56.0
1051.051392	128.0
1051.791138	168.0
1052.636963	200.0
1053.276367	204.0
1054.420044	92.0
1055.079346	48.0
1055.266846	152.0
1055.350952	100.0
1055.758301	136.0
1056.948608	48.0
1057.641113	168.0
1057.712402	128.0
1057.932495	216.0
1058.029541	100.0
1059.31189	208.0
1059.545044	136.0
1060.594849	120.0
1062.371704	140.0
1063.228271	152.0
1063.961792	152.0
1065.725464	172.0
1066.365234	116.0
1066.531494	172.0
1066.878784	172.0
1066.937378	140.0
1068.739014	132.0
1068.921143	96.0
1069.845459	196.0
1069.897583	256.0
1070.418457	88.0
1071.141357	72.0
1071.310791	180.0
1071.493164	80.0
1072.06665	148.0
1073.12915	84.0
1073.533447	188.0
1073.729126	172.0
1074.087769	216.0
1074.557495	52.0
1074.629272	132.0
1075.503784	184.0
1077.665527	168.0
1078.678467	284.0
1078.802734	180.0
1079.423828	120.0
1079.521973	96.0
1079.574219	172.0
1079.711548	100.0
1081.157471	156.0
1081.203247	148.0
1081.628784	176.0
1082.84668	172.0
1083.344482	184.0
1083.639282	148.0
1085.061523	140.0
1085.245117	168.0
1085.520508	140.0
1085.599243	76.0
1085.68457	284.0
1086.642212	232.0
1087.48877	92.0
1087.698853	156.0
1089.248535	160.0
1091.062378	80.0
1091.463501	140.0
1091.812012	136.0
1092.022461	200.0
1092.450073	92.0
1092.85144	120.0
1093.035645	228.0
1093.660889	132.0
1093.950562	188.0
1094.233643	212.0
1094.81311	212.0
1094.859131	108.0
1095.102905	104.0
1095.148926	128.0
1095.280762	180.0
1095.412476	172.0
1097.840576	124.0
1098.385498	232.0
1099.150879	72.0
1099.309204	208.0
1100.6427	124.0
1102.128906	148.0
1102.472534	112.0
1102.730347	212.0
1102.789795	144.0
1102.849243	164.0
1103.02771	84.0
1103.212891	144.0
1104.317139	204.0
1104.515625	116.0
1104.753784	128.0
1105.197021	156.0
1105.832397	152.0
1106.573853	176.0
1107.116821	124.0
1109.091187	124.0
1109.502197	148.0
1109.707764	216.0
1109.767456	112.0
1110.165283	128.0
1110.768921	136.0
1110.934692	124.0
1111.120483	208.0
1111.352783	116.0
1111.890259	112.0
1112.527466	72.0
1112.700073	176.0
1113.151611	120.0
1113.483765	188.0
1114.500122	96.0
1114.898804	56.0
1114.945312	152.0
1115.470459	128.0
1115.636719	84.0
1115.989014	184.0
1116.467896	192.0
1116.960083	92.0
1117.671875	88.0
1118.19104	116.0
1118.650269	176.0
1118.949951	56.0
1119.016479	156.0
1119.302734	56.0
1120.401855	80.0
1121.108154	124.0
1121.248047	148.0
1121.308105	124.0
1121.767944	180.0
1122.088013	48.0
1122.914917	160.0
1123.155029	156.0
1125.317261	144.0
1125.925049	216.0
1126.49939	88.0
1127.013916	132.0
1127.241089	72.0
1127.909058	140.0
1128.317261	144.0
1129.35376	92.0
1129.574463	148.0
1129.775269	204.0
1129.87561	176.0
1130.18335	104.0
1130.317139	108.0
1130.544678	188.0
1130.805786	196.0
1131.187256	192.0
1131.321167	92.0
1131.662598	112.0
1131.876953	220.0
1132.271973	92.0
1132.392578	60.0
1133.22998	92.0
1133.786133	120.0
1133.839722	224.0
1134.10791	156.0
1135.408569	100.0
1135.581543	128.0
1135.770874	84.0
1136.837646	140.0
1136.904785	56.0
1136.958374	124.0
1137.025513	204.0
1137.07251	88.0
1138.146606	128.0
1138.89209	72.0
1139.033203	168.0
1139.409424	148.0
1140.269531	128.0
1140.356934	60.0
1140.417358	124.0
1141.264526	104.0
1141.937012	184.0
1142.629883	72.0
1143.868164	212.0
1144.373047	200.0
1144.507812	132.0
1144.851196	120.0
1146.259155	164.0
1146.31311	176.0
1146.670288	136.0
1146.778076	128.0
1146.993774	72.0
1147.216309	128.0
1147.897217	128.0
1147.998413	172.0
1148.558228	120.0
1149.192383	136.0
1149.421875	136.0
1149.489258	180.0
1150.751587	180.0
1151.480957	116.0
1151.913208	128.0
1152.318604	84.0
1152.460449	160.0
1152.615845	76.0
1152.757812	136.0
1153.278198	68.0
1154.015137	152.0
1154.671021	40.0
1155.158081	124.0
1155.773682	148.0
1155.929321	128.0
1156.260986	96.0
1156.477539	124.0
1157.093628	240.0
1157.899414	76.0
1158.109375	96.0
1158.610718	64.0
1159.186646	160.0
1159.606812	100.0
1160.325439	104.0
1161.105225	124.0
1162.020996	160.0
1162.389771	176.0
1162.597778	148.0
1162.6521	120.0
1163.656738	300.0
1163.887329	168.0
1164.166016	124.0
1164.519165	100.0
1164.865601	176.0
1165.123779	152.0
1165.422729	132.0
1165.762573	68.0
1167.598145	144.0
1167.679688	152.0
1167.897461	116.0
1168.366821	160.0
1168.44165	120.0
1168.672974	172.0
1168.870483	140.0
1169.850464	144.0
1170.211304	64.0
1170.388306	100.0
1170.796875	144.0
1170.878662	172.0
1170.967163	148.0
1171.791382	176.0
1172.568237	176.0
1173.79541	164.0
1174.054565	128.0
1175.241577	188.0
1175.309814	184.0
1175.671509	228.0
1176.367676	92.0
1177.282593	92.0
1177.494385	172.0
1177.999756	56.0
1178.566895	188.0
1178.819702	60.0
1180.125366	152.0
1180.699829	124.0
1181.144409	96.0
1181.657471	56.0
1181.764282	188.0
1182.485474	148.0
1183.252197	140.0
1183.395996	156.0
1184.005493	124.0
1184.060181	164.0
1184.265747	208.0
1184.930176	160.0
1185.361938	148.0
1185.807373	156.0
1186.191162	104.0
1186.47229	212.0
1186.849365	148.0
1186.993408	136.0
1187.200562	172.0
1187.356812	128.0
1187.711548	176.0
1187.8302	204.0
1188.886841	144.0
1189.32605	44.0
1189.864868	128.0
1189.911987	240.0
1190.040039	116.0
1190.21167	120.0
1190.44519	172.0
1191.509888	156.0
1191.877319	108.0
1191.977173	76.0
1192.025269	80.0
1192.403198	80.0
1192.561279	96.0
1192.691895	236.0
1192.767578	56.0
1193.14563	148.0
1193.303711	160.0
1193.730103	88.0
1193.970825	164.0
1194.170288	124.0
1194.920044	180.0
1195.160889	144.0
1195.394897	64.0
1195.800903	148.0
1195.869751	188.0
1196.427368	68.0
1197.30188	236.0
1197.432129	92.0
1197.63501	212.0
1198.107788	104.0
1198.304932	148.0
1198.376465	160.0
1198.758789	168.0
1199.141479	124.0
1199.644653	148.0
1200.354858	152.0
1200.913452	72.0
1202.251953	56.0
1202.396851	116.0
1202.880005	68.0
1204.309448	168.0
1204.37854	108.0
1205.373413	124.0
1206.382568	132.0
1206.666016	76.0
1207.13623	152.0
1207.28833	48.0
1207.412842	116.0
1207.737915	72.0
1208.042236	148.0
1208.1875	152.0
1208.249756	180.0
1208.325928	172.0
1208.436646	168.0
1208.761841	152.0
1209.031738	52.0
1209.170166	156.0
1209.322388	60.0
1209.440063	152.0
1209.827759	88.0
1210.097778	104.0
1210.166992	136.0
1210.679443	108.0
1210.991089	172.0
1212.030273	164.0
1213.021362	116.0
1213.361084	144.0
1213.707764	124.0
1214.156616	172.0
1214.290283	80.0
1214.886841	192.0
1214.942383	112.0
1215.039551	140.0
1215.122803	84.0
1216.962158	112.0
1217.042236	480.0
1218.23999	120.0
1218.538818	212.0
1219.150269	200.0
1219.852295	180.0
1220.589355	108.0
1220.69812	116.0
1220.985718	132.0
1221.117798	144.0
1221.300293	120.0
1221.791382	140.0
1222.258789	68.0
1222.906006	104.0
1223.066162	132.0
1223.469849	244.0
1223.539551	192.0
1223.742554	136.0
1223.978882	164.0
1224.326416	192.0
1224.444702	124.0
1225.747559	188.0
1225.900879	244.0
1226.904541	172.0
1227.11377	124.0
1227.462402	100.0
1227.873779	100.0
1227.99939	160.0
1228.280518	184.0
1228.376099	144.0
1228.697021	108.0
1228.878418	188.0
1228.927246	80.0
1229.024902	52.0
1229.185425	144.0
1229.276123	172.0
1229.471558	156.0
1229.895264	184.0
1230.23938	44.0
1230.476685	160.0
1230.972534	96.0
1231.056274	124.0
1231.209961	148.0
1231.510254	116.0
1231.635986	144.0
1232.055542	196.0
1232.439453	84.0
1232.844727	252.0
1233.324097	204.0
1233.487793	348.0
1233.900269	160.0
1234.921265	164.0
1235.061157	144.0
1235.410889	156.0
1235.683716	152.0
1235.795654	200.0
1235.929443	112.0
1236.054565	124.0
1236.267334	212.0
1236.782471	48.0
1236.936523	156.0
1237.090454	112.0
1237.342529	120.0
1238.238892	36.0
1238.76416	100.0
1238.848267	228.0
1239.023438	80.0
1239.240601	168.0
1239.668091	116.0
1240.242798	176.0
1240.691406	144.0
1240.824097	204.0
1241.077148	188.0
1241.392578	204.0
1241.504883	108.0
1241.792358	172.0
1241.918579	84.0
1242.33252	152.0
1243.356934	80.0
1243.525391	196.0
1243.595581	72.0
1244.044922	40.0
1244.14624	260.0
1244.339722	196.0
1244.894531	84.0
1245.329956	164.0
1245.435303	140.0
1245.997314	156.0
1246.215088	160.0
1246.390747	52.0
1246.636719	204.0
1246.735107	180.0
1246.875732	124.0
1247.302979	116.0
1247.845825	100.0
1248.225464	80.0
1248.53125	124.0
1248.893555	152.0
1248.942871	64.0
1249.027222	160.0
1249.299316	148.0
1250.047485	160.0
1250.160034	172.0
1250.582275	116.0
1250.730103	88.0
1250.870972	168.0
1251.687622	132.0
1251.779175	168.0
1252.539917	116.0
1252.603271	140.0
1252.913208	128.0
1253.187988	72.0
1253.371216	96.0
1253.498047	96.0
1253.709473	140.0
1254.160522	152.0
1254.724487	228.0
1254.837402	148.0
1255.359131	52.0
1255.578003	160.0
1255.866943	100.0
1256.050415	136.0
1256.117554	128.0
1256.381958	144.0
1256.719849	80.0
1256.868774	40.0
1256.98877	172.0
1257.052246	136.0
1257.144043	228.0
1258.351074	196.0
1258.404541	100.0
1258.704102	144.0
1258.77478	160.0
1258.908936	100.0
1259.219604	152.0
1259.692871	156.0
1259.805908	148.0
1259.897827	100.0
1260.010864	156.0
1260.16626	116.0
1260.384033	92.0
1260.512451	176.0
1260.569092	160.0
1260.766968	144.0
1260.964844	124.0
1261.233398	96.0
1261.417236	196.0
1261.72644	92.0
1261.961548	192.0
1262.191284	176.0
1262.520264	104.0
1262.78894	140.0
1262.859741	180.0
1263.043579	140.0
1263.09314	196.0
1263.567139	100.0
1263.77832	132.0
1264.28894	104.0
1264.45166	204.0
1264.628662	156.0
1265.131226	196.0
1265.244263	120.0
1265.331787	172.0
1265.407349	108.0
1265.55603	148.0
1265.873047	224.0
1265.959717	108.0
1266.065918	92.0
1266.20752	132.0
1266.490845	180.0
1266.845093	152.0
1267.037476	148.0
1267.114258	104.0
1267.461548	200.0
1267.574829	156.0
1267.645752	200.0
1267.822876	168.0
1267.970093	168.0
1268.425415	120.0
1269.311646	184.0
1269.893188	132.0
1270.694824	160.0
1270.765747	136.0
1270.950195	36.0
1271.223267	196.0
1271.64978	200.0
1271.80188	84.0
1272.00061	80.0
1272.153076	160.0
1272.476318	64.0
1273.072754	92.0
1273.846924	220.0
1274.038818	148.0
1274.102783	44.0
1274.259033	56.0
1274.429565	144.0
1274.685425	196.0
1275.097534	36.0
1275.154419	124.0
1275.339966	160.0
1275.438721	152.0
1275.53833	132.0
1275.616455	100.0
1275.6875	52.0
1275.763184	212.0
1275.872437	180.0
1275.936401	56.0
1275.989014	100.0
1276.545898	212.0
1276.796753	124.0
1277.031494	164.0
1277.128784	164.0
1277.372925	128.0
1277.550781	132.0
1278.027466	196.0
1278.305054	140.0
1278.667969	56.0
1279.493774	80.0
1279.543579	180.0
1280.412354	172.0
1280.811157	196.0
1281.131714	188.0
1281.25293	208.0
1281.623413	144.0
1282.10791	192.0
1282.535645	152.0
1282.592651	188.0
1282.853516	100.0
1282.866333	180.0
1282.976685	120.0
1283.566284	172.0
1283.683472	52.0
1283.883057	176.0
1283.975952	128.0
1284.075684	72.0
1284.254028	164.0
1284.489502	140.0
1284.760498	260.0
1284.817627	104.0
1284.977539	296.0
1285.359863	92.0
1285.581055	208.0
1285.888062	208.0
1285.980835	96.0
1286.227783	160.0
1286.351929	84.0
1286.858887	152.0
1286.953613	220.0
1287.394409	132.0
1287.508667	104.0
1287.572998	44.0
1287.951538	176.0
1288.08728	144.0
1288.187256	136.0
1288.508789	160.0
1288.630249	100.0
1288.700928	184.0
1289.094727	100.0
1289.237427	144.0
1289.337646	144.0
1289.566406	188.0
1290.124023	212.0
1290.274048	160.0
1290.438599	200.0
1290.567261	144.0
1290.831787	168.0
1291.582764	152.0
1291.711548	124.0
1292.140869	48.0
1293.128296	120.0
1293.364624	112.0
1293.471924	208.0
1293.543579	152.0
1294.044678	84.0
1294.238037	168.0
1294.457153	132.0
1295.08313	152.0
1295.305176	152.0
1295.369629	88.0
1295.971436	120.0
1296.180664	200.0
1296.501709	92.0
1296.86731	124.0
1297.016846	92.0
1297.290161	148.0
1298.023682	128.0
1298.157837	56.0
1298.473389	160.0
1298.717163	196.0
1298.851074	236.0
1298.994141	200.0
1299.140503	136.0
1299.248047	72.0
1299.43457	120.0
1299.766357	132.0
1299.822021	68.0
1299.965576	228.0
1300.159424	172.0
1300.266968	132.0
1300.719238	140.0
1301.099731	96.0
1301.264893	104.0
1301.33667	156.0
1301.422852	164.0
1301.595093	132.0
1301.645386	136.0
1301.717163	192.0
1301.832153	200.0
1302.133179	160.0
1302.248657	48.0
1302.579102	160.0
1302.629395	140.0
1303.031738	104.0
1303.290405	120.0
1303.355103	176.0
1303.469971	128.0
1303.542603	164.0
1303.703979	156.0
1303.872437	152.0
1303.951538	164.0
1304.224609	72.0
1304.354004	104.0
1304.411499	184.0
1304.627197	164.0
1305.029907	108.0
1305.461304	176.0
1305.633911	112.0
1306.192017	196.0
1306.360352	96.0
1306.482666	160.0
1306.56189	156.0
1306.6698	124.0
1306.979126	148.0
1307.259766	60.0
1307.338989	176.0
1307.677246	164.0
1307.958008	152.0
1308.130737	120.0
1308.303467	204.0
1308.663452	144.0
1308.847168	180.0
1309.635742	56.0
1309.758179	260.0
1309.859009	216.0
1310.658691	140.0
1310.774048	100.0
1311.091187	108.0
1311.855225	140.0
1312.114746	120.0
1312.201294	156.0
1312.247803	108.0
1312.4104	188.0
1312.936768	200.0
1313.542603	148.0
1313.852905	144.0
1314.090942	140.0
1314.184814	124.0
1314.292969	48.0
1314.733154	108.0
1314.906372	160.0
1315.007446	44.0
1315.277466	108.0
1315.693237	132.0
1315.823242	100.0
1315.938721	112.0
1316.155396	172.0
1316.615112	172.0
1316.877563	128.0
1317.231445	92.0
1317.332642	176.0
1317.78772	72.0
1318.452637	152.0
1318.756104	188.0
1319.067017	132.0
1319.275635	88.0
1319.536865	172.0
1319.724854	116.0
1319.963501	136.0
1320.3396	112.0
1320.484253	176.0
1320.563721	212.0
1320.730713	168.0
1320.932739	208.0
1321.156982	152.0
1321.431885	88.0
1321.576538	124.0
1321.773315	88.0
1321.967407	180.0
1322.184448	168.0
1322.604248	176.0
1322.676636	116.0
1322.741821	208.0
1322.81958	216.0
1323.176147	148.0
1323.277588	148.0
1323.538208	184.0
1323.778931	160.0
1324.037842	88.0
1324.389526	192.0
1324.711548	88.0
1324.783936	132.0
1325.312866	196.0
1326.80603	164.0
1327.009033	100.0
1327.352539	128.0
1327.502075	304.0
1328.046021	168.0
1328.408691	148.0
1328.568359	236.0
1329.032715	124.0
1329.119751	88.0
1329.250366	124.0
1329.322998	152.0
1329.381348	152.0
1329.620483	156.0
1329.838257	80.0
1329.910767	148.0
1330.244751	188.0
1330.745728	152.0
1330.876343	160.0
1330.992554	48.0
1331.210449	136.0
1331.297607	116.0
1331.682495	164.0
1331.914917	84.0
1332.140137	128.0
1332.633789	136.0
1332.772217	92.0
1332.852173	116.0
1332.968384	168.0
1333.099243	180.0
1333.465454	192.0
1333.608032	160.0
1333.782471	160.0
1333.891479	228.0
1334.255005	180.0
1334.400391	60.0
1334.553101	168.0
1334.61853	92.0
1335.127563	164.0
1335.338501	84.0
1335.571289	156.0
1335.713989	128.0
1335.934937	164.0
1336.21875	96.0
1336.349731	112.0
1336.634399	132.0
1336.974121	172.0
1337.899902	152.0
1338.132935	104.0
1338.278564	136.0
1338.390625	164.0
1339.290894	360.0
1339.363647	160.0
1339.653687	88.0
1339.939209	120.0
1339.997437	388.0
1340.070312	136.0
1340.165039	88.0
1340.500244	104.0
1340.565918	164.0
1340.762573	44.0
1340.930298	180.0
1341.15625	180.0
1341.214478	120.0
1341.695679	92.0
1341.848755	160.0
1341.930908	156.0
1342.498901	172.0
1342.556152	112.0
1342.680054	112.0
1342.811401	116.0
1342.862427	156.0
1343.63562	228.0
1343.839966	132.0
1344.292358	180.0
1344.416504	120.0
1344.467529	232.0
1344.672974	168.0
1344.898193	192.0
1344.956543	128.0
1345.263184	92.0
1345.321533	92.0
1345.401855	100.0
1345.460327	136.0
1346.051758	176.0
1346.161255	148.0
1346.745483	116.0
1347.006836	224.0
1347.081543	44.0
1347.147949	96.0
1347.410278	116.0
1347.614258	96.0
1347.672485	72.0
1347.803467	172.0
1348.119141	80.0
1348.294556	240.0
1348.69397	216.0
1348.871948	204.0
1349.087891	156.0
1349.376343	164.0
1349.493408	68.0
1349.55188	132.0
1349.763916	120.0
1349.939453	128.0
1350.104736	164.0
1350.18811	188.0
1350.246582	44.0
1350.309448	156.0
1350.35791	148.0
1350.420776	148.0
1350.50293	156.0
1350.80249	104.0
1350.919556	116.0
1351.036621	112.0
1351.161011	180.0
1351.226807	152.0
1351.418823	432.0
1351.463135	148.0
1351.870728	156.0
1352.397705	148.0
1352.456299	72.0
1353.175903	144.0
1353.285278	172.0
1353.407959	180.0
1353.77417	72.0
1354.111084	196.0
1354.24292	132.0
1354.308838	172.0
1355.272461	120.0
1355.341309	112.0
1355.840088	168.0
1355.964722	188.0
1356.177246	112.0
1356.624512	128.0
1356.708374	208.0
1356.752319	164.0
1356.84436	144.0
1357.093628	108.0
1357.205566	192.0
1357.4823	108.0
1358.113037	128.0
1358.208374	36.0
1358.274414	144.0
1358.468628	164.0
1358.560547	204.0
1358.611938	168.0
1358.663208	88.0
1358.744019	336.0
1359.433716	120.0
1359.485107	160.0
1359.74353	212.0
1359.815308	140.0
1359.874023	104.0
1359.984131	184.0
1360.597534	204.0
1360.821045	124.0
1361.254272	100.0
1361.577393	180.0
1361.893311	156.0
1362.187134	36.0
1362.649902	116.0
1362.848389	148.0
1362.93689	172.0
1362.995361	80.0
1363.105469	176.0
1363.296631	80.0
1363.49585	140.0
1363.68042	148.0
1363.752319	160.0
1363.965454	148.0
1364.28894	132.0
1364.39917	188.0
1364.52417	120.0
1364.818237	148.0
1364.928589	124.0
1365.244751	136.0
1365.524292	160.0
1365.605225	76.0
1365.741333	216.0
1365.973022	216.0
1366.120117	144.0
1366.826416	108.0
1366.900024	96.0
1366.973633	148.0
1367.032471	128.0
1367.157593	132.0
1367.216431	172.0
1367.371094	36.0
1367.628662	136.0
1367.827393	108.0
1367.94519	172.0
1368.099731	192.0
1368.625366	144.0
1368.674072	156.0
1368.858154	124.0
1368.951172	96.0
1369.079102	196.0
1369.164551	160.0
1369.221558	160.0
1369.32605	176.0
1369.491577	92.0
1369.638916	108.0
1369.742065	200.0
1369.859863	148.0
1369.926147	132.0
1370.058838	176.0
1370.486084	176.0
1370.758789	104.0
1370.917358	160.0
1371.000977	172.0
1371.023682	148.0
1371.318848	52.0
1371.458984	196.0
1371.591553	172.0
1371.65625	124.0
1371.842285	96.0
1372.063477	160.0
1372.763916	140.0
1373.110596	156.0
1373.243286	180.0
1373.501465	96.0
1373.929321	68.0
1374.456177	180.0
1374.593384	68.0
1374.748413	140.0
1374.84436	164.0
1375.102539	196.0
1375.161743	64.0
1375.265015	104.0
1375.442139	176.0
1375.664307	176.0
1375.759644	108.0
1375.866089	260.0
1375.967896	200.0
1376.269043	96.0
1376.438965	176.0
1376.527466	144.0
1376.697388	156.0
1376.855469	128.0
1377.06665	160.0
1377.140503	36.0
1377.230835	156.0
1377.354736	128.0
1377.886597	172.0
1378.005859	112.0
1378.086182	132.0
1378.167358	164.0
1378.411255	140.0
1378.751221	120.0
1378.810303	52.0
1378.884277	208.0
1379.119141	196.0
1379.192017	208.0
1379.438599	140.0
1379.638184	132.0
1379.741699	412.0
1379.822998	88.0
1380.148438	184.0
1380.503296	144.0
1380.651245	144.0
1380.717773	144.0
1380.769531	200.0
1380.844482	168.0
1381.398315	92.0
1381.557617	172.0
1382.138184	124.0
1382.323242	148.0
1382.448975	80.0
1382.515625	100.0
1382.730469	124.0
1382.863403	124.0
1382.967041	124.0
1383.092896	96.0
1383.203979	132.0
1383.255737	200.0
1383.596313	204.0
1383.855469	140.0
1383.968872	216.0
1384.173828	88.0
1384.455322	152.0
1384.654419	188.0
1385.014893	72.0
1385.16748	232.0
1385.302002	140.0
1385.596069	196.0
1385.83313	88.0
1386.366699	212.0
1386.663086	180.0
1387.004028	188.0
1387.362305	200.0
1387.656494	120.0
1387.71582	256.0
1388.15332	112.0
1388.412842	156.0
1388.553711	164.0
1388.613159	136.0
1388.843018	184.0
1388.969116	144.0
1389.377197	132.0
1389.473633	44.0
1389.852051	112.0
1389.903931	124.0
1390.000488	120.0
1390.474121	180.0
1390.564453	132.0
1390.762085	184.0
1391.033081	128.0
1391.195435	236.0
1391.462646	176.0
1391.774536	140.0
1391.871094	124.0
1391.952759	192.0
1392.064209	148.0
1392.145874	296.0
1392.35376	208.0
1392.487427	176.0
1393.735596	128.0
1393.958496	224.0
1394.107178	148.0
1394.15918	164.0
1394.226074	128.0
1394.364502	128.0
1394.67334	132.0
1394.828125	148.0
1394.883667	228.0
1395.051147	144.0
1395.153931	120.0
1395.303833	124.0
1395.630981	44.0
1396.069824	100.0
1396.121826	124.0
1396.307739	76.0
1396.515991	112.0
1396.626709	168.0
1397.088867	80.0
1397.297119	148.0
1397.53125	180.0
1397.858154	172.0
1398.004028	128.0
1398.130493	128.0
1398.294312	80.0
1398.428223	196.0
1398.480347	108.0
1398.562256	188.0
1398.889771	184.0
1399.046143	124.0
1399.128052	144.0
1399.239746	148.0
1399.463013	80.0
1399.753418	100.0
1399.827881	168.0
1400.081177	212.0
1400.148193	112.0
1400.252441	116.0
1400.617432	176.0
1400.699341	152.0
1400.766357	28.0
1401.052246	448.0
1401.146362	188.0
1401.54126	180.0
1402.089111	180.0
1402.21936	124.0
1402.450439	168.0
1402.502686	148.0
1402.838135	168.0
1403.263062	112.0
1403.442017	276.0
1403.680664	164.0
1403.978882	88.0
1404.071655	208.0
1404.172852	136.0
1404.284668	132.0
1404.555176	188.0
1404.874023	148.0
1404.978516	148.0
1405.106079	124.0
1405.189941	172.0
1405.373901	136.0
1405.44104	192.0
1405.635132	72.0
1406.38147	164.0
1407.27002	152.0
1407.387329	140.0
1407.673096	172.0
1407.755249	144.0
1407.941895	152.0
1408.210815	188.0
1408.277954	172.0
1408.584229	244.0
1408.708984	136.0
1408.912964	116.0
1409.279053	56.0
1409.338867	284.0
1409.539917	168.0
1409.690063	148.0
1409.929199	68.0
1410.198242	172.0
1410.400146	144.0
1410.534668	172.0
1410.664795	364.0
1410.744019	148.0
1410.836792	176.0
1410.953247	160.0
1411.102783	132.0
1411.611328	196.0
1412.074463	280.0
1412.202148	140.0
1412.314331	56.0
1412.43396	164.0
1413.638672	48.0
1413.816406	176.0
1413.857666	180.0
1414.102661	164.0
1414.327148	144.0
1414.496338	280.0
1414.559204	372.0
1415.000977	148.0
1415.075806	200.0
1415.235107	104.0
1415.345337	124.0
1415.624512	128.0
1415.98938	120.0
1416.04187	208.0
1416.109253	148.0
1416.214111	120.0
1416.386353	88.0
1416.438843	88.0
1416.498779	296.0
1416.589722	108.0
1417.08313	96.0
1417.382812	144.0
1417.567017	156.0
1417.645142	176.0
1417.705078	236.0
1417.944946	132.0
1417.997437	92.0
1418.154785	88.0
1418.4021	168.0
1418.732056	136.0
1418.964478	220.0
1419.181885	204.0
1419.339355	368.0
1419.429321	116.0
1419.526855	136.0
1419.661743	156.0
1419.834229	216.0
1419.916748	64.0
1420.171753	200.0
1420.521118	188.0
1420.831909	52.0
1420.92688	92.0
1421.477295	144.0
1422.017578	116.0
1422.115234	272.0
1422.272827	132.0
1422.38562	136.0
1422.873413	132.0
1423.273315	140.0
1423.451538	172.0
1423.887085	80.0
1423.947266	112.0
1424.142456	88.0
1424.345337	88.0
1424.435669	180.0
1424.623291	96.0
1424.908813	124.0
1425.165894	108.0
1425.226196	176.0
1425.32959	176.0
1425.404663	184.0
1425.47229	204.0
1425.690308	184.0
1425.780396	236.0
1426.088623	108.0
1426.24646	40.0
1426.524536	204.0
1427.11853	160.0
1427.351685	160.0
1427.660034	188.0
1427.97583	116.0
1428.128906	180.0
1428.487305	136.0
1428.540039	184.0
1428.792358	204.0
1429.036621	272.0
1429.307983	160.0
1429.476562	172.0
1429.854126	156.0
1430.285889	100.0
1430.494385	184.0
1430.601807	128.0
1430.827881	152.0
1431.068848	120.0
1431.196777	140.0
1431.324829	156.0
1431.407715	144.0
1431.580933	180.0
1431.679199	172.0
1432.364258	160.0
1432.665527	136.0
1432.868896	132.0
1433.120483	172.0
1433.230591	104.0
1433.43396	188.0
1433.524536	168.0
1433.78772	148.0
1433.856079	116.0
1433.908936	108.0
1433.997437	128.0
1434.067139	196.0
1434.248047	120.0
1434.511841	224.0
1434.625	360.0
1434.866211	92.0
1435.205566	104.0
1435.446899	176.0
1435.793701	84.0
1435.921997	60.0
1436.050171	164.0
1436.155518	112.0
1436.294678	140.0
1436.351929	152.0
1436.487671	224.0
1436.615967	192.0
1436.67627	200.0
1436.887573	56.0
1437.113892	160.0
1437.349121	180.0
1437.567139	120.0
1437.72876	228.0
1437.830811	100.0
1438.057251	72.0
1438.351562	68.0
1438.472412	132.0
1438.759277	184.0
1438.887573	156.0
1438.960449	136.0
1439.140503	156.0
1439.287842	120.0
1439.378418	108.0
1439.685059	196.0
1439.816406	112.0
1440.382935	176.0
1440.458496	124.0
1440.836182	152.0
1441.327393	80.0
1441.402954	180.0
1441.463379	156.0
1441.561646	96.0
1441.637207	48.0
1441.74292	192.0
1442.196411	104.0
1442.24939	160.0
1442.355225	128.0
1442.445923	220.0
1442.707642	116.0
1442.944824	96.0
1443.133911	152.0
1443.214966	200.0
1443.300293	112.0
1443.602783	96.0
1443.663208	112.0
1443.754028	200.0
1443.875	140.0
1443.983276	164.0
1444.154053	280.0
1444.361938	204.0
1444.63147	136.0
1445.07019	96.0
1445.15625	220.0
1445.433472	172.0
1445.683105	84.0
1445.766357	140.0
1446.0271	172.0
1446.114624	136.0
1446.40979	140.0
1446.530884	100.0
1446.621704	104.0
1446.697388	116.0
1447.136597	176.0
1447.250122	144.0
1447.394043	152.0
1447.696899	96.0
1447.984741	196.0
1448.325562	44.0
1448.530151	156.0
1448.72876	156.0
1448.908936	152.0
1449.151733	156.0
1449.371094	100.0
1449.571655	100.0
1450.197144	128.0
1450.386597	128.0
1450.614014	216.0
1450.833862	96.0
1450.9021	108.0
1451.036255	460.0
1451.220581	164.0
1451.474487	200.0
1451.865112	148.0
1451.978882	168.0
1452.10791	180.0
1452.479492	112.0
1452.661621	152.0
1453.033325	180.0
1453.329224	256.0
1453.458252	108.0
1453.769409	76.0
1453.82251	92.0
1453.974243	148.0
1454.057739	84.0
1454.133667	120.0
1454.270264	148.0
1454.608765	236.0
1455.150879	240.0
1455.33313	68.0
1455.560303	148.0
1455.704712	120.0
1456.198853	76.0
1456.741943	136.0
1456.973755	104.0
1457.13269	196.0
1457.20166	148.0
1457.782593	244.0
1457.839966	144.0
1457.923584	96.0
1458.052734	100.0
1458.455566	148.0
1458.592407	172.0
1458.670654	176.0
1458.797607	152.0
1459.337524	224.0
1459.421143	92.0
1459.566895	168.0
1459.718872	152.0
1460.044678	140.0
1460.196777	184.0
1460.25769	120.0
1460.341309	160.0
1460.744507	296.0
1460.843384	184.0
1461.102051	104.0
1461.269409	160.0
1461.322632	116.0
1461.455566	264.0
1461.741211	164.0
1462.068481	48.0
1462.274414	164.0
1462.494629	48.0
1462.562012	52.0
1462.769775	212.0
1462.882935	140.0
1462.980469	192.0
1463.197632	160.0
1463.606201	212.0
1463.865112	168.0
1464.250366	172.0
1464.367798	108.0
1464.558228	192.0
1464.664795	176.0
1464.832397	128.0
1465.175171	144.0
1465.502808	164.0
1465.777222	112.0
1466.263062	152.0
1466.294312	116.0
1466.379272	148.0
1466.516479	220.0
1466.729858	176.0
1466.928101	68.0
1467.065308	124.0
1467.235596	264.0
1467.423584	196.0
1467.58374	260.0
1467.76123	192.0
1467.843018	28.0
1468.071777	44.0
1468.201416	172.0
1468.331055	108.0
1468.430176	120.0
1468.491211	88.0
1468.697144	120.0
1468.842163	108.0
1469.048096	160.0
1469.273315	156.0
1469.360962	100.0
1469.414307	192.0
1470.185059	140.0
1470.294678	128.0
1470.398682	212.0
1470.551392	180.0
1470.851807	176.0
1471.070435	168.0
1471.238403	140.0
1471.360596	164.0
1471.661377	148.0
1471.75	168.0
1471.986694	252.0
1472.139404	124.0
1472.223389	128.0
1472.376099	148.0
1472.651123	108.0
1472.758057	152.0
1473.086548	176.0
1473.155273	44.0
1473.254639	144.0
1473.384521	152.0
1473.544922	168.0
1473.651855	120.0
1473.980225	156.0
1474.232666	176.0
1474.363037	136.0
1474.683594	160.0
1474.806152	180.0
1474.897339	152.0
1475.107178	208.0
1475.232544	156.0
1475.37915	208.0
1475.547363	168.0
1475.815063	168.0
1475.921997	160.0
1476.105591	124.0
1476.166748	244.0
1476.633301	52.0
1476.843994	212.0
1477.076538	140.0
1477.168701	108.0
1477.283447	104.0
1477.359985	120.0
1477.563354	264.0
1477.620117	184.0
1477.696655	148.0
1477.972046	32.0
1478.033325	140.0
1478.099487	88.0
1478.57666	112.0
1478.668457	160.0
1478.790894	168.0
1478.894043	164.0
1478.995239	168.0
1479.120117	80.0
1479.342041	140.0
1479.518188	168.0
1479.801392	144.0
1479.91626	92.0
1479.99231	120.0
1480.130737	132.0
1480.406372	160.0
1480.5979	84.0
1480.735718	128.0
1480.858276	196.0
1481.218262	132.0
1481.524658	184.0
1481.599243	316.0
1481.708618	120.0
1482.045654	132.0
1482.727783	116.0
1482.843628	160.0
1482.965332	128.0
1483.110962	168.0
1483.164673	116.0
1483.425293	120.0
1483.601562	152.0
1483.991089	144.0
1484.069336	128.0
1484.238037	148.0
1484.322388	176.0
1484.636719	128.0
1484.828491	248.0
1484.920532	164.0
1484.995728	144.0
1485.012573	116.0
1485.039673	144.0
1485.150635	152.0
1485.219727	192.0
1485.442139	48.0
1485.57251	104.0
1485.719482	100.0
1485.842285	156.0
1485.902466	28.0
1486.132568	200.0
1486.255371	156.0
1486.516357	136.0
1486.71582	104.0
1486.846313	180.0
1486.976807	148.0
1487.071167	172.0
1487.137939	128.0
1487.283813	156.0
1487.444946	88.0
1487.560181	108.0
1487.775146	116.0
1488.228149	108.0
1488.312622	260.0
1488.427734	44.0
1488.542969	108.0
1488.704224	104.0
1488.763428	136.0
1489.113525	128.0
1489.380127	64.0
1489.710449	180.0
1489.956299	72.0
1490.133545	172.0
1490.340454	124.0
1490.532471	108.0
1490.593994	220.0
1491.078125	220.0
1491.29834	176.0
1491.585449	108.0
1491.662354	192.0
1491.854492	204.0
1492.266724	184.0
1492.531128	204.0
1492.769531	160.0
1493.046387	184.0
1493.200195	164.0
1493.323242	168.0
1493.407837	124.0
1493.592529	204.0
1493.669434	160.0
1493.884766	44.0
1494.005493	168.0
1494.161743	88.0
1494.359497	104.0
1494.545776	128.0
1494.661865	264.0
1494.823486	120.0
1494.931274	136.0
1495.17749	144.0
1495.292969	152.0
1495.369873	180.0
1495.562378	200.0
1495.670166	128.0
1495.863037	140.0
1496.008789	204.0
1496.339844	56.0
1496.459717	228.0
1496.906616	228.0
1497.017456	196.0
1497.098755	124.0
1497.151489	172.0
1497.248535	44.0
1497.510376	120.0
1497.622925	212.0
1498.126709	132.0
1498.481079	136.0
1498.883423	204.0
1499.128296	156.0
1499.228516	132.0
1499.297852	140.0
1499.452026	120.0
1499.559937	128.0
1499.639282	336.0
1499.768066	104.0
1499.90686	148.0
1500.084106	128.0
1500.184326	128.0
1500.415649	116.0
1500.59436	192.0
1500.700928	112.0
1500.847412	48.0
1500.932251	112.0
1501.063354	144.0
1502.023071	168.0
1502.163574	88.0
1502.274292	164.0
1502.479858	104.0
1502.698608	96.0
1502.760376	212.0
1503.123047	124.0
1503.25415	220.0
1503.462524	120.0
1503.562866	172.0
1503.817627	204.0
1503.935913	120.0
1504.417603	204.0
1504.527832	80.0
1504.736206	116.0
1504.84436	128.0
1504.913818	132.0
1505.136597	108.0
1505.156494	92.0
1505.338501	88.0
1505.392578	160.0
END IONS

BEGIN IONS
PEPMASS=230.007
CHARGE=1
MSLEVEL=2
SOURCE_INSTRUMENT=LC-ESI-qTof
FILENAME=p4-G08_GG8_01_18404.mzXML
SEQ=*..*
IONMODE=Positive
ORGANISM=GNPS-NIH-SMALLMOLECULEPHARMACOLOGICALLYACTIVE
NAME=MLS002207196-01!Dimethoate60-51-5 M+H
PI=Dorrestein
DATACOLLECTOR=VP/LMS
SMILES=CNC(=O)CSP(=S)(OC)OC
INCHI=N/A
INCHIAUX=N/A
PUBMED=N/A
SUBMITUSER=vphelan
LIBRARYQUALITY=1
SPECTRUMID=CCMSLIB00000085896
USI=mzspec:GNPS:GNPS-NIH-SMALLMOLECULEPHARMACOLOGICALLYACTIVE:accession:CCMSLIB00000085896
SCANS=1422
44.95155	188.0
44.994263	232.0
45.047684	172.0
46.382648	44.0
46.876022	120.0
49.238071	160.0
49.985306	184.0
50.045834	196.0
52.858162	216.0
52.995724	216.0
53.800034	128.0
54.907921	168.0
57.112438	168.0
57.926075	108.0
59.767414	152.0
60.016953	132.0
60.214489	84.0
60.389145	88.0
61.60944	188.0
62.437092	116.0
62.465405	204.0
62.614937	84.0
66.972183	160.0
67.273865	152.0
68.012146	124.0
68.043343	160.0
68.733009	216.0
68.770966	136.0
69.338287	216.0
70.129448	136.0
70.169456	188.0
70.752548	184.0
73.731544	220.0
73.892288	56.0
75.841774	204.0
75.902451	220.0
76.074219	172.0
78.057373	76.0
79.188644	200.0
80.756767	180.0
81.036774	264.0
85.794716	156.0
86.147209	148.0
86.402115	200.0
86.696754	160.0
87.551353	184.0
88.02877	224.0
88.704216	196.0
88.846741	200.0
89.943878	144.0
90.344513	68.0
90.838959	140.0
92.489212	144.0
93.007599	308.0
94.038475	44.0
94.798553	204.0
94.899353	80.0
96.056541	148.0
96.9991	124.0
99.455704	116.0
99.830528	204.0
101.103355	212.0
102.833847	52.0
103.579979	152.0
104.017197	360.0
104.642128	164.0
105.621719	144.0
110.946342	172.0
110.96627	376.0
111.498405	176.0
112.589745	216.0
112.968102	96.0
115.589447	184.0
116.33963	160.0
116.5802	176.0
118.022354	164.0
118.886696	140.0
119.99514	172.0
123.999763	200.0
124.099052	240.0
124.981728	13560.0
125.020927	52.0
125.058769	32.0
125.488724	84.0
125.756424	44.0
125.984032	488.0
126.02047	196.0
126.113808	92.0
126.581398	176.0
126.684425	40.0
126.805428	68.0
126.843536	128.0
126.944435	44.0
126.979568	508.0
127.016487	208.0
127.04985	88.0
127.433777	48.0
127.654068	128.0
128.354416	28.0
128.622894	52.0
128.954941	100.0
128.975784	480.0
130.974396	184.0
137.325119	56.0
137.390442	140.0
137.817703	144.0
138.240967	164.0
140.402344	140.0
142.76355	196.0
142.991699	1872.0
143.027649	64.0
143.118118	52.0
143.22052	100.0
143.258636	104.0
143.280075	60.0
143.993164	344.0
144.02916	60.0
144.987671	212.0
145.629227	132.0
145.679672	124.0
147.973267	216.0
150.497131	212.0
152.739624	64.0
152.808502	276.0
155.822479	164.0
155.972748	200.0
156.951965	1636.0
157.0448	64.0
157.164551	60.0
157.964035	136.0
158.947571	292.0
159.121887	84.0
163.945892	152.0
170.925095	48.0
170.970734	1220.0
171.1698	40.0
171.974213	168.0
172.973923	140.0
189.529846	172.0
197.039581	124.0
198.95755	160.0
231.707886	100.0
290.7677	84.0
843.148376	72.0
870.119751	192.0
933.534241	72.0
936.44342	120.0
966.000549	84.0
970.86908	124.0
992.333008	40.0
1036.797974	176.0
1053.431274	176.0
1085.290894	160.0
1095.40564	220.0
1102.145264	20.0
1121.781128	128.0
1130.089478	60.0
1136.904541	256.0
1140.921387	112.0
1142.878662	140.0
1146.31958	180.0
1154.440918	160.0
1175.30957	180.0
1189.195435	156.0
1201.85144	224.0
1205.048462	172.0
1205.960571	180.0
1209.315308	116.0
1234.760132	204.0
1246.418701	152.0
1250.9552	144.0
1258.244873	236.0
1267.843994	80.0
1271.297729	92.0
1283.455078	284.0
1288.279907	64.0
1290.845947	136.0
1298.487427	260.0
1321.967163	224.0
1330.701904	180.0
1333.723999	168.0
1346.088013	204.0
1348.279663	136.0
1348.652344	60.0
1359.763672	176.0
1374.224243	140.0
1377.70166	152.0
1384.477295	176.0
1385.025391	256.0
1388.783447	192.0
1390.289551	84.0
1406.224365	180.0
1419.871582	164.0
1421.409424	184.0
1429.939331	52.0
1437.77771	216.0
1456.745605	188.0
1461.322388	108.0
1471.337402	272.0
1482.474609	192.0
END IONS

BEGIN IONS
PEPMASS=321.133
CHARGE=1
MSLEVEL=2
SOURCE_INSTRUMENT=LC-ESI-qTof
FILENAME=p4-H06_GH6_01_18414.mzXML
SEQ=*..*
IONMODE=Positive
ORGANISM=GNPS-NIH-SMALLMOLECULEPHARMACOLOGICALLYACTIVE
NAME=MLS000069645-01!ENOXACIN M+H
PI=Dorrestein
DATACOLLECTOR=VP/LMS
SMILES=CCn1cc(C(=O)O)c(=O)c2cc(F)c(nc12)N3CCNCC3
INCHI=N/A
INCHIAUX=N/A
PUBMED=N/A
SUBMITUSER=vphelan
LIBRARYQUALITY=1
SPECTRUMID=CCMSLIB00000085947
USI=mzspec:GNPS:GNPS-NIH-SMALLMOLECULEPHARMACOLOGICALLYACTIVE:accession:CCMSLIB00000085947
SCANS=1246
45.236275	72.0
45.245644	196.0
45.259033	204.0
45.299213	60.0
45.342091	32.0
45.894604	176.0
45.972847	144.0
46.575348	172.0
46.786133	160.0
46.871941	196.0
47.000118	232.0
47.106613	180.0
47.430927	104.0
47.522812	144.0
47.588696	120.0
47.783871	232.0
47.840298	168.0
47.995987	120.0
48.568554	152.0
49.281349	140.0
49.342846	236.0
49.604641	148.0
49.621464	164.0
49.763176	204.0
49.861507	216.0
50.024673	176.0
50.158501	212.0
50.248756	76.0
50.358868	192.0
50.445061	136.0
50.539822	132.0
50.663143	156.0
50.688503	252.0
50.854435	224.0
51.00642	84.0
51.019215	160.0
51.029167	176.0
51.234116	160.0
51.245514	156.0
51.559452	136.0
51.580894	220.0
51.599476	172.0
52.033596	84.0
52.286594	160.0
52.364342	132.0
52.621025	204.0
52.791534	160.0
53.039116	204.0
53.121693	144.0
53.355587	208.0
53.588459	80.0
54.00013	192.0
54.074749	152.0
54.098167	144.0
54.17725	132.0
54.325317	92.0
54.345856	180.0
54.455959	216.0
54.475056	180.0
54.491215	192.0
54.550003	148.0
54.661781	212.0
54.711826	248.0
54.725079	156.0
55.081978	152.0
55.118916	192.0
55.463753	200.0
55.494884	152.0
55.52306	136.0
55.543827	168.0
55.895943	212.0
56.012074	40.0
56.159641	192.0
56.268578	68.0
56.283508	140.0
56.682407	72.0
56.694893	112.0
56.712879	76.0
56.733868	156.0
56.831356	128.0
56.912407	88.0
56.976994	184.0
57.088223	124.0
57.125828	180.0
57.241718	156.0
57.37582	180.0
57.466316	176.0
57.494987	152.0
57.630894	128.0
57.995617	232.0
58.072948	228.0
58.146076	324.0
58.276371	60.0
58.367573	144.0
58.527348	188.0
58.68124	180.0
58.943779	176.0
58.957535	148.0
58.971287	72.0
58.988102	144.0
59.038559	180.0
59.067619	180.0
59.090569	204.0
59.12117	172.0
59.400032	36.0
59.512066	124.0
59.524353	168.0
59.682625	128.0
59.719532	140.0
60.087711	124.0
60.143265	124.0
60.545261	120.0
60.709538	64.0
60.981236	144.0
60.996552	200.0
61.077637	140.0
61.102528	212.0
61.300278	148.0
61.41721	180.0
61.587349	104.0
61.845348	128.0
62.135258	92.0
62.14938	132.0
62.196461	132.0
62.29068	120.0
62.328384	216.0
62.389683	160.0
62.485622	148.0
62.509224	160.0
62.537552	40.0
62.592655	116.0
62.832233	196.0
63.100731	184.0
63.2906	164.0
63.410999	232.0
63.442703	144.0
63.477585	192.0
63.533096	120.0
63.610859	228.0
63.928745	188.0
64.099136	64.0
64.118263	144.0
64.287308	112.0
64.41185	124.0
64.45179	104.0
64.534904	208.0
64.744537	136.0
64.970551	88.0
65.004982	208.0
65.074875	108.0
65.168114	148.0
65.274117	168.0
65.510719	60.0
65.533272	208.0
65.883377	248.0
65.949638	196.0
65.990051	168.0
66.294373	116.0
66.85302	160.0
66.872551	152.0
66.898598	204.0
67.038673	60.0
67.107132	140.0
67.185417	148.0
67.299667	116.0
67.351929	156.0
67.427094	160.0
67.710129	224.0
67.728149	148.0
67.774017	172.0
68.396461	172.0
68.518326	144.0
68.590836	188.0
68.676575	164.0
68.800339	216.0
69.013474	156.0
69.250122	184.0
69.527008	104.0
70.1791	156.0
70.200775	160.0
70.41774	108.0
70.479546	112.0
70.519661	140.0
70.696938	148.0
70.725395	204.0
70.767242	100.0
71.077339	136.0
71.115936	152.0
71.267082	184.0
71.514297	184.0
71.542915	160.0
71.740021	180.0
71.797348	192.0
71.853012	124.0
71.937393	140.0
71.979607	140.0
71.993118	152.0
72.327881	184.0
72.414238	184.0
72.879471	168.0
73.088211	188.0
73.268692	144.0
73.5569	152.0
73.640564	144.0
73.790947	128.0
74.016808	108.0
74.172279	172.0
74.581245	124.0
74.746353	92.0
74.827248	56.0
74.994347	156.0
75.049515	212.0
75.234131	180.0
75.249664	188.0
75.265205	148.0
75.35675	88.0
75.671539	236.0
75.841309	200.0
75.921066	84.0
76.021683	176.0
76.120636	132.0
76.661652	208.0
76.673851	116.0
77.000107	200.0
77.404091	144.0
77.690811	216.0
77.763481	216.0
78.086769	212.0
78.185295	164.0
78.767151	180.0
79.306839	132.0
79.475319	144.0
79.636864	196.0
79.71859	148.0
79.990723	164.0
80.015648	176.0
80.042351	156.0
80.147446	104.0
80.190216	140.0
80.272232	164.0
80.452438	184.0
80.797363	116.0
81.022942	136.0
81.103584	164.0
81.444511	208.0
81.534348	172.0
81.584679	148.0
81.883385	204.0
82.081619	188.0
82.124901	48.0
82.169998	216.0
82.272873	180.0
82.312599	132.0
82.375809	148.0
82.728447	216.0
82.795448	156.0
82.887833	164.0
82.944016	216.0
83.265175	164.0
83.28334	160.0
83.296051	80.0
83.918465	168.0
84.217758	156.0
84.316422	128.0
84.585297	136.0
84.832596	176.0
85.08252	208.0
85.230873	160.0
85.36322	132.0
85.926865	196.0
85.949005	172.0
86.056061	168.0
86.214928	188.0
86.409088	144.0
86.51828	160.0
86.581345	136.0
86.864822	48.0
86.888939	124.0
87.174896	156.0
87.236229	136.0
87.625191	152.0
87.768555	240.0
87.811607	160.0
87.824661	52.0
87.858238	156.0
88.115883	120.0
88.130829	136.0
88.145782	180.0
88.222412	172.0
88.594833	144.0
88.711021	152.0
88.733521	192.0
89.122047	48.0
89.152107	140.0
89.340141	156.0
89.426697	200.0
89.918625	136.0
90.031906	164.0
90.062126	64.0
90.149033	180.0
90.671371	164.0
90.750984	84.0
90.836334	36.0
90.984352	176.0
91.187607	172.0
91.23703	196.0
91.276962	176.0
91.341629	148.0
91.37397	104.0
91.546936	156.0
91.749161	132.0
91.783478	108.0
92.098373	252.0
92.258896	112.0
92.315369	300.0
92.367897	184.0
92.440605	140.0
92.473137	132.0
92.499939	176.0
92.68763	216.0
92.781548	148.0
92.862083	192.0
92.906204	88.0
93.684807	200.0
93.887199	132.0
93.927704	216.0
94.055054	164.0
94.197952	156.0
94.360291	168.0
94.503418	204.0
94.654396	160.0
94.803566	176.0
94.995514	224.0
95.037094	204.0
95.129417	148.0
95.903618	180.0
95.928955	52.0
95.98745	188.0
96.027756	348.0
96.774918	84.0
96.84877	208.0
97.006096	212.0
97.051193	180.0
97.47715	196.0
97.579361	268.0
97.766228	260.0
97.94146	212.0
98.235176	40.0
98.314102	148.0
98.527351	256.0
98.584656	212.0
98.774467	120.0
98.821945	108.0
98.847672	160.0
98.984261	172.0
99.096062	144.0
99.114998	112.0
99.231941	192.0
99.442215	128.0
99.76799	196.0
100.183929	140.0
100.287544	132.0
100.349342	140.0
100.397202	108.0
100.888405	68.0
101.052399	220.0
101.17849	176.0
101.208527	260.0
101.61541	284.0
101.717758	156.0
101.834938	156.0
101.874397	144.0
102.218208	172.0
102.510208	228.0
102.715858	180.0
103.010582	140.0
103.135864	152.0
103.544571	116.0
103.583061	100.0
103.885109	176.0
104.411194	180.0
104.697098	160.0
104.769447	132.0
104.822426	220.0
105.050781	152.0
105.087502	128.0
105.47757	52.0
105.743477	200.0
105.940056	148.0
106.050705	132.0
106.11631	212.0
106.200386	204.0
106.471313	124.0
106.575645	172.0
106.608955	108.0
106.635674	140.0
106.666504	188.0
106.724068	76.0
106.90509	160.0
106.956543	164.0
107.502724	204.0
107.517166	64.0
107.607994	168.0
108.027534	156.0
108.10202	108.0
108.193092	216.0
108.333923	224.0
108.456184	108.0
108.512154	124.0
108.684311	140.0
108.759018	144.0
109.02903	68.0
109.176636	188.0
109.472153	164.0
109.697174	164.0
109.780579	244.0
109.911995	148.0
109.991302	152.0
110.0401	460.0
110.373634	192.0
110.578651	176.0
110.607956	176.0
110.651917	132.0
111.039589	348.0
111.190651	184.0
111.308212	176.0
111.339714	148.0
111.50779	116.0
112.035957	80.0
112.322655	28.0
112.366959	184.0
112.540031	144.0
112.58226	124.0
112.897148	196.0
113.05101	344.0
113.106613	176.0
113.250603	128.0
113.29509	124.0
113.895424	136.0
113.929413	156.0
114.164703	128.0
114.301498	152.0
114.414307	196.0
114.817039	48.0
115.047485	164.0
115.496246	148.0
116.164581	124.0
116.392082	156.0
116.520958	204.0
116.58757	192.0
116.645607	200.0
116.677155	124.0
116.685143	204.0
116.847755	132.0
116.91877	164.0
117.044128	320.0
117.112541	192.0
117.151314	52.0
117.217087	220.0
117.653801	164.0
117.742332	240.0
117.761772	76.0
117.809296	140.0
117.93895	52.0
118.027588	144.0
118.049217	124.0
118.114098	144.0
118.45179	56.0
118.724892	204.0
118.786072	256.0
119.050415	160.0
119.128609	132.0
119.285072	56.0
119.491676	140.0
119.546074	36.0
120.034042	208.0
120.317688	184.0
120.713181	256.0
120.791916	176.0
121.183792	172.0
121.626793	84.0
121.793671	92.0
121.984848	128.0
122.182777	100.0
122.266396	72.0
122.367653	204.0
122.678291	104.0
122.766487	168.0
122.856926	56.0
122.9496	148.0
123.000366	148.0
123.037163	236.0
123.159348	148.0
123.174812	144.0
123.296333	192.0
123.466568	192.0
123.555794	244.0
123.9403	48.0
124.339478	104.0
124.363892	188.0
125.056198	228.0
125.133064	168.0
125.184273	148.0
125.255547	248.0
125.331299	192.0
125.422668	208.0
125.534149	220.0
125.699226	140.0
126.043114	164.0
126.14592	112.0
126.23983	188.0
126.295738	60.0
126.350548	128.0
126.828659	208.0
127.017014	212.0
127.037201	28.0
127.396393	40.0
127.486267	176.0
127.528969	72.0
127.569435	204.0
127.699852	120.0
127.81234	132.0
127.943901	212.0
128.053909	92.0
128.089264	156.0
128.399109	136.0
128.777222	84.0
129.046616	156.0
129.181839	108.0
129.412689	244.0
129.428543	112.0
129.566711	160.0
129.593887	172.0
129.612015	56.0
129.725342	188.0
129.995255	104.0
130.033829	172.0
130.215469	204.0
130.260895	160.0
130.349503	244.0
130.368866	184.0
130.517715	156.0
130.854462	88.0
130.95694	348.0
131.059464	264.0
131.3741	44.0
131.606888	196.0
131.883316	172.0
132.038788	64.0
132.059372	136.0
132.109711	88.0
132.49202	128.0
132.950623	196.0
133.017181	148.0
133.040451	204.0
133.081467	156.0
133.122803	244.0
133.446793	236.0
133.520386	192.0
133.704437	36.0
133.895523	168.0
133.930069	200.0
134.024536	188.0
134.040665	160.0
134.063614	112.0
134.222763	244.0
134.305786	148.0
134.619675	208.0
135.035095	144.0
135.05275	468.0
135.091187	80.0
135.21846	160.0
135.269379	160.0
135.290207	68.0
135.317993	156.0
135.436096	160.0
135.48938	164.0
135.967056	172.0
136.041107	384.0
136.060516	368.0
136.280548	36.0
136.364212	136.0
136.575806	196.0
136.637192	196.0
137.049896	1040.0
137.197556	188.0
137.419128	204.0
137.895508	128.0
138.0354	168.0
138.060806	172.0
138.213562	236.0
138.316544	120.0
138.447662	148.0
138.515579	108.0
138.569458	88.0
138.632736	204.0
138.656158	196.0
138.749924	204.0
138.892975	80.0
138.928162	128.0
139.012634	72.0
139.029068	156.0
139.071304	276.0
139.101822	168.0
139.122955	80.0
139.303772	112.0
139.355469	72.0
139.694016	40.0
139.931717	116.0
140.036758	164.0
140.082428	120.0
140.3181	212.0
140.46904	148.0
140.83728	212.0
141.111404	160.0
141.194168	164.0
141.321915	176.0
141.350311	180.0
141.407104	72.0
141.487595	140.0
141.665207	156.0
141.726807	156.0
142.381546	152.0
142.46434	140.0
142.776062	204.0
142.966385	188.0
142.990189	236.0
143.05835	232.0
143.311676	128.0
143.359329	88.0
143.383163	100.0
143.428452	64.0
143.989166	148.0
144.052856	344.0
144.266342	180.0
144.426559	52.0
144.58049	200.0
144.664185	212.0
144.706787	340.0
144.881393	216.0
145.038376	552.0
145.077911	216.0
145.665848	168.0
145.842773	184.0
146.043686	172.0
146.185181	88.0
146.336838	56.0
146.666885	164.0
146.956268	180.0
147.009354	164.0
147.053879	196.0
147.161438	120.0
147.204895	92.0
147.405396	116.0
147.475494	292.0
147.552628	184.0
147.603622	156.0
147.947189	120.0
148.068268	208.0
148.790878	152.0
148.823807	184.0
148.846725	176.0
148.919586	156.0
148.970596	188.0
149.053665	372.0
149.607758	192.0
150.047028	168.0
150.136505	128.0
150.417099	192.0
150.507431	184.0
150.820145	56.0
150.944824	192.0
151.030045	1664.0
151.064575	196.0
151.226166	52.0
151.365723	108.0
151.407349	40.0
151.684219	68.0
152.036377	244.0
152.067413	408.0
152.123322	244.0
152.324692	148.0
152.397125	132.0
152.479492	88.0
152.555695	216.0
152.85083	56.0
153.04248	168.0
153.067459	168.0
153.178284	180.0
153.222626	136.0
153.317154	156.0
153.409927	144.0
153.78981	148.0
154.031799	120.0
154.180054	208.0
154.400085	148.0
154.461914	208.0
155.063599	308.0
155.113174	128.0
155.574585	152.0
155.701233	116.0
155.743454	136.0
155.979507	168.0
156.05159	516.0
156.071503	40.0
156.3974	224.0
156.501968	156.0
156.619019	180.0
157.04187	228.0
157.073166	184.0
157.469559	104.0
157.81192	168.0
157.864426	164.0
158.047043	192.0
158.069122	516.0
158.232254	148.0
158.402542	152.0
158.783539	200.0
158.976715	116.0
159.056198	360.0
159.092178	168.0
159.232803	180.0
159.423737	76.0
159.484055	236.0
159.624847	188.0
159.725449	96.0
160.048645	300.0
160.082962	264.0
160.571762	196.0
161.012222	208.0
161.048904	304.0
161.082123	212.0
161.473419	108.0
161.526535	144.0
161.627731	76.0
162.046707	148.0
162.053986	140.0
162.065094	348.0
162.253342	184.0
162.583099	116.0
162.969086	264.0
163.028275	332.0
163.062241	472.0
163.324997	212.0
163.457306	68.0
164.037415	636.0
164.059357	468.0
164.096588	208.0
164.28537	228.0
164.328735	148.0
164.484406	152.0
164.525253	172.0
164.573761	88.0
164.611298	224.0
164.737228	200.0
164.954437	156.0
165.013245	176.0
165.046127	672.0
165.089142	316.0
165.135986	176.0
165.163269	160.0
165.228073	144.0
165.491699	104.0
165.691467	132.0
165.776031	176.0
165.893936	164.0
165.924698	184.0
166.052643	148.0
166.078934	196.0
166.430161	160.0
166.50206	192.0
166.651047	136.0
166.825821	80.0
166.985245	136.0
167.062408	152.0
167.34552	160.0
167.577332	92.0
167.603088	140.0
167.832504	164.0
167.920181	176.0
167.977371	236.0
168.049164	64.0
168.139481	128.0
168.348602	204.0
168.53717	124.0
168.930161	140.0
169.015533	56.0
169.098343	80.0
169.256271	44.0
169.400635	200.0
169.559357	156.0
169.582687	104.0
169.691574	76.0
169.725281	160.0
169.924988	56.0
169.961319	164.0
170.114441	208.0
170.158585	128.0
170.454697	112.0
170.703598	144.0
170.855103	96.0
170.987808	100.0
171.019043	116.0
171.050262	204.0
171.115372	160.0
171.159637	160.0
171.276825	128.0
171.693863	144.0
171.73819	140.0
172.085815	336.0
172.129669	132.0
172.362152	136.0
172.532043	48.0
172.696793	172.0
172.921799	180.0
173.241257	124.0
173.272705	148.0
173.456146	92.0
173.500717	68.0
174.086304	136.0
174.17514	156.0
174.317017	40.0
174.353806	140.0
174.490494	132.0
174.748245	136.0
174.890366	168.0
174.92984	92.0
174.977234	108.0
175.006195	232.0
175.055664	272.0
175.098358	156.0
175.327576	188.0
175.456726	80.0
175.965927	212.0
176.031937	124.0
176.060257	1116.0
176.227417	28.0
176.655716	44.0
176.716568	188.0
177.068909	4244.0
177.111023	44.0
177.145447	40.0
177.267776	96.0
177.360092	180.0
177.429016	176.0
177.630569	80.0
177.792419	40.0
177.915604	216.0
177.964966	72.0
178.053406	2128.0
178.075043	1732.0
178.246521	60.0
178.281067	116.0
178.323593	192.0
178.459183	72.0
178.483109	76.0
178.725159	128.0
178.74379	116.0
178.866211	144.0
178.916794	32.0
178.93544	84.0
178.978027	220.0
179.023254	228.0
179.061111	4940.0
179.129837	68.0
179.175125	128.0
179.215103	60.0
179.325912	216.0
179.399323	196.0
179.484314	172.0
179.700363	220.0
179.764404	68.0
179.847137	104.0
179.887177	36.0
179.998352	144.0
180.020691	152.0
180.057037	4800.0
180.090912	272.0
180.142258	108.0
180.450897	80.0
180.787933	52.0
180.873581	164.0
180.927124	72.0
181.007446	120.0
181.041901	236.0
181.058578	488.0
181.098495	116.0
181.261932	68.0
181.433472	64.0
181.45491	64.0
181.554749	172.0
181.590683	184.0
181.70166	276.0
181.825104	60.0
181.846573	84.0
182.066071	168.0
182.31926	128.0
182.45903	120.0
182.507431	120.0
182.760269	168.0
182.881378	124.0
182.950226	132.0
183.064453	80.0
183.414703	188.0
183.452454	288.0
183.730453	184.0
183.894836	188.0
184.054108	368.0
184.078415	184.0
184.224258	76.0
184.310715	132.0
184.81366	160.0
184.835312	160.0
184.921906	92.0
185.058136	616.0
185.306442	176.0
185.531403	148.0
185.685959	132.0
185.740204	68.0
185.870438	208.0
185.976273	60.0
186.064453	2368.0
186.101898	272.0
186.169037	28.0
186.250519	128.0
186.327072	68.0
186.359192	48.0
186.399948	80.0
186.467896	72.0
186.497787	108.0
186.527695	104.0
186.86763	176.0
187.036057	208.0
187.063507	824.0
187.107147	140.0
187.191544	180.0
187.349533	32.0
187.60025	180.0
187.725677	204.0
187.864777	80.0
188.078705	352.0
188.145874	84.0
188.290588	104.0
188.338272	192.0
188.651276	168.0
188.757797	184.0
188.880981	96.0
188.91655	188.0
188.979477	184.0
189.010956	156.0
189.036484	248.0
189.083527	168.0
189.146408	140.0
189.239487	184.0
189.535309	92.0
189.680573	132.0
189.765564	168.0
189.886215	44.0
190.050415	136.0
190.077362	396.0
190.101883	248.0
190.146866	124.0
190.415924	112.0
190.665939	108.0
190.979385	224.0
191.022476	556.0
191.063019	588.0
191.124268	180.0
191.13472	120.0
192.060303	2028.0
192.094528	312.0
192.125336	28.0
192.271576	140.0
192.326782	48.0
192.365417	76.0
192.453766	56.0
192.506241	44.0
192.555954	160.0
192.881989	176.0
193.076828	224.0
193.24704	32.0
193.288544	172.0
193.404785	116.0
193.438004	60.0
193.462921	52.0
193.581985	56.0
193.874084	144.0
193.925522	64.0
194.066086	252.0
194.200012	68.0
194.383118	56.0
194.421967	132.0
194.463608	48.0
194.694046	128.0
194.777374	144.0
194.969086	40.0
195.080261	136.0
196.023804	144.0
196.048889	148.0
196.083755	276.0
196.140869	60.0
196.271896	112.0
196.458771	64.0
196.606659	208.0
196.81044	184.0
197.08696	180.0
197.108536	72.0
197.126083	116.0
197.682587	176.0
197.746384	196.0
198.064209	144.0
198.094086	132.0
198.486542	64.0
198.769867	92.0
198.904572	172.0
199.061966	244.0
199.106827	128.0
199.227524	112.0
199.269669	208.0
199.509506	200.0
199.598526	72.0
199.62384	56.0
199.781342	136.0
200.028992	104.0
200.069214	1268.0
200.104996	172.0
200.189484	104.0
200.212006	144.0
200.674149	112.0
200.7108	76.0
201.032639	180.0
201.075409	292.0
201.130142	220.0
201.187622	72.0
201.399414	128.0
201.490448	284.0
201.69046	216.0
201.87706	256.0
201.902512	140.0
201.973221	60.0
202.03566	168.0
202.073074	496.0
202.092133	284.0
202.21373	28.0
202.542175	136.0
202.712173	224.0
202.800034	160.0
202.904907	180.0
203.046402	624.0
203.076324	312.0
203.13179	144.0
203.177185	172.0
203.214066	156.0
203.329651	136.0
203.668289	144.0
203.750671	96.0
203.785751	160.0
203.864334	60.0
203.929688	120.0
203.952209	152.0
203.992233	164.0
204.056259	11948.0
204.168518	64.0
204.316437	144.0
204.518478	180.0
204.575409	68.0
204.848785	160.0
205.064194	15396.0
205.172348	60.0
205.2034	56.0
205.224991	64.0
205.259216	116.0
205.284882	60.0
205.316254	280.0
205.381851	116.0
205.43605	76.0
205.470703	80.0
205.555878	72.0
205.584412	104.0
205.641495	56.0
205.710007	208.0
205.759033	272.0
205.81279	108.0
205.849915	216.0
205.88298	96.0
205.905945	180.0
205.941299	40.0
206.009354	416.0
206.072296	27376.0
206.202652	144.0
206.241318	36.0
206.261322	68.0
206.284195	100.0
206.316208	60.0
206.374512	88.0
206.412033	180.0
206.444107	164.0
206.470795	168.0
206.507843	112.0
206.618393	284.0
206.654083	56.0
206.764725	52.0
206.810532	52.0
206.875168	192.0
206.910721	92.0
206.967987	132.0
207.027969	160.0
207.077286	2980.0
207.208572	48.0
207.235321	72.0
207.28595	72.0
207.323196	108.0
207.35759	76.0
207.475479	64.0
207.509521	88.0
207.529587	68.0
207.586945	200.0
207.640366	88.0
207.736084	132.0
207.847977	64.0
207.97139	72.0
208.085358	2180.0
208.163742	56.0
208.248947	72.0
208.260666	48.0
208.265854	108.0
208.298737	64.0
208.351929	56.0
208.498901	84.0
208.55011	116.0
208.598541	228.0
208.615891	120.0
208.642151	72.0
208.726974	124.0
208.749969	80.0
208.801743	112.0
208.951324	72.0
209.031891	188.0
209.08403	172.0
209.161407	112.0
209.51561	144.0
209.642395	120.0
210.011429	60.0
210.037384	152.0
210.067017	148.0
210.08696	216.0
210.297073	64.0
210.741806	144.0
210.854507	112.0
211.071335	188.0
211.412689	168.0
211.557404	48.0
211.875977	160.0
212.039673	144.0
212.082672	464.0
212.102646	156.0
212.4384	44.0
213.038605	212.0
213.082947	228.0
213.149734	212.0
213.300858	160.0
213.667282	64.0
214.094345	508.0
214.240814	64.0
214.593475	132.0
215.05304	232.0
215.097153	652.0
215.293793	208.0
215.571335	148.0
215.854889	128.0
216.050705	128.0
216.094421	308.0
216.114639	324.0
216.891312	112.0
216.973389	100.0
217.040817	88.0
217.086014	184.0
217.105331	268.0
217.248535	156.0
217.618866	36.0
217.698151	148.0
218.039932	552.0
218.075485	444.0
218.194733	40.0
218.450592	176.0
218.58049	108.0
218.912689	136.0
219.030502	132.0
219.081787	1048.0
219.192535	128.0
219.30748	140.0
219.679016	152.0
220.047928	188.0
220.087143	1464.0
220.168991	212.0
220.482162	104.0
220.884277	84.0
221.096542	572.0
221.230515	60.0
221.716293	88.0
222.037964	112.0
222.061646	124.0
222.067108	184.0
222.092834	160.0
222.843903	52.0
222.903336	184.0
223.18573	156.0
223.637924	128.0
223.658752	152.0
224.056931	456.0
224.91069	180.0
225.030106	188.0
225.062943	120.0
225.194351	128.0
225.367615	208.0
225.678467	72.0
226.092865	228.0
226.600342	156.0
226.990005	92.0
227.053604	252.0
227.091248	588.0
227.127472	176.0
227.148956	212.0
227.274963	188.0
227.854446	116.0
228.096771	540.0
228.293304	168.0
228.395569	116.0
228.627243	44.0
229.030685	72.0
229.107635	3572.0
229.848892	144.0
230.030777	244.0
230.075531	816.0
230.110352	680.0
230.176743	120.0
230.330765	124.0
230.720596	208.0
231.010925	212.0
231.042252	184.0
231.077789	328.0
231.113785	152.0
231.243927	132.0
231.422531	128.0
231.452805	56.0
231.589096	72.0
231.795105	168.0
231.907242	60.0
232.051788	10016.0
232.138824	88.0
232.298401	104.0
232.374252	88.0
232.404587	80.0
232.459213	52.0
232.50473	52.0
232.550262	40.0
232.659531	48.0
232.787064	92.0
232.862991	60.0
232.987534	92.0
233.026489	316.0
233.052368	996.0
233.220566	76.0
233.385681	76.0
233.431305	56.0
233.510376	168.0
233.622833	152.0
233.714188	116.0
233.787231	108.0
233.939423	200.0
233.990982	124.0
234.059494	384.0
234.103439	23348.0
234.22113	148.0
234.283539	28.0
234.304871	32.0
234.432846	128.0
234.46637	80.0
234.488556	100.0
234.54866	104.0
234.649261	72.0
234.716354	76.0
234.751144	88.0
234.820038	44.0
234.85054	48.0
234.871887	96.0
234.917648	32.0
234.945099	48.0
234.990021	144.0
235.06601	172.0
235.104095	3676.0
235.170914	212.0
235.302185	36.0
235.38768	68.0
235.592316	48.0
235.641205	64.0
235.727936	176.0
235.751205	72.0
235.870407	40.0
235.928101	64.0
236.050781	148.0
236.111099	216.0
236.500519	40.0
236.727081	116.0
236.757706	124.0
236.797516	64.0
236.895538	88.0
237.067123	112.0
237.120697	200.0
237.208115	60.0
238.054932	160.0
238.214645	132.0
238.770996	56.0
238.89711	236.0
238.952484	96.0
239.023254	80.0
239.337234	172.0
240.07373	116.0
240.107422	144.0
240.203262	164.0
240.595184	64.0
240.845322	40.0
241.039963	216.0
241.072617	276.0
241.110764	132.0
241.893585	164.0
242.112656	432.0
242.138199	272.0
242.615402	160.0
243.086853	168.0
243.1241	156.0
243.61644	92.0
244.245728	160.0
244.33905	68.0
245.357483	136.0
246.074982	140.0
246.103165	144.0
246.199966	232.0
246.38739	172.0
246.571747	92.0
247.097092	100.0
247.133026	180.0
247.378754	52.0
247.466415	140.0
248.1082	276.0
249.115051	208.0
249.153778	148.0
249.566925	160.0
249.647278	136.0
249.713318	100.0
249.873749	116.0
250.062881	1808.0
250.916245	148.0
250.988754	132.0
251.042358	104.0
251.070602	176.0
251.335739	156.0
251.389374	48.0
252.055679	120.0
252.077805	116.0
253.088516	344.0
253.229385	124.0
253.861008	108.0
254.018646	160.0
254.078552	356.0
255.031601	176.0
255.087631	632.0
255.124954	240.0
256.131042	148.0
256.467133	184.0
256.754089	44.0
256.884857	108.0
257.139435	4080.0
257.188019	200.0
257.245453	96.0
257.865143	184.0
258.06604	436.0
258.141022	544.0
258.268005	92.0
259.075409	328.0
259.122498	148.0
259.144745	452.0
259.212494	36.0
259.491333	112.0
259.972504	88.0
260.02063	112.0
260.083069	764.0
260.114441	384.0
260.158661	148.0
260.181152	124.0
261.080841	144.0
261.119446	148.0
261.19986	168.0
261.347839	28.0
261.389679	60.0
266.284302	44.0
267.461334	172.0
267.497131	200.0
268.155121	164.0
268.184448	128.0
270.461121	172.0
272.780273	52.0
273.085205	208.0
273.787109	80.0
274.053925	124.0
274.103363	140.0
274.997101	200.0
275.093384	560.0
275.13205	152.0
275.717102	84.0
275.885681	64.0
275.958405	148.0
276.073273	148.0
276.096283	324.0
276.464539	152.0
276.947906	132.0
277.14682	2060.0
277.242065	168.0
277.328949	40.0
277.693665	92.0
278.093292	928.0
278.153198	188.0
278.281067	60.0
278.692932	80.0
279.008667	76.0
279.058533	76.0
279.09668	152.0
279.149292	136.0
280.103546	196.0
281.290649	140.0
283.116394	1072.0
283.16983	76.0
283.39093	60.0
283.873627	40.0
284.123047	120.0
284.537994	48.0
284.581665	52.0
285.653748	184.0
285.771484	168.0
288.317444	72.0
292.210297	72.0
292.734497	64.0
293.103516	372.0
293.678528	100.0
294.268921	152.0
295.03421	76.0
297.123352	284.0
298.13974	120.0
301.036987	148.0
301.130096	288.0
301.378967	84.0
301.679657	132.0
302.134796	256.0
302.368011	152.0
302.47876	184.0
302.77655	200.0
302.838867	96.0
302.953186	160.0
302.99823	172.0
303.057129	308.0
303.125	11508.0
303.228088	88.0
303.265045	40.0
303.333832	76.0
303.401733	132.0
303.445312	40.0
303.608307	52.0
303.705414	92.0
303.81189	72.0
303.892761	32.0
303.989899	96.0
304.128815	1552.0
304.239807	40.0
304.528046	108.0
304.590546	32.0
304.715607	48.0
304.830292	64.0
305.049255	80.0
305.139709	432.0
305.254395	92.0
305.386536	52.0
305.487427	48.0
305.567444	40.0
305.751862	140.0
305.939819	48.0
305.981018	116.0
306.040802	108.0
306.091339	100.0
306.138306	48.0
306.908417	52.0
307.089752	88.0
307.805206	28.0
312.882294	164.0
313.266174	40.0
314.214508	148.0
315.493011	56.0
319.137756	132.0
320.543762	220.0
320.821777	136.0
320.993317	180.0
321.042847	72.0
321.13446	6024.0
321.35675	40.0
321.461639	72.0
321.578003	60.0
321.637177	56.0
321.69223	52.0
321.745789	64.0
321.770782	72.0
322.138367	1064.0
322.281525	128.0
322.581757	48.0
322.724762	100.0
322.864227	28.0
323.143829	144.0
323.257751	60.0
323.773254	132.0
324.199585	164.0
324.246155	96.0
324.299927	100.0
325.6203	84.0
327.033325	56.0
333.195404	48.0
333.856964	52.0
335.40799	100.0
336.681366	160.0
337.057648	36.0
347.956879	36.0
352.942261	68.0
359.587952	72.0
360.275177	56.0
362.159027	84.0
367.542328	68.0
381.325897	68.0
384.180145	220.0
386.637909	156.0
392.988251	60.0
401.214172	76.0
409.517212	60.0
409.916077	44.0
415.00116	104.0
415.183655	96.0
420.631805	48.0
427.879883	80.0
428.316406	40.0
440.93866	160.0
447.465881	60.0
451.910278	88.0
458.17276	88.0
461.933807	56.0
462.6185	64.0
464.92453	44.0
478.715607	120.0
487.688995	108.0
488.264954	84.0
499.882477	92.0
512.56897	80.0
512.96106	76.0
513.443542	64.0
514.052551	40.0
543.989075	124.0
545.921997	80.0
548.846375	88.0
568.396484	52.0
568.904297	156.0
570.80957	128.0
573.728271	72.0
591.164551	68.0
591.653442	108.0
594.828735	48.0
600.668152	72.0
610.596741	72.0
626.775269	116.0
630.513062	84.0
640.759827	108.0
657.055054	64.0
660.917725	108.0
675.358826	76.0
686.572388	76.0
689.527344	60.0
698.767151	88.0
715.172485	128.0
801.462708	64.0
823.782959	72.0
827.563354	60.0
833.097961	76.0
838.022827	36.0
872.150635	68.0
892.125366	160.0
900.103394	60.0
935.387268	120.0
941.551697	40.0
970.611511	144.0
1024.066528	216.0
1043.22522	60.0
1079.863281	136.0
1083.673218	72.0
1091.931519	48.0
1096.256836	76.0
1097.008301	108.0
1151.150269	132.0
1153.900391	156.0
1154.583252	184.0
1160.774414	152.0
1164.920044	172.0
1170.081909	276.0
1183.888794	96.0
1192.774048	140.0
1196.826294	208.0
1204.481567	148.0
1216.496216	184.0
1218.253174	84.0
1220.143555	104.0
1223.037476	100.0
1224.241943	80.0
1231.600098	236.0
1241.040894	148.0
1246.059326	192.0
1251.038696	156.0
1253.250122	68.0
1255.611694	148.0
1256.345337	156.0
1259.762207	132.0
1263.388794	272.0
1288.478394	200.0
1289.907715	76.0
1293.978394	172.0
1297.424438	100.0
1302.885986	84.0
1309.561523	184.0
1311.081787	112.0
1316.246948	36.0
1317.734985	92.0
1317.807251	72.0
1319.932251	100.0
1321.639404	136.0
1327.427124	164.0
1329.552734	340.0
1329.87207	144.0
1331.963379	144.0
1337.664429	208.0
1339.688965	156.0
1340.41748	232.0
1340.665283	152.0
1342.473267	212.0
1350.865601	180.0
1369.731567	220.0
1371.190552	192.0
1376.679443	196.0
1376.864014	188.0
1378.622314	184.0
1378.674072	72.0
1379.34668	68.0
1382.08313	168.0
1387.591797	188.0
1392.810913	148.0
1394.289429	152.0
1394.958496	176.0
1395.226074	172.0
1395.791138	144.0
1405.452393	184.0
1409.11853	168.0
1409.260498	216.0
1414.098877	104.0
1415.528809	124.0
1417.851196	52.0
1421.871094	56.0
1425.874268	196.0
1433.000488	88.0
1434.9375	176.0
1435.646362	152.0
1437.509766	248.0
1438.158813	132.0
1439.56311	164.0
1441.912598	200.0
1445.913574	84.0
1447.351807	192.0
1448.601562	252.0
1448.957642	140.0
1452.02771	108.0
1452.725464	220.0
1453.362793	160.0
1460.96814	176.0
1464.012817	124.0
1473.830566	124.0
1474.266113	124.0
1474.709351	220.0
1475.137451	164.0
1475.573242	156.0
1476.796753	112.0
1483.366699	84.0
1485.322144	168.0
1491.280762	200.0
1491.442139	164.0
1496.21167	152.0
1499.061523	92.0
1500.464478	160.0
1502.354004	180.0
1502.863159	192.0
END IONS

BEGIN IONS
PEPMASS=686.483
CHARGE=1
MSLEVEL=2
SOURCE_INSTRUMENT=LC-ESI-qTof
FILENAME=p5-F03_GF3_01_18466.mzXML
SEQ=*..*
IONMODE=Positive
ORGANISM=GNPS-NIH-SMALLMOLECULEPHARMACOLOGICALLYACTIVE
NAME=MLS002222329-01!26305-03-3 M+H
PI=Dorrestein
DATACOLLECTOR=VP/LMS
SMILES=CC(C)C[C@H](NC(=O)[C@H](C)NC(=O)C[C@H](O)[C@H](CC(C)C)NC(=O)[C@@H](NC(=O)[C@@H](NC(=O)CC(C)C)C(C)C)C(C)C)[C@@H](O)CC(=O)O
INCHI=N/A
INCHIAUX=N/A
PUBMED=N/A
SUBMITUSER=vphelan
LIBRARYQUALITY=1
SPECTRUMID=CCMSLIB00000086129
USI=mzspec:GNPS:GNPS-NIH-SMALLMOLECULEPHARMACOLOGICALLYACTIVE:accession:CCMSLIB00000086129
SCANS=1900
44.903965	52.0
44.924694	304.0
44.979721	204.0
45.030144	180.0
45.059532	128.0
45.112988	152.0
45.190704	168.0
45.22401	184.0
45.24543	108.0
45.261497	316.0
45.289619	88.0
45.30019	148.0
45.312393	196.0
45.376724	148.0
45.414272	60.0
45.504181	152.0
45.53793	120.0
45.553871	200.0
45.584175	180.0
45.612995	184.0
45.641602	156.0
45.651985	52.0
45.6614	176.0
45.692459	176.0
45.704445	160.0
45.713867	120.0
45.723286	196.0
45.746166	176.0
45.802723	172.0
45.824276	108.0
45.845837	92.0
45.863358	176.0
45.915939	100.0
45.936172	144.0
45.97665	112.0
46.022953	132.0
46.034698	136.0
46.044151	176.0
46.057659	132.0
46.068462	180.0
46.082031	184.0
46.100891	128.0
46.161724	92.0
46.215828	180.0
46.238804	220.0
46.333618	188.0
46.352589	132.0
46.404095	176.0
46.432571	204.0
46.448097	232.0
46.45834	176.0
46.473999	180.0
46.509907	128.0
46.520767	148.0
46.532532	176.0
46.556068	156.0
46.582645	148.0
46.586723	224.0
46.602253	116.0
46.6759	240.0
46.690609	160.0
46.706928	288.0
46.80764	180.0
46.823185	260.0
46.844414	160.0
46.86076	356.0
46.888016	80.0
46.898918	108.0
46.942543	44.0
46.97937	180.0
46.990284	168.0
47.104958	136.0
47.215668	136.0
47.227978	160.0
47.253429	192.0
47.27039	208.0
47.293056	288.0
47.333355	140.0
47.411438	212.0
47.503975	100.0
47.518394	204.0
47.527996	136.0
47.545837	100.0
47.578781	64.0
47.595798	152.0
47.608986	124.0
47.619976	136.0
47.659813	120.0
47.677677	112.0
47.688671	232.0
47.707008	224.0
47.725788	140.0
47.754665	36.0
47.793186	164.0
47.887463	132.0
47.909954	156.0
47.947414	156.0
48.017727	132.0
48.028763	184.0
48.075672	56.0
48.108795	100.0
48.158451	296.0
48.190281	136.0
48.271832	168.0
48.358658	184.0
48.37006	168.0
48.421291	44.0
48.447609	56.0
48.473934	168.0
48.48502	168.0
48.504425	208.0
48.536308	140.0
48.559887	184.0
48.577915	156.0
48.594566	156.0
48.64397	320.0
48.787609	160.0
48.823761	108.0
48.844624	184.0
48.866142	188.0
48.880795	136.0
48.901672	156.0
48.916981	108.0
48.929512	160.0
49.010292	192.0
49.021439	112.0
49.05489	168.0
49.071617	136.0
49.084167	132.0
49.117638	116.0
49.162285	184.0
49.184616	148.0
49.193874	120.0
49.205555	172.0
49.231911	128.0
49.235626	112.0
49.241032	188.0
49.319736	136.0
49.34396	124.0
49.369038	160.0
49.404007	56.0
49.420795	64.0
49.444584	104.0
49.50898	160.0
49.519913	124.0
49.534191	128.0
49.565014	112.0
49.581829	176.0
49.655869	168.0
49.675774	144.0
49.730495	112.0
49.753635	140.0
49.775421	152.0
49.79789	152.0
49.847057	192.0
49.870949	156.0
49.910313	120.0
49.944065	192.0
49.960266	188.0
50.003342	152.0
50.114403	132.0
50.157665	204.0
50.187698	220.0
50.237061	156.0
50.279388	108.0
50.29068	192.0
50.340092	232.0
50.354214	48.0
50.39518	112.0
50.431889	164.0
50.444645	160.0
50.465851	168.0
50.487061	160.0
50.521008	48.0
50.54789	108.0
50.616055	128.0
50.648952	156.0
50.672424	176.0
50.676537	168.0
50.69025	172.0
50.703663	120.0
50.726341	96.0
50.746189	64.0
50.771713	216.0
50.820541	148.0
50.88483	228.0
50.938709	184.0
50.971268	140.0
50.983238	120.0
51.003136	52.0
51.020195	44.0
51.04612	232.0
51.060009	164.0
51.092724	96.0
51.102684	56.0
51.124603	160.0
51.188087	128.0
51.253216	136.0
51.320602	156.0
51.336117	168.0
51.369091	96.0
51.414749	136.0
51.443295	216.0
51.527554	108.0
51.547558	128.0
51.568993	92.0
51.624752	172.0
51.639053	108.0
51.651924	64.0
51.680538	164.0
51.723469	148.0
51.768349	228.0
51.802227	236.0
51.833748	148.0
51.853809	132.0
51.866352	176.0
51.882477	172.0
51.921959	172.0
51.977139	136.0
52.000248	192.0
52.00993	132.0
52.057617	124.0
52.07045	124.0
52.08625	204.0
52.099178	64.0
52.117855	36.0
52.136536	68.0
52.156658	132.0
52.171032	120.0
52.182533	80.0
52.214169	116.0
52.234303	132.0
52.270271	180.0
52.293102	208.0
52.316326	240.0
52.343685	52.0
52.372486	160.0
52.437611	380.0
52.456062	184.0
52.475357	140.0
52.521595	232.0
52.545471	108.0
52.572235	124.0
52.591648	100.0
52.619076	148.0
52.630627	148.0
52.652287	140.0
52.672508	88.0
52.730305	184.0
52.759212	124.0
52.769333	196.0
52.779453	116.0
52.809986	212.0
52.863518	176.0
52.886509	148.0
52.901123	124.0
52.947273	140.0
52.952847	136.0
52.957092	176.0
53.000916	176.0
53.032196	244.0
53.03891	128.0
53.047501	296.0
53.065117	176.0
53.082783	192.0
53.146126	136.0
53.276577	156.0
53.30032	140.0
53.352146	132.0
53.373955	132.0
53.417583	116.0
53.450821	128.0
53.467159	168.0
53.529346	172.0
53.612686	64.0
53.63892	168.0
53.663193	148.0
53.688492	244.0
53.750557	132.0
53.793545	172.0
53.813984	140.0
53.841801	160.0
53.856335	200.0
53.910648	180.0
53.939869	188.0
53.965935	148.0
54.047844	184.0
54.120155	208.0
54.198658	184.0
54.229435	68.0
54.271358	172.0
54.303684	112.0
54.307716	184.0
54.335968	160.0
54.394466	144.0
54.434822	112.0
54.450977	140.0
54.462727	112.0
54.562653	160.0
54.572941	152.0
54.600883	132.0
54.611176	140.0
54.639126	76.0
54.696178	208.0
54.75983	172.0
54.779137	224.0
54.796658	120.0
54.817284	156.0
54.829075	140.0
54.91243	144.0
54.955891	104.0
54.989536	140.0
55.006104	168.0
55.019352	204.0
55.081375	128.0
55.199608	192.0
55.21516	124.0
55.26469	180.0
55.3461	104.0
55.395424	92.0
55.426086	100.0
55.482407	420.0
55.529171	208.0
55.555073	136.0
55.577328	188.0
55.595135	176.0
55.621849	148.0
55.684685	200.0
55.716888	212.0
55.837288	152.0
55.868526	212.0
55.89233	160.0
55.945911	128.0
55.9608	176.0
56.028492	124.0
56.06358	152.0
56.078484	56.0
56.102333	96.0
56.132153	216.0
56.173912	120.0
56.186558	260.0
56.245537	148.0
56.276886	160.0
56.301399	364.0
56.33065	204.0
56.376968	168.0
56.434082	172.0
56.50301	108.0
56.566917	164.0
56.577396	204.0
56.598354	140.0
56.616325	128.0
56.643284	124.0
56.654472	196.0
56.67025	108.0
56.68074	172.0
56.749687	164.0
56.808178	188.0
56.839684	136.0
56.857693	136.0
56.868198	184.0
56.894032	152.0
56.919239	228.0
56.943268	168.0
57.040932	168.0
57.057468	176.0
57.067993	152.0
57.105587	180.0
57.161251	132.0
57.185329	132.0
57.201885	104.0
57.225971	220.0
57.384171	148.0
57.436954	124.0
57.467125	120.0
57.477688	216.0
57.509525	164.0
57.560707	192.0
57.571278	140.0
57.642277	232.0
57.667347	160.0
57.692154	40.0
57.723904	176.0
57.77079	172.0
57.784409	124.0
57.816696	236.0
57.841911	68.0
57.860081	144.0
57.897934	140.0
57.908535	268.0
57.94503	304.0
57.966103	104.0
57.97974	84.0
58.023701	36.0
58.057377	76.0
58.067673	224.0
58.152149	212.0
58.176926	148.0
58.211845	168.0
58.236145	120.0
58.275642	52.0
58.31971	92.0
58.331871	152.0
58.34544	164.0
58.388393	160.0
58.427677	168.0
58.449165	160.0
58.463112	204.0
58.487022	124.0
58.525082	176.0
58.537689	200.0
58.560108	44.0
58.614952	160.0
58.697937	136.0
58.747593	188.0
58.758274	132.0
58.793369	248.0
58.846794	144.0
58.904827	188.0
58.980965	208.0
59.031681	52.0
59.069916	160.0
59.101009	136.0
59.111908	152.0
59.128059	124.0
59.141117	168.0
59.169388	156.0
59.239834	240.0
59.269817	212.0
59.306507	164.0
59.335243	324.0
59.359379	220.0
59.423733	180.0
59.442215	64.0
59.452957	108.0
59.466766	56.0
59.480583	192.0
59.515892	136.0
59.551212	152.0
59.589615	108.0
59.628983	168.0
59.6656	200.0
59.683372	152.0
59.728783	152.0
59.747971	140.0
59.771049	176.0
59.781818	288.0
59.797211	156.0
59.828842	160.0
59.835201	88.0
59.837746	132.0
59.912098	196.0
59.925278	192.0
59.938889	152.0
59.972794	116.0
59.996696	332.0
60.009789	136.0
60.043003	164.0
60.106052	236.0
60.175426	180.0
60.221203	168.0
60.259823	124.0
60.271721	228.0
60.296909	188.0
60.309273	120.0
60.326275	112.0
60.337471	132.0
60.354103	328.0
60.369183	144.0
60.445366	160.0
60.509102	224.0
60.525856	180.0
60.58073	204.0
60.594006	360.0
60.701378	176.0
60.724216	180.0
60.756691	184.0
60.760689	172.0
60.790699	192.0
60.810146	156.0
60.859226	116.0
60.876431	196.0
60.935108	196.0
60.952419	184.0
61.045689	152.0
61.069016	116.0
61.08392	172.0
61.114128	140.0
61.134357	148.0
61.166782	168.0
61.172604	140.0
61.177536	108.0
61.20752	84.0
61.220062	148.0
61.277611	116.0
61.32592	188.0
61.352417	100.0
61.364891	136.0
61.409863	124.0
61.421494	148.0
61.48032	160.0
61.502171	188.0
61.514408	152.0
61.55901	108.0
61.586761	136.0
61.603668	60.0
61.641163	152.0
61.653954	108.0
61.720882	84.0
61.749031	180.0
61.763107	84.0
61.847492	116.0
61.902397	144.0
61.91526	184.0
62.090698	152.0
62.102795	216.0
62.113979	132.0
62.151234	364.0
62.175167	112.0
62.192711	136.0
62.237961	196.0
62.258373	72.0
62.271671	160.0
62.310207	256.0
62.33849	176.0
62.351063	120.0
62.401363	160.0
62.429665	208.0
62.461121	160.0
62.484718	152.0
62.558685	184.0
62.582298	100.0
62.653557	148.0
62.668926	212.0
62.769806	212.0
62.793461	56.0
62.809235	172.0
62.821854	192.0
62.866032	92.0
62.880234	116.0
62.89286	160.0
62.91172	76.0
62.926014	236.0
62.938644	180.0
62.971806	96.0
63.001358	116.0
63.061298	224.0
63.101383	176.0
63.137753	152.0
63.159893	56.0
63.219456	136.0
63.237423	172.0
63.261166	124.0
63.3055	116.0
63.369629	76.0
63.389458	236.0
63.405304	132.0
63.456028	204.0
63.482983	148.0
63.494083	172.0
63.544846	132.0
63.562443	132.0
63.587688	156.0
63.601131	168.0
63.620625	240.0
63.626881	180.0
63.655952	152.0
63.738552	164.0
63.783138	148.0
63.809242	152.0
63.860962	132.0
63.87429	216.0
63.923008	160.0
63.937332	192.0
63.961159	140.0
63.976364	184.0
63.988266	124.0
64.001007	128.0
64.041794	124.0
64.10614	144.0
64.136208	164.0
64.148865	156.0
64.168297	156.0
64.181053	140.0
64.212952	108.0
64.265594	132.0
64.319855	208.0
64.335815	200.0
64.352371	204.0
64.375732	152.0
64.423645	96.0
64.460396	156.0
64.474701	176.0
64.506744	180.0
64.586693	132.0
64.665092	128.0
64.690704	212.0
64.716324	36.0
64.753151	112.0
64.823639	196.0
64.858902	124.0
64.884544	136.0
64.896332	372.0
64.939606	96.0
64.961525	172.0
64.998428	144.0
65.019142	224.0
65.03257	144.0
65.065834	184.0
65.083496	144.0
65.179871	128.0
65.20076	48.0
65.213623	148.0
65.261848	100.0
65.283501	128.0
65.31974	132.0
65.352943	220.0
65.38353	248.0
65.398582	224.0
65.470161	140.0
65.483276	160.0
65.50164	116.0
65.535469	164.0
65.551582	120.0
65.572876	132.0
65.604767	28.0
65.649918	128.0
65.680557	156.0
65.706367	52.0
65.732185	52.0
65.788673	144.0
65.846146	168.0
65.909805	164.0
65.927582	120.0
65.974457	216.0
66.009262	264.0
66.131355	116.0
66.201988	192.0
66.257668	72.0
66.338692	168.0
66.368546	232.0
66.44902	136.0
66.465195	132.0
66.522003	140.0
66.573959	180.0
66.601562	172.0
66.639214	136.0
66.66655	120.0
66.686058	136.0
66.708809	240.0
66.759216	116.0
66.802315	220.0
66.845428	188.0
66.886452	136.0
66.908676	140.0
66.983818	180.0
67.014771	184.0
67.037582	144.0
67.097893	120.0
67.152878	200.0
67.169647	108.0
67.223488	192.0
67.243065	156.0
67.270813	156.0
67.283875	96.0
67.306732	72.0
67.345932	176.0
67.398209	148.0
67.445595	132.0
67.470116	156.0
67.513466	384.0
67.530624	144.0
67.555153	100.0
67.569878	144.0
67.608063	72.0
67.668076	156.0
67.694275	200.0
67.730309	200.0
67.748329	64.0
67.76635	356.0
67.799553	244.0
67.822624	200.0
67.84993	164.0
67.863052	180.0
67.889282	156.0
67.933571	188.0
67.967148	120.0
68.014389	236.0
68.038597	168.0
68.074722	156.0
68.109482	200.0
68.123215	76.0
68.160141	140.0
68.183968	120.0
68.239037	124.0
68.304817	148.0
68.340515	188.0
68.36898	216.0
68.416718	112.0
68.450058	144.0
68.491364	132.0
68.531998	184.0
68.560944	92.0
68.584732	200.0
68.619354	152.0
68.639137	168.0
68.690598	200.0
68.713173	176.0
68.774422	164.0
68.795876	120.0
68.828896	116.0
68.853668	160.0
68.905289	204.0
68.941223	72.0
68.964363	176.0
68.988693	100.0
69.030495	136.0
69.047028	120.0
69.068535	264.0
69.101791	156.0
69.114853	236.0
69.13591	72.0
69.155258	192.0
69.189331	120.0
69.209198	208.0
69.234039	128.0
69.248947	104.0
69.275444	32.0
69.388138	156.0
69.437889	148.0
69.485336	152.0
69.507561	112.0
69.519173	180.0
69.534935	164.0
69.562332	216.0
69.577271	464.0
69.6138	144.0
69.675255	76.0
69.73674	144.0
69.751396	88.0
69.798248	232.0
69.854797	196.0
69.904083	172.0
69.933594	236.0
69.952141	192.0
69.960999	112.0
69.966873	172.0
70.001259	140.0
70.024574	188.0
70.052887	76.0
70.119537	212.0
70.166542	240.0
70.216232	200.0
70.228477	164.0
70.233154	56.0
70.239044	172.0
70.254601	168.0
70.33136	184.0
70.349106	228.0
70.364746	168.0
70.478317	192.0
70.501709	148.0
70.521454	236.0
70.530556	156.0
70.620415	124.0
70.637138	180.0
70.65052	212.0
70.662231	124.0
70.688385	204.0
70.725822	56.0
70.752609	164.0
70.797813	156.0
70.80954	192.0
70.831314	108.0
70.856308	148.0
71.019043	84.0
71.044205	180.0
71.082794	200.0
71.12326	144.0
71.162369	168.0
71.299522	140.0
71.33136	172.0
71.351532	152.0
71.363304	80.0
71.388901	160.0
71.445709	136.0
71.477684	96.0
71.50206	164.0
71.516716	180.0
71.536583	148.0
71.566887	180.0
71.59552	128.0
71.627342	116.0
71.648872	172.0
71.681427	124.0
71.708397	160.0
71.785942	212.0
71.797745	152.0
71.814613	160.0
71.86322	236.0
71.89045	164.0
71.986755	76.0
72.029823	136.0
72.077972	40.0
72.105354	176.0
72.148613	176.0
72.213913	232.0
72.248619	116.0
72.282578	152.0
72.350853	124.0
72.382446	168.0
72.447037	176.0
72.465439	320.0
72.499329	144.0
72.512093	180.0
72.53492	116.0
72.548485	164.0
72.607826	192.0
72.634964	124.0
72.680908	196.0
72.718109	176.0
72.839966	172.0
72.877731	140.0
72.92028	196.0
73.022224	144.0
73.046036	172.0
73.071907	156.0
73.103889	172.0
73.143288	160.0
73.176025	156.0
73.214539	136.0
73.234978	144.0
73.257942	176.0
73.284378	152.0
73.327324	140.0
73.352547	172.0
73.372009	176.0
73.405403	248.0
73.419044	160.0
73.442924	112.0
73.463387	180.0
73.488983	212.0
73.504341	228.0
73.524818	156.0
73.547791	156.0
73.562363	140.0
73.615349	128.0
73.642616	204.0
73.661407	112.0
73.687195	252.0
73.733879	176.0
73.75119	176.0
73.771515	148.0
73.808891	188.0
73.827194	132.0
73.847717	104.0
73.869957	244.0
73.943275	188.0
73.98056	240.0
73.999451	280.0
74.012001	160.0
74.065094	232.0
74.137054	228.0
74.194237	156.0
74.234764	128.0
74.251915	92.0
74.269066	140.0
74.287933	228.0
74.322517	176.0
74.341125	164.0
74.437256	180.0
74.47332	172.0
74.524857	136.0
74.617302	152.0
74.63147	128.0
74.645172	112.0
74.700211	140.0
74.746666	196.0
74.76387	116.0
74.789536	228.0
74.796143	208.0
74.829285	100.0
74.920555	204.0
74.941231	112.0
75.013618	212.0
75.066971	156.0
75.103943	244.0
75.125702	92.0
75.173668	200.0
75.224068	168.0
75.252342	192.0
75.268562	212.0
75.343224	100.0
75.467659	156.0
75.479767	132.0
75.521469	140.0
75.543755	112.0
75.600853	188.0
75.70472	128.0
75.725502	96.0
75.782669	76.0
75.817123	204.0
75.861801	224.0
75.899635	176.0
75.910934	204.0
75.944809	188.0
75.988991	160.0
76.023697	104.0
76.100594	172.0
76.146957	148.0
76.16259	116.0
76.179108	164.0
76.211174	128.0
76.315514	152.0
76.329422	128.0
76.353775	188.0
76.367683	136.0
76.44075	128.0
76.454674	200.0
76.499931	180.0
76.542953	224.0
76.573059	164.0
76.585251	72.0
76.62532	104.0
76.655785	140.0
76.738602	164.0
76.754105	180.0
76.78743	192.0
76.815338	152.0
76.914253	132.0
76.928764	148.0
76.947968	148.0
76.970665	140.0
77.030045	128.0
77.073723	232.0
77.092003	208.0
77.106926	220.0
77.120911	76.0
77.201332	120.0
77.222313	160.0
77.274796	36.0
77.301041	56.0
77.406067	168.0
77.442848	368.0
77.460365	156.0
77.490143	116.0
77.502411	196.0
77.528694	196.0
77.55323	180.0
77.575836	116.0
77.604065	172.0
77.621605	208.0
77.635628	48.0
77.651413	96.0
77.674217	92.0
77.6978	244.0
77.721581	104.0
77.75769	212.0
77.779404	144.0
77.909447	172.0
77.92701	108.0
77.979729	184.0
78.069389	200.0
78.088737	268.0
78.11364	200.0
78.136162	168.0
78.171425	172.0
78.183739	60.0
78.220703	172.0
78.247108	56.0
78.274216	152.0
78.312263	152.0
78.329872	144.0
78.423264	164.0
78.475891	164.0
78.499161	152.0
78.515373	180.0
78.531502	208.0
78.598969	152.0
78.634911	28.0
78.661385	144.0
78.684334	136.0
78.701157	204.0
78.727119	156.0
78.763802	164.0
78.776169	204.0
78.811501	160.0
78.834473	152.0
78.855682	180.0
78.941071	212.0
78.981216	136.0
79.010406	136.0
79.062256	184.0
79.131638	184.0
79.147568	128.0
79.182991	124.0
79.222076	60.0
79.2379	184.0
79.304832	156.0
79.349556	84.0
79.369057	172.0
79.407707	156.0
79.440002	104.0
79.576477	160.0
79.617493	28.0
79.633476	188.0
79.68499	400.0
79.745628	96.0
79.789848	108.0
79.820076	196.0
79.836082	148.0
79.852089	116.0
79.868095	76.0
79.912567	180.0
79.928329	140.0
79.985535	60.0
80.106621	204.0
80.120872	160.0
80.163628	52.0
80.187958	92.0
80.217102	108.0
80.229576	168.0
80.265556	236.0
80.303688	168.0
80.33535	192.0
80.361557	92.0
80.432938	212.0
80.526443	184.0
80.561508	300.0
80.582947	52.0
80.654427	64.0
80.702698	136.0
80.765953	204.0
80.797485	72.0
80.817169	156.0
80.842216	164.0
80.858322	132.0
80.910233	196.0
81.026817	124.0
81.132378	148.0
81.144928	52.0
81.19693	116.0
81.220245	184.0
81.251343	192.0
81.279449	108.0
81.315346	124.0
81.347649	236.0
81.38974	144.0
81.421265	132.0
81.435638	168.0
81.457191	132.0
81.509293	100.0
81.539841	172.0
81.577591	112.0
81.631523	188.0
81.683685	168.0
81.719666	164.0
81.732254	180.0
81.750252	160.0
81.784447	188.0
81.83078	184.0
81.8703	84.0
81.96994	36.0
82.00779	84.0
82.02581	156.0
82.167465	200.0
82.188126	116.0
82.20256	104.0
82.269341	124.0
82.304909	184.0
82.326981	152.0
82.365051	172.0
82.414848	148.0
82.435005	172.0
82.478561	112.0
82.524078	180.0
82.56736	180.0
82.585564	120.0
82.603653	100.0
82.627167	128.0
82.65612	56.0
82.692314	88.0
82.732132	148.0
82.757477	156.0
82.771965	284.0
82.795921	228.0
82.831734	188.0
82.847664	276.0
82.88282	180.0
82.94194	328.0
82.983963	112.0
83.040176	68.0
83.063751	140.0
83.078262	160.0
83.125443	168.0
83.158104	120.0
83.179886	180.0
83.243431	124.0
83.26622	160.0
83.292465	156.0
83.350601	168.0
83.369095	160.0
83.391533	176.0
83.40876	136.0
83.425117	168.0
83.465118	132.0
83.497849	160.0
83.516037	184.0
83.536049	244.0
83.577896	276.0
83.595673	140.0
83.674355	236.0
83.688919	200.0
83.727165	36.0
83.767235	76.0
83.781807	136.0
83.820068	160.0
83.861275	144.0
83.887505	172.0
83.900261	132.0
83.927612	168.0
83.940376	172.0
83.954964	104.0
84.03157	172.0
84.051643	232.0
84.137428	200.0
84.256134	172.0
84.279884	148.0
84.332886	92.0
84.365784	200.0
84.384819	244.0
84.413322	44.0
84.435265	100.0
84.470016	156.0
84.483543	196.0
84.625572	216.0
84.653038	44.0
84.676292	120.0
84.709816	132.0
84.788605	132.0
84.803268	144.0
84.850929	184.0
84.883934	52.0
84.912071	160.0
84.947693	172.0
84.995827	228.0
85.010506	136.0
85.023354	144.0
85.045853	160.0
85.115135	104.0
85.137169	136.0
85.188599	176.0
85.210648	200.0
85.249229	52.0
85.271286	164.0
85.315903	212.0
85.35585	116.0
85.40918	144.0
85.422058	80.0
85.48436	144.0
85.542046	176.0
85.567444	196.0
85.600586	160.0
85.651947	144.0
85.70005	124.0
85.720322	68.0
85.736908	68.0
85.760216	148.0
85.82354	184.0
85.858582	188.0
85.878868	164.0
86.002716	128.0
86.119507	148.0
86.163887	188.0
86.201401	144.0
86.2463	140.0
86.269524	156.0
86.395111	296.0
86.425682	100.0
86.476532	168.0
86.520073	148.0
86.536736	200.0
86.571915	116.0
86.620071	176.0
86.649712	120.0
86.718277	44.0
86.733101	180.0
86.785011	188.0
86.832314	276.0
86.857887	284.0
86.977951	156.0
87.026215	136.0
87.089355	184.0
87.122787	144.0
87.139511	132.0
87.208267	80.0
87.231415	132.0
87.373764	36.0
87.396095	168.0
87.44075	116.0
87.464951	220.0
87.504044	84.0
87.530113	128.0
87.579346	204.0
87.623238	164.0
87.656776	132.0
87.681412	128.0
87.725739	140.0
87.755562	152.0
87.807472	172.0
87.835754	148.0
87.850677	236.0
87.887993	140.0
87.951447	72.0
88.035461	68.0
88.055031	148.0
88.082153	200.0
88.143875	180.0
88.183044	220.0
88.199867	212.0
88.276047	188.0
88.299118	196.0
88.32328	192.0
88.373787	80.0
88.405602	136.0
88.424316	152.0
88.451584	224.0
88.474854	164.0
88.564735	160.0
88.615318	156.0
88.660286	144.0
88.684654	168.0
88.735268	240.0
88.787766	104.0
88.825279	144.0
88.855293	172.0
88.870308	64.0
88.889069	116.0
89.013901	112.0
89.038734	204.0
89.059914	112.0
89.075966	168.0
89.088585	132.0
89.110786	144.0
89.14257	116.0
89.183922	108.0
89.198959	176.0
89.215874	220.0
89.234299	100.0
89.390793	100.0
89.425568	184.0
89.479912	184.0
89.526329	188.0
89.539513	176.0
89.720406	236.0
89.77697	156.0
89.7966	244.0
89.873169	72.0
89.901474	128.0
90.057686	124.0
90.116737	188.0
90.139412	136.0
90.175255	120.0
90.226753	132.0
90.245262	332.0
90.301994	76.0
90.343605	104.0
90.406044	152.0
90.434433	80.0
90.4897	144.0
90.536667	148.0
90.56292	220.0
90.581497	168.0
90.638962	76.0
90.665489	124.0
90.680656	172.0
90.699242	168.0
90.708374	64.0
90.715828	144.0
90.733727	124.0
90.748894	192.0
90.908234	128.0
90.927208	120.0
90.991745	152.0
91.005035	136.0
91.056313	172.0
91.079102	164.0
91.100922	180.0
91.117325	164.0
91.147385	136.0
91.153786	128.0
91.157516	176.0
91.189301	80.0
91.324295	116.0
91.368423	300.0
91.394684	296.0
91.41114	148.0
91.438728	136.0
91.474617	100.0
91.499359	148.0
91.641289	200.0
91.686035	196.0
91.706993	100.0
91.753441	252.0
91.792786	116.0
91.841339	132.0
91.895782	168.0
92.068001	164.0
92.094994	192.0
92.139923	128.0
92.208954	128.0
92.237625	108.0
92.283508	156.0
92.29689	164.0
92.363876	144.0
92.385628	212.0
92.427811	144.0
92.484795	144.0
92.606911	212.0
92.716118	184.0
92.731445	188.0
92.838806	144.0
92.890594	128.0
92.905937	128.0
92.967339	108.0
93.01532	200.0
93.049873	96.0
93.070999	396.0
93.084435	196.0
93.126686	184.0
93.154625	376.0
93.176483	156.0
93.190231	156.0
93.222748	40.0
93.262711	176.0
93.30452	132.0
93.368851	112.0
93.408905	160.0
93.455414	128.0
93.496895	172.0
93.56897	208.0
93.596924	100.0
93.667183	188.0
93.694847	184.0
93.721123	168.0
93.734612	180.0
93.759666	140.0
93.778938	128.0
93.805923	188.0
93.845383	140.0
93.871475	136.0
94.029915	152.0
94.047035	108.0
94.075989	112.0
94.232422	108.0
94.267197	168.0
94.301987	136.0
94.419479	192.0
94.435898	200.0
94.483757	48.0
94.506973	88.0
94.53019	60.0
94.543739	184.0
94.590187	308.0
94.605675	172.0
94.618683	216.0
94.64827	204.0
94.679253	152.0
94.751579	188.0
94.776108	116.0
94.789673	156.0
94.804794	204.0
94.841995	144.0
94.859444	144.0
94.882706	156.0
94.896278	184.0
94.995186	36.0
95.040138	240.0
95.059128	484.0
95.086029	1656.0
95.121315	128.0
95.139458	116.0
95.158203	188.0
95.170769	124.0
95.218399	48.0
95.238686	84.0
95.261131	268.0
95.301926	128.0
95.325241	136.0
95.364113	172.0
95.395416	212.0
95.432571	148.0
95.453537	168.0
95.486603	168.0
95.507996	140.0
95.60878	160.0
95.644196	136.0
95.677292	128.0
95.761024	48.0
95.776604	208.0
95.874084	172.0
95.914948	136.0
95.928596	140.0
95.961205	176.0
96.008408	188.0
96.04541	356.0
96.072441	136.0
96.087906	168.0
96.100975	144.0
96.143143	152.0
96.168694	132.0
96.238792	176.0
96.258316	216.0
96.291283	168.0
96.315948	292.0
96.385284	116.0
96.418053	208.0
96.432999	116.0
96.457596	212.0
96.498825	132.0
96.549492	148.0
96.594475	104.0
96.706009	140.0
96.731949	236.0
96.766876	168.0
96.802803	152.0
96.822563	188.0
96.862648	132.0
96.890076	160.0
96.983765	128.0
96.999466	196.0
97.021378	104.0
97.046867	152.0
97.066475	136.0
97.100227	152.0
97.131195	176.0
97.146889	220.0
97.172394	296.0
97.282295	112.0
97.320213	164.0
97.337265	144.0
97.351013	148.0
97.400108	184.0
97.420357	144.0
97.48056	152.0
97.53373	80.0
97.578941	180.0
97.613182	96.0
97.632034	108.0
97.646172	84.0
97.698906	32.0
97.728416	124.0
97.753998	140.0
97.82682	136.0
97.843697	196.0
97.8815	176.0
97.994217	108.0
98.021805	160.0
98.060104	2496.0
98.096947	1984.0
98.131332	148.0
98.161758	184.0
98.203171	180.0
98.274193	88.0
98.302856	168.0
98.33931	64.0
98.362068	180.0
98.42025	172.0
98.449867	124.0
98.467644	104.0
98.514175	252.0
98.542709	168.0
98.584206	96.0
98.617683	136.0
98.659309	212.0
98.700829	152.0
98.740341	208.0
98.77401	204.0
98.833359	172.0
98.888763	132.0
98.946175	368.0
98.973358	192.0
98.980682	140.0
99.011513	148.0
99.054787	132.0
99.061882	112.0
99.080376	1780.0
99.103928	192.0
99.17794	236.0
99.263191	200.0
99.28302	216.0
99.325821	200.0
99.345596	160.0
99.362366	128.0
99.376251	180.0
99.394112	144.0
99.407997	88.0
99.435783	176.0
99.479446	212.0
99.493347	176.0
99.548943	104.0
99.63073	112.0
99.670593	164.0
99.68998	164.0
99.728905	164.0
99.74762	256.0
99.763519	104.0
99.797318	152.0
99.877823	308.0
99.928589	152.0
99.980698	172.0
100.00222	156.0
100.027985	148.0
100.05397	136.0
100.076889	196.0
100.114235	180.0
100.169472	120.0
100.225258	208.0
100.247177	128.0
100.267105	140.0
100.327278	148.0
100.35083	228.0
100.388672	184.0
100.442558	72.0
100.466499	156.0
100.502411	200.0
100.54232	144.0
100.588226	152.0
100.648117	48.0
100.700043	148.0
100.720421	196.0
100.739754	100.0
100.771957	108.0
100.793938	132.0
100.813919	132.0
100.851891	140.0
100.885872	104.0
100.923859	124.0
100.943855	176.0
100.963852	204.0
101.060707	316.0
101.115898	176.0
101.180763	128.0
101.312126	168.0
101.365822	200.0
101.448776	212.0
101.480476	204.0
101.494514	204.0
101.628899	152.0
101.661003	196.0
101.769394	128.0
101.802841	348.0
101.857758	96.0
101.897942	124.0
101.951607	164.0
102.044174	168.0
102.068092	152.0
102.104935	180.0
102.112389	176.0
102.150589	160.0
102.177391	148.0
102.223671	168.0
102.314247	164.0
102.334381	108.0
102.394791	48.0
102.418358	160.0
102.461258	140.0
102.497528	116.0
102.521065	100.0
102.560181	92.0
102.630562	156.0
102.737175	88.0
102.858055	188.0
102.906982	168.0
102.933228	136.0
103.051224	172.0
103.084732	104.0
103.121254	164.0
103.151428	100.0
103.209793	184.0
103.238365	112.0
103.309158	180.0
103.357468	164.0
103.394142	164.0
103.410019	152.0
103.493591	92.0
103.51358	68.0
103.539688	224.0
103.608772	176.0
103.63916	76.0
103.680046	136.0
103.748604	172.0
103.774963	132.0
103.799294	204.0
103.819572	72.0
103.890564	188.0
103.967667	212.0
103.990288	176.0
104.01506	200.0
104.061035	136.0
104.109772	112.0
104.144844	164.0
104.191017	156.0
104.223579	148.0
104.284615	164.0
104.31498	128.0
104.343445	116.0
104.373009	112.0
104.402405	100.0
104.450043	152.0
104.467491	160.0
104.480804	140.0
104.488693	76.0
104.493042	172.0
104.552155	336.0
104.601799	32.0
104.628265	224.0
104.655838	172.0
104.719894	204.0
104.76384	216.0
104.79731	164.0
104.887451	172.0
104.990959	120.0
105.068466	128.0
105.140869	188.0
105.185654	184.0
105.224754	256.0
105.270477	136.0
105.411484	164.0
105.434242	116.0
105.489151	368.0
105.603653	144.0
105.622063	148.0
105.674248	100.0
105.701851	156.0
105.808281	52.0
105.8349	148.0
105.892235	84.0
105.908623	152.0
105.947548	116.0
106.045898	84.0
106.079338	212.0
106.185318	236.0
106.228394	160.0
106.250961	160.0
106.269424	28.0
106.302254	200.0
106.36998	260.0
106.39872	128.0
106.493179	96.0
106.55275	132.0
106.610283	208.0
106.635788	176.0
106.645027	168.0
106.663719	172.0
106.699699	136.0
106.722313	184.0
106.779144	204.0
106.846741	116.0
106.889954	52.0
106.920822	164.0
106.955811	144.0
107.003159	48.0
107.038155	80.0
107.056694	184.0
107.132896	116.0
107.265816	216.0
107.349312	48.0
107.392044	200.0
107.448318	108.0
107.466888	140.0
107.530861	132.0
107.586594	184.0
107.623756	180.0
107.711723	200.0
107.795013	176.0
107.82206	204.0
107.884399	100.0
107.908417	160.0
107.960365	196.0
108.012283	172.0
108.073502	360.0
108.111588	160.0
108.161263	168.0
108.223366	144.0
108.320702	184.0
108.380783	172.0
108.443794	176.0
108.471977	128.0
108.625053	92.0
108.671059	136.0
108.692627	192.0
108.706337	180.0
108.722939	144.0
108.756203	140.0
108.808174	220.0
108.837112	188.0
108.872414	128.0
108.891098	140.0
108.930565	156.0
108.97979	156.0
108.987968	108.0
108.993965	224.0
109.026138	112.0
109.074333	152.0
109.113441	104.0
109.16259	220.0
109.186432	176.0
109.204941	144.0
109.244461	184.0
109.261101	124.0
109.281906	76.0
109.333931	252.0
109.419273	116.0
109.450607	160.0
109.490067	120.0
109.525475	92.0
109.550468	152.0
109.569221	80.0
109.631729	136.0
109.646317	164.0
109.708527	204.0
109.729507	132.0
109.747101	92.0
109.782021	168.0
109.835251	148.0
109.89238	168.0
109.952888	124.0
109.971672	208.0
110.014671	160.0
110.059601	112.0
110.086502	152.0
110.147064	84.0
110.21183	92.0
110.232727	104.0
110.297516	200.0
110.340439	220.0
110.368599	100.0
110.462044	176.0
110.481537	136.0
110.697983	184.0
110.75576	144.0
110.78508	52.0
110.84375	156.0
110.8647	68.0
110.936707	124.0
110.979996	168.0
111.058701	132.0
111.149895	204.0
111.170876	76.0
111.234764	100.0
111.292625	168.0
111.338821	168.0
111.357582	304.0
111.378723	148.0
111.395531	152.0
111.456459	148.0
111.481674	132.0
111.509781	168.0
111.614105	84.0
111.643547	208.0
111.740303	136.0
111.782387	132.0
111.879204	140.0
111.923416	204.0
112.007652	172.0
112.053238	308.0
112.077179	132.0
112.111557	1376.0
112.196762	200.0
112.218147	136.0
112.259865	244.0
112.302742	192.0
112.344666	192.0
112.397675	48.0
112.433556	172.0
112.456345	180.0
112.479988	204.0
112.526428	52.0
112.560837	176.0
112.615959	128.0
112.641342	164.0
112.710854	216.0
112.750336	172.0
112.900436	176.0
112.930046	148.0
112.966003	204.0
112.996162	372.0
113.031586	136.0
113.076027	92.0
113.111519	172.0
113.1353	208.0
113.182716	212.0
113.198814	148.0
113.215759	180.0
113.325905	136.0
113.344978	176.0
113.389481	188.0
113.419151	160.0
113.459427	128.0
113.480629	176.0
113.506073	156.0
113.532837	200.0
113.601509	136.0
113.63546	128.0
113.682137	148.0
113.697441	152.0
113.722458	148.0
113.776115	160.0
113.798721	124.0
113.828606	152.0
113.847717	152.0
113.862587	184.0
113.902939	188.0
113.930557	200.0
113.947556	184.0
113.970924	136.0
113.990051	220.0
114.013313	152.0
114.055603	284.0
114.127495	544.0
114.14682	64.0
114.177124	40.0
114.196266	168.0
114.338806	172.0
114.404793	96.0
114.438858	172.0
114.496353	224.0
114.519775	180.0
114.569969	192.0
114.585533	180.0
114.624168	96.0
114.662521	112.0
114.707283	32.0
114.735001	236.0
114.760582	148.0
114.77977	132.0
114.798965	168.0
114.856544	172.0
114.877876	220.0
114.948357	124.0
115.049698	352.0
115.069946	140.0
115.129738	160.0
115.16391	168.0
115.206627	112.0
115.311333	112.0
115.351776	256.0
115.413475	184.0
115.453079	172.0
115.508041	192.0
115.52729	192.0
115.558632	160.0
115.591476	100.0
115.606461	120.0
115.647125	124.0
115.664246	152.0
115.703316	184.0
115.779861	180.0
115.876251	84.0
115.931961	160.0
116.015556	160.0
116.036995	308.0
116.054146	144.0
116.073441	108.0
116.107079	692.0
116.152977	140.0
116.198677	144.0
116.245049	132.0
116.267769	184.0
116.290115	108.0
116.424286	168.0
116.461884	188.0
116.50914	96.0
116.558563	80.0
116.599388	100.0
116.618736	160.0
116.719772	112.0
116.831612	156.0
116.868187	172.0
116.885399	136.0
116.944801	220.0
117.004715	188.0
117.031769	144.0
117.103333	504.0
117.136787	220.0
117.181351	152.0
117.208389	256.0
117.266579	128.0
117.348488	224.0
117.363586	136.0
117.380836	164.0
117.421806	68.0
117.439064	140.0
117.458473	136.0
117.475731	84.0
117.518883	140.0
117.540459	128.0
117.621109	108.0
117.650528	136.0
117.687233	232.0
117.799538	152.0
117.872993	100.0
117.918373	136.0
117.95256	108.0
117.966156	224.0
118.019974	200.0
118.084854	228.0
118.103218	308.0
118.123787	168.0
118.154068	140.0
118.184364	164.0
118.262268	124.0
118.305557	164.0
118.325043	180.0
118.376846	212.0
118.467339	204.0
118.535744	200.0
118.552475	140.0
118.587151	196.0
118.610992	104.0
118.637993	164.0
118.735756	156.0
118.769279	140.0
118.797485	192.0
118.834366	88.0
118.856064	48.0
118.871246	176.0
118.903801	204.0
118.951553	228.0
118.982391	212.0
119.011047	128.0
119.031883	140.0
119.053596	136.0
119.164375	216.0
119.181763	128.0
119.242607	140.0
119.280876	168.0
119.328285	116.0
119.35347	160.0
119.458862	184.0
119.609039	156.0
119.649368	244.0
119.677513	108.0
119.727074	228.0
119.753891	28.0
119.776024	292.0
119.8032	208.0
119.844963	164.0
119.886787	196.0
119.904228	124.0
119.99501	104.0
120.018394	172.0
120.026604	200.0
120.050285	204.0
120.073158	232.0
120.109177	228.0
120.141899	140.0
120.21608	160.0
120.248817	184.0
120.272827	136.0
120.294655	52.0
120.315025	176.0
120.39946	132.0
120.458427	196.0
120.516106	140.0
120.607018	56.0
120.624504	32.0
120.644173	196.0
120.663849	164.0
120.711952	52.0
120.731636	132.0
120.788498	148.0
120.862885	160.0
120.884766	108.0
120.908836	128.0
120.933968	180.0
120.972313	120.0
121.009529	136.0
121.043449	384.0
121.114967	164.0
121.14093	160.0
121.186935	204.0
121.250488	116.0
121.298706	144.0
121.362442	164.0
121.434647	204.0
121.493874	208.0
121.511429	160.0
121.597008	156.0
121.678223	52.0
121.713348	84.0
121.741898	140.0
121.777039	248.0
121.802414	116.0
121.850365	188.0
121.893471	180.0
121.983429	228.0
122.042183	208.0
122.097229	448.0
122.160049	148.0
122.225502	124.0
122.25631	176.0
122.291527	40.0
122.335548	56.0
122.375175	68.0
122.445641	228.0
122.472069	104.0
122.606468	140.0
122.650543	144.0
122.716194	196.0
122.740936	152.0
122.849815	168.0
122.87989	96.0
122.898766	108.0
122.926224	124.0
122.94471	96.0
123.038597	136.0
123.080269	4856.0
123.122643	156.0
123.165474	188.0
123.196457	112.0
123.217682	88.0
123.255241	92.0
123.295937	120.0
123.334267	164.0
123.339935	124.0
123.346718	204.0
123.367622	180.0
123.425446	128.0
123.454193	140.0
123.472954	132.0
123.529388	44.0
123.597977	100.0
123.616638	172.0
123.693138	100.0
123.710365	160.0
123.762299	140.0
123.814682	116.0
123.961121	36.0
123.976639	124.0
123.994362	100.0
124.012093	84.0
124.075996	392.0
124.110718	424.0
124.187256	228.0
124.22274	80.0
124.262672	184.0
124.304832	136.0
124.373634	140.0
124.398048	136.0
124.444672	136.0
124.480202	148.0
124.502403	96.0
124.573479	136.0
124.609436	108.0
124.641426	184.0
124.66169	132.0
124.686798	100.0
124.717911	128.0
124.75621	140.0
124.835747	168.0
124.877998	140.0
124.953629	208.0
124.993683	212.0
125.08123	260.0
125.116096	132.0
125.167305	100.0
125.187347	88.0
125.225204	148.0
125.25193	180.0
125.324165	236.0
125.390076	176.0
125.412361	140.0
125.454033	172.0
125.517563	148.0
125.572891	156.0
125.63089	116.0
125.67997	140.0
125.744682	164.0
125.784859	164.0
125.831741	112.0
125.854073	172.0
125.929993	92.0
125.992538	164.0
126.024994	228.0
126.054008	396.0
126.091469	472.0
126.13829	184.0
126.164864	212.0
126.193909	184.0
126.218277	164.0
126.273987	136.0
126.345222	248.0
126.38604	164.0
126.419601	288.0
126.43808	360.0
126.502419	100.0
126.518089	96.0
126.553909	100.0
126.609886	160.0
126.654686	260.0
126.71965	204.0
126.797447	100.0
126.822731	108.0
126.847389	132.0
126.90081	140.0
126.942139	200.0
126.96846	44.0
126.988647	104.0
127.071648	48.0
127.087349	380.0
127.129768	204.0
127.136574	184.0
127.144669	96.0
127.177116	120.0
127.201683	144.0
127.253441	204.0
127.275894	160.0
127.295982	152.0
127.352249	132.0
127.373161	180.0
127.437614	132.0
127.462326	128.0
127.516266	200.0
127.531776	164.0
127.561218	160.0
127.582123	160.0
127.607353	176.0
127.64328	152.0
127.658798	160.0
127.709625	156.0
127.792145	216.0
127.806358	248.0
127.851143	208.0
127.885124	180.0
127.912132	36.0
127.92968	176.0
127.952652	112.0
127.986084	184.0
128.0112	244.0
128.038223	100.0
128.070374	1204.0
128.103531	144.0
128.130569	48.0
128.146347	204.0
128.18718	164.0
128.263519	116.0
128.317627	200.0
128.337921	56.0
128.372086	156.0
128.430389	196.0
128.50032	212.0
128.535141	92.0
128.575058	164.0
128.726547	192.0
128.751129	172.0
128.782486	164.0
128.908997	172.0
128.927078	60.0
128.974594	180.0
129.019974	248.0
129.049149	72.0
129.069138	168.0
129.098892	100.0
129.137344	132.0
129.19841	28.0
129.273071	116.0
129.297974	208.0
129.320602	192.0
129.340973	136.0
129.409805	168.0
129.438324	208.0
129.463242	140.0
129.483612	60.0
129.499466	184.0
129.517593	104.0
129.585556	124.0
129.680725	180.0
129.732864	156.0
129.846237	156.0
129.99823	148.0
130.052704	104.0
130.075394	152.0
130.138336	164.0
130.226639	132.0
130.297943	152.0
130.377472	116.0
130.433411	144.0
130.457031	196.0
130.516144	152.0
130.686722	116.0
130.755569	204.0
130.782303	140.0
130.887024	120.0
130.914352	208.0
130.957153	172.0
130.975845	180.0
131.195999	184.0
131.242477	96.0
131.263	180.0
131.285751	176.0
131.29393	172.0
131.302963	100.0
131.342834	132.0
131.361084	76.0
131.393021	180.0
131.45462	148.0
131.523087	196.0
131.539062	104.0
131.61441	196.0
131.631729	212.0
131.653229	124.0
131.676544	152.0
131.742691	212.0
131.845123	152.0
131.975418	100.0
132.00972	140.0
132.058716	200.0
132.117218	156.0
132.174408	120.0
132.213318	248.0
132.245361	200.0
132.30188	180.0
132.35524	104.0
132.478912	44.0
132.517868	128.0
132.547821	116.0
132.623276	136.0
132.681091	184.0
132.792953	104.0
132.867828	192.0
132.979172	144.0
133.040771	204.0
133.086685	312.0
133.16246	100.0
133.192322	100.0
133.219879	192.0
133.249756	156.0
133.293411	316.0
133.399124	80.0
133.466309	252.0
133.498001	216.0
133.581741	88.0
133.691238	48.0
133.709641	116.0
133.730362	120.0
133.748764	176.0
133.774094	160.0
133.865906	100.0
133.883514	144.0
133.90303	252.0
133.926071	112.0
133.960617	136.0
133.982986	152.0
134.018219	144.0
134.087601	140.0
134.135223	160.0
134.170334	148.0
134.200302	136.0
134.26947	100.0
134.327133	148.0
134.387802	172.0
134.433273	44.0
134.486359	180.0
134.527603	124.0
134.557907	216.0
134.587921	44.0
134.684921	116.0
134.768082	144.0
134.784256	180.0
134.823547	160.0
134.916931	188.0
134.939117	156.0
134.987671	80.0
135.037369	164.0
135.225967	176.0
135.274567	236.0
135.316238	212.0
135.355606	188.0
135.390335	32.0
135.415817	112.0
135.464447	168.0
135.501526	92.0
135.547867	280.0
135.580307	124.0
135.603485	148.0
135.642883	96.0
135.749527	96.0
135.80307	92.0
135.869507	380.0
135.921539	184.0
135.945084	188.0
136.032593	176.0
136.076752	184.0
136.126923	184.0
136.135544	116.0
136.141129	144.0
136.184647	144.0
136.203964	288.0
136.292709	128.0
136.3508	80.0
136.378693	152.0
136.460052	76.0
136.483307	132.0
136.536789	236.0
136.622849	172.0
136.660065	80.0
136.67868	132.0
136.698578	160.0
136.755478	104.0
136.776428	148.0
136.815475	160.0
136.821945	196.0
136.871887	140.0
136.911469	144.0
136.934753	128.0
137.006973	132.0
137.04895	188.0
137.07579	156.0
137.08197	192.0
137.109039	604.0
137.139786	44.0
137.165436	84.0
137.223709	132.0
137.251694	56.0
137.278458	224.0
137.372971	144.0
137.417297	60.0
137.438293	100.0
137.470963	188.0
137.512802	172.0
137.527252	228.0
137.575989	220.0
137.606339	152.0
137.651184	196.0
137.676392	176.0
137.701279	280.0
137.723099	196.0
137.741791	260.0
137.798706	164.0
137.825897	132.0
137.884308	332.0
137.921707	184.0
137.942749	172.0
137.994171	128.0
138.023605	144.0
138.030243	188.0
138.07135	148.0
138.091156	444.0
138.118073	1084.0
138.240677	212.0
138.273529	228.0
138.362656	168.0
138.417679	76.0
138.450317	132.0
138.525421	124.0
138.5513	172.0
138.572922	160.0
138.59935	172.0
138.619141	172.0
138.637299	240.0
138.687103	204.0
138.712875	140.0
138.884048	140.0
138.900467	168.0
138.919235	144.0
138.970856	176.0
138.987854	180.0
139.02951	104.0
139.09758	120.0
139.123337	512.0
139.141174	168.0
139.165665	104.0
139.198364	160.0
139.273682	128.0
139.29483	168.0
139.358261	136.0
139.4095	188.0
139.433456	144.0
139.466354	172.0
139.498367	220.0
139.53923	112.0
139.567444	152.0
139.654861	164.0
139.682678	144.0
139.751465	84.0
139.786758	152.0
139.856812	104.0
139.874496	160.0
139.905716	144.0
139.923004	324.0
139.950974	148.0
139.973709	164.0
140.063538	288.0
140.074966	220.0
140.107697	67416.0
140.186523	144.0
140.205383	204.0
140.225037	140.0
140.250198	160.0
140.283951	48.0
140.310303	116.0
140.335999	68.0
140.357819	144.0
140.376587	128.0
140.39566	84.0
140.404037	60.0
140.421097	228.0
140.450851	156.0
140.468216	116.0
140.49321	332.0
140.521347	72.0
140.540222	40.0
140.565857	144.0
140.624146	164.0
140.649796	124.0
140.680435	264.0
140.708313	148.0
140.736237	172.0
140.77562	116.0
140.811691	156.0
140.851852	52.0
140.873901	96.0
140.917236	200.0
140.979431	188.0
141.037659	120.0
141.057037	144.0
141.092407	2652.0
141.110474	6188.0
141.135956	440.0
141.215851	120.0
141.263153	60.0
141.317566	168.0
141.336502	192.0
141.353058	180.0
141.394241	160.0
141.426971	160.0
141.457199	116.0
141.491943	136.0
141.522552	244.0
141.544159	180.0
141.593307	60.0
141.61348	48.0
141.65712	160.0
141.662796	68.0
141.6716	148.0
141.69165	40.0
141.722443	96.0
141.748505	104.0
141.821976	156.0
141.843307	128.0
141.866287	104.0
141.978455	80.0
142.01268	196.0
142.050781	364.0
142.091568	328.0
142.118347	952.0
142.153061	132.0
142.208511	124.0
142.26474	116.0
142.29985	136.0
142.319244	156.0
142.339157	228.0
142.381897	68.0
142.421249	152.0
142.457901	124.0
142.510498	272.0
142.545822	120.0
142.588593	160.0
142.643265	140.0
142.761246	148.0
142.810547	192.0
142.833496	60.0
142.85965	208.0
142.940552	196.0
142.969101	172.0
143.019089	56.0
143.077805	180.0
143.11792	2088.0
143.176224	224.0
143.192886	180.0
143.216003	188.0
143.238144	84.0
143.283417	48.0
143.330643	136.0
143.39064	144.0
143.409698	148.0
143.426392	128.0
143.52652	128.0
143.623505	72.0
143.666245	280.0
143.675201	164.0
143.891571	128.0
143.915436	156.0
143.956039	192.0
143.987076	112.0
144.008575	56.0
144.082626	76.0
144.100845	308.0
144.123474	148.0
144.144745	176.0
144.161469	132.0
144.180588	164.0
144.21405	164.0
144.252304	84.0
144.32402	168.0
144.36467	192.0
144.470291	176.0
144.615875	84.0
144.663742	120.0
144.716415	108.0
144.785858	104.0
144.84288	208.0
145.013397	164.0
145.029907	172.0
145.063797	176.0
145.099701	168.0
145.183685	116.0
145.223099	212.0
145.242294	64.0
145.277222	168.0
145.296417	108.0
145.320404	48.0
145.337204	116.0
145.396881	284.0
145.488403	156.0
145.534027	136.0
145.57724	148.0
145.606064	172.0
145.728577	52.0
145.77182	156.0
145.824692	100.0
145.908829	132.0
145.947418	160.0
146.079559	168.0
146.115906	112.0
146.14212	104.0
146.161362	168.0
146.243195	144.0
146.284103	180.0
146.30336	168.0
146.344299	172.0
146.426163	128.0
146.561066	120.0
146.730911	324.0
146.758514	196.0
146.804535	88.0
146.867233	88.0
146.942017	196.0
147.002335	164.0
147.075424	204.0
147.098877	80.0
147.127853	188.0
147.202698	132.0
147.299301	212.0
147.319427	192.0
147.424942	52.0
147.559509	196.0
147.62558	172.0
147.649765	108.0
147.695724	120.0
147.80217	132.0
147.831207	88.0
147.851685	192.0
147.899185	140.0
147.951218	172.0
147.99823	128.0
148.015182	148.0
148.075714	156.0
148.099945	184.0
148.187546	144.0
148.279236	60.0
148.303131	144.0
148.309097	124.0
148.450912	176.0
148.459503	144.0
148.504715	180.0
148.531387	60.0
148.682373	176.0
148.723083	136.0
148.740067	160.0
148.759491	152.0
148.78392	128.0
148.831131	204.0
148.907608	164.0
148.956741	192.0
149.05336	148.0
149.097107	156.0
149.145706	164.0
149.18541	156.0
149.245377	148.0
149.306183	172.0
149.381577	120.0
149.448608	160.0
149.498367	80.0
149.520264	44.0
149.540878	196.0
149.569214	164.0
149.624939	160.0
149.663895	216.0
149.729645	136.0
149.853867	156.0
149.899277	188.0
149.948898	124.0
149.971054	136.0
150.004532	68.0
150.039093	124.0
150.058594	172.0
150.102493	188.0
150.124435	132.0
150.156143	148.0
150.204102	64.0
150.334229	44.0
150.37912	192.0
150.406372	292.0
150.431854	180.0
150.495331	100.0
150.573471	204.0
150.593018	148.0
150.617432	176.0
150.637787	132.0
150.693161	168.0
150.732269	112.0
150.781143	148.0
150.826233	176.0
150.876465	168.0
150.93515	104.0
150.988937	196.0
151.030518	88.0
151.057434	88.0
151.097488	160.0
151.170715	132.0
151.201782	148.0
151.22908	132.0
151.255417	136.0
151.27858	172.0
151.341949	108.0
151.363358	84.0
151.383698	168.0
151.39444	52.0
151.401917	204.0
151.421112	128.0
151.600967	172.0
151.640182	156.0
151.676941	204.0
151.708817	152.0
151.759644	180.0
151.803513	372.0
151.858383	92.0
151.90744	76.0
151.934662	124.0
151.963867	132.0
152.010498	144.0
152.070618	168.0
152.103531	172.0
152.108856	156.0
152.116394	184.0
152.147934	148.0
152.189682	116.0
152.211777	140.0
152.243576	180.0
152.278915	148.0
152.295273	132.0
152.3405	168.0
152.388412	192.0
152.459335	180.0
152.484467	80.0
152.516418	184.0
152.550827	180.0
152.570496	168.0
152.661469	128.0
152.695892	224.0
152.772141	120.0
152.858261	108.0
152.917328	176.0
152.948395	176.0
153.050262	156.0
153.07399	176.0
153.106888	132.0
153.138763	132.0
153.141922	124.0
153.151779	160.0
153.200485	160.0
153.257568	196.0
153.276871	128.0
153.342804	180.0
153.372986	88.0
153.477142	144.0
153.636841	64.0
153.654099	88.0
153.737991	160.0
153.765152	172.0
153.872543	136.0
153.908325	108.0
153.942886	144.0
154.037888	216.0
154.086151	156.0
154.122742	292.0
154.160278	136.0
154.222061	220.0
154.308578	60.0
154.335785	124.0
154.362091	144.0
154.523392	188.0
154.694519	32.0
154.771866	216.0
154.83812	148.0
154.874725	432.0
154.917389	176.0
154.965408	240.0
155.082031	228.0
155.116623	276.0
155.195755	248.0
155.229675	184.0
155.254471	36.0
155.279282	72.0
155.306564	368.0
155.398346	124.0
155.419769	120.0
155.467285	200.0
155.492645	88.0
155.579514	60.0
155.605255	76.0
155.626694	128.0
155.68248	128.0
155.758698	152.0
155.78067	172.0
155.827866	220.0
155.858978	168.0
155.865616	208.0
155.933731	180.0
155.970581	132.0
155.996857	148.0
156.018112	152.0
156.059738	304.0
156.075653	208.0
156.111969	320.0
156.138901	41596.0
156.197739	204.0
156.245132	156.0
156.279694	204.0
156.308792	180.0
156.34259	76.0
156.3759	208.0
156.403381	112.0
156.45787	92.0
156.488464	152.0
156.498322	92.0
156.54837	272.0
156.578262	180.0
156.621429	168.0
156.682022	160.0
156.725296	108.0
156.776474	52.0
156.818268	112.0
156.835709	176.0
156.855652	108.0
156.899918	180.0
156.940414	100.0
156.96286	168.0
156.980316	100.0
157.002762	72.0
157.031143	84.0
157.055481	188.0
157.077591	220.0
157.140518	7664.0
157.16893	388.0
157.204819	36.0
157.247253	144.0
157.292053	80.0
157.323013	148.0
157.351227	128.0
157.392044	256.0
157.434494	124.0
157.473022	140.0
157.491928	156.0
157.51442	128.0
157.541168	116.0
157.564224	64.0
157.582565	144.0
157.621628	188.0
157.630508	172.0
157.669327	108.0
157.689316	56.0
157.726807	432.0
157.751801	84.0
157.816513	236.0
157.849319	256.0
157.866821	52.0
157.936417	140.0
157.966858	100.0
157.985641	132.0
158.017197	168.0
158.036911	260.0
158.057922	236.0
158.117859	23048.0
158.202011	124.0
158.241058	64.0
158.267868	192.0
158.292786	160.0
158.311508	120.0
158.333923	160.0
158.365814	128.0
158.39241	72.0
158.409103	48.0
158.427078	72.0
158.456833	136.0
158.534332	116.0
158.562973	100.0
158.60553	108.0
158.622147	128.0
158.648819	136.0
158.723907	44.0
158.810638	292.0
158.838074	100.0
158.86116	68.0
158.883743	156.0
158.908829	56.0
158.943695	200.0
158.97908	40.0
159.041046	204.0
159.074463	148.0
159.11879	2480.0
159.179901	200.0
159.222595	56.0
159.243698	80.0
159.262787	60.0
159.290695	36.0
159.358246	96.0
159.396957	128.0
159.431122	64.0
159.486404	44.0
159.519089	160.0
159.581467	108.0
159.632217	76.0
159.712708	152.0
159.752945	108.0
159.78566	224.0
159.890427	164.0
159.921539	44.0
159.960693	188.0
159.986984	128.0
160.076782	252.0
160.120285	316.0
160.153275	104.0
160.185928	152.0
160.206085	160.0
160.260788	152.0
160.311905	204.0
160.335938	112.0
160.369812	164.0
160.384888	104.0
160.440445	88.0
160.503479	132.0
160.5242	184.0
160.551392	136.0
160.596786	72.0
160.634888	152.0
160.690125	32.0
160.745636	176.0
160.78096	136.0
160.857483	100.0
160.965668	120.0
161.185013	220.0
161.222916	184.0
161.261154	180.0
161.394806	148.0
161.466797	184.0
161.523788	172.0
161.549072	160.0
161.579437	148.0
161.617386	132.0
161.635101	100.0
161.695831	160.0
161.756577	132.0
161.791595	164.0
161.795746	136.0
161.847717	144.0
161.893295	152.0
161.921158	168.0
161.945435	116.0
161.95491	172.0
162.002213	108.0
162.08075	188.0
162.103622	140.0
162.131439	152.0
162.177048	184.0
162.25563	256.0
162.33931	160.0
162.42807	144.0
162.491501	148.0
162.534897	152.0
162.580307	156.0
162.625992	52.0
162.66153	148.0
162.678787	176.0
162.841797	152.0
162.956116	176.0
162.996765	60.0
163.022171	176.0
163.080627	144.0
163.116211	144.0
163.15181	168.0
163.169601	92.0
163.2052	208.0
163.23317	36.0
163.281479	232.0
163.336777	200.0
163.393402	116.0
163.421387	160.0
163.45192	56.0
163.473099	136.0
163.490097	168.0
163.591904	80.0
163.640274	108.0
163.742126	72.0
163.812134	108.0
163.851669	132.0
163.869507	132.0
163.940842	72.0
163.99437	128.0
164.105759	300.0
164.154984	136.0
164.199219	164.0
164.21463	104.0
164.246796	192.0
164.274857	192.0
164.318161	184.0
164.435608	152.0
164.4841	104.0
164.521942	92.0
164.553024	168.0
164.574051	180.0
164.606644	52.0
164.683304	200.0
164.708801	132.0
164.892761	156.0
164.979675	160.0
164.997559	128.0
165.025177	284.0
165.084503	184.0
165.139023	1448.0
165.186798	132.0
165.274567	152.0
165.307053	192.0
165.340317	68.0
165.365616	140.0
165.463181	216.0
165.504974	124.0
165.604019	220.0
165.678314	252.0
165.734528	144.0
165.756668	192.0
165.778244	144.0
165.8013	72.0
165.821808	172.0
165.873062	112.0
165.957672	108.0
165.990997	216.0
166.057678	152.0
166.086777	208.0
166.122681	21672.0
166.164062	160.0
166.18428	216.0
166.203674	44.0
166.215332	132.0
166.250092	196.0
166.272552	88.0
166.31041	40.0
166.339203	128.0
166.368164	76.0
166.412781	200.0
166.434219	60.0
166.475998	176.0
166.498596	100.0
166.519196	180.0
166.554977	196.0
166.576157	192.0
166.609009	224.0
166.64296	44.0
166.680618	200.0
166.7117	60.0
166.731537	144.0
166.770401	208.0
166.81514	144.0
166.921494	172.0
166.946274	96.0
167.038437	148.0
167.124756	1860.0
167.162048	168.0
167.247284	44.0
167.305756	140.0
167.35025	104.0
167.410904	212.0
167.440887	164.0
167.491898	136.0
167.520233	108.0
167.557999	164.0
167.59494	312.0
167.619263	220.0
167.673935	160.0
167.803711	152.0
167.838898	204.0
167.924911	156.0
167.976501	136.0
168.06163	148.0
168.103241	732.0
168.130173	344.0
168.151947	232.0
168.175186	144.0
168.218811	200.0
168.275864	36.0
168.306229	84.0
168.324921	144.0
168.376572	104.0
168.438217	120.0
168.503143	160.0
168.552231	148.0
168.580658	196.0
168.634918	140.0
168.705719	124.0
168.75383	140.0
168.784393	196.0
168.818481	180.0
168.859863	100.0
168.911591	72.0
168.932281	40.0
168.963333	180.0
168.985016	148.0
169.018417	68.0
169.105576	180.0
169.129852	136.0
169.16803	776.0
169.240265	156.0
169.298843	148.0
169.333481	116.0
169.417633	164.0
169.465591	184.0
169.52742	172.0
169.56546	140.0
169.583939	132.0
169.606796	160.0
169.746719	156.0
169.811142	148.0
170.020508	120.0
170.041275	108.0
170.075012	88.0
170.098526	136.0
170.119141	232.0
170.137314	144.0
170.176254	152.0
170.207413	52.0
170.300903	80.0
170.321686	44.0
170.542542	112.0
170.656662	156.0
170.740143	36.0
170.782578	176.0
170.812973	152.0
170.949692	144.0
170.976883	120.0
170.996628	224.0
171.023727	108.0
171.075409	300.0
171.115128	1008.0
171.148102	3276.0
171.187744	28.0
171.234619	108.0
171.271088	160.0
171.304947	188.0
171.349243	52.0
171.372818	152.0
171.419586	80.0
171.445648	116.0
171.502991	132.0
171.523209	200.0
171.562759	180.0
171.617691	96.0
171.635941	180.0
171.66301	180.0
171.716782	112.0
171.815903	172.0
171.86026	48.0
171.921158	200.0
171.999435	232.0
172.024673	116.0
172.069061	116.0
172.119171	112.0
172.15213	764.0
172.285812	228.0
172.325012	84.0
172.385101	172.0
172.572479	268.0
172.599457	132.0
172.677902	188.0
172.751144	136.0
172.884583	60.0
172.902893	100.0
172.939545	116.0
173.138245	156.0
173.314026	128.0
173.365738	152.0
173.400497	152.0
173.429337	204.0
173.494873	92.0
173.557877	124.0
173.588699	224.0
173.711899	216.0
173.722061	164.0
173.799103	192.0
173.817474	200.0
173.898819	140.0
173.927689	176.0
173.991318	152.0
174.014328	140.0
174.051086	164.0
174.08522	48.0
174.157745	148.0
174.181351	60.0
174.253326	108.0
174.31868	156.0
174.397858	36.0
174.468826	44.0
174.50563	136.0
174.562531	216.0
174.592407	152.0
174.627045	164.0
174.712982	148.0
174.825394	132.0
174.87323	184.0
174.956009	192.0
175.048462	172.0
175.108246	136.0
175.137665	288.0
175.168823	284.0
175.232407	176.0
175.257889	124.0
175.31636	76.0
175.416519	84.0
175.440247	136.0
175.461334	76.0
175.496445	164.0
175.635376	244.0
175.656296	168.0
175.677582	216.0
175.715729	148.0
175.75853	124.0
175.80423	96.0
175.851746	176.0
175.875488	132.0
175.905777	220.0
175.937164	132.0
175.977158	204.0
176.007996	180.0
176.041489	96.0
176.128693	64636.0
176.190033	224.0
176.199142	36.0
176.209625	164.0
176.236526	180.0
176.296906	56.0
176.322876	196.0
176.342133	136.0
176.405838	108.0
176.413406	152.0
176.443817	116.0
176.493301	336.0
176.528229	60.0
176.567596	136.0
176.588882	36.0
176.628555	36.0
176.658798	88.0
176.681458	156.0
176.743973	216.0
176.785873	148.0
176.83493	132.0
176.881378	192.0
176.932877	100.0
176.984543	136.0
177.010941	60.0
177.040833	124.0
177.131027	4964.0
177.169083	288.0
177.200363	184.0
177.271912	80.0
177.307022	160.0
177.332855	164.0
177.357437	160.0
177.382599	188.0
177.468063	136.0
177.518433	48.0
177.547607	72.0
177.568817	96.0
177.587387	128.0
177.660568	80.0
177.688187	148.0
177.717377	72.0
177.796982	60.0
177.847412	128.0
177.871307	56.0
177.891281	136.0
177.939438	132.0
177.958908	60.0
178.019974	192.0
178.057159	100.0
178.099655	152.0
178.133545	448.0
178.168716	28.0
178.200867	164.0
178.241898	124.0
178.287933	88.0
178.299484	76.0
178.305664	60.0
178.386627	108.0
178.406616	208.0
178.435867	48.0
178.470383	112.0
178.497025	172.0
178.507263	204.0
178.548828	60.0
178.572754	36.0
178.62738	156.0
178.647003	92.0
178.651093	168.0
178.687134	136.0
178.71907	152.0
178.739777	92.0
178.844147	340.0
178.861893	144.0
178.929337	236.0
178.975128	196.0
179.014526	116.0
179.07312	92.0
179.166351	120.0
179.238297	36.0
179.347549	124.0
179.375397	136.0
179.406204	144.0
179.467514	36.0
179.53685	216.0
179.555511	108.0
179.606201	156.0
179.651535	180.0
179.726242	136.0
179.75293	192.0
179.820816	164.0
179.873032	120.0
179.998917	180.0
180.035889	96.0
180.097321	84.0
180.136337	584.0
180.257614	108.0
180.295029	144.0
180.356491	160.0
180.446503	60.0
180.492844	56.0
180.562363	36.0
180.688095	36.0
180.835266	96.0
180.92627	204.0
181.036499	144.0
181.076218	192.0
181.105682	164.0
181.138458	384.0
181.161942	128.0
181.18605	36.0
181.234268	132.0
181.261063	172.0
181.290543	144.0
181.419205	156.0
181.448685	184.0
181.513046	164.0
181.569351	152.0
181.590805	188.0
181.61763	200.0
181.676651	76.0
181.695419	44.0
181.778595	128.0
181.859116	136.0
182.012131	80.0
182.036301	172.0
182.071213	64.0
182.114288	224.0
182.146408	76.0
182.20015	196.0
182.296875	176.0
182.382874	104.0
182.495773	108.0
182.544174	140.0
182.602722	104.0
182.665207	160.0
182.711594	148.0
182.802414	144.0
182.82312	144.0
182.867004	280.0
182.891235	104.0
182.964813	196.0
183.047379	48.0
183.08606	120.0
183.108002	128.0
183.148743	9908.0
183.208984	60.0
183.227844	68.0
183.273956	172.0
183.304321	108.0
183.338318	76.0
183.386826	160.0
183.416473	108.0
183.438034	224.0
183.491959	180.0
183.543182	180.0
183.566101	136.0
183.612732	96.0
183.656448	48.0
183.678024	108.0
183.706512	72.0
183.72316	148.0
183.742767	124.0
183.80983	140.0
183.837219	204.0
183.866898	68.0
183.912781	208.0
184.000778	120.0
184.050262	84.0
184.070053	188.0
184.093887	244.0
184.133759	56512.0
184.223648	68.0
184.246994	136.0
184.291977	100.0
184.312469	120.0
184.339493	36.0
184.358398	48.0
184.388428	256.0
184.410095	156.0
184.435425	32.0
184.451553	172.0
184.471542	188.0
184.495575	144.0
184.517883	52.0
184.563171	100.0
184.570358	108.0
184.683197	132.0
184.728622	136.0
184.763992	292.0
184.807281	48.0
184.83374	184.0
184.864105	72.0
184.926346	56.0
184.956741	52.0
184.990463	140.0
185.008286	252.0
185.067108	244.0
185.099609	196.0
185.134384	7916.0
185.22023	104.0
185.253983	48.0
185.274857	68.0
185.319	56.0
185.346466	176.0
185.393066	96.0
185.425476	96.0
185.457397	184.0
185.527817	160.0
185.558304	220.0
185.590042	168.0
185.611084	148.0
185.633972	140.0
185.65741	176.0
185.67865	452.0
185.750046	52.0
185.777435	84.0
185.869431	68.0
185.966354	156.0
186.005127	72.0
186.025284	140.0
186.076981	236.0
186.1129	41580.0
186.167496	188.0
186.206558	172.0
186.232849	60.0
186.264526	120.0
186.294678	140.0
186.329041	128.0
186.36496	152.0
186.393494	116.0
186.435898	344.0
186.473282	132.0
186.501602	256.0
186.558319	160.0
186.606155	124.0
186.632431	128.0
186.653778	188.0
186.681625	120.0
186.70993	76.0
186.74202	120.0
186.771378	112.0
186.833954	80.0
186.869308	56.0
186.898132	88.0
186.915756	156.0
186.970001	112.0
187.012009	92.0
187.067978	88.0
187.11618	4380.0
187.14183	420.0
187.168716	36.0
187.204117	44.0
187.239517	128.0
187.329407	72.0
187.375717	232.0
187.413864	128.0
187.612808	104.0
187.631897	72.0
187.664612	120.0
187.713745	124.0
187.751877	192.0
187.779144	164.0
187.82666	152.0
187.838135	64.0
187.843246	128.0
187.923721	152.0
187.94989	156.0
188.010101	116.0
188.032867	60.0
188.084732	144.0
188.118393	752.0
188.150253	316.0
188.215775	32.0
188.248276	84.0
188.325012	104.0
188.353546	72.0
188.376144	112.0
188.443069	148.0
188.494385	104.0
188.592377	140.0
188.663849	104.0
188.702118	80.0
188.77594	52.0
188.830643	136.0
188.943909	124.0
188.964676	204.0
189.112305	152.0
189.142563	100.0
189.190674	180.0
189.227417	116.0
189.25206	60.0
189.284927	28.0
189.336945	196.0
189.410904	56.0
189.43924	244.0
189.479385	244.0
189.52597	68.0
189.716095	160.0
189.749481	176.0
189.787445	192.0
189.824738	108.0
189.918564	192.0
189.945419	120.0
190.003021	112.0
190.03595	232.0
190.079178	180.0
190.305847	236.0
190.343369	56.0
190.420258	176.0
190.615311	172.0
190.675766	184.0
190.711502	136.0
190.766464	192.0
190.879196	128.0
190.934189	92.0
190.958954	228.0
190.978195	84.0
191.04422	112.0
191.075729	184.0
191.112991	180.0
191.140518	88.0
191.176285	204.0
191.291885	184.0
191.311157	180.0
191.437805	168.0
191.514923	192.0
191.658173	144.0
191.68573	104.0
191.791229	156.0
191.908997	212.0
191.941666	52.0
191.995758	172.0
192.115845	144.0
192.157516	152.0
192.195847	208.0
192.245514	92.0
192.264832	68.0
192.411133	104.0
192.464859	192.0
192.549194	136.0
192.75914	128.0
192.786774	160.0
192.819946	128.0
192.983032	168.0
193.030045	60.0
193.068588	136.0
193.107407	176.0
193.133423	1668.0
193.202255	180.0
193.24025	84.0
193.298355	80.0
193.334335	184.0
193.619476	136.0
193.708115	132.0
193.809326	364.0
193.846252	112.0
193.985214	76.0
194.004623	156.0
194.024033	204.0
194.043228	160.0
194.063568	200.0
194.11763	12900.0
194.153931	4196.0
194.25975	32.0
194.287491	148.0
194.322983	156.0
194.396713	68.0
194.423447	32.0
194.459534	80.0
194.503937	200.0
194.538956	156.0
194.623322	164.0
194.66629	236.0
194.740936	68.0
194.766281	184.0
194.884399	44.0
194.99556	168.0
195.034073	56.0
195.077164	368.0
195.120895	1672.0
195.155716	1188.0
195.192932	156.0
195.279144	52.0
195.337555	108.0
195.482239	152.0
195.526337	124.0
195.553574	132.0
195.652023	160.0
195.732758	60.0
195.757828	124.0
195.827438	108.0
195.875839	236.0
195.933121	128.0
196.000168	164.0
196.019669	64.0
196.076599	140.0
196.122055	76.0
196.189682	64.0
196.265717	164.0
196.345825	208.0
196.368149	36.0
196.471832	164.0
196.489899	80.0
196.521576	96.0
196.556793	96.0
196.624817	104.0
196.655518	60.0
196.711349	184.0
196.75322	128.0
196.772766	116.0
196.813293	160.0
196.873184	164.0
196.912384	156.0
197.038086	92.0
197.093964	60.0
197.134048	172.0
197.162094	888.0
197.203827	216.0
197.228104	80.0
197.35025	208.0
197.373474	164.0
197.421021	200.0
197.505661	212.0
197.560684	60.0
197.614014	160.0
197.673309	148.0
197.766769	116.0
197.895142	172.0
197.930298	96.0
198.003113	132.0
198.061935	136.0
198.163742	180.0
198.216019	84.0
198.272675	260.0
198.392273	144.0
198.432922	124.0
198.454269	88.0
198.50267	164.0
198.527176	188.0
198.611313	80.0
198.661804	64.0
198.727737	108.0
198.950851	108.0
199.040695	124.0
199.074387	168.0
199.144974	1092.0
199.206406	188.0
199.243484	120.0
199.403519	180.0
199.428375	136.0
199.476166	156.0
199.507355	84.0
199.535202	96.0
199.585815	80.0
199.611115	128.0
199.684937	160.0
199.799561	64.0
199.881561	160.0
199.91774	44.0
199.940247	80.0
199.97757	124.0
200.047211	168.0
200.143326	652.0
200.179535	132.0
200.210236	124.0
200.249939	132.0
200.328812	212.0
200.418961	148.0
200.449966	200.0
200.551422	244.0
200.599503	212.0
200.652893	124.0
200.774155	256.0
200.819275	60.0
200.838379	180.0
200.888123	284.0
200.937744	96.0
201.028046	144.0
201.093414	216.0
201.112	48.0
201.15979	9928.0
201.227448	136.0
201.259506	100.0
201.282486	144.0
201.314514	124.0
201.332916	192.0
201.428955	72.0
201.468674	204.0
201.51088	140.0
201.708694	80.0
201.736969	132.0
201.847229	116.0
201.887527	80.0
202.062195	52.0
202.154068	752.0
202.220657	80.0
202.285751	188.0
202.328217	44.0
202.372513	160.0
202.509445	96.0
202.61142	132.0
202.633347	92.0
202.679764	168.0
202.75209	112.0
202.809784	76.0
202.839249	164.0
202.962875	180.0
203.007599	152.0
203.087646	32.0
203.111374	188.0
203.138702	168.0
203.166275	224.0
203.206787	144.0
203.340164	92.0
203.392578	156.0
203.419632	60.0
203.496292	132.0
203.541718	76.0
203.5616	184.0
203.621902	120.0
203.64679	48.0
203.680878	204.0
203.743378	148.0
203.77179	108.0
203.814911	136.0
203.92807	112.0
203.973557	216.0
204.095795	52.0
204.139023	412.0
204.181107	48.0
204.229462	48.0
204.2892	100.0
204.422913	156.0
204.494064	136.0
204.580826	392.0
204.793015	248.0
204.815811	68.0
204.852844	152.0
204.938309	212.0
205.118683	172.0
205.172012	60.0
205.243942	176.0
205.277512	96.0
205.374466	116.0
205.408707	76.0
205.468613	88.0
205.494278	68.0
205.540985	120.0
205.647369	168.0
205.711182	172.0
205.748291	212.0
205.851074	164.0
205.925323	96.0
205.979599	244.0
206.176743	176.0
206.205322	52.0
206.239624	136.0
206.27037	148.0
206.305359	172.0
206.476929	156.0
206.582748	140.0
206.671448	132.0
206.900406	40.0
207.069351	48.0
207.149551	156.0
207.186798	148.0
207.230743	176.0
207.252686	176.0
207.327194	108.0
207.361801	104.0
207.40744	172.0
207.479111	44.0
207.534119	104.0
207.570862	204.0
207.630661	196.0
207.697037	100.0
207.794586	216.0
207.866318	204.0
207.909363	124.0
207.950104	140.0
207.96962	184.0
208.170593	148.0
208.52002	228.0
208.564194	116.0
208.592941	216.0
208.650421	156.0
208.828705	220.0
208.906372	208.0
208.975418	112.0
209.126678	392.0
209.199905	144.0
209.254593	44.0
209.349625	52.0
209.387054	168.0
209.418747	32.0
209.496506	172.0
209.629044	116.0
209.675156	156.0
209.731247	104.0
209.757904	180.0
209.85965	152.0
210.024338	164.0
210.093246	168.0
210.112747	132.0
210.13092	304.0
210.158508	192.0
210.184204	136.0
210.208664	132.0
210.286972	148.0
210.319946	292.0
210.34317	204.0
210.392487	116.0
210.477112	64.0
210.514648	116.0
210.5522	340.0
210.627289	160.0
210.71106	112.0
210.771744	116.0
210.822601	144.0
210.896011	132.0
210.916245	208.0
210.963501	92.0
211.053558	164.0
211.075165	308.0
211.144363	48492.0
211.179672	1388.0
211.23674	204.0
211.263748	120.0
211.282745	228.0
211.344131	100.0
211.352356	60.0
211.384766	84.0
211.432434	140.0
211.45488	124.0
211.496124	100.0
211.542587	120.0
211.577301	140.0
211.619659	80.0
211.661163	140.0
211.723465	44.0
211.767258	64.0
211.833527	68.0
211.857132	132.0
211.93782	148.0
211.963898	48.0
211.997894	180.0
212.020798	120.0
212.042145	108.0
212.078369	176.0
212.128342	10516.0
212.225815	160.0
212.256256	104.0
212.282761	40.0
212.326263	220.0
212.401672	60.0
212.443558	116.0
212.542831	140.0
212.570267	180.0
212.632401	176.0
212.72377	144.0
212.769669	128.0
212.793442	60.0
212.825378	72.0
212.847076	84.0
212.870895	124.0
212.932816	56.0
212.967667	44.0
213.026794	68.0
213.054825	108.0
213.131821	1912.0
213.193222	596.0
213.240784	96.0
213.29892	60.0
213.338577	156.0
213.35997	28.0
213.39183	96.0
213.402802	96.0
213.447189	116.0
213.470444	68.0
213.538788	136.0
213.570648	128.0
213.604233	80.0
213.642059	108.0
213.717224	244.0
213.750992	52.0
213.783386	104.0
213.816635	68.0
213.854477	120.0
213.877762	100.0
213.901047	44.0
213.973816	140.0
214.02623	224.0
214.141678	1844.0
214.199265	116.0
214.233017	92.0
214.276718	76.0
214.30751	112.0
214.439896	192.0
214.463211	128.0
214.579819	120.0
214.646881	28.0
214.731445	152.0
214.751862	164.0
214.802658	148.0
214.833542	48.0
214.887726	56.0
214.919601	168.0
214.973587	188.0
215.023193	200.0
215.14238	248.0
215.17572	5944.0
215.226746	160.0
215.256744	64.0
215.294708	32.0
215.402771	68.0
215.47142	224.0
215.516708	120.0
215.641586	196.0
215.665741	56.0
215.785599	60.0
215.81192	92.0
215.881119	240.0
216.028336	152.0
216.117523	140.0
216.180328	1720.0
216.230225	216.0
216.26535	92.0
216.300476	152.0
216.329742	124.0
216.405869	56.0
216.520706	188.0
216.560303	92.0
216.605011	128.0
216.634293	124.0
216.675873	124.0
216.701675	180.0
216.742706	56.0
216.774933	128.0
216.913712	148.0
216.977173	116.0
217.02803	152.0
217.076874	68.0
217.126724	136.0
217.182449	252.0
217.293915	160.0
217.38176	132.0
217.41423	44.0
217.440643	64.0
217.472916	60.0
217.607956	112.0
217.687241	96.0
217.784149	88.0
217.995682	68.0
218.160278	164.0
218.243362	152.0
218.401535	160.0
218.704453	56.0
218.79866	168.0
218.854599	144.0
218.945221	108.0
219.134399	208.0
219.213959	196.0
219.271942	160.0
219.322296	132.0
219.349533	68.0
219.384811	116.0
219.432083	132.0
219.486191	116.0
219.520538	176.0
219.71225	132.0
219.890717	192.0
220.01622	48.0
220.039841	72.0
220.128418	180.0
220.165665	252.0
220.377396	256.0
220.474045	168.0
220.562714	144.0
220.669144	92.0
220.755402	184.0
220.808121	176.0
220.991531	156.0
221.018158	108.0
221.12822	176.0
221.167221	1424.0
221.288864	208.0
221.314148	44.0
221.366577	344.0
221.408905	116.0
221.438522	156.0
221.53067	36.0
221.562927	52.0
221.583664	152.0
221.607361	60.0
221.628113	172.0
221.702194	116.0
221.746643	80.0
221.832596	192.0
221.888931	136.0
221.974915	40.0
222.002655	168.0
222.052017	136.0
222.148346	8404.0
222.253906	72.0
222.369476	104.0
222.431808	164.0
222.464462	140.0
222.503052	92.0
222.555466	184.0
222.803009	56.0
222.834854	72.0
222.865402	128.0
222.899429	88.0
222.92186	216.0
222.942657	72.0
223.079376	164.0
223.118027	48.0
223.152618	1728.0
223.20256	200.0
223.257416	168.0
223.277039	84.0
223.335098	116.0
223.576096	128.0
223.647522	148.0
223.683243	172.0
223.72403	176.0
223.745758	188.0
223.775528	148.0
223.912506	60.0
223.951218	100.0
223.99292	80.0
224.046539	92.0
224.100174	88.0
224.15152	184.0
224.186584	220.0
224.213394	36.0
224.246185	60.0
224.267044	92.0
224.387177	148.0
224.463806	36.0
224.499588	156.0
224.520462	164.0
224.653107	104.0
224.744186	84.0
224.875504	140.0
224.979965	104.0
225.081482	168.0
225.1203	204.0
225.160721	304.0
225.278595	56.0
225.423508	128.0
225.45787	52.0
225.556503	192.0
225.580414	184.0
225.640213	188.0
225.761154	204.0
225.936279	64.0
225.963211	116.0
226.023911	208.0
226.100861	148.0
226.160706	92.0
226.241531	152.0
226.364288	152.0
226.436157	176.0
226.457809	212.0
226.493073	216.0
226.541	136.0
226.597916	160.0
226.684814	88.0
226.72377	176.0
226.798706	48.0
226.849655	132.0
227.049866	140.0
227.138245	576.0
227.170517	168.0
227.194519	144.0
227.386566	52.0
227.436829	128.0
227.515625	128.0
227.545654	240.0
227.605698	44.0
227.632721	88.0
227.692795	132.0
227.839966	120.0
227.933105	72.0
227.957153	116.0
228.033432	312.0
228.066055	168.0
228.114777	124.0
228.169739	520.0
228.230682	168.0
228.31488	96.0
228.353989	260.0
228.375031	112.0
228.422394	124.0
228.462265	32.0
228.511658	164.0
228.542847	128.0
228.635971	140.0
228.663879	136.0
228.696976	152.0
228.721405	104.0
228.763199	112.0
228.784271	208.0
228.865891	148.0
228.913498	220.0
228.987732	196.0
229.011734	164.0
229.042953	212.0
229.068069	180.0
229.087433	140.0
229.11087	284.0
229.155212	76336.0
229.237015	156.0
229.280136	156.0
229.307632	48.0
229.31395	52.0
229.334595	92.0
229.36647	160.0
229.424835	208.0
229.4561	76.0
229.480209	92.0
229.507355	100.0
229.543716	272.0
229.563431	60.0
229.616592	88.0
229.649506	148.0
229.696136	60.0
229.741592	96.0
229.787415	84.0
229.850128	224.0
229.881393	36.0
229.938721	104.0
229.965958	92.0
229.996078	88.0
230.052567	116.0
230.075745	104.0
230.156586	10680.0
230.202164	128.0
230.270157	236.0
230.308975	128.0
230.329803	132.0
230.358215	60.0
230.41185	148.0
230.461411	92.0
230.548767	44.0
230.594193	224.0
230.64566	136.0
230.699066	88.0
230.760361	360.0
230.808136	288.0
230.854095	28.0
230.888702	76.0
230.996246	48.0
231.111206	104.0
231.157761	880.0
231.218674	148.0
231.250412	72.0
231.301865	48.0
231.341217	96.0
231.401764	48.0
231.425842	160.0
231.498657	144.0
231.519867	44.0
231.572571	116.0
231.60466	108.0
231.644043	112.0
231.665253	48.0
231.69252	164.0
231.743042	124.0
231.773148	156.0
231.831299	136.0
231.85083	128.0
231.85939	64.0
231.922806	184.0
231.962921	172.0
231.982941	244.0
232.008469	152.0
232.156921	184.0
232.247253	96.0
232.277573	100.0
232.298813	64.0
232.392853	128.0
232.440903	72.0
232.475632	100.0
232.53006	56.0
232.581009	64.0
232.617432	96.0
232.656906	108.0
232.702438	156.0
232.724457	208.0
232.754059	68.0
232.839081	92.0
232.878571	96.0
232.989182	96.0
233.085144	60.0
233.118576	132.0
233.198975	132.0
233.32222	112.0
233.41951	120.0
233.449921	192.0
233.616165	200.0
233.714569	200.0
233.821075	140.0
233.851501	68.0
233.90564	112.0
234.119415	60.0
234.411865	104.0
234.469757	136.0
234.494141	172.0
234.549011	40.0
234.581772	208.0
234.745285	380.0
235.006454	104.0
235.073578	104.0
235.149872	32.0
235.244492	160.0
235.394104	236.0
235.532745	152.0
235.788177	108.0
235.925735	48.0
236.013306	124.0
236.051086	180.0
236.087784	160.0
236.136719	164.0
236.20401	92.0
236.238388	132.0
236.311081	40.0
236.341675	84.0
236.586517	72.0
236.659988	68.0
236.698822	112.0
236.877441	176.0
236.957092	200.0
237.118927	324.0
237.194717	768.0
237.291153	164.0
237.315674	64.0
237.398468	136.0
237.508881	96.0
237.640793	76.0
238.006042	64.0
238.033676	172.0
238.128448	152.0
238.159149	272.0
238.198273	280.0
238.227173	200.0
238.340851	116.0
238.365433	180.0
238.454544	108.0
238.53447	120.0
238.611313	192.0
238.65744	48.0
238.691254	180.0
238.712784	52.0
238.777359	260.0
238.832733	60.0
238.906555	176.0
238.928085	184.0
239.024231	200.0
239.069626	108.0
239.103485	152.0
239.139023	2204.0
239.175095	27856.0
239.246567	272.0
239.298172	80.0
239.333466	124.0
239.339584	40.0
239.418854	100.0
239.457047	76.0
239.495605	132.0
239.542068	188.0
239.61969	100.0
239.643631	116.0
239.67952	124.0
239.708664	120.0
239.78598	236.0
239.827255	124.0
239.895935	100.0
239.919312	144.0
239.950897	148.0
240.012222	112.0
240.071289	212.0
240.11261	160.0
240.161652	7164.0
240.241135	124.0
240.283646	132.0
240.33609	44.0
240.400894	56.0
240.448212	96.0
240.478058	64.0
240.51709	80.0
240.549042	64.0
240.601517	64.0
240.660187	56.0
240.684891	140.0
240.734299	184.0
240.755905	76.0
240.823853	60.0
240.978317	68.0
241.03392	80.0
241.062653	124.0
241.161865	1728.0
241.24028	396.0
241.283066	132.0
241.309021	44.0
241.357773	224.0
241.52858	128.0
241.581161	96.0
241.679947	116.0
241.77919	92.0
241.825607	84.0
241.87204	100.0
241.908386	92.0
241.949432	40.0
242.018692	148.0
242.053604	80.0
242.083908	120.0
242.112076	128.0
242.158432	284.0
242.191406	172.0
242.234329	44.0
242.287003	100.0
242.41713	132.0
242.479111	76.0
242.614197	96.0
242.6465	60.0
242.693008	104.0
242.730209	52.0
242.789139	84.0
242.826355	116.0
242.857361	56.0
242.88063	136.0
243.015579	100.0
243.09314	56.0
243.167725	136.0
243.241333	152.0
243.313522	156.0
243.431503	56.0
243.453247	156.0
243.563553	108.0
243.673782	60.0
243.709808	168.0
243.798065	196.0
243.900635	80.0
243.99823	140.0
244.182861	120.0
244.258804	172.0
244.416885	132.0
244.479126	52.0
244.57872	100.0
244.636215	68.0
244.692093	76.0
244.788605	172.0
244.93483	124.0
245.007675	128.0
245.226578	176.0
245.26709	164.0
245.366852	64.0
245.441666	188.0
245.550812	76.0
245.610077	136.0
245.640427	148.0
245.72728	84.0
245.800385	172.0
245.928345	36.0
245.962677	72.0
246.065689	160.0
246.146866	120.0
246.182571	156.0
246.20932	84.0
246.261841	152.0
246.303024	100.0
246.344452	212.0
246.524857	108.0
246.556107	196.0
246.634232	176.0
246.74678	68.0
246.781158	120.0
246.818573	156.0
246.885651	208.0
246.945572	136.0
246.981125	136.0
247.059509	108.0
247.165512	32132.0
247.28537	44.0
247.331757	104.0
247.358292	128.0
247.396088	116.0
247.435333	136.0
247.460098	96.0
247.493912	60.0
247.500549	48.0
247.526428	84.0
247.563431	92.0
247.603256	140.0
247.632339	48.0
247.654251	52.0
247.67778	88.0
247.700851	64.0
247.746368	108.0
247.785828	36.0
247.832825	64.0
247.879822	72.0
247.962784	152.0
247.995117	136.0
248.045929	128.0
248.083542	272.0
248.124298	72.0
248.168182	3884.0
248.232712	148.0
248.300537	204.0
248.325867	172.0
248.376221	144.0
248.401215	128.0
248.47998	204.0
248.643051	116.0
248.685806	68.0
248.723007	108.0
248.84462	216.0
248.908691	124.0
248.999771	180.0
249.038559	204.0
249.122269	60.0
249.16983	716.0
249.21965	100.0
249.251083	64.0
249.323349	52.0
249.357925	56.0
249.405075	84.0
249.469574	192.0
249.518234	72.0
249.644012	100.0
249.732071	256.0
249.846191	264.0
249.904404	128.0
249.942841	92.0
249.982956	188.0
250.139542	48.0
250.176071	136.0
250.229263	100.0
250.314285	120.0
250.416901	152.0
250.490646	160.0
250.522156	100.0
250.559952	108.0
250.699936	56.0
250.883682	208.0
250.998062	88.0
251.025223	104.0
251.089508	128.0
251.14621	292.0
251.468109	216.0
251.512299	92.0
251.569107	136.0
251.63588	80.0
251.769424	200.0
251.802765	40.0
252.03653	116.0
252.131332	108.0
252.275177	196.0
252.305176	44.0
252.428497	56.0
252.529694	76.0
252.599274	56.0
252.634079	36.0
252.893539	168.0
253.007507	188.0
253.077148	152.0
253.118317	160.0
253.155869	168.0
253.4319	128.0
253.793228	68.0
253.897873	84.0
254.043777	152.0
254.150253	196.0
254.187897	132.0
254.225296	144.0
254.383331	124.0
254.411896	180.0
254.634171	248.0
254.678635	72.0
254.710388	76.0
254.856537	92.0
254.942322	80.0
254.967743	116.0
255.057068	116.0
255.134842	720.0
255.203857	256.0
255.244308	152.0
255.292007	80.0
255.361984	44.0
255.416321	48.0
255.466949	148.0
255.641937	48.0
255.667404	144.0
255.705582	84.0
255.880661	60.0
255.911118	148.0
256.100372	72.0
256.130493	344.0
256.2034	1184.0
256.294708	156.0
256.345703	92.0
256.37439	164.0
256.412628	104.0
256.506561	196.0
256.580048	172.0
256.747375	56.0
256.798401	108.0
256.954712	144.0
257.017212	220.0
257.040863	164.0
257.068817	156.0
257.089752	124.0
257.111877	472.0
257.149078	5588.0
257.186584	31460.0
257.266235	52.0
257.305756	68.0
257.351715	56.0
257.379211	84.0
257.480469	56.0
257.503662	168.0
257.51178	164.0
257.579926	52.0
257.60553	116.0
257.673035	96.0
257.701813	88.0
257.794464	48.0
257.828674	68.0
258.001434	160.0
258.046967	52.0
258.114136	48.0
258.154297	1048.0
258.188995	4996.0
258.270844	36.0
258.296417	64.0
258.366791	44.0
258.473633	220.0
258.517181	56.0
258.57373	72.0
258.629181	144.0
258.728424	76.0
258.750824	144.0
258.789246	52.0
258.939758	148.0
259.019836	84.0
259.067871	144.0
259.099915	120.0
259.125183	36.0
259.189331	928.0
259.285767	48.0
259.333832	96.0
259.362701	156.0
259.455658	112.0
259.529388	148.0
259.606354	64.0
259.638428	32.0
259.696136	88.0
259.805206	68.0
259.83728	124.0
259.864746	100.0
259.898254	156.0
259.991302	44.0
260.03302	108.0
260.071564	44.0
260.130554	112.0
260.185516	120.0
260.248108	140.0
260.32196	60.0
260.366913	144.0
260.512054	200.0
260.603455	228.0
260.836029	64.0
261.022491	36.0
261.070709	176.0
261.096436	76.0
261.122192	80.0
261.147919	152.0
261.203979	156.0
261.24762	164.0
261.421356	116.0
261.443909	80.0
261.55011	156.0
261.6362	108.0
261.70462	132.0
261.785126	68.0
261.879608	176.0
261.968719	112.0
262.062134	72.0
262.158813	32.0
262.316742	76.0
262.339294	36.0
262.600494	176.0
262.797272	56.0
263.068359	32.0
263.103882	144.0
263.136139	76.0
263.226562	88.0
263.262085	120.0
263.394501	88.0
263.525116	180.0
263.656219	48.0
263.692719	120.0
263.785492	212.0
264.050629	124.0
264.20108	168.0
264.629852	64.0
264.769104	168.0
264.846832	160.0
264.875977	120.0
264.901886	204.0
264.966675	148.0
265.145874	380.0
265.188202	2356.0
265.644226	92.0
265.812927	160.0
265.978455	124.0
266.066101	152.0
266.144012	88.0
266.192017	300.0
266.296661	164.0
266.342133	80.0
266.44931	172.0
266.520813	36.0
266.670288	140.0
266.764557	96.0
266.884827	80.0
267.014923	216.0
267.053955	68.0
267.084778	184.0
267.138519	76.0
267.16806	396.0
267.198975	136.0
267.259705	120.0
267.284912	148.0
267.332031	224.0
267.439941	184.0
267.718964	140.0
267.836151	136.0
267.997986	100.0
268.182526	200.0
268.226135	136.0
268.369568	60.0
268.490204	148.0
268.813171	100.0
268.884979	124.0
269.028595	104.0
269.156708	212.0
269.196045	192.0
269.28656	144.0
269.470825	148.0
269.658997	32.0
269.714569	124.0
269.904175	120.0
270.054626	152.0
270.110229	92.0
270.162567	112.0
270.381775	68.0
270.610931	140.0
270.732086	124.0
270.813965	136.0
270.974487	144.0
271.164429	2332.0
271.551392	64.0
271.597992	96.0
271.677368	168.0
271.736725	116.0
271.909027	144.0
272.004211	108.0
272.076416	112.0
272.167328	420.0
272.201172	168.0
272.234039	136.0
272.345703	180.0
272.434387	156.0
272.541962	124.0
272.907623	100.0
272.983276	40.0
273.049042	180.0
273.14679	684.0
273.256256	36.0
273.562317	156.0
273.621582	228.0
273.674255	184.0
274.033264	84.0
274.161652	296.0
274.185638	132.0
274.283722	204.0
274.323273	220.0
274.379333	136.0
274.606842	36.0
274.72229	104.0
274.765198	148.0
274.887268	128.0
274.949982	144.0
275.022583	208.0
275.157715	672.0
275.184906	160.0
275.5047	52.0
275.630249	108.0
275.67981	164.0
275.725586	132.0
275.798798	120.0
275.924408	84.0
275.973999	224.0
276.053345	156.0
276.093048	224.0
276.142426	176.0
276.154327	136.0
276.165466	124.0
276.195557	204.0
276.231964	204.0
276.460236	148.0
276.51651	144.0
276.612488	76.0
276.657928	144.0
276.701874	100.0
276.890625	248.0
276.980042	88.0
277.15564	116.0
277.202026	108.0
277.407501	200.0
277.629639	80.0
277.871796	200.0
277.911621	124.0
278.123993	100.0
278.160522	92.0
278.492554	112.0
278.728424	132.0
278.761658	76.0
278.859497	216.0
278.897919	128.0
278.957733	136.0
279.097382	124.0
279.150574	104.0
279.198792	156.0
279.479889	112.0
279.523132	148.0
279.669586	112.0
279.739471	176.0
279.832703	152.0
279.869324	100.0
280.006317	140.0
280.187225	88.0
280.562317	160.0
280.929138	132.0
281.089294	116.0
281.152588	136.0
281.186066	252.0
281.28952	132.0
281.326263	148.0
281.393036	128.0
281.556641	164.0
281.700256	116.0
281.723663	176.0
282.021057	120.0
282.102875	132.0
282.149048	324.0
282.175934	132.0
282.217102	10572.0
282.327362	112.0
282.368256	80.0
282.415588	124.0
282.445099	180.0
282.519287	44.0
282.558167	172.0
282.623718	112.0
282.663147	56.0
282.733429	100.0
282.795563	84.0
282.950989	124.0
282.99118	60.0
283.021301	100.0
283.061493	72.0
283.126587	172.0
283.201385	18584.0
283.34668	80.0
283.385376	40.0
283.460114	32.0
283.498749	120.0
283.53717	132.0
283.587524	160.0
283.634369	72.0
283.705627	92.0
283.787201	68.0
283.812531	116.0
283.848938	68.0
283.929413	60.0
283.975372	132.0
284.023346	332.0
284.205139	3220.0
284.264893	80.0
284.305176	32.0
284.383331	148.0
284.431091	108.0
284.603912	88.0
284.661011	68.0
284.711365	56.0
284.785248	68.0
284.808777	44.0
284.838989	96.0
284.909546	132.0
284.936432	52.0
285.006989	80.0
285.040588	164.0
285.143646	120.0
285.179199	168.0
285.207916	536.0
285.26239	84.0
285.31955	104.0
285.359894	64.0
285.405426	104.0
285.484314	56.0
285.543793	156.0
285.668884	100.0
285.756775	140.0
285.783691	132.0
285.88916	128.0
285.931732	140.0
286.048035	196.0
286.096893	124.0
286.120728	240.0
286.210083	128.0
286.25827	88.0
286.308807	188.0
286.355957	72.0
286.44516	272.0
286.504761	136.0
286.544586	72.0
286.625458	120.0
287.036682	72.0
287.14798	128.0
287.2323	60.0
287.441467	72.0
287.549469	48.0
287.951233	40.0
288.042419	112.0
288.20459	148.0
288.299194	116.0
288.478333	88.0
288.677795	172.0
288.94162	156.0
289.087128	148.0
289.178497	148.0
289.249573	220.0
289.308807	164.0
289.435791	152.0
289.862579	120.0
290.190063	176.0
290.267883	204.0
290.415192	160.0
290.510162	140.0
290.707367	124.0
290.856293	80.0
290.930969	168.0
291.080353	132.0
291.170593	168.0
291.21106	164.0
291.6409	84.0
291.793884	168.0
291.882263	44.0
292.035309	144.0
292.206848	576.0
292.243683	140.0
292.321075	128.0
292.515076	216.0
292.756805	184.0
292.87262	128.0
292.961182	168.0
293.002045	184.0
293.049744	244.0
293.186218	1668.0
293.24173	168.0
293.295105	36.0
293.31897	132.0
293.448517	80.0
293.476685	76.0
293.581512	92.0
293.656525	108.0
293.683807	56.0
293.714508	156.0
293.816864	56.0
293.915802	52.0
294.052307	68.0
294.189545	588.0
294.270782	160.0
294.303406	72.0
294.492737	44.0
294.837799	116.0
295.080505	120.0
295.162567	124.0
295.194244	340.0
295.371185	116.0
295.525116	228.0
295.559326	124.0
295.69281	108.0
295.737305	72.0
295.905029	112.0
295.963226	88.0
296.000885	56.0
296.089935	60.0
296.150269	176.0
296.22937	152.0
296.236664	220.0
296.84729	164.0
296.963898	104.0
297.032501	112.0
297.077087	200.0
297.176575	164.0
297.239441	328.0
297.265778	136.0
297.334412	180.0
297.578156	84.0
297.84256	88.0
297.9422	164.0
298.10025	148.0
298.196472	208.0
298.244598	104.0
298.268646	108.0
298.299591	176.0
298.344269	76.0
298.774139	28.0
298.904877	224.0
298.997803	148.0
299.042542	108.0
299.104492	116.0
299.159576	92.0
299.269745	148.0
299.445374	148.0
299.522919	164.0
299.751984	112.0
300.066467	164.0
300.127686	380.0
300.16925	76.0
300.22821	15480.0
300.396698	36.0
300.476044	40.0
300.50708	52.0
300.544525	52.0
300.576111	68.0
300.683075	44.0
300.818115	64.0
300.845306	60.0
300.908539	192.0
301.138794	52.0
301.229645	2624.0
301.295868	228.0
301.380615	176.0
301.446289	60.0
301.501556	96.0
301.689301	128.0
301.738281	60.0
301.836884	164.0
301.864563	32.0
301.912964	80.0
302.023651	84.0
302.090546	92.0
302.135529	140.0
302.156738	92.0
302.179321	136.0
302.23172	264.0
302.562134	72.0
302.611938	108.0
302.653473	124.0
302.812775	80.0
302.927094	108.0
303.003296	104.0
303.057465	164.0
303.146637	204.0
303.192413	124.0
303.228546	44.0
303.259735	60.0
303.290924	140.0
303.372711	168.0
303.568268	52.0
303.630707	76.0
303.71048	136.0
303.845764	112.0
304.04007	72.0
304.217072	120.0
304.251801	48.0
304.320923	88.0
304.526123	168.0
304.797089	232.0
304.932617	176.0
305.040375	160.0
305.22464	156.0
305.356781	64.0
305.495911	124.0
305.829956	212.0
305.92395	108.0
306.160706	36.0
306.21167	192.0
306.244934	240.0
306.29306	144.0
306.320923	148.0
306.627533	68.0
306.923859	152.0
307.091248	152.0
307.146851	212.0
307.239349	884.0
307.279602	68.0
307.576233	44.0
307.607666	76.0
307.67746	56.0
307.789215	120.0
307.859039	96.0
308.072083	104.0
308.155945	152.0
308.182953	148.0
308.244019	348.0
308.32019	28.0
308.365601	60.0
308.393555	120.0
308.41803	168.0
308.503632	180.0
308.599823	52.0
308.694214	180.0
308.771179	148.0
308.841125	196.0
308.977539	160.0
309.177032	200.0
309.224213	160.0
309.426575	196.0
309.572571	100.0
309.649628	72.0
309.69165	160.0
309.772217	72.0
309.800232	32.0
309.838776	112.0
309.999939	88.0
310.094574	32.0
310.150635	164.0
310.212585	10188.0
310.336456	120.0
310.37851	68.0
310.448639	84.0
310.480225	56.0
310.525818	56.0
310.567902	64.0
310.676636	56.0
310.71875	44.0
310.755524	64.0
310.824005	92.0
310.876617	40.0
310.904694	192.0
310.936279	56.0
310.974884	60.0
311.059143	128.0
311.165039	120.0
311.21402	2116.0
311.266266	48.0
311.322449	108.0
311.353516	124.0
311.417297	80.0
311.582397	116.0
311.64563	104.0
311.719421	172.0
311.807281	204.0
311.983032	232.0
312.047699	80.0
312.113098	108.0
312.151794	128.0
312.194275	444.0
312.220093	256.0
312.313568	68.0
312.584442	48.0
312.753387	184.0
312.880096	292.0
313.03775	124.0
313.100128	88.0
313.146759	148.0
313.159027	188.0
313.225769	384.0
313.295654	152.0
313.344971	124.0
313.383728	92.0
313.41333	100.0
313.468292	152.0
313.524689	84.0
313.566986	116.0
313.640991	132.0
313.706177	124.0
314.02533	64.0
314.253052	272.0
314.392242	108.0
314.547516	28.0
314.582825	100.0
314.918274	40.0
315.07016	36.0
315.154968	128.0
315.197357	96.0
315.224182	136.0
315.397827	72.0
315.487183	112.0
315.533142	68.0
315.681641	92.0
315.720551	40.0
315.76651	100.0
315.82309	128.0
315.89032	196.0
316.608429	112.0
316.878021	116.0
317.069366	188.0
317.154419	212.0
317.477051	148.0
317.508972	208.0
317.725342	124.0
317.938232	228.0
317.995026	80.0
318.019867	92.0
318.115692	112.0
318.69104	112.0
318.943359	144.0
318.996674	60.0
319.042877	100.0
319.07489	124.0
319.224213	32.0
319.410278	192.0
319.480316	116.0
319.658203	176.0
319.868195	96.0
319.92514	116.0
320.071106	136.0
320.128082	200.0
320.1922	132.0
320.233032	140.0
320.523499	216.0
320.737335	192.0
320.815735	192.0
321.076019	144.0
321.098999	124.0
321.257935	148.0
321.379242	124.0
321.525543	120.0
321.700439	76.0
321.803986	176.0
321.828979	264.0
322.013092	200.0
322.189697	116.0
322.329041	96.0
322.357605	40.0
322.464844	124.0
322.507721	188.0
322.636414	92.0
322.78299	148.0
323.119202	60.0
323.176453	144.0
323.214508	128.0
323.236237	248.0
323.580902	136.0
323.781403	52.0
323.974823	268.0
324.168304	204.0
324.22287	144.0
324.266876	996.0
324.372589	148.0
324.401276	88.0
324.590912	220.0
324.623566	120.0
324.716827	52.0
324.835175	116.0
324.910522	156.0
324.987915	160.0
325.001617	92.0
325.012482	104.0
325.036957	180.0
325.080139	128.0
325.202362	148.0
325.265015	148.0
325.337585	140.0
325.772095	156.0
326.119781	148.0
326.181763	48.0
326.233978	172.0
326.270355	272.0
326.591644	44.0
326.627625	64.0
326.782318	132.0
326.951447	172.0
327.041412	176.0
327.228821	424.0
327.351044	84.0
327.433868	48.0
327.740051	72.0
327.83374	168.0
327.941864	72.0
328.221558	2884.0
328.331238	112.0
328.416992	232.0
328.572906	124.0
328.630646	88.0
328.728058	32.0
328.767761	148.0
329.110687	44.0
329.168457	156.0
329.224762	500.0
329.341797	52.0
329.442932	56.0
329.558563	152.0
329.594696	212.0
329.659729	84.0
329.71756	72.0
329.760925	192.0
329.836823	148.0
329.898285	64.0
330.071808	144.0
330.144135	144.0
330.205627	124.0
330.527588	92.0
330.581848	80.0
330.914856	176.0
330.947449	120.0
331.114044	52.0
331.320496	112.0
331.50528	208.0
331.632141	200.0
331.835114	216.0
332.034576	100.0
332.197784	44.0
332.244934	112.0
332.273956	72.0
332.346527	84.0
332.536041	208.0
332.68042	36.0
332.713104	132.0
332.766663	164.0
332.818298	164.0
332.91803	76.0
333.003601	100.0
333.218323	1036.0
333.261505	136.0
333.31601	176.0
333.505005	92.0
333.574066	196.0
333.999481	84.0
334.119537	172.0
334.215118	284.0
334.241547	196.0
334.286896	160.0
334.323303	124.0
334.463837	124.0
334.523132	120.0
334.634094	172.0
334.709167	32.0
335.062469	72.0
335.13739	184.0
335.217316	232.0
335.393585	152.0
335.711243	100.0
335.973877	136.0
336.147247	100.0
336.226013	292.0
336.80249	72.0
337.021698	84.0
337.175171	144.0
337.221588	160.0
337.259247	196.0
337.482239	136.0
337.540741	48.0
337.569977	80.0
337.721375	176.0
337.749207	40.0
337.822357	64.0
338.180389	80.0
338.203735	220.0
338.247009	356.0
339.212036	236.0
339.254211	176.0
339.415527	116.0
339.705261	60.0
340.06485	220.0
340.208008	212.0
340.241058	96.0
340.321808	48.0
340.692749	60.0
340.747864	60.0
340.942596	168.0
341.240356	116.0
341.906128	136.0
342.21167	76.0
342.278564	456.0
342.344208	104.0
342.499512	96.0
342.557831	56.0
342.742065	176.0
342.918945	172.0
342.996338	248.0
343.132751	100.0
343.221222	124.0
343.255646	204.0
343.278473	144.0
343.970154	196.0
344.259735	320.0
344.291382	56.0
344.838135	160.0
345.046143	208.0
345.139221	140.0
345.200439	96.0
345.56662	160.0
345.639496	172.0
345.71463	96.0
345.851593	120.0
345.951538	120.0
345.988556	160.0
346.233002	320.0
346.436646	156.0
347.229858	128.0
347.379395	64.0
347.430145	72.0
347.619385	136.0
347.745575	100.0
347.901459	160.0
348.246796	160.0
348.361359	156.0
348.439941	152.0
348.562775	140.0
348.882202	216.0
348.956573	88.0
349.012329	132.0
349.079254	88.0
349.112732	168.0
349.188354	120.0
349.376801	80.0
349.540527	224.0
349.583313	184.0
349.864319	40.0
350.055359	232.0
350.122406	168.0
350.242401	4048.0
350.432159	172.0
350.497498	112.0
350.53476	160.0
350.562683	80.0
350.624176	52.0
350.757629	56.0
350.828094	176.0
350.918365	100.0
350.963409	128.0
351.052887	112.0
351.105225	176.0
351.139191	200.0
351.226715	14928.0
351.362305	236.0
351.500366	88.0
351.563965	160.0
351.603058	76.0
351.662537	232.0
351.713257	92.0
351.762177	76.0
351.822479	92.0
351.855103	84.0
351.901001	68.0
351.964325	288.0
352.039734	144.0
352.158295	216.0
352.231781	3828.0
352.351837	56.0
352.416351	116.0
352.445221	44.0
352.491669	112.0
352.557343	68.0
352.644806	52.0
352.71225	124.0
352.751678	80.0
352.804016	136.0
352.912445	64.0
352.938629	152.0
352.97226	72.0
353.033539	124.0
353.084442	60.0
353.233948	708.0
353.315857	88.0
353.383698	76.0
353.484741	172.0
353.518402	80.0
353.585785	40.0
353.754211	128.0
353.971375	28.0
354.001312	172.0
354.079956	76.0
354.1586	92.0
354.184845	60.0
354.237579	668.0
354.360901	276.0
354.406738	120.0
354.458313	64.0
354.574493	68.0
354.621338	88.0
354.735657	92.0
355.085846	92.0
355.174377	140.0
355.246796	372.0
355.293152	232.0
355.665924	148.0
355.842377	60.0
356.254181	676.0
356.356903	232.0
356.409515	48.0
356.61734	108.0
356.706421	112.0
356.81543	64.0
356.841736	104.0
356.916931	84.0
357.152802	128.0
357.255768	320.0
357.311859	152.0
357.831238	68.0
357.947968	168.0
358.354736	100.0
358.426331	148.0
358.452728	108.0
358.721222	176.0
358.961609	36.0
359.070953	40.0
359.143372	180.0
359.255798	92.0
359.410461	108.0
359.667114	104.0
359.9729	32.0
360.142853	208.0
360.173065	124.0
360.244843	48.0
360.324188	96.0
360.448853	140.0
360.755005	128.0
361.008331	72.0
361.087738	104.0
361.250397	172.0
361.443329	160.0
361.488739	100.0
361.752655	96.0
361.950562	120.0
362.537689	200.0
362.583191	124.0
362.846313	200.0
362.878845	72.0
363.280853	180.0
363.384796	120.0
363.474335	88.0
363.523682	148.0
363.660278	112.0
364.043732	168.0
364.233643	160.0
364.273193	128.0
364.370392	44.0
364.450165	56.0
364.567963	124.0
364.65918	112.0
364.834045	40.0
365.123016	192.0
365.169495	128.0
365.214294	116.0
365.408295	120.0
365.59024	132.0
365.640411	68.0
365.73938	152.0
366.002045	132.0
366.165802	40.0
366.203888	160.0
366.293213	156.0
366.424835	76.0
366.640045	132.0
367.038483	116.0
367.080414	44.0
367.223236	256.0
367.332123	228.0
367.374481	108.0
367.477509	76.0
367.526703	36.0
367.640289	68.0
367.770935	80.0
367.831116	84.0
367.885468	88.0
367.938904	196.0
367.965637	80.0
368.011261	352.0
368.13208	220.0
368.168732	164.0
368.254181	25780.0
368.377411	136.0
368.396759	112.0
368.404999	152.0
368.530884	32.0
368.592987	64.0
368.668457	100.0
368.699036	108.0
368.752533	52.0
368.802887	156.0
368.878662	40.0
368.930206	116.0
368.995514	184.0
369.005463	120.0
369.105927	136.0
369.140045	176.0
369.242554	13284.0
369.317963	144.0
369.388458	92.0
369.457581	152.0
369.509369	100.0
369.540436	48.0
369.58078	112.0
369.665009	100.0
369.716278	48.0
369.751678	120.0
369.819611	52.0
369.846405	68.0
369.87915	36.0
369.90152	80.0
369.934448	152.0
369.977814	72.0
370.118225	40.0
370.152679	52.0
370.179504	152.0
370.246002	2324.0
370.342926	164.0
370.377716	232.0
370.407532	104.0
370.5336	116.0
370.589722	40.0
370.61615	168.0
370.658325	76.0
370.731628	92.0
370.811584	136.0
370.84314	52.0
370.895935	56.0
370.941925	60.0
370.977692	96.0
371.026245	92.0
371.053101	100.0
371.091431	128.0
371.171173	80.0
371.240814	316.0
371.309998	104.0
371.343719	96.0
371.432739	92.0
371.474945	80.0
371.513306	128.0
371.551666	64.0
371.633392	196.0
371.690826	104.0
371.739655	128.0
371.770752	116.0
371.820251	100.0
371.861877	180.0
371.900848	40.0
371.935394	272.0
371.966095	68.0
372.006561	124.0
372.123505	64.0
372.192627	92.0
372.254578	300.0
372.322418	100.0
372.353912	72.0
372.507538	88.0
372.830292	76.0
372.883911	80.0
372.991699	120.0
373.11087	140.0
373.149323	84.0
373.337738	52.0
373.391571	76.0
373.48111	128.0
373.566742	228.0
373.614685	124.0
373.680084	140.0
373.823853	176.0
373.907104	48.0
374.217102	120.0
374.302887	104.0
374.623291	104.0
374.832489	148.0
374.873718	228.0
374.931519	120.0
375.34787	40.0
375.440399	128.0
375.606262	128.0
375.793549	84.0
375.884033	104.0
375.938049	72.0
376.069275	132.0
376.158051	92.0
376.308594	72.0
376.980713	144.0
377.100494	172.0
377.197144	48.0
377.475494	192.0
377.545105	212.0
378.133148	120.0
378.186157	104.0
378.237915	680.0
378.299591	112.0
378.94635	40.0
378.985107	172.0
379.097473	112.0
379.238708	116.0
379.550995	76.0
379.752655	156.0
379.888428	132.0
380.148376	60.0
380.228882	144.0
380.283508	124.0
380.300568	88.0
380.312653	168.0
380.474396	44.0
380.680176	116.0
381.041412	32.0
381.28772	636.0
381.422241	164.0
381.484772	140.0
381.853851	136.0
382.079437	76.0
382.153656	164.0
382.219513	148.0
382.288025	284.0
382.363495	168.0
382.569794	140.0
383.259155	92.0
383.535828	128.0
383.590424	100.0
384.070038	60.0
384.300201	216.0
384.4953	68.0
384.733673	112.0
384.788055	76.0
384.975464	280.0
385.088745	68.0
385.146301	168.0
385.32312	148.0
385.526306	148.0
385.608368	156.0
385.729523	136.0
385.776428	160.0
385.909363	96.0
386.065765	132.0
386.264648	5796.0
386.421722	80.0
386.484314	108.0
386.550842	72.0
386.654266	56.0
386.723053	168.0
386.816986	48.0
386.850647	80.0
386.883514	60.0
387.012726	68.0
387.094971	188.0
387.250183	6156.0
387.322113	156.0
387.363617	164.0
387.489777	148.0
387.619843	60.0
387.706055	116.0
387.743011	104.0
387.802643	112.0
387.943695	192.0
388.041626	132.0
388.070618	188.0
388.25415	1320.0
388.329437	96.0
388.364288	36.0
388.478485	48.0
388.607941	92.0
388.725647	124.0
388.99646	128.0
389.051422	112.0
389.259796	292.0
389.38913	124.0
389.420532	36.0
389.647858	152.0
389.697571	116.0
389.907715	112.0
390.013824	68.0
390.049194	132.0
390.261505	164.0
390.465973	128.0
390.686249	208.0
390.906586	136.0
390.94986	160.0
391.146667	68.0
391.174225	68.0
391.292297	136.0
391.367126	80.0
391.414368	228.0
391.571899	96.0
391.883087	56.0
392.04071	84.0
392.119507	120.0
392.240784	120.0
392.574646	60.0
392.655701	120.0
392.746429	88.0
392.860809	196.0
392.983124	112.0
393.133057	228.0
393.267242	44.0
394.040527	112.0
394.28186	164.0
394.566864	48.0
394.644836	144.0
394.768524	96.0
395.108673	116.0
395.175934	112.0
395.231323	64.0
395.266937	76.0
395.310455	112.0
395.409393	48.0
395.472717	160.0
395.595428	84.0
395.641327	100.0
395.706268	132.0
395.797333	88.0
395.840912	52.0
396.157379	128.0
396.249847	12556.0
396.376862	208.0
396.435089	52.0
396.466797	68.0
396.519897	124.0
396.557953	32.0
396.618317	136.0
396.648468	224.0
396.712555	164.0
396.758789	60.0
396.795807	92.0
396.898895	68.0
396.958374	148.0
397.033691	40.0
397.148712	132.0
397.250031	2516.0
397.32724	120.0
397.382782	224.0
397.489258	100.0
397.495087	144.0
397.688324	76.0
397.908752	68.0
398.009888	100.0
398.053558	136.0
398.132996	148.0
398.267517	376.0
398.448761	56.0
398.497589	104.0
398.538177	84.0
398.596863	88.0
398.836212	100.0
399.302521	532.0
399.552002	212.0
399.702881	100.0
399.730225	236.0
399.846466	184.0
399.926056	92.0
400.260468	72.0
400.300537	192.0
400.523315	100.0
400.628479	80.0
400.676575	160.0
400.822113	104.0
400.889832	64.0
400.988953	156.0
401.026306	84.0
401.547638	124.0
401.671295	136.0
401.826874	196.0
401.902679	108.0
402.110199	68.0
402.213959	88.0
402.257874	64.0
402.437531	168.0
402.481445	72.0
402.741028	172.0
402.89682	176.0
402.964722	88.0
403.132538	140.0
403.420319	104.0
403.540253	188.0
403.751099	160.0
403.868164	144.0
403.976166	272.0
404.060699	152.0
404.196228	72.0
404.275299	13656.0
404.365631	168.0
404.420319	68.0
404.460358	88.0
404.556427	68.0
404.661804	176.0
404.744598	48.0
404.801208	88.0
404.8367	104.0
404.920807	72.0
405.048981	84.0
405.08902	132.0
405.165131	60.0
405.208984	144.0
405.280609	3972.0
405.33548	228.0
405.391541	112.0
405.447388	100.0
405.525787	48.0
405.690125	44.0
405.749176	180.0
405.797241	184.0
405.858521	56.0
405.974792	36.0
406.022919	68.0
406.147247	88.0
406.201141	232.0
406.281281	748.0
406.379944	48.0
406.412018	116.0
406.648804	68.0
406.849487	48.0
407.018127	56.0
407.078369	116.0
407.122528	120.0
407.260529	144.0
407.293213	144.0
407.305054	196.0
407.415741	124.0
407.631256	88.0
407.709045	48.0
407.849731	48.0
407.910004	36.0
408.038666	36.0
408.135162	76.0
408.291992	140.0
408.320129	116.0
408.573547	60.0
408.754608	44.0
408.802887	108.0
408.959839	120.0
409.201385	108.0
409.283722	344.0
409.334259	36.0
409.507416	44.0
409.681763	100.0
409.745087	172.0
409.78537	44.0
409.865967	28.0
409.999512	84.0
410.135956	136.0
410.262604	176.0
410.418152	208.0
410.472137	104.0
410.539124	64.0
410.641693	56.0
411.095825	152.0
411.1604	96.0
411.446991	124.0
411.547913	124.0
411.648865	148.0
411.721558	48.0
411.778107	136.0
412.145721	116.0
412.245728	500.0
412.297577	140.0
412.444763	88.0
412.634766	96.0
412.76416	32.0
412.816711	56.0
412.990631	36.0
413.071533	84.0
413.246063	140.0
413.281891	136.0
413.326416	100.0
413.362823	36.0
413.58136	48.0
413.747345	144.0
413.779724	128.0
413.897125	56.0
414.066132	144.0
414.19278	148.0
414.260864	10592.0
414.350769	64.0
414.447998	116.0
414.476379	44.0
414.555603	144.0
414.596344	92.0
414.630341	72.0
414.687103	160.0
414.776276	92.0
414.812744	128.0
414.861389	28.0
414.922211	88.0
414.986328	148.0
415.058441	100.0
415.180237	56.0
415.210083	100.0
415.262451	1936.0
415.388977	80.0
415.510254	44.0
415.567047	72.0
415.6604	52.0
415.717194	144.0
415.774017	92.0
415.851135	48.0
415.895782	48.0
415.960724	40.0
416.2612	684.0
416.354553	84.0
416.435791	252.0
416.712006	100.0
416.842041	44.0
416.955811	84.0
417.138733	220.0
417.215973	136.0
417.281006	128.0
417.439575	152.0
417.474396	128.0
417.805634	92.0
417.976532	152.0
418.14743	40.0
418.265472	88.0
418.526031	124.0
418.652252	80.0
418.745941	136.0
419.043304	80.0
419.312225	120.0
419.352997	44.0
419.585358	40.0
419.630188	124.0
419.772888	60.0
419.970428	120.0
419.990692	40.0
420.000092	136.0
420.441925	176.0
420.584778	188.0
420.792969	92.0
420.83786	164.0
420.899109	96.0
421.321991	180.0
421.376984	68.0
421.769318	68.0
421.81427	80.0
422.022766	104.0
422.05957	76.0
422.254822	80.0
422.299927	1972.0
422.624023	48.0
422.828613	68.0
423.06192	76.0
423.172455	152.0
423.309448	1044.0
423.340698	420.0
423.495972	176.0
423.733582	72.0
424.24176	172.0
424.321045	288.0
424.381134	108.0
425.321564	280.0
425.50531	56.0
426.154236	88.0
426.314178	104.0
426.947571	48.0
427.292114	152.0
427.589355	76.0
427.663452	96.0
427.745758	140.0
428.046295	88.0
428.223389	132.0
428.412872	48.0
428.49115	68.0
428.627106	72.0
428.86615	72.0
429.39389	136.0
429.647186	216.0
430.020996	108.0
430.186096	180.0
430.248016	136.0
430.413177	192.0
430.606323	124.0
431.049286	144.0
431.111267	96.0
431.284851	120.0
431.404724	64.0
431.58252	68.0
431.718964	92.0
431.756195	64.0
431.971252	236.0
432.087097	140.0
432.16983	40.0
432.288269	116.0
433.276154	132.0
433.478302	100.0
433.793274	72.0
433.905212	108.0
434.527313	80.0
435.054382	140.0
435.469604	52.0
435.939056	88.0
436.196747	88.0
436.242462	148.0
436.367188	40.0
436.887054	76.0
437.14917	72.0
437.182465	112.0
437.315643	140.0
437.394714	124.0
437.43219	128.0
437.815247	164.0
437.956848	64.0
438.115143	160.0
438.144287	48.0
438.181793	68.0
438.315125	112.0
438.577667	76.0
438.965393	156.0
439.328369	2712.0
439.391113	120.0
439.51181	100.0
439.607788	240.0
439.795593	136.0
440.050262	84.0
440.175507	116.0
440.31189	5668.0
440.42041	176.0
440.526337	68.0
440.576477	48.0
440.626617	52.0
440.960907	56.0
440.993225	92.0
441.042755	96.0
441.11972	176.0
441.313904	1628.0
441.487671	28.0
441.66333	208.0
441.696777	112.0
441.755341	168.0
441.822266	80.0
441.864105	68.0
442.002075	172.0
442.064941	28.0
442.218201	84.0
442.313568	288.0
442.367188	168.0
442.558868	36.0
442.860382	52.0
442.965118	136.0
443.019562	40.0
443.327972	184.0
443.757172	128.0
443.933289	60.0
444.004578	108.0
444.092651	120.0
444.411469	56.0
444.776581	148.0
444.818542	116.0
445.141815	124.0
445.313995	104.0
445.570251	120.0
445.854462	156.0
446.084595	92.0
446.360413	68.0
446.410889	164.0
446.545471	200.0
446.982971	148.0
447.206024	64.0
447.324982	336.0
447.429108	96.0
447.601746	132.0
448.090332	52.0
448.267303	156.0
448.309753	156.0
448.633972	252.0
449.009247	88.0
449.305389	232.0
449.429321	152.0
449.61676	140.0
449.72226	88.0
450.017761	112.0
450.303375	124.0
450.368286	72.0
450.702026	48.0
451.309174	236.0
451.350891	156.0
452.312988	192.0
452.613892	44.0
452.84256	180.0
453.285858	200.0
453.334015	220.0
453.846893	52.0
454.097107	176.0
454.239471	164.0
454.30423	140.0
454.411011	48.0
455.013672	40.0
455.05188	44.0
455.30545	156.0
455.863159	148.0
456.067169	44.0
456.186188	104.0
456.35199	132.0
456.526337	100.0
456.785767	64.0
456.824066	104.0
457.215485	124.0
458.333466	112.0
458.349579	164.0
459.264801	56.0
459.323029	136.0
459.401306	80.0
460.617889	108.0
460.652069	88.0
460.746063	88.0
461.451233	204.0
461.613708	100.0
461.793335	188.0
462.629852	76.0
462.739044	76.0
462.987396	44.0
463.1073	128.0
463.150146	80.0
463.57428	84.0
463.690002	132.0
463.886505	104.0
464.260162	148.0
464.414581	68.0
464.535187	100.0
465.041687	124.0
465.341827	4224.0
465.435944	124.0
465.500366	76.0
465.547577	60.0
465.797913	128.0
466.348358	1528.0
466.424042	180.0
466.463806	168.0
466.531525	88.0
466.647583	72.0
466.978699	72.0
467.047516	136.0
467.19519	136.0
467.322723	7780.0
467.390167	220.0
467.439026	64.0
467.486359	128.0
467.568115	40.0
467.653595	28.0
467.735992	100.0
467.771118	124.0
467.882355	56.0
468.039825	180.0
468.125183	120.0
468.322327	2760.0
468.428009	96.0
468.468018	112.0
468.514709	48.0
468.584351	60.0
468.804108	52.0
468.847198	124.0
468.953613	52.0
469.010956	56.0
469.327118	276.0
469.662048	88.0
469.761261	136.0
469.821655	68.0
469.890686	80.0
470.201355	156.0
470.325531	264.0
470.425812	48.0
470.486267	80.0
470.589874	152.0
470.654633	116.0
470.779846	288.0
470.961243	100.0
471.047638	104.0
471.099487	48.0
471.147003	92.0
471.259338	72.0
471.329926	172.0
471.408722	140.0
471.445129	92.0
471.831757	116.0
471.868744	32.0
472.154114	40.0
472.201691	152.0
472.337738	132.0
472.634277	56.0
472.712189	60.0
472.893951	116.0
472.984833	64.0
473.17099	72.0
473.348511	52.0
473.46228	188.0
473.612671	36.0
473.859589	40.0
474.006927	108.0
474.683136	80.0
474.756866	40.0
474.912994	40.0
475.273071	168.0
475.329468	172.0
475.433624	196.0
475.663635	128.0
476.162964	80.0
476.329376	280.0
476.766846	84.0
477.236298	136.0
477.301514	128.0
477.501556	40.0
477.779938	116.0
478.067108	88.0
478.167206	80.0
478.343048	140.0
478.450134	68.0
478.69397	232.0
478.855103	40.0
478.99884	128.0
479.273315	244.0
479.364807	140.0
479.788971	176.0
479.94455	108.0
480.123352	128.0
480.289062	100.0
480.380676	56.0
480.446106	84.0
480.638092	112.0
480.73407	152.0
481.087616	80.0
481.157471	160.0
481.257874	112.0
481.406342	84.0
481.53299	184.0
481.733917	92.0
481.947998	148.0
482.0354	216.0
482.144623	108.0
482.271393	36.0
482.354431	68.0
482.529297	44.0
482.594879	72.0
482.686707	56.0
482.862946	80.0
483.170624	144.0
483.224701	188.0
483.350342	1800.0
483.443481	64.0
483.547913	116.0
483.631653	72.0
483.662292	48.0
483.951233	40.0
483.99939	144.0
484.055084	84.0
484.117615	56.0
484.249023	116.0
484.351898	468.0
484.485535	196.0
484.564392	132.0
484.638885	48.0
484.781097	100.0
484.814178	192.0
484.966736	212.0
485.041412	80.0
485.074188	152.0
485.135376	128.0
485.173584	160.0
485.218536	156.0
485.332855	30844.0
485.453583	56.0
485.473145	192.0
485.551819	124.0
485.593323	116.0
485.708008	92.0
485.7612	40.0
485.810669	144.0
485.841003	88.0
485.891052	132.0
485.94986	32.0
485.98056	72.0
486.052521	220.0
486.112213	36.0
486.168152	64.0
486.194427	136.0
486.273987	48.0
486.336243	10788.0
486.439178	136.0
486.496521	128.0
486.548645	224.0
486.606781	96.0
486.658112	88.0
486.739929	44.0
486.805786	44.0
486.869263	68.0
486.913055	48.0
486.943207	96.0
487.003418	40.0
487.038544	164.0
487.102295	88.0
487.151001	40.0
487.229645	96.0
487.338013	2000.0
487.433929	84.0
487.470703	44.0
487.592133	104.0
487.644897	44.0
487.746094	140.0
487.816315	92.0
487.851471	216.0
487.926941	96.0
488.181244	80.0
488.249908	124.0
488.338959	376.0
488.396729	52.0
488.434784	68.0
488.590607	112.0
488.638672	108.0
488.697723	96.0
488.781097	152.0
488.817932	92.0
488.964294	132.0
489.025909	160.0
489.093262	80.0
489.13089	80.0
489.193634	132.0
489.312042	52.0
489.344513	96.0
489.388031	124.0
489.506836	184.0
489.633484	60.0
489.829926	160.0
489.909821	180.0
490.140076	120.0
490.184143	112.0
490.214996	48.0
490.386871	100.0
490.479431	48.0
490.585236	112.0
490.633728	68.0
490.955597	72.0
490.990875	104.0
491.096741	40.0
491.476105	60.0
491.621735	72.0
491.829163	60.0
492.222076	52.0
492.26181	164.0
492.345734	60.0
492.403137	40.0
492.456146	116.0
492.637238	36.0
492.844879	92.0
492.898499	60.0
493.171906	56.0
493.337219	3080.0
493.494629	48.0
493.611664	72.0
493.870514	44.0
494.133087	112.0
494.175751	40.0
494.342163	1320.0
494.516479	108.0
494.631561	96.0
494.78479	144.0
494.928192	96.0
495.108276	108.0
495.224884	84.0
495.322021	496.0
495.354218	304.0
495.593964	64.0
495.641327	52.0
495.688293	100.0
495.840729	36.0
495.889465	136.0
496.164307	40.0
496.315857	356.0
496.496857	48.0
496.621033	64.0
496.705322	44.0
497.348724	84.0
497.650574	44.0
497.816589	188.0
498.485657	84.0
498.7612	92.0
498.850098	68.0
498.890106	48.0
498.956787	76.0
499.534912	80.0
501.373779	120.0
501.71698	76.0
502.568817	76.0
502.698242	64.0
502.863342	100.0
503.238342	88.0
503.343567	2800.0
503.457123	28.0
503.613434	68.0
503.769775	80.0
504.0289	76.0
504.136169	116.0
504.347046	1268.0
504.58313	200.0
504.838013	108.0
504.990051	104.0
505.092926	64.0
505.267395	128.0
505.348083	208.0
505.428467	44.0
505.491119	120.0
505.62088	32.0
505.782013	80.0
505.84021	28.0
505.947632	68.0
506.10434	48.0
506.359589	236.0
506.964386	84.0
507.022644	148.0
507.107788	40.0
507.179504	52.0
507.29718	32.0
507.331909	80.0
507.374451	124.0
507.681641	88.0
508.619354	128.0
509.041351	148.0
509.342255	108.0
509.60733	72.0
509.998291	40.0
510.353424	200.0
511.355072	1320.0
511.51413	36.0
511.545624	104.0
512.000366	112.0
512.248108	104.0
512.35022	792.0
513.321655	376.0
514.006409	68.0
514.334351	300.0
515.68634	120.0
515.898804	84.0
516.332886	64.0
516.835022	144.0
516.880249	156.0
516.925537	140.0
517.264954	60.0
517.305664	52.0
517.489197	52.0
518.315674	120.0
518.573975	28.0
518.737122	124.0
519.929993	76.0
519.996643	120.0
521.02887	120.0
521.378723	132.0
522.369934	192.0
522.407471	336.0
523.425781	124.0
523.653503	120.0
524.774475	28.0
524.874817	108.0
525.600037	112.0
525.66394	92.0
526.175171	84.0
526.869324	68.0
527.445129	68.0
528.263611	56.0
528.547302	52.0
528.611328	84.0
530.704651	64.0
531.374268	144.0
531.502747	52.0
532.191223	48.0
533.679871	72.0
534.512451	160.0
535.44696	76.0
535.562073	180.0
536.06427	96.0
537.281494	88.0
538.255371	108.0
538.564758	84.0
538.934326	60.0
538.999023	88.0
539.096069	72.0
539.156128	124.0
539.979065	120.0
541.775024	148.0
542.062317	40.0
542.405945	108.0
542.535034	84.0
542.715881	100.0
543.741028	28.0
546.361694	88.0
546.492004	160.0
546.668823	36.0
548.370789	52.0
548.597046	108.0
549.389893	224.0
549.987122	76.0
550.729492	72.0
551.131287	44.0
551.378906	136.0
553.123535	76.0
553.807129	96.0
554.120972	72.0
555.886963	152.0
556.658508	120.0
557.913025	128.0
559.220703	56.0
561.373657	168.0
562.001038	36.0
562.274719	108.0
562.680664	88.0
564.405212	72.0
564.953857	156.0
565.767822	112.0
565.876709	48.0
566.089783	76.0
566.392761	480.0
567.343079	132.0
567.395081	360.0
567.606934	184.0
567.653564	104.0
568.398254	108.0
569.252686	116.0
569.329529	136.0
569.404663	172.0
569.63269	92.0
570.226624	160.0
570.383423	96.0
571.063354	76.0
571.881714	112.0
572.124512	92.0
572.73877	140.0
573.667969	68.0
574.569275	116.0
574.855591	136.0
574.965332	144.0
575.141907	176.0
576.460083	176.0
577.994995	52.0
579.349976	136.0
579.402649	96.0
580.931946	48.0
581.320557	104.0
581.570129	60.0
582.876343	116.0
583.131042	108.0
583.376221	120.0
584.401001	1464.0
584.891479	100.0
585.016602	40.0
585.413086	1040.0
585.86145	164.0
586.403198	148.0
586.443909	116.0
587.387451	128.0
587.474304	92.0
587.792725	40.0
589.057617	72.0
589.419983	76.0
589.753479	64.0
589.922607	192.0
590.421326	148.0
590.657654	152.0
591.320496	100.0
592.366394	144.0
592.753967	104.0
593.825317	160.0
594.310425	64.0
595.611511	48.0
595.703796	112.0
595.883545	80.0
597.375977	104.0
597.648438	88.0
598.383362	104.0
598.714478	116.0
598.768066	64.0
598.816772	164.0
602.372559	116.0
602.416199	132.0
602.611938	96.0
602.714539	84.0
602.807373	40.0
603.349915	184.0
604.171509	88.0
604.2547	108.0
604.362305	180.0
604.734253	128.0
604.837036	100.0
605.13562	88.0
606.036865	52.0
606.453125	320.0
607.399719	48.0
607.451721	308.0
608.433044	220.0
608.467896	164.0
608.621704	36.0
608.808289	160.0
609.435852	128.0
609.540222	132.0
609.776123	152.0
609.977661	64.0
610.203796	96.0
610.631592	92.0
610.774231	100.0
611.718994	152.0
613.167114	96.0
613.485291	108.0
613.515259	164.0
613.684692	164.0
614.296204	156.0
615.436279	124.0
615.925171	104.0
618.516174	84.0
618.595337	60.0
619.402527	92.0
619.813721	56.0
621.038208	76.0
621.564087	100.0
623.038635	196.0
624.321045	132.0
624.813477	96.0
624.858215	64.0
625.425537	72.0
625.744141	80.0
626.400208	196.0
626.441345	100.0
626.49115	184.0
626.570862	68.0
627.442993	100.0
627.841919	152.0
628.575195	156.0
629.663513	132.0
630.7677	124.0
631.912903	108.0
632.446533	448.0
632.508423	44.0
632.67865	104.0
633.406738	132.0
633.443359	120.0
636.1828	124.0
636.398682	100.0
636.433838	144.0
636.790405	108.0
637.554016	76.0
639.012207	76.0
639.097778	60.0
640.154846	108.0
641.48999	76.0
641.802551	40.0
642.059753	120.0
642.473328	116.0
642.993042	36.0
644.012939	56.0
644.644409	96.0
644.760681	268.0
645.453186	72.0
645.953918	60.0
646.049988	104.0
646.232117	104.0
646.657227	80.0
646.981201	92.0
648.074402	116.0
649.448914	80.0
649.579895	112.0
649.727966	112.0
650.179504	160.0
650.447754	5684.0
650.765381	116.0
650.859741	56.0
650.895325	44.0
651.022278	48.0
651.073059	84.0
651.296509	56.0
651.377747	60.0
651.447632	2456.0
651.565735	56.0
651.61969	148.0
651.713074	132.0
651.78418	104.0
651.992554	96.0
652.073853	64.0
652.251587	100.0
652.367126	116.0
652.450684	500.0
652.526306	64.0
652.948303	44.0
653.451782	128.0
653.492615	44.0
653.599487	100.0
653.88446	28.0
654.261108	56.0
654.439331	96.0
654.91803	108.0
655.508972	44.0
655.69751	68.0
655.85553	124.0
656.018616	124.0
656.333862	120.0
656.508118	60.0
656.554016	92.0
657.227356	124.0
657.701965	96.0
657.79895	76.0
658.621033	128.0
659.20105	84.0
659.494751	76.0
659.873047	272.0
660.13385	48.0
660.629944	68.0
661.284912	72.0
661.586914	92.0
662.165527	36.0
662.314026	112.0
662.380615	56.0
662.657288	112.0
662.795593	68.0
662.887817	60.0
663.036438	64.0
663.103088	176.0
663.436279	60.0
663.537659	248.0
663.574707	56.0
663.70929	96.0
664.313171	276.0
664.364441	68.0
664.400391	92.0
664.610718	120.0
664.662048	260.0
664.913513	88.0
665.036682	144.0
665.149597	68.0
665.257385	120.0
665.329285	60.0
665.755432	124.0
666.289612	64.0
666.325562	148.0
666.366699	36.0
666.430725	128.0
666.532593	164.0
666.587646	132.0
666.622681	164.0
666.690369	104.0
666.777771	164.0
666.849731	84.0
666.901855	80.0
666.976257	104.0
667.020996	112.0
667.067993	156.0
667.188965	156.0
667.255798	128.0
667.307678	132.0
667.389465	72.0
667.446045	80.0
667.503845	148.0
667.548889	148.0
667.636292	168.0
667.749878	92.0
667.860291	144.0
667.948792	180.0
667.994202	204.0
668.134766	140.0
668.232971	104.0
668.289612	284.0
668.356567	236.0
668.458435	31460.0
668.606201	232.0
668.71637	84.0
668.766907	112.0
668.819641	44.0
668.936279	72.0
668.994629	36.0
669.084839	108.0
669.105713	84.0
669.127502	104.0
669.18457	72.0
669.274109	116.0
669.325562	152.0
669.461304	10472.0
669.638062	200.0
669.702759	140.0
669.751587	108.0
669.841003	128.0
669.88855	56.0
669.954346	200.0
670.008362	116.0
670.096741	40.0
670.186523	124.0
670.229309	104.0
670.328613	108.0
670.463867	3128.0
670.585449	124.0
670.625793	72.0
670.661865	144.0
670.751221	40.0
670.807922	148.0
670.882751	108.0
670.973145	80.0
671.030762	72.0
671.310547	60.0
671.354431	52.0
671.473328	432.0
671.588562	92.0
671.627808	48.0
671.696167	104.0
671.741272	48.0
671.865112	60.0
671.948975	76.0
672.025024	36.0
672.076599	72.0
672.123047	32.0
672.164368	128.0
672.246887	84.0
672.288208	72.0
672.360413	92.0
672.411621	60.0
672.458496	148.0
672.592712	132.0
672.644287	100.0
672.695923	116.0
672.775391	92.0
672.812866	88.0
672.869751	132.0
672.906006	64.0
672.983337	108.0
673.08313	124.0
673.144775	124.0
673.232544	96.0
673.288391	100.0
673.367371	168.0
673.527283	108.0
673.651245	88.0
673.709656	104.0
673.842407	164.0
673.950928	80.0
673.997437	96.0
674.068298	144.0
674.170288	48.0
674.204102	84.0
674.328125	88.0
674.441833	32.0
674.515137	92.0
674.819214	32.0
674.967163	52.0
675.331177	48.0
675.517395	52.0
675.667419	56.0
675.961304	100.0
676.08136	40.0
676.19519	92.0
676.283203	52.0
676.428101	60.0
676.59375	60.0
676.909607	72.0
677.085693	72.0
677.386108	72.0
677.484497	116.0
677.779846	76.0
678.277344	48.0
678.992859	68.0
679.101807	32.0
679.164001	52.0
679.397461	116.0
679.438965	92.0
682.196533	76.0
683.439514	96.0
684.490967	40.0
685.063843	88.0
685.417114	80.0
686.473633	268.0
686.924866	68.0
687.434692	188.0
687.468262	288.0
687.608337	104.0
688.0625	40.0
688.360107	104.0
688.481323	144.0
688.877136	144.0
689.336914	164.0
689.629578	68.0
689.760254	80.0
690.487061	80.0
690.727661	76.0
690.81134	104.0
691.052002	96.0
691.09906	144.0
692.161621	92.0
694.755981	92.0
696.955811	80.0
703.301697	40.0
704.753967	48.0
705.150269	64.0
706.805481	116.0
708.441467	76.0
708.791138	48.0
709.480164	36.0
712.159851	56.0
715.179932	48.0
718.062317	44.0
718.275696	84.0
724.267639	88.0
725.291077	112.0
725.446533	104.0
728.338806	56.0
729.316711	96.0
731.452148	68.0
732.566772	44.0
732.841553	44.0
733.175659	64.0
733.531372	56.0
734.323975	76.0
734.755493	88.0
738.899292	92.0
739.364624	64.0
739.900513	132.0
740.479858	120.0
740.766968	64.0
741.536377	48.0
742.35498	72.0
743.711304	52.0
747.368652	92.0
747.455688	84.0
747.575378	88.0
751.171326	52.0
754.010559	76.0
754.63916	56.0
756.231018	108.0
757.506836	96.0
758.065674	88.0
759.820251	52.0
760.566528	100.0
761.477966	44.0
765.332886	88.0
766.241638	48.0
766.555725	76.0
767.029663	44.0
767.338379	56.0
773.276611	120.0
775.214905	84.0
777.549622	104.0
778.654419	72.0
781.634094	92.0
783.209656	32.0
784.251587	88.0
786.013855	92.0
786.661255	72.0
787.152588	100.0
787.236328	96.0
787.69989	76.0
789.538757	36.0
790.008606	56.0
791.193848	100.0
791.648499	92.0
794.271423	88.0
796.567261	44.0
801.749207	124.0
802.814636	124.0
804.99292	44.0
807.49646	80.0
807.750977	108.0
807.835815	52.0
808.775146	176.0
814.837158	52.0
815.502014	76.0
816.241089	56.0
818.249573	140.0
818.887329	64.0
825.255798	152.0
829.262939	136.0
831.4021	68.0
832.567505	88.0
833.251038	72.0
834.279724	128.0
834.695374	68.0
836.356323	48.0
837.363892	76.0
840.217224	156.0
842.312683	48.0
843.797913	40.0
844.16217	120.0
844.474426	112.0
845.353821	40.0
846.62738	120.0
847.525208	72.0
849.803894	92.0
849.972168	100.0
853.934082	184.0
854.99292	80.0
856.792175	68.0
860.425476	32.0
860.583069	64.0
860.921753	144.0
863.411316	40.0
865.55896	168.0
867.650635	72.0
879.261963	84.0
879.763672	64.0
880.86792	52.0
881.358276	64.0
882.812439	144.0
883.184998	52.0
883.75885	72.0
884.273682	216.0
884.930725	140.0
891.740723	108.0
892.751404	56.0
894.780396	88.0
898.469421	60.0
899.764465	80.0
904.307434	124.0
904.774353	48.0
906.673096	76.0
909.04187	52.0
910.836975	52.0
912.549744	64.0
913.41571	184.0
913.602173	64.0
915.299438	136.0
916.281189	44.0
916.678833	168.0
918.210083	68.0
919.199402	32.0
919.778809	144.0
920.944153	88.0
921.632812	176.0
922.345947	104.0
922.726807	192.0
922.799316	112.0
923.041199	244.0
923.156067	76.0
925.740051	124.0
927.478821	56.0
928.394287	192.0
930.73053	168.0
931.2771	144.0
932.881226	88.0
933.902771	172.0
937.214478	76.0
939.561768	100.0
942.577942	52.0
948.551208	84.0
948.649292	208.0
950.157898	172.0
951.047668	124.0
951.858032	72.0
954.07605	68.0
954.11908	172.0
955.699707	76.0
955.76123	104.0
957.441711	104.0
961.664917	180.0
962.232849	52.0
963.14679	56.0
964.258911	104.0
967.531128	176.0
971.354614	104.0
971.515869	88.0
971.881958	32.0
972.614258	52.0
974.800354	216.0
975.720215	120.0
976.217651	44.0
976.609497	36.0
978.824951	184.0
979.285828	80.0
980.263916	76.0
980.519409	80.0
982.246521	80.0
983.194885	164.0
983.662964	112.0
984.075012	88.0
984.886841	168.0
986.042725	160.0
988.550476	200.0
988.625549	96.0
990.253296	60.0
992.183228	140.0
995.546387	72.0
998.110168	76.0
998.562988	92.0
1001.678589	44.0
1003.06488	52.0
1003.291809	48.0
1005.246155	136.0
1008.164551	92.0
1009.934814	140.0
1011.168579	172.0
1014.227722	92.0
1015.00116	188.0
1016.14917	168.0
1016.999512	196.0
1019.342957	100.0
1019.768738	72.0
1019.927673	108.0
1024.120728	212.0
1024.56665	68.0
1025.012573	52.0
1026.281006	136.0
1027.499268	144.0
1030.806641	52.0
1033.990723	200.0
1035.278076	68.0
1035.989014	56.0
1037.392456	140.0
1037.924561	80.0
1038.104126	92.0
1039.765625	36.0
1039.817017	44.0
1040.683594	44.0
1041.184448	84.0
1041.608398	40.0
1042.475708	172.0
1043.864258	180.0
1045.195801	112.0
1048.621704	36.0
1049.001953	220.0
1049.060059	152.0
1050.697998	140.0
1055.011963	28.0
1057.567017	208.0
1058.279175	212.0
1058.974121	80.0
1066.498657	156.0
1067.18103	76.0
1068.155518	228.0
1068.605347	184.0
1070.408325	120.0
1070.727417	184.0
1071.756714	156.0
1071.893555	44.0
1074.142822	52.0
1074.619019	88.0
1076.538086	68.0
1076.792725	40.0
1077.517822	60.0
1078.243164	184.0
1079.92334	164.0
1080.721436	132.0
1080.786865	160.0
1081.886475	220.0
1082.495361	140.0
1085.942505	156.0
1086.13269	124.0
1086.755859	160.0
1089.244019	112.0
1089.894409	48.0
1091.011719	192.0
1093.952271	164.0
1095.130981	40.0
1095.545898	156.0
1096.356323	216.0
1096.923218	172.0
1099.178711	108.0
1099.297485	104.0
1099.653809	120.0
1100.386597	156.0
1101.106323	168.0
1101.251587	48.0
1103.064209	228.0
1104.358032	156.0
1105.026245	96.0
1106.071777	56.0
1107.833252	40.0
1108.257202	180.0
1108.601807	196.0
1109.324219	112.0
1109.702148	148.0
1111.406738	232.0
1112.24292	48.0
1112.714233	176.0
1112.807129	132.0
1113.358276	160.0
1113.677124	92.0
1114.846313	136.0
1117.017822	136.0
1119.829346	80.0
1120.249023	132.0
1126.078735	148.0
1126.165527	144.0
1126.3927	180.0
1126.446045	196.0
1128.103271	88.0
1128.156738	80.0
1128.745117	72.0
1130.772095	172.0
1130.932739	216.0
1131.200562	64.0
1131.769531	160.0
1132.044067	160.0
1132.781982	164.0
1133.16272	104.0
1134.147827	132.0
1134.563354	76.0
1134.831543	80.0
1135.260742	184.0
1136.354004	52.0
1136.66272	188.0
1136.77002	68.0
1139.213989	64.0
1141.862305	136.0
1144.197144	284.0
1145.914551	160.0
1146.568237	92.0
1148.118774	56.0
1149.879639	64.0
1150.129272	104.0
1151.398682	68.0
1151.560669	152.0
1151.803833	92.0
1152.837524	148.0
1153.13855	248.0
1153.229614	132.0
1153.283691	156.0
1154.236816	176.0
1154.804932	112.0
1156.6521	64.0
1156.970215	72.0
1158.710693	164.0
1158.988525	80.0
1159.205322	188.0
1159.693359	84.0
1159.761108	160.0
1159.971191	228.0
1163.240845	224.0
1164.94519	168.0
1165.047119	244.0
1165.434448	148.0
1167.426025	40.0
1167.500854	132.0
1168.480347	140.0
1168.766113	124.0
1168.956665	184.0
1169.024658	196.0
1169.21521	164.0
1170.134155	184.0
1170.213257	188.0
1170.542725	168.0
1171.121582	152.0
1171.223755	180.0
1171.8573	192.0
1171.99353	184.0
1172.286499	116.0
1174.229492	72.0
1175.19812	108.0
1176.283203	124.0
1176.911255	88.0
1177.361938	152.0
1179.322754	80.0
1179.890137	96.0
1180.076416	164.0
1180.13623	204.0
1183.050781	96.0
1183.310913	132.0
1184.324341	136.0
1185.372559	40.0
1187.388062	64.0
1187.785889	224.0
1188.369019	96.0
1189.913208	224.0
1191.060059	64.0
1191.517578	148.0
1191.657715	64.0
1191.925659	172.0
1194.620728	76.0
1197.539185	196.0
1199.316895	116.0
1199.50293	168.0
1201.013062	140.0
1201.28894	164.0
1201.875366	200.0
1203.172974	64.0
1203.276489	156.0
1203.621704	200.0
1203.884155	152.0
1205.54895	128.0
1206.378296	92.0
1206.613403	176.0
1206.758545	32.0
1207.505371	96.0
1208.439209	40.0
1210.190308	112.0
1210.591919	164.0
1210.709717	120.0
1210.792725	180.0
1211.312256	196.0
1212.38623	148.0
1212.767334	180.0
1212.926758	132.0
1213.03772	72.0
1213.190186	200.0
1214.160889	60.0
1214.209473	32.0
1215.104248	108.0
1216.096558	60.0
1216.388062	60.0
1216.596313	120.0
1217.165649	80.0
1221.217163	148.0
1223.109741	184.0
1224.356079	176.0
1224.564941	228.0
1225.735352	48.0
1226.669189	112.0
1227.06665	184.0
1228.147461	220.0
1229.23584	152.0
1229.947632	152.0
1230.122192	200.0
1230.959961	80.0
1232.070557	108.0
1232.475708	136.0
1233.440186	196.0
1233.754761	212.0
1233.908569	156.0
1234.076294	232.0
1235.223267	144.0
1235.621948	40.0
1236.272705	164.0
1237.021606	100.0
1237.378662	104.0
1239.858276	120.0
1240.390991	184.0
1241.183228	168.0
1241.337402	104.0
1243.463135	128.0
1244.108887	208.0
1244.761841	116.0
1244.874146	196.0
1245.183105	140.0
1245.414917	220.0
1249.055908	140.0
1249.658813	156.0
1250.09021	180.0
1251.181152	64.0
1251.505005	124.0
1252.84314	68.0
1252.941772	116.0
1253.089722	176.0
1253.709717	40.0
1254.978638	124.0
1255.183105	44.0
1255.824829	128.0
1257.052368	120.0
1257.115845	100.0
1257.2146	116.0
1258.252197	152.0
1258.472656	200.0
1259.74939	168.0
1260.667847	216.0
1261.685669	200.0
1262.230103	128.0
1262.611938	220.0
1262.725098	88.0
1263.821655	156.0
1265.272461	132.0
1265.654785	260.0
1265.88855	184.0
1265.93811	160.0
1266.001831	128.0
1266.072632	180.0
1266.157593	140.0
1267.616943	144.0
1268.501587	152.0
1269.474243	216.0
1270.247314	116.0
1271.82251	76.0
1272.780884	64.0
1273.114624	80.0
1273.746704	168.0
1273.924316	44.0
1274.265381	164.0
1274.784058	128.0
1275.487671	96.0
1275.764893	180.0
1277.414673	132.0
1277.93396	176.0
1278.083374	48.0
1278.34668	92.0
1279.065552	120.0
1279.25769	160.0
1280.553589	256.0
1280.603516	116.0
1280.824341	188.0
1281.451172	248.0
1281.522461	176.0
1282.213623	124.0
1282.26355	168.0
1284.147339	104.0
1284.452393	172.0
1284.509521	196.0
1284.880493	68.0
1287.378662	160.0
1287.62146	168.0
1287.678589	192.0
1287.771484	140.0
1288.035767	188.0
1288.592896	184.0
1288.97876	152.0
1289.364624	192.0
1291.32019	116.0
1291.566772	76.0
1292.926147	52.0
1293.233887	136.0
1293.806519	168.0
1294.422241	40.0
1294.479614	212.0
1295.016724	60.0
1296.664551	252.0
1297.022949	184.0
1297.947754	164.0
1299.812744	120.0
1300.487305	172.0
1302.066772	104.0
1302.533691	108.0
1302.612671	120.0
1303.165894	84.0
1303.683228	88.0
1303.826904	204.0
1304.596069	144.0
1305.235962	164.0
1305.875977	184.0
1306.285889	120.0
1306.53772	180.0
1307.127686	128.0
1307.869019	128.0
1308.409546	136.0
1309.604248	128.0
1310.065186	88.0
1310.223633	48.0
1310.288574	224.0
1310.627197	176.0
1311.434326	100.0
1312.256958	156.0
1312.501221	156.0
1312.876221	148.0
1313.121338	212.0
1313.272827	144.0
1313.438721	104.0
1313.813843	152.0
1314.939453	124.0
1315.986206	180.0
1317.271729	64.0
1317.488403	136.0
1318.469604	152.0
1318.66626	176.0
1319.049316	160.0
1321.710693	172.0
1323.245117	44.0
1323.766479	160.0
1323.929932	124.0
1325.331055	96.0
1325.483276	140.0
1325.613647	56.0
1326.1427	88.0
1326.613525	176.0
1327.135864	48.0
1327.433105	152.0
1327.607178	160.0
1327.78125	68.0
1329.203003	148.0
1329.471558	176.0
1330.663452	176.0
1331.359009	200.0
1332.17981	132.0
1333.240601	136.0
1333.400513	144.0
1334.280029	228.0
1335.261597	52.0
1335.450806	176.0
1335.545288	168.0
1336.338257	148.0
1336.942139	144.0
1337.175049	80.0
1337.699097	216.0
1338.5	204.0
1338.572754	164.0
1338.864136	144.0
1339.119019	120.0
1339.228271	272.0
1339.461304	164.0
1340.233521	36.0
1340.823853	212.0
1341.078857	212.0
1341.62561	148.0
1341.822388	204.0
1342.959961	52.0
1343.689453	208.0
1344.324219	60.0
1344.769409	100.0
1346.602051	108.0
1346.704224	168.0
1347.580933	72.0
1348.954834	208.0
1349.115601	192.0
1349.510376	140.0
1349.737061	68.0
1350.885254	180.0
1351.326782	200.0
1351.499878	108.0
1352.619507	144.0
1352.809937	136.0
1353.007568	100.0
1353.175903	240.0
1353.534668	176.0
1354.062012	152.0
1354.274414	128.0
1354.582031	224.0
1355.395264	100.0
1356.164673	192.0
1356.567871	188.0
1356.663208	160.0
1356.994019	272.0
1357.432983	184.0
1357.902344	184.0
1358.026978	204.0
1358.173706	140.0
1358.81189	244.0
1358.892578	120.0
1359.611694	96.0
1359.883301	208.0
1360.235596	176.0
1360.514526	76.0
1360.573242	148.0
1361.138672	208.0
1361.770142	80.0
1362.306396	52.0
1362.974976	200.0
1363.783325	48.0
1364.261108	144.0
1364.393433	140.0
1364.569946	160.0
1365.231689	44.0
1365.672974	100.0
1365.952515	148.0
1366.018677	108.0
1366.187866	192.0
1366.592529	208.0
1366.953003	172.0
1367.136963	164.0
1368.233765	176.0
1368.336792	96.0
1368.432495	236.0
1369.109985	156.0
1369.316162	172.0
1369.839111	136.0
1370.413696	152.0
1370.678955	144.0
1370.93689	148.0
1371.1875	160.0
1371.327515	192.0
1371.4823	132.0
1371.990967	168.0
1372.831421	172.0
1373.782959	224.0
1374.151733	60.0
1375.000366	108.0
1375.125854	64.0
1375.192261	224.0
1375.568726	124.0
1375.937866	160.0
1376.491577	128.0
1376.557983	136.0
1377.244873	128.0
1377.45166	164.0
1379.032959	252.0
1380.237915	84.0
1380.674194	80.0
1380.733398	32.0
1380.888672	56.0
1381.236328	152.0
1382.124023	204.0
1382.510742	208.0
1383.811646	120.0
1383.984619	76.0
1384.652588	204.0
1384.826172	156.0
1385.255737	216.0
1386.137451	128.0
1386.641357	44.0
1386.715454	112.0
1387.004517	104.0
1387.975708	200.0
1388.287109	156.0
1390.20105	60.0
1391.982666	112.0
1393.289795	240.0
1393.851196	180.0
1393.973389	88.0
1394.434204	156.0
1394.545654	140.0
1395.422852	104.0
1395.682983	128.0
1395.995361	104.0
1396.300293	48.0
1396.352295	104.0
1396.515991	32.0
1396.575439	204.0
1396.694458	96.0
1396.761353	124.0
1397.006836	44.0
1397.929443	140.0
1398.249512	52.0
1398.383423	128.0
1399.343628	228.0
1399.44043	120.0
1399.827637	156.0
1400.408569	188.0
1401.227905	204.0
1401.645264	56.0
1401.749512	128.0
1401.950684	88.0
1402.099731	204.0
1403.456787	184.0
1403.608032	112.0
1403.665283	136.0
1403.956055	192.0
1404.202148	96.0
1404.396118	212.0
1405.522583	64.0
1405.731567	152.0
1406.022583	140.0
1406.761475	48.0
1407.000366	120.0
1407.201904	160.0
1407.79187	116.0
1407.985962	152.0
1408.57605	168.0
1408.665649	156.0
1408.843872	132.0
1409.123535	136.0
1409.651855	116.0
1410.033081	144.0
1410.518799	136.0
1410.832764	164.0
1411.468262	152.0
1411.588013	292.0
1411.722534	180.0
1412.25354	164.0
1413.106323	164.0
1413.704956	120.0
1413.906982	172.0
1413.996826	128.0
1414.588135	204.0
1415.419189	140.0
1415.682617	128.0
1415.81604	128.0
1416.130615	148.0
1416.235474	168.0
1416.677734	100.0
1416.988647	152.0
1417.18689	60.0
1417.366699	128.0
1417.553955	88.0
1417.733887	140.0
1417.896484	164.0
1418.595825	188.0
1419.637939	144.0
1421.14563	32.0
1421.243164	120.0
1421.56189	208.0
1421.903564	116.0
1422.008667	92.0
1422.316406	128.0
1422.421509	204.0
1422.86438	144.0
1423.254761	144.0
1423.735352	184.0
1424.223511	160.0
1424.606689	120.0
1425.012329	176.0
1425.185181	168.0
1425.485718	48.0
1425.651001	72.0
1425.823853	236.0
1425.876465	104.0
1426.045776	160.0
1426.154541	96.0
1426.462769	120.0
1426.628174	68.0
1427.402466	184.0
1428.320068	192.0
1428.432861	164.0
1429.877563	100.0
1430.148438	128.0
1430.637695	328.0
1430.795776	144.0
1431.093384	180.0
1431.27771	188.0
1432.075928	36.0
1432.196411	176.0
1432.557983	128.0
1432.969604	172.0
1433.846436	180.0
1434.87915	120.0
1435.301392	132.0
1435.73877	180.0
1436.221436	112.0
1436.726807	220.0
1437.654907	176.0
1438.085083	156.0
1438.575684	104.0
1438.787109	140.0
1439.32312	160.0
1439.436401	208.0
1439.542114	108.0
1440.274658	172.0
1440.539062	192.0
1441.007446	176.0
1441.083008	76.0
1442.046997	232.0
1442.216553	184.0
1442.337524	152.0
1442.473511	168.0
1443.252197	132.0
1443.327881	196.0
1443.789185	120.0
1445.029663	96.0
1446.172363	60.0
1447.042847	104.0
1447.186768	136.0
1447.504761	168.0
1448.356323	192.0
1448.693848	164.0
1449.633301	192.0
1449.79248	180.0
1449.966797	132.0
1450.467041	212.0
1450.593872	164.0
1450.619385	120.0
1450.63623	176.0
1450.800537	160.0
1451.118896	204.0
1451.80896	168.0
1451.862061	56.0
1451.998535	176.0
1452.42334	128.0
1452.761353	140.0
1454.289795	184.0
1454.608643	96.0
1454.80603	176.0
1455.269165	184.0
1455.466553	80.0
1457.578125	100.0
1457.768066	184.0
1457.988525	136.0
1458.505371	144.0
1458.740967	92.0
1459.060303	160.0
1459.698975	128.0
1459.828247	136.0
1460.147583	324.0
1460.292114	88.0
1462.993408	216.0
1463.66333	64.0
1463.716675	164.0
1463.777588	124.0
1463.896118	188.0
1464.478149	128.0
1464.699097	200.0
1465.544678	152.0
1465.765625	176.0
1466.390625	136.0
1466.710693	200.0
1467.282471	80.0
1467.511108	140.0
1467.586304	192.0
1467.755127	144.0
1468.113525	116.0
1468.571167	172.0
1469.120361	132.0
1470.379272	116.0
1471.280029	224.0
1471.41748	224.0
1472.174072	184.0
1472.32605	132.0
1472.379517	296.0
1472.601074	116.0
1473.601685	136.0
1474.165283	168.0
1474.862671	192.0
1476.009399	88.0
1477.409058	160.0
1478.291992	160.0
1478.457275	108.0
1478.564331	216.0
1478.893433	68.0
1479.888672	116.0
1480.60083	108.0
1482.056274	172.0
1482.355103	168.0
1482.903564	64.0
1483.08313	44.0
1483.45105	188.0
1483.926392	64.0
1483.987671	72.0
1484.102783	184.0
1484.570435	156.0
1485.0	148.0
1485.115723	184.0
1485.613647	132.0
1485.828369	128.0
1485.932495	220.0
1486.309814	124.0
1486.703125	56.0
1486.956421	132.0
1487.140625	128.0
1487.332397	96.0
1488.000366	108.0
1488.307373	192.0
1488.683716	44.0
1490.642578	164.0
1490.857666	160.0
1491.567749	148.0
1491.933716	136.0
1492.049072	136.0
1492.249023	152.0
1492.841064	56.0
1493.296143	140.0
1494.125488	188.0
1494.194824	156.0
1494.371704	160.0
1494.594849	124.0
1494.841064	164.0
1495.482178	92.0
1495.957031	120.0
1496.049438	144.0
1496.141846	172.0
1496.408691	164.0
1496.796265	164.0
1497.142822	140.0
1497.920654	208.0
1498.176147	208.0
1498.467651	148.0
1498.706543	124.0
1499.284424	188.0
1499.338379	116.0
1499.726685	180.0
1499.954956	248.0
1500.263306	172.0
1500.710449	160.0
1500.903198	92.0
1501.196289	208.0
1501.481567	112.0
1501.620483	184.0
1501.720703	168.0
1501.998413	120.0
1502.792969	100.0
1502.947266	168.0
1503.132446	140.0
1503.950562	160.0
1504.662842	220.0
1505.208862	116.0
END IONS

BEGIN IONS
PEPMASS=301.17
CHARGE=1
MSLEVEL=2
SOURCE_INSTRUMENT=LC-ESI-qTof
FILENAME=p5-G03_GG3_01_18472.mzXML
SEQ=*..*
IONMODE=Positive
ORGANISM=GNPS-NIH-SMALLMOLECULEPHARMACOLOGICALLYACTIVE
NAME=MLS002154093-01!Azapropazone13539-59-8 M+H
PI=Dorrestein
DATACOLLECTOR=VP/LMS
SMILES=CCCC1C(=O)N2N(C1=O)c3cc(C)ccc3N=C2N(C)C
INCHI=N/A
INCHIAUX=N/A
PUBMED=N/A
SUBMITUSER=vphelan
LIBRARYQUALITY=1
SPECTRUMID=CCMSLIB00000086152
USI=mzspec:GNPS:GNPS-NIH-SMALLMOLECULEPHARMACOLOGICALLYACTIVE:accession:CCMSLIB00000086152
SCANS=1449
44.998653	112.0
45.157673	156.0
45.244652	184.0
45.448372	196.0
45.47924	148.0
45.523544	72.0
45.586681	164.0
45.725201	140.0
45.737312	136.0
45.770969	172.0
45.884148	196.0
45.923252	148.0
46.221813	136.0
46.320648	116.0
46.353161	120.0
46.434502	96.0
46.500984	176.0
46.646992	164.0
46.780991	100.0
46.884506	168.0
46.929489	108.0
46.990868	168.0
47.139698	136.0
47.352886	144.0
47.405174	192.0
47.649414	176.0
47.689262	140.0
47.930096	48.0
48.018322	224.0
48.157722	144.0
48.427433	140.0
48.57436	184.0
48.62431	84.0
48.640965	176.0
48.729622	176.0
48.794895	184.0
48.916199	204.0
49.035984	200.0
49.181038	160.0
49.24387	160.0
49.46759	124.0
49.652546	144.0
49.88422	128.0
49.933434	184.0
50.092484	72.0
50.24897	40.0
50.323956	216.0
50.356251	156.0
50.377567	220.0
50.518803	212.0
50.648117	136.0
50.673119	128.0
50.688705	148.0
50.705711	152.0
50.718464	196.0
50.786526	132.0
50.847534	88.0
51.374008	176.0
51.676888	132.0
51.894592	176.0
51.995003	220.0
52.025146	192.0
52.3634	184.0
52.521599	148.0
52.576427	172.0
52.626949	140.0
52.674606	196.0
52.739632	120.0
52.837963	52.0
53.092899	64.0
53.197365	212.0
53.259808	116.0
53.272881	212.0
53.447346	172.0
53.598778	148.0
53.789833	116.0
53.924923	144.0
54.009014	56.0
54.278484	164.0
54.332752	176.0
54.434029	152.0
54.657459	148.0
54.742836	100.0
54.821075	108.0
55.021511	228.0
55.188465	244.0
55.321617	112.0
55.397141	220.0
55.561695	124.0
55.585434	228.0
55.60918	40.0
55.903442	176.0
55.915348	184.0
56.13583	172.0
56.304462	172.0
56.377666	180.0
56.424004	112.0
56.450077	164.0
56.62751	196.0
56.823883	192.0
56.918076	180.0
56.986034	160.0
57.140896	172.0
57.205605	152.0
57.326099	196.0
57.351719	188.0
57.384884	212.0
57.549343	180.0
57.694382	156.0
57.715549	212.0
57.727646	220.0
58.006229	192.0
58.035034	168.0
58.11087	80.0
58.201939	212.0
58.334114	160.0
58.413189	168.0
58.458832	192.0
58.512104	124.0
58.798676	140.0
58.884174	188.0
59.017204	220.0
59.387722	212.0
59.621086	124.0
59.659515	92.0
59.747173	176.0
60.237396	160.0
60.475521	184.0
60.693954	168.0
60.754444	144.0
60.852215	184.0
60.922104	172.0
61.166245	144.0
61.618492	176.0
61.77639	168.0
61.81081	68.0
61.926388	164.0
61.956417	208.0
62.152401	48.0
62.213612	172.0
62.320408	152.0
62.452461	188.0
62.630322	324.0
62.805283	124.0
62.824211	120.0
63.0481	156.0
63.190735	128.0
63.401337	160.0
63.648804	140.0
63.77113	200.0
63.831539	148.0
63.914253	180.0
63.93494	176.0
64.038429	164.0
64.113304	164.0
64.178665	144.0
64.194962	164.0
64.277557	124.0
64.882149	132.0
65.063545	168.0
65.118027	112.0
65.27713	204.0
65.512115	232.0
65.529839	160.0
65.566902	180.0
65.662018	180.0
65.782463	236.0
65.957489	100.0
65.981743	92.0
66.122467	108.0
66.248764	200.0
66.443306	68.0
66.54393	204.0
66.555298	144.0
66.657959	196.0
66.717766	112.0
66.789314	216.0
66.974876	128.0
67.046562	160.0
67.212898	180.0
67.227585	128.0
67.302673	100.0
67.624718	148.0
68.013176	104.0
68.062431	164.0
68.12854	188.0
68.154411	220.0
68.262901	160.0
68.356667	60.0
68.4011	128.0
68.549332	120.0
68.567459	168.0
68.582291	204.0
68.689468	36.0
68.844612	220.0
69.06443	164.0
69.234901	160.0
69.264709	160.0
69.316795	128.0
69.383568	172.0
69.475243	192.0
69.672798	40.0
69.687752	84.0
69.734276	48.0
69.837364	144.0
69.853996	180.0
70.132072	192.0
70.175415	176.0
70.322212	84.0
70.3339	152.0
70.440765	140.0
70.480492	216.0
70.733398	132.0
70.8657	84.0
70.909271	256.0
71.253265	156.0
71.285187	108.0
71.387733	228.0
71.399506	52.0
71.505493	208.0
71.625038	196.0
71.645248	216.0
71.785149	212.0
71.834061	140.0
72.121117	188.0
72.264862	184.0
72.698647	192.0
72.73259	136.0
72.744469	172.0
72.92112	136.0
73.050346	52.0
73.189903	140.0
73.234184	36.0
73.350052	88.0
73.363686	160.0
73.498421	140.0
73.634995	172.0
73.651932	96.0
73.817848	176.0
73.961563	160.0
74.081429	232.0
74.098564	60.0
74.386673	136.0
74.510315	140.0
74.572174	104.0
74.744148	140.0
74.795776	164.0
75.043854	168.0
75.055923	68.0
75.185303	192.0
75.477242	132.0
75.629486	224.0
75.651985	100.0
75.710854	172.0
76.09407	168.0
76.352982	192.0
76.525253	164.0
76.596649	128.0
77.172562	232.0
77.200539	144.0
77.286255	240.0
77.373764	168.0
77.4841	196.0
77.619057	128.0
77.738342	120.0
77.803444	216.0
77.954338	180.0
78.015854	56.0
78.211113	116.0
78.734344	156.0
78.917145	204.0
79.003426	184.0
79.067123	168.0
79.16803	204.0
79.230026	172.0
79.355858	60.0
79.519638	184.0
79.545685	192.0
79.650642	188.0
79.771286	48.0
79.89399	184.0
80.056976	204.0
80.098701	196.0
80.617897	152.0
80.719788	128.0
80.870071	112.0
81.081406	224.0
81.230225	176.0
81.562424	136.0
81.706284	244.0
81.762062	184.0
82.281197	164.0
82.441956	128.0
82.733162	116.0
82.883484	160.0
83.13736	168.0
83.277153	124.0
83.43161	180.0
83.569832	184.0
83.689957	176.0
83.93412	176.0
84.076408	160.0
84.193253	184.0
84.207863	176.0
84.224297	148.0
84.740181	120.0
84.849411	264.0
85.042755	228.0
85.128502	228.0
85.369781	224.0
85.487511	232.0
85.499619	212.0
85.518799	148.0
85.638481	236.0
85.9076	144.0
85.970337	52.0
86.214104	144.0
86.30838	160.0
86.332413	168.0
86.500786	140.0
86.693405	136.0
86.778671	120.0
87.017517	136.0
87.066292	148.0
87.084862	112.0
87.227936	148.0
87.436256	180.0
87.518158	152.0
87.552475	216.0
87.601967	184.0
87.620598	144.0
87.717506	152.0
87.825653	148.0
87.890945	192.0
88.012276	224.0
88.124344	160.0
88.19162	44.0
88.363663	136.0
88.432899	128.0
88.507782	168.0
88.547104	156.0
88.630844	160.0
88.710121	32.0
88.736366	252.0
88.803871	140.0
89.03952	384.0
89.367439	172.0
89.388138	236.0
89.546272	92.0
89.808258	108.0
89.872398	180.0
90.255836	176.0
90.293655	140.0
90.314461	152.0
90.357971	128.0
90.51886	224.0
90.759506	200.0
90.782257	40.0
90.905563	140.0
91.057838	152.0
91.213242	156.0
91.439583	160.0
91.481461	120.0
91.502403	184.0
91.544289	184.0
91.614761	164.0
91.738632	172.0
91.885475	132.0
92.053444	184.0
92.075348	128.0
92.124115	152.0
92.164238	184.0
92.177612	36.0
92.229179	212.0
92.248329	28.0
92.261711	148.0
92.334373	96.0
92.372627	368.0
92.602318	100.0
92.715347	136.0
92.757515	84.0
92.801613	196.0
92.889832	160.0
93.054558	196.0
93.125923	152.0
93.156654	60.0
93.587456	232.0
93.618263	160.0
93.849503	220.0
94.042412	172.0
94.064896	360.0
94.117699	148.0
94.284821	152.0
94.324417	128.0
94.632019	136.0
94.67849	160.0
94.959511	228.0
94.986664	128.0
95.077858	216.0
95.229294	104.0
95.264252	152.0
95.328369	180.0
95.345863	228.0
95.573593	184.0
95.668747	176.0
95.731049	156.0
95.76416	92.0
95.803406	136.0
95.882271	160.0
96.06044	80.0
96.202888	156.0
96.245842	68.0
96.355217	164.0
96.453506	216.0
96.492027	156.0
96.613281	192.0
96.67981	168.0
96.756142	188.0
96.87365	68.0
96.914787	148.0
97.099052	76.0
97.33847	128.0
97.635208	144.0
97.72963	144.0
97.948151	200.0
98.005287	188.0
98.129456	92.0
98.565666	136.0
98.61705	232.0
98.87812	172.0
98.973137	40.0
99.040474	128.0
99.118988	192.0
99.138809	208.0
99.200974	124.0
99.248558	160.0
99.323921	224.0
99.518402	196.0
99.572021	200.0
99.661415	52.0
99.715065	228.0
99.730965	176.0
99.77636	144.0
99.943756	216.0
99.957687	140.0
99.98555	40.0
100.108978	180.0
100.166733	48.0
100.208572	56.0
100.45179	44.0
100.569511	200.0
100.703285	188.0
100.735245	148.0
100.835152	148.0
100.909119	92.0
101.031113	200.0
101.191216	232.0
101.327408	172.0
101.602074	148.0
101.620125	128.0
101.64621	144.0
101.678322	160.0
101.702408	152.0
102.051285	144.0
102.204819	188.0
102.377937	168.0
102.734695	180.0
102.758904	176.0
103.04303	176.0
103.057724	156.0
103.518913	76.0
103.71138	248.0
103.869347	212.0
103.983162	200.0
104.047417	360.0
104.090752	212.0
104.107002	56.0
104.171997	68.0
104.218719	60.0
104.316277	196.0
104.491173	164.0
104.676392	188.0
104.808792	72.0
104.866051	164.0
105.0485	580.0
105.073853	264.0
105.179962	68.0
105.239166	116.0
105.253464	228.0
105.562019	160.0
105.662239	88.0
105.77684	140.0
105.803452	264.0
105.920181	132.0
105.993935	76.0
106.045166	176.0
106.06517	784.0
106.104614	64.0
106.213303	156.0
106.24202	52.0
106.402092	148.0
106.457535	212.0
106.562294	204.0
106.590294	236.0
106.65477	200.0
106.675323	148.0
106.85218	228.0
106.981834	148.0
107.011162	196.0
107.039482	196.0
107.071655	152.0
107.352707	140.0
107.466156	176.0
107.542511	192.0
107.672585	160.0
107.742813	144.0
107.858536	168.0
107.91642	248.0
107.932961	192.0
107.978462	180.0
108.046722	136.0
108.371773	156.0
108.531372	172.0
108.618469	92.0
109.03373	176.0
109.060745	196.0
109.177177	156.0
109.476845	152.0
109.518501	200.0
109.837418	180.0
109.858276	92.0
110.374016	128.0
110.413879	112.0
110.790649	192.0
110.843025	184.0
110.884941	112.0
110.918472	180.0
111.025406	116.0
111.041351	332.0
111.14917	152.0
111.3339	132.0
111.468346	236.0
111.495667	76.0
111.659653	164.0
111.846909	224.0
111.895325	156.0
111.95639	88.0
112.025894	208.0
112.274612	144.0
112.333672	136.0
112.352654	120.0
112.380081	132.0
112.60807	124.0
112.686226	64.0
112.722153	76.0
112.798233	168.0
112.825714	244.0
112.870117	156.0
112.988564	168.0
113.058647	160.0
113.07914	104.0
113.174812	144.0
113.49688	244.0
113.530807	40.0
113.562622	52.0
113.709015	168.0
113.728119	40.0
113.931969	180.0
114.031845	160.0
114.093483	192.0
114.129631	76.0
114.546761	104.0
114.668213	212.0
114.934776	180.0
115.099136	60.0
115.210197	224.0
115.321312	148.0
115.539421	160.0
115.695648	124.0
115.78344	60.0
115.854126	132.0
115.961266	232.0
116.049171	1164.0
116.186417	56.0
116.310883	104.0
116.423019	192.0
116.457794	236.0
116.477272	196.0
116.557854	112.0
116.798645	168.0
116.977242	176.0
117.055237	624.0
117.085144	248.0
117.192604	136.0
117.313301	128.0
117.375824	152.0
117.785873	184.0
117.950096	200.0
118.064308	1100.0
118.125252	68.0
118.302696	144.0
118.499779	236.0
118.549614	204.0
118.599464	160.0
118.896599	132.0
119.065361	644.0
119.274513	52.0
119.348434	140.0
119.418022	144.0
119.485451	72.0
119.639969	116.0
119.772804	160.0
120.043037	1088.0
120.071632	232.0
120.248123	152.0
120.280869	56.0
120.392212	180.0
120.512352	40.0
120.794373	212.0
120.849068	164.0
120.87751	188.0
120.909607	96.0
121.048965	152.0
121.076508	1016.0
121.105194	128.0
121.234459	176.0
121.629242	180.0
121.679733	152.0
122.042259	180.0
122.05735	148.0
122.078354	476.0
122.134621	144.0
122.198418	116.0
122.625618	120.0
122.654274	104.0
122.819649	96.0
122.8395	148.0
123.223633	200.0
123.245728	128.0
123.54641	120.0
123.705742	188.0
123.869606	188.0
123.971527	200.0
124.062401	76.0
124.086174	232.0
124.290581	144.0
124.501732	148.0
124.808388	104.0
124.868431	184.0
125.057549	60.0
125.233444	48.0
125.264626	156.0
125.384941	140.0
125.442894	112.0
125.855629	116.0
126.061134	64.0
126.208664	248.0
126.526375	80.0
126.555481	236.0
126.665215	140.0
126.694336	196.0
126.777237	128.0
127.026115	168.0
127.04924	168.0
127.057915	204.0
127.162987	112.0
127.655212	116.0
127.699959	140.0
127.821442	204.0
127.843948	96.0
127.909218	176.0
128.231308	180.0
128.452271	180.0
128.556061	164.0
128.701141	256.0
128.829269	196.0
128.915115	140.0
129.021149	172.0
129.044128	160.0
129.229431	192.0
129.745804	160.0
130.05632	372.0
130.179184	80.0
130.345001	40.0
130.426819	36.0
130.460922	156.0
130.749786	216.0
130.982025	276.0
131.059845	964.0
131.538422	164.0
131.64801	72.0
131.780487	168.0
132.041824	152.0
132.066193	1672.0
132.581375	164.0
132.748734	184.0
132.842758	156.0
132.975845	160.0
133.03093	160.0
133.075638	5048.0
133.169266	148.0
133.398483	112.0
133.90239	80.0
133.994537	172.0
134.046036	556.0
134.079758	624.0
134.208878	152.0
134.291901	116.0
134.372635	52.0
134.441864	60.0
134.993973	264.0
135.012482	128.0
135.047165	344.0
135.102325	176.0
135.125824	96.0
135.172104	132.0
135.385071	184.0
135.498566	164.0
136.4664	168.0
136.529175	176.0
136.594299	176.0
136.675919	148.0
136.843307	140.0
137.237076	136.0
137.376999	180.0
137.584702	200.0
137.608047	144.0
137.65007	52.0
137.706131	172.0
137.734146	156.0
137.801895	152.0
137.822922	220.0
137.854645	212.0
138.463898	184.0
138.508392	156.0
138.623199	160.0
138.667725	176.0
138.686478	36.0
138.702881	152.0
138.747421	160.0
139.045319	120.0
139.171204	256.0
139.188522	64.0
139.524506	164.0
139.700882	180.0
139.818527	188.0
140.157639	200.0
140.681213	124.0
140.740234	108.0
140.832336	188.0
140.922104	128.0
141.068375	144.0
141.09227	176.0
141.62233	216.0
141.653137	52.0
141.856918	60.0
142.063232	108.0
142.6474	140.0
142.944702	124.0
143.070602	188.0
143.24231	120.0
143.261368	104.0
143.325699	120.0
143.354294	60.0
143.657455	208.0
143.960205	164.0
144.019913	184.0
144.054352	1120.0
144.078461	316.0
144.120255	128.0
144.189545	156.0
144.304291	192.0
144.323425	148.0
144.404724	180.0
144.469315	204.0
144.548264	192.0
144.574585	60.0
144.746948	128.0
144.766098	172.0
144.905029	148.0
144.996094	56.0
145.040359	460.0
145.076263	16964.0
145.160843	116.0
145.219055	36.0
145.245438	60.0
145.324615	100.0
145.352997	192.0
145.39328	104.0
145.4254	72.0
145.477493	68.0
145.545898	208.0
145.67244	248.0
145.740585	160.0
145.937088	228.0
145.956314	264.0
146.00441	272.0
146.02124	140.0
146.038086	440.0
146.082047	17592.0
146.139114	172.0
146.218796	72.0
146.224487	76.0
146.293152	112.0
146.320938	100.0
146.358154	60.0
146.38945	96.0
146.450653	204.0
146.533981	44.0
146.647232	48.0
146.714722	116.0
146.748474	60.0
146.779831	144.0
146.859406	68.0
147.054535	3792.0
147.084045	3104.0
147.201736	52.0
147.233505	64.0
147.472687	92.0
147.53653	136.0
147.641922	112.0
147.716095	168.0
147.787064	184.0
147.849976	204.0
147.876602	32.0
148.01944	100.0
148.061249	452.0
148.086487	712.0
148.155075	132.0
148.172028	60.0
148.193832	108.0
148.306961	76.0
148.390152	136.0
148.460464	56.0
148.637558	76.0
148.754044	176.0
148.771042	220.0
149.070084	2200.0
149.098953	132.0
149.11441	84.0
149.259399	80.0
149.65686	204.0
150.048264	52.0
150.07254	264.0
150.109222	180.0
150.170197	88.0
150.409317	56.0
150.719467	128.0
150.775681	48.0
150.976151	232.0
151.078873	156.0
151.159607	76.0
151.360336	196.0
151.502396	164.0
151.703339	132.0
151.938766	160.0
152.012375	100.0
152.049194	168.0
152.066376	116.0
152.72731	176.0
153.959625	80.0
154.036194	104.0
154.456406	72.0
154.582581	116.0
154.679108	188.0
154.736038	160.0
154.770706	164.0
154.976288	76.0
155.030807	220.0
155.244003	148.0
155.375458	108.0
155.675797	96.0
155.799988	176.0
156.055969	184.0
156.322128	200.0
156.683167	76.0
157.06868	332.0
157.124435	168.0
157.334076	40.0
157.551346	152.0
157.656281	84.0
157.890625	76.0
158.041382	76.0
158.072098	444.0
158.359299	156.0
158.457001	128.0
158.93338	172.0
159.028748	64.0
159.078262	164.0
159.10405	148.0
159.272293	168.0
159.531113	96.0
159.646774	176.0
159.837952	64.0
159.886322	184.0
160.086899	6168.0
160.127975	188.0
160.215622	28.0
160.235779	60.0
160.447479	108.0
160.554337	180.0
161.070404	864.0
161.095779	1784.0
161.189529	60.0
161.288101	44.0
161.310852	48.0
161.394272	52.0
161.783905	176.0
161.844666	140.0
162.074493	272.0
162.107086	496.0
162.148651	56.0
162.272858	68.0
162.300751	164.0
162.374298	164.0
162.399658	84.0
162.440247	56.0
162.663544	100.0
162.77272	60.0
162.810806	128.0
162.899704	72.0
162.947357	148.0
163.055374	164.0
163.497208	92.0
163.784912	232.0
163.978561	64.0
164.108566	48.0
164.396805	64.0
164.705734	152.0
164.779816	192.0
165.068649	104.0
165.442947	136.0
165.447754	164.0
166.223923	236.0
166.349686	220.0
166.42157	112.0
166.64502	256.0
167.035782	136.0
167.065598	156.0
167.506851	196.0
167.524887	200.0
167.60733	116.0
167.905441	164.0
168.040497	264.0
168.075897	500.0
168.130814	160.0
168.262451	144.0
168.314102	152.0
168.743011	92.0
168.805054	112.0
169.079208	300.0
169.257904	144.0
169.441788	228.0
169.672455	200.0
169.770981	132.0
169.796921	104.0
169.879913	180.0
169.92662	164.0
169.968124	140.0
170.076996	372.0
170.588852	108.0
170.744858	204.0
170.997223	196.0
171.057175	180.0
171.086227	368.0
171.119568	44.0
171.239349	108.0
171.456482	164.0
171.810211	108.0
172.047699	144.0
172.092697	364.0
172.235718	52.0
173.074387	484.0
173.11116	240.0
173.253296	140.0
173.321411	112.0
173.609772	172.0
173.900986	136.0
174.099442	964.0
174.318558	196.0
174.355988	164.0
174.386887	132.0
174.525925	228.0
174.718201	144.0
174.742905	164.0
174.823456	204.0
174.870819	192.0
174.907669	168.0
174.967606	256.0
175.023514	80.0
175.051422	596.0
175.098434	12848.0
175.154633	168.0
175.233276	100.0
175.29483	136.0
175.338058	176.0
175.368622	56.0
175.402878	32.0
175.492523	44.0
175.545258	52.0
175.566345	48.0
175.59436	84.0
175.66922	32.0
175.708786	28.0
175.729889	52.0
175.761551	104.0
175.911987	64.0
175.938385	48.0
176.059845	200.0
176.103348	1912.0
176.157578	80.0
176.252686	148.0
176.413086	64.0
176.477356	76.0
176.741562	72.0
176.781555	112.0
176.89801	108.0
177.023773	144.0
177.059525	96.0
177.117798	536.0
177.20256	184.0
177.250259	128.0
177.425186	132.0
177.470261	120.0
177.495667	116.0
177.868195	56.0
177.905365	56.0
177.93457	40.0
178.083801	160.0
178.564331	120.0
178.66275	44.0
178.782486	220.0
178.838379	160.0
179.429749	268.0
179.456116	176.0
179.847336	260.0
179.967178	352.0
180.23848	84.0
180.569962	44.0
180.896393	60.0
181.035629	172.0
181.341034	64.0
181.392761	200.0
181.716461	112.0
181.905197	176.0
182.113754	84.0
182.226578	128.0
183.046967	184.0
183.088654	168.0
184.077042	148.0
184.10054	320.0
184.38501	184.0
185.055878	132.0
185.087738	256.0
185.105255	216.0
185.972137	76.0
186.05629	208.0
186.092361	208.0
186.144089	444.0
186.667633	156.0
187.076767	148.0
187.096771	1152.0
187.14653	84.0
187.606964	200.0
187.732391	96.0
187.7733	184.0
187.808746	56.0
187.942429	144.0
187.991547	128.0
188.0625	216.0
188.086823	320.0
188.101089	300.0
188.458481	168.0
188.543182	112.0
188.674194	108.0
188.705536	244.0
188.759949	68.0
188.782471	96.0
188.819305	92.0
188.837952	88.0
188.895889	224.0
188.963226	176.0
188.999863	148.0
189.031555	124.0
189.075485	292.0
189.113922	73244.0
189.193817	60.0
189.230957	148.0
189.25441	108.0
189.295486	72.0
189.321259	68.0
189.352997	56.0
189.38327	156.0
189.421478	76.0
189.439621	60.0
189.458191	148.0
189.505539	64.0
189.533371	52.0
189.565414	28.0
189.644516	112.0
189.692749	60.0
189.726837	92.0
189.758545	84.0
189.801208	72.0
189.844406	188.0
189.887436	164.0
189.911469	308.0
189.945663	52.0
189.977951	152.0
190.000809	80.0
190.054626	108.0
190.119492	19016.0
190.167877	128.0
190.204346	104.0
190.255203	72.0
190.28746	112.0
190.308655	88.0
190.332001	112.0
190.35672	108.0
190.386917	36.0
190.408203	64.0
190.434982	48.0
190.472061	44.0
190.499954	52.0
190.520874	124.0
190.585205	44.0
190.636093	160.0
190.65889	48.0
190.77536	68.0
190.815567	100.0
190.947571	32.0
191.005325	68.0
191.064529	108.0
191.089813	156.0
191.123428	1660.0
191.17041	96.0
191.200668	48.0
191.250214	116.0
191.303085	96.0
191.392242	104.0
191.437424	176.0
191.455704	104.0
191.503525	112.0
191.539337	76.0
191.594955	124.0
191.626129	112.0
191.648239	100.0
191.67157	56.0
191.751495	40.0
191.914139	56.0
191.972992	92.0
192.078369	44.0
192.126877	200.0
192.206512	68.0
192.350525	156.0
192.527969	80.0
192.55159	52.0
192.606827	88.0
192.744965	44.0
192.786407	52.0
193.228821	88.0
193.31459	124.0
193.519424	48.0
193.813034	80.0
194.789597	112.0
195.089783	136.0
195.17868	60.0
195.821518	84.0
196.078751	200.0
197.085236	164.0
198.082764	500.0
198.53244	36.0
198.681107	124.0
198.748444	132.0
199.082474	276.0
199.456146	76.0
199.920227	36.0
200.048569	160.0
200.054245	156.0
200.117294	180.0
200.353836	124.0
200.421448	40.0
200.661026	108.0
201.069489	272.0
201.106812	140.0
201.161591	204.0
201.262009	28.0
201.298706	100.0
201.456879	60.0
202.056213	48.0
202.091049	180.0
202.121292	108.0
203.087799	316.0
203.116989	972.0
203.234848	64.0
203.325653	64.0
204.115387	120.0
204.957947	152.0
205.325684	100.0
205.602417	132.0
205.762268	40.0
206.010727	80.0
209.245682	112.0
210.067017	212.0
210.100372	172.0
211.079071	248.0
211.118347	172.0
212.079544	216.0
212.099838	92.0
212.122025	216.0
212.212906	68.0
212.256393	200.0
212.772858	124.0
212.83963	40.0
213.105896	524.0
213.132996	132.0
213.199844	76.0
213.505096	52.0
214.056763	132.0
214.100082	132.0
214.87413	352.0
215.068329	168.0
215.093567	240.0
215.132919	160.0
216.063202	192.0
216.090347	184.0
216.11293	184.0
216.142197	244.0
216.654572	48.0
217.108505	468.0
217.138214	148.0
218.078568	156.0
218.127701	124.0
218.312927	84.0
218.545319	120.0
219.128281	176.0
220.597977	88.0
220.660049	56.0
221.083038	136.0
225.114349	200.0
225.876266	124.0
226.05278	136.0
227.05336	352.0
227.080353	140.0
228.077377	1228.0
228.14032	132.0
229.081863	548.0
230.113647	124.0
230.15535	336.0
230.681595	96.0
231.112717	444.0
231.150391	184.0
231.556046	60.0
231.800491	128.0
232.159149	100.0
232.820709	144.0
235.873627	112.0
235.980637	152.0
237.376877	52.0
238.067337	168.0
239.075668	144.0
239.097214	128.0
239.13414	220.0
239.901138	108.0
240.073792	124.0
240.110809	120.0
240.135483	180.0
240.209503	56.0
241.111084	120.0
241.695541	228.0
242.107254	112.0
243.093063	180.0
243.120987	144.0
244.09642	124.0
244.118179	156.0
244.211487	116.0
245.096817	196.0
245.18045	212.0
246.134308	104.0
246.171783	148.0
246.412292	192.0
249.021698	64.0
252.529663	56.0
252.567612	104.0
252.852371	116.0
253.105621	92.0
254.110382	152.0
254.351562	100.0
255.129837	172.0
255.162292	136.0
256.110565	316.0
256.160889	124.0
257.050415	156.0
257.10376	508.0
257.810455	56.0
258.115082	140.0
258.296417	36.0
259.124146	136.0
261.125427	140.0
261.833466	112.0
268.989502	248.0
269.109406	196.0
271.128571	328.0
271.158051	164.0
272.133606	124.0
272.145447	48.0
272.154053	124.0
273.165863	140.0
274.181671	180.0
276.476898	128.0
278.535858	112.0
280.505798	216.0
283.631195	40.0
284.137573	132.0
286.150726	176.0
287.310059	64.0
290.100037	100.0
291.145081	160.0
292.106964	76.0
301.166595	672.0
301.198395	216.0
301.809509	48.0
302.151917	208.0
302.293793	96.0
305.075439	108.0
305.322327	76.0
313.930481	140.0
324.817688	84.0
325.355957	56.0
333.930908	68.0
346.4039	44.0
353.608887	88.0
360.566711	92.0
380.063843	44.0
384.289337	64.0
389.641418	32.0
416.489685	48.0
450.859741	132.0
459.535004	64.0
464.463226	40.0
516.755432	60.0
517.629028	68.0
532.781128	108.0
575.149048	64.0
575.612183	96.0
632.58136	48.0
650.263733	60.0
655.318359	76.0
659.201416	48.0
675.391296	128.0
759.489563	32.0
785.365295	188.0
867.075256	64.0
894.237915	128.0
899.184692	36.0
909.569336	224.0
934.638306	36.0
946.057495	56.0
961.670715	212.0
972.204285	88.0
981.578918	188.0
983.537842	60.0
992.79126	36.0
993.625488	72.0
1007.248352	144.0
1010.820374	116.0
1012.111694	216.0
1021.421875	144.0
1022.242615	168.0
1023.662964	92.0
1023.993286	180.0
1028.20752	132.0
1033.293823	60.0
1069.152222	88.0
1075.095581	144.0
1077.766357	144.0
1082.665894	156.0
1084.710083	208.0
1087.701294	152.0
1094.28186	288.0
1094.762573	240.0
1109.987793	204.0
1118.86438	156.0
1121.175659	120.0
1123.829712	320.0
1126.299805	156.0
1127.215088	52.0
1134.389771	136.0
1135.603394	200.0
1136.307739	208.0
1137.703735	204.0
1139.60437	140.0
1159.978882	140.0
1161.25354	164.0
1166.57019	36.0
1167.188965	60.0
1167.535767	152.0
1172.519165	128.0
1172.703125	144.0
1177.724854	164.0
1180.246704	44.0
1181.402466	132.0
1181.785645	148.0
1181.888184	112.0
1182.812134	184.0
1183.038086	152.0
1189.214111	224.0
1192.950806	128.0
1193.150146	176.0
1196.913696	92.0
1199.014648	108.0
1199.469604	56.0
1199.938354	172.0
1202.14563	196.0
1209.596191	120.0
1211.38269	152.0
1215.091553	148.0
1216.292114	192.0
1220.516113	168.0
1220.988892	188.0
1221.072388	212.0
1224.378174	128.0
1234.637085	160.0
1235.028687	204.0
1236.666016	184.0
1248.058716	152.0
1251.421997	112.0
1253.196899	128.0
1256.334106	152.0
1261.842773	160.0
1262.542847	164.0
1263.200562	176.0
1265.734253	224.0
1267.26416	192.0
1267.958618	160.0
1270.589355	148.0
1273.052368	148.0
1273.215698	128.0
1273.982788	212.0
1277.928467	228.0
1281.923706	220.0
1284.5896	132.0
1285.096191	144.0
1285.324463	176.0
1286.437866	224.0
1287.858887	216.0
1290.152588	48.0
1291.425415	136.0
1292.376831	196.0
1293.879883	168.0
1295.254761	180.0
1297.074829	136.0
1297.540771	188.0
1298.300903	160.0
1299.19751	144.0
1300.661377	188.0
1304.065918	104.0
1305.273682	68.0
1308.137085	124.0
1308.223511	44.0
1310.023804	32.0
1313.231445	176.0
1313.476685	56.0
1313.931152	192.0
1317.230225	172.0
1317.483032	180.0
1319.470459	100.0
1319.96936	68.0
1320.584106	212.0
1322.95752	156.0
1323.268799	124.0
1323.717773	160.0
1323.768433	140.0
1334.347412	196.0
1335.554565	128.0
1337.264404	88.0
1339.193848	176.0
1340.935181	148.0
1341.49646	156.0
1343.421631	224.0
1344.983154	112.0
1345.297119	100.0
1345.457642	104.0
1347.480713	124.0
1347.575684	232.0
1347.670654	180.0
1348.35022	184.0
1351.180054	216.0
1351.297119	156.0
1353.310791	180.0
1357.794556	68.0
1357.992554	168.0
1360.355225	156.0
1360.714966	96.0
1361.250977	108.0
1362.154297	180.0
1363.947266	52.0
1364.248657	144.0
1365.954712	60.0
1366.020874	184.0
1367.86792	208.0
1368.199219	172.0
1370.7771	204.0
1371.263428	224.0
1373.932739	148.0
1376.944336	164.0
1378.111572	168.0
1378.547485	136.0
1379.855713	148.0
1381.549316	144.0
1384.236084	148.0
1384.776611	168.0
1385.347046	160.0
1386.110107	152.0
1390.693237	272.0
1390.849121	168.0
1392.809448	176.0
1394.169067	168.0
1394.800781	140.0
1396.042358	144.0
1397.291992	200.0
1398.423096	200.0
1398.810181	184.0
1399.197266	208.0
1400.105713	168.0
1400.716431	160.0
1402.385498	140.0
1403.056396	88.0
1405.696777	192.0
1407.174561	76.0
1407.921265	204.0
1408.989502	180.0
1409.17627	164.0
1410.596191	232.0
1411.79248	44.0
1412.26355	172.0
1412.712402	60.0
1419.940552	60.0
1420.098022	176.0
1420.37561	180.0
1421.343384	64.0
1423.15979	108.0
1424.984985	64.0
1425.37561	100.0
1426.893921	40.0
1429.473877	172.0
1432.169067	140.0
1432.801758	176.0
1433.698486	160.0
1435.854614	124.0
1436.601318	112.0
1439.884766	52.0
1441.652466	160.0
1443.292847	96.0
1443.49707	164.0
1446.197876	168.0
1448.42395	180.0
1449.211792	84.0
1449.446655	160.0
1449.99231	172.0
1450.947388	184.0
1452.547485	168.0
1452.926758	112.0
1454.262329	184.0
1457.109985	196.0
1460.660156	208.0
1464.267822	144.0
1469.039429	168.0
1469.825195	132.0
1470.229614	236.0
1470.618896	172.0
1472.581055	128.0
1475.614746	80.0
1477.243774	164.0
1477.626221	96.0
1478.452637	168.0
1479.00647	176.0
1480.305176	144.0
1481.086426	116.0
1483.523193	160.0
1483.975464	136.0
1484.075195	180.0
1486.023315	160.0
1488.141602	168.0
1488.325928	172.0
1489.35498	156.0
1489.608521	80.0
1491.191284	156.0
1491.275879	136.0
1491.391113	168.0
1491.983032	152.0
1492.559692	172.0
1494.182495	88.0
1495.005005	176.0
1495.852539	184.0
1497.677368	200.0
1498.047119	136.0
1499.017944	132.0
1499.1875	188.0
1500.16626	196.0
1500.798462	180.0
1501.56189	212.0
1502.85791	172.0
1503.714478	156.0
1503.768433	116.0
1503.915161	148.0
1504.671631	124.0
END IONS

BEGIN IONS
PEPMASS=222.112
CHARGE=1
MSLEVEL=2
SOURCE_INSTRUMENT=LC-ESI-Q-Exactive Plus Orbitrap Res 14k
FILENAME=Pesticide_Mix3_pos_14k.mzXML
SEQ=*..*
IONMODE=positive
ORGANISM=GNPS-COLLECTIONS-PESTICIDES-POSITIVE
NAME=Pesticide3_Carbofuran_C12H15NO3_Furadan M+H
PI=Dorrestein/Touboul
DATACOLLECTOR=lfnothias
SMILES=CC1(CC2=C(O1)C(=CC=C2)OC(=O)NC)C
INCHI=InChI=1S/C12H15NO3/c1-12(2)7-8-5-4-6-9(10(8)16-12)15-11(14)13-3/h4-6H,7H2,1-3H3,(H,13,14)
INCHIAUX=N/A
PUBMED=n/a
SUBMITUSER=mwang87
LIBRARYQUALITY=1
SPECTRUMID=CCMSLIB00001058220
USI=mzspec:GNPS:GNPS-COLLECTIONS-PESTICIDES-POSITIVE:accession:CCMSLIB00001058220
SCANS=2068
76.141777	45272.839844
77.038857	80884.78125
91.053825	1223731.0
93.069641	49509.773438
95.049309	456185.875
95.233231	89352.335938
107.049301	64230.382812
109.028351	254065.0625
109.065071	49958.078125
111.043976	379572.0
117.068993	53945.371094
117.960739	54302.234375
119.048653	478266.9375
119.085541	1680351.875
123.029228	298236.5
123.043526	53994360.0
135.04364	119450.046875
137.059204	3757757.0
137.07132	53747.921875
137.095688	211110.265625
147.080917	1413790.625
165.068451	239095.578125
165.090683	58669632.0
178.122223	236364.53125
180.065933	48137.382812
191.070435	59401.3125
222.111969	3910564.5
233.046356	83986.054688
END IONS

BEGIN IONS
PEPMASS=239.15
CHARGE=1
MSLEVEL=2
SOURCE_INSTRUMENT=LC-ESI-Q-Exactive Plus Orbitrap Res 14k
FILENAME=Pesticide_Mix3_pos_14k.mzXML
SEQ=*..*
IONMODE=positive
ORGANISM=GNPS-COLLECTIONS-PESTICIDES-POSITIVE
NAME=Pesticide3_Pirimicarb_C11H18N4O2_2-(Dimethylamino)-5,6-dimethyl-4-pyrimidinyl dimethylcarbamate M+H
PI=Dorrestein/Touboul
DATACOLLECTOR=lfnothias
SMILES=CC1=C(N=C(N=C1OC(=O)N(C)C)N(C)C)C
INCHI=InChI=1S/C11H18N4O2/c1-7-8(2)12-10(14(3)4)13-9(7)17-11(16)15(5)6/h1-6H3
INCHIAUX=N/A
PUBMED=n/a
SUBMITUSER=mwang87
LIBRARYQUALITY=1
SPECTRUMID=CCMSLIB00001058221
USI=mzspec:GNPS:GNPS-COLLECTIONS-PESTICIDES-POSITIVE:accession:CCMSLIB00001058221
SCANS=1416
72.044632	231273296.0
76.468025	243864.703125
83.024101	1014137.0
85.076332	6389312.0
97.205406	260310.53125
109.075676	2518434.75
112.272682	234905.75
113.674797	259030.625
115.367279	241030.671875
120.735817	248193.546875
137.071289	6173537.5
138.078476	916426.1875
143.313904	243731.734375
150.103073	3079464.75
166.097183	1409733.375
167.104782	1546105.375
182.128067	89337176.0
195.161041	8464543.0
239.150238	79714864.0
240.963501	274637.1875
END IONS

BEGIN IONS
PEPMASS=233.089
CHARGE=1
MSLEVEL=2
SOURCE_INSTRUMENT=LC-ESI-Q-Exactive Plus Orbitrap Res 14k
FILENAME=Pesticide_Mix3_pos_14k.mzXML
SEQ=*..*
IONMODE=positive
ORGANISM=GNPS-COLLECTIONS-PESTICIDES-POSITIVE
NAME=Pesticide3_Fluometuron_C10H11F3N2O_Urea, N,N-dimethyl-N'-[3-(trifluoromethyl)phenyl]- M+H
PI=Dorrestein/Touboul
DATACOLLECTOR=lfnothias
SMILES=CN(C)C(=O)NC1=CC=CC(=C1)C(F)(F)F
INCHI=InChI=1S/C10H11F3N2O/c1-15(2)9(16)14-8-5-3-4-7(6-8)10(11,12)13/h3-6H,1-2H3,(H,14,16)
INCHIAUX=N/A
PUBMED=n/a
SUBMITUSER=mwang87
LIBRARYQUALITY=1
SPECTRUMID=CCMSLIB00001058223
USI=mzspec:GNPS:GNPS-COLLECTIONS-PESTICIDES-POSITIVE:accession:CCMSLIB00001058223
SCANS=2224
70.477867	65744.703125
72.044632	65934772.0
73.455345	70667.289062
75.803871	71490.015625
81.776169	68501.320312
85.839111	69758.570312
99.985344	81808.34375
103.656792	69849.34375
141.164169	89374.640625
145.026443	117367.671875
147.969574	78657.226562
156.851227	72492.609375
160.03688	1337453.0
161.515961	88132.210938
168.026367	964942.5625
168.084396	68602.375
188.030762	1056995.125
213.08371	567894.0
224.084198	72175.375
231.094788	139963.234375
233.090378	43090752.0
END IONS

BEGIN IONS
PEPMASS=215.058
CHARGE=1
MSLEVEL=2
SOURCE_INSTRUMENT=LC-ESI-Q-Exactive Plus Orbitrap Res 14k
FILENAME=Pesticide_Mix3_pos_14k.mzXML
SEQ=*..*
IONMODE=positive
ORGANISM=GNPS-COLLECTIONS-PESTICIDES-POSITIVE
NAME=Pesticide3_Monolinuron_C9H11ClN2O2_Urea, N'-(4-chlorophenyl)-N-methoxy-N-methyl- M+H
PI=Dorrestein/Touboul
DATACOLLECTOR=lfnothias
SMILES=CN(C(=O)NC1=CC=C(C=C1)Cl)OC
INCHI=InChI=1S/C9H11ClN2O2/c1-12(14-2)9(13)11-8-5-3-7(10)4-6-8/h3-6H,1-2H3,(H,11,13)
INCHIAUX=N/A
PUBMED=n/a
SUBMITUSER=mwang87
LIBRARYQUALITY=1
SPECTRUMID=CCMSLIB00001058227
USI=mzspec:GNPS:GNPS-COLLECTIONS-PESTICIDES-POSITIVE:accession:CCMSLIB00001058227
SCANS=2268
72.044609	20313.820312
72.984077	16315.563477
73.20636	8871.984375
84.960289	11738.899414
85.502144	10545.475586
88.039482	237111.953125
90.033951	106978.054688
91.041512	11841.645508
98.999763	909171.0625
106.049927	103410.617188
108.539711	18319.353516
119.052322	19317.300781
119.060875	304235.375
120.067886	48729.132812
126.010353	8523930.0
127.018578	2019273.375
131.061295	52106.101562
134.250793	10162.110352
134.484222	10292.979492
141.021088	13590.787109
141.033798	64417.839844
147.05545	169245.546875
148.063538	5733618.5
154.005936	168784.0625
155.037231	14595.870117
174.80719	12022.936523
175.561569	13418.819336
183.031326	481898.90625
184.040634	240108.21875
189.054855	11566.298828
215.059494	2088777.125
END IONS

BEGIN IONS
PEPMASS=259.007
CHARGE=1
MSLEVEL=2
SOURCE_INSTRUMENT=LC-ESI-Q-Exactive Plus Orbitrap Res 14k
FILENAME=Pesticide_Mix3_pos_14k.mzXML
SEQ=*..*
IONMODE=positive
ORGANISM=GNPS-COLLECTIONS-PESTICIDES-POSITIVE
NAME=Pesticide3_Metobromuron_C9H11BrN2O2_Urea, N'-(4-bromophenyl)-N-methoxy-N-methyl- M+H
PI=Dorrestein/Touboul
DATACOLLECTOR=lfnothias
SMILES=CN(C(=O)NC1=CC=C(C=C1)Br)OC
INCHI=InChI=1S/C9H11BrN2O2/c1-12(14-2)9(13)11-8-5-3-7(10)4-6-8/h3-6H,1-2H3,(H,11,13)
INCHIAUX=N/A
PUBMED=n/a
SUBMITUSER=mwang87
LIBRARYQUALITY=1
SPECTRUMID=CCMSLIB00001058231
USI=mzspec:GNPS:GNPS-COLLECTIONS-PESTICIDES-POSITIVE:accession:CCMSLIB00001058231
SCANS=2405
73.301521	8995.782227
81.033524	12365.291992
88.039589	154266.109375
90.034004	19244.429688
91.041519	955325.6875
92.049278	17885.265625
102.40789	10256.209961
106.049927	67313.804688
106.065468	21046.351562
106.82695	12545.487305
108.044807	40459.984375
119.060959	490666.78125
120.067787	78690.71875
130.13829	11780.692383
131.059875	54280.046875
133.040314	13243.507812
142.948486	187962.640625
147.055298	412267.46875
148.063538	4446560.0
169.960281	6485478.5
170.967224	1556875.625
184.984421	16456.761719
197.956116	144930.171875
216.276337	11875.787109
226.982147	371939.21875
227.990768	187801.484375
259.007996	2693457.5
END IONS

BEGIN IONS
PEPMASS=249.019
CHARGE=1
MSLEVEL=2
SOURCE_INSTRUMENT=LC-ESI-Q-Exactive Plus Orbitrap Res 14k
FILENAME=Pesticide_Mix3_pos_14k.mzXML
SEQ=*..*
IONMODE=positive
ORGANISM=GNPS-COLLECTIONS-PESTICIDES-POSITIVE
NAME=Pesticide3_Linuron_C9H10Cl2N2O2_Urea, N'-(3,4-dichlorophenyl)-N-methoxy-N-methyl- M+H
PI=Dorrestein/Touboul
DATACOLLECTOR=lfnothias
SMILES=CN(C(=O)NC1=CC(=C(C=C1)Cl)Cl)OC
INCHI=InChI=1S/C9H10Cl2N2O2/c1-13(15-2)9(14)12-6-3-4-7(10)8(11)5-6/h3-5H,1-2H3,(H,12,14)
INCHIAUX=N/A
PUBMED=n/a
SUBMITUSER=mwang87
LIBRARYQUALITY=1
SPECTRUMID=CCMSLIB00001058258
USI=mzspec:GNPS:GNPS-COLLECTIONS-PESTICIDES-POSITIVE:accession:CCMSLIB00001058258
SCANS=2733
82.564636	7720.490723
88.039482	172620.71875
95.409805	8275.511719
96.955009	6893.282715
106.049843	77345.015625
123.966614	9314.087891
123.995255	72370.335938
125.002182	195244.53125
125.246361	8670.43457
132.960358	502514.5625
136.180679	9121.189453
141.693832	8465.794922
153.020782	202966.53125
153.033554	8834.102539
154.029617	18073.773438
159.971451	4062452.5
160.979874	841581.8125
165.022247	15283.175781
181.016418	150306.125
182.02533	3030916.25
187.9673	52513.617188
216.993057	233551.578125
218.000671	87457.882812
248.349075	8628.119141
249.018631	1787406.25
END IONS

BEGIN IONS
PEPMASS=192.076
CHARGE=1
MSLEVEL=2
SOURCE_INSTRUMENT= -Q-Exactive Plus Orbitrap Res 70k
FILENAME=Pesticide_Mix10_pos.mzXML
SEQ=*..*
IONMODE=positive
ORGANISM=GNPS-COLLECTIONS-PESTICIDES-POSITIVE
NAME=Pesticide10_Carbendazim_C9H9N3O2_mecarzole M+H
PI=Dorrestein/Touboul
DATACOLLECTOR=lfnothias
SMILES=COC(=O)NC1=NC2=CC=CC=C2N1
INCHI=InChI=1S/C9H9N3O2/c1-14-9(13)12-8-10-6-4-2-3-5-7(6)11-8/h2-5H,1H3,(H2,10,11,12,13)
INCHIAUX=N/A
PUBMED=n/a
SUBMITUSER=mwang87
LIBRARYQUALITY=1
SPECTRUMID=CCMSLIB00001058284
USI=mzspec:GNPS:GNPS-COLLECTIONS-PESTICIDES-POSITIVE:accession:CCMSLIB00001058284
SCANS=673
70.369446	123647.671875
71.188408	123971.992188
76.19339	117252.148438
76.503929	124461.28125
76.686256	131732.03125
79.730721	128784.953125
83.803131	130126.820312
85.53334	118919.140625
85.772255	134419.5
85.858971	139353.78125
88.241287	128016.492188
90.034065	292009.3125
92.049759	638299.3125
93.122978	117196.6875
98.700157	128069.90625
100.865829	123137.9375
102.363251	124473.96875
105.045135	1298107.0
108.473587	125930.65625
110.783592	130314.546875
111.145309	149715.21875
116.057159	446100.03125
117.842758	126370.65625
130.594421	133426.109375
131.744339	132493.78125
132.056152	6294175.0
133.063721	881723.5
135.055695	1326839.875
135.415253	1127930.5
139.642288	153427.25
148.087555	189585.890625
148.175201	153067.34375
159.997467	604312.5625
160.051239	477980320.0
160.106461	616831.625
160.407135	147990.4375
172.085464	168421.90625
192.077301	136661136.0
207.86673	135230.90625
END IONS

BEGIN IONS
PEPMASS=222.123
CHARGE=1
MSLEVEL=2
SOURCE_INSTRUMENT= -Q-Exactive Plus Orbitrap Res 14k
FILENAME=Pesticide_Mix9_pos_14k.mzXML
SEQ=*..*
IONMODE=positive
ORGANISM=GNPS-COLLECTIONS-PESTICIDES-POSITIVE
NAME=Pesticide9_Formetanate HCl_C11H15N3O2 . HCl_3-{[(E)-(Dimethylamino)methylidene]amino}phenyl methylcarbamate hydrochloride (1:1) M+H
PI=Dorrestein/Touboul
DATACOLLECTOR=lfnothias
SMILES=CNC(=O)OC1=CC=CC(=C1)N=CN(C)C
INCHI=InChI=1S/C11H15N3O2.ClH/c1-12-11(15)16-10-6-4-5-9(7-10)13-8-14(2)3;/h4-8H,1-3H3,(H,12,15);1H/b13-8+;
INCHIAUX=N/A
PUBMED=n/a
SUBMITUSER=mwang87
LIBRARYQUALITY=1
SPECTRUMID=CCMSLIB00001058311
USI=mzspec:GNPS:GNPS-COLLECTIONS-PESTICIDES-POSITIVE:accession:CCMSLIB00001058311
SCANS=59
74.150581	162725.0
91.054741	333876.9375
93.033943	235282.28125
111.04393	1198281.375
119.048683	980248.875
120.035507	312776.0
120.044334	10059455.0
127.521179	352351.5625
134.807343	190785.53125
135.043716	301762.0625
165.102707	267248896.0
178.12233	249056.09375
185.508255	276773.6875
222.124481	38569276.0
END IONS

BEGIN IONS
PEPMASS=223.144
CHARGE=1
MSLEVEL=2
SOURCE_INSTRUMENT= -Q-Exactive Plus Orbitrap Res 14k
FILENAME=Pesticide_Mix9_pos_14k.mzXML
SEQ=*..*
IONMODE=positive
ORGANISM=GNPS-COLLECTIONS-PESTICIDES-POSITIVE
NAME=Pesticide9_Mexacarbate_C12H18N2O2_4-(Dimethylamino)-3,5-dimethylphenyl methylcarbamate M+H
PI=Dorrestein/Touboul
DATACOLLECTOR=lfnothias
SMILES=CC1=CC(=CC(=C1N(C)C)C)OC(=O)NC
INCHI=InChI=1S/C12H18N2O2/c1-8-6-10(16-12(15)13-3)7-9(2)11(8)14(4)5/h6-7H,1-5H3,(H,13,15)
INCHIAUX=N/A
PUBMED=n/a
SUBMITUSER=mwang87
LIBRARYQUALITY=1
SPECTRUMID=CCMSLIB00001058314
USI=mzspec:GNPS:GNPS-COLLECTIONS-PESTICIDES-POSITIVE:accession:CCMSLIB00001058314
SCANS=1121
84.647728	185846.59375
128.463379	216869.65625
134.072495	970848.9375
135.081223	1455551.125
136.075043	5838467.0
136.0858	271468.84375
138.027756	259178.6875
140.173569	182758.546875
150.09227	290478.78125
151.098419	135486720.0
151.324203	196746.390625
166.123581	195983728.0
203.765274	217437.484375
208.121307	257755.453125
213.562698	220994.546875
223.145309	47385468.0
237.920212	185842.234375
END IONS

BEGIN IONS
PEPMASS=226.089
CHARGE=1
MSLEVEL=2
SOURCE_INSTRUMENT=LC-ESI-Q-Exactive Plus Orbitrap Res 70k
FILENAME=Pesticide_Mix2_pos.mzXML
SEQ=*..*
IONMODE=positive
ORGANISM=GNPS-COLLECTIONS-PESTICIDES-POSITIVE
NAME=Pesticide2_Ethiofencarb_C11H15NO2S_Phenol, 2-[(ethylthio)methyl]-, methylcarbamate M+H
PI=Dorrestein/Touboul
DATACOLLECTOR=lfnothias
SMILES=CCSCC1=CC=CC=C1OC(=O)NC
INCHI=InChI=1S/C11H15NO2S/c1-3-15-8-9-6-4-5-7-10(9)14-11(13)12-2/h4-7H,3,8H2,1-2H3,(H,12,13)
INCHIAUX=N/A
PUBMED=n/a
SUBMITUSER=mwang87
LIBRARYQUALITY=1
SPECTRUMID=CCMSLIB00001058336
USI=mzspec:GNPS:GNPS-COLLECTIONS-PESTICIDES-POSITIVE:accession:CCMSLIB00001058336
SCANS=1890
72.032417	4454.998047
77.038902	33804.933594
77.923653	3533.084473
78.944405	3403.547119
84.17907	3681.681641
85.878334	4145.834961
87.677238	3403.239258
88.346466	3776.608887
90.941673	20166.296875
91.050148	5066.640137
91.054474	190453.953125
91.597328	5951.766602
93.070076	403468.96875
95.049271	84306.617188
95.085747	7562.810547
103.054535	4549.575195
105.031502	3758.291016
105.045036	16003.008789
107.049347	77872.15625
109.065079	6977.592773
121.064903	4765181.0
122.072807	1050571.75
122.075363	6532.810059
123.080681	55721.894531
138.554855	3749.992432
139.075714	17422.955078
141.073517	15250.069336
153.037079	28416.550781
154.045013	47520.011719
167.42691	4848.022949
169.068405	3555832.5
170.732574	5157.374023
188.549149	4776.115234
191.557373	3921.322021
214.099411	3885.237061
216.298157	4031.168213
224.666748	3857.340576
226.090088	18067.277344
END IONS

BEGIN IONS
PEPMASS=229.111
CHARGE=1
MSLEVEL=2
SOURCE_INSTRUMENT=LC-ESI-Q-Exactive Plus Orbitrap Res 70k
FILENAME=Pesticide_Mix2_pos.mzXML
SEQ=*..*
IONMODE=positive
ORGANISM=GNPS-COLLECTIONS-PESTICIDES-POSITIVE
NAME=Pesticide2_Tebuthiuron_C9H16N4OS_Urea, N-[5-(1,1-dimethylethyl)-1,3,4-thiadiazol-2-yl]-N,N'-dimethyl- M+H
PI=Dorrestein/Touboul
DATACOLLECTOR=lfnothias
SMILES=CC(C)(C)C1=NN=C(S1)N(C)C(=O)NC
INCHI=InChI=1S/C9H16N4OS/c1-9(2,3)6-11-12-8(15-6)13(5)7(14)10-4/h1-5H3,(H,10,14)
INCHIAUX=N/A
PUBMED=n/a
SUBMITUSER=mwang87
LIBRARYQUALITY=1
SPECTRUMID=CCMSLIB00001058342
USI=mzspec:GNPS:GNPS-COLLECTIONS-PESTICIDES-POSITIVE:accession:CCMSLIB00001058342
SCANS=1270
73.230858	59116.164062
73.291527	70031.65625
74.006271	1388389.375
75.342545	78016.992188
79.911423	60545.652344
82.065544	129449.007812
83.659508	66251.445312
88.021851	103436.007812
89.016991	6433058.0
92.05825	58720.898438
97.979256	73308.554688
99.091782	654442.0
107.260506	229253.4375
116.027985	20392230.0
116.053185	408495.90625
133.982269	124089.296875
141.048386	522712.34375
142.043686	395326.03125
156.448532	66649.21875
157.067062	4098796.0
158.123093	60107.316406
162.264694	65040.121094
171.577866	65837.820312
172.029099	129285.804688
172.032837	118240.554688
172.090622	162667760.0
193.860123	76402.460938
205.338501	100197.695312
229.11235	67083900.0
244.477432	63991.222656
246.75943	70349.1875
END IONS

BEGIN IONS
PEPMASS=329.141
CHARGE=1
MSLEVEL=2
SOURCE_INSTRUMENT= -Q-Exactive Plus Orbitrap Res 14k
FILENAME=Pesticide_Mix9_pos_14k.mzXML
SEQ=*..*
IONMODE=positive
ORGANISM=GNPS-COLLECTIONS-PESTICIDES-POSITIVE
NAME=Pesticide9_Pencycuron (Monceren) _C19H21ClN2O_ M+H
PI=Dorrestein/Touboul
DATACOLLECTOR=lfnothias
SMILES=C1CCC(C1)N(CC2=CC=C(C=C2)Cl)C(=O)NC3=CC=CC=C3
INCHI= 
INCHIAUX=N/A
PUBMED=n/a
SUBMITUSER=mwang87
LIBRARYQUALITY=1
SPECTRUMID=CCMSLIB00001058349
USI=mzspec:GNPS:GNPS-COLLECTIONS-PESTICIDES-POSITIVE:accession:CCMSLIB00001058349
SCANS=3333
80.934006	53441.222656
84.080933	825319.875
85.437721	53166.332031
86.097061	380613.78125
89.038338	512771.90625
90.046188	80662.28125
91.459076	50944.558594
92.049309	70849.851562
94.059471	126993.875
94.065468	2190149.25
98.096909	1445060.0
98.999825	224333.53125
106.065453	2903295.0
116.583969	52992.347656
119.060989	103860.4375
120.044228	225912.203125
125.015335	101669944.0
132.044571	140700.671875
142.041763	121142.03125
149.071915	359967.15625
153.242111	55288.664062
195.093735	61865.855469
210.103302	1515005.5
217.132721	97158.90625
218.073318	6362255.0
261.080017	1958414.875
329.143616	24750884.0
END IONS

BEGIN IONS
PEPMASS=222.069
CHARGE=1
MSLEVEL=2
SOURCE_INSTRUMENT=LC-ESI-Q-Exactive Plus Orbitrap Res 70k
FILENAME=Pesticide_Mix2_pos.mzXML
SEQ=*..*
IONMODE=positive
ORGANISM=GNPS-COLLECTIONS-PESTICIDES-POSITIVE
NAME=Pesticide2_Methabenzthiazuron_C10H11N3OS_1-(1,3-Benzothiazol-2-yl)-1,3-dimethylurea M+H
PI=Dorrestein/Touboul
DATACOLLECTOR=lfnothias
SMILES=CNC(=O)N(C)C1=NC2=CC=CC=C2S1
INCHI=InChI=1S/C10H11N3OS/c1-11-9(14)13(2)10-12-7-5-3-4-6-8(7)15-10/h3-6H,1-2H3,(H,11,14)
INCHIAUX=N/A
PUBMED=n/a
SUBMITUSER=mwang87
LIBRARYQUALITY=1
SPECTRUMID=CCMSLIB00001058350
USI=mzspec:GNPS:GNPS-COLLECTIONS-PESTICIDES-POSITIVE:accession:CCMSLIB00001058350
SCANS=1538
71.060844	867243.875
74.005821	94618.40625
79.680511	81111.078125
80.04982	516492.96875
81.296532	78670.117188
86.497421	82037.796875
91.054451	135224.921875
92.049652	1861402.5
96.003006	541868.9375
105.049088	100607.6875
106.41832	96322.375
109.01078	551859.875
119.049507	368073.53125
119.085861	199858.96875
123.014	593341.5625
123.044403	5815597.0
124.021889	14800393.0
127.470551	106916.351562
135.044357	111008.3125
137.059891	182915.828125
147.080612	173745.328125
150.02504	16600732.0
160.863663	102407.757812
163.032516	168943.625
164.04071	138860.015625
164.989487	135744.140625
164.992493	279277.15625
165.042755	2853487.0
165.048309	391646464.0
165.091492	5420829.5
165.106125	343684.625
167.441757	106661.65625
178.122742	220060.984375
196.490997	106735.398438
211.425797	121326.757812
222.070206	44108800.0
222.113312	1085008.875
END IONS

BEGIN IONS
PEPMASS=411.195
CHARGE=1
MSLEVEL=2
SOURCE_INSTRUMENT=LC-ESI-Q-Exactive Plus Orbitrap Res 70k
FILENAME=Pesticide_Mix2_pos.mzXML
SEQ=*..*
IONMODE=positive
ORGANISM=GNPS-COLLECTIONS-PESTICIDES-POSITIVE
NAME=Pesticide2_Benfuracarb_C20H30N2O5S_Oncol M+H
PI=Dorrestein/Touboul
DATACOLLECTOR=lfnothias
SMILES=CCOC(=O)CCN(C(C)C)SN(C)C(=O)OC1=CC=CC2=C1OC(C2)(C)C
INCHI=InChI=1S/C20H30N2O5S/c1-7-25-17(23)11-12-22(14(2)3)28-21(6)19(24)26-16-10-8-9-15-13-20(4,5)27-18(15)16/h8-10,14H,7,11-13H2,1-6H3
INCHIAUX=N/A
PUBMED=n/a
SUBMITUSER=mwang87
LIBRARYQUALITY=1
SPECTRUMID=CCMSLIB00001058369
USI=mzspec:GNPS:GNPS-COLLECTIONS-PESTICIDES-POSITIVE:accession:CCMSLIB00001058369
SCANS=2534
70.029198	165908.875
70.065483	3771476.5
70.333832	79357.835938
70.483597	86127.789062
74.006287	111454.929688
74.060341	930581.75
74.38623	84106.953125
76.014	99753.632812
81.070183	129890.789062
82.282112	100211.367188
84.297318	84490.765625
84.492935	94556.984375
84.974388	2565776.25
87.552773	97230.90625
88.039482	495448.46875
90.037224	753457.25
91.05426	137777.5
93.070061	190070.921875
97.01091	364420.84375
101.059868	206940.78125
102.000954	670090.75
105.070045	617699.0
107.085808	121984.484375
109.028625	1024616.375
109.064812	741441.875
110.590179	108123.046875
111.080452	1101917.875
112.075729	4587036.0
115.054367	2338654.75
116.062111	1103724.75
116.070702	1997654.25
119.049217	140088.140625
123.044113	218612.25
125.005722	1063341.375
125.04216	535546.5625
128.698761	89230.023438
130.086517	1488895.25
133.054489	96371.210938
133.065063	1699974.625
134.018692	173711.640625
134.072784	176590.28125
136.248871	92318.984375
137.059921	691206.0625
139.021271	213529.453125
139.057816	425837.3125
143.049377	1963868.0
144.047775	376386.78125
144.057205	3889342.5
147.044281	161898.109375
149.005814	499940.46875
149.042084	1685557.875
149.060181	149138.359375
149.370087	93942.351562
149.962753	92966.390625
151.021301	127876.53125
151.075455	127994.625
151.645523	87367.3125
152.029297	425280.3125
153.000732	384523.3125
153.037125	5521753.5
155.393036	156811.84375
158.11792	36469160.0
159.026581	154107.5625
159.242218	117604.945312
160.133698	208482.390625
161.05983	3380724.5
162.067871	28792798.0
165.036758	291167.21875
166.00885	193509.78125
166.321732	87975.890625
167.016159	1048439.375
167.053024	3886143.0
168.80336	105014.953125
171.011688	119424.09375
177.037003	4260937.0
186.26355	123942.023438
190.08963	647873.8125
191.321823	147311.359375
194.974136	148878.546875
195.040649	571692.0625
195.04776	194876336.0
213.404266	93085.789062
236.134003	97608.484375
244.442993	93857.945312
250.418442	95225.9375
252.069183	53315868.0
257.882751	101978.023438
262.513489	118874.15625
262.551819	114667.453125
282.657684	97382.382812
317.187164	89542.492188
352.115662	106118.976562
389.532806	110113.0625
407.743805	100167.289062
411.194	391724.84375
END IONS

BEGIN IONS
PEPMASS=297.055
CHARGE=1
MSLEVEL=2
SOURCE_INSTRUMENT=LC-ESI-Q-Exactive Plus Orbitrap Res 70k
FILENAME=Pesticide_Mix4_pos.mzXML
SEQ=*..*
IONMODE=positive
ORGANISM=GNPS-COLLECTIONS-PESTICIDES-POSITIVE
NAME=Pesticide4_Imazalil_C14H14Cl2N2O_Freshgard M+H
PI=Dorrestein/Touboul
DATACOLLECTOR=lfnothias
SMILES=C=CCOC(CN1C=CN=C1)C2=C(C=C(C=C2)Cl)Cl
INCHI=InChI=1S/C14H14Cl2N2O/c1-2-7-19-14(9-18-6-5-17-10-18)12-4-3-11(15)8-13(12)16/h2-6,8,10,14H,1,7,9H2
INCHIAUX=N/A
PUBMED=n/a
SUBMITUSER=mwang87
LIBRARYQUALITY=1
SPECTRUMID=CCMSLIB00001058451
USI=mzspec:GNPS:GNPS-COLLECTIONS-PESTICIDES-POSITIVE:accession:CCMSLIB00001058451
SCANS=1568
70.070511	92993.484375
73.324142	130135.960938
73.55188	99246.960938
75.166092	83261.015625
75.549095	118324.085938
80.049683	155466.71875
81.045097	5349719.5
81.046326	89798.429688
81.057571	128625.398438
82.052879	607370.25
82.065384	1371225.875
108.418083	121003.945312
108.537842	104141.585938
109.076172	10112572.0
115.054398	120222.1875
129.24025	97934.5625
134.770935	87107.46875
137.015442	196935.28125
138.023483	99498.921875
139.003052	96538.179688
139.805115	95673.125
140.412323	97587.609375
141.069916	1106271.125
144.895264	98518.203125
146.089172	97716.578125
146.373062	101448.5
149.01535	466532.59375
150.023315	1005490.5625
158.433853	105360.109375
158.976715	47031828.0
163.031113	376946.96875
164.039261	1492137.25
171.664291	105497.992188
172.955887	241701.625
172.99205	11490086.0
172.996353	172986.0625
175.03096	787762.8125
176.039154	14630333.0
182.643112	105937.351562
182.976608	176760.078125
184.992203	2717547.25
185.62326	121103.03125
186.971573	1203852.125
193.041595	176507.0625
195.984573	130531.15625
198.763275	111339.765625
199.008057	1693450.125
200.987244	18475798.0
203.037262	486453.0625
211.008026	1408001.875
229.018799	883621.8125
255.009109	16367757.0
257.761108	108782.78125
264.506744	103679.429688
294.80014	110324.390625
297.055145	109172288.0
END IONS

BEGIN IONS
PEPMASS=190.043
CHARGE=1
MSLEVEL=2
SOURCE_INSTRUMENT= -Q-Exactive Plus Orbitrap Res 14k
FILENAME=Pesticide_Mix5_pos_14k.mzXML
SEQ=*..*
IONMODE=positive
ORGANISM=GNPS-COLLECTIONS-PESTICIDES-POSITIVE
NAME=Pesticide5_Tricyclazole_C9H7N3S_Beam M+H
PI=Dorrestein/Touboul
DATACOLLECTOR=lfnothias
SMILES=CC1=C2C(=CC=C1)SC3=NN=CN23
INCHI=InChI=1S/C9H7N3S/c1-6-3-2-4-7-8(6)12-5-10-11-9(12)13-7/h2-5H,1H3
INCHIAUX=N/A
PUBMED=n/a
SUBMITUSER=mwang87
LIBRARYQUALITY=1
SPECTRUMID=CCMSLIB00001058460
USI=mzspec:GNPS:GNPS-COLLECTIONS-PESTICIDES-POSITIVE:accession:CCMSLIB00001058460
SCANS=1560
109.010674	1102383.5
112.500992	207082.59375
112.507782	164761.265625
119.060982	312342.125
136.021072	6778947.5
163.033524	31220986.0
190.04248	203252944.0
209.961746	183072.546875
END IONS

BEGIN IONS
PEPMASS=359.04
CHARGE=1
MSLEVEL=2
SOURCE_INSTRUMENT=LC-ESI-Maxis HD qTOF
FILENAME=Pesticide_mix3_BA3_01_8693.mzXML
SEQ=*..*
IONMODE=positive
ORGANISM=GNPS-COLLECTIONS-PESTICIDES-POSITIVE
NAME=Pesticide3_Triflumuron_C15H10ClF3N2O3_Benzamide, 2-chloro-N-[[[4-(trifluoromethoxy)phenyl]amino]carbonyl]- M+H
PI=Dorrestein/Touboul
DATACOLLECTOR=lfnothias
SMILES=C1=CC=C(C(=C1)C(=O)NC(=O)NC2=CC=C(C=C2)OC(F)(F)F)Cl
INCHI=InChI=1S/C15H10ClF3N2O3/c16-12-4-2-1-3-11(12)13(22)21-14(23)20-9-5-7-10(8-6-9)24-15(17,18)19/h1-8H,(H2,20,21,22,23)
INCHIAUX=N/A
PUBMED=n/a
SUBMITUSER=mwang87
LIBRARYQUALITY=1
SPECTRUMID=CCMSLIB00001058495
USI=mzspec:GNPS:GNPS-COLLECTIONS-PESTICIDES-POSITIVE:accession:CCMSLIB00001058495
SCANS=579
70.332436	229.0
72.079681	192.0
77.038696	741.0
82.668816	295.0
86.060081	246.0
87.006599	226.0
91.013908	211.0
92.031288	169.0
92.050293	796.0
93.031021	357.0
93.057304	572.0
94.038269	262.0
95.018005	385.0
95.04837	962.0
100.998734	184.0
104.049683	207.0
105.045303	3490.0
106.04599	297.0
108.057037	163.0
110.060944	194.0
110.998398	1175.0
111.669907	204.0
113.01516	12177.0
114.018105	339.0
115.012711	599.0
120.04261	526.0
120.738197	183.0
124.003685	172.0
125.015099	845.0
127.984032	206.0
128.046906	249.0
128.103256	205.0
129.010056	2538.0
129.05426	255.0
130.015579	302.0
130.040359	1539.0
130.242752	249.0
130.668503	305.0
131.006989	272.0
132.042786	814.0
133.046158	360.0
134.960907	161.0
137.937927	174.0
138.009827	3634.0
138.67421	247.0
138.768982	205.0
138.804367	350.0
138.916336	900.0
138.995178	263517.0
139.354355	233.0
139.9991	15945.0
140.992752	16403.0
142.005707	247.0
142.774902	242.0
145.051437	215.0
146.059784	379.0
148.95137	177.0
155.784409	246.0
155.957428	262.0
156.021667	189238.0
156.168564	123.0
156.519333	228.0
157.024811	11218.0
158.018738	3166.0
158.1362	172.0
160.979645	1178.0
162.977966	1010.0
174.030746	173.0
176.027817	1612.0
176.980194	157.0
178.048126	6664.0
179.05481	258.0
181.011871	234.0
186.053345	181.0
196.056549	268.0
204.025421	183.0
204.088379	272.0
209.04866	246.0
217.997772	164.0
226.040436	212.0
234.103348	199.0
243.085602	518.0
245.090057	196.0
255.050613	432.0
256.051331	415.0
261.08905	218.0
286.016693	189.0
298.059601	1186.0
299.063904	584.0
303.959351	355.0
305.137268	169.0
305.95282	239.0
320.979645	1880.0
321.980927	191.0
322.97934	2939.0
323.966309	313.0
326.052094	367.0
327.045013	421.0
329.044769	178.0
342.012054	186.0
347.051727	460.0
357.960297	253.0
358.079071	251.0
358.95224	1320.0
359.044769	1196.0
360.05246	168.0
550.057251	170.0
774.421265	201.0
885.840027	302.0
937.225891	226.0
1002.888794	176.0
END IONS

BEGIN IONS
PEPMASS=302.071
CHARGE=1
MSLEVEL=2
SOURCE_INSTRUMENT= -Q-Exactive Plus Orbitrap Res 70k
FILENAME=Pesticide_Mix4_pos.mzXML
SEQ=*..*
IONMODE=positive
ORGANISM=GNPS-COLLECTIONS-PESTICIDES-POSITIVE
NAME=Pesticide4_Triadimefon_C14H16ClN3O2_2-Butanone, 1-(4-chlorophenoxy)-3,3-dimethyl-1-(1H-1,2,4-triazol-1-yl)- M+H
PI=Dorrestein/Touboul
DATACOLLECTOR=lfnothias
SMILES=CC(C)(C)C(=O)C(N1C=NC=N1)OC2=CC=C(C=C2)Cl
INCHI=InChI=1S/C14H16ClN3O2/c1-14(2,3)12(19)13(18-9-16-8-17-18)20-11-6-4-10(15)5-7-11/h4-9,13H,1-3H3
INCHIAUX=N/A
PUBMED=n/a
SUBMITUSER=mwang87
LIBRARYQUALITY=1
SPECTRUMID=CCMSLIB00001058516
USI=mzspec:GNPS:GNPS-COLLECTIONS-PESTICIDES-POSITIVE:accession:CCMSLIB00001058516
SCANS=2134
73.522102	1949.712402
74.081993	2890.111084
76.994301	1943.511841
77.492218	1671.037842
78.592957	1862.864624
80.809105	2021.080078
81.07019	2090.116211
83.347755	1814.913086
84.265587	1959.269653
84.945976	1937.838013
89.038719	1788.168457
95.013016	610725.125
95.049263	4164.97168
97.07576	3161.758057
97.098892	15152.481445
97.101395	3591667.5
111.028053	1818.77417
123.963966	2154.583008
125.015656	3788.881348
125.096275	18602.230469
129.457626	4391.166016
129.460083	6617.364746
139.812531	2166.878906
140.137299	1894.21582
142.005981	160473.8125
142.008789	2256.818604
143.013718	165340.5
146.481018	2013.826538
151.299835	2070.05542
153.010635	123129.523438
168.001694	3362.170654
175.87085	2361.351807
177.982513	111830.007812
181.16185	2906.479736
196.677322	1906.944458
197.652878	12850.917969
201.982773	2904.548828
212.470734	1981.001221
216.218216	2269.122314
230.197647	2039.164795
242.118027	389295.40625
244.83136	2068.747803
268.11145	2073.106201
270.113007	75171.804688
284.060272	7960.249512
302.071136	4182678.0
302.138367	11645.098633
END IONS

BEGIN IONS
PEPMASS=315.069
CHARGE=1
MSLEVEL=2
SOURCE_INSTRUMENT= -Q-Exactive Plus Orbitrap Res 14k
FILENAME=Pesticide_Mix6_pos_14k.mzXML
SEQ=*..*
IONMODE=positive
ORGANISM=GNPS-COLLECTIONS-PESTICIDES-POSITIVE
NAME=Pesticide6_Nuarimol_C17H12ClFN2O_(2-Chlorophenyl)(4-fluorophenyl)5-pyrimidinylmethanol M+H
PI=Dorrestein/Touboul
DATACOLLECTOR=lfnothias
SMILES=C1=CC=C(C(=C1)C(C2=CC=C(C=C2)F)(C3=CN=CN=C3)O)Cl
INCHI=InChI=1S/C17H12ClFN2O/c18-16-4-2-1-3-15(16)17(22,13-9-20-11-21-10-13)12-5-7-14(19)8-6-12/h1-11,22H
INCHIAUX=N/A
PUBMED=n/a
SUBMITUSER=mwang87
LIBRARYQUALITY=1
SPECTRUMID=CCMSLIB00001058546
USI=mzspec:GNPS:GNPS-COLLECTIONS-PESTICIDES-POSITIVE:accession:CCMSLIB00001058546
SCANS=2456
70.234383	39854.699219
72.152054	22406.320312
79.644325	20112.761719
81.044655	5494624.0
87.094406	21367.671875
123.024155	950195.0
133.044708	43657.984375
138.994202	1575630.125
139.003448	39619.308594
148.055008	29552.109375
155.061081	32431.863281
156.067688	222667.453125
157.07695	53376.628906
175.066223	114140.679688
176.050262	52152.917969
176.074631	108732.226562
176.716843	24046.445312
177.069443	23802.648438
183.054214	255202.34375
184.066727	126041.046875
185.070404	22998.666016
191.037964	47777.367188
192.043732	91389.476562
196.069229	36089.027344
197.075684	23959.310547
203.060638	102786.265625
204.082886	25122.330078
207.060425	506598.4375
208.067596	460957.59375
209.075745	31420.603516
217.023483	106920.046875
219.036026	362920.78125
222.071518	436988.0625
223.079025	43628.152344
224.087708	556353.375
225.070541	165444.71875
225.089874	25604.208984
232.07428	35606.398438
234.072556	227725.375
235.03334	798687.5625
235.057098	50385.726562
235.077393	409718.4375
236.061966	1057967.625
236.08252	37793.222656
243.038208	3106899.25
250.065628	139993.515625
251.073898	163433.109375
251.096542	274326.75
252.080917	7623841.0
253.085907	23267.208984
260.063263	181978.21875
261.080261	104223.726562
262.092468	202612.53125
263.096558	33006.132812
270.047913	150415.15625
271.031921	317701.0
279.091949	224792.78125
286.065643	43036.546875
287.073364	39942.390625
288.058807	1073389.75
295.060852	37559.816406
297.056427	160009.046875
315.066559	15613089.0
333.69339	42458.761719
END IONS

BEGIN IONS
PEPMASS=331.04
CHARGE=1
MSLEVEL=2
SOURCE_INSTRUMENT= -Q-Exactive Plus Orbitrap Res 14k
FILENAME=Pesticide_Mix6_pos_14k.mzXML
SEQ=*..*
IONMODE=positive
ORGANISM=GNPS-COLLECTIONS-PESTICIDES-POSITIVE
NAME=Pesticide6_Fenarimol_C17H12Cl2N2O_(2-Chlorophenyl)(4-chlorophenyl)5-pyrimidinylmethanol M+H
PI=Dorrestein/Touboul
DATACOLLECTOR=lfnothias
SMILES=C1=CC=C(C(=C1)C(C2=CC=C(C=C2)Cl)(C3=CN=CN=C3)O)Cl
INCHI=InChI=1S/C17H12Cl2N2O/c18-14-7-5-12(6-8-14)17(22,13-9-20-11-21-10-13)15-3-1-2-4-16(15)19/h1-11,22H
INCHIAUX=N/A
PUBMED=n/a
SUBMITUSER=mwang87
LIBRARYQUALITY=1
SPECTRUMID=CCMSLIB00001058561
USI=mzspec:GNPS:GNPS-COLLECTIONS-PESTICIDES-POSITIVE:accession:CCMSLIB00001058561
SCANS=2696
70.041054	22749.177734
74.263351	18852.966797
80.556862	10778.003906
81.038391	70301.101562
81.046692	1754280.875
81.051537	63463.226562
93.764244	12272.920898
138.984802	39905.972656
138.994293	988843.3125
142.447266	13016.646484
146.866074	13230.792969
149.016678	42216.882812
155.061096	21702.244141
156.067612	112003.953125
157.076965	59228.328125
160.972672	700208.375
161.976898	646890.3125
162.972427	16356.90625
164.02739	21116.271484
183.056076	113030.109375
188.971115	18455.275391
189.070877	269831.53125
189.973007	27773.40625
191.037964	79266.796875
192.023544	19583.634766
192.046265	67442.710938
200.039963	20838.925781
204.082077	123820.585938
205.065384	46512.519531
206.980286	86662.789062
207.983887	106930.992188
219.03183	110660.890625
223.030518	135824.296875
224.039719	82870.484375
225.045044	16409.986328
232.077637	58359.035156
233.083023	168210.84375
235.00853	146568.390625
238.041763	152197.78125
240.056763	133408.15625
241.041656	52829.109375
241.066498	45100.039062
243.092087	19523.617188
250.043137	61245.992188
251.001953	290053.1875
251.050232	167188.171875
252.034836	590419.5625
259.007874	1215569.375
262.031189	43684.644531
266.035431	69884.171875
267.042542	46176.863281
267.067383	130842.867188
268.051361	3491123.0
276.034393	78558.179688
278.059662	165675.96875
279.069427	19519.964844
286.019775	66218.21875
286.999908	93708.375
295.060852	61366.648438
302.037659	42805.9375
304.029724	462612.34375
313.028687	73043.210938
331.038177	7952779.0
END IONS

BEGIN IONS
PEPMASS=294.196
CHARGE=1
MSLEVEL=2
SOURCE_INSTRUMENT= -Q-Exactive Plus Orbitrap Res 70k
FILENAME=Pesticide_Mix4_pos.mzXML
SEQ=*..*
IONMODE=positive
ORGANISM=GNPS-COLLECTIONS-PESTICIDES-POSITIVE
NAME=Pesticide4_Amitraz_C19H23N3_N'-(2,4-Dimethylphenyl)-N-{(E)-[(2,4-dimethylphenyl)imino]methyl}-N-methylimidoformamide M+H
PI=Dorrestein/Touboul
DATACOLLECTOR=lfnothias
SMILES=CC1=CC(=C(C=C1)N=CN(C)C=NC2=C(C=C(C=C2)C)C)C
INCHI=InChI=1S/C19H23N3/c1-14-6-8-18(16(3)10-14)20-12-22(5)13-21-19-9-7-15(2)11-17(19)4/h6-13H,1-5H3/b20-12+,21-13+
INCHIAUX=N/A
PUBMED=n/a
SUBMITUSER=mwang87
LIBRARYQUALITY=1
SPECTRUMID=CCMSLIB00001058578
USI=mzspec:GNPS:GNPS-COLLECTIONS-PESTICIDES-POSITIVE:accession:CCMSLIB00001058578
SCANS=2880
76.823799	146895.203125
79.054626	605233.3125
80.133293	133768.0625
80.709625	127602.9375
80.754005	121785.351562
84.45649	127252.578125
84.49736	130546.25
86.985573	121923.804688
88.021858	138151.953125
91.313805	149015.421875
95.049477	165139.015625
96.125603	131365.0625
98.273613	160937.03125
103.054527	559531.75
105.070076	3643492.75
106.065186	287076.15625
107.073212	9567310.0
108.578049	152862.015625
113.791267	164830.71875
115.054665	250126.8125
116.216728	154329.921875
117.057579	8989947.0
120.080986	2951427.0
121.088913	161892.03125
122.096779	74086920.0
123.080704	327702.96875
132.081207	36892280.0
136.02063	147888.53125
136.112473	319821.8125
148.099808	234664.0625
153.24968	165960.875
162.605423	141844.5625
163.065628	227637.890625
163.068588	334767.46875
163.123398	592729024.0
163.179749	559665.25
228.92337	544838.8125
253.169815	36212668.0
271.685242	174585.96875
283.67691	165722.890625
294.195984	4162668.5
318.591675	166279.046875
END IONS

BEGIN IONS
PEPMASS=338.186
CHARGE=1
MSLEVEL=2
SOURCE_INSTRUMENT= -Q-Exactive Plus Orbitrap Res 14k
FILENAME=Pesticide_Mix6_pos_14k.mzXML
SEQ=*..*
IONMODE=positive
ORGANISM=GNPS-COLLECTIONS-PESTICIDES-POSITIVE
NAME=Pesticide6_Bitertanol_C20H23N3O2_1-(4-Biphenylyloxy)-3,3-dimethyl-1-(1H-1,2,4-triazol-1-yl)-2-butanol M+H
PI=Dorrestein/Touboul
DATACOLLECTOR=lfnothias
SMILES=CC(C)(C)C(C(N1C=NC=N1)OC2=CC=C(C=C2)C3=CC=CC=C3)O
INCHI=InChI=1S/C20H23N3O2/c1-20(2,3)18(24)19(23-14-21-13-22-23)25-17-11-9-16(10-12-17)15-7-5-4-6-8-15/h4-14,18-19,24H,1-3H3
INCHIAUX=N/A
PUBMED=n/a
SUBMITUSER=mwang87
LIBRARYQUALITY=1
SPECTRUMID=CCMSLIB00001058597
USI=mzspec:GNPS:GNPS-COLLECTIONS-PESTICIDES-POSITIVE:accession:CCMSLIB00001058597
SCANS=2973
70.040482	7120496.5
71.037506	327533.28125
71.043549	642524.4375
76.560081	7101.592773
82.039841	37853.636719
83.043488	8976.171875
83.047462	46593.59375
89.038345	30390.035156
90.042107	10833.722656
90.046974	8230.612305
91.053947	350517.3125
92.057648	122827.421875
94.104462	6452.717285
95.962914	5763.761719
98.998863	6732.470215
99.080254	524596.6875
103.05381	42968.09375
104.049301	16071.03125
104.057358	14813.005859
115.0541	10454.853516
124.00589	6431.666992
125.015419	3559423.25
126.018433	1722756.75
127.011879	934368.5625
128.062378	25491.710938
129.070831	92105.085938
130.073547	52932.34375
139.031403	40288.222656
140.035095	27778.521484
141.029037	9365.489258
146.069077	9193.647461
149.014923	13088.353516
152.465897	6956.075195
153.071274	10613.109375
153.671204	6952.032715
155.0867	22863.556641
156.080795	13474.855469
157.084396	15031.512695
163.031616	84521.625
164.035202	77255.359375
165.028259	31935.064453
171.079651	35065.722656
183.080902	50902.679688
190.042511	37134.410156
191.045273	49386.804688
194.04892	130681.695312
195.05307	116447.054688
195.080765	10369.104492
196.045502	51503.585938
211.112061	9211.683594
216.089401	27684.083984
217.096237	32321.164062
235.920837	10113.277344
242.080826	49883.839844
247.99678	6562.619141
251.141785	34643.589844
269.153503	41243.519531
291.577728	7300.779297
304.265503	7086.04834
338.12558	2688100.0
339.118774	584885.5
END IONS

BEGIN IONS
PEPMASS=256.93
CHARGE=1
MSLEVEL=2
SOURCE_INSTRUMENT=LC-ESI-Q-Exactive Plus Orbitrap Res 14k
FILENAME=Pesticide_Mix1_pos_14k.mzXML
SEQ=*..*
IONMODE=positive
ORGANISM=GNPS-COLLECTIONS-PESTICIDES-POSITIVE
NAME=Pesticide1_Trichlorfon_C4H8Cl3O4P_Cekufon M+H
PI=Dorrestein/Touboul
DATACOLLECTOR=lfnothias
SMILES=COP(=O)(C(C(Cl)(Cl)Cl)O)OC
INCHI=InChI=1S/C4H8Cl3O4P/c1-10-12(9,11-2)3(8)4(5,6)7/h3,8H,1-2H3
INCHIAUX=N/A
PUBMED=n/a
SUBMITUSER=mwang87
LIBRARYQUALITY=1
SPECTRUMID=CCMSLIB00001058639
USI=mzspec:GNPS:GNPS-COLLECTIONS-PESTICIDES-POSITIVE:accession:CCMSLIB00001058639
SCANS=1269
75.60141	2304.930908
76.979225	4429.117188
78.994293	292469.59375
82.362869	3147.746582
82.367119	5919.973145
82.945137	88309.664062
93.010048	63018.71875
96.960388	12632.175781
97.004784	9597.742188
98.983871	4353.697754
109.00457	4932.095703
111.020531	16478.476562
112.999451	4795.145508
114.59771	2478.644287
114.609352	2600.871826
127.015862	4266494.0
129.020279	5988.385254
140.068054	4019.609863
144.981766	119116.273438
157.591629	3087.606445
192.874344	2612.511719
220.954681	807469.25
247.062103	3021.322754
256.929047	423846.28125
END IONS

BEGIN IONS
PEPMASS=288.048
CHARGE=1
MSLEVEL=2
SOURCE_INSTRUMENT=LC-ESI-Q-Exactive Plus Orbitrap Res 14k
FILENAME=Pesticide_Mix1_pos_14k.mzXML
SEQ=*..*
IONMODE=positive
ORGANISM=GNPS-COLLECTIONS-PESTICIDES-POSITIVE
NAME=Pesticide1_Vamidothion_C8H18NO4PS2_Phosphorothioic acid, O,O-dimethyl S-[2-[[1-methyl-2-(methylamino)-2-oxoethyl]thio]ethyl] ester M+H
PI=Dorrestein/Touboul
DATACOLLECTOR=lfnothias
SMILES=CC(C(=O)NC)SCCSP(=O)(OC)OC
INCHI=InChI=1S/C8H18NO4PS2/c1-7(8(10)9-2)15-5-6-16-14(11,12-3)13-4/h7H,5-6H2,1-4H3,(H,9,10)
INCHIAUX=N/A
PUBMED=n/a
SUBMITUSER=mwang87
LIBRARYQUALITY=1
SPECTRUMID=CCMSLIB00001058650
USI=mzspec:GNPS:GNPS-COLLECTIONS-PESTICIDES-POSITIVE:accession:CCMSLIB00001058650
SCANS=1393
76.226921	40236.371094
86.060555	3999327.25
86.065834	96055.554688
87.026558	295969.9375
88.594498	46384.816406
89.00563	311812.3125
90.0373	1407610.875
98.444313	43597.269531
104.070412	54198.410156
118.032501	23079544.0
121.835495	52881.863281
130.342667	44421.972656
146.064056	45956804.0
174.758926	48802.074219
202.624832	47168.101562
243.091949	102982.125
280.766174	51561.070312
288.048401	413834.59375
END IONS

BEGIN IONS
PEPMASS=202.086
CHARGE=1
MSLEVEL=2
SOURCE_INSTRUMENT=LC-ESI-Maxis HD qTOF
FILENAME=Pesticide_mix1_BA1_01_8691.mzXML
SEQ=*..*
IONMODE=positive
ORGANISM=GNPS-COLLECTIONS-PESTICIDES-POSITIVE
NAME=Pesticide1_Carbaryl_C12H11NO2_1-Naphthyl methylcarbamate M+H
PI=Dorrestein/Touboul
DATACOLLECTOR=lfnothias
SMILES=CNC(=O)OC1=CC=CC2=CC=CC=C21
INCHI=InChI=1S/C12H11NO2/c1-13-12(14)15-11-8-4-6-9-5-2-3-7-10(9)11/h2-8H,1H3,(H,13,14)
INCHIAUX=N/A
PUBMED=n/a
SUBMITUSER=mwang87
LIBRARYQUALITY=1
SPECTRUMID=CCMSLIB00001058720
USI=mzspec:GNPS:GNPS-COLLECTIONS-PESTICIDES-POSITIVE:accession:CCMSLIB00001058720
SCANS=412
70.312195	203.0
70.526718	175.0
70.816093	163.0
71.203712	139.0
71.626419	202.0
71.772133	164.0
72.042351	190.0
72.258636	183.0
72.519119	202.0
72.968529	210.0
73.009445	224.0
73.790894	265.0
74.014961	294.0
74.575951	244.0
75.022255	627.0
76.024399	297.0
76.721016	155.0
77.038391	3167.0
77.407814	193.0
78.043671	587.0
78.337051	193.0
78.445229	131.0
79.302788	109.0
79.690033	118.0
79.86866	137.0
80.616661	108.0
80.897766	239.0
81.032448	361.0
81.392227	322.0
81.532356	195.0
82.306053	202.0
82.389236	185.0
82.598244	269.0
83.039703	246.0
83.623177	131.0
83.803078	262.0
83.840706	149.0
84.565262	132.0
85.082451	116.0
85.232063	266.0
85.695114	213.0
85.717659	175.0
86.131706	245.0
87.613266	250.0
87.736313	109.0
88.253242	305.0
88.438942	113.0
89.039139	939.0
90.153763	168.0
90.33593	181.0
90.712448	253.0
90.775894	130.0
90.817749	133.0
90.849236	147.0
91.009941	158.0
91.054482	92922.0
91.143394	255.0
91.222176	205.0
92.058098	6496.0
92.34874	240.0
92.371017	320.0
92.640572	285.0
92.959648	169.0
93.294106	157.0
93.43306	155.0
94.476822	189.0
94.630615	134.0
94.990417	193.0
95.049599	8754.0
95.451698	248.0
95.987198	135.0
96.526962	113.0
96.838318	111.0
97.89518	113.0
99.007385	195.0
99.296806	199.0
99.424515	142.0
99.970192	109.0
100.028091	223.0
100.201286	228.0
100.469627	186.0
101.018707	158.0
101.036194	897.0
101.172508	202.0
101.658768	190.0
102.012199	182.0
102.045898	1070.0
102.142639	177.0
102.260704	313.0
103.031914	200.0
103.054756	5251.0
103.709526	247.0
103.844627	200.0
103.943367	287.0
103.991379	243.0
104.059486	370.0
104.678566	145.0
104.79599	263.0
104.94146	142.0
105.044762	20764.0
105.108948	341.0
105.384285	152.0
105.565834	184.0
106.047592	1068.0
106.165367	192.0
106.503029	295.0
106.614777	151.0
107.111649	187.0
107.322762	120.0
107.655128	168.0
108.043007	159.0
109.311562	194.0
109.475792	142.0
111.353645	120.0
111.654099	119.0
112.553238	159.0
113.77887	193.0
114.651443	141.0
114.817764	197.0
114.842667	168.0
114.952995	289.0
115.054382	207265.0
115.101982	114.0
115.124016	469.0
115.246979	215.0
116.016815	158.0
116.060692	41597.0
116.104393	456.0
116.607468	128.0
116.671928	280.0
116.745804	120.0
116.776199	352.0
116.890556	229.0
116.997215	221.0
117.07016	275492.0
117.128792	174.0
117.1978	240.0
117.319489	179.0
117.721321	170.0
117.907166	128.0
118.073204	16813.0
118.124794	275.0
118.596466	123.0
118.89711	139.0
119.050797	1496.0
119.724739	108.0
120.048172	171.0
120.11528	165.0
120.784225	248.0
121.674164	249.0
123.066162	342.0
123.21312	198.0
124.15535	264.0
124.312599	167.0
125.03685	851.0
125.441689	204.0
125.588837	275.0
125.843132	216.0
125.979523	280.0
125.999359	385.0
126.046951	22200.0
126.143135	164.0
126.238205	222.0
126.386581	114.0
126.76368	227.0
126.792625	213.0
126.818245	117.0
126.975853	395.0
127.054611	152440.0
127.126724	441.0
127.241058	125.0
127.896049	314.0
128.016449	414.0
128.059433	16233.0
128.121552	163.0
128.637939	142.0
128.997925	238.0
129.045013	11869.0
129.126083	289.0
129.172852	189.0
129.810455	166.0
130.050522	296.0
130.721771	234.0
130.762421	115.0
131.05127	913.0
132.06044	646.0
132.959518	128.0
133.705566	223.0
134.420212	248.0
134.665268	171.0
134.715652	244.0
135.426727	248.0
138.414276	170.0
138.528259	119.0
138.637817	99.0
138.933701	316.0
140.567474	187.0
140.926239	138.0
141.218369	150.0
142.053955	223.0
142.316818	156.0
142.862091	193.0
142.989471	124.0
143.029633	203.0
143.061295	627.0
143.235611	182.0
143.894455	153.0
144.057709	24775.0
144.103714	222.0
144.166412	252.0
144.659134	311.0
144.693481	160.0
144.750656	123.0
144.796265	170.0
144.850098	158.0
144.939667	883.0
145.00238	1013.0
145.065414	867232.0
145.103485	955.0
145.136063	344.0
145.176895	411.0
145.230484	508.0
145.281921	149.0
145.30954	332.0
145.378708	257.0
145.45488	249.0
145.512589	221.0
145.630768	249.0
145.708893	117.0
145.750702	150.0
146.020386	436.0
146.068756	39051.0
146.272385	219.0
146.316116	127.0
146.647476	116.0
146.689606	135.0
146.892166	151.0
146.935959	142.0
147.043045	327.0
147.06987	756.0
147.168808	121.0
147.213638	282.0
147.247604	272.0
147.274323	143.0
147.308746	130.0
147.537781	414.0
148.087418	150.0
148.291946	160.0
149.511383	165.0
149.674683	319.0
151.705063	185.0
152.683136	197.0
152.836365	122.0
153.048233	221.0
154.047897	166.0
154.342026	116.0
154.392166	211.0
154.492447	273.0
154.54454	232.0
154.57222	254.0
154.653961	341.0
154.70314	110.0
154.736572	148.0
154.759109	174.0
154.843246	139.0
154.90947	422.0
154.930115	419.0
154.957855	454.0
154.98468	1428.0
155.061081	857320.0
155.101105	267.0
155.179382	128.0
155.217163	254.0
155.254776	444.0
155.275269	566.0
155.307297	192.0
155.354095	290.0
155.390427	687.0
155.456558	229.0
155.494965	220.0
155.709427	123.0
155.784531	104.0
155.839584	183.0
155.868744	255.0
155.989777	621.0
156.064072	66546.0
156.228241	161.0
156.398941	255.0
156.577179	117.0
156.786377	233.0
156.968155	131.0
157.063736	1041.0
157.308151	340.0
157.342728	117.0
157.373398	235.0
157.403366	232.0
157.445221	253.0
157.611572	102.0
158.105255	121.0
158.976944	304.0
161.056595	288.0
162.065277	136.0
163.078659	299.0
168.083405	310.0
171.055435	486.0
182.537964	138.0
194.981857	180.0
201.021301	202.0
202.046188	884.0
230.002441	162.0
237.038849	566.0
245.50499	140.0
255.056076	254.0
279.104309	133.0
640.694702	199.0
640.801697	126.0
654.720154	150.0
686.298279	226.0
783.632996	221.0
806.680481	159.0
858.202271	190.0
868.44812	223.0
901.16925	124.0
901.281189	192.0
903.576843	145.0
931.531311	192.0
935.642151	166.0
941.671753	176.0
945.720398	262.0
966.99823	233.0
982.2995	166.0
1002.286438	163.0
END IONS

BEGIN IONS
PEPMASS=315.163
CHARGE=1
MSLEVEL=2
SOURCE_INSTRUMENT=LC-ESI-qTof
FILENAME=mmv_positive.mgf
SEQ=*..*
IONMODE=Positive
ORGANISM=MMV_POSITIVE
NAME=MMV004168 M+H
PI=Sirenas MD
DATACOLLECTOR=Sirenas MD
SMILES=CN1CCCN(CC1)C(c2ccccc2)c3ccc(Cl)cc3
INCHI=N/A
INCHIAUX=N/A
PUBMED=N/A
SUBMITUSER=mwang87
LIBRARYQUALITY=3
SPECTRUMID=CCMSLIB00004722096
USI=mzspec:GNPS:MMV_POSITIVE:accession:CCMSLIB00004722096
SCANS=101
113.107498	2873.152344
113.151886	71.480766
113.169296	33.333332
113.264961	39.41346
113.472542	19.595589
139.055893	65.657608
149.012421	30.333334
152.446243	28.923077
162.665314	20.020834
162.689621	21.799999
163.050446	75.265625
163.780655	45.511364
164.062897	311.579468
164.154785	25.941177
164.193298	58.53125
164.230499	40.01907
164.252792	40.833332
164.319336	19.041666
164.355698	47.668652
164.375778	73.142242
164.453766	23.446428
164.497467	20.086538
164.560593	43.063774
164.600769	19.005434
164.960617	74.66848
165.069244	12698.62793
165.137756	207.357147
165.155579	142.189392
165.190002	117.272728
165.233826	189.482147
165.277847	42.361111
165.307556	101.145348
165.336197	110.010872
165.376709	31.571428
165.401489	98.086266
165.455399	78.049606
165.48056	25.556818
165.505096	65.440475
165.526718	42.164474
165.563736	63.30682
165.589935	30.625
165.674805	34.142857
165.71817	22.322369
165.763641	26.183823
165.835007	25.680555
165.859924	30.163462
165.958511	39.30682
166.036148	255.888885
166.050125	291.0354
166.077499	22248.171875
166.133606	619.246948
166.190216	101.08654
166.229782	121.837212
166.261536	40.852272
166.298264	53.25
166.341339	129.001083
166.353699	148.28006
166.377441	133.228653
166.406296	69.32692
166.457062	70.686401
166.476395	91.009956
166.494843	70.324997
166.525818	128.338852
166.553619	64.408333
166.581009	54.470589
166.601639	22.568182
166.673859	20.416666
166.69722	45.219593
166.769547	33.692307
166.86618	19.125
166.94342	33.017857
167.028931	57.142857
167.05545	33.782406
167.082184	1381.491943
167.144409	52.969826
167.225174	23.778847
167.276855	40.102272
167.691101	50.398586
167.798065	23.020834
167.929352	20.03409
168.425003	31.102272
169.863068	18.556818
198.383545	36.113636
198.446091	39.266666
199.030289	51.308823
199.528458	18.15
199.710327	20.076923
199.791718	39.693966
199.847168	177.163635
199.886688	175.003616
199.909592	186.507812
199.937241	184.215515
199.991165	288.243927
200.039093	598.735352
200.065414	241.125
200.124435	190.125
200.152206	154.691895
200.194153	115.070312
200.229309	215.664719
200.250702	76.307693
200.273605	51.361111
200.328476	67.449997
200.384308	39.140625
200.428818	41.336113
200.458206	50.198528
200.473831	47.799999
200.501846	86.541664
200.523849	46.025002
200.552521	23.272728
200.59053	45.487904
200.611816	77.77594
200.660675	65.030403
200.721161	45.344513
200.750595	53.462837
200.786179	187.116882
200.85556	36.796051
200.897018	60.27174
200.931671	73.059212
200.961197	69.0
201.046875	164810.78125
201.108688	9715.837891
201.494781	110.508827
201.519531	36.190788
201.559097	213.127762
201.625412	180.410461
201.6595	149.209015
201.683823	152.0
201.713547	145.183136
201.758789	193.255325
201.786255	123.144234
201.830887	117.1875
201.906082	131.887375
201.929092	67.166664
201.963318	46.75
201.993423	40.179295
202.049438	9670.587891
202.146088	106.377068
202.167648	89.929817
202.212708	56.418388
202.255768	75.455811
202.304352	29.173868
202.323273	20.85
202.349045	48.952778
202.395111	66.144814
202.420242	100.162788
202.459167	43.191326
202.497406	48.240383
202.564209	33.671295
202.596863	41.264706
202.639618	59.597828
202.664398	61.608883
202.700836	81.001663
202.725677	63.424999
202.770065	52.533333
202.783981	29.200001
202.840729	75.964287
202.879227	32.002453
202.971436	70.578949
203.009293	131.242645
203.044998	525.172852
203.131104	24.5
203.146896	30.002777
203.172241	102.177635
203.262177	40.041668
203.280487	29.199751
203.3069	73.130318
203.375565	37.41346
203.509048	20.041666
203.518982	17.03125
203.553299	17.017857
203.628174	29.063776
203.707947	18.918478
203.782104	17.004999
203.885239	18.013889
203.996017	27.48077
204.022705	44.841217
204.166916	44.926281
204.41507	61.054825
204.686996	22.5625
205.140198	18.014706
205.454987	24.142857
205.86409	43.55682
206.552826	25.803572
207.704361	23.025
208.019211	34.666668
209.336212	44.44643
219.644653	18.005953
279.355286	36.125
315.160767	163.461533
316.16275	32.266666
882.228394	17.0
END IONS

BEGIN IONS
PEPMASS=288.065
CHARGE=1
MSLEVEL=2
SOURCE_INSTRUMENT=LC-ESI-qTof
FILENAME=mmv_positive.mgf
SEQ=*..*
IONMODE=Positive
ORGANISM=MMV_POSITIVE
NAME=MMV001499 M+H
PI=Sirenas MD
DATACOLLECTOR=Sirenas MD
SMILES=CC1CS(=O)(=O)CCN1\N=C\c2oc(cc2)[N+](=O)[O-]
INCHI=N/A
INCHIAUX=N/A
PUBMED=N/A
SUBMITUSER=mwang87
LIBRARYQUALITY=3
SPECTRUMID=CCMSLIB00004722097
USI=mzspec:GNPS:MMV_POSITIVE:accession:CCMSLIB00004722097
SCANS=102
105.000008	435.049713
105.04776	14.086538
105.551132	24.367647
105.562531	23.333334
105.662361	18.005953
105.792114	33.0625
105.995697	4794.01416
106.052071	182.533875
106.065559	261.148865
106.098785	30.006578
106.123802	19.307692
106.141716	22.004032
106.155342	11.160714
106.181297	43.3125
106.213417	60.006756
106.224251	49.16
106.2537	13.778846
106.280243	25.6
106.306664	13.025
106.368896	38.36842
106.425087	21.306818
106.460503	9.556818
106.536362	10.011364
106.995956	126.222565
107.015327	223.176468
107.059792	1004.579773
107.086884	75.053574
107.120491	42.53125
107.387314	14.5
107.461235	10.035714
107.555023	28.049999
107.580963	38.5
107.634415	18.005434
107.75663	17.0625
108.033249	202.617981
108.043053	221.181824
108.065933	389.514862
108.111618	11.017858
108.143944	6.0
108.160225	9.875
108.187363	6.0
108.600281	10.027778
109.05159	185.560181
109.137527	39.002357
109.171379	51.145409
110.022507	283.446442
111.03154	554.159119
111.07943	24.125
111.428825	30.889286
111.442963	17.125
112.037834	128.938293
112.055473	38.75
112.097664	9.008333
114.018913	240.266129
114.094505	20.720238
114.367012	17.038794
115.055031	76.852615
119.060699	240.223145
119.108925	11.225
119.480469	21.28409
120.011887	644.752136
120.05529	125.259407
120.073303	54.592213
120.176071	25.487904
120.359238	18.100807
120.382133	49.532894
120.431694	19.03125
120.573669	10.666667
120.637894	9.125
120.829163	10.035714
121.038933	1082.201416
121.091171	28.148809
121.439224	9.8
121.460983	6.05
121.610588	5.160714
121.720963	19.78125
121.729866	15.240385
121.963791	11.208333
122.046478	205.773209
123.018715	96.14975
123.051491	93.208336
123.327812	46.063774
123.416626	78.108109
123.452126	22.796053
123.610481	17.075001
123.708565	7.875
123.801445	30.777779
123.94278	16.027779
123.987328	24.25
124.026627	7529.505859
124.073578	153.404816
124.089981	96.119118
124.119698	49.191177
124.147224	57.969826
124.170227	20.0
124.194672	23.004629
124.252777	22.007353
124.278877	67.786766
124.328712	48.979652
124.349602	20.035715
124.365341	30.964285
124.396362	20.022728
124.422531	21.889706
124.433655	57.840908
124.470551	10.066176
124.504326	16.183823
124.605988	31.153847
124.664299	13.163462
124.846397	23.086538
125.029282	337.170074
125.074989	11.446428
125.203354	36.222561
126.017052	197.79715
126.129036	8.125
127.025177	67.052635
127.36142	38.36842
131.204681	26.900862
131.642532	17.015625
132.045776	101.384613
132.083191	115.053574
132.117981	7.011364
132.209991	14.066176
132.289886	26.521551
132.418549	10.025
133.032227	140.072723
133.171585	29.1875
133.604996	68.84375
134.02652	1537.972656
134.075302	32.0
134.205597	18.076923
134.224594	9.125
134.253967	11.208333
134.274124	16.045
134.491898	16.11574
134.717529	24.844999
135.038757	164.876587
135.055222	1603.496704
135.105789	32.125
135.121048	20.674999
135.14592	20.041666
135.295792	20.657608
135.453873	38.408333
135.71312	12.086538
136.058701	174.028168
136.082626	57.007355
136.111053	8.083333
137.020859	266.451538
137.090561	16.071428
137.336868	49.297619
137.750504	11.666667
138.029892	1647.001953
138.079758	36.5
138.107971	76.891891
138.147568	5.160714
138.172836	10.45
138.204865	7.0625
138.331696	8.086538
138.798569	21.052631
139.036118	80.568184
139.336304	7.083333
140.645004	34.375
140.980438	11.556818
141.028244	590.753906
141.060242	38.16346
141.094955	12.166667
141.206787	10.013889
141.233994	18.556818
141.615891	66.1875
141.645264	10.027778
142.562378	7.102273
145.680542	12.360294
146.333298	21.0
147.064392	7.375
147.106491	18.347221
147.129791	5.0
147.239014	41.349136
147.264862	27.0
147.34584	71.326614
147.432968	32.845001
147.450012	15.284091
147.721207	15.482142
147.809998	10.066176
147.856522	23.058823
147.992065	6.083333
148.043137	11103.717773
148.094467	290.077576
148.143066	50.900002
148.179077	87.360291
148.20607	62.920456
148.241745	8.05
148.271423	35.920456
148.286224	13.25
148.318298	32.765625
148.351944	37.387821
148.40332	25.09091
148.466705	32.289288
148.496002	15.204545
148.525955	21.75
148.805649	11.142858
148.878113	54.740944
149.045654	339.912659
149.079712	115.612244
149.196289	36.017857
149.785583	9.375
150.058914	433.449707
150.117996	6.05
150.141235	10.0
150.196762	40.259617
150.247482	22.4
150.426987	7.0
150.57634	5.025
150.910263	10.347222
151.04744	116.201187
151.083542	9.8
151.101929	5.0
151.148987	6.0
151.431503	57.041668
151.69696	24.066668
151.761246	19.0
151.971329	37.0
153.027237	53.816666
154.018982	44.416668
155.033997	83.03125
156.039749	130.504196
157.28804	9.0
163.048508	117.737701
164.070923	86.264709
164.248596	10.240385
165.050674	179.245071
165.085556	12.125
165.258011	45.055557
166.060394	46.191177
167.058167	86.740944
167.223267	10.083333
168.040161	1339.856201
168.068558	181.793106
168.096542	55.171612
168.163574	16.041666
168.195694	10.066176
168.266602	16.778847
168.335587	26.004032
168.385254	41.375
168.448456	9.075
169.547775	14.408334
169.665283	8.008333
169.692459	24.125
175.085602	165.29657
175.139267	13.041667
177.030441	19.083334
181.045578	131.489822
181.113327	7.0
182.057678	764.704407
182.112701	26.291666
182.137268	6.625
182.219971	10.208333
182.393768	17.1875
183.060593	260.101868
183.132202	14.125
183.749802	18.0625
185.037003	90.911293
185.182816	50.964622
188.080261	51.052631
190.093735	89.476692
190.113937	17.041666
190.496857	10.666667
194.057297	50.099998
194.643356	63.469444
208.068817	199.765518
211.806183	17.1875
212.561539	42.814816
213.069031	562.752869
213.11467	8.160714
213.152374	5.333333
213.545944	26.818182
214.074249	96.648529
227.667114	5.083333
239.045898	35.112499
241.063049	95.254547
241.320114	8.166667
242.218948	10.666667
244.659668	15.125
246.019379	131.120193
251.814026	18.75
254.05542	77.485214
256.038269	21.13587
257.05719	353.688599
258.063477	76.215515
258.107758	6.0
266.121002	27.347221
269.573181	8.284091
269.620636	15.125
269.733124	43.360001
269.819733	5.333333
270.219086	5.160714
271.062195	6681.85791
271.175995	9.041667
271.232208	19.032143
271.255127	36.235466
271.277222	53.235294
271.304535	41.224998
271.332977	52.125
271.366486	26.163462
271.405884	63.004032
271.462006	30.041666
271.541687	12.25
271.618073	20.225
271.654388	43.25
271.786224	48.445
271.803284	29.125
271.857086	37.235466
271.89151	40.934322
271.979858	33.0
272.064056	374.15094
272.201599	22.969828
272.376495	22.125
272.471222	17.006578
274.410278	25.165323
286.31076	19.0
286.446106	34.210526
286.49884	14.007353
286.528534	13.595589
286.657837	6.0
286.786316	27.918478
287.27301	76.0
287.324921	15.008333
287.724731	19.075001
287.995758	7.2
288.065125	4770.298828
288.135376	135.458328
288.220917	34.573978
288.275909	30.520161
288.320038	61.5
288.344818	29.022728
288.386353	30.964285
288.409943	25.226852
288.446289	14.0625
288.497498	27.208334
288.571381	20.125
288.60495	18.0
288.646484	6.25
288.701813	26.166666
288.749084	16.53125
288.805939	33.084461
288.871002	19.058823
289.00705	36.328949
289.067322	377.887573
289.151917	9.0
289.203796	30.266666
289.243622	20.032143
289.386139	30.852272
289.421082	32.266666
289.440857	9.125
290.076813	33.941177
290.106842	6.225
290.286316	21.390625
290.50531	41.681602
291.907654	15.041667
425.895233	9.25
882.798035	14.240385
1178.356689	17.204546
END IONS

BEGIN IONS
PEPMASS=469.075
CHARGE=1
MSLEVEL=2
SOURCE_INSTRUMENT=ESI-qTof
FILENAME=MSV000079274/ccms_peak/plate22/1151.D_RG11_01_5307.mzXML
SEQ=*..*
IONMODE=Positive
ORGANISM=GNPS-NIST14-MATCHES
NAME=Spectral Match to Cromolyn from NIST14 M+H
PI=Data from P.Dorrestein
DATACOLLECTOR=Data deposited by amelnik
SMILES=C1=CC2=C(C(=C1)OCC(COC3=CC=CC4=C3C(=O)C=C(O4)C(=O)O)O)C(=O)C=C(O2)C(=O)O
INCHI=InChI=1S/C23H16O11/c24-11(9-31-14-3-1-5-16-20(14)12(25)7-18(33-16)22(27)28)10-32-15-4-2-6-17-21(15)13(26)8-19(34-17)23(29)30/h1-8,11,24H,9-10H2,(H,27,28)(H,29,30)
INCHIAUX=N/A
PUBMED=N/A
SUBMITUSER=mwang87
LIBRARYQUALITY=3
SPECTRUMID=CCMSLIB00003134785
USI=mzspec:GNPS:GNPS-NIST14-MATCHES:accession:CCMSLIB00003134785
SCANS=1171
147.043732	544.0
206.021942	520.0
207.028534	6912.0
208.030029	624.0
217.049118	796.0
219.031448	548.0
233.044312	804.0
245.044769	4504.0
246.048462	636.0
263.05545	1540.0
467.240692	472.0
END IONS

BEGIN IONS
PEPMASS=237.124
CHARGE=1
MSLEVEL=2
SOURCE_INSTRUMENT=ESI-qTof
FILENAME=MSV000080604/ccms_peak/1703_Pesticides_standards_QExactive/Positive/Pesticide_Mix4_pos.mzXML
SEQ=*..*
IONMODE=Positive
ORGANISM=GNPS-NIST14-MATCHES
NAME=Spectral Match to Carbetamide from NIST14 M+H
PI=Data from Pieter Dorrestein;David Touboul
DATACOLLECTOR=Data deposited by lfnothias
SMILES=CCNC(=O)C(C)OC(=O)NC1=CC=CC=C1
INCHI=InChI=1S/C12H16N2O3/c1-3-13-11(15)9(2)17-12(16)14-10-7-5-4-6-8-10/h4-9H,3H2,1-2H3,(H,13,15)(H,14,16)
INCHIAUX=N/A
PUBMED=N/A
SUBMITUSER=mwang87
LIBRARYQUALITY=3
SPECTRUMID=CCMSLIB00003135138
USI=mzspec:GNPS:GNPS-NIST14-MATCHES:accession:CCMSLIB00003135138
SCANS=1240
71.060631	5381.59082
71.277039	5475.548828
72.044754	286311.15625
72.081169	1919647.0
73.66375	4820.725586
74.712135	5270.950684
77.038872	31223.136719
84.8564	6469.595215
92.049698	193693.34375
94.065292	6731.337891
95.049301	67891.179688
100.075974	815886.875
101.138969	5260.973633
118.086632	4216843.5
120.044807	3227108.75
125.773857	5601.431152
133.405334	5532.847656
135.648636	5644.967285
138.055435	63555.550781
144.065903	56746.339844
149.231277	6223.850098
164.070694	12960.508789
164.881577	7104.640137
179.986923	5761.786133
183.013611	6029.577637
192.065765	1005991.75
200.550797	5559.812012
221.57518	5783.192383
222.637192	6858.098633
232.515839	5988.59668
237.12413	31797.828125
255.426788	6119.422363
END IONS

BEGIN IONS
PEPMASS=405.219
CHARGE=1
MSLEVEL=2
SOURCE_INSTRUMENT=ESI-qTof
FILENAME=MSV000078567/ccms_peak/FDA_NIH_DrugLibrary/Plate6_21_40_GD8_01_15775.mzXML
SEQ=*..*
IONMODE=Positive
ORGANISM=GNPS-NIST14-MATCHES
NAME=Spectral Match to Flunarizine from NIST14 M+H
PI=Data from Dorrestein
DATACOLLECTOR=Data deposited by negarg
SMILES=C1CN(CCN1C/C=C/C2=CC=CC=C2)C(C3=CC=C(C=C3)F)C4=CC=C(C=C4)F
INCHI=InChI=1S/C26H26F2N2/c27-24-12-8-22(9-13-24)26(23-10-14-25(28)15-11-23)30-19-17-29(18-20-30)16-4-7-21-5-2-1-3-6-21/h1-15,26H,16-20H2/b7-4+
INCHIAUX=N/A
PUBMED=N/A
SUBMITUSER=mwang87
LIBRARYQUALITY=3
SPECTRUMID=CCMSLIB00003136516
USI=mzspec:GNPS:GNPS-NIST14-MATCHES:accession:CCMSLIB00003136516
SCANS=1525
45.056618	164.0
45.904949	144.0
46.578987	156.0
47.026981	208.0
48.89048	152.0
48.903008	148.0
49.232044	156.0
49.356419	212.0
50.285046	188.0
51.68634	152.0
52.015984	184.0
52.811401	196.0
53.175083	164.0
54.86026	144.0
55.028454	148.0
56.663082	164.0
56.993179	156.0
58.52702	184.0
59.200459	232.0
59.408916	208.0
59.464157	164.0
59.54707	168.0
60.297409	172.0
61.362328	180.0
61.956234	144.0
62.92033	192.0
63.09412	192.0
63.718571	140.0
64.381226	204.0
64.518646	168.0
65.09066	144.0
65.18544	144.0
65.304413	140.0
65.48307	236.0
66.132149	192.0
66.513069	196.0
66.717758	164.0
66.865791	148.0
66.95208	148.0
67.706612	188.0
68.129814	180.0
68.422562	152.0
68.839737	164.0
69.016548	160.0
70.335701	168.0
71.424904	140.0
71.537651	184.0
71.615112	184.0
72.042145	136.0
72.576729	156.0
72.848282	144.0
73.093117	164.0
73.889961	176.0
74.014908	152.0
74.937302	204.0
75.071754	180.0
75.756226	156.0
76.686867	100.0
77.600121	112.0
78.141663	124.0
79.211014	184.0
80.741783	144.0
82.788094	224.0
82.865982	204.0
84.893013	164.0
85.082008	208.0
85.462471	212.0
85.871445	164.0
86.290634	148.0
87.986954	172.0
89.78463	236.0
90.96534	228.0
92.5765	240.0
92.844803	144.0
93.174973	188.0
94.542114	152.0
95.479179	176.0
95.508354	176.0
95.786713	180.0
96.145477	152.0
97.34948	196.0
97.650177	140.0
97.980888	156.0
98.243095	208.0
99.531593	144.0
99.595146	188.0
99.841606	160.0
101.425804	172.0
101.447006	180.0
101.808174	212.0
101.890533	152.0
101.948799	156.0
102.176025	168.0
102.198158	212.0
102.383171	172.0
102.667519	160.0
102.877365	152.0
103.512253	192.0
105.796799	208.0
108.071098	176.0
108.288467	224.0
109.372345	160.0
110.798668	168.0
111.22438	168.0
112.000298	148.0
112.462074	176.0
112.70079	240.0
113.210526	180.0
113.615379	148.0
113.834	152.0
115.000702	152.0
115.916061	188.0
117.06839	1696.0
118.074036	312.0
118.361031	148.0
119.335297	160.0
119.825012	168.0
120.162956	172.0
120.980347	176.0
121.659958	184.0
121.822472	236.0
122.450806	216.0
122.592575	144.0
124.084633	148.0
124.386353	160.0
124.708435	228.0
125.737434	200.0
125.911583	204.0
129.43338	224.0
130.356644	176.0
130.909439	180.0
131.824219	192.0
132.302277	180.0
132.419052	216.0
133.04277	200.0
134.585388	184.0
134.943527	216.0
135.005966	168.0
135.309097	160.0
135.603287	180.0
135.923325	172.0
136.497101	180.0
136.559891	184.0
138.211609	188.0
138.417603	164.0
138.574539	216.0
138.633118	152.0
139.273636	144.0
140.460007	168.0
141.099991	180.0
141.618256	240.0
142.657593	148.0
144.08754	212.0
144.125763	152.0
144.908188	152.0
145.325378	160.0
145.375778	184.0
145.449173	156.0
145.959518	196.0
146.371002	244.0
147.00499	180.0
147.065338	152.0
148.628738	212.0
149.284622	196.0
149.316238	252.0
149.459763	140.0
150.466415	264.0
151.30011	144.0
151.650406	148.0
152.438217	164.0
153.60527	224.0
153.629929	144.0
154.474808	200.0
156.983444	180.0
157.048279	232.0
157.452621	148.0
157.920013	152.0
158.04155	184.0
159.620392	144.0
160.055725	168.0
160.247147	176.0
160.57991	164.0
160.625305	192.0
160.986237	156.0
163.045837	128.0
163.729797	160.0
163.906082	216.0
164.040741	120.0
165.471832	176.0
166.978165	160.0
167.64238	172.0
167.683624	156.0
168.031754	144.0
170.05217	656.0
171.055069	132.0
171.681488	164.0
172.179962	192.0
172.362839	260.0
174.367645	164.0
175.012161	196.0
175.035858	168.0
175.518082	144.0
175.705353	252.0
177.05072	172.0
177.228302	168.0
177.412704	196.0
177.665787	196.0
179.426392	168.0
179.898605	156.0
180.446289	180.0
180.478378	176.0
181.046448	272.0
181.644318	140.0
182.672256	164.0
182.933853	212.0
183.060501	25060.0
184.062958	3336.0
184.303406	168.0
184.4142	196.0
184.51152	176.0
184.960587	140.0
185.063477	276.0
185.160965	140.0
185.941788	260.0
186.15834	168.0
187.568344	172.0
187.753754	272.0
188.042816	556.0
191.35173	196.0
191.690536	160.0
192.623093	160.0
194.667145	216.0
195.595779	144.0
197.361786	188.0
197.820633	240.0
197.882217	140.0
198.005432	140.0
198.086655	172.0
198.852158	140.0
199.062714	144.0
199.503845	152.0
200.514389	148.0
200.793503	216.0
200.869659	152.0
201.051193	6464.0
201.137497	2448.0
201.263763	176.0
201.951523	156.0
202.055695	2048.0
202.139862	460.0
202.228821	140.0
202.256104	156.0
202.353378	208.0
202.523285	160.0
202.598557	168.0
202.735779	156.0
202.814407	108.0
202.843857	152.0
202.902283	184.0
202.946014	192.0
202.986557	156.0
203.029541	248.0
203.067017	245384.0
203.154541	404.0
203.229919	96.0
203.260132	172.0
203.329803	204.0
203.387344	184.0
203.472092	172.0
203.532684	984.0
203.646896	120.0
203.694183	272.0
203.73941	148.0
203.784653	128.0
203.846024	144.0
204.030136	188.0
204.069565	39192.0
204.179977	108.0
204.242081	152.0
204.262878	172.0
204.528244	224.0
204.626953	120.0
205.073044	3004.0
205.118378	180.0
205.253281	116.0
205.294403	188.0
205.33522	224.0
205.435669	136.0
205.47908	104.0
205.523087	200.0
205.580887	344.0
205.636429	104.0
205.672363	260.0
205.720779	260.0
205.742111	204.0
205.768417	100.0
206.697113	128.0
207.293884	112.0
209.024246	176.0
211.06842	616.0
211.416595	140.0
212.063583	164.0
215.040848	136.0
241.124664	164.0
265.143738	152.0
268.132324	256.0
319.88678	172.0
347.176086	140.0
349.118378	152.0
375.20816	168.0
376.639862	160.0
385.205719	1320.0
386.213379	316.0
403.205353	124.0
405.213715	4816.0
405.834656	160.0
406.216217	1756.0
407.212463	160.0
407.239258	300.0
476.674164	148.0
487.951569	160.0
1111.958252	228.0
1531.760254	196.0
1564.321655	200.0
1613.933716	160.0
1630.270874	172.0
1639.517822	192.0
1676.009155	192.0
1717.303955	152.0
1740.484741	140.0
1755.313232	208.0
1761.740112	140.0
1775.895386	160.0
1776.390259	196.0
1790.309448	192.0
1807.302368	176.0
1813.857544	180.0
1822.24231	152.0
1825.702026	204.0
1865.049438	180.0
1875.671631	200.0
1905.007568	180.0
1924.769897	168.0
1942.484375	224.0
1956.114014	184.0
1956.193237	172.0
1959.751343	180.0
1972.141846	172.0
1973.662354	140.0
1977.678955	164.0
1983.799927	164.0
1989.220215	172.0
1990.543091	176.0
1990.907227	200.0
1992.435059	148.0
1996.621826	164.0
END IONS

BEGIN IONS
PEPMASS=114.091
CHARGE=1
MSLEVEL=2
SOURCE_INSTRUMENT=ESI-qTof
FILENAME=MSV000081116/ccms_peak/TSB/Pseudomonas synxantha 32/P_syn_32_SampleF2_control.mzML
SEQ=*..*
IONMODE=Positive
ORGANISM=GNPS-NIST14-MATCHES
NAME=Spectral Match to 6-Aminocaproic acid from NIST14 M+H-H2O
PI=Data from Pieter Dorrestein
DATACOLLECTOR=Data deposited by lfnothias
SMILES=C(CCC(=O)O)CCN
INCHI=InChI=1S/C6H13NO2/c7-5-3-1-2-4-6(8)9/h1-5,7H2,(H,8,9)
INCHIAUX=N/A
PUBMED=N/A
SUBMITUSER=mwang87
LIBRARYQUALITY=3
SPECTRUMID=CCMSLIB00003137149
USI=mzspec:GNPS:GNPS-NIST14-MATCHES:accession:CCMSLIB00003137149
SCANS=804
55.018295	66089.820312
55.054653	115513.0
62.157173	9643.842773
67.054749	146369.125
68.049515	212389.375
69.069893	1298784.875
69.074234	23568.615234
70.065521	106933.328125
71.049248	110285.90625
71.085663	152209.515625
72.044586	13117.916016
72.081184	233582.5
72.937393	480764.125
73.046974	71201.601562
77.104309	9403.092773
79.054321	2128535.5
84.080978	57089.644531
85.065094	14934.463867
86.059776	13511.670898
86.096237	181493.03125
90.947899	84365.914062
91.057083	152915.703125
95.049248	20862.234375
96.08078	1573455.0
96.086052	16662.353516
97.064735	589912.875
97.407501	10549.811523
113.96386	25114.273438
114.078194	100128.554688
114.090996	25203488.0
114.097847	481558.90625
115.095116	70486.484375
121.159698	10787.754883
END IONS

BEGIN IONS
PEPMASS=302.179
CHARGE=1
MSLEVEL=2
SOURCE_INSTRUMENT=ESI-qTof
FILENAME=MSV000078710/ccms_peak/NIH_Pharmacologically_Active_mzXMLs/ML00106585/p4-F09_GF9_01_18393.mzXML
SEQ=*..*
IONMODE=Positive
ORGANISM=GNPS-NIST14-MATCHES
NAME=Spectral Match to Isoxsuprine from NIST14 M+H
PI=Data from Pieter Dorrestein
DATACOLLECTOR=Data deposited by vphelan
SMILES=CC(COC1=CC=CC=C1)NC(C)C(C2=CC=C(C=C2)O)O
INCHI=InChI=1S/C18H23NO3/c1-13(12-22-17-6-4-3-5-7-17)19-14(2)18(21)15-8-10-16(20)11-9-15/h3-11,13-14,18-21H,12H2,1-2H3
INCHIAUX=N/A
PUBMED=N/A
SUBMITUSER=mwang87
LIBRARYQUALITY=3
SPECTRUMID=CCMSLIB00003137950
USI=mzspec:GNPS:GNPS-NIST14-MATCHES:accession:CCMSLIB00003137950
SCANS=1440
44.931107	124.0
44.979149	176.0
45.040573	172.0
45.055267	56.0
45.106052	148.0
45.119419	208.0
45.164886	116.0
45.227779	52.0
45.243374	240.0
45.255894	176.0
45.266605	152.0
45.279999	156.0
45.295326	208.0
45.326889	168.0
45.340832	288.0
45.350662	200.0
45.412689	128.0
45.422081	176.0
45.458305	172.0
45.526028	216.0
45.544231	96.0
45.571102	180.0
45.620831	156.0
45.649067	212.0
45.68	104.0
45.714985	196.0
45.787685	128.0
45.801151	32.0
45.824055	144.0
45.846962	188.0
45.891449	192.0
45.947403	148.0
45.99398	188.0
46.023682	68.0
46.131336	200.0
46.241337	168.0
46.288719	188.0
46.332066	44.0
46.418812	192.0
46.455433	228.0
46.475784	80.0
46.516502	176.0
46.600121	244.0
46.714909	156.0
46.735317	76.0
46.769341	124.0
46.811546	156.0
46.833599	188.0
47.028324	200.0
47.059723	120.0
47.077473	152.0
47.106159	180.0
47.136463	176.0
47.274334	176.0
47.393471	88.0
47.468864	136.0
47.497665	112.0
47.516872	192.0
47.595112	104.0
47.606094	140.0
47.629444	204.0
47.652802	108.0
47.723698	200.0
47.750404	152.0
47.760033	164.0
47.771034	84.0
47.782043	60.0
47.819199	152.0
47.863251	236.0
47.88253	140.0
47.913319	172.0
48.00811	240.0
48.020359	132.0
48.035534	108.0
48.049328	160.0
48.09901	208.0
48.147339	132.0
48.206741	128.0
48.216415	60.0
48.23024	148.0
48.256504	164.0
48.300762	360.0
48.33535	176.0
48.47937	172.0
48.572266	172.0
48.659698	156.0
48.69997	128.0
48.712471	144.0
48.723587	172.0
48.750061	224.0
48.788906	236.0
48.804775	340.0
48.86454	228.0
48.875141	204.0
48.893234	152.0
48.941956	148.0
48.982346	144.0
49.045052	148.0
49.07851	164.0
49.200748	112.0
49.211067	132.0
49.25436	248.0
49.272522	172.0
49.289288	248.0
49.357784	160.0
49.472515	32.0
49.532734	52.0
49.574764	72.0
49.590359	192.0
49.609806	136.0
49.709393	172.0
49.723427	156.0
49.754368	192.0
49.809078	220.0
49.821724	184.0
49.929958	96.0
49.942619	184.0
49.98201	176.0
50.092899	200.0
50.108734	156.0
50.142555	148.0
50.20882	128.0
50.292065	128.0
50.405048	148.0
50.416355	180.0
50.434731	124.0
50.530895	88.0
50.573349	60.0
50.642136	176.0
50.74902	152.0
50.785892	104.0
50.795822	144.0
50.862514	180.0
50.878132	136.0
50.918705	176.0
50.955891	216.0
50.980404	120.0
51.102695	156.0
51.118347	112.0
51.134003	224.0
51.205666	180.0
51.227982	152.0
51.279282	212.0
51.376247	168.0
51.433331	172.0
51.477589	196.0
51.500443	144.0
51.524727	224.0
51.539013	172.0
51.563595	200.0
51.621925	144.0
51.660542	208.0
51.699177	180.0
51.755005	176.0
51.829491	140.0
51.850986	160.0
51.88969	224.0
51.994411	200.0
52.066536	152.0
52.089176	100.0
52.14378	168.0
52.18259	212.0
52.211353	84.0
52.260262	156.0
52.276093	148.0
52.299007	156.0
52.312077	180.0
52.406605	216.0
52.457386	152.0
52.493622	236.0
52.513813	168.0
52.571522	92.0
52.59317	156.0
52.6567	176.0
52.728943	204.0
52.773758	172.0
52.788216	172.0
52.835949	344.0
52.92968	148.0
52.977829	160.0
52.989418	112.0
53.022751	220.0
53.079288	208.0
53.169231	176.0
53.191006	36.0
53.217136	160.0
53.249084	140.0
53.294121	160.0
53.34499	68.0
53.368252	140.0
53.431793	192.0
53.447346	308.0
53.515057	152.0
53.567642	144.0
53.725086	368.0
53.745514	196.0
53.773243	232.0
53.799519	116.0
53.815578	184.0
53.844784	224.0
53.96315	196.0
54.028969	144.0
54.063824	200.0
54.091896	180.0
54.110928	116.0
54.128498	152.0
54.140213	160.0
54.163651	68.0
54.192951	152.0
54.233986	180.0
54.267704	104.0
54.295567	192.0
54.320499	192.0
54.421768	180.0
54.71476	176.0
54.762955	128.0
54.811569	168.0
54.916245	168.0
54.984116	140.0
55.223469	152.0
55.263412	168.0
55.28709	188.0
55.325577	116.0
55.371933	156.0
55.387772	124.0
55.456711	168.0
55.549351	132.0
55.668091	148.0
55.711166	60.0
55.801712	156.0
55.85239	152.0
55.879169	148.0
55.908928	168.0
55.931255	148.0
56.007198	68.0
56.034012	504.0
56.057854	140.0
56.12941	108.0
56.149517	124.0
56.196533	136.0
56.295052	164.0
56.410103	168.0
56.425053	220.0
56.442993	164.0
56.519726	208.0
56.540234	120.0
56.563446	244.0
56.583645	40.0
56.616589	168.0
56.742458	176.0
56.871475	188.0
56.912006	208.0
57.036938	156.0
57.057751	144.0
57.116402	124.0
57.163044	152.0
57.206692	296.0
57.297054	252.0
57.307598	120.0
57.321163	116.0
57.51421	168.0
57.533836	180.0
57.636543	144.0
57.675838	212.0
57.710609	136.0
57.752956	184.0
57.784725	144.0
57.807213	176.0
57.8498	140.0
57.874027	140.0
58.069519	140.0
58.089241	172.0
58.099857	300.0
58.174221	172.0
58.193958	84.0
58.215218	168.0
58.237999	124.0
58.250153	36.0
58.285496	228.0
58.387535	156.0
58.434109	164.0
58.467587	172.0
58.603115	180.0
58.963257	148.0
59.018291	220.0
59.037296	328.0
59.1315	192.0
59.149868	148.0
59.165176	180.0
59.204987	76.0
59.286186	164.0
59.322971	108.0
59.353638	144.0
59.421127	140.0
59.447212	48.0
59.485584	112.0
59.528576	64.0
59.548538	140.0
59.629971	108.0
59.648418	72.0
59.666866	192.0
59.709026	48.0
59.742226	176.0
59.819172	88.0
59.848423	124.0
59.933144	40.0
59.967045	108.0
60.02409	132.0
60.068817	92.0
60.122822	236.0
60.212368	144.0
60.232445	120.0
60.311253	208.0
60.363819	196.0
60.43343	60.0
60.47237	220.0
60.509491	196.0
60.560375	192.0
60.673496	164.0
60.696941	168.0
60.802246	152.0
60.816216	136.0
60.89851	180.0
60.943562	32.0
60.983967	196.0
61.010395	128.0
61.072598	52.0
61.120827	108.0
61.150394	148.0
61.31324	216.0
61.42152	148.0
61.438679	200.0
61.460522	64.0
61.476509	180.0
61.526077	168.0
61.55262	160.0
61.582294	52.0
61.594788	60.0
61.611973	188.0
61.67448	212.0
61.707314	196.0
61.721386	204.0
61.840282	180.0
61.862198	184.0
61.909172	124.0
61.949551	164.0
61.962429	196.0
62.02198	184.0
62.134892	132.0
62.203945	100.0
62.390892	132.0
62.412697	132.0
62.439636	148.0
62.469524	220.0
62.515156	240.0
62.56395	164.0
62.719906	156.0
62.732517	92.0
62.853962	120.0
62.909203	168.0
62.948677	76.0
62.960438	148.0
63.105114	184.0
63.141098	196.0
63.180077	188.0
63.256992	124.0
63.27599	200.0
63.33617	180.0
63.424908	188.0
63.450272	96.0
63.477226	192.0
63.52005	228.0
63.580345	224.0
63.597805	108.0
63.63908	136.0
63.677193	172.0
63.859978	72.0
63.875885	164.0
63.919239	144.0
63.931572	288.0
64.10038	152.0
64.180077	148.0
64.314095	184.0
64.392326	180.0
64.478607	228.0
64.52816	144.0
64.59053	160.0
64.648132	208.0
64.667336	108.0
64.724968	268.0
64.813072	164.0
64.840317	172.0
64.960579	152.0
64.997475	176.0
65.042419	156.0
65.077736	188.0
65.095398	52.0
65.153221	88.0
65.212685	96.0
65.243225	164.0
65.2593	208.0
65.302719	132.0
65.334892	244.0
65.407753	176.0
65.487823	68.0
65.600616	168.0
65.674797	36.0
65.82328	40.0
65.933128	152.0
65.996178	140.0
66.031754	188.0
66.123978	196.0
66.224365	216.0
66.269722	196.0
66.358871	116.0
66.426987	220.0
66.485397	176.0
66.498383	64.0
66.516235	180.0
66.592552	208.0
66.642914	80.0
66.720497	180.0
66.82502	140.0
66.87059	320.0
66.919426	228.0
66.958511	160.0
67.013893	224.0
67.036713	132.0
67.096024	248.0
67.11985	212.0
67.136154	96.0
67.154099	96.0
67.186722	88.0
67.201408	196.0
67.235672	140.0
67.260155	128.0
67.29924	200.0
67.387543	108.0
67.400612	32.0
67.626305	120.0
67.64431	168.0
67.675415	200.0
67.699974	188.0
67.786804	108.0
67.827774	280.0
67.839249	208.0
67.898285	172.0
67.973854	184.0
67.996719	200.0
68.008209	212.0
68.042686	132.0
68.096878	252.0
68.136299	164.0
68.225052	68.0
68.262871	160.0
68.28096	176.0
68.455406	136.0
68.519646	112.0
68.589279	160.0
68.67131	44.0
68.691101	328.0
68.705948	192.0
68.734001	168.0
68.773605	112.0
68.851074	192.0
68.978325	180.0
69.051193	156.0
69.100822	148.0
69.18026	60.0
69.292877	184.0
69.369118	164.0
69.38562	180.0
69.437103	132.0
69.506775	56.0
69.518394	224.0
69.571083	204.0
69.599731	216.0
69.716019	176.0
69.74427	160.0
69.810364	176.0
69.857353	244.0
69.878975	128.0
69.943886	120.0
69.992165	172.0
70.01548	168.0
70.040466	124.0
70.14711	104.0
70.218811	152.0
70.233826	100.0
70.298897	124.0
70.310577	108.0
70.394051	168.0
70.434135	188.0
70.500969	172.0
70.541084	208.0
70.617996	208.0
70.634727	92.0
70.669861	196.0
70.849007	144.0
70.93615	204.0
71.028381	32.0
71.283585	164.0
71.480339	172.0
71.522415	224.0
71.562813	76.0
71.611191	192.0
71.638603	180.0
71.706009	196.0
71.725487	208.0
71.839218	128.0
71.876335	180.0
71.917938	228.0
71.959045	172.0
72.013084	192.0
72.14151	124.0
72.164909	176.0
72.180397	164.0
72.199615	232.0
72.275124	132.0
72.369919	200.0
72.429192	112.0
72.463074	176.0
72.507133	172.0
72.518997	176.0
72.559685	88.0
72.676712	212.0
72.695381	148.0
72.887268	168.0
72.96376	196.0
72.979057	72.0
72.996376	108.0
73.018478	200.0
73.04879	148.0
73.067505	172.0
73.104942	156.0
73.14579	132.0
73.164513	208.0
73.193459	136.0
73.495575	84.0
73.577103	156.0
73.624908	124.0
73.6642	132.0
73.677864	120.0
73.767853	220.0
73.843674	124.0
73.869331	136.0
73.886444	232.0
73.905464	168.0
73.926811	216.0
73.948044	200.0
73.980568	168.0
74.073044	156.0
74.091888	160.0
74.175865	196.0
74.256454	208.0
74.270172	76.0
74.287331	136.0
74.381714	72.0
74.453827	116.0
74.479591	156.0
74.519104	168.0
74.577538	132.0
74.623947	140.0
74.696411	148.0
74.802872	144.0
74.818367	216.0
74.838043	196.0
74.898308	200.0
74.923424	128.0
74.976845	176.0
74.990631	152.0
75.09063	288.0
75.10788	140.0
75.132034	152.0
75.151009	108.0
75.189384	136.0
75.254578	124.0
75.373764	184.0
75.404869	120.0
75.51725	44.0
75.550117	124.0
75.563965	156.0
75.576073	48.0
75.660881	212.0
75.946815	340.0
75.9711	136.0
76.034119	228.0
76.057869	144.0
76.088036	160.0
76.113037	188.0
76.122345	212.0
76.136002	176.0
76.325424	188.0
76.475632	236.0
76.495094	184.0
76.539787	208.0
76.617836	168.0
76.799133	184.0
76.825294	160.0
76.851471	220.0
76.867172	164.0
76.891609	152.0
76.944237	184.0
77.003494	140.0
77.067986	220.0
77.127403	216.0
77.188599	152.0
77.337303	188.0
77.409088	188.0
77.428352	180.0
77.593071	164.0
77.626389	156.0
77.670235	132.0
77.691284	216.0
77.736908	200.0
77.789558	180.0
77.836967	188.0
77.852554	160.0
77.894928	76.0
77.908981	108.0
77.954666	204.0
77.98806	176.0
78.026733	156.0
78.158653	108.0
78.187157	180.0
78.204407	192.0
78.25898	160.0
78.280113	148.0
78.297722	32.0
78.311813	140.0
78.336472	140.0
78.496864	164.0
78.573433	196.0
78.731583	128.0
78.801582	204.0
78.961334	124.0
78.980797	76.0
79.025024	172.0
79.123634	156.0
79.129944	216.0
79.200287	164.0
79.389931	168.0
79.418114	108.0
79.444916	132.0
79.495621	104.0
79.508797	188.0
79.546074	68.0
79.631302	148.0
79.643738	164.0
79.663277	200.0
79.742622	252.0
79.853477	84.0
79.897949	160.0
79.988708	156.0
80.001114	120.0
80.061707	104.0
80.102676	152.0
80.118713	156.0
80.298752	184.0
80.339775	144.0
80.407585	176.0
80.438553	260.0
80.50399	148.0
80.577225	160.0
80.696976	168.0
80.734528	168.0
80.802505	204.0
80.825768	196.0
80.881248	108.0
80.939873	204.0
80.979729	156.0
81.069305	168.0
81.094398	104.0
81.142799	188.0
81.32164	180.0
81.337181	160.0
81.383232	220.0
81.41555	148.0
81.456863	40.0
81.600639	36.0
81.620415	152.0
81.679344	136.0
81.739143	124.0
81.820137	108.0
81.852547	204.0
81.877762	136.0
81.906578	112.0
81.958824	164.0
81.971443	108.0
81.996674	168.0
82.021904	284.0
82.104851	128.0
82.126999	172.0
82.394997	92.0
82.532837	56.0
82.564064	240.0
82.6231	168.0
82.652222	132.0
82.688416	80.0
82.719185	196.0
82.766037	164.0
82.811539	212.0
82.927933	192.0
82.965569	200.0
83.000015	180.0
83.132439	148.0
83.270378	176.0
83.292908	284.0
83.559273	180.0
83.617691	160.0
83.650452	64.0
83.677765	224.0
83.706894	116.0
83.941971	104.0
83.954735	124.0
84.082237	176.0
84.122604	136.0
84.184685	128.0
84.243134	128.0
84.369232	180.0
84.54483	156.0
84.57412	136.0
84.663834	156.0
84.821404	104.0
84.944267	144.0
84.966286	232.0
84.98613	196.0
85.028671	180.0
85.045891	136.0
85.070892	156.0
85.105774	120.0
85.131485	200.0
85.186996	216.0
85.206795	228.0
85.280304	64.0
85.295006	168.0
85.362305	292.0
85.466049	164.0
85.574646	64.0
85.591217	168.0
85.615158	148.0
85.763237	248.0
85.80864	152.0
85.904541	160.0
85.938492	200.0
86.020805	156.0
86.081734	192.0
86.098358	128.0
86.222137	208.0
86.294235	164.0
86.346054	164.0
86.397499	220.0
86.416306	76.0
86.506996	224.0
86.533569	136.0
86.556984	164.0
86.655159	208.0
86.747818	172.0
86.792702	192.0
86.879494	104.0
86.950005	116.0
87.003838	152.0
87.061401	160.0
87.098541	248.0
87.401588	144.0
87.451836	64.0
87.466728	124.0
87.55983	96.0
87.584038	232.0
87.647713	204.0
87.697701	148.0
87.714478	108.0
87.768547	176.0
87.812569	212.0
87.841286	188.0
87.960716	160.0
88.026062	244.0
88.039337	224.0
88.119461	124.0
88.15683	200.0
88.250298	212.0
88.28157	204.0
88.349419	236.0
88.471069	136.0
88.568443	160.0
88.634018	172.0
88.819626	172.0
88.832756	112.0
89.034035	172.0
89.052383	236.0
89.088074	44.0
89.108734	208.0
89.204582	152.0
89.227142	156.0
89.253471	148.0
89.302368	184.0
89.317413	128.0
89.366325	188.0
89.469841	152.0
89.548935	168.0
89.626175	212.0
89.652908	128.0
89.694023	184.0
89.952454	64.0
89.969444	224.0
90.033646	300.0
90.076569	232.0
90.133774	168.0
90.164009	144.0
90.317162	200.0
90.349319	100.0
90.413658	180.0
90.428795	144.0
90.4534	100.0
90.470444	196.0
90.496948	148.0
90.54808	168.0
90.593536	124.0
90.61438	100.0
90.686394	108.0
90.762222	156.0
90.788773	224.0
90.802048	132.0
90.828606	100.0
90.843781	144.0
91.053177	816.0
91.098167	64.0
91.138062	308.0
91.193176	48.0
91.274925	80.0
91.295456	316.0
91.309158	60.0
91.371933	136.0
91.39476	124.0
91.425743	244.0
91.474701	160.0
91.499443	120.0
91.709	180.0
91.779533	164.0
91.853912	168.0
91.903519	160.0
91.941689	232.0
91.985588	240.0
92.058769	280.0
92.08297	72.0
92.12117	52.0
92.199516	172.0
92.233917	152.0
92.251122	144.0
92.369682	144.0
92.482582	152.0
92.73542	112.0
92.806351	156.0
92.904167	300.0
93.03083	160.0
93.159492	40.0
93.188316	156.0
93.238281	152.0
93.397865	220.0
93.486366	144.0
93.607651	68.0
93.642311	180.0
93.671211	76.0
93.705887	188.0
93.755989	44.0
93.771408	184.0
93.790443	128.0
93.796806	112.0
93.802719	148.0
93.926949	180.0
93.985466	156.0
94.008629	176.0
94.038734	388.0
94.06263	184.0
94.070045	180.0
94.074112	164.0
94.10321	36.0
94.126167	180.0
94.14183	72.0
94.190117	56.0
94.23069	208.0
94.250008	160.0
94.277061	172.0
94.336983	204.0
94.466553	164.0
94.489769	180.0
94.543945	144.0
94.576332	180.0
94.625252	288.0
94.688667	192.0
94.787956	224.0
94.977226	192.0
95.008995	148.0
95.047989	2600.0
95.187569	120.0
95.230293	212.0
95.251656	128.0
95.350754	200.0
95.395462	124.0
95.523811	132.0
95.543266	180.0
95.564667	204.0
95.761284	64.0
95.791832	176.0
95.940559	44.0
95.987358	144.0
96.049767	116.0
96.075859	64.0
96.229317	96.0
96.270088	136.0
96.295357	176.0
96.385574	164.0
96.469955	164.0
96.534142	164.0
96.586952	144.0
96.617203	232.0
96.69091	212.0
96.735672	116.0
96.752846	176.0
96.813995	160.0
96.875748	184.0
96.900185	172.0
96.945251	124.0
97.074638	168.0
97.095085	188.0
97.113861	160.0
97.174675	208.0
97.21196	148.0
97.290474	128.0
97.334412	180.0
97.394554	88.0
97.431877	112.0
97.509499	152.0
97.628441	164.0
97.654007	56.0
97.71106	156.0
97.730736	136.0
97.82914	264.0
97.852715	152.0
97.874428	116.0
98.002457	72.0
98.116776	168.0
98.152267	164.0
98.1996	240.0
98.256805	116.0
98.300217	88.0
98.576683	208.0
98.610283	64.0
98.669586	124.0
98.717041	160.0
98.771164	208.0
98.926773	200.0
98.942612	236.0
98.980232	148.0
99.007957	176.0
99.045593	180.0
99.065399	136.0
99.114929	192.0
99.160515	196.0
99.212051	176.0
99.247742	156.0
99.393082	212.0
99.442154	68.0
99.535011	176.0
99.565254	132.0
99.658623	144.0
99.742088	136.0
99.811676	176.0
99.87812	272.0
100.008636	204.0
100.080307	208.0
100.130089	188.0
100.18779	120.0
100.195206	116.0
100.247635	76.0
100.341316	236.0
100.636612	196.0
100.72049	132.0
100.754456	172.0
100.826385	100.0
100.870361	112.0
100.888351	136.0
101.098526	160.0
101.130013	164.0
101.155449	168.0
101.278275	132.0
101.442894	156.0
101.480988	184.0
101.496658	216.0
101.591293	140.0
101.605339	176.0
101.651489	108.0
101.695641	144.0
101.790001	156.0
101.808075	216.0
101.848244	68.0
101.906502	28.0
101.92057	240.0
102.045258	120.0
102.134193	156.0
102.173912	184.0
102.250374	176.0
102.298683	236.0
102.397354	104.0
102.411453	152.0
102.431595	124.0
102.459801	192.0
102.523438	112.0
102.711792	156.0
102.726601	352.0
102.753265	144.0
102.824783	160.0
102.844971	28.0
102.928604	188.0
103.00853	128.0
103.053215	7592.0
103.09137	172.0
103.113602	116.0
103.149986	260.0
103.170204	92.0
103.259178	108.0
103.289513	364.0
103.35865	212.0
103.382591	168.0
103.527786	176.0
103.636444	220.0
103.681168	196.0
103.748451	160.0
103.781654	160.0
103.988579	136.0
104.058182	284.0
104.088058	100.0
104.116486	212.0
104.140862	172.0
104.175392	144.0
104.222122	76.0
104.303413	192.0
104.350174	164.0
104.390846	184.0
104.417282	180.0
104.442886	148.0
104.543419	96.0
104.559616	100.0
104.606514	220.0
104.645195	224.0
104.797958	144.0
104.824448	100.0
104.844833	164.0
104.901901	92.0
104.94268	44.0
104.969185	144.0
104.983459	176.0
105.007751	176.0
105.015388	232.0
105.019005	224.0
105.036858	180.0
105.069763	34196.0
105.104889	300.0
105.152794	52.0
105.180305	92.0
105.196663	128.0
105.214111	132.0
105.228752	212.0
105.282516	228.0
105.296165	200.0
105.320229	32.0
105.373344	32.0
105.406036	80.0
105.421417	144.0
105.450996	36.0
105.47757	60.0
105.504143	28.0
105.526634	48.0
105.61866	88.0
105.649345	48.0
105.671852	92.0
105.702545	64.0
105.718918	28.0
105.735291	156.0
105.795204	208.0
105.873878	156.0
105.877464	108.0
105.887138	204.0
105.952347	144.0
105.972893	136.0
106.015564	268.0
106.038414	196.0
106.07206	3420.0
106.11631	244.0
106.134766	172.0
106.175781	56.0
106.192726	136.0
106.212852	196.0
106.237312	156.0
106.271835	208.0
106.289207	96.0
106.33754	76.0
106.444618	68.0
106.463104	176.0
106.57814	200.0
106.601959	196.0
106.643906	136.0
106.658295	132.0
106.693924	216.0
106.732307	144.0
106.751465	152.0
106.774254	100.0
106.803169	228.0
106.82074	176.0
106.867004	160.0
106.882469	128.0
106.901604	200.0
106.92157	300.0
106.942894	224.0
106.958618	128.0
106.98513	168.0
106.998566	108.0
107.02475	356.0
107.048965	63104.0
107.083794	896.0
107.121544	152.0
107.144646	84.0
107.166328	216.0
107.185165	60.0
107.199593	76.0
107.225899	156.0
107.262032	68.0
107.277916	108.0
107.292343	68.0
107.315025	96.0
107.349342	56.0
107.372574	104.0
107.386391	384.0
107.413757	156.0
107.502327	80.0
107.525444	104.0
107.541954	88.0
107.60437	120.0
107.635506	88.0
107.661705	76.0
107.684425	180.0
107.700943	140.0
107.716171	172.0
107.763641	196.0
107.812515	52.0
107.83387	96.0
107.874916	64.0
107.889	196.0
107.951027	216.0
107.998596	56.0
108.053474	7764.0
108.093819	188.0
108.13723	240.0
108.213097	184.0
108.236595	108.0
108.25679	48.0
108.325661	96.0
108.368896	124.0
108.408539	52.0
108.439629	120.0
108.510109	104.0
108.534988	40.0
108.551575	68.0
108.583694	164.0
108.628319	84.0
108.663086	132.0
108.689987	172.0
108.727341	116.0
108.759407	116.0
108.781883	252.0
108.81601	152.0
108.830383	144.0
108.862091	164.0
108.883629	380.0
108.89817	88.0
108.916435	116.0
108.941116	136.0
108.987495	128.0
109.000572	96.0
109.018394	212.0
109.063179	4928.0
109.083847	168.0
109.117371	116.0
109.140434	136.0
109.289001	68.0
109.493011	204.0
109.525391	184.0
109.570084	168.0
109.672195	56.0
109.724312	32.0
109.761848	140.0
109.819809	116.0
109.845276	72.0
109.869644	88.0
109.980911	124.0
110.005959	72.0
110.068642	240.0
110.095741	184.0
110.173027	156.0
110.277512	60.0
110.344406	144.0
110.555679	136.0
110.687561	224.0
110.737823	96.0
110.817429	148.0
110.8321	112.0
110.897064	72.0
110.972534	144.0
111.06691	124.0
111.171814	52.0
111.241081	140.0
111.438179	236.0
111.507843	140.0
111.810707	44.0
111.846489	136.0
111.869644	216.0
112.050766	208.0
112.221489	148.0
112.393639	116.0
112.413445	144.0
112.579994	192.0
112.641472	108.0
112.694565	184.0
112.732323	188.0
112.751343	156.0
112.85704	36.0
113.051659	124.0
113.066467	156.0
113.134209	148.0
113.297279	216.0
113.331177	204.0
113.409592	80.0
113.492271	188.0
113.543167	216.0
113.566498	188.0
113.587708	60.0
113.736252	240.0
113.751106	232.0
113.802063	88.0
113.850899	164.0
113.959236	132.0
113.999611	168.0
114.039032	124.0
114.080383	144.0
114.231438	124.0
114.437813	232.0
114.491051	184.0
114.592232	104.0
114.607346	128.0
114.827789	108.0
114.874718	152.0
114.968597	136.0
115.024094	36.0
115.053795	5604.0
115.096687	120.0
115.115906	60.0
115.139397	80.0
115.155891	180.0
115.193001	168.0
115.219475	188.0
115.267578	184.0
115.331696	208.0
115.441628	100.0
115.519867	128.0
115.564796	56.0
115.756737	108.0
115.85598	72.0
115.954544	136.0
115.987869	132.0
116.057961	800.0
116.130363	80.0
116.194717	108.0
116.336365	120.0
116.37072	64.0
116.38575	196.0
116.41581	44.0
116.495285	148.0
116.541298	172.0
116.669357	152.0
116.686562	104.0
116.70591	164.0
116.796593	72.0
116.929642	180.0
116.95977	60.0
117.067627	1320.0
117.104034	248.0
117.177284	140.0
117.323837	52.0
117.511475	144.0
117.583733	140.0
117.632332	156.0
117.712219	156.0
118.037407	164.0
118.067657	180.0
118.308983	200.0
118.345795	224.0
118.363113	80.0
118.419418	68.0
118.506073	48.0
118.555916	116.0
118.666466	216.0
118.683815	152.0
118.725014	68.0
118.753212	168.0
118.939819	96.0
119.002991	160.0
119.046745	336.0
119.093987	124.0
119.134758	156.0
119.160797	244.0
119.220001	184.0
119.272163	96.0
119.34391	80.0
119.396103	144.0
119.665932	264.0
119.720375	100.0
120.0466	684.0
120.079544	880.0
120.243614	164.0
120.265442	212.0
120.328751	124.0
120.420471	176.0
120.501297	164.0
120.654289	76.0
120.695831	132.0
120.772377	196.0
120.787689	116.0
120.828209	192.0
121.022438	152.0
121.063286	3796.0
121.26284	144.0
121.278183	180.0
121.308876	92.0
121.326408	60.0
121.534775	120.0
121.55233	132.0
121.572083	140.0
121.620369	156.0
121.745514	64.0
121.796684	256.0
121.875122	156.0
121.897095	192.0
121.954239	204.0
121.96862	172.0
122.067635	440.0
122.094955	164.0
122.136742	180.0
122.174141	48.0
122.196144	200.0
122.475723	76.0
122.570465	140.0
122.737991	36.0
122.757835	40.0
123.04248	64.0
123.057938	184.0
123.096565	164.0
123.161728	232.0
123.179405	200.0
123.201492	124.0
123.349556	152.0
123.437996	236.0
123.634888	76.0
124.022484	136.0
124.07238	164.0
124.33078	44.0
124.351715	176.0
124.488403	180.0
124.521721	148.0
124.570587	112.0
124.701691	140.0
124.875114	72.0
125.017509	128.0
125.211197	160.0
125.362694	116.0
125.583412	188.0
125.670418	84.0
125.982986	132.0
126.228851	160.0
126.262398	144.0
126.443619	208.0
126.619774	204.0
126.730263	60.0
126.770599	156.0
126.842323	132.0
127.053024	400.0
127.229355	120.0
127.407845	184.0
127.555016	80.0
127.670837	156.0
128.001648	132.0
128.024475	148.0
128.046692	220.0
128.062561	152.0
128.535889	216.0
128.741318	144.0
128.775208	64.0
129.064972	200.0
129.109695	152.0
129.179825	156.0
129.259003	204.0
129.408768	148.0
129.528427	72.0
129.585068	200.0
129.63945	84.0
129.798141	140.0
129.861633	168.0
130.004578	124.0
130.06813	212.0
130.186188	132.0
130.247513	40.0
130.297501	108.0
130.386124	168.0
130.508881	72.0
130.670364	176.0
130.704498	72.0
130.808624	208.0
130.834229	68.0
130.861557	116.0
131.048477	3200.0
131.084167	588.0
131.121246	120.0
131.16684	56.0
131.182785	144.0
131.26944	208.0
131.342422	140.0
131.358383	180.0
131.438232	148.0
131.483887	88.0
131.732773	152.0
132.018478	152.0
132.055573	1800.0
132.079773	1736.0
132.114548	32.0
132.137421	124.0
132.153442	48.0
132.194626	116.0
132.304504	92.0
132.322815	176.0
132.405258	76.0
132.487717	180.0
132.542709	192.0
132.583954	116.0
132.740433	200.0
132.781128	184.0
132.813232	40.0
132.868286	68.0
132.918777	164.0
132.964996	172.0
132.99707	524.0
133.06366	30740.0
133.132187	76.0
133.144272	128.0
133.187592	88.0
133.205765	116.0
133.244812	132.0
133.262512	188.0
133.279282	160.0
133.307877	200.0
133.326141	124.0
133.395737	72.0
133.439117	28.0
133.522964	60.0
133.543671	48.0
133.559769	156.0
133.589676	52.0
133.606522	196.0
133.637985	72.0
133.679398	176.0
133.755356	32.0
133.78299	52.0
133.944183	80.0
133.985764	84.0
134.065369	3512.0
134.112396	64.0
134.144669	52.0
134.211533	96.0
134.232285	196.0
134.248428	68.0
134.299164	60.0
134.396698	228.0
134.420898	180.0
134.473892	176.0
134.576096	176.0
134.638443	80.0
134.664673	56.0
134.700806	44.0
134.732025	228.0
134.781677	112.0
134.83252	152.0
134.886429	160.0
134.920349	88.0
134.946609	68.0
134.975845	48.0
134.992035	112.0
135.019791	152.0
135.078033	19940.0
135.134064	140.0
135.176559	208.0
135.230331	96.0
135.246536	104.0
135.267365	100.0
135.325241	72.0
135.415558	36.0
135.44104	52.0
135.658859	32.0
135.751404	88.0
135.791031	152.0
135.85524	124.0
135.876862	56.0
136.016113	180.0
136.042236	172.0
136.079178	1624.0
136.115936	160.0
136.13916	144.0
136.183289	36.0
136.232071	56.0
136.304626	176.0
136.645905	40.0
136.720367	144.0
136.743652	40.0
136.839417	84.0
136.885666	48.0
136.964844	112.0
137.031281	116.0
137.05571	56.0
137.09024	108.0
137.118622	92.0
137.209793	112.0
137.30748	172.0
137.361221	92.0
137.538467	192.0
137.571152	168.0
137.680893	112.0
138.09996	176.0
138.204544	44.0
138.223251	176.0
138.323898	112.0
138.405838	72.0
138.584824	164.0
138.670563	184.0
138.74324	200.0
138.771378	180.0
138.862823	160.0
139.120956	116.0
139.172607	108.0
139.231308	188.0
139.27124	192.0
139.562653	192.0
139.873215	176.0
140.06395	232.0
140.219452	116.0
140.658173	132.0
140.679428	120.0
140.908508	176.0
140.96759	208.0
141.019577	92.0
141.069962	168.0
141.68454	52.0
142.154022	196.0
142.495941	116.0
142.555084	176.0
142.854935	180.0
143.009613	68.0
143.057877	188.0
143.083603	200.0
143.259644	100.0
143.51944	152.0
143.583817	132.0
143.948959	144.0
143.996719	140.0
144.025391	132.0
144.05307	776.0
144.079941	436.0
144.161575	124.0
144.257172	68.0
144.783585	96.0
144.807541	200.0
144.88179	148.0
144.915344	116.0
144.932114	144.0
145.002655	128.0
145.061493	1424.0
145.098938	596.0
145.128662	144.0
145.207794	108.0
145.267761	172.0
145.34935	124.0
145.493362	108.0
145.618225	88.0
145.971512	92.0
145.997955	144.0
146.059219	2024.0
146.10466	304.0
146.178391	56.0
146.214493	36.0
146.302078	92.0
146.693817	232.0
146.764496	160.0
146.869858	44.0
146.915695	128.0
147.066559	1728.0
147.106339	188.0
147.123245	112.0
147.173935	204.0
147.294052	184.0
147.403427	148.0
147.732254	56.0
147.751602	160.0
147.945221	108.0
148.074158	8404.0
148.103027	200.0
148.134109	76.0
148.260101	184.0
148.277069	56.0
148.376236	44.0
148.519531	76.0
148.677246	124.0
148.774338	156.0
149.024506	172.0
149.051224	296.0
149.082703	10144.0
149.190872	88.0
149.223801	36.0
149.320709	132.0
149.384323	56.0
149.420807	64.0
149.459747	132.0
149.511292	88.0
149.612213	224.0
149.652039	100.0
149.688568	188.0
149.77005	140.0
149.834702	196.0
149.983368	176.0
150.005295	68.0
150.039215	164.0
150.090454	34800.0
150.151596	48.0
150.178436	48.0
150.22583	48.0
150.315048	112.0
150.35733	212.0
150.402908	92.0
150.426712	48.0
150.492264	20.0
150.554291	44.0
150.593369	76.0
150.617798	40.0
150.661209	172.0
150.693527	164.0
150.719559	80.0
150.771729	96.0
150.788834	64.0
150.835281	140.0
150.934341	116.0
150.994217	140.0
151.02919	156.0
151.091904	2120.0
151.150787	60.0
151.221756	60.0
151.253571	40.0
151.325882	104.0
151.496002	160.0
151.780319	112.0
151.797485	124.0
151.817108	36.0
151.907867	176.0
152.005997	112.0
152.079254	576.0
152.105347	1104.0
152.185196	68.0
152.217117	128.0
152.236755	104.0
152.261322	108.0
152.2957	88.0
152.686508	64.0
152.858719	100.0
152.922699	52.0
153.070786	168.0
153.102432	168.0
153.146759	44.0
153.218201	116.0
153.435089	52.0
153.694077	92.0
153.977966	136.0
153.995255	124.0
154.244827	96.0
155.05455	172.0
155.084198	340.0
155.334396	188.0
156.059555	200.0
156.084763	68.0
156.627518	100.0
157.060257	556.0
157.080704	120.0
157.360229	44.0
157.405167	208.0
157.462616	100.0
157.51506	104.0
157.577515	108.0
157.617493	108.0
157.687469	72.0
158.070419	2464.0
158.508347	104.0
158.560974	88.0
158.668762	48.0
158.912048	228.0
159.080551	988.0
159.168076	64.0
159.35144	140.0
159.416763	156.0
159.861893	36.0
160.0755	1984.0
160.123718	156.0
160.300064	48.0
160.494171	60.0
160.703522	88.0
160.882721	64.0
160.948364	116.0
161.081757	948.0
161.307129	112.0
161.81311	52.0
162.033447	156.0
162.090668	3300.0
162.134811	176.0
162.165222	148.0
162.241272	44.0
162.299591	80.0
162.479675	112.0
162.51265	160.0
162.616699	76.0
163.097809	508.0
163.585175	60.0
163.967255	176.0
164.229874	44.0
164.326813	44.0
164.633133	128.0
165.10849	192.0
166.161301	136.0
166.256241	68.0
167.145401	156.0
168.375092	80.0
169.075134	432.0
169.433075	136.0
169.536728	156.0
169.946442	72.0
171.929367	60.0
172.103912	196.0
172.107498	152.0
172.951324	152.0
173.092972	720.0
173.163406	36.0
173.787338	96.0
174.089142	1172.0
175.096359	1072.0
175.130722	108.0
175.246643	148.0
175.280899	96.0
175.684296	96.0
175.787201	64.0
175.837341	68.0
175.929733	184.0
175.993103	132.0
176.105042	3128.0
176.251968	36.0
176.550674	32.0
176.725266	44.0
177.005859	176.0
177.108994	500.0
177.182953	96.0
177.321121	68.0
177.726868	64.0
178.582306	152.0
179.33316	80.0
179.445129	112.0
181.018982	172.0
183.090454	340.0
183.156876	28.0
183.334702	32.0
185.033768	76.0
185.564804	92.0
188.105057	696.0
188.955765	192.0
189.110382	124.0
190.119827	6088.0
190.444336	88.0
190.488281	68.0
190.853821	60.0
191.126541	1552.0
191.269241	84.0
191.61348	48.0
191.641037	140.0
191.738861	92.0
192.127533	168.0
192.391235	48.0
192.844254	136.0
194.311966	84.0
194.495117	132.0
194.961731	152.0
196.211563	64.0
196.948288	144.0
199.689575	136.0
201.618042	52.0
202.599915	56.0
203.612579	148.0
203.990494	68.0
204.12413	168.0
204.144028	156.0
204.249268	208.0
204.303314	132.0
207.582352	116.0
208.095978	148.0
208.133316	156.0
210.873047	84.0
213.101547	92.0
215.064392	160.0
216.951202	124.0
217.420517	100.0
217.458679	68.0
217.599579	132.0
218.678452	68.0
222.031876	124.0
224.819534	76.0
226.293228	60.0
227.882904	164.0
228.054199	188.0
229.104401	172.0
230.846008	200.0
230.918594	84.0
231.905655	140.0
233.092316	180.0
234.76358	68.0
236.046188	128.0
236.232758	232.0
237.001236	164.0
237.050262	76.0
238.505051	100.0
239.258728	96.0
240.50415	104.0
240.961197	72.0
241.060074	56.0
241.8116	168.0
242.623184	92.0
246.295303	40.0
247.812607	100.0
248.725235	184.0
249.218292	88.0
249.702423	36.0
250.196457	52.0
255.60582	180.0
255.679016	112.0
257.54422	132.0
259.400177	92.0
259.46109	92.0
261.603943	148.0
265.705139	132.0
269.143066	292.0
270.682434	108.0
271.842896	68.0
272.023407	176.0
275.692688	108.0
276.092712	48.0
276.519531	176.0
276.559235	108.0
276.77774	148.0
281.256042	88.0
281.516479	120.0
283.359558	64.0
283.694702	128.0
283.791931	116.0
283.93277	92.0
284.050171	176.0
284.163086	13392.0
284.222137	48.0
284.255951	196.0
284.39917	132.0
284.469666	56.0
284.523376	32.0
284.58078	80.0
284.640869	52.0
284.674469	96.0
284.862549	160.0
284.910522	128.0
285.051178	88.0
285.165833	1332.0
285.273102	24.0
285.34314	84.0
285.450745	72.0
285.635712	72.0
286.093384	44.0
286.172394	444.0
286.300537	92.0
286.521118	120.0
286.905304	108.0
287.046936	28.0
287.105835	164.0
287.161591	92.0
287.188568	136.0
287.22821	128.0
287.316772	132.0
287.610352	100.0
288.235168	88.0
288.262207	124.0
291.223297	84.0
296.093872	136.0
298.602753	112.0
311.748688	108.0
313.52594	84.0
317.170013	64.0
319.631226	148.0
320.988434	52.0
322.248474	108.0
322.587982	60.0
323.53244	76.0
326.09726	60.0
326.348907	76.0
333.289032	64.0
339.249237	144.0
344.811188	112.0
344.899902	44.0
345.687683	88.0
345.780212	56.0
350.314056	132.0
354.367706	44.0
354.791199	84.0
364.715912	88.0
364.829956	80.0
366.58847	60.0
368.863251	60.0
369.647339	104.0
377.131653	124.0
384.109558	120.0
389.118896	84.0
389.621613	64.0
398.988434	92.0
399.855621	52.0
418.540253	104.0
424.846863	52.0
440.074097	76.0
442.369385	76.0
449.160248	148.0
463.278412	68.0
467.718719	100.0
482.376862	48.0
487.663269	64.0
504.405853	124.0
518.603333	84.0
521.708313	44.0
525.305969	148.0
527.593933	48.0
529.089966	44.0
530.693542	100.0
534.621155	100.0
539.002075	68.0
569.565918	48.0
591.514832	140.0
594.054138	56.0
615.205933	68.0
618.607178	80.0
621.288208	100.0
637.586914	80.0
641.679443	88.0
641.916443	104.0
644.268555	76.0
675.066772	244.0
705.557983	112.0
738.365906	140.0
750.901306	84.0
751.075867	144.0
764.251892	112.0
771.388611	164.0
772.854248	48.0
774.376648	172.0
775.778625	80.0
791.849182	160.0
793.86676	172.0
797.656677	188.0
797.954651	140.0
804.631165	160.0
806.687561	212.0
809.686523	76.0
811.335449	44.0
816.690491	92.0
821.338562	148.0
821.931885	188.0
825.107666	164.0
826.30304	224.0
828.891113	64.0
830.450562	132.0
830.915222	148.0
832.195129	192.0
832.757935	76.0
833.37262	108.0
834.550903	276.0
836.685486	196.0
838.332886	104.0
838.52887	44.0
838.794006	204.0
839.658875	192.0
843.34259	248.0
847.011169	40.0
849.202209	84.0
852.308167	204.0
861.589844	184.0
862.501526	212.0
864.27356	212.0
869.600708	148.0
871.380066	224.0
873.684753	264.0
874.732239	92.0
877.135681	56.0
880.664307	140.0
881.095581	76.0
881.550537	228.0
887.155823	264.0
888.513916	196.0
889.748413	196.0
890.003723	148.0
891.274902	44.0
891.340271	208.0
891.435303	168.0
891.92865	100.0
892.297241	100.0
892.493408	180.0
893.808044	164.0
895.064026	92.0
896.863281	56.0
897.847046	68.0
897.954407	52.0
900.156616	176.0
906.467712	64.0
906.819519	148.0
907.32489	176.0
911.382263	272.0
911.77887	120.0
912.223694	176.0
912.590454	124.0
913.047485	144.0
916.316101	76.0
916.430603	204.0
916.876526	160.0
916.99707	64.0
918.667419	40.0
921.094177	244.0
921.915894	216.0
928.001709	220.0
928.502808	220.0
930.086426	116.0
930.517456	160.0
930.985046	192.0
931.549927	152.0
933.391541	188.0
935.411499	192.0
937.177673	184.0
939.079712	208.0
939.415222	212.0
939.88501	136.0
940.733398	212.0
941.948608	128.0
942.498474	328.0
945.103394	112.0
946.241821	88.0
947.797607	208.0
948.815063	160.0
950.049744	240.0
952.153259	124.0
959.179993	60.0
961.2276	220.0
963.326904	96.0
963.784058	148.0
965.780945	172.0
966.554321	216.0
967.445557	144.0
967.903748	224.0
968.219604	144.0
968.597412	196.0
976.635925	200.0
977.258057	88.0
977.774536	92.0
979.323425	152.0
979.555359	112.0
979.630127	264.0
980.677002	136.0
982.753662	216.0
983.68988	72.0
984.245544	200.0
985.007507	60.0
985.894714	156.0
988.596375	72.0
989.228577	144.0
989.704407	148.0
990.142761	192.0
990.74408	124.0
991.665283	156.0
991.922241	36.0
992.022583	148.0
993.082275	136.0
993.129578	172.0
993.220276	136.0
993.741028	244.0
994.75769	156.0
996.377991	196.0
998.502686	204.0
999.880554	232.0
1000.220459	156.0
1001.070435	148.0
1001.857788	120.0
1002.053101	176.0
1002.721069	80.0
1003.51532	152.0
1004.770447	76.0
1006.582031	128.0
1007.876953	196.0
1007.95282	124.0
1008.692261	208.0
1008.932495	184.0
1009.179077	280.0
1010.595886	60.0
1011.007202	188.0
1013.711365	188.0
1014.161377	156.0
1014.30719	148.0
1016.25415	260.0
1016.527039	192.0
1017.130005	192.0
1017.561646	108.0
1017.663269	264.0
1018.234802	220.0
1018.444397	188.0
1019.613464	144.0
1021.902771	192.0
1023.035645	80.0
1023.17572	204.0
1024.322021	28.0
1025.679321	144.0
1025.927979	132.0
1026.807861	176.0
1028.773315	172.0
1030.861938	192.0
1030.938599	224.0
1032.588013	124.0
1033.931641	180.0
1034.667725	72.0
1035.026367	224.0
1035.858887	96.0
1036.234375	208.0
1036.781616	60.0
1037.089233	140.0
1038.352417	224.0
1038.775757	160.0
1039.828003	212.0
1040.091187	76.0
1041.349731	148.0
1043.714722	140.0
1044.216309	152.0
1044.415771	100.0
1045.837769	204.0
1047.389648	96.0
1048.33667	252.0
1049.445435	124.0
1050.709595	156.0
1051.722778	176.0
1052.226318	68.0
1052.697754	60.0
1052.768799	148.0
1054.047852	164.0
1055.66394	48.0
1056.09082	72.0
1056.349609	204.0
1057.100098	196.0
1057.495239	132.0
1057.773193	160.0
1058.634399	180.0
1058.886963	96.0
1059.547729	212.0
1061.634888	200.0
1062.231567	200.0
1064.302002	160.0
1066.400391	96.0
1066.452393	196.0
1066.653809	208.0
1066.829346	124.0
1068.156006	332.0
1069.027832	172.0
1069.229614	160.0
1069.307739	152.0
1069.978271	196.0
1070.388428	172.0
1070.453491	124.0
1071.560913	208.0
1071.880127	136.0
1072.108276	184.0
1072.557983	72.0
1072.942627	176.0
1073.353394	220.0
1073.50415	32.0
1073.809937	164.0
1074.109985	184.0
1075.414917	48.0
1075.480225	140.0
1077.243408	188.0
1077.308716	140.0
1077.498169	148.0
1078.334595	100.0
1078.491455	196.0
1078.707153	96.0
1080.387939	140.0
1080.9375	76.0
1082.639526	212.0
1083.425659	160.0
1085.739502	64.0
1086.31665	128.0
1086.841553	96.0
1086.894043	148.0
1087.248413	208.0
1088.889771	172.0
1089.435059	160.0
1090.591553	156.0
1090.709839	164.0
1090.834839	180.0
1090.880859	148.0
1091.643555	80.0
1092.261719	132.0
1092.886719	64.0
1094.545532	104.0
1094.947266	88.0
1095.046021	180.0
1095.928833	200.0
1096.456055	124.0
1096.782471	144.0
1097.227295	200.0
1097.913086	256.0
1098.170288	96.0
1098.302246	48.0
1098.447266	196.0
1099.133423	200.0
1100.631958	200.0
1100.998169	168.0
1101.339478	232.0
1101.490479	188.0
1101.794434	140.0
1101.886841	136.0
1102.382446	112.0
1103.541992	212.0
1104.213745	164.0
1104.670166	200.0
1105.338379	136.0
1106.496826	68.0
1107.152344	148.0
1107.390747	40.0
1107.735229	132.0
1108.570068	208.0
1109.299194	184.0
1109.364014	204.0
1109.411865	156.0
1109.975464	112.0
1110.200928	196.0
1110.34021	176.0
1111.090332	208.0
1111.428101	176.0
1113.944458	208.0
1114.429443	60.0
1115.851807	192.0
1116.36377	224.0
1116.603271	164.0
1116.915894	268.0
1117.135376	40.0
1117.182007	180.0
1117.268433	136.0
1117.814087	172.0
1118.626099	160.0
1119.411743	172.0
1119.904541	48.0
1120.044434	196.0
1120.330933	192.0
1121.270386	132.0
1122.863892	208.0
1123.497559	160.0
1125.366455	204.0
1125.827148	168.0
1126.01416	164.0
1126.134399	156.0
1126.181152	224.0
1126.749023	88.0
1127.143188	248.0
1127.209961	148.0
1127.959106	152.0
1128.560303	112.0
1128.734131	144.0
1129.044189	200.0
1129.168823	184.0
1130.473389	124.0
1130.533691	232.0
1131.095947	152.0
1131.544434	112.0
1134.136963	144.0
1135.719482	140.0
1136.316528	56.0
1136.511108	184.0
1136.745972	240.0
1136.833252	160.0
1137.256104	160.0
1137.907227	168.0
1138.014648	224.0
1138.360107	160.0
1139.13623	84.0
1139.378052	200.0
1141.508789	204.0
1142.578369	112.0
1143.096436	56.0
1143.345459	60.0
1144.247437	156.0
1145.277832	172.0
1145.985229	192.0
1146.362549	208.0
1147.292725	52.0
1147.420776	52.0
1148.600952	248.0
1148.783081	132.0
1149.241943	208.0
1149.457886	192.0
1150.443237	212.0
1151.111694	192.0
1151.26709	188.0
1151.723633	256.0
1152.314087	180.0
1152.543823	144.0
1153.043823	156.0
1153.834717	172.0
1153.89563	96.0
1154.882935	52.0
1155.004761	124.0
1156.655762	168.0
1157.278687	176.0
1158.484253	220.0
1158.972046	212.0
1159.412476	176.0
1160.171753	148.0
1160.286987	164.0
1160.411987	200.0
1160.720947	116.0
1161.527954	160.0
1161.690796	204.0
1162.070679	156.0
1162.55249	144.0
1162.633911	136.0
1162.777954	92.0
1163.061523	152.0
1163.312744	72.0
1164.24292	176.0
1164.908569	172.0
1165.785156	64.0
1166.369629	168.0
1166.872681	120.0
1167.491455	180.0
1168.457397	128.0
1170.601562	44.0
1171.112305	188.0
1172.372803	192.0
1172.890869	188.0
1173.149902	168.0
1173.327148	96.0
1173.52478	220.0
1173.647583	84.0
1174.298462	252.0
1174.484253	232.0
1174.902588	180.0
1175.622437	164.0
1176.547363	160.0
1176.711182	180.0
1177.151489	152.0
1177.899536	164.0
1177.995117	172.0
1178.32312	116.0
1178.630493	84.0
1179.258667	188.0
1179.895386	136.0
1180.161621	172.0
1180.407837	88.0
1180.927612	192.0
1181.016479	144.0
1181.105835	156.0
1181.194336	52.0
1181.372192	148.0
1181.454346	184.0
1182.343872	28.0
1182.542358	112.0
1184.28833	196.0
1186.069946	28.0
1186.830933	260.0
1187.671265	112.0
1187.825439	36.0
1187.880249	128.0
1188.285034	176.0
1190.63269	156.0
1191.38147	176.0
1191.931152	196.0
1192.948364	176.0
1193.484619	156.0
1193.608398	104.0
1194.334961	140.0
1196.401855	132.0
1197.324585	128.0
1197.627686	152.0
1198.585327	64.0
1198.771362	192.0
1198.936768	172.0
1199.136597	220.0
1199.681152	216.0
1200.101685	180.0
1200.218994	268.0
1200.591309	136.0
1202.985596	200.0
1203.109863	156.0
1203.510376	156.0
1203.862549	180.0
1204.712158	168.0
1204.788086	188.0
1205.562012	176.0
1205.720947	160.0
1207.394043	96.0
1208.022095	192.0
1208.100952	180.0
1208.182617	156.0
1208.362549	64.0
1208.743164	176.0
1209.123779	168.0
1209.62207	164.0
1209.718994	144.0
1209.871338	124.0
1210.030518	100.0
1210.439087	240.0
1211.24939	164.0
1212.288696	140.0
1212.545166	156.0
1213.279907	188.0
1215.763184	104.0
1218.825684	140.0
1220.500854	160.0
1222.664429	120.0
1223.039062	240.0
1223.151611	164.0
1223.506714	80.0
1224.418823	204.0
1224.725342	188.0
1225.171143	228.0
1225.470703	172.0
1225.589233	180.0
1226.620728	116.0
1227.819946	204.0
1228.601196	148.0
1229.896484	272.0
1230.443726	132.0
1231.009277	140.0
1231.302612	188.0
1232.32959	192.0
1232.664917	172.0
1232.860596	148.0
1233.147217	152.0
1233.196167	160.0
1233.412842	140.0
1234.10498	164.0
1234.468506	172.0
1234.734253	216.0
1234.804199	148.0
1235.433838	184.0
1235.629639	132.0
1236.525391	136.0
1236.707397	84.0
1236.945435	76.0
1238.261719	52.0
1238.637329	304.0
1239.081421	184.0
1239.20752	216.0
1239.543823	32.0
1240.391846	112.0
1240.75647	172.0
1240.938721	172.0
1241.359497	172.0
1241.618896	168.0
1242.306396	216.0
1242.706299	208.0
1243.25354	136.0
1243.324585	220.0
1244.074829	180.0
1245.345825	156.0
1245.739258	164.0
1245.992188	168.0
1247.235962	196.0
1248.171143	148.0
1248.304688	92.0
1248.804077	180.0
1248.937622	80.0
1249.247192	148.0
1249.978882	180.0
1250.732056	176.0
1251.668335	188.0
1253.47876	120.0
1253.817017	140.0
1254.073608	188.0
1254.528931	144.0
1255.050659	252.0
1255.205811	164.0
1255.325684	164.0
1255.932251	160.0
1256.687134	184.0
1257.498657	164.0
1257.653931	144.0
1258.020996	172.0
1258.508179	188.0
1258.871094	204.0
1258.924805	180.0
1259.08728	184.0
1259.46167	204.0
1259.525146	124.0
1259.624146	168.0
1259.758301	184.0
1259.807739	96.0
1261.397827	76.0
1261.88562	116.0
1262.875732	192.0
1263.20105	176.0
1263.271851	136.0
1263.44873	104.0
1263.58313	200.0
1265.487061	180.0
1265.777344	124.0
1266.18811	236.0
1266.556396	80.0
1266.6698	60.0
1266.72644	196.0
1267.54126	44.0
1267.789307	140.0
1267.867188	152.0
1268.845459	156.0
1268.951782	92.0
1269.136108	88.0
1269.338379	196.0
1269.561646	196.0
1269.717651	92.0
1269.94458	100.0
1270.072266	152.0
1270.129028	172.0
1271.193237	164.0
1271.463013	144.0
1272.563232	168.0
1272.769165	164.0
1273.76355	168.0
1274.147095	152.0
1275.753296	200.0
1275.831543	40.0
1276.464355	196.0
1277.246704	212.0
1277.488525	88.0
1277.581055	168.0
1277.640015	180.0
1277.698486	108.0
1277.979492	148.0
1278.876099	172.0
1279.239136	172.0
1279.310303	204.0
1279.794556	144.0
1280.050903	40.0
1280.456787	84.0
1280.542236	92.0
1281.482544	220.0
1281.532471	176.0
1282.608643	236.0
1283.200317	184.0
1283.485596	64.0
1283.806396	48.0
1285.126099	168.0
1285.425781	156.0
1285.718384	188.0
1285.919922	136.0
1286.425049	160.0
1286.660645	136.0
1287.02478	120.0
1287.474731	184.0
1288.060425	100.0
1288.52478	204.0
1288.859863	200.0
1289.185425	212.0
1289.332275	176.0
1289.425171	176.0
1289.512329	184.0
1290.448853	140.0
1290.640503	112.0
1290.733398	196.0
1290.947998	76.0
1291.470093	56.0
1291.67749	148.0
1292.078125	224.0
1292.185425	172.0
1292.578979	160.0
1292.63623	84.0
1293.40918	148.0
1293.509399	104.0
1293.664062	148.0
1294.404419	176.0
1294.533325	128.0
1294.669312	168.0
1295.708008	192.0
1296.05188	176.0
1296.61145	204.0
1296.682617	160.0
1297.134155	44.0
1297.306152	188.0
1297.542725	212.0
1298.087769	168.0
1298.162476	208.0
1298.259888	200.0
1298.84082	148.0
1299.644287	132.0
1300.168213	112.0
1300.361938	184.0
1300.591675	220.0
1301.812256	188.0
1302.041992	92.0
1302.135376	112.0
1302.279053	140.0
1302.516113	84.0
1302.85376	212.0
1303.1698	152.0
1303.371094	236.0
1304.233521	188.0
1304.384399	176.0
1305.441406	104.0
1305.800903	144.0
1307.131836	152.0
1307.290161	168.0
1307.470093	112.0
1308.362671	40.0
1308.462402	132.0
1308.657959	168.0
1308.960327	124.0
1309.284424	60.0
1309.529297	176.0
1309.615723	184.0
1310.098389	180.0
1311.150391	148.0
1311.21521	164.0
1311.569336	216.0
1313.262939	168.0
1313.796753	132.0
1314.251343	208.0
1314.460571	140.0
1314.525513	184.0
1314.619263	188.0
1314.79248	176.0
1315.810303	196.0
1316.41687	112.0
1316.546875	208.0
1316.93689	184.0
1317.428101	76.0
1318.132202	124.0
1318.2771	140.0
1318.439697	152.0
1319.372192	180.0
1319.871094	216.0
1320.131348	52.0
1320.746216	176.0
1321.223633	156.0
1321.346558	180.0
1322.106445	160.0
1322.280151	136.0
1323.069092	228.0
1324.082886	204.0
1324.133545	236.0
1324.206055	164.0
1324.292969	156.0
1324.365356	60.0
1324.713135	148.0
1325.136841	128.0
1325.799927	208.0
1327.162842	292.0
1327.25708	68.0
1327.431152	212.0
1327.782715	200.0
1328.286987	104.0
1328.598877	172.0
1328.751221	188.0
1329.338989	240.0
1329.426025	164.0
1329.534912	132.0
1329.636597	140.0
1329.825195	80.0
1329.897827	216.0
1330.130127	132.0
1330.435059	180.0
1330.776245	176.0
1330.936035	116.0
1332.076294	212.0
1332.374146	124.0
1333.827515	196.0
1333.878418	204.0
1334.34375	108.0
1334.641846	180.0
1335.310913	196.0
1335.572754	112.0
1335.732788	176.0
1335.870972	124.0
1335.9729	128.0
1336.285645	152.0
1336.482178	136.0
1336.598755	176.0
1336.845947	152.0
1337.071655	160.0
1337.202637	112.0
1337.530151	164.0
1337.850464	240.0
1338.068848	152.0
1338.287354	212.0
1338.90625	192.0
1339.044678	176.0
1339.146606	144.0
1339.386963	152.0
1339.634644	152.0
1341.114014	204.0
1341.20874	160.0
1341.383667	132.0
1341.507568	92.0
1341.799194	144.0
1342.119995	176.0
1342.623169	44.0
1342.739868	208.0
1342.849365	212.0
1342.966064	172.0
1343.338013	160.0
1343.46936	216.0
1343.556885	132.0
1343.89978	204.0
1344.067627	96.0
1344.19165	132.0
1344.807495	108.0
1344.906982	112.0
1345.082153	92.0
1345.717285	168.0
1345.804932	176.0
1347.061035	72.0
1347.265625	92.0
1347.338745	168.0
1347.696655	148.0
1347.886719	144.0
1348.040161	352.0
1348.390991	200.0
1348.719849	160.0
1349.019531	168.0
1349.443604	212.0
1349.695679	160.0
1350.171387	164.0
1351.133179	188.0
1351.352661	148.0
1352.377197	160.0
1352.845703	128.0
1353.394775	148.0
1353.453369	192.0
1353.533936	220.0
1354.127075	120.0
1354.376221	172.0
1354.588623	184.0
1354.771729	176.0
1354.918213	184.0
1355.094116	144.0
1355.416504	232.0
1355.621704	140.0
1355.705811	200.0
1356.310669	160.0
1357.293091	168.0
1357.37561	188.0
1358.12915	136.0
1359.112183	160.0
1359.281006	104.0
1359.816772	176.0
1359.99292	40.0
1360.436768	212.0
1360.895874	84.0
1361.666992	172.0
1361.843262	104.0
1362.041626	124.0
1362.269287	96.0
1362.460327	160.0
1362.680664	104.0
1362.908447	80.0
1364.194702	196.0
1364.599121	88.0
1364.812256	92.0
1365.010864	212.0
1365.584473	176.0
1366.084717	192.0
1366.217163	52.0
1366.30542	188.0
1366.715332	240.0
1366.805786	220.0
1366.894043	152.0
1368.881592	140.0
1369.051025	184.0
1369.677002	148.0
1369.735962	184.0
1369.979126	208.0
1370.514771	192.0
1370.620117	128.0
1370.848511	224.0
1370.988525	176.0
1371.489746	192.0
1372.344971	160.0
1372.661987	224.0
1372.861084	180.0
1373.192993	172.0
1373.613403	144.0
1374.159424	140.0
1374.388184	192.0
1374.52832	212.0
1374.602173	112.0
1375.096558	160.0
1375.805298	152.0
1376.639648	52.0
1378.58252	188.0
1378.686035	148.0
1378.892944	136.0
1379.114624	240.0
1380.216187	192.0
1380.386353	196.0
1381.251709	148.0
1381.45874	176.0
1382.590942	192.0
1383.042358	156.0
1383.368164	200.0
1384.130737	160.0
1384.352905	128.0
1384.47876	216.0
1384.797241	172.0
1384.863892	136.0
1385.352783	164.0
1385.75293	108.0
1386.21228	60.0
1386.293823	68.0
1386.397583	88.0
1386.508789	120.0
1386.671753	44.0
1386.857056	56.0
1386.953491	164.0
1387.539062	136.0
1387.991455	184.0
1388.985229	176.0
1389.037109	164.0
1389.140991	156.0
1389.289429	92.0
1389.652954	112.0
1389.831055	124.0
1389.934937	144.0
1390.409912	156.0
1390.498901	196.0
1391.025879	160.0
1391.411987	124.0
1391.961426	240.0
1392.043091	136.0
1392.236206	172.0
1392.555542	132.0
1392.622437	136.0
1393.142456	108.0
1393.811157	180.0
1394.100952	152.0
1394.19751	144.0
1394.30896	148.0
1395.082031	192.0
1395.543091	152.0
1395.810669	148.0
1395.899902	148.0
1397.052856	140.0
1397.82666	160.0
1398.28064	180.0
1398.719727	228.0
1399.546143	144.0
1399.717407	60.0
1400.328125	104.0
1400.410034	212.0
1400.739868	160.0
1400.789917	252.0
1401.088013	164.0
1401.27417	156.0
1401.408325	184.0
1401.947998	204.0
1402.041748	176.0
1402.541138	128.0
1402.623169	120.0
1402.891479	148.0
1403.003296	128.0
1403.216187	152.0
1403.71167	128.0
1403.830933	156.0
1404.174072	152.0
1404.30835	144.0
1404.479858	44.0
1404.763306	124.0
1404.942383	144.0
1405.539307	240.0
1405.807861	152.0
1406.725952	108.0
1407.010376	220.0
1407.165405	200.0
1407.241089	36.0
1407.487549	156.0
1407.718994	164.0
1407.823608	156.0
1407.943115	136.0
1408.107422	216.0
1408.406128	48.0
1408.714722	128.0
1408.764771	168.0
1409.048584	168.0
1409.362427	100.0
1410.363892	156.0
1410.543335	156.0
1410.872192	148.0
1411.687256	164.0
1412.120972	144.0
1412.704468	164.0
1412.839111	160.0
1413.530273	188.0
1414.051392	136.0
1414.29834	116.0
1414.35083	136.0
1414.44812	164.0
1414.522949	180.0
1414.6427	200.0
1414.86731	144.0
1415.406372	116.0
1415.780884	52.0
1416.177856	212.0
1416.230225	360.0
1416.32019	340.0
1416.432495	168.0
1416.927002	144.0
1417.279053	172.0
1418.110962	140.0
1418.583252	192.0
1419.475464	124.0
1420.090454	180.0
1420.202881	80.0
1420.397949	136.0
1420.555542	200.0
1420.728027	184.0
1420.915649	128.0
1421.320801	152.0
1421.380859	176.0
1421.666016	124.0
1421.921143	180.0
1422.048706	184.0
1422.499146	196.0
1423.137329	204.0
1423.242432	180.0
1423.407593	132.0
1424.902344	148.0
1425.23291	72.0
1425.360718	144.0
1425.533569	156.0
1425.638794	208.0
1426.014526	148.0
1426.170166	200.0
1426.199829	140.0
1426.285156	100.0
1426.563232	156.0
1426.615845	184.0
1427.360229	188.0
1427.743774	172.0
1428.706665	152.0
1429.184204	136.0
1429.233276	232.0
1429.767578	168.0
1430.091187	132.0
1431.604492	156.0
1431.890747	160.0
1432.372803	144.0
1432.523438	132.0
1432.711792	132.0
1433.30957	216.0
1433.487915	216.0
1433.638672	164.0
1433.804443	152.0
1434.030518	56.0
1434.09082	144.0
1434.723999	184.0
1434.852173	160.0
1434.942749	48.0
1435.463013	56.0
1436.096558	68.0
1436.225464	156.0
1436.760376	120.0
1437.031982	168.0
1437.145142	144.0
1437.990356	140.0
1438.790527	152.0
1438.850952	180.0
1439.363647	176.0
1439.953369	216.0
1440.361328	140.0
1440.648315	148.0
1440.965698	184.0
1441.116821	108.0
1441.199951	196.0
1441.290527	208.0
1441.568115	164.0
1441.81958	152.0
1442.317505	188.0
1443.0896	104.0
1443.414673	144.0
1443.709595	136.0
1443.82312	168.0
1443.932495	136.0
1444.70813	60.0
1445.048584	128.0
1445.283081	176.0
1445.408569	136.0
1445.699341	164.0
1445.93396	132.0
1446.630249	96.0
1446.751465	152.0
1447.251099	136.0
1447.455566	148.0
1447.697876	156.0
1447.841797	152.0
1448.243286	116.0
1449.084106	100.0
1449.265991	156.0
1449.637329	200.0
1449.985962	128.0
1450.25415	176.0
1450.345093	224.0
1450.630249	236.0
1450.78186	152.0
1450.918335	176.0
1451.342896	212.0
1452.169556	192.0
1452.222656	172.0
1452.343994	132.0
1452.510864	172.0
1452.716675	148.0
1453.201294	128.0
1453.747559	172.0
1453.869019	192.0
1454.089111	204.0
1454.87854	76.0
1455.189819	152.0
1455.835327	196.0
1455.956787	116.0
1456.184692	140.0
1456.382202	292.0
1456.450562	148.0
1457.103882	52.0
1457.172241	168.0
1457.476196	136.0
1457.856079	104.0
1458.040161	160.0
1458.122559	220.0
1458.68457	120.0
1458.768188	212.0
1459.330811	216.0
1459.384033	156.0
1459.55896	236.0
1460.372681	120.0
1460.463989	48.0
1460.517212	72.0
1460.60083	140.0
1460.654175	184.0
1460.730225	88.0
1461.224731	216.0
1461.422485	164.0
1461.719238	144.0
1462.579346	184.0
1462.845703	188.0
1462.97522	144.0
1463.555542	136.0
1463.774658	92.0
1464.376343	44.0
1464.536255	164.0
1465.077148	160.0
1465.34375	128.0
1465.397095	76.0
1465.679077	160.0
1465.744873	228.0
1466.44873	164.0
1466.818604	212.0
1466.872192	232.0
1467.111938	148.0
1467.378784	144.0
1468.042236	180.0
1468.362549	152.0
1468.644653	128.0
1468.904053	188.0
1469.079468	184.0
1469.224487	244.0
1469.407593	152.0
1469.506714	208.0
1469.995117	468.0
1470.063843	124.0
1470.178223	112.0
1470.36145	144.0
1470.559937	172.0
1470.819458	200.0
1470.972046	244.0
1471.162964	160.0
1471.338501	160.0
1471.97229	176.0
1472.315918	244.0
1472.567993	124.0
1472.820068	252.0
1473.049194	116.0
1473.293701	160.0
1473.576294	40.0
1474.055054	148.0
1474.159912	172.0
1474.233521	176.0
1474.531616	176.0
1475.441284	136.0
1475.73938	200.0
1476.397095	156.0
1476.779419	160.0
1477.085449	60.0
1477.246094	216.0
1478.049438	208.0
1478.860718	168.0
1479.044434	204.0
1479.120972	156.0
1479.266357	188.0
1479.519043	168.0
1480.131592	168.0
1481.265137	196.0
1481.609863	144.0
1482.161499	196.0
1483.257446	232.0
1483.372437	168.0
1483.548828	148.0
1483.625488	212.0
1484.29248	208.0
1484.837036	160.0
1485.120728	148.0
1485.220459	156.0
1485.435303	232.0
1485.887939	212.0
1486.302734	148.0
1487.215576	152.0
1487.39978	128.0
1488.15979	200.0
1488.474609	164.0
1488.528442	152.0
1488.858643	108.0
1489.081299	60.0
1489.150513	148.0
1489.304077	148.0
1489.411621	144.0
1490.172241	144.0
1490.287476	44.0
1490.40271	124.0
1491.201904	184.0
1491.263428	148.0
1491.398804	152.0
1491.847656	168.0
1491.986084	88.0
1492.139771	220.0
1492.501221	176.0
1493.224121	208.0
1493.277954	104.0
1493.546143	160.0
1493.908691	140.0
1494.270264	200.0
1494.485718	160.0
1494.639648	116.0
1495.232178	84.0
1495.570801	228.0
1495.632446	180.0
1495.732544	172.0
1495.953735	168.0
1496.055786	372.0
1496.186646	160.0
1496.440796	120.0
1496.508057	152.0
1496.964355	192.0
1497.672974	156.0
1497.850098	112.0
1498.312378	204.0
1498.782349	64.0
1499.01355	136.0
1499.082886	56.0
1499.391113	144.0
1499.718872	224.0
1500.083008	168.0
1500.80957	208.0
1501.202881	120.0
1501.943359	212.0
1502.066772	128.0
1502.390747	232.0
1502.799683	136.0
1503.517334	192.0
1504.011353	204.0
1504.105347	180.0
1505.416504	204.0
END IONS

BEGIN IONS
PEPMASS=207.095
CHARGE=1
MSLEVEL=2
SOURCE_INSTRUMENT=ESI-qTof
FILENAME=MSV000079274/ccms_peak/Plate15/1381.D_GF5_01_4523.mzXML
SEQ=*..*
IONMODE=Positive
ORGANISM=GNPS-NIST14-MATCHES
NAME=Spectral Match to Pyrantel from NIST14 M+H
PI=Data from P.Dorrestein
DATACOLLECTOR=Data deposited by amelnik
SMILES=CN1CCCN=C1/C=C/C2=CC=CS2
INCHI=InChI=1S/C11H14N2S/c1-13-8-3-7-12-11(13)6-5-10-4-2-9-14-10/h2,4-6,9H,3,7-8H2,1H3/b6-5+
INCHIAUX=N/A
PUBMED=N/A
SUBMITUSER=mwang87
LIBRARYQUALITY=3
SPECTRUMID=CCMSLIB00003138340
USI=mzspec:GNPS:GNPS-NIST14-MATCHES:accession:CCMSLIB00003138340
SCANS=1097
97.009232	460.0
109.009819	592.0
135.01355	464.0
136.021164	1048.0
150.036499	3144.0
174.114746	516.0
207.093994	5788.0
208.099274	936.0
END IONS

BEGIN IONS
PEPMASS=254.155
CHARGE=1
MSLEVEL=2
SOURCE_INSTRUMENT=ESI-qTof
FILENAME=MSV000078710/ccms_peak/NIH_Pharmacologically_Active_mzXMLs/ML00106575/p3-F09_GF9_01_18290.mzXML
SEQ=*..*
IONMODE=Positive
ORGANISM=GNPS-NIST14-MATCHES
NAME=Spectral Match to Nefopam from NIST14 M+H
PI=Data from Pieter Dorrestein
DATACOLLECTOR=Data deposited by vphelan
SMILES=CN1CCOC(C2=CC=CC=C2C1)C3=CC=CC=C3
INCHI=InChI=1S/C17H19NO/c1-18-11-12-19-17(14-7-3-2-4-8-14)16-10-6-5-9-15(16)13-18/h2-10,17H,11-13H2,1H3
INCHIAUX=N/A
PUBMED=N/A
SUBMITUSER=mwang87
LIBRARYQUALITY=3
SPECTRUMID=CCMSLIB00003139439
USI=mzspec:GNPS:GNPS-NIST14-MATCHES:accession:CCMSLIB00003139439
SCANS=1509
44.912647	168.0
44.93399	176.0
44.995388	196.0
45.055492	132.0
45.094246	172.0
45.118309	152.0
45.335163	152.0
45.437077	180.0
45.454521	220.0
45.510902	176.0
45.579411	244.0
45.867443	116.0
45.974003	32.0
46.115822	164.0
46.23214	144.0
46.264629	144.0
46.375713	176.0
46.423168	216.0
46.442158	44.0
46.455723	132.0
46.508648	120.0
46.537159	128.0
46.629131	244.0
46.643131	224.0
46.762936	164.0
46.807766	160.0
46.864117	196.0
46.900414	176.0
46.922226	196.0
47.038193	152.0
47.068233	140.0
47.114674	168.0
47.125511	176.0
47.211727	144.0
47.269188	232.0
47.284241	188.0
47.328053	40.0
47.350384	248.0
47.403397	172.0
47.421684	256.0
47.535049	160.0
47.578976	164.0
47.588585	184.0
47.679256	124.0
47.76313	136.0
47.877377	168.0
47.936619	144.0
47.951733	116.0
47.97797	252.0
48.02486	144.0
48.062943	272.0
48.129749	204.0
48.150467	212.0
48.17395	120.0
48.231991	180.0
48.339874	216.0
48.380016	144.0
48.416019	128.0
48.461739	200.0
48.500542	224.0
48.521339	160.0
48.565716	136.0
48.662865	192.0
48.683697	132.0
48.736485	156.0
48.903378	140.0
48.925652	144.0
48.935398	192.0
48.945145	212.0
49.163147	192.0
49.200314	172.0
49.347019	172.0
49.450542	144.0
49.50515	168.0
49.526588	180.0
49.538391	180.0
49.55558	188.0
49.60183	188.0
49.638283	196.0
49.690186	60.0
49.702816	196.0
49.730885	144.0
49.785645	144.0
49.799686	132.0
49.932014	224.0
49.951508	52.0
50.017647	136.0
50.038765	92.0
50.048622	204.0
50.185307	192.0
50.270329	428.0
50.322777	160.0
50.340534	140.0
50.389977	236.0
50.447922	208.0
50.572411	180.0
50.604973	144.0
50.624798	184.0
50.653126	224.0
50.670128	144.0
50.692406	172.0
50.748085	112.0
50.783543	160.0
50.898502	252.0
50.943954	168.0
50.997955	184.0
51.01347	140.0
51.071896	160.0
51.135929	220.0
51.230392	284.0
51.306873	164.0
51.322559	124.0
51.386745	44.0
51.489532	156.0
51.508427	204.0
51.549538	188.0
51.606716	192.0
51.63818	156.0
51.649624	180.0
51.7584	180.0
51.782745	204.0
51.990643	112.0
52.026531	48.0
52.115582	128.0
52.211803	232.0
52.244987	144.0
52.263691	104.0
52.400482	104.0
52.515846	200.0
52.651493	388.0
52.882835	144.0
52.916134	176.0
53.110332	144.0
53.129192	192.0
53.197403	152.0
53.222088	68.0
53.274376	168.0
53.32756	196.0
53.348495	216.0
53.451767	168.0
53.492523	256.0
53.555141	152.0
53.565338	96.0
53.595932	116.0
53.817657	136.0
53.835182	56.0
53.864395	124.0
53.906765	160.0
53.927227	156.0
53.960426	204.0
53.997414	116.0
54.009113	212.0
54.028133	116.0
54.076424	112.0
54.139381	152.0
54.180397	192.0
54.249283	200.0
54.29034	120.0
54.307938	176.0
54.343151	124.0
54.444443	28.0
54.535538	252.0
54.631126	192.0
54.664967	168.0
54.785709	224.0
54.837288	104.0
54.915436	120.0
55.123611	96.0
55.219711	144.0
55.246342	176.0
55.376923	152.0
55.421055	172.0
55.450695	148.0
55.560432	236.0
55.581413	172.0
55.664337	144.0
55.744556	136.0
55.799557	100.0
55.836735	320.0
55.856071	156.0
55.873924	120.0
55.930477	200.0
56.153042	220.0
56.179348	176.0
56.194271	148.0
56.208179	372.0
56.246506	184.0
56.283833	156.0
56.446716	132.0
56.458683	68.0
56.582886	160.0
56.617329	92.0
56.639797	168.0
56.740208	60.0
56.795696	180.0
56.852711	172.0
57.008904	92.0
57.028442	172.0
57.076553	176.0
57.108139	148.0
57.120171	164.0
57.192402	224.0
57.25539	144.0
57.474239	136.0
57.613152	172.0
57.65395	212.0
57.669064	40.0
57.761307	60.0
57.867249	240.0
57.899052	160.0
57.92783	124.0
58.035442	148.0
58.058189	148.0
58.168957	164.0
58.21299	128.0
58.231216	156.0
58.369518	56.0
58.413628	96.0
58.541485	224.0
58.666431	124.0
58.677105	188.0
58.766773	152.0
58.812881	224.0
58.86021	172.0
58.938118	108.0
59.029839	200.0
59.098679	136.0
59.351425	148.0
59.411243	120.0
59.593956	136.0
59.635452	176.0
59.689262	116.0
59.727715	164.0
59.759151	184.0
59.789925	164.0
59.850842	156.0
59.87394	268.0
59.920155	40.0
59.958679	132.0
60.190552	180.0
60.284328	124.0
60.344658	144.0
60.392605	136.0
60.412666	100.0
60.479744	232.0
60.491596	148.0
60.561279	208.0
60.573673	160.0
60.590714	144.0
60.670383	148.0
60.81403	164.0
60.851288	112.0
60.910305	72.0
60.925838	152.0
60.983337	216.0
61.009766	136.0
61.047085	172.0
61.266563	36.0
61.322662	120.0
61.377232	132.0
61.395943	232.0
61.491119	244.0
61.595737	200.0
61.637924	88.0
61.680126	200.0
61.752056	172.0
61.797424	76.0
61.850403	216.0
61.982197	124.0
62.010406	212.0
62.029217	132.0
62.043327	188.0
62.065281	164.0
62.079391	176.0
62.110764	176.0
62.354145	144.0
62.41703	148.0
62.483097	140.0
62.52692	184.0
62.5429	116.0
62.591705	36.0
62.609028	180.0
62.631081	144.0
62.821831	220.0
62.894421	200.0
62.932312	80.0
63.046055	48.0
63.095055	120.0
63.128262	132.0
63.167805	136.0
63.229519	148.0
63.251678	164.0
63.281761	172.0
63.322933	168.0
63.345112	180.0
63.365707	124.0
63.479839	52.0
63.594074	120.0
63.681404	180.0
63.814899	164.0
63.873745	208.0
63.886471	188.0
63.937393	164.0
64.007439	184.0
64.018585	216.0
64.053627	80.0
64.06797	152.0
64.173164	160.0
64.216225	152.0
64.319939	172.0
64.369438	172.0
64.402977	116.0
64.465286	152.0
64.641205	132.0
64.700432	128.0
64.826973	60.0
64.980919	188.0
64.993752	224.0
65.146164	172.0
65.19722	120.0
65.221817	148.0
65.410515	184.0
65.450279	176.0
65.477654	176.0
65.508797	168.0
65.653336	148.0
65.763046	124.0
65.775963	144.0
65.832474	152.0
65.879318	140.0
65.963356	144.0
66.064919	224.0
66.11702	156.0
66.154251	68.0
66.18663	200.0
66.228058	228.0
66.264381	220.0
66.407341	196.0
66.478432	232.0
66.491417	108.0
66.852219	248.0
66.865242	152.0
66.91082	76.0
67.034622	180.0
67.075783	188.0
67.183006	148.0
67.236855	196.0
67.350227	208.0
67.38475	248.0
67.401794	220.0
67.449196	188.0
67.527687	92.0
67.720825	108.0
67.755234	124.0
67.96019	100.0
67.979881	164.0
68.007782	96.0
68.093163	264.0
68.122734	208.0
68.144089	208.0
68.280533	168.0
68.395714	172.0
68.44017	60.0
68.539001	160.0
68.555481	224.0
68.568665	100.0
68.621422	116.0
68.664299	44.0
68.746788	180.0
68.758347	252.0
68.7798	192.0
68.845848	184.0
68.903664	132.0
68.97142	164.0
69.108688	164.0
69.168274	156.0
69.201385	140.0
69.234505	112.0
69.287514	148.0
69.325623	152.0
69.338882	128.0
69.390274	56.0
69.471542	140.0
69.488136	196.0
69.526299	64.0
69.629242	212.0
69.645851	128.0
69.770485	200.0
69.868614	176.0
70.011772	100.0
70.033424	136.0
70.153404	180.0
70.166748	128.0
70.221779	96.0
70.245132	132.0
70.263184	156.0
70.458824	292.0
70.485565	84.0
70.510628	264.0
70.531815	184.0
70.607605	68.0
70.644402	156.0
70.659462	204.0
70.756538	100.0
70.786674	144.0
70.818497	144.0
70.831902	116.0
70.873909	220.0
70.971008	212.0
71.023003	304.0
71.148865	172.0
71.264755	112.0
71.474953	140.0
71.498512	156.0
71.513657	140.0
71.613007	196.0
71.66523	168.0
71.7799	172.0
71.79335	120.0
71.810211	148.0
71.825394	140.0
71.911453	144.0
71.943527	48.0
72.085411	124.0
72.10569	180.0
72.240974	192.0
72.271423	148.0
72.600075	164.0
72.751091	180.0
72.771461	124.0
72.798637	156.0
72.878242	172.0
73.046799	156.0
73.072319	148.0
73.087631	184.0
73.174438	156.0
73.205093	76.0
73.217964	136.0
73.225441	76.0
73.231361	132.0
73.251076	52.0
73.309013	152.0
73.331169	60.0
73.380608	412.0
73.414711	228.0
73.438591	52.0
73.506287	124.0
73.546089	224.0
73.569992	132.0
73.583649	232.0
73.607552	172.0
73.629753	172.0
73.886169	160.0
73.930664	84.0
73.946793	140.0
73.980301	160.0
74.119041	156.0
74.158455	224.0
74.263054	44.0
74.292213	108.0
74.307655	64.0
74.32653	116.0
74.383171	148.0
74.40892	148.0
74.781967	148.0
74.857727	240.0
74.950752	164.0
75.066879	228.0
75.155624	148.0
75.269882	128.0
75.295784	192.0
75.365356	220.0
75.39254	172.0
75.416733	144.0
75.453041	36.0
75.466873	128.0
75.494537	120.0
75.736855	112.0
75.882431	136.0
75.969154	176.0
76.012527	156.0
76.031616	252.0
76.130577	140.0
76.151421	160.0
76.219177	152.0
76.302612	164.0
76.407623	212.0
76.45047	164.0
76.473099	196.0
76.499207	164.0
76.516617	172.0
76.598473	68.0
76.654228	36.0
76.675873	152.0
76.703033	196.0
76.758827	260.0
76.835571	108.0
76.976959	60.0
76.99617	180.0
77.375641	212.0
77.827232	188.0
77.931656	248.0
77.996681	140.0
78.028328	132.0
78.133858	148.0
78.35218	176.0
78.415619	204.0
78.475555	200.0
78.4879	136.0
78.544342	216.0
78.60376	224.0
78.726135	196.0
78.807396	232.0
78.914764	196.0
79.09391	172.0
79.138168	156.0
79.243927	48.0
79.258621	76.0
79.278114	164.0
79.336609	176.0
79.391579	140.0
79.409317	120.0
79.492706	120.0
79.524651	140.0
79.567253	96.0
79.597443	36.0
79.613426	116.0
79.641846	216.0
79.667114	176.0
79.714691	168.0
79.760902	144.0
79.833801	104.0
79.908157	100.0
79.959801	200.0
80.095444	220.0
80.20771	80.0
80.229103	40.0
80.373581	156.0
80.38607	176.0
80.430687	184.0
80.473541	168.0
80.50032	224.0
80.688553	272.0
80.829254	228.0
81.06385	168.0
81.131966	144.0
81.189346	180.0
81.438828	180.0
81.498116	92.0
81.668915	140.0
81.757072	212.0
81.805672	148.0
81.879501	116.0
81.984001	204.0
82.157104	128.0
82.330391	148.0
82.444214	204.0
82.46048	80.0
82.583435	144.0
82.606949	64.0
82.697426	204.0
82.809692	132.0
82.862228	200.0
82.893028	168.0
82.960098	164.0
82.978226	200.0
83.01812	152.0
83.039886	216.0
83.090675	220.0
83.1306	132.0
83.195251	220.0
83.421219	180.0
83.484863	120.0
83.603111	128.0
83.841698	184.0
83.876328	164.0
83.98027	164.0
84.232178	116.0
84.279678	132.0
84.32354	172.0
84.393005	168.0
84.557655	156.0
84.619896	204.0
84.845253	216.0
85.021355	192.0
85.107635	72.0
85.146202	200.0
85.368584	156.0
85.401688	180.0
85.477119	180.0
85.51577	100.0
85.59581	144.0
85.650192	164.0
85.692398	212.0
85.720207	196.0
85.74601	160.0
85.76075	136.0
85.871429	156.0
85.910126	52.0
85.939644	160.0
85.967323	180.0
86.044853	184.0
86.115799	192.0
86.205559	52.0
86.442268	140.0
86.507057	28.0
86.696686	148.0
86.812782	156.0
86.885124	160.0
86.959358	64.0
87.058159	168.0
87.117195	192.0
87.154358	144.0
87.226845	124.0
87.293777	96.0
87.42028	92.0
87.513359	60.0
87.52639	216.0
87.645607	184.0
87.664459	176.0
87.699661	108.0
87.746262	224.0
87.800346	200.0
87.822723	128.0
87.925346	112.0
87.955215	156.0
87.985085	32.0
88.016823	132.0
88.076591	52.0
88.170013	132.0
88.188705	196.0
88.205528	60.0
88.257881	148.0
88.349525	152.0
88.477837	172.0
88.503006	132.0
88.522804	224.0
88.604156	244.0
88.62851	80.0
88.646774	188.0
88.693275	180.0
88.718475	128.0
88.755981	164.0
88.772858	144.0
88.846008	92.0
88.900429	220.0
89.03936	164.0
89.101349	248.0
89.231033	76.0
89.317543	152.0
89.333527	184.0
89.586746	164.0
89.618774	176.0
89.631966	116.0
89.839371	180.0
89.89032	100.0
89.912964	148.0
89.928062	208.0
90.011139	140.0
90.026245	96.0
90.130142	184.0
90.171722	76.0
90.243561	144.0
90.288948	28.0
90.427063	148.0
90.45546	140.0
90.61454	128.0
90.646759	176.0
90.669502	144.0
90.993881	176.0
91.053719	520.0
91.090881	220.0
91.261795	100.0
91.303635	64.0
91.539619	204.0
91.86174	96.0
91.903717	116.0
92.056435	156.0
92.270447	128.0
92.333549	92.0
92.387314	188.0
92.406029	176.0
92.603424	144.0
92.670479	124.0
92.687721	140.0
92.743408	148.0
93.094414	160.0
93.1847	208.0
93.228897	140.0
93.300018	116.0
93.471207	136.0
93.619446	200.0
93.806625	252.0
93.858406	180.0
93.896973	164.0
94.045547	160.0
94.063026	144.0
94.095741	136.0
94.144012	208.0
94.195381	192.0
94.340065	168.0
94.51712	192.0
94.639069	120.0
94.763039	152.0
94.86985	176.0
94.972412	116.0
95.230576	136.0
95.294785	160.0
95.318001	136.0
95.389915	164.0
95.479362	192.0
95.594147	168.0
95.652534	68.0
95.700676	176.0
95.704918	128.0
95.711372	164.0
95.733475	180.0
95.839508	152.0
95.931114	132.0
95.983757	184.0
96.040314	380.0
96.114456	176.0
96.139824	156.0
96.255005	164.0
96.30188	132.0
96.315552	164.0
96.428879	168.0
96.49144	128.0
96.509033	124.0
96.863739	204.0
96.884834	148.0
97.100464	200.0
97.173042	172.0
97.231918	148.0
97.257431	136.0
97.353638	92.0
97.404709	108.0
97.446693	184.0
97.497055	220.0
97.516716	44.0
97.595352	168.0
97.679924	128.0
97.713364	128.0
97.805862	140.0
97.848175	148.0
97.97187	208.0
97.987045	148.0
98.048134	168.0
98.071785	156.0
98.121071	108.0
98.259132	152.0
98.371628	176.0
98.430862	152.0
98.456535	196.0
98.622688	200.0
98.662041	44.0
98.771759	200.0
98.907349	160.0
99.047943	244.0
99.06974	204.0
99.121254	68.0
99.222343	180.0
99.25544	208.0
99.323486	48.0
99.450485	136.0
99.508057	132.0
99.595436	104.0
99.714653	92.0
99.756401	244.0
99.861794	216.0
100.051353	216.0
100.072739	164.0
100.124519	172.0
100.138458	220.0
100.168335	100.0
100.224121	48.0
100.299858	156.0
100.433464	168.0
100.503288	160.0
100.599091	204.0
100.631035	156.0
100.692947	188.0
100.734894	100.0
100.832802	116.0
100.857101	180.0
100.95298	148.0
100.976761	136.0
101.072792	320.0
101.096802	144.0
101.154854	168.0
101.31707	136.0
101.339111	136.0
101.40123	212.0
101.467384	144.0
101.487602	148.0
101.519524	64.0
101.567657	180.0
101.653801	192.0
101.800484	176.0
101.822578	144.0
101.844673	120.0
102.059715	144.0
102.100357	172.0
102.152229	204.0
102.208565	228.0
102.403854	100.0
102.438095	192.0
102.484436	144.0
102.550941	140.0
102.581177	176.0
102.655785	88.0
102.720329	224.0
102.803055	240.0
102.827271	136.0
102.8414	164.0
102.877739	156.0
102.914078	156.0
102.934273	140.0
102.962547	224.0
103.031227	48.0
103.053719	1536.0
103.209099	152.0
103.249542	36.0
103.338554	76.0
103.376999	92.0
103.468086	108.0
103.610054	168.0
103.632149	168.0
103.778091	124.0
103.922104	164.0
103.964722	216.0
104.047943	180.0
104.222626	164.0
104.303925	116.0
104.389313	168.0
104.448303	116.0
104.499161	192.0
104.529686	132.0
104.723099	172.0
104.744545	180.0
104.875923	96.0
104.924202	216.0
104.979904	192.0
105.06871	300.0
105.251312	220.0
105.294205	148.0
105.422913	88.0
105.555794	200.0
105.84433	164.0
106.010269	172.0
106.192734	232.0
106.508842	108.0
106.641884	220.0
106.718475	208.0
106.918015	104.0
107.144531	168.0
107.187805	176.0
107.264061	68.0
107.433167	240.0
107.453796	132.0
107.493004	132.0
107.544601	196.0
108.001259	120.0
108.111084	100.0
108.135757	32.0
108.218559	160.0
108.243408	220.0
108.338692	164.0
108.473396	116.0
108.538948	220.0
108.568367	204.0
108.655899	152.0
108.778343	164.0
108.81987	204.0
108.858795	200.0
108.979805	208.0
109.033836	204.0
109.125305	140.0
109.19809	220.0
109.352058	112.0
109.443665	208.0
109.485313	152.0
109.506142	208.0
109.524887	208.0
109.649902	204.0
109.714523	140.0
109.75206	224.0
109.797935	144.0
109.829224	136.0
109.889725	160.0
109.908501	120.0
110.08799	180.0
110.261436	36.0
110.32206	196.0
110.393738	200.0
110.437073	176.0
110.476822	196.0
110.51239	176.0
110.552147	156.0
110.573074	148.0
110.707069	212.0
110.739456	216.0
110.776192	136.0
110.795044	176.0
110.95961	160.0
111.029823	88.0
111.252243	240.0
111.43335	88.0
111.495911	120.0
111.59745	160.0
111.647285	44.0
111.769302	148.0
111.887177	252.0
112.055672	176.0
112.397263	136.0
112.433136	160.0
112.566139	232.0
112.580925	172.0
112.602043	172.0
112.752052	148.0
112.78376	196.0
112.813354	128.0
112.897934	56.0
112.927544	256.0
113.092583	276.0
113.117989	176.0
113.213272	156.0
113.350975	140.0
113.390015	208.0
113.649963	124.0
113.74128	152.0
113.936607	128.0
113.990852	128.0
114.110886	224.0
114.132149	160.0
114.276794	168.0
114.381073	116.0
114.419395	268.0
114.53653	164.0
114.591919	64.0
114.711266	196.0
114.777367	156.0
114.918144	244.0
114.952286	140.0
115.05336	2936.0
115.182137	264.0
115.223297	144.0
115.23053	132.0
115.261932	204.0
115.282036	148.0
115.321777	148.0
115.675491	224.0
115.745384	176.0
115.790352	60.0
115.869614	128.0
115.987488	108.0
116.05706	988.0
116.297424	184.0
116.390839	248.0
116.433784	108.0
116.459564	132.0
116.588478	108.0
116.633614	116.0
116.668007	124.0
116.721764	228.0
116.799194	184.0
116.868034	140.0
116.964882	204.0
116.990715	124.0
117.014404	132.0
117.05645	2728.0
117.12854	80.0
117.146797	160.0
117.201797	180.0
117.219032	188.0
117.242744	64.0
117.378555	112.0
117.492874	164.0
117.58567	52.0
117.831848	40.0
117.90316	88.0
117.931259	184.0
117.965843	148.0
118.013405	80.0
118.064621	624.0
118.162651	56.0
118.234062	252.0
118.320648	104.0
118.335808	116.0
118.427635	272.0
118.641296	144.0
118.717194	188.0
118.7584	216.0
118.790939	140.0
118.921135	220.0
118.940674	196.0
119.01561	124.0
119.029694	164.0
119.048019	172.0
119.055862	76.0
119.063499	176.0
119.179573	160.0
119.331726	208.0
119.376968	164.0
119.449173	100.0
119.562317	160.0
119.664627	116.0
119.740852	144.0
119.844566	204.0
120.320908	240.0
120.350563	192.0
120.364578	236.0
120.456306	160.0
120.567749	200.0
120.642067	156.0
120.662018	224.0
120.872658	184.0
120.895798	48.0
120.930817	176.0
121.033714	96.0
121.162949	132.0
121.178284	148.0
121.483032	108.0
121.526917	104.0
121.687141	140.0
121.83934	216.0
121.961754	176.0
121.996025	224.0
122.104675	140.0
122.129311	160.0
122.155273	220.0
122.216873	92.0
122.342331	180.0
122.366554	120.0
122.617683	216.0
122.680481	172.0
122.741142	124.0
122.769806	188.0
122.785248	136.0
122.886726	72.0
122.922028	124.0
123.01915	108.0
123.079552	200.0
123.107468	156.0
123.302299	236.0
123.434532	144.0
123.51416	188.0
123.578316	204.0
123.768677	108.0
123.790825	196.0
123.826256	140.0
123.899361	88.0
123.921516	196.0
124.199203	204.0
124.229691	212.0
124.276283	148.0
124.438316	156.0
124.516045	120.0
124.722687	48.0
124.769371	184.0
124.798271	36.0
124.86499	284.0
124.893906	216.0
124.971199	248.0
125.04744	100.0
125.13871	168.0
125.156525	172.0
125.181015	72.0
125.227791	156.0
125.348099	180.0
125.512039	140.0
125.546509	240.0
125.571037	156.0
125.709366	128.0
125.753998	68.0
125.875542	100.0
125.889595	164.0
126.06221	160.0
126.182922	288.0
126.203041	152.0
126.455841	144.0
126.59465	204.0
126.637207	136.0
126.670807	60.0
126.699928	164.0
126.735779	68.0
127.000328	88.0
127.04744	152.0
127.303322	76.0
127.348244	236.0
127.801208	140.0
127.893639	224.0
127.926155	200.0
128.061462	448.0
128.21756	208.0
128.588882	180.0
128.693161	208.0
128.755951	184.0
128.85762	204.0
129.067902	476.0
129.104004	192.0
129.203537	188.0
129.223892	28.0
129.318954	156.0
129.334793	116.0
129.350632	160.0
129.534073	160.0
129.554459	276.0
129.728958	172.0
129.796982	72.0
129.844604	128.0
129.93988	172.0
129.971649	196.0
130.012497	64.0
130.066437	168.0
130.087402	148.0
130.135086	224.0
130.155518	60.0
130.180496	112.0
130.208939	184.0
130.235001	72.0
130.350876	76.0
130.403152	128.0
130.482712	204.0
130.535019	160.0
130.612335	52.0
130.632812	176.0
130.892288	160.0
130.915054	160.0
130.976562	160.0
131.006165	236.0
131.071487	3584.0
131.174805	172.0
131.230759	156.0
131.275131	56.0
131.441666	44.0
131.507858	156.0
131.528397	136.0
131.62886	108.0
131.647125	224.0
131.706512	72.0
131.861496	164.0
131.973907	64.0
132.037933	208.0
132.078949	3756.0
132.188934	28.0
132.24614	188.0
132.358322	148.0
132.427032	108.0
132.475143	196.0
132.617218	124.0
132.823593	204.0
132.860291	156.0
132.970444	204.0
133.0802	532.0
133.201752	168.0
133.225327	108.0
133.310349	168.0
133.420685	120.0
133.481583	132.0
133.531052	212.0
133.61937	184.0
133.657593	164.0
133.694412	164.0
133.761154	192.0
133.868683	280.0
133.91774	236.0
133.954605	116.0
134.254242	88.0
134.415726	36.0
134.602722	208.0
134.683548	140.0
134.704178	168.0
134.74823	140.0
134.817566	144.0
134.856857	140.0
135.113541	72.0
135.145935	132.0
135.178329	156.0
135.335739	188.0
135.433014	116.0
135.546539	120.0
135.602158	216.0
135.745895	124.0
135.806198	168.0
135.840988	152.0
135.882751	236.0
135.994141	120.0
136.258881	128.0
136.435516	136.0
136.587708	152.0
136.663467	204.0
136.772842	180.0
136.835709	156.0
136.868301	108.0
136.961456	208.0
137.146988	220.0
137.355408	160.0
137.418396	196.0
137.471237	72.0
137.516418	132.0
137.570099	224.0
137.871429	144.0
138.231583	156.0
138.266678	172.0
138.33223	192.0
138.390762	136.0
138.414169	148.0
138.53363	152.0
138.552368	128.0
138.72345	228.0
138.739853	80.0
138.765656	136.0
138.87587	128.0
138.904022	204.0
139.054337	352.0
139.115234	160.0
139.204956	208.0
139.284302	180.0
139.480057	172.0
139.545181	192.0
139.582794	188.0
139.768631	76.0
139.78746	64.0
139.80629	148.0
139.853363	124.0
139.92746	176.0
140.011108	216.0
140.04158	188.0
140.070557	152.0
140.099915	376.0
140.14801	220.0
140.275024	188.0
140.333954	188.0
140.508499	72.0
140.687866	232.0
140.787033	132.0
140.831909	148.0
140.85318	44.0
140.898056	188.0
140.933563	164.0
141.069046	8256.0
141.13678	192.0
141.180374	128.0
141.24321	68.0
141.35376	200.0
141.397018	92.0
141.42778	132.0
141.475128	180.0
141.50354	52.0
141.58168	56.0
141.602997	256.0
141.643265	100.0
141.666962	140.0
141.683548	184.0
141.827087	252.0
141.877884	200.0
142.003571	56.0
142.020172	96.0
142.074036	656.0
142.19101	48.0
142.224716	220.0
142.294235	132.0
142.316833	88.0
142.454575	144.0
142.521103	156.0
142.704132	208.0
142.726868	156.0
142.808777	140.0
142.827805	220.0
142.844452	152.0
142.897675	216.0
143.083008	220.0
143.122925	180.0
143.151489	44.0
143.220566	52.0
143.246765	120.0
143.34848	168.0
143.389069	128.0
143.511322	184.0
143.575699	60.0
143.736252	176.0
143.864426	184.0
144.026825	176.0
144.079498	224.0
144.112289	144.0
144.168549	164.0
144.225143	192.0
144.284912	212.0
144.349472	184.0
144.378174	136.0
144.923981	120.0
144.969513	112.0
145.218857	100.0
145.38681	196.0
145.461212	164.0
145.494827	120.0
145.576462	144.0
145.615372	176.0
145.650925	60.0
145.730194	144.0
145.778259	172.0
145.809509	228.0
145.857574	180.0
145.874405	192.0
146.097305	348.0
146.19191	220.0
146.329117	156.0
146.391724	152.0
146.43988	188.0
146.553116	72.0
146.572388	164.0
146.591675	144.0
146.857071	196.0
146.938904	260.0
147.042664	160.0
147.071625	244.0
147.11026	120.0
147.146469	216.0
147.192352	120.0
147.286545	176.0
147.593475	172.0
147.629761	132.0
147.697479	168.0
147.832977	156.0
147.895905	136.0
148.094452	184.0
148.196198	156.0
148.222855	188.0
148.239822	256.0
148.433624	152.0
148.469849	168.0
148.747086	172.0
148.826859	116.0
149.033325	200.0
149.079498	184.0
149.098953	172.0
149.137527	156.0
149.170654	152.0
149.500229	224.0
149.547882	160.0
149.609772	44.0
149.765625	172.0
149.836273	84.0
149.999557	228.0
150.049942	168.0
150.109558	172.0
150.268127	164.0
150.284592	156.0
150.382523	200.0
150.568085	248.0
150.590073	140.0
150.692673	32.0
150.741547	164.0
150.814865	168.0
150.893097	160.0
150.910202	148.0
150.942001	168.0
151.053604	124.0
151.086044	200.0
151.110779	44.0
151.174393	152.0
151.348206	132.0
151.377594	56.0
151.455963	140.0
151.524567	80.0
151.654449	124.0
151.713272	164.0
151.784378	192.0
151.816269	164.0
151.865311	144.0
151.921738	176.0
151.987976	176.0
152.018066	156.0
152.060211	2668.0
152.113159	68.0
152.164703	28.0
152.248199	80.0
152.461945	44.0
152.734863	96.0
152.80867	108.0
152.830811	192.0
152.998184	196.0
153.02272	120.0
153.068268	5764.0
153.121307	224.0
153.176453	228.0
153.205063	112.0
153.355377	196.0
153.409607	284.0
153.434265	176.0
153.463852	44.0
153.503311	52.0
153.572372	32.0
153.641434	52.0
153.752472	72.0
153.784561	140.0
153.831467	48.0
153.8685	132.0
153.922821	136.0
154.072845	1508.0
154.091156	212.0
154.263794	196.0
154.320648	100.0
154.35527	140.0
154.404739	164.0
154.533371	44.0
154.598907	140.0
154.627411	140.0
154.654633	180.0
154.827957	72.0
154.857681	36.0
154.902267	104.0
154.919601	236.0
155.048462	220.0
155.074554	120.0
155.107941	164.0
155.296646	204.0
155.36586	108.0
155.393143	140.0
155.460144	192.0
155.673645	192.0
155.70842	244.0
155.735733	148.0
155.797836	180.0
155.869904	92.0
155.902206	76.0
156.038925	124.0
156.123474	96.0
156.352356	228.0
156.42952	168.0
156.494247	128.0
156.601334	100.0
156.638702	188.0
156.656143	72.0
156.710953	192.0
156.858002	136.0
156.90831	200.0
156.96022	248.0
156.987656	208.0
157.483673	76.0
158.13443	176.0
158.171967	240.0
158.30217	144.0
158.387329	192.0
158.404861	132.0
158.429916	136.0
158.462479	76.0
158.495056	204.0
158.783356	244.0
159.051834	192.0
159.179886	180.0
159.267792	100.0
159.481384	164.0
159.919037	112.0
159.971909	144.0
160.062546	168.0
160.753265	204.0
160.912231	160.0
160.937485	148.0
161.104248	144.0
161.159836	112.0
161.177521	52.0
161.421707	216.0
161.501129	92.0
161.589676	132.0
161.647873	104.0
161.673172	136.0
161.718735	256.0
161.880768	176.0
162.091446	400.0
162.256638	216.0
162.682007	120.0
162.788651	56.0
162.915649	144.0
162.969009	116.0
163.052765	312.0
163.0914	160.0
163.136765	196.0
163.219345	108.0
163.352921	156.0
163.421616	148.0
163.497955	104.0
163.569229	56.0
163.768143	172.0
163.801666	188.0
163.809052	228.0
163.918167	116.0
163.994614	68.0
164.0354	140.0
164.057449	196.0
164.086395	276.0
164.193497	204.0
164.234299	116.0
164.292984	116.0
164.319794	172.0
164.418015	156.0
164.446091	56.0
164.568634	72.0
164.658005	44.0
164.737198	152.0
164.7883	180.0
164.875931	148.0
164.913513	156.0
164.942673	180.0
164.986328	212.0
165.0224	108.0
165.068832	66844.0
165.131195	324.0
165.153778	128.0
165.173447	188.0
165.208649	68.0
165.240845	76.0
165.26149	124.0
165.294586	40.0
165.326904	172.0
165.371429	204.0
165.431839	220.0
165.453018	156.0
165.488998	240.0
165.519852	136.0
165.537231	132.0
165.571075	52.0
165.594131	180.0
165.631607	132.0
165.676239	144.0
165.781158	188.0
165.822586	268.0
165.847153	176.0
165.882309	60.0
165.90419	132.0
165.933365	140.0
165.968658	200.0
166.02858	172.0
166.039459	160.0
166.076843	74840.0
166.135437	220.0
166.174774	64.0
166.204544	40.0
166.2267	76.0
166.237091	56.0
166.267731	44.0
166.2883	212.0
166.326752	200.0
166.331696	124.0
166.356415	192.0
166.401932	32.0
166.426682	112.0
166.49942	204.0
166.553986	76.0
166.582962	164.0
166.625381	44.0
166.673965	76.0
166.730728	228.0
166.812988	88.0
166.839279	160.0
166.875626	188.0
166.902969	36.0
166.925476	80.0
166.972244	120.0
167.005783	92.0
167.03157	88.0
167.079849	8332.0
167.130676	156.0
167.157364	36.0
167.166489	64.0
167.214523	92.0
167.272324	136.0
167.292038	56.0
167.332687	52.0
167.372299	176.0
167.406113	108.0
167.448334	92.0
167.554184	148.0
167.57222	64.0
167.627411	132.0
167.652328	92.0
167.68045	60.0
167.743256	76.0
167.760361	108.0
167.850189	116.0
167.87381	40.0
167.961502	48.0
168.019608	100.0
168.055511	260.0
168.083939	1400.0
168.129211	116.0
168.150467	160.0
168.180786	96.0
168.222137	76.0
168.247955	120.0
168.288559	160.0
168.315094	108.0
168.335754	76.0
168.406326	132.0
168.46489	32.0
168.518295	144.0
168.568253	128.0
168.754364	80.0
168.800903	100.0
168.837112	48.0
168.930908	260.0
169.068405	152.0
169.096497	160.0
169.157974	228.0
169.302963	112.0
169.347	104.0
169.499847	60.0
169.551682	76.0
169.587967	72.0
169.670929	76.0
169.704636	284.0
169.73056	52.0
170.094696	160.0
170.137924	88.0
170.171677	112.0
170.473007	124.0
170.571777	76.0
170.72258	136.0
170.907272	168.0
171.034805	192.0
171.055618	84.0
171.196228	52.0
171.404633	168.0
171.467178	124.0
171.723312	220.0
172.084076	212.0
172.221237	184.0
172.605438	116.0
172.733582	236.0
172.885345	176.0
173.026703	104.0
173.186447	44.0
173.262421	152.0
173.45372	116.0
173.490433	96.0
173.52713	32.0
173.587448	160.0
173.727875	184.0
173.957397	48.0
174.009903	312.0
174.072922	52.0
174.093933	144.0
174.114944	112.0
174.277817	96.0
174.322495	112.0
174.562561	164.0
174.785324	108.0
174.909027	84.0
175.124207	172.0
175.161819	52.0
175.298828	100.0
175.335724	92.0
175.454346	108.0
175.588837	100.0
175.669754	200.0
175.752396	184.0
175.781418	256.0
175.865875	172.0
176.057266	160.0
176.108795	432.0
176.195984	200.0
176.47879	132.0
176.550186	100.0
176.786728	216.0
176.838577	52.0
177.067871	888.0
177.099136	188.0
177.140442	80.0
177.402802	196.0
177.485001	40.0
177.691895	204.0
177.80069	196.0
177.87236	176.0
177.914368	160.0
177.934204	188.0
177.967941	176.0
177.994492	204.0
178.026352	188.0
178.076874	32912.0
178.139038	172.0
178.180237	56.0
178.222931	196.0
178.254822	64.0
178.310013	52.0
178.337219	84.0
178.384308	28.0
178.402267	84.0
178.454773	72.0
178.480774	140.0
178.518005	184.0
178.557892	48.0
178.601456	132.0
178.651001	184.0
178.669617	52.0
178.704208	48.0
178.744125	196.0
178.771912	152.0
178.821304	252.0
178.895569	192.0
178.938339	208.0
178.99263	148.0
179.001312	52.0
179.016022	208.0
179.084076	45392.0
179.174194	68.0
179.192352	60.0
179.212784	40.0
179.249207	72.0
179.275757	108.0
179.310059	88.0
179.363083	132.0
179.40361	140.0
179.480606	88.0
179.56601	112.0
179.598587	84.0
179.634033	108.0
179.724747	36.0
179.76622	132.0
179.815475	92.0
179.842163	76.0
179.911575	60.0
179.932938	252.0
180.014313	160.0
180.088638	5672.0
180.13324	48.0
180.256134	200.0
180.282867	180.0
180.321747	124.0
180.38176	40.0
180.432556	236.0
180.486481	108.0
180.520798	96.0
180.554153	236.0
180.598358	140.0
180.675674	208.0
180.732117	64.0
180.903412	208.0
180.964996	160.0
180.999802	176.0
181.050415	156.0
181.100708	31632.0
181.164642	192.0
181.184204	52.0
181.220978	108.0
181.297318	148.0
181.343643	152.0
181.393661	192.0
181.445465	84.0
181.5009	76.0
181.547562	20.0
181.586029	116.0
181.659149	52.0
181.705688	60.0
181.753479	124.0
181.812241	76.0
181.833557	104.0
181.884567	116.0
181.981216	76.0
182.026855	104.0
182.059082	124.0
182.103943	4320.0
182.198761	48.0
182.249817	32.0
182.31163	88.0
182.413773	84.0
182.454086	100.0
182.475601	52.0
182.576569	88.0
182.734192	56.0
182.754532	208.0
182.790314	36.0
182.838043	60.0
182.88562	260.0
183.051437	204.0
183.079926	124.0
183.106903	368.0
183.304657	60.0
183.374741	96.0
183.3936	68.0
183.431335	160.0
183.455597	72.0
183.549973	92.0
183.5952	88.0
183.61293	104.0
183.633575	64.0
183.827835	88.0
183.903397	104.0
183.935791	72.0
184.108597	192.0
184.222046	40.0
184.449036	96.0
184.512787	72.0
185.50209	84.0
185.716309	44.0
185.853256	92.0
185.938797	196.0
186.291809	112.0
187.107697	80.0
187.254745	128.0
187.652618	60.0
187.960846	144.0
188.94725	76.0
189.519501	40.0
189.694901	100.0
190.78479	144.0
190.99379	60.0
191.06926	176.0
191.101089	60.0
191.285583	104.0
191.480988	92.0
191.566376	84.0
191.916397	32.0
192.089813	160.0
192.131531	148.0
192.971161	224.0
193.086716	568.0
193.712891	88.0
193.898544	104.0
194.091934	548.0
194.292297	96.0
194.672577	76.0
194.817017	32.0
195.106781	148.0
195.297928	156.0
195.373047	148.0
195.584534	44.0
195.620728	28.0
195.938217	44.0
196.054916	168.0
196.099442	168.0
196.733063	228.0
197.062637	164.0
197.992996	112.0
198.93071	132.0
200.215729	52.0
200.965576	172.0
201.906281	48.0
202.446838	160.0
203.093063	96.0
203.328552	176.0
203.899429	92.0
203.919327	80.0
205.066376	116.0
205.879517	144.0
206.116623	152.0
206.145203	196.0
206.559784	48.0
206.754364	64.0
207.105042	420.0
208.02417	124.0
208.111481	2184.0
208.22229	56.0
209.038788	76.0
209.112793	384.0
209.329529	92.0
209.511002	60.0
209.666595	60.0
210.126892	2200.0
210.217438	52.0
210.301132	156.0
211.126526	168.0
211.176636	180.0
212.129059	132.0
212.732269	104.0
214.175095	84.0
215.347672	140.0
217.083237	124.0
217.156555	44.0
217.59967	48.0
220.870941	72.0
221.015915	88.0
221.110611	116.0
222.12616	1936.0
222.696884	76.0
223.101028	164.0
223.127533	152.0
224.112976	156.0
224.13681	136.0
226.248535	120.0
228.692108	244.0
228.716187	52.0
229.068512	204.0
231.094345	188.0
232.257706	60.0
235.838638	112.0
236.13829	100.0
237.145645	168.0
238.339478	184.0
239.496262	144.0
241.066681	132.0
244.761353	80.0
245.662109	88.0
245.936722	96.0
249.665237	112.0
251.843155	96.0
253.310913	140.0
254.052734	144.0
254.15303	9776.0
254.208221	156.0
254.243118	52.0
254.287552	152.0
254.354218	44.0
254.395493	52.0
254.535187	48.0
254.624115	40.0
254.82106	36.0
254.925934	76.0
255.094391	64.0
255.158295	1680.0
255.374222	48.0
255.63829	120.0
255.727402	80.0
256.159485	296.0
256.597076	208.0
256.689545	60.0
257.139374	108.0
257.695038	84.0
257.76535	200.0
258.088196	88.0
260.73938	60.0
263.158691	72.0
263.940643	36.0
264.186462	52.0
265.093079	108.0
268.917847	100.0
269.146362	68.0
269.505676	32.0
270.778259	40.0
272.175323	44.0
274.808624	76.0
281.033447	72.0
283.561676	80.0
290.915436	84.0
294.596863	52.0
294.873657	60.0
295.02063	68.0
298.22583	64.0
300.377991	120.0
309.224976	76.0
309.89386	76.0
311.525269	80.0
311.715027	76.0
312.625854	96.0
325.190216	92.0
326.47287	132.0
328.771393	96.0
330.339539	116.0
331.331512	152.0
332.343109	104.0
336.802948	116.0
341.774384	72.0
348.950226	92.0
351.337616	80.0
352.554901	144.0
355.115814	44.0
356.662842	52.0
364.805603	60.0
368.131989	48.0
368.942047	104.0
369.630524	112.0
378.205566	72.0
384.556946	44.0
386.550171	28.0
392.048187	132.0
395.167786	116.0
396.90271	116.0
400.618988	40.0
402.761169	96.0
412.542511	76.0
420.614502	56.0
440.031616	120.0
460.420563	60.0
497.256653	108.0
497.66507	52.0
504.352203	84.0
508.441559	88.0
519.22467	112.0
523.091492	52.0
528.261902	68.0
536.136719	88.0
536.348755	40.0
550.855164	64.0
556.888489	96.0
560.482849	60.0
589.996826	64.0
602.663208	52.0
607.289551	108.0
611.446289	80.0
649.722961	76.0
660.088501	64.0
670.695801	56.0
671.051514	116.0
675.503418	96.0
683.379089	52.0
686.775818	64.0
688.210999	72.0
704.01239	100.0
704.720215	36.0
705.745667	60.0
722.425232	84.0
795.424927	80.0
802.068359	80.0
816.899597	112.0
819.245056	84.0
838.314453	100.0
839.519348	220.0
860.508484	140.0
867.007507	200.0
869.500122	176.0
884.424377	148.0
888.4422	136.0
892.284851	120.0
908.200134	164.0
911.772644	268.0
911.856812	156.0
921.734436	40.0
923.814392	176.0
924.649414	236.0
926.229797	220.0
929.309631	160.0
939.512939	224.0
941.057129	164.0
944.552917	128.0
946.609436	144.0
949.41626	104.0
964.186218	164.0
966.55481	208.0
967.563721	124.0
968.325378	224.0
971.275818	196.0
971.958313	176.0
977.768982	132.0
979.381592	144.0
984.146301	44.0
987.896362	172.0
1000.259155	172.0
1004.456055	56.0
1009.091614	156.0
1011.122253	224.0
1013.325989	176.0
1014.359009	204.0
1014.473083	164.0
1016.718567	180.0
1018.540833	176.0
1020.612793	136.0
1020.911621	60.0
1021.592224	168.0
1021.668579	172.0
1023.119629	168.0
1023.501709	260.0
1026.541382	184.0
1028.570312	156.0
1029.445068	132.0
1029.949585	144.0
1035.687378	136.0
1036.05896	108.0
1037.802368	184.0
1039.065918	224.0
1047.822876	188.0
1050.446777	184.0
1051.291992	44.0
1051.989136	172.0
1054.611816	200.0
1054.844482	80.0
1057.671387	88.0
1057.87854	156.0
1068.860596	120.0
1068.919189	108.0
1070.579224	124.0
1071.191406	148.0
1072.462158	164.0
1074.875244	144.0
1076.265625	256.0
1076.670532	36.0
1076.957886	96.0
1077.186523	180.0
1085.466187	176.0
1087.014404	160.0
1087.841309	64.0
1088.392944	156.0
1090.357178	180.0
1094.481934	172.0
1096.319946	264.0
1097.368042	136.0
1098.139648	140.0
1101.307861	152.0
1103.607788	160.0
1107.247559	88.0
1107.413086	172.0
1109.241943	200.0
1110.322754	132.0
1111.503662	112.0
1112.685181	164.0
1113.169922	104.0
1113.289429	108.0
1113.428833	164.0
1113.488647	48.0
1114.285767	176.0
1115.309204	168.0
1118.415649	44.0
1118.748535	236.0
1119.048096	156.0
1121.059814	144.0
1123.907349	44.0
1125.108765	72.0
1126.578003	212.0
1134.414673	184.0
1134.716431	64.0
1137.702026	160.0
1138.084717	164.0
1139.166016	176.0
1142.473633	164.0
1144.001343	52.0
1145.779297	180.0
1147.120483	160.0
1149.575684	184.0
1149.629639	252.0
1151.033813	204.0
1152.155029	128.0
1152.661743	212.0
1157.722046	136.0
1158.616211	168.0
1162.257202	152.0
1167.182007	112.0
1168.494873	172.0
1169.243408	116.0
1169.413574	164.0
1169.706177	104.0
1179.003052	152.0
1180.555054	120.0
1184.285156	120.0
1184.730469	128.0
1187.369507	56.0
1188.755371	132.0
1192.02417	68.0
1192.519043	192.0
1193.942261	148.0
1194.857178	216.0
1197.452393	148.0
1198.313477	136.0
1199.250732	140.0
1201.512695	160.0
1202.499512	116.0
1204.336182	128.0
1204.412109	108.0
1206.347046	244.0
1209.785278	160.0
1210.124634	128.0
1210.997192	156.0
1211.267334	40.0
1212.112549	144.0
1214.154297	20.0
1214.483765	92.0
1214.684814	200.0
1220.637207	164.0
1220.755371	120.0
1224.116699	156.0
1224.966431	144.0
1225.642212	152.0
1232.075439	132.0
1237.404907	156.0
1237.853027	188.0
1239.155884	64.0
1239.96875	152.0
1240.824097	132.0
1243.672241	244.0
1245.399658	152.0
1245.44873	172.0
1247.571045	192.0
1248.260132	108.0
1251.137939	152.0
1251.849121	228.0
1252.151978	152.0
1252.64502	160.0
1253.570312	184.0
1253.969727	232.0
1255.013184	56.0
1256.769531	112.0
1257.70813	208.0
1262.074341	184.0
1262.908813	180.0
1264.062012	72.0
1264.246094	212.0
1265.074951	192.0
1267.262695	176.0
1268.595215	132.0
1269.729736	180.0
1271.652466	148.0
1273.38501	216.0
1273.633545	204.0
1275.402954	184.0
1276.540527	164.0
1276.789429	148.0
1277.180664	116.0
1277.678589	152.0
1279.094849	208.0
1280.754028	172.0
1283.562012	160.0
1284.929199	204.0
1286.551636	124.0
1287.608521	128.0
1290.023682	144.0
1290.545654	220.0
1292.162109	112.0
1293.951538	40.0
1294.810791	148.0
1295.133179	196.0
1295.290771	180.0
1297.039185	120.0
1299.255127	48.0
1299.341309	172.0
1299.592407	240.0
1300.833984	52.0
1301.566406	148.0
1302.528809	128.0
1305.382202	192.0
1305.705811	224.0
1309.707764	260.0
1311.112793	132.0
1312.518555	184.0
1314.720459	184.0
1316.357666	156.0
1317.289429	220.0
1319.348999	192.0
1321.699707	164.0
1322.249756	204.0
1323.451538	184.0
1324.545044	152.0
1326.392944	176.0
1327.088989	156.0
1327.371704	136.0
1328.002686	168.0
1331.668213	160.0
1332.598145	80.0
1333.288452	120.0
1337.689087	272.0
1339.491699	200.0
1340.413208	48.0
1341.485596	144.0
1341.808838	192.0
1343.548462	168.0
1345.650513	192.0
1346.599854	180.0
1347.052734	172.0
1347.228271	132.0
1348.272949	220.0
1348.470337	180.0
1349.493774	116.0
1351.702881	48.0
1351.885864	188.0
1352.610474	188.0
1353.130249	96.0
1353.738037	160.0
1353.957764	136.0
1354.36792	200.0
1356.111816	152.0
1356.566284	192.0
1356.888916	272.0
1357.057495	176.0
1357.864136	116.0
1358.590454	212.0
1358.656494	152.0
1359.111328	132.0
1359.661743	152.0
1360.968506	140.0
1362.760742	132.0
1362.812134	160.0
1363.679321	56.0
1364.215942	204.0
1364.27478	240.0
1364.377686	188.0
1365.701416	196.0
1366.20166	156.0
1366.562134	224.0
1366.701904	224.0
1366.930054	160.0
1368.542114	196.0
1369.860474	108.0
1370.435181	148.0
1371.761841	168.0
1372.137817	48.0
1374.416992	196.0
1378.751953	184.0
1379.594604	156.0
1380.061401	148.0
1380.526245	144.0
1380.851685	168.0
1381.169678	176.0
1382.101929	216.0
1383.367554	184.0
1385.278198	172.0
1385.381958	160.0
1385.685669	180.0
1385.741333	220.0
1386.048828	128.0
1386.81958	176.0
1387.308838	180.0
1387.672119	180.0
1388.139282	116.0
1388.510132	148.0
1389.05896	108.0
1392.703735	64.0
1392.867188	160.0
1392.919189	96.0
1393.268311	120.0
1393.870117	128.0
1394.222656	284.0
1394.546509	196.0
1394.910767	204.0
1395.594727	172.0
1395.706299	164.0
1396.338379	220.0
1396.47229	180.0
1396.732666	168.0
1398.057007	148.0
1400.77478	104.0
1403.092529	144.0
1403.390747	124.0
1403.472778	152.0
1403.711426	228.0
1403.763672	100.0
1404.658691	168.0
1407.845825	152.0
1407.898071	148.0
1408.346191	288.0
1408.876587	172.0
1411.388062	152.0
1413.370239	104.0
1413.736938	160.0
1415.159302	184.0
1416.200195	212.0
1417.016846	80.0
1417.406494	160.0
1418.080933	68.0
1418.268311	168.0
1419.250488	144.0
1420.240479	144.0
1420.630493	108.0
1420.893066	144.0
1422.401611	92.0
1422.807007	72.0
1425.000122	180.0
1426.81897	196.0
1426.984375	112.0
1427.255127	100.0
1427.616089	216.0
1427.781494	204.0
1428.54126	76.0
1429.293579	72.0
1429.858032	116.0
1430.942017	140.0
1431.303467	204.0
1431.499268	204.0
1431.732788	220.0
1436.043945	204.0
1438.254761	164.0
1442.583374	152.0
1442.916016	196.0
1443.173096	172.0
1443.793213	104.0
1445.253174	136.0
1447.327271	180.0
1449.3573	156.0
1449.971191	156.0
1452.57959	168.0
1453.042358	108.0
1454.742432	116.0
1456.792969	288.0
1457.150024	224.0
1458.023926	220.0
1458.092285	228.0
1458.715576	196.0
1458.822021	152.0
1459.567139	112.0
1459.954956	144.0
1461.080811	160.0
1461.796021	80.0
1462.047119	132.0
1462.244995	92.0
1462.838745	136.0
1463.067139	172.0
1463.356445	104.0
1464.087524	168.0
1464.651123	132.0
1465.275879	184.0
1465.405396	80.0
1466.091187	92.0
1466.434204	212.0
1466.769653	200.0
1467.097412	88.0
1467.198364	236.0
1467.913208	128.0
1468.668335	116.0
1469.377808	200.0
1469.751709	112.0
1470.614136	132.0
1471.11792	128.0
1471.324097	208.0
1471.415649	220.0
1471.889038	240.0
1472.553467	240.0
1472.721558	136.0
1473.485474	72.0
1473.623047	104.0
1474.547729	148.0
1474.876343	160.0
1475.013916	156.0
1475.067505	108.0
1476.122559	176.0
1476.183838	100.0
1476.34436	44.0
1476.589111	176.0
1478.290405	196.0
1479.137207	132.0
1479.336182	244.0
1479.895142	220.0
1480.921265	168.0
1481.46521	184.0
1481.595459	168.0
1481.963257	220.0
1483.051514	104.0
1483.404053	128.0
1483.618774	168.0
1485.351929	176.0
1485.727783	120.0
1487.009277	172.0
1488.649658	244.0
1489.051636	60.0
1489.758423	196.0
1490.964722	184.0
1492.409058	204.0
1492.840698	32.0
1493.132935	208.0
1493.72522	232.0
1493.90979	52.0
1494.286743	48.0
1495.341064	200.0
1498.020752	184.0
1498.282715	108.0
1498.657349	228.0
1499.77002	216.0
1500.641235	128.0
1501.234985	56.0
1501.898315	112.0
1502.338013	156.0
1504.166992	188.0
1504.375366	232.0
1504.483521	108.0
1504.854126	220.0
1505.325073	124.0
END IONS

BEGIN IONS
PEPMASS=97.0284
CHARGE=1
MSLEVEL=2
SOURCE_INSTRUMENT=ESI-Orbitrap
FILENAME=Marynka_MassSpecGirl/STD_POS/compound_furfural_plasma_pos_rep1.mzML
SEQ=*..*
IONMODE=Positive
ORGANISM=GNPS-NUTRI-METAB-FEM-POS
NAME=furfural M+H
PI=Ulaszewska
DATACOLLECTOR=Marynka Ulaszewska
SMILES=C1=COC(=C1)C=O
INCHI=InChI=1S/C5H4O2/c6-4-5-2-1-3-7-5/h1-4H
INCHIAUX=N/A
PUBMED=7362.0
SUBMITUSER=mpanitchpakdi
LIBRARYQUALITY=1
SPECTRUMID=CCMSLIB00006674365
USI=mzspec:GNPS:GNPS-NUTRI-METAB-FEM-POS:accession:CCMSLIB00006674365
SCANS=371
51.996807	3915.675293
53.675758	5421.578613
53.678692	4868.429688
53.687046	8348.262695
53.689968	11815.047852
53.693302	9741.948242
53.695892	9563.105469
53.698368	20675.828125
53.701405	19931.808594
53.704605	25465.677734
53.707344	8242.223633
53.709652	24749.183594
53.712013	17152.580078
53.715683	36317.117188
53.721058	28480.277344
53.724911	25637.847656
53.727123	20101.916016
53.729424	11685.881836
53.731598	16786.242188
53.734894	20926.914062
53.738537	28158.896484
53.741833	19553.550781
53.746956	14790.426758
53.750671	16867.138672
53.75256	15523.886719
53.758389	20269.720703
53.761848	11617.836914
53.76413	8979.495117
53.76749	15101.254883
53.771011	9181.462891
53.773422	9719.833008
53.776947	11760.102539
53.778942	18638.869141
53.782852	5808.03418
53.784935	6086.161133
53.790474	17253.734375
53.794117	8137.440918
53.796513	6029.983398
53.801895	14239.407227
53.811047	6781.169922
53.813442	6510.45166
53.825306	6051.717285
53.836559	3847.4375
58.231853	3925.030518
63.336102	3254.903809
66.248642	4020.443604
66.744392	4081.380615
66.808876	4508.924805
68.91053	3911.065918
68.965599	7249.019531
68.970467	8074.5625
68.974991	13292.295898
68.978584	8446.610352
68.982338	11207.527344
68.987	12149.165039
68.993362	17057.052734
68.999405	14018.313477
69.004082	7975.071289
69.007477	17954.884766
69.011124	11381.652344
69.014603	12960.322266
69.019958	8025.032227
69.025124	16379.958984
69.033081	200460.8125
69.03698	12305.270508
69.041344	9931.441406
69.053658	12756.560547
69.058456	7224.141113
69.063507	7134.106934
69.066612	7126.673828
69.071022	9831.831055
69.075668	5383.753418
69.079887	10088.09668
69.082947	8945.553711
69.087982	6228.96875
69.096397	6964.044434
69.104408	5654.416016
69.113815	3929.919189
69.11573	4162.629883
69.133629	4274.466797
71.356232	3725.005859
76.055382	4042.811279
85.319794	4660.709473
85.333321	12054.851562
85.347511	5153.775879
85.835762	4725.132324
88.51107	3634.453125
91.82164	4261.847168
91.826591	5093.652344
91.839409	8810.90332
91.841537	8034.918945
91.850212	16099.84082
91.865021	9294.080078
91.869858	6284.546387
91.875801	13987.088867
91.881248	6197.878418
91.894226	10500.436523
91.89756	11065.700195
91.916084	6782.675293
91.921227	8246.979492
91.93161	5102.172852
91.942581	9596.205078
91.968719	8366.436523
91.97776	5652.22168
91.981529	5953.474121
91.993965	4548.054199
92.002953	4085.092529
92.005829	4010.721436
98.645447	3757.904541
99.65062	5031.198242
102.042374	4330.568848
END IONS

BEGIN IONS
PEPMASS=300.03
CHARGE=1
MSLEVEL=2
SOURCE_INSTRUMENT=LC-ESI-qTof
FILENAME=sciex_positive.mgf
SEQ=*..*
IONMODE=Positive
ORGANISM=GNPS-SCIEX-LIBRARY
NAME=azaconazole [M+H]+
PI=Michael Witting
DATACOLLECTOR=Michael Witting
SMILES=c1cc(c(cc1Cl)Cl)C2(OCCO2)Cn3cncn3
INCHI="InChI=1S/C12H11Cl2N3O2/c13-9-1-2-10(11(14)5-9)12(18-3-4-19-12)6-17-8-15-7-16-17/h1-2,5,7-8H,3-4,6H2"
INCHIAUX=AKNQMEBLVAMSNZ-UHFFFAOYSA-N
PUBMED=N/A
SUBMITUSER=mpanitchpakdi
LIBRARYQUALITY=1
SPECTRUMID=CCMSLIB00006581660
USI=mzspec:GNPS:GNPS-SCIEX-LIBRARY:accession:CCMSLIB00006581660
SCANS=36
158.976196	40266.0
230.997192	8090.0
300.03009	4831.0
END IONS

BEGIN IONS
PEPMASS=346.044
CHARGE=1
MSLEVEL=2
SOURCE_INSTRUMENT=LC-ESI-qTof
FILENAME=sciex_positive.mgf
SEQ=*..*
IONMODE=Positive
ORGANISM=GNPS-SCIEX-LIBRARY
NAME=azinphos-ethyl [M+H]+
PI=Michael Witting
DATACOLLECTOR=Michael Witting
SMILES=CCOP(=S)(OCC)SCn1c(=O)c2ccccc2nn1
INCHI="InChI=1S/C12H16N3O3PS2/c1-3-17-19(20,18-4-2)21-9-15-12(16)10-7-5-6-8-11(10)13-14-15/h5-8H,3-4,9H2,1-2H3"
INCHIAUX=RQVGAIADHNPSME-UHFFFAOYSA-N
PUBMED=N/A
SUBMITUSER=mpanitchpakdi
LIBRARYQUALITY=1
SPECTRUMID=CCMSLIB00006581661
USI=mzspec:GNPS:GNPS-SCIEX-LIBRARY:accession:CCMSLIB00006581661
SCANS=37
51.0229	364.0
77.038399	2921.0
96.950798	1785.0
102.0336	688.0
104.049301	2371.0
105.033302	1728.0
124.982498	536.0
132.044693	5907.0
137.005402	3123.0
142.938705	1391.0
232.948807	877.0
END IONS

BEGIN IONS
PEPMASS=275.036
CHARGE=1
MSLEVEL=2
SOURCE_INSTRUMENT=LC-ESI-qTof
FILENAME=sciex_positive.mgf
SEQ=*..*
IONMODE=Positive
ORGANISM=GNPS-SCIEX-LIBRARY
NAME=disulfoton [M+H]+
PI=Michael Witting
DATACOLLECTOR=Michael Witting
SMILES=CCOP(=S)(OCC)SCCSCC
INCHI="InChI=1S/C8H19O2PS3/c1-4-9-11(12,10-5-2)14-8-7-13-6-3/h4-8H2,1-3H3"
INCHIAUX=DOFZAZXDOSGAJZ-UHFFFAOYSA-N
PUBMED=N/A
SUBMITUSER=mpanitchpakdi
LIBRARYQUALITY=1
SPECTRUMID=CCMSLIB00006581668
USI=mzspec:GNPS:GNPS-SCIEX-LIBRARY:accession:CCMSLIB00006581668
SCANS=44
65.038498	80.0
93.032997	199.0
95.038696	40.0
111.006401	80.0
121.029099	654.0
121.0429	122.0
122.029701	80.0
123.033897	120.0
137.0056	40.0
138.008408	40.0
139.001297	239.0
139.013596	40.0
156.967896	80.0
166.989197	40.0
171.024796	40.0
188.000504	40.0
188.994598	40.0
200.958298	239.0
231.991501	41.0
232.945206	41.0
232.983902	413.0
END IONS

BEGIN IONS
PEPMASS=304.113
CHARGE=1
MSLEVEL=2
SOURCE_INSTRUMENT=LC-ESI-qTof
FILENAME=sciex_positive.mgf
SEQ=*..*
IONMODE=Positive
ORGANISM=GNPS-SCIEX-LIBRARY
NAME=fenamiphos [M+H]+
PI=Michael Witting
DATACOLLECTOR=Michael Witting
SMILES=CCOP(=O)(NC(C)C)Oc1ccc(c(c1)C)SC
INCHI="InChI=1S/C13H22NO3PS/c1-6-16-18(15,14-10(2)3)17-12-7-8-13(19-5)11(4)9-12/h7-10H,6H2,1-5H3,(H,14,15)"
INCHIAUX=ZCJPOPBZHLUFHF-UHFFFAOYSA-N
PUBMED=N/A
SUBMITUSER=mpanitchpakdi
LIBRARYQUALITY=1
SPECTRUMID=CCMSLIB00006581669
USI=mzspec:GNPS:GNPS-SCIEX-LIBRARY:accession:CCMSLIB00006581669
SCANS=45
153.036896	2060.0
201.984695	15430.0
217.008102	38412.0
234.034897	6972.0
276.081909	3141.0
END IONS

BEGIN IONS
PEPMASS=318.013
CHARGE=1
MSLEVEL=2
SOURCE_INSTRUMENT=LC-ESI-qTof
FILENAME=sciex_positive.mgf
SEQ=*..*
IONMODE=Positive
ORGANISM=GNPS-SCIEX-LIBRARY
NAME=azinphos-methyl [M+H]+
PI=Michael Witting
DATACOLLECTOR=Michael Witting
SMILES=COP(=S)(OC)SCn1c(=O)c2ccccc2nn1
INCHI="InChI=1S/C10H12N3O3PS2/c1-15-17(18,16-2)19-7-13-10(14)8-5-3-4-6-9(8)11-12-13/h3-6H,7H2,1-2H3"
INCHIAUX=CJJOSEISRRTUQB-UHFFFAOYSA-N
PUBMED=N/A
SUBMITUSER=mpanitchpakdi
LIBRARYQUALITY=1
SPECTRUMID=CCMSLIB00006581673
USI=mzspec:GNPS:GNPS-SCIEX-LIBRARY:accession:CCMSLIB00006581673
SCANS=49
51.0228	199.0
77.038597	2304.0
77.045898	187.0
78.994202	205.0
102.033997	247.0
104.049301	954.0
105.033302	817.0
124.982002	1766.0
132.044693	2011.0
167.0168	319.0
END IONS

BEGIN IONS
PEPMASS=358.977
CHARGE=1
MSLEVEL=2
SOURCE_INSTRUMENT=LC-ESI-qTof
FILENAME=sciex_positive.mgf
SEQ=*..*
IONMODE=Positive
ORGANISM=GNPS-SCIEX-LIBRARY
NAME=(Z)-chlorfenvinfos [M+H]+
PI=Michael Witting
DATACOLLECTOR=Michael Witting
SMILES=CCOP(=O)(OCC)O/C(=C\Cl)/c1ccc(cc1Cl)Cl
INCHI="InChI=1S/C12H14Cl3O4P/c1-3-17-20(16,18-4-2)19-12(8-13)10-6-5-9(14)7-11(10)15/h5-8H,3-4H2,1-2H3/b12-8-"
INCHIAUX=FSAVDKDHPDSCTO-WQLSENKSSA-N
PUBMED=N/A
SUBMITUSER=mpanitchpakdi
LIBRARYQUALITY=1
SPECTRUMID=CCMSLIB00006581688
USI=mzspec:GNPS:GNPS-SCIEX-LIBRARY:accession:CCMSLIB00006581688
SCANS=64
169.971802	80.0
194.127396	40.0
204.940399	40.0
208.150406	40.0
210.160095	40.0
237.207794	80.0
272.109192	40.0
317.165192	239.0
359.177612	120.0
END IONS

BEGIN IONS
PEPMASS=220.953
CHARGE=1
MSLEVEL=2
SOURCE_INSTRUMENT=LC-ESI-qTof
FILENAME=sciex_positive.mgf
SEQ=*..*
IONMODE=Positive
ORGANISM=GNPS-SCIEX-LIBRARY
NAME=dichlorvos [M+H]+
PI=Michael Witting
DATACOLLECTOR=Michael Witting
SMILES=COP(=O)(OC)OC=C(Cl)Cl
INCHI="InChI=1S/C4H7Cl2O4P/c1-8-11(7,9-2)10-3-4(5)6/h3H,1-2H3"
INCHIAUX=OEBRKCOSUFCWJD-UHFFFAOYSA-N
PUBMED=N/A
SUBMITUSER=mpanitchpakdi
LIBRARYQUALITY=1
SPECTRUMID=CCMSLIB00006581692
USI=mzspec:GNPS:GNPS-SCIEX-LIBRARY:accession:CCMSLIB00006581692
SCANS=68
78.994301	776.0
94.945099	326.0
109.004898	2786.0
127.015404	506.0
144.981796	167.0
220.9534	247.0
END IONS

BEGIN IONS
PEPMASS=321.038
CHARGE=1
MSLEVEL=2
SOURCE_INSTRUMENT=LC-ESI-qTof
FILENAME=sciex_positive.mgf
SEQ=*..*
IONMODE=Positive
ORGANISM=GNPS-SCIEX-LIBRARY
NAME=phenthoate [M+H]+
PI=Michael Witting
DATACOLLECTOR=Michael Witting
SMILES=CCOC(=O)C(c1ccccc1)SP(=S)(OC)OC
INCHI="InChI=1S/C12H17O4PS2/c1-4-16-12(13)11(10-8-6-5-7-9-10)19-17(18,14-2)15-3/h5-9,11H,4H2,1-3H3"
INCHIAUX=XAMUDJHXFNRLCY-UHFFFAOYSA-N
PUBMED=N/A
SUBMITUSER=mpanitchpakdi
LIBRARYQUALITY=1
SPECTRUMID=CCMSLIB00006581730
USI=mzspec:GNPS:GNPS-SCIEX-LIBRARY:accession:CCMSLIB00006581730
SCANS=106
77.038002	362.0
79.054199	1948.0
91.054001	3215.0
107.049202	2528.0
124.982101	4446.0
135.044098	3339.0
135.080093	1061.0
151.021698	441.0
163.075195	1383.0
247.001099	924.0
END IONS

BEGIN IONS
PEPMASS=256.029
CHARGE=1
MSLEVEL=2
SOURCE_INSTRUMENT=LC-ESI-qTof
FILENAME=sciex_positive.mgf
SEQ=*..*
IONMODE=Positive
ORGANISM=GNPS-SCIEX-LIBRARY
NAME=propyzamide [M+H]+
PI=Michael Witting
DATACOLLECTOR=Michael Witting
SMILES=CC(C)(C#C)NC(=O)c1cc(cc(c1)Cl)Cl
INCHI="InChI=1S/C12H11Cl2NO/c1-4-12(2,3)15-11(16)8-5-9(13)7-10(14)6-8/h1,5-7H,2-3H3,(H,15,16)"
INCHIAUX=PHNUZKMIPFFYSO-UHFFFAOYSA-N
PUBMED=N/A
SUBMITUSER=mpanitchpakdi
LIBRARYQUALITY=1
SPECTRUMID=CCMSLIB00006581736
USI=mzspec:GNPS:GNPS-SCIEX-LIBRARY:accession:CCMSLIB00006581736
SCANS=112
65.039001	322.0
67.054199	644.0
144.961304	2391.0
146.977005	438.0
172.955795	5466.0
189.9823	3582.0
256.028412	281.0
END IONS

BEGIN IONS
PEPMASS=299.061
CHARGE=1
MSLEVEL=2
SOURCE_INSTRUMENT=LC-ESI-qTof
FILENAME=sciex_positive.mgf
SEQ=*..*
IONMODE=Positive
ORGANISM=GNPS-SCIEX-LIBRARY
NAME=quinalphos [M+H]+
PI=Michael Witting
DATACOLLECTOR=Michael Witting
SMILES=CCOP(=S)(OCC)Oc1cnc2ccccc2n1
INCHI="InChI=1S/C12H15N2O3PS/c1-3-15-18(19,16-4-2)17-12-9-13-10-7-5-6-8-11(10)14-12/h5-9H,3-4H2,1-2H3"
INCHIAUX=JYQUHIFYBATCCY-UHFFFAOYSA-N
PUBMED=N/A
SUBMITUSER=mpanitchpakdi
LIBRARYQUALITY=1
SPECTRUMID=CCMSLIB00006581739
USI=mzspec:GNPS:GNPS-SCIEX-LIBRARY:accession:CCMSLIB00006581739
SCANS=115
96.950699	7714.0
119.0606	7330.0
129.044998	3616.0
147.055206	40788.0
163.032303	33437.0
224.988693	4602.0
242.9991	3748.0
299.06189	2593.0
END IONS

BEGIN IONS
PEPMASS=203.093
CHARGE=1
MSLEVEL=2
SOURCE_INSTRUMENT=LC-ESI-qTof
FILENAME=sciex_positive.mgf
SEQ=*..*
IONMODE=Positive
ORGANISM=GNPS-SCIEX-LIBRARY
NAME=metamitron [M+H]+
PI=Michael Witting
DATACOLLECTOR=Michael Witting
SMILES=Cc1nnc(c(=O)n1N)c2ccccc2
INCHI="InChI=1S/C10H10N4O/c1-7-12-13-9(10(15)14(7)11)8-5-3-2-4-6-8/h2-6H,11H2,1H3"
INCHIAUX=VHCNQEUWZYOAEV-UHFFFAOYSA-N
PUBMED=N/A
SUBMITUSER=mpanitchpakdi
LIBRARYQUALITY=1
SPECTRUMID=CCMSLIB00006581775
USI=mzspec:GNPS:GNPS-SCIEX-LIBRARY:accession:CCMSLIB00006581775
SCANS=151
57.0448	401.0
77.038696	1122.0
79.054398	410.0
83.0242	239.0
89.038597	199.0
104.049599	2231.0
105.057503	309.0
106.065598	451.0
130.065506	219.0
134.071594	209.0
145.039795	331.0
158.071793	169.0
159.080093	179.0
174.079193	980.0
175.098297	3273.0
203.092896	2460.0
END IONS

BEGIN IONS
PEPMASS=301.118
CHARGE=1
MSLEVEL=2
SOURCE_INSTRUMENT=LC-ESI-qTof
FILENAME=sciex_positive.mgf
SEQ=*..*
IONMODE=Positive
ORGANISM=GNPS-SCIEX-LIBRARY
NAME=phenmedipham [M+H]+
PI=Michael Witting
DATACOLLECTOR=Michael Witting
SMILES=Cc1cccc(c1)NC(=O)Oc2cccc(c2)NC(=O)OC
INCHI="InChI=1S/C16H16N2O4/c1-11-5-3-6-12(9-11)18-16(20)22-14-8-4-7-13(10-14)17-15(19)21-2/h3-10H,1-2H3,(H,17,19)(H,18,20)"
INCHIAUX=IDOWTHOLJBTAFI-UHFFFAOYSA-N
PUBMED=N/A
SUBMITUSER=mpanitchpakdi
LIBRARYQUALITY=1
SPECTRUMID=CCMSLIB00006581781
USI=mzspec:GNPS:GNPS-SCIEX-LIBRARY:accession:CCMSLIB00006581781
SCANS=157
93.033699	1050.0
108.044403	2066.0
136.039505	15166.0
168.065598	1765.0
END IONS

BEGIN IONS
PEPMASS=299.061
CHARGE=1
MSLEVEL=2
SOURCE_INSTRUMENT=LC-ESI-qTof
FILENAME=sciex_positive.mgf
SEQ=*..*
IONMODE=Positive
ORGANISM=GNPS-SCIEX-LIBRARY
NAME=phoxim [M+H]+
PI=Michael Witting
DATACOLLECTOR=Michael Witting
SMILES=CCOP(=S)(OCC)O/N=C(\C#N)/C1=CC=CC=C1
INCHI="InChI=1S/C12H15N2O3PS/c1-3-15-18(19,16-4-2)17-14-12(10-13)11-8-6-5-7-9-11/h5-9H,3-4H2,1-2H3/b14-12+"
INCHIAUX=ATROHALUCMTWTB-WYMLVPIESA-N
PUBMED=N/A
SUBMITUSER=mpanitchpakdi
LIBRARYQUALITY=1
SPECTRUMID=CCMSLIB00006581783
USI=mzspec:GNPS:GNPS-SCIEX-LIBRARY:accession:CCMSLIB00006581783
SCANS=159
77.038597	4922.0
96.950699	3405.0
124.981697	361.0
129.044693	1456.0
299.182587	279.0
END IONS

BEGIN IONS
PEPMASS=163.054
CHARGE=1
MSLEVEL=2
SOURCE_INSTRUMENT=LC-ESI-qTof
FILENAME=sciex_positive.mgf
SEQ=*..*
IONMODE=Positive
ORGANISM=GNPS-SCIEX-LIBRARY
NAME=methomyl [M+H]+
PI=Michael Witting
DATACOLLECTOR=Michael Witting
SMILES=CC(=NOC(=O)NC)SC
INCHI="InChI=1S/C5H10N2O2S/c1-4(10-3)7-9-5(8)6-2/h1-3H3,(H,6,8)"
INCHIAUX=UHXUZOCRWCRNSJ-UHFFFAOYSA-N
PUBMED=N/A
SUBMITUSER=mpanitchpakdi
LIBRARYQUALITY=1
SPECTRUMID=CCMSLIB00006581810
USI=mzspec:GNPS:GNPS-SCIEX-LIBRARY:accession:CCMSLIB00006581810
SCANS=186
51.022202	40.0
53.037701	40.0
77.0382	120.0
77.0513	80.0
79.0532	40.0
107.049004	40.0
117.071999	40.0
123.082298	40.0
163.035095	80.0
163.044495	80.0
END IONS

BEGIN IONS
PEPMASS=355.056
CHARGE=1
MSLEVEL=2
SOURCE_INSTRUMENT=LC-ESI-qTof
FILENAME=sciex_positive.mgf
SEQ=*..*
IONMODE=Positive
ORGANISM=GNPS-SCIEX-LIBRARY
NAME=thiodicarb [M+H]+
PI=Michael Witting
DATACOLLECTOR=Michael Witting
SMILES=C/C(=N\OC(=O)N(SN(C(=O)O/N=C(/SC)\C)C)C)/SC
INCHI="InChI=1S/C10H18N4O4S3/c1-7(19-5)11-17-9(15)13(3)21-14(4)10(16)18-12-8(2)20-6/h1-6H3/b11-7+,12-8+"
INCHIAUX=XDOTVMNBCQVZKG-MKICQXMISA-N
PUBMED=N/A
SUBMITUSER=mpanitchpakdi
LIBRARYQUALITY=1
SPECTRUMID=CCMSLIB00006581823
USI=mzspec:GNPS:GNPS-SCIEX-LIBRARY:accession:CCMSLIB00006581823
SCANS=199
61.011002	327.0
62.005798	383.0
72.997597	374.0
78.9673	855.0
88.021599	6522.0
107.993698	2047.0
END IONS

BEGIN IONS
PEPMASS=265.042
CHARGE=1
MSLEVEL=2
SOURCE_INSTRUMENT=LC-ESI-qTof
FILENAME=sciex_positive.mgf
SEQ=*..*
IONMODE=Positive
ORGANISM=GNPS-SCIEX-LIBRARY
NAME=Ethidimuron [M+H]+
PI=Michael Witting
DATACOLLECTOR=Michael Witting
SMILES=CCS(=O)(=O)c1nnc(s1)N(C)C(=O)NC
INCHI="InChI=1S/C7H12N4O3S2/c1-4-16(13,14)7-10-9-6(15-7)11(3)5(12)8-2/h4H2,1-3H3,(H,8,12)"
INCHIAUX=KCOCSOWTADCKOL-UHFFFAOYSA-N
PUBMED=N/A
SUBMITUSER=mpanitchpakdi
LIBRARYQUALITY=1
SPECTRUMID=CCMSLIB00006581879
USI=mzspec:GNPS:GNPS-SCIEX-LIBRARY:accession:CCMSLIB00006581879
SCANS=255
55.029701	199.0
56.0369	657.0
57.044899	1178.0
59.990299	259.0
74.005997	796.0
87.001404	199.0
95.0168	219.0
114.012398	1247.0
116.028	512.0
161.979507	1785.0
208.021301	3316.0
265.042908	179.0
END IONS

BEGIN IONS
PEPMASS=262.071
CHARGE=1
MSLEVEL=2
SOURCE_INSTRUMENT=LC-ESI-Orbitrap
FILENAME=tharwood/spectral_libraries/BERKELEY-LAB.mgf
SEQ=*..*
IONMODE=Positive
ORGANISM=BERKELEY-LAB
NAME=oxolinic acid CollisionEnergy:102040 M+H
PI=Trent Northen
DATACOLLECTOR=JGI
SMILES=CCn1cc(C(=O)O)c(=O)c2cc3c(cc21)OCO3
INCHI="InChI=1S/C13H11NO5/c1-2-14-5-8(13(16)17)12(15)7-3-10-11(4-9(7)14)19-6-18-10/h3-5H,2,6H2,1H3,(H,16,17)"
INCHIAUX=N/A
PUBMED=N/A
SUBMITUSER=mwang87
LIBRARYQUALITY=3
SPECTRUMID=CCMSLIB00010104356
USI=mzspec:GNPS:BERKELEY-LAB:accession:CCMSLIB00010104356
SCANS=1922
52.3857	65517.0
63.20414	72980.0
65.522331	266386.0
66.749924	67649.0
67.660042	59918.0
74.263008	51636.0
82.406487	58824.0
89.825974	65025.0
118.667488	79726.0
121.379913	66702.0
138.851135	64937.0
138.865936	63657.0
146.059784	97944.0
148.038376	81260.0
158.059418	147205.0
176.069199	90233.0
188.033279	80570.0
188.070648	69473.0
200.070892	235852.0
207.905411	358339.0
214.014145	106520.0
215.021378	418600.0
216.029205	667201.0
216.064026	623084.0
217.074295	136061.0
234.039734	942509.0
244.059845	76503936.0
262.070374	357210720.0
264.072937	482599.0
END IONS

BEGIN IONS
PEPMASS=304.14
CHARGE=1
MSLEVEL=2
SOURCE_INSTRUMENT=LC-ESI-Orbitrap
FILENAME=tharwood/spectral_libraries/BERKELEY-LAB.mgf
SEQ=*..*
IONMODE=Positive
ORGANISM=BERKELEY-LAB
NAME=pipemidic acid CollisionEnergy:102040 M+H
PI=Trent Northen
DATACOLLECTOR=JGI
SMILES=CCn1cc(C(=O)O)c(=O)c2cnc(N3CCNCC3)nc21
INCHI="InChI=1S/C14H17N5O3/c1-2-18-8-10(13(21)22)11(20)9-7-16-14(17-12(9)18)19-5-3-15-4-6-19/h7-8,15H,2-6H2,1H3,(H,21,22)"
INCHIAUX=N/A
PUBMED=N/A
SUBMITUSER=mwang87
LIBRARYQUALITY=3
SPECTRUMID=CCMSLIB00010108545
USI=mzspec:GNPS:BERKELEY-LAB:accession:CCMSLIB00010108545
SCANS=6111
55.15226	2978.0
70.065498	78071.0
75.542328	3743.0
92.367683	3554.0
92.897079	2825.0
112.49353	2910.0
133.275558	3872.0
175.001984	3364.0
176.082123	5039.0
180.888168	7669.0
189.07692	134520.0
190.097412	7490.0
190.872086	4998.0
191.092316	77690.0
208.882584	40859.0
215.055176	5750.0
215.09198	5811.0
217.108185	2968016.0
219.476654	3077.0
226.89325	33641.0
231.35791	3982.0
233.06633	5882.0
243.123627	177279.0
243.867294	4904.0
249.876251	3061.0
252.872925	5531.0
258.134857	3429.0
260.149994	305345.0
261.097748	323291.0
262.856049	4958.0
266.870483	4748.0
280.866455	82344.0
286.128906	69094.0
287.113739	12720.0
299.894165	3032.0
299.933197	3183.0
302.767578	3938.0
304.139801	6902291.0
305.523102	4246.0
470.89978	3323.0
END IONS

BEGIN IONS
PEPMASS=787.497
CHARGE=1
MSLEVEL=2
SOURCE_INSTRUMENT=LC-ESI-Orbitrap
FILENAME=tharwood/spectral_libraries/BERKELEY-LAB.mgf
SEQ=*..*
IONMODE=Positive
ORGANISM=BERKELEY-LAB
NAME=CCG-208483 CollisionEnergy:102040 M+Na
PI=Trent Northen
DATACOLLECTOR=JGI
SMILES=CCC(C(=O)O)C1OC(C(C)C(O)C(C)C(=O)C(CC)C2OC3(C=CC(O)C4(CCC(C)(C5CCC(O)(CC)C(C)O5)O4)O3)C(C)CC2C)C(C)CC1C
INCHI="InChI=1S/C43H72O11/c1-12-30(35(46)27(8)34(45)28(9)36-23(4)21-24(5)37(51-36)31(13-2)39(47)48)38-25(6)22-26(7)42(52-38)18-15-32(44)43(54-42)20-19-40(11,53-43)33-16-17-41(49,14-3)29(10)50-33/h15,18,23-34,36-38,44-45,49H,12-14,16-17,19-22H2,1-11H3,(H,47,48)/t23-,24-,25-,26+,27-,28-,29-,30-,31+,32+,33+,34+,36+,37?,38-,40-,41+,42-,43-/m0/s1"
INCHIAUX=N/A
PUBMED=N/A
SUBMITUSER=mwang87
LIBRARYQUALITY=3
SPECTRUMID=CCMSLIB00010110195
USI=mzspec:GNPS:BERKELEY-LAB:accession:CCMSLIB00010110195
SCANS=7761
60.911732	3488.0
70.772858	3405.0
76.989738	2789.0
89.872147	3299.0
92.83242	3478.0
93.142906	3300.0
100.735069	3775.0
235.166397	12668.0
265.139832	41232.0
279.156281	175661.0
279.191254	7137.0
373.19693	4666.0
379.245514	30067.0
403.243561	27207.0
413.229065	88592.0
431.239807	216227.0
501.35733	4622.0
503.337616	4568.0
509.959625	4726.0
513.318481	47913.0
531.327332	98335.0
545.343811	142301.0
580.147095	3498.0
769.483704	70662.0
787.495178	1100059.0
END IONS

BEGIN IONS
PEPMASS=492.224
CHARGE=1
MSLEVEL=2
SOURCE_INSTRUMENT=LC-ESI-Orbitrap
FILENAME=tharwood/spectral_libraries/BERKELEY-LAB.mgf
SEQ=*..*
IONMODE=Negative
ORGANISM=BERKELEY-LAB
NAME=BSPBio_001473 CollisionEnergy:102040 M-H
PI=Trent Northen
DATACOLLECTOR=JGI
SMILES=CC1CCC2(O)C3(C)CC4(O)OC2(C1O)C1(O)C3(O)C(OC(=O)c2ccc[nH]2)C(O)(C(C)C)C41C
INCHI="InChI=1S/C25H35NO9/c1-12(2)22(31)17(34-16(28)14-7-6-10-26-14)23(32)18(4)11-21(30)19(22,5)25(23,33)24(35-21)15(27)13(3)8-9-20(18,24)29/h6-7,10,12-13,15,17,26-27,29-33H,8-9,11H2,1-5H3/t13-,15+,17+,18-,19+,20-,21-,22-,23+,24+,25+/m0/s1"
INCHIAUX=N/A
PUBMED=N/A
SUBMITUSER=mwang87
LIBRARYQUALITY=3
SPECTRUMID=CCMSLIB00010111678
USI=mzspec:GNPS:BERKELEY-LAB:accession:CCMSLIB00010111678
SCANS=9244
57.505539	3280.0
59.013321	8538.0
66.034531	1093944.0
66.87059	3782.0
73.029297	5240.0
73.327698	3281.0
81.022301	3635.0
82.404373	3578.0
85.065643	4998.0
87.008713	6680.0
87.044746	13944.0
99.081413	5172.0
110.024834	5271922.0
111.045021	21985.0
113.060722	5125.0
118.660156	5015.0
125.060829	27250.0
129.055557	8433.0
134.922516	3679.0
135.734772	3686.0
136.076431	4845.0
151.040115	20602.0
151.076294	23787.0
153.056046	5370.0
153.091995	14057.0
157.051041	8432.0
163.112961	18999.0
165.127914	5033.0
167.107803	6318.0
171.066513	4982.0
173.06102	7378.0
175.076767	6151.0
191.107681	4493.0
193.122787	8501.0
207.662125	25375.0
208.937012	4561.0
209.08139	5485.0
209.118744	4459.0
215.1073	4195.0
219.101471	12827.0
221.081131	6387.0
237.112793	27982.0
239.092239	6285.0
273.188141	4758.0
275.130493	4976.0
281.103485	4736.0
283.168945	5541.0
327.161682	15888.0
345.171478	27190.0
363.182739	23148.0
381.192017	2847103.0
474.211823	41631.0
492.224243	4406649.0
END IONS

BEGIN IONS
PEPMASS=484.123
CHARGE=1
MSLEVEL=2
SOURCE_INSTRUMENT=LC-ESI-Orbitrap
FILENAME=tharwood/spectral_libraries/BERKELEY-LAB.mgf
SEQ=*..*
IONMODE=Positive
ORGANISM=BERKELEY-LAB
NAME=nicergoline CollisionEnergy:102040 M+H
PI=Trent Northen
DATACOLLECTOR=JGI
SMILES=COC12CC(COC(=O)c3cncc(Br)c3)CN(C)C1Cc1cn(C)c3cccc2c13
INCHI="InChI=1S/C24H26BrN3O3/c1-27-13-17-8-21-24(30-3,19-5-4-6-20(27)22(17)19)9-15(12-28(21)2)14-31-23(29)16-7-18(25)11-26-10-16/h4-7,10-11,13,15,21H,8-9,12,14H2,1-3H3/t15-,21-,24+/m1/s1"
INCHIAUX=N/A
PUBMED=N/A
SUBMITUSER=mwang87
LIBRARYQUALITY=3
SPECTRUMID=CCMSLIB00010112595
USI=mzspec:GNPS:BERKELEY-LAB:accession:CCMSLIB00010112595
SCANS=10161
50.384418	3203.0
51.34927	3259.0
71.598846	3068.0
84.990723	3098.0
92.37648	4077.0
100.099533	3948.0
107.101158	4121.0
123.704376	3825.0
144.080566	6409.0
157.963318	3523.0
168.080917	25533.0
170.096756	30316.0
171.975021	5125.0
181.087799	14775.0
182.078018	6978.0
182.096344	202133.0
185.954712	4327.0
193.089462	4319.0
194.09671	29302.0
195.103912	16978.0
196.098526	48772.0
197.106094	4209.0
201.950272	26990.0
205.087662	27781.0
206.095871	32709.0
207.105789	16409.0
208.113403	142616.0
209.105423	6836.0
210.110916	13914.0
210.126877	62531.0
211.122787	238174.0
218.096954	5657.0
219.103607	5492.0
220.112015	164354.0
221.106537	138663.0
222.114319	32986.0
222.127274	20563.0
223.122299	115747.0
234.11351	25232.0
235.122604	117409.0
236.130478	170687.0
237.138184	17773.0
249.138458	131039.0
251.153946	685633.0
252.138687	4273.0
253.13295	7721.0
267.148956	26710.0
268.15683	86507.0
327.035309	6582.0
364.911774	3510.0
411.068604	14862.0
421.053101	8643.0
422.050018	4416.0
436.063751	41613.0
437.072815	336040.0
449.616974	5454.0
450.081482	4824.0
451.09079	6085.0
452.096283	7305549.0
484.122711	741435.0
END IONS

BEGIN IONS
PEPMASS=339.5
CHARGE=1
MSLEVEL=2
SOURCE_INSTRUMENT=LC-ESI-qToF
FILENAME=propoxyphene.mgf
SEQ=*..*
IONMODE=Positive
ORGANISM=DRUGS-OF-ABUSE-LIBRARY
NAME=propoxyphene M+H
PI=Barkholtz
DATACOLLECTOR=Pieters
SMILES=CCC(=O)OC(CC1=CC=CC=C1)(C2=CC=CC=C2)C(C)CN(C)C
INCHI="1S/C22H29NO2/c1-5-21(24)25-22(18(2)17-23(3)4,20-14-10-7-11-15-20)16-19-12-8-6-9-13-19/h6-15,18H,5,16-17H2,1-4H3/t18-,22+/m1/s1"
INCHIAUX=N/A
PUBMED=10111
SUBMITUSER=Jzemlin
LIBRARYQUALITY=2
SPECTRUMID=CCMSLIB00009919371
USI=mzspec:GNPS:DRUGS-OF-ABUSE-LIBRARY:accession:CCMSLIB00009919371
SCANS=1
56.049702	10750.950195
58.0648	3912201.25
58.0979	41670.851562
58.1432	52197.699219
65.037903	8879.0
72.080803	15175.780273
77.038498	113955.921875
79.053902	61584.210938
86.096199	8489.570312
87.042999	19979.240234
91.0541	2388744.5
91.093597	14523.700195
102.045799	82107.09375
103.053101	151406.3125
105.069702	562871.125
115.053596	295679.1875
117.0681	84880.203125
118.085503	127775.929688
126.0448	33953.191406
127.053802	366952.1875
128.061798	2499859.25
128.108398	22173.669922
130.071899	33416.53125
141.069	132843.0625
143.085205	1913336.625
143.135101	12940.820312
145.093903	24692.439453
152.060593	18508.599609
153.0728	5337.419922
163.055496	39449.371094
165.069199	226281.59375
167.080505	19262.009766
177.066696	30360.660156
178.076706	176165.5
181.100906	130193.679688
189.067993	12193.889648
191.083603	89603.671875
193.096603	7158.100098
208.167007	10440.070312
221.133102	98917.578125
224.127197	9653.580078
266.190186	2990850.0
266.262085	29610.869141
266.357391	38787.320312
268.196289	54404.890625
281.052185	8735.55957
321.213898	5787.870117
340.227386	214137.65625
354.981415	7836.060059
376.201294	24952.060547
503.296295	3774.090088
END IONS

BEGIN IONS
PEPMASS=352.177
CHARGE=1
MSLEVEL=2
SOURCE_INSTRUMENT=LC-ESI-qTof
FILENAME=DMIM_centroided_library_abundance_filtered.mgf
SEQ=*..*
IONMODE=Positive
ORGANISM=DMIM-DRUG-METABOLITE-LIBRARY
NAME=PIRENZEPINE [M+H]+
PI=Libin Xu
DATACOLLECTOR=Dylan H. Ross
SMILES=CN1CCN(CC1)CC(=O)N2C3=CC=CC=C3C(=O)NC4=C2N=CC=C4
INCHI=N/A
INCHIAUX=N/A
PUBMED=N/A
SUBMITUSER=jzemlin
LIBRARYQUALITY=3
SPECTRUMID=CCMSLIB00012465045
USI=mzspec:GNPS:DMIM-DRUG-METABOLITE-LIBRARY:accession:CCMSLIB00012465045
SCANS=23
55.0485	4200.0
56.050915	1979.0
57.062199	2583.0
58.067383	2902.0
59.018192	2482.0
62.982738	1155.0
65.018036	1256.0
67.055687	4637.0
68.054459	1145.0
69.058945	7034.0
70.070496	1176623.0
70.254547	25786.0
70.736031	4673.0
71.069771	46194.0
71.272896	1421.0
72.07933	6606.0
73.056343	1987.0
74.064713	1042.0
76.029213	3823.0
77.03701	4201.0
78.029709	1372.0
79.049446	4261.0
80.041763	2576.0
81.063698	10555.0
82.066048	7018.0
83.056305	8265.0
84.061607	16592.0
85.030991	9490.0
86.084801	7038.0
87.029221	3108.0
88.053429	2974.0
89.052422	1463.0
91.051529	9091.0
92.056816	1202.0
93.064102	8854.0
94.077415	2044.0
95.076492	16789.0
96.062935	3734.0
97.036636	107772.0
98.085724	183026.0
98.971832	4845.0
99.075096	14425.0
100.066116	2263.0
101.073837	5596.0
102.079834	1827.0
103.023102	1995.0
104.053978	1115.0
105.064415	18913.0
106.065468	2173.0
107.073929	9656.0
108.063599	3069.0
109.081749	18398.0
110.070976	5374.0
111.062241	18524.0
112.081436	6409.0
112.979324	5435.0
113.112602	1383153.0
113.248131	78218.0
113.386269	31955.0
113.816681	1233.0
113.944138	22161.0
114.108215	160294.0
114.703491	8370.0
114.971008	1052.0
115.0858	6094.0
115.437393	2342.0
116.03434	6325.0
117.050758	2963.0
118.070831	1289.0
118.929825	2033.0
119.067345	9390.0
120.070816	4277.0
120.955246	1789.0
121.060936	23206.0
122.069252	4368.0
123.058319	54559.0
124.060181	6922.0
125.041122	15088.0
126.081017	5741.0
127.051788	6312.0
128.066528	1754.0
129.096054	8032.0
130.060928	7755.0
131.071884	4477.0
132.035553	2174.0
133.061951	9660.0
134.06871	3098.0
135.072784	12044.0
136.06752	18164.0
136.947189	20155.0
137.076218	20217.0
138.06488	5390.0
139.038712	26410.0
140.050751	3234.0
140.959366	1828.0
141.094131	11518.0
142.046143	14308.0
142.984207	5173.0
143.092667	2767.0
144.053162	3713.0
145.068573	5071.0
146.049088	2136.0
147.066238	8490.0
148.065857	3385.0
149.076965	8941.0
150.063782	3410.0
151.071075	11693.0
152.061646	4392.0
153.050751	18273.0
154.081802	14141.0
155.056198	11380.0
156.064545	3057.0
156.909607	1359.0
157.074112	5006.0
158.091217	2071.0
158.941849	2942.0
159.096634	7625.0
160.089249	2206.0
161.071289	9320.0
162.060516	5602.0
162.946014	1091.0
163.073456	12862.0
164.082443	4303.0
164.935013	4913.0
165.064163	15279.0
166.066803	5191.0
167.059967	12199.0
168.067978	4893.0
169.068008	11571.0
170.070862	4511.0
171.073669	9075.0
172.076462	3387.0
172.998627	5900.0
173.11026	4722.0
174.01474	1658.0
174.944107	5139.0
175.08992	7320.0
176.083145	2382.0
177.071594	13742.0
178.088867	2967.0
178.957108	2168.0
179.082031	19952.0
180.074875	4306.0
180.91713	3386.0
181.077652	20114.0
182.080902	3400.0
183.064682	12554.0
184.078049	4890.0
185.074554	7169.0
186.075012	1614.0
186.204407	1809.0
186.943115	1015.0
187.104584	5696.0
188.080124	2968.0
189.08078	6303.0
190.072784	2425.0
190.942047	1251.0
191.077347	13346.0
192.080566	2823.0
192.959946	3960.0
193.080948	19819.0
194.077362	4482.0
194.949524	1310.0
195.083618	14259.0
196.087021	150464.0
196.900375	2358.0
197.086487	51848.0
198.090561	6671.0
198.912308	2820.0
199.079834	6753.0
199.968445	1231.0
200.099075	3405.0
200.941116	20463.0
201.105316	5120.0
201.972183	1068.0
202.104294	1869.0
202.915771	1260.0
203.092499	8165.0
204.100494	2084.0
204.924622	1317.0
205.090225	9336.0
206.077576	20752.0
207.085388	17043.0
208.09259	4370.0
209.085327	27221.0
210.087387	4888.0
211.093521	13403.0
212.089417	39328.0
213.094559	12201.0
214.102966	2964.0
214.883926	1239.0
215.040619	8995.0
215.15271	1571.0
216.110977	1838.0
216.916367	18380.0
217.085785	7316.0
218.113342	1920.0
218.954987	2433.0
219.1017	7274.0
220.106613	1747.0
220.938721	3036.0
221.106857	11648.0
222.083847	3805.0
222.927551	3121.0
223.09494	17250.0
224.089218	246299.0
224.249786	2126.0
224.500015	1030.0
225.092163	45563.0
226.103119	5701.0
227.074097	9191.0
228.0979	3467.0
229.100754	5868.0
230.106796	1826.0
230.961182	3330.0
231.099304	7009.0
232.092072	2367.0
232.886368	6511.0
233.096222	8779.0
234.090912	2275.0
234.992783	3847.0
235.117737	10880.0
236.113358	2214.0
236.988129	1484.0
237.110062	14902.0
238.106964	3133.0
238.93277	1460.0
239.100296	10180.0
240.077057	2198.0
240.225327	2888.0
241.093491	5424.0
242.201172	2067.0
243.107086	3073.0
244.109634	1776.0
245.100555	6208.0
246.093399	1804.0
246.942261	1392.0
247.121307	6199.0
248.116882	2093.0
248.920822	1729.0
249.092606	16511.0
250.104233	4187.0
250.998596	1630.0
251.11351	17466.0
252.08551	392253.0
252.258713	7068.0
252.368439	1589.0
252.502472	4153.0
253.092438	72215.0
253.271393	2027.0
253.430832	1990.0
254.099792	8320.0
254.85614	2565.0
255.12384	9585.0
256.075836	1986.0
256.211639	1721.0
256.991089	2353.0
257.149261	2745.0
258.108612	2035.0
258.969177	1206.0
259.130005	3774.0
260.150543	1291.0
261.135132	6520.0
262.146881	1834.0
263.139221	7547.0
264.120941	1547.0
264.937866	2583.0
265.112366	8875.0
266.131805	2130.0
266.985077	1364.0
267.117432	12951.0
268.122864	3826.0
268.965546	1118.0
269.125092	7835.0
270.141449	1914.0
270.325897	4154.0
271.007202	1822.0
271.148438	3689.0
272.134827	1602.0
272.891815	1019.0
273.021606	1058.0
273.140289	3591.0
274.129883	1344.0
275.138306	6171.0
276.14032	1870.0
277.143005	9271.0
278.147858	2393.0
278.994232	1435.0
279.149017	8510.0
280.160583	2065.0
281.121857	7491.0
282.151611	2274.0
283.008057	1588.0
283.139801	5875.0
284.060181	1458.0
285.127686	3044.0
286.064758	2069.0
286.203369	1004.0
287.122742	4092.0
288.168732	1687.0
288.981842	1730.0
289.147064	5305.0
290.156403	1075.0
291.152435	8899.0
292.154083	2016.0
293.158936	8792.0
294.156891	2633.0
294.918732	1122.0
295.150787	8201.0
296.155701	2018.0
296.939331	1617.0
297.126526	3184.0
298.169983	1425.0
298.936768	4685.0
299.142487	3003.0
300.907654	1525.0
301.151489	3246.0
302.008911	2097.0
303.168579	5474.0
304.019043	1127.0
304.162659	1616.0
305.17041	7827.0
306.145844	1978.0
307.163727	10173.0
308.156952	2634.0
309.16095	6861.0
310.156067	1849.0
311.152802	4615.0
312.069855	2420.0
312.942383	1831.0
313.183868	3192.0
314.206451	1168.0
314.948853	1595.0
315.155884	2912.0
316.209198	1461.0
316.956696	1080.0
317.187164	6186.0
318.176788	1747.0
318.924774	1899.0
319.08786	1203.0
319.191803	10574.0
320.192902	2783.0
321.170715	7941.0
322.181854	1944.0
323.175598	8560.0
324.161621	1972.0
325.164581	4414.0
326.176086	1170.0
326.925018	1278.0
327.094666	7696.0
327.255798	22369.0
328.078583	2366.0
328.256439	4234.0
328.912445	3010.0
329.051331	2345.0
329.205658	3394.0
330.081512	2269.0
331.177399	5805.0
332.075958	1472.0
332.226013	1280.0
333.177734	7966.0
334.190582	1617.0
335.004974	1076.0
335.181458	8735.0
336.176422	2291.0
337.192444	8338.0
338.159515	1567.0
339.173065	3458.0
340.184052	1024.0
341.188965	2433.0
342.168854	1421.0
343.191742	3874.0
344.20752	1080.0
344.904388	1265.0
345.18692	5329.0
346.05191	3202.0
347.039368	9082.0
347.197876	7333.0
348.052246	2033.0
348.195648	1552.0
349.194519	10324.0
350.19989	2023.0
351.014557	1143.0
351.191986	7868.0
352.052521	1232.0
352.186646	30275.0
353.18869	11228.0
END IONS

BEGIN IONS
PEPMASS=281.071
CHARGE=1
MSLEVEL=2
SOURCE_INSTRUMENT=LC-ESI-qTof
FILENAME=DMIM_centroided_library_abundance_filtered.mgf
SEQ=*..*
IONMODE=Positive
ORGANISM=DMIM-DRUG-METABOLITE-LIBRARY
NAME=SULFAMONOMETHOXINE [M+H]+
PI=Libin Xu
DATACOLLECTOR=Dylan H. Ross
SMILES=COC1=NC=NC(=C1)NS(=O)(=O)C2=CC=C(C=C2)N
INCHI=N/A
INCHIAUX=N/A
PUBMED=N/A
SUBMITUSER=jzemlin
LIBRARYQUALITY=3
SPECTRUMID=CCMSLIB00012465093
USI=mzspec:GNPS:DMIM-DRUG-METABOLITE-LIBRARY:accession:CCMSLIB00012465093
SCANS=71
55.03524	3096.0
56.053341	7232.0
57.011765	2412.0
58.020607	1079.0
59.002182	54906.0
60.014183	2061.0
60.997444	3448.0
62.996605	1356.0
65.04171	219708.0
66.043243	12600.0
67.049339	6262.0
68.023033	11249.0
69.050049	6156.0
70.049927	7669.0
71.013733	2864.0
72.0783	1981.0
73.023239	3377.0
74.038086	1614.0
76.025055	254430.0
77.03418	13022.0
78.022461	9340.0
79.042503	6263.0
80.052536	63198.0
81.05648	11041.0
82.032936	4292.0
83.044647	10264.0
84.048134	273969.0
85.037598	77218.0
86.059425	8221.0
86.995636	14992.0
88.025124	13211.0
89.02504	2993.0
90.03315	1483.0
91.054146	8694.0
92.055634	915645.0
92.260704	22447.0
92.8246	5686.0
93.058174	105391.0
94.062462	8189.0
95.059921	16303.0
96.053375	6697.0
97.034874	27411.0
98.022331	7168.0
99.017441	15143.0
100.036667	2580.0
101.041794	2182.0
102.055687	6990.0
103.041176	3089.0
104.064484	1950.0
105.064117	8539.0
106.065025	6131.0
107.071648	9657.0
108.04953	791345.0
108.179634	18808.0
108.324142	10065.0
108.881233	3641.0
109.052376	73764.0
110.062035	6673.0
111.046623	10137.0
112.037254	4855.0
113.022423	10804.0
114.040512	10000.0
115.056458	4264.0
116.021408	92951.0
117.039429	9669.0
118.040802	9501.0
118.94088	9716.0
119.074081	15621.0
120.064064	7167.0
121.045654	16728.0
122.062645	4675.0
123.053703	29273.0
124.051323	45294.0
125.045151	20945.0
126.070808	351001.0
126.196175	3701.0
126.37558	2168.0
127.064339	26142.0
128.060303	4035.0
129.07959	10281.0
130.056519	51632.0
131.065628	11065.0
132.078461	12634.0
133.064194	11756.0
134.065933	7219.0
134.942261	1082.0
135.064743	11680.0
136.06604	24738.0
136.955353	31959.0
137.07959	11747.0
138.052734	3261.0
139.020004	20846.0
140.03038	4499.0
141.047028	11942.0
142.037796	85158.0
143.043152	14431.0
144.026062	28780.0
145.066193	15884.0
146.070923	32520.0
147.069168	11847.0
148.065903	4240.0
149.060623	10431.0
150.078796	8894.0
151.049393	9723.0
152.061203	9180.0
152.936981	4054.0
153.049881	14713.0
154.057312	3715.0
155.043839	8707.0
156.017532	200989.0
156.167038	3374.0
156.34639	1624.0
157.029343	22017.0
158.042725	17570.0
158.965103	2913.0
159.084976	8993.0
160.086761	5291.0
161.055222	9463.0
162.03067	42618.0
163.053162	11614.0
164.049606	4866.0
164.934082	3376.0
165.058929	9094.0
166.064041	3411.0
167.050735	8148.0
168.061523	19042.0
169.05574	8190.0
170.051102	14810.0
171.069962	6323.0
172.073593	3501.0
173.065048	47750.0
174.072067	97555.0
174.89505	3924.0
175.075714	16079.0
176.079483	8490.0
177.062943	8757.0
178.071762	3099.0
179.061707	14360.0
180.067261	3825.0
180.929916	5922.0
181.068787	10709.0
182.080307	3588.0
182.920166	1551.0
183.064606	8038.0
184.069366	4289.0
185.063126	5400.0
186.094437	2875.0
186.916092	1645.0
187.067398	13828.0
188.02565	23527.0
189.046417	7103.0
190.058533	3816.0
190.867081	1266.0
191.067413	7427.0
192.064301	2030.0
192.949081	1829.0
193.071671	8374.0
194.078247	13675.0
195.077332	7607.0
196.075378	5812.0
196.901688	2130.0
197.079224	7518.0
198.075485	3677.0
198.895187	1398.0
199.052689	6799.0
200.067307	3304.0
200.921951	2598.0
201.047089	11934.0
202.064835	3057.0
202.911438	2347.0
203.07399	6502.0
204.08519	3029.0
204.922165	1374.0
205.08432	4550.0
206.011658	2282.0
206.11174	1101.0
207.082062	6611.0
208.086594	2578.0
209.078476	6604.0
210.090744	3001.0
211.065247	3864.0
212.088409	2047.0
212.897446	1014.0
213.069855	3475.0
214.087952	2063.0
214.906555	2519.0
215.095001	87278.0
216.093002	12314.0
216.914261	3482.0
217.098495	5182.0
218.096573	1847.0
218.948425	2541.0
219.099243	3609.0
220.08223	1654.0
220.929657	2268.0
221.097305	5061.0
222.087265	2288.0
222.91687	1322.0
223.079498	5662.0
224.090714	1876.0
225.065369	5790.0
226.08844	2167.0
227.062683	5341.0
228.087692	5700.0
229.094452	3026.0
230.095474	2193.0
231.087387	3679.0
232.092972	1676.0
232.882767	1653.0
233.082504	7354.0
234.081833	2027.0
235.100342	5120.0
236.111771	1518.0
237.107651	5016.0
238.112396	1351.0
238.893402	1409.0
239.083893	3483.0
240.08606	1815.0
240.883484	1128.0
241.081757	2362.0
242.076736	1242.0
243.1073	2281.0
244.073166	1809.0
245.072525	4660.0
246.059235	5181.0
247.09053	3122.0
248.050613	3811.0
249.108902	4362.0
250.060287	1411.0
251.081024	7181.0
252.105545	1638.0
253.127762	3728.0
254.142181	1368.0
254.85997	2163.0
255.083832	2488.0
256.061432	1598.0
256.882294	1022.0
257.078613	1436.0
259.123718	2057.0
260.032166	1266.0
260.871979	1277.0
261.019287	1192.0
261.123077	3165.0
262.129669	1258.0
263.126984	4156.0
264.123108	1281.0
265.112671	4157.0
266.11911	1196.0
267.113586	4007.0
269.109497	1435.0
270.120361	1427.0
270.828766	2354.0
271.119476	1602.0
272.11908	1272.0
273.115173	3368.0
275.133331	2550.0
277.126984	3334.0
278.042236	1041.0
279.11908	5561.0
280.109375	1314.0
281.088898	8257.0
282.096832	1474.0
END IONS

BEGIN IONS
PEPMASS=288.16
CHARGE=1
MSLEVEL=2
SOURCE_INSTRUMENT=LC-ESI-qTof
FILENAME=DMIM_centroided_library_abundance_filtered.mgf
SEQ=*..*
IONMODE=Positive
ORGANISM=DMIM-DRUG-METABOLITE-LIBRARY
NAME=RITODRINE [M+H]+
PI=Libin Xu
DATACOLLECTOR=Dylan H. Ross
SMILES=C[C@@H]([C@@H](c1ccc(cc1)O)O)NCCc2ccc(cc2)O
INCHI=N/A
INCHIAUX=N/A
PUBMED=N/A
SUBMITUSER=jzemlin
LIBRARYQUALITY=3
SPECTRUMID=CCMSLIB00012465110
USI=mzspec:GNPS:DMIM-DRUG-METABOLITE-LIBRARY:accession:CCMSLIB00012465110
SCANS=88
51.027271	1773.0
55.035816	3933.0
56.052113	8729.0
57.022949	2470.0
58.997921	61001.0
60.016846	2328.0
61.002346	2932.0
65.035889	3103.0
67.053635	4746.0
68.046722	1752.0
69.055214	5102.0
70.060928	5424.0
71.034927	2584.0
72.081001	2011.0
73.028893	3345.0
74.043861	1282.0
76.02494	294122.0
77.041153	177940.0
78.03167	20055.0
79.051254	11714.0
80.051758	14541.0
81.061478	10501.0
82.049431	2158.0
83.052757	9532.0
84.04821	323243.0
85.028343	21173.0
86.070175	7169.0
86.995247	18150.0
88.024406	11695.0
89.014084	2492.0
91.057785	163598.0
92.059822	10773.0
93.072952	164377.0
94.071587	13487.0
95.067993	15616.0
96.056885	4181.0
97.03302	45984.0
98.020187	7960.0
99.015915	10500.0
100.042023	2590.0
101.042542	2728.0
102.054733	10248.0
103.057655	225084.0
104.059341	15779.0
105.072624	97807.0
106.07309	7820.0
107.058891	30782.0
108.058922	9339.0
109.068916	22697.0
110.065254	6808.0
111.042496	12483.0
112.039108	3985.0
113.024429	12228.0
114.040291	12078.0
115.055344	9527.0
116.021172	100554.0
117.033089	9192.0
118.019707	4481.0
118.920746	4580.0
119.064148	11584.0
120.06601	7322.0
120.950218	1177.0
121.070137	765831.0
121.207291	28534.0
121.356766	12968.0
121.921494	5990.0
122.069443	87328.0
122.730988	1818.0
123.058533	37927.0
124.036591	10296.0
125.029007	14693.0
126.037605	2563.0
127.036453	5906.0
128.056671	2819.0
129.089767	10564.0
130.055466	54778.0
131.060745	10432.0
132.064041	4171.0
133.068253	101777.0
134.068008	11666.0
135.070084	19627.0
136.068481	15338.0
136.956329	24391.0
137.080734	13685.0
138.054398	3944.0
139.02388	22378.0
140.036911	3105.0
141.050293	12900.0
142.037445	90663.0
143.038422	13087.0
144.022568	30665.0
145.058319	8721.0
146.045059	4826.0
147.066742	9740.0
148.072067	5507.0
149.062698	10515.0
150.096436	216709.0
150.24118	2577.0
150.421829	1351.0
150.970703	1408.0
151.086319	35764.0
152.065964	16320.0
152.928665	1140.0
153.055496	21288.0
154.06395	4477.0
155.042404	8113.0
156.08493	2421.0
157.075241	4318.0
158.083939	2977.0
158.952744	1902.0
159.088882	7146.0
160.083557	2786.0
161.072281	9825.0
162.028931	43858.0
163.057281	13215.0
164.047333	5454.0
164.930298	3967.0
165.056473	11777.0
166.063797	3221.0
167.05368	8535.0
168.063309	4584.0
169.055603	7265.0
170.045395	9634.0
171.0616	5740.0
172.072449	2825.0
173.069595	8342.0
174.07135	3488.0
174.887772	3313.0
175.078506	7799.0
176.068176	3456.0
177.057617	11126.0
178.082184	1595.0
179.059219	16282.0
180.067459	2950.0
180.911331	3670.0
181.076691	13516.0
182.072556	2995.0
183.067413	9647.0
184.066513	3422.0
185.06395	7095.0
186.092239	2597.0
186.91452	1386.0
187.067902	14202.0
188.055466	5765.0
189.070801	7932.0
190.077347	1897.0
191.066147	8531.0
192.080612	2562.0
192.948944	1647.0
193.075607	11045.0
194.067383	2825.0
195.078247	9072.0
196.093765	2452.0
196.899536	1725.0
197.082123	12241.0
198.080795	3146.0
198.897446	1866.0
199.05629	6036.0
200.058838	2796.0
200.927109	2245.0
201.057068	10039.0
202.087204	2990.0
202.903564	1412.0
203.065689	18141.0
204.073868	2583.0
205.077774	7314.0
206.030655	3858.0
207.079025	7399.0
208.074753	2034.0
209.079636	13636.0
210.087418	2563.0
211.088821	6212.0
212.091293	2360.0
213.076035	5601.0
214.087585	1333.0
215.038422	14974.0
216.049255	3846.0
216.921463	3767.0
217.084976	4490.0
218.098969	1390.0
218.939606	1050.0
219.100922	5419.0
220.101166	1659.0
220.926453	1650.0
221.101944	6582.0
222.100342	1679.0
223.086594	7440.0
224.120468	1484.0
225.089111	4165.0
226.103622	2232.0
227.075745	5525.0
228.104477	4321.0
229.085358	4038.0
230.098572	1603.0
231.06839	4066.0
232.094818	1724.0
233.076187	11407.0
234.078842	2225.0
234.925903	1039.0
235.103485	8124.0
236.110947	1667.0
237.106537	5592.0
238.107895	1511.0
238.895248	1577.0
239.089844	3818.0
240.073929	1550.0
240.226242	1072.0
241.109009	2608.0
242.110657	1059.0
243.076996	2155.0
244.100403	1283.0
245.074905	6009.0
246.079666	1378.0
247.110138	3815.0
248.13324	1074.0
249.123917	6836.0
250.116959	2316.0
251.081833	14249.0
252.098312	3555.0
253.11792	5562.0
254.136749	1383.0
254.854141	3895.0
255.096481	4366.0
256.0448	1675.0
257.101959	2511.0
258.88266	1300.0
259.125641	2093.0
260.137543	1519.0
260.876526	1196.0
261.126678	3923.0
262.142273	1479.0
262.929321	1201.0
263.130829	4417.0
264.121399	1695.0
265.132568	5543.0
266.131836	1136.0
267.11734	4027.0
268.122345	1638.0
269.132263	2243.0
270.15741	9916.0
270.836914	1889.0
271.159851	3487.0
273.098328	3961.0
275.138153	4034.0
276.130157	1053.0
277.139282	5485.0
278.135071	1751.0
279.130402	6302.0
280.13208	1506.0
281.128845	4476.0
283.107666	2436.0
285.067657	4568.0
286.064697	1173.0
287.135071	1726.0
289.143555	2464.0
END IONS

BEGIN IONS
PEPMASS=250.085
CHARGE=1
MSLEVEL=2
SOURCE_INSTRUMENT=LC-ESI-qTof
FILENAME=DMIM_centroided_library_abundance_filtered.mgf
SEQ=*..*
IONMODE=Positive
ORGANISM=DMIM-DRUG-METABOLITE-LIBRARY
NAME=METAPROTERENOL [M+K]+
PI=Libin Xu
DATACOLLECTOR=Dylan H. Ross
SMILES=CC(C)NCC(C1=CC(=CC(=C1)O)O)O
INCHI=N/A
INCHIAUX=N/A
PUBMED=N/A
SUBMITUSER=jzemlin
LIBRARYQUALITY=3
SPECTRUMID=CCMSLIB00012465155
USI=mzspec:GNPS:DMIM-DRUG-METABOLITE-LIBRARY:accession:CCMSLIB00012465155
SCANS=133
55.029865	3939.0
56.049839	2389.0
56.998837	2770.0
58.997284	9321.0
61.01046	1537.0
65.03376	1725.0
67.049522	6400.0
68.050812	1904.0
69.019707	8173.0
70.057785	4763.0
71.008957	3200.0
72.081169	2905.0
73.038971	2315.0
74.033913	1313.0
76.025375	18938.0
77.040878	24401.0
78.037888	3070.0
79.051689	16572.0
80.051376	8730.0
81.054359	11611.0
82.062614	4586.0
83.045853	10796.0
84.053268	35943.0
85.000961	14561.0
86.042763	7191.0
87.000076	5505.0
88.029053	3499.0
89.032188	2219.0
91.055855	15212.0
92.053078	4243.0
93.065353	11689.0
94.063972	3980.0
95.069191	12083.0
96.06424	4028.0
97.029427	18356.0
98.024925	6138.0
99.006836	11159.0
100.028908	2758.0
101.020378	2658.0
102.050034	1820.0
102.935326	1045.0
103.04464	3111.0
104.050827	1023.0
105.063362	13793.0
106.062546	5657.0
107.054581	114861.0
108.056496	18126.0
109.061607	16524.0
110.051643	17082.0
111.033485	9567.0
112.036942	4107.0
113.028847	11562.0
114.039597	4860.0
115.048019	6156.0
116.032074	17843.0
117.05397	7158.0
118.055031	2029.0
118.930649	21535.0
119.07589	9173.0
120.067039	4890.0
121.040398	14824.0
122.06382	4695.0
123.050644	25791.0
124.044273	8326.0
125.05925	59057.0
126.054024	5487.0
127.038933	5273.0
128.056885	4825.0
129.070557	7994.0
130.05983	11020.0
131.059219	7243.0
132.048203	5189.0
132.966202	1814.0
133.073868	10346.0
134.072113	6921.0
134.894318	1470.0
135.056107	14629.0
136.067322	24628.0
136.946915	30096.0
137.07486	13302.0
138.051117	3225.0
139.018967	15576.0
140.041138	3264.0
141.046082	9292.0
142.042709	22357.0
142.950577	1202.0
143.059692	6625.0
144.042786	6560.0
144.960098	1197.0
145.065567	8121.0
146.06601	4265.0
147.056793	9962.0
148.063141	3729.0
149.065338	9710.0
150.057587	4582.0
151.039978	9066.0
152.074295	32521.0
152.907272	2732.0
153.037033	14962.0
154.079803	4425.0
155.040878	8022.0
156.081879	3863.0
157.085312	4576.0
158.091034	3246.0
158.919327	1197.0
159.075226	7979.0
160.08049	4422.0
161.062088	10649.0
162.055496	24559.0
163.065735	10468.0
164.07431	9677.0
164.932907	1863.0
165.061905	8080.0
166.069717	2711.0
167.062683	6483.0
168.071213	2914.0
169.06749	4802.0
170.063507	4230.0
171.06572	4528.0
172.10257	2378.0
173.074295	6600.0
174.087234	3255.0
174.896622	4659.0
175.071121	5999.0
176.073059	3486.0
177.054092	9515.0
178.068497	3942.0
179.059204	8063.0
180.072571	3709.0
180.966339	7687.0
181.087875	3411.0
182.082703	1717.0
182.918198	1756.0
183.052307	4639.0
184.084824	2053.0
185.054825	5025.0
186.093414	2281.0
187.069534	7008.0
188.063919	2951.0
189.062164	5817.0
190.07579	1987.0
190.860886	1029.0
191.048141	7630.0
192.055725	2421.0
192.927628	1020.0
193.057541	7243.0
194.098251	3469.0
194.956573	1086.0
195.084213	4752.0
196.087082	2309.0
196.906387	2061.0
197.07991	3476.0
198.072006	2319.0
198.905869	2187.0
199.064682	4309.0
200.085129	2406.0
200.920746	2235.0
201.047302	9681.0
202.059799	2755.0
202.919312	3377.0
203.084534	3387.0
204.093811	3282.0
204.921646	1403.0
205.092194	3745.0
206.10994	2496.0
207.067886	5642.0
208.069046	2057.0
209.079971	4140.0
210.082581	2018.0
211.087219	3726.0
212.105133	2995.0
212.916718	1971.0
213.089355	1987.0
214.096558	2187.0
214.886353	2984.0
215.052475	3649.0
216.118271	2215.0
216.906448	5768.0
217.10434	3386.0
218.105316	1577.0
218.980469	3186.0
219.115143	2230.0
220.115097	1244.0
220.928391	2381.0
221.097641	3207.0
222.085449	1332.0
222.93071	1810.0
223.090698	3294.0
224.098083	1652.0
225.069199	2162.0
226.123825	1271.0
227.061249	1667.0
228.116089	1171.0
229.125137	1315.0
231.073288	2255.0
232.125763	2480.0
232.88179	1538.0
233.082703	3574.0
234.931107	1104.0
235.101913	3439.0
236.116058	1314.0
237.102844	2977.0
238.113434	1183.0
238.896042	1178.0
239.08461	2321.0
241.089508	1564.0
242.098221	1043.0
243.101944	1388.0
245.070694	2313.0
247.103683	1613.0
249.010406	3387.0
249.123825	1904.0
250.962845	1662.0
251.09819	2684.0
END IONS

BEGIN IONS
PEPMASS=345.218
CHARGE=1
MSLEVEL=2
SOURCE_INSTRUMENT=LC-ESI-qTof
FILENAME=DMIM_centroided_library_abundance_filtered.mgf
SEQ=*..*
IONMODE=Positive
ORGANISM=DMIM-DRUG-METABOLITE-LIBRARY
NAME=OXYPHENCYCLIMINE [M+H]+
PI=Libin Xu
DATACOLLECTOR=Dylan H. Ross
SMILES=CN1CCCN=C1COC(=O)C(C2CCCCC2)(C3=CC=CC=C3)O
INCHI=N/A
INCHIAUX=N/A
PUBMED=N/A
SUBMITUSER=jzemlin
LIBRARYQUALITY=3
SPECTRUMID=CCMSLIB00012465241
USI=mzspec:GNPS:DMIM-DRUG-METABOLITE-LIBRARY:accession:CCMSLIB00012465241
SCANS=219
55.053516	4363.0
57.058006	2445.0
58.065834	6272.0
59.029747	1223.0
67.056892	7021.0
68.052032	4176.0
69.059456	7325.0
70.066566	11485.0
71.057167	2580.0
72.066429	32438.0
73.062653	2400.0
74.061081	1816.0
76.028511	1818.0
77.039787	5642.0
79.057205	56759.0
80.049484	4444.0
81.067604	7381.0
82.065071	1761.0
83.065865	27988.0
84.067223	12952.0
85.028755	6805.0
86.093452	9258.0
87.03756	1858.0
88.056427	3187.0
89.055321	1563.0
91.057159	67423.0
92.059906	4289.0
93.068672	7370.0
94.070648	1293.0
95.076729	11463.0
96.057518	2277.0
97.041893	43073.0
98.043724	4337.0
98.975723	3113.0
99.07637	8829.0
100.074966	1682.0
101.064415	5091.0
102.06282	2168.0
103.047081	3780.0
104.068398	1125.0
105.067078	70449.0
106.071114	6152.0
107.053886	157169.0
108.058434	12916.0
109.084297	15425.0
110.07515	7213.0
110.974655	1072.0
111.083862	32610.0
112.098282	17872.0
113.050903	12617.0
114.047501	2274.0
115.074417	12983.0
116.068596	22961.0
117.071167	13298.0
118.075424	2326.0
118.928146	2245.0
119.061478	8028.0
120.074104	6101.0
120.959068	1075.0
121.068237	25304.0
122.066376	4837.0
123.057625	58284.0
124.061539	6822.0
125.035927	13591.0
126.076363	6070.0
126.709229	6898.0
126.94767	1186.0
127.076645	13169.0
127.283012	1006.0
127.644806	1109.0
128.079056	6416.0
128.278961	1431.0
128.586945	1690.0
128.725189	1573.0
128.837997	2091.0
128.952042	3835.0
129.109222	2927704.0
129.254822	492961.0
129.393417	153852.0
129.937973	91597.0
130.099152	732561.0
130.226898	7894.0
130.673706	10227.0
130.809067	120570.0
130.937119	16248.0
131.1017	17511.0
131.473862	8108.0
131.599579	65021.0
131.739273	3026.0
132.077774	1812.0
132.268768	4257.0
132.380554	36517.0
132.985153	2421.0
133.123962	26636.0
133.232742	2944.0
133.907013	10383.0
134.07016	2626.0
134.660675	1999.0
135.074234	8691.0
136.067368	26794.0
136.950104	19354.0
137.075348	21962.0
138.066711	5898.0
139.039017	26775.0
140.046173	3101.0
140.92572	1114.0
141.06514	6395.0
142.040466	9938.0
142.952316	3437.0
143.084778	21099.0
144.062408	4488.0
145.100281	95997.0
146.100601	6688.0
147.084747	11753.0
148.073669	2469.0
149.081161	8270.0
150.061218	3261.0
151.077438	12689.0
152.071381	4213.0
153.050888	16083.0
154.084213	14529.0
155.061096	10450.0
156.070511	3225.0
156.920105	1286.0
157.08493	6592.0
158.092468	2407.0
158.940353	3206.0
159.095322	5538.0
160.085602	2783.0
161.077057	8836.0
162.058563	4880.0
163.080231	14043.0
164.085861	4069.0
164.932236	5516.0
165.066422	15511.0
166.070099	3781.0
167.060059	11460.0
168.066055	3307.0
169.065735	10500.0
170.055725	2533.0
170.999466	1347.0
171.119324	59868.0
172.118134	9545.0
173.077805	7885.0
174.072067	2134.0
174.931824	2926.0
175.090683	7885.0
176.073929	2208.0
177.077621	13164.0
178.070496	2938.0
179.08168	21120.0
180.088593	3932.0
180.913925	2816.0
181.078354	20369.0
182.081314	3059.0
183.068573	14178.0
184.07695	4205.0
185.081787	6217.0
186.0793	1507.0
186.205612	1360.0
186.940582	1319.0
187.102005	6951.0
188.077225	2435.0
189.014038	1055.0
189.129578	54038.0
190.127838	8792.0
190.938675	1139.0
191.08017	13821.0
192.08223	3321.0
192.95871	3071.0
193.081619	21167.0
194.082092	3556.0
194.946091	1221.0
195.084717	15421.0
196.082535	2498.0
196.908096	2188.0
197.084839	32691.0
198.086487	4247.0
198.905579	3121.0
199.085907	6632.0
199.970734	1042.0
200.102829	5090.0
200.943161	11181.0
201.110107	5985.0
202.120102	1679.0
202.928345	1012.0
203.093781	7551.0
204.092484	2405.0
205.088608	10456.0
206.085648	3052.0
207.09227	14998.0
208.09082	3081.0
209.084702	27218.0
210.091965	4186.0
211.093018	9429.0
212.100449	2958.0
212.892807	1088.0
213.098602	6403.0
214.115326	2319.0
214.862198	1137.0
215.024872	7106.0
215.155655	1099.0
216.085373	2264.0
216.909775	21957.0
217.087677	7054.0
218.115372	1259.0
218.950836	1771.0
219.104248	7928.0
220.093597	2556.0
220.943741	2190.0
221.109436	12466.0
222.108963	2988.0
222.927536	2635.0
223.096893	18829.0
224.101868	3501.0
225.092102	10857.0
226.115387	3741.0
227.071655	6488.0
228.104401	3018.0
229.095764	5438.0
230.121323	1741.0
230.931442	2267.0
231.090942	6895.0
232.096664	2528.0
232.882965	8611.0
233.105286	10982.0
234.10112	2783.0
234.969772	1412.0
235.109207	14477.0
236.127396	2662.0
237.114822	17288.0
238.116684	3481.0
238.909714	2122.0
239.095261	11925.0
240.080566	2523.0
240.217468	3252.0
241.093475	5532.0
242.083679	1838.0
242.231461	1771.0
243.098618	4012.0
244.133499	2003.0
244.907349	1026.0
245.084564	5993.0
246.108505	1864.0
246.934952	1592.0
247.1185	6131.0
248.124863	1952.0
248.944611	3632.0
249.107513	14902.0
250.108154	3228.0
250.996277	1191.0
251.111206	21938.0
252.114227	4304.0
253.118835	12608.0
254.131378	2735.0
254.857773	3498.0
255.122299	10321.0
256.124634	2315.0
256.966064	1161.0
257.121582	3449.0
258.117371	1608.0
258.974915	1123.0
259.118683	4259.0
260.095123	1749.0
261.006683	1265.0
261.133667	6963.0
262.127838	2273.0
263.133789	9309.0
264.110657	1836.0
264.940948	2794.0
265.123047	10732.0
266.114471	2975.0
267.121765	15342.0
268.121033	2636.0
269.13147	8568.0
270.138	1587.0
270.32077	2534.0
270.952148	1993.0
271.132477	5580.0
271.289612	1328.0
272.144165	1791.0
272.951294	1554.0
273.1362	4394.0
274.110962	1858.0
274.954315	1372.0
275.140289	6712.0
276.161133	1725.0
277.142212	10941.0
278.141968	2232.0
279.141937	10173.0
280.151367	2727.0
281.132111	8877.0
282.125977	2174.0
283.12558	7708.0
284.126038	2354.0
285.125824	3558.0
286.135803	1982.0
287.142944	5051.0
288.157288	1124.0
288.920349	2079.0
289.151611	7581.0
290.142792	2152.0
291.155579	9602.0
292.14859	2655.0
293.152985	10778.0
294.158722	3103.0
294.916595	1420.0
295.151154	10682.0
296.155792	2139.0
296.952393	1658.0
297.144592	4563.0
298.157776	1300.0
298.939758	5219.0
299.127777	3406.0
300.159546	1574.0
300.891144	1223.0
301.137207	4945.0
302.049042	2816.0
303.168976	5523.0
304.163391	1609.0
305.175323	8113.0
306.179291	2051.0
307.158783	11170.0
308.159821	3025.0
309.158722	8235.0
310.162018	2797.0
310.993469	1029.0
311.154968	5789.0
312.067596	2800.0
312.937744	2138.0
313.151093	4182.0
314.182983	2038.0
314.954346	1525.0
315.16507	4018.0
316.168182	1535.0
316.964569	1067.0
317.185669	6378.0
318.180695	1914.0
318.927277	1883.0
319.182068	10136.0
320.177734	2759.0
320.929962	1536.0
321.174438	9096.0
322.177643	2315.0
323.176331	9643.0
324.164368	2175.0
325.172852	5185.0
326.177734	2105.0
327.085449	5988.0
327.213776	28807.0
328.072357	1651.0
328.213135	6841.0
328.901154	2927.0
329.044647	2299.0
329.188721	2950.0
330.06839	2340.0
331.011841	1088.0
331.18576	5472.0
332.075958	1800.0
332.210876	1392.0
333.079407	1253.0
333.192688	9249.0
334.057648	1073.0
334.199219	3100.0
334.823364	1264.0
335.184479	9587.0
336.182281	2626.0
336.891663	1007.0
337.190094	6779.0
338.185669	2062.0
338.935364	1006.0
339.175018	5043.0
340.181885	1623.0
341.174652	3058.0
342.196533	1482.0
343.200348	5298.0
344.19458	1452.0
344.899323	1748.0
345.226532	158451.0
345.432098	3115.0
345.568115	1046.0
345.711151	2263.0
346.048523	3480.0
346.229828	38479.0
346.736908	1677.0
347.048126	8010.0
347.182831	5801.0
END IONS

BEGIN IONS
PEPMASS=160.113
CHARGE=1
MSLEVEL=2
SOURCE_INSTRUMENT=LC-ESI-qTof
FILENAME=DMIM_centroided_library_abundance_filtered.mgf
SEQ=*..*
IONMODE=Positive
ORGANISM=DMIM-DRUG-METABOLITE-LIBRARY
NAME=PARGYLINE [M+H]+
PI=Libin Xu
DATACOLLECTOR=Dylan H. Ross
SMILES=CN(CC#C)CC1=CC=CC=C1
INCHI=N/A
INCHIAUX=N/A
PUBMED=N/A
SUBMITUSER=jzemlin
LIBRARYQUALITY=3
SPECTRUMID=CCMSLIB00012465654
USI=mzspec:GNPS:DMIM-DRUG-METABOLITE-LIBRARY:accession:CCMSLIB00012465654
SCANS=632
59.00082	1256.0
65.038857	1208.0
67.050621	1369.0
76.024742	1371.0
77.040054	4364.0
78.03952	1186.0
79.046295	3639.0
81.036293	2164.0
83.018753	1908.0
84.048904	1797.0
84.992844	2382.0
91.055244	10949.0
92.05098	1302.0
93.05925	2340.0
95.050575	2249.0
96.05407	1180.0
97.016823	4426.0
98.020309	1294.0
98.988091	2638.0
100.024017	1160.0
100.999794	1388.0
102.988632	4471.0
105.066177	5164.0
106.063553	1182.0
107.059959	3320.0
108.054176	1655.0
109.046448	4696.0
110.049561	1159.0
111.019424	2203.0
113.021843	2468.0
114.026299	1084.0
115.04998	5885.0
116.059464	2460.0
117.063118	3046.0
118.065926	1572.0
118.929741	7657.0
119.07811	3551.0
120.067154	1839.0
121.023903	5655.0
121.792747	1078.0
122.073219	1855.0
122.969414	4853.0
123.078926	2273.0
124.024109	1876.0
124.99453	3892.0
126.078224	1521.0
127.025726	4708.0
128.044098	8233.0
129.06662	4235.0
130.066147	2420.0
131.068649	2142.0
132.071381	1134.0
132.92247	1668.0
133.071213	2541.0
134.065948	1379.0
134.903305	6226.0
135.070999	4642.0
136.065125	2509.0
137.014145	4298.0
138.024246	1122.0
139.023727	5319.0
140.043839	1575.0
141.049026	3951.0
142.066772	2503.0
143.023193	5968.0
144.080124	3248.0
145.064117	4285.0
146.076126	1056.0
147.060806	2464.0
148.065186	1053.0
149.049377	2385.0
151.047989	2752.0
152.047623	2663.0
152.917526	2763.0
153.057495	3548.0
154.070358	1709.0
155.051987	2527.0
156.073761	1204.0
157.071442	1615.0
158.086426	1381.0
159.072266	1843.0
161.061935	2412.0
162.040451	1016.0
END IONS

BEGIN IONS
PEPMASS=364.097
CHARGE=1
MSLEVEL=2
SOURCE_INSTRUMENT=LC-ESI-qTof
FILENAME=DMIM_centroided_library_abundance_filtered.mgf
SEQ=*..*
IONMODE=Positive
ORGANISM=DMIM-DRUG-METABOLITE-LIBRARY
NAME=CEFADROXIL [M+H]+
PI=Libin Xu
DATACOLLECTOR=Dylan H. Ross
SMILES=CC1=C(N2[C@@H]([C@@H](C2=O)NC(=O)[C@@H](C3=CC=C(C=C3)O)N)SC1)C(=O)O
INCHI=N/A
INCHIAUX=N/A
PUBMED=N/A
SUBMITUSER=jzemlin
LIBRARYQUALITY=3
SPECTRUMID=CCMSLIB00012465883
USI=mzspec:GNPS:DMIM-DRUG-METABOLITE-LIBRARY:accession:CCMSLIB00012465883
SCANS=861
55.04911	2782.0
57.065853	2012.0
58.064781	1329.0
59.028664	1490.0
67.051575	3241.0
68.052536	1724.0
69.055374	5312.0
70.063293	6128.0
71.056091	2253.0
72.079796	2705.0
73.052071	1467.0
74.059891	1055.0
76.024666	3323.0
77.031273	2481.0
79.04351	3405.0
80.038673	2428.0
81.06086	6138.0
82.053932	1491.0
83.058708	5144.0
84.06118	13480.0
85.033524	7309.0
86.094193	7049.0
87.036926	3261.0
88.057175	2311.0
89.049698	1640.0
91.053604	7639.0
93.066132	4970.0
95.075119	14380.0
96.063957	2092.0
97.036446	47260.0
98.042397	4634.0
99.021759	8541.0
100.05336	1597.0
101.053497	3292.0
102.061005	1982.0
103.021622	2389.0
105.070793	42672.0
106.072144	3645.0
107.071709	8580.0
108.061653	3657.0
109.080841	15877.0
110.069977	6623.0
111.051758	12932.0
112.047234	4881.0
113.036652	10511.0
114.046234	3767.0
115.063095	3276.0
116.033195	5027.0
117.051933	2179.0
118.06514	1563.0
118.925034	1677.0
119.057976	8656.0
120.069695	6584.0
120.953476	1637.0
121.067467	24317.0
122.064598	8909.0
123.055786	63719.0
124.058327	7242.0
125.031815	14250.0
126.079887	7184.0
127.049782	5844.0
128.053696	2278.0
129.096725	11086.0
130.059402	7637.0
131.065842	3571.0
132.06839	1187.0
133.054337	8346.0
134.058121	4788.0
135.071381	10522.0
136.065872	28996.0
136.948013	17760.0
137.074249	24680.0
138.066147	5835.0
139.03981	25831.0
140.031357	7037.0
140.942368	1187.0
141.05864	5237.0
142.03746	12755.0
142.976517	7203.0
143.098251	2480.0
144.038925	3044.0
145.070847	4788.0
146.071716	1657.0
147.069839	8490.0
148.054764	5717.0
149.080338	9067.0
150.05661	4202.0
151.059021	10461.0
152.067154	4323.0
153.051926	16087.0
154.079117	17040.0
155.056198	8981.0
156.066879	2891.0
157.081024	3871.0
158.051788	3482.0
158.938583	2611.0
159.086014	6711.0
160.061615	3895.0
161.081284	9423.0
162.05426	5375.0
163.074829	13455.0
164.081818	5090.0
164.933975	5642.0
165.061966	16860.0
166.061325	4165.0
167.057983	11925.0
168.064957	2917.0
169.056122	10348.0
170.052124	3486.0
171.07428	7767.0
172.075989	2225.0
173.077866	8198.0
174.083832	2088.0
174.929855	2613.0
175.080505	7774.0
176.065979	2707.0
176.955475	1094.0
177.077454	15970.0
178.07547	4237.0
178.96225	1654.0
179.08136	23613.0
180.076447	4652.0
180.914368	3704.0
181.075775	23359.0
182.08075	4271.0
183.068558	14338.0
184.076538	3902.0
185.07045	6213.0
186.102951	2427.0
186.941849	1604.0
187.095154	6059.0
188.058395	2749.0
189.071762	6460.0
190.066208	2247.0
191.072784	13170.0
192.08136	4432.0
192.958603	3319.0
193.079498	23794.0
194.087219	3926.0
194.963516	1226.0
195.086151	15913.0
196.081451	3654.0
196.909836	2169.0
197.083847	34424.0
198.081879	4675.0
198.899002	3163.0
199.074081	6004.0
200.105484	5146.0
200.941254	14171.0
201.107285	6236.0
202.086823	1736.0
202.926468	1127.0
203.087006	10563.0
204.070526	2389.0
205.087051	10907.0
206.082199	3405.0
207.09108	16014.0
208.099365	3359.0
209.08255	33423.0
210.091446	5152.0
211.090317	11360.0
212.0914	3648.0
212.880142	1022.0
213.098557	7830.0
214.101883	2750.0
215.034454	6842.0
215.152405	1258.0
216.086334	2986.0
216.908676	25591.0
217.089569	6942.0
218.096954	2372.0
218.972687	2349.0
219.113556	7667.0
220.098358	2583.0
220.923477	2368.0
221.104172	14116.0
222.099533	3659.0
222.925354	3283.0
223.096375	21188.0
224.094696	3912.0
225.089172	13392.0
226.115479	3586.0
227.068359	8549.0
228.100296	3148.0
229.095978	5848.0
230.1008	1785.0
230.938477	2383.0
231.08812	7357.0
232.088257	2455.0
232.883774	6506.0
233.096054	13148.0
234.102112	2220.0
234.987015	2540.0
235.115311	15029.0
236.105835	3523.0
236.987076	1091.0
237.111893	18429.0
238.110641	3643.0
238.921646	2444.0
239.099533	13192.0
240.100067	2878.0
240.210968	2917.0
241.09082	6028.0
242.087128	2009.0
242.238586	1109.0
243.112305	3788.0
244.131927	1814.0
245.097672	7723.0
246.064926	1690.0
246.933212	1624.0
247.10936	7640.0
248.131302	1774.0
248.935486	2908.0
249.102661	15011.0
250.099457	3765.0
250.990158	1118.0
251.11142	21660.0
252.111282	3958.0
253.001465	1084.0
253.122131	14149.0
254.142746	3028.0
254.864059	3177.0
255.118713	12052.0
256.111969	2697.0
256.937683	1792.0
257.108093	4038.0
258.109528	1875.0
258.976318	1347.0
259.125549	4203.0
260.119873	1409.0
260.931671	1503.0
261.123657	7826.0
262.123749	2275.0
262.941864	1105.0
263.136383	9995.0
264.129791	2581.0
264.937042	2202.0
265.121826	13077.0
266.116119	2419.0
266.938019	1451.0
267.119202	17423.0
268.115601	4325.0
269.129486	10201.0
270.131317	2708.0
270.31546	1332.0
270.926849	1527.0
271.105835	5462.0
272.15918	1667.0
273.017731	1559.0
273.143402	4853.0
274.130859	1281.0
274.95462	1418.0
275.146545	7628.0
276.156372	1458.0
277.1409	10964.0
278.141785	2591.0
279.139221	11726.0
280.14267	2765.0
281.125214	8794.0
282.154968	2322.0
282.860718	1085.0
283.124817	8084.0
283.978149	1179.0
284.115692	2481.0
285.121185	4539.0
286.124908	2176.0
287.143097	4174.0
288.152283	1591.0
288.970947	1858.0
289.142609	8258.0
290.138855	2793.0
291.034027	1045.0
291.151489	11068.0
292.137726	2517.0
293.145416	13131.0
294.147064	2436.0
295.151154	11379.0
296.148346	2815.0
296.940063	2132.0
297.136627	4749.0
298.138794	1542.0
298.937073	5968.0
299.121857	3576.0
301.134033	3964.0
302.050446	2995.0
303.160156	5691.0
304.130066	1862.0
305.164459	10657.0
306.147217	1999.0
307.155212	13070.0
308.15979	3533.0
309.157959	8861.0
310.172852	1831.0
311.157471	6720.0
312.071167	2404.0
312.936676	2763.0
313.151642	3269.0
314.14624	1159.0
314.94873	1713.0
315.168823	3818.0
316.160828	1419.0
317.076721	1023.0
317.185577	6556.0
318.190002	1808.0
318.935181	1636.0
319.182709	10906.0
320.175659	2587.0
320.942383	1303.0
321.167908	9190.0
322.142212	2610.0
323.173431	10352.0
324.186127	2789.0
325.156281	6463.0
326.165405	1248.0
327.097565	9428.0
327.237213	3071.0
328.085876	2434.0
328.906799	3690.0
329.049438	2098.0
329.177795	3218.0
330.075348	2311.0
331.180267	6136.0
332.072968	1563.0
332.210175	1361.0
333.177521	10467.0
334.190826	2621.0
335.180725	11499.0
336.183685	3017.0
337.172455	9068.0
338.170837	1789.0
339.176086	5364.0
340.141327	1528.0
341.16864	3174.0
342.173248	1403.0
343.188904	3483.0
344.176483	1218.0
344.90564	1574.0
345.180298	5509.0
346.056427	4288.0
346.2052	1261.0
347.039612	8198.0
347.193085	9351.0
348.039551	1184.0
348.213226	2365.0
349.195221	11949.0
350.19223	3258.0
351.00293	1344.0
351.186737	10121.0
352.185638	2544.0
353.06543	1349.0
353.191772	5807.0
354.198822	1794.0
355.200806	2861.0
356.166779	1309.0
357.096771	1156.0
357.247345	7065.0
358.233551	1660.0
359.205322	5812.0
360.208008	2334.0
361.204865	11122.0
362.210175	2822.0
363.204224	12542.0
364.193573	3166.0
365.186707	11979.0
END IONS

BEGIN IONS
PEPMASS=292.074
CHARGE=1
MSLEVEL=2
SOURCE_INSTRUMENT=LC-ESI-qTof
FILENAME=DMIM_centroided_library_abundance_filtered.mgf
SEQ=*..*
IONMODE=Positive
ORGANISM=DMIM-DRUG-METABOLITE-LIBRARY
NAME=ZOMEPIRAC [M+H]+
PI=Libin Xu
DATACOLLECTOR=Dylan H. Ross
SMILES=CC1=C(N(C(=C1)CC(=O)O)C)C(=O)C2=CC=C(C=C2)Cl
INCHI=N/A
INCHIAUX=N/A
PUBMED=N/A
SUBMITUSER=jzemlin
LIBRARYQUALITY=3
SPECTRUMID=CCMSLIB00012466021
USI=mzspec:GNPS:DMIM-DRUG-METABOLITE-LIBRARY:accession:CCMSLIB00012466021
SCANS=999
55.047237	3311.0
56.051819	9715.0
57.014896	2186.0
58.997955	66821.0
60.011093	1790.0
60.997166	3337.0
67.051491	3730.0
68.047562	2533.0
69.04985	5072.0
70.061012	6329.0
71.02813	2171.0
72.077972	1915.0
73.027557	3278.0
74.033173	1802.0
75.027061	5358.0
76.024315	345630.0
77.033539	15358.0
78.021553	13196.0
79.046783	5117.0
80.050903	14725.0
81.054398	9036.0
82.049385	2152.0
83.046318	9081.0
84.047493	358748.0
85.028931	24369.0
86.066444	8172.0
86.994186	18955.0
88.024582	15491.0
89.023529	2554.0
90.022827	1069.0
91.052628	6678.0
92.047592	1098.0
93.06662	6741.0
94.066803	1288.0
95.066925	11884.0
96.053223	3110.0
97.032578	46736.0
98.01622	9621.0
99.010216	10912.0
100.034012	2303.0
101.048492	2222.0
102.056465	8670.0
103.039253	1952.0
105.06485	8715.0
106.061378	1424.0
107.067863	9373.0
108.068504	10935.0
109.069557	14708.0
110.068077	6858.0
111.006462	118110.0
112.022392	10802.0
113.008324	43971.0
114.033554	14975.0
115.052841	5680.0
116.020203	121522.0
117.025497	9393.0
118.022369	6572.0
118.923973	5280.0
119.070427	9158.0
120.062241	5766.0
121.062813	17593.0
122.056953	4621.0
123.056633	37132.0
124.033546	11261.0
125.030289	11909.0
126.03772	2580.0
127.031593	6853.0
128.047501	2851.0
129.08728	11889.0
130.054413	63752.0
131.060486	7901.0
132.063873	3341.0
133.05806	8821.0
134.066422	3845.0
135.067764	10938.0
136.068069	11689.0
136.949661	22153.0
137.078888	13099.0
138.060196	3776.0
139.000412	256171.0
139.130264	3451.0
139.316101	1547.0
140.005524	18823.0
141.002335	90211.0
142.034485	110500.0
143.038559	14444.0
144.018875	39374.0
145.055679	10555.0
146.041183	5873.0
147.06517	10395.0
148.065186	3261.0
149.064682	8997.0
150.056396	4017.0
151.060516	9570.0
152.062347	14327.0
153.056259	21430.0
154.060715	4716.0
155.046875	7858.0
156.052322	4145.0
157.068237	5370.0
158.091217	2535.0
158.964737	1386.0
159.088058	7566.0
160.076492	3301.0
161.070267	10858.0
162.027603	61525.0
163.053955	13568.0
164.042694	5020.0
164.931793	3673.0
165.058838	11175.0
166.062759	3406.0
167.056686	10493.0
168.059174	6213.0
169.057495	9072.0
170.039017	12210.0
171.067337	6466.0
172.0802	2819.0
173.068909	7988.0
174.078049	2672.0
174.893188	2718.0
175.070297	8767.0
176.069962	3495.0
177.064041	9798.0
178.069244	3070.0
179.060638	21698.0
180.067841	4380.0
180.913284	1902.0
181.070541	16726.0
182.080276	3019.0
183.071732	12227.0
184.070389	3410.0
185.060135	7430.0
186.079498	2593.0
187.063995	18214.0
188.054428	6537.0
189.063889	7830.0
190.066895	2584.0
191.071777	9315.0
192.084763	4151.0
192.952423	1675.0
193.072556	13578.0
194.08049	2939.0
195.077606	8811.0
196.078323	3199.0
197.082184	14866.0
198.08107	3488.0
199.058441	8592.0
200.078629	2725.0
200.927399	1585.0
201.05838	12234.0
202.081543	2754.0
202.899872	1181.0
203.065308	17027.0
204.072601	3826.0
205.087372	6901.0
206.016815	2389.0
207.084091	8390.0
208.087875	2323.0
209.079178	17239.0
210.094116	3205.0
211.089066	7858.0
212.105637	2346.0
213.083588	3770.0
214.107986	1660.0
215.040375	15213.0
215.160446	1058.0
216.051086	4342.0
216.932205	3282.0
217.08783	4288.0
218.101257	2160.0
219.094131	5300.0
220.106308	1796.0
220.929169	2470.0
221.100266	7095.0
222.099564	1600.0
222.927429	1498.0
223.086517	8814.0
224.09079	2521.0
225.082901	6462.0
226.101715	2568.0
227.071533	6329.0
228.096481	4730.0
229.094589	4027.0
230.097534	1330.0
231.093124	4222.0
232.099915	1550.0
232.878952	1156.0
233.07309	12937.0
234.083984	2458.0
235.113098	8247.0
236.107422	1694.0
237.107849	8238.0
238.101578	2402.0
238.889679	1631.0
239.086151	4737.0
240.069107	1444.0
240.218307	1825.0
241.088821	2557.0
243.096207	2474.0
244.106293	1562.0
245.071091	9241.0
246.078964	4382.0
247.105698	5103.0
248.099716	2155.0
249.116959	8335.0
250.098328	2100.0
251.080475	14704.0
252.103485	2821.0
253.001968	1155.0
253.120316	4938.0
254.112717	1870.0
254.852112	3312.0
255.091919	5083.0
256.065186	1683.0
257.068665	2221.0
258.092896	1526.0
258.872772	1268.0
259.130341	3238.0
260.869263	1016.0
261.131409	4788.0
262.136108	1248.0
263.129303	5681.0
264.134827	1776.0
265.115662	6190.0
266.121857	1324.0
267.112549	4648.0
268.141296	1249.0
269.13147	2614.0
270.133667	1577.0
270.837982	1607.0
271.150879	1989.0
273.077637	3138.0
273.180725	1484.0
274.155121	1140.0
275.137451	4664.0
276.14386	1472.0
277.143768	7552.0
278.135712	1495.0
279.122437	7935.0
280.116943	2059.0
281.129913	4616.0
282.139221	1368.0
283.113556	3330.0
284.133484	1231.0
285.072784	4961.0
286.074646	1475.0
287.120789	2100.0
288.11908	1108.0
289.01593	1071.0
289.140472	2730.0
290.127686	1235.0
291.030121	1051.0
291.140961	7430.0
292.083954	1752.0
293.14444	7570.0
END IONS

BEGIN IONS
PEPMASS=145.123
CHARGE=1
MSLEVEL=2
SOURCE_INSTRUMENT=LC-ESI-qTof
FILENAME=DMIM_centroided_library_abundance_filtered.mgf
SEQ=*..*
IONMODE=Positive
ORGANISM=DMIM-DRUG-METABOLITE-LIBRARY
NAME=VALPROATE [M+H]+
PI=Libin Xu
DATACOLLECTOR=Dylan H. Ross
SMILES=CCCC(CCC)C(=O)O
INCHI=N/A
INCHIAUX=N/A
PUBMED=N/A
SUBMITUSER=jzemlin
LIBRARYQUALITY=3
SPECTRUMID=CCMSLIB00012466278
USI=mzspec:GNPS:DMIM-DRUG-METABOLITE-LIBRARY:accession:CCMSLIB00012466278
SCANS=1256
77.040993	2819.0
79.037956	1764.0
84.981308	1072.0
91.052643	2706.0
92.046165	1236.0
95.067032	1005.0
97.006935	1187.0
105.070068	2046.0
107.055779	1588.0
108.060478	1080.0
109.038292	2013.0
110.043961	1896.0
111.017761	1293.0
115.051994	2680.0
117.063072	1122.0
118.934875	1472.0
119.076576	1130.0
121.06617	1887.0
122.087814	2853.0
122.968605	2361.0
123.081627	1572.0
124.99054	1863.0
126.995827	1542.0
128.019577	3430.0
129.062729	1540.0
131.056656	1251.0
132.067368	1427.0
134.898376	3646.0
135.047241	2723.0
137.040955	1539.0
139.033432	1946.0
141.055298	2046.0
143.011215	2628.0
145.03064	1432.0
END IONS

BEGIN IONS
PEPMASS=125.033
CHARGE=1
MSLEVEL=2
SOURCE_INSTRUMENT=LC-ESI-qTof
FILENAME=DMIM_centroided_library_abundance_filtered.mgf
SEQ=*..*
IONMODE=Positive
ORGANISM=DMIM-DRUG-METABOLITE-LIBRARY
NAME=CYCLOSERINE [M+Na]+
PI=Libin Xu
DATACOLLECTOR=Dylan H. Ross
SMILES=C1[C@H](C(=O)NO1)N
INCHI=N/A
INCHIAUX=N/A
PUBMED=N/A
SUBMITUSER=jzemlin
LIBRARYQUALITY=3
SPECTRUMID=CCMSLIB00012466316
USI=mzspec:GNPS:DMIM-DRUG-METABOLITE-LIBRARY:accession:CCMSLIB00012466316
SCANS=1294
77.038879	1580.0
79.054581	1457.0
91.053841	1499.0
110.031303	1397.0
115.052795	2192.0
121.066444	1344.0
122.092339	3395.0
122.952888	1073.0
123.07885	1791.0
END IONS

BEGIN IONS
PEPMASS=390.149
CHARGE=1
MSLEVEL=2
SOURCE_INSTRUMENT=LC-ESI-qTof
FILENAME=DMIM_centroided_library_abundance_filtered.mgf
SEQ=*..*
IONMODE=Positive
ORGANISM=DMIM-DRUG-METABOLITE-LIBRARY
NAME=HETACILLIN [M+H]+
PI=Libin Xu
DATACOLLECTOR=Dylan H. Ross
SMILES=CC1([C@@H](N2[C@H](S1)[C@@H](C2=O)N3C(=O)[C@H](NC3(C)C)C4=CC=CC=C4)C(=O)O)C
INCHI=N/A
INCHIAUX=N/A
PUBMED=N/A
SUBMITUSER=jzemlin
LIBRARYQUALITY=3
SPECTRUMID=CCMSLIB00012466399
USI=mzspec:GNPS:DMIM-DRUG-METABOLITE-LIBRARY:accession:CCMSLIB00012466399
SCANS=1377
55.052582	2554.0
57.052299	1550.0
58.064827	1686.0
59.025192	1653.0
60.069099	1001.0
67.047401	2112.0
68.04319	1069.0
69.062851	4240.0
70.067627	10899.0
71.058777	2072.0
72.079391	2605.0
73.048897	1825.0
74.041649	2128.0
76.02494	2987.0
77.03463	1716.0
79.052719	8673.0
80.037819	2272.0
81.063408	5907.0
82.062004	1867.0
83.065392	4685.0
84.064369	9167.0
85.032051	5597.0
86.077827	7210.0
87.034996	5959.0
88.04837	2072.0
89.059303	6988.0
91.055855	14820.0
93.064911	3560.0
94.067177	1567.0
95.074501	11095.0
96.049042	4409.0
97.056557	10729.0
98.062637	2504.0
99.033203	8013.0
100.074356	1214.0
101.056664	2837.0
102.057877	1907.0
103.039291	2806.0
104.066513	4675.0
105.068916	24327.0
106.06884	179809.0
107.072098	18588.0
108.062798	3456.0
109.086639	13607.0
110.072838	4623.0
111.055435	9939.0
112.047928	3566.0
113.04702	5095.0
114.026306	44576.0
115.054192	6212.0
116.041527	5731.0
117.056847	3294.0
118.067375	28038.0
119.065262	7823.0
120.073143	5479.0
121.062576	24132.0
122.078278	16987.0
123.054573	64179.0
124.053749	6870.0
125.039955	13446.0
126.07222	6010.0
127.047745	5332.0
128.060852	5124.0
129.095825	7900.0
130.063477	8325.0
131.064484	4614.0
132.074585	3006.0
133.064117	10599.0
134.066269	3284.0
135.071838	9212.0
136.069504	11027.0
136.934845	8644.0
137.067169	31952.0
138.0634	5851.0
139.044952	24452.0
140.057388	3975.0
140.959167	1006.0
141.068893	5229.0
142.040878	7560.0
142.969543	7978.0
143.099258	2448.0
144.051331	4160.0
145.076752	5627.0
146.071426	13550.0
147.056015	12491.0
148.071198	2626.0
149.071701	8922.0
150.052551	2856.0
151.078644	9903.0
152.063843	3150.0
153.057297	12182.0
154.072617	9516.0
155.064377	9284.0
156.077682	3661.0
157.076614	4905.0
158.07515	3916.0
158.937546	5032.0
159.091843	5355.0
160.048569	53001.0
161.068375	11615.0
162.041885	11144.0
163.077682	12993.0
164.06485	14915.0
164.934052	8771.0
165.06868	23419.0
166.06604	5102.0
167.065796	10107.0
168.054214	3724.0
169.062439	8324.0
170.053101	2788.0
171.069092	4475.0
172.07457	2645.0
173.077972	15630.0
174.063156	18343.0
174.908051	6882.0
175.08461	9968.0
176.067642	3219.0
176.906021	2117.0
177.083755	13797.0
178.087769	6568.0
179.085266	24013.0
180.078659	6635.0
180.912537	7570.0
181.079529	26197.0
182.054169	5794.0
183.07106	16327.0
184.075745	2832.0
185.073441	7595.0
186.085205	3226.0
186.920029	1166.0
187.07547	8117.0
188.068192	3304.0
189.070679	7661.0
190.051544	3286.0
191.081024	14505.0
192.059601	13772.0
192.956421	2245.0
193.083572	27953.0
194.082855	4817.0
194.972443	1183.0
195.08812	20105.0
196.085312	3680.0
196.897522	8382.0
197.084869	44165.0
198.085602	5673.0
198.904953	2014.0
199.08287	6681.0
199.975266	1658.0
200.081299	4250.0
200.930679	1254.0
201.075073	11719.0
202.075699	3375.0
203.083649	10690.0
204.032547	5739.0
205.088135	11856.0
206.080399	4080.0
207.094116	17664.0
208.09288	4476.0
209.08493	34202.0
210.083755	5455.0
211.090805	14031.0
212.092209	3126.0
212.859695	5009.0
213.083435	11625.0
214.082794	4038.0
214.885849	1964.0
215.072693	6368.0
216.091568	3638.0
216.929871	5620.0
217.091431	8848.0
218.053116	4473.0
219.099258	9506.0
220.101547	2894.0
220.952255	1713.0
221.110428	17524.0
222.098709	3701.0
223.097778	23435.0
224.101807	3992.0
225.091278	14782.0
226.120377	4262.0
227.059723	7696.0
227.174606	1104.0
228.094543	2653.0
229.100311	6036.0
230.0905	2573.0
231.090637	6800.0
232.075485	2340.0
232.946167	1143.0
233.100723	14227.0
234.105331	3153.0
235.008514	1528.0
235.118744	17183.0
236.122025	3002.0
236.992813	1099.0
237.11554	22701.0
238.111694	4192.0
238.915588	3098.0
239.102493	15397.0
240.100464	2580.0
240.218018	2116.0
241.08252	6998.0
242.073395	2221.0
243.113403	3909.0
244.107697	3040.0
245.083679	6568.0
246.108093	1684.0
246.969727	1593.0
247.120605	7536.0
248.117157	2085.0
249.120895	15339.0
250.114456	3321.0
250.992798	1162.0
251.118896	24698.0
252.119827	4400.0
253.118164	17141.0
254.130508	3473.0
254.870621	2239.0
255.123398	12654.0
256.111298	3994.0
256.918182	1278.0
257.096191	5444.0
258.029694	3524.0
258.160767	1026.0
259.09259	11937.0
260.095551	2535.0
260.881226	1556.0
261.129425	9633.0
262.118164	2958.0
263.132355	11255.0
264.121307	3573.0
264.987518	1647.0
265.128937	14129.0
266.110321	3252.0
266.942413	1378.0
267.125671	20178.0
268.119629	4683.0
268.277435	1435.0
268.996399	1363.0
269.131653	12688.0
270.140625	3939.0
270.997986	1275.0
271.163727	8884.0
272.143341	2197.0
272.996002	1019.0
273.126801	4308.0
274.111908	2139.0
274.99823	1261.0
275.149719	7425.0
276.150848	2050.0
277.142639	14392.0
278.127899	4003.0
279.138367	16219.0
280.142975	3288.0
281.124725	10155.0
282.139709	3785.0
282.869263	2488.0
283.129944	11194.0
284.125305	3007.0
284.333038	3020.0
285.139069	6429.0
286.123993	2263.0
286.99585	1373.0
287.142029	6038.0
288.116333	2638.0
288.879852	1452.0
289.135193	8875.0
290.137421	2166.0
291.155182	12375.0
292.142059	2834.0
293.148102	15537.0
294.144043	3754.0
295.004608	1077.0
295.150116	14804.0
296.144348	3969.0
296.966766	1062.0
297.134308	6303.0
298.13559	2054.0
298.34671	1507.0
298.84375	2258.0
299.129944	5627.0
300.134521	1599.0
300.881775	1926.0
301.011353	1008.0
301.144958	4286.0
302.060211	2794.0
303.158875	6608.0
304.16217	2197.0
304.855072	1329.0
305.162048	14871.0
306.147644	3248.0
307.158997	13131.0
308.144684	4888.0
308.97937	1433.0
309.156952	11423.0
310.132385	4524.0
311.15274	8915.0
312.055817	3018.0
312.182404	1221.0
313.058105	1350.0
313.1651	4169.0
314.130096	2376.0
314.96521	1382.0
315.121429	4622.0
315.222778	1990.0
316.003387	1358.0
316.160095	1721.0
316.84671	1681.0
317.04715	2200.0
317.191986	6601.0
318.178802	2158.0
319.057434	1073.0
319.189453	10315.0
320.192169	1815.0
320.921478	1127.0
321.168304	11592.0
322.156738	2581.0
323.165344	11936.0
324.157806	4317.0
325.158051	9633.0
326.169281	2386.0
327.10379	5441.0
327.229034	5053.0
328.028351	1096.0
328.154877	2438.0
329.013275	1334.0
329.177765	4769.0
330.084869	6935.0
330.226929	1016.0
331.060883	1731.0
331.193481	7670.0
332.081085	3426.0
332.212524	1551.0
333.121155	14205.0
333.236206	5916.0
334.10965	5686.0
334.250275	1560.0
335.039764	1566.0
335.184967	12045.0
336.185883	2960.0
337.175201	9315.0
338.191681	2519.0
339.173737	6095.0
340.16217	2582.0
341.184204	4768.0
342.162994	1462.0
343.180969	5903.0
344.065674	1167.0
344.210083	1611.0
345.183258	6953.0
346.054901	15424.0
346.196625	1214.0
347.053986	2897.0
347.20343	11561.0
348.044312	1910.0
348.207428	3000.0
349.048218	1027.0
349.200104	14585.0
350.025299	1022.0
350.184418	4274.0
351.007019	1338.0
351.185608	11286.0
352.081268	2960.0
352.209503	1826.0
353.180573	5932.0
354.181396	1988.0
355.183136	5269.0
356.218506	1312.0
357.129181	2107.0
357.250061	8643.0
358.256439	2336.0
359.122742	1433.0
359.223938	5861.0
360.195557	2723.0
361.218323	10796.0
362.058014	2055.0
362.252716	3696.0
363.209442	11824.0
363.3172	1072.0
364.177094	2538.0
364.289307	1129.0
365.141327	12330.0
365.242462	5314.0
366.16806	3329.0
367.187714	6672.0
368.03418	6297.0
368.209015	1818.0
369.047089	1897.0
369.208862	4769.0
370.032227	1077.0
370.215393	1197.0
371.162109	1851.0
371.27597	11512.0
372.113617	1045.0
372.272095	2721.0
373.211151	7142.0
374.043488	9755.0
374.226471	1700.0
375.079468	2499.0
375.229889	10213.0
376.21228	2579.0
377.054047	1065.0
377.222748	13612.0
378.248688	3110.0
379.217926	10270.0
380.213043	2615.0
381.086487	2966.0
381.210815	8515.0
382.210754	2211.0
383.212677	4697.0
384.013367	2180.0
384.204559	1717.0
385.220398	4365.0
386.216431	1230.0
387.221313	6560.0
388.249786	1690.0
389.127411	2005.0
389.240845	14414.0
390.030914	5396.0
390.230042	3794.0
391.045502	2201.0
391.237335	17247.0
392.027557	1099.0
END IONS

BEGIN IONS
PEPMASS=470.034
CHARGE=1
MSLEVEL=2
SOURCE_INSTRUMENT=LC-ESI-qTof
FILENAME=DMIM_centroided_library_abundance_filtered.mgf
SEQ=*..*
IONMODE=Positive
ORGANISM=DMIM-DRUG-METABOLITE-LIBRARY
NAME=DICLOXACILLIN [M+H]+
PI=Libin Xu
DATACOLLECTOR=Dylan H. Ross
SMILES=CC1=C(C(=NO1)C2=C(C=CC=C2Cl)Cl)C(=O)N[C@H]3[C@@H]4N(C3=O)[C@H](C(S4)(C)C)C(=O)O
INCHI=N/A
INCHIAUX=N/A
PUBMED=N/A
SUBMITUSER=jzemlin
LIBRARYQUALITY=3
SPECTRUMID=CCMSLIB00012466515
USI=mzspec:GNPS:DMIM-DRUG-METABOLITE-LIBRARY:accession:CCMSLIB00012466515
SCANS=1493
55.051228	2377.0
57.058743	1893.0
58.06646	1326.0
59.033428	1177.0
60.066769	1472.0
67.055809	1688.0
69.060425	3582.0
70.067673	5734.0
71.063057	2078.0
72.082695	2820.0
73.053513	1414.0
74.06398	1369.0
76.027443	3453.0
77.033638	1111.0
79.045013	1964.0
80.027985	1841.0
81.060173	5697.0
82.04895	1115.0
83.063049	4925.0
84.064079	7662.0
85.03875	3810.0
86.093613	7108.0
87.048836	5055.0
88.056839	1341.0
89.061493	9889.0
91.054924	7176.0
93.066917	3354.0
95.077347	10224.0
96.059982	1464.0
97.056625	9582.0
98.054131	2011.0
99.034706	6044.0
100.053177	3251.0
101.057587	3116.0
102.056053	1971.0
103.029297	2213.0
104.071747	4884.0
105.071526	38293.0
106.073868	3118.0
107.072029	5976.0
108.054543	2521.0
109.081665	13159.0
110.074005	4220.0
111.058823	9775.0
112.045242	4034.0
113.042664	5722.0
114.047829	4352.0
115.070793	3006.0
116.047073	3385.0
117.057083	1440.0
119.070076	5610.0
120.079849	5025.0
121.072487	18189.0
122.080582	28986.0
123.055511	67664.0
124.055794	6339.0
125.032433	13828.0
126.07856	3112.0
127.067543	4151.0
128.056747	9988.0
129.094513	9899.0
130.065109	5447.0
131.061096	3085.0
133.066788	12466.0
134.066879	2172.0
135.079056	7370.0
136.066238	10347.0
136.933929	5253.0
137.06749	29144.0
138.066498	5467.0
139.043488	21343.0
140.052872	3508.0
141.055084	4066.0
142.039993	4625.0
142.964035	7818.0
143.092651	1947.0
144.04744	2868.0
145.075333	3049.0
146.058136	2252.0
147.053513	7851.0
148.077164	2576.0
149.080261	8023.0
150.070801	2400.0
151.079926	9003.0
152.072128	3720.0
153.055115	11881.0
154.064774	3708.0
155.065002	9274.0
156.085175	1928.0
157.09137	3193.0
158.106918	1754.0
158.937317	4609.0
159.09404	4272.0
160.046967	11688.0
161.080566	7075.0
162.038635	6128.0
163.085052	14343.0
164.079651	5832.0
164.933472	7970.0
165.065933	16720.0
166.068176	4428.0
167.065552	9391.0
168.065414	3053.0
169.06636	8684.0
170.047226	2787.0
171.088364	4200.0
172.082764	1909.0
173.083282	7573.0
174.068878	6718.0
174.908051	5829.0
175.082001	7465.0
176.074371	2813.0
176.915649	1542.0
177.085709	16808.0
178.085175	3788.0
179.084396	24386.0
180.073929	5578.0
180.908432	5693.0
181.080154	28433.0
182.061478	7839.0
183.074371	13776.0
184.077194	2800.0
185.058273	5051.0
186.1035	2175.0
186.918213	1401.0
187.084595	4953.0
188.047119	1226.0
189.082611	5468.0
190.084137	1953.0
191.080811	13727.0
192.079819	3954.0
192.953339	1638.0
193.085068	22840.0
194.093155	4763.0
194.980469	1202.0
195.088989	21768.0
196.090073	4163.0
196.900787	5395.0
197.085632	42300.0
198.076324	6315.0
198.908737	1136.0
199.080704	6017.0
200.006058	2465.0
200.145737	1347.0
200.969666	1543.0
201.105682	4547.0
202.062637	1574.0
203.0952	8495.0
204.098236	2098.0
205.092072	10919.0
206.087051	3315.0
207.093475	17960.0
208.091309	3644.0
209.086273	32984.0
210.092438	4959.0
211.092239	14155.0
211.974777	15769.0
212.117676	2077.0
212.868515	3073.0
213.067856	9503.0
213.973709	10604.0
214.115601	1379.0
214.961258	1517.0
215.088272	6419.0
215.991699	2432.0
216.128235	1391.0
216.966858	2120.0
217.103699	7018.0
218.103912	2011.0
219.106644	10186.0
220.100433	3206.0
220.945175	1572.0
221.110138	18344.0
222.107422	3232.0
223.098038	24629.0
224.104385	3967.0
225.093887	16507.0
226.123428	3541.0
227.069443	6624.0
228.124268	2089.0
229.095795	3835.0
230.117752	1797.0
231.092453	6387.0
232.0849	2508.0
232.891174	1073.0
233.098923	15443.0
234.113434	2874.0
235.012421	1354.0
235.118057	20455.0
236.123901	3508.0
237.118286	24203.0
238.116318	4273.0
238.901077	2713.0
239.106964	15413.0
240.08223	3875.0
240.222107	5018.0
241.094009	7203.0
242.018555	1482.0
242.150742	2092.0
243.118271	4481.0
244.120071	2050.0
245.102921	5496.0
246.118454	1780.0
246.963577	1337.0
247.117554	7489.0
248.120407	1953.0
249.121307	16123.0
250.118835	3297.0
250.991409	1069.0
251.117767	24375.0
252.125641	4825.0
253.120712	18809.0
253.98909	2050.0
254.142395	4362.0
254.870773	1522.0
255.126801	12610.0
256.008728	2122.0
256.134979	1659.0
256.93454	1341.0
257.102997	3868.0
258.031677	3055.0
258.987762	1087.0
259.121277	3578.0
260.103058	1802.0
260.884888	1281.0
261.015625	1122.0
261.134521	10894.0
262.140686	2831.0
262.936798	1077.0
263.131165	12957.0
264.131561	3175.0
265.127075	15586.0
266.131897	2941.0
266.93161	2007.0
267.12677	20768.0
268.121887	4540.0
268.269409	2198.0
269.133514	13160.0
270.126465	2037.0
270.251007	1277.0
270.998108	1511.0
271.100555	3876.0
271.220795	12731.0
272.037598	1429.0
272.211914	3080.0
273.020508	1473.0
273.137268	4186.0
274.137573	1701.0
274.988922	1158.0
275.141846	8221.0
276.146484	2489.0
277.001678	1110.0
277.143982	15942.0
278.135834	3505.0
278.903412	1121.0
279.144531	15025.0
280.148407	3488.0
281.128052	12928.0
282.143341	2494.0
283.133575	11517.0
284.119446	2582.0
284.339325	3405.0
284.931946	1187.0
285.118683	5576.0
286.119385	1785.0
287.008057	1377.0
287.143127	4289.0
288.151855	1781.0
288.870728	1136.0
289.136444	8200.0
290.116486	2335.0
291.143982	11419.0
292.145477	2475.0
292.995117	1359.0
293.155487	15910.0
293.985504	1039.0
294.16037	3486.0
295.008392	1293.0
295.151428	14810.0
295.972717	1557.0
296.151917	3749.0
297.131805	7859.0
298.129822	2351.0
298.342072	1275.0
298.844391	1202.0
298.990021	1020.0
299.139648	5376.0
300.15741	1527.0
300.887238	1433.0
301.12854	3944.0
302.128876	2148.0
303.161682	6251.0
304.180267	1959.0
305.168304	12105.0
306.167297	3076.0
307.160828	13779.0
308.140411	4606.0
309.160126	15799.0
309.999542	1060.0
310.175079	4262.0
311.002411	2004.0
311.159607	11728.0
312.073242	3611.0
312.197815	1507.0
313.013977	2811.0
313.163116	5504.0
314.032867	1118.0
314.169128	2040.0
314.986694	2063.0
315.178772	4132.0
315.999725	1122.0
316.848389	1334.0
317.035004	1435.0
317.19342	7266.0
318.181213	2082.0
318.900024	1117.0
319.043152	1359.0
319.190033	10034.0
320.163605	2455.0
320.887665	1398.0
321.164764	13802.0
322.168213	2662.0
322.865997	1018.0
323.159668	11606.0
324.156769	2238.0
325.164734	11800.0
326.167389	2309.0
327.15097	7894.0
328.028992	1263.0
328.165344	1575.0
328.91214	1483.0
329.178436	4489.0
329.846832	1017.0
330.083771	6469.0
331.066864	1918.0
331.192963	7257.0
332.058624	2865.0
332.19928	1561.0
333.004822	2357.0
333.197845	11938.0
334.076416	1649.0
334.217712	2233.0
334.993713	1515.0
335.191071	11792.0
336.199402	2839.0
336.973114	1109.0
337.172058	9696.0
338.181793	2828.0
339.160614	7431.0
340.186157	2250.0
341.173462	5921.0
342.153229	1561.0
343.17926	5787.0
344.160645	1599.0
345.204285	6459.0
346.05542	16559.0
346.211578	1504.0
347.047668	2578.0
347.202057	10129.0
348.064819	2239.0
348.227875	2880.0
349.194824	14857.0
350.030334	1142.0
350.20108	4245.0
350.999786	1513.0
351.182465	10982.0
352.076385	2289.0
352.216431	1626.0
353.185181	8112.0
354.189789	1521.0
355.168304	4613.0
355.288818	1272.0
356.220001	1554.0
357.136108	2263.0
357.237579	4723.0
358.232025	2479.0
359.216675	7779.0
360.219177	1942.0
361.216553	10424.0
362.240479	3886.0
363.205444	10775.0
364.205322	3457.0
365.168243	17552.0
366.187988	3418.0
367.188049	8001.0
368.032471	4550.0
368.200653	1798.0
369.035522	1400.0
369.190155	5167.0
371.153564	2230.0
371.262848	8743.0
372.236603	2596.0
373.121246	1180.0
373.228943	6459.0
374.048767	7797.0
374.22113	2018.0
375.070618	1901.0
375.227539	10157.0
376.225677	3203.0
377.117981	1250.0
377.23114	11207.0
378.226562	3220.0
379.213776	10094.0
380.218018	2722.0
381.11673	6746.0
381.227966	5664.0
382.198181	2109.0
383.211334	4635.0
384.013092	2650.0
384.196838	1099.0
385.021851	1015.0
385.157532	1453.0
385.274231	4537.0
386.207581	2132.0
387.236145	7248.0
388.232483	2710.0
389.149445	3994.0
389.25708	10306.0
390.019562	4948.0
390.258392	3742.0
391.064148	3234.0
391.240143	14837.0
392.026367	1137.0
392.245575	3988.0
393.225433	14799.0
394.228973	3995.0
395.122223	1379.0
395.226959	8102.0
396.18988	1870.0
397.2164	5567.0
398.23996	2060.0
399.240265	5282.0
400.233978	1837.0
401.156982	1383.0
401.285675	23855.0
402.107635	1210.0
402.290771	5118.0
403.144348	1149.0
403.266174	11453.0
404.257263	3786.0
405.141907	1644.0
405.256714	15121.0
405.994965	4031.0
406.250031	4191.0
407.236969	12497.0
407.997864	1400.0
408.249115	3285.0
408.983856	1146.0
409.177856	87351.0
409.327545	2479.0
410.177521	21390.0
410.292511	1004.0
411.20401	9124.0
412.245544	2579.0
413.221405	4336.0
414.219452	1753.0
415.245758	7400.0
416.246521	2462.0
417.249573	9619.0
418.252014	3109.0
418.789246	1140.0
419.255554	17159.0
420.263977	4484.0
421.244659	19113.0
421.973969	1852.0
422.25	4013.0
423.238525	12037.0
424.240326	3552.0
425.222015	10125.0
426.20578	3186.0
426.994934	1022.0
427.226013	5502.0
428.238312	1868.0
429.238647	5065.0
430.243134	1826.0
431.249054	9678.0
432.256226	2686.0
433.241943	16141.0
434.26297	4049.0
435.241699	15420.0
436.246002	4256.0
436.779999	1410.0
437.24588	40113.0
438.246246	7837.0
439.237152	12461.0
440.23642	2883.0
441.237671	6753.0
442.240601	1811.0
443.236969	3879.0
444.235687	1337.0
445.194397	2181.0
445.30719	11201.0
446.313812	3246.0
447.170349	1497.0
447.275787	11249.0
448.26178	3455.0
449.239746	11583.0
450.241882	3744.0
451.238281	14141.0
452.241425	3526.0
453.233154	14375.0
454.255219	4450.0
454.786499	1108.0
455.242065	6795.0
456.23468	2017.0
457.237488	5139.0
458.249695	1481.0
459.239136	4860.0
460.246246	1465.0
461.256134	6262.0
462.247528	2190.0
463.250458	8266.0
464.246796	3008.0
465.239319	10637.0
466.250854	3031.0
467.236969	9510.0
468.241333	2911.0
469.229034	6809.0
470.253845	3439.0
471.239349	4459.0
END IONS

BEGIN IONS
PEPMASS=332.223
CHARGE=1
MSLEVEL=2
SOURCE_INSTRUMENT=LC-ESI-qTof
FILENAME=DMIM_centroided_library_abundance_filtered.mgf
SEQ=*..*
IONMODE=Positive
ORGANISM=DMIM-DRUG-METABOLITE-LIBRARY
NAME=IPRATROPIUM [M]+
PI=Libin Xu
DATACOLLECTOR=Dylan H. Ross
SMILES=CC(C)[N+]1([C@@H]2CC[C@H]1CC(C2)OC(=O)C(CO)C3=CC=CC=C3)C
INCHI=N/A
INCHIAUX=N/A
PUBMED=N/A
SUBMITUSER=jzemlin
LIBRARYQUALITY=3
SPECTRUMID=CCMSLIB00012466639
USI=mzspec:GNPS:DMIM-DRUG-METABOLITE-LIBRARY:accession:CCMSLIB00012466639
SCANS=1617
55.047932	2546.0
56.050278	1497.0
57.043781	2055.0
58.064865	1471.0
59.01894	1369.0
67.056389	14145.0
68.052963	2698.0
69.062706	4560.0
70.066551	8835.0
71.057457	1591.0
72.083405	17323.0
73.070068	1472.0
74.095703	6054.0
76.024185	2583.0
77.041496	17057.0
78.043587	1036.0
79.054649	5406.0
80.047523	2267.0
81.060852	6717.0
82.067497	11825.0
83.068687	9181.0
84.059227	16220.0
85.026474	5090.0
86.089966	4876.0
87.040443	2244.0
88.06057	1715.0
89.056458	2887.0
91.057373	38388.0
92.061256	2071.0
93.072792	156782.0
94.073456	12147.0
95.082695	27396.0
96.083382	83357.0
97.043282	38403.0
98.061348	5236.0
99.038536	7029.0
100.083992	1454.0
101.056946	1985.0
102.060448	1070.0
103.052864	10887.0
104.058311	2100.0
105.060829	5716.0
106.077835	1499.0
107.07267	6850.0
108.066887	2201.0
109.081055	13749.0
110.078445	4834.0
111.049858	10307.0
112.042595	4924.0
113.037865	7726.0
114.04557	2258.0
115.06855	2809.0
116.040321	3672.0
117.048225	2112.0
118.034477	1066.0
118.9347	1539.0
119.059349	6408.0
120.070808	4455.0
120.961021	2300.0
121.066566	32816.0
122.07476	7183.0
123.05687	50045.0
124.1157	401772.0
124.243813	5204.0
124.414513	2694.0
124.977577	5536.0
125.108772	46152.0
126.08828	5880.0
127.060516	3983.0
128.059021	1508.0
129.097092	7608.0
130.05867	7394.0
131.065308	3961.0
132.058502	1205.0
133.054123	8024.0
134.064728	2543.0
135.065948	7961.0
136.066788	9256.0
136.933975	11154.0
137.068298	19268.0
138.105484	6717.0
139.042313	19607.0
140.10498	14503.0
140.963669	1355.0
141.08548	3640.0
142.058441	19907.0
142.973602	6290.0
143.097763	2374.0
144.04274	3403.0
145.080475	3395.0
146.059235	1151.0
147.066345	7419.0
148.063171	2334.0
149.070663	7222.0
150.061432	1895.0
151.068695	8598.0
152.134399	15473.0
153.066299	13748.0
154.08432	10088.0
155.060974	7944.0
156.064896	2303.0
157.083374	3520.0
158.068863	1362.0
158.932999	2534.0
159.091858	4350.0
160.039566	6786.0
161.081177	5649.0
162.048553	3469.0
163.079575	12147.0
164.078766	3969.0
164.94931	8691.0
165.073807	10633.0
166.045135	3318.0
166.164261	363240.0
166.321045	7383.0
166.503326	3483.0
167.037018	6079.0
167.161041	51547.0
168.036072	1686.0
168.156036	3995.0
169.06041	6402.0
170.044113	3267.0
171.07991	8509.0
172.084137	1834.0
173.0	1623.0
173.103561	5095.0
174.087616	1465.0
174.913879	5632.0
175.083527	6707.0
176.064285	2769.0
176.921509	1103.0
177.081696	10762.0
178.085022	2748.0
178.96167	1152.0
179.086197	15956.0
180.064148	5228.0
180.909882	5966.0
181.077957	16122.0
182.085953	3272.0
183.066284	12606.0
184.116791	5684.0
185.061142	4442.0
185.166061	1080.0
186.114853	2323.0
186.937897	1309.0
187.092194	4067.0
188.065369	2618.0
189.067963	5270.0
190.073196	1943.0
191.073074	10412.0
192.069199	3206.0
192.952271	2496.0
193.081436	19846.0
194.078781	3515.0
195.082947	11739.0
196.08812	2540.0
196.896149	5625.0
197.08577	26550.0
198.09166	3367.0
198.897079	1708.0
199.065536	6004.0
200.092346	3265.0
200.941101	23241.0
201.104126	3097.0
202.070908	1814.0
202.921906	1187.0
203.08992	6531.0
204.07634	1791.0
205.087646	7904.0
206.080139	2378.0
207.095856	12003.0
208.096909	2019.0
209.084595	26434.0
210.086288	4486.0
211.089218	8786.0
212.109177	2380.0
212.863251	2388.0
212.996262	1002.0
213.097565	5435.0
214.154251	2032.0
214.868942	1046.0
215.03685	6141.0
215.152771	1115.0
216.095306	1744.0
216.927734	10182.0
217.092331	5805.0
218.955673	1114.0
219.100418	6268.0
220.085678	2378.0
220.934296	1726.0
221.105728	10629.0
222.090317	2842.0
222.928848	2469.0
223.095459	18908.0
224.09877	2997.0
225.087357	9790.0
226.119537	2748.0
227.073303	6709.0
228.096985	2813.0
229.105743	3943.0
230.092361	1730.0
230.946518	1616.0
231.10054	5120.0
232.106812	1362.0
232.882431	3870.0
233.100525	9609.0
234.113159	2200.0
234.995087	3320.0
235.115311	10649.0
236.12001	2495.0
236.981689	1036.0
237.113144	14755.0
238.105713	3128.0
238.934677	1634.0
239.095367	9953.0
240.060699	3081.0
240.215836	2771.0
241.102554	3804.0
242.061005	1364.0
242.222061	1855.0
243.013214	1156.0
243.120956	2909.0
244.016495	1087.0
244.141113	1233.0
245.085953	5758.0
246.089813	1094.0
246.944702	1670.0
247.114288	5216.0
248.139603	1826.0
248.928864	1202.0
249.092346	15861.0
250.10318	2518.0
251.113617	16520.0
252.117004	3901.0
253.120193	11045.0
254.135376	2284.0
254.85788	1585.0
255.121231	7458.0
256.125061	1924.0
257.002502	2992.0
257.140411	2332.0
258.014343	8012.0
259.005005	1474.0
259.129059	4203.0
260.167603	4933.0
260.878754	1763.0
261.019043	1194.0
261.142181	8126.0
262.140106	2040.0
263.13089	7096.0
264.135986	1848.0
264.944275	1519.0
265.128387	9444.0
266.107758	2163.0
267.118622	12684.0
268.12384	2772.0
269.132568	6911.0
270.135498	1256.0
270.316193	1053.0
270.991089	1130.0
271.12149	3310.0
272.145203	1773.0
272.998871	1262.0
273.142883	3883.0
274.008087	1218.0
274.152222	1149.0
275.153015	6223.0
276.13382	1798.0
277.145996	10236.0
278.140198	2231.0
278.898773	1019.0
279.139618	9343.0
280.139801	2299.0
281.127075	6418.0
282.151642	1637.0
282.870697	1635.0
283.125122	5707.0
284.105072	1475.0
285.131256	2781.0
286.056091	2368.0
287.133606	3971.0
288.160431	2136.0
288.882233	1437.0
289.148865	7033.0
289.989227	1100.0
290.183502	160545.0
290.353088	1722.0
291.180634	37152.0
292.187408	4673.0
293.152954	10673.0
294.15744	2473.0
295.150696	7775.0
296.171692	1561.0
296.958588	1189.0
297.136963	3669.0
298.147095	1312.0
298.856049	2399.0
298.965973	1482.0
299.149902	2993.0
300.874664	1109.0
301.145721	3531.0
302.053101	1400.0
302.205994	2815.0
303.164032	6288.0
304.162689	2098.0
305.167358	9319.0
306.154083	2154.0
307.159943	11329.0
308.142303	3517.0
309.161194	7175.0
310.172211	1399.0
311.162628	4525.0
312.075287	1355.0
312.203583	1202.0
312.920898	1086.0
313.0383	1120.0
313.18573	3024.0
314.993378	1414.0
315.182007	2737.0
316.17392	1159.0
316.850311	1056.0
317.18457	6571.0
318.179138	2096.0
319.183319	10687.0
320.190704	2183.0
321.168732	9911.0
322.178101	2238.0
323.183502	8082.0
324.201324	1653.0
325.16687	4365.0
327.095184	7334.0
327.236328	1750.0
328.085083	2332.0
328.895447	1547.0
329.037231	2729.0
329.17804	3272.0
330.085114	2284.0
331.190247	6290.0
332.060638	2279.0
332.2323	305671.0
332.43631	10474.0
332.577393	4941.0
332.716583	5145.0
333.098022	1388.0
333.231689	91958.0
333.539581	2339.0
333.684357	5752.0
333.830505	2716.0
334.186737	1980.0
END IONS

BEGIN IONS
PEPMASS=371.161
CHARGE=1
MSLEVEL=2
SOURCE_INSTRUMENT=LC-ESI-qTof
FILENAME=DMIM_centroided_library_abundance_filtered.mgf
SEQ=*..*
IONMODE=Positive
ORGANISM=DMIM-DRUG-METABOLITE-LIBRARY
NAME=THIORIDAZINE [M+H]+
PI=Libin Xu
DATACOLLECTOR=Dylan H. Ross
SMILES=CN1C(CCN2C(C=C3SC)=C(C=C3)SC4=CC=CC=C24)CCCC1
INCHI=N/A
INCHIAUX=N/A
PUBMED=N/A
SUBMITUSER=jzemlin
LIBRARYQUALITY=3
SPECTRUMID=CCMSLIB00012466865
USI=mzspec:GNPS:DMIM-DRUG-METABOLITE-LIBRARY:accession:CCMSLIB00012466865
SCANS=1843
55.053574	3049.0
56.054958	1362.0
57.065464	1344.0
58.06818	20285.0
59.054276	1465.0
62.983559	1052.0
67.053902	3071.0
68.055634	1028.0
69.063484	2944.0
70.067871	18116.0
71.057526	1667.0
72.082436	2768.0
76.02681	2280.0
77.037819	1760.0
79.043365	2062.0
80.038216	1375.0
81.06356	6024.0
82.058685	1138.0
83.068565	4240.0
84.075317	16212.0
85.038979	3597.0
86.096611	6168.0
87.049942	2698.0
88.063965	1864.0
89.06015	4124.0
91.056076	5319.0
93.06852	3771.0
94.066711	1168.0
95.076851	13238.0
96.074646	4761.0
97.053993	10684.0
98.101334	650897.0
98.226494	1921.0
98.356827	3584.0
98.967468	2686.0
99.099472	39000.0
100.09243	2139.0
101.06472	2376.0
102.057823	1471.0
103.040695	1835.0
104.069969	1808.0
105.072166	32853.0
106.077065	3100.0
107.076614	5694.0
108.06356	2066.0
109.083023	10690.0
110.081154	6638.0
111.068047	9945.0
112.002769	1169.0
112.106857	8977.0
113.052055	5530.0
115.07415	2825.0
116.038551	3397.0
117.046104	1465.0
118.938332	1238.0
119.069839	5716.0
120.078377	4471.0
121.074364	17204.0
122.075356	6785.0
123.057053	54021.0
124.092247	13824.0
125.046654	13633.0
126.13279	543631.0
126.264557	7207.0
126.433876	4018.0
126.99855	2118.0
127.132408	50333.0
128.125885	2095.0
129.09964	9048.0
130.069321	5215.0
131.067108	2534.0
132.076736	1061.0
133.061783	6991.0
134.064957	2426.0
135.078491	7217.0
136.068192	17917.0
136.93512	7895.0
137.069214	22594.0
138.073776	4475.0
139.043121	19050.0
140.065765	2894.0
141.063309	3106.0
142.072449	9803.0
142.967087	5712.0
143.107544	2791.0
144.049667	2846.0
145.072174	3307.0
147.067795	5026.0
148.063126	1374.0
149.072128	7027.0
150.064423	2225.0
151.078842	7098.0
152.072861	3461.0
153.056015	11548.0
154.086685	10931.0
155.068237	7914.0
156.06955	2129.0
157.083771	3760.0
158.090103	1814.0
158.937744	3603.0
159.09758	4492.0
160.047012	5438.0
161.08284	4760.0
162.041733	5289.0
163.084564	12101.0
164.077377	4539.0
164.948746	9880.0
165.075287	11118.0
166.072693	3580.0
167.071075	9573.0
168.056961	2722.0
169.062759	7075.0
170.060532	1842.0
171.084122	4242.0
172.07576	1334.0
173.075684	7181.0
174.072983	2063.0
174.914154	4904.0
175.084518	5280.0
176.117691	1454.0
176.937469	1098.0
177.084656	11551.0
178.086533	2828.0
179.086029	21968.0
180.067993	5936.0
180.912567	5139.0
181.081558	19131.0
182.076813	3077.0
183.072052	12639.0
184.072586	2530.0
185.064789	5030.0
186.090057	1879.0
186.944412	1439.0
187.094299	4602.0
188.085083	1792.0
189.073654	5503.0
190.067184	1726.0
191.083206	11002.0
192.082413	3365.0
192.95697	2373.0
193.086136	20717.0
194.079651	3716.0
195.089706	15238.0
196.093582	3104.0
196.898834	6020.0
197.086655	32575.0
198.074753	5991.0
198.894897	1580.0
199.065186	7896.0
199.996994	1992.0
200.115601	2671.0
200.962021	3612.0
201.107132	4425.0
202.087494	1293.0
203.088287	8414.0
204.100647	2122.0
205.090607	8850.0
206.080261	2833.0
207.093826	13088.0
208.1008	3239.0
209.088104	28325.0
210.070541	6705.0
211.065857	24852.0
212.067413	8224.0
212.873032	2911.0
213.077942	7454.0
214.058228	2071.0
214.898224	1136.0
215.064911	6149.0
216.113632	1213.0
216.934433	8573.0
217.109024	4853.0
218.085815	1450.0
218.955276	1137.0
219.107574	8091.0
220.089417	2455.0
220.953827	1474.0
221.108093	12665.0
222.108093	2555.0
222.930054	1086.0
223.096207	18898.0
224.09581	4042.0
225.085953	15141.0
226.080475	30816.0
227.074738	11707.0
228.083923	4220.0
229.071701	5451.0
230.046112	2265.0
230.954514	1220.0
231.09201	6315.0
232.087021	1760.0
232.925583	2716.0
233.1035	11130.0
234.104767	2984.0
234.996689	1432.0
235.118271	12757.0
236.097931	3731.0
236.993469	1084.0
237.11525	15676.0
238.089752	4317.0
238.916443	2784.0
239.102814	12367.0
240.084579	3049.0
240.218948	2303.0
241.093399	5309.0
242.067444	3118.0
242.234741	1094.0
243.032959	12279.0
243.151688	1550.0
244.035172	40577.0
244.172607	1044.0
245.045792	35634.0
245.183884	1113.0
246.041748	7678.0
247.065506	6410.0
247.168182	2204.0
248.109955	2131.0
248.940598	1451.0
249.119278	12721.0
250.115799	3236.0
250.994873	1039.0
251.117538	18125.0
252.118546	3628.0
253.122818	13729.0
254.138855	3114.0
254.870804	2189.0
255.126266	10598.0
256.076111	2369.0
256.939087	1603.0
257.110443	4154.0
258.049744	89523.0
259.046722	28034.0
260.045624	15649.0
260.877777	1354.0
261.021515	4279.0
261.131104	9770.0
262.05188	7505.0
262.173431	1165.0
263.018005	1899.0
263.137085	9241.0
264.128571	2686.0
265.124847	11764.0
266.11554	2252.0
267.12558	15883.0
268.111786	4747.0
269.005585	1328.0
269.13446	10702.0
270.137848	1949.0
270.998352	1435.0
271.114471	5122.0
272.071533	1704.0
273.138062	4256.0
274.050201	6966.0
274.992035	1004.0
275.131714	7702.0
276.129089	2373.0
277.149109	11339.0
278.137268	2722.0
279.143524	11481.0
280.151062	2453.0
281.132172	9548.0
282.133209	2451.0
282.871307	1413.0
283.12912	8899.0
284.072052	3607.0
284.329315	1477.0
285.123474	4974.0
286.067352	2507.0
286.987183	1442.0
287.138702	3834.0
288.057556	1397.0
288.982117	1740.0
289.151459	6801.0
290.0578	2368.0
290.185883	1326.0
291.158936	9975.0
292.141327	3181.0
293.150879	13481.0
294.154266	3292.0
295.152252	10779.0
296.138428	2575.0
297.13974	4091.0
298.143372	1647.0
298.855469	1883.0
298.975861	1484.0
299.145416	3448.0
300.8638	1117.0
301.080811	5032.0
301.196106	1441.0
302.052368	3018.0
303.170502	5593.0
304.15448	1851.0
305.174164	9803.0
306.196686	2375.0
307.165802	10667.0
308.159119	2780.0
309.164795	8295.0
310.146088	2690.0
311.158661	5944.0
312.071869	2904.0
312.936279	1112.0
313.151672	3664.0
314.813202	1022.0
314.985565	1363.0
315.176788	3424.0
316.003235	1157.0
316.860962	1201.0
317.046234	1188.0
317.192444	5856.0
318.177216	1900.0
319.066101	1037.0
319.189117	9614.0
320.19516	2485.0
320.910187	1255.0
321.167236	8937.0
322.178894	2370.0
323.170258	10776.0
324.171143	6556.0
325.161713	6975.0
326.173615	1756.0
327.105133	8652.0
327.250397	2774.0
328.070282	2623.0
328.908569	1060.0
329.041595	1032.0
329.176147	3772.0
330.079712	3564.0
331.188446	6906.0
332.062103	2611.0
332.216675	1592.0
333.186646	9544.0
334.047119	1482.0
334.197815	2225.0
335.035065	1314.0
335.187805	11054.0
336.207855	3066.0
337.175995	7636.0
338.197571	2135.0
339.183807	5464.0
340.152832	2769.0
341.164734	3493.0
342.190369	1166.0
343.201172	3822.0
345.188385	5797.0
346.054169	9121.0
346.207977	1716.0
347.045898	2859.0
347.202362	10094.0
348.048523	1035.0
348.21167	2820.0
349.199799	13356.0
350.029816	1065.0
350.204437	3415.0
351.202057	8648.0
352.069153	2095.0
352.2052	1473.0
353.186279	4976.0
354.171112	2124.0
355.211182	3970.0
356.147003	4192.0
357.136292	2652.0
357.257507	8658.0
358.25769	1902.0
359.212799	5177.0
360.230042	1912.0
361.226562	11505.0
362.038818	1325.0
362.240295	3263.0
363.219299	11903.0
364.211731	2391.0
365.183014	15224.0
366.19339	3135.0
366.993683	1020.0
367.202606	6920.0
368.038727	4405.0
368.213928	1680.0
369.048859	1113.0
369.203705	4379.0
370.171173	3568.0
371.176361	51976.0
371.307434	1374.0
372.157837	28192.0
373.141846	4076.0
END IONS

BEGIN IONS
PEPMASS=304.155
CHARGE=1
MSLEVEL=2
SOURCE_INSTRUMENT=LC-ESI-qTof
FILENAME=DMIM_centroided_library_abundance_filtered.mgf
SEQ=*..*
IONMODE=Positive
ORGANISM=DMIM-DRUG-METABOLITE-LIBRARY
NAME=FENOTEROL [M+H]+
PI=Libin Xu
DATACOLLECTOR=Dylan H. Ross
SMILES=CC(Cc1ccc(cc1)O)NCC(c2cc(cc(c2)O)O)O
INCHI=N/A
INCHIAUX=N/A
PUBMED=N/A
SUBMITUSER=jzemlin
LIBRARYQUALITY=3
SPECTRUMID=CCMSLIB00012466907
USI=mzspec:GNPS:DMIM-DRUG-METABOLITE-LIBRARY:accession:CCMSLIB00012466907
SCANS=1885
55.049019	2176.0
56.048153	3068.0
57.035496	1858.0
58.999355	19794.0
67.05201	2614.0
69.051361	3430.0
70.064537	4268.0
71.047798	1278.0
72.083618	1407.0
73.044205	2037.0
76.025391	122547.0
77.038162	13782.0
78.023422	5554.0
79.052299	6380.0
80.048149	6582.0
81.06308	5925.0
82.063286	1178.0
83.053131	4462.0
84.049042	128849.0
85.033272	10146.0
86.083305	4257.0
87.005257	6066.0
88.027229	4976.0
89.043304	2835.0
91.055244	5653.0
93.06871	5100.0
95.059608	11835.0
96.056053	2143.0
97.035843	35559.0
98.026314	4236.0
99.011703	5099.0
100.067581	1268.0
101.057312	1705.0
102.057617	3660.0
103.024788	1784.0
105.060066	5214.0
106.064331	1280.0
107.054306	438297.0
107.177917	5706.0
107.328346	3009.0
108.057281	31545.0
109.074249	14044.0
110.064568	5958.0
111.047821	8309.0
112.024849	7317.0
113.028603	6758.0
114.04213	5158.0
115.058601	4530.0
116.022278	37879.0
117.04464	4049.0
118.030075	2790.0
118.93058	1222.0
119.056038	8460.0
120.057785	8056.0
121.0485	18411.0
122.0644	3997.0
123.056831	34525.0
124.048271	5336.0
124.941132	1618.0
125.048386	15310.0
126.049713	2326.0
127.040039	3807.0
128.038742	1869.0
129.092636	7821.0
130.055496	28665.0
131.064667	4237.0
132.037643	1293.0
133.056534	7903.0
134.081131	3132.0
135.083939	121107.0
136.082443	16510.0
136.954788	12027.0
137.07782	14729.0
138.068604	3080.0
139.036392	16886.0
140.033737	1973.0
141.051453	6086.0
142.036926	43964.0
143.021927	11052.0
144.024704	15909.0
145.058044	6140.0
146.052643	3083.0
147.072784	7072.0
148.073059	2311.0
149.069504	7717.0
150.064102	2744.0
151.066299	8800.0
152.070663	30599.0
153.06308	17379.0
154.060745	3446.0
155.06102	5938.0
156.077652	2115.0
157.058533	4048.0
158.079102	2238.0
158.942047	1911.0
159.093002	4606.0
160.04393	8484.0
161.065292	7236.0
162.040085	32678.0
163.07019	11153.0
164.075455	27149.0
164.956329	8896.0
165.077896	11112.0
166.059235	4050.0
167.05365	6876.0
168.051895	4450.0
169.055817	6246.0
170.042023	6173.0
171.082993	9360.0
172.07814	2182.0
173.064377	6825.0
174.059982	2836.0
174.909149	7664.0
175.086105	7465.0
176.054245	2364.0
176.919632	1389.0
177.068878	8403.0
178.082016	2388.0
179.064285	14059.0
180.06781	6395.0
180.910568	8585.0
181.077591	14597.0
182.07666	3151.0
183.071045	10117.0
184.066376	3128.0
185.058884	7742.0
186.059631	1911.0
186.919571	1471.0
187.075546	8434.0
188.053238	2660.0
189.050323	5233.0
190.094681	1273.0
191.073624	9185.0
192.057297	2766.0
192.952301	1702.0
193.08017	12752.0
194.083054	2583.0
195.0811	7070.0
196.058182	3793.0
196.889435	9315.0
197.087814	18902.0
198.082108	2900.0
198.889969	1796.0
199.061371	5209.0
199.999115	1838.0
200.124954	1025.0
200.94751	19654.0
201.099915	3065.0
202.068848	2267.0
202.902954	1478.0
203.066406	22347.0
204.066025	2700.0
205.087799	6899.0
206.014435	4487.0
207.085724	6901.0
208.08522	1955.0
208.930817	1112.0
209.083023	18862.0
210.089737	3156.0
211.092285	7642.0
212.090866	1269.0
212.862244	5775.0
213.070847	5635.0
214.058105	1463.0
214.865967	1807.0
215.042374	10850.0
216.050751	3292.0
217.015671	5171.0
217.131683	2133.0
218.101089	1727.0
218.919052	1555.0
219.102783	5993.0
220.099945	1671.0
220.938644	1753.0
221.10611	7754.0
222.092529	2414.0
222.94136	1795.0
223.088089	12138.0
224.077377	2672.0
225.088089	6397.0
226.115707	2751.0
227.065994	6248.0
228.098938	4433.0
229.08873	4395.0
230.110321	1180.0
231.093826	3507.0
232.102615	1337.0
232.894836	1075.0
233.084366	10703.0
234.116531	1932.0
234.996826	2364.0
235.121155	7033.0
236.107361	2175.0
237.104111	8502.0
238.114716	2106.0
238.930618	2003.0
239.092712	5895.0
240.041504	1870.0
240.209473	1452.0
241.010727	2277.0
241.13829	1604.0
242.047699	1212.0
243.063568	2268.0
244.086029	1580.0
245.083176	5219.0
246.108124	1457.0
247.12648	4118.0
248.142227	1506.0
249.097702	12367.0
250.116455	2239.0
251.08609	14676.0
252.096405	3028.0
253.113235	6659.0
254.139023	1878.0
255.113205	4451.0
256.040771	1741.0
256.937622	1761.0
257.093719	2178.0
258.015045	8611.0
259.006256	1256.0
259.138763	2558.0
260.87616	1296.0
261.136353	6374.0
262.109344	1977.0
263.13797	5658.0
264.132019	1384.0
264.985931	1077.0
265.135681	6771.0
266.127686	1837.0
267.112732	5851.0
268.134705	1595.0
269.134003	3597.0
270.152588	1160.0
271.053375	1712.0
271.174255	1050.0
273.02359	1847.0
273.134247	3146.0
274.007294	1404.0
275.145355	6732.0
276.137634	1092.0
276.859772	1183.0
277.147247	8200.0
278.036377	1686.0
278.172638	1020.0
279.146301	6859.0
280.146149	1715.0
281.13147	4580.0
282.123718	1510.0
282.859558	1328.0
283.148041	2775.0
285.071533	5126.0
286.071503	2224.0
287.140259	2371.0
288.873566	1218.0
289.148071	4673.0
290.117676	1320.0
291.150543	7764.0
292.145386	2254.0
293.152588	7687.0
294.171295	1787.0
295.160797	6229.0
296.165833	1613.0
297.1492	2165.0
298.152161	1547.0
298.85907	1282.0
299.153778	1848.0
301.077789	2620.0
303.154541	4817.0
304.152771	1324.0
304.847687	1185.0
305.164978	7233.0
END IONS

BEGIN IONS
PEPMASS=95.0609
CHARGE=1
MSLEVEL=2
SOURCE_INSTRUMENT=LC-ESI-qTof
FILENAME=DMIM_centroided_library_abundance_filtered.mgf
SEQ=*..*
IONMODE=Positive
ORGANISM=DMIM-DRUG-METABOLITE-LIBRARY
NAME=FAMPRIDINE [M+H]+
PI=Libin Xu
DATACOLLECTOR=Dylan H. Ross
SMILES=C1=CN=CC=C1N
INCHI=N/A
INCHIAUX=N/A
PUBMED=N/A
SUBMITUSER=jzemlin
LIBRARYQUALITY=3
SPECTRUMID=CCMSLIB00012466978
USI=mzspec:GNPS:DMIM-DRUG-METABOLITE-LIBRARY:accession:CCMSLIB00012466978
SCANS=1956
49.972622	1268.0
50.993027	5606.0
51.165997	2188.0
51.636421	1414.0
52.787025	1091.0
53.312237	1430.0
53.878948	1727.0
54.032127	1570.0
54.29459	3432.0
54.760605	2293.0
54.930504	1725.0
55.464153	1650.0
55.735641	1030.0
55.917645	2162.0
56.228851	1694.0
56.395905	1249.0
56.729916	1621.0
56.910172	1848.0
57.46043	1001.0
57.883446	1106.0
58.182571	1959.0
58.61829	1149.0
58.911583	2213.0
59.326176	1334.0
59.983006	1710.0
60.179665	3618.0
60.553074	1509.0
61.737865	1262.0
61.891144	2658.0
62.329041	1271.0
62.574966	1676.0
62.800377	2039.0
63.05809	1056.0
64.051064	3019.0
64.308304	1650.0
65.043861	2072.0
65.287094	1609.0
65.732689	1878.0
66.825539	1425.0
67.089172	3835.0
68.138138	1115.0
69.077652	1704.0
69.473175	1339.0
69.815331	2809.0
70.101433	2022.0
70.492462	1712.0
70.714722	3183.0
71.025368	1352.0
71.216927	1361.0
72.762688	6646.0
73.80674	2560.0
73.994301	5381.0
74.152603	1544.0
74.474487	2165.0
75.259491	2676.0
75.781036	2610.0
76.095657	1086.0
76.514275	4037.0
76.678902	2690.0
76.856667	3205.0
77.030182	1927.0
77.145164	1334.0
77.411613	1318.0
77.798965	1928.0
77.915001	1571.0
78.076668	9606.0
78.254097	8992.0
78.464249	4612.0
78.619431	3536.0
78.810593	7959.0
79.069107	4304.0
79.238892	1260.0
79.410721	2012.0
79.5569	2583.0
79.780891	2718.0
79.912735	1072.0
80.061363	5534.0
80.252724	3342.0
80.40535	1088.0
80.529709	2442.0
80.695816	2085.0
80.863647	18025.0
81.060562	22022.0
81.183495	9974.0
81.311974	12397.0
81.430565	8608.0
81.596046	7479.0
81.744034	1642.0
81.893883	2453.0
82.093094	2669.0
82.244072	1256.0
82.447472	2668.0
82.612167	6608.0
82.76622	1812.0
82.973259	2991.0
83.160309	1175.0
83.311195	3651.0
83.490616	3987.0
83.712685	4239.0
83.904442	5296.0
84.08654	5920.0
84.244591	2965.0
84.364197	9267.0
84.577538	3400.0
84.76622	4201.0
84.918037	1356.0
85.180153	3848.0
85.310791	2097.0
85.501862	2972.0
85.616165	1488.0
85.917511	5556.0
86.108849	1746.0
86.929634	1914.0
87.075058	2819.0
87.255844	2835.0
87.489517	3445.0
87.747795	1417.0
88.014023	2899.0
88.640869	1040.0
89.000275	1228.0
89.174995	1657.0
89.427628	2310.0
89.818359	1891.0
89.992226	1006.0
90.212677	1543.0
90.388847	1562.0
90.579597	2231.0
90.862328	1130.0
91.06308	2673.0
91.213852	1285.0
91.494675	6416.0
91.771751	1643.0
91.930649	2604.0
92.098045	1069.0
92.592392	1831.0
92.8293	1862.0
93.01651	1059.0
93.130791	2300.0
93.436081	1066.0
93.708328	2599.0
94.184631	1499.0
94.368065	1215.0
94.991249	2593.0
95.169289	1470.0
95.36097	1296.0
95.682533	1127.0
95.897552	1825.0
96.743416	1122.0
96.952805	2230.0
END IONS

BEGIN IONS
PEPMASS=394.122
CHARGE=1
MSLEVEL=2
SOURCE_INSTRUMENT=LC-ESI-qTof
FILENAME=DMIM_centroided_library_abundance_filtered.mgf
SEQ=*..*
IONMODE=Positive
ORGANISM=DMIM-DRUG-METABOLITE-LIBRARY
NAME=AMSACRINE [M+H]+
PI=Libin Xu
DATACOLLECTOR=Dylan H. Ross
SMILES=COC1=C(C=CC(=C1)NS(=O)(=O)C)NC2=C3C=CC=CC3=NC4=CC=CC=C42
INCHI=N/A
INCHIAUX=N/A
PUBMED=N/A
SUBMITUSER=jzemlin
LIBRARYQUALITY=3
SPECTRUMID=CCMSLIB00012467211
USI=mzspec:GNPS:DMIM-DRUG-METABOLITE-LIBRARY:accession:CCMSLIB00012467211
SCANS=2189
49.985458	1469.0
50.152134	5188.0
50.295883	3579.0
50.423973	2338.0
50.576439	5690.0
50.71825	2231.0
50.845055	3208.0
50.985611	5445.0
51.125938	1135.0
51.24482	3354.0
51.423359	4074.0
51.56395	2071.0
51.696335	5617.0
51.918793	5442.0
52.052334	1385.0
52.157536	3010.0
52.316452	5464.0
52.493179	3913.0
52.663181	4259.0
52.855145	4035.0
53.036896	7206.0
53.190071	2693.0
53.30209	1717.0
53.412304	2849.0
53.583591	4612.0
53.744331	3449.0
53.898914	3909.0
54.050781	3128.0
54.173347	3195.0
54.348019	4589.0
54.631386	4465.0
54.863354	3757.0
55.051399	17029.0
55.253624	4515.0
55.449669	4704.0
55.635487	4499.0
55.769947	1518.0
55.879845	3628.0
56.05463	16136.0
56.292511	4324.0
56.454872	2395.0
56.598824	4078.0
56.789307	5003.0
56.927715	3009.0
57.069332	13180.0
57.272541	5182.0
57.555431	4090.0
57.659706	1031.0
57.769184	5042.0
57.914387	2300.0
58.06797	102628.0
58.220543	3113.0
58.363731	3868.0
58.517864	2521.0
58.659523	4412.0
58.829872	3157.0
59.016201	18462.0
59.197895	4134.0
59.348228	2101.0
59.453453	3038.0
59.623306	4962.0
59.771767	2523.0
59.904869	1608.0
60.052532	9531.0
60.265018	5073.0
60.399158	1106.0
60.539429	4780.0
60.708527	3234.0
60.852448	2917.0
61.017574	5203.0
61.242699	5075.0
61.413109	3336.0
61.565681	3918.0
61.796009	3862.0
61.979015	3528.0
62.115086	1447.0
62.26963	3235.0
62.40136	1216.0
62.580959	4158.0
62.716728	1941.0
62.819756	3004.0
62.973881	6434.0
63.112839	1426.0
63.250988	4595.0
63.429146	3973.0
63.558865	1706.0
63.743565	4055.0
63.935631	3027.0
64.112679	4035.0
64.297157	3880.0
64.563484	4183.0
64.691162	1181.0
64.817291	2976.0
64.986458	12092.0
65.177109	4505.0
65.304977	1677.0
65.458939	4094.0
65.610611	3049.0
65.737312	1682.0
65.889503	3854.0
66.039818	3725.0
66.237282	5275.0
66.380379	1902.0
66.518028	2515.0
66.694595	4144.0
66.835411	2329.0
67.059738	16000.0
67.233612	3341.0
67.405983	3985.0
67.642044	4735.0
67.876671	3406.0
68.047104	9493.0
68.210243	1986.0
68.370712	3861.0
68.501968	1305.0
68.635338	4279.0
68.763641	1376.0
68.90033	3169.0
69.060249	21036.0
69.247162	3219.0
69.365074	1304.0
69.496056	3889.0
69.641434	1566.0
69.775436	4674.0
69.928856	1423.0
70.060219	217872.0
70.208122	1436.0
70.334038	4337.0
70.547691	4419.0
70.732132	4280.0
70.899353	2574.0
71.065697	18573.0
71.268318	5164.0
71.548065	4429.0
71.739182	3616.0
71.923439	2396.0
72.082703	65193.0
72.278801	3811.0
72.472794	3484.0
72.626846	2049.0
72.773376	4394.0
72.934853	1926.0
73.071602	11537.0
73.255287	2217.0
73.386871	2699.0
73.569504	2790.0
73.805252	4658.0
73.938339	1228.0
74.050148	15863.0
74.351524	4033.0
74.511635	1962.0
74.674767	4290.0
74.856071	2157.0
75.011002	5114.0
75.265099	4348.0
75.454117	4099.0
75.674866	3849.0
75.844635	1895.0
76.026649	71921.0
76.248405	4917.0
76.458298	4351.0
76.590408	1399.0
76.733742	4487.0
76.890923	2386.0
77.035988	14612.0
77.235771	4453.0
77.461693	4542.0
77.717644	4249.0
77.875694	1990.0
78.036667	9278.0
78.166145	2614.0
78.296661	5519.0
78.47213	4334.0
78.628487	4951.0
78.819672	3141.0
78.93325	1320.0
79.052345	18960.0
79.215813	1803.0
79.358162	3690.0
79.599434	3445.0
79.759758	1646.0
79.878189	4547.0
80.049034	14679.0
80.203781	2508.0
80.307343	2033.0
80.457573	3324.0
80.631981	3681.0
80.800499	3443.0
80.928352	7537.0
81.06189	33415.0
81.257858	4535.0
81.417435	5962.0
81.655388	5418.0
81.797844	1503.0
81.900497	2968.0
82.058067	10398.0
82.221405	2131.0
82.356644	2190.0
82.489151	2661.0
82.651588	4342.0
82.798058	1588.0
82.904358	3385.0
83.061264	17390.0
83.2715	2783.0
83.503647	5112.0
83.659752	1226.0
83.810745	3174.0
84.060364	190893.0
84.185921	2261.0
84.319794	1646.0
84.431335	3007.0
84.58535	3754.0
84.750137	2052.0
84.8974	2832.0
85.0429	27510.0
85.272568	3865.0
85.442207	2464.0
85.624603	2784.0
85.815536	3571.0
85.949142	2877.0
86.096291	109535.0
86.33609	3518.0
86.52816	3165.0
86.745209	3590.0
86.862236	1352.0
86.976631	5002.0
87.082359	13358.0
87.261383	1741.0
87.412384	2824.0
87.66716	2676.0
87.843185	2999.0
88.027893	17754.0
88.153175	1208.0
88.292374	2568.0
88.434158	1341.0
88.565582	1396.0
88.727737	2876.0
88.906548	1766.0
89.05645	9081.0
89.233315	2395.0
89.414009	2502.0
89.556534	1564.0
89.727631	2203.0
89.904327	3713.0
90.041641	2700.0
90.293678	1882.0
90.53125	1638.0
90.68689	2907.0
90.862221	3111.0
91.03643	20905.0
91.269173	3206.0
91.435715	2617.0
91.578979	2192.0
91.746437	3888.0
91.895988	1444.0
92.051903	16246.0
92.21595	1888.0
92.377151	3248.0
92.620193	2908.0
92.903275	2513.0
93.072624	17083.0
93.256279	1945.0
93.42215	2821.0
93.67131	3885.0
93.79203	1207.0
93.909195	2386.0
94.066994	5922.0
94.250237	1676.0
94.379623	3118.0
94.689285	2818.0
94.821136	1269.0
94.959747	3406.0
95.081741	38201.0
95.229935	1116.0
95.363983	3659.0
95.619263	4496.0
95.815094	3882.0
96.068604	10194.0
96.279778	2757.0
96.472786	2516.0
96.654068	1961.0
96.787476	1029.0
96.911682	4261.0
97.036736	84593.0
97.210686	2782.0
97.427277	2530.0
97.610344	1371.0
97.779129	2980.0
97.926826	1389.0
98.052063	14999.0
98.241875	2351.0
98.387444	1748.0
98.547775	2630.0
98.727737	2934.0
98.900635	2317.0
99.025642	53288.0
99.214691	1926.0
99.319176	1179.0
99.45105	2933.0
99.605438	1392.0
99.745728	1192.0
99.901657	1709.0
100.074211	18381.0
100.331276	2310.0
100.580574	3085.0
100.743729	1552.0
100.905533	3459.0
101.072617	18260.0
101.227776	2300.0
101.47435	1904.0
101.649956	2869.0
101.889122	2618.0
102.055145	13762.0
102.243004	2756.0
102.414436	1550.0
102.572357	1301.0
102.711876	2282.0
102.897034	2703.0
103.052292	15627.0
103.248466	3828.0
103.393959	1073.0
103.521294	2099.0
103.732239	3227.0
103.874542	1288.0
104.094604	11349.0
104.378441	3124.0
104.562263	1856.0
104.746597	1479.0
104.90464	2302.0
105.072708	327742.0
105.214973	1179.0
105.368065	2663.0
105.503418	1128.0
105.633369	3206.0
105.788712	1859.0
105.927475	1396.0
106.074455	41092.0
106.285332	1844.0
106.43499	2975.0
106.691452	3274.0
106.928772	3036.0
107.081673	20543.0
107.361969	2629.0
107.559959	1675.0
107.701469	2476.0
107.883041	1948.0
108.051392	64397.0
108.2155	2256.0
108.342926	2184.0
108.537804	2595.0
108.714394	2095.0
108.89579	2904.0
109.081291	71727.0
109.215508	1164.0
109.357277	2477.0
109.521683	1130.0
109.636185	1358.0
109.752556	1408.0
109.886131	3068.0
110.074715	58865.0
110.243675	2624.0
110.375679	1041.0
110.513077	2849.0
110.721344	2627.0
110.964546	3391.0
111.071396	23006.0
111.383118	3672.0
111.603493	1934.0
111.788559	1428.0
111.949341	2475.0
112.092636	23544.0
112.426414	1731.0
112.604347	2556.0
112.7556	1456.0
112.906563	25074.0
113.063019	14016.0
113.211365	1032.0
113.397568	2248.0
113.657059	2010.0
113.802948	1191.0
113.917862	1993.0
114.05217	14850.0
114.341362	3125.0
114.613014	2095.0
114.898544	13410.0
115.077522	12807.0
115.250092	1847.0
115.371513	1846.0
115.562836	1584.0
115.685814	1195.0
115.835976	1348.0
116.035988	53968.0
116.188919	1577.0
116.379356	1757.0
116.568092	1937.0
116.747505	1739.0
116.897232	3213.0
117.060555	20856.0
117.331505	1467.0
117.512825	2093.0
117.712219	1918.0
117.919502	2278.0
118.04483	7964.0
118.266571	2110.0
118.49086	2711.0
118.737015	1274.0
118.920029	7348.0
119.056038	33299.0
119.333725	1971.0
119.659012	1562.0
119.904976	1266.0
120.07402	66247.0
120.271835	2314.0
120.442093	1419.0
120.663712	2349.0
120.819389	1037.0
120.950409	3895.0
121.062981	38900.0
121.302818	1146.0
121.542061	1788.0
121.684341	1057.0
121.919632	1646.0
122.061234	14645.0
122.3144	2501.0
122.600212	1591.0
122.759819	1655.0
122.923904	5585.0
123.064789	83606.0
123.222794	1663.0
123.358452	1877.0
123.513809	1585.0
123.718918	1227.0
123.900314	2481.0
124.061279	19971.0
124.23394	1700.0
124.359764	1322.0
124.514717	1938.0
124.772209	1703.0
125.012215	59338.0
125.118324	6590.0
125.397232	2081.0
125.57737	1216.0
125.757935	1760.0
125.982819	4424.0
126.10556	22940.0
126.316879	1578.0
126.547493	1742.0
126.74308	2036.0
126.927986	1426.0
127.052315	23780.0
127.250534	4121.0
127.534721	1529.0
127.719009	2430.0
127.897644	1320.0
128.07518	31016.0
128.321899	1507.0
128.537521	2033.0
128.671921	1189.0
128.809662	1443.0
128.966599	2900.0
129.101959	148662.0
129.275482	1927.0
129.435791	1046.0
129.604858	1228.0
129.774841	1625.0
130.061325	117821.0
130.27301	1359.0
130.418335	2182.0
130.660797	1868.0
130.903534	1526.0
131.069611	27363.0
131.255859	1540.0
131.401794	1030.0
131.543045	1279.0
131.73262	2019.0
132.05011	14823.0
132.316177	1638.0
132.584167	1331.0
132.975677	6962.0
133.080399	22521.0
133.258316	1423.0
133.404709	1101.0
133.51741	1774.0
133.621002	1424.0
133.772705	1341.0
133.953369	1342.0
134.082733	10528.0
134.3535	1727.0
134.503723	1438.0
134.664886	1880.0
134.8367	1556.0
134.985718	5629.0
135.090485	23635.0
135.425201	1370.0
135.587769	1791.0
135.91922	1303.0
136.06723	346009.0
136.225845	1522.0
136.429657	2943.0
136.670486	1449.0
136.936554	81903.0
137.0737	255039.0
137.335236	2242.0
137.497406	1277.0
137.745193	1847.0
137.923523	1438.0
138.077316	31251.0
138.333115	1682.0
138.590729	1290.0
138.776505	2954.0
138.936218	2247.0
139.060593	34097.0
139.208786	1213.0
139.378891	1067.0
139.674255	1460.0
139.932251	4085.0
140.066025	15150.0
140.245743	1500.0
140.638474	1027.0
140.948013	6195.0
141.078903	27558.0
141.34642	1805.0
141.716766	1588.0
142.042236	84395.0
142.343369	1986.0
142.511917	1591.0
142.714584	1278.0
142.964127	68642.0
143.106445	34299.0
143.815079	1420.0
144.03186	34732.0
144.145874	1830.0
144.270859	1802.0
144.44371	1862.0
144.605637	1177.0
144.78978	1066.0
144.926346	1861.0
145.066193	500083.0
145.201553	4516.0
145.380066	3746.0
145.584076	1505.0
145.794647	1729.0
146.064713	45902.0
146.206894	1081.0
146.674591	1444.0
146.985855	11643.0
147.094543	37422.0
147.464218	1253.0
147.618988	1051.0
147.798386	1497.0
148.061584	14375.0
148.32399	1193.0
148.546402	1871.0
148.814178	1041.0
148.940109	1895.0
149.071228	28788.0
149.483566	1055.0
149.942139	1097.0
150.065674	14328.0
150.262756	1772.0
150.490982	1529.0
150.90947	1862.0
151.057739	26415.0
151.166855	2281.0
151.340591	1338.0
151.732376	1801.0
151.915405	3067.0
152.072403	59692.0
152.441742	1392.0
152.711517	1146.0
152.904785	2819.0
153.066467	47677.0
153.399307	1700.0
153.580215	1608.0
153.915421	1264.0
154.062042	17794.0
154.298859	1402.0
154.567169	1729.0
154.774307	1893.0
155.004791	14799.0
155.113831	163948.0
155.254044	1322.0
155.387772	1310.0
155.842499	1398.0
155.985489	2852.0
156.099884	38061.0
156.445679	1954.0
156.919006	7682.0
157.102615	34640.0
157.447586	1543.0
157.914352	2052.0
158.079346	20110.0
158.250977	1445.0
158.450012	1082.0
158.932373	70770.0
159.093414	53114.0
159.249054	1016.0
159.420227	1717.0
159.586243	1564.0
159.745895	3074.0
160.057404	17835.0
160.243073	1029.0
160.423798	1076.0
160.769501	1086.0
160.935577	7916.0
161.082626	28431.0
161.327774	1721.0
162.028625	108811.0
162.148438	2438.0
162.357224	1539.0
162.571808	1024.0
162.812622	1271.0
162.95459	3778.0
163.069839	37946.0
163.400345	1327.0
163.844391	1965.0
164.062241	19132.0
164.34082	1077.0
164.781784	1513.0
164.936951	181665.0
165.078674	32659.0
165.207962	1694.0
165.403244	1192.0
165.746063	1135.0
165.955322	1599.0
166.074524	19425.0
166.365555	1915.0
166.527649	1139.0
166.952377	6425.0
167.073013	37137.0
167.667892	1420.0
167.902069	1872.0
168.063065	40440.0
168.506744	1208.0
168.935135	2534.0
169.092224	108302.0
169.30452	2379.0
169.562805	1704.0
170.057922	58014.0
170.213165	1623.0
170.414154	1879.0
170.754578	1378.0
170.954025	1438.0
171.089066	83518.0
171.306	1473.0
171.672485	2355.0
171.939682	1159.0
172.078903	22776.0
172.301971	1836.0
172.742172	1955.0
172.99086	21682.0
173.111877	55227.0
173.49147	1395.0
173.842514	1776.0
174.059509	30000.0
174.67511	1967.0
174.90303	754847.0
175.086533	46313.0
175.287231	1616.0
175.561356	1616.0
175.722534	3883.0
175.910446	5370.0
176.080078	15253.0
176.339706	1260.0
176.521072	1037.0
176.701096	3249.0
176.908234	124546.0
177.064117	68331.0
177.179321	2408.0
177.385254	1829.0
177.541641	1519.0
177.7742	1053.0
177.918976	1633.0
178.072556	32504.0
178.280655	2528.0
178.458679	1036.0
178.655457	1838.0
178.913101	10885.0
179.079239	2465490.0
179.232239	57012.0
179.400558	49010.0
179.604034	1930.0
179.751129	1787.0
179.936768	3467.0
180.084549	665248.0
180.2453	24886.0
180.360352	2636.0
180.502716	1905.0
180.648956	2446.0
180.911728	196371.0
181.08577	150486.0
181.225006	3762.0
181.549194	1489.0
181.713181	1985.0
181.9328	4535.0
182.080505	24954.0
182.354614	1236.0
182.745667	1250.0
182.942001	24963.0
183.115341	206736.0
183.263916	1220.0
183.530609	1290.0
183.725006	1697.0
183.909317	2293.0
184.087601	71100.0
184.245773	1627.0
184.558838	2358.0
184.725754	1089.0
184.869278	1065.0
185.091766	78876.0
185.492996	1279.0
185.690445	2046.0
185.850922	1178.0
186.097885	37553.0
186.918335	24992.0
187.087357	73605.0
187.337585	1223.0
187.534317	1144.0
188.06221	25021.0
188.172073	2618.0
188.580276	1292.0
188.89798	1507.0
189.046127	52356.0
189.148911	6666.0
189.348434	1561.0
189.597763	1396.0
189.953873	1542.0
190.063309	14533.0
190.915756	9540.0
191.066132	44168.0
191.185364	2576.0
191.425232	1250.0
191.908783	1429.0
192.077347	16440.0
192.406616	1730.0
192.650574	1284.0
192.963165	28830.0
193.090805	132213.0
193.952393	2366.0
194.085175	52176.0
194.314453	1349.0
194.751709	2170.0
194.961548	7723.0
195.079971	124633.0
195.296158	1375.0
195.593277	1260.0
195.772964	1353.0
195.947662	2194.0
196.071945	43821.0
196.197998	1027.0
196.894058	339013.0
197.003769	6103.0
197.119751	118175.0
197.401337	1475.0
197.74556	1244.0
197.874207	1343.0
197.985611	4676.0
198.116531	24457.0
198.557129	2296.0
198.754883	1187.0
198.888229	54275.0
199.070267	95083.0
199.193817	5427.0
199.528046	1173.0
199.738052	1841.0
199.973892	5821.0
200.1082	36731.0
200.959732	47856.0
201.102615	70049.0
201.601196	1029.0
201.782822	1020.0
201.939713	1577.0
202.088165	24649.0
202.283295	1227.0
202.692184	1748.0
202.894806	15689.0
203.074982	53668.0
203.202667	3281.0
203.488876	1182.0
203.95163	1593.0
204.087051	20363.0
204.446213	1102.0
204.919083	8316.0
205.08313	42739.0
205.210159	1404.0
205.404922	2062.0
206.05249	30722.0
206.8311	1409.0
206.959122	3572.0
207.08577	48178.0
207.620926	1497.0
207.926895	1607.0
208.076904	23891.0
208.207382	1025.0
208.655777	1165.0
208.955414	6438.0
209.088242	68086.0
209.241348	1167.0
209.643387	1040.0
209.903168	2116.0
210.080322	24326.0
210.456024	1014.0
210.944962	2207.0
211.090515	67864.0
211.217331	2205.0
211.466232	1092.0
211.582214	1035.0
211.772018	1547.0
211.924072	2240.0
212.061218	816831.0
212.211792	13255.0
212.322845	1661.0
212.44339	6925.0
212.638977	2544.0
212.859985	358692.0
213.071457	185274.0
213.187317	9184.0
213.301086	1134.0
213.471054	2068.0
213.757065	1007.0
213.906158	3955.0
214.08255	114225.0
214.382812	1657.0
214.637497	1078.0
214.860367	76979.0
215.079453	61774.0
215.199921	9910.0
215.368896	1100.0
215.689758	1016.0
215.843842	1458.0
215.980072	8158.0
216.09082	34916.0
216.225769	1790.0
216.704987	1693.0
216.921753	42479.0
217.079147	63025.0
217.239487	2292.0
217.426132	1520.0
217.951263	3498.0
218.089127	21515.0
218.65712	1175.0
218.90918	15771.0
219.088013	50354.0
219.940735	2935.0
220.08725	23033.0
220.839752	1734.0
220.948181	13917.0
221.096237	47173.0
221.33046	1603.0
221.932877	1539.0
222.090958	20217.0
222.929413	14905.0
223.089905	59378.0
223.301453	1174.0
223.58194	1562.0
223.976135	2032.0
224.100555	20338.0
224.261917	1211.0
224.675781	2185.0
224.873474	2139.0
224.981796	7905.0
225.12709	348169.0
225.54953	2090.0
225.742142	1071.0
225.988449	3221.0
226.133911	78263.0
226.999435	45543.0
227.127701	36968.0
227.452164	1799.0
227.969559	4578.0
228.118759	38740.0
228.711182	1108.0
228.952423	8392.0
229.115082	41380.0
229.963211	2555.0
230.115524	19005.0
230.659958	1086.0
230.904984	3158.0
231.070663	53926.0
231.188187	3966.0
231.3815	1129.0
231.912506	2158.0
232.092285	60476.0
232.421646	1145.0
232.661819	1212.0
232.905334	12446.0
233.073532	111125.0
233.179657	3862.0
233.671463	1583.0
233.936737	1239.0
234.084625	21632.0
234.199585	1591.0
234.883942	9340.0
235.087784	67254.0
235.972321	2412.0
236.094788	21787.0
236.651459	1518.0
236.859634	1356.0
236.977463	9121.0
237.113007	61155.0
237.512054	1095.0
237.944153	4101.0
238.098175	25517.0
238.641144	1314.0
238.942215	23070.0
239.109711	47717.0
239.311508	1262.0
239.667252	1064.0
239.985657	3321.0
240.107773	25648.0
240.219635	42028.0
240.925278	6015.0
241.089493	56728.0
241.236771	8302.0
241.497559	1193.0
242.025391	4599.0
242.136002	52656.0
242.771088	1088.0
242.928833	9654.0
243.102798	53131.0
243.232635	1299.0
243.966843	2628.0
244.125595	38649.0
244.609573	1082.0
244.900635	9141.0
245.090225	94970.0
245.198166	4551.0
245.975479	2895.0
246.111038	23385.0
246.377991	1010.0
246.957764	9102.0
247.096222	33389.0
247.928802	5088.0
248.10788	15173.0
248.368378	1510.0
248.936066	13644.0
249.104874	43602.0
249.394699	1106.0
249.897995	8456.0
250.111343	21920.0
250.936783	11143.0
251.113983	62206.0
251.847885	1737.0
251.978165	3298.0
252.116867	22131.0
252.290329	1033.0
252.563614	1183.0
252.894547	1710.0
253.010529	15038.0
253.127563	54030.0
253.446014	1082.0
253.901642	1358.0
254.020325	4434.0
254.15712	347668.0
254.323257	2341.0
254.613708	1726.0
254.906998	29541.0
255.120407	154834.0
255.227875	2698.0
255.589661	1438.0
255.748337	1318.0
255.940689	2416.0
256.114105	131145.0
256.281616	1588.0
256.48175	1501.0
256.686554	1305.0
256.834778	2014.0
256.949371	16727.0
257.118774	84953.0
257.249268	2778.0
257.426331	1111.0
257.651306	1610.0
257.963623	3894.0
258.120148	37675.0
258.435455	1433.0
258.674072	1296.0
258.835602	1705.0
258.945435	5008.0
259.101837	34120.0
259.364563	1407.0
259.879974	1029.0
259.982727	2851.0
260.118866	15937.0
260.279175	1616.0
260.872833	13363.0
261.066589	28386.0
261.170074	11580.0
261.42276	1117.0
261.904327	1859.0
262.015472	3385.0
262.142303	33750.0
262.699402	1711.0
262.945312	19077.0
263.13446	59092.0
263.87973	1610.0
264.009399	2813.0
264.130737	18776.0
264.278168	1063.0
264.88797	6068.0
264.989471	1951.0
265.112305	44518.0
265.258026	1115.0
265.517426	1190.0
265.92099	2380.0
266.098633	25030.0
266.218994	2682.0
266.667114	3028.0
266.899017	22987.0
267.006012	1258.0
267.11319	55930.0
267.6492	1048.0
267.920074	2368.0
268.037689	7851.0
268.150787	23138.0
268.880463	1497.0
268.995911	8086.0
269.128143	34573.0
269.318878	1048.0
269.668213	5519.0
269.806305	1047.0
269.953857	4505.0
270.130646	58488.0
270.250763	1250.0
270.892303	17456.0
271.006348	4811.0
271.106842	65078.0
271.231415	203961.0
271.411835	2770.0
271.700439	2205.0
271.861084	1732.0
271.982391	5797.0
272.12796	193083.0
272.244141	32890.0
272.639496	1380.0
272.875671	9370.0
272.990997	3614.0
273.112335	328125.0
273.259705	6563.0
273.385834	1465.0
273.51413	1202.0
273.644653	3370.0
273.838776	1630.0
273.980591	2246.0
274.115265	78114.0
274.292053	1582.0
274.661621	2322.0
274.816711	1284.0
274.953156	7278.0
275.127075	36261.0
275.234283	1706.0
275.642822	1136.0
275.892822	1465.0
276.032257	3341.0
276.151367	15145.0
276.670349	10268.0
276.848206	8627.0
277.002655	12776.0
277.144623	36540.0
277.664856	1284.0
277.89209	2896.0
278.088654	25535.0
278.212463	3476.0
278.470093	1302.0
278.903442	18478.0
279.00412	2402.0
279.118652	50135.0
279.248627	1472.0
279.897766	2243.0
280.033691	4899.0
280.146545	23081.0
280.655121	9342.0
280.838257	3717.0
280.971008	7829.0
281.129333	45752.0
281.299774	1745.0
281.656586	2338.0
281.950958	1716.0
282.052032	8967.0
282.157288	225518.0
282.325409	1108.0
282.54068	1603.0
282.864288	50601.0
282.996582	6378.0
283.126801	109672.0
283.246765	2716.0
283.683746	1701.0
283.862335	1480.0
283.990417	2559.0
284.12561	184401.0
284.294647	2170.0
284.518677	1004.0
284.685974	1315.0
284.892273	27613.0
285.018219	2052.0
285.132202	120411.0
285.257965	1266.0
285.563751	1273.0
285.841736	2343.0
286.004395	2215.0
286.134583	56734.0
286.656403	1957.0
286.872894	9918.0
286.992584	5694.0
287.12738	91718.0
287.266571	2338.0
287.662323	13318.0
287.832092	1005.0
287.967865	4584.0
288.128571	45951.0
288.656677	1209.0
288.876129	30184.0
288.991425	2404.0
289.117218	63551.0
289.23999	1663.0
289.435852	2081.0
289.928772	3878.0
290.108429	24883.0
290.409088	1049.0
290.650635	1049.0
290.920258	7473.0
291.1073	47319.0
291.871948	1707.0
291.984161	3575.0
292.125336	18273.0
292.840576	8468.0
292.991913	4729.0
293.153992	45996.0
293.856842	1797.0
294.020111	5031.0
294.148499	18991.0
294.874084	19295.0
295.015503	5418.0
295.15625	55587.0
295.304565	1001.0
295.87735	2038.0
296.099762	41005.0
296.216644	5842.0
296.614868	2049.0
296.840485	3469.0
296.941132	19589.0
297.138275	33498.0
297.29306	1253.0
297.713928	1501.0
297.898468	2750.0
298.054535	8232.0
298.156738	34264.0
298.65097	1185.0
298.839508	90177.0
298.997589	24535.0
299.151489	88278.0
299.330353	1274.0
299.707275	1761.0
299.85495	1109.0
299.968597	4300.0
300.12326	954411.0
300.298553	13504.0
300.433594	2315.0
300.589355	8387.0
300.871002	68867.0
300.999054	4701.0
301.123291	246466.0
301.258942	3259.0
301.409821	1637.0
301.602142	3345.0
301.926697	4828.0
302.134125	61683.0
302.291779	1533.0
302.526337	1362.0
302.694153	1560.0
302.881256	12090.0
303.017548	4303.0
303.154541	30356.0
303.308319	1654.0
303.489746	1008.0
303.659302	1684.0
303.871246	1163.0
304.025055	3714.0
304.159973	21902.0
304.527374	1036.0
304.844635	47379.0
305.011475	5976.0
305.154907	33351.0
305.961761	3330.0
306.119781	15348.0
306.258606	1126.0
306.882111	24306.0
306.994263	1166.0
307.128052	67258.0
307.252869	2471.0
307.628754	1904.0
307.791656	1182.0
307.928986	1940.0
308.109375	75732.0
308.235504	2563.0
308.41626	1163.0
308.663361	1278.0
308.845795	2770.0
308.999115	9306.0
309.160309	65349.0
309.327667	2226.0
309.492798	2566.0
309.681122	3080.0
309.821198	1358.0
310.019531	12821.0
310.185516	272355.0
310.373077	2258.0
310.523682	1874.0
310.678925	2028.0
310.845764	22393.0
311.035217	9391.0
311.186188	97154.0
311.466461	1955.0
311.670227	1933.0
311.857758	7084.0
312.069031	63913.0
312.194427	26999.0
312.506317	1797.0
312.67923	5071.0
312.877747	21865.0
313.050049	27292.0
313.178925	52944.0
313.332428	1339.0
313.456696	1268.0
313.708252	2529.0
313.878296	2969.0
313.990967	4145.0
314.139282	757193.0
314.308472	14755.0
314.457733	3332.0
314.618225	8031.0
314.813293	78050.0
314.981659	38490.0
315.149261	7084304.0
315.345001	356314.0
315.494446	184162.0
315.621521	155608.0
315.82135	2361.0
315.982086	8955.0
316.150482	2077539.0
316.328308	48559.0
316.443878	96690.0
316.61557	229056.0
316.825409	106928.0
317.000061	19881.0
317.153229	213622.0
317.288483	2935.0
317.420166	2173.0
317.56842	21383.0
317.690277	80177.0
317.82193	56637.0
317.938568	23892.0
318.129547	41856.0
318.308685	1571.0
318.486908	1384.0
318.661346	3345.0
318.817322	15856.0
318.943268	62873.0
319.068573	18083.0
319.180573	66644.0
319.362701	1481.0
319.533569	1155.0
319.696686	8979.0
319.908112	3015.0
320.058167	14294.0
320.197296	38566.0
320.339172	6399.0
320.466339	1697.0
320.82132	75375.0
320.987579	8141.0
321.175934	43983.0
321.323639	6287.0
321.467743	16599.0
321.612701	2881.0
321.734619	1791.0
321.901978	2294.0
322.031616	6145.0
322.160767	14375.0
322.289948	1231.0
322.428253	1134.0
322.5914	10901.0
322.708801	4156.0
322.854431	64908.0
323.016327	9710.0
323.17511	48044.0
323.436401	1036.0
323.690582	6881.0
323.850922	4806.0
323.98349	2709.0
324.149414	19324.0
324.256378	2050.0
324.406464	1102.0
324.675537	2041.0
324.865997	7746.0
325.036102	8844.0
325.178192	45314.0
325.361084	1450.0
325.851593	2654.0
326.019501	4614.0
326.173737	19805.0
326.506805	1143.0
326.946136	7584.0
327.050751	1105.0
327.169861	42568.0
327.335999	1025.0
327.882843	4129.0
328.057098	20566.0
328.19278	13502.0
328.875427	25906.0
329.023804	11350.0
329.166351	22733.0
329.684021	1109.0
329.853607	22441.0
330.086212	260500.0
330.199738	23049.0
330.320862	1002.0
330.760315	32413.0
330.955444	9862.0
331.127686	88055.0
331.272858	2789.0
331.659149	1527.0
331.828308	1207.0
331.932861	2571.0
332.0914	53242.0
332.207275	6489.0
332.658325	1378.0
332.820923	45802.0
332.9729	5974.0
333.140198	41422.0
333.260895	5792.0
334.051025	38868.0
334.186218	11809.0
334.844269	19285.0
335.028625	12072.0
335.17572	31963.0
335.87854	1611.0
336.0289	5397.0
336.169678	15456.0
336.795349	81623.0
336.963715	10675.0
337.081879	3401.0
337.186523	45129.0
337.450623	1083.0
337.697662	2088.0
337.854492	2249.0
338.014282	7813.0
338.181854	23329.0
338.675049	1980.0
338.824707	87776.0
338.973633	5724.0
339.080597	4683.0
339.209808	186482.0
339.350525	1064.0
339.497955	2242.0
339.697479	3409.0
339.890778	2517.0
340.064545	37688.0
340.21228	34327.0
340.4888	1569.0
340.661865	1896.0
340.844788	14379.0
340.945099	1850.0
341.054474	17912.0
341.20636	36270.0
341.671509	1457.0
341.89856	1941.0
342.039093	4398.0
342.186646	21601.0
342.323608	1032.0
342.80246	1340.0
342.916595	4044.0
343.043365	7069.0
343.182098	28475.0
343.678253	1110.0
343.899567	2224.0
344.022858	5190.0
344.171814	26481.0
344.685852	4124.0
344.847412	20546.0
345.022217	5924.0
345.169678	32325.0
345.305481	1266.0
345.474274	1155.0
345.694946	4091.0
345.882446	5351.0
346.05835	1473697.0
346.222626	24106.0
346.4021	1455.0
346.57312	5267.0
346.692383	1315.0
346.854767	6714.0
347.063293	201017.0
347.206451	20489.0
347.330811	1535.0
347.460938	1585.0
347.652374	2378.0
347.88208	3301.0
348.057648	198912.0
348.206299	8026.0
348.397522	1074.0
348.621948	1169.0
348.803772	10062.0
348.96167	5493.0
349.125488	84863.0
349.248749	5677.0
349.693024	2341.0
349.893768	4802.0
350.054169	35493.0
350.193878	12750.0
350.664215	2073.0
350.851501	16391.0
351.038818	11950.0
351.183197	59789.0
351.698792	8665.0
351.865814	4610.0
352.067474	28251.0
352.198761	14337.0
352.770508	41069.0
352.920624	4633.0
353.057068	10774.0
353.197296	29444.0
353.863922	3922.0
354.050568	7038.0
354.1987	12596.0
354.804413	53707.0
354.938141	3968.0
355.108459	22434.0
355.231476	15392.0
355.718384	2527.0
355.855469	1379.0
356.047516	15345.0
356.192566	31575.0
356.812408	14478.0
356.984619	9246.0
357.172333	28428.0
357.859955	1287.0
358.02832	6323.0
358.172852	15579.0
358.324036	1286.0
358.723236	7371.0
358.884644	6834.0
359.047791	7882.0
359.192078	29799.0
359.706512	2024.0
359.904816	2260.0
360.108887	10065.0
360.229767	4927.0
360.656891	1209.0
360.814362	18331.0
360.971619	4669.0
361.081757	9376.0
361.200287	27387.0
361.726166	9170.0
361.912567	1254.0
362.045929	8862.0
362.19632	15826.0
362.796204	7267.0
363.008057	10987.0
363.195221	30268.0
363.745361	1747.0
363.924164	1848.0
364.045929	3472.0
364.189636	17095.0
364.819366	4681.0
364.962128	5927.0
365.122803	204201.0
365.237	14586.0
365.722961	6963.0
365.856049	1260.0
365.980347	8593.0
366.131165	36355.0
366.241547	7664.0
366.679108	1555.0
366.826813	11598.0
366.952911	9383.0
367.104614	11038.0
367.229309	66511.0
367.392548	1914.0
367.782593	5493.0
367.926941	2477.0
368.039032	48975.0
368.227173	22707.0
368.751678	14090.0
368.869965	7842.0
369.05426	21765.0
369.210602	25119.0
369.740631	2298.0
369.899414	3651.0
370.048218	12362.0
370.21994	34830.0
370.795837	21094.0
370.935364	5127.0
371.094666	9469.0
371.211761	26179.0
371.405701	1002.0
371.697968	3156.0
371.862213	1809.0
372.035156	11359.0
372.203217	16417.0
372.729919	18162.0
372.846558	13653.0
373.033569	7709.0
373.194519	38421.0
373.333801	1215.0
373.739166	4641.0
373.89447	2348.0
374.048462	233778.0
374.199066	14564.0
374.686462	1991.0
374.843903	6496.0
375.053955	40794.0
375.215576	38271.0
375.387695	1112.0
375.725769	2031.0
375.896484	2642.0
376.046021	25170.0
376.212219	14563.0
376.785187	17889.0
376.923401	3430.0
377.033325	7710.0
377.201813	32898.0
377.326019	1241.0
377.75769	1188.0
377.937103	2401.0
378.053925	4608.0
378.194031	15711.0
378.789734	10221.0
378.939514	5765.0
379.072205	5823.0
379.199371	32260.0
379.723938	9854.0
379.885895	3521.0
380.067841	4964.0
380.216095	18667.0
380.70816	3825.0
380.854889	10042.0
380.967285	2397.0
381.091644	892371.0
381.226837	157492.0
381.378143	1205.0
381.552429	2163.0
381.704376	2362.0
381.881256	3072.0
381.981445	1088.0
382.096924	127393.0
382.231598	39023.0
382.520233	1065.0
382.652954	1236.0
382.804108	9280.0
382.945831	4451.0
383.098694	100463.0
383.232971	20212.0
383.718353	4140.0
383.845459	1807.0
384.023682	106051.0
384.126648	2576.0
384.230957	34308.0
384.811737	25438.0
385.022614	22031.0
385.220703	28997.0
385.677063	1419.0
385.815613	3757.0
386.019318	22163.0
386.20401	12470.0
386.483337	1197.0
386.721436	26668.0
386.84726	16069.0
387.089355	45722.0
387.224365	30927.0
387.426849	1985.0
387.713165	9653.0
387.84787	1124.0
388.020264	13771.0
388.203186	13845.0
388.463348	1088.0
388.656311	1268.0
388.820221	7819.0
388.973083	4191.0
389.161499	58867.0
389.279419	5679.0
389.672668	1209.0
389.830719	4022.0
390.023621	205656.0
390.20929	26393.0
390.355103	1806.0
390.701874	2849.0
390.816132	19924.0
391.023529	32556.0
391.205658	53838.0
391.323395	2843.0
391.734833	2092.0
391.874603	1781.0
392.018799	33504.0
392.21344	20416.0
392.338837	1797.0
392.771973	12336.0
392.958099	7033.0
393.08783	9187.0
393.214691	37896.0
393.574799	1132.0
393.721741	36338.0
393.87088	2791.0
394.001099	4799.0
394.137085	1248638.0
394.321991	43453.0
394.499359	11110.0
394.68927	29401.0
394.820343	2376.0
394.944	12475.0
395.143097	400266.0
395.282257	14345.0
395.474579	3118.0
395.680573	17695.0
395.868622	6022.0
395.978912	3373.0
396.09021	15386.0
END IONS

BEGIN IONS
PEPMASS=255.135
CHARGE=1
MSLEVEL=2
SOURCE_INSTRUMENT=LC-ESI-qTof
FILENAME=DMIM_centroided_library_abundance_filtered.mgf
SEQ=*..*
IONMODE=Positive
ORGANISM=DMIM-DRUG-METABOLITE-LIBRARY
NAME=MIDODRINE [M+H]+
PI=Libin Xu
DATACOLLECTOR=Dylan H. Ross
SMILES=COC1=CC(=C(C=C1)OC)C(CNC(=O)CN)O
INCHI=N/A
INCHIAUX=N/A
PUBMED=N/A
SUBMITUSER=jzemlin
LIBRARYQUALITY=3
SPECTRUMID=CCMSLIB00012467224
USI=mzspec:GNPS:DMIM-DRUG-METABOLITE-LIBRARY:accession:CCMSLIB00012467224
SCANS=2202
53.030739	1376.0
53.22448	1039.0
53.99614	1405.0
55.046146	3215.0
56.04895	5410.0
57.035782	1569.0
58.064705	2289.0
58.998779	18034.0
60.044262	3105.0
61.00407	2879.0
62.329399	1415.0
62.56987	1556.0
62.987289	2462.0
65.000809	2652.0
67.062515	4215.0
67.524544	1490.0
68.057007	1803.0
69.054642	6794.0
69.38018	1162.0
70.065208	32417.0
70.644547	1662.0
71.038696	2744.0
71.255074	1168.0
72.083603	6807.0
72.240814	1426.0
73.021667	2902.0
74.052315	5136.0
75.015251	1512.0
76.024994	52361.0
76.51503	1303.0
76.753433	1679.0
77.041267	7591.0
77.235924	1849.0
77.561348	1298.0
78.071541	9979.0
78.264992	4539.0
78.441025	4254.0
78.613159	1167.0
78.751762	2887.0
79.032936	8400.0
79.572121	1173.0
79.819046	1776.0
80.047119	9805.0
80.268997	1872.0
80.647522	1370.0
80.864944	6158.0
81.0382	14786.0
81.246437	6594.0
81.447403	5356.0
81.630585	2109.0
82.049728	3955.0
82.479683	1695.0
82.643837	3486.0
82.807152	1451.0
83.048485	7353.0
83.683723	1659.0
83.855812	2095.0
84.060875	111701.0
84.289665	2385.0
84.44986	2344.0
84.660652	2208.0
84.885155	1476.0
85.036705	12815.0
85.25103	1145.0
85.399216	1988.0
85.686363	1354.0
86.089043	13637.0
86.737953	1342.0
87.010406	4650.0
87.112953	1678.0
88.025681	7050.0
88.57811	1196.0
89.009315	2067.0
89.561256	1367.0
90.045593	2363.0
91.04966	17597.0
91.679146	1943.0
92.053596	3079.0
93.06778	5370.0
94.061989	4383.0
94.93161	3958.0
95.06794	7615.0
95.238503	1248.0
96.052505	4700.0
96.917725	1883.0
97.032219	26064.0
98.044052	5641.0
98.994316	9932.0
99.703453	1183.0
100.044022	2201.0
101.057823	1513.0
102.062828	2456.0
102.913208	1451.0
103.060844	4952.0
103.379341	1385.0
104.054794	6589.0
105.061615	16994.0
105.39859	1210.0
105.694748	1033.0
106.06292	7546.0
106.713036	1701.0
106.897255	1358.0
107.074455	6383.0
107.903885	1163.0
108.054665	11021.0
109.060165	6486.0
110.072975	18601.0
111.040825	7728.0
112.08284	6119.0
112.900566	84275.0
113.04528	9469.0
113.668488	1756.0
114.052185	6088.0
114.898621	39319.0
115.074829	7280.0
115.289124	1500.0
116.032227	24321.0
116.894623	3484.0
117.05941	22510.0
118.060387	7729.0
118.925919	44918.0
119.0634	8849.0
120.069481	14918.0
120.93705	2230.0
121.064911	14187.0
122.06369	11591.0
122.92659	6338.0
123.05941	58534.0
123.329414	1055.0
124.056107	10569.0
124.941422	3579.0
125.046089	8149.0
126.042641	3984.0
127.042503	4500.0
128.076675	3734.0
128.982498	3743.0
129.101257	33686.0
130.068039	28006.0
131.057648	6073.0
132.058578	8114.0
133.052216	46832.0
133.623138	1048.0
133.89119	1586.0
134.058914	13146.0
134.916855	2460.0
135.069366	13017.0
135.883987	1204.0
136.066147	106306.0
136.937012	150340.0
137.073288	18334.0
137.939392	1876.0
138.066345	9520.0
138.978363	8039.0
139.084885	5848.0
139.922119	2152.0
140.056549	4122.0
140.943665	7034.0
141.077454	6923.0
142.036377	36769.0
142.975479	15019.0
143.10257	4181.0
144.023651	12799.0
144.908783	1013.0
145.057098	10679.0
146.059418	10235.0
147.079071	11229.0
148.070618	46131.0
149.075592	19392.0
150.062149	20280.0
150.942383	2612.0
151.071991	23460.0
151.922272	5574.0
152.078064	8317.0
152.918594	13381.0
153.065186	7383.0
153.916763	1180.0
154.054413	4016.0
154.930298	2706.0
155.074448	10410.0
155.944717	1428.0
156.071686	5217.0
156.906799	9876.0
157.097977	7102.0
157.937775	1781.0
158.078445	5201.0
158.933533	20254.0
159.091202	9222.0
160.077225	37051.0
160.930771	2753.0
161.075577	21643.0
162.043228	30959.0
162.950256	1541.0
163.063965	9807.0
164.066971	7365.0
164.585251	1098.0
164.935608	134902.0
165.081345	44793.0
165.943817	1425.0
166.072342	10946.0
166.913483	4214.0
167.071747	8704.0
168.032562	6264.0
168.881073	4562.0
169.011688	1672.0
169.112244	8687.0
169.901276	4073.0
170.044693	7348.0
170.950302	3888.0
171.093658	7176.0
171.626007	1170.0
172.098831	3587.0
172.868362	3080.0
173.075653	9114.0
173.609894	1119.0
173.832657	1169.0
174.067169	6004.0
174.654663	1229.0
174.901764	853780.0
175.080658	17210.0
175.249954	1572.0
175.358521	1322.0
175.65239	1520.0
175.912018	2811.0
176.06987	11145.0
176.222702	1262.0
176.902954	136524.0
177.064178	15010.0
177.90686	1217.0
178.071701	7518.0
178.909012	9991.0
179.063629	12032.0
179.945312	3483.0
180.10466	33912.0
180.910263	218924.0
181.087067	13472.0
181.902435	2509.0
182.07431	4437.0
182.486847	1041.0
182.909836	21578.0
183.099655	10288.0
183.929718	2259.0
184.085281	4144.0
184.910172	5074.0
185.090256	10152.0
185.876907	2611.0
186.099442	9722.0
186.917618	157230.0
187.075729	11752.0
187.925018	1477.0
188.055298	3521.0
188.944199	5548.0
189.068939	5220.0
189.863586	2521.0
190.069016	5812.0
190.890854	8232.0
191.060699	8885.0
191.919952	1549.0
192.093277	5986.0
192.927994	4542.0
193.08371	6973.0
194.064926	5346.0
194.909653	4925.0
195.083862	9154.0
195.909485	2018.0
196.077362	6156.0
196.597305	1269.0
196.884995	358425.0
196.999222	1882.0
197.119644	9206.0
197.870773	2694.0
198.048309	5689.0
198.154907	2129.0
198.884109	66587.0
199.074142	8883.0
199.896011	2387.0
200.075897	5730.0
200.505981	1456.0
200.910995	8112.0
201.069687	16884.0
201.883133	2691.0
202.07756	5895.0
202.893143	181335.0
203.067642	8175.0
203.866745	1650.0
204.072784	7020.0
204.895203	26366.0
205.087524	6981.0
205.993774	5600.0
206.129044	1159.0
206.848083	1767.0
207.015396	5691.0
207.120361	2006.0
207.842834	1332.0
207.975616	1712.0
208.099472	4156.0
208.88382	3231.0
209.093979	9020.0
209.423141	1143.0
209.881409	1985.0
210.100204	4091.0
210.932816	3461.0
211.097946	6758.0
211.927368	2073.0
212.111359	4266.0
212.705002	1080.0
212.859344	733583.0
213.035233	8906.0
213.141373	2315.0
213.869781	7775.0
214.080994	13804.0
214.603439	1065.0
214.860062	177385.0
215.012177	4786.0
215.116318	4330.0
215.885849	4250.0
216.085648	4206.0
216.884705	33323.0
217.08815	4598.0
217.869202	2899.0
218.075516	4640.0
218.867722	213230.0
219.007812	3766.0
219.116058	2909.0
219.880295	3207.0
220.064728	3468.0
220.87886	52031.0
221.025406	5648.0
221.127243	1630.0
221.83696	1147.0
221.984787	1276.0
222.11055	4215.0
222.877304	6877.0
223.021301	10786.0
223.158966	2336.0
223.958633	1285.0
224.111557	5414.0
224.835327	3255.0
224.943024	1278.0
225.084824	8114.0
225.84285	1638.0
226.017822	1575.0
226.140945	6020.0
226.885284	5310.0
227.072357	9463.0
227.878128	2792.0
228.129379	1990.0
228.929764	5408.0
229.113235	2688.0
229.875793	5781.0
230.045029	2596.0
230.883148	6356.0
231.059982	6869.0
231.871933	16615.0
232.076935	11226.0
232.890915	19022.0
233.074814	9002.0
233.853943	2540.0
234.087234	2034.0
234.84523	110169.0
235.060913	6003.0
235.196732	1475.0
235.870438	3524.0
236.101456	4666.0
236.845871	28926.0
236.980301	1620.0
237.102737	7474.0
237.8535	2549.0
237.999908	1025.0
238.114929	5350.0
238.883377	9758.0
239.01413	1542.0
239.11998	5651.0
239.968994	1160.0
240.112823	3655.0
240.867157	6394.0
240.988724	1558.0
241.118149	5150.0
241.832489	1849.0
242.116302	3116.0
242.859344	6509.0
243.083832	4974.0
243.863037	1510.0
244.120224	5020.0
244.892731	5794.0
245.074707	7715.0
245.879135	3131.0
246.110703	2505.0
246.87439	10934.0
247.009567	1880.0
247.116699	3865.0
247.880264	2162.0
248.089371	4470.0
248.598709	1583.0
248.903107	11120.0
249.079041	3851.0
249.879654	10596.0
250.097549	6130.0
250.834335	20808.0
251.004379	2542.0
251.122543	5458.0
251.855408	2491.0
251.988251	1042.0
252.120743	3304.0
252.832703	8954.0
252.976883	1548.0
253.129562	5428.0
253.842834	2571.0
254.006546	2662.0
254.144791	5430.0
254.433273	1442.0
254.857803	13206.0
255.072281	6807.0
255.867767	2939.0
256.102264	4673.0
256.885376	4491.0
257.064636	4513.0
END IONS

BEGIN IONS
PEPMASS=411.043
CHARGE=1
MSLEVEL=2
SOURCE_INSTRUMENT=LC-ESI-qTof
FILENAME=DMIM_centroided_library_abundance_filtered.mgf
SEQ=*..*
IONMODE=Positive
ORGANISM=DMIM-DRUG-METABOLITE-LIBRARY
NAME=CEFTIBUTEN [M+H]+
PI=Libin Xu
DATACOLLECTOR=Dylan H. Ross
SMILES=C1C=C(N2[C@H](S1)[C@@H](C2=O)NC(=O)/C(=C\CC(=O)O)/C3=CSC(=N3)N)C(=O)O
INCHI=N/A
INCHIAUX=N/A
PUBMED=N/A
SUBMITUSER=jzemlin
LIBRARYQUALITY=3
SPECTRUMID=CCMSLIB00012467616
USI=mzspec:GNPS:DMIM-DRUG-METABOLITE-LIBRARY:accession:CCMSLIB00012467616
SCANS=2594
50.146896	1284.0
50.315434	1748.0
50.521309	2614.0
50.71801	2950.0
50.88242	1123.0
51.022083	1626.0
51.337963	1636.0
51.491978	1203.0
51.915874	1536.0
52.07476	1172.0
52.32663	1542.0
52.502151	2056.0
52.783661	1792.0
53.042637	2353.0
53.245739	1666.0
53.540348	2191.0
53.686142	1008.0
53.844032	1333.0
54.039032	2803.0
54.201077	1511.0
54.371815	1735.0
54.591454	2005.0
54.84251	1922.0
55.055847	8261.0
55.281052	2126.0
55.509144	1351.0
55.675873	1532.0
55.856918	1244.0
56.056805	8202.0
56.383007	1444.0
56.54855	2201.0
56.815048	1612.0
56.935471	1300.0
57.064354	4858.0
57.256733	1304.0
57.475136	1272.0
57.639477	1540.0
57.842888	1966.0
58.068573	32436.0
58.220787	1029.0
58.471161	2070.0
58.697838	1486.0
59.007645	13950.0
59.14196	1040.0
59.37072	1695.0
59.539852	1209.0
59.700737	1347.0
59.855694	2304.0
60.049873	3795.0
60.243176	2151.0
60.511703	2006.0
60.785763	1930.0
61.017918	4421.0
61.341473	1663.0
61.619484	1984.0
61.76757	1451.0
62.064037	1635.0
62.255226	1075.0
62.432312	1929.0
62.658134	1671.0
62.804623	1553.0
62.990105	2241.0
63.255444	1477.0
63.398396	1116.0
63.678375	2123.0
64.003792	1546.0
64.161606	1331.0
64.315475	1723.0
64.495926	1204.0
64.6884	1805.0
64.98024	7991.0
65.175835	1224.0
65.512039	3177.0
65.729927	1331.0
66.009132	1804.0
66.178947	1182.0
66.335442	1380.0
66.529213	1033.0
66.715675	1339.0
66.887749	1131.0
67.055832	6448.0
67.53878	1938.0
67.906387	1466.0
68.055397	4293.0
68.293068	1487.0
68.463593	1334.0
68.621712	1005.0
68.790909	1918.0
69.058975	10938.0
69.311707	1040.0
69.494423	1668.0
69.630737	1023.0
69.792023	2045.0
70.068069	84019.0
70.324745	1651.0
70.468262	1063.0
70.611183	2063.0
70.785637	1695.0
71.067116	8232.0
71.257294	2057.0
71.56617	1907.0
71.874786	1206.0
72.083916	43527.0
72.26403	1297.0
72.436523	2355.0
72.630997	1305.0
72.814552	1761.0
73.069847	6454.0
73.244507	1020.0
73.398148	1682.0
73.660042	1423.0
73.904015	1442.0
74.059044	7089.0
74.241821	1204.0
74.435196	1453.0
74.624031	1835.0
75.036041	2637.0
75.233368	1299.0
75.469307	2071.0
75.781868	1237.0
76.026321	70926.0
76.293556	1993.0
76.546577	1121.0
76.701584	1939.0
76.868042	1900.0
77.038879	7264.0
77.385406	1854.0
77.604034	2054.0
77.797958	1851.0
78.03154	8158.0
78.270638	1991.0
78.549774	1887.0
78.772301	1683.0
78.917877	1051.0
79.051857	7257.0
79.537834	1695.0
79.722572	1483.0
79.890701	1525.0
80.053917	7977.0
80.306374	1410.0
80.486038	2093.0
80.659836	1711.0
80.819054	1037.0
80.945	4523.0
81.068542	14579.0
81.393944	1963.0
81.570114	1751.0
81.780617	1880.0
82.054306	3633.0
82.28463	1244.0
82.477051	2225.0
82.638702	1222.0
82.90329	1453.0
83.062309	9991.0
83.34169	1181.0
83.543198	1628.0
83.716095	1209.0
83.889763	1198.0
84.061859	162754.0
84.180092	1052.0
84.343361	1554.0
84.511497	1631.0
84.670174	1472.0
85.053078	19003.0
85.341164	1631.0
85.517334	1161.0
85.832695	1387.0
86.097694	71178.0
86.484558	1525.0
86.752136	1514.0
86.984413	3300.0
87.084419	8570.0
87.581215	1534.0
87.772827	1305.0
88.032402	12122.0
88.602982	1090.0
88.79512	1480.0
89.058891	4105.0
89.31839	1457.0
89.546555	1183.0
89.815285	1363.0
90.059647	2130.0
90.26506	1527.0
90.788689	1539.0
91.050705	9158.0
91.216583	1106.0
91.518555	1177.0
91.706268	1537.0
92.045837	2366.0
92.246315	1388.0
92.470726	1236.0
92.774429	1528.0
93.068382	8962.0
93.25042	1104.0
93.548195	1633.0
93.712135	1310.0
93.895859	1384.0
94.067398	4198.0
94.212914	1017.0
94.352531	1112.0
94.529327	1326.0
94.689796	1032.0
94.941711	1977.0
95.077843	16589.0
95.281746	1217.0
95.622841	1196.0
96.054298	5526.0
96.914642	2176.0
97.030487	72313.0
97.377899	1162.0
97.703011	1492.0
98.044441	10214.0
98.387703	1488.0
98.535912	1189.0
99.000465	16640.0
99.13913	2397.0
99.537979	1398.0
99.741585	1639.0
99.894508	1245.0
100.065453	10915.0
100.792427	1130.0
100.929146	1500.0
101.073898	8674.0
101.272697	1310.0
101.784859	1193.0
102.058411	11135.0
102.334747	1380.0
102.870613	1264.0
103.055756	4524.0
103.325081	1038.0
103.591309	1104.0
103.937912	1146.0
104.09362	6583.0
104.303566	1146.0
104.645355	1327.0
104.841644	1304.0
105.074409	134263.0
105.622208	1353.0
105.856689	1245.0
106.073128	19044.0
106.943336	1317.0
107.080139	9266.0
107.817467	1803.0
108.052101	23784.0
108.234604	1107.0
108.430977	1656.0
108.874405	1239.0
109.079224	18443.0
109.613914	1208.0
110.07605	48667.0
110.498657	1351.0
111.054924	16395.0
111.450996	1033.0
112.081909	13696.0
112.617889	1035.0
112.910774	12505.0
113.058113	11175.0
113.381973	1176.0
113.72683	1247.0
113.909874	1090.0
114.05555	12584.0
114.905411	5607.0
115.083145	7548.0
115.523064	1203.0
116.031837	30806.0
116.906799	1571.0
117.055809	7275.0
118.019257	3919.0
118.930687	4197.0
119.065971	14839.0
119.898796	1629.0
120.081238	53910.0
120.960358	3861.0
121.081528	23335.0
121.277672	1126.0
122.068611	9335.0
122.924156	3147.0
123.06414	51755.0
123.24897	1092.0
124.055717	11883.0
124.721321	1154.0
125.000397	27584.0
125.107712	3712.0
126.076752	16153.0
126.422897	1254.0
126.94014	2157.0
127.062943	12645.0
128.076187	10406.0
128.979965	1111.0
129.10318	119196.0
130.06395	100608.0
130.505615	1109.0
131.067856	16837.0
132.071838	11085.0
132.581924	1522.0
133.058548	16852.0
133.519928	1117.0
134.048386	6158.0
134.989258	2390.0
135.09259	9456.0
135.289993	1007.0
136.069916	203853.0
136.958496	61774.0
137.077133	34006.0
138.051468	13323.0
138.722458	1237.0
138.91095	1130.0
139.044525	74237.0
139.366516	1028.0
140.049118	15854.0
140.945145	3447.0
141.068115	25290.0
142.041962	78985.0
142.971741	47371.0
143.10939	20186.0
144.026016	37160.0
144.94519	1458.0
145.07399	19334.0
146.046417	11640.0
146.987564	5510.0
147.093246	21930.0
148.064865	10126.0
148.958862	1829.0
149.085327	14775.0
150.066666	11798.0
150.936172	1051.0
151.071106	17864.0
152.051514	50542.0
152.164886	1085.0
152.902527	1117.0
153.056503	25993.0
153.942139	1120.0
154.068649	8440.0
154.579391	1337.0
155.007751	6472.0
155.108337	62845.0
156.086777	24150.0
156.913147	5047.0
157.101562	23960.0
158.074249	11897.0
158.936371	40654.0
159.100891	34059.0
160.081253	6949.0
160.960083	6582.0
161.095535	13380.0
162.031876	112393.0
162.155991	1016.0
163.058228	31378.0
164.04892	14791.0
164.1492	1535.0
164.941727	120287.0
165.076736	23001.0
166.033554	23129.0
166.157974	4661.0
167.046829	58661.0
167.153961	1320.0
167.306915	1140.0
168.062546	41865.0
169.006149	7271.0
169.108551	37600.0
170.043961	32138.0
170.149124	2319.0
170.995743	4497.0
171.100098	37471.0
171.566132	1395.0
172.07782	15142.0
173.096558	48149.0
174.06955	15749.0
174.905258	564017.0
175.092834	27125.0
175.924698	2145.0
176.091949	7016.0
176.908844	87069.0
177.060349	44164.0
177.175354	1845.0
178.060455	18797.0
178.906296	4141.0
179.061768	120980.0
179.194199	1242.0
180.066437	25039.0
180.915344	117844.0
181.084137	47972.0
182.061508	17475.0
182.93425	12677.0
183.106857	89875.0
183.943604	1070.0
184.086349	29657.0
185.094315	51337.0
186.009415	3580.0
186.119324	21818.0
186.920837	14686.0
187.082443	60192.0
187.186569	1791.0
188.055038	21151.0
188.942398	1273.0
189.073257	26987.0
190.057541	9842.0
190.918854	3907.0
191.075058	34124.0
191.905106	1038.0
192.074738	11794.0
193.024872	90853.0
193.138535	5163.0
194.050705	17628.0
194.939148	2035.0
195.076401	66202.0
196.07103	30089.0
196.900116	235544.0
197.10202	59701.0
197.211823	2443.0
197.948242	2370.0
198.095047	14832.0
198.895386	34724.0
199.089249	43844.0
199.990677	3265.0
200.125504	18147.0
200.915665	6368.0
201.05275	62774.0
201.159775	4435.0
202.091766	13077.0
202.894638	7489.0
203.077438	37756.0
203.209274	3144.0
204.093613	10720.0
204.925491	5358.0
205.084427	26548.0
206.02037	14423.0
206.124985	4566.0
206.983032	3147.0
207.087021	37515.0
208.072205	22207.0
208.955032	4561.0
209.089661	52840.0
210.08728	15101.0
211.050003	42591.0
211.154266	12007.0
211.916336	1657.0
212.097137	19615.0
212.667892	1001.0
212.863312	280274.0
212.993271	3055.0
213.104126	42373.0
213.873749	1888.0
214.095322	24781.0
214.208511	1449.0
214.862808	59987.0
215.080185	37646.0
215.186447	4703.0
215.634933	1198.0
216.084442	25895.0
216.900894	17663.0
217.077591	41410.0
218.09816	12166.0
218.879868	5656.0
219.086212	32098.0
220.096497	11052.0
220.950653	9893.0
221.106796	30295.0
222.078659	18773.0
222.940735	11013.0
223.090683	49324.0
224.070068	17097.0
224.174362	2136.0
224.98526	5353.0
225.12822	107991.0
226.00592	3353.0
226.135437	37670.0
227.003632	30851.0
227.131195	21791.0
227.992477	5704.0
228.141266	19570.0
228.946945	5558.0
229.114105	26120.0
229.974014	1063.0
230.120804	12325.0
230.913956	1169.0
231.071136	39034.0
231.182236	2131.0
231.937256	1388.0
232.091766	26357.0
232.928604	5767.0
233.079346	113460.0
233.192184	2338.0
233.925079	1248.0
234.083099	19723.0
234.888199	5467.0
235.086868	55501.0
236.09314	13672.0
236.831696	1167.0
236.994843	5235.0
237.119415	40733.0
237.996567	3392.0
238.115036	13322.0
238.951782	13324.0
239.116257	26222.0
240.011322	6698.0
240.144928	25117.0
240.255066	3494.0
240.939514	3332.0
241.092911	45908.0
241.22171	2285.0
242.119553	39725.0
242.972137	8755.0
243.120926	24209.0
243.969421	1578.0
244.137451	20943.0
244.907974	6309.0
245.083618	49268.0
245.194366	1915.0
246.090988	13735.0
246.199768	2268.0
246.878723	1487.0
247.001801	6971.0
247.124207	27014.0
247.985977	3228.0
248.13089	12868.0
248.947235	8501.0
249.114441	32482.0
249.893173	1788.0
250.057388	18608.0
250.159424	4167.0
250.828735	1239.0
250.974411	6322.0
251.126938	40825.0
252.004349	2945.0
252.118393	15318.0
252.888672	1747.0
253.014709	7973.0
253.129059	34395.0
253.996429	4194.0
254.159225	98242.0
254.920319	17785.0
255.129944	44048.0
256.024872	4310.0
256.144226	19016.0
256.995758	17983.0
257.154663	19782.0
257.980591	1540.0
258.128113	17808.0
258.926727	3322.0
259.100769	24875.0
259.938232	1696.0
260.115417	9820.0
260.217163	1211.0
260.874634	8835.0
261.02594	7196.0
261.132416	21955.0
262.014984	2866.0
262.135468	14822.0
262.938721	9434.0
263.12439	31325.0
263.99472	2504.0
264.125305	9457.0
264.866119	1873.0
264.98114	3051.0
265.11795	27366.0
266.015533	4909.0
266.143646	13636.0
266.903809	10314.0
267.014343	1279.0
267.118927	39435.0
268.070618	17977.0
268.179016	5973.0
268.981201	5971.0
269.133148	24587.0
269.676025	1218.0
270.001373	3196.0
270.154297	15614.0
270.896576	10517.0
271.082458	19426.0
271.22876	54540.0
272.000824	2106.0
272.106476	6262.0
272.215332	16251.0
272.892609	5543.0
273.079071	19680.0
273.192993	4473.0
273.669952	1291.0
273.966675	1318.0
274.109985	10742.0
274.857849	1227.0
274.993561	3644.0
275.141235	19110.0
275.903992	1007.0
276.031342	2721.0
276.150055	10202.0
276.669037	1702.0
276.858795	6362.0
277.012054	8511.0
277.146698	25599.0
277.92691	1591.0
278.104614	12412.0
278.904419	12048.0
279.041016	5384.0
279.146484	25459.0
280.019806	3862.0
280.158844	14853.0
280.662079	3927.0
280.851593	1005.0
280.979614	6318.0
281.13031	27679.0
282.051727	4254.0
282.185272	34009.0
282.868439	27334.0
283.03656	9369.0
283.165253	21030.0
283.694794	1236.0
284.033112	4182.0
284.140198	18325.0
284.89624	14271.0
285.114319	41748.0
286.018982	4444.0
286.134735	14961.0
286.878693	4255.0
287.008179	3957.0
287.136963	17002.0
287.660217	3518.0
287.93576	1241.0
288.12146	16072.0
288.87973	18975.0
288.997833	1274.0
289.11673	38035.0
289.233093	1036.0
290.033508	4108.0
290.143646	17405.0
290.911713	3511.0
291.125824	42314.0
291.961517	3608.0
292.139618	12715.0
292.839722	6694.0
293.004944	4357.0
293.152527	27186.0
294.026154	2519.0
294.1521	12210.0
294.875336	14225.0
295.035553	3357.0
295.164032	32451.0
295.906403	1154.0
296.106384	15201.0
296.207794	3817.0
296.929565	13458.0
297.143585	20053.0
298.001282	2058.0
298.154694	15057.0
298.842743	61014.0
299.03006	26494.0
299.173065	22310.0
299.873077	1174.0
300.025696	3418.0
300.159882	15348.0
300.657349	1205.0
300.87262	45581.0
301.04306	8625.0
301.16507	15587.0
302.02951	3212.0
302.149231	21829.0
302.877991	6087.0
303.012695	1791.0
303.155792	18545.0
304.026031	3124.0
304.170227	12377.0
304.850952	24946.0
305.027222	4644.0
305.168457	18585.0
306.017578	2655.0
306.137207	10799.0
306.885986	11863.0
307.037018	3549.0
307.157562	23340.0
307.699524	1174.0
307.924194	1465.0
308.112579	50363.0
308.248413	1479.0
308.883636	1409.0
309.00174	4494.0
309.16156	31972.0
310.04892	3842.0
310.187012	74956.0
310.852966	16660.0
311.045197	5735.0
311.18808	38454.0
311.8526	1275.0
312.073303	32713.0
312.201965	11277.0
312.695251	1539.0
312.883301	10819.0
313.079529	25297.0
313.197998	15224.0
314.071442	4731.0
314.189026	9816.0
314.815979	64440.0
314.985443	15633.0
315.162903	18728.0
316.024139	4246.0
316.170471	14560.0
316.699066	1866.0
316.846771	57591.0
317.020386	17308.0
317.187805	15723.0
317.998474	2692.0
318.152832	8578.0
318.836182	6565.0
318.93927	15197.0
319.076813	3263.0
319.188751	27064.0
319.70578	2733.0
319.920502	1117.0
320.048248	3256.0
320.181183	10635.0
320.825073	51849.0
320.97995	3771.0
321.161865	22245.0
321.27182	1753.0
321.667877	1116.0
321.900269	1122.0
322.049622	4528.0
322.183197	8766.0
322.861389	38140.0
323.018921	5499.0
323.179138	30477.0
323.689178	2042.0
323.87616	1169.0
324.029602	2161.0
324.174744	10785.0
324.666992	1073.0
324.866791	3761.0
325.040619	4525.0
325.179718	27554.0
326.028137	3669.0
326.180481	10687.0
326.926025	1453.0
327.07193	6179.0
327.194977	18129.0
327.705139	1026.0
327.889679	1955.0
328.069458	14104.0
328.201874	6768.0
328.879852	14671.0
329.032928	4354.0
329.174042	15623.0
329.866913	5512.0
330.090179	172658.0
330.204376	8273.0
330.774597	22266.0
330.9487	3478.0
331.10141	34037.0
331.223358	5885.0
331.690369	1186.0
331.895538	1714.0
332.086395	22546.0
332.211029	3870.0
332.822815	34615.0
333.040558	5928.0
333.180817	21427.0
333.886749	1398.0
334.054596	22139.0
334.195374	6497.0
334.839355	11013.0
335.031372	8961.0
335.187469	22232.0
335.882599	1359.0
336.041687	3999.0
336.186707	7510.0
336.799683	56622.0
336.976898	7891.0
337.182861	27413.0
337.76535	1044.0
337.957977	1578.0
338.066528	3329.0
338.196472	12791.0
338.831177	52644.0
338.976746	3679.0
339.080383	2483.0
339.21225	55103.0
339.496887	1470.0
339.70459	1583.0
339.896301	1042.0
340.078735	14674.0
340.214722	13334.0
340.836456	9543.0
340.97226	4710.0
341.072754	3848.0
341.202576	19628.0
342.017456	2870.0
342.186584	11652.0
342.839539	1475.0
342.950867	1387.0
343.062836	2773.0
343.19046	15900.0
344.020844	4256.0
344.174988	14018.0
344.853638	11539.0
345.012451	3203.0
345.177795	16672.0
345.696381	1731.0
345.90094	3463.0
346.063904	943613.0
346.221069	11203.0
346.57785	1082.0
346.874115	4139.0
347.068573	123632.0
347.213806	13722.0
347.754761	1100.0
347.897736	2024.0
348.062592	116781.0
348.2099	6330.0
348.807617	8589.0
348.976227	3749.0
349.132324	50227.0
349.260956	2732.0
349.77063	1203.0
349.901855	1773.0
350.066864	20880.0
350.212494	9514.0
350.708008	1198.0
350.848419	10007.0
351.041199	8043.0
351.186951	33672.0
351.701019	3453.0
351.852203	1910.0
352.081573	24050.0
352.212128	8422.0
352.775177	28997.0
352.934784	3429.0
353.066315	5011.0
353.199615	19355.0
353.702118	1367.0
353.876953	1531.0
354.043945	3514.0
354.192383	9891.0
354.807892	41089.0
354.942291	1843.0
355.108185	16750.0
355.231415	9574.0
356.043945	8898.0
356.204498	13336.0
356.82251	11573.0
356.935974	1591.0
357.043945	4237.0
357.188232	19395.0
358.000977	1954.0
358.166748	10623.0
358.286713	1024.0
358.723816	2997.0
358.876282	5585.0
359.044281	3461.0
359.19754	20472.0
359.718719	1996.0
359.981903	2050.0
360.17392	9650.0
360.819519	10167.0
360.977844	2526.0
361.093842	4233.0
361.221527	16719.0
361.737091	2272.0
362.057617	5472.0
362.217834	9074.0
362.81015	3824.0
363.016052	4732.0
363.19165	22694.0
363.784302	1039.0
363.953308	1738.0
364.069611	1581.0
364.207397	8722.0
364.917664	5332.0
365.129791	118462.0
365.243439	8442.0
365.718384	2335.0
365.989929	4102.0
366.137665	23520.0
366.248505	3331.0
366.832581	5247.0
366.971313	4255.0
367.114868	9207.0
367.227997	23534.0
367.702179	1304.0
367.856079	1664.0
368.044617	38997.0
368.221313	8948.0
368.763397	10835.0
368.884918	3190.0
369.044342	10574.0
369.196198	16948.0
369.71701	1419.0
369.883453	1714.0
370.049683	6817.0
370.217041	12021.0
370.791931	15489.0
370.914673	1449.0
371.018066	2935.0
371.198669	20079.0
371.714386	1341.0
372.020966	5081.0
372.203064	9585.0
372.746368	6974.0
372.857635	4847.0
373.026978	3081.0
373.197479	21512.0
373.733307	1577.0
373.893555	1391.0
374.054626	176045.0
374.208862	8955.0
374.693878	1076.0
374.852295	4984.0
375.066132	24682.0
375.221191	24119.0
375.722778	1472.0
376.054504	13992.0
376.227081	7399.0
376.795715	11729.0
376.935852	2700.0
377.060486	5511.0
377.207916	19069.0
377.753448	1504.0
377.973358	3143.0
378.077393	1407.0
378.212402	9433.0
378.791656	6482.0
378.918854	1819.0
379.04837	3181.0
379.203766	20601.0
379.729401	4626.0
379.937622	1370.0
380.078156	2159.0
380.212006	12381.0
380.69223	1481.0
380.839355	4836.0
380.965485	1394.0
381.098419	481678.0
381.233795	49709.0
381.551208	1055.0
381.759399	1834.0
381.927429	1203.0
382.104492	62784.0
382.238373	15678.0
382.827515	5340.0
382.950714	2405.0
383.100433	53035.0
383.232941	10791.0
383.714783	1818.0
383.864258	1181.0
384.030396	64581.0
384.223236	12813.0
384.817932	15983.0
385.035675	14494.0
385.21991	12466.0
385.750366	2009.0
385.862488	1224.0
386.020538	12368.0
386.208099	9319.0
386.737335	10583.0
386.856323	8064.0
387.095581	28824.0
387.227295	13824.0
387.737457	2668.0
388.037384	8456.0
388.215027	11375.0
388.775024	3716.0
388.937622	3246.0
389.073822	6962.0
389.206787	41247.0
389.744812	1540.0
390.03009	122194.0
390.222992	15586.0
390.712433	1219.0
390.831909	10564.0
391.037231	20549.0
391.214874	28050.0
391.347931	1128.0
391.725647	1053.0
392.027588	21032.0
392.22644	11244.0
392.784454	9652.0
392.902435	1798.0
393.048889	6807.0
393.22406	25529.0
393.727844	12087.0
394.03363	3311.0
394.228973	14884.0
394.764557	6596.0
394.937683	8629.0
395.188293	36083.0
395.304535	3322.0
395.743103	1529.0
396.02359	5573.0
396.195068	14897.0
396.30719	1978.0
396.843292	8476.0
397.072601	5815.0
397.215942	20574.0
397.750244	1517.0
397.919281	1434.0
398.094238	2640.0
398.252777	44484.0
398.751129	9591.0
398.88208	5879.0
399.016663	2615.0
399.122681	3554.0
399.245697	25715.0
399.758057	2263.0
400.048218	3168.0
400.228394	9308.0
400.792816	33620.0
400.984039	6341.0
401.164368	6314.0
401.281433	31620.0
401.458282	1539.0
401.746185	3636.0
401.959747	2345.0
402.138489	5407.0
402.2742	11866.0
402.822205	31722.0
403.050781	4905.0
403.233948	24626.0
403.341705	1477.0
403.920624	1141.0
404.060822	4234.0
404.240356	10615.0
404.739563	1652.0
404.855072	11677.0
405.03952	6172.0
405.23407	26269.0
405.751373	3214.0
406.00415	169589.0
406.135529	1226.0
406.248108	10679.0
406.800018	24979.0
407.007507	26912.0
407.134949	2372.0
407.242737	25353.0
407.753479	2006.0
408.004852	36799.0
408.236298	15439.0
408.686768	1237.0
408.811707	14987.0
409.012665	9632.0
409.182098	991790.0
409.364563	25792.0
409.547852	5056.0
409.719299	11915.0
410.027893	11719.0
410.18689	250192.0
410.338715	2298.0
410.750793	12130.0
410.925842	7411.0
411.052948	2542.0
411.196045	59416.0
411.316101	1845.0
411.777313	2651.0
412.013824	5228.0
412.225952	25630.0
412.813782	9780.0
412.983765	2693.0
END IONS

BEGIN IONS
PEPMASS=180.139
CHARGE=1
MSLEVEL=2
SOURCE_INSTRUMENT=LC-ESI-qTof
FILENAME=DMIM_centroided_library_abundance_filtered.mgf
SEQ=*..*
IONMODE=Positive
ORGANISM=DMIM-DRUG-METABOLITE-LIBRARY
NAME=MEXILETINE [M+H]+
PI=Libin Xu
DATACOLLECTOR=Dylan H. Ross
SMILES=CC1=C(C(=CC=C1)C)OCC(C)N
INCHI=N/A
INCHIAUX=N/A
PUBMED=N/A
SUBMITUSER=jzemlin
LIBRARYQUALITY=3
SPECTRUMID=CCMSLIB00012467877
USI=mzspec:GNPS:DMIM-DRUG-METABOLITE-LIBRARY:accession:CCMSLIB00012467877
SCANS=2855
70.065689	1563.0
81.042717	1424.0
84.068466	4021.0
84.992264	1010.0
91.051735	1959.0
94.954575	1610.0
97.03299	4086.0
98.988731	2140.0
105.073639	4465.0
108.040466	1948.0
109.053162	1026.0
110.064659	1131.0
112.905518	8053.0
113.04438	1874.0
114.900948	3349.0
118.926918	10606.0
119.065697	1765.0
121.074066	1636.0
122.051735	1106.0
123.060394	6063.0
124.054428	1392.0
124.989021	2531.0
129.093674	1864.0
130.068817	1317.0
134.90596	1162.0
136.069427	16601.0
136.940536	10647.0
137.07637	1722.0
139.021667	1930.0
141.008408	1739.0
142.043045	1270.0
142.963226	1660.0
144.049469	1270.0
150.057312	2245.0
151.921692	1562.0
152.923004	2629.0
153.058884	1274.0
154.946564	1022.0
156.915054	1497.0
158.942215	1946.0
160.968948	1130.0
163.049713	1097.0
164.939087	12306.0
165.072861	2998.0
166.054611	1120.0
167.068146	1689.0
169.913361	1127.0
174.904526	76351.0
175.095276	1095.0
176.910751	13823.0
177.054657	1929.0
178.074509	1067.0
178.936203	1319.0
179.073883	1078.0
180.913223	19749.0
END IONS

BEGIN IONS
PEPMASS=302.176
CHARGE=1
MSLEVEL=2
SOURCE_INSTRUMENT=LC-ESI-qTof
FILENAME=DMIM_centroided_library_abundance_filtered.mgf
SEQ=*..*
IONMODE=Positive
ORGANISM=DMIM-DRUG-METABOLITE-LIBRARY
NAME=DOBUTAMINE [M+H]+
PI=Libin Xu
DATACOLLECTOR=Dylan H. Ross
SMILES=OC(C=C(C=C1)CCNC(C)CCC(C=C2)=CC=C2O)=C1O
INCHI=N/A
INCHIAUX=N/A
PUBMED=N/A
SUBMITUSER=jzemlin
LIBRARYQUALITY=3
SPECTRUMID=CCMSLIB00012467990
USI=mzspec:GNPS:DMIM-DRUG-METABOLITE-LIBRARY:accession:CCMSLIB00012467990
SCANS=2968
55.048851	2513.0
56.053684	3851.0
57.061436	2170.0
58.066418	2809.0
59.001015	13292.0
60.036858	1166.0
61.009922	1578.0
62.998047	1200.0
63.467808	1146.0
65.001083	1561.0
67.053246	4012.0
68.056053	2018.0
69.047005	8236.0
70.06662	24015.0
71.063644	2927.0
72.081932	9038.0
73.037186	2495.0
74.053406	3076.0
76.026344	57263.0
77.035027	2977.0
78.030258	3505.0
79.037766	3727.0
80.052299	6444.0
81.061775	7078.0
82.063423	2796.0
83.054703	3111.0
84.057823	124421.0
85.04731	9459.0
86.096085	19632.0
87.008011	3316.0
88.027359	6890.0
91.05558	11129.0
92.054161	1063.0
93.067917	2996.0
94.059814	1104.0
94.938988	1121.0
95.080734	6029.0
96.055923	4462.0
97.034149	99620.0
98.031052	9030.0
99.028847	7850.0
100.045921	2135.0
101.086845	1656.0
102.054054	2188.0
103.067406	1322.0
104.088921	2360.0
105.061943	4910.0
106.062927	1230.0
107.055611	48020.0
108.05822	6883.0
109.075233	5609.0
110.071739	16551.0
111.044571	5514.0
112.063782	7073.0
112.903458	53436.0
113.042702	11126.0
114.034035	5123.0
114.900314	22820.0
115.071411	3142.0
116.030205	19063.0
116.906975	3061.0
117.051277	2774.0
118.031746	2455.0
118.948135	8371.0
119.06369	6390.0
120.065918	17779.0
120.988899	6764.0
121.094658	3588.0
122.044449	3672.0
122.927986	1559.0
123.061882	21130.0
124.040001	7559.0
124.996384	8819.0
126.060493	3922.0
127.038467	6598.0
128.078857	2415.0
129.105515	40535.0
130.062958	46317.0
131.067245	6299.0
132.049454	4205.0
133.052246	4957.0
134.056381	1692.0
135.052124	6081.0
136.068848	53068.0
136.941147	42687.0
137.069382	26590.0
138.068054	7053.0
139.040436	7584.0
140.058044	3551.0
140.927063	1164.0
141.060165	6765.0
142.038345	35448.0
142.979599	15423.0
143.108688	4595.0
144.033813	13710.0
145.064117	17786.0
146.045242	4158.0
146.989365	1229.0
147.0952	6082.0
148.052872	3635.0
149.06778	4026.0
150.066238	3631.0
150.936234	1038.0
151.065063	4669.0
152.065552	7595.0
152.925507	1192.0
153.059967	8880.0
154.066681	4578.0
155.084274	11092.0
156.049286	6733.0
156.895432	6336.0
157.088562	6356.0
158.077118	4992.0
158.933441	31894.0
159.094971	6638.0
160.057144	2637.0
160.955048	4333.0
161.083023	3572.0
162.030716	21610.0
163.028503	10672.0
164.044754	4457.0
164.93985	76434.0
165.078812	7453.0
166.072723	12630.0
166.938889	1489.0
167.071945	10620.0
168.049652	6001.0
168.953888	1237.0
169.090363	10059.0
170.046646	6354.0
171.086243	12289.0
172.087067	3668.0
173.065872	16101.0
174.034958	5708.0
174.905045	970313.0
175.082123	12420.0
175.91217	2934.0
176.088699	3171.0
176.904846	148883.0
177.06749	15318.0
178.089661	4860.0
178.907196	6964.0
179.03949	14962.0
180.072372	3401.0
180.913223	225703.0
181.064346	13345.0
182.054276	4422.0
182.91774	19690.0
183.095764	10431.0
184.078247	12355.0
185.064606	12057.0
185.177307	2106.0
186.108337	6307.0
186.924011	31913.0
187.092255	13219.0
188.058258	5958.0
189.043594	10381.0
190.034912	4016.0
190.911346	2052.0
191.057251	7387.0
192.069809	3012.0
193.036911	10332.0
194.075302	5041.0
194.955322	1823.0
195.081573	8707.0
196.026321	6653.0
196.136261	1612.0
196.888214	409871.0
197.101212	8783.0
197.907471	1517.0
198.092346	3606.0
198.889389	63253.0
199.034073	23990.0
199.138916	4356.0
199.995422	5195.0
200.132568	4147.0
200.946243	41948.0
201.110413	8336.0
202.094788	3595.0
202.897186	74895.0
203.06723	26136.0
204.088837	11792.0
204.906204	8641.0
205.079376	5334.0
206.008713	11697.0
207.058868	9699.0
207.982956	1140.0
208.100266	3568.0
208.95108	1010.0
209.0802	11191.0
210.080627	4547.0
210.956589	1367.0
211.086685	11444.0
211.968079	1153.0
212.107193	5382.0
212.862656	442771.0
213.055069	10772.0
213.161301	2126.0
213.882492	1340.0
214.08136	6198.0
214.86441	105189.0
215.004028	6290.0
215.122177	5582.0
216.000916	1754.0
216.110672	3943.0
216.91394	18152.0
217.071655	8152.0
218.086899	2974.0
218.872894	88755.0
219.052429	5047.0
220.077255	3571.0
220.909668	36525.0
221.091965	4519.0
222.03476	4157.0
222.903534	3682.0
223.018295	14188.0
223.169113	2014.0
224.050095	3728.0
224.172195	1027.0
225.053741	6659.0
225.161438	2188.0
225.990982	1151.0
226.119232	7998.0
226.909424	2284.0
227.069641	15030.0
228.034012	6844.0
228.160431	2447.0
228.908051	1042.0
229.048157	5793.0
229.158417	1837.0
230.108841	3648.0
230.878998	1563.0
231.068146	9319.0
231.895859	1646.0
232.080811	6249.0
232.896118	3199.0
233.075317	8675.0
234.093658	3551.0
234.861145	47790.0
235.022858	7794.0
235.130051	2929.0
236.098404	2428.0
236.846832	8977.0
237.007217	3655.0
237.118042	4759.0
238.011292	3138.0
238.145096	2052.0
238.871155	3369.0
239.003494	7505.0
239.137024	4232.0
240.004654	2042.0
240.148499	6919.0
240.25145	1697.0
240.879562	1350.0
241.033127	5241.0
241.173386	2206.0
242.055801	3183.0
242.188904	1898.0
242.882965	2083.0
243.064346	6395.0
243.1819	1132.0
244.107101	6978.0
244.89978	2905.0
245.069183	8734.0
246.114502	2144.0
247.026947	4366.0
247.143143	1068.0
248.116364	2633.0
248.903381	2423.0
249.064697	17056.0
249.168823	1139.0
249.887634	4650.0
250.108704	6914.0
250.826294	6986.0
250.975494	1153.0
251.109024	7036.0
252.114868	3071.0
252.832703	2171.0
253.041992	6930.0
253.163101	2776.0
254.022369	2061.0
254.146149	4990.0
254.866806	16324.0
255.005615	4827.0
255.13765	4133.0
256.098083	6928.0
256.919098	3456.0
257.076111	10178.0
257.214691	1077.0
258.020813	1228.0
258.134064	3653.0
258.872253	2973.0
259.078247	4418.0
259.968811	1426.0
260.136688	2470.0
260.876862	8050.0
261.072235	5263.0
262.131653	2537.0
262.895477	2298.0
263.127197	3080.0
264.044952	1916.0
264.882172	1481.0
265.039795	5666.0
265.165497	1506.0
266.023163	1258.0
266.13443	3223.0
266.894806	14308.0
267.078308	7235.0
268.041016	2615.0
268.165771	3529.0
268.968903	2065.0
269.125885	4824.0
269.834198	1045.0
270.02951	1681.0
270.164398	2474.0
270.859772	4279.0
271.027344	3449.0
271.205872	4681.0
272.020203	1241.0
272.162079	3212.0
272.881531	3910.0
273.060303	5485.0
274.116302	3031.0
274.832947	1392.0
274.988495	1561.0
275.13324	3562.0
275.908722	1151.0
276.140594	2230.0
276.857758	8311.0
277.052643	3416.0
277.176941	1682.0
278.042206	2592.0
278.161713	1384.0
278.876007	6214.0
279.12326	3512.0
280.04715	2185.0
280.174774	1445.0
280.880341	2399.0
281.124878	3419.0
282.163666	2316.0
282.866577	53484.0
283.046478	3439.0
283.165192	2148.0
284.087128	3405.0
284.887787	9665.0
285.091492	5079.0
286.099915	6630.0
286.865997	2841.0
287.006134	1556.0
287.127686	3667.0
288.07251	2750.0
288.874939	35820.0
289.054474	4715.0
289.165985	1398.0
290.102173	3284.0
290.954407	4377.0
291.12262	3845.0
292.004822	2015.0
292.136047	1660.0
292.83429	8091.0
293.011078	1568.0
293.17038	4268.0
294.146301	3122.0
294.862274	11456.0
295.047546	1850.0
295.191589	5974.0
296.101318	4122.0
296.888214	6956.0
297.10498	3380.0
298.152374	2572.0
298.843201	56612.0
298.988708	3041.0
299.158905	3532.0
300.09375	2347.0
300.869202	26342.0
301.063171	5943.0
301.189545	1592.0
302.063385	3794.0
302.187103	1223.0
302.856445	2914.0
303.052399	1508.0
303.18869	3010.0
304.046112	3110.0
END IONS

BEGIN IONS
PEPMASS=258.113
CHARGE=1
MSLEVEL=2
SOURCE_INSTRUMENT=LC-ESI-qTof
FILENAME=DMIM_centroided_library_abundance_filtered.mgf
SEQ=*..*
IONMODE=Positive
ORGANISM=DMIM-DRUG-METABOLITE-LIBRARY
NAME=TOLMETIN [M+H]+
PI=Libin Xu
DATACOLLECTOR=Dylan H. Ross
SMILES=Cc1ccc(cc1)C(=O)c2ccc(n2C)CC(=O)O
INCHI=N/A
INCHIAUX=N/A
PUBMED=N/A
SUBMITUSER=jzemlin
LIBRARYQUALITY=3
SPECTRUMID=CCMSLIB00012468142
USI=mzspec:GNPS:DMIM-DRUG-METABOLITE-LIBRARY:accession:CCMSLIB00012468142
SCANS=3120
56.053116	3199.0
58.999039	15670.0
60.020004	1218.0
61.008297	1672.0
68.061295	1033.0
69.054794	1540.0
70.06707	10305.0
72.083511	2713.0
73.023758	1550.0
74.052971	1420.0
76.026405	63910.0
77.031807	2476.0
78.027931	2664.0
79.017746	2339.0
80.051903	5348.0
81.055344	2881.0
82.045662	1409.0
83.058594	2519.0
84.055115	83729.0
85.046585	6056.0
86.08728	7004.0
87.003334	2767.0
88.02623	5503.0
91.058044	10915.0
92.060974	1568.0
93.062134	1652.0
94.060806	1068.0
94.937065	1124.0
95.075447	2215.0
96.058578	1238.0
97.032677	10869.0
98.023499	2970.0
99.001572	3181.0
102.056915	1249.0
105.065933	2365.0
107.071602	1707.0
108.053947	2924.0
109.070541	1983.0
110.073257	5803.0
111.079697	1570.0
112.07148	3445.0
112.902969	36181.0
113.048866	2755.0
114.037956	3540.0
114.900505	15802.0
115.074677	1825.0
116.023727	18705.0
116.911018	1879.0
117.052055	1943.0
118.026642	2017.0
118.925713	12088.0
119.054237	16783.0
120.050339	9310.0
121.057053	2431.0
122.032188	1748.0
122.927391	1362.0
123.060715	11799.0
124.03392	4345.0
125.010323	4316.0
126.04744	1131.0
127.025352	3572.0
128.067383	1502.0
129.105316	15568.0
130.059326	19340.0
131.065002	2829.0
132.054642	2428.0
133.068298	1662.0
135.049164	2572.0
136.068771	29477.0
136.93895	61313.0
137.075745	3887.0
138.065628	1524.0
139.020859	3829.0
140.014114	2303.0
140.927628	1437.0
141.053802	4904.0
142.037064	29456.0
142.989182	7844.0
143.102295	1367.0
144.020676	10625.0
145.063782	2923.0
146.034988	2163.0
147.069992	3979.0
148.04895	1241.0
149.040405	2024.0
150.056107	2557.0
151.050674	2402.0
152.041779	3582.0
152.906982	1071.0
153.054916	3819.0
154.057251	1892.0
155.081131	3468.0
156.04393	3841.0
156.899124	4000.0
157.085083	2684.0
158.079178	1750.0
158.931107	13376.0
159.090149	2565.0
160.048538	1462.0
160.957611	1872.0
161.082062	1381.0
162.031311	21364.0
163.033768	4638.0
164.031494	2287.0
164.938995	61771.0
165.076782	3772.0
166.054367	5332.0
167.070023	4096.0
168.022034	2482.0
168.913864	1096.0
169.095276	3548.0
170.044418	5253.0
171.087952	2733.0
172.087326	1490.0
173.041855	5863.0
174.034134	2985.0
174.904739	425251.0
175.084106	4928.0
175.925781	1697.0
176.092209	1180.0
176.904358	64538.0
177.061874	4055.0
178.06842	1931.0
178.901382	3023.0
179.055908	8337.0
180.062057	2124.0
180.913376	183591.0
181.059906	5734.0
182.05571	1570.0
182.912842	14200.0
183.095352	5291.0
184.075546	3381.0
185.067841	5275.0
186.110382	3554.0
186.922058	31151.0
187.075485	7174.0
188.055954	2909.0
189.039627	5000.0
190.025558	2370.0
190.906342	1151.0
191.053421	3489.0
192.06308	1607.0
193.028427	4836.0
194.079681	1891.0
195.080032	4513.0
196.02124	3257.0
196.887909	311528.0
197.013214	1112.0
197.116119	3033.0
197.913071	1175.0
198.040176	1010.0
198.88855	47041.0
199.05423	5871.0
199.99614	2974.0
200.150391	1007.0
200.901474	3128.0
201.04892	6761.0
202.07814	1654.0
202.896332	77375.0
203.065994	8926.0
204.06839	2130.0
204.901367	7230.0
205.075623	2045.0
205.996399	7938.0
207.018585	2553.0
208.025208	1574.0
209.072739	3344.0
210.068253	1783.0
211.027115	2778.0
211.147293	1086.0
212.112213	2809.0
212.862549	337374.0
213.048019	6558.0
214.073532	4290.0
214.863632	75388.0
215.037628	5923.0
216.041107	2586.0
216.884247	11125.0
217.038788	2955.0
218.87146	97080.0
219.033722	1759.0
220.065079	1159.0
220.883713	18769.0
221.066681	2632.0
222.103241	1620.0
222.883972	1359.0
223.023209	8317.0
224.044098	1465.0
225.038361	3898.0
226.127258	3317.0
226.898041	1480.0
227.052673	6950.0
228.007339	2051.0
228.144211	1598.0
229.037659	2059.0
230.131622	1606.0
230.887268	1016.0
231.066284	3083.0
231.883743	2234.0
232.080948	3270.0
232.888733	2539.0
233.066971	5969.0
234.082184	1649.0
234.84877	45399.0
235.103485	1753.0
236.844666	9740.0
237.047699	3243.0
238.102432	2025.0
238.877197	3162.0
239.051788	4075.0
240.128448	2316.0
241.100067	1923.0
242.131332	1595.0
242.881912	1095.0
243.057175	3357.0
244.119125	1803.0
244.899506	2438.0
245.072678	5127.0
247.024261	1552.0
249.046951	2641.0
249.883896	1499.0
250.093948	2629.0
250.8284	6197.0
251.119919	1771.0
252.08403	1775.0
252.825775	1990.0
253.035019	2847.0
254.117935	2423.0
254.861511	6930.0
255.047668	3674.0
256.053467	2818.0
256.877441	1102.0
257.05661	2504.0
258.087433	2616.0
258.876343	2423.0
259.01532	1535.0
END IONS

BEGIN IONS
PEPMASS=255.117
CHARGE=1
MSLEVEL=2
SOURCE_INSTRUMENT=LC-ESI-qTof
FILENAME=DMIM_centroided_library_abundance_filtered.mgf
SEQ=*..*
IONMODE=Positive
ORGANISM=DMIM-DRUG-METABOLITE-LIBRARY
NAME=THIAMYLAL [M+H]+
PI=Libin Xu
DATACOLLECTOR=Dylan H. Ross
SMILES=CCCC(C)C1(C(=O)NC(=S)NC1=O)CC=C
INCHI=N/A
INCHIAUX=N/A
PUBMED=N/A
SUBMITUSER=jzemlin
LIBRARYQUALITY=3
SPECTRUMID=CCMSLIB00012468637
USI=mzspec:GNPS:DMIM-DRUG-METABOLITE-LIBRARY:accession:CCMSLIB00012468637
SCANS=3615
55.040516	5011.0
56.049213	11999.0
57.012596	5136.0
58.040108	1777.0
58.999168	86548.0
60.020199	2019.0
61.006222	5740.0
62.992371	1833.0
65.023857	2286.0
66.034431	1188.0
67.052406	7204.0
68.051834	4193.0
69.039597	6059.0
70.064308	14039.0
71.024719	3806.0
72.07959	3561.0
73.014473	5355.0
74.041656	2657.0
76.026375	216325.0
77.040039	22621.0
77.479584	1031.0
78.027565	8946.0
79.046562	12820.0
80.053757	30927.0
81.054298	14880.0
82.05806	5079.0
83.052025	22978.0
84.050903	248931.0
85.012543	30530.0
86.053329	11920.0
86.996414	11427.0
88.026527	22829.0
89.023857	3150.0
90.025185	1517.0
91.058006	20670.0
92.05658	3774.0
93.061386	9565.0
94.057831	3429.0
95.026817	30673.0
96.05172	6648.0
97.03286	27427.0
98.020882	15755.0
99.009018	15753.0
100.03434	5045.0
101.015381	2333.0
102.04007	3682.0
102.939934	5036.0
103.042007	5743.0
104.091553	4052.0
105.070045	21443.0
106.057854	4928.0
107.074493	16698.0
108.060822	15731.0
109.066666	21367.0
110.059044	12598.0
111.030273	15059.0
112.024109	18167.0
113.007774	11863.0
114.048607	12599.0
114.925858	2968.0
115.056992	10271.0
116.0252	81549.0
116.151199	12552.0
117.057541	11917.0
118.035118	6646.0
118.928955	81962.0
119.076508	19801.0
120.064461	11584.0
120.967522	10760.0
121.080811	19336.0
121.948975	1130.0
122.06562	9934.0
122.933327	3428.0
123.060287	54591.0
124.035629	24297.0
125.020172	17859.0
126.036156	5546.0
127.028748	9315.0
128.048645	11408.0
128.954819	1276.0
129.081818	22888.0
130.058868	57098.0
130.918243	1746.0
131.075027	15703.0
132.06012	9205.0
132.969604	3445.0
133.083786	14409.0
133.966949	1170.0
134.078537	5168.0
134.913101	5107.0
135.070618	20267.0
136.069489	60646.0
136.94162	139819.0
137.082153	20044.0
138.058762	6620.0
139.023026	26627.0
140.034393	7955.0
140.925919	10283.0
141.052078	31298.0
142.041168	149753.0
142.915344	1215.0
143.04361	25216.0
144.028519	42628.0
144.944687	3313.0
145.076874	18262.0
146.057358	9637.0
146.947906	1334.0
147.072845	19281.0
148.071381	7828.0
148.956146	2525.0
149.08168	16722.0
150.053787	8882.0
150.945038	3521.0
151.06189	16367.0
151.92157	1852.0
152.057434	13539.0
152.922958	17283.0
153.062836	18042.0
153.930313	1324.0
154.068863	9570.0
154.947144	3370.0
155.067795	15285.0
155.96904	1739.0
156.088837	8403.0
156.945908	3128.0
157.086777	11232.0
157.969147	2109.0
158.098572	8749.0
158.923203	9685.0
159.086273	19674.0
160.05661	19729.0
160.93634	4569.0
161.078873	19266.0
162.03421	73881.0
162.146194	1272.0
162.91272	3094.0
163.060745	21605.0
164.054886	10104.0
164.956802	15296.0
165.080292	13588.0
165.961258	5644.0
166.077896	6573.0
166.945572	2963.0
167.066483	14573.0
167.945053	1623.0
168.068665	8549.0
168.946274	2513.0
169.0746	11619.0
170.045929	23908.0
171.059891	17675.0
171.945465	1217.0
172.078369	8090.0
172.926453	1166.0
173.075851	22811.0
174.078827	8604.0
174.889694	39260.0
175.081512	15486.0
176.056595	10957.0
176.888519	1361.0
177.038345	24174.0
178.074463	8469.0
178.899796	5922.0
179.064056	29763.0
179.946548	1442.0
180.077911	7026.0
180.931686	29245.0
181.076874	18081.0
181.992111	4407.0
182.101303	3863.0
182.915543	6900.0
183.055817	16748.0
183.970779	4337.0
184.098511	6192.0
184.911911	3573.0
185.069901	14153.0
185.947662	1311.0
186.095779	8199.0
186.921997	16626.0
187.067932	33881.0
188.062683	11607.0
188.908752	2358.0
189.069321	14684.0
190.017944	5233.0
190.127533	2160.0
190.885605	7601.0
191.059265	16075.0
191.926208	2727.0
192.082062	5829.0
192.930099	6202.0
193.076324	15387.0
193.97197	1127.0
194.095596	5744.0
194.934937	3293.0
195.093384	13101.0
195.961609	2727.0
196.089172	5803.0
196.90976	9762.0
197.083435	11625.0
197.984268	1370.0
198.093384	5641.0
198.914062	19303.0
199.075974	14663.0
199.971878	2403.0
200.091248	3786.0
200.245422	23834.0
200.924622	12572.0
201.049911	84479.0
201.244385	3933.0
201.923706	1437.0
202.064987	13676.0
202.919617	21378.0
203.095917	11187.0
203.922455	1562.0
204.091629	5858.0
204.927551	7336.0
205.091934	9776.0
206.008759	5591.0
206.121841	2588.0
206.916031	3689.0
207.089935	11741.0
207.961151	1843.0
208.102554	4169.0
208.934372	5587.0
209.085831	15443.0
209.986664	1420.0
210.102234	4918.0
210.950317	2662.0
211.095276	8818.0
211.95401	1735.0
212.112717	4250.0
212.893356	5258.0
213.07164	8467.0
213.895233	1134.0
214.076462	5851.0
214.888763	14857.0
215.053482	18325.0
215.885117	1576.0
216.053268	7265.0
216.916214	17035.0
217.080658	5968.0
217.920914	1460.0
218.090591	2670.0
218.227249	1576.0
218.863373	1589.0
218.971268	11391.0
219.121536	5532.0
219.953262	1782.0
220.103745	3873.0
220.930939	19416.0
221.108414	8617.0
221.954208	1152.0
222.099533	4445.0
222.943405	9268.0
223.093658	10659.0
223.952698	1743.0
224.11293	3479.0
224.911087	2906.0
225.079987	7557.0
225.951996	1945.0
226.114059	4472.0
226.90065	2544.0
227.063477	10749.0
227.882462	1576.0
228.065247	4981.0
228.92334	2894.0
229.089722	5199.0
229.98642	2530.0
230.159729	3419.0
230.885132	7818.0
231.063477	8708.0
231.897263	2641.0
232.0914	5161.0
232.889236	13720.0
233.085312	15594.0
233.897629	1725.0
234.088058	4782.0
234.895416	4795.0
235.015228	1797.0
235.116089	10135.0
236.113541	3299.0
236.885208	3466.0
236.99617	1729.0
237.109955	9947.0
237.96344	2857.0
238.114288	3105.0
238.890198	6402.0
239.082886	8322.0
239.891357	1255.0
240.092209	4158.0
240.87674	5742.0
241.01329	2587.0
241.139969	1861.0
242.116699	2644.0
242.906586	4374.0
243.097778	4394.0
244.073135	2793.0
244.896454	3231.0
245.07576	15066.0
245.915405	2285.0
246.090164	2883.0
246.930389	6631.0
247.116577	5138.0
247.93721	1880.0
248.120895	2282.0
248.943741	4592.0
249.116638	8764.0
249.911819	2752.0
250.109756	3882.0
250.902176	3109.0
251.099533	13656.0
251.986954	1008.0
252.118729	4245.0
252.980576	2757.0
253.133835	7048.0
254.131104	3147.0
254.86116	12970.0
255.060867	6985.0
256.055573	5163.0
256.183624	1556.0
256.90274	3416.0
257.060791	4400.0
END IONS

BEGIN IONS
PEPMASS=459.256
CHARGE=1
MSLEVEL=2
SOURCE_INSTRUMENT=LC-ESI-qTof
FILENAME=DMIM_centroided_library_abundance_filtered.mgf
SEQ=*..*
IONMODE=Positive
ORGANISM=DMIM-DRUG-METABOLITE-LIBRARY
NAME=ASTEMIZOLE [M+H]+
PI=Libin Xu
DATACOLLECTOR=Dylan H. Ross
SMILES=COC1=CC=C(C=C1)CCN2CCC(CC2)NC3=NC4=CC=CC=C4N3CC5=CC=C(C=C5)F
INCHI=N/A
INCHIAUX=N/A
PUBMED=N/A
SUBMITUSER=jzemlin
LIBRARYQUALITY=3
SPECTRUMID=CCMSLIB00012468653
USI=mzspec:GNPS:DMIM-DRUG-METABOLITE-LIBRARY:accession:CCMSLIB00012468653
SCANS=3631
55.05706	2944.0
56.054134	1897.0
57.061882	3002.0
59.047455	1241.0
60.071049	1190.0
67.058319	3721.0
69.060493	5038.0
70.069191	9277.0
71.063942	1900.0
72.084579	4960.0
73.055847	1400.0
74.081543	1903.0
77.032593	1614.0
79.051521	2864.0
80.034378	1205.0
81.069611	6607.0
82.063667	1112.0
83.0709	4585.0
84.072037	13165.0
85.058823	3119.0
86.098412	9958.0
87.058044	2357.0
88.058311	1218.0
89.062729	4171.0
91.057747	4995.0
93.071968	3763.0
94.07576	1061.0
95.084389	13131.0
96.084595	11490.0
97.044014	40202.0
98.062546	3869.0
99.043358	6630.0
100.0933	1136.0
101.071243	2345.0
102.066101	1301.0
103.042946	2486.0
104.076225	9073.0
105.072159	12706.0
106.066277	1757.0
107.084091	5054.0
108.064117	1865.0
109.068283	34936.0
110.074928	8707.0
111.069061	9736.0
112.064087	3195.0
113.052673	5076.0
114.074463	1038.0
115.075806	3889.0
116.061699	2060.0
117.062309	1706.0
119.067123	6838.0
120.081322	12120.0
121.042747	37299.0
122.085945	60818.0
123.060425	77737.0
124.063873	7586.0
124.957535	19929.0
125.080704	5119.0
126.061813	2634.0
127.075127	3993.0
128.061493	2032.0
129.105881	17694.0
130.092896	5236.0
131.077957	4190.0
132.089508	1778.0
133.067062	13317.0
134.062515	2964.0
135.087311	360254.0
135.217499	2860.0
135.399628	1427.0
136.074142	157041.0
136.935242	4464.0
137.071213	59887.0
138.072372	8362.0
139.06311	24807.0
140.072144	4744.0
140.930527	3773.0
141.086884	4596.0
142.061722	1773.0
142.955948	33603.0
143.101166	3707.0
144.070541	3566.0
145.085312	5335.0
146.015152	4631.0
147.080307	9319.0
148.066528	4185.0
148.975098	1117.0
149.08493	12446.0
150.071442	5179.0
151.083725	13809.0
152.071335	5873.0
153.068008	19534.0
154.070862	4777.0
155.078369	12547.0
156.081131	2963.0
156.896713	5526.0
157.081009	6248.0
158.079514	3244.0
158.93364	9805.0
159.101562	8634.0
160.07103	4181.0
160.939804	1336.0
161.097534	9963.0
162.069687	6180.0
163.085892	24445.0
164.079926	17002.0
164.944534	22867.0
165.077835	27952.0
166.073608	9677.0
167.076385	17028.0
167.995407	19457.0
169.085739	15533.0
170.079971	3337.0
171.091202	7272.0
172.089355	2403.0
173.098434	10492.0
174.078766	2810.0
174.929626	7181.0
175.096939	10947.0
176.113861	13043.0
176.967239	4406.0
177.085358	35929.0
178.096359	7927.0
178.966476	1674.0
179.090942	51108.0
180.086502	12260.0
180.915329	9085.0
181.090057	78879.0
182.090973	9123.0
182.921814	1431.0
183.085632	26408.0
184.073807	18287.0
184.998428	1988.0
185.115021	9283.0
186.021271	7158.0
186.123474	6796.0
186.94133	1950.0
187.111115	10869.0
188.067764	3774.0
189.093002	9689.0
190.094101	2771.0
191.088882	23850.0
192.093384	6653.0
192.964157	1639.0
193.094009	49729.0
194.098663	8675.0
195.078461	82265.0
196.100357	11307.0
196.937729	14575.0
197.092163	93182.0
197.208054	2040.0
198.099823	10684.0
198.977249	7871.0
199.103149	25593.0
200.115509	6069.0
200.943588	164016.0
201.116547	9900.0
202.103882	3875.0
202.943466	2863.0
203.103683	12774.0
203.237274	1010.0
204.135696	9766.0
204.916428	9967.0
205.104599	22619.0
206.084427	9778.0
206.978195	1248.0
207.105606	33554.0
208.104156	7117.0
209.094086	68391.0
210.101227	11103.0
211.103378	39066.0
212.107193	7021.0
212.896454	5938.0
213.088852	20350.0
214.098572	5991.0
215.000473	13948.0
215.159637	9825.0
215.989105	1117.0
216.145157	15885.0
216.930588	70235.0
217.096527	18321.0
218.007156	2021.0
218.16507	216629.0
218.322159	1643.0
218.936386	4003.0
219.048294	1886.0
219.153046	50538.0
220.146484	6553.0
220.930435	9530.0
221.11937	37121.0
221.99147	1099.0
222.119705	9207.0
222.927246	57963.0
223.107147	51759.0
224.110626	8026.0
224.94371	1806.0
225.102402	33752.0
226.119904	9127.0
226.905701	4360.0
227.086182	29859.0
227.197342	1464.0
228.106384	6062.0
228.993408	1603.0
229.137009	12737.0
230.135849	3833.0
230.936874	1070.0
231.073105	18290.0
231.185333	1122.0
232.096268	15091.0
232.933441	8101.0
233.117996	26926.0
234.126602	7111.0
234.993515	9641.0
235.130219	43811.0
236.014725	1344.0
236.134094	8607.0
236.859375	1270.0
236.975525	8103.0
237.125198	61263.0
237.959061	1078.0
238.125229	10656.0
238.917999	42522.0
239.119064	48069.0
239.981369	1838.0
240.116379	7370.0
240.235016	13669.0
240.920181	3688.0
241.107651	11855.0
241.249008	2389.0
242.125824	10042.0
242.894684	2800.0
243.123352	10265.0
244.130661	4092.0
244.909988	15084.0
245.118576	9175.0
246.132492	2626.0
246.96283	2413.0
247.132202	16652.0
247.948456	1073.0
248.133362	4855.0
248.939011	4046.0
249.075867	101908.0
249.186676	6630.0
250.09848	17602.0
250.965195	4726.0
251.130753	61489.0
252.131439	11634.0
252.968964	2716.0
253.133301	57860.0
254.010193	1153.0
254.142075	12213.0
254.887421	11032.0
255.130173	32544.0
256.138977	6303.0
256.867767	1216.0
256.995209	22291.0
257.141998	6822.0
257.99762	2060.0
258.12796	4287.0
258.972198	2516.0
259.128815	8941.0
260.116699	3773.0
260.906891	7729.0
261.013062	1694.0
261.14743	17714.0
261.980988	1112.0
262.149414	5408.0
262.932495	4751.0
263.146759	26841.0
263.971191	1323.0
264.147858	6648.0
264.960205	4252.0
265.120453	43363.0
265.94812	1144.0
266.128143	9908.0
266.898041	9758.0
267.130005	56000.0
268.005798	4658.0
268.138855	10366.0
268.290009	5782.0
269.016174	1583.0
269.138641	41031.0
269.288086	1602.0
270.144104	8047.0
270.940948	3037.0
271.113647	13398.0
271.237915	129677.0
271.973419	1032.0
272.112274	2269.0
272.237305	21547.0
272.96756	9343.0
273.15451	9439.0
274.118744	3502.0
274.972076	3518.0
275.148987	14732.0
276.151245	4987.0
276.887634	3688.0
277.012207	2017.0
277.153778	32654.0
277.985443	1020.0
278.156219	7950.0
278.906586	4553.0
279.035156	1083.0
279.152649	37472.0
280.145844	9444.0
280.995514	1576.0
281.140228	34971.0
282.149017	7982.0
282.870087	5612.0
283.138916	32040.0
283.277832	7053.0
283.975922	2138.0
284.144501	6919.0
284.283081	1766.0
284.910461	3518.0
285.13559	20044.0
286.02951	13014.0
286.162415	3297.0
287.007629	2474.0
287.143799	10903.0
287.980652	1731.0
288.150177	4695.0
288.927155	7697.0
289.153625	12707.0
289.982208	2114.0
290.152191	3789.0
290.928558	1009.0
291.034058	1816.0
291.164703	24881.0
291.945709	1064.0
292.160645	7125.0
292.87326	1688.0
293.002563	1468.0
293.166229	46055.0
294.162567	11195.0
294.916687	6083.0
295.159882	50000.0
295.974518	2045.0
296.162933	10423.0
296.318817	2019.0
296.851532	1114.0
296.967651	67762.0
297.151642	23833.0
297.294464	1266.0
297.976532	5361.0
298.160309	5343.0
298.826355	1415.0
298.939636	10691.0
299.145447	13059.0
299.966675	1117.0
300.15387	4386.0
300.850189	1212.0
300.971161	10661.0
301.153168	10718.0
301.996429	7707.0
302.154114	3443.0
302.971954	2925.0
303.166718	12177.0
304.048401	4478.0
304.19278	2445.0
304.966095	4046.0
305.167755	21449.0
306.162842	4921.0
306.885925	1806.0
307.021393	1964.0
307.169983	37197.0
308.007324	16838.0
308.147858	69227.0
309.000977	4046.0
309.166534	57161.0
309.995728	1416.0
310.168579	12419.0
310.877777	1853.0
310.996277	4765.0
311.180237	47162.0
311.309509	2936.0
312.085876	11541.0
312.209656	6189.0
312.938934	45025.0
313.066101	1648.0
313.17157	17887.0
313.949677	4296.0
314.177216	4734.0
314.828918	2309.0
314.977905	29964.0
315.165466	10805.0
315.978546	3160.0
316.175507	3703.0
316.956848	13310.0
317.176483	11955.0
317.949677	1312.0
318.176819	3895.0
318.959198	20296.0
319.107758	3820.0
319.211853	24424.0
319.960419	2605.0
320.099579	1173.0
320.215149	5839.0
320.930176	3497.0
321.189697	30761.0
322.004272	1199.0
322.190735	7052.0
322.850525	1077.0
322.964935	4892.0
323.172119	34299.0
323.980011	7132.0
324.172516	8045.0
324.339783	3135.0
324.88797	1464.0
325.026398	1748.0
325.17453	40233.0
325.327576	1231.0
325.999542	2930.0
326.178162	8912.0
326.387787	1846.0
326.921631	3808.0
327.049011	1202.0
327.17514	23302.0
327.926697	2655.0
328.077972	1503.0
328.198303	4010.0
328.908691	23988.0
329.023865	107874.0
329.185516	10163.0
329.918945	3489.0
330.07547	38398.0
330.215637	1519.0
330.952789	17052.0
331.086365	4438.0
331.195984	12993.0
332.071167	5368.0
332.21225	3224.0
332.939636	6354.0
333.087372	1635.0
333.202637	18838.0
334.054169	9306.0
334.209442	4164.0
334.926361	17630.0
335.053894	2265.0
335.196411	33134.0
335.932343	1628.0
336.197113	7784.0
336.96048	26295.0
337.190826	33016.0
337.299683	1423.0
337.967041	2468.0
338.190796	7580.0
338.940125	7190.0
339.178467	28735.0
339.955078	2552.0
340.188721	5879.0
340.407623	2440.0
340.938873	6936.0
341.184174	25326.0
341.976929	1758.0
342.185364	5986.0
342.937714	2615.0
343.196625	19221.0
343.917847	1632.0
344.044006	1136.0
344.189911	5683.0
344.96994	18887.0
345.18811	10493.0
345.300781	1274.0
345.912781	2249.0
346.065399	56761.0
346.235809	3230.0
346.910034	2768.0
347.044708	155837.0
347.213715	14741.0
348.054321	23425.0
348.216553	4011.0
348.892487	1795.0
349.047089	6492.0
349.201752	29234.0
350.017639	2138.0
350.198639	7816.0
350.889557	10369.0
351.008667	91198.0
351.195953	31415.0
352.02533	10871.0
352.194427	7480.0
352.93927	13225.0
353.073181	1761.0
353.195923	28147.0
353.919312	1742.0
354.059082	1018.0
354.200806	7121.0
354.919037	6389.0
355.067047	1180.0
355.182526	17181.0
355.982544	1784.0
356.185211	4946.0
356.911469	3633.0
357.182465	16180.0
357.980194	1377.0
358.186157	4758.0
358.94577	27474.0
359.187439	12438.0
359.311707	1510.0
359.955597	2380.0
360.21402	3762.0
360.368835	1046.0
360.94986	3313.0
361.210419	15183.0
361.326599	1822.0
362.052917	1698.0
362.220642	4607.0
363.012421	22480.0
363.208862	20367.0
363.332855	1078.0
364.022919	3846.0
364.209381	5313.0
364.97052	1191.0
365.079407	3298.0
365.19104	34324.0
365.977142	1433.0
366.18161	8051.0
366.86261	3337.0
366.985718	40718.0
367.202271	26488.0
368.023041	9390.0
368.207184	6294.0
368.442047	9054.0
368.890594	3564.0
369.024567	75043.0
369.202667	20950.0
369.443909	2348.0
370.029541	8872.0
370.209198	5136.0
370.869812	3028.0
371.026367	3380.0
371.205597	15956.0
372.021698	1555.0
372.200378	4425.0
372.86731	3775.0
373.010254	4273.0
373.198608	34396.0
373.328613	1651.0
374.05719	7187.0
374.209167	6222.0
374.919037	10095.0
375.071045	2219.0
375.220703	15624.0
375.337036	1866.0
375.947693	1987.0
376.138336	1753.0
376.26358	5145.0
376.934906	4058.0
377.083008	1043.0
377.2229	19861.0
377.338226	1060.0
378.004364	1559.0
378.201141	4829.0
378.968628	5253.0
379.202301	21117.0
379.304047	2385.0
379.934875	1484.0
380.210236	5821.0
380.925964	4377.0
381.122467	25147.0
381.231415	14150.0
381.960663	3903.0
382.098633	1930.0
382.21524	5990.0
382.960541	14002.0
383.100189	1527.0
383.211914	24247.0
384.004791	19157.0
384.212677	8130.0
384.999329	37303.0
385.214233	15382.0
386.004333	5874.0
386.220551	4266.0
386.839813	1094.0
386.997894	4905.0
387.220154	12528.0
387.35849	1256.0
387.970154	2765.0
388.13974	1324.0
388.262726	3278.0
388.845184	1211.0
388.973053	3656.0
389.230347	15997.0
389.357758	2139.0
390.026978	9410.0
390.241089	4826.0
390.901978	5238.0
391.039978	3807.0
391.208496	182677.0
391.375183	5347.0
391.728241	1884.0
392.025024	2101.0
392.210266	32262.0
392.919983	4323.0
393.066864	1717.0
393.222321	25190.0
393.351654	1106.0
393.94809	1293.0
394.09494	1147.0
394.231781	7177.0
394.948883	7081.0
395.183502	89152.0
395.305664	1748.0
395.972229	1551.0
396.191315	14967.0
396.916565	4693.0
397.207611	19875.0
397.939667	1434.0
398.224976	5575.0
398.912415	3358.0
399.218353	15392.0
399.347382	1144.0
399.973206	12503.0
400.221832	4696.0
400.97821	8338.0
401.231628	14096.0
401.35495	1921.0
401.96463	2275.0
402.227325	3946.0
402.78125	1396.0
402.95517	3020.0
403.185699	6965.0
403.300568	10076.0
403.946381	1983.0
404.247589	4089.0
404.365723	1035.0
405.02005	4954.0
405.245667	15258.0
405.365967	1270.0
405.994446	22836.0
406.246429	5052.0
406.847504	1170.0
406.993927	4583.0
407.233154	17494.0
407.998199	3820.0
408.237305	5233.0
408.842072	1250.0
409.002167	3133.0
409.233276	19595.0
410.041534	14181.0
410.236908	4863.0
410.96347	5230.0
411.112915	3928.0
411.23175	16398.0
412.03891	1208.0
412.236603	5468.0
412.889954	2659.0
413.207458	15749.0
413.323608	2785.0
413.99292	1103.0
414.204956	4169.0
414.890839	2870.0
415.171295	3197.0
415.283386	13247.0
415.958679	1160.0
416.226654	4225.0
416.346863	1382.0
416.915985	3270.0
417.082428	1456.0
417.25293	16113.0
417.367828	1960.0
418.159851	1349.0
418.287476	4785.0
418.913208	2732.0
419.106384	1868.0
419.263062	18568.0
419.984894	2113.0
420.267761	5290.0
420.936798	1409.0
421.090149	1506.0
421.246185	16286.0
421.370575	1057.0
421.968109	10471.0
422.238861	5583.0
422.95282	2748.0
423.117889	1457.0
423.245392	18032.0
423.974457	2647.0
424.246918	6225.0
424.94928	1871.0
425.240112	17605.0
425.352203	1133.0
425.96698	2218.0
426.243042	5492.0
426.868256	1471.0
427.013428	452430.0
427.232483	15409.0
427.360229	2111.0
428.024292	60905.0
428.255493	5047.0
429.019928	15739.0
429.191803	4044.0
429.308197	13475.0
430.015503	4357.0
430.282776	5095.0
430.831848	1286.0
430.985992	6876.0
431.182648	4484.0
431.302704	14475.0
432.022156	8790.0
432.278656	4940.0
432.883118	1217.0
433.037323	3372.0
433.166534	1145.0
433.285339	18400.0
434.033447	1089.0
434.259338	9729.0
434.805115	1192.0
434.946075	1436.0
435.106384	1139.0
435.255096	16647.0
435.365662	1984.0
436.006714	1359.0
436.263245	5625.0
436.918762	1737.0
437.243073	15540.0
437.362976	1379.0
437.923645	2153.0
438.117798	1135.0
438.267059	5515.0
438.95694	1232.0
439.244446	13970.0
439.940582	1317.0
440.245453	5552.0
440.886627	1591.0
441.129639	1122.0
441.259857	14079.0
442.249268	4846.0
442.985748	202401.0
443.182373	4788.0
443.312347	14527.0
443.983948	19807.0
444.298187	5126.0
444.985291	14859.0
445.208099	4572.0
445.317719	25498.0
445.982635	2114.0
446.200104	1572.0
446.318573	7455.0
446.961212	5041.0
447.197723	4658.0
447.317963	17815.0
448.0	5925.0
448.309601	4831.0
448.838654	1420.0
448.996613	309255.0
449.144592	2559.0
449.284851	19530.0
449.413452	1131.0
449.996338	33661.0
450.256165	6342.0
450.36673	1284.0
450.821777	1186.0
450.998993	9960.0
451.247711	13368.0
451.364075	2938.0
452.012482	2621.0
452.280853	4581.0
452.791504	1549.0
452.9711	5495.0
453.246399	11631.0
453.362061	1281.0
454.000305	2553.0
454.269318	4181.0
454.809113	1256.0
454.982758	1666.0
455.259583	11832.0
456.237305	26792.0
456.971497	1893.0
457.255585	16189.0
457.369019	2732.0
457.971527	1344.0
458.263397	4856.0
458.950562	7101.0
459.140594	2492.0
459.285706	165006.0
459.406921	3898.0
459.509094	1478.0
459.80246	1418.0
459.945129	1740.0
460.286133	47958.0
460.418091	1051.0
460.953125	2830.0
461.094543	1182.0
461.214203	4827.0
END IONS

BEGIN IONS
PEPMASS=250.181
CHARGE=1
MSLEVEL=2
SOURCE_INSTRUMENT=LC-ESI-qTof
FILENAME=DMIM_centroided_library_abundance_filtered.mgf
SEQ=*..*
IONMODE=Positive
ORGANISM=DMIM-DRUG-METABOLITE-LIBRARY
NAME=ALPRENOLOL [M+H]+
PI=Libin Xu
DATACOLLECTOR=Dylan H. Ross
SMILES=CC(C)NCC(COC1=CC=CC=C1CC=C)O
INCHI=N/A
INCHIAUX=N/A
PUBMED=N/A
SUBMITUSER=jzemlin
LIBRARYQUALITY=3
SPECTRUMID=CCMSLIB00012468724
USI=mzspec:GNPS:DMIM-DRUG-METABOLITE-LIBRARY:accession:CCMSLIB00012468724
SCANS=3702
53.045506	1165.0
55.046749	4325.0
56.052975	59111.0
57.035767	5966.0
58.063675	11530.0
58.99921	164507.0
60.018585	4176.0
61.005894	8709.0
62.988689	1977.0
65.03479	3900.0
67.053215	8662.0
68.047836	4304.0
69.047745	6889.0
70.065529	16162.0
71.039177	3637.0
72.083519	31712.0
73.027374	8325.0
74.063812	54125.0
75.052055	2026.0
76.026138	494609.0
77.039078	40677.0
78.026421	19738.0
79.052208	22409.0
80.053635	40213.0
81.064629	14643.0
82.052071	5389.0
83.054314	16518.0
84.050514	541791.0
85.033951	33080.0
86.072556	15319.0
86.99894	16197.0
88.026367	36677.0
89.018356	3374.0
90.019081	1617.0
91.059372	294945.0
92.061356	18728.0
93.068474	13549.0
94.061218	3043.0
95.042717	28377.0
96.05336	6665.0
97.033569	23184.0
98.073143	50946.0
99.022247	15886.0
100.093704	17029.0
101.064156	2909.0
102.059944	6725.0
102.93557	1996.0
103.055946	12282.0
104.079697	10940.0
105.072227	36154.0
106.064781	5703.0
107.056992	127768.0
108.058517	20319.0
109.072762	22212.0
110.059349	13037.0
111.047546	13309.0
112.028625	16037.0
113.010933	10815.0
114.043877	18351.0
114.922607	1364.0
115.060707	34946.0
116.056618	241433.0
117.072594	74113.0
118.054466	14589.0
118.926949	30486.0
119.076134	64218.0
120.064934	17073.0
120.952095	2359.0
121.069733	31269.0
122.060745	10882.0
122.951828	2308.0
123.064949	49254.0
124.034035	28153.0
125.018867	20058.0
126.036552	5508.0
126.952286	1245.0
127.052597	29164.0
128.061661	28209.0
129.082718	43114.0
130.060028	122462.0
131.059708	88684.0
132.062866	72636.0
133.069229	34762.0
134.075592	8236.0
134.932877	2038.0
135.074341	24856.0
136.070251	36407.0
136.944336	88326.0
137.084946	19867.0
138.056091	6598.0
139.029404	27807.0
139.131775	1158.0
140.023361	7624.0
140.926193	5475.0
141.053986	31347.0
142.040237	235931.0
142.922272	1207.0
143.038757	38321.0
144.0298	83669.0
144.933075	1313.0
145.077698	63166.0
146.059082	18500.0
146.947357	1016.0
147.082321	71541.0
148.074768	15711.0
148.95723	1723.0
149.078735	19154.0
150.062119	8195.0
151.060074	16997.0
152.060028	28802.0
152.918976	7379.0
153.062149	35081.0
153.933014	1022.0
154.070969	10656.0
154.963074	2478.0
155.075684	18135.0
155.981659	3085.0
156.085815	7351.0
156.955154	2801.0
157.080994	14132.0
158.082352	27620.0
158.926575	7466.0
159.085968	20559.0
160.052765	19786.0
160.939789	4123.0
161.082352	24019.0
162.032516	127581.0
162.943649	2635.0
163.066284	28771.0
164.043732	13744.0
164.954712	18797.0
165.078812	13585.0
165.932892	1054.0
166.060333	9589.0
166.942291	1798.0
167.063873	14790.0
168.053848	10772.0
168.971466	2792.0
169.079834	15451.0
170.043839	25408.0
171.068863	18582.0
171.971939	1442.0
172.083649	7733.0
172.96344	1487.0
173.087326	51432.0
173.970764	1166.0
174.081345	13860.0
174.892761	22039.0
175.081131	18910.0
176.064194	10005.0
177.02861	20029.0
177.128937	5166.0
178.079453	7369.0
178.907089	2733.0
179.063644	36093.0
180.069748	8771.0
180.92308	21056.0
181.074326	30586.0
181.961258	1457.0
182.080231	6608.0
182.922974	4057.0
183.069733	19112.0
184.02742	8314.0
184.134491	2491.0
184.910416	2140.0
185.069946	15688.0
185.981934	1909.0
186.1203	7209.0
186.922089	11976.0
187.066971	42598.0
188.059631	14895.0
188.912064	1305.0
189.069595	17245.0
189.992111	2729.0
190.10321	5781.0
190.906845	5817.0
191.069931	18313.0
191.914246	2868.0
192.074875	6686.0
192.942352	5111.0
193.076553	24951.0
193.932526	1004.0
194.081299	7287.0
194.959793	3184.0
195.090683	15403.0
196.025406	7789.0
196.131943	2133.0
196.906769	13312.0
197.080109	19616.0
197.981201	2093.0
198.095596	5467.0
198.91214	15947.0
199.070023	16116.0
200.003326	8559.0
200.113083	2097.0
200.240753	11430.0
200.925339	8458.0
201.055527	77118.0
201.224747	3314.0
201.914642	1140.0
202.0625	14131.0
202.913284	11668.0
203.071152	34271.0
204.085785	9031.0
204.923584	5457.0
205.091278	12802.0
206.012451	12295.0
206.136826	2525.0
206.944199	3797.0
207.087173	14039.0
207.992157	2629.0
208.117752	6463.0
208.934174	3923.0
209.08252	26642.0
210.090347	8973.0
210.987991	2664.0
211.093384	11948.0
211.983322	1087.0
212.103897	5637.0
212.876648	4807.0
213.047821	12823.0
213.151443	1873.0
213.901505	1011.0
214.088745	8532.0
214.873718	8316.0
215.038025	35300.0
215.156525	2290.0
215.888992	1041.0
216.046417	10837.0
216.925278	18452.0
217.098038	8996.0
218.080856	4112.0
218.968185	9304.0
219.123703	7785.0
220.076141	4750.0
220.933121	16183.0
221.113815	10987.0
221.985336	1865.0
222.112442	5307.0
222.900772	3516.0
223.044785	22239.0
223.149246	2650.0
223.986053	1456.0
224.103607	5263.0
224.899612	1647.0
225.061157	12446.0
225.172852	1278.0
225.999054	1673.0
226.119583	5233.0
226.909195	1662.0
227.061523	17355.0
227.186569	1129.0
227.944458	2621.0
228.093185	9342.0
228.927902	2473.0
229.088654	10047.0
230.064224	3194.0
230.899567	6864.0
231.0923	8446.0
231.896515	1604.0
232.104462	6652.0
232.887848	11204.0
233.075378	27991.0
233.181915	1426.0
233.899902	1167.0
234.079971	5644.0
234.874496	1835.0
234.976212	4919.0
235.124084	11510.0
235.985229	1422.0
236.117798	3360.0
236.865051	1996.0
236.982239	3193.0
237.10968	15475.0
237.968201	1252.0
238.107361	4819.0
238.892593	8241.0
239.077698	13646.0
240.062485	5534.0
240.203598	2601.0
240.887299	5294.0
241.030716	4720.0
241.147324	3548.0
242.067917	3772.0
242.269897	2412.0
242.890091	3465.0
243.063934	6554.0
243.183197	1300.0
243.942535	1458.0
244.092804	3694.0
244.903778	3126.0
245.076584	21100.0
245.911667	2168.0
246.093231	4388.0
246.942429	4818.0
247.124664	7610.0
247.94635	1734.0
248.153336	7373.0
248.935654	4750.0
249.117538	14338.0
250.022888	2444.0
250.187256	22606.0
250.885986	2070.0
251.08606	27616.0
251.192291	5116.0
252.080643	6166.0
END IONS

BEGIN IONS
PEPMASS=180.114
CHARGE=1
MSLEVEL=2
SOURCE_INSTRUMENT=LC-ESI-qTof
FILENAME=DMIM_centroided_library_abundance_filtered.mgf
SEQ=*..*
IONMODE=Positive
ORGANISM=DMIM-DRUG-METABOLITE-LIBRARY
NAME=IPRONIAZID [M+H]+
PI=Libin Xu
DATACOLLECTOR=Dylan H. Ross
SMILES=CC(C)NNC(=O)C1=CC=NC=C1
INCHI=N/A
INCHIAUX=N/A
PUBMED=N/A
SUBMITUSER=jzemlin
LIBRARYQUALITY=3
SPECTRUMID=CCMSLIB00012468830
USI=mzspec:GNPS:DMIM-DRUG-METABOLITE-LIBRARY:accession:CCMSLIB00012468830
SCANS=3808
55.040657	2354.0
56.038452	3625.0
56.982922	2622.0
59.002064	6702.0
61.006687	1622.0
65.036942	2409.0
66.037537	3818.0
67.046715	5023.0
68.047546	1877.0
69.035706	3133.0
70.06353	5015.0
71.000648	2637.0
72.072716	1300.0
72.956947	1444.0
74.002586	1439.0
76.02533	5692.0
77.04248	12421.0
78.038544	7372.0
79.046738	96592.0
80.053238	24427.0
81.060936	7199.0
82.051201	3329.0
83.055367	15782.0
84.054634	18375.0
84.984238	13262.0
86.035355	5166.0
87.002815	1382.0
88.027077	2013.0
89.013306	1480.0
91.056778	22543.0
92.055092	4551.0
93.054672	18312.0
94.057617	3480.0
95.026604	17016.0
96.052979	3758.0
97.028252	9820.0
98.023163	5435.0
99.010475	6993.0
100.032097	4000.0
101.003654	2266.0
102.027542	2400.0
102.96067	11667.0
103.062126	3510.0
103.971001	1603.0
104.07988	1525.0
104.949249	1452.0
105.067398	19919.0
106.060043	5437.0
107.061531	13694.0
108.057663	13009.0
109.064217	16851.0
110.050941	5921.0
111.013969	7267.0
112.029381	9200.0
113.014099	5044.0
114.037659	3909.0
115.05732	11135.0
116.073296	8293.0
117.066231	8276.0
118.059669	2748.0
118.92807	90226.0
119.076973	16152.0
120.071213	6062.0
120.93087	1898.0
121.044418	122518.0
122.054222	15966.0
122.938927	6706.0
123.057053	28460.0
124.03701	14147.0
125.009598	8673.0
126.026314	3914.0
127.046875	7188.0
128.042358	14786.0
128.947128	1226.0
129.071106	13046.0
130.068863	8825.0
130.930328	1388.0
131.079086	11145.0
132.067413	4759.0
132.931641	2862.0
133.085022	10642.0
133.923904	1753.0
134.08432	4223.0
134.908371	17850.0
135.07515	14386.0
135.892624	1061.0
136.070038	38685.0
136.940506	80761.0
137.071899	26705.0
138.066025	9483.0
139.023254	12317.0
140.02092	3880.0
140.93129	4991.0
141.043701	22148.0
142.053879	23337.0
142.943909	3724.0
143.065598	11699.0
144.072433	7235.0
144.93129	1614.0
145.076767	12078.0
146.081223	6011.0
146.937485	1721.0
147.074173	11297.0
147.923477	1045.0
148.080368	4898.0
148.93924	2415.0
149.082687	10108.0
149.964355	1506.0
150.087891	4195.0
150.93367	2900.0
151.054779	8807.0
151.916779	3041.0
152.062714	8180.0
152.91568	24390.0
153.065628	11448.0
153.92009	2020.0
154.068985	5114.0
154.951294	3629.0
155.075958	10658.0
156.092163	5946.0
156.922485	1858.0
157.088257	9243.0
157.947052	1136.0
158.09819	6146.0
158.929016	4794.0
159.090408	11665.0
159.89621	1367.0
160.070251	7476.0
160.931931	2927.0
161.079849	9415.0
162.081329	6372.0
162.932251	4789.0
163.08493	7035.0
164.069885	4153.0
164.931015	5705.0
165.070084	11275.0
165.950928	4359.0
166.086929	3876.0
166.937408	2943.0
167.069244	7196.0
167.936127	1407.0
168.067322	5484.0
168.934128	2471.0
169.080826	7639.0
169.916336	1586.0
170.047623	11529.0
170.962585	1562.0
171.094315	5810.0
171.952484	1012.0
172.087158	4653.0
172.930939	1424.0
173.094925	7708.0
174.09848	3491.0
174.892014	13066.0
175.08017	7815.0
176.062546	5083.0
177.018143	9807.0
177.126175	2475.0
178.074631	5623.0
178.913818	4739.0
179.077805	7492.0
180.088242	3758.0
180.930344	15286.0
181.080231	7186.0
181.942276	1994.0
182.067902	2265.0
END IONS

BEGIN IONS
PEPMASS=308.97
CHARGE=1
MSLEVEL=2
SOURCE_INSTRUMENT=LC-ESI-qTof
FILENAME=DMIM_centroided_library_abundance_filtered.mgf
SEQ=*..*
IONMODE=Positive
ORGANISM=DMIM-DRUG-METABOLITE-LIBRARY
NAME=CHLORALOSE [M+H]+
PI=Libin Xu
DATACOLLECTOR=Dylan H. Ross
SMILES=C([C@H]([C@@H]1[C@@H]([C@@H]2[C@H](O1)O[C@@H](O2)C(Cl)(Cl)Cl)O)O)O
INCHI=N/A
INCHIAUX=N/A
PUBMED=N/A
SUBMITUSER=jzemlin
LIBRARYQUALITY=3
SPECTRUMID=CCMSLIB00012469022
USI=mzspec:GNPS:DMIM-DRUG-METABOLITE-LIBRARY:accession:CCMSLIB00012469022
SCANS=4000
55.04805	4293.0
56.053509	13326.0
57.026329	2731.0
58.051792	1459.0
58.99984	121186.0
60.018417	2917.0
61.005207	6868.0
62.990658	1947.0
65.035934	1814.0
67.055878	6507.0
68.050262	2404.0
69.045418	6931.0
70.065437	12483.0
71.044395	2663.0
72.083328	4946.0
73.02581	5936.0
74.044617	1811.0
76.026405	426327.0
77.03849	25241.0
78.024178	15030.0
79.051453	9486.0
80.054169	28304.0
81.067482	12743.0
82.05555	2646.0
83.054634	10048.0
84.050728	449237.0
85.037743	26508.0
86.078262	10432.0
86.998505	14900.0
88.027077	31525.0
89.027939	3048.0
90.024147	1501.0
91.058495	13144.0
92.055847	1775.0
93.071815	9264.0
94.067093	1675.0
95.05912	19433.0
96.052933	4285.0
97.038544	42117.0
98.021225	12007.0
99.014923	13428.0
100.046661	4312.0
101.044502	2308.0
102.063423	5195.0
103.041527	3359.0
104.060738	1820.0
105.069092	11837.0
106.066826	2636.0
107.079773	11683.0
108.061829	9536.0
109.079742	20958.0
110.064323	11224.0
111.050621	13644.0
112.034126	9200.0
113.033669	8729.0
114.041153	12108.0
115.061546	6414.0
116.024025	127905.0
116.151978	2801.0
117.044136	10910.0
118.0271	7158.0
118.928955	7210.0
119.072906	14982.0
120.061195	13979.0
120.975853	5114.0
121.086113	19309.0
122.062431	9464.0
122.959358	1214.0
123.067535	46323.0
124.036652	19345.0
124.981506	14438.0
125.081749	7261.0
126.051567	4317.0
127.036072	10327.0
128.059708	5081.0
129.098755	22618.0
130.059235	105919.0
131.07045	13509.0
132.056534	5674.0
133.065704	16067.0
134.072327	5397.0
135.078491	17478.0
136.071487	27354.0
136.948608	33562.0
137.08342	20623.0
138.066788	7498.0
139.042191	25352.0
140.041107	6891.0
140.928467	2430.0
141.054352	20813.0
142.040939	187995.0
143.021103	33140.0
144.025497	57434.0
144.970718	1183.0
145.071716	16476.0
146.048279	8707.0
147.078903	15241.0
148.068619	6176.0
148.975006	1570.0
149.085846	14438.0
150.066772	7123.0
151.065933	16821.0
152.068146	39193.0
152.919037	2498.0
153.067474	39716.0
154.070114	8792.0
155.066788	13703.0
155.986206	2242.0
156.088013	6086.0
157.069916	13133.0
157.977646	1174.0
158.107849	6137.0
158.957428	5771.0
159.098969	14337.0
160.057816	15265.0
160.944519	2175.0
161.084717	15532.0
162.033401	115808.0
163.068344	26593.0
164.054077	10967.0
164.95314	19551.0
165.081604	15439.0
166.059448	8221.0
166.945801	1171.0
167.064545	15119.0
168.062622	13017.0
169.072006	14992.0
170.04509	23478.0
171.07901	17742.0
171.981598	1413.0
172.094757	6496.0
172.972839	1089.0
173.076736	20569.0
174.064209	8353.0
174.900742	10380.0
175.081116	19816.0
176.072739	7468.0
176.96376	3618.0
177.069717	21757.0
178.080368	5407.0
178.925186	1944.0
179.067215	38880.0
180.071793	8677.0
180.916046	12703.0
181.076782	34554.0
182.08107	6682.0
182.920105	2330.0
183.074936	23165.0
184.071564	8161.0
184.918839	1023.0
185.069244	17954.0
185.170395	1162.0
186.08519	6444.0
186.206665	3788.0
186.922012	9967.0
187.071518	35230.0
188.05957	13531.0
189.068466	16233.0
190.013504	4672.0
190.127014	2195.0
190.913773	2466.0
191.076645	20107.0
191.911285	1841.0
192.077545	6675.0
192.954666	4105.0
193.083588	27674.0
194.087891	7096.0
194.968704	2401.0
195.091171	19373.0
196.058975	10298.0
196.910172	11875.0
197.090332	30084.0
198.091232	7745.0
198.898209	6671.0
199.061554	19340.0
200.000137	7271.0
200.115555	2204.0
200.232941	5533.0
200.938553	18472.0
201.057068	44913.0
201.214432	1942.0
202.071854	9549.0
202.910065	6056.0
203.071838	48321.0
204.076263	7422.0
204.923065	3891.0
205.090546	14021.0
206.01181	11594.0
206.128479	2383.0
206.969345	3731.0
207.094711	14604.0
207.981812	1406.0
208.101776	4792.0
208.930084	2571.0
209.088165	36117.0
210.088654	7816.0
210.961411	1594.0
211.093643	15799.0
212.102692	5930.0
212.876251	5081.0
213.075516	14938.0
214.084656	10117.0
214.877701	3513.0
215.0439	46337.0
215.162842	2466.0
216.046204	11222.0
216.934235	13152.0
217.091339	12174.0
217.980606	1308.0
218.106033	3959.0
218.936462	4944.0
219.109955	12489.0
220.105515	4258.0
220.930862	11664.0
221.112473	13472.0
221.974014	1258.0
222.098373	5663.0
222.93425	7892.0
223.083176	24426.0
223.957748	1255.0
224.101929	5565.0
224.932205	2043.0
225.090714	14724.0
225.968826	1163.0
226.119949	5882.0
226.909912	2254.0
227.070251	18967.0
227.964935	1459.0
228.102859	14012.0
228.941208	1636.0
229.09314	13153.0
230.109894	3642.0
230.879257	2777.0
231.007462	2661.0
231.112717	8555.0
231.906204	1282.0
232.088882	6511.0
232.891724	7122.0
233.079132	34527.0
233.902725	1186.0
234.083267	6712.0
234.183609	1050.0
234.87941	1857.0
234.994781	5153.0
235.123398	18939.0
236.114929	4084.0
236.866394	1504.0
236.994324	1960.0
237.11348	18121.0
237.979401	1415.0
238.111282	5251.0
238.917496	8174.0
239.089737	14947.0
240.052261	5631.0
240.215622	4404.0
240.868774	1394.0
241.001953	5822.0
241.141174	4159.0
242.055267	3192.0
242.166885	1392.0
242.286346	3990.0
242.886627	2284.0
243.072784	6816.0
243.177582	1425.0
244.089005	4689.0
244.908112	2188.0
245.082184	21500.0
246.086868	4455.0
246.225082	1027.0
246.986115	3191.0
247.130219	9425.0
247.966232	1503.0
248.139236	3530.0
248.94635	3511.0
249.115005	22643.0
250.121353	5278.0
250.896057	1239.0
251.090561	41577.0
252.090454	7647.0
253.010864	4018.0
253.135483	12791.0
254.006989	1481.0
254.146103	3576.0
254.864471	13440.0
255.07608	10755.0
255.18248	1953.0
256.053467	5332.0
256.16806	1460.0
256.296692	2199.0
256.997925	9082.0
257.15799	4049.0
258.0271	12460.0
258.167389	1705.0
258.892548	5032.0
259.011963	2914.0
259.137268	7040.0
259.990997	1244.0
260.141602	2984.0
260.885895	7207.0
261.034241	2729.0
261.136505	12587.0
261.983032	1623.0
262.144501	3073.0
262.8638	1267.0
262.97406	1710.0
263.141846	12261.0
263.976196	1568.0
264.140533	4329.0
264.912231	2380.0
265.027161	1602.0
265.141235	14671.0
266.133392	4966.0
266.929993	4122.0
267.119263	13699.0
268.012634	1527.0
268.127808	4249.0
268.979889	2793.0
269.140991	6703.0
269.964874	1491.0
270.132385	3719.0
270.848297	5355.0
271.006165	2655.0
271.145447	4761.0
272.040558	1227.0
272.171082	2602.0
272.886017	2261.0
273.075806	10346.0
273.188232	2498.0
274.01416	2721.0
274.148895	2781.0
274.879211	2044.0
274.99942	1291.0
275.149811	10823.0
275.996521	1409.0
276.16568	3141.0
276.864929	3552.0
277.010986	3019.0
277.154694	16172.0
278.096069	6972.0
278.881927	3975.0
279.127197	24014.0
279.228394	1347.0
280.129547	5184.0
280.914459	3082.0
281.142029	10431.0
281.97226	1483.0
282.145599	2756.0
282.873169	6374.0
283.018799	1402.0
283.148407	6834.0
284.091705	4098.0
284.889252	1806.0
285.072937	18332.0
285.193756	1386.0
286.064972	6965.0
286.915161	3018.0
287.130859	5697.0
287.879578	1165.0
288.078247	3150.0
288.87738	7885.0
289.03067	2404.0
289.139404	9147.0
290.139496	3595.0
290.907104	1003.0
291.045044	3004.0
291.149231	17384.0
292.158997	4328.0
292.853668	1281.0
292.979614	1621.0
293.156647	17421.0
294.160126	4903.0
294.879211	2409.0
295.022583	1075.0
295.155182	16990.0
295.985962	1625.0
296.160736	4571.0
296.908813	3187.0
297.15448	6112.0
298.157318	2538.0
298.87912	3492.0
298.990173	1852.0
299.163727	3772.0
300.091522	2394.0
300.899841	4745.0
301.080017	5506.0
301.188934	1847.0
302.062164	2519.0
302.194092	1132.0
302.897064	2900.0
303.158936	9596.0
304.042542	2606.0
304.188507	1684.0
304.854279	4539.0
305.170746	17270.0
306.168335	3927.0
306.881195	1031.0
307.043152	6137.0
307.158661	18453.0
308.029388	3692.0
308.177338	3557.0
308.879761	1764.0
309.026642	1291.0
309.166229	18993.0
310.015106	1125.0
310.170624	3451.0
310.878937	1321.0
END IONS

BEGIN IONS
PEPMASS=439.187
CHARGE=1
MSLEVEL=2
SOURCE_INSTRUMENT=LC-ESI-qTof
FILENAME=DMIM_centroided_library_abundance_filtered.mgf
SEQ=*..*
IONMODE=Positive
ORGANISM=DMIM-DRUG-METABOLITE-LIBRARY
NAME=SUXIBUZONE [M+H]+
PI=Libin Xu
DATACOLLECTOR=Dylan H. Ross
SMILES=CCCCC1(C(=O)N(N(C1=O)C2=CC=CC=C2)C3=CC=CC=C3)COC(=O)CCC(=O)O
INCHI=N/A
INCHIAUX=N/A
PUBMED=N/A
SUBMITUSER=jzemlin
LIBRARYQUALITY=3
SPECTRUMID=CCMSLIB00012470773
USI=mzspec:GNPS:DMIM-DRUG-METABOLITE-LIBRARY:accession:CCMSLIB00012470773
SCANS=5751
55.04435	1140.0
58.068878	2836.0
65.010612	1027.0
67.05571	1182.0
69.067451	1068.0
70.068527	6800.0
72.084816	3157.0
73.045006	1170.0
76.025101	1515.0
77.040001	1104.0
81.071777	2825.0
84.067619	8098.0
85.042137	2086.0
86.098572	5441.0
91.050423	2882.0
93.068031	1123.0
94.071167	1285.0
95.082718	3860.0
97.045212	4529.0
99.008675	1863.0
101.041267	2104.0
104.060623	2351.0
105.072754	12022.0
106.071701	2672.0
107.078346	1218.0
108.0504	1952.0
109.094254	3153.0
110.077766	3607.0
111.076874	1857.0
112.085808	1887.0
113.062073	1031.0
115.068932	1384.0
116.053703	1574.0
118.067207	2808.0
119.066689	2101.0
120.078949	6590.0
121.051102	5106.0
122.082336	2251.0
123.0616	12898.0
124.060959	1522.0
124.979004	2052.0
125.088982	1045.0
126.096428	1747.0
127.057404	1095.0
128.070053	1385.0
129.104813	11869.0
130.066711	8622.0
131.06427	3967.0
132.054306	2829.0
133.045792	3382.0
134.064987	1417.0
135.084457	2754.0
136.068634	37841.0
136.935043	2170.0
137.068481	10110.0
138.074936	2297.0
139.056885	5208.0
140.061539	1101.0
141.079941	1762.0
142.046158	2829.0
142.959671	5747.0
143.107162	2134.0
144.055939	2201.0
145.080338	2951.0
146.063858	5475.0
146.990112	1563.0
147.095734	3245.0
148.072647	2240.0
149.081924	3499.0
150.075989	1446.0
151.074051	2681.0
152.073563	1632.0
153.067657	3430.0
154.07341	1244.0
155.091629	9299.0
156.097961	2156.0
157.10257	2670.0
158.092209	1868.0
158.937729	2735.0
159.091263	5349.0
160.117096	53281.0
161.112259	8975.0
162.095001	12014.0
163.081619	6266.0
164.072128	2884.0
164.937927	14399.0
165.075302	6163.0
166.074707	2326.0
167.078583	3653.0
168.056625	2529.0
169.101089	5454.0
170.076111	1705.0
171.097183	4204.0
172.107803	2369.0
173.002701	1238.0
173.111908	5222.0
174.078934	4052.0
174.9189	5774.0
175.101624	3564.0
176.086975	1326.0
177.0522	16962.0
178.067307	1907.0
179.076172	14105.0
180.081177	3129.0
180.913574	5380.0
181.084946	15979.0
182.08812	2733.0
183.107101	12226.0
184.084442	4781.0
185.096573	5638.0
186.105881	2932.0
186.926773	2825.0
187.099426	4005.0
188.106155	3070.0
189.080338	3507.0
190.120972	2900.0
191.082214	5636.0
192.09436	1834.0
192.961716	1036.0
193.089935	10480.0
194.087418	2394.0
195.069992	15376.0
196.08165	2705.0
196.9133	4587.0
197.093643	23062.0
197.200241	1457.0
198.09285	3212.0
198.905746	1009.0
199.073364	5914.0
200.115768	3914.0
200.944885	22653.0
201.12236	4377.0
202.121597	5292.0
202.920624	1204.0
203.104141	4897.0
204.111923	1594.0
204.915878	1399.0
205.095566	5059.0
206.083008	2462.0
207.101212	7205.0
208.100082	4004.0
209.08963	16909.0
210.098373	2430.0
211.098419	11819.0
212.095551	2749.0
212.866928	2525.0
213.10173	6055.0
214.111053	3701.0
215.01796	2637.0
215.165161	3969.0
216.106339	2626.0
216.974396	7678.0
217.132843	2557.0
218.115616	1218.0
219.109756	4912.0
220.108444	1527.0
220.953979	1407.0
221.108383	8542.0
222.119232	2439.0
222.923508	6077.0
223.10025	12269.0
224.115463	2024.0
225.122894	21499.0
226.13237	5916.0
226.975479	3747.0
227.107239	5579.0
228.111252	3672.0
229.106354	3950.0
230.114563	1712.0
231.061279	14713.0
232.090973	10335.0
233.099899	9009.0
234.105972	1884.0
235.019928	5520.0
235.12001	10035.0
236.105545	2481.0
236.981094	1799.0
237.122131	13555.0
238.117279	2517.0
238.933746	3178.0
239.11499	9640.0
240.116653	2420.0
240.236069	9313.0
241.102432	4012.0
241.240448	1367.0
242.14798	2684.0
242.94487	1556.0
243.116776	3364.0
244.118866	2190.0
244.905426	2034.0
245.099136	4703.0
246.13121	1470.0
247.116776	4495.0
248.127487	1358.0
249.074081	13356.0
249.179901	1636.0
250.095963	12804.0
250.96225	1139.0
251.128967	15418.0
252.126266	2867.0
253.126297	9875.0
254.157928	15179.0
254.90538	3259.0
255.132309	8414.0
256.125153	3291.0
257.015259	4360.0
257.146881	2269.0
258.139038	1650.0
259.124115	3347.0
260.128204	1330.0
260.895142	1197.0
261.138184	4526.0
262.138519	2271.0
262.943115	1013.0
263.135986	6377.0
264.136169	1485.0
265.121857	9414.0
266.136841	2939.0
266.909882	1554.0
267.126404	17394.0
268.130371	3498.0
268.274536	1343.0
269.136749	7020.0
270.150238	2219.0
270.905212	1106.0
271.085175	2927.0
271.237122	58328.0
272.235718	10093.0
272.895233	1786.0
273.160797	3206.0
274.151367	1331.0
275.154327	4523.0
276.153595	2065.0
277.148651	6986.0
278.138916	1676.0
278.911743	1745.0
279.149994	9117.0
280.162018	2169.0
281.139099	7742.0
282.181366	6209.0
282.874023	1308.0
283.150848	6430.0
284.132019	2448.0
284.911926	1726.0
285.138855	5860.0
286.035248	1952.0
286.163849	1892.0
287.137299	2634.0
288.110016	1837.0
288.88797	2536.0
289.126343	3913.0
290.142273	1404.0
291.157562	5731.0
292.17215	1573.0
293.165161	10698.0
294.167572	2286.0
294.873383	1666.0
295.161682	8972.0
296.157654	2289.0
296.960358	7776.0
297.154022	4374.0
298.173859	2363.0
298.855652	1654.0
298.996613	1325.0
299.158203	3985.0
300.167755	2038.0
300.898315	1941.0
301.152252	3161.0
302.149017	3510.0
303.162842	3427.0
304.172089	1958.0
305.157501	4036.0
306.135925	1432.0
306.897003	1637.0
307.162659	7376.0
308.106934	5662.0
309.172302	64540.0
310.181	23455.0
310.89032	1359.0
311.18576	9555.0
312.074677	3964.0
312.198669	2275.0
312.928925	1778.0
313.175415	3866.0
314.164825	1700.0
314.977753	4192.0
315.168396	3296.0
316.148773	1785.0
317.00293	1538.0
317.187622	3248.0
318.161194	1202.0
318.932739	2654.0
319.102844	1382.0
319.206146	4890.0
320.210297	1314.0
321.174103	7400.0
322.177917	2201.0
322.895508	2766.0
323.170013	7740.0
324.165955	1842.0
325.172516	8961.0
326.176025	2404.0
326.993896	1088.0
327.180573	4831.0
328.063477	1387.0
328.200287	1330.0
328.877533	1919.0
329.030487	11526.0
329.187469	2790.0
330.083282	10142.0
330.20108	1221.0
330.966675	1608.0
331.15213	12349.0
332.090607	4506.0
332.193573	1173.0
332.982819	1144.0
333.180054	4087.0
334.04071	2274.0
334.199432	1233.0
334.91983	1897.0
335.189575	6166.0
336.19165	1702.0
336.951385	3154.0
337.180176	5520.0
338.187988	1944.0
338.869904	2112.0
339.202484	9679.0
340.201172	2230.0
340.921783	1010.0
341.182617	5222.0
342.190643	1884.0
343.188995	4084.0
344.189697	1917.0
344.87735	1025.0
345.190765	2513.0
346.058258	19213.0
347.044373	20960.0
347.208557	3457.0
348.058807	4312.0
348.21579	1022.0
349.03833	1203.0
349.199982	5527.0
350.03421	2059.0
350.198761	1708.0
350.859314	1335.0
351.006195	7739.0
351.191345	5800.0
352.072662	2753.0
352.857239	1716.0
353.142792	42174.0
354.146057	8219.0
354.879211	1381.0
355.109253	4704.0
355.218384	1757.0
356.124359	1720.0
356.867462	1632.0
357.169342	4836.0
358.182526	1582.0
358.916779	2363.0
359.20401	4296.0
360.177826	1130.0
360.881165	1070.0
361.180267	8879.0
362.185059	2725.0
363.009674	1423.0
363.200104	5257.0
364.215088	1530.0
365.164368	9498.0
366.214783	1539.0
366.961334	1537.0
367.206299	6241.0
368.037384	5655.0
368.209625	1621.0
368.832947	1244.0
369.044861	8046.0
369.176422	5121.0
370.043274	2023.0
370.215881	2160.0
370.858582	2503.0
371.152435	2177.0
371.269623	5890.0
372.274139	1535.0
373.200439	6213.0
374.052185	8270.0
374.205597	1367.0
374.860687	1202.0
375.039154	1890.0
375.220184	4886.0
376.052612	1171.0
376.244598	1769.0
376.876312	1020.0
377.215759	5102.0
378.209106	1257.0
379.213959	5078.0
380.213928	1046.0
381.088959	3062.0
381.218201	10610.0
382.219025	2757.0
383.205627	3958.0
384.009521	4875.0
384.225891	2482.0
385.010529	1430.0
385.213196	3497.0
386.009216	1091.0
386.236542	1397.0
386.724152	1247.0
387.21637	3526.0
388.216156	1330.0
389.187469	4237.0
389.291443	1670.0
390.02597	7366.0
390.24411	1489.0
390.832642	1624.0
391.025238	1427.0
391.206665	23366.0
392.019653	1284.0
392.207825	4131.0
392.896332	1047.0
393.20752	4144.0
393.728119	1114.0
394.228607	1945.0
394.93515	1301.0
395.185516	7739.0
396.22998	2320.0
396.868927	1176.0
397.21283	3527.0
398.25592	9538.0
399.246033	5168.0
400.24527	1225.0
400.808533	1008.0
401.151001	1227.0
401.295349	12976.0
402.297668	2771.0
403.248901	5290.0
404.243835	1899.0
405.257568	5012.0
405.99704	7192.0
406.262238	2123.0
406.979889	1336.0
407.234619	3975.0
408.002808	1587.0
408.23877	2074.0
408.845734	1252.0
409.184296	17387.0
410.030823	2899.0
410.192169	5074.0
411.230194	3276.0
412.262482	2307.0
412.836151	1282.0
413.251099	3042.0
414.24176	1553.0
414.823456	1207.0
415.172852	1109.0
415.305298	11446.0
416.306366	2845.0
417.261292	3715.0
418.234314	1143.0
418.815552	1356.0
419.15094	1368.0
419.274933	5221.0
420.213745	1871.0
420.856018	1055.0
421.24469	5235.0
421.974091	2163.0
422.254974	1937.0
423.252991	3858.0
424.265686	2160.0
425.155853	1505.0
425.265442	3751.0
426.274506	1255.0
427.008362	37589.0
427.233765	3262.0
428.032196	6560.0
428.246338	1718.0
429.011322	1519.0
429.269836	3252.0
429.990234	1530.0
430.234161	3408.0
430.963379	1543.0
431.162109	1470.0
431.298859	6614.0
432.295563	2045.0
433.261719	5654.0
434.267883	2654.0
434.779968	1412.0
435.265289	5232.0
436.250305	2518.0
436.794098	1692.0
437.245697	5699.0
438.250244	1846.0
439.249634	3290.0
440.249695	2022.0
END IONS

BEGIN IONS
PEPMASS=152.069
CHARGE=1
MSLEVEL=2
SOURCE_INSTRUMENT=LC-ESI-qTof
FILENAME=DMIM_centroided_library_abundance_filtered.mgf
SEQ=*..*
IONMODE=Positive
ORGANISM=DMIM-DRUG-METABOLITE-LIBRARY
NAME=CYCLOLEUCINE [M+Na]+
PI=Libin Xu
DATACOLLECTOR=Dylan H. Ross
SMILES=C1CCC(C1)(C(=O)O)N
INCHI=N/A
INCHIAUX=N/A
PUBMED=N/A
SUBMITUSER=jzemlin
LIBRARYQUALITY=3
SPECTRUMID=CCMSLIB00012471014
USI=mzspec:GNPS:DMIM-DRUG-METABOLITE-LIBRARY:accession:CCMSLIB00012471014
SCANS=5992
58.712917	1278.0
58.971748	1009.0
72.91497	1140.0
77.034355	1340.0
79.047089	1062.0
84.987083	1015.0
91.052521	1951.0
102.940559	1818.0
105.059555	1133.0
107.100525	1292.0
109.016541	1462.0
115.068657	2376.0
117.049736	1170.0
118.926117	7033.0
119.059708	1276.0
122.082581	1195.0
122.954155	3520.0
123.078995	1082.0
124.022469	1324.0
124.95108	2202.0
127.0158	1665.0
128.034424	2031.0
129.067093	1330.0
134.898819	10598.0
135.06282	1110.0
136.058929	1850.0
136.937164	1948.0
139.023453	1388.0
141.016647	3019.0
142.054932	1316.0
142.969971	2816.0
145.061768	1028.0
150.978409	1032.0
152.059967	1086.0
152.915359	3506.0
153.07077	1707.0
END IONS

BEGIN IONS
PEPMASS=228.115
CHARGE=1
MSLEVEL=2
SOURCE_INSTRUMENT=LC-ESI-qTof
FILENAME=DMIM_centroided_library_abundance_filtered.mgf
SEQ=*..*
IONMODE=Positive
ORGANISM=DMIM-DRUG-METABOLITE-LIBRARY
NAME=TULOBUTEROL [M+H]+
PI=Libin Xu
DATACOLLECTOR=Dylan H. Ross
SMILES=CC(C)(NCC(O)C1=CC=CC=C1Cl)C
INCHI=N/A
INCHIAUX=N/A
PUBMED=N/A
SUBMITUSER=jzemlin
LIBRARYQUALITY=3
SPECTRUMID=CCMSLIB00012471367
USI=mzspec:GNPS:DMIM-DRUG-METABOLITE-LIBRARY:accession:CCMSLIB00012471367
SCANS=6345
56.051826	1603.0
57.028461	1038.0
58.99868	12172.0
70.0653	3721.0
76.025162	28035.0
77.038361	2639.0
78.031586	1312.0
79.04364	1586.0
80.05162	5944.0
81.053856	1687.0
83.056465	4152.0
84.052094	39648.0
85.019012	5182.0
86.060104	3833.0
86.996758	1582.0
88.025024	3078.0
91.057121	18672.0
92.05999	1745.0
93.064453	1576.0
95.026787	3171.0
96.047241	1077.0
97.032669	4945.0
98.02198	2801.0
99.010117	2123.0
101.043259	1043.0
102.048996	2021.0
102.956184	1568.0
104.063118	1366.0
105.067291	2954.0
106.042435	1623.0
107.066162	2832.0
108.055168	3235.0
109.073219	3489.0
110.068596	3126.0
111.03231	1619.0
112.048538	2242.0
113.033958	1633.0
114.048767	2653.0
115.058868	1705.0
116.024139	13907.0
116.14682	1224.0
117.060936	5928.0
118.069336	54472.0
118.92482	40211.0
119.076775	68529.0
120.077019	7711.0
120.973022	2245.0
121.087173	2199.0
122.057877	1576.0
123.057869	22174.0
124.038963	6035.0
125.020782	2973.0
126.046158	1029.0
127.042992	1558.0
128.053558	1748.0
129.094055	5913.0
130.058502	10503.0
131.058136	2658.0
132.060532	5219.0
133.0495	3116.0
134.065842	1591.0
134.917389	1900.0
135.069336	2755.0
136.066681	42302.0
136.939896	51372.0
137.073212	4350.0
138.062759	1329.0
139.021683	3705.0
140.030945	1293.0
140.927582	1181.0
141.04837	6181.0
142.039124	28421.0
143.041977	5270.0
144.029099	7280.0
145.075104	2292.0
146.050629	1869.0
147.07164	2378.0
148.067093	1439.0
149.077469	2085.0
150.05661	1605.0
151.042542	2309.0
152.060745	2916.0
152.920959	4491.0
153.064285	3181.0
154.048309	41784.0
155.059586	6077.0
156.048859	14844.0
157.063385	3164.0
158.097687	1688.0
158.929184	2591.0
159.08165	2602.0
160.06279	3792.0
161.055008	2839.0
162.029266	12060.0
163.048355	2955.0
164.055511	1542.0
164.939545	9918.0
165.0784	1883.0
166.059219	1575.0
166.935822	1012.0
167.069305	2486.0
168.066574	1598.0
169.073212	2459.0
170.038544	4802.0
171.05899	3033.0
172.061661	1352.0
173.069778	4528.0
174.072495	1866.0
174.886017	10900.0
175.083206	2727.0
176.058502	1542.0
177.019653	6617.0
178.060547	1532.0
178.9086	1473.0
179.058823	5050.0
180.917755	12830.0
181.071701	3326.0
182.074615	1455.0
182.926498	2790.0
183.073853	2589.0
183.950684	1091.0
184.086823	1002.0
184.906693	1116.0
185.052551	2972.0
186.084442	1868.0
186.918823	39239.0
187.06691	5560.0
188.051758	2467.0
189.037933	2509.0
190.064545	1377.0
190.873184	2868.0
191.05249	2630.0
192.061905	1569.0
192.905777	1320.0
193.080109	2518.0
194.081421	1021.0
195.095169	2391.0
196.10257	1121.0
196.90329	4573.0
197.099869	2383.0
198.078003	1205.0
198.911942	5454.0
199.067017	2727.0
200.063721	1245.0
200.238876	3389.0
200.917725	3084.0
201.051712	26332.0
202.056671	3906.0
202.905396	10568.0
203.087799	1782.0
204.077835	1685.0
204.903763	5076.0
205.084015	1915.0
207.087646	1974.0
208.092468	1006.0
209.087479	1890.0
210.09613	1087.0
211.095612	1556.0
212.884628	2113.0
213.057388	1565.0
214.082611	1684.0
214.887833	3882.0
215.059448	2974.0
216.053513	1269.0
216.907059	3333.0
217.090881	1675.0
218.912872	3337.0
219.101303	1176.0
220.923141	5993.0
221.105515	2071.0
222.92012	2221.0
223.093216	1280.0
225.103165	1208.0
227.060959	1866.0
229.093536	1116.0
END IONS

BEGIN IONS
PEPMASS=258.125
CHARGE=1
MSLEVEL=2
SOURCE_INSTRUMENT=LC-ESI-qTof
FILENAME=DMIM_centroided_library_abundance_filtered.mgf
SEQ=*..*
IONMODE=Positive
ORGANISM=DMIM-DRUG-METABOLITE-LIBRARY
NAME=CARMOFUR [M+H]+
PI=Libin Xu
DATACOLLECTOR=Dylan H. Ross
SMILES=CCCCCCNC(=O)N1C=C(C(=O)NC1=O)F
INCHI=N/A
INCHIAUX=N/A
PUBMED=N/A
SUBMITUSER=jzemlin
LIBRARYQUALITY=3
SPECTRUMID=CCMSLIB00012471443
USI=mzspec:GNPS:DMIM-DRUG-METABOLITE-LIBRARY:accession:CCMSLIB00012471443
SCANS=6421
56.050716	3176.0
58.998524	30562.0
61.010029	1201.0
69.053383	1146.0
70.066315	5116.0
72.082497	1764.0
73.020294	1443.0
76.025154	103793.0
77.035095	3514.0
78.02449	2599.0
79.040367	1864.0
80.052628	8973.0
81.05648	2244.0
82.052483	1055.0
83.056885	4333.0
84.050636	121159.0
85.030838	7241.0
86.069626	4261.0
87.000175	3438.0
88.02494	7115.0
88.993378	1708.0
91.050262	2719.0
93.06414	1941.0
95.045639	3349.0
96.053947	1560.0
97.031357	5011.0
98.021812	4490.0
99.009995	3284.0
100.053635	1324.0
102.064377	1332.0
102.955971	1141.0
105.064415	2560.0
107.070068	2593.0
108.05452	4342.0
109.072929	3620.0
110.067909	4452.0
111.052132	2228.0
112.049973	3407.0
113.02182	2237.0
114.046455	4409.0
115.065514	1813.0
116.02343	37063.0
116.148392	1003.0
117.035515	3195.0
118.030037	1659.0
118.927223	22982.0
119.072784	2899.0
120.066383	3815.0
120.978745	3373.0
121.089508	2246.0
122.039398	1968.0
123.060463	15437.0
124.039719	7036.0
125.02034	3365.0
126.061005	1440.0
127.042122	1840.0
128.063553	1638.0
129.097183	8935.0
130.057861	28596.0
131.062271	3995.0
132.060776	4981.0
133.054321	3767.0
134.080276	1307.0
135.068893	3478.0
136.06813	23416.0
136.939636	50969.0
137.076843	4106.0
138.07048	1485.0
139.019775	3972.0
140.037018	2021.0
141.054291	8058.0
142.039307	60465.0
143.035568	7708.0
144.022736	17120.0
145.046738	4338.0
146.038879	2389.0
147.068253	4254.0
148.062256	1894.0
149.076859	3204.0
150.068985	1744.0
151.044876	3246.0
152.060394	3912.0
152.915771	1322.0
153.061798	4273.0
154.076385	2670.0
155.078003	3857.0
156.076218	1686.0
157.086853	1891.0
158.097855	2721.0
158.944931	2538.0
159.087387	3636.0
160.069061	3547.0
161.074051	3591.0
162.030533	33016.0
163.051544	5417.0
164.046341	2410.0
164.939499	17855.0
165.077927	2732.0
165.961151	1757.0
166.089798	1405.0
167.068481	3018.0
168.071854	2127.0
169.068237	3867.0
170.042572	7029.0
171.063965	3858.0
172.074234	1830.0
173.065506	5576.0
174.064957	2720.0
174.888458	15044.0
175.082245	3611.0
176.068253	1938.0
177.021896	6904.0
178.071014	1809.0
178.903214	1074.0
179.060745	9864.0
180.07605	2033.0
180.925522	18084.0
181.072433	5104.0
181.981949	1584.0
182.098434	1159.0
182.930466	3388.0
183.076172	3720.0
184.109467	1661.0
185.061218	3988.0
186.089294	2483.0
186.920715	44769.0
187.068359	10753.0
188.059845	4512.0
189.049393	4185.0
190.061371	1943.0
190.871399	2395.0
191.066849	3871.0
192.069122	1802.0
192.904892	1682.0
193.073975	3949.0
194.102722	1314.0
195.086014	3702.0
196.081909	2013.0
196.895309	6997.0
197.090942	3237.0
198.077026	1777.0
198.917587	7355.0
199.064163	5375.0
200.042328	1884.0
200.240021	2252.0
200.925903	4278.0
201.054031	27432.0
202.058701	4075.0
202.904236	12653.0
203.082474	4849.0
204.082001	1829.0
204.906082	4784.0
205.093674	2634.0
206.00267	3361.0
207.088882	3766.0
208.11142	1594.0
209.081604	3838.0
210.063644	1454.0
211.091721	3516.0
212.106064	1192.0
212.872986	1782.0
213.050797	2725.0
214.086212	2704.0
214.8927	2508.0
215.054108	5438.0
216.065567	2145.0
216.914062	4515.0
217.07782	2239.0
218.905197	4165.0
219.103424	2104.0
220.920441	6888.0
221.103683	2858.0
222.121292	1053.0
222.893066	1540.0
223.039093	4998.0
224.117767	1170.0
225.051178	1891.0
225.165222	1016.0
226.131912	1605.0
226.903671	1491.0
227.063278	3927.0
228.059357	1730.0
228.922272	1326.0
229.094437	1554.0
230.88385	1070.0
231.061523	3573.0
231.869476	1136.0
232.086975	1948.0
232.890625	2567.0
233.078247	5606.0
234.079926	1241.0
234.91246	2773.0
235.10701	4670.0
236.126526	1390.0
236.878006	1175.0
237.1026	4396.0
238.103378	1257.0
238.881622	2622.0
239.080734	2674.0
240.13652	1193.0
240.878265	2524.0
241.12532	1336.0
242.143005	1522.0
242.882767	1391.0
243.077972	1394.0
244.891571	1456.0
245.074615	5549.0
246.893463	1092.0
247.108414	1553.0
248.897583	2754.0
249.11377	2531.0
250.08934	1220.0
250.894302	1400.0
251.103729	4500.0
252.106522	1380.0
253.122894	3080.0
254.147507	1656.0
254.859161	10855.0
255.063644	2047.0
256.053192	1585.0
257.09079	2186.0
258.037537	1125.0
258.872711	2350.0
259.121063	1403.0
END IONS

BEGIN IONS
PEPMASS=451.212
CHARGE=1
MSLEVEL=2
SOURCE_INSTRUMENT=ESI-Orbitrap
FILENAME=gnps_msn_lib_pos.mgf
SEQ=*..*
IONMODE=Positive
ORGANISM=MSNLIB-POSITIVE
NAME=sofalcone [M+H]+
PI=Tomas Pluskal
DATACOLLECTOR=Corinna Brungs
SMILES=CC(C)=CCOc1ccc(/C=C/C(=O)c2c(OCC(=O)O)cc(OCC=C(C)C)cc2)cc1
INCHI=InChI=1S/C27H30O6/c1-19(2)13-15-31-22-8-5-21(6-9-22)7-12-25(28)24-11-10-23(32-16-14-20(3)4)17-26(24)33-18-27(29)30/h5-14,17H,15-16,18H2,1-4H3,(H,29,30)/b12-7+
INCHIAUX=GFWRVVCDTLRWPK-KPKJPENVSA-N
PUBMED=N/A
SUBMITUSER=jzemlin
LIBRARYQUALITY=1
SPECTRUMID=CCMSLIB00012279660
USI=mzspec:GNPS:MSNLIB-POSITIVE:accession:CCMSLIB00012279660
SCANS=5359
42.572994	0.316
51.022903	0.826
53.002159	0.556
53.038532	15.509
55.017796	1.055
63.022823	0.273
65.03846	4.865
68.996979	8.745
69.069763	2.157
77.038406	0.772
79.05407	2.717
81.033348	46.703999
81.035477	0.743
89.038391	0.352
91.054077	7.857
93.033333	0.23
94.041176	0.717
95.048996	3.886
96.020538	0.17
99.044113	0.158
103.05407	1.877
105.044556	0.674
105.069725	25.558001
105.072823	0.324
107.049004	3.456
108.020454	0.372
109.028267	1.658
111.043961	2.229
115.054115	0.944
119.049019	4.329
120.05677	1.021
121.028275	2.917
121.039528	0.265
123.044037	1.288
127.038795	2.252
131.049072	4.227
133.064651	51.852001
133.067093	0.24
136.998581	0.611
137.00351	0.48
137.017044	0.511
137.023209	100.0
137.025604	0.964
137.028641	0.785
137.031174	0.335
137.043076	0.676
137.047836	0.811
139.03891	9.465
144.056961	0.519
147.043961	16.198999
149.02327	0.99
150.031204	0.405
150.046249	0.346
151.038925	0.685
152.061874	0.886
163.039017	0.7
163.054047	0.175
165.069916	0.169
167.033829	22.232
175.038956	0.8
176.061981	0.99
179.085724	0.624
194.987228	0.35
195.017914	0.184
195.028687	59.401001
195.03894	0.206
195.069473	0.356
197.096405	0.337
207.080597	0.656
210.067703	0.487
211.07547	0.171
223.075623	0.534
225.091125	1.13
235.075638	0.451
239.069611	0.326
241.084473	0.33
251.07074	0.475
252.078033	0.877
253.085709	1.389
255.06514	0.693
269.080688	15.828
279.065002	0.939
297.075592	4.872
315.086182	94.818001
315.171936	0.652
383.148468	14.597
451.21051	3.492
END IONS

BEGIN IONS
PEPMASS=450.239
CHARGE=1
MSLEVEL=2
SOURCE_INSTRUMENT=ESI-Orbitrap
FILENAME=gnps_msn_lib_pos.mgf
SEQ=*..*
IONMODE=Positive
ORGANISM=MSNLIB-POSITIVE
NAME=Opc 21268 [M+H]+
PI=Tomas Pluskal
DATACOLLECTOR=Corinna Brungs
SMILES=CC(=O)NCCCOc1ccc(C(=O)N2CCC(N3C(=O)CCc4ccccc43)CC2)cc1
INCHI=InChI=1S/C26H31N3O4/c1-19(30)27-15-4-18-33-23-10-7-21(8-11-23)26(32)28-16-13-22(14-17-28)29-24-6-3-2-5-20(24)9-12-25(29)31/h2-3,5-8,10-11,22H,4,9,12-18H2,1H3,(H,27,30)
INCHIAUX=KSNUCNRMDYJBKT-UHFFFAOYSA-N
PUBMED=N/A
SUBMITUSER=jzemlin
LIBRARYQUALITY=1
SPECTRUMID=CCMSLIB00012287329
USI=mzspec:GNPS:MSNLIB-POSITIVE:accession:CCMSLIB00012287329
SCANS=13028
41.038628	0.233
42.03389	0.417
43.017887	19.566999
43.041683	0.503
55.054214	0.51
58.065098	5.607
65.038513	0.359
72.044312	8.832
82.065369	0.178
84.08062	0.299
95.049095	0.088
100.060051	0.367
100.062904	0.088
100.066826	0.369
100.071724	0.547
100.075554	100.0
100.078705	1.076
100.081963	1.69
100.087219	1.378
100.090744	0.915
100.095284	0.399
103.054176	0.304
111.043892	0.131
121.028221	0.858
130.06514	0.41
132.080765	0.229
159.09169	0.634
171.091599	0.084
185.107407	0.842
213.138931	3.331
220.097198	6.832
231.149536	0.556
238.107635	1.416
268.938599	0.276
269.938751	0.171
351.170898	0.189
450.238953	6.482
END IONS

BEGIN IONS
PEPMASS=229.083
CHARGE=1
MSLEVEL=2
SOURCE_INSTRUMENT=ESI-Orbitrap
FILENAME=gnps_msn_lib_pos.mgf
SEQ=*..*
IONMODE=Positive
ORGANISM=MSNLIB-POSITIVE
NAME=Pemirolast [M+H]+
PI=Tomas Pluskal
DATACOLLECTOR=Corinna Brungs
SMILES=Cc1cccn2c(=O)c(-c3n[nH]nn3)cnc12
INCHI=InChI=1S/C10H8N6O/c1-6-3-2-4-16-9(6)11-5-7(10(16)17)8-12-14-15-13-8/h2-5H,1H3,(H,12,13,14,15)
INCHIAUX=HIANJWSAHKJQTH-UHFFFAOYSA-N
PUBMED=N/A
SUBMITUSER=jzemlin
LIBRARYQUALITY=1
SPECTRUMID=CCMSLIB00012287446
USI=mzspec:GNPS:MSNLIB-POSITIVE:accession:CCMSLIB00012287446
SCANS=13145
40.018234	0.222
41.038651	0.428
43.267906	0.185
50.269466	0.101
51.022964	0.127
52.018166	0.111
53.002247	0.081
53.038616	0.152
54.01004	0.113
55.017853	6.014
55.029022	0.246
55.054253	0.138
56.049507	0.3
61.010494	0.489
62.018295	0.119
63.02293	0.141
64.018158	0.471
65.038567	26.388
65.040977	0.219
65.044556	0.115
66.033813	0.947
67.041626	0.196
72.937012	0.125
77.038483	0.557
78.033882	0.144
89.038658	0.091
90.033783	0.079
90.04644	0.106
91.041626	0.131
91.054199	0.384
92.049469	21.659
92.052322	0.313
92.055565	0.152
93.057312	0.382
95.049019	1.365
96.044296	0.822
104.049431	4.207
105.044701	0.403
108.044617	0.144
109.07605	1.031
110.050529	0.077
110.053101	0.083
110.055634	0.362
110.06002	100.0
110.063454	1.171
110.067039	0.989
110.073746	1.037
110.077553	0.749
110.083046	0.405
112.064339	0.178
116.049446	0.073
117.057289	0.407
118.06514	0.257
119.057922	0.075
119.060394	12.897
119.062576	0.226
119.065353	0.099
120.940285	0.155
121.076027	0.833
128.04953	0.072
129.044769	0.078
131.060394	1.651
132.05687	0.156
132.068222	4.361
132.080002	0.124
135.927872	0.136
137.067902	0.078
137.070953	12.894
137.080139	0.234
143.060394	0.162
144.068222	0.934
145.063248	0.127
145.072739	0.069
145.076096	6.624
146.064346	0.103
146.071304	19.451
146.074005	0.198
146.077423	0.117
146.08194	0.293
146.098221	0.141
150.951157	0.806
156.055298	0.117
157.064041	0.143
158.058868	0.075
158.071365	0.456
159.05542	1.361
160.063446	0.215
168.962082	0.112
173.059753	0.24
173.064301	0.425
173.071167	74.924004
173.078781	0.107
173.082092	4.961
174.066391	24.587999
174.102036	0.187
185.059082	0.142
186.047729	0.148
186.066559	3.587
201.033417	0.35
201.066208	0.289
201.068283	0.188
201.077316	53.000999
201.086014	0.259
201.088287	0.356
201.091217	0.154
201.111542	0.208
201.121613	0.342
219.088623	0.208
229.083801	14.307
END IONS

BEGIN IONS
PEPMASS=310.044
CHARGE=1
MSLEVEL=2
SOURCE_INSTRUMENT=ESI-Orbitrap
FILENAME=gnps_msn_lib_pos.mgf
SEQ=*..*
IONMODE=Positive
ORGANISM=MSNLIB-POSITIVE
NAME=Brofaromine [M+H]+
PI=Tomas Pluskal
DATACOLLECTOR=Corinna Brungs
SMILES=COc1cc(Br)c2oc(C3CCNCC3)cc2c1
INCHI=InChI=1S/C14H16BrNO2/c1-17-11-6-10-7-13(9-2-4-16-5-3-9)18-14(10)12(15)8-11/h6-9,16H,2-5H2,1H3
INCHIAUX=WZXHSWVDAYOFPE-UHFFFAOYSA-N
PUBMED=N/A
SUBMITUSER=jzemlin
LIBRARYQUALITY=1
SPECTRUMID=CCMSLIB00012296741
USI=mzspec:GNPS:MSNLIB-POSITIVE:accession:CCMSLIB00012296741
SCANS=16428
41.038654	0.203
42.033955	6.033
44.049614	2.8
50.015163	0.341
51.02298	2.686
52.030785	0.507
53.002205	0.336
53.038631	1.112
53.74197	0.171
54.033875	0.139
54.046452	1.233
55.017868	0.21
55.054321	12.591
56.049572	20.261999
57.033581	0.136
57.070045	0.474
58.065151	0.274
63.022945	1.363
64.030769	1.653
65.038567	21.296
65.040596	0.267
66.046402	0.175
67.041687	1.651
67.054253	2.566
68.049469	2.236
69.057358	0.28
69.06987	0.381
74.930946	0.291
75.022926	0.755
76.030762	2.335
77.038597	2.493
78.033798	0.228
78.046394	15.728
78.049034	0.185
79.041611	1.043
79.05423	7.234
80.049484	3.583
80.062035	2.273
81.033493	0.178
81.057304	3.237
82.065201	41.655998
82.070824	0.269
82.076591	0.33
84.080849	24.566999
90.046417	0.111
91.054253	0.402
92.025673	3.5
92.049416	0.119
93.033501	11.868
93.057297	0.679
94.041336	1.517
94.065132	11.582
94.072205	0.192
95.049156	6.001
95.065895	0.258
95.072998	9.921
96.044342	0.687
96.080803	23.926001
96.084358	0.173
104.933411	0.111
105.033546	0.473
105.044716	0.925
106.041267	0.44
106.065399	0.243
106.912659	0.136
107.049171	1.407
108.052589	0.198
108.056984	39.236
108.060341	0.511
108.080841	1.658
111.044075	0.793
115.054199	0.444
116.062119	0.2
116.933449	0.276
118.949081	0.217
121.028458	1.279
131.085556	0.125
132.928497	0.109
135.044205	0.404
136.051987	1.882
142.949112	0.325
143.95697	0.542
144.057068	0.167
145.065384	0.25
146.944061	0.237
148.052078	0.987
150.068207	0.224
154.949112	0.648
156.964859	1.104
158.073059	0.246
159.044174	0.214
159.08075	0.477
161.060013	0.719
162.067627	0.228
171.081268	0.394
171.952057	1.486
172.9599	1.237
173.059937	0.596
174.06813	0.666
175.075729	0.231
176.083755	0.466
182.944153	1.362
182.955429	1.779
182.957596	0.485
184.959885	0.904
186.975525	19.693001
187.075516	1.61
188.083603	1.012
199.075577	0.723
199.946991	0.146
202.099121	1.375
213.962479	0.127
214.09906	0.868
214.921951	0.604
214.933228	0.646
214.952408	1.478
214.958221	0.593
214.970566	99.143997
214.982697	0.517
214.986191	0.252
215.019379	0.606
216.10199	0.283
238.970947	0.518
252.986252	0.29
264.985809	0.286
267.00235	0.547
282.013275	0.488
295.020477	0.265
309.959076	0.671
309.978058	0.503
310.043854	100.0
310.127899	0.642
END IONS

BEGIN IONS
PEPMASS=196.089
CHARGE=1
MSLEVEL=2
SOURCE_INSTRUMENT=ESI-Orbitrap
FILENAME=gnps_msn_lib_pos.mgf
SEQ=*..*
IONMODE=Positive
ORGANISM=MSNLIB-POSITIVE
NAME=CLORPRENALINE [M+H-H2O]+
PI=Tomas Pluskal
DATACOLLECTOR=Corinna Brungs
SMILES=CC(C)NCC(O)c1ccccc1Cl
INCHI=InChI=1S/C11H16ClNO/c1-8(2)13-7-11(14)9-5-3-4-6-10(9)12/h3-6,8,11,13-14H,7H2,1-2H3
INCHIAUX=SSMSBSWKLKKXGG-UHFFFAOYSA-N
PUBMED=N/A
SUBMITUSER=jzemlin
LIBRARYQUALITY=1
SPECTRUMID=CCMSLIB00012299638
USI=mzspec:GNPS:MSNLIB-POSITIVE:accession:CCMSLIB00012299638
SCANS=17418
41.038528	3.108
42.033787	0.913
43.054195	2.997
51.022942	0.813
56.964741	2.875
62.989902	1.628
63.022915	1.241
63.997707	1.906
65.038544	7.251
75.022919	0.689
76.998108	5.398
78.04631	0.373
78.491753	0.646
79.020996	0.977
86.003372	15.436
86.993095	0.74
87.497047	2.06
89.038521	4.408
90.046349	2.985
91.054169	25.431999
92.062012	0.917
95.00872	6.88
95.049088	1.033
96.502304	1.401
97.994568	1.218
99.488091	1.593
102.046326	1.52
104.014038	1.178
104.049446	4.213
106.516769	0.467
106.999847	8.806
108.49334	6.113
116.005127	24.565001
117.057243	7.678
117.498497	0.976
118.065056	42.709999
118.06723	0.725
118.075104	0.823
119.049095	0.618
119.072884	49.049
119.075287	0.407
125.010483	3.502
125.015266	0.562
127.512566	0.692
129.044662	0.476
137.00148	2.527
137.015305	1.158
138.495224	1.233
146.006866	17.464001
154.041718	100.0
154.052948	1.15
154.94693	1.977
196.08873	61.501999
END IONS

BEGIN IONS
PEPMASS=260.201
CHARGE=1
MSLEVEL=2
SOURCE_INSTRUMENT=ESI-Orbitrap
FILENAME=gnps_msn_lib_pos.mgf
SEQ=*..*
IONMODE=Positive
ORGANISM=MSNLIB-POSITIVE
NAME=eperisone [M+H]+
PI=Tomas Pluskal
DATACOLLECTOR=Corinna Brungs
SMILES=CCc1ccc(C(=O)C(C)CN2CCCCC2)cc1
INCHI=InChI=1S/C17H25NO/c1-3-15-7-9-16(10-8-15)17(19)14(2)13-18-11-5-4-6-12-18/h7-10,14H,3-6,11-13H2,1-2H3
INCHIAUX=SQUNAWUMZGQQJD-UHFFFAOYSA-N
PUBMED=N/A
SUBMITUSER=jzemlin
LIBRARYQUALITY=1
SPECTRUMID=CCMSLIB00012303681
USI=mzspec:GNPS:MSNLIB-POSITIVE:accession:CCMSLIB00012303681
SCANS=18950
41.02607	0.19
41.038639	3.955
42.033882	7.563
43.054268	0.076
44.049507	3.172
46.995029	0.08
53.00222	0.103
53.038589	0.605
54.010048	0.095
55.017834	0.075
55.054214	16.625
55.056236	0.073
56.049442	0.49
57.057316	0.116
58.932632	1.1
59.940437	1.18
61.010582	0.571
62.018463	0.1
63.997715	0.777
67.054153	0.405
68.049423	0.241
69.057266	0.052
69.069801	4.716
70.065025	9.612
70.067352	0.102
73.9561	0.119
75.93531	0.209
76.94313	0.061
79.021118	5.094
79.023239	0.09
79.054184	0.053
80.049385	0.063
81.057304	0.043
82.065063	0.207
83.072861	0.596
96.080688	0.808
98.082039	0.046
98.084267	0.074
98.089386	0.068
98.092194	0.331
98.096283	100.0
98.099327	1.013
98.102844	1.582
98.107666	1.343
98.110931	0.75
98.115463	0.315
98.11969	0.193
102.904617	0.118
103.912483	0.237
104.920357	0.117
105.069504	0.096
105.928146	0.558
122.930855	0.079
123.938713	0.593
133.064682	0.578
135.93869	0.116
136.946457	0.041
137.954361	6.625
139.933685	0.078
141.949387	0.123
153.949432	0.125
154.957092	0.059
155.964905	0.924
169.944214	0.212
181.944336	2.626
187.954834	0.116
199.954926	1.957
213.953491	0.104
215.968704	0.533
259.958221	0.208
260.20108	5.923
END IONS

BEGIN IONS
PEPMASS=325.034
CHARGE=1
MSLEVEL=2
SOURCE_INSTRUMENT=ESI-Orbitrap
FILENAME=gnps_msn_lib_pos.mgf
SEQ=*..*
IONMODE=Positive
ORGANISM=MSNLIB-POSITIVE
NAME=dorzolamide [M+H]+
PI=Tomas Pluskal
DATACOLLECTOR=Corinna Brungs
SMILES=CCN[C@H]1C[C@H](C)S(=O)(=O)c2c1cc(S(N)(=O)=O)s2
INCHI=InChI=1S/C10H16N2O4S3/c1-3-12-8-4-6(2)18(13,14)10-7(8)5-9(17-10)19(11,15)16/h5-6,8,12H,3-4H2,1-2H3,(H2,11,15,16)/t6-,8-/m0/s1
INCHIAUX=IAVUPMFITXYVAF-XPUUQOCRSA-N
PUBMED=N/A
SUBMITUSER=jzemlin
LIBRARYQUALITY=1
SPECTRUMID=CCMSLIB00012305769
USI=mzspec:GNPS:MSNLIB-POSITIVE:accession:CCMSLIB00012305769
SCANS=19786
41.038631	0.852
43.017887	2.698
44.049385	0.382
44.97942	22.381001
45.033562	0.326
46.065144	33.765999
46.06741	0.859
50.015144	0.685
51.022964	3.297
53.038624	1.446
54.010056	0.132
55.017906	0.787
56.964756	0.197
57.987186	0.516
58.995026	0.267
59.990227	0.139
62.015102	0.557
63.022915	3.765
63.985168	0.498
65.038559	33.889
66.046387	0.314
68.979317	5.145
70.994987	1.974
75.022896	0.251
76.030716	0.517
77.038582	3.302
78.046394	0.388
79.054222	12.626
81.987175	0.204
82.994965	0.864
84.002792	5.876
85.010551	0.38
89.038544	8.95
90.046371	8.347
91.049835	0.126
91.054199	92.970001
91.057007	1.167
91.059196	0.606
92.061989	0.19
92.979263	0.336
94.994987	8.026
95.049141	11.967
97.010666	1.335
102.046402	5.476
103.054192	0.24
105.044724	1.996
106.99511	0.153
108.0028	2.467
109.010689	0.823
110.005836	1.038
110.989899	0.154
111.013641	0.268
113.005577	0.143
114.967323	0.336
115.975006	0.62
116.982437	0.336
118.041313	0.187
118.065163	0.159
119.049255	0.474
121.010796	0.975
122.018494	0.185
123.026329	23.011
123.028389	0.231
125.04203	0.355
126.967064	4.74
127.974869	2.548
133.010651	0.907
134.012344	0.342
134.018478	48.564999
134.02095	0.638
134.024139	0.346
135.020157	0.404
135.026321	100.0
135.028961	0.255
135.032364	0.852
135.035843	0.292
135.043976	0.395
136.021576	0.195
136.03418	13.285
138.967133	2.445
138.984833	0.234
139.021118	0.446
139.975128	0.476
143.993561	0.159
144.9776	0.264
150.013657	0.156
150.037262	0.379
151.014008	0.32
151.021271	57.834
151.025024	0.149
151.028458	0.487
151.031769	0.457
151.045105	0.21
152.052887	0.874
152.983017	1.142
153.036926	1.11
153.990723	0.864
154.962006	4.011
154.985748	5.466
155.969833	10.671
163.032425	0.17
172.972672	0.241
176.06218	0.153
189.018494	0.127
198.945312	0.434
198.988373	71.192001
199.031799	0.494
202.929337	1.732
203.073318	0.212
204.081238	0.753
215.007294	8.225
216.015091	17.681999
218.948074	13.068
235.95079	15.913
255.55484	0.542
262.08667	0.317
263.094727	0.294
279.97757	3.748
325.035095	9.145
END IONS

BEGIN IONS
PEPMASS=349.212
CHARGE=1
MSLEVEL=2
SOURCE_INSTRUMENT=ESI-Orbitrap
FILENAME=gnps_msn_lib_pos.mgf
SEQ=*..*
IONMODE=Positive
ORGANISM=MSNLIB-POSITIVE
NAME=ROXATIDINE ACETATE [M+H]+
PI=Tomas Pluskal
DATACOLLECTOR=Corinna Brungs
SMILES=CC(=O)OCC(=O)NCCCOc1cccc(CN2CCCCC2)c1
INCHI=InChI=1S/C19H28N2O4/c1-16(22)25-15-19(23)20-9-6-12-24-18-8-5-7-17(13-18)14-21-10-3-2-4-11-21/h5,7-8,13H,2-4,6,9-12,14-15H2,1H3,(H,20,23)
INCHIAUX=SMTZFNFIKUPEJC-UHFFFAOYSA-N
PUBMED=N/A
SUBMITUSER=jzemlin
LIBRARYQUALITY=1
SPECTRUMID=CCMSLIB00012316346
USI=mzspec:GNPS:MSNLIB-POSITIVE:accession:CCMSLIB00012316346
SCANS=24490
41.038666	3.189
42.033909	1.047
43.017921	22.950001
43.041725	1.533
44.049545	0.689
50.015167	1.169
51.022987	31.406
52.030834	0.195
53.002274	0.214
53.013489	0.124
53.038635	6.163
55.017891	12.644
56.049442	10.621
56.052559	0.295
58.028751	3.453
58.065121	29.089001
58.068119	0.342
59.049156	4.153
60.044437	0.278
61.028423	0.253
62.015114	0.203
63.022945	3.218
65.038582	16.391001
65.040611	0.205
67.017868	0.21
67.05423	0.338
68.049469	0.199
69.033539	0.183
73.028442	0.15
75.022896	0.216
76.030746	0.149
77.038582	33.953999
77.041191	0.366
78.04641	2.423
79.017929	0.229
79.054214	15.809
79.056259	0.169
81.033493	1.271
84.080666	9.601
86.023636	20.48
86.026016	0.258
86.060028	0.401
87.022911	0.135
88.039291	6.137
89.038574	1.894
90.046364	0.132
91.05423	38.735001
91.056839	0.609
93.069901	1.606
94.041328	0.158
95.049149	33.198002
95.052414	0.336
101.023331	3.748
102.046448	0.513
103.054237	4.632
104.06205	4.176
105.044746	6.0
105.069878	2.162
107.044891	0.517
107.049126	100.0
107.052864	0.923
107.056511	0.789
107.062294	0.633
107.065804	0.435
109.064774	1.435
114.054962	55.731998
114.05719	0.993
114.059669	0.533
114.063011	0.467
115.054245	7.491
116.062088	0.382
116.065712	0.131
116.070602	38.167
116.072701	0.556
116.075424	0.357
116.078499	0.338
117.057312	0.169
117.069893	10.923
117.071968	0.178
118.065117	0.157
119.049202	0.15
119.060402	0.171
119.080597	0.131
119.085548	25.825001
119.087669	0.384
119.095619	0.26
121.064751	0.998
126.046494	0.139
127.05426	0.199
128.062073	1.323
129.069901	2.031
130.050034	0.271
130.065201	0.201
131.049179	2.948
131.060349	0.133
131.073105	0.163
132.057037	3.93
136.075714	0.33
137.059784	0.164
142.065125	0.126
143.073044	0.773
145.064804	0.478
146.06015	0.269
146.096542	0.251
147.073563	0.432
147.080505	65.168999
147.087357	0.46
155.060272	0.126
157.064911	0.223
158.081268	36.533001
158.088913	0.231
158.096375	1.349
164.107132	4.256
176.107254	1.286
187.075455	0.126
192.138596	1.965
204.102234	0.579
205.086212	0.162
222.099625	0.273
222.112869	40.049999
349.21225	45.598999
END IONS

BEGIN IONS
PEPMASS=421.127
CHARGE=1
MSLEVEL=2
SOURCE_INSTRUMENT=ESI-Orbitrap
FILENAME=gnps_msn_lib_pos.mgf
SEQ=*..*
IONMODE=Positive
ORGANISM=MSNLIB-POSITIVE
NAME=Etofylline clofibrate [M+H]+
PI=Tomas Pluskal
DATACOLLECTOR=Corinna Brungs
SMILES=Cn1c(=O)c2c(ncn2CCOC(=O)C(C)(C)Oc2ccc(Cl)cc2)n(C)c1=O
INCHI=InChI=1S/C19H21ClN4O5/c1-19(2,29-13-7-5-12(20)6-8-13)17(26)28-10-9-24-11-21-15-14(24)16(25)23(4)18(27)22(15)3/h5-8,11H,9-10H2,1-4H3
INCHIAUX=KYAKGJDISSNVPZ-UHFFFAOYSA-N
PUBMED=N/A
SUBMITUSER=jzemlin
LIBRARYQUALITY=1
SPECTRUMID=CCMSLIB00012318242
USI=mzspec:GNPS:MSNLIB-POSITIVE:accession:CCMSLIB00012318242
SCANS=25396
41.026085	0.449
41.038654	3.667
42.033909	1.216
42.046497	0.579
43.017906	1.931
44.049587	0.189
45.033508	1.824
50.015167	0.262
51.02298	2.033
52.018284	0.231
53.002232	2.564
53.013515	0.184
53.038635	0.292
54.033859	1.443
55.017876	42.133999
55.041702	0.339
56.049538	0.238
65.038582	5.269
66.033798	0.281
66.046417	2.042
67.029083	0.851
67.041641	0.419
68.036896	0.744
68.049469	1.641
69.033455	12.733
69.044716	1.758
70.041306	2.615
72.044373	1.66
73.024002	0.32
73.02832	12.521
74.015106	1.129
75.022926	33.554001
76.030731	0.334
77.038574	1.095
78.046402	0.413
79.054253	1.197
80.049477	0.599
81.044724	0.947
83.060303	0.252
84.983963	1.941
86.999603	0.653
89.038612	0.218
91.054237	1.551
93.033493	2.331
93.044739	0.756
94.041092	8.193
94.052528	0.493
95.048798	3.97
95.060379	3.81
96.044411	0.225
96.055618	1.28
98.999619	0.252
99.04023	0.469
99.044014	100.0
99.046997	0.957
99.050537	0.759
99.059181	0.671
103.054207	0.738
105.033562	0.237
105.044724	0.635
105.06987	3.329
106.040039	0.253
106.077675	0.373
107.060387	0.783
108.031784	0.327
108.055634	0.62
109.063446	0.197
109.076057	0.317
110.034966	0.256
110.071297	0.921
110.999634	3.944
111.044067	4.618
113.015251	1.119
113.059715	11.392
113.07093	1.377
114.067513	87.617996
114.06974	0.453
114.072243	0.339
114.074959	1.555
114.081978	0.883
114.086029	0.775
115.054237	0.548
116.062096	0.252
119.049248	0.194
119.060432	0.335
120.055611	1.875
121.039635	0.967
121.063461	0.506
122.04747	0.476
122.071289	3.681
123.055267	1.033
123.080467	0.357
124.050514	2.7
125.015366	0.196
129.010178	32.337002
129.012497	0.399
133.064758	0.958
134.071609	2.261
136.086975	1.768
139.005814	17.285
139.008377	0.274
139.030945	0.246
140.045609	0.233
140.081818	1.649
141.003784	0.179
141.010193	31.474001
141.012573	0.483
141.046631	2.433
141.053146	0.387
142.061218	0.218
142.097595	0.303
147.066635	0.829
148.074371	0.702
150.06633	1.78
151.061523	0.391
152.045532	0.634
163.061508	0.294
163.097931	2.432
167.056534	0.292
168.076904	1.047
169.033112	0.381
169.041611	72.101997
169.050034	0.298
169.074921	0.473
179.026016	0.214
180.064438	4.784
181.072205	3.919
186.087479	1.128
192.064209	0.302
193.071945	0.192
194.080246	0.672
197.03653	0.959
206.080185	0.253
207.087952	39.542
207.097214	0.191
207.099396	0.274
223.083588	0.848
224.090698	2.285
225.098587	19.083
241.062927	31.413
293.125031	6.871
294.132629	4.074
421.127319	3.57
END IONS

BEGIN IONS
PEPMASS=280.17
CHARGE=1
MSLEVEL=2
SOURCE_INSTRUMENT=ESI-Orbitrap
FILENAME=gnps_msn_lib_pos.mgf
SEQ=*..*
IONMODE=Positive
ORGANISM=MSNLIB-POSITIVE
NAME=ibuprofen piconol [M+H-H2O]+
PI=Tomas Pluskal
DATACOLLECTOR=Corinna Brungs
SMILES=CC(C)Cc1ccc(C(C)C(=O)OCc2ccccn2)cc1
INCHI=InChI=1S/C19H23NO2/c1-14(2)12-16-7-9-17(10-8-16)15(3)19(21)22-13-18-6-4-5-11-20-18/h4-11,14-15H,12-13H2,1-3H3
INCHIAUX=ACEWLPOYLGNNHV-UHFFFAOYSA-N
PUBMED=N/A
SUBMITUSER=jzemlin
LIBRARYQUALITY=1
SPECTRUMID=CCMSLIB00012319779
USI=mzspec:GNPS:MSNLIB-POSITIVE:accession:CCMSLIB00012319779
SCANS=26150
41.038666	0.56
50.015133	0.941
51.022961	3.897
52.030769	0.295
53.038605	0.62
55.017902	0.132
57.033337	3.186
62.015091	0.587
63.022919	4.126
65.038559	39.056999
65.040627	0.433
74.015053	0.996
74.059875	22.197001
74.064468	0.496
74.067146	0.504
75.022881	0.707
76.030693	1.688
77.038536	1.49
78.046356	2.916
86.015182	0.131
87.022896	0.219
89.038506	0.16
91.049889	0.245
91.054131	100.0
91.057327	1.086
91.060143	1.386
91.064308	1.407
91.067162	0.905
91.070999	0.313
93.069862	0.39
95.049103	6.717
98.015053	0.4
100.030685	0.189
102.046349	5.385
103.054169	5.878
105.044701	0.944
105.069832	0.284
115.05407	0.754
117.069847	0.632
119.049133	0.378
120.080719	10.659
120.09095	0.255
125.038681	0.162
126.046349	3.663
127.054199	3.066
128.056335	0.254
128.062012	38.942001
128.064316	0.151
128.066757	0.351
129.044617	0.377
129.059174	0.253
129.064087	0.409
129.069809	64.494003
129.072159	0.783
129.074234	0.621
129.0793	0.59
129.091858	0.399
145.064804	1.001
155.060226	0.61
176.107315	2.988
178.077896	1.139
179.085739	0.515
191.085358	0.165
192.093872	0.298
207.117203	27.700001
224.143921	4.019
280.170319	21.115999
END IONS

BEGIN IONS
PEPMASS=159.076
CHARGE=1
MSLEVEL=2
SOURCE_INSTRUMENT=ESI-Orbitrap
FILENAME=gnps_msn_lib_pos.mgf
SEQ=*..*
IONMODE=Positive
ORGANISM=MSNLIB-POSITIVE
NAME=oxiracetam [M+H]+
PI=Tomas Pluskal
DATACOLLECTOR=Corinna Brungs
SMILES=NC(=O)CN1CC(O)CC1=O
INCHI=InChI=1S/C6H10N2O3/c7-5(10)3-8-2-4(9)1-6(8)11/h4,9H,1-3H2,(H2,7,10)
INCHIAUX=IHLAQQPQKRMGSS-UHFFFAOYSA-N
PUBMED=N/A
SUBMITUSER=jzemlin
LIBRARYQUALITY=1
SPECTRUMID=CCMSLIB00012320405
USI=mzspec:GNPS:MSNLIB-POSITIVE:accession:CCMSLIB00012320405
SCANS=26457
41.038647	0.71
42.033813	0.352
44.049534	0.775
44.979313	1.552
45.987133	0.823
46.975121	1.181
46.992214	0.059
46.994949	7.956
46.997471	0.254
46.999905	0.067
47.966564	0.045
47.982929	0.838
47.998325	0.089
48.990749	8.383
48.993347	0.22
48.996033	0.062
51.022995	0.041
53.038589	2.906
54.033863	0.04
55.017853	0.17
56.049492	0.224
56.964809	0.062
61.01054	8.832
61.014122	0.238
61.017979	0.067
62.014557	0.098
62.018368	2.774
62.023922	0.05
62.989819	1.633
63.006329	8.336
63.010017	0.183
63.012283	0.196
63.016869	0.067
63.997616	37.219002
64.001396	0.899
64.003647	0.768
64.007759	0.149
64.014084	2.555
64.019806	0.05
64.985611	1.609
64.993889	0.075
64.997017	0.226
65.000999	0.352
65.988815	0.199
65.993393	35.799999
65.99749	0.762
66.001633	2.053
66.006195	0.097
66.008537	0.067
68.049431	0.556
69.48658	0.02
72.044357	0.033
76.932945	0.026
76.998177	0.049
77.996132	0.032
78.491852	0.026
79.010033	0.23
79.014915	0.331
79.021049	100.0
79.026146	2.155
79.02935	1.63
79.03167	0.925
79.034882	0.426
79.037933	0.236
79.040962	0.106
79.044624	0.101
79.489723	0.022
80.020348	0.417
80.024544	1.447
81.010719	0.466
81.016937	99.482002
81.022881	2.678
81.025291	2.458
81.028381	0.999
81.031593	0.443
81.034538	0.222
81.03775	0.131
81.041306	0.098
81.047234	0.045
84.044357	1.687
84.046585	0.024
85.028374	0.097
86.003532	0.065
87.001465	0.069
96.04435	3.026
96.04715	0.049
100.48613	0.044
107.997864	0.12
109.491425	0.151
114.054955	3.198
114.056976	0.025
116.005074	0.074
117.003197	0.141
142.050064	0.815
159.076553	0.051
END IONS

BEGIN IONS
PEPMASS=346.201
CHARGE=1
MSLEVEL=2
SOURCE_INSTRUMENT=ESI-Orbitrap
FILENAME=gnps_msn_lib_pos.mgf
SEQ=*..*
IONMODE=Positive
ORGANISM=MSNLIB-POSITIVE
NAME=Bevantolol [M+H]+
PI=Tomas Pluskal
DATACOLLECTOR=Corinna Brungs
SMILES=COc1c(OC)cc(CCNCC(O)COc2cccc(C)c2)cc1
INCHI=InChI=1S/C20H27NO4/c1-15-5-4-6-18(11-15)25-14-17(22)13-21-10-9-16-7-8-19(23-2)20(12-16)24-3/h4-8,11-12,17,21-22H,9-10,13-14H2,1-3H3
INCHIAUX=HXLAFSUPPDYFEO-UHFFFAOYSA-N
PUBMED=N/A
SUBMITUSER=jzemlin
LIBRARYQUALITY=1
SPECTRUMID=CCMSLIB00012327421
USI=mzspec:GNPS:MSNLIB-POSITIVE:accession:CCMSLIB00012327421
SCANS=29860
41.038677	0.111
41.272919	0.217
42.033901	0.088
43.017925	0.113
44.049492	0.797
45.033558	0.211
50.01519	0.353
51.022999	11.531
52.030823	0.244
53.038643	1.383
55.017902	1.385
57.033497	0.19
63.022961	0.319
65.038605	6.954
66.046425	0.402
67.05426	0.112
74.015106	0.101
76.030769	0.372
77.038597	7.886
77.040787	0.129
78.046425	4.185
79.05423	13.669
79.05632	0.209
81.033516	0.23
86.060234	0.137
89.038612	1.084
90.046425	2.659
91.054253	22.034
91.057152	0.238
92.025726	0.3
92.062073	0.913
93.069916	2.609
94.041359	0.47
94.077728	0.119
95.049164	16.079
95.051918	0.177
96.056992	0.291
102.046425	1.65
103.054245	9.496
103.058289	0.103
104.062057	2.802
105.033531	2.442
105.044762	2.121
105.069885	10.009
106.041451	0.088
107.049164	14.567
107.053093	0.159
107.085602	0.219
108.057037	0.338
109.064842	0.335
115.054291	0.191
117.069878	0.128
118.041351	3.892
118.065201	0.127
119.049187	8.359
119.085564	0.308
120.057014	3.843
121.028435	0.101
121.064835	13.214
121.066917	0.142
122.036324	0.243
122.072655	2.224
123.044113	0.213
123.080452	0.449
124.051964	0.127
131.04921	1.578
132.056931	0.415
133.028488	0.673
133.06485	4.988
133.075745	0.129
134.072662	11.532
134.075027	0.086
135.038086	0.1
135.041122	0.084
135.044098	20.982
135.046387	0.12
135.050156	0.177
135.055984	0.118
135.08049	2.718
137.059875	0.155
137.096176	0.289
138.067719	0.193
147.067749	0.127
147.080536	0.705
149.056244	0.079
149.059799	2.243
150.06041	0.19
150.067581	27.285
150.074692	0.201
150.076981	0.105
151.039062	1.425
162.091476	0.099
165.058426	0.328
165.064728	0.19
165.069214	0.077
165.080643	0.074
165.082886	0.598
165.091125	100.0
165.09874	0.741
165.101761	0.333
165.104019	0.08
165.116806	0.293
165.123703	0.338
177.091125	0.1
194.117752	0.792
238.144394	0.257
346.201355	11.663
END IONS

BEGIN IONS
PEPMASS=431.254
CHARGE=1
MSLEVEL=2
SOURCE_INSTRUMENT=ESI-Orbitrap
FILENAME=gnps_msn_lib_pos.mgf
SEQ=*..*
IONMODE=Positive
ORGANISM=MSNLIB-POSITIVE
NAME=trandolapril [M+H]+
PI=Tomas Pluskal
DATACOLLECTOR=Corinna Brungs
SMILES=CCOC(=O)[C@H](CCc1ccccc1)N[C@@H](C)C(=O)N1[C@H](C(=O)O)C[C@H]2CCCC[C@@H]21
INCHI=InChI=1S/C24H34N2O5/c1-3-31-24(30)19(14-13-17-9-5-4-6-10-17)25-16(2)22(27)26-20-12-8-7-11-18(20)15-21(26)23(28)29/h4-6,9-10,16,18-21,25H,3,7-8,11-15H2,1-2H3,(H,28,29)/t16-,18+,19-,20-,21-/m0/s1
INCHIAUX=VXFJYXUZANRPDJ-WTNASJBWSA-N
PUBMED=N/A
SUBMITUSER=jzemlin
LIBRARYQUALITY=1
SPECTRUMID=CCMSLIB00012331130
USI=mzspec:GNPS:MSNLIB-POSITIVE:accession:CCMSLIB00012331130
SCANS=31692
41.038673	0.586
44.049553	6.755
45.03352	1.289
51.023006	1.117
53.038631	0.953
55.054283	0.273
56.049507	6.445
63.022972	1.01
65.038605	11.031
67.05423	0.382
73.064781	3.822
74.023659	4.778
77.038582	1.115
78.046425	0.368
79.05423	3.825
81.069885	6.815
82.065125	0.725
84.04435	0.243
89.038589	2.027
91.054245	45.821999
91.056976	0.551
95.049133	0.89
102.046371	0.547
102.054955	9.235
107.085564	1.519
115.054268	41.880001
115.056274	0.553
115.058975	0.374
116.062073	2.108
117.069901	100.0
117.072006	0.311
117.074799	0.827
124.112083	17.362
130.086334	36.963001
130.08847	0.331
134.096512	18.778
144.080917	0.46
160.112213	21.497
170.117737	15.981
188.107437	0.359
206.117966	1.012
206.154282	0.347
234.135391	0.295
234.138641	0.286
234.143997	0.326
234.149323	46.200001
431.25528	1.289
END IONS

BEGIN IONS
PEPMASS=292.191
CHARGE=1
MSLEVEL=2
SOURCE_INSTRUMENT=ESI-Orbitrap
FILENAME=gnps_msn_lib_pos.mgf
SEQ=*..*
IONMODE=Positive
ORGANISM=MSNLIB-POSITIVE
NAME=LEVOBUNOLOL [M+H]+
PI=Tomas Pluskal
DATACOLLECTOR=Corinna Brungs
SMILES=CC(C)(C)NC[C@H](O)COc1cccc2c1CCCC2=O
INCHI=InChI=1S/C17H25NO3/c1-17(2,3)18-10-12(19)11-21-16-9-5-6-13-14(16)7-4-8-15(13)20/h5-6,9,12,18-19H,4,7-8,10-11H2,1-3H3/t12-/m0/s1
INCHIAUX=IXHBTMCLRNMKHZ-LBPRGKRZSA-N
PUBMED=N/A
SUBMITUSER=jzemlin
LIBRARYQUALITY=1
SPECTRUMID=CCMSLIB00012332426
USI=mzspec:GNPS:MSNLIB-POSITIVE:accession:CCMSLIB00012332426
SCANS=32336
41.038548	1.376
43.01791	2.829
44.049519	0.449
51.023018	2.421
53.038689	0.422
55.017937	0.525
55.054325	0.476
56.049458	29.493
56.054367	0.618
57.069782	19.879
58.065067	0.623
59.031544	0.252
63.022972	2.001
65.03862	6.403
67.054207	0.467
69.033615	0.301
74.015152	0.612
74.060028	27.976999
75.022949	0.577
76.030815	0.489
77.038635	1.046
78.04644	0.933
79.054276	4.965
87.022942	0.503
89.038628	3.281
91.054291	24.288
95.04921	4.774
98.015167	0.885
99.022926	0.324
100.030815	0.352
102.046463	1.032
103.054298	2.921
104.062134	0.523
105.033676	0.451
105.044846	0.769
105.069946	12.325
107.049171	4.565
111.02298	0.376
115.054337	27.465
115.056435	0.4
116.062157	3.669
117.069984	16.886999
118.925003	0.512
119.049248	5.222
119.085609	1.236
121.064896	0.457
122.01516	0.768
123.023109	0.394
125.038734	0.287
126.046539	1.764
127.054413	0.333
128.062149	3.148
129.069992	2.681
130.077774	0.673
131.049271	2.084
131.085724	2.841
132.057083	1.772
133.064941	5.271
133.101288	0.489
133.948318	0.636
135.080627	0.634
139.054367	0.347
141.070068	1.161
143.085617	1.091
144.057159	4.16
145.064957	63.761002
145.067627	0.268
145.071747	0.4
145.101318	3.661
146.0728	1.35
147.080582	9.692
150.046585	3.28
151.054367	0.309
151.959106	0.993
152.062225	13.505
153.070038	4.237
154.077881	0.769
155.060638	1.006
155.085678	6.899
157.064972	0.697
158.072861	1.051
159.080688	5.436
160.052277	1.988
161.059937	0.63
161.096298	9.438
163.075577	1.789
165.070236	1.225
171.080811	1.529
173.096451	3.149
175.075729	5.0
183.080856	4.164
189.091354	19.902
201.080551	0.493
201.082672	0.572
201.091385	85.185997
213.915451	1.268
218.118256	2.201
219.102203	1.972
236.108826	1.837
236.114838	0.59
236.128784	100.0
236.142746	0.645
236.155975	0.555
236.184372	0.684
292.191986	24.146
END IONS

BEGIN IONS
PEPMASS=430.222
CHARGE=1
MSLEVEL=2
SOURCE_INSTRUMENT=ESI-Orbitrap
FILENAME=gnps_msn_lib_pos.mgf
SEQ=*..*
IONMODE=Positive
ORGANISM=MSNLIB-POSITIVE
NAME=Sarpogrelate [M+H]+
PI=Tomas Pluskal
DATACOLLECTOR=Corinna Brungs
SMILES=COc1cccc(CCc2ccccc2OCC(CN(C)C)OC(=O)CCC(=O)O)c1
INCHI=InChI=1S/C24H31NO6/c1-25(2)16-21(31-24(28)14-13-23(26)27)17-30-22-10-5-4-8-19(22)12-11-18-7-6-9-20(15-18)29-3/h4-10,15,21H,11-14,16-17H2,1-3H3,(H,26,27)
INCHIAUX=FFYNAVGJSYHHFO-UHFFFAOYSA-N
PUBMED=N/A
SUBMITUSER=jzemlin
LIBRARYQUALITY=1
SPECTRUMID=CCMSLIB00012335128
USI=mzspec:GNPS:MSNLIB-POSITIVE:accession:CCMSLIB00012335128
SCANS=33678
41.038647	0.426
42.033817	3.986
43.017879	1.29
44.049358	1.45
45.033382	0.525
46.06514	1.307
47.801086	0.691
50.015152	0.468
51.022968	13.012
52.030838	0.785
53.038616	2.24
55.017735	2.824
56.049328	1.03
58.061176	0.634
58.065063	98.458
58.068256	3.099
58.071854	1.002
63.022926	2.782
64.030769	0.495
65.038567	9.389
67.05407	0.53
68.049538	0.41
69.033463	1.672
70.064888	1.355
72.080704	2.945
73.028191	3.247
74.015099	0.449
75.022896	0.606
76.030739	0.843
77.038559	32.764
77.041115	0.333
78.046402	4.895
79.054192	37.396
79.056313	0.479
81.033478	0.207
84.080666	64.075996
84.08606	1.414
84.089539	0.906
84.092171	0.628
85.088348	0.778
86.096268	5.657
87.022926	0.497
89.038536	5.085
90.046417	0.485
91.054192	30.042
91.05674	0.421
92.025673	1.619
92.062065	2.835
93.033447	0.34
93.06987	4.56
94.041328	0.806
95.049126	30.176001
95.051842	0.382
98.015099	0.339
101.023232	4.065
102.046394	2.089
102.091217	6.211
103.054199	32.266998
103.058258	0.309
104.062057	0.658
105.044716	4.492
105.065773	0.253
105.069847	50.400002
105.074089	0.488
105.077309	0.413
106.041313	0.464
107.049103	8.367
107.085373	0.682
108.056976	0.707
109.064774	0.732
115.054214	27.419001
115.056267	0.373
116.062035	8.438
117.069878	2.257
118.041351	0.381
119.049187	3.439
119.085052	0.64
120.056969	6.44
121.064796	27.225
121.066879	0.324
123.080482	0.549
126.04641	1.689
127.05423	0.697
128.062057	7.433
129.069901	6.625
130.077774	0.965
131.049179	2.516
131.085571	12.075
133.06485	3.236
135.074417	0.575
135.08049	100.0
135.086655	0.668
135.089615	1.246
135.09288	0.504
139.054367	0.654
141.069931	5.704
143.049301	0.294
144.057007	11.377
145.06485	7.239
147.080505	5.592
149.096252	1.287
150.046463	0.27
152.062057	0.256
153.069901	0.206
155.060349	0.521
157.064896	1.26
158.072739	7.672
159.072769	0.458
159.080551	69.709
159.088226	0.465
160.088272	1.63
161.096298	1.564
163.054382	1.19
164.062134	0.728
165.070023	3.23
167.085632	0.247
169.076431	0.637
171.08049	1.142
173.096298	8.548
178.077911	0.373
179.085693	0.409
181.064957	0.595
183.081161	0.498
191.085724	0.244
194.072983	0.606
195.080856	1.108
196.088577	0.3
198.10321	0.421
202.107773	5.158
207.080795	0.311
208.089035	0.843
209.096802	1.002
211.07579	0.86
211.112152	0.211
213.128052	0.372
223.075684	0.206
223.112228	0.949
224.083405	0.261
225.092834	0.674
226.099655	2.306
238.099091	0.446
239.107147	1.448
239.143463	0.559
241.122696	3.521
249.127457	0.208
267.138367	9.831
312.196259	14.08
330.206818	4.83
430.223145	34.945
END IONS

BEGIN IONS
PEPMASS=406.197
CHARGE=1
MSLEVEL=2
SOURCE_INSTRUMENT=ESI-Orbitrap
FILENAME=gnps_msn_lib_pos.mgf
SEQ=*..*
IONMODE=Positive
ORGANISM=MSNLIB-POSITIVE
NAME=imidapril [M+H]+
PI=Tomas Pluskal
DATACOLLECTOR=Corinna Brungs
SMILES=CCOC(=O)[C@H](CCc1ccccc1)N[C@@H](C)C(=O)N1C(=O)N(C)C[C@H]1C(=O)O
INCHI=InChI=1S/C20H27N3O6/c1-4-29-19(27)15(11-10-14-8-6-5-7-9-14)21-13(2)17(24)23-16(18(25)26)12-22(3)20(23)28/h5-9,13,15-16,21H,4,10-12H2,1-3H3,(H,25,26)/t13-,15-,16-/m0/s1
INCHIAUX=KLZWOWYOHUKJIG-BPUTZDHNSA-N
PUBMED=N/A
SUBMITUSER=jzemlin
LIBRARYQUALITY=1
SPECTRUMID=CCMSLIB00012341086
USI=mzspec:GNPS:MSNLIB-POSITIVE:accession:CCMSLIB00012341086
SCANS=36648
41.038658	2.138
42.033897	1.738
44.049515	8.045
45.033482	1.82
51.02298	3.881
55.017841	44.654999
56.049496	21.313
57.044769	1.452
58.02882	0.737
63.022919	4.808
65.038574	42.367001
71.060341	2.095
73.064804	3.933
73.075981	1.168
74.023659	1.628
85.075996	0.678
89.038551	0.73
91.054214	100.0
91.057579	1.038
99.05526	51.539001
102.054939	28.929001
105.069939	1.211
115.05423	9.658
117.057289	0.897
117.069839	36.5
128.062012	0.867
130.086273	47.952999
134.096451	20.021999
143.085495	0.853
144.080872	0.816
145.06076	28.836
153.065887	1.851
157.060745	1.775
160.098282	1.122
160.112137	24.386
188.106918	2.083
199.071442	32.292999
206.117844	2.466
234.1492	51.441002
261.123871	1.02
332.161163	8.438
406.198242	5.822
END IONS

BEGIN IONS
PEPMASS=427.249
CHARGE=1
MSLEVEL=2
SOURCE_INSTRUMENT=ESI-Orbitrap
FILENAME=gnps_msn_lib_pos.mgf
SEQ=*..*
IONMODE=Positive
ORGANISM=MSNLIB-POSITIVE
NAME=oxatomide [M+H]+
PI=Tomas Pluskal
DATACOLLECTOR=Corinna Brungs
SMILES=O=c1[nH]c2ccccc2n1CCCN1CCN(C(c2ccccc2)c2ccccc2)CC1
INCHI=InChI=1S/C27H30N4O/c32-27-28-24-14-7-8-15-25(24)31(27)17-9-16-29-18-20-30(21-19-29)26(22-10-3-1-4-11-22)23-12-5-2-6-13-23/h1-8,10-15,26H,9,16-21H2,(H,28,32)
INCHIAUX=BAINIUMDFURPJM-UHFFFAOYSA-N
PUBMED=N/A
SUBMITUSER=jzemlin
LIBRARYQUALITY=1
SPECTRUMID=CCMSLIB00012343725
USI=mzspec:GNPS:MSNLIB-POSITIVE:accession:CCMSLIB00012343725
SCANS=37974
41.267612	0.089
41.77153	0.221
50.015182	0.351
51.022999	0.38
52.030891	0.061
62.015202	0.078
63.022968	0.862
65.038597	0.95
74.015137	0.928
75.02298	0.574
76.030785	0.89
77.038605	0.772
78.046417	1.068
83.060387	0.108
84.068192	0.324
86.015144	0.289
87.02298	1.376
88.030746	0.126
89.038605	0.909
91.054237	0.304
92.049469	0.322
95.049179	0.622
98.015152	1.307
99.022964	0.764
100.030777	0.334
101.038605	0.078
102.046432	1.946
105.044815	0.128
110.015152	0.535
111.022995	0.931
112.030861	0.084
113.038589	0.675
115.054276	4.081
119.06041	1.461
122.01516	0.541
123.022987	0.326
124.030838	0.288
125.038635	0.508
125.107208	0.176
126.04644	3.704
127.054199	0.205
128.062073	6.048
128.064392	0.067
134.015152	0.117
135.02301	0.196
136.030823	0.09
137.038666	0.544
138.046478	0.12
139.054321	2.782
141.069946	3.715
143.049286	0.082
145.064789	0.225
147.055313	1.387
149.038696	0.488
150.043961	0.1
150.046509	8.578
150.049438	0.159
151.054337	3.476
152.050461	0.06
152.05484	0.261
152.062073	40.907001
152.064774	0.623
152.069092	0.278
152.071548	0.158
155.060547	0.077
161.038681	0.816
162.046524	1.623
163.054367	0.111
164.06221	1.5
165.061783	0.24
165.070007	40.823002
165.077606	0.273
165.080734	0.092
166.077866	11.598
167.052292	0.257
167.059311	0.23
167.072281	0.174
167.077271	0.715
167.085617	100.0
167.094025	0.606
167.096436	0.345
167.101273	0.074
167.112442	0.216
167.118774	0.286
167.12854	0.126
168.088837	0.089
169.064926	1.602
175.086746	1.756
259.155731	1.182
427.251587	1.052
END IONS

BEGIN IONS
PEPMASS=605.307
CHARGE=1
MSLEVEL=2
SOURCE_INSTRUMENT=ESI-Orbitrap
FILENAME=gnps_msn_lib_pos.mgf
SEQ=*..*
IONMODE=Positive
ORGANISM=MSNLIB-POSITIVE
NAME=Dilazep [M+H]+
PI=Tomas Pluskal
DATACOLLECTOR=Corinna Brungs
SMILES=COc1c(OC)c(OC)cc(C(=O)OCCCN2CCCN(CCCOC(=O)c3cc(OC)c(OC)c(OC)c3)CC2)c1
INCHI=InChI=1S/C31H44N2O10/c1-36-24-18-22(19-25(37-2)28(24)40-5)30(34)42-16-8-12-32-10-7-11-33(15-14-32)13-9-17-43-31(35)23-20-26(38-3)29(41-6)27(21-23)39-4/h18-21H,7-17H2,1-6H3
INCHIAUX=QVZCXCJXTMIDME-UHFFFAOYSA-N
PUBMED=N/A
SUBMITUSER=jzemlin
LIBRARYQUALITY=1
SPECTRUMID=CCMSLIB00012344037
USI=mzspec:GNPS:MSNLIB-POSITIVE:accession:CCMSLIB00012344037
SCANS=38129
41.038654	0.673
42.03389	1.631
43.017918	0.452
44.049526	0.427
45.033577	0.663
47.049259	0.094
48.766075	0.213
50.015137	0.143
51.022964	2.671
52.030788	0.882
53.002228	0.449
53.038612	25.403999
54.046429	0.147
55.01786	1.151
55.054276	0.518
56.0495	0.486
57.033554	0.147
58.065136	1.681
63.022903	0.246
64.030716	0.423
65.038574	3.323
66.009995	0.408
66.046394	4.791
67.017868	0.146
67.041603	0.18
67.054214	2.232
68.025642	0.735
68.049461	0.292
68.062042	0.24
68.997086	0.295
69.03347	0.311
69.069855	0.137
70.065079	1.114
71.049156	0.312
72.080711	1.474
75.044075	0.265
76.030731	0.521
77.038559	8.977
78.046387	2.154
79.017815	0.803
79.054222	8.658
80.025612	0.362
80.049438	0.766
80.062103	0.113
81.030708	0.111
81.033485	16.684
81.035851	0.275
81.057274	0.734
81.06987	3.113
82.041344	0.089
82.065086	0.939
83.049133	0.301
83.060287	0.094
84.080727	2.609
85.028419	0.136
85.075989	0.296
91.054237	0.539
92.025642	3.609
93.033508	0.46
94.004906	0.875
94.041313	2.315
94.065109	0.337
95.012711	0.15
95.049126	11.14
95.051903	0.16
95.072998	0.097
96.056976	7.518
96.080742	3.476
97.075958	0.13
98.036201	0.127
98.09639	1.785
99.044075	0.504
104.025658	0.223
105.033501	0.71
105.044716	1.263
106.041336	0.999
107.012741	5.34
107.049187	0.438
108.020561	1.495
108.056976	1.508
108.080818	0.404
109.028419	6.151
109.064819	4.067
110.036171	0.096
110.096397	1.02
111.044052	0.305
111.080574	0.717
111.09166	1.248
112.112137	0.204
113.059746	1.156
119.049095	0.086
120.020607	0.104
121.028412	5.536
121.064903	0.129
122.03624	7.099
122.096466	0.497
123.044052	0.688
124.051895	8.204
124.112381	0.231
125.0597	0.24
125.107285	0.356
127.039001	0.159
134.036285	1.151
135.044052	0.164
136.015533	0.253
137.020157	0.107
137.023361	6.161
137.059921	0.099
138.115219	0.128
139.075394	6.063
141.054794	0.14
150.031158	0.277
151.039001	5.95
152.043015	0.094
152.046829	14.172
153.054428	0.142
153.138641	8.779
167.070404	10.155
167.154739	0.251
179.154648	0.294
180.04187	0.18
181.169922	0.4
185.081024	2.108
194.094116	0.09
195.022995	0.362
195.05162	0.271
195.054703	0.613
195.057007	0.637
195.059738	0.194
195.065323	100.0
195.073547	0.484
195.075821	0.355
195.08197	0.135
195.106995	0.302
197.044739	0.11
212.068161	0.119
253.100983	0.226
253.107346	18.398001
310.16507	0.207
393.239502	0.39
605.310974	1.328
END IONS

BEGIN IONS
PEPMASS=227.998
CHARGE=1
MSLEVEL=2
SOURCE_INSTRUMENT=ESI-Orbitrap
FILENAME=gnps_msn_lib_pos.mgf
SEQ=*..*
IONMODE=Positive
ORGANISM=MSNLIB-POSITIVE
NAME=Chlorquinaldol [M+H]+
PI=Tomas Pluskal
DATACOLLECTOR=Corinna Brungs
SMILES=Cc1nc2c(cc1)c(Cl)cc(Cl)c2O
INCHI=InChI=1S/C10H7Cl2NO/c1-5-2-3-6-7(11)4-8(12)10(14)9(6)13-5/h2-4,14H,1H3
INCHIAUX=GPTXWRGISTZRIO-UHFFFAOYSA-N
PUBMED=N/A
SUBMITUSER=jzemlin
LIBRARYQUALITY=1
SPECTRUMID=CCMSLIB00012346605
USI=mzspec:GNPS:MSNLIB-POSITIVE:accession:CCMSLIB00012346605
SCANS=39412
41.258625	0.196
48.257366	0.19
50.015156	7.787
51.022984	8.92
52.030807	2.27
53.038635	0.719
55.05431	0.302
61.010571	0.619
61.979198	0.215
62.015156	0.277
62.018368	1.029
63.022942	1.827
66.046402	0.531
72.983948	0.434
74.015091	4.837
75.022934	12.418
76.018181	0.591
76.030746	8.696
77.038574	8.06
78.033836	2.657
78.046394	5.004
79.041634	1.825
87.022911	0.348
89.038582	2.697
91.054214	1.893
95.049149	9.197
96.044395	2.958
96.983917	0.326
101.038605	2.094
102.033875	0.757
102.04641	33.942001
102.049599	0.316
103.041656	3.043
103.05423	18.362
104.049438	0.665
105.044746	1.43
111.994835	0.202
113.015564	0.31
114.033875	1.567
115.041702	0.302
119.049164	3.244
120.044441	0.543
120.940704	0.312
122.999634	0.665
124.007591	0.365
125.002762	0.599
127.041626	0.384
128.046722	0.252
128.0495	25.377001
129.044815	2.955
129.057312	39.240002
129.059448	0.438
130.005478	0.201
130.040024	0.583
130.06517	32.396
130.06752	0.273
130.070831	0.263
137.015305	3.604
138.010544	0.414
140.026062	0.531
140.0495	0.493
146.06012	1.412
148.075729	2.525
149.002823	0.993
150.01062	1.858
150.951263	0.405
157.052322	0.37
158.06015	2.929
162.951096	0.576
163.018478	0.419
164.018143	0.409
164.026276	63.714001
164.03038	0.211
164.034286	0.466
165.017822	0.412
165.025864	0.429
165.034119	83.237
165.042313	0.462
165.050308	0.379
167.013382	0.433
168.021423	0.21
174.010727	0.568
175.018417	0.691
175.063324	0.4
179.013412	3.938
180.021255	0.94
182.03717	0.586
182.976028	0.351
183.97171	0.793
192.021225	3.056
192.962189	0.625
193.029053	89.667999
193.039413	0.584
198.995255	0.841
212.974701	0.885
226.990479	0.915
227.998108	100.0
228.024536	0.37
228.050949	0.729
END IONS

BEGIN IONS
PEPMASS=499.244
CHARGE=1
MSLEVEL=2
SOURCE_INSTRUMENT=ESI-Orbitrap
FILENAME=gnps_msn_lib_pos.mgf
SEQ=*..*
IONMODE=Positive
ORGANISM=MSNLIB-POSITIVE
NAME=MOEXIPRIL [M+H]+
PI=Tomas Pluskal
DATACOLLECTOR=Corinna Brungs
SMILES=CCOC(=O)[C@H](CCc1ccccc1)N[C@@H](C)C(=O)N1Cc2cc(OC)c(OC)cc2C[C@H]1C(=O)O
INCHI=InChI=1S/C27H34N2O7/c1-5-36-27(33)21(12-11-18-9-7-6-8-10-18)28-17(2)25(30)29-16-20-15-24(35-4)23(34-3)14-19(20)13-22(29)26(31)32/h6-10,14-15,17,21-22,28H,5,11-13,16H2,1-4H3,(H,31,32)/t17-,21-,22-/m0/s1
INCHIAUX=UWWDHYUMIORJTA-HSQYWUDLSA-N
PUBMED=N/A
SUBMITUSER=jzemlin
LIBRARYQUALITY=1
SPECTRUMID=CCMSLIB00012347534
USI=mzspec:GNPS:MSNLIB-POSITIVE:accession:CCMSLIB00012347534
SCANS=39870
41.038677	0.556
44.049515	13.894
45.033459	3.017
51.02298	0.946
56.04945	10.86
58.064999	0.486
58.536674	0.199
62.015064	0.289
63.022949	1.393
65.038582	12.283
73.06472	5.811
74.023659	0.9
77.038567	0.927
78.046425	0.344
82.06501	0.459
84.044411	0.381
89.038567	1.126
91.054207	30.211
91.057526	0.259
95.049133	0.563
102.054901	14.26
105.069901	0.239
107.049133	0.228
112.099625	0.825
115.054237	23.497
116.062065	0.919
117.057266	1.023
117.065025	0.312
117.069847	56.591999
117.07254	0.592
118.065102	0.319
119.085396	0.72
121.065025	0.211
130.086273	67.544998
130.088577	0.789
130.091995	0.646
134.096436	33.373001
134.098862	0.272
134.102509	0.32
144.08078	0.759
145.052216	0.36
146.060028	1.05
146.072647	0.45
151.075363	0.283
160.075745	1.543
160.112152	35.319
160.119873	0.231
161.083603	1.909
162.127777	0.983
165.091064	0.292
177.091034	0.35
188.107117	0.494
190.086655	1.213
192.102081	4.353
194.117645	0.397
206.117996	1.681
206.154449	0.722
234.13533	0.56
234.1492	100.0
234.160416	0.229
234.163025	0.551
236.092163	3.604
238.107727	3.914
283.156189	1.929
283.657104	0.927
291.669556	1.989
292.171448	0.941
304.118073	0.473
425.20871	0.642
499.244751	2.528
END IONS

BEGIN IONS
PEPMASS=479.26
CHARGE=1
MSLEVEL=2
SOURCE_INSTRUMENT=ESI-Orbitrap
FILENAME=gnps_msn_lib_pos.mgf
SEQ=*..*
IONMODE=Positive
ORGANISM=MSNLIB-POSITIVE
NAME=diflucortolone valerate [M+H]+
PI=Tomas Pluskal
DATACOLLECTOR=Corinna Brungs
SMILES=CCCCC(=O)OCC(=O)[C@H]1[C@H](C)C[C@H]2[C@@H]3C[C@H](F)C4=CC(=O)C=C[C@]4(C)[C@@]3(F)[C@@H](O)C[C@@]21C
INCHI=InChI=1S/C27H36F2O5/c1-5-6-7-23(33)34-14-21(31)24-15(2)10-17-18-12-20(28)19-11-16(30)8-9-26(19,4)27(18,29)22(32)13-25(17,24)3/h8-9,11,15,17-18,20,22,24,32H,5-7,10,12-14H2,1-4H3/t15-,17+,18+,20+,22+,24-,25+,26+,27+/m1/s1
INCHIAUX=HHJIUUAMYGBVSD-YTFFSALGSA-N
PUBMED=N/A
SUBMITUSER=jzemlin
LIBRARYQUALITY=1
SPECTRUMID=CCMSLIB00012347666
USI=mzspec:GNPS:MSNLIB-POSITIVE:accession:CCMSLIB00012347666
SCANS=39936
57.069752	100.0
85.064613	58.349998
121.064629	36.651001
135.080231	5.577
143.069534	4.945
159.080505	9.814
169.064651	6.407
171.080185	8.227
183.080826	8.541
301.159668	5.535
319.170471	8.788
337.180695	8.101
355.191254	11.03
357.18634	6.053
375.196777	7.142
END IONS

BEGIN IONS
PEPMASS=268.139
CHARGE=1
MSLEVEL=2
SOURCE_INSTRUMENT=ESI-Orbitrap
FILENAME=gnps_msn_lib_pos.mgf
SEQ=*..*
IONMODE=Positive
ORGANISM=MSNLIB-POSITIVE
NAME=voglibose [M+H]+
PI=Tomas Pluskal
DATACOLLECTOR=Corinna Brungs
SMILES=OCC(CO)N[C@H]1C[C@](O)(CO)[C@@H](O)[C@H](O)[C@H]1O
INCHI=InChI=1S/C10H21NO7/c12-2-5(3-13)11-6-1-10(18,4-14)9(17)8(16)7(6)15/h5-9,11-18H,1-4H2/t6-,7-,8+,9-,10-/m0/s1
INCHIAUX=FZNCGRZWXLXZSZ-CIQUZCHMSA-N
PUBMED=N/A
SUBMITUSER=jzemlin
LIBRARYQUALITY=1
SPECTRUMID=CCMSLIB00012348815
USI=mzspec:GNPS:MSNLIB-POSITIVE:accession:CCMSLIB00012348815
SCANS=40500
41.038635	2.379
42.033878	1.079
43.017845	1.643
43.054218	0.614
44.049507	3.885
45.033508	1.532
45.987114	1.046
46.994942	1.929
51.02298	6.115
53.038548	1.605
55.017826	1.181
55.054195	1.621
56.049416	3.446
56.964668	0.967
57.033421	2.606
58.065033	2.052
59.036575	1.398
60.044346	2.907
61.010517	1.005
62.018299	9.449
63.997608	0.7
65.038582	22.568001
67.041672	0.382
67.054146	9.019
68.049408	4.038
69.033325	3.129
70.028702	1.151
70.065063	2.537
71.012497	0.482
71.048996	1.8
72.044319	4.438
73.028389	0.51
74.059914	15.851
74.064919	0.531
77.038567	3.96
79.020973	2.488
79.054138	1.029
80.049362	1.883
81.03334	2.628
82.065033	1.499
83.049042	3.156
84.044304	0.841
85.028214	0.811
86.059921	1.414
89.038521	0.741
90.046356	0.528
91.054245	0.4
92.049484	0.322
92.070435	16.038
93.033478	10.587
93.057297	0.514
94.065079	4.406
95.049103	19.739
96.044411	0.564
96.080643	0.745
97.028267	1.199
98.05999	3.117
99.043884	1.723
100.075661	0.486
102.054779	1.956
104.070435	3.306
105.044724	0.564
106.065063	1.021
107.049149	0.597
110.060005	3.341
111.041969	0.225
111.044029	12.352
111.067764	0.236
112.075691	0.572
113.059616	0.88
114.054787	0.485
115.054199	0.416
116.070557	7.176
117.057289	1.244
118.086143	1.805
120.080818	0.544
122.059998	1.891
123.043961	3.445
124.075645	1.45
128.070587	1.292
133.052307	0.252
134.060028	2.465
134.0811	4.52
136.075592	0.652
140.070602	1.392
141.054886	0.756
142.086151	1.365
143.001709	0.626
148.07576	0.752
152.070587	1.101
154.086212	1.41
158.0811	0.922
166.086472	0.839
168.102066	1.029
170.081558	1.82
172.097122	0.686
178.086792	0.811
178.957794	0.56
179.965622	0.982
184.097183	1.023
186.112488	0.985
188.091797	0.449
189.949905	1.122
196.096893	2.729
206.102539	2.035
207.960602	4.434
214.107788	2.798
232.118576	2.378
250.128784	6.153
268.070862	0.677
268.139465	100.0
268.206421	0.692
END IONS

BEGIN IONS
PEPMASS=256.104
CHARGE=1
MSLEVEL=2
SOURCE_INSTRUMENT=ESI-Orbitrap
FILENAME=gnps_msn_lib_pos.mgf
SEQ=*..*
IONMODE=Positive
ORGANISM=MSNLIB-POSITIVE
NAME=82410-32-0 [M+H]+
PI=Tomas Pluskal
DATACOLLECTOR=Corinna Brungs
SMILES=Nc1nc(=O)c2c([nH]1)n(COC(CO)CO)cn2
INCHI=InChI=1S/C9H13N5O4/c10-9-12-7-6(8(17)13-9)11-3-14(7)4-18-5(1-15)2-16/h3,5,15-16H,1-2,4H2,(H3,10,12,13,17)
INCHIAUX=IRSCQMHQWWYFCW-UHFFFAOYSA-N
PUBMED=N/A
SUBMITUSER=jzemlin
LIBRARYQUALITY=1
SPECTRUMID=CCMSLIB00012349887
USI=mzspec:GNPS:MSNLIB-POSITIVE:accession:CCMSLIB00012349887
SCANS=41021
40.01828	1.421
42.03392	0.025
43.029171	10.637
43.031231	0.041
44.01318	0.077
45.033417	1.141
46.02882	0.064
53.0135	2.558
53.997498	0.085
55.026619	0.023
55.029133	14.708
55.031261	0.082
55.033989	0.022
56.013161	0.127
57.03336	1.049
60.020485	0.074
62.018414	0.047
65.013466	3.186
65.015495	0.032
65.997475	0.133
66.021255	0.024
67.029106	0.248
68.013123	1.082
68.024353	1.48
69.008385	0.117
70.040016	0.128
75.043869	0.185
79.021126	0.057
80.024361	8.45
80.02652	0.167
81.008369	0.839
82.040016	5.114
82.042213	0.087
83.02404	0.455
87.043945	0.58
92.024399	0.334
93.008415	2.776
93.011047	0.041
94.040009	0.058
98.034958	0.114
105.054619	0.117
107.035309	3.09
108.019287	0.072
109.050964	2.037
110.026741	0.024
110.030312	0.112
110.034966	21.004
110.038872	0.236
110.041466	0.072
122.034973	0.075
128.045578	3.537
128.047867	0.062
128.051163	0.025
134.04631	1.827
135.01976	0.044
135.0242	0.221
135.026932	0.055
135.030258	33.317001
135.03244	0.201
135.03627	0.265
135.039902	0.049
135.043488	0.029
136.014297	1.052
140.045593	0.147
151.049454	0.035
152.019684	0.106
152.027878	0.356
152.033707	0.296
152.036911	0.042
152.039413	0.042
152.044312	0.086
152.046829	0.252
152.049591	0.627
152.056808	100.0
152.064041	0.699
152.066132	0.201
152.068222	0.137
152.07222	0.088
152.079758	0.315
152.08577	0.435
152.088882	0.033
152.094055	0.166
152.10199	0.083
153.031357	0.042
153.034164	0.127
153.040878	20.462999
153.048157	0.132
153.0504	0.057
153.052505	0.03
153.070526	0.121
154.024902	0.379
155.045227	0.054
164.056976	0.14
171.051498	0.095
256.105072	0.807
END IONS

BEGIN IONS
PEPMASS=245.059
CHARGE=1
MSLEVEL=2
SOURCE_INSTRUMENT=ESI-Orbitrap
FILENAME=gnps_msn_lib_pos.mgf
SEQ=*..*
IONMODE=Positive
ORGANISM=MSNLIB-POSITIVE
NAME=Pidotimod [M+H]+
PI=Tomas Pluskal
DATACOLLECTOR=Corinna Brungs
SMILES=O=C1CC[C@@H](C(=O)N2CSC[C@H]2C(=O)O)N1
INCHI=InChI=1S/C9H12N2O4S/c12-7-2-1-5(10-7)8(13)11-4-16-3-6(11)9(14)15/h5-6H,1-4H2,(H,10,12)(H,14,15)/t5-,6-/m0/s1
INCHIAUX=UUTKICFRNVKFRG-WDSKDSINSA-N
PUBMED=N/A
SUBMITUSER=jzemlin
LIBRARYQUALITY=1
SPECTRUMID=CCMSLIB00012357193
USI=mzspec:GNPS:MSNLIB-POSITIVE:accession:CCMSLIB00012357193
SCANS=44650
41.038525	1.879
42.033882	3.199
43.017887	0.33
43.041695	0.275
43.983761	1.219
44.049519	9.184
44.979393	0.928
44.991615	0.446
45.987232	0.227
46.995033	0.579
53.038456	0.534
55.017822	0.205
56.04937	7.763
57.987164	1.419
58.994984	52.620998
60.957672	0.425
60.986462	16.013
61.010601	19.978001
61.994263	0.634
62.018387	0.459
62.989895	0.263
63.997688	0.688
68.049423	0.482
70.02877	0.201
74.023621	0.596
76.021515	1.504
78.996994	16.694
79.021149	4.961
80.049431	2.467
84.044304	45.174999
84.046608	0.465
84.049789	0.878
84.05304	0.657
86.005829	0.53
86.98983	4.174
88.016487	0.213
88.021461	100.0
88.024155	1.61
88.028145	0.492
88.03923	0.942
88.907883	2.692
88.95253	0.918
96.044235	0.732
97.007515	9.008
105.000381	2.973
106.032082	0.725
106.991982	0.658
108.044334	0.442
114.037178	1.284
117.000359	0.23
123.00547	2.277
123.976921	1.045
132.011414	0.22
134.027039	52.372002
134.029495	0.29
139.000397	12.731
141.016022	2.497
141.987488	2.171
142.032104	7.999
148.984634	0.206
151.898376	1.016
151.971863	0.888
152.951447	0.39
153.065796	1.103
157.010971	23.406
166.922028	1.683
166.96788	0.559
166.995438	17.773001
169.909012	0.475
170.0271	3.516
181.060913	2.548
184.93277	1.262
185.006073	13.787
188.037735	3.032
199.05368	15.227
227.048782	12.898
245.059311	13.082
END IONS

BEGIN IONS
PEPMASS=318.222
CHARGE=1
MSLEVEL=2
SOURCE_INSTRUMENT=ESI-Orbitrap
FILENAME=gnps_msn_lib_pos.mgf
SEQ=*..*
IONMODE=Positive
ORGANISM=MSNLIB-POSITIVE
NAME=butenafine [M+H]+
PI=Tomas Pluskal
DATACOLLECTOR=Corinna Brungs
SMILES=CN(Cc1ccc(C(C)(C)C)cc1)Cc1cccc2ccccc12
INCHI=InChI=1S/C23H27N/c1-23(2,3)21-14-12-18(13-15-21)16-24(4)17-20-10-7-9-19-8-5-6-11-22(19)20/h5-15H,16-17H2,1-4H3
INCHIAUX=ABJKWBDEJIDSJZ-UHFFFAOYSA-N
PUBMED=N/A
SUBMITUSER=jzemlin
LIBRARYQUALITY=1
SPECTRUMID=CCMSLIB00012358285
USI=mzspec:GNPS:MSNLIB-POSITIVE:accession:CCMSLIB00012358285
SCANS=45194
41.038643	0.219
42.03389	0.491
44.049503	0.858
50.015179	0.046
51.022976	0.4
53.038597	0.079
55.054211	0.603
57.069862	0.364
61.010532	0.103
62.015133	0.248
63.022923	9.47
65.038559	10.523
67.054207	0.07
69.06987	0.095
74.015038	0.117
75.022903	1.057
76.030807	0.046
77.038551	0.401
78.046379	0.428
79.021202	0.156
79.054192	0.625
84.959557	0.23
86.014999	0.08
87.022903	0.75
88.030731	0.119
89.038544	14.98
89.041054	0.203
91.050827	0.039
91.054214	7.931
91.057159	0.105
92.06205	0.075
93.069847	0.137
95.049126	0.627
102.046387	0.832
103.054199	0.633
104.061996	1.227
105.044655	0.081
105.069839	5.184
105.072014	0.044
107.085464	0.682
109.064873	0.088
113.038574	0.164
114.046455	0.307
115.046715	0.085
115.049423	0.273
115.051506	0.118
115.054222	69.697998
115.057518	1.069
115.059219	0.777
115.062698	0.068
116.062042	0.712
117.060379	0.082
117.064903	0.118
117.06987	18.045
117.073357	0.188
117.076164	0.069
119.072914	0.068
119.085518	6.02
120.08078	0.18
126.046425	0.123
127.054512	0.044
128.062027	0.14
129.069885	0.13
131.085526	1.101
132.090485	0.045
132.093369	8.406
132.096375	0.046
139.054352	1.784
140.062103	0.367
141.043854	0.385
141.049255	0.289
141.052231	0.064
141.055832	0.069
141.05835	0.07
141.063339	0.676
141.069855	100.0
141.07254	0.058
141.075684	0.799
141.079361	1.227
141.08194	0.055
141.085663	0.101
141.08992	0.55
141.095764	0.563
141.103302	0.239
141.110458	0.144
145.101227	0.246
146.09642	1.742
147.109955	0.15
147.116852	26.129
147.119354	0.097
147.123779	0.159
147.144318	0.203
160.112106	0.466
161.11998	1.33
162.97377	0.129
170.096619	1.273
176.14357	3.795
176.148056	0.046
180.984787	0.248
231.117264	0.316
287.180664	0.406
318.221985	9.161
END IONS

BEGIN IONS
PEPMASS=182.058
CHARGE=1
MSLEVEL=2
SOURCE_INSTRUMENT=ESI-Orbitrap
FILENAME=gnps_msn_lib_pos.mgf
SEQ=*..*
IONMODE=Positive
ORGANISM=MSNLIB-POSITIVE
NAME=GLUFOSINATE [M+H]+
PI=Tomas Pluskal
DATACOLLECTOR=Corinna Brungs
SMILES=CP(=O)(O)CCC(N)C(=O)O
INCHI=InChI=1S/C5H12NO4P/c1-11(9,10)3-2-4(6)5(7)8/h4H,2-3,6H2,1H3,(H,7,8)(H,9,10)
INCHIAUX=IAJOBQBIJHVGMQ-UHFFFAOYSA-N
PUBMED=N/A
SUBMITUSER=jzemlin
LIBRARYQUALITY=1
SPECTRUMID=CCMSLIB00012358489
USI=mzspec:GNPS:MSNLIB-POSITIVE:accession:CCMSLIB00012358489
SCANS=45293
41.038651	0.698
44.98893	0.396
46.968178	5.777
47.975998	0.232
48.983913	0.07
55.017868	2.056
55.054279	0.12
56.046337	0.323
56.049438	84.337997
56.052219	1.382
56.055672	0.619
57.033508	12.778
57.052979	0.077
62.963066	0.205
62.999409	24.355
63.002148	0.095
64.978691	0.274
81.009987	2.33
91.030632	0.093
91.054169	0.106
97.004875	1.517
98.984123	0.103
110.060059	0.148
118.041519	0.833
119.019104	0.075
119.025604	39.708
119.029053	0.366
119.033478	0.272
122.096291	0.231
136.027451	0.507
136.052094	100.0
136.054642	0.12
136.058182	0.073
136.06221	2.009
136.07135	1.026
136.076294	0.832
136.083618	0.313
137.036179	16.604
137.038651	0.157
137.042435	0.13
137.045593	0.197
150.09082	0.234
164.047012	0.287
165.031189	3.727
182.057922	13.785
182.117798	0.501
END IONS

BEGIN IONS
PEPMASS=455.075
CHARGE=1
MSLEVEL=2
SOURCE_INSTRUMENT=ESI-Orbitrap
FILENAME=gnps_msn_lib_pos.mgf
SEQ=*..*
IONMODE=Positive
ORGANISM=MSNLIB-POSITIVE
NAME=FENTICONAZOLE [M+H]+
PI=Tomas Pluskal
DATACOLLECTOR=Corinna Brungs
SMILES=Clc1cc(Cl)c(C(Cn2ccnc2)OCc2ccc(Sc3ccccc3)cc2)cc1
INCHI=InChI=1S/C24H20Cl2N2OS/c25-19-8-11-22(23(26)14-19)24(15-28-13-12-27-17-28)29-16-18-6-9-21(10-7-18)30-20-4-2-1-3-5-20/h1-14,17,24H,15-16H2
INCHIAUX=ZCJYUTQZBAIHBS-UHFFFAOYSA-N
PUBMED=N/A
SUBMITUSER=jzemlin
LIBRARYQUALITY=1
SPECTRUMID=CCMSLIB00012359401
USI=mzspec:GNPS:MSNLIB-POSITIVE:accession:CCMSLIB00012359401
SCANS=45749
41.267109	0.062
41.771484	0.092
44.979397	0.484
46.008644	0.072
49.764923	0.223
50.015182	0.233
50.562302	0.165
50.565006	0.141
51.022987	4.79
53.038631	1.301
63.022923	0.435
65.038567	0.321
68.979301	0.742
69.04451	3.035
70.994949	0.268
74.015083	0.192
75.022888	0.169
76.030701	0.183
77.038559	5.15
78.046364	0.93
79.054237	0.107
81.033516	0.077
81.044525	0.677
82.052338	0.223
86.015038	0.149
87.022881	0.518
88.03067	0.07
89.038528	1.128
90.046394	0.981
91.054192	0.808
95.045547	0.095
95.049126	16.458
95.052696	0.15
97.01062	1.099
98.015068	0.256
99.022934	0.187
100.030685	0.115
102.046341	0.426
103.054367	0.082
105.044701	2.07
110.015045	0.146
111.022881	0.366
113.038506	0.546
115.054184	3.084
118.065117	0.116
121.01062	2.484
122.015297	0.119
122.01844	2.525
123.022881	0.076
123.026283	0.515
125.038536	0.186
126.046333	0.879
127.054169	0.173
128.061996	2.021
129.069855	0.456
134.018417	0.951
135.022995	0.073
137.038574	0.215
138.046432	0.119
139.054169	4.215
140.061981	0.752
141.069855	0.86
145.064758	0.288
147.026215	0.47
149.03862	0.092
149.738785	0.072
150.046341	0.814
151.054199	0.385
152.061996	9.001
153.069824	1.002
154.077606	0.327
155.060303	0.165
155.085464	2.432
158.018433	0.654
158.976334	0.215
159.026367	0.078
160.034195	0.12
161.038574	0.627
162.046387	1.03
163.054214	4.982
164.062042	3.304
165.061768	0.148
165.069885	22.125
165.072922	0.185
165.078094	0.133
166.077744	4.556
167.077118	0.16
167.081146	0.056
167.085541	28.139
167.093811	0.223
167.096191	0.079
168.056992	0.288
169.064819	0.677
169.968445	0.166
171.026321	0.71
173.041977	0.077
176.062103	0.343
177.069962	0.127
178.077774	0.893
179.060699	0.09
183.026367	2.404
184.024826	0.18
184.034164	24.957001
184.0439	0.139
197.042053	3.186
198.049835	1.662
199.014374	0.531
199.022964	0.405
199.04068	0.113
199.043442	0.269
199.046707	0.591
199.048904	0.571
199.057602	100.0
199.06633	0.418
199.068436	0.746
199.071442	0.201
199.074539	0.109
199.077728	0.072
199.092133	0.438
199.100967	0.505
199.113617	0.204
200.061066	0.138
212.038757	0.128
213.046783	0.266
247.04808	0.305
248.015884	0.575
255.009262	0.171
267.095306	0.21
455.074127	6.139
END IONS

BEGIN IONS
PEPMASS=533.08
CHARGE=1
MSLEVEL=2
SOURCE_INSTRUMENT=ESI-Orbitrap
FILENAME=gnps_msn_lib_pos_second_batch.mgf
SEQ=*..*
IONMODE=Positive
ORGANISM=MSNLIB-POSITIVE
NAME=SPBio_002628 [M]+
PI=Tomas Pluskal
DATACOLLECTOR=Corinna Brungs
SMILES=NC(=O)c1cc[n+](CC2=C(C(=O)O)N3C(=O)[C@@H](NC(=O)[C@@H](c4ccccc4)S(=O)(=O)O)[C@H]3SC2)cc1
INCHI=InChI=1S/C22H20N4O8S2/c23-18(27)13-6-8-25(9-7-13)10-14-11-35-21-15(20(29)26(21)16(14)22(30)31)24-19(28)17(36(32,33)34)12-4-2-1-3-5-12/h1-9,15,17,21H,10-11H2,(H4-,23,24,27,28,30,31,32,33,34)/p+1/t15-,17-,21-/m1/s1
INCHIAUX=SYLKGLMBLAAGSC-QLVMHMETSA-O
PUBMED=N/A
SUBMITUSER=jzemlin
LIBRARYQUALITY=1
SPECTRUMID=CCMSLIB00013030587
USI=mzspec:GNPS:MSNLIB-POSITIVE:accession:CCMSLIB00013030587
SCANS=98191
42.033798	1.279
44.049435	3.992
44.979324	3.581
51.022839	0.715
53.038509	8.344
56.049397	0.821
58.064968	10.82
65.038506	1.561
67.041512	0.568
70.064949	0.801
70.994896	0.804
73.010483	5.16
78.033722	1.583
79.041496	1.663
80.049324	22.829
91.053978	9.402
95.049232	1.241
95.060226	4.996
96.044273	2.101
99.091553	2.064
100.021278	10.231
101.005424	0.56
101.107231	27.156
108.067513	1.639
112.021149	2.243
117.057259	2.589
118.064735	8.538
119.048767	1.772
120.08065	1.039
123.055115	46.667999
128.016052	4.377
128.049362	2.09
128.999695	1.259
139.031906	2.823
139.054062	0.881
140.049286	0.66
141.047913	1.447
145.064682	0.887
146.059708	3.229
149.038589	1.157
150.046356	6.669
151.054062	8.413
152.061798	2.447
153.057098	1.294
153.069656	0.558
154.065018	0.717
156.011246	20.280001
161.028885	1.748
161.03833	0.846
163.054001	0.574
164.049164	0.75
166.064957	1.016
167.027267	1.443
167.072769	0.896
169.064697	11.772
169.088181	1.316
170.05986	1.278
173.547287	1.639
174.046509	4.124
174.054886	17.898001
175.041702	1.852
175.054138	1.727
176.061996	15.618
177.05719	7.391
177.069733	6.3
178.065002	13.881
179.060226	4.219
185.038071	5.493
188.049301	4.389
189.057083	1.263
190.064972	0.822
194.060165	0.65
200.052353	2.067
201.057251	0.506
202.06488	3.149
203.060226	3.581
203.072708	12.994
204.067963	4.05
204.08049	11.925
205.075714	13.249
206.071259	2.832
214.052567	1.11
215.06012	4.752
216.068024	1.779
217.063324	0.789
220.075562	0.901
228.047531	3.726
230.07103	6.46
231.078812	17.306
232.062668	0.713
232.086609	8.291
246.057938	3.779
250.096985	3.013
255.058105	2.488
256.027649	8.112
260.081329	100.0
274.053406	3.979
287.083679	1.275
331.075073	1.367
433.128998	2.565
533.231018	4.637
END IONS

BEGIN IONS
PEPMASS=520.142
CHARGE=1
MSLEVEL=2
SOURCE_INSTRUMENT=ESI-Orbitrap
FILENAME=gnps_msn_lib_pos_second_batch.mgf
SEQ=*..*
IONMODE=Positive
ORGANISM=MSNLIB-POSITIVE
NAME=ESTRAMUSTINE PHOSPHATE [M+H]+
PI=Tomas Pluskal
DATACOLLECTOR=Corinna Brungs
SMILES=C[C@]12CC[C@@H]3c4c(cc(OC(=O)N(CCCl)CCCl)cc4)CC[C@H]3[C@@H]1CC[C@@H]2OP(=O)(O)O
INCHI=InChI=1S/C23H32Cl2NO6P/c1-23-9-8-18-17-5-3-16(31-22(27)26(12-10-24)13-11-25)14-15(17)2-4-19(18)20(23)6-7-21(23)32-33(28,29)30/h3,5,14,18-21H,2,4,6-13H2,1H3,(H2,28,29,30)/t18-,19-,20+,21+,23+/m1/s1
INCHIAUX=ADFOJJHRTBFFOF-RBRWEJTLSA-N
PUBMED=N/A
SUBMITUSER=jzemlin
LIBRARYQUALITY=1
SPECTRUMID=CCMSLIB00013033686
USI=mzspec:GNPS:MSNLIB-POSITIVE:accession:CCMSLIB00013033686
SCANS=98908
41.038544	0.963
55.054134	1.591
62.99939	100.0
67.054062	1.913
70.028526	3.367
77.038406	2.66
79.054047	5.06
81.069687	2.171
91.054047	2.234
93.069695	4.578
95.048965	2.861
107.08532	3.158
128.052567	3.49
135.116714	14.285
147.116745	3.427
167.997894	48.599998
174.058426	2.302
300.05658	5.053
314.071442	2.123
326.07193	4.715
389.085114	3.127
422.166748	8.727
END IONS

BEGIN IONS
PEPMASS=270.185
CHARGE=1
MSLEVEL=2
SOURCE_INSTRUMENT=ESI-Orbitrap
FILENAME=gnps_msn_lib_pos_second_batch.mgf
SEQ=*..*
IONMODE=Positive
ORGANISM=MSNLIB-POSITIVE
NAME=Bifemelane [M+H]+
PI=Tomas Pluskal
DATACOLLECTOR=Corinna Brungs
SMILES=CNCCCCOc1ccccc1Cc1ccccc1
INCHI=InChI=1S/C18H23NO/c1-19-13-7-8-14-20-18-12-6-5-11-17(18)15-16-9-3-2-4-10-16/h2-6,9-12,19H,7-8,13-15H2,1H3
INCHIAUX=QSQQPMHPCBLLGX-UHFFFAOYSA-N
PUBMED=N/A
SUBMITUSER=jzemlin
LIBRARYQUALITY=1
SPECTRUMID=CCMSLIB00013039043
USI=mzspec:GNPS:MSNLIB-POSITIVE:accession:CCMSLIB00013039043
SCANS=100130
41.038559	0.889
42.033718	0.565
43.017815	0.031
43.041508	0.149
44.049332	35.084
44.051659	0.855
44.053806	0.405
50.015057	0.284
51.022877	5.166
52.030724	0.031
53.038483	0.693
54.009884	0.058
55.017704	0.275
55.054043	3.018
56.049244	0.202
57.057037	0.471
57.069675	0.087
58.064892	0.845
61.010273	0.081
62.014977	0.291
62.018177	0.222
63.022797	2.191
65.038414	18.660999
67.543762	0.076
67.548248	0.083
69.033257	0.106
70.064735	0.135
71.072617	0.076
74.015022	0.147
75.022835	0.126
76.030647	0.17
77.038422	5.233
78.046288	0.141
79.054016	3.329
79.056114	0.056
84.080544	0.123
86.015106	0.038
86.083794	0.457
86.096153	100.0
86.101463	1.292
86.105621	0.925
86.108315	0.78
86.112053	0.367
86.115509	0.196
86.11927	0.137
87.02285	0.091
89.038437	0.258
91.040672	0.102
91.046608	0.138
91.050797	0.052
91.054016	46.521999
91.056641	0.693
91.059845	0.471
91.064178	0.47
91.067139	0.337
91.071068	0.117
95.048996	5.661
95.051697	0.099
98.015038	0.289
99.022842	0.127
100.03067	0.063
102.04631	0.216
103.054054	0.124
105.044563	1.031
105.069611	0.556
107.048935	12.405
107.052246	0.159
107.054314	0.044
110.014977	0.065
111.02285	0.081
113.038452	0.043
115.05407	0.997
116.061974	0.436
117.069656	0.182
119.048958	0.92
119.99955	0.047
121.007317	0.069
121.064598	0.184
122.014999	0.342
123.022781	0.104
124.030655	0.064
125.038452	0.07
126.046272	0.379
128.061844	0.442
129.069672	0.258
130.077377	0.101
131.048996	0.09
131.085373	5.059
131.091171	0.031
132.056503	0.067
133.064636	0.241
133.100998	1.354
137.038284	0.041
137.059555	0.151
139.054092	0.11
141.069672	0.944
145.06459	0.097
145.100983	1.267
147.080231	0.316
151.054077	0.042
152.061798	1.051
153.069565	0.848
154.077469	0.563
155.060165	0.044
155.08519	0.66
157.064468	0.132
158.096268	0.089
161.095856	1.449
163.959381	0.11
164.061737	0.06
165.069656	1.713
166.077637	0.112
167.085312	0.473
168.056763	0.097
169.064636	0.073
169.101044	0.874
173.545502	0.08
176.061951	0.24
177.069687	0.345
178.077545	2.751
179.085358	2.523
181.064621	1.362
182.072433	1.483
183.063019	0.058
183.080292	0.667
191.954605	0.076
195.080261	0.299
196.088226	0.036
197.085236	0.071
197.095825	10.775
197.10437	0.051
197.106552	0.068
201.138153	0.101
207.09137	0.047
209.964386	0.159
239.142654	8.014
270.114899	0.274
270.184631	45.305
270.238281	0.288
270.253235	0.295
270.27359	0.128
END IONS

BEGIN IONS
PEPMASS=158.118
CHARGE=1
MSLEVEL=2
SOURCE_INSTRUMENT=ESI-Orbitrap
FILENAME=gnps_msn_lib_pos_second_batch.mgf
SEQ=*..*
IONMODE=Positive
ORGANISM=MSNLIB-POSITIVE
NAME=tranexamic acid [M+H]+
PI=Tomas Pluskal
DATACOLLECTOR=Corinna Brungs
SMILES=NCC1CCC(C(=O)O)CC1
INCHI=InChI=1S/C8H15NO2/c9-5-6-1-3-7(4-2-6)8(10)11/h6-7H,1-5,9H2,(H,10,11)
INCHIAUX=GYDJEQRTZSCIOI-UHFFFAOYSA-N
PUBMED=N/A
SUBMITUSER=jzemlin
LIBRARYQUALITY=1
SPECTRUMID=CCMSLIB00013046343
USI=mzspec:GNPS:MSNLIB-POSITIVE:accession:CCMSLIB00013046343
SCANS=101791
41.038494	2.033
42.03381	0.108
43.017654	1.401
43.054203	0.087
45.033321	0.21
46.994869	0.138
50.015053	0.192
51.022865	4.193
52.030659	0.104
53.002151	0.068
53.013351	0.144
53.038445	3.852
55.01759	0.214
55.054073	31.792
55.056896	0.429
55.060238	0.168
57.033241	0.373
63.997414	0.48
64.996956	0.133
65.038368	2.871
66.04628	0.121
67.05397	32.214001
67.057526	0.801
67.060181	0.587
67.062241	0.309
67.064781	0.153
69.033401	0.112
77.038414	1.503
78.046272	0.221
79.020836	0.866
79.054001	1.949
80.020241	0.142
80.024292	0.504
80.061813	1.252
81.069511	1.565
91.054031	3.041
93.069679	5.714
93.072426	0.091
95.048973	4.293
95.077438	0.29
95.085266	100.0
95.088112	1.207
95.092003	1.374
95.096008	1.593
95.099213	1.028
95.103569	0.405
95.107506	0.217
95.111763	0.156
105.044548	0.221
113.095924	0.183
116.004547	0.111
123.080223	4.579
141.090942	2.149
158.117523	9.512
END IONS

BEGIN IONS
PEPMASS=329.153
CHARGE=1
MSLEVEL=2
SOURCE_INSTRUMENT=ESI-Orbitrap
FILENAME=gnps_msn_lib_pos_second_batch.mgf
SEQ=*..*
IONMODE=Positive
ORGANISM=MSNLIB-POSITIVE
NAME=tiapride [M+H]+
PI=Tomas Pluskal
DATACOLLECTOR=Corinna Brungs
SMILES=CCN(CC)CCNC(=O)c1c(OC)ccc(S(C)(=O)=O)c1
INCHI=InChI=1S/C15H24N2O4S/c1-5-17(6-2)10-9-16-15(18)13-11-12(22(4,19)20)7-8-14(13)21-3/h7-8,11H,5-6,9-10H2,1-4H3,(H,16,18)
INCHIAUX=JTVPZMFULRWINT-UHFFFAOYSA-N
PUBMED=N/A
SUBMITUSER=jzemlin
LIBRARYQUALITY=1
SPECTRUMID=CCMSLIB00013050651
USI=mzspec:GNPS:MSNLIB-POSITIVE:accession:CCMSLIB00013050651
SCANS=102849
44.049412	0.978
44.269646	0.084
44.979298	0.445
45.033459	2.399
46.994938	0.379
50.015018	16.735001
51.022835	5.387
52.018112	0.085
52.030655	2.731
53.002094	0.189
53.009106	0.066
53.038471	0.788
53.255371	0.216
55.017742	0.77
55.054104	0.161
58.994827	0.12
62.014996	0.083
62.98978	0.4
63.022766	1.819
63.997581	0.14
64.017731	0.194
64.030594	0.399
65.038422	5.541
66.033653	0.179
66.046234	1.418
67.041496	0.063
67.05407	0.491
68.979156	0.097
68.996864	0.08
70.994766	0.316
72.08049	0.563
74.014923	0.152
74.09597	0.715
75.022743	0.523
76.030556	22.002001
76.033066	0.219
77.038383	5.267
78.033646	0.357
78.046211	36.446999
78.04821	0.672
78.984657	2.655
79.017654	3.654
79.041466	2.175
79.054054	2.626
80.02549	0.184
81.033325	1.131
82.004776	0.189
84.002617	0.461
89.038383	0.096
90.03363	1.674
91.017654	1.194
91.041504	0.158
91.05407	1.648
92.02549	0.65
92.049248	0.098
93.03344	0.156
94.041153	2.8
94.994774	0.093
95.04895	4.81
96.044189	0.331
97.010475	0.534
98.018295	0.082
98.036049	0.112
98.989632	0.113
99.026146	0.461
100.111824	2.416
103.041435	2.182
103.054115	0.076
104.02549	3.253
104.03672	0.533
104.049263	15.202
104.052498	0.223
105.033318	5.702
105.035332	0.092
105.04454	0.811
105.057106	12.479
105.060608	0.199
106.028572	0.404
106.041145	3.605
106.064964	0.497
107.012581	2.984
107.04895	2.858
108.020401	0.251
109.010475	2.027
109.028244	0.605
110.018295	0.672
110.036018	0.119
110.989716	0.274
111.997581	0.096
116.049278	0.09
117.020676	0.196
117.057106	0.118
118.028496	0.885
119.012611	0.494
119.02375	0.456
120.044228	0.171
120.08065	0.058
121.028313	0.085
121.051888	0.082
121.064552	0.146
122.036026	1.421
122.989548	0.293
123.007462	0.653
123.043877	0.647
123.997475	0.081
124.051666	0.12
125.005333	0.409
126.013252	0.081
132.044205	1.856
133.028275	1.131
133.046082	0.163
133.048981	0.059
133.052017	25.799999
133.054428	0.334
133.057861	0.173
134.023514	0.538
134.030258	0.312
134.036026	46.395
134.038513	0.212
134.041428	0.341
134.043869	0.135
134.059814	3.493
135.007462	0.163
135.043976	0.104
136.015274	0.097
136.039047	0.079
137.023163	0.212
138.013214	0.225
139.992691	0.067
146.034668	0.361
148.039047	0.144
148.075485	0.312
150.03093	0.362
151.038956	0.102
151.99234	0.097
153.000168	0.292
153.017899	0.198
154.008026	0.436
154.979446	1.822
162.054779	5.386
165.041855	0.331
166.025864	1.605
166.049484	0.054
170.003082	0.741
173.02652	1.475
173.545303	0.179
176.070496	0.091
177.069	0.25
177.078156	40.654999
177.081818	0.696
177.085342	0.323
177.089859	0.114
178.049683	2.691
178.086014	0.137
180.011154	0.257
180.065094	0.142
181.990463	0.501
183.010849	0.187
183.02211	2.43
185.026474	2.661
192.068054	0.132
197.013885	0.113
200.98497	0.18
209.068054	0.558
212.037354	34.929001
212.041977	0.178
212.046661	0.199
212.049408	0.237
213.00235	0.101
213.005768	0.269
213.009338	0.672
213.011642	0.416
213.021317	100.0
213.030884	0.644
213.03334	0.753
213.036819	0.188
213.040283	0.131
213.04361	0.061
216.008484	0.402
226.016617	0.743
230.047821	0.248
241.039963	1.884
256.038605	0.084
256.042603	0.14
256.047363	0.415
256.050537	0.281
256.063202	56.639
256.075958	0.272
256.07901	0.381
256.083527	0.106
329.152344	3.957
END IONS

BEGIN IONS
PEPMASS=332.087
CHARGE=1
MSLEVEL=2
SOURCE_INSTRUMENT=ESI-Orbitrap
FILENAME=gnps_msn_lib_pos_second_batch.mgf
SEQ=*..*
IONMODE=Positive
ORGANISM=MSNLIB-POSITIVE
NAME=zotepine [M+H]+
PI=Tomas Pluskal
DATACOLLECTOR=Corinna Brungs
SMILES=CN(C)CCOC1=Cc2ccccc2Sc2c1cc(Cl)cc2
INCHI=InChI=1S/C18H18ClNOS/c1-20(2)9-10-21-16-11-13-5-3-4-6-17(13)22-18-8-7-14(19)12-15(16)18/h3-8,11-12H,9-10H2,1-2H3
INCHIAUX=HDOZVRUNCMBHFH-UHFFFAOYSA-N
PUBMED=N/A
SUBMITUSER=jzemlin
LIBRARYQUALITY=1
SPECTRUMID=CCMSLIB00013051457
USI=mzspec:GNPS:MSNLIB-POSITIVE:accession:CCMSLIB00013051457
SCANS=103044
42.03376	3.062
42.035858	0.096
44.049377	6.812
44.051643	0.218
45.057186	0.088
56.049305	1.459
57.057114	2.072
70.064888	6.767
70.069298	0.137
70.071571	0.134
71.072678	0.155
72.071526	0.292
72.075615	0.489
72.080467	100.0
72.085022	2.543
72.087463	1.924
72.089699	1.0
72.092522	0.47
72.0952	0.212
72.097885	0.121
72.100609	0.095
95.060349	0.216
121.039993	0.121
136.075577	0.171
137.078903	0.091
137.083435	0.14
138.086716	0.07
166.122345	0.137
167.125763	0.148
173.545258	0.18
332.087097	2.821
END IONS

BEGIN IONS
PEPMASS=301.06
CHARGE=1
MSLEVEL=2
SOURCE_INSTRUMENT=ESI-Orbitrap
FILENAME=gnps_msn_lib_pos_second_batch.mgf
SEQ=*..*
IONMODE=Positive
ORGANISM=MSNLIB-POSITIVE
NAME=CARBAZOCHROME SULFONIC ACID [M+H]+
PI=Tomas Pluskal
DATACOLLECTOR=Corinna Brungs
SMILES=CN1c2cc(O)c(N=NC(N)=O)cc2CC1S(=O)(=O)O
INCHI=InChI=1S/C10H12N4O5S/c1-14-7-4-8(15)6(12-13-10(11)16)2-5(7)3-9(14)20(17,18)19/h2,4,9,15H,3H2,1H3,(H2,11,16)(H,17,18,19)
INCHIAUX=OQVRCWUMFBNYKF-UHFFFAOYSA-N
PUBMED=N/A
SUBMITUSER=jzemlin
LIBRARYQUALITY=1
SPECTRUMID=CCMSLIB00013053522
USI=mzspec:GNPS:MSNLIB-POSITIVE:accession:CCMSLIB00013053522
SCANS=103519
42.033806	0.463
50.015152	0.105
51.022888	1.034
52.030724	0.749
53.038521	0.418
55.017853	0.117
61.01033	0.344
63.022907	0.109
65.038467	1.481
66.010017	0.098
66.046394	0.131
67.041542	0.119
67.054146	0.155
75.022881	0.098
76.030716	0.078
77.038467	3.182
78.03373	0.671
78.046257	2.892
79.017769	0.08
79.020813	0.355
79.041565	0.101
79.054062	1.149
80.049339	0.159
89.038544	0.391
90.046333	0.255
91.041473	0.452
91.054138	6.582
92.049332	0.152
93.057182	0.309
94.065018	1.006
95.049042	3.035
96.044281	1.244
102.033806	0.095
103.041618	0.107
104.049332	2.501
105.033356	1.866
105.044609	0.437
105.057167	0.152
106.041161	6.418
106.043243	0.102
106.064957	2.711
116.049545	0.142
117.057205	4.581
118.064972	9.012
118.067329	0.095
119.048965	0.139
119.072792	5.436
120.044304	0.075
120.056808	0.232
128.049316	0.792
129.044678	0.119
130.039886	0.076
130.064926	0.702
131.060181	0.969
131.072769	0.425
132.044235	6.246
132.046936	0.086
132.068008	3.468
133.028244	0.296
133.052155	0.308
133.075882	0.083
134.059875	7.3
137.954758	0.135
146.050995	0.086
146.059875	35.636002
146.06282	0.507
146.065582	0.377
146.068573	0.09
147.040039	0.157
147.052917	0.1
147.058929	0.423
147.060944	0.934
147.064606	1.832
147.067719	100.0
147.070557	0.618
147.07341	0.444
147.076569	0.163
147.079483	0.093
147.095093	0.328
148.075592	0.121
159.055023	0.165
159.0793	0.248
160.063034	0.744
161.071243	0.152
162.054825	4.562
164.070496	0.095
165.069656	0.084
173.541245	0.498
173.544968	0.29
176.081818	0.141
177.089508	0.549
181.944351	0.269
199.954681	0.252
203.068802	4.85
215.024002	0.253
222.910629	0.352
223.943726	0.23
224.116302	0.165
228.032272	0.977
251.055908	0.168
256.038239	10.09
258.053802	0.849
259.958557	0.175
283.188507	0.088
283.958649	0.232
283.97641	0.175
284.033325	33.837002
284.106781	0.198
301.059143	0.445
301.198822	0.523
END IONS

BEGIN IONS
PEPMASS=495.158
CHARGE=1
MSLEVEL=2
SOURCE_INSTRUMENT=ESI-Orbitrap
FILENAME=gnps_msn_lib_pos_second_batch.mgf
SEQ=*..*
IONMODE=Positive
ORGANISM=MSNLIB-POSITIVE
NAME=Carindacillin [M+H]+
PI=Tomas Pluskal
DATACOLLECTOR=Corinna Brungs
SMILES=CC1(C)S[C@@H]2[C@H](NC(=O)C(C(=O)Oc3cc4c(cc3)CCC4)c3ccccc3)C(=O)N2[C@H]1C(=O)O
INCHI=InChI=1S/C26H26N2O6S/c1-26(2)20(24(31)32)28-22(30)19(23(28)35-26)27-21(29)18(15-7-4-3-5-8-15)25(33)34-17-12-11-14-9-6-10-16(14)13-17/h3-5,7-8,11-13,18-20,23H,6,9-10H2,1-2H3,(H,27,29)(H,31,32)/t18?,19-,20+,23-/m1/s1
INCHIAUX=JIRBAUWICKGBFE-MNRDOXJOSA-N
PUBMED=N/A
SUBMITUSER=jzemlin
LIBRARYQUALITY=1
SPECTRUMID=CCMSLIB00013059323
USI=mzspec:GNPS:MSNLIB-POSITIVE:accession:CCMSLIB00013059323
SCANS=104921
41.038567	1.029
42.033817	0.563
43.017818	1.733
43.054214	1.219
44.979305	6.722
46.994953	4.688
50.015022	0.54
51.022865	3.165
52.018127	0.461
53.038486	8.047
54.033665	5.168
55.054115	1.831
57.987076	4.161
58.982319	0.627
58.9949	34.967999
59.049007	0.947
63.022739	0.586
65.038445	3.77
67.041481	0.802
67.054146	0.961
69.044434	0.953
70.064934	6.291
74.005692	1.27
75.022797	5.19
75.026253	0.799
76.030571	0.641
77.038429	4.742
78.04628	0.758
79.05407	1.338
80.04937	4.198
82.064911	2.455
84.997963	1.147
85.010475	0.74
86.005692	5.274
87.026108	16.722
89.038422	2.594
90.046272	0.94
91.054062	23.841
94.065033	14.207
95.049019	4.381
95.07283	10.256
96.044228	0.551
98.023438	2.328
98.059868	0.44
99.025948	1.412
100.039131	14.748
101.038506	1.231
101.041779	0.935
102.037041	3.312
102.046265	3.326
103.041595	0.448
103.05407	19.287001
104.049324	0.878
105.033424	1.598
105.044594	0.793
105.06971	1.799
107.048752	1.726
111.026054	2.659
112.0214	12.217
113.029259	15.278
114.000732	0.859
114.027931	0.892
114.033699	0.433
114.037033	38.620998
115.021179	2.303
115.041489	1.675
115.0541	2.733
116.049324	2.88
117.057137	5.331
117.069672	0.701
118.064941	16.273001
119.048981	3.494
126.037071	4.03
128.049423	7.854
128.052673	67.396004
128.056992	0.7
128.06189	0.884
129.044586	1.66
129.057159	3.86
129.069656	0.559
130.064987	18.083
133.052017	0.47
134.059891	0.418
135.080276	5.398
142.031906	1.436
143.060394	1.603
144.028824	1.111
145.028366	3.292
145.076126	1.421
146.060165	8.682
146.063126	0.711
148.021561	1.269
150.046173	0.575
152.06189	0.958
154.031845	1.669
155.060242	5.957
156.044312	4.186
156.068024	22.257999
157.060684	0.997
157.068283	0.768
157.075882	100.0
158.060013	0.78
159.09166	0.453
160.0215	0.81
160.042526	37.469002
161.059586	5.784
162.037109	1.399
163.054108	0.997
165.069763	2.464
167.07283	0.512
167.085464	1.776
168.068115	0.589
169.075974	3.563
171.092041	1.298
172.042633	2.627
173.029251	1.429
173.059464	1.173
173.543762	3.088
173.548401	1.036
174.037125	4.756
174.055283	34.719002
174.058228	2.525
175.06282	1.536
176.061966	1.375
178.077515	1.873
183.055405	4.265
185.070709	2.279
187.032486	5.396
188.040222	3.308
189.04805	6.752
192.047043	0.925
195.117371	1.432
197.071121	0.897
200.037247	3.142
200.058426	1.631
201.065811	10.528
202.049713	8.874
207.116852	0.936
213.066544	1.198
214.073639	2.276
223.111588	4.087
233.03804	1.748
235.11084	1.396
241.078568	0.994
243.095078	2.732
246.127762	1.364
262.122314	1.517
263.106201	0.899
279.100952	1.915
287.084778	7.367
289.100281	1.474
290.116669	2.321
315.078064	1.672
319.143616	2.892
333.089996	14.19
336.122986	9.525
361.084991	4.567
495.158508	37.154999
END IONS

BEGIN IONS
PEPMASS=528.139
CHARGE=1
MSLEVEL=2
SOURCE_INSTRUMENT=ESI-Orbitrap
FILENAME=gnps_msn_lib_pos_second_batch.mgf
SEQ=*..*
IONMODE=Positive
ORGANISM=MSNLIB-POSITIVE
NAME=cefuroxime axetil [M+NH4]+
PI=Tomas Pluskal
DATACOLLECTOR=Corinna Brungs
SMILES=CO/N=C(\C(=O)N[C@@H]1C(=O)N2C(C(=O)OC(C)OC(C)=O)=C(COC(N)=O)CS[C@H]12)c1ccco1
INCHI=InChI=1S/C20H22N4O10S/c1-9(25)33-10(2)34-19(28)15-11(7-32-20(21)29)8-35-18-14(17(27)24(15)18)22-16(26)13(23-30-3)12-5-4-6-31-12/h4-6,10,14,18H,7-8H2,1-3H3,(H2,21,29)(H,22,26)/b23-13-/t10?,14-,18-/m1/s1
INCHIAUX=KEJCWVGMRLCZQQ-YJBYXUATSA-N
PUBMED=N/A
SUBMITUSER=jzemlin
LIBRARYQUALITY=1
SPECTRUMID=CCMSLIB00013060223
USI=mzspec:GNPS:MSNLIB-POSITIVE:accession:CCMSLIB00013060223
SCANS=105141
40.45005	2.438
41.038544	1.254
44.979298	2.317
45.033443	4.734
53.038467	1.994
55.017784	1.473
56.012905	8.46
56.049358	2.788
58.994904	1.496
66.033684	7.03
67.041496	2.038
68.025421	3.163
68.049232	6.163
70.994904	1.517
72.99794	2.94
73.010475	1.787
78.033585	10.571
79.04155	1.265
80.049171	5.245
81.008095	4.147
84.007835	2.071
84.044258	2.222
85.010399	4.687
85.969398	1.263
89.005371	1.893
93.020699	39.320999
93.044563	3.225
94.028496	60.639
95.060043	5.547
96.044067	9.337
97.010452	8.463
97.039398	1.498
98.005768	2.68
98.977158	4.511
99.984924	1.45
100.021233	6.878
105.044418	14.617
106.028427	7.094
106.052353	2.463
107.060242	1.309
109.015549	22.530001
110.005585	15.257
112.021111	8.576
112.038971	8.231
119.023888	1.465
120.031441	3.098
121.039291	15.224
122.005569	7.709
122.023499	4.69
123.055168	2.938
124.021255	10.471
124.038986	19.921
126.000702	2.351
128.016022	3.752
137.016464	26.572001
138.000549	1.567
139.032135	11.117
140.016098	7.732
140.034073	3.733
140.039978	1.203
147.018723	4.01
149.034332	11.215
150.041855	7.067
151.04985	10.433
152.034027	2.84
155.026886	1.351
156.010941	9.98
158.026917	2.487
159.054932	4.291
160.05014	1.212
163.050079	1.307
165.011368	18.271
166.019363	2.554
167.027039	7.969
168.011078	4.553
170.026978	2.527
170.044678	2.769
173.542557	10.857
177.029312	35.693001
179.044937	19.216999
180.052872	5.136
181.060654	5.634
183.021896	4.692
193.006058	3.269
194.01442	1.453
200.037048	1.241
209.055527	100.0
211.016937	7.904
244.01712	1.501
251.065811	3.509
253.026871	3.506
259.0401	1.239
261.056641	2.692
290.058807	1.518
292.075165	5.366
318.05426	6.921
336.064667	32.812
364.006134	2.733
364.058899	94.351997
364.113403	2.516
406.070496	6.943
END IONS

BEGIN IONS
PEPMASS=214.071
CHARGE=1
MSLEVEL=2
SOURCE_INSTRUMENT=ESI-Orbitrap
FILENAME=gnps_msn_lib_pos_second_batch.mgf
SEQ=*..*
IONMODE=Positive
ORGANISM=MSNLIB-POSITIVE
NAME=droxidopa [M+H]+
PI=Tomas Pluskal
DATACOLLECTOR=Corinna Brungs
SMILES=N[C@H](C(=O)O)[C@H](O)c1cc(O)c(O)cc1
INCHI=InChI=1S/C9H11NO5/c10-7(9(14)15)8(13)4-1-2-5(11)6(12)3-4/h1-3,7-8,11-13H,10H2,(H,14,15)/t7-,8+/m0/s1
INCHIAUX=QXWYKJLNLSIPIN-JGVFFNPUSA-N
PUBMED=N/A
SUBMITUSER=jzemlin
LIBRARYQUALITY=1
SPECTRUMID=CCMSLIB00013061767
USI=mzspec:GNPS:MSNLIB-POSITIVE:accession:CCMSLIB00013061767
SCANS=105504
42.033695	0.07
43.017879	0.038
44.049404	0.127
46.028633	0.497
50.015167	0.091
51.0229	1.232
53.002178	0.037
53.038525	0.894
55.017784	0.549
61.007233	0.075
62.01503	1.064
63.022839	22.976
63.025307	0.098
65.038445	0.18
67.017746	0.067
67.041611	0.066
67.053978	0.461
68.996994	0.284
77.038483	7.573
77.041092	0.077
78.033752	0.293
78.046364	0.115
79.054092	8.552
79.056244	0.132
79.062088	0.083
80.049217	0.2
81.033356	0.691
88.030685	0.07
89.022408	0.054
89.0308	0.125
89.03846	100.0
89.040985	1.631
89.044144	0.56
89.047951	0.425
89.050941	0.248
89.055038	0.115
89.087303	0.033
94.064903	0.169
95.049026	6.55
95.051826	0.076
95.055573	0.09
96.044273	0.44
102.033691	0.037
104.049294	8.592
104.051628	0.034
105.033226	0.62
105.044609	0.914
106.06501	0.658
107.049057	9.187
107.051979	0.098
109.02832	0.268
110.036194	0.042
117.027046	0.039
117.033424	29.719999
117.037033	0.295
117.039764	0.085
117.041855	0.078
118.041344	0.064
122.05986	0.18
123.043823	7.499
123.052933	0.092
130.065063	0.038
132.044296	4.216
132.046906	0.038
134.036331	0.061
134.059998	0.567
135.022919	0.041
135.026047	0.035
135.028488	0.042
135.031677	0.081
135.034485	0.157
135.037994	0.588
135.040756	0.148
135.044022	98.740997
135.0466	0.521
135.049423	0.747
135.054367	0.224
135.058792	0.046
135.06366	0.067
135.067505	0.124
145.039627	0.749
150.040771	0.077
150.054962	3.685
150.069061	0.082
151.062622	0.109
152.033066	0.163
152.041489	0.49
152.048096	0.429
152.059235	0.104
152.061264	0.133
152.063385	0.428
152.070618	80.061996
152.073395	0.102
152.077881	0.424
152.080063	0.164
152.093521	0.516
152.099701	0.563
152.108215	0.256
152.115952	0.122
153.533447	0.074
153.959183	0.075
173.543442	0.093
193.09758	0.091
196.060623	3.896
END IONS

BEGIN IONS
PEPMASS=454.063
CHARGE=1
MSLEVEL=2
SOURCE_INSTRUMENT=ESI-Orbitrap
FILENAME=gnps_msn_lib_pos_second_batch.mgf
SEQ=*..*
IONMODE=Positive
ORGANISM=MSNLIB-POSITIVE
NAME=Flucloxacillin [M+H]+
PI=Tomas Pluskal
DATACOLLECTOR=Corinna Brungs
SMILES=Cc1c(C(=O)N[C@@H]2C(=O)N3[C@@H]2SC(C)(C)[C@@H]3C(=O)O)c(-c2c(F)cccc2Cl)no1
INCHI=InChI=1S/C19H17ClFN3O5S/c1-7-10(12(23-29-7)11-8(20)5-4-6-9(11)21)15(25)22-13-16(26)24-14(18(27)28)19(2,3)30-17(13)24/h4-6,13-14,17H,1-3H3,(H,22,25)(H,27,28)/t13-,14+,17-/m1/s1
INCHIAUX=UIOFUWFRIANQPC-JKIFEVAISA-N
PUBMED=N/A
SUBMITUSER=jzemlin
LIBRARYQUALITY=1
SPECTRUMID=CCMSLIB00013062330
USI=mzspec:GNPS:MSNLIB-POSITIVE:accession:CCMSLIB00013062330
SCANS=105635
43.017899	4.103
43.054298	3.266
44.979401	14.145
46.995029	6.197
53.038593	17.771
55.054211	2.015
58.994995	5.615
70.065125	16.533001
87.026306	44.370998
114.037292	100.0
142.032227	5.156
156.001114	4.165
156.996384	2.677
160.04274	84.302002
170.01712	3.397
180.001251	10.064
182.017075	26.966999
194.016678	2.317
195.996277	6.702
198.011581	4.641
240.022156	2.437
295.029724	22.809
END IONS

BEGIN IONS
PEPMASS=272.141
CHARGE=1
MSLEVEL=2
SOURCE_INSTRUMENT=ESI-Orbitrap
FILENAME=gnps_msn_lib_pos_second_batch.mgf
SEQ=*..*
IONMODE=Positive
ORGANISM=MSNLIB-POSITIVE
NAME=BUPRANOLOL [M+H]+
PI=Tomas Pluskal
DATACOLLECTOR=Corinna Brungs
SMILES=Cc1cc(OCC(O)CNC(C)(C)C)c(Cl)cc1
INCHI=InChI=1S/C14H22ClNO2/c1-10-5-6-12(15)13(7-10)18-9-11(17)8-16-14(2,3)4/h5-7,11,16-17H,8-9H2,1-4H3
INCHIAUX=HQIRNZOQPUAHHV-UHFFFAOYSA-N
PUBMED=N/A
SUBMITUSER=jzemlin
LIBRARYQUALITY=1
SPECTRUMID=CCMSLIB00013064690
USI=mzspec:GNPS:MSNLIB-POSITIVE:accession:CCMSLIB00013064690
SCANS=106217
41.038483	1.256
43.017818	0.111
44.049393	0.556
48.983955	0.135
50.015057	0.145
51.022858	0.774
53.038506	0.175
54.01902	0.099
55.017769	0.186
56.049335	30.431
56.052254	0.732
56.055634	0.288
57.033321	0.634
57.057243	0.12
57.069649	13.622
57.073032	0.314
58.065048	0.242
62.01498	0.183
63.022804	5.092
65.038445	9.534
72.983818	0.485
74.014946	0.182
74.05983	18.243
74.064117	0.19
74.93055	0.747
74.999474	0.285
75.022797	0.668
75.043541	0.286
76.030609	0.207
77.038414	0.731
78.046249	0.159
79.054062	1.114
87.022789	0.574
88.978745	0.224
89.038422	8.214
89.040779	0.097
90.04628	1.591
91.054085	19.624001
91.056641	0.33
92.061905	0.757
94.041313	0.147
95.048988	0.911
98.999466	2.685
100.075317	0.24
101.038536	0.123
101.078629	0.192
102.046272	0.655
103.054092	1.178
104.062027	0.111
105.044556	0.218
105.06971	4.407
106.077545	0.265
107.048943	0.704
108.05677	0.263
109.064613	1.397
112.007263	0.099
113.015205	0.141
114.046181	0.164
115.051437	0.091
115.05407	36.174999
115.05703	0.456
115.060188	0.133
116.061913	1.574
117.069725	11.631
117.071823	0.132
118.077576	0.994
119.048981	1.521
119.060219	0.458
120.056824	2.004
123.08033	0.49
125.015076	10.758
125.017403	0.106
126.046188	0.4
127.030724	4.01
127.054047	0.101
128.061935	0.615
129.044647	0.152
131.049042	3.299
133.064682	1.442
133.07579	0.154
134.072479	1.074
137.01503	0.369
138.023071	0.139
139.030731	0.144
141.010101	0.148
141.046417	2.495
142.017929	0.292
143.025742	0.513
145.064651	3.47
146.072433	5.029
151.030807	0.523
153.021225	0.824
153.046326	10.281
155.018173	0.112
155.02562	17.705
155.060135	0.105
163.030701	0.445
165.010132	0.148
166.01799	0.124
169.041367	5.601
170.954895	0.327
173.542725	0.47
181.031815	0.115
181.04126	20.724001
181.0448	0.329
198.067764	6.406
199.051834	0.147
216.029007	0.541
216.038895	0.394
216.066284	0.389
216.068649	0.364
216.078262	100.0
216.088181	0.144
216.090866	0.434
216.09671	1.892
216.115906	0.596
216.127213	0.809
216.141571	0.303
272.140564	32.640999
272.208771	0.186
END IONS

BEGIN IONS
PEPMASS=340.118
CHARGE=1
MSLEVEL=2
SOURCE_INSTRUMENT=ESI-Orbitrap
FILENAME=gnps_msn_lib_pos_second_batch.mgf
SEQ=*..*
IONMODE=Positive
ORGANISM=MSNLIB-POSITIVE
NAME=mofezolac [M+H]+
PI=Tomas Pluskal
DATACOLLECTOR=Corinna Brungs
SMILES=COc1ccc(-c2noc(CC(=O)O)c2-c2ccc(OC)cc2)cc1
INCHI=InChI=1S/C19H17NO5/c1-23-14-7-3-12(4-8-14)18-16(11-17(21)22)25-20-19(18)13-5-9-15(24-2)10-6-13/h3-10H,11H2,1-2H3,(H,21,22)
INCHIAUX=DJEIHHYCDCTAAH-UHFFFAOYSA-N
PUBMED=N/A
SUBMITUSER=jzemlin
LIBRARYQUALITY=1
SPECTRUMID=CCMSLIB00013066128
USI=mzspec:GNPS:MSNLIB-POSITIVE:accession:CCMSLIB00013066128
SCANS=106576
43.017757	4.345
50.015011	0.522
51.022842	2.588
53.03846	0.588
54.046295	0.649
56.049324	0.442
59.521587	0.146
63.02277	3.102
63.276611	0.138
63.528599	0.149
64.030602	1.443
65.038437	0.531
70.024422	0.232
74.014885	0.443
75.022713	0.464
76.030609	1.786
77.038391	3.13
78.046219	0.327
79.053909	0.615
81.033295	0.264
84.080582	1.623
86.014893	0.218
87.007401	0.88
87.022751	1.009
88.030579	0.146
89.038353	1.362
91.041466	0.401
91.054115	0.24
92.025505	4.86
92.036736	0.244
95.048973	6.941
98.014931	0.785
99.022743	0.335
100.030579	0.288
102.046196	0.476
103.041389	0.302
105.033325	0.174
105.044518	1.137
108.056862	0.18
109.064552	0.294
110.014977	0.161
111.02269	0.239
113.038368	1.481
114.033485	0.22
114.046257	0.253
115.054024	1.394
116.049255	0.279
117.033318	0.285
119.036293	0.211
119.048904	0.834
120.044197	0.136
121.064606	0.526
122.014938	0.333
123.022652	0.232
125.038269	0.23
125.059456	1.795
126.046165	1.022
128.049423	0.139
130.065002	0.177
132.044205	0.239
132.056717	0.343
133.044525	1.314
133.052124	0.199
133.064636	1.049
134.059784	1.107
135.043808	18.781
135.046448	0.178
135.055084	1.119
137.038345	0.312
138.046127	0.28
139.054001	14.908
139.056686	0.161
140.04924	6.608
140.061859	1.2
141.057037	0.336
141.069672	0.704
145.064529	0.245
146.059875	0.209
150.046219	0.197
151.053955	0.222
152.061798	2.058
153.057205	0.15
153.069595	1.284
154.064865	0.403
154.077499	0.219
160.055359	0.879
161.059357	1.747
164.049088	0.419
165.057068	2.119
165.069733	0.805
166.064972	10.149
167.048996	1.135
167.064377	0.194
167.072754	32.471001
167.080994	0.239
168.056854	0.464
168.080612	1.966
169.064575	0.972
170.059891	0.365
171.031372	0.275
173.541687	0.927
173.54512	0.505
177.057068	0.342
178.064941	2.249
179.060043	0.193
179.070038	0.951
179.072754	5.594
180.056992	0.298
180.080566	14.986
181.064545	0.272
181.088409	2.869
182.072479	5.353
182.096329	0.255
183.067795	0.182
183.080215	0.466
184.0755	0.304
184.088058	0.637
185.063126	0.526
185.083328	0.532
186.054764	1.217
186.071014	0.258
188.050385	0.562
190.06485	0.345
191.072754	1.831
192.080658	0.355
193.051941	0.473
193.088364	1.906
194.049225	0.229
194.05983	30.256001
194.096085	0.297
195.043793	1.361
195.045929	0.276
195.056931	0.209
195.067596	27.312
195.07695	0.18
195.079865	0.551
196.075409	13.079
196.087997	0.238
197.095963	0.775
198.070969	0.481
199.078842	0.396
200.086441	0.214
204.080841	0.144
206.059753	2.135
207.065063	0.46
207.067688	3.298
208.063965	0.175
208.07547	25.851999
209.064987	0.147
209.071487	0.562
209.07399	0.321
209.083313	71.484001
209.09465	0.161
209.098465	0.223
210.058456	0.168
210.067368	6.467
210.070999	0.457
210.09111	14.317
211.062546	0.264
211.078262	0.383
211.098999	3.945
212.083435	0.701
212.086853	0.41
214.10231	0.427
216.056305	0.73
216.081787	0.376
220.075653	0.643
221.083328	0.592
222.05481	17.063
222.091141	3.446
223.062546	9.98
223.098877	25.299
223.111862	0.181
224.070358	9.271
224.073853	0.148
224.106812	2.022
225.081924	0.19
225.090881	11.346
226.065857	0.416
227.097885	0.205
227.106277	3.615
232.060181	1.018
232.075317	0.671
234.054779	8.852
236.070343	2.526
237.064087	0.199
237.078156	29.766001
237.081863	0.281
238.06636	0.407
238.071671	0.324
238.074875	0.316
238.079453	0.278
238.085876	66.170998
238.097107	0.287
238.100204	0.468
239.057495	0.142
239.061005	0.258
239.068924	0.354
239.073578	0.187
239.093674	9.634
240.068893	0.341
240.081375	0.816
242.097	0.209
247.098969	0.299
249.07811	8.325
250.049591	4.155
250.086075	0.266
251.093781	0.878
252.086136	0.169
252.101456	24.372
253.076706	0.669
253.089111	0.161
253.093719	0.381
253.096664	0.251
253.109207	61.144001
253.121689	0.334
253.124771	0.439
254.071838	0.182
254.09697	0.236
254.101334	0.369
254.104416	0.222
254.116989	65.333
254.129471	0.419
254.132645	0.403
254.139542	0.494
255.092148	0.611
264.06488	0.577
265.072906	11.432
267.092255	0.191
270.103119	0.7
278.117432	0.569
279.088898	0.35
280.023926	0.522
280.060303	0.326
280.073181	0.191
280.0784	0.715
280.081909	0.407
280.096497	100.0
280.110901	0.618
280.114563	0.7
280.168274	0.562
282.103149	0.832
283.083466	0.495
294.113129	0.59
296.127869	2.715
299.130096	8.298
322.107117	0.822
340.117645	19.254
END IONS

BEGIN IONS
PEPMASS=185.998
CHARGE=1
MSLEVEL=2
SOURCE_INSTRUMENT=ESI-Orbitrap
FILENAME=gnps_msn_lib_neg.mgf
SEQ=*..*
IONMODE=Negative
ORGANISM=MSNLIB-NEGATIVE
NAME=Nithiamide [M-H]-
PI=Tomas Pluskal
DATACOLLECTOR=Corinna Brungs
SMILES=CC(=O)Nc1ncc([N+](=O)[O-])s1
INCHI=InChI=1S/C5H5N3O3S/c1-3(9)7-5-6-2-4(12-5)8(10)11/h2H,1H3,(H,6,7,9)
INCHIAUX=UJRRDDHEMZLWFI-UHFFFAOYSA-N
PUBMED=N/A
SUBMITUSER=jzemlin
LIBRARYQUALITY=1
SPECTRUMID=CCMSLIB00012305641
USI=mzspec:GNPS:MSNLIB-NEGATIVE:accession:CCMSLIB00012305641
SCANS=11603
41.01421	0.725
41.998318	3.127
45.990437	0.143
45.993042	16.059
45.995571	0.572
45.997913	0.168
50.003445	0.097
53.014324	0.323
57.975449	25.358999
57.978752	0.258
61.970165	0.328
64.006531	0.086
69.975517	4.737
70.983368	1.831
80.001465	0.141
81.975517	5.714
81.977753	0.095
83.024765	2.291
83.991234	0.069
84.986404	0.633
85.970146	0.119
86.978241	0.059
95.967667	0.041
95.969925	0.061
95.976593	0.302
95.978607	100.0
95.98143	1.27
95.985062	0.688
95.989342	0.542
95.992607	0.293
95.99691	0.142
96.986397	0.253
97.97036	0.107
107.02504	0.164
112.981377	7.044
112.98362	0.143
112.986084	0.051
113.989159	17.468
113.992897	0.217
113.995361	0.059
113.997765	0.21
114.002983	0.151
138.996857	64.105003
138.999924	0.236
139.003387	0.194
139.007935	1.029
139.016266	0.902
139.021698	0.579
139.029236	0.218
140.975739	0.129
155.999603	4.818
185.99736	11.923
186.013153	0.174
186.103546	0.338
END IONS

BEGIN IONS
PEPMASS=266.999
CHARGE=1
MSLEVEL=2
SOURCE_INSTRUMENT=ESI-Orbitrap
FILENAME=gnps_msn_lib_neg.mgf
SEQ=*..*
IONMODE=Negative
ORGANISM=MSNLIB-NEGATIVE
NAME=Dichlorophen [M-H]-
PI=Tomas Pluskal
DATACOLLECTOR=Corinna Brungs
SMILES=Oc1c(Cc2c(O)ccc(Cl)c2)cc(Cl)cc1
INCHI=InChI=1S/C13H10Cl2O2/c14-10-1-3-12(16)8(6-10)5-9-7-11(15)2-4-13(9)17/h1-4,6-7,16-17H,5H2
INCHIAUX=MDNWOSOZYLHTCG-UHFFFAOYSA-N
PUBMED=N/A
SUBMITUSER=jzemlin
LIBRARYQUALITY=1
SPECTRUMID=CCMSLIB00012322839
USI=mzspec:GNPS:MSNLIB-NEGATIVE:accession:CCMSLIB00012322839
SCANS=20913
41.003071	1.652
41.998314	0.039
45.993126	0.197
49.00816	0.388
57.975468	0.078
59.971249	0.601
60.974655	0.066
65.003166	0.052
66.747566	0.076
66.751633	0.084
91.018745	2.328
98.982292	0.202
115.984634	0.214
121.029381	0.047
126.983444	0.062
126.986504	0.105
126.989769	0.476
126.995171	100.0
126.997704	1.371
127.000832	0.881
127.004761	1.034
127.008827	0.088
127.012001	1.037
127.016716	0.749
127.023232	0.258
127.029762	0.138
134.032684	0.035
145.982498	0.249
146.024612	0.093
146.985596	0.108
147.02803	0.087
191.992294	0.054
192.995514	0.351
203.026459	0.065
218.00975	0.102
220.00621	0.834
231.021133	0.813
237.009949	0.123
248.987534	0.124
266.9104	0.099
266.92984	0.366
266.943451	0.225
266.997528	56.166
267.0513	0.337
267.064758	0.414
267.083618	0.158
END IONS

BEGIN IONS
PEPMASS=379.158
CHARGE=1
MSLEVEL=2
SOURCE_INSTRUMENT=ESI-Orbitrap
FILENAME=gnps_msn_lib_neg.mgf
SEQ=*..*
IONMODE=Negative
ORGANISM=MSNLIB-NEGATIVE
NAME=Ecabet [M-H]-
PI=Tomas Pluskal
DATACOLLECTOR=Corinna Brungs
SMILES=CC(C)c1c(S(=O)(=O)O)cc2c(c1)CC[C@H]1[C@](C)(C(=O)O)CCC[C@]21C
INCHI=InChI=1S/C20H28O5S/c1-12(2)14-10-13-6-7-17-19(3,8-5-9-20(17,4)18(21)22)15(13)11-16(14)26(23,24)25/h10-12,17H,5-9H2,1-4H3,(H,21,22)(H,23,24,25)/t17-,19-,20-/m1/s1
INCHIAUX=IWCWQNVIUXZOMJ-MISYRCLQSA-N
PUBMED=N/A
SUBMITUSER=jzemlin
LIBRARYQUALITY=1
SPECTRUMID=CCMSLIB00012334709
USI=mzspec:GNPS:MSNLIB-NEGATIVE:accession:CCMSLIB00012334709
SCANS=26938
42.129967	2.181
79.957161	46.488998
79.959259	0.741
80.96492	11.772
118.96566	1.669
146.960587	3.26
170.073441	0.612
174.955215	5.694
213.127945	2.572
220.019318	0.753
233.027069	0.811
234.034836	1.195
247.042496	1.002
249.05925	1.313
250.066513	1.964
261.058075	8.598
262.065948	4.7
263.0737	18.865999
265.089325	2.378
275.07373	1.456
277.054382	1.256
277.089264	81.491997
278.097137	2.629
291.104584	1.458
319.136078	1.694
363.125671	2.69
379.156738	100.0
END IONS

BEGIN IONS
PEPMASS=233.917
CHARGE=1
MSLEVEL=2
SOURCE_INSTRUMENT=ESI-Orbitrap
FILENAME=gnps_msn_lib_neg.mgf
SEQ=*..*
IONMODE=Negative
ORGANISM=MSNLIB-NEGATIVE
NAME=bronopol [M+Cl]-
PI=Tomas Pluskal
DATACOLLECTOR=Corinna Brungs
SMILES=O=[N+]([O-])C(Br)(CO)CO
INCHI=InChI=1S/C3H6BrNO4/c4-3(1-6,2-7)5(8)9/h6-7H,1-2H2
INCHIAUX=LVDKZNITIUWNER-UHFFFAOYSA-N
PUBMED=N/A
SUBMITUSER=jzemlin
LIBRARYQUALITY=1
SPECTRUMID=CCMSLIB00012336891
USI=mzspec:GNPS:MSNLIB-NEGATIVE:accession:CCMSLIB00012336891
SCANS=28034
118.014229	32.105
233.916382	100.0
END IONS

BEGIN IONS
PEPMASS=278.058
CHARGE=1
MSLEVEL=2
SOURCE_INSTRUMENT=ESI-Orbitrap
FILENAME=gnps_msn_lib_neg.mgf
SEQ=*..*
IONMODE=Negative
ORGANISM=MSNLIB-NEGATIVE
NAME=Fidarestat [M-H]-
PI=Tomas Pluskal
DATACOLLECTOR=Corinna Brungs
SMILES=NC(=O)[C@@H]1C[C@]2(NC(=O)NC2=O)c2c(ccc(F)c2)O1
INCHI=InChI=1S/C12H10FN3O4/c13-5-1-2-7-6(3-5)12(4-8(20-7)9(14)17)10(18)15-11(19)16-12/h1-3,8H,4H2,(H2,14,17)(H2,15,16,18,19)/t8-,12-/m0/s1
INCHIAUX=WAAPEIZFCHNLKK-UFBFGSQYSA-N
PUBMED=N/A
SUBMITUSER=jzemlin
LIBRARYQUALITY=1
SPECTRUMID=CCMSLIB00012346242
USI=mzspec:GNPS:MSNLIB-NEGATIVE:accession:CCMSLIB00012346242
SCANS=32709
41.995987	0.674
41.998211	51.973
42.000443	2.398
51.023865	0.216
101.039574	2.28
111.024887	1.548
121.045776	2.358
126.034874	0.25
134.041092	0.444
136.020264	1.636
137.040543	0.766
142.029755	0.349
146.041092	0.379
149.028152	0.739
149.040726	3.637
162.035919	1.37
164.051666	2.377
165.035553	1.707
190.030624	1.258
191.062408	0.443
192.04631	19.438999
207.020676	1.927
233.036102	0.65
235.051727	6.391
261.030823	0.822
277.986206	0.581
278.05719	100.0
278.112488	0.446
278.129089	0.676
END IONS

BEGIN IONS
PEPMASS=353.037
CHARGE=1
MSLEVEL=2
SOURCE_INSTRUMENT=ESI-Orbitrap
FILENAME=gnps_msn_lib_neg.mgf
SEQ=*..*
IONMODE=Negative
ORGANISM=MSNLIB-NEGATIVE
NAME=XIPAMIDE [M-H]-
PI=Tomas Pluskal
DATACOLLECTOR=Corinna Brungs
SMILES=Cc1c(NC(=O)c2cc(S(N)(=O)=O)c(Cl)cc2O)c(C)ccc1
INCHI=InChI=1S/C15H15ClN2O4S/c1-8-4-3-5-9(2)14(8)18-15(20)10-6-13(23(17,21)22)11(16)7-12(10)19/h3-7,19H,1-2H3,(H,18,20)(H2,17,21,22)
INCHIAUX=MTZBBNMLMNBNJL-UHFFFAOYSA-N
PUBMED=N/A
SUBMITUSER=jzemlin
LIBRARYQUALITY=1
SPECTRUMID=CCMSLIB00012350439
USI=mzspec:GNPS:MSNLIB-NEGATIVE:accession:CCMSLIB00012350439
SCANS=34841
41.003033	0.29
41.998268	1.272
47.967281	0.145
51.023834	0.132
52.019032	0.291
61.970394	0.55
63.023819	0.187
63.962234	0.542
65.003105	0.846
68.516701	0.133
77.965218	17.872999
77.97023	0.347
78.034691	4.484
78.973167	0.92
79.018715	0.151
79.957207	0.124
89.003151	0.28
91.01873	1.905
94.029594	1.258
95.013603	0.271
104.013756	0.359
104.037849	0.189
105.021751	1.023
106.029694	0.558
120.081688	6.757
121.065735	0.36
122.024467	2.448
124.979744	0.682
125.987518	1.023
126.995392	27.146999
126.997772	0.181
127.000916	0.238
141.982437	0.455
145.076797	0.155
146.060913	0.337
151.990814	0.119
152.97467	0.191
153.982391	0.206
157.977005	0.277
169.983047	0.13
169.991486	19.205
176.965408	0.115
179.073792	0.135
192.08139	0.402
193.089325	0.118
194.096954	0.399
195.970306	1.494
205.956451	0.137
205.967819	22.174
220.076065	0.293
222.055283	0.165
238.086487	0.285
256.05246	3.955
273.055115	7.698
273.069183	0.32
274.035522	0.136
274.039978	0.263
274.045288	0.696
274.048737	0.653
274.062836	100.0
274.077026	0.281
274.080353	0.683
274.095154	0.129
352.933075	0.47
353.03479	67.191002
353.116364	0.355
353.13739	0.49
END IONS

BEGIN IONS
PEPMASS=165.056
CHARGE=-1
MSLEVEL=2
SOURCE_INSTRUMENT=ESI-Orbitrap
FILENAME=gnps_msn_lib_neg_second_batch.mgf
SEQ=*..*
IONMODE=Negative
ORGANISM=MSNLIB-NEGATIVE
NAME=Ethylparaben [M-H]-
PI=Tomas Pluskal
DATACOLLECTOR=Corinna Brungs
SMILES=CCOC(=O)c1ccc(O)cc1
INCHI=InChI=1S/C9H10O3/c1-2-12-9(11)7-3-5-8(10)6-4-7/h3-6,10H,2H2,1H3
INCHIAUX=NUVBSKCKDOMJSU-UHFFFAOYSA-N
PUBMED=N/A
SUBMITUSER=jzemlin
LIBRARYQUALITY=1
SPECTRUMID=CCMSLIB00012855429
USI=mzspec:GNPS:MSNLIB-NEGATIVE:accession:CCMSLIB00012855429
SCANS=62258
41.003033	1.849
65.039398	8.007
75.023758	1.235
79.957092	5.677
92.026421	45.049
92.029091	0.857
93.034286	100.0
93.037041	1.696
95.013306	3.436
96.95977	12.724
108.021111	4.188
108.937195	1.292
136.015961	14.19
136.931931	1.888
137.023865	34.173
164.835693	6.386
165.05513	56.842999
END IONS

BEGIN IONS
PEPMASS=445.18
CHARGE=1
MSLEVEL=2
SOURCE_INSTRUMENT=ESI-Orbitrap
FILENAME=federicopg/WFSR/ECRFS_DB/35_240606_2059-Biocides(POS)_IL6.mzML
SEQ=*..*
IONMODE=Positive
ORGANISM=ECRFS_DB
NAME=Difenacoum M+H
PI=Federico Padilla
DATACOLLECTOR="Sjors Rasker, Wout Bergkamp"
SMILES=C1C(CC2=CC=CC=C2C1C3=C(C4=CC=CC=C4OC3=O)O)C5=CC=C(C=C5)C6=CC=CC=C6
INCHI=FVQITOLOYMWVFU-UHFFFAOYSA-N
INCHIAUX=N/A
PUBMED=N/A
SUBMITUSER=jzemlin
LIBRARYQUALITY=1
SPECTRUMID=CCMSLIB00012728819
USI=mzspec:GNPS:ECRFS_DB:accession:CCMSLIB00012728819
SCANS=4272
41.683357	23040.103516
42.768867	24512.960938
43.758919	27368.742188
44.770256	50337.574219
44.772545	51864.507812
44.802078	26307.271484
47.832447	24119.443359
52.918457	43275.917969
64.281227	70683.421875
64.285179	42643.261719
91.054329	767053.375
105.070015	102679.984375
107.049416	26978.451172
117.069977	588506.375
121.028778	93794.65625
129.070023	754057.8125
143.085495	44534.777344
154.674149	58327.507812
160.194824	24599.806641
163.023651	54511.785156
163.039169	1227748.875
163.052902	38624.433594
165.070114	1734176.25
167.085709	913174.875
171.080734	256252.890625
175.039215	8478012.0
178.078842	183396.09375
178.497528	28648.904297
179.028259	36754.394531
179.048904	148018.046875
179.05603	105538.773438
179.085739	23274160.0
179.114975	137639.78125
179.122849	186223.5
180.0896	45596.195312
187.039413	189684.859375
189.054932	4775248.0
193.101166	55896.042969
205.101471	96759.453125
251.071884	38825.261719
255.709137	28366.722656
256.124512	40889.324219
257.069031	150042.484375
257.132874	25873796.0
257.18222	143906.71875
257.196869	180491.890625
258.136932	98446.507812
271.147919	93450.96875
273.091858	101932.046875
283.148254	144847.125
291.102112	3234201.25
341.117676	226092.4375
353.117859	67186.734375
445.180573	335466.53125
END IONS

BEGIN IONS
PEPMASS=291.17
CHARGE=1
MSLEVEL=2
SOURCE_INSTRUMENT=ESI-Orbitrap
FILENAME=output_folder/converted_library.mgf
SEQ=*..*
IONMODE=Positive
ORGANISM=WFSR-LIBRARY
NAME=Procaterol_CE15 M+H
PI=Federico Padilla-Gonzalez
DATACOLLECTOR="Sjors Rasker, Wout Bergkamp"
SMILES=CC[C@@H](NC(C)C)[C@@H](O)C1=CC=C(O)C2=C1C=CC(=O)N2
INCHI=N/A
INCHIAUX=N/A
PUBMED=N/A
SUBMITUSER=jzemlin
LIBRARYQUALITY=1
SPECTRUMID=CCMSLIB00013933831
USI=mzspec:GNPS:WFSR-LIBRARY:accession:CCMSLIB00013933831
SCANS=50
52.917	2155.199951
52.917599	4667.169922
52.918201	5944.850098
52.9189	5706.189941
52.919399	3441.070068
52.919899	2942.580078
58.064899	3127.110107
60.080601	5186.509766
70.064903	456.839996
88.0755	3392.350098
100.111801	22478.240234
130.111603	232.449997
130.122406	55332.339844
154.663101	606.159973
154.678894	452.420013
162.054794	4306.220215
174.054901	2747.169922
176.070404	3673.139893
192.065399	2124.669922
214.086304	1409.079956
216.101807	13952.519531
231.112701	49781.96875
232.096695	43799.28125
244.121002	1997.089966
273.126099	440.609985
273.159698	701648.9375
273.191986	355.059998
291.17041	92108.171875
END IONS

BEGIN IONS
PEPMASS=311.113
CHARGE=1
MSLEVEL=2
SOURCE_INSTRUMENT=ESI-Orbitrap
FILENAME=output_folder/converted_library.mgf
SEQ=*..*
IONMODE=Positive
ORGANISM=WFSR-LIBRARY
NAME=Mabuterol_CE15 M+H
PI=Federico Padilla-Gonzalez
DATACOLLECTOR="Sjors Rasker, Wout Bergkamp"
SMILES=CC(C)(C)NCC(O)C1=CC(Cl)=C(N)C(=C1)C(F)(F)F
INCHI="InChI=1S/C13H18ClF3N2O/c1-12(2,3)19-6-10(20)7-4-8(13(15,16)17)11(18)9(14)5-7/h4-5,10,19-20H,6,18H2,1-3H3"
INCHIAUX=N/A
PUBMED=N/A
SUBMITUSER=jzemlin
LIBRARYQUALITY=1
SPECTRUMID=CCMSLIB00013933880
USI=mzspec:GNPS:WFSR-LIBRARY:accession:CCMSLIB00013933880
SCANS=99
52.916	572.440002
52.917599	6833.620117
52.9184	11150.120117
52.919102	4504.470215
52.919998	3582.969971
57.069801	7441.549805
154.664001	1461.160034
154.676895	933.650024
217.033905	13735.709961
237.039993	903694.0
237.067596	1222.0
255.049698	1138.689941
293.1026	339864.5625
311.072388	583.679993
311.11319	160552.125
END IONS

BEGIN IONS
PEPMASS=390.177
CHARGE=1
MSLEVEL=2
SOURCE_INSTRUMENT=ESI-Orbitrap
FILENAME=output_folder/converted_library.mgf
SEQ=*..*
IONMODE=Positive
ORGANISM=WFSR-LIBRARY
NAME=Reproterol_CE15 M+H
PI=Federico Padilla-Gonzalez
DATACOLLECTOR="Sjors Rasker, Wout Bergkamp"
SMILES=CN1C2=C(N(CCCNCC(O)C3=CC(O)=CC(O)=C3)C=N2)C(=O)N(C)C1=O
INCHI="InChI=1S/C18H23N5O5/c1-21-16-15(17(27)22(2)18(21)28)23(10-20-16)5-3-4-19-9-14(26)11-6-12(24)8-13(25)7-11/h6-8,10,14,19,24-26H,3-5,9H2,1-2H3"
INCHIAUX=N/A
PUBMED=N/A
SUBMITUSER=jzemlin
LIBRARYQUALITY=1
SPECTRUMID=CCMSLIB00013933915
USI=mzspec:GNPS:WFSR-LIBRARY:accession:CCMSLIB00013933915
SCANS=134
52.917801	14417.639648
52.918999	9932.410156
52.920101	4752.640137
154.676804	3279.669922
192.1017	16864.759766
221.103104	29984.720703
248.114594	1920.540039
250.129105	5630.740234
372.166809	60130.171875
390.177612	97321.851562
END IONS

BEGIN IONS
PEPMASS=274.965
CHARGE=1
MSLEVEL=2
SOURCE_INSTRUMENT=ESI-Orbitrap
FILENAME=output_folder/converted_library.mgf
SEQ=*..*
IONMODE=Positive
ORGANISM=WFSR-LIBRARY
NAME=Anilazine_CE15 M+H
PI=Federico Padilla-Gonzalez
DATACOLLECTOR="Sjors Rasker, Wout Bergkamp"
SMILES=ClC1=CC=CC=C1NC1=NC(Cl)=NC(Cl)=N1
INCHI="InChI=1S/C9H5Cl3N4/c10-5-3-1-2-4-6(5)13-9-15-7(11)14-8(12)16-9/h1-4H,(H,13,14,15,16)"
INCHIAUX=N/A
PUBMED=N/A
SUBMITUSER=jzemlin
LIBRARYQUALITY=1
SPECTRUMID=CCMSLIB00013938133
USI=mzspec:GNPS:WFSR-LIBRARY:accession:CCMSLIB00013938133
SCANS=4352
52.9174	6955.439941
52.917999	2334.139893
52.918598	4827.22998
52.9193	6488.850098
52.9198	5748.790039
153.021805	5249.310059
178.015701	2324.590088
274.96579	187057.734375
END IONS

BEGIN IONS
PEPMASS=454.915
CHARGE=1
MSLEVEL=2
SOURCE_INSTRUMENT=ESI-Orbitrap
FILENAME=output_folder/converted_library.mgf
SEQ=*..*
IONMODE=Positive
ORGANISM=WFSR-LIBRARY
NAME=Triforine_CE15 M+Na
PI=Federico Padilla-Gonzalez
DATACOLLECTOR="Sjors Rasker, Wout Bergkamp"
SMILES=ClC(Cl)(Cl)C(NC=O)N1CCN(CC1)C(NC=O)C(Cl)(Cl)Cl
INCHI="InChI=1S/C10H14Cl6N4O2/c11-9(12,13)7(17-5-21)19-1-2-20(4-3-19)8(18-6-22)10(14,15)16/h5-8H,1-4H2,(H,17,21)(H,18,22)"
INCHIAUX=N/A
PUBMED=N/A
SUBMITUSER=jzemlin
LIBRARYQUALITY=1
SPECTRUMID=CCMSLIB00013938462
USI=mzspec:GNPS:WFSR-LIBRARY:accession:CCMSLIB00013938462
SCANS=4681
52.916599	4258.790039
52.9175	10889.280273
52.9189	14748.200195
52.9198	3987.350098
68.010399	67344.59375
154.661407	3194.800049
176.997803	1718.219971
236.972702	11390.830078
315.957397	20087.810547
336.999207	2269.209961
337.939514	5455.109863
350.019989	958.5
351.934113	22008.830078
360.978699	7392.609863
409.89209	11152.94043
454.915497	17310.910156
END IONS

BEGIN IONS
PEPMASS=341.072
CHARGE=1
MSLEVEL=2
SOURCE_INSTRUMENT=ESI-Orbitrap
FILENAME=output_folder/converted_library.mgf
SEQ=*..*
IONMODE=Positive
ORGANISM=WFSR-LIBRARY
NAME=Pyridaphenthion_CE15 M+H
PI=Federico Padilla-Gonzalez
DATACOLLECTOR="Sjors Rasker, Wout Bergkamp"
SMILES=CCOP(=S)(OCC)OC1=NN(C(=O)C=C1)C1=CC=CC=C1
INCHI="InChI=1S/C14H17N2O4PS/c1-3-18-21(22,19-4-2)20-13-10-11-14(17)16(15-13)12-8-6-5-7-9-12/h5-11H,3-4H2,1-2H3"
INCHIAUX=N/A
PUBMED=N/A
SUBMITUSER=jzemlin
LIBRARYQUALITY=1
SPECTRUMID=CCMSLIB00013938789
USI=mzspec:GNPS:WFSR-LIBRARY:accession:CCMSLIB00013938789
SCANS=5008
52.9175	11530.30957
52.918999	13975.669922
114.961098	4052.110107
189.065796	243932.296875
190.069305	10556.089844
205.042999	86252.789062
233.0746	5542.910156
285.009705	11696.219727
313.041199	26286.730469
341.072388	91746.070312
342.074493	6957.169922
END IONS

BEGIN IONS
PEPMASS=272.014
CHARGE=1
MSLEVEL=2
SOURCE_INSTRUMENT=ESI-Orbitrap
FILENAME=output_folder/converted_library.mgf
SEQ=*..*
IONMODE=Positive
ORGANISM=WFSR-LIBRARY
NAME=Benazolin-ethyl_CE15 M+H
PI=Federico Padilla-Gonzalez
DATACOLLECTOR="Sjors Rasker, Wout Bergkamp"
SMILES=CCOC(=O)CN1C(=O)SC2=CC=CC(Cl)=C12
INCHI="InChI=1S/C11H10ClNO3S/c1-2-16-9(14)6-13-10-7(12)4-3-5-8(10)17-11(13)15/h3-5H,2,6H2,1H3"
INCHIAUX=N/A
PUBMED=N/A
SUBMITUSER=jzemlin
LIBRARYQUALITY=1
SPECTRUMID=CCMSLIB00013939242
USI=mzspec:GNPS:WFSR-LIBRARY:accession:CCMSLIB00013939242
SCANS=5461
52.917301	2888.159912
52.917999	9995.759766
52.918499	2132.110107
52.9189	5694.350098
52.9198	2702.550049
169.982193	58548.480469
195.137604	11124.160156
197.977097	858939.375
225.972198	360628.625
255.158905	23218.380859
272.013214	7067.149902
END IONS

BEGIN IONS
PEPMASS=277.216
CHARGE=1
MSLEVEL=2
SOURCE_INSTRUMENT=ESI-Orbitrap
FILENAME=output_folder/converted_library.mgf
SEQ=*..*
IONMODE=Positive
ORGANISM=WFSR-LIBRARY
NAME=Kinoprene_CE15 M+H
PI=Federico Padilla-Gonzalez
DATACOLLECTOR="Sjors Rasker, Wout Bergkamp"
SMILES=CC(C)CCCC(C)C\C=C\C(\C)=C\C(=O)OCC#C
INCHI="InChI=1S/C18H28O2/c1-6-13-20-18(19)14-17(5)12-8-11-16(4)10-7-9-15(2)3/h1,8,12,14-16H,7,9-11,13H2,2-5H3/b12-8+,17-14+"
INCHIAUX=N/A
PUBMED=N/A
SUBMITUSER=jzemlin
LIBRARYQUALITY=1
SPECTRUMID=CCMSLIB00013939284
USI=mzspec:GNPS:WFSR-LIBRARY:accession:CCMSLIB00013939284
SCANS=5503
52.9179	7795.379883
52.918701	7391.22998
52.919399	6322.490234
121.028603	2757.459961
123.080101	6180.209961
153.054306	15684.679688
216.971603	185380.765625
217.974197	4047.389893
230.987701	8172.850098
235.168594	6251.459961
245.003006	96493.65625
246.007401	5277.439941
277.146393	3545.679932
277.179504	64933.140625
277.215912	35402.769531
END IONS

BEGIN IONS
PEPMASS=417.06
CHARGE=1
MSLEVEL=2
SOURCE_INSTRUMENT=ESI-Orbitrap
FILENAME=output_folder/converted_library.mgf
SEQ=*..*
IONMODE=Positive
ORGANISM=WFSR-LIBRARY
NAME=Flubenzimine; Cropotex_CE15 M+H
PI=Federico Padilla-Gonzalez
DATACOLLECTOR="Sjors Rasker, Wout Bergkamp"
SMILES=FC(F)(F)N=C1SC(=NC2=CC=CC=C2)N(C1=NC(F)(F)F)C1=CC=CC=C1
INCHI="InChI=1S/C17H10F6N4S/c18-16(19,20)25-13-14(26-17(21,22)23)28-15(24-11-7-3-1-4-8-11)27(13)12-9-5-2-6-10-12/h1-10H"
INCHIAUX=N/A
PUBMED=N/A
SUBMITUSER=jzemlin
LIBRARYQUALITY=1
SPECTRUMID=CCMSLIB00013939382
USI=mzspec:GNPS:WFSR-LIBRARY:accession:CCMSLIB00013939382
SCANS=5601
52.917301	11557.509766
52.9184	8131.859863
52.919701	10356.450195
154.677597	2743.110107
167.041107	97733.617188
187.047394	16502.789062
262.039307	15279.089844
397.054108	131526.140625
417.060303	105837.929688
418.06189	4141.189941
END IONS

BEGIN IONS
PEPMASS=330.11
CHARGE=1
MSLEVEL=2
SOURCE_INSTRUMENT=ESI-Orbitrap
FILENAME=output_folder/converted_library.mgf
SEQ=*..*
IONMODE=Positive
ORGANISM=WFSR-LIBRARY
NAME=Fluridone_CE15 M+H
PI=Federico Padilla-Gonzalez
DATACOLLECTOR="Sjors Rasker, Wout Bergkamp"
SMILES=CN1C=C(C(=O)C(=C1)C1=CC(=CC=C1)C(F)(F)F)C1=CC=CC=C1
INCHI="InChI=1S/C19H14F3NO/c1-23-11-16(13-6-3-2-4-7-13)18(24)17(12-23)14-8-5-9-15(10-14)19(20,21)22/h2-12H,1H3"
INCHIAUX=N/A
PUBMED=N/A
SUBMITUSER=jzemlin
LIBRARYQUALITY=1
SPECTRUMID=CCMSLIB00013939459
USI=mzspec:GNPS:WFSR-LIBRARY:accession:CCMSLIB00013939459
SCANS=5678
46.1474	812.330017
48.173401	1034.780029
51.903	912.320007
52.306599	923.419983
52.917301	4079.429932
52.918098	7295.350098
52.918701	9782.589844
52.919201	5558.419922
52.9198	3100.370117
58.276199	987.849976
67.399101	879.97998
73.752296	854.840027
85.992897	970.049988
98.983803	8853.660156
124.194099	797.51001
128.005707	839.380005
154.677505	1468.930054
275.915588	1018.289978
310.102203	3361.419922
315.082001	1180.579956
328.095795	2665.679932
328.630005	2431.560059
329.102509	1970.199951
330.110107	3899919.75
331.113403	80535.226562
331.6008	2718.459961
END IONS

BEGIN IONS
PEPMASS=251.024
CHARGE=1
MSLEVEL=2
SOURCE_INSTRUMENT=ESI-Orbitrap
FILENAME=output_folder/converted_library.mgf
SEQ=*..*
IONMODE=Positive
ORGANISM=WFSR-LIBRARY
NAME=Heptenophos_CE15 M+H
PI=Federico Padilla-Gonzalez
DATACOLLECTOR="Sjors Rasker, Wout Bergkamp"
SMILES=COP(=O)(OC)OC1=C(Cl)C2C=CCC12
INCHI="InChI=1S/C9H12ClO4P/c1-12-15(11,13-2)14-9-7-5-3-4-6(7)8(9)10/h3-4,6-7H,5H2,1-2H3"
INCHIAUX=N/A
PUBMED=N/A
SUBMITUSER=jzemlin
LIBRARYQUALITY=1
SPECTRUMID=CCMSLIB00013939543
USI=mzspec:GNPS:WFSR-LIBRARY:accession:CCMSLIB00013939543
SCANS=5762
52.917599	12320.799805
52.9198	6932.419922
59.048801	31183.859375
89.0383	81799.53125
98.983803	22527.240234
107.048798	14958.469727
121.064499	18334.330078
123.0802	9186.490234
125.014999	1434763.5
127.015198	2932555.75
135.080093	30089.390625
143.025696	23412.320312
185.036301	12925.969727
215.046707	175967.8125
218.997299	9132.040039
251.023605	117904.296875
251.125793	15565.94043
251.162704	8236.919922
END IONS

BEGIN IONS
PEPMASS=311.033
CHARGE=1
MSLEVEL=2
SOURCE_INSTRUMENT=ESI-Orbitrap
FILENAME=output_folder/converted_library.mgf
SEQ=*..*
IONMODE=Positive
ORGANISM=WFSR-LIBRARY
NAME=Edifenphos_CE15 M+H
PI=Federico Padilla-Gonzalez
DATACOLLECTOR="Sjors Rasker, Wout Bergkamp"
SMILES=CCOP(=O)(SC1=CC=CC=C1)SC1=CC=CC=C1
INCHI="InChI=1S/C14H15O2PS2/c1-2-16-17(15,18-13-9-5-3-6-10-13)19-14-11-7-4-8-12-14/h3-12H,2H2,1H3"
INCHIAUX=N/A
PUBMED=N/A
SUBMITUSER=jzemlin
LIBRARYQUALITY=1
SPECTRUMID=CCMSLIB00013939578
USI=mzspec:GNPS:WFSR-LIBRARY:accession:CCMSLIB00013939578
SCANS=5797
52.919399	11603.969727
57.069599	14301.150391
111.025803	97633.710938
140.9823	12037.80957
172.9814	8539.200195
190.992294	97159.632812
219.023804	34491.28125
223.074997	8931.599609
237.090805	10512.519531
251.070007	41664.511719
265.086212	24575.910156
283.00119	265140.03125
311.032593	66372.6875
END IONS

BEGIN IONS
PEPMASS=292.087
CHARGE=1
MSLEVEL=2
SOURCE_INSTRUMENT=ESI-Orbitrap
FILENAME=output_folder/converted_library.mgf
SEQ=*..*
IONMODE=Positive
ORGANISM=WFSR-LIBRARY
NAME=Crufomate_CE15 M+H
PI=Federico Padilla-Gonzalez
DATACOLLECTOR="Sjors Rasker, Wout Bergkamp"
SMILES=CNP(=O)(OC)OC1=CC=C(C=C1Cl)C(C)(C)C
INCHI="InChI=1S/C12H19ClNO3P/c1-12(2,3)9-6-7-11(10(13)8-9)17-18(15,14-4)16-5/h6-8H,1-5H3,(H,14,15)"
INCHIAUX=N/A
PUBMED=N/A
SUBMITUSER=jzemlin
LIBRARYQUALITY=1
SPECTRUMID=CCMSLIB00013939669
USI=mzspec:GNPS:WFSR-LIBRARY:accession:CCMSLIB00013939669
SCANS=5888
52.917198	4228.299805
52.9179	7315.790039
52.918301	2201.110107
52.918999	6171.740234
52.919601	4513.52002
52.920101	1352.339966
57.069599	44657.890625
126.031197	56499.699219
222.007095	1315.650024
236.023697	549815.0625
236.128296	1133.780029
278.071198	7847.209961
290.861786	1691.310059
292.086304	2542177.5
292.193298	2848.879883
293.0896	12134.330078
END IONS

BEGIN IONS
PEPMASS=543.178
CHARGE=1
MSLEVEL=2
SOURCE_INSTRUMENT=ESI-Orbitrap
FILENAME=output_folder/converted_library.mgf
SEQ=*..*
IONMODE=Positive
ORGANISM=WFSR-LIBRARY
NAME=Flocoumafen_CE15 M+H
PI=Federico Padilla-Gonzalez
DATACOLLECTOR="Sjors Rasker, Wout Bergkamp"
SMILES=OC1=C(C2CC(CC3=CC=CC=C23)C2=CC=C(OCC3=CC=C(C=C3)C(F)(F)F)C=C2)C(=O)OC2=CC=CC=C12
INCHI="InChI=1S/C33H25F3O4/c34-33(35,36)24-13-9-20(10-14-24)19-39-25-15-11-21(12-16-25)23-17-22-5-1-2-6-26(22)28(18-23)30-31(37)27-7-3-4-8-29(27)40-32(30)38/h1-16,23,28,37H,17-19H2"
INCHIAUX=N/A
PUBMED=N/A
SUBMITUSER=jzemlin
LIBRARYQUALITY=1
SPECTRUMID=CCMSLIB00013939767
USI=mzspec:GNPS:WFSR-LIBRARY:accession:CCMSLIB00013939767
SCANS=5986
52.917	4715.830078
52.9179	14683.44043
52.919899	14339.790039
154.678207	4804.049805
163.038605	37269.769531
291.102203	13361.509766
355.130798	23951.960938
543.178284	13664.330078
END IONS

BEGIN IONS
PEPMASS=394.238
CHARGE=1
MSLEVEL=2
SOURCE_INSTRUMENT=ESI-Orbitrap
FILENAME=output_folder/converted_library.mgf
SEQ=*..*
IONMODE=Positive
ORGANISM=WFSR-LIBRARY
NAME=Etofenprox_CE15 M+NH4
PI=Federico Padilla-Gonzalez
DATACOLLECTOR="Sjors Rasker, Wout Bergkamp"
SMILES=CCOC1=CC=C(C=C1)C(C)(C)COCC1=CC(OC2=CC=CC=C2)=CC=C1
INCHI="InChI=1S/C25H28O3/c1-4-27-22-15-13-21(14-16-22)25(2,3)19-26-18-20-9-8-12-24(17-20)28-23-10-6-5-7-11-23/h5-17H,4,18-19H2,1-3H3"
INCHIAUX=N/A
PUBMED=N/A
SUBMITUSER=jzemlin
LIBRARYQUALITY=1
SPECTRUMID=CCMSLIB00013939795
USI=mzspec:GNPS:WFSR-LIBRARY:accession:CCMSLIB00013939795
SCANS=6014
52.917702	14055.69043
52.918999	5317.919922
52.919498	5030.680176
52.9203	9712.709961
57.0695	19633.230469
71.085098	26815.789062
85.1008	17861.320312
89.059402	62234.808594
97.1008	7538.200195
103.074799	5258.060059
111.116501	10075.759766
133.085602	46942.710938
135.080093	32510.5
177.111404	15721.480469
177.127106	152506.75
183.080399	8591.139648
195.122406	164554.25
209.138504	5440.029785
301.275391	7910.890137
359.201111	23618.019531
377.326508	99843.953125
394.272705	45633.789062
END IONS

BEGIN IONS
PEPMASS=523.091
CHARGE=1
MSLEVEL=2
SOURCE_INSTRUMENT=ESI-Orbitrap
FILENAME=output_folder/converted_library.mgf
SEQ=*..*
IONMODE=Positive
ORGANISM=WFSR-LIBRARY
NAME=Brodifacoum_CE15 M+H
PI=Federico Padilla-Gonzalez
DATACOLLECTOR="Sjors Rasker, Wout Bergkamp"
SMILES=OC1=C(C2CC(CC3=CC=CC=C23)C2=CC=C(C=C2)C2=CC=C(Br)C=C2)C(=O)OC2=CC=CC=C12
INCHI="InChI=1S/C31H23BrO3/c32-24-15-13-20(14-16-24)19-9-11-21(12-10-19)23-17-22-5-1-2-6-25(22)27(18-23)29-30(33)26-7-3-4-8-28(26)35-31(29)34/h1-16,23,27,33H,17-18H2"
INCHIAUX=N/A
PUBMED=N/A
SUBMITUSER=jzemlin
LIBRARYQUALITY=1
SPECTRUMID=CCMSLIB00013939802
USI=mzspec:GNPS:WFSR-LIBRARY:accession:CCMSLIB00013939802
SCANS=6021
52.9179	22759.740234
52.919399	5642.330078
73.0644	111058.476562
145.121994	55502.828125
335.042786	8624.660156
523.086182	7824.069824
END IONS

BEGIN IONS
PEPMASS=521.007
CHARGE=1
MSLEVEL=2
SOURCE_INSTRUMENT=ESI-Orbitrap
FILENAME=output_folder/converted_library.mgf
SEQ=*..*
IONMODE=Positive
ORGANISM=WFSR-LIBRARY
NAME=Deltamethrin_CE15 M+NH4
PI=Federico Padilla-Gonzalez
DATACOLLECTOR="Sjors Rasker, Wout Bergkamp"
SMILES=CC1(C)[C@@H](C=C(Br)Br)[C@H]1C(=O)O[C@H](C#N)C1=CC=CC(OC2=CC=CC=C2)=C1
INCHI="InChI=1S/C22H19Br2NO3/c1-22(2)17(12-19(23)24)20(22)21(26)28-18(13-25)14-7-6-10-16(11-14)27-15-8-4-3-5-9-15/h3-12,17-18,20H,1-2H3/t17-,18+,20-/m0/s1"
INCHIAUX=N/A
PUBMED=N/A
SUBMITUSER=jzemlin
LIBRARYQUALITY=1
SPECTRUMID=CCMSLIB00013939837
USI=mzspec:GNPS:WFSR-LIBRARY:accession:CCMSLIB00013939837
SCANS=6056
41.9202	1324.849976
43.520901	1108.069946
46.4296	1286.839966
52.657398	1087.219971
52.9174	13293.459961
52.919102	24040.5
52.9203	3523.689941
54.755798	1314.540039
55.134998	1326.72998
58.354698	957.5
58.856701	1276.48999
66.433601	993.669983
93.6698	1431.040039
107.670799	1128.48999
112.831497	1309.089966
118.653297	1351.530029
123.012901	919.179993
154.662003	3091.76001
154.679001	2339.899902
170.980606	3572.73999
171.988007	11744.259766
181.064499	4022.330078
188.823395	1090.079956
194.171005	946.169983
197.132095	1425.839966
199.075302	39415.039062
199.981995	1377.089966
208.0755	46956.75
226.086105	2386.51001
250.907104	15019.780273
278.901794	509935.34375
305.842712	1082.579956
330.415894	1109.650024
414.763611	1155.329956
428.235107	1043.800049
483.540985	1166.599976
503.979492	4958.75
END IONS

BEGIN IONS
PEPMASS=311.258
CHARGE=1
MSLEVEL=2
SOURCE_INSTRUMENT=ESI-Orbitrap
FILENAME=output_folder/converted_library.mgf
SEQ=*..*
IONMODE=Positive
ORGANISM=WFSR-LIBRARY
NAME=Methoprene_CE15 M+H
PI=Federico Padilla-Gonzalez
DATACOLLECTOR="Sjors Rasker, Wout Bergkamp"
SMILES=COC(C)(C)CCCC(C)C\C=C\C(\C)=C\C(=O)OC(C)C
INCHI="InChI=1S/C19H34O3/c1-15(2)22-18(20)14-17(4)11-8-10-16(3)12-9-13-19(5,6)21-7/h8,11,14-16H,9-10,12-13H2,1-7H3/b11-8+,17-14+"
INCHIAUX=N/A
PUBMED=N/A
SUBMITUSER=jzemlin
LIBRARYQUALITY=1
SPECTRUMID=CCMSLIB00013939900
USI=mzspec:GNPS:WFSR-LIBRARY:accession:CCMSLIB00013939900
SCANS=6119
52.918098	9892.230469
69.069603	9474.040039
83.085098	13430.830078
95.085197	17563.869141
97.100899	15192.969727
109.100998	17505.789062
111.116501	12712.580078
121.100899	14143.209961
123.116501	13039.5
135.043793	19342.849609
135.116592	8987.040039
151.147903	7663.580078
161.095795	12645.040039
181.085495	52703.859375
182.088898	61832.558594
255.971603	10131.099609
266.963989	19124.5
311.16449	20888.060547
311.218811	8672.330078
311.256592	168566.6875
311.294708	9942.879883
END IONS

BEGIN IONS
PEPMASS=366.066
CHARGE=1
MSLEVEL=2
SOURCE_INSTRUMENT=ESI-Orbitrap
FILENAME=output_folder/converted_library.mgf
SEQ=*..*
IONMODE=Positive
ORGANISM=WFSR-LIBRARY
NAME=Benzoylprop ethyl_CE15 M+H
PI=Federico Padilla-Gonzalez
DATACOLLECTOR="Sjors Rasker, Wout Bergkamp"
SMILES=CCOC(=O)C(C)N(C(=O)C1=CC=CC=C1)C1=CC(Cl)=C(Cl)C=C1
INCHI="InChI=1S/C18H17Cl2NO3/c1-3-24-18(23)12(2)21(14-9-10-15(19)16(20)11-14)17(22)13-7-5-4-6-8-13/h4-12H,3H2,1-2H3"
INCHIAUX=N/A
PUBMED=N/A
SUBMITUSER=jzemlin
LIBRARYQUALITY=1
SPECTRUMID=CCMSLIB00013939977
USI=mzspec:GNPS:WFSR-LIBRARY:accession:CCMSLIB00013939977
SCANS=6196
52.917198	8748.5
52.9179	10998.790039
52.919102	17590.019531
77.038498	23472.029297
95.048698	83965.632812
104.766197	9657.799805
105.032997	8704983.0
105.301201	11079.410156
106.0364	70040.9375
126.0522	12978.370117
262.213806	10326.30957
292.0289	49729.089844
320.023804	88316.609375
365.277496	48401.679688
366.062714	26455.890625
366.281006	28589.490234
END IONS

BEGIN IONS
PEPMASS=293.118
CHARGE=1
MSLEVEL=2
SOURCE_INSTRUMENT=ESI-Orbitrap
FILENAME=output_folder/converted_library.mgf
SEQ=*..*
IONMODE=Positive
ORGANISM=WFSR-LIBRARY
NAME=Coumatetralyl_CE15 M+H
PI=Federico Padilla-Gonzalez
DATACOLLECTOR="Sjors Rasker, Wout Bergkamp"
SMILES=OC1=C(C2CCCC3=C2C=CC=C3)C(=O)OC2=C1C=CC=C2
INCHI="InChI=1S/C19H16O3/c20-18-15-9-3-4-11-16(15)22-19(21)17(18)14-10-5-7-12-6-1-2-8-13(12)14/h1-4,6,8-9,11,14,20H,5,7,10H2"
INCHIAUX=N/A
PUBMED=N/A
SUBMITUSER=jzemlin
LIBRARYQUALITY=1
SPECTRUMID=CCMSLIB00013940075
USI=mzspec:GNPS:WFSR-LIBRARY:accession:CCMSLIB00013940075
SCANS=6294
52.917301	9766.179688
52.918499	21103.890625
52.919701	10172.110352
70.039597	156451.40625
71.036598	8775.740234
71.0429	17812.560547
91.048103	4920.450195
91.054199	156079.140625
101.059303	8159.330078
105.069901	13469.919922
119.085403	15487.969727
121.028702	9046.509766
125.0149	12333.400391
126.018303	8069.350098
129.070007	6680.790039
131.085403	156551.625
147.044006	10419.55957
163.038803	131262.5625
175.038895	789804.75
187.076004	5290.310059
189.054398	30199.400391
215.070099	29414.740234
291.880615	2675.330078
293.117188	5987799.5
293.209503	4218.680176
294.119904	36318.0
294.361694	5373.049805
END IONS

BEGIN IONS
PEPMASS=437.163
CHARGE=1
MSLEVEL=2
SOURCE_INSTRUMENT=ESI-Orbitrap
FILENAME=output_folder/converted_library.mgf
SEQ=*..*
IONMODE=Positive
ORGANISM=WFSR-LIBRARY
NAME=Fenvalerate_CE15 M+Na
PI=Federico Padilla-Gonzalez
DATACOLLECTOR="Sjors Rasker, Wout Bergkamp"
SMILES=CC(C)C(C(=O)OC(C#N)C1=CC=CC(OC2=CC=CC=C2)=C1)C1=CC=C(Cl)C=C1
INCHI="InChI=1S/C25H22ClNO3/c1-17(2)24(18-11-13-20(26)14-12-18)25(28)30-23(16-27)19-7-6-10-22(15-19)29-21-8-4-3-5-9-21/h3-15,17,23-24H,1-2H3"
INCHIAUX=N/A
PUBMED=N/A
SUBMITUSER=jzemlin
LIBRARYQUALITY=1
SPECTRUMID=CCMSLIB00013940278
USI=mzspec:GNPS:WFSR-LIBRARY:accession:CCMSLIB00013940278
SCANS=6497
52.917099	5695.680176
52.9179	10100.200195
52.918701	9569.700195
52.920101	5960.140137
89.059402	6306.390137
109.100998	4644.049805
125.015404	4772.189941
154.6633	5204.970215
167.061996	149323.28125
181.065002	5568.52002
199.074997	6707.209961
208.0755	20266.349609
227.201004	4054.409912
END IONS

BEGIN IONS
PEPMASS=323.03
CHARGE=1
MSLEVEL=2
SOURCE_INSTRUMENT=ESI-Orbitrap
FILENAME=output_folder/converted_library.mgf
SEQ=*..*
IONMODE=Positive
ORGANISM=WFSR-LIBRARY
NAME=Sulfotep_CE15 M+H
PI=Federico Padilla-Gonzalez
DATACOLLECTOR="Sjors Rasker, Wout Bergkamp"
SMILES=CCOP(=S)(OCC)OP(=S)(OCC)OCC
INCHI="InChI=1S/C8H20O5P2S2/c1-5-9-14(16,10-6-2)13-15(17,11-7-3)12-8-4/h5-8H2,1-4H3"
INCHIAUX=N/A
PUBMED=N/A
SUBMITUSER=jzemlin
LIBRARYQUALITY=1
SPECTRUMID=CCMSLIB00013940306
USI=mzspec:GNPS:WFSR-LIBRARY:accession:CCMSLIB00013940306
SCANS=6525
98.9842	30088.949219
114.961304	1309616.875
124.982101	23258.449219
127.015503	69217.882812
132.971893	23793.970703
142.992706	966638.75
155.046799	78329.226562
171.024002	2318847.75
187.096603	30650.849609
192.894394	18472.480469
199.055298	74462.523438
210.904907	32968.71875
220.925705	38724.511719
238.936295	98524.867188
248.957108	40572.0
266.967712	131670.234375
276.988312	20530.839844
294.998993	79862.351562
323.03009	17169.980469
END IONS

BEGIN IONS
PEPMASS=350.175
CHARGE=1
MSLEVEL=2
SOURCE_INSTRUMENT=ESI-Orbitrap
FILENAME=output_folder/converted_library.mgf
SEQ=*..*
IONMODE=Positive
ORGANISM=WFSR-LIBRARY
NAME=Fenpropathrin_CE15 M+H
PI=Federico Padilla-Gonzalez
DATACOLLECTOR="Sjors Rasker, Wout Bergkamp"
SMILES=CC1(C)C(C(=O)OC(C#N)C2=CC=CC(OC3=CC=CC=C3)=C2)C1(C)C
INCHI="InChI=1S/C22H23NO3/c1-21(2)19(22(21,3)4)20(24)26-18(14-23)15-9-8-12-17(13-15)25-16-10-6-5-7-11-16/h5-13,18-19H,1-4H3"
INCHIAUX=N/A
PUBMED=N/A
SUBMITUSER=jzemlin
LIBRARYQUALITY=1
SPECTRUMID=CCMSLIB00013940320
USI=mzspec:GNPS:WFSR-LIBRARY:accession:CCMSLIB00013940320
SCANS=6539
52.9174	24546.259766
52.9198	15728.370117
55.0541	15077.620117
97.100998	51801.0
125.096001	2815555.75
199.0755	13752.0
227.200897	59644.691406
350.342712	146811.8125
351.194	40406.558594
END IONS

BEGIN IONS
PEPMASS=263.948
CHARGE=1
MSLEVEL=2
SOURCE_INSTRUMENT=LC-ESI-Orbitrap
FILENAME=reframe_drugs_pos_P2_D7_id.mzML
SEQ=*..*
IONMODE=Positive
ORGANISM=REFRAME-POSITIVE-LIBRARY
NAME=roxarsone [M+H]+
PI=Pieter Dorrestein
DATACOLLECTOR=Nina Zhao
SMILES=O=[N+]([O-])c1c(O)ccc([As](=O)(O)O)c1
INCHI="InChI=1S/C6H6AsNO6/c9-6-2-1-4(7(10,11)12)3-5(6)8(13)14/h1-3,9H,(H2,10,11,12)"
INCHIAUX=
PUBMED=N/A
SUBMITUSER=jzemlin
LIBRARYQUALITY=1
SPECTRUMID=CCMSLIB00016142663
USI=mzspec:GNPS:REFRAME-POSITIVE-LIBRARY:accession:CCMSLIB00016142663
SCANS=484
50.165119	1040.966553
53.00259	1787.703369
57.881363	1161.725464
61.887215	1218.260254
63.023048	1377.03894
63.669693	1365.376953
66.68895	1249.291382
68.013596	1545.657593
71.013054	1706.404907
82.004959	2849.070068
82.924858	1235.933105
84.412682	1277.138916
90.910515	2417.566406
90.915932	34090.09375
91.01783	2708.607422
92.025627	15025.798828
100.93644	1440.080566
108.926659	6562.960449
109.028793	1880.071655
138.017563	1455.065918
161.565704	1442.196045
183.937317	3710.384521
218.758438	1257.265381
221.044174	1416.765747
222.287766	1356.993896
232.941956	4144.882324
263.948303	92664.90625
END IONS

BEGIN IONS
PEPMASS=274.18
CHARGE=1
MSLEVEL=2
SOURCE_INSTRUMENT=LC-ESI-Orbitrap
FILENAME=reframe_drugs_pos_P3_A6_id.mzML
SEQ=*..*
IONMODE=Positive
ORGANISM=REFRAME-POSITIVE-LIBRARY
NAME=Dextilidine [M+H]+
PI=Pieter Dorrestein
DATACOLLECTOR=Nina Zhao
SMILES=CCOC(=O)C1(c2ccccc2)CCC=CC1N(C)C
INCHI="InChI=1S/C17H23NO2/c1-4-20-16(19)17(14-10-6-5-7-11-14)13-9-8-12-15(17)18(2)3/h5-8,10-12,15H,4,9,13H2,1-3H3"
INCHIAUX=
PUBMED=N/A
SUBMITUSER=jzemlin
LIBRARYQUALITY=1
SPECTRUMID=CCMSLIB00016142873
USI=mzspec:GNPS:REFRAME-POSITIVE-LIBRARY:accession:CCMSLIB00016142873
SCANS=1328
50.518555	15225.044922
54.49102	13805.209961
58.292038	21100.587891
67.542839	19546.101562
77.038864	57019.152344
79.054436	180805.9375
81.366188	19359.371094
91.054237	360948.0625
95.049095	131662.328125
98.096481	57950.90625
103.054283	51696.125
105.033348	69341.179688
105.044914	25921.111328
111.080666	22244.320312
115.054092	55814.808594
119.085442	144504.734375
123.043991	34543.933594
128.062134	59903.101562
129.069687	302371.78125
143.084518	19420.429688
151.075546	28511.287109
153.069885	268606.4375
154.077728	116776.148438
155.085464	8926725.0
156.093414	67885.046875
157.101059	82422.242188
165.069962	49933.015625
173.05925	71803.898438
173.096634	23553.820312
175.445145	23099.335938
177.090073	39780.378906
183.080185	195886.453125
190.65477	18668.679688
201.091263	150860.265625
201.126877	35924.882812
229.10434	16376.124023
229.122253	471639.5625
274.179901	1504205.625
298.632599	18497.851562
END IONS

BEGIN IONS
PEPMASS=240.042
CHARGE=1
MSLEVEL=2
SOURCE_INSTRUMENT=LC-ESI-Orbitrap
FILENAME=reframe_drugs_pos_P2_H12_id.mzML
SEQ=*..*
IONMODE=Positive
ORGANISM=REFRAME-POSITIVE-LIBRARY
NAME=Meseclazone [M+H]+
PI=Pieter Dorrestein
DATACOLLECTOR=Nina Zhao
SMILES=CC1CC2Oc3c(cc(Cl)cc3)C(=O)N2O1
INCHI="InChI=1S/C11H10ClNO3/c1-6-4-10-13(16-6)11(14)8-5-7(12)2-3-9(8)15-10/h2-3,5-6,10H,4H2,1H3"
INCHIAUX=
PUBMED=N/A
SUBMITUSER=jzemlin
LIBRARYQUALITY=1
SPECTRUMID=CCMSLIB00016142921
USI=mzspec:GNPS:REFRAME-POSITIVE-LIBRARY:accession:CCMSLIB00016142921
SCANS=1699
53.877911	987.72699
55.869343	1041.848999
57.070236	1576.393921
58.065357	4096.686035
68.551552	1363.120361
73.028778	2943.88623
84.959473	2114.514648
89.059433	1997.193726
90.062935	1210.532837
98.999512	7557.862305
100.111664	1879.323608
114.993279	1385.973145
122.001511	1371.786621
125.01516	1931.072144
126.993881	3638.567871
136.188858	1436.641724
141.009338	2132.237061
145.005127	1984.539429
154.005219	4512.162109
154.989334	70283.507812
155.002167	3393.111816
167.99707	2788.280029
171.992126	2152.563477
182.000061	5778.936523
196.01619	1804.083984
197.995026	269479.125
226.317398	1389.387695
240.042145	73047.8125
240.231705	19256.654297
END IONS

BEGIN IONS
PEPMASS=330.135
CHARGE=1
MSLEVEL=2
SOURCE_INSTRUMENT=LC-ESI-Orbitrap
FILENAME=reframe_drugs_pos_P3_C1_id.mzML
SEQ=*..*
IONMODE=Positive
ORGANISM=REFRAME-POSITIVE-LIBRARY
NAME=TIQUIZIUM [M+H]+
PI=Pieter Dorrestein
DATACOLLECTOR=Nina Zhao
SMILES=C[N+]12CCCCC1CCC(=C(c1cccs1)c1cccs1)C2
INCHI="InChI=1S/C19H24NS2/c1-20-11-3-2-6-16(20)10-9-15(14-20)19(17-7-4-12-21-17)18-8-5-13-22-18/h4-5,7-8,12-13,16H,2-3,6,9-11,14H2,1H3/q+1"
INCHIAUX=
PUBMED=N/A
SUBMITUSER=jzemlin
LIBRARYQUALITY=1
SPECTRUMID=CCMSLIB00016143177
USI=mzspec:GNPS:REFRAME-POSITIVE-LIBRARY:accession:CCMSLIB00016143177
SCANS=1559
52.922836	35783.078125
55.05468	68924.976562
60.413555	32944.90625
66.183121	32628.337891
67.054504	49187.832031
68.049744	122385.96875
70.065361	529405.5
70.068924	71062.703125
71.942146	30901.837891
79.05439	61216.324219
80.733589	38456.339844
82.06517	132000.1875
83.072876	208391.984375
83.085838	107112.617188
83.745689	35983.113281
84.080887	70862.546875
91.054123	109478.054688
96.080734	132240.8125
97.010674	1932420.625
98.096443	3007376.0
108.08046	86488.054688
109.08876	87007.804688
110.096367	450758.75
111.026367	186508.5625
111.104263	664076.125
121.168274	37852.402344
122.096451	181869.34375
123.026215	52531.707031
123.104393	70703.179688
124.112015	867789.875
126.127708	62397.382812
129.867416	40130.941406
134.095993	43173.113281
135.026169	1071356.0
136.112061	406831.09375
141.070084	49942.066406
147.02623	137046.34375
150.127518	448942.375
151.13559	78900.820312
160.0345	39444.417969
161.042374	43417.933594
162.95282	38647.589844
171.026108	174317.421875
172.034027	59095.453125
173.041885	168992.875
178.99794	384432.5625
184.033997	587066.5
185.041901	1166829.25
186.04982	482523.28125
194.682922	38007.105469
204.00618	87216.554688
205.015305	43564.324219
206.099594	50544.347656
215.341843	39809.15625
217.014191	1854559.875
218.100677	58501.328125
219.029709	2236718.5
246.131027	80352.21875
330.134491	26501314.0
END IONS

BEGIN IONS
PEPMASS=332.186
CHARGE=1
MSLEVEL=2
SOURCE_INSTRUMENT=LC-ESI-Orbitrap
FILENAME=reframe_drugs_pos_P1_A3_id.mzML
SEQ=*..*
IONMODE=Positive
ORGANISM=REFRAME-POSITIVE-LIBRARY
NAME=Oxitropium [M+H]+
PI=Pieter Dorrestein
DATACOLLECTOR=Nina Zhao
SMILES=CC[N+]1(C)C2CC(OC(=O)C(CO)c3ccccc3)CC1C1OC12
INCHI="InChI=1S/C19H26NO4/c1-3-20(2)15-9-13(10-16(20)18-17(15)24-18)23-19(22)14(11-21)12-7-5-4-6-8-12/h4-8,13-18,21H,3,9-11H2,1-2H3/q+1"
INCHIAUX=
PUBMED=N/A
SUBMITUSER=jzemlin
LIBRARYQUALITY=1
SPECTRUMID=CCMSLIB00016144011
USI=mzspec:GNPS:REFRAME-POSITIVE-LIBRARY:accession:CCMSLIB00016144011
SCANS=1046
50.006161	20710.169922
50.128796	20133.066406
52.269802	21441.521484
53.038883	30236.070312
53.809937	19722.693359
56.049988	28803.400391
56.998459	51953.042969
57.00087	27628.642578
57.03389	84022.523438
58.063416	19622.050781
58.065624	241261.375
59.04953	37242.496094
67.054459	81151.765625
68.049797	35927.789062
70.065269	79521.148438
72.044731	30567.263672
72.08107	52336.429688
76.585533	19647.994141
77.038773	26879.064453
79.054405	565142.375
80.049461	47144.007812
81.033607	199698.421875
81.070015	217114.640625
82.06517	134097.078125
84.080666	60811.980469
85.064926	27986.552734
91.054245	290496.40625
93.069862	127115.882812
94.065094	643995.1875
95.048927	73400.046875
96.044487	42979.523438
96.080589	152069.296875
97.052017	22988.783203
97.064781	67062.15625
98.060028	369071.0
98.096443	336620.78125
100.075798	42004.054688
103.054161	1154990.125
107.048752	56215.265625
107.07238	27208.230469
108.080727	286486.53125
110.059959	100381.75
110.096275	311327.625
120.080795	279232.75
121.064758	806815.3125
121.073578	49810.101562
121.089264	23679.09375
122.09623	172801.90625
126.091309	223522.90625
132.079285	24340.123047
136.075882	24533.734375
136.111984	99254.570312
138.091354	589642.875
138.127426	58063.242188
140.106857	37203.734375
156.101883	164371.578125
166.12262	5303998.0
184.132965	229738.3125
199.985443	23511.832031
265.971832	28447.597656
302.177094	27981.757812
308.143585	24364.941406
332.185608	13511835.0
339.934448	23850.998047
353.872772	25025.738281
END IONS

BEGIN IONS
PEPMASS=269.081
CHARGE=1
MSLEVEL=2
SOURCE_INSTRUMENT=LC-ESI-Orbitrap
FILENAME=reframe_drugs_pos_P1_H2_id.mzML
SEQ=*..*
IONMODE=Positive
ORGANISM=REFRAME-POSITIVE-LIBRARY
NAME=Oxepinac [M+H]+
PI=Pieter Dorrestein
DATACOLLECTOR=Nina Zhao
SMILES=O=C(O)Cc1cc2c(cc1)C(=O)c1ccccc1CO2
INCHI="InChI=1S/C16H12O4/c17-15(18)8-10-5-6-13-14(7-10)20-9-11-3-1-2-4-12(11)16(13)19/h1-7H,8-9H2,(H,17,18)"
INCHIAUX=
PUBMED=N/A
SUBMITUSER=jzemlin
LIBRARYQUALITY=1
SPECTRUMID=CCMSLIB00016144191
USI=mzspec:GNPS:REFRAME-POSITIVE-LIBRARY:accession:CCMSLIB00016144191
SCANS=1756
54.53849	1148.536621
55.10458	1310.35144
79.054344	4225.974609
91.054192	14503.555664
97.140884	1272.863525
118.147202	1411.45813
118.887878	1337.70105
152.061569	2177.855469
153.535797	1482.096802
167.085663	5392.399414
177.06929	3691.886719
179.08551	1927.822632
181.064865	2951.971191
194.072922	2909.654541
195.08049	11716.708984
210.067993	6621.930664
223.075409	47566.597656
236.884537	1669.002197
246.908096	1518.21521
251.070618	2710.170898
269.081055	55048.597656
269.268036	2267.828613
END IONS

BEGIN IONS
PEPMASS=189.066
CHARGE=1
MSLEVEL=2
SOURCE_INSTRUMENT=LC-ESI-Orbitrap
FILENAME=reframe_drugs_pos_P1_E11_id.mzML
SEQ=*..*
IONMODE=Positive
ORGANISM=REFRAME-POSITIVE-LIBRARY
NAME=W-2429 [M+H]+
PI=Pieter Dorrestein
DATACOLLECTOR=Nina Zhao
SMILES=O=c1c2ccccc2nc2CCOn21
INCHI="InChI=1S/C10H8N2O2/c13-10-7-3-1-2-4-8(7)11-9-5-6-14-12(9)10/h1-4H,5-6H2"
INCHIAUX=
PUBMED=N/A
SUBMITUSER=jzemlin
LIBRARYQUALITY=1
SPECTRUMID=CCMSLIB00016144684
USI=mzspec:GNPS:REFRAME-POSITIVE-LIBRARY:accession:CCMSLIB00016144684
SCANS=1070
50.764545	1045.467529
55.018227	1614.078369
65.038765	4755.844727
71.049416	4490.052246
87.411263	1642.03418
89.038651	3106.963135
90.033653	4049.274414
92.04953	14763.647461
94.946564	1199.989502
95.048874	2698.380859
104.049492	7810.493652
106.242027	1343.076538
116.049423	10851.833008
118.06514	2111.283691
120.044266	29021.396484
120.745026	1277.093994
129.044907	12625.242188
129.054138	2381.160156
130.028824	13520.932617
130.038742	2583.481201
131.060303	99052.875
132.044266	19283.480469
132.067841	3767.33667
133.038452	1636.580444
134.059738	5468.650879
135.05481	2025.450806
137.046906	2313.707275
143.060364	3227.993164
144.044617	13347.40625
145.040085	2339.929443
147.054153	1553.43396
150.054733	3724.144531
159.05484	9517.848633
160.05069	1826.963501
160.063248	33166.273438
161.071136	3007.209229
162.054718	15572.325195
177.065765	7353.84668
189.06575	655727.0
END IONS

BEGIN IONS
PEPMASS=270.056
CHARGE=1
MSLEVEL=2
SOURCE_INSTRUMENT=LC-ESI-Orbitrap
FILENAME=reframe_drugs_pos_P2_H5_id.mzML
SEQ=*..*
IONMODE=Positive
ORGANISM=REFRAME-POSITIVE-LIBRARY
NAME=Alinidine [M+H]+
PI=Pieter Dorrestein
DATACOLLECTOR=Nina Zhao
SMILES=C=CCN(C1=NCCN1)c1c(Cl)cccc1Cl
INCHI="InChI=1S/C12H13Cl2N3/c1-2-8-17(12-15-6-7-16-12)11-9(13)4-3-5-10(11)14/h2-5H,1,6-8H2,(H,15,16)"
INCHIAUX=
PUBMED=N/A
SUBMITUSER=jzemlin
LIBRARYQUALITY=1
SPECTRUMID=CCMSLIB00016144802
USI=mzspec:GNPS:REFRAME-POSITIVE-LIBRARY:accession:CCMSLIB00016144802
SCANS=1190
51.794559	34096.957031
55.03484	30740.236328
56.839207	42811.851562
60.336258	33710.179688
60.650021	33350.648438
62.06562	51619.296875
62.857189	28850.144531
69.045219	41820.460938
84.080826	331910.15625
116.851295	38344.582031
149.072357	34253.375
153.020859	68119.460938
159.078659	67878.335938
165.021484	66516.632812
167.036774	35393.261719
171.971436	516265.625
173.986618	49999.90625
193.039993	190556.25
194.047913	3110417.0
199.989929	591573.3125
200.117996	115898.414062
220.064713	54405.300781
228.007645	275230.34375
229.0168	6405165.5
234.079895	128906.546875
235.087234	298419.3125
270.055939	17914454.0
END IONS

BEGIN IONS
PEPMASS=246.185
CHARGE=1
MSLEVEL=2
SOURCE_INSTRUMENT=LC-ESI-Orbitrap
FILENAME=reframe_drugs_pos_P1_H11_id.mzML
SEQ=*..*
IONMODE=Positive
ORGANISM=REFRAME-POSITIVE-LIBRARY
NAME=Inaperisone [M+H]+
PI=Pieter Dorrestein
DATACOLLECTOR=Nina Zhao
SMILES=CCc1ccc(C(=O)C(C)CN2CCCC2)cc1
INCHI="InChI=1S/C16H23NO/c1-3-14-6-8-15(9-7-14)16(18)13(2)12-17-10-4-5-11-17/h6-9,13H,3-5,10-12H2,1-2H3"
INCHIAUX=
PUBMED=N/A
SUBMITUSER=jzemlin
LIBRARYQUALITY=1
SPECTRUMID=CCMSLIB00016146362
USI=mzspec:GNPS:REFRAME-POSITIVE-LIBRARY:accession:CCMSLIB00016146362
SCANS=1367
50.249928	89825.09375
54.87775	74322.296875
55.05463	618532.5625
56.0499	347800.25
57.308636	92918.84375
63.857506	96375.953125
66.326897	100807.171875
70.397217	85293.257812
84.080803	158251696.0
84.597572	96678.914062
85.328766	92808.984375
94.903145	106203.679688
96.989243	104911.6875
104.840393	113643.5
104.90406	108762.890625
117.213089	117996.507812
133.064697	334822.40625
163.085083	114429.28125
242.118668	91429.039062
246.185043	5355136.5
END IONS

BEGIN IONS
PEPMASS=232.131
CHARGE=1
MSLEVEL=2
SOURCE_INSTRUMENT=LC-ESI-Orbitrap
FILENAME=reframe_drugs_pos_P3_A7_id.mzML
SEQ=*..*
IONMODE=Positive
ORGANISM=REFRAME-POSITIVE-LIBRARY
NAME=Levofenfluramine [M+H]+
PI=Pieter Dorrestein
DATACOLLECTOR=Nina Zhao
SMILES=CCNC(C)Cc1cc(C(F)(F)F)ccc1
INCHI="InChI=1S/C12H16F3N/c1-3-16-9(2)7-10-5-4-6-11(8-10)12(13,14)15/h4-6,8-9,16H,3,7H2,1-2H3"
INCHIAUX=
PUBMED=N/A
SUBMITUSER=jzemlin
LIBRARYQUALITY=1
SPECTRUMID=CCMSLIB00016146448
USI=mzspec:GNPS:REFRAME-POSITIVE-LIBRARY:accession:CCMSLIB00016146448
SCANS=1297
55.249264	47201.648438
72.080986	82757.015625
83.784561	63932.007812
84.86261	64383.460938
87.419807	66929.40625
109.0448	446520.03125
115.730667	114226.578125
123.801392	57259.4375
139.035919	61119.539062
159.041565	29400270.0
187.072754	5516831.5
212.126205	70452.304688
232.130722	20378466.0
249.526688	55090.699219
END IONS

BEGIN IONS
PEPMASS=267.098
CHARGE=1
MSLEVEL=2
SOURCE_INSTRUMENT=LC-ESI-Orbitrap
FILENAME=reframe_drugs_pos_P2_D6_id.mzML
SEQ=*..*
IONMODE=Positive
ORGANISM=REFRAME-POSITIVE-LIBRARY
NAME=54249-44-4 [M+H]+
PI=Pieter Dorrestein
DATACOLLECTOR=Nina Zhao
SMILES=CCOC(=O)C(=O)Nc1c(C(N)=O)c(OC)ccc1
INCHI="InChI=1S/C12H14N2O5/c1-3-19-12(17)11(16)14-7-5-4-6-8(18-2)9(7)10(13)15/h4-6H,3H2,1-2H3,(H2,13,15)(H,14,16)"
INCHIAUX=
PUBMED=N/A
SUBMITUSER=jzemlin
LIBRARYQUALITY=1
SPECTRUMID=CCMSLIB00016146580
USI=mzspec:GNPS:REFRAME-POSITIVE-LIBRARY:accession:CCMSLIB00016146580
SCANS=1429
51.804352	8448.631836
52.049812	10418.552734
57.033844	17609.582031
62.096474	13791.972656
62.942307	14067.558594
65.038795	24318.183594
76.490494	17596.236328
81.033501	12102.94043
89.038597	19332.5
90.033669	56834.679688
92.049332	79475.476562
94.065094	18222.5
95.049187	75220.210938
96.044334	22210.0
100.254768	9870.722656
102.033707	10523.866211
104.049408	127646.078125
105.033447	615607.375
107.036613	26241.845703
108.044334	25545.648438
110.05986	36388.207031
115.05407	24122.251953
117.020584	24243.617188
117.057564	27844.109375
120.04438	138631.4375
122.05925	25609.443359
125.059959	12750.731445
130.065094	28335.736328
132.044357	110219.15625
132.080948	26794.037109
133.015656	132248.71875
135.031357	162309.515625
136.039169	25092.310547
140.977661	11492.538086
146.023468	31392.8125
146.033966	15352.570312
148.039169	1210815.625
149.047668	16584.720703
150.054764	237640.03125
151.038666	19784.769531
152.857666	11035.71582
153.042282	57037.351562
160.025833	24095.105469
160.039169	437690.03125
160.075455	37622.511719
161.010849	61214.902344
163.025986	34320.417969
174.056976	12047.650391
176.034134	4797856.0
178.049744	2333941.25
179.021088	244358.453125
188.070694	130747.273438
194.044876	112887.515625
205.844315	11666.392578
206.081116	41458.429688
222.039703	1318418.75
250.070953	7018511.0
END IONS

BEGIN IONS
PEPMASS=272.074
CHARGE=1
MSLEVEL=2
SOURCE_INSTRUMENT=LC-ESI-Orbitrap
FILENAME=reframe_drugs_pos_P2_D2_id.mzML
SEQ=*..*
IONMODE=Positive
ORGANISM=REFRAME-POSITIVE-LIBRARY
NAME=metiazinic acid [M+H]+
PI=Pieter Dorrestein
DATACOLLECTOR=Nina Zhao
SMILES=CN1c2ccccc2Sc2c1cc(CC(=O)O)cc2
INCHI="InChI=1S/C15H13NO2S/c1-16-11-4-2-3-5-13(11)19-14-7-6-10(8-12(14)16)9-15(17)18/h2-8H,9H2,1H3,(H,17,18)"
INCHIAUX=
PUBMED=N/A
SUBMITUSER=jzemlin
LIBRARYQUALITY=1
SPECTRUMID=CCMSLIB00016146702
USI=mzspec:GNPS:REFRAME-POSITIVE-LIBRARY:accession:CCMSLIB00016146702
SCANS=2070
56.711025	2325.479248
58.065468	2056.376465
62.500084	3361.51123
63.477673	2001.800659
66.098198	2816.506104
71.279839	1996.040161
73.428772	2578.087891
81.06974	1877.757202
81.15258	1746.454102
83.733353	1619.534668
85.064613	1613.682373
91.973503	1887.223145
104.070847	1801.223389
109.101257	3495.501465
110.639542	1773.988892
111.619919	1825.624512
165.871353	2278.932129
167.072617	17200.158203
168.080597	32061.242188
176.304291	1992.453003
180.080673	27127.820312
191.179398	3012.355469
195.099716	2407.704346
210.036774	18748.443359
211.02948	2284.999756
211.044861	139959.859375
212.052734	278596.375
213.059998	7514.294922
219.174515	3441.451172
224.071075	3324.125488
225.057556	7765.775391
226.065262	25382.4375
227.071228	11756.070312
237.185181	8524.285156
239.039413	5549.278809
255.196747	3510.782715
256.042877	5710.007324
257.050354	1415406.625
272.072693	387362.71875
272.259857	3025.65625
END IONS

BEGIN IONS
PEPMASS=250.159
CHARGE=1
MSLEVEL=2
SOURCE_INSTRUMENT=LC-ESI-Orbitrap
FILENAME=reframe_drugs_pos_P2_F1_id.mzML
SEQ=*..*
IONMODE=Positive
ORGANISM=REFRAME-POSITIVE-LIBRARY
NAME=BENZOCTAMINE [M+H]+
PI=Pieter Dorrestein
DATACOLLECTOR=Nina Zhao
SMILES=CNCC12CCC(c3ccccc31)c1ccccc12
INCHI="InChI=1S/C18H19N/c1-19-12-18-11-10-13(14-6-2-4-8-16(14)18)15-7-3-5-9-17(15)18/h2-9,13,19H,10-12H2,1H3"
INCHIAUX=
PUBMED=N/A
SUBMITUSER=jzemlin
LIBRARYQUALITY=1
SPECTRUMID=CCMSLIB00016146914
USI=mzspec:GNPS:REFRAME-POSITIVE-LIBRARY:accession:CCMSLIB00016146914
SCANS=1367
54.410339	161528.484375
54.412708	97959.695312
69.26387	60337.222656
72.634064	94951.90625
91.05423	783217.25
94.091866	53165.941406
95.979866	51939.789062
97.7686	54461.421875
98.035278	57163.988281
109.694199	63782.414062
113.621681	62851.976562
121.901001	110174.617188
141.069504	127204.703125
178.078064	174477.234375
189.069305	143375.359375
190.077408	250129.4375
190.213837	55228.886719
191.085419	35220508.0
204.093124	416354.875
219.116638	548807.8125
221.165787	60644.058594
247.950119	88397.4375
250.158997	29752058.0
END IONS

BEGIN IONS
PEPMASS=370.099
CHARGE=1
MSLEVEL=2
SOURCE_INSTRUMENT=LC-ESI-Orbitrap
FILENAME=reframe_drugs_pos_P1_B4_id.mzML
SEQ=*..*
IONMODE=Positive
ORGANISM=REFRAME-POSITIVE-LIBRARY
NAME=tripamide [M+H]+
PI=Pieter Dorrestein
DATACOLLECTOR=Nina Zhao
SMILES=NS(=O)(=O)c1c(Cl)ccc(C(=O)NN2CC3C4CCC(C4)C3C2)c1
INCHI="InChI=1S/C16H20ClN3O3S/c17-14-4-3-11(6-15(14)24(18,22)23)16(21)19-20-7-12-9-1-2-10(5-9)13(12)8-20/h3-4,6,9-10,12-13H,1-2,5,7-8H2,(H,19,21)(H2,18,22,23)"
INCHIAUX=
PUBMED=N/A
SUBMITUSER=jzemlin
LIBRARYQUALITY=1
SPECTRUMID=CCMSLIB00016147170
USI=mzspec:GNPS:REFRAME-POSITIVE-LIBRARY:accession:CCMSLIB00016147170
SCANS=1585
51.974762	1606.735229
52.742085	2098.614014
53.215195	1570.807495
54.951736	1596.621338
56.049847	5460.350098
66.994003	2265.364746
67.05455	25190.626953
67.195892	1901.768066
68.049782	76667.265625
69.036736	1987.340698
70.065514	21501.113281
75.961334	1908.575684
79.054413	45744.339844
80.049683	2369.939209
88.484756	2116.748291
91.054169	24287.039062
93.069824	40460.523438
94.065125	7048.537598
95.048897	3974.885254
95.085251	5744.714844
98.999565	3708.498291
105.069946	5924.210938
105.420921	1924.19104
107.085526	2848.476318
108.080757	6696.246094
109.088562	71213.125
109.100281	3760.447998
118.041351	3013.928955
118.052399	3223.915771
119.085533	2682.379883
120.093147	3894.303223
121.100983	5066.899414
125.014931	2815.61499
126.010376	3854.054932
136.112015	168919.125
137.119781	8088.789062
138.010117	3169.676758
139.004868	3083.612549
151.122589	10579.058594
151.989578	8779.292969
163.005264	4053.391113
163.989334	2860.567383
172.015747	4782.10791
179.031326	2219.27124
181.015396	12521.757812
196.003677	3445.14917
200.940842	7317.956543
216.983124	4449.018066
217.967026	23318.787109
218.99884	3385.821533
232.062378	2048.2854
262.004486	18475.619141
262.988647	9533.954102
290.118011	4880.841309
349.790833	2547.411865
358.058594	2074.996338
368.082397	3565.377686
370.098602	1140315.625
END IONS

BEGIN IONS
PEPMASS=232.133
CHARGE=1
MSLEVEL=2
SOURCE_INSTRUMENT=LC-ESI-Orbitrap
FILENAME=reframe_drugs_pos_P2_D4_id.mzML
SEQ=*..*
IONMODE=Positive
ORGANISM=REFRAME-POSITIVE-LIBRARY
NAME=Indeloxazine [M+H]+
PI=Pieter Dorrestein
DATACOLLECTOR=Nina Zhao
SMILES=C1=Cc2c(C1)c(OCC1CNCCO1)ccc2
INCHI="InChI=1S/C14H17NO2/c1-3-11-4-2-6-14(13(11)5-1)17-10-12-9-15-7-8-16-12/h1-4,6,12,15H,5,7-10H2"
INCHIAUX=
PUBMED=N/A
SUBMITUSER=jzemlin
LIBRARYQUALITY=1
SPECTRUMID=CCMSLIB00016149533
USI=mzspec:GNPS:REFRAME-POSITIVE-LIBRARY:accession:CCMSLIB00016149533
SCANS=1228
50.806103	9829.583984
52.284275	9647.360352
52.448895	9268.791016
55.012596	12132.413086
55.018414	11258.671875
55.054703	29337.982422
56.04995	3333629.5
57.033989	11937.602539
57.057732	22838.09375
57.126488	10488.770508
58.065567	434424.59375
62.060394	26711.662109
66.494118	9857.557617
67.041954	16344.628906
70.065384	172601.71875
72.044701	70361.429688
72.081032	244889.671875
74.060257	1384495.5
80.049576	105824.867188
82.065231	288766.75
83.049194	13592.732422
84.354164	12612.777344
86.06012	29241.992188
88.075874	37500.363281
94.720634	11547.418945
95.618774	11442.267578
98.059975	310422.46875
100.075645	3482745.0
104.848801	20535.232422
106.408852	21994.59375
115.054146	142488.828125
116.070839	22714.197266
117.069771	107237.210938
120.252632	10498.912109
127.148323	12140.274414
128.06189	277393.9375
129.069717	46187.011719
133.064651	160931.484375
135.079926	12871.276367
139.733536	10779.027344
141.070023	20351.052734
143.085434	257988.921875
145.064682	232017.921875
146.194336	12091.960938
147.080582	52244.582031
153.070374	36584.179688
161.096344	75220.867188
169.282104	14530.445312
171.080338	1952853.0
173.09642	30310.085938
203.106354	21543.462891
216.667664	18908.160156
232.133179	10095791.0
247.368622	12394.607422
END IONS

BEGIN IONS
PEPMASS=249.16
CHARGE=1
MSLEVEL=2
SOURCE_INSTRUMENT=LC-ESI-Orbitrap
FILENAME=reframe_drugs_pos_P3_A8_id.mzML
SEQ=*..*
IONMODE=Positive
ORGANISM=REFRAME-POSITIVE-LIBRARY
NAME=Bunitrolol [M+H]+
PI=Pieter Dorrestein
DATACOLLECTOR=Nina Zhao
SMILES=CC(C)(C)NCC(O)COc1ccccc1C#N
INCHI="InChI=1S/C14H20N2O2/c1-14(2,3)16-9-12(17)10-18-13-7-5-4-6-11(13)8-15/h4-7,12,16-17H,9-10H2,1-3H3"
INCHIAUX=
PUBMED=N/A
SUBMITUSER=jzemlin
LIBRARYQUALITY=1
SPECTRUMID=CCMSLIB00016150647
USI=mzspec:GNPS:REFRAME-POSITIVE-LIBRARY:accession:CCMSLIB00016150647
SCANS=1071
54.578117	41583.980469
56.049942	6637225.5
57.057674	53429.527344
57.070328	2361715.5
65.005157	45246.003906
66.98642	44093.953125
67.422279	42899.945312
68.976387	44643.398438
74.060196	409930.59375
78.155235	47355.109375
88.162399	50942.765625
92.049461	143996.828125
100.238495	66254.3125
102.067307	48182.828125
104.049438	111235.554688
105.034203	75008.710938
118.878922	55474.214844
120.044342	5709450.5
121.028259	726261.4375
130.064758	117801.09375
131.049408	65438.9375
132.044083	113937.828125
134.060196	81664.429688
138.055252	121565.03125
141.265808	50870.40625
146.059982	210750.015625
147.044113	150385.1875
148.075333	208201.453125
150.054352	65671.179688
158.060272	89464.625
175.086517	2691814.75
176.070526	172429.640625
193.097046	38278376.0
203.724991	47265.691406
248.190674	54555.566406
249.159668	12165666.0
263.47052	94831.703125
END IONS

BEGIN IONS
PEPMASS=284.092
CHARGE=1
MSLEVEL=2
SOURCE_INSTRUMENT=LC-ESI-Orbitrap
FILENAME=reframe_drugs_pos_P2_C5_id.mzML
SEQ=*..*
IONMODE=Positive
ORGANISM=REFRAME-POSITIVE-LIBRARY
NAME=Virstatin [M+H]+
PI=Pieter Dorrestein
DATACOLLECTOR=Nina Zhao
SMILES=O=C(O)CCCN1C(=O)c2c3c(cccc3ccc2)C1=O
INCHI="InChI=1S/C16H13NO4/c18-13(19)8-3-9-17-15(20)11-6-1-4-10-5-2-7-12(14(10)11)16(17)21/h1-2,4-7H,3,8-9H2,(H,18,19)"
INCHIAUX=
PUBMED=N/A
SUBMITUSER=jzemlin
LIBRARYQUALITY=1
SPECTRUMID=CCMSLIB00016151243
USI=mzspec:GNPS:REFRAME-POSITIVE-LIBRARY:accession:CCMSLIB00016151243
SCANS=1657
59.383823	4327.871094
62.197323	4823.858398
62.873032	9870.961914
62.875919	7265.698242
69.033691	11700.119141
71.972649	4108.07666
77.109833	5293.918457
106.898392	4574.36084
127.154541	5065.358887
152.049316	5155.357422
155.049103	17643.708984
161.397247	4838.916992
170.060242	31646.669922
180.044189	592735.6875
195.080719	6591.165039
198.054489	135685.453125
210.05481	965284.9375
220.076263	28456.203125
221.08342	7361.349609
222.090866	26691.339844
224.070267	26078.949219
228.065445	876141.6875
238.086166	2690586.25
266.081055	2153324.25
277.745728	5797.135254
284.09024	24306.025391
END IONS

BEGIN IONS
PEPMASS=233.093
CHARGE=-1
MSLEVEL=2
SOURCE_INSTRUMENT=LC-ESI-Orbitrap
FILENAME=reframe_drugs_neg_P3_D2_id.mzML
SEQ=*..*
IONMODE=Negative
ORGANISM=REFRAME-NEGATIVE-LIBRARY
NAME=Cyclopentobarbital [M-H]-
PI=Pieter Dorrestein
DATACOLLECTOR=Nina Zhao
SMILES=C=CCC1(C2C=CCC2)C(=O)NC(=O)NC1=O
INCHI="InChI=1S/C12H14N2O3/c1-2-7-12(8-5-3-4-6-8)9(15)13-11(17)14-10(12)16/h2-3,5,8H,1,4,6-7H2,(H2,13,14,15,16,17)"
INCHIAUX=
PUBMED=N/A
SUBMITUSER=jzemlin
LIBRARYQUALITY=1
SPECTRUMID=CCMSLIB00016152509
USI=mzspec:GNPS:REFRAME-NEGATIVE-LIBRARY:accession:CCMSLIB00016152509
SCANS=1317
50.12653	2367.940674
56.393177	2823.345947
79.324219	2931.5896
79.649567	2682.438232
85.004044	34680.773438
90.675354	2841.30835
90.744781	2753.162109
91.673943	2893.984375
100.946373	3225.622314
104.907913	3004.939209
151.014969	3241.383789
166.037964	14840.092773
190.087662	297122.71875
211.685349	3123.519287
233.093399	622069.0625
END IONS

BEGIN IONS
PEPMASS=230.024
CHARGE=-1
MSLEVEL=2
SOURCE_INSTRUMENT=LC-ESI-Orbitrap
FILENAME=reframe_drugs_neg_P1_H8_id.mzML
SEQ=*..*
IONMODE=Negative
ORGANISM=REFRAME-NEGATIVE-LIBRARY
NAME=Methaniazide [M-H]-
PI=Pieter Dorrestein
DATACOLLECTOR=Nina Zhao
SMILES=O=C(NNCS(=O)(=O)O)c1ccncc1
INCHI="InChI=1S/C7H9N3O4S/c11-7(6-1-3-8-4-2-6)10-9-5-15(12,13)14/h1-4,9H,5H2,(H,10,11)(H,12,13,14)"
INCHIAUX=
PUBMED=N/A
SUBMITUSER=jzemlin
LIBRARYQUALITY=1
SPECTRUMID=CCMSLIB00016153549
USI=mzspec:GNPS:REFRAME-NEGATIVE-LIBRARY:accession:CCMSLIB00016153549
SCANS=179
55.309509	1286.058838
60.616985	1168.010254
60.635406	1160.464233
62.266949	1298.285278
63.006432	1343.085083
75.951439	1465.101929
80.964607	456504.125
92.050224	5144.66748
103.029984	5918.289551
120.045395	92389.773438
121.040611	7733.502441
122.969925	3432.038574
148.051636	944948.5625
187.17804	1541.599243
209.964432	1669.110962
211.695053	1529.338501
230.024002	9455.045898
230.043518	1719.585938
END IONS

BEGIN IONS
PEPMASS=231.078
CHARGE=-1
MSLEVEL=2
SOURCE_INSTRUMENT=LC-ESI-Orbitrap
FILENAME=reframe_drugs_neg_P2_C2_id.mzML
SEQ=*..*
IONMODE=Negative
ORGANISM=REFRAME-NEGATIVE-LIBRARY
NAME=phenobarbital [M-H]-
PI=Pieter Dorrestein
DATACOLLECTOR=Nina Zhao
SMILES=CCC1(c2ccccc2)C(=O)NC(=O)NC1=O
INCHI="InChI=1S/C12H12N2O3/c1-2-12(8-6-4-3-5-7-8)9(15)13-11(17)14-10(12)16/h3-7H,2H2,1H3,(H2,13,14,15,16,17)"
INCHIAUX=
PUBMED=N/A
SUBMITUSER=jzemlin
LIBRARYQUALITY=1
SPECTRUMID=CCMSLIB00016155375
USI=mzspec:GNPS:REFRAME-NEGATIVE-LIBRARY:accession:CCMSLIB00016155375
SCANS=1232
61.847473	3627.805176
68.779884	3349.453857
78.567856	3817.817383
85.004173	115871.328125
92.98317	3879.195068
112.911339	3939.995605
122.969658	6172.740234
144.082031	13239.254883
148.78389	4099.398438
183.424927	4127.250488
188.071854	188661.765625
231.077652	857347.75
END IONS

BEGIN IONS
PEPMASS=264.009
CHARGE=1
MSLEVEL=2
SOURCE_INSTRUMENT=ESI-qTof
FILENAME=massbank-gnps.mgf
SEQ=*..*
IONMODE=Positive
ORGANISM=MASSBANK
NAME=Massbank:AU261605 Parathion-methyl|Methyl parathion|dimethoxy-(4-nitrophenoxy)-sulfanylidene-lambda5-phosphane M+H
PI=Massbank
DATACOLLECTOR=Massbank
SMILES=COP(=S)(OC)OC1=CC=C(C=C1)[N+]([O-])=O
INCHI=1S/C8H10NO5PS/c1-12-15(16,13-2)14-8-5-3-7(4-6-8)9(10)11/h3-6H,1-2H3
INCHIAUX=N/A
PUBMED=N/A
SUBMITUSER=mwang87
LIBRARYQUALITY=3
SPECTRUMID=CCMSLIB00005773621
USI=mzspec:GNPS:MASSBANK:accession:CCMSLIB00005773621
SCANS=48070
124.981598	432.0
153.960495	548.0
154.969101	1052.0
185.9534	308.0
END IONS
