BEGIN IONS
PEPMASS=879.461
CHARGE=1
MSLEVEL=2
SOURCE_INSTRUMENT=LC-ESI-qTof
FILENAME=d7.mgf
SEQ=*..*
IONMODE=Positive
ORGANISM=GNPS-LIBRARY
NAME=Etamycin M+H
PI=Fenical-Jensen-Moore
DATACOLLECTOR=Max
SMILES=CC1C(C(=O)NC(C(=O)N2CC(CC2C(=O)N(CC(=O)N(C(C(=O)NC(C(=O)N(C(C(=O)O1)C3=CC=CC=C3)C)C)C(C)C(C)C)C)C)O)CC(C)C)NC(=O)C4=C(C=CC=N4)O
INCHI=InChI=1S/C44H62N8O11/c1-23(2)19-30-42(60)52-21-29(53)20-31(52)43(61)49(8)22-33(55)50(9)36(25(5)24(3)4)40(58)46-26(6)41(59)51(10)37(28-15-12-11-13-16-28)44(62)63-27(7)34(38(56)47-30)48-39(57)35-32(54)17-14-18-45-35/h11-18,23-27,29-31,34,36-37,53-54H,19-22H2,1-10H3,(H,46,58)(H,47,56)(H,48,57)
INCHIAUX=N/A
PUBMED=N/A
SUBMITUSER=mwang87
LIBRARYQUALITY=1
SPECTRUMID=CCMSLIB00000001631
USI=mzspec:GNPS:GNPS-LIBRARY:accession:CCMSLIB00000001631
SCANS=1
55.054512	371.700806
56.050278	539.163818
57.058144	313.628387
58.065483	844.485901
60.044971	1246.437988
68.049896	2816.27002
69.03437	284.914612
69.052406	206.682098
70.065445	800.43573
72.044754	23737.380859
72.123917	580.418518
73.048141	1088.055054
74.059776	172.262207
79.054245	406.051208
80.050735	273.9216
82.065125	383.733612
83.085426	874.563721
84.045265	180.511993
84.082062	201.022797
86.06031	22718.429688
86.092377	3247.339111
86.147057	539.625427
87.062981	1309.438965
87.097122	223.819901
90.054932	378.433289
94.028572	1296.244995
94.062149	281.578003
100.039413	110116.601562
101.04229	6682.940918
102.046616	533.812317
103.086304	1309.801025
107.048477	448.973114
110.059265	217.635803
112.039307	225.671005
112.075134	1247.932007
112.11145	3279.285889
113.07254	415.090515
113.11454	370.337311
114.056023	504.495789
114.127716	82391.328125
115.130783	8076.09082
115.229576	170.706802
116.134338	281.446503
118.063995	282.043213
120.08049	25910.449219
121.083618	3231.395996
122.023399	1719.754028
124.111557	1446.123047
125.114174	213.072296
126.128334	246.911102
132.072128	276.450897
135.043335	1877.281006
136.047653	166.132797
136.111633	1504.072021
139.050064	558.737915
139.0858	1135.380005
140.070404	5784.716797
140.142517	2624.014893
141.073242	691.68042
141.100861	1451.911011
141.140274	510.801788
142.049454	236.791595
142.122147	19870.699219
142.23349	394.777588
143.080536	525.33783
143.125336	2217.822998
145.096771	1468.680054
146.097626	273.4841
148.075256	3860.965088
149.075012	874.797913
151.049423	242.0802
151.085526	615.507019
151.118607	248.791595
152.105896	440.492889
153.133759	213.560303
154.12204	23012.070312
155.080597	619.281921
155.125107	3338.183105
156.130478	254.774506
157.096252	1270.522949
160.132782	1310.973022
161.091049	590.509094
161.131699	197.987595
162.091064	305.314392
165.065323	447.481812
165.137756	218.779205
166.085678	18819.349609
166.205078	352.274689
167.085388	4445.908203
168.084091	528.440979
169.096558	8897.925781
169.16713	807.573486
170.116394	11660.55957
170.23703	199.072693
171.07579	4411.241211
171.117035	1908.984985
172.078796	596.650818
172.127213	227.955093
176.069809	2739.471924
176.101227	1446.281006
177.065262	8739.12207
177.188675	168.152802
178.069855	1029.380005
179.04509	1536.659058
179.078857	926.529114
179.150848	187.176102
180.04837	221.933594
180.103729	445.179291
182.11705	38820.429688
183.075928	302.125
183.120331	6131.708984
184.124741	576.626587
185.091476	60922.5
185.163986	42170.289062
186.094635	8064.838867
186.167023	6464.195801
187.096375	954.808105
187.169586	359.25119
188.070145	2946.365967
189.073273	502.134491
191.118179	539.860474
192.102295	682.596313
193.106506	170.872894
194.141525	200.380295
195.075943	1862.015991
195.146133	268.318207
196.078384	187.639008
197.121735	393.146393
197.163391	763.766113
198.128876	207.043106
199.143311	565.660583
202.08609	990.766418
203.101685	1269.322998
204.100784	1896.952026
205.060181	53904.949219
206.063202	8282.962891
207.065613	905.820129
209.16394	821.722778
211.141525	186.658005
212.174362	1411.276978
213.087875	498.025299
213.159225	48930.171875
214.162308	8441.941406
215.166641	727.873779
216.134003	1640.401001
217.136475	263.414398
219.112671	2643.285889
220.117096	550.866089
222.087112	412.950989
223.070877	4817.676758
223.142303	1133.119995
224.074371	768.554626
224.14447	234.655304
225.158813	1452.159058
226.160049	257.883606
227.139252	617.798889
228.130157	429.784302
229.143585	178.689804
231.169922	5404.831055
232.172791	1048.404053
233.128204	365.672913
235.143723	588.723083
237.123245	4142.986816
237.231796	635.698486
238.126282	851.53009
238.187912	358.822693
238.231339	199.567993
239.133621	243.634796
240.206238	243.584396
241.153961	1314.965942
242.156631	228.520599
244.098434	482.690887
244.141785	392.672913
249.159531	192.628296
253.153793	1005.445984
254.156845	254.027802
255.17012	1468.442993
256.128784	6006.546875
257.132599	1176.670044
258.14798	1406.629028
259.105865	167.121002
259.166718	421.639191
261.122986	753.684204
262.154022	1789.098022
263.156647	474.446503
266.187225	176.684799
268.153809	426.523285
269.16037	224.7146
271.1651	405.976715
272.139313	566.233887
274.148651	334.106415
276.09729	322.718292
279.133759	3612.631104
280.137177	882.417786
280.19754	296.809509
281.149933	674.560913
281.220917	557.153992
282.155426	199.710999
282.220642	411.112213
283.106628	184.827393
284.196655	44083.671875
285.199554	10304.009766
286.202759	943.338196
287.18103	257.316895
290.14978	18256.480469
291.152344	4475.448242
292.155182	521.730713
293.151337	201.076401
295.075256	179.8246
295.16568	1204.33606
296.166779	289.138489
298.186188	626.387329
300.133453	377.457397
302.207428	2434.927002
303.210297	656.709229
304.163452	178.367294
305.185577	235.426193
308.197449	1024.468018
309.197693	337.503113
310.201752	264.510712
311.102783	467.425293
312.190094	464.728485
315.236725	185.247894
318.144623	18017.859375
319.1474	4689.469238
320.151276	621.365173
324.154388	329.166199
324.186584	269.740906
325.222961	2485.455078
326.207642	56001.691406
327.210632	14137.900391
327.377655	200.231796
328.213074	1887.555054
329.187927	1173.374023
330.192078	338.302307
332.160492	2336.896973
333.163177	646.564819
336.155212	2414.525879
337.1586	741.641174
339.096863	818.375977
340.101837	234.0065
342.144928	195.857697
343.233887	195.572601
344.223022	230.300797
347.195496	361.094391
350.170715	3210.058105
351.1745	897.416809
351.236481	740.512024
352.246796	296.345215
353.255493	380.964813
354.197205	238.186493
354.25473	175.905807
360.227173	499.04071
363.174469	224.128693
369.247864	748.185486
370.139252	2806.875977
370.254578	285.815887
371.143585	820.015503
372.229523	178.501205
378.237366	751.667908
379.235138	1077.855957
380.236115	333.388489
385.186981	2265.268066
386.189697	747.831421
387.169434	398.054413
388.212097	314.817413
389.182526	1325.345947
390.185028	427.03891
394.270569	2208.564941
395.272156	769.485229
397.244751	116055.796875
398.247589	32957.769531
399.250153	4954.742188
400.247437	502.841003
403.197052	717.745178
403.265198	344.009308
404.199219	208.113007
405.185486	184.894501
407.191498	1756.729004
408.195648	581.702881
413.181702	185.951706
415.254639	1040.249023
416.259277	258.470001
418.236115	257.618591
421.208984	170.255295
428.284515	271.492615
431.192352	6495.084961
431.258118	1701.952026
432.195862	2237.243896
432.263092	598.942871
433.1987	321.211609
439.290649	634.660278
440.295685	245.674805
441.178436	175.673996
449.203308	1148.827026
449.27536	2291.178955
450.206635	378.860504
450.278961	818.019592
455.229248	2542.448975
456.232239	1182.514038
457.238312	181.915604
463.255066	387.699493
465.304626	707.106323
466.309296	256.283386
473.276459	2484.585938
474.279785	1048.82605
475.28067	182.653305
483.223724	5113.871094
484.226257	2089.059082
485.230225	415.699493
491.286377	468.095306
492.252533	584.52478
493.251556	238.190903
501.234711	493.428589
502.230194	3930.27002
503.232758	1587.145996
504.236755	325.509613
510.327789	729.403809
511.331177	322.308197
516.317932	399.439606
517.32782	224.793701
520.240173	1828.744995
521.242981	848.834778
526.266663	1383.126953
527.269409	785.074829
530.295898	507.066711
531.299438	275.367798
532.274109	170.785797
544.313293	14617.139648
545.315918	5943.100098
546.318542	1261.404053
547.318054	166.673706
548.306702	307.007599
549.306213	173.863998
550.265259	2060.543945
551.269287	836.937988
552.272217	179.6465
554.259827	1696.594971
555.262939	764.647217
556.265503	180.105103
562.323669	10219.879883
563.326965	4116.891113
564.329468	901.153625
568.276489	1774.862061
569.280273	874.257385
570.283997	200.903702
572.274109	231.251205
578.261658	169.549194
596.271301	7330.025879
597.27533	3401.912109
598.279358	723.003906
601.334595	374.680115
602.338135	186.395798
621.302063	310.847992
622.302673	239.150604
624.336548	283.169495
625.335449	282.812012
630.384949	372.320709
631.390747	235.615601
639.313171	1784.609985
640.316162	1128.680054
641.3172	256.852997
643.345276	3344.803955
644.348022	1673.488037
645.351257	399.168213
661.355347	1347.016968
662.358154	759.952515
667.309082	5450.538086
668.311646	3000.774902
669.314697	709.232117
670.351746	309.928314
671.35791	212.2836
675.406555	910.267822
676.412231	403.290009
677.404114	168.960999
695.37616	1398.937988
696.377502	853.627686
697.377625	225.144302
698.352478	515.218872
699.355896	285.562714
714.381104	3421.522949
715.384583	1759.91394
716.389465	443.533813
738.399902	1032.18396
739.403564	727.785278
740.421143	222.811295
750.382202	168.374298
766.411804	2820.441895
767.414795	1759.104004
768.41626	510.121704
780.427368	380.795685
781.428528	274.920105
784.423706	216.631393
790.415466	219.470001
807.440491	428.527313
808.424683	10000.429688
809.427734	6250.555176
810.429443	1749.974976
811.43103	363.682312
833.45636	838.407288
834.459045	647.19458
835.465027	522.291626
836.470215	225.660004
851.466003	10462.679688
852.468628	6785.083984
853.471802	2083.042969
854.478455	406.086304
861.449951	1028.095947
862.454102	705.259583
863.458252	206.520401
879.461914	164380.796875
880.465271	105465.898438
881.467285	32540.310547
882.469482	6614.563965
883.470154	507.44931
END IONS

BEGIN IONS
PEPMASS=171.028
CHARGE=1
MSLEVEL=2
SOURCE_INSTRUMENT=DI-ESI-qTof
FILENAME=f.rsilva/gallic_acid_pos_MSMS_171.mgf;
SEQ=*..*
IONMODE=Positive
ORGANISM=GNPS-LIBRARY
NAME=Gallic acid M+H
PI=Norberto Lopes
DATACOLLECTOR=Denise Silva
SMILES=OC(C1=CC(O)=C(O)C(O)=C1)=O
INCHI=InChI=1S/C7H6O5/c8-4-1-3(7(11)12)2-5(9)6(4)10/h1-2,8-10H,(H,11,12)
INCHIAUX= 
PUBMED= 
SUBMITUSER=rsilva
LIBRARYQUALITY=3
SPECTRUMID=CCMSLIB00000078850
USI=mzspec:GNPS:GNPS-LIBRARY:accession:CCMSLIB00000078850
SCANS=1
125.021797	2601.0
126.026176	143.0
127.037621	786.0
135.006775	598.0
143.031845	325.0
153.017792	5492.0
154.024673	273.0
171.027985	631.0
END IONS

BEGIN IONS
PEPMASS=139.04
CHARGE=1
MSLEVEL=2
SOURCE_INSTRUMENT=DI-ESI-qTof
FILENAME=f.rsilva/salicylic_acid_pos_MSMS_139.mgf;
SEQ=*..*
IONMODE=Positive
ORGANISM=GNPS-LIBRARY
NAME=Salicylic acid M+H
PI=Norberto Lopes
DATACOLLECTOR=Denise Silva
SMILES=O=C(C1=CC=CC=C1O)O
INCHI=InChI=1S/C7H6O3/c8-6-4-2-1-3-5(6)7(9)10/h1-4,8H,(H,9,10)
INCHIAUX= 
PUBMED= 
SUBMITUSER=rsilva
LIBRARYQUALITY=3
SPECTRUMID=CCMSLIB00000078854
USI=mzspec:GNPS:GNPS-LIBRARY:accession:CCMSLIB00000078854
SCANS=1
121.028969	6182.0
122.031898	183.0
124.74807	188.0
END IONS

BEGIN IONS
PEPMASS=276.164
CHARGE=1
MSLEVEL=2
SOURCE_INSTRUMENT=DI-ESI-qTof
FILENAME=f.rsilva/q_tof_25_05/gnps_Physostigmine_pos_MplusH.mgf;
SEQ=*..*
IONMODE=Positive
ORGANISM=GNPS-LIBRARY
NAME=Physostigmine M+H
PI=Norberto Lopes
DATACOLLECTOR=M??nica Pupo
SMILES=CN1C2=CC=C(OC(NC)=O)C=C2C3(C)C1N(C)CC3
INCHI=InChI=1S/C15H21N3O2/c1-15-7-8-17(3)13(15)18(4)12-6-5-10(9-11(12)15)20-14(19)16-2/h5-6,9,13H,7-8H2,1-4H3,(H,16,19)
INCHIAUX= 
PUBMED= 
SUBMITUSER=rsilva
LIBRARYQUALITY=3
SPECTRUMID=CCMSLIB00000081265
USI=mzspec:GNPS:GNPS-LIBRARY:accession:CCMSLIB00000081265
SCANS=1
147.060684	18510.0
162.086853	1133563.0
163.088913	84119.0
176.100327	301301.0
177.10466	19677.0
188.102295	81625.0
189.104797	6523.0
219.107895	820175.0
220.109207	65152.0
233.124207	160615.0
245.123215	52940.0
276.164001	7480.0
END IONS

BEGIN IONS
PEPMASS=693.406
CHARGE=1
MSLEVEL=2
SOURCE_INSTRUMENT=DI-ESI-qTof
FILENAME=f.rsilva/q_tof_25_05/gnps_Monensin_pos_MplusNa.mgf;
SEQ=*..*
IONMODE=Positive
ORGANISM=GNPS-LIBRARY
NAME=Monensin M+Na
PI=Norberto Lopes
DATACOLLECTOR=Denise Silva
SMILES=C[C@@H]([C@H](C(C)C(O)=O)OC)[C@](O1)([H])[C@H](C)[C@@H](O)C[C@]1(O2)CC[C@@]2(C)[C@@](O3)([H])CC[C@@]3(CC)[C@@](O4)([H])[C@@H](C)C[C@]4([H])[C@]5([H])[C@@H](C)C[C@@H](C)[C@](O)(CO)O5
INCHI=InChI=1S/C36H62O11/c1-10-34(31-20(3)16-26(43-31)28-19(2)15-21(4)36(41,18-37)46-28)12-11-27(44-34)33(8)13-14-35(47-33)17-25(38)22(5)30(45-35)23(6)29(42-9)24(7)32(39)40/h19-31,37-38,41H,10-18H2,1-9H3,(H,39,40)/t19-,20-,21+,22+,23-,24?,25-,26+,27+,28-,29+,30-,31+,33-,34-,35+,36-/m0/s1
INCHIAUX= 
PUBMED= 
SUBMITUSER=rsilva
LIBRARYQUALITY=3
SPECTRUMID=CCMSLIB00000081287
USI=mzspec:GNPS:GNPS-LIBRARY:accession:CCMSLIB00000081287
SCANS=1
197.074402	11382.0
209.109772	2129.0
237.103912	9675.0
255.11467	13199.0
303.187256	2120.0
321.196289	5930.0
343.215088	1609.0
345.195251	1779.0
361.222992	2251.0
363.205872	4055.0
383.248016	1451.0
387.243378	3001.0
389.222687	1366.0
391.236084	2361.0
405.253418	10039.0
406.877228	2255.0
407.231018	2255.0
443.268524	41645.0
461.279053	254303.0
475.291229	1418.0
479.288635	230911.0
483.300415	25479.0
489.274902	5982.0
491.289551	5177.0
501.308746	85999.0
507.284485	7221.0
523.328674	3975.0
529.306152	1964.0
531.321777	2760.0
541.340942	18220.0
557.333496	1397.0
559.348145	8196.0
563.361755	6570.0
575.347168	2743.0
577.363342	12808.0
581.372681	48505.0
599.380493	45949.0
617.393127	18805.0
625.357178	2638.0
631.408081	1963.0
639.377136	2480.0
643.371765	4305.0
649.417847	2510.0
657.390076	29370.0
675.398865	116968.0
693.40564	134854.0
END IONS

BEGIN IONS
PEPMASS=307.169
CHARGE=1
MSLEVEL=2
SOURCE_INSTRUMENT=DI-ESI-qTof
FILENAME=gnps_Propentofylline_pos_MplusH.mgf
SEQ=*..*
IONMODE=Positive
ORGANISM=GNPS-LIBRARY
NAME=Propentofylline M+H
PI=Norberto Lopes
DATACOLLECTOR=Norberto Lopes
SMILES=CCCN1C=NC2=C1C(N(CCCCC(C)=O)C(N2C)=O)=O
INCHI=InChI=1S/C15H22N4O3/c1-4-8-18-10-16-13-12(18)14(21)19(15(22)17(13)3)9-6-5-7-11(2)20/h10H,4-9H2,1-3H3
INCHIAUX=N/A
PUBMED=N/A
SUBMITUSER=rsilva
LIBRARYQUALITY=3
SPECTRUMID=CCMSLIB00000081603
USI=mzspec:GNPS:GNPS-LIBRARY:accession:CCMSLIB00000081603
SCANS=1
124.048141	745.0
138.100494	727.0
166.092773	1185.0
167.051727	4971.0
168.054794	243.0
184.103653	671.0
209.096954	5790.0
210.099472	429.0
265.125641	121.0
307.168671	230.0
END IONS

BEGIN IONS
PEPMASS=584.279
CHARGE=1
MSLEVEL=2
SOURCE_INSTRUMENT=DI-ESI-qTof
FILENAME=gnps_Dihydroergotamine_pos_MplusH.mgf
SEQ=*..*
IONMODE=Positive
ORGANISM=GNPS-LIBRARY
NAME=Dihydroergotamine M+H
PI=Norberto Lopes
DATACOLLECTOR=Denise Silva
SMILES=[H][C@@]1([C@@](O[C@](NC([C@@H]2C[C@@](C3=C4C(C5)=CNC4=CC=C3)([H])[C@]5([H])N(C)C2)=O)(C)C6=O)(O)N6[C@H]7CC8=CC=CC=C8)CCCN1C7=O
INCHI=InChI=1S/C33H37N5O5/c1-32(35-29(39)21-15-23-22-10-6-11-24-28(22)20(17-34-24)16-25(23)36(2)18-21)31(41)38-26(14-19-8-4-3-5-9-19)30(40)37-13-7-12-27(37)33(38,42)43-32/h3-6,8-11,17,21,23,25-27,34,42H,7,12-16,18H2,1-2H3,(H,35,39)/t21-,23-,25-,26+,27+,32-,33+/m1/s1
INCHIAUX=N/A
PUBMED=N/A
SUBMITUSER=rsilva
LIBRARYQUALITY=3
SPECTRUMID=CCMSLIB00000081715
USI=mzspec:GNPS:GNPS-LIBRARY:accession:CCMSLIB00000081715
SCANS=1
154.061523	19349.0
155.067474	9249.0
168.077133	62893.0
180.075287	7770.0
182.091995	14117.0
194.09169	38493.0
195.100433	16199.0
196.105988	14388.0
197.104187	19808.0
208.073105	11867.0
210.087692	135684.0
211.092026	14050.0
222.092422	15009.0
223.115952	9345.0
225.133057	335395.0
226.136597	40388.0
227.112717	14728.0
238.106384	13230.0
241.12941	7971.0
251.114044	8538.0
253.130264	1051371.0
270.159912	1272525.0
271.158325	445786.0
286.147736	9014.0
294.156708	164814.0
297.119629	107407.0
312.166595	11108.0
322.148285	176702.0
538.271851	127813.0
566.267944	64576.0
584.278503	204400.0
END IONS

BEGIN IONS
PEPMASS=325.19
CHARGE=1
MSLEVEL=2
SOURCE_INSTRUMENT=DI-ESI-qTof
FILENAME=f.10mauriz/19_br_pos_25eV.mgf;
SEQ=*..*
IONMODE=Positive
ORGANISM=GNPS-LIBRARY
NAME=Quinidine M+H
PI=Norberto Lopes
DATACOLLECTOR=Lucas Marques
SMILES=COC1=CC=C(N=CC=C2[C@@](O)([H])C3N4CC(C=C)C(CC4)C3)C2=C1
INCHI=InChI=1S/C20H24N2O2/c1-3-13-12-22-9-7-14(13)10-19(22)20(23)16-6-8-21-18-5-4-15(24-2)11-17(16)18/h3-6,8,11,13-14,19-20,23H,1,7,9-10,12H2,2H3/t13?,14?,19?,20-/m0/s1
INCHIAUX= 
PUBMED= 
SUBMITUSER=10mauriz
LIBRARYQUALITY=3
SPECTRUMID=CCMSLIB00000424789
USI=mzspec:GNPS:GNPS-LIBRARY:accession:CCMSLIB00000424789
SCANS=1
160.073349	521.0
166.119553	226.0
172.074692	257.0
184.075607	610.0
186.091843	127.0
198.091644	148.0
199.09346	200.0
227.114899	114.0
239.114304	119.0
253.126221	312.0
264.139465	192.0
279.142059	172.0
307.179169	1028.0
325.190338	7498.0
326.191589	776.0
330.719849	103.0
331.214111	251.0
765.730042	411.0
END IONS

BEGIN IONS
PEPMASS=207.137
CHARGE=1
MSLEVEL=2
SOURCE_INSTRUMENT=LC-ESI-qTof
FILENAME=f.MSV000078993/spectrum/Trace detection_Volunteers 12-39/Vol 35 Hand/vol35_Hand_GC4_01_24653.mzXML;
SEQ=*..*
IONMODE=Positive
ORGANISM=GNPS-LIBRARY
NAME=Ibuprofen M+H
PI=Pieter Dorrestein
DATACOLLECTOR=abouslimani
SMILES=CC(C)CC1=CC=C(C=C1)C(C)C(=O)O
INCHI= 
INCHIAUX= 
PUBMED= 
SUBMITUSER=abouslimani
LIBRARYQUALITY=3
SPECTRUMID=CCMSLIB00000424946
USI=mzspec:GNPS:GNPS-LIBRARY:accession:CCMSLIB00000424946
SCANS=2267
81.71212	20.0
82.059425	20.0
98.040413	20.0
105.070702	368.0
108.291985	20.0
109.591309	20.0
111.739731	20.0
113.180077	200.0
117.069679	156.0
119.084305	196.0
120.090462	140.0
121.169418	112.0
124.293297	20.0
125.980957	140.0
129.75946	120.0
129.94754	148.0
143.995544	152.0
147.814743	20.0
156.636749	20.0
157.48909	20.0
158.073608	20.0
161.017441	84.0
161.131973	1540.0
161.48967	80.0
162.135193	544.0
163.441391	20.0
164.062317	20.0
169.087524	20.0
170.42186	80.0
171.717148	80.0
173.540878	20.0
177.053146	124.0
178.360062	20.0
185.979599	20.0
186.454498	20.0
203.479996	20.0
203.684296	20.0
204.767044	20.0
206.323715	20.0
207.089951	112.0
207.144821	376.0
209.181396	248.0
211.427917	20.0
228.510452	20.0
240.896698	20.0
260.547791	20.0
271.369354	20.0
291.55722	20.0
299.8909	20.0
313.545868	20.0
319.144836	76.0
356.026917	20.0
368.039978	20.0
388.035767	20.0
402.553375	20.0
402.653107	20.0
409.67865	20.0
423.690979	20.0
450.901001	20.0
456.942688	20.0
467.898407	20.0
472.672333	20.0
474.827881	20.0
488.127625	20.0
496.196533	20.0
519.24469	20.0
521.70813	20.0
579.091858	20.0
581.381592	20.0
584.574585	20.0
675.056519	20.0
675.769714	20.0
679.807983	20.0
699.332703	20.0
742.702881	20.0
754.324036	20.0
802.904907	20.0
808.295166	20.0
853.588379	20.0
861.041382	20.0
862.827942	20.0
881.816345	20.0
901.399475	20.0
902.546143	20.0
906.798889	20.0
907.481689	20.0
923.166382	20.0
939.253601	20.0
954.840576	20.0
959.029846	20.0
984.901001	20.0
993.275269	20.0
1053.914185	20.0
1081.896484	20.0
1100.051392	20.0
1142.796265	20.0
1202.892944	20.0
1204.804199	20.0
1246.105103	20.0
1295.012817	20.0
1425.459961	20.0
1438.682129	20.0
1447.520752	20.0
1504.459106	20.0
1515.153198	20.0
1533.967041	20.0
1554.025513	20.0
1557.822021	20.0
1628.083618	20.0
1629.11084	20.0
1653.069092	20.0
1729.382324	20.0
1788.554565	20.0
1830.410034	20.0
1843.723633	20.0
1848.568359	20.0
1862.951782	20.0
1975.984131	20.0
END IONS

BEGIN IONS
PEPMASS=321.133
CHARGE=1
MSLEVEL=2
SOURCE_INSTRUMENT=LC-ESI-qToF
FILENAME=P2_C3_conc_GE3_01_2421.mzXML
SEQ=*..*
IONMODE=Positive
ORGANISM=GNPS-LIBRARY
NAME=Mycophenolic acid_130117 M+H
PI=Cichewicz
DATACOLLECTOR=Luzzatto
SMILES=OC1=C2C(COC2=O)=C(C)C(OC)=C1C/C=C(CCC(O)=O)\C
INCHI=N/A
INCHIAUX=N/A
PUBMED=
SUBMITUSER=tal_lk
LIBRARYQUALITY=2
SPECTRUMID=CCMSLIB00000478521
USI=mzspec:GNPS:GNPS-LIBRARY:accession:CCMSLIB00000478521
SCANS=1391
91.054199	1564.0
92.057983	260.0
93.06839	252.0
103.054214	6416.0
104.05764	288.0
109.064117	1208.0
117.031586	520.0
121.064819	752.0
123.044205	400.0
131.049454	5268.0
132.05246	644.0
133.061874	576.0
134.104965	252.0
135.079254	3564.0
136.053528	344.0
136.080963	692.0
139.074631	756.0
142.079025	428.0
145.06308	608.0
147.040314	704.0
147.076004	416.0
148.051163	272.0
149.06012	2808.0
150.06192	720.0
150.78952	292.0
151.037796	1672.0
151.075714	652.0
152.076111	400.0
155.085052	452.0
157.101776	316.0
158.85849	264.0
159.044739	198288.0
159.456329	1932.0
159.489807	448.0
159.907028	300.0
160.047012	25844.0
160.083588	428.0
161.052841	1708.0
161.09874	608.0
161.257599	276.0
161.306427	308.0
162.062866	336.0
163.034958	616.0
163.074234	700.0
165.017334	352.0
165.054382	332.0
169.046555	636.0
169.09935	332.0
170.069717	252.0
172.128754	432.0
173.05928	448.0
173.093292	544.0
174.032242	316.0
175.036942	516.0
175.074738	2948.0
177.054092	67300.0
178.057343	5980.0
179.069305	7972.0
180.04039	860.0
180.073669	1132.0
181.045334	424.0
183.11409	268.0
184.092133	312.0
185.09668	688.0
187.108521	520.0
188.113312	412.0
189.088837	1688.0
189.125702	352.0
190.065994	280.0
191.034607	344.0
191.067291	624.0
192.040329	616.0
193.048645	1240.0
193.103073	340.0
194.05162	380.0
195.064865	28088.0
196.067566	1948.0
197.066162	520.0
199.076309	356.0
200.082031	376.0
201.051712	508.0
202.098907	620.0
203.069382	404.0
203.138184	424.0
205.050842	1248.0
205.995209	336.0
206.484573	272.0
206.560059	256.0
206.608978	300.0
206.939026	388.0
206.978394	468.0
207.031937	488.0
207.066483	427536.0
207.22406	272.0
207.253189	696.0
207.332382	384.0
207.407913	420.0
207.478943	396.0
207.536591	7204.0
207.869354	272.0
208.068314	63584.0
208.43013	288.0
208.671158	328.0
208.994553	452.0
209.069061	7356.0
209.290756	324.0
209.493927	276.0
209.614838	324.0
209.647049	308.0
209.677246	304.0
209.705734	340.0
210.071838	720.0
211.072906	392.0
211.107819	488.0
213.124985	744.0
214.09816	632.0
215.069229	572.0
215.105957	3580.0
216.110153	1184.0
217.044785	716.0
217.118088	568.0
217.618408	256.0
218.060242	320.0
219.064362	3080.0
220.069382	480.0
221.080292	3504.0
222.082809	404.0
223.059631	6148.0
224.065033	812.0
225.080063	368.0
226.099426	852.0
229.085464	532.0
229.119797	612.0
231.060425	488.0
231.103989	592.0
231.138702	432.0
233.078674	1408.0
235.073166	340.0
239.105438	2708.0
240.105591	288.0
241.085541	624.0
241.120377	768.0
242.091217	280.0
243.098434	268.0
245.084198	780.0
245.117706	256.0
246.081757	452.0
247.097122	2144.0
252.06604	352.0
253.085678	476.0
254.090057	384.0
255.067627	724.0
256.069061	448.0
257.11615	1200.0
259.095612	3092.0
260.100128	556.0
261.110962	3904.0
262.114563	660.0
267.101349	1620.0
269.078339	952.0
270.087738	2876.0
271.09433	616.0
273.110168	484.0
275.127991	127080.0
276.130035	13824.0
277.132233	2040.0
279.120056	396.0
285.111237	25152.0
286.114532	3208.0
287.120422	436.0
302.998779	364.0
303.056183	260.0
303.124146	199248.0
303.265564	256.0
303.4599	312.0
303.693054	2156.0
304.126404	33464.0
305.126617	2700.0
306.128418	488.0
321.133362	46796.0
322.13623	5544.0
323.139252	1068.0
324.33371	300.0
END IONS

BEGIN IONS
PEPMASS=391.284
CHARGE=0
MSLEVEL=2
SOURCE_INSTRUMENT=LC-ESI-qTof
FILENAME=f.amelnik/Rotten_Apple_new_mzXML/P1-A-4_P1-A-4_01_3642.mzXML;
SEQ=*..*
IONMODE=Positive
ORGANISM=GNPS-LIBRARY
NAME=Bis(2-ethylhexyl) phthalate M+H
PI=PDorrestein
DATACOLLECTOR=AMelnik
SMILES=CCCCC(CC)COC(=O)C1=CC=CC=C1C(=O)OCC(CC)CCCC
INCHI= 
INCHIAUX= 
PUBMED= 
SUBMITUSER=amelnik
LIBRARYQUALITY=3
SPECTRUMID=CCMSLIB00000574967
USI=mzspec:GNPS:GNPS-LIBRARY:accession:CCMSLIB00000574967
SCANS=907
149.030518	7948.0
150.03241	492.0
167.040543	1808.0
168.034271	252.0
279.162323	15100.0
280.164917	1664.0
391.094971	464.0
391.287079	183296.0
391.734436	412.0
392.100128	332.0
392.287445	32180.0
392.530914	292.0
393.289062	4580.0
394.288605	484.0
409.298218	924.0
410.285004	296.0
432.304962	760.0
END IONS

BEGIN IONS
PEPMASS=335.108
CHARGE=0
MSLEVEL=2
SOURCE_INSTRUMENT=LC-ESI-qTof
FILENAME=f.mice/SC_-Fe_+Fe_YEME_Langzeit_Anfang_2015/160113_Penicillin_G_V.mzXML;
SEQ=*..*
IONMODE=Positive
ORGANISM=GNPS-LIBRARY
NAME=Penicillin G M+H
PI=Bandow
DATACOLLECTOR=Senges
SMILES=CC1(C(N2C(S1)C(C2=O)NC(=O)CC3=CC=CC=C3)C(=O)O)C
INCHI=1S/C16H18N2O4S/c1-16(2)12(15(21)22)18-13(20)11(14(18)23-16)17-10(19)8-9-6-4-3-5-7-9/h3-7,11-12,14H,8H2,1-2H3,(H,17,19)(H,21,22)/t11-,12+,14-/m1/s1
INCHIAUX= 
PUBMED= 
SUBMITUSER=mice
LIBRARYQUALITY=3
SPECTRUMID=CCMSLIB00003739952
USI=mzspec:GNPS:GNPS-LIBRARY:accession:CCMSLIB00003739952
SCANS=4527
74.106209	36.0
91.114227	99.0
95.133118	34.0
98.080933	24.0
100.0886	27.0
113.095016	37.0
115.142357	36.0
120.132797	5.0
120.137581	5.0
121.15416	44.0
122.141251	8.0
122.146072	8.0
128.113251	209.0
128.202209	13.0
129.123276	35.0
136.080276	12.0
136.161758	8.0
145.127838	9.0
146.118271	14.0
146.123535	14.0
153.113098	16.0
159.162476	59.0
160.105698	208.0
161.107086	51.0
161.633926	10.0
162.106033	42.0
163.175003	43.0
165.037308	11.0
173.120239	20.0
173.131729	41.0
174.126907	69.0
175.124954	52.0
175.136505	29.0
176.137421	342.0
177.135391	65.0
178.118698	44.0
184.134872	25.0
185.131439	49.0
185.149261	8.0
189.120621	26.0
189.138626	17.0
194.057388	31.0
194.16687	22.0
200.100037	8.0
208.088959	15.0
213.170197	13.0
215.958282	25.0
217.95166	11.0
220.103119	38.0
229.078888	28.0
234.736359	5.0
234.743042	5.0
234.943756	11.0
237.063019	12.0
237.520325	37.0
238.9758	6.0
240.083893	37.0
240.110947	66.0
243.021759	30.0
243.164703	124.0
243.26001	20.0
245.177078	41.0
245.963821	22.0
247.170303	28.0
248.035843	26.0
252.858109	15.0
252.934479	20.0
255.844971	29.0
255.872894	8.0
255.935745	12.0
261.193542	12.0
261.200592	12.0
263.15863	17.0
268.983521	32.0
271.171722	27.0
273.159454	37.0
273.274902	14.0
274.937317	39.0
275.886383	22.0
278.117004	41.0
280.927002	11.0
281.490692	25.0
281.937653	27.0
282.994202	11.0
283.163116	8.0
284.95105	28.0
285.511414	47.0
286.981232	33.0
289.181885	454.0
289.939636	68.0
289.96936	9.0
290.162659	64.0
290.184967	105.0
290.348602	17.0
291.182343	93.0
291.197235	14.0
292.509888	23.0
292.928131	19.0
293.892792	33.0
293.94516	25.0
294.978973	17.0
295.286438	6.0
295.293945	6.0
295.931946	47.0
296.164795	18.0
297.880249	23.0
297.963135	9.0
298.958649	9.0
301.955231	31.0
306.699799	46.0
309.297058	12.0
318.173798	10.0
318.18158	10.0
328.575287	9.0
328.670227	39.0
331.160095	8.0
332.432404	12.0
332.766815	12.0
332.886261	7.0
334.01825	12.0
334.305542	25.0
334.36142	13.0
334.688812	27.0
334.760681	8.0
334.872528	7.0
335.048309	25.0
335.184143	10635.0
335.232117	31.0
335.264069	36.0
335.312042	28.0
335.336029	69.0
335.384003	29.0
335.40799	34.0
335.455963	14.0
335.487946	11.0
335.535919	15.0
335.663879	9.0
335.695862	37.0
335.743866	9.0
335.911865	12.0
336.023865	5.0
336.031891	5.0
336.18396	2490.0
336.231964	58.0
336.320038	5.0
336.328033	5.0
336.688446	9.0
336.904755	7.0
337.008911	7.0
337.040985	17.0
337.097076	14.0
337.185272	586.0
337.217316	43.0
337.257416	104.0
337.698486	10.0
337.770691	8.0
337.923157	13.0
337.963287	10.0
338.188019	121.0
338.220154	15.0
338.268311	39.0
338.364655	32.0
338.589539	8.0
338.742188	8.0
338.782379	20.0
338.870789	15.0
339.176239	22.0
339.224487	11.0
339.24057	90.0
339.353149	15.0
339.497894	10.0
340.181976	15.0
340.310791	16.0
340.769989	8.0
340.947296	9.0
341.26178	8.0
342.529083	12.0
343.531677	6.0
346.109558	6.0
346.832794	8.0
348.966156	10.0
357.201965	20.0
392.80835	20.0
457.406586	13.0
596.093201	16.0
610.946594	51.0
625.687988	28.0
633.981689	24.0
648.974487	39.0
668.266602	77.0
694.831665	8.0
719.312927	12.0
749.778137	12.0
985.887329	10.0
1229.252197	8.0
1921.208008	9.0
2799.421631	6.0
2799.444824	6.0
END IONS

BEGIN IONS
PEPMASS=148.04
CHARGE=1
MSLEVEL=2
SOURCE_INSTRUMENT=LC-ESI-Orbitrap
FILENAME=f.jjwang/standard/Standard_7(2).mzML;
SEQ=*..*
IONMODE=Positive
ORGANISM=GNPS-LIBRARY
NAME=Glutamic acid M+H
PI=Tie-Jun Ling
DATACOLLECTOR=Jing-Jing Wang
SMILES=C(CC(=O)O)C(C(=O)O)N
INCHI= 
INCHIAUX= 
PUBMED= 
SUBMITUSER=jjwang
LIBRARYQUALITY=3
SPECTRUMID=CCMSLIB00003740029
USI=mzspec:GNPS:GNPS-LIBRARY:accession:CCMSLIB00003740029
SCANS=118
52.764126	3969.574707
56.049778	522020.34375
57.033882	6872.618652
60.896843	4596.547852
60.986645	20732.988281
74.024048	6631.97168
78.997025	79948.984375
84.044411	10606926.0
84.081009	52169.84375
85.028397	257642.46875
85.078407	19516.021484
85.083961	173761.78125
97.007683	131960.53125
100.125519	5198.832031
102.054962	2622455.25
113.023224	8472.077148
120.023674	66069.59375
125.00235	6164.658691
130.007599	52197.773438
130.030289	54937.902344
130.049911	2192067.5
130.086441	29947.164062
131.034164	43233.914062
131.089783	56591.949219
137.12149	4472.137207
148.018539	95351.445312
148.060379	683536.875
END IONS

BEGIN IONS
PEPMASS=170.021
CHARGE=1
MSLEVEL=2
SOURCE_INSTRUMENT=LC-ESI-Orbitrap
FILENAME=f.daniel/Singel_Spectrum_Upload/Spectrum_Glyphosate_H.mgf;
SEQ=*..*
IONMODE=Positive
ORGANISM=GNPS-LIBRARY
NAME=Glyphosate [M+H+] M+H
PI=Pieter Dorrestein
DATACOLLECTOR=Daniel Petras
SMILES=C(C(=O)O)NCP(=O)(O)O
INCHI= 
INCHIAUX= 
PUBMED= 
SUBMITUSER=daniel
LIBRARYQUALITY=3
SPECTRUMID=CCMSLIB00004684327
USI=mzspec:GNPS:GNPS-LIBRARY:accession:CCMSLIB00004684327
SCANS=1
88.039902	107291200.0
92.050079	28876.40625
93.058296	22188.845703
109.077789	35696.261719
124.021568	2064692.75
163.815948	19847.960938
170.061249	665309.9375
END IONS

BEGIN IONS
PEPMASS=150.277
CHARGE=1
MSLEVEL=2
SOURCE_INSTRUMENT=LC-ESI-Orbitrap
FILENAME=f.Francesca90/rette droga triplicata/file convertiti/180813_MIX60-100PPB.mzXML;
SEQ=*..*
IONMODE=Positive
ORGANISM=GNPS-LIBRARY
NAME=Methamphetamine M+H
PI=Manuel Sergi
DATACOLLECTOR= 
SMILES=CC(CC1=CC=CC=C1)NC
INCHI= 
INCHIAUX= 
PUBMED= 
SUBMITUSER=Francesca90
LIBRARYQUALITY=3
SPECTRUMID=CCMSLIB00004722181
USI=mzspec:GNPS:GNPS-LIBRARY:accession:CCMSLIB00004722181
SCANS=67
50.015751	10973.793945
50.99334	5241.273926
51.021328	5807.335938
51.023746	35039.894531
52.031544	5849.785645
57.070404	5141.273926
58.065842	96149.414062
59.464088	5343.697266
59.781525	5561.769531
63.023735	11676.470703
65.039055	91666.335938
67.054794	29902.509766
69.033775	10674.737305
69.070786	11033.178711
70.065742	33386.648438
71.16996	6023.976074
71.871529	12351.764648
76.152046	8097.652344
77.039581	38573.542969
78.046593	6284.961426
78.452301	6902.416504
79.054817	32410.951172
81.070587	59435.140625
88.075836	13968.155273
89.038506	14626.337891
89.060188	78391.421875
90.047028	9081.487305
90.959953	49254.851562
91.032402	9675.462891
91.054665	28577170.0
91.146187	60631.78125
92.057495	1296078.25
92.064186	12511.133789
93.034424	7818.708984
93.070107	103098.054688
95.049583	26869.943359
95.085716	72508.796875
104.062553	9172.192383
105.069389	56745.71875
106.086067	10024.580078
107.049088	44748.167969
107.086082	105188.84375
109.010582	12101.390625
109.027855	15090.317383
109.064705	97839.742188
109.101212	73459.234375
111.044228	10823.654297
112.007103	7253.565918
114.053925	7107.302734
114.090897	9930.632812
118.94577	13081.651367
119.071358	66795.757812
119.086166	12613283.0
119.22184	24377.365234
120.088318	802027.0
120.098297	12628.180664
121.028427	86235.359375
121.065262	44085.382812
121.102036	61019.859375
122.032448	15015.514648
123.079948	140467.171875
123.117439	40274.632812
131.084564	14664.02832
132.101196	62042.789062
133.065353	32249.068359
133.100296	16689.466797
135.043716	1211958.125
136.047897	67049.648438
149.023544	512303.25
149.035614	14740.297852
149.059128	47510.652344
149.096222	105417.21875
149.132294	11384.085938
150.025833	106376.546875
150.067703	1733621.375
150.09314	74312.8125
150.127014	4431019.0
151.040039	13943.628906
151.074524	187646.90625
151.113113	119608.109375
151.13176	328698.21875
164.143204	9270.899414
169.049301	12831.026367
END IONS

BEGIN IONS
PEPMASS=366.112
CHARGE=1
MSLEVEL=2
SOURCE_INSTRUMENT=ESI-Orbitrap
FILENAME=DWDA_p_1_1_1.mzXML
SEQ=*..*
IONMODE=Positive
ORGANISM=GNPS-LIBRARY
NAME=Amoxicilin - Dark Web Drugs M+H
PI=Dorrestein
DATACOLLECTOR=A. Lu
SMILES=CC1(C(N2C(S1)C(C2=O)NC(=O)C(C3=CC=C(C=C3)O)N)C(=O)O)C
INCHI=InChI=1S/C16H19N3O5S/c1-16(2)11(15(23)24)19-13(22)10(14(19)25-16)18-12(21)9(17)7-3-5-8(20)6-4-7/h3-6,9-11,14,20H,17H2,1-2H3,(H,18,21)(H,23,24)/t9-,10-,11+,14-/m1/s1
INCHIAUX=N/A
PUBMED=N/A
SUBMITUSER=mpanitchpakdi
LIBRARYQUALITY=3
SPECTRUMID=CCMSLIB00005434444
USI=mzspec:GNPS:GNPS-LIBRARY:accession:CCMSLIB00005434444
SCANS=204
50.645176	1847.484375
57.474636	2002.215698
58.141235	1848.522827
58.995319	2414.128418
62.404057	1854.491821
68.695869	1861.978149
69.597359	2088.686035
70.028915	4718.480957
70.065628	83406.46875
70.069511	2504.464844
71.049362	7019.469238
75.253494	2002.759644
82.065086	2352.705322
86.00563	9960.018555
96.044525	14755.188477
98.060417	3407.135986
98.287392	2318.303711
99.044067	3056.875
106.065689	2244.32666
107.048485	7292.538574
110.059471	4732.560059
111.091759	2810.556152
113.033783	2660.939697
114.000923	905434.625
114.036682	23131.580078
114.055199	7969.434082
116.071053	9398.666016
122.06031	12376.260742
128.070404	3560.150879
133.029785	4272.783691
134.038223	4096.375488
134.060272	158786.609375
137.005249	27256.708984
137.070908	8444.689453
138.054916	2389.394043
139.021576	5732.87207
139.086899	3303.082764
142.050781	4903.659668
146.060013	2639.642578
153.036255	2852.305176
160.043228	103475.46875
160.056747	2956.159912
161.296982	2055.182861
162.055283	17182.390625
163.020538	5698.987305
165.037064	3205.122559
165.06517	49198.957031
167.080933	5686.634766
174.056137	3264.219238
178.032928	16353.650391
180.048065	58761.09375
183.076324	3312.806885
185.092316	3067.842285
187.051971	3116.528564
190.050308	42020.726562
193.060318	25832.431641
206.026245	13178.44043
208.041473	133396.15625
211.050919	5006.649902
211.071136	60102.183594
215.047394	6130.351074
216.101303	9511.015625
220.097137	2232.543701
227.049683	3591.78125
234.020615	33384.128906
255.044006	7484.480957
275.082458	10845.411133
277.10202	7432.799316
303.079102	5236.572266
305.095551	13936.791992
321.089996	21813.082031
349.084808	39908.117188
END IONS

BEGIN IONS
PEPMASS=293.097
CHARGE=1
MSLEVEL=2
SOURCE_INSTRUMENT=LC-ESI-qTof
FILENAME=f.MSV000082630/ccms_peak/raw_files/samples/Subject_32/18NAVY32_6_plasma.mzML;
SEQ=*..*
IONMODE=Positive
ORGANISM=GNPS-LIBRARY
NAME=Ethylenediaminetetraacetic acid EDTA M+H
PI=Dorrestein
DATACOLLECTOR=lfnothias
SMILES=C(CN(CC(=O)O)CC(=O)O)N(CC(=O)O)CC(=O)O
INCHI=InChI=1S/C10H16N2O8/c13-7(14)3-11(4-8(15)16)1-2-12(5-9(17)18)6-10(19)20/h1-6H2,(H,13,14)(H,15,16)(H,17,18)(H,19,20)
INCHIAUX= 
PUBMED= 
SUBMITUSER=lfnothias
LIBRARYQUALITY=3
SPECTRUMID=CCMSLIB00005435779
USI=mzspec:GNPS:GNPS-LIBRARY:accession:CCMSLIB00005435779
SCANS=209
51.100048	22982.816406
51.739052	29397.318359
53.916683	26109.833984
56.049885	596145.625
56.698219	24871.173828
57.285809	24781.386719
60.044781	730482.5625
66.929565	26315.923828
70.065292	33711.535156
74.060188	1354050.625
76.249931	27207.294922
83.045372	34803.257812
86.060013	2753904.5
87.063126	36267.859375
88.039238	2313402.0
90.807091	29346.978516
101.046936	124093.84375
102.05484	1264755.125
104.070602	417975.8125
110.822685	61136.671875
114.05481	2929424.75
116.070526	66284.34375
132.065323	25285256.0
133.068924	499495.40625
134.044373	240188.453125
160.060272	37332936.0
161.063797	1097205.25
238.470108	38956.492188
247.091782	853226.625
248.097321	38364.105469
293.097229	2811490.75
294.099854	164294.828125
END IONS

BEGIN IONS
PEPMASS=169.047
CHARGE=1
MSLEVEL=2
SOURCE_INSTRUMENT=ESI-Orbitrap
FILENAME=GNPS00001_B11_p.mzXML
SEQ=*..*
IONMODE=Positive
ORGANISM=GNPS-LIBRARY
NAME=ADIPATE M+Na
PI=Dorrestein
DATACOLLECTOR=Fernando Vargas
SMILES=OC(=O)CCCCC(O)=O
INCHI="InChI=1S/C6H10O4/c7-5(8)3-1-2-4-6(9)10/h1-4H2,(H,7,8)(H,9,10)"
INCHIAUX=N/A
PUBMED=na
SUBMITUSER=mpanitchpakdi
LIBRARYQUALITY=1
SPECTRUMID=CCMSLIB00005436137
USI=mzspec:GNPS:GNPS-LIBRARY:accession:CCMSLIB00005436137
SCANS=31
56.965359	4006.241699
59.282822	1637.142822
64.870293	2159.782715
67.05468	2053.488281
67.935303	1940.865112
68.346504	2173.745605
69.033867	5247.484375
69.070419	2030.737915
79.054527	8835.305664
81.070107	65535.878906
93.083839	1845.128418
95.085609	7497.851074
97.229141	2270.880615
99.080582	11772.646484
107.960091	2894.167725
109.064941	185067.109375
109.101295	3265.35498
110.114059	2140.407959
111.044197	30513.291016
113.963722	2808.333496
116.181488	1900.916016
122.943977	1883.284668
123.075974	4783.4375
123.080521	89713.03125
125.019012	26616.021484
127.075584	18257.158203
130.016922	1941.699829
130.982117	8512.296875
132.392624	1846.663696
135.141708	1803.629395
136.241241	2370.889404
137.018921	5557.086914
137.217499	1967.717285
141.091202	8002.725098
142.710602	1929.988647
151.039291	2939.070312
151.075638	7177.483887
151.111877	5632.124023
151.31543	2608.092773
154.907211	11184.344727
155.029617	37043.226562
155.974976	2252.888672
159.050583	2320.685303
161.065979	3196.493652
163.105408	1958.276978
163.978378	2264.765381
168.92337	8752.015625
169.047211	11566.362305
169.086151	26829.658203
173.040268	5596.181641
175.485794	2091.266113
187.045578	2385.297119
END IONS

BEGIN IONS
PEPMASS=175.058
CHARGE=1
MSLEVEL=2
SOURCE_INSTRUMENT=ESI-Orbitrap
FILENAME=GNPS00001_F9_p.mzXML
SEQ=*..*
IONMODE=Positive
ORGANISM=GNPS-LIBRARY
NAME=RIBITOL M+Na
PI=Dorrestein
DATACOLLECTOR=Fernando Vargas
SMILES=OC[C@H](O)[C@H](O)[C@H](O)CO
INCHI="InChI=1S/C5H12O5/c6-1-3(8)5(10)4(9)2-7/h3-10H,1-2H2/t3-,4+,5-"
INCHIAUX=N/A
PUBMED=na
SUBMITUSER=mpanitchpakdi
LIBRARYQUALITY=1
SPECTRUMID=CCMSLIB00005436148
USI=mzspec:GNPS:GNPS-LIBRARY:accession:CCMSLIB00005436148
SCANS=26
51.379513	1597.897339
52.315639	1725.028442
52.627575	1508.185059
56.965298	5620.893066
60.05603	2438.071533
67.301193	1904.415527
70.065475	3237.817871
71.724579	1913.505249
72.081451	1714.355347
76.221291	2140.704102
83.198067	1878.664062
84.959908	42920.730469
85.798988	1906.016724
88.363029	1892.520386
92.119499	1911.404053
92.498886	1933.751465
96.249359	2132.129883
98.975327	2814.441406
100.991005	4777.35498
102.970428	7596.276855
108.295799	2297.747559
109.757378	2039.71936
111.473686	2037.003662
114.054993	2885.039795
117.979774	2912.709473
118.963341	5958.623047
119.001717	4032.756348
120.019684	2153.338379
129.020096	2879.060547
132.978989	6240.956543
133.101562	3761.893311
146.655823	2093.232666
146.994659	2411.644287
147.08493	2293.170166
147.116806	2556.156006
158.994522	2479.5
159.666428	2748.083008
161.010284	29180.199219
161.017441	3874.125732
175.057983	761158.5625
175.112167	3022.480225
175.119797	3701.243164
175.148621	3563.192383
184.658966	2023.920898
END IONS

BEGIN IONS
PEPMASS=138.055
CHARGE=1
MSLEVEL=2
SOURCE_INSTRUMENT=ESI-Orbitrap
FILENAME=GNPS00001_C12_p.mzXML
SEQ=*..*
IONMODE=Positive
ORGANISM=GNPS-LIBRARY
NAME=SALICYLAMIDE M+H
PI=Dorrestein
DATACOLLECTOR=Fernando Vargas
SMILES=NC(=O)C1=CC=CC=C1O
INCHI="InChI=1S/C7H7NO2/c8-7(10)5-3-1-2-4-6(5)9/h1-4,9H,(H2,8,10)"
INCHIAUX=N/A
PUBMED=na
SUBMITUSER=mpanitchpakdi
LIBRARYQUALITY=1
SPECTRUMID=CCMSLIB00005436155
USI=mzspec:GNPS:GNPS-LIBRARY:accession:CCMSLIB00005436155
SCANS=22
51.023224	2484.716553
53.002541	2618.260986
57.466774	1989.701782
57.95034	1825.067261
63.023159	2198.359131
64.927773	3219.166504
65.03894	53018.683594
68.9431	2695.689209
68.952431	2063.778076
71.973297	2342.647949
72.624825	2202.870361
86.793533	2488.105957
88.952713	3570.879883
93.031219	2406.157715
93.033638	30180.246094
94.304855	2122.58374
95.04921	318470.21875
95.085617	3290.805664
95.221977	2629.030762
96.937767	4592.316406
97.007652	5879.085449
98.036285	4932.949219
105.0448	3236.263672
105.962807	3449.461914
106.969032	7387.010254
111.023308	33776.511719
111.044189	26527.228516
113.019226	3669.578369
115.014671	6594.601562
120.01973	4530.46875
120.04467	5940.799316
120.992393	6992.851562
121.028481	3921823.0
122.019402	4454.598633
122.031845	37074.265625
123.964554	24206.763672
124.014999	16069.036133
125.019089	2603.049561
125.038986	39765.90625
132.95871	4187.642578
138.055038	2060351.875
138.091125	12810.09375
139.039032	29111.990234
139.058258	11135.923828
139.075363	5883.860352
158.945236	4899.940918
END IONS

BEGIN IONS
PEPMASS=109.065
CHARGE=1
MSLEVEL=2
SOURCE_INSTRUMENT=ESI-Orbitrap
FILENAME=GNPS00001_C3_p.mzXML
SEQ=*..*
IONMODE=Positive
ORGANISM=GNPS-LIBRARY
NAME=BENZYL ALCOHOL M+H
PI=Dorrestein
DATACOLLECTOR=Fernando Vargas
SMILES=OCC1=CC=CC=C1
INCHI="InChI=1S/C7H8O/c8-6-7-4-2-1-3-5-7/h1-5,8H,6H2"
INCHIAUX=N/A
PUBMED=na
SUBMITUSER=mpanitchpakdi
LIBRARYQUALITY=1
SPECTRUMID=CCMSLIB00005436190
USI=mzspec:GNPS:GNPS-LIBRARY:accession:CCMSLIB00005436190
SCANS=48
52.339085	1342.598755
53.039188	7640.556641
55.054813	3578.650146
56.965355	4392.339355
57.622292	1571.54187
60.309277	1437.472534
60.987034	2176.119629
62.797333	1905.702393
64.392212	1462.549927
65.039032	2132.677002
67.054672	42036.34375
69.033943	5709.527344
78.764969	1678.31604
78.997353	8131.941406
79.018181	6713.770996
79.054543	58768.820312
79.953125	1616.648804
80.992867	3830.117432
81.033783	3514.625732
81.070152	111447.84375
85.773262	1709.092407
86.992928	3345.188965
87.991615	1642.208862
88.023178	2644.568848
90.230652	2018.968872
91.054398	2018.343384
94.041649	3217.719238
95.008591	1998.947876
95.049438	2938.101318
95.564346	1740.364258
96.910149	1661.948242
96.977882	1974.858032
97.00779	34547.417969
99.003426	64388.382812
100.024696	4004.070068
105.003403	8777.418945
107.085609	2204.363037
108.08062	1989.424194
109.06501	83007.984375
109.07618	4880.009766
109.084511	3396.440674
109.101364	54358.703125
111.023445	23154.027344
113.019081	99844.609375
125.039169	2439.324219
127.034828	2740.927734
END IONS

BEGIN IONS
PEPMASS=290.174
CHARGE=1
MSLEVEL=2
SOURCE_INSTRUMENT=LC-ESI-qTof
FILENAME=f.pilepoga/Alkalo ANGERS/Atropine.mgf;
SEQ=*..*
IONMODE=Positive
ORGANISM=GNPS-LIBRARY
NAME=Atropine M+H
PI=Le Pogam
DATACOLLECTOR=Le Pogam
SMILES=CN1[C@@H]2CC[C@H]1CC(C2)OC(=O)C(CO)C3=CC=CC=C3
INCHI=InChI=1S/C17H23NO3/c1-18-13-7-8-14(18)10-15(9-13)21-17(20)16(11-19)12-5-3-2-4-6-12/h2-6,13-16,19H,7-11H2,1H3/t13-,14+,15?,16?
INCHIAUX= 
PUBMED= 
SUBMITUSER=pilepoga
LIBRARYQUALITY=3
SPECTRUMID=CCMSLIB00005720151
USI=mzspec:GNPS:GNPS-LIBRARY:accession:CCMSLIB00005720151
SCANS=1
103.053085	7309.788086
108.079262	726.182922
121.063591	1047.139038
124.110825	24379.859375
124.211372	595.65802
125.117775	542.718018
142.12175	1866.359009
290.173615	2580.437012
END IONS

BEGIN IONS
PEPMASS=125.06
CHARGE=1
MSLEVEL=2
SOURCE_INSTRUMENT=LC-ESI-qTof
FILENAME=f.amoykang/LD-KY-F77-55-E-4-3-1.mzML;
SEQ=*..*
IONMODE=Positive
ORGANISM=GNPS-LIBRARY
NAME=Orcinol M+H
PI=Lin Wenhan
DATACOLLECTOR=Chen Dawei
SMILES= OC1=CC(O)=CC(C)=C1
INCHI= InChI=1S/C7H8O2/c1-5-2-6(8)4-7(9)3-5/h2-4,8-9H,1H3
INCHIAUX= 
PUBMED= 
SUBMITUSER=amoykang
LIBRARYQUALITY=3
SPECTRUMID=CCMSLIB00005721071
USI=mzspec:GNPS:GNPS-LIBRARY:accession:CCMSLIB00005721071
SCANS=595
53.891613	242.301483
53.891987	449.808777
53.892361	573.816528
53.892738	546.467957
53.893112	382.035889
55.016972	225.420105
55.017357	603.30658
55.017742	998.218262
55.018131	1148.130249
55.018517	934.627136
55.018906	508.075989
55.019291	144.839325
55.053356	245.791733
55.053745	740.260559
55.054131	1255.162842
55.05452	1444.707031
55.054905	1161.512939
55.055294	630.763123
55.055679	247.326523
56.048428	385.392517
56.048824	969.440247
56.049225	2223.95166
56.049622	3103.447998
56.050018	2547.974854
56.050419	1258.781982
56.050816	568.555054
56.051212	212.349106
56.963425	254.552399
56.963833	1010.71051
56.964237	2830.96875
56.964645	4775.621094
56.965054	6066.202148
56.965462	4613.403809
56.96587	2638.125977
56.966278	757.543945
56.966686	38.335278
58.503319	157.079086
58.503742	533.638611
58.504166	1146.39209
58.504589	1592.130371
58.505016	1544.497192
58.50544	1062.304199
58.505863	499.802917
58.506287	158.609421
58.557663	281.969513
58.558086	506.421539
58.55851	595.408813
58.558937	485.840546
58.559361	252.971512
58.686176	225.688858
58.686604	459.157959
58.687031	605.554077
58.687458	563.596375
58.687881	353.955505
60.499943	190.565369
60.500389	569.17334
60.500835	950.425537
60.501282	1062.29895
60.501728	826.692261
60.502174	427.890747
60.956253	360.371704
60.956707	957.477783
60.957157	2451.674072
60.957607	3741.763428
60.958061	3664.385498
60.958511	2268.133545
60.958961	908.013611
60.959412	407.242828
67.052574	163.807831
67.053093	539.028564
67.053619	1001.08075
67.054138	1235.268066
67.054657	1041.040527
67.055176	565.889832
67.055702	165.47673
67.507904	374.962006
67.50843	1176.522949
67.508957	3402.3396
67.509483	5896.94043
67.51001	7793.675781
67.510529	6175.54541
67.511055	3555.727295
67.511581	1075.77478
67.512108	23.503546
68.010696	468.881317
68.011223	877.787231
68.011757	1071.298828
68.012291	900.86792
68.012817	500.862823
68.013351	135.844254
68.047401	323.373749
68.047935	702.895813
68.048462	2071.986816
68.048996	3555.005371
68.04953	4347.566895
68.050064	3279.192871
68.050591	1893.716675
68.051125	548.657227
68.051659	170.763412
69.032433	480.87796
69.032974	868.430298
69.033524	1012.102844
69.034065	794.863708
69.034607	389.409698
69.043312	392.864288
69.043854	878.895569
69.044395	1328.141724
69.044945	1455.074219
69.045486	1179.019775
69.046028	697.796326
69.046577	294.423615
69.504135	212.991837
69.504684	539.826904
69.505234	1829.657104
69.505783	3179.554932
69.506332	3980.883789
69.506882	2883.851074
69.507439	1509.868286
69.507988	239.669159
70.01123	449.981415
70.011787	997.912048
70.012344	1431.984619
70.012901	1431.989868
70.013451	1009.950439
70.014008	475.917572
70.062912	162.713898
70.063469	507.716553
70.064026	1245.383179
70.064583	2852.05542
70.06514	3517.275146
70.065697	2508.919189
70.066254	1292.533691
70.066803	145.621628
70.067917	396.191162
70.068474	551.153076
70.069031	628.375854
70.069588	575.223755
70.070145	409.158661
71.009293	462.678162
71.009865	665.176941
71.010429	682.326477
71.010994	508.385071
71.011566	263.649445
71.014404	394.024017
71.014969	574.633118
71.015533	651.111511
71.016106	575.653381
71.01667	386.368805
71.047325	219.487854
71.04789	650.078857
71.048454	1108.344727
71.049026	1300.770142
71.049591	1088.791748
71.050163	633.484375
71.050728	243.596664
72.006836	200.701096
72.007416	607.876892
72.007996	1204.957886
72.008575	1682.167358
72.009155	1716.758423
72.009727	1287.875366
72.010307	696.820618
72.010887	263.039459
76.512856	294.82016
76.513489	815.591858
76.51413	1968.847656
76.514763	3104.735107
76.515396	2987.140381
76.516029	1814.168823
76.516663	654.082214
76.517303	196.145874
78.031395	294.223724
78.032043	794.908569
78.0327	1883.409058
78.033356	2976.875
78.034004	2973.27417
78.03466	1362.513794
78.035316	619.854126
78.035965	159.105576
78.510666	394.920197
78.51133	688.52417
78.511986	783.280273
78.512642	621.849609
78.513306	337.478271
79.015015	434.847473
79.015678	1498.896484
79.016342	5080.553711
79.017014	9373.255859
79.017677	13103.113281
79.018341	11106.411133
79.019005	6681.344727
79.019676	2547.499268
79.02034	701.610291
79.021004	302.148071
79.026993	322.999756
79.027664	554.285156
79.028328	668.067139
79.028992	598.684082
79.029663	394.360809
79.051643	193.975525
79.052315	629.34137
79.052979	1801.484009
79.053642	3026.848389
79.054314	3460.646729
79.054977	2389.85791
79.055649	1199.693604
79.056313	367.273712
79.517212	255.843582
79.517883	1784.603271
79.518555	3705.054199
79.519226	5982.943848
79.519897	6971.61377
79.520569	4854.932129
79.52124	2486.326904
79.521912	398.197601
80.013947	365.307037
80.014626	754.575073
80.015305	1020.738892
80.015984	965.404785
80.016663	619.840027
80.017342	221.842682
80.046585	223.377777
80.047264	1392.831787
80.047951	4479.96582
80.04863	8063.555176
80.049309	11136.96875
80.049988	9440.720703
80.050667	5664.734863
80.051346	2162.541992
80.052025	385.757538
81.011162	163.607422
81.011856	1120.297852
81.01255	4075.556152
81.013237	7828.911621
81.013931	11429.699219
81.014626	10380.162109
81.015312	6502.443848
81.016006	2949.881348
81.016693	967.529053
81.017387	297.516144
81.030678	339.814911
81.031372	1056.411743
81.032059	3156.018799
81.032753	5422.25293
81.033447	7075.902344
81.034134	5471.907227
81.034828	3135.377197
81.035522	887.558411
81.036209	62.980171
81.042366	178.77887
81.04306	1234.665894
81.043747	2699.195068
81.044441	4155.774902
81.045135	3857.521729
81.045822	2260.419678
81.046516	809.704834
81.047211	402.102417
81.067276	121.927986
81.067963	1059.950684
81.068657	2621.225586
81.069351	4281.524414
81.070045	4603.415039
81.070732	3076.661133
81.071426	1531.750732
81.072121	468.951416
82.062332	161.681412
82.063042	1322.188477
82.063744	3031.453369
82.064453	4885.735352
82.065155	5215.883301
82.065857	3546.794434
82.066566	1855.93811
82.067268	540.89386
83.04673	369.624481
83.047455	973.216248
83.048172	2201.093506
83.048889	2943.964111
83.049606	2239.920898
83.050323	1171.84082
83.051041	501.610382
83.05751	350.221893
83.058228	1419.108398
83.058945	3840.527344
83.059662	6425.043457
83.060379	7793.030273
83.061096	5708.224609
83.061813	3170.592285
83.062531	887.907104
83.063248	25.55287
84.040848	189.853088
84.04158	853.883667
84.042313	3257.216553
84.043045	7818.760254
84.04377	12802.624023
84.044502	14707.256836
84.045235	10342.988281
84.045967	5548.544922
84.046692	1473.008789
84.047424	69.787048
84.078064	509.310822
84.078796	2393.102295
84.079529	5539.672363
84.080261	8955.685547
84.080994	9550.510742
84.081726	6328.11084
84.082451	3124.778076
84.083183	765.03125
84.083916	152.624069
84.956161	102.268425
84.956909	712.128845
84.957649	2812.407715
84.958389	6133.601562
84.959137	9710.628906
84.959877	10102.435547
84.960617	6676.466309
84.961365	3330.621338
84.962105	941.281555
84.962845	254.86969
85.026741	253.744476
85.027481	615.556091
85.028229	887.585999
85.028969	857.528809
85.029716	551.793396
85.049789	453.69809
85.050529	853.765076
85.051277	951.509521
85.052017	689.041687
85.052765	320.766235
85.055779	382.241882
85.056526	657.627075
85.057266	2459.125732
85.058006	4410.276367
85.058754	5921.63916
85.059494	4719.89502
85.060242	2770.565674
85.060982	909.598328
85.061729	155.169785
86.058136	345.131531
86.058891	756.613464
86.059654	1020.508301
86.06041	935.025818
86.061165	563.525879
88.01973	78.046631
88.020515	644.395081
88.021294	2419.460449
88.022079	4620.206543
88.022865	6671.789551
88.023643	5956.118652
88.024429	3614.043945
88.025208	1467.127563
88.025993	176.433701
88.278664	286.264801
88.279449	582.356384
88.280235	760.488098
88.281021	708.080261
88.281807	491.935669
88.522163	236.938873
88.522949	737.231323
88.523743	1430.250854
88.524529	3083.06665
88.525322	2796.643555
88.526108	1654.66626
88.526901	747.496643
88.527687	300.486053
90.017548	504.040955
90.018364	1078.206665
90.019173	1489.793091
90.019981	1438.418335
90.02079	976.170532
90.021599	440.399231
90.524155	298.243439
90.524971	682.295776
90.525787	935.616272
90.526604	873.371948
90.52742	547.074463
91.522041	304.246399
91.522873	573.058716
91.523705	720.180237
91.524536	632.091187
91.525368	371.028595
95.021233	180.129623
95.02211	559.766113
95.022987	1068.160034
95.023872	1395.217041
95.02475	1338.639404
95.025627	969.474426
95.026505	529.30896
95.04583	448.109161
95.046707	1479.085938
95.047585	3133.951172
95.048462	4860.12793
95.049347	4852.456055
95.050224	3039.094238
95.051102	1313.633789
95.051979	137.234863
96.038429	530.750305
96.039322	962.04248
96.040215	1348.202759
96.041107	4055.82666
96.042	13709.171875
96.042892	28493.490234
96.043785	44297.949219
96.044678	45090.230469
96.04557	29359.054688
96.046463	14309.121094
96.047356	3789.810791
96.048248	840.484619
96.049133	549.816223
96.050026	269.187164
96.065132	448.955383
96.066025	1793.718872
96.066917	3555.678467
96.06781	5254.438477
96.068703	4705.312988
96.069595	2814.78418
96.070488	1110.723877
96.071381	409.37381
97.025757	494.459381
97.026665	1092.351685
97.027573	1608.084106
97.028481	1685.320068
97.029381	1262.241333
97.030289	641.721863
97.031197	195.252136
97.035728	255.616837
97.036636	579.384705
97.037544	1436.960815
97.038445	2746.475098
97.039352	3860.143311
97.04026	3240.912354
97.041168	1885.170288
97.042068	674.593628
97.042976	419.159027
97.044792	544.285339
97.0457	925.661865
97.0466	1353.727417
97.047508	1572.824829
97.048416	1394.561646
97.049324	907.918274
97.050232	408.930542
97.062012	155.782791
97.06292	578.869019
97.063828	1056.62561
97.064735	1286.278809
97.065643	1127.320435
97.066551	705.335754
97.067451	280.685699
97.072052	75.912033
97.07296	806.82074
97.073868	3255.924805
97.074776	6514.432617
97.075684	9675.761719
97.076584	8739.336914
97.077492	5318.519531
97.0784	2156.637939
97.079308	433.102142
98.056931	381.814819
98.057846	1421.388794
98.058769	2707.24707
98.059692	3803.868652
98.060608	3082.290527
98.061531	1720.666382
98.062454	438.76062
99.041985	359.424164
99.042915	645.763672
99.043854	747.73291
99.044785	595.84314
99.045723	301.845795
100.022034	264.06604
100.02298	608.499756
100.023926	785.523132
100.024879	647.787109
100.025826	314.305389
101.525002	268.780609
101.52597	644.315002
101.526939	989.2854
101.527908	1070.203613
101.528877	836.805054
101.529846	450.32193
102.967865	550.372803
102.968857	815.930542
102.969849	863.440002
102.97084	649.325989
102.971832	314.752838
106.026115	485.034607
106.027153	983.471069
106.028183	1289.966675
106.029221	1165.100342
106.030258	707.314087
106.031288	245.246658
107.046783	362.527283
107.047836	699.592102
107.048882	867.397522
107.049934	735.307251
107.05098	413.833282
107.057281	496.089355
107.058334	996.007446
107.059387	1392.641968
107.060432	1404.498535
107.061485	1011.798401
107.062538	490.601166
107.082497	379.251312
107.083542	906.538513
107.084595	1376.899902
107.085648	1459.399658
107.0867	1088.870483
107.087746	540.183044
108.007721	218.524277
108.008789	576.381836
108.00985	1044.386963
108.010918	1341.317383
108.011978	1252.926514
108.013046	832.873352
108.014107	358.905304
108.039642	290.886322
108.04071	1201.437378
108.041771	4164.506348
108.042839	7792.043457
108.043907	11178.336914
108.044968	9885.899414
108.046036	6015.893066
108.047096	2473.816895
108.048164	532.188171
109.023613	183.191864
109.024689	1309.579834
109.025772	4839.689453
109.026848	8806.539062
109.027931	12156.103516
109.029007	10143.373047
109.03009	6070.009766
109.031166	2346.419678
109.032249	572.411011
109.033325	20.899416
109.036751	324.626801
109.037834	698.675964
109.03891	1006.475891
109.039993	941.864136
109.041069	551.300232
109.073463	411.395508
109.074547	805.785583
109.075623	1047.863892
109.076706	945.13147
109.077789	571.12561
109.078865	192.37468
112.036728	326.233704
112.037849	783.995056
112.038979	1113.916138
112.0401	1068.227295
112.041229	691.470581
112.042351	269.450134
112.996292	115.510025
112.997437	556.080688
112.998573	1092.504639
112.99971	1346.934814
113.000847	1128.852417
113.001991	632.481201
113.003128	204.957306
113.02951	9.692459
113.030655	758.596313
113.031792	2766.946533
113.032928	5306.138672
113.034073	7800.653809
113.03521	7186.344727
113.036346	4448.295898
113.037491	1890.199463
113.038628	355.883484
118.827194	509.245544
118.828423	770.059753
118.829651	791.047424
118.830879	561.274597
118.832108	251.423355
120.383583	391.050842
120.384834	665.575378
120.386086	761.376038
120.387337	623.550293
120.388596	355.241577
123.049484	586.976135
123.050781	2638.269287
123.052071	9350.337891
123.053368	18467.923828
123.054657	27967.0625
123.055954	26841.464844
123.057251	16972.306641
123.05854	7863.893555
123.059837	1970.661621
123.061134	389.398804
123.074722	127.70887
123.076019	658.938477
123.077316	2348.028809
123.078606	5661.619629
123.079903	9438.320312
123.0812	11108.398438
123.082489	7939.480469
123.083786	3660.200928
123.085083	925.457092
123.088219	1574.151978
123.089516	6574.452637
123.090805	10344.998047
123.092102	10633.807617
123.093399	7143.91748
123.094696	5729.166992
123.095985	12779.166992
123.097282	31667.416016
123.098579	51679.566406
123.099869	60121.519531
123.101166	42398.835938
123.102463	22591.195312
123.10376	6162.01416
123.105049	1520.032715
123.106346	417.028046
124.029755	371.938751
124.031059	1406.130981
124.032372	1746.632324
124.033684	4595.605469
124.034988	17455.914062
124.036301	55555.710938
124.037613	99094.109375
124.038918	135845.515625
124.04023	113314.84375
124.041542	67988.710938
124.042847	26195.716797
124.044159	6757.491699
124.045471	1612.167236
124.046776	1093.313477
124.048088	816.369629
124.053329	81.166107
124.054642	944.148193
124.055954	2108.306396
124.057259	3970.061523
124.058571	4888.785645
124.059883	3198.511963
124.061188	1322.436035
124.0625	85.515587
124.070366	168.097763
124.071671	1679.014038
124.072983	4939.530762
124.074295	9386.423828
124.075607	12931.148438
124.076912	11439.037109
124.078224	7068.328613
124.079536	3742.025391
124.080849	3434.653076
124.082146	10369.15332
124.083458	35361.0
124.08477	70165.796875
124.086082	106767.609375
124.087395	103787.40625
124.088699	66385.578125
124.090012	31366.060547
124.091324	9051.863281
124.092636	3115.134521
124.093941	2644.204346
124.095253	1577.201416
124.096565	1167.787109
124.09919	60.888813
124.100502	2699.715332
124.101814	5897.435059
124.103127	6364.287109
124.104439	5162.844238
124.105751	3224.370605
124.107056	930.951599
124.108368	378.121246
124.10968	951.943604
124.110992	1829.373779
124.112305	1725.173218
124.113609	1038.185913
124.114922	402.455841
125.02182	588.27594
125.02314	822.78894
125.024467	871.071167
125.025795	781.700867
125.027115	637.624146
125.028442	502.773407
125.031097	532.049866
125.032417	2377.188965
125.033745	4167.219238
125.035072	4388.668457
125.0364	2817.116943
125.03772	1477.828491
125.039047	2120.707275
125.040375	5131.493652
125.041702	8163.689453
125.043022	9052.927734
125.04435	6204.310547
125.045677	3096.465576
125.047005	571.812256
125.054955	643.061279
125.056282	2923.545898
125.05761	6239.651367
125.058937	9596.973633
125.060265	9802.768555
125.061584	6404.786133
125.062912	2950.746826
125.06424	1181.904419
125.065567	2412.991211
125.066895	8946.505859
125.068214	23374.382812
125.069542	39342.917969
125.070869	47850.375
125.072197	34939.027344
125.073524	19584.994141
125.074852	6101.160156
125.076172	1734.677368
125.077499	1369.866821
125.078827	2822.180176
125.080154	4274.884277
125.081482	4929.661133
125.082809	3578.548096
125.084129	1471.371826
125.085457	609.427795
125.086784	1574.012451
125.088112	4129.961426
125.089439	6804.530273
125.090767	7114.574219
125.092094	4335.037109
125.093414	2015.629395
125.094742	322.562958
125.102402	392.836975
125.103729	3397.774414
125.105057	7105.776855
125.106384	11011.707031
125.107712	10523.196289
125.109039	6635.058594
125.110359	2985.167236
125.111687	786.645447
125.113014	291.333923
126.017784	435.652527
126.019127	1107.948975
126.020462	2518.340088
126.021805	3284.525635
126.023148	2518.446045
126.02449	1414.25061
126.025833	472.061615
126.047295	563.736633
126.048637	600.668945
126.04998	2195.976562
126.051323	8101.67627
126.052658	17079.087891
126.054001	26961.773438
126.055344	27638.080078
126.056686	17748.25
126.058029	8844.470703
126.059372	2483.512695
126.060715	1197.324951
126.062057	3043.045654
126.0634	7628.455566
126.064735	12929.890625
126.066078	14829.719727
126.067421	10687.668945
126.068764	5576.332031
126.070107	1856.37793
126.071449	1069.577759
126.072792	1974.974243
126.074135	3472.897461
126.075478	4492.639648
126.07682	4107.601562
126.078163	2514.523438
126.079498	1228.328979
126.080841	623.286377
126.086212	1652.062866
126.087555	7142.787109
126.088898	16326.461914
126.09024	26541.929688
126.091583	28620.736328
126.092926	19148.169922
126.094269	9847.15625
126.095612	2830.492432
126.096954	939.786499
126.098297	1110.743896
126.09964	2032.179565
126.100983	3063.419922
126.102325	3253.924561
126.103668	1520.136963
126.105011	895.21875
126.106354	405.933624
126.122215	28.758924
126.123558	894.932434
126.124901	2910.766357
126.126244	5081.868164
126.127586	6287.13916
126.128929	4640.805664
126.130272	2627.464355
126.131622	824.462036
126.132965	199.856857
126.88871	434.755585
126.890068	739.722046
126.891426	825.354492
126.892776	641.401428
126.894135	335.817352
127.008102	439.135559
127.00946	825.681458
127.010818	3162.248779
127.012177	10604.160156
127.013535	19769.220703
127.014893	28222.261719
127.016251	24952.5625
127.017609	15405.611328
127.018959	6602.187012
127.020317	1736.435181
127.021675	357.757385
127.02977	154.882416
127.031128	732.722168
127.032486	770.7995
127.033844	2767.856201
127.035202	9959.488281
127.036552	21617.560547
127.03791	34554.429688
127.039268	36756.070312
127.040627	24257.095703
127.041985	12612.945312
127.043343	3811.676514
127.044701	2115.770752
127.046059	5114.430664
127.047417	12165.730469
127.048775	20082.328125
127.050133	23053.380859
127.051491	16764.785156
127.052849	8936.588867
127.054207	2864.621338
127.055565	843.82251
127.056923	763.317688
127.058281	1276.526489
127.059639	1514.682007
127.060997	584.121704
127.082726	503.515594
127.084084	1108.842529
127.085442	1681.2771
127.0868	1799.689819
127.088158	1361.807861
127.089516	712.209839
127.090874	308.476501
127.092232	328.44577
127.09359	606.865173
127.094948	853.655762
127.096306	877.801208
127.097664	668.927063
127.09903	353.615082
140.029297	336.915863
140.030869	701.532288
140.03244	1044.077271
140.034012	1115.08374
140.035583	830.494202
140.037155	389.890381
172.709579	388.884735
172.711731	635.883423
172.713882	743.677307
172.716034	645.359436
172.718185	397.960175
245.172791	460.848541
245.176437	750.876465
245.180069	830.525757
245.183716	661.99176
245.187363	373.352844
273.81601	527.540771
273.820312	869.984436
273.824585	970.888489
273.828888	756.263489
273.833191	388.833588
END IONS

BEGIN IONS
PEPMASS=307.227
CHARGE=1
MSLEVEL=2
SOURCE_INSTRUMENT=ESI-qTof
FILENAME=stanozolol/base_de_donnee_mZxML/h_61.mzXML
SEQ=*..*
IONMODE=Positive
ORGANISM=GNPS-LIBRARY
NAME=h_61_17_epioxandrolone M+H
PI=Mehdi Beniddir
DATACOLLECTOR=Anis Elloumi
SMILES=O=C1OC[C@@]2(C)C(CCC3C2CC[C@@]4(C)C3CC[C@@]4(C)O)C1
INCHI=InChI=1S/C19H30O3/c1-17-11-22-16(20)10-12(17)4-5-13-14(17)6-8-18(2)15(13)7-9-19(18,3)21/h12-15,21H,4-11H2,1-3H3/t12?,13?,14?,15?,17-,18-,19+/m0/s1
INCHIAUX=N/A
PUBMED=
SUBMITUSER=mpanitchpakdi
LIBRARYQUALITY=1
SPECTRUMID=CCMSLIB00005723835
USI=mzspec:GNPS:GNPS-LIBRARY:accession:CCMSLIB00005723835
SCANS=265569
79.999252	45.001404
80.003174	53.557693
80.016724	35.017857
80.0439	238.306824
80.061844	1663.857788
80.080383	64.78125
80.126541	40.55682
80.131996	125.285713
80.164833	186.557693
80.170135	61.125
80.192268	50.011364
80.204758	39.25
80.21431	77.208336
80.238159	115.08654
80.242294	143.449997
80.275894	228.027771
80.279694	45.91848
80.283432	95.920456
80.293968	87.625
80.307404	160.367645
80.347908	62.041668
80.350677	67.160713
80.368477	241.120377
80.396515	38.125
80.423454	61.125
80.42942	38.5
80.434227	38.487904
80.443794	78.01786
80.457977	50.136112
80.461922	45.125
80.483177	79.258064
80.488663	71.375
80.495415	126.485291
80.536163	144.375
80.579559	161.111847
80.668678	52.224998
80.676239	77.178574
80.691055	43.802631
80.726013	69.777779
80.729721	38.166668
80.747116	62.125
80.808182	138.28125
80.815125	34.017857
80.838318	92.0
80.844688	45.125
80.895111	69.53846
80.90358	50.0
80.949211	47.0
80.953354	187.675003
80.977974	78.050003
80.996887	174.905609
81.032745	217.458328
81.039139	40.025002
81.052032	72.640625
81.056503	73.242645
81.069748	114749.984375
81.075905	7729.510254
81.176743	187.308395
81.182381	63.87294
81.190216	130.375
81.19413	89.93544
81.197281	63.855145
81.202911	85.122459
81.208298	147.487717
81.219086	348.917358
81.22728	86.054825
81.232819	33.584122
81.241074	35.578754
81.246956	269.149689
81.251595	64.610001
81.254066	88.81472
81.256836	35.878017
81.262596	57.615284
81.26693	141.680557
81.274422	64.449997
81.280281	111.115738
81.28582	115.211205
81.304878	228.02272
81.307472	33.900864
81.313797	55.555557
81.319054	61.408333
81.332687	71.723358
81.339256	50.289288
81.34951	43.0625
81.355644	37.125
81.363091	48.973469
81.37101	160.053574
81.375336	51.802776
81.380135	191.4879
81.387543	119.432892
81.394676	62.680557
81.397758	268.204559
81.405861	47.645
81.408829	198.504501
81.413193	103.675003
81.420296	191.026321
81.427528	42.408333
81.431091	37.533218
81.435944	305.034485
81.443817	61.209488
81.447098	184.157059
81.454948	93.25
81.464706	148.132355
81.467552	294.521667
81.470184	263.861176
81.472893	147.716843
81.478073	174.375
81.481621	158.680557
81.485062	180.892853
81.488762	49.75
81.494286	195.164474
81.499298	54.347221
81.524414	134.905487
81.528847	256.648315
81.534081	61.799999
81.54734	90.921051
81.585709	178.904037
81.594261	64.25
81.599266	32.0
81.602119	276.469452
81.611237	174.125
81.641922	315.894104
81.647919	95.133194
81.702148	65.333336
81.722046	54.25
81.754936	152.339279
81.759369	197.000671
81.7659	122.230423
81.779808	177.053574
81.785507	181.595581
81.791862	52.083332
81.80014	34.25
81.823265	55.080128
81.872978	75.0625
81.882385	41.0
81.886353	40.0625
81.901611	43.666668
81.916031	77.25
81.944969	47.125
81.96553	260.003784
81.989037	51.545456
82.011383	48.224998
82.047478	78.050003
82.053589	46.100609
82.055283	32.226852
82.072594	370.125
82.077805	32.083332
82.09153	57.25
82.146431	344.515625
82.152008	115.647057
82.190125	45.920456
82.194817	58.242645
82.215805	55.017857
82.383286	33.785713
82.421074	64.347221
82.597755	196.367432
82.616127	81.0
82.630249	40.011364
82.684341	88.401665
82.80555	84.102272
82.811867	45.333332
83.009613	76.5
83.049255	2899.052002
83.054985	138.321426
83.061386	34.025002
83.071381	75.320122
83.085358	2130.629639
83.089615	642.986877
83.098984	116.022224
83.107285	89.064514
83.142921	50.011906
83.147606	44.515625
83.177322	90.360291
83.183273	40.450001
83.202957	67.125
83.227051	117.25
83.261482	100.78125
83.328003	85.001625
83.47892	38.5625
83.596443	243.845001
83.638603	40.125
83.674416	52.625
83.765709	32.160713
83.863571	75.125
84.273918	37.875
84.398849	113.022728
84.40583	31.446428
84.543137	34.102272
84.619087	57.011364
84.630013	64.675003
84.634125	45.125
84.648521	67.01136
84.654892	37.125
84.927887	37.347221
85.064507	5596.718262
85.070091	284.541016
85.073822	77.0625
85.077728	31.006578
85.086021	105.083336
85.105507	44.090908
85.114281	68.694443
85.189407	57.347221
85.247658	143.027771
85.443497	86.125
85.450134	78.78125
85.454506	35.0625
85.499306	301.015625
85.560547	81.248077
85.572792	70.89286
85.590614	48.125
85.595741	60.148811
85.606148	74.01786
85.612831	41.5
85.702858	55.224998
85.785187	40.160713
86.117332	161.399994
86.12252	55.333332
86.293411	81.050003
88.208282	57.011364
88.266731	34.5
88.308807	72.347221
88.370987	72.680557
88.377075	31.125
88.732376	31.0
88.798508	250.845001
88.804413	85.125
88.81839	103.025002
88.841309	81.920456
89.176918	78.01786
89.182953	32.160713
89.577499	45.017857
89.781609	38.224998
90.316185	44.017857
90.394852	50.125
90.439423	50.284092
90.442947	54.125
90.50264	41.799999
90.514191	80.471153
90.529663	35.625
90.550545	58.5625
90.661224	98.0
90.679924	117.03125
90.819565	165.205002
90.824005	35.375
90.826912	40.450001
90.844246	68.125
90.849533	51.173912
90.855324	121.680557
90.85836	85.013885
90.861504	108.75
90.867744	75.820457
90.903526	140.569
90.91259	115.532898
90.944519	31.225
90.981903	38.017857
91.004196	37.0
91.019089	71.0
91.024368	41.125
91.044212	68.003784
91.053986	305486.15625
91.059944	12864.515625
91.167976	232.055939
91.171165	310.898071
91.176292	279.121704
91.183281	222.196381
91.189598	238.933884
91.195213	38.033047
91.204414	190.302094
91.208473	60.203125
91.212326	55.103447
91.217262	171.607117
91.225792	194.979645
91.233948	66.425941
91.238129	258.48288
91.242607	90.023598
91.250145	710.8125
91.255348	305.399445
91.257591	69.763954
91.261269	106.496666
91.265526	35.663445
91.272133	132.263229
91.276718	390.17453
91.282852	105.013161
91.291824	68.267044
91.297012	221.372925
91.301292	56.35511
91.309143	395.56897
91.31366	149.893021
91.318611	286.04245
91.326195	163.232101
91.330376	127.951187
91.33857	311.266663
91.342415	352.249084
91.348831	262.782715
91.353935	53.523746
91.356529	56.907497
91.362251	198.78479
91.366119	187.431732
91.36908	34.537468
91.372803	124.578674
91.377495	118.013237
91.38636	185.373291
91.389153	72.889572
91.394341	90.979652
91.397232	295.645172
91.400505	54.215599
91.404976	106.265625
91.412003	116.382042
91.414474	47.682655
91.42157	190.002914
91.425209	166.188263
91.429001	234.602036
91.431953	214.5
91.440796	205.018936
91.448471	74.03125
91.453262	242.325897
91.458878	344.008331
91.462509	185.344055
91.469131	125.314285
91.474007	147.278732
91.477074	85.866707
91.481789	99.887657
91.486137	353.074127
91.4935	87.333336
91.496468	158.835815
91.502396	37.617043
91.509102	123.488403
91.511833	223.720245
91.520462	286.722565
91.527542	360.565155
91.536224	146.272385
91.540398	162.649002
91.54789	77.610001
91.554504	181.482147
91.558434	67.041664
91.561661	417.6875
91.566452	259.367432
91.57502	447.622925
91.588448	191.684937
91.595139	130.451614
91.599197	40.025002
91.611115	135.375
91.618279	237.640152
91.62133	91.084892
91.626366	148.380203
91.633545	97.074997
91.647827	313.185791
91.651054	73.360077
91.657974	171.801315
91.661949	370.339294
91.66552	59.414215
91.668488	137.956436
91.672462	246.322372
91.68145	218.315796
91.689919	40.375
91.695969	45.375
91.700142	275.289276
91.704788	303.357147
91.71064	214.778229
91.716766	140.744049
91.720367	91.78125
91.723335	353.979645
91.7295	120.41523
91.736473	54.963234
91.745613	358.184082
91.75087	167.174591
91.757195	87.555557
91.760757	421.413239
91.766922	103.846153
91.771202	61.375
91.811035	44.289288
91.813049	38.173077
91.832512	197.017853
91.838188	82.0625
91.849617	78.01786
91.853012	99.396736
91.859024	37.520832
91.89518	181.899994
91.9151	167.083328
91.922516	55.625
91.926804	135.003784
91.932014	196.145401
91.937225	98.410255
91.94017	208.720581
91.947609	51.0
91.95723	235.8125
91.962631	97.053574
91.967514	33.125
91.979927	31.225
91.984932	45.375
91.995178	128.008331
92.000626	38.224998
92.003754	60.025002
92.011078	65.0625
92.015686	180.112503
92.023277	91.532898
92.026688	106.396736
92.047104	277.012512
92.054199	121.521736
92.057228	792.630188
92.061043	1689.335449
92.067467	64.197578
92.070312	72.333336
92.079292	167.067947
92.080986	119.6875
92.084732	34.25
92.091614	58.531864
92.145386	150.125
92.162003	112.84314
92.168449	38.017857
92.197746	183.375
92.262001	112.165817
92.284821	47.55682
92.288834	85.679054
92.301994	54.347221
92.309258	32.160713
92.314682	201.4879
92.326324	212.302322
92.337692	61.492348
92.368721	144.845001
92.376915	71.074997
92.385963	44.125
92.398415	243.559204
92.454964	65.199997
92.478226	87.375
92.486954	89.222404
92.495155	68.778229
92.499123	65.102272
92.505196	277.160706
92.547226	171.142853
92.549736	171.617645
92.554619	82.401665
92.565811	148.287308
92.573563	45.473682
92.579475	111.066177
92.584702	47.0625
92.588562	44.049999
92.683891	60.0
92.692879	281.416656
92.740929	120.78125
92.745567	98.321426
92.754333	146.267548
92.76329	91.314285
92.770462	37.25
92.797417	108.284088
92.837128	60.625
92.84317	65.199997
92.887749	122.083336
92.894318	61.224998
92.93647	81.050003
92.941078	52.102272
92.965805	40.025002
92.993896	177.34964
93.001404	41.942307
93.041046	101.446426
93.047348	34.816666
93.059708	37.625
93.069618	237717.59375
93.076103	11211.859375
93.186417	83.999687
93.192177	217.797104
93.196609	47.29353
93.201347	180.536163
93.20507	262.75647
93.209312	50.375
93.214058	128.607529
93.220161	138.705887
93.223152	33.45343
93.232529	190.025635
93.239578	87.355003
93.243416	124.825386
93.24926	127.026756
93.253632	140.794006
93.258659	300.510651
93.261597	35.104
93.267654	87.649185
93.280838	68.834663
93.285118	167.083328
93.292686	151.35527
93.298706	221.411316
93.305626	95.903305
93.311592	87.602524
93.318817	158.440796
93.326149	158.133194
93.33374	41.102272
93.34066	345.432129
93.343994	236.685974
93.346214	74.01786
93.35424	160.074997
93.357193	131.093018
93.363548	181.446426
93.366463	120.254517
93.374809	114.694443
93.382683	66.545456
93.392822	142.464279
93.399742	61.125
93.407219	269.429108
93.414215	141.456894
93.422661	218.285721
93.42836	122.001808
93.432419	142.27272
93.437057	101.083336
93.441803	55.014034
93.446144	102.883255
93.450356	57.25
93.4533	155.041672
93.460175	143.001923
93.46656	104.587265
93.473534	42.333332
93.479034	445.171753
93.483673	37.375
93.487938	128.595581
93.49823	299.734711
93.501511	51.125
93.506187	280.016144
93.512756	34.497684
93.518181	118.889709
93.52272	127.022728
93.528931	51.5
93.537453	288.320038
93.540901	48.125
93.546738	46.540894
93.552826	60.25
93.575531	92.041664
93.580276	51.545456
93.586319	165.107758
93.595932	46.011574
93.599022	184.435242
93.604782	127.778572
93.613693	328.417786
93.619438	121.779411
93.623817	95.677086
93.628555	109.26535
93.646622	59.75
93.652054	92.507912
93.675804	76.183823
93.681992	220.132355
93.688774	64.083336
93.699677	100.492348
93.709152	78.199997
93.717926	64.896278
93.725777	48.125
93.732269	113.520836
93.750732	207.226852
93.758057	55.625
93.772964	39.375
93.79084	85.001808
93.798042	240.421509
93.804268	44.75
93.809708	52.0
93.818306	222.38298
93.826416	34.083332
93.829308	110.25
93.852798	210.02272
93.866089	44.232143
93.873367	159.25
93.884384	47.75
93.889099	231.510208
93.896515	52.28125
93.90564	57.0625
93.908798	215.005951
93.915176	106.53125
93.930649	168.625
93.9375	279.0
93.943459	280.741241
93.967766	177.240387
93.971367	49.637196
94.004028	120.160713
94.01049	54.669445
94.014893	56.125
94.019913	64.083336
94.032677	32.160713
94.051659	100.322365
94.07267	216.090912
94.076958	1784.056396
94.092293	33.480263
94.097878	42.005951
94.100647	46.445
94.116821	32.0
94.123512	38.375
94.135773	281.211212
94.148148	66.041664
94.158524	70.01786
94.163681	165.777771
94.170197	72.209908
94.176704	52.089287
94.264687	32.333332
94.278175	165.160721
94.285721	40.0
94.288635	124.570656
94.301529	41.224998
94.308601	37.75
94.32502	196.939651
94.333862	38.242645
94.34642	52.028847
94.352188	31.471153
94.401489	32.347221
94.427582	136.600006
94.519463	34.0
94.529465	116.32692
94.545433	43.125
94.583771	68.01786
94.619934	34.55682
94.626213	34.025002
94.64212	37.0625
94.652779	247.339279
94.658905	55.0
94.69104	38.680557
94.699158	123.004997
94.724258	105.321426
94.768066	49.8125
94.853027	51.734756
94.890198	44.0
94.906479	186.280167
94.937752	128.0
94.971909	72.333336
95.020477	56.0
95.048851	630.880676
95.054977	67.0
95.066803	41.799999
95.085381	63859.785156
95.108299	1413.428589
95.137146	665.49231
95.147972	337.983704
95.158417	204.0
95.163719	53.0173
95.173584	90.023148
95.177521	119.032112
95.181969	59.389584
95.187454	34.513462
95.193008	75.230667
95.196175	61.565342
95.201057	119.625717
95.232224	123.035713
95.239456	57.25
95.255005	91.224998
95.262856	67.444443
95.268234	84.875
95.270943	50.450001
95.275032	146.894424
95.281624	96.285713
95.289169	32.5
95.294609	81.322365
95.297897	164.927536
95.300728	95.321426
95.312164	110.25
95.316734	61.066177
95.326576	81.508926
95.329536	40.450001
95.333733	112.449997
95.341789	46.387821
95.348755	37.009617
95.360939	107.164474
95.369301	54.102272
95.383804	230.510635
95.390167	130.125
95.397751	90.506943
95.420334	88.920456
95.430367	298.487915
95.437164	98.166664
95.450073	189.083328
95.455833	115.296425
95.463112	50.469444
95.467392	46.890625
95.47998	34.083332
95.488487	67.592216
95.492188	51.297619
95.497269	73.818184
95.514267	90.208336
95.518936	121.315788
95.522705	77.444443
95.585922	37.0
95.612068	41.625
95.657791	31.225
95.694885	44.347221
95.706978	58.224998
95.725471	84.89286
95.734718	94.102272
95.762321	181.570648
95.769173	80.875
95.804413	97.375
95.846161	183.555923
95.854866	338.007568
95.86351	145.331635
95.871307	52.013889
95.898132	60.510418
95.904755	39.117645
95.92308	412.375
95.954018	68.0
95.989967	218.107758
95.99968	62.0
96.055725	357.097839
96.063965	57.666668
96.119225	80.027779
96.128281	41.125
96.159134	51.5625
96.164299	150.444443
96.175613	90.322365
96.335007	84.224998
96.342613	156.27272
96.359604	120.053574
96.42408	85.160255
96.613297	134.125
96.899506	78.920456
96.925209	35.5625
97.064697	11418.65625
97.071991	469.98877
97.077774	274.387909
97.08712	248.314102
97.101723	738.25
97.105591	41.004631
97.108498	67.888885
97.11187	61.25
97.117355	131.529419
97.125854	150.920044
97.13076	56.841217
97.137825	74.107758
97.149551	38.204544
97.167206	84.25
97.174767	105.875
97.181824	41.125
97.243217	91.025002
97.246307	70.625
97.273384	110.050003
97.278847	51.5625
97.294899	78.125
97.345642	161.40834
97.381447	84.681816
97.521294	81.883476
97.624687	54.398586
97.804337	31.0
97.996849	62.654411
98.032593	79.58036
98.177345	42.224998
98.223869	58.017857
98.228241	40.679054
98.320602	60.125
98.323593	51.125
98.348396	88.01786
98.435921	70.125
98.527206	31.125
98.58403	37.308823
98.621719	117.666664
98.863014	65.333336
98.913933	38.75
98.935844	51.049999
98.99408	61.125
98.998161	78.507812
99.022125	62.160713
99.080727	364.375
99.088066	111.066177
99.111435	80.08654
99.553108	164.520828
99.782555	33.025002
100.158348	87.164474
100.163887	31.125
100.504654	44.125
101.120026	48.125
101.162018	148.0
101.210663	98.027779
101.571442	35.125
101.873703	67.5
102.733055	34.049999
102.866043	127.125
102.931732	74.083336
103.054153	20147.289062
103.061432	880.872009
103.066711	242.858337
103.078682	531.007324
103.0886	217.027435
103.098961	127.644997
103.102539	72.654411
103.108139	208.347824
103.119392	153.640152
103.122177	38.284092
103.128929	67.347221
103.139526	33.041668
103.143219	194.920456
103.158356	31.009615
103.168701	80.125
103.265205	31.225
103.296425	102.654411
103.30191	37.0625
103.308853	40.375
103.325806	88.454544
103.420822	157.038788
103.460648	34.125
103.584351	67.03125
103.720909	44.25
103.77668	175.013885
104.056847	61.875
104.061836	3332.091797
104.067787	68.375
104.085602	143.125
104.113411	31.657608
104.122604	31.200001
104.149315	34.485294
104.190369	58.284092
104.194519	151.568176
104.378548	78.0
104.381699	187.666672
104.388474	45.80357
104.471207	44.347221
104.489334	71.199997
104.561775	48.224998
104.690742	50.625
104.787727	35.625
104.820793	44.125
104.864441	93.375
104.933105	86.431961
104.944633	74.199997
104.962128	121.125
104.97998	58.0
105.012505	174.225006
105.020683	57.375
105.034927	90.0
105.040749	302.252167
105.046684	37.75
105.050262	101.25
105.069817	143585.625
105.076324	8355.761719
105.191376	190.103088
105.195847	32.401142
105.205467	70.955559
105.211922	136.711105
105.217079	38.980392
105.223038	46.055557
105.231163	284.061279
105.241341	157.072678
105.245872	45.62582
105.251129	124.036125
105.256714	46.874313
105.267021	87.629944
105.278915	287.25
105.283607	191.267532
105.287651	126.955635
105.293251	50.406185
105.306229	150.185608
105.311607	190.761505
105.318748	202.08371
105.325768	146.040329
105.3377	103.716835
105.342934	537.367371
105.350609	125.404549
105.354462	129.30896
105.360336	102.669121
105.366508	55.013889
105.374634	104.238373
105.381096	42.360294
105.393715	56.011364
105.398338	204.0
105.402328	175.086533
105.411819	429.40033
105.418167	237.967896
105.426697	68.166664
105.435303	124.648529
105.438751	239.240387
105.443733	45.160713
105.453842	112.38298
105.459892	35.375
105.463364	143.739868
105.471161	80.14286
105.477898	67.85714
105.486488	78.0
105.495102	132.755096
105.505356	50.349136
105.513382	184.573532
105.522011	216.550568
105.528564	95.431122
105.542336	202.31044
105.545975	81.931587
105.548462	75.954079
105.552284	67.199997
105.556114	40.160713
105.563538	273.432129
105.567719	90.485291
105.57238	187.832596
105.576881	150.802338
105.598518	231.045975
105.605019	48.583332
105.609329	250.444626
105.617836	221.007263
105.628418	60.272728
105.638725	72.28125
105.655724	87.125
105.663689	42.013157
105.67572	40.0
105.694077	106.041664
105.726372	139.777771
105.731148	68.102272
105.738693	67.208336
105.763229	216.570953
105.77182	32.333332
105.778992	215.610001
105.789085	70.208336
105.796257	132.225006
105.801689	34.0
105.808273	47.25
105.819534	45.32143
105.877937	62.022728
105.882057	108.28125
105.884659	53.787163
105.889839	34.005001
105.895638	101.0
105.902756	35.017857
105.917389	190.942307
105.924698	65.125
105.93026	310.9534
105.933357	120.25
105.942924	60.675926
105.958344	64.074997
105.976173	60.625
105.981499	65.625
106.032349	217.627609
106.039421	74.025002
106.046303	88.25
106.051414	87.375
106.059525	40.0
106.071747	152.444763
106.077629	2776.51709
106.088257	185.249084
106.100571	131.040588
106.120895	36.0
106.133163	38.920456
106.139923	253.058823
106.160759	108.5625
106.180855	98.224998
106.185799	72.333336
106.218002	225.232147
106.224365	87.041664
106.271767	97.053574
106.312927	305.6875
106.320114	64.083336
106.351082	461.202393
106.358284	66.0
106.371613	114.199997
106.378845	31.083334
106.420624	48.049999
106.428406	56.0
106.435745	53.011364
106.440613	155.160721
106.448624	75.040092
106.453369	38.008335
106.456734	37.308823
106.475426	64.0
106.480324	54.102272
106.485672	91.260414
106.560478	77.89286
106.582344	59.375
106.588249	34.416668
106.597626	87.125
106.624496	65.08654
106.628403	41.125
106.68586	84.421051
106.692146	31.004629
106.705818	91.074997
106.712204	54.200001
106.728287	78.78125
106.73484	47.011364
106.774284	125.285713
106.77739	32.347221
106.803413	100.0
106.80896	32.083332
106.8461	208.640152
106.873558	115.08654
107.050026	864.75
107.060081	103.25
107.064514	57.841217
107.074806	78.265625
107.085442	107136.539062
107.212952	91.408333
107.217155	48.619099
107.219849	40.253048
107.224655	35.085133
107.23465	34.653454
107.238525	165.795731
107.241707	171.583328
107.250488	59.661716
107.261642	38.560974
107.268326	73.793442
107.271698	151.066177
107.274536	39.165321
107.282906	32.147182
107.288887	31.375
107.29631	65.115387
107.312393	158.764709
107.31646	122.543266
107.320297	93.157356
107.323845	73.301331
107.331573	185.041672
107.335663	154.534821
107.341972	108.242645
107.347992	50.957127
107.35144	87.542252
107.355209	167.166138
107.359886	238.240082
107.370094	107.769234
107.382439	62.0
107.398788	64.89286
107.417953	91.75
107.42437	44.125
107.43029	51.326614
107.439796	97.224998
107.447823	70.666664
107.47551	75.0625
107.481346	173.125
107.489822	40.625
107.495407	169.532806
107.502396	62.681602
107.512871	50.027439
107.522888	63.979652
107.534332	163.047623
107.545128	248.636368
107.559059	298.331635
107.575928	37.160713
107.57914	47.142857
107.584641	71.083336
107.591652	55.172871
107.602509	52.0
107.622742	34.0
107.626808	104.03125
107.633217	32.041668
107.659775	181.565994
107.688049	53.841217
107.69136	44.55682
107.712067	59.408333
107.729919	56.782608
107.734718	186.2099
107.741722	126.0
107.749031	43.960526
107.758759	81.066177
107.764267	249.137421
107.788513	46.761364
107.796844	105.066177
107.800026	37.25
107.805458	64.644997
107.811638	50.444443
107.814857	32.166668
107.818611	31.125
107.853371	32.224998
107.883461	73.16346
107.889412	137.645004
107.899902	50.25
107.923447	32.160713
107.9319	33.0
107.944374	135.005951
107.959785	57.0
107.963844	77.0
107.998825	95.008331
108.003021	61.875
108.007133	110.471153
108.061165	35.0
108.091949	349.592224
108.10714	52.34375
108.142258	141.204544
108.151871	61.920456
108.158356	34.25
108.191032	110.199997
108.200119	32.333332
108.228493	69.75
108.277008	71.5
108.30246	53.041668
108.306831	51.0
108.337852	68.680557
108.372437	116.26535
108.385895	32.0
108.423187	118.78125
108.427399	117.400002
108.430336	99.881668
108.436165	71.408333
108.482597	65.0
108.524979	88.78125
108.540413	31.125
108.543861	35.875
108.593918	88.284088
108.683426	62.041668
108.692253	83.16346
108.784286	95.321426
109.02375	161.111115
109.065468	1537.956909
109.074005	126.333336
109.07737	41.32143
109.087395	41.115742
109.091393	51.00658
109.101013	8762.473633
109.108719	402.563629
109.117622	122.925674
109.122086	96.449997
109.125969	140.146744
109.146515	114.80278
109.157585	119.133064
109.167915	61.291668
109.171127	42.570652
109.205139	44.391129
109.215248	34.25
109.32164	37.55682
109.377716	94.375
109.468605	114.546715
109.475601	31.125
109.482666	47.222561
109.496506	85.471153
109.679039	80.006577
109.79554	240.861542
109.803452	41.375
109.855682	58.0
109.904785	114.5625
109.971886	51.125
110.080872	35.333332
110.663193	35.5
110.84021	88.224998
110.978241	103.0
111.079453	1175.452759
111.087875	67.787041
111.102737	48.889286
111.180672	91.595589
111.298622	34.083332
111.337784	55.0
111.355949	91.199997
111.36335	40.025002
111.641998	35.200001
112.585846	77.666664
113.033798	31.017857
113.21814	54.025002
114.365105	50.25
114.433807	97.875
114.441307	34.125
114.608017	42.625
114.72776	71.199997
114.861397	88.17308
114.910866	97.125
115.053955	7845.503906
115.062721	538.852112
115.070442	151.413467
115.074257	37.25
115.080223	163.152435
115.104767	60.0625
115.111008	108.010002
115.122269	38.027779
115.134148	51.132355
115.229965	60.75
115.26239	207.349136
115.35038	85.224998
115.394943	70.449997
115.429161	111.224998
115.447945	46.041668
115.529121	87.666664
115.546265	71.0
115.578285	34.347221
116.011803	31.0
116.062012	6394.696777
116.06826	478.115753
116.070793	255.845078
116.075569	135.245697
116.079323	79.695511
116.087318	138.011368
116.104919	45.008335
116.109543	110.164474
116.119598	67.013885
116.131836	147.125
116.139297	35.57143
116.190773	68.571426
116.208656	57.142857
116.248062	82.5
116.399521	115.89286
116.440765	32.25
116.563828	80.007355
116.926048	365.0
116.933937	154.657608
116.940826	57.125
116.945312	42.25
116.955032	77.347221
116.960747	31.125
116.992935	125.375
117.060989	380.125
117.069756	35687.03125
117.083839	537.71283
117.095451	835.485657
117.117844	153.070312
117.126755	433.039551
117.138702	242.024994
117.149956	123.0
117.158371	129.551056
117.162605	57.140625
117.16729	38.875
117.187851	32.666668
117.194901	120.0
117.210114	77.0
117.24733	111.446426
117.265877	34.005001
117.288811	171.25
117.308304	90.375
117.313858	32.782406
117.374847	65.911362
117.396835	155.520828
117.428291	101.0
117.457207	35.5625
117.47538	60.666668
117.507835	42.333332
117.516846	105.16346
117.523666	35.125
117.554291	99.0
117.570198	51.173912
117.573708	74.050003
117.609589	42.5625
117.67205	47.471153
117.681198	151.148804
117.6875	38.670456
117.749748	90.0
117.804504	80.242645
117.94722	154.111847
117.955177	96.642044
117.957733	95.564651
117.992516	71.5
118.056343	35.375
118.078346	2769.312744
118.083809	112.764175
118.094475	34.400002
118.103569	90.644997
118.134842	31.799999
118.149551	40.450001
118.173531	67.0
118.238998	48.284092
118.258743	61.008335
118.296577	77.01136
118.360016	104.003784
118.368721	34.0
118.457199	78.75
118.52742	42.367645
118.531868	174.875
118.538589	55.0
118.576752	100.556816
118.636353	62.083332
118.681282	131.008331
118.701561	163.512405
118.802071	114.240387
118.813118	84.25
118.844521	207.038788
118.849327	55.875
119.018211	74.125
119.045448	294.191162
119.05957	365.625
119.085373	67482.875
119.092789	4646.59375
119.111061	1361.014648
119.144012	725.6875
119.155655	477.635162
119.166435	264.20929
119.173561	213.127884
119.179359	125.580956
119.182678	62.570011
119.188126	74.020096
119.19178	52.42857
119.195587	152.438492
119.200974	242.262573
119.207611	90.566818
119.210999	290.810822
119.223724	83.448273
119.228249	74.165939
119.237366	65.087448
119.25425	67.074997
119.264229	47.133064
119.269836	59.21875
119.273087	210.041672
119.286469	90.355324
119.296158	103.574997
119.303856	125.719337
119.317116	37.454105
119.350906	50.67857
119.356522	82.059212
119.377068	38.125
119.380882	217.469696
119.406296	126.698982
119.412224	40.400002
119.419197	104.778412
119.427345	80.074997
119.489532	75.013885
119.494339	53.469444
119.503281	57.347221
119.512604	68.125
119.521835	101.78125
119.525391	80.08654
119.545006	98.059212
119.552467	40.284092
119.559685	41.41346
119.586807	130.086533
119.592827	64.75
119.628448	31.225
119.634521	105.224998
119.654266	81.125
119.666054	52.333332
119.71978	122.518517
119.72924	102.041664
119.753189	87.027023
119.786514	164.199997
119.791252	90.594139
119.866852	34.0
119.885841	77.942162
119.891907	108.125
119.928352	81.125
119.939583	52.875
119.943642	41.224998
119.961769	122.266304
119.98246	38.125
120.093025	2107.523438
120.100632	118.296425
120.116623	119.183441
120.119553	101.80278
120.132088	121.5
120.135376	165.337967
120.139664	31.083334
120.220154	67.720238
120.309883	119.449997
120.373604	134.242813
120.380905	145.066177
120.482109	49.450001
120.603577	104.0625
120.610344	81.666664
120.619797	121.89286
120.64975	38.224998
120.753471	86.285713
120.761482	34.160713
120.847694	62.544491
120.900406	77.556816
121.025696	125.78125
121.066574	245.560349
121.101219	16819.980469
121.109024	745.013245
121.115959	200.321609
121.127136	402.480377
121.146133	40.005951
121.151337	112.142242
121.155411	222.202271
121.162155	235.762711
121.17244	115.059212
121.18441	49.111111
121.196678	35.166668
121.280487	43.094696
121.331451	124.074997
121.339905	47.25
121.359833	142.75
121.365448	93.413239
121.385674	49.224998
121.389885	42.0
121.412949	92.111839
121.445839	115.875
121.547813	38.0
121.700592	54.561047
121.76252	61.102272
121.835739	55.102272
121.842987	68.26535
121.881447	39.160713
122.063599	33.5
122.140724	31.025
122.151909	162.728455
122.532745	109.889709
122.72789	31.017857
122.790344	92.242645
122.797287	49.375
122.859428	71.125
122.934387	42.875
123.08049	1099.238403
123.089073	265.94223
123.106689	47.471153
123.117172	667.119202
123.124153	138.360291
123.423935	65.125
123.583176	38.375
123.660706	76.347221
123.680687	179.521545
123.690117	37.25
124.187103	55.44643
124.209839	39.0
124.214218	98.160713
124.242905	152.02272
124.753418	43.875
125.096069	964.508789
125.104271	179.520828
125.398956	59.0
125.665504	114.224998
125.671364	38.25
125.898384	68.125
125.954666	36.333332
126.087509	175.280167
126.804604	61.0625
127.054863	2593.487305
127.063004	173.235291
127.074471	223.03215
127.081421	116.360291
127.11544	54.25
127.222267	201.326614
127.230591	39.625
127.267326	62.875
127.296219	105.125
127.541145	59.0
127.602036	137.520828
127.616844	31.0625
127.908028	32.0
128.061951	8009.499023
128.07132	171.375
128.081375	35.78125
128.088562	188.480072
128.110855	51.80357
128.122757	133.0401
128.134583	57.333332
128.16069	38.125
128.178955	32.322369
128.296143	68.625
128.391983	79.78125
128.399933	34.375
128.483139	102.444443
128.526566	82.0
128.591263	192.205002
128.62738	124.408333
128.671677	120.102272
128.91272	65.556816
128.918701	41.25
128.974686	188.5625
129.069626	16858.351562
129.078354	1116.516235
129.086609	212.240387
129.096313	463.481689
129.119965	116.201614
129.130936	202.375
129.142349	99.761902
129.155487	63.224998
129.165451	128.454895
129.174271	68.571426
129.177719	44.337963
129.198273	32.32143
129.238876	51.011364
129.303665	90.102272
129.363907	62.075001
129.371063	35.0
129.419083	69.199997
129.424347	84.5
129.497162	51.011364
129.602982	96.111839
129.659958	45.666668
129.689835	107.347565
129.769989	65.199997
129.785843	215.615387
129.791153	104.005432
130.077469	8141.001465
130.08548	400.106567
130.092148	51.642857
130.104446	165.806458
130.12088	37.901318
130.128159	48.224998
130.133728	104.059212
130.138657	82.048912
130.199631	45.0
130.248611	110.008331
130.263901	103.880951
130.286575	106.360954
130.294815	121.75
130.391373	53.920456
130.496445	79.875
130.693405	46.0
130.738083	79.25
131.003082	120.400002
131.011459	42.680557
131.041946	364.5
131.053238	51.0625
131.085541	29745.021484
131.092102	2294.560303
131.100952	550.781372
131.112808	787.976624
131.134796	179.532898
131.146271	387.055908
131.158737	193.0
131.171021	130.845001
131.182449	53.083332
131.196152	46.0
131.206787	53.761364
131.211456	75.25
131.214981	32.111111
131.251556	93.050003
131.255417	32.595589
131.26413	110.102272
131.273819	92.675003
131.355545	165.761902
131.381241	75.0
131.387238	46.0
131.391525	34.25
131.413315	59.009617
131.440109	73.008331
131.462891	72.125
131.479111	42.923077
131.537582	35.375
131.663483	148.333328
131.672668	41.160713
131.72171	45.173782
131.826141	126.074997
131.829895	176.117645
131.833237	38.25
131.836548	43.408333
131.842957	161.351349
131.856552	172.75
131.906876	84.25
131.914017	74.25
132.009079	83.199997
132.019608	56.471153
132.025436	36.875
132.058319	262.090912
132.080719	422.255524
132.094238	1147.052368
132.103989	49.125
132.116776	76.633774
132.321381	33.224998
132.409897	85.777779
132.420898	189.066177
132.557541	39.125
132.597961	103.889709
132.623077	363.223694
132.632523	151.125
132.67244	55.0
132.819794	31.0625
132.870224	83.102272
133.063736	407.25
133.078018	53.200001
133.101044	19088.490234
133.108444	980.273438
133.116211	234.023499
133.12883	428.369019
133.151367	142.054825
133.16272	165.505203
133.17514	128.052628
133.186661	76.297623
133.192047	58.625
133.203384	36.099998
133.208557	42.125
133.214066	103.05114
133.219559	55.0625
133.223679	36.875
133.241302	70.889709
133.247269	31.125
133.260712	104.152397
133.269043	52.0
133.285248	83.01786
133.317596	70.321426
133.336624	42.0
133.365616	32.224998
133.375549	72.889709
133.396866	38.125
133.41153	62.734756
133.41716	70.906746
133.433823	105.625
133.438385	101.408333
133.475372	53.125
133.564209	327.414948
133.598114	38.009617
133.646042	153.399994
134.083633	56.32143
134.151947	52.541668
134.332581	107.625
134.419159	129.664825
134.676498	100.125
134.881927	101.066177
134.889954	43.333332
134.983627	63.680557
135.080963	764.137085
135.089569	231.036285
135.116821	7871.975098
135.125259	596.889526
135.13475	122.818184
135.143234	137.107758
135.159363	76.199997
135.167236	67.779411
135.17775	89.666664
135.190887	49.25
135.194809	31.0
135.228256	92.041664
135.243713	103.568184
135.249313	57.083332
135.28833	60.041668
135.304688	74.166664
135.341202	35.326923
135.353729	43.125
135.359833	57.680557
135.367386	55.347221
135.389084	60.013889
135.4328	33.160713
135.437119	76.25
135.471603	55.25
135.549728	50.224998
135.653015	88.75
135.658981	48.375
135.701462	53.284092
135.724228	195.557693
135.758682	49.75
135.921677	52.0
135.97937	46.125
136.087173	229.0
136.096451	62.0625
136.338806	56.284092
136.430222	120.0625
136.438751	43.284092
136.567642	31.160715
136.815674	67.013885
136.844116	80.008331
136.941681	153.347229
137.096832	415.637451
137.105103	148.291672
137.108795	77.009613
137.356888	44.041668
137.372101	52.0
137.610992	55.160713
137.900055	39.680557
138.02951	149.889709
138.03949	86.306252
138.169724	36.200001
138.251724	74.25
138.303802	131.360291
138.986435	38.160713
139.037476	39.680557
139.077682	60.017857
139.083191	59.0
139.424698	61.5625
139.634918	50.224998
139.653763	36.680557
139.717499	40.625
140.785324	64.208336
140.825348	51.75
140.885483	63.049999
141.070206	5753.981934
141.077454	495.657623
141.08519	117.595238
141.09201	63.09375
141.09726	87.013885
141.122559	64.160713
141.13269	67.059212
141.201935	40.894737
141.311172	62.456818
141.370224	83.284088
141.407318	123.89286
141.441116	63.0
141.691605	37.083332
141.753662	123.694443
141.761124	33.125
142.078033	5282.342773
142.08577	519.34375
142.093964	32.009617
142.099213	51.777779
142.106155	105.471153
142.144272	54.28125
142.150848	49.075001
142.156311	116.059212
142.168472	43.017857
142.172806	49.929878
142.206161	138.875
142.282059	64.0
142.369415	68.333336
142.484848	57.284092
142.518036	179.875
142.563141	84.375
143.032227	73.125
143.085419	12520.65332
143.093872	1049.133789
143.104126	119.571426
143.113907	287.158447
143.138412	92.599998
143.149231	144.001663
143.160187	46.0
143.163513	35.674999
143.174164	46.017857
143.184296	35.142857
143.21759	41.449074
143.226379	169.339279
143.251785	78.321426
143.386276	33.017857
143.403946	56.025002
143.420013	63.0
143.550674	67.125
143.602158	37.0
143.60881	47.224998
143.747147	57.0
143.895966	92.125
144.059204	657.283813
144.09317	8439.600586
144.102859	349.035706
144.110031	153.595749
144.12146	154.004303
144.146118	68.165543
144.149948	61.432144
144.156281	106.464287
144.170685	65.388885
144.183182	54.125
144.204086	43.030407
144.243576	49.25
144.258453	50.0
144.288315	73.556816
144.329803	39.375
144.349319	161.399994
144.363663	35.280174
144.393677	43.5625
144.400269	40.5625
144.411163	126.889709
144.57814	114.041664
144.589432	77.199997
144.634399	78.920456
144.695572	144.083328
144.703094	53.025002
144.776459	46.347221
144.7836	82.75
144.792862	89.257141
144.862625	120.5625
144.867325	120.5625
144.891754	102.446426
144.945404	56.0625
145.000473	37.680557
145.014847	106.224998
145.065079	310.013885
145.101089	16560.117188
145.119385	268.053253
145.129105	512.449341
145.150787	57.75
145.164124	192.155762
145.178375	100.32692
145.190979	57.32143
145.213196	101.125
145.224319	80.557693
145.2314	185.830002
145.238678	106.223763
145.268692	151.07692
145.27684	46.003571
145.285583	122.13385
145.353134	57.796051
145.373199	35.025002
145.393829	61.017857
145.401306	51.041668
145.446121	50.75
145.506866	71.446426
145.544983	75.875
145.557526	109.595589
145.582184	94.266304
145.599518	53.875
145.674271	33.125
145.719299	40.875
145.72525	38.5
145.773239	65.224998
145.797791	112.0
145.805222	32.25
145.815567	47.333332
145.852402	89.199997
145.860428	55.209999
145.907852	77.074997
145.957077	42.0
146.108658	1758.126221
146.116745	195.432144
146.136246	40.005951
146.263733	211.066666
146.286194	61.284092
146.324707	39.816666
146.446777	114.041664
146.593536	286.414398
146.638214	38.778225
146.670807	118.0
146.936615	48.25
146.941055	32.017857
147.016678	57.284092
147.04306	69.198769
147.07962	565.900879
147.116592	4648.018555
147.128052	125.382042
147.145248	35.75
147.181641	46.183823
147.288666	51.5625
147.315735	44.5625
147.343689	42.55682
147.687164	124.066666
147.68959	92.053574
148.087982	401.625
148.211533	75.321426
148.222885	32.025002
148.226624	36.0
148.394989	57.375
148.751709	112.375
148.901962	39.0
148.934341	55.0
149.060181	259.223694
149.096283	399.375
149.115662	100.391129
149.132675	1440.854492
149.141068	34.0
149.153488	39.00658
149.160675	49.875
149.378342	33.125
149.512177	34.224998
149.701889	46.0625
150.328049	76.083336
150.563416	117.75
150.786652	96.009613
150.923676	61.035713
151.085648	46.25
151.189392	109.009613
151.246094	57.075001
151.360413	62.5
151.921967	32.75
151.971619	55.450001
151.983963	33.0625
152.060455	357.25
152.645615	94.013885
152.654358	33.017857
152.726624	122.0
153.348343	147.053574
153.54068	216.10228
154.078354	356.0
154.541733	72.875
154.826569	43.017857
154.868774	51.375
155.004333	33.017857
155.085449	2594.843018
155.095123	366.470581
155.113052	62.076218
155.232346	33.75
155.38562	43.55682
155.588089	43.875
155.660797	54.009617
155.831314	55.166668
155.918884	65.0
155.950607	80.375
156.09259	3917.405762
156.0979	879.115845
156.103485	349.447083
156.11673	36.00658
156.121826	147.667862
156.130402	75.025002
156.143478	44.361111
156.151306	45.148811
156.154694	39.487904
156.282455	83.875
156.527924	52.625
156.590561	87.625
156.748291	68.050003
157.100845	5755.978516
157.107986	959.261597
157.117065	124.144234
157.121048	52.575001
157.130249	108.404999
157.156998	36.240383
157.167664	97.002548
157.181961	63.003204
157.196625	55.266666
157.275421	91.532898
157.280975	38.5
157.36441	111.111115
157.394562	119.240196
157.466232	139.183823
157.759125	33.0
157.871872	34.0
158.018188	61.666668
158.081772	50.0
158.109085	3647.224365
158.117798	186.003006
158.138474	96.920456
158.163559	34.805
158.16803	41.125
158.176987	36.00658
158.431168	89.375
158.885361	127.008331
158.894165	51.049999
158.924667	79.074997
159.08223	54.083332
159.116699	9814.623047
159.123871	829.267212
159.127121	603.302063
159.130997	126.048782
159.145966	258.043274
159.168793	44.0
159.179688	112.547295
159.185654	36.160713
159.198639	45.6875
159.210449	33.694443
159.236679	88.25
159.247192	151.938461
159.257523	55.166668
159.313477	86.347221
159.351959	54.0
159.398392	86.571426
159.429932	152.804993
159.574722	79.102272
159.589279	58.875
159.734528	60.75
159.779938	36.160713
160.10051	86.01136
160.124115	1159.925659
160.131149	214.024994
160.153854	31.0
160.225571	51.347828
160.378113	93.0
160.391464	36.280174
160.481766	117.5
160.494553	34.200001
160.506577	48.017857
160.514694	65.666664
160.929047	33.0
161.132858	1567.989258
161.140961	45.0
161.149918	43.025002
161.1633	81.564026
161.454132	68.01136
161.573059	92.523811
161.706024	56.08654
161.936584	60.75
162.044495	52.5625
162.059525	73.375
162.070908	37.0
162.918243	37.125
162.998566	36.375
163.002716	36.0
163.019608	49.041668
163.075424	152.10228
163.183044	65.050003
163.531418	78.75
164.362823	46.125
165.069595	356.0
165.075531	406.975677
165.139618	31.160715
165.148819	42.0
165.279449	54.0
165.467926	34.017857
165.686813	58.025002
165.690765	55.017857
165.758057	73.102272
165.866653	77.008331
166.076294	356.125
166.086716	121.694443
166.361496	62.025002
166.502304	91.666664
167.085907	2448.003174
167.096954	87.556816
167.1064	449.653381
167.115524	35.25
167.197235	32.557693
167.320007	33.017857
167.365448	49.041668
167.623077	33.025002
168.093552	552.463684
168.343994	83.16346
168.529449	58.041668
168.535461	46.235466
168.653229	35.083332
169.102081	1187.298706
169.131119	49.0
169.244232	37.347221
169.404022	159.720245
169.470932	104.041664
169.563522	143.48027
169.779968	33.025002
169.785172	41.625
170.064774	173.333328
170.100052	36.280174
170.115692	103.28125
170.122757	42.0
170.297028	60.633774
170.4711	110.25
170.959305	88.666664
171.031952	59.125
171.06456	55.025002
171.117584	4835.837402
171.127716	318.11853
171.148193	104.130318
171.171524	46.266304
171.186157	35.642857
171.946579	138.041672
171.950562	137.160721
172.08783	354.391144
172.124283	539.336487
172.130875	99.0
172.262711	79.556816
172.593781	231.291672
172.822647	31.125
173.097046	394.875
173.132736	8157.693359
173.142776	749.73584
173.14917	147.115387
173.154999	37.240383
173.164185	146.190475
173.189026	41.048912
173.202087	68.333336
173.214432	55.130436
173.247467	125.027779
173.374802	70.125
173.435593	244.446426
173.550522	81.408333
173.607193	37.036289
173.797577	68.5625
174.09169	33.0625
174.79985	305.640137
174.869949	39.083332
174.901993	72.160713
175.149384	668.381897
175.159973	59.55682
175.385834	74.875
175.837372	56.107456
175.934631	137.204544
176.003815	33.0625
176.096176	57.160713
176.434052	89.480263
176.773972	87.013885
176.86116	65.0
176.86998	36.0
177.009598	65.0
177.357529	111.125
177.973282	118.375
178.350525	159.75
178.36058	45.471153
178.551285	37.55682
178.920883	178.197586
179.199493	52.666668
179.282501	35.333332
179.360474	98.75
179.711456	39.5
181.100128	537.803894
181.108139	50.625
181.30983	57.0
181.935532	113.333336
182.108948	1028.172607
182.509613	75.166664
182.621277	53.75
182.656326	130.40834
182.984314	193.0
183.118195	712.000977
183.126114	62.041668
183.195236	49.440475
183.556091	69.75
184.361618	62.920456
184.570465	73.125
184.828934	68.050003
185.132523	5679.555664
185.1418	420.641296
185.162659	90.727272
185.166138	119.960526
185.190826	38.059212
185.200378	41.0625
185.21785	38.272728
185.257767	61.102272
185.274963	55.75
185.62207	43.5625
186.14003	631.290771
186.173889	47.25
186.34079	139.008331
186.350266	64.0
186.724457	95.5625
187.146927	68.035713
187.511993	35.375
187.576401	50.224998
187.580505	54.125
187.876984	68.625
187.887207	36.333332
188.008438	88.680557
188.157089	696.004333
188.696136	51.75
188.73558	84.008331
189.12587	98.78125
189.256409	51.0
190.356522	47.57143
191.268707	104.08654
191.618347	84.277023
192.371094	263.333344
192.379822	87.0
192.835953	42.200001
193.246704	80.0
193.39209	48.0
194.107895	161.074997
194.116791	51.59375
194.376602	85.102272
194.999542	39.224998
195.118134	338.899994
195.128998	97.240387
195.286621	75.0
195.551376	187.875
195.564224	50.017857
195.809875	40.0
197.131729	2225.78125
197.14064	344.806335
198.353729	73.066177
198.761627	59.0
199.148621	2731.693115
199.161469	111.258064
199.181686	86.25
199.184937	78.537788
199.223557	51.480263
199.265121	60.898148
199.801498	58.049999
199.805969	52.0
199.881226	56.375
199.893326	46.347221
199.973602	52.083332
200.153549	90.160713
200.32576	63.5
200.620926	42.025002
201.031113	157.284088
201.067795	239.223679
201.079773	35.017857
201.115097	85.778847
201.866333	113.14286
202.402237	170.78125
202.412079	48.083332
202.624588	40.5
202.773132	388.125
203.778839	66.5
204.09465	36.5625
204.207779	61.25
204.831024	31.25
204.919174	91.041664
205.144958	37.333332
207.129974	75.5625
207.137817	33.25
207.323013	40.5625
207.4841	47.049999
207.918076	91.333336
207.994919	65.25
208.214142	49.041668
209.73262	57.041668
209.74086	68.739754
210.671692	101.066177
211.345016	113.005951
211.444641	77.041664
212.156357	385.875
212.896606	73.041664
214.171188	1905.4375
214.18045	64.01786
214.269867	36.375
214.347107	55.125
214.774643	40.025002
214.851257	134.571426
216.00914	38.224998
216.236526	71.083336
216.285583	85.53125
216.52092	94.777779
217.198135	50.160713
217.818344	81.013885
218.594147	34.0
218.633224	41.224998
219.275482	112.224998
219.861908	54.0
219.922028	50.44643
222.174957	140.166672
222.423859	56.200001
222.433289	34.0
223.338013	88.75
223.532288	56.25
225.473145	50.224998
225.609604	45.5
226.067688	94.446426
226.119141	136.694443
226.535461	81.75
226.610016	34.0
226.787399	156.083328
226.796448	38.680557
227.17952	382.5
227.191727	113.900002
228.933289	33.75
229.193985	406.875
230.475784	39.224998
231.667847	39.44643
234.066498	95.083336
234.330475	81.125
235.084702	200.728455
235.094284	39.041668
235.359894	50.5
236.224976	38.333332
236.245728	55.375
236.624969	131.454544
236.636658	35.25
236.883057	42.125
237.049881	45.017857
237.980621	90.89286
238.003723	64.125
238.194	157.694443
238.382278	37.125
239.011307	37.049999
239.157043	128.361115
239.739319	137.444443
240.290527	37.0
240.57724	39.041668
241.248581	43.75
241.721359	64.160713
243.896301	81.385635
244.131439	46.25
245.373413	36.125
245.422791	43.680557
245.476532	31.333334
246.183182	77.625
246.819473	31.083334
247.274353	59.013889
247.681778	40.224998
248.335709	208.333328
248.67775	67.0
249.400848	32.160713
250.156845	81.920456
251.5112	100.035713
251.881958	32.625
254.462708	48.375
254.610992	55.0
254.863113	59.875
256.59845	118.009613
257.886597	39.375
258.561005	125.041664
259.039093	94.242645
259.181396	65.284088
259.191162	31.125
259.680206	40.041668
259.765869	81.14286
261.687256	102.571426
261.986511	40.125
262.205292	201.918472
262.216339	45.625
263.388123	95.375
264.588776	67.025002
264.647308	41.160713
265.785309	49.25
267.210083	73.01786
267.290466	70.0
267.544373	229.399994
267.555847	69.083336
267.878937	80.0
269.020569	61.625
269.221863	52.25
269.443207	37.125
272.128418	91.009613
272.429596	81.375
272.973877	36.0
274.115875	65.125
274.77121	37.0
275.361328	32.017857
276.350616	45.5625
276.371735	373.375
276.391937	48.049999
277.164337	176.090912
277.177002	41.625
278.067902	33.013889
278.07608	32.333332
279.108765	119.408333
279.724701	42.75
279.843323	183.890625
279.856354	54.333332
281.079498	158.148804
281.311249	67.375
282.182098	50.017857
282.614899	42.75
284.080719	51.166668
284.236053	46.017857
284.241394	45.025002
284.857605	72.800003
285.123596	32.013889
285.732635	111.025002
286.239319	112.240387
286.364777	51.041668
287.107697	49.347221
287.115265	40.083332
287.355011	56.5625
287.994324	84.242645
288.272003	33.375
288.443939	47.625
290.423065	45.75
292.97345	101.5
293.00293	158.480774
293.014954	54.102272
293.47876	63.0
293.913422	37.0
294.297241	54.55682
294.602814	34.0
294.976562	156.208328
294.996582	61.44643
295.903564	33.017857
296.412598	109.89286
297.32019	47.125
297.395508	56.224998
298.699738	43.333332
298.842743	41.25
300.960114	120.035713
301.34082	71.240387
301.671722	42.680557
301.8125	115.041664
303.392395	39.0
304.799805	35.333332
305.778748	63.799999
306.794434	57.44643
306.801361	40.125
307.628845	182.005951
308.313721	90.01136
308.4646	31.125
308.585175	86.375
308.707214	111.78125
308.743408	42.875
309.305206	102.0625
309.611389	86.208336
311.008087	66.333336
312.351074	39.125
315.662903	87.920456
316.62326	67.01136
317.763062	87.800003
318.216644	125.375
318.227478	39.224998
318.805878	41.160713
319.269897	97.25
319.283752	99.01786
321.585815	68.050003
322.842377	49.0
325.112122	88.347221
325.383698	106.25
325.855743	34.0625
326.169861	143.125
326.183563	43.450001
331.799194	44.44643
331.969818	35.333332
333.529755	146.375
334.940521	126.694443
334.950287	43.75
335.127319	182.756149
336.812744	67.0
337.239471	99.25
338.176056	54.025002
339.906891	66.0
340.305969	44.25
341.366608	47.013889
342.371979	62.666668
342.638275	43.875
342.973328	70.446426
343.546112	35.44643
344.058685	367.875
345.428467	115.008331
345.907379	61.041668
346.402679	158.339279
346.414154	39.0
349.231689	128.375
349.473969	69.125
349.689941	106.321426
352.989441	38.25
353.228577	45.125
355.26297	152.053574
355.391022	50.025002
355.564758	96.532898
356.023926	112.5
359.033691	42.333332
359.385834	59.166668
359.431763	213.289291
360.435547	74.160713
360.923431	36.160713
361.166321	155.225006
361.835693	40.049999
361.860046	31.5
361.926117	75.008331
362.117554	80.160713
362.181549	111.08654
362.982452	99.027779
363.471497	37.375
364.702271	64.0
365.626343	38.25
366.166565	58.013889
366.300415	38.0
367.38092	72.625
367.438751	70.89286
368.575928	32.224998
370.152191	53.408333
370.94101	137.125
373.480621	39.284092
373.631439	33.5
373.684204	57.892857
374.895416	68.0
375.835876	167.1875
376.053772	71.0625
377.589966	46.333332
378.721985	61.240383
382.470001	110.041664
383.325104	148.004623
385.320129	48.125
386.295105	53.44643
386.977997	40.333332
387.197601	66.041664
389.044434	32.75
389.317291	45.680557
389.829132	40.013889
390.740265	65.102272
391.132324	78.532898
391.588501	103.224998
392.438812	106.035713
392.566986	44.375
394.592072	57.049999
395.032745	45.25
395.097748	110.166664
395.763397	78.0
396.698608	48.0625
398.081268	63.450001
399.246185	376.875
400.826874	31.333334
401.060883	39.0
401.385864	110.125
401.401825	34.083332
401.912323	47.5
404.220947	93.321426
404.475159	52.224998
405.387573	97.595589
405.631012	98.074997
406.020996	114.595589
410.516479	79.778847
410.531403	33.017857
410.895752	87.025002
412.6185	79.375
412.888428	64.680557
413.592438	119.183823
414.39267	185.440216
414.405365	50.083332
414.515076	33.0
415.368561	38.125
415.625	34.0625
416.027588	81.0
419.298584	123.125
420.143951	79.471153
420.955505	66.0
421.290222	91.03125
422.288635	69.01786
422.588928	114.272728
422.901215	70.800003
422.988373	77.778847
423.371765	147.059204
423.388977	34.5625
424.171539	43.333332
424.183075	38.0
426.188324	94.242645
426.200623	53.75
427.279205	179.445007
427.584412	155.244995
427.811554	50.5625
430.994507	54.284092
432.155182	62.25
432.63208	57.013889
432.800842	108.183823
435.004913	61.408333
436.524963	66.050003
437.159058	34.44643
438.794373	33.017857
439.885193	66.224998
441.738464	48.083332
441.924255	40.5
442.563568	48.125
443.280029	38.160713
443.5672	40.049999
443.577423	32.083332
446.288513	32.816666
446.994385	71.471153
448.314972	99.027779
448.328033	33.125
448.366577	36.25
448.607758	163.92308
449.763367	85.16346
450.868073	168.363632
451.273743	38.125
453.845551	76.5625
453.940552	75.050003
454.183044	47.200001
454.725891	34.224998
454.927185	35.200001
457.134888	35.0625
457.256683	203.96196
457.271881	41.0
457.460541	60.0625
457.611359	37.125
459.241364	91.102272
459.258087	43.025002
459.798981	45.799999
460.30899	117.008331
460.885101	137.008331
463.868408	110.408333
464.282562	158.40834
464.29538	68.800003
464.49765	63.240383
467.312103	32.0
467.831818	109.0
468.302277	41.013889
468.815033	116.96196
472.993896	186.654419
473.007996	54.0
474.646057	95.5
474.6633	32.5625
475.654816	36.5
476.071045	55.125
476.135895	192.939514
476.842316	70.800003
476.87323	100.013885
476.956635	127.0
477.287415	150.007355
477.923615	46.017857
478.849731	51.375
478.889832	236.889282
478.904938	42.025002
479.467316	73.125
479.569641	39.017857
480.629395	36.224998
480.737061	51.799999
481.787018	72.199997
481.797699	51.875
482.733795	31.75
483.869904	84.65097
484.753082	55.013889
485.818542	40.333332
485.912262	35.5625
486.61557	95.0
486.627838	55.44643
488.673065	79.03125
489.456757	173.889709
491.011536	109.322365
491.065338	126.038795
491.082397	47.160713
493.196259	86.199997
496.081055	136.125
496.451294	60.125
498.595032	69.041664
498.736969	118.008331
499.013733	67.347221
500.037628	60.049999
502.886566	73.125
502.896729	41.025002
503.243561	59.5
503.628113	48.625
504.590088	48.25
506.435913	35.125
507.195129	131.148804
508.123444	70.0
508.59848	48.0
508.911987	35.0625
509.207794	35.125
509.323883	52.017857
510.518585	70.0
510.648865	31.125
514.056396	42.75
515.712158	107.204544
515.772217	90.183823
516.059631	292.112488
516.079163	124.568184
520.519836	69.25
520.96051	57.375
520.973022	40.125
521.494873	338.541656
521.510864	89.125
522.461182	234.10228
523.595398	31.5
524.703857	190.024994
525.244202	68.041664
526.672119	131.680557
527.364929	34.333332
527.716492	69.25
528.435547	51.25
529.45697	83.25
531.833557	36.025002
533.22699	56.5625
533.611084	52.125
533.663696	70.408333
533.674011	51.5
534.415588	80.125
534.946228	63.0
535.634338	31.347221
535.642761	31.041666
536.462524	55.75
537.575439	130.5
539.228516	150.053574
539.777527	86.322365
540.254578	102.333336
542.231995	147.6875
542.700623	45.041668
544.343933	45.5625
544.372437	82.471153
546.450562	45.25
547.006409	58.920456
547.809448	182.231842
548.811523	399.375
548.82605	225.25
548.864624	65.875
549.775574	61.200001
549.788513	44.333332
549.839355	191.399994
END IONS

BEGIN IONS
PEPMASS=138.055
CHARGE=1
MSLEVEL=2
SOURCE_INSTRUMENT=ESI-Orbitrap
FILENAME=madeleine.mgf
SEQ=*..*
IONMODE=Positive
ORGANISM=GNPS-LIBRARY
NAME=4-AMINOBENZOATE - 20.0 eV M+H
PI=Madeleine Ernst
DATACOLLECTOR=Anna Abrahamsson
SMILES=NC1=CC=C(C=C1)C(O)=O
INCHI=N/A
INCHIAUX=N/A
PUBMED=N/A
SUBMITUSER=mwang87
LIBRARYQUALITY=1
SPECTRUMID=CCMSLIB00005883526
USI=mzspec:GNPS:GNPS-LIBRARY:accession:CCMSLIB00005883526
SCANS=373
50.014301	58.029999
50.014599	64.339996
50.015202	474.540009
50.0424	372.880005
50.102299	50.240002
50.453899	404.029999
50.477402	37.0
50.946899	26.25
51.023201	882.669983
51.2752	24.9
51.484798	25.5
51.590401	26.719999
51.610699	35.189999
51.685902	28.52
51.745098	25.17
51.9403	30.559999
51.970402	25.940001
51.973099	31.08
52.018299	68.489998
52.0951	73.739998
52.134102	33.959999
52.388199	30.0
52.5238	27.73
52.645302	62.060001
52.6614	258.839996
52.9063	107.370003
53.002201	71.419998
53.027401	54.610001
53.039001	662.219971
53.1427	34.82
53.1604	24.360001
53.358101	60.669998
53.402599	429.059998
53.415699	29.07
53.7896	24.52
53.797298	24.379999
53.805401	26.07
54.4487	28.17
54.454899	40.34
54.492599	45.799999
54.600899	26.09
54.6423	109.519997
54.7159	39.389999
55.086102	136.919998
55.1297	46.450001
55.387901	46.66
55.469299	60.110001
55.7733	26.08
55.898998	155.490005
55.9347	3141.179932
55.9604	498.48999
56.082199	28.91
56.2262	30.23
56.408901	25.23
56.425499	24.209999
56.564499	27.879999
56.652802	57.16
56.670101	171.889999
56.794601	51.529999
56.8377	137.949997
56.935101	32.34
56.936199	459.410004
56.942501	1060.089966
56.965099	9241.870117
56.9827	29.030001
57.1399	31.18
57.2728	89.589996
57.633701	28.17
57.935101	855.969971
57.936401	73.709999
58.4949	97.620003
58.533798	39.759998
58.770599	54.68
58.787102	218.669998
58.789398	53.389999
58.824799	60.150002
58.887501	27.15
58.967701	28.049999
58.971001	26.9
58.992901	48.41
59.0107	57.990002
59.434601	36.98
59.467499	30.91
59.490799	63.810001
59.6646	49.77
59.914101	61.5
59.9711	27.889999
60.207901	440.25
60.305801	55.740002
60.307201	128.399994
60.358299	61.240002
60.359798	101.900002
60.3615	90.940002
60.751999	27.059999
60.962601	44.189999
61.013401	29.48
61.104	32.630001
61.150002	39.0
61.163101	28.66
61.528099	28.450001
61.988998	205.020004
62.014999	81.300003
62.244701	30.120001
62.410599	54.07
62.430199	27.08
62.520599	30.66
62.5793	26.440001
62.648201	32.84
62.9151	148.300003
63.022999	44.84
63.083698	70.459999
63.178299	42.580002
63.256901	27.059999
63.5098	32.279999
63.7201	114.120003
63.739601	26.610001
64.018097	67.419998
64.4664	135.919998
64.7127	30.15
64.727699	32.189999
64.8955	423.369995
65.038696	36194.699219
65.389	27.959999
65.633499	55.060001
65.637703	40.689999
65.720703	200.850006
65.980301	29.26
66.041901	1316.949951
66.046501	112.339996
66.147598	30.879999
66.207298	45.66
66.281601	29.110001
66.286697	29.9
66.302299	63.34
66.327904	45.43
66.403	422.170013
66.485298	335.5
66.606003	49.669998
66.659897	30.139999
67.042503	189.899994
67.054298	6340.180176
67.107498	62.610001
67.405098	47.470001
67.413002	28.07
67.661499	30.950001
68.003098	31.66
68.0495	232.860001
68.057602	298.980011
68.500702	48.5
68.534203	30.91
68.586899	29.299999
68.717697	27.17
69.031197	504.339996
69.210403	30.309999
69.692497	27.389999
69.757401	144.539993
69.959	33.139999
70.080399	27.469999
70.177597	30.98
70.193802	110.970001
70.319801	28.610001
70.508102	29.969999
70.655701	42.18
70.733803	44.110001
70.779999	35.130001
70.917999	32.77
71.394402	50.740002
71.6408	63.279999
71.670601	49.48
71.953903	59.900002
72.063797	99.620003
72.648804	28.07
72.7136	59.939999
72.937202	3871.219971
72.940903	76.169998
74.0149	236.270004
74.021202	39.610001
74.043098	126.900002
74.096298	287.970001
74.120399	30.99
74.164703	29.309999
74.3592	56.630001
74.975403	38.25
74.995598	31.639999
75.022797	1424.410034
75.106903	52.029999
75.267097	156.220001
76.026604	101.169998
76.030602	575.219971
76.818802	615.890015
77.024498	31.799999
77.036201	167.419998
77.038498	14802.94043
77.740799	71.110001
78.041901	1354.880005
78.0812	29.030001
78.3778	36.330002
79.017799	156.229996
79.054298	30.950001
79.145599	30.23
79.875099	476.709991
80.264999	68.720001
80.655701	31.6
81.033401	1342.540039
81.227699	34.32
81.568802	28.969999
81.601501	56.790001
82.027	31.790001
82.0467	33.82
82.2603	34.23
82.953796	36.779999
83.384598	43.27
83.431396	34.650002
83.735497	243.020004
83.986	57.689999
84.052101	31.120001
84.116402	30.93
84.503899	32.459999
84.988197	45.470001
85.705803	40.380001
85.803001	139.300003
86.820297	106.910004
86.966599	45.279999
88.023201	51.91
88.093498	35.529999
88.121803	34.5
88.193497	33.220001
88.361	127.540001
88.458504	53.990002
88.968399	498.359985
89.211403	32.869999
89.716003	37.389999
90.5783	35.369999
90.730904	29.620001
90.947701	2330.48999
90.951897	55.75
91.138298	32.330002
91.230103	45.380001
91.737801	221.820007
92.0495	54703.171875
93.0336	1199.47998
93.052902	2718.76001
93.057297	48131.589844
93.07	112.0
93.208801	32.060001
93.264099	46.119999
93.582802	45.790001
93.904198	32.630001
94.041	1189.579956
94.061699	1143.290039
94.065102	584688.75
94.088303	956.719971
94.090698	291.399994
94.124702	328.559998
94.5513	113.82
94.631203	32.060001
94.803902	34.630001
95.0243	188.039993
95.049103	130604.75
95.062202	2920.02002
95.068398	65060.859375
95.896004	153.770004
96.044403	1166.359985
96.049202	113.790001
96.052299	10716.0
96.585999	37.27
96.856796	61.59
96.9375	67.279999
97.007599	224.460007
97.064598	82.589996
97.908401	363.790009
97.969002	72.519997
97.991402	954.880005
98.054199	35.779999
98.084999	103.349998
98.961304	126.300003
98.978401	31.08
99.758003	32.060001
99.986504	28.93
100.862	164.029999
101.363403	32.619999
101.489197	548.780029
102.047897	60.029999
102.4049	56.330002
102.5718	33.900002
102.916801	31.200001
102.948097	76.650002
103.0177	340.73999
103.354797	32.990002
105.044701	52847.488281
105.609497	157.410004
106.042198	120.510002
106.048103	4410.370117
106.147202	37.650002
106.5214	45.200001
106.566704	31.59
107.065903	38.049999
107.178299	31.290001
107.180702	342.209991
107.767502	29.200001
108.036903	34.330002
108.338203	34.939999
108.958298	230.419998
109.010803	471.119995
109.051498	97.57
109.366302	32.759998
110.059998	5428.700195
110.202103	500.209991
110.211502	32.43
111.0233	393.929993
111.044197	1317.329956
111.063301	68.110001
111.080399	31.92
112.266602	33.290001
112.323898	33.18
113.018997	63.259998
113.218002	109.279999
113.233002	40.07
113.963799	16189.849609
114.115196	36.439999
114.288803	34.990002
114.971603	1682.109985
115.014603	2391.850098
115.964104	4576.060059
115.999901	301.049988
116.001999	516.659973
116.677498	62.09
116.817299	28.43
116.972	20536.830078
117.165298	519.469971
117.833603	151.0
118.007103	32.990002
118.500198	29.73
119.994102	29.74
120.008797	2357.110107
120.037804	415.119995
120.044403	1235657.75
120.055801	236.220001
120.0616	53.400002
120.078697	2712.159912
120.927902	61.5
121.028397	8198.0
121.041298	6639.399902
121.047699	162539.953125
121.084	91.989998
121.101196	41.599998
121.127899	31.620001
122.019203	138.979996
122.031799	341.279999
122.525902	34.790001
122.629501	36.509998
122.698402	34.330002
124.015099	6886.589844
125.039101	35.84
125.472198	62.970001
126.256401	34.869999
126.475197	158.550003
127.012001	35.77
127.548798	31.65
128.287704	31.52
128.528107	86.620003
128.950806	12426.799805
129.951004	102.669998
129.954498	108.779999
130.204407	332.299988
131.1707	31.940001
131.974304	6993.339844
132.702301	31.68
132.766907	58.439999
132.958801	81.540001
133.025299	293.850006
133.901001	54.990002
134.012604	51.880001
134.328201	57.259998
136.035095	204.729996
136.110504	65.790001
137.047501	678.849976
137.124207	30.780001
137.300903	30.620001
137.916702	164.5
138.011993	6473.240234
138.0215	107.830002
138.036804	205.449997
138.046097	5428.689941
138.054901	2952139.0
138.075302	713.599976
138.0914	158.559998
138.097595	4381.779785
138.101196	1583.430054
138.128799	310.350006
138.184006	148.860001
138.271194	107.43
139.013901	619.940002
139.039597	1550.619995
139.052399	11461.709961
139.058105	375764.375
139.0755	589.809998
139.100403	562.960022
139.111893	586.119995
139.558395	167.479996
140.826096	49.09
141.480606	330.730011
141.927902	33.779999
142.025696	615.880005
142.211899	36.849998
143.510498	60.189999
144.838898	357.309998
144.909393	33.139999
144.968201	32.669998
145.903397	38.959999
146.417801	57.380001
146.721497	36.68
146.961304	8274.740234
147.949005	165.919998
147.964005	142.850006
148.321899	35.630001
148.391205	540.940002
148.961594	120.889999
149.0345	13427.19043
149.841507	71.830002
150.037506	1108.780029
150.210907	31.370001
151.460495	109.160004
151.698593	32.34
152.070496	90.459999
154.150604	107.410004
155.758606	62.82
155.823196	31.93
156.065704	976.890015
156.756805	30.700001
157.512894	37.150002
158.210495	37.099998
158.319	128.729996
158.394806	554.75
158.666504	36.59
159.534393	56.5
END IONS

BEGIN IONS
PEPMASS=124.039
CHARGE=1
MSLEVEL=2
SOURCE_INSTRUMENT=ESI-Orbitrap
FILENAME=madeleine.mgf
SEQ=*..*
IONMODE=Positive
ORGANISM=GNPS-LIBRARY
NAME=NICOTINATE - 20.0 eV M+H
PI=Madeleine Ernst
DATACOLLECTOR=Anna Abrahamsson
SMILES=OC(=O)C1=CN=CC=C1
INCHI=N/A
INCHIAUX=N/A
PUBMED=N/A
SUBMITUSER=mwang87
LIBRARYQUALITY=1
SPECTRUMID=CCMSLIB00005883658
USI=mzspec:GNPS:GNPS-LIBRARY:accession:CCMSLIB00005883658
SCANS=505
50.075699	826.650024
50.523701	949.150024
50.640499	749.590027
50.808399	83.370003
50.973999	64.309998
51.305099	1001.909973
51.571301	65.900002
52.030998	441.100006
53.038799	1005.289978
53.265598	788.549988
53.9394	73.080002
54.048801	738.570007
54.108601	764.22998
54.135799	85.699997
54.203098	794.359985
54.711601	413.880005
55.315899	790.539978
55.919601	421.070007
55.9347	2080.949951
56.037601	67.269997
56.1157	69.800003
56.233799	89.82
56.297901	83.620003
56.366199	1185.780029
56.7654	338.950012
56.954399	76.190002
57.7714	366.040009
58.029598	796.150024
58.135899	81.480003
58.324902	90.0
59.5821	98.330002
59.649899	995.299988
59.919601	67.809998
60.092499	746.119995
60.584202	448.720001
61.0686	68.339996
61.261902	864.549988
61.325199	85.839996
61.841	72.07
61.882099	149.210007
62.805099	67.589996
63.617199	71.209999
64.902496	63.470001
65.485901	70.559998
67.195396	91.07
67.404404	73.839996
67.9571	67.970001
68.049698	2587.0
68.522598	99.449997
69.069801	698.690002
69.413002	474.829987
69.545502	74.040001
71.0951	1021.0
71.711998	1212.040039
72.007103	83.160004
72.991997	72.870003
73.084602	76.910004
74.046997	79.260002
75.270599	1004.419983
75.707802	518.090027
75.881699	70.309998
77.572899	85.169998
77.740402	76.110001
78.010399	96.07
78.033897	20966.320312
78.683601	931.090027
79.041603	4384.339844
79.054298	179.639999
79.729797	82.660004
80.0495	191108.1875
80.471603	791.340027
80.892403	71.699997
81.052902	11812.240234
81.07	183.600006
82.132004	1214.76001
83.060501	253.949997
90.142097	865.200012
90.541199	87.440002
90.777397	84.769997
91.276199	413.290009
92.767097	412.790009
93.182098	74.129997
93.4412	443.0
93.4608	1155.359985
95.084702	105.809998
95.5196	85.139999
95.585098	508.980011
96.044403	146606.734375
96.800903	927.580017
97.007698	5873.27002
97.028397	98.540001
97.047897	6175.5
97.064903	124.989998
97.526398	99.209999
98.2239	879.309998
99.668701	93.610001
100.5075	438.0
100.739502	89.830002
101.358498	86.059998
102.989502	83.720001
103.018997	86.019997
103.485397	84.620003
103.759102	88.110001
104.835999	382.149994
107.085503	227.839996
107.140999	80.970001
107.438301	88.169998
107.775703	1330.109985
108.794701	86.410004
109.076797	1120.400024
109.503304	81.199997
110.642998	557.200012
111.113197	522.280029
111.2911	513.52002
116.405403	1015.0
118.0214	1341.209961
119.5905	83.260002
120.6754	89.029999
121.018097	909.869995
121.132599	77.989998
122.3535	443.549988
123.286102	98.839996
124.002998	11757.120117
124.0149	108.580002
124.032097	7020.77002
124.039398	5495179.0
124.053902	554.460022
124.075699	10499.650391
124.077698	7311.189941
124.1483	79.400002
125.002701	149.759995
125.023499	114.900002
125.036697	17414.5
125.042702	514961.9375
125.059898	979.429993
125.096199	570.969971
126.955498	584.320007
127.832802	91.139999
128.950806	1400.390015
129.439606	957.159973
130.073196	428.170013
133.397705	79.440002
135.060898	86.650002
135.406403	94.339996
135.550095	627.039978
138.945602	495.890015
139.111206	86.839996
140.034195	7467.430176
141.037506	419.76001
144.9664	428.380005
END IONS

BEGIN IONS
PEPMASS=198.076
CHARGE=1
MSLEVEL=2
SOURCE_INSTRUMENT=ESI-Orbitrap
FILENAME=madeleine.mgf
SEQ=*..*
IONMODE=Positive
ORGANISM=GNPS-LIBRARY
NAME=3,4-DIHYDROXY-L-PHENYLALANINE - 20.0 eV M+H
PI=Madeleine Ernst
DATACOLLECTOR=Anna Abrahamsson
SMILES=N[C@@H](CC1=CC(O)=C(O)C=C1)C(O)=O
INCHI=N/A
INCHIAUX=N/A
PUBMED=N/A
SUBMITUSER=mwang87
LIBRARYQUALITY=1
SPECTRUMID=CCMSLIB00005883814
USI=mzspec:GNPS:GNPS-LIBRARY:accession:CCMSLIB00005883814
SCANS=661
50.3419	121.610001
51.226299	288.279999
51.530201	266.579987
51.7435	282.519989
51.7911	115.75
51.941601	310.649994
52.177502	263.309998
52.5033	102.580002
53.628601	103.690002
53.821899	115.860001
54.3647	313.859985
54.423302	113.900002
55.019402	128.839996
55.309799	142.979996
58.260201	115.860001
59.561798	148.550003
59.598202	294.640015
59.697498	145.139999
59.901798	106.110001
60.027901	276.079987
65.038803	1553.319946
65.801201	128.160004
68.700798	120.309998
69.403702	302.920013
70.0961	120.440002
70.319603	273.200012
72.557999	128.130005
72.9142	284.690002
73.920303	138.949997
74.078499	111.949997
74.096497	474.829987
75.822601	161.020004
77.038696	336.940002
77.5895	127.889999
78.513199	154.350006
78.5438	309.350006
79.054298	332.910004
79.432999	128.779999
81.092903	325.359985
81.595398	126.480003
83.306801	125.949997
85.618698	301.01001
89.038498	360.76001
90.438202	132.410004
91.054298	1273.819946
91.595299	165.570007
92.975403	339.799988
93.033699	514.52002
93.469002	126.739998
94.809303	279.600006
95.987701	146.25
96.231499	308.429993
96.4133	343.609985
99.311096	142.509995
102.5466	130.080002
106.065201	2915.840088
106.514503	155.759995
107.049202	12030.549805
108.855103	348.440002
109.229599	146.289993
109.536797	125.309998
111.044197	9971.429688
116.322601	122.32
116.888603	315.070007
119.049202	536.799988
121.374298	369.959991
122.677399	143.270004
123.043999	402.029999
123.389297	371.160004
124.142197	143.660004
130.045197	317.51001
134.060104	3071.330078
135.044205	105865.046875
136.047501	9732.030273
136.975906	137.889999
137.059906	5613.029785
138.700104	140.669998
138.997498	327.649994
139.039093	197964.484375
139.082901	431.540009
140.042496	15268.290039
142.133804	295.859985
143.452301	138.850006
144.518295	364.049988
144.699707	360.059998
144.949493	148.240005
145.158295	393.920013
148.505493	139.039993
152.018295	900.48999
152.070801	664802.875
152.120697	1802.77002
152.426895	336.899994
153.068298	2768.850098
153.074097	68741.726562
153.782501	162.809998
153.980301	160.059998
159.192093	134.220001
161.324097	333.359985
161.426102	139.0
162.270401	147.470001
163.039093	41198.03125
164.042404	4405.180176
168.976105	124.589996
173.223999	363.070007
174.985306	578.059998
175.427704	339.119995
175.975403	147.300003
176.647293	169.990005
181.049698	370782.53125
181.114594	529.549988
182.053101	43616.78125
184.269608	129.830002
184.779694	183.360001
184.969604	957.159973
191.767807	141.110001
198.001099	992.72998
198.076202	142591.625
198.985001	3619.189941
199.079697	16750.859375
199.181	1237.619995
202.520905	306.450012
202.973007	373.769989
211.478302	135.960007
214.436295	165.190002
END IONS

BEGIN IONS
PEPMASS=132.15
CHARGE=1
MSLEVEL=2
SOURCE_INSTRUMENT=ESI-Orbitrap
FILENAME=madeleine.mgf
SEQ=*..*
IONMODE=Positive
ORGANISM=GNPS-LIBRARY
NAME=BIS(3-AMINOPROPYL)AMINE - 20.0 eV M+H
PI=Madeleine Ernst
DATACOLLECTOR=Anna Abrahamsson
SMILES=NCCCNCCCN
INCHI=N/A
INCHIAUX=N/A
PUBMED=N/A
SUBMITUSER=mwang87
LIBRARYQUALITY=1
SPECTRUMID=CCMSLIB00005883922
USI=mzspec:GNPS:GNPS-LIBRARY:accession:CCMSLIB00005883922
SCANS=769
50.0411	25.620001
50.2533	217.610001
50.655602	34.209999
51.241199	295.720001
51.2757	33.060001
51.287399	227.529999
51.291901	230.429993
51.4874	233.130005
51.6777	228.330002
51.963799	41.880001
52.258202	354.730011
52.291401	263.589996
52.416401	35.720001
52.590401	318.309998
52.787399	231.020004
53.142101	26.459999
53.305599	33.400002
53.435101	34.25
53.689701	37.25
54.142399	31.360001
54.334599	253.820007
54.378899	346.980011
55.008499	224.399994
55.054401	106.32
55.107399	34.220001
55.132702	28.34
55.322899	32.57
55.462299	64.93
55.951	226.199997
56.067902	62.560001
56.163101	34.57
56.2071	26.6
56.4384	37.209999
56.5196	226.160004
56.5359	352.320007
57.020401	29.889999
57.157902	249.309998
57.228802	43.700001
57.256802	236.660004
57.302299	30.02
57.4048	30.540001
57.4813	39.970001
57.7808	41.150002
57.8815	38.490002
58.065399	92274.226562
58.185799	238.429993
58.267899	183.960007
58.372002	30.42
58.622501	34.73
59.042599	27.059999
59.062401	113.529999
59.068802	3370.040039
59.1301	29.440001
59.202202	257.790009
59.610401	30.049999
59.645599	179.380005
59.9711	229.399994
60.300499	32.450001
60.3204	275.859985
60.765598	111.839996
60.8461	29.709999
60.851398	34.049999
61.125301	36.299999
61.484901	291.190002
61.8839	31.719999
61.976898	70.470001
62.1091	30.969999
62.292301	75.650002
62.5117	39.16
62.7061	29.93
62.861401	33.23
63.092701	31.440001
63.128101	35.98
63.1306	35.950001
63.180599	32.369999
63.192902	31.27
63.2155	34.48
63.4618	94.169998
63.469501	33.709999
63.664501	37.48
63.722	35.419998
63.931801	39.650002
63.985401	39.5
64.0755	92.309998
64.508301	37.540001
64.930298	254.889999
65.001602	99.629997
65.367302	31.700001
65.471397	34.970001
65.681396	107.559998
66.248901	321.100006
66.458504	239.830002
66.513603	43.720001
66.517998	291.660004
66.528	34.84
66.730202	31.35
66.919899	38.889999
66.932701	41.720001
67.166603	44.27
67.191498	30.639999
67.539299	272.649994
67.618301	29.620001
67.876198	38.09
67.899002	87.489998
68.639999	34.470001
68.7994	227.850006
69.008598	29.92
69.070099	602.98999
69.931099	31.370001
70.065201	10709.419922
70.286903	77.699997
70.3367	30.49
70.368896	248.339996
70.698997	35.349998
71.054398	257.890015
71.068497	750.210022
71.621399	176.020004
72.202499	31.700001
72.2883	311.630005
72.528099	108.300003
72.806198	408.160004
72.937202	604.0
73.459099	243.190002
73.588097	278.700012
73.740097	303.559998
73.748199	32.990002
74.307999	422.820007
74.605598	36.299999
74.751404	262.25
74.763	241.039993
75.091698	36901.328125
75.426003	244.380005
75.579697	32.689999
76.0951	1002.559998
76.5522	264.700012
76.702103	270.160004
76.747299	37.189999
76.987396	31.23
77.087601	40.75
77.313004	79.080002
77.523102	273.540009
77.746201	33.07
79.219902	37.509998
79.278702	33.880001
79.493896	340.519989
80.125198	40.91
80.494904	406.450012
81.331398	42.009998
81.478302	39.130001
81.500999	69.410004
81.770699	35.59
81.848	44.099998
82.048599	29.32
83.509399	77.220001
83.656197	35.400002
83.667503	35.400002
83.733803	37.540001
83.740097	42.740002
84.081001	43.25
84.299896	111.239998
84.647797	260.390015
84.7472	355.589996
84.9254	391.089996
85.4048	81.419998
85.853302	409.700012
86.0755	2586.389893
86.092201	2249.570068
86.096497	1316322.375
86.117699	2311.02002
86.149101	46.389999
86.536102	42.48
86.854301	34.299999
87.030701	32.610001
87.091797	2357.959961
87.093697	5217.060059
87.0998	106703.359375
87.102402	4048.820068
87.212097	291.130005
87.457703	308.549988
88.0215	94.190002
88.138	268.529999
88.738403	37.610001
89.2416	39.099998
89.404503	31.17
89.504097	30.219999
89.531799	43.189999
89.787102	34.119999
90.234596	191.630005
90.393402	34.689999
90.903099	88.620003
90.927696	250.179993
90.931	264.73999
90.9478	836.599976
91.054398	41.849998
91.231903	124.480003
91.510399	34.93
91.730301	34.080002
91.948196	80.190002
92.104897	262.769989
92.165703	36.290001
92.456802	34.02
92.930496	326.059998
93.547897	34.369999
93.565598	279.609985
93.874001	271.410004
94.493401	37.029999
95.026497	329.450012
95.109901	122.110001
95.357002	45.59
96.219902	34.07
96.640297	355.959991
96.680099	285.769989
96.746902	190.800003
97.007698	452.079987
97.696999	35.630001
98.007401	55.360001
98.069603	173.539993
98.096497	297669.25
98.122101	279.26001
98.673798	77.120003
99.003304	1689.420044
99.056503	241.470001
99.0933	617.909973
99.096497	370.940002
99.0998	29393.310547
100.704201	275.559998
101.102203	83.830002
101.266502	92.730003
101.469299	41.419998
101.828201	40.259998
102.1642	45.310001
102.167397	45.330002
102.5933	36.290001
103.514297	115.470001
103.594902	315.649994
104.064499	37.490002
104.291397	37.240002
104.472603	293.880005
104.907898	786.960022
104.922699	34.549999
105.003403	378.890015
105.066597	35.799999
105.07	768.359985
107.3908	110.720001
107.808502	190.360001
107.920097	453.890015
108.958298	91.550003
109.338699	230.970001
109.342598	48.900002
110.638702	35.349998
111.225098	41.790001
111.264999	40.720001
111.827797	33.380001
113.107201	105.269997
113.823303	40.360001
113.889198	281.269989
113.963699	291.600006
113.9739	311.320007
114.661903	251.880005
114.964203	39.959999
115.089897	855.5
115.123001	390838.3125
115.155098	502.769989
115.156097	472.660004
116.120201	4927.470215
116.126404	36306.230469
116.376297	406.880005
117.334	319.859985
117.846397	33.0
118.636703	43.080002
118.679802	266.140015
119.127403	258.950012
120.204597	278.700012
120.215797	291.100006
121.088303	35.630001
121.822098	36.5
122.019302	2423.790039
122.329201	41.900002
122.378197	351.450012
123.022598	426.290009
125.0942	43.540001
126.009003	313.290009
127.1548	36.639999
128.2556	44.279999
128.476303	39.099998
129.092499	38.59
129.975693	441.399994
130.010193	42.380001
130.497894	34.07
131.974197	276.660004
132.102097	58235.980469
132.107193	715.080017
132.109299	462.350006
132.149597	479664.96875
132.189407	620.22998
132.358795	83.150002
132.714798	37.880001
132.902802	2867.139893
132.958496	52.290001
132.965195	290.790009
133.028	33.669998
133.065002	584.599976
133.076096	36.73
133.101196	711.080017
133.105392	4704.109863
133.146805	8680.019531
133.152893	51178.519531
133.820999	282.709991
136.734497	35.560001
139.444901	267.76001
141.068695	37.240002
142.385803	34.32
143.286697	34.939999
146.316299	45.130001
149.052307	40.799999
149.296799	38.950001
150.014496	98.43
150.267899	188.229996
150.396194	38.779999
150.913193	178.270004
150.955002	272.100006
150.980499	99.669998
151.008804	56.68
151.017593	77.190002
151.557007	40.240002
152.156097	122.870003
152.465393	33.009998
154.077194	329.869995
END IONS

BEGIN IONS
PEPMASS=162.112
CHARGE=1
MSLEVEL=2
SOURCE_INSTRUMENT=ESI-Orbitrap
FILENAME=madeleine.mgf
SEQ=*..*
IONMODE=Positive
ORGANISM=GNPS-LIBRARY
NAME=L-CARNITINE - 20.0 eV M+H
PI=Madeleine Ernst
DATACOLLECTOR=Anna Abrahamsson
SMILES=C[N+](C)(C)C[C@H](O)CC([O-])=O
INCHI=N/A
INCHIAUX=N/A
PUBMED=N/A
SUBMITUSER=mwang87
LIBRARYQUALITY=1
SPECTRUMID=CCMSLIB00005884287
USI=mzspec:GNPS:GNPS-LIBRARY:accession:CCMSLIB00005884287
SCANS=1134
50.852901	140.759995
52.5742	144.460007
52.6688	6155.299805
53.2318	6380.560059
53.2351	146.5
53.864899	149.490005
55.016602	138.210007
55.646999	8056.279785
55.919998	6512.72998
57.599899	158.550003
58.0653	23370.109375
58.497299	3430.98999
58.923199	159.490005
59.0732	12651.110352
59.267502	3443.179932
59.495098	7644.799805
60.0811	583750.4375
60.082699	8369.830078
60.5616	164.25
61.0499	3647.590088
61.0844	16390.980469
61.847401	163.449997
66.533401	3515.550049
68.390099	3366.100098
68.421501	183.800003
70.116699	7999.339844
70.486801	3851.830078
70.613297	169.699997
71.0578	6628.660156
72.433899	3852.51001
75.935501	268.799988
77.627098	222.880005
77.715698	3747.51001
83.540199	185.399994
84.314301	4182.310059
84.9599	831.830017
85.028503	187420.75
85.611801	163.660004
85.970703	8740.419922
89.098503	4043.219971
89.183701	4783.609863
92.948303	170.669998
93.866203	173.910004
93.946404	205.889999
94.062401	168.779999
94.3283	8023.52002
94.705704	184.800003
95.892097	8209.169922
100.9674	4773.040039
102.055199	321.619995
102.091499	260748.65625
102.514503	3662.850098
102.970596	209.259995
103.039101	1130626.25
103.058701	240.380005
103.304901	199.860001
104.042397	69443.421875
115.954399	799.51001
116.7528	4482.029785
116.962303	739.109985
116.972099	1084.530029
117.975899	211.860001
117.979797	3015.22998
118.977798	306.26001
118.983398	498.089996
127.493896	7515.700195
128.951004	700.880005
129.891205	3829.060059
132.576202	192.179993
132.957199	1527.27002
132.966705	200.949997
133.964905	1592.410034
134.972702	475.709991
135.716003	8781.450195
139.738693	183.259995
146.961502	512.900024
150.967697	719.309998
151.9151	4149.22998
151.975693	236.410004
152.013794	191.190002
156.977295	4930.279785
158.2323	190.559998
162.054001	14051.330078
162.059799	17272.470703
162.101593	40265.261719
162.112701	9989296.0
162.167694	16678.449219
162.967697	1066.73999
163.003006	238.279999
163.0392	773.299988
163.050095	241.419998
163.109894	48925.75
163.115997	1024723.125
176.700104	247.330002
END IONS

BEGIN IONS
PEPMASS=221.092
CHARGE=1
MSLEVEL=2
SOURCE_INSTRUMENT=ESI-Orbitrap
FILENAME=madeleine.mgf
SEQ=*..*
IONMODE=Positive
ORGANISM=GNPS-LIBRARY
NAME=5-HYDROXY-L-TRYPTOPHAN - 20.0 eV M+H
PI=Madeleine Ernst
DATACOLLECTOR=Anna Abrahamsson
SMILES=NC(CC1=CNC2=C1C=C(O)C=C2)C(O)=O
INCHI=N/A
INCHIAUX=N/A
PUBMED=N/A
SUBMITUSER=mwang87
LIBRARYQUALITY=1
SPECTRUMID=CCMSLIB00005884711
USI=mzspec:GNPS:GNPS-LIBRARY:accession:CCMSLIB00005884711
SCANS=1558
50.556301	179.179993
50.812302	182.110001
51.300301	60.73
51.537399	55.75
52.291	68.620003
52.3195	67.050003
52.501598	56.73
52.510201	115.139999
52.9809	74.709999
53.292	65.800003
53.305901	71.559998
53.537201	59.310001
53.695099	66.169998
53.748699	69.660004
53.8652	68.470001
53.939098	59.490002
54.088402	65.720001
54.835098	113.980003
54.995098	76.019997
55.074299	67.639999
55.505699	80.370003
55.554901	61.509998
55.7052	64.360001
56.375	69.43
56.616901	63.599998
56.921299	72.910004
56.934399	66.059998
57.890499	75.389999
57.924198	66.339996
58.040401	63.98
58.7118	81.18
59.513	76.470001
59.6721	64.410004
59.955399	81.510002
60.423	57.98
60.481201	62.380001
60.652199	66.510002
60.818199	58.82
62.1082	65.160004
62.162701	71.669998
62.411598	60.57
62.7066	66.019997
63.327702	78.529999
63.344898	71.230003
63.580399	62.939999
64.494202	71.849998
64.911903	69.459999
65.107101	66.660004
65.598701	63.57
66.652496	64.959999
66.7202	69.769997
66.748802	73.68
66.815598	71.209999
67.236801	187.759995
67.3853	85.540001
67.695099	73.650002
68.258598	78.5
68.3256	77.080002
68.789101	67.610001
69.2155	71.290001
69.285698	223.520004
69.326202	114.57
69.485703	85.690002
69.870003	65.870003
70.6978	76.190002
72.767502	81.160004
73.022202	85.839996
73.252296	184.449997
73.254601	233.220001
74.266602	75.720001
74.571899	75.059998
74.961502	70.300003
75.341202	203.429993
75.613297	179.470001
75.884201	228.759995
75.960701	190.729996
76.356598	74.510002
76.5774	68.959999
76.821999	85.589996
77.101601	65.220001
77.502197	91.589996
77.566101	76.0
77.574501	71.860001
78.304901	69.779999
78.822197	142.380005
78.923103	120.480003
79.802803	82.589996
80.065399	76.910004
80.2005	205.889999
80.513702	75.730003
80.622597	72.720001
80.810303	72.730003
80.826897	84.160004
83.3927	84.089996
83.756203	67.959999
83.850403	69.389999
84.488098	72.410004
85.282204	119.370003
85.973	75.93
88.266602	211.240005
88.463699	120.870003
88.863899	133.839996
88.870003	72.5
89.217903	68.0
92.1278	91.209999
92.642601	74.910004
92.761002	65.510002
92.963997	111.730003
93.507202	69.959999
95.201401	73.949997
96.699303	71.349998
97.508904	225.550003
97.974998	85.300003
98.1464	82.220001
98.462097	76.489998
99.187202	69.629997
101.353302	189.800003
102.202698	75.589996
103.054398	154.410004
104.364098	83.010002
104.978203	75.07
105.683098	128.75
105.999702	81.050003
106.0653	327.75
106.700996	84.370003
107.0494	149.539993
109.604401	65.940002
111.548203	77.889999
112.738998	74.779999
114.848396	78.07
115.407402	121.300003
117.057503	163.509995
117.134697	214.339996
118.717598	80.970001
120.713501	95.290001
120.888702	71.419998
122.105904	89.440002
122.338997	143.25
122.349899	97.029999
122.405701	225.860001
124.844398	80.160004
124.927399	82.620003
127.524803	216.770004
127.565697	82.75
127.688301	71.5
127.852798	88.629997
129.5681	228.360001
129.616898	85.129997
130.065399	270.670013
131.049606	172.199997
132.080994	590.059998
132.522995	88.330002
132.701706	74.220001
133.052094	197.919998
134.060196	9460.669922
135.063705	353.070007
138.160294	78.489998
141.113907	82.75
141.876205	73.349998
141.881302	82.959999
142.712494	133.910004
143.710007	77.779999
143.941299	142.429993
146.060303	2285.850098
146.198303	148.509995
146.211899	96.379997
147.058105	275.0
147.063507	169.610001
147.068604	166.240005
148.075897	6058.649902
149.079193	228.880005
149.850403	90.559998
150.312302	256.540009
152.457794	223.380005
153.2742	104.32
154.778107	78.32
154.791794	86.889999
157.586807	78.389999
158.060303	2942.459961
159.068298	2777.669922
160.039902	369.040009
160.076004	20625.330078
161.079407	2636.080078
162.055206	101324.101562
163.040497	74.75
163.058594	13203.929688
163.393402	83.529999
171.210403	80.32
171.597198	76.879997
171.696503	83.660004
173.010696	73.970001
174.705002	73.419998
175.087006	18813.130859
176.070908	165.929993
176.083893	169.139999
176.090103	2729.939941
176.2827	83.699997
178.122894	115.599998
184.272995	78.580002
184.993393	87.099998
186.055405	9520.759766
187.058899	566.080017
187.365494	74.57
189.810699	78.889999
190.005707	114.160004
191.072403	141.309998
193.792892	86.400002
198.978302	593.340027
203.985397	702.109985
203.993195	883.630005
204.065903	888359.3125
204.143005	1828.910034
205.069305	163309.1875
206.358994	86.0
210.185699	85.940002
212.910599	88.230003
219.182602	82.050003
221.082504	549.469971
221.092407	29513.849609
221.153793	195.800003
221.1633	109.540001
222.0961	4653.649902
222.113007	6857.470215
224.793793	84.010002
225.238693	247.130005
232.243896	88.330002
234.1474	74.650002
236.785095	102.540001
240.092606	85.790001
243.686996	97.830002
244.832199	255.630005
END IONS

BEGIN IONS
PEPMASS=571.365
CHARGE=1
MSLEVEL=2
SOURCE_INSTRUMENT=LC-ESI-qTof
FILENAME=f.amoreno/Standards_compounds/UNAM_STDs.mgf;
SEQ=*..*
IONMODE=Positive
ORGANISM=GNPS-LIBRARY
NAME=Carbenoxolone M+H
PI=Aldo Moreno Ulloa
DATACOLLECTOR=Alan Hernandez Melgar
SMILES=C[C@]12CC[C@](C[C@H]1C3=CC(=O)[C@@H]4[C@]5(CC[C@@H](C([C@@H]5CC[C@]4([C@@]3(CC2)C)C)(C)C)OC(=O)CCC(=O)O)C)(C)C(=O)O
INCHI=1S/C34H50O7/c1-29(2)23-10-13-34(7)27(32(23,5)12-11-24(29)41-26(38)9-8-25(36)37)22(35)18-20-21-19-31(4,28(39)40)15-14-30(21,3)16-17-33(20,34)6/h18,21,23-24,27H,8-17,19H2,1-7H3,(H,36,37)(H,39,40)/t21-,23-,24-,27+,30+,31-,32-,33+,34+/m0/s1
INCHIAUX= 
PUBMED=636403
SUBMITUSER=amoreno
LIBRARYQUALITY=3
SPECTRUMID=CCMSLIB00006126866
USI=mzspec:GNPS:GNPS-LIBRARY:accession:CCMSLIB00006126866
SCANS=99
55.052399	64.0
67.057098	32.0
67.8088	27.0
69.068001	54.0
71.052597	27.0
73.027603	32.0
79.057404	47.0
81.069801	180.0
81.449799	21.0
83.056999	73.0
83.098396	30.0
83.516701	13.0
85.066101	79.0
91.053497	63.0
93.0718	80.0
94.767799	31.0
95.0849	260.0
95.185097	15.0
95.351196	18.0
95.469398	18.0
95.615997	21.0
96.739799	20.0
97.092102	65.0
100.526299	14.0
101.022202	67.0
105.072502	77.0
105.439598	13.0
105.903397	13.0
107.086899	210.0
107.231102	14.0
107.359001	16.0
107.612198	13.0
107.746902	22.0
108.044296	16.0
109.099701	170.0
109.2323	15.0
109.374603	21.0
109.503403	18.0
109.624603	19.0
109.879303	12.0
110.4534	13.0
111.104103	65.0
111.224403	13.0
111.321701	19.0
111.498299	32.0
112.052696	13.0
117.072998	29.0
119.086304	170.0
119.185501	13.0
119.352203	21.0
119.487503	19.0
119.570602	19.0
119.686203	19.0
120.071701	25.0
120.5522	19.0
121.100098	230.0
121.205597	18.0
121.323402	26.0
121.517601	20.0
121.700699	22.0
121.890297	20.0
122.0923	23.0
122.727303	34.0
123.115501	160.0
123.234001	19.0
123.323196	22.0
123.420601	28.0
123.546898	18.0
123.681702	12.0
123.955299	13.0
125.098701	42.0
125.099297	48.0
126.849197	14.0
127.093498	48.0
131.085495	69.0
132.566696	16.0
133.101303	130.0
133.1819	13.0
133.486404	11.0
134.152695	17.0
135.114105	270.0
135.210495	19.0
135.231903	20.0
135.406906	18.0
135.549805	23.0
135.649506	18.0
135.794296	15.0
135.870193	21.0
136.029007	23.0
136.105392	14.0
136.318695	29.0
137.131302	88.0
137.576508	17.0
138.306595	11.0
139.103607	75.0
139.108795	74.0
139.940704	14.0
141.092804	36.0
143.088699	46.0
143.146698	17.0
143.818802	20.0
145.102097	83.0
145.341705	21.0
145.469894	17.0
146.109299	11.0
147.115906	120.0
147.206497	20.0
147.359207	18.0
147.529907	21.0
147.840897	20.0
148.136902	17.0
148.388794	22.0
149.120407	240.0
149.122894	250.0
149.247604	16.0
149.258301	21.0
149.330902	17.0
149.460602	23.0
149.578003	18.0
149.682297	17.0
149.757294	22.0
150.060196	14.0
150.263	20.0
150.382202	27.0
151.145004	79.0
152.307404	22.0
152.966293	13.0
153.105392	47.0
153.455002	15.0
153.565201	30.0
155.086304	42.0
156.091599	37.0
157.102097	49.0
157.396194	13.0
157.556503	17.0
159.066406	29.0
159.115204	79.0
159.301605	24.0
159.481293	24.0
160.024796	13.0
160.160095	28.0
161.129196	120.0
161.130402	140.0
161.248993	17.0
161.337799	16.0
161.512802	25.0
161.630997	17.0
161.794296	22.0
161.969406	29.0
162.482193	19.0
162.9608	17.0
163.144608	110.0
163.234604	11.0
163.549301	21.0
163.767105	16.0
164.258408	23.0
165.127701	51.0
165.854797	15.0
167.104004	53.0
169.102402	54.0
171.119003	58.0
171.230804	32.0
171.716202	19.0
172.818298	18.0
173.129593	140.0
173.250107	15.0
173.5056	30.0
173.7341	14.0
174.243393	18.0
175.147003	230.0
175.268204	18.0
175.514603	25.0
175.6763	17.0
175.779694	20.0
176.079605	14.0
176.276901	21.0
176.372299	16.0
176.750504	15.0
177.1595	150.0
177.266602	13.0
177.343903	15.0
177.502594	20.0
177.796005	17.0
179.135406	53.0
181.133499	26.0
183.112701	35.0
185.1315	63.0
186.134705	28.0
187.147202	90.0
187.231796	12.0
187.469498	35.0
188.166199	18.0
188.320999	13.0
188.668793	23.0
189.163895	480.0
189.290298	21.0
189.4496	16.0
189.564194	21.0
189.736694	14.0
189.907501	21.0
190.007401	20.0
190.191696	23.0
190.282501	22.0
190.485107	16.0
190.854996	16.0
191.1763	110.0
191.310806	17.0
191.750198	21.0
192.274796	20.0
193.145096	37.0
193.363907	20.0
193.612503	35.0
195.106796	30.0
197.130402	75.0
197.468506	17.0
199.148102	120.0
199.253998	16.0
199.438797	16.0
199.510101	18.0
199.664902	16.0
200.159103	14.0
201.158401	94.0
201.291306	15.0
201.430206	28.0
203.151596	69.0
203.248001	18.0
203.871002	15.0
204.712097	16.0
205.158707	45.0
205.259995	14.0
205.501907	19.0
205.817596	14.0
207.151703	38.0
210.142303	55.0
211.151505	42.0
211.232697	11.0
212.128906	34.0
213.164703	110.0
213.268799	12.0
214.187805	31.0
215.147095	94.0
215.2453	18.0
215.382294	18.0
215.651794	20.0
215.790802	14.0
215.983795	16.0
217.054703	15.0
217.1595	300.0
217.277893	17.0
217.376205	13.0
217.460999	16.0
217.542496	17.0
217.690506	19.0
217.793304	17.0
217.899506	16.0
218.063202	16.0
218.174393	22.0
218.353699	26.0
218.470093	12.0
218.576096	22.0
218.955505	24.0
219.172897	110.0
219.328995	12.0
219.4758	19.0
219.849106	12.0
221.163101	40.0
225.164307	26.0
225.330307	15.0
227.176407	98.0
227.313995	14.0
229.180298	58.0
229.707504	14.0
229.989395	13.0
230.252197	26.0
230.489502	45.0
231.172104	92.0
231.290298	13.0
231.4888	11.0
231.613998	17.0
231.840897	25.0
233.179199	49.0
233.7901	28.0
234.633102	24.0
235.168793	150.0
235.289993	14.0
235.312805	14.0
235.533203	18.0
235.858002	16.0
236.120102	20.0
237.820801	52.0
239.181396	36.0
239.256805	17.0
241.196701	91.0
241.5923	13.0
241.755905	21.0
242.192093	38.0
243.188202	60.0
243.534103	23.0
245.186295	110.0
245.3078	12.0
245.406799	10.0
245.458496	15.0
245.742599	24.0
246.013504	19.0
246.275406	24.0
247.168396	35.0
248.494598	26.0
249.152405	63.0
249.440308	24.0
249.5634	13.0
251.177094	58.0
253.199799	93.0
253.347702	17.0
255.209503	34.0
257.192505	50.0
257.383606	12.0
257.629395	18.0
259.192688	53.0
259.952393	16.0
260.185486	19.0
260.575592	29.0
261.149902	110.0
261.25351	15.0
261.772705	12.0
263.165314	94.0
263.312988	12.0
263.483398	12.0
263.853394	27.0
263.950012	20.0
264.425598	27.0
264.540009	11.0
265.194305	50.0
265.313904	12.0
265.481415	15.0
266.06601	15.0
267.212708	89.0
267.353302	17.0
267.754303	12.0
267.93631	16.0
268.304901	13.0
268.586487	16.0
269.218994	50.0
269.611389	21.0
269.842987	13.0
271.207001	140.0
271.336609	14.0
271.789612	21.0
271.903992	14.0
272.180695	15.0
272.976501	25.0
273.192596	65.0
273.256805	27.0
275.188385	33.0
275.198486	51.0
275.268097	12.0
276.361511	24.0
276.611389	26.0
277.182007	49.0
277.626892	11.0
278.08371	13.0
279.207489	53.0
281.227692	33.0
281.406586	16.0
282.218689	28.0
283.224213	45.0
283.327301	20.0
285.220703	250.0
285.329895	22.0
285.509705	20.0
285.656311	20.0
285.814514	17.0
285.979309	21.0
286.213593	12.0
286.367798	23.0
287.200195	62.0
287.324707	17.0
287.884186	18.0
288.348999	22.0
289.187897	76.0
290.6745	14.0
290.817505	16.0
291.200409	57.0
291.415314	17.0
293.226013	46.0
293.447693	14.0
293.92691	16.0
295.237305	57.0
297.219208	76.0
297.507904	18.0
299.164001	24.0
299.209686	61.0
299.681488	15.0
301.201904	41.0
301.206085	57.0
301.735504	14.0
302.267609	17.0
303.196289	55.0
303.319214	14.0
303.812012	17.0
304.306702	22.0
305.225891	38.0
305.551697	29.0
305.713501	11.0
307.238403	29.0
307.896088	18.0
309.235809	43.0
310.209686	17.0
311.239594	110.0
311.570709	15.0
311.763885	16.0
311.914886	28.0
312.051392	19.0
312.209991	24.0
312.414612	36.0
313.218811	57.0
314.1828	23.0
315.21701	52.0
315.420593	14.0
317.212311	250.0
317.334503	18.0
317.448395	16.0
317.53479	15.0
317.696808	17.0
317.813995	17.0
318.0448	17.0
318.316101	29.0
318.417114	11.0
318.529602	11.0
319.244995	35.0
321.256897	21.0
323.239685	52.0
323.405609	13.0
324.254089	16.0
325.231415	63.0
325.360199	19.0
326.207794	16.0
327.235504	69.0
329.225586	59.0
329.365509	15.0
331.229187	44.0
333.252594	38.0
335.188293	95.0
337.247101	41.0
337.628296	20.0
339.010712	12.0
339.235291	70.0
339.427002	14.0
339.654297	13.0
341.246887	52.0
341.336487	18.0
341.498199	13.0
342.221191	41.0
343.227692	89.0
343.304108	17.0
343.443909	22.0
343.93161	18.0
344.259796	14.0
344.941193	19.0
345.239502	55.0
348.063507	12.0
349.291687	29.0
350.293213	17.0
351.240112	37.0
351.314606	18.0
352.261993	12.0
352.680389	14.0
353.250214	34.0
355.22879	35.0
355.6091	18.0
356.250488	40.0
357.241913	250.0
357.35611	15.0
357.559814	18.0
357.742889	24.0
357.872711	12.0
358.006195	25.0
358.24881	40.0
358.956696	12.0
359.256195	34.0
361.305206	21.0
361.595001	18.0
363.202911	30.0
363.313293	35.0
364.501312	21.0
365.256897	42.0
365.454498	22.0
365.612305	15.0
365.96109	17.0
366.300293	19.0
367.279785	35.0
369.242004	140.0
369.380188	14.0
370.254608	39.0
370.868408	11.0
371.259613	60.0
371.483307	16.0
375.296295	45.0
377.256989	45.0
379.269409	53.0
381.283203	34.0
383.261597	120.0
385.062103	12.0
385.275787	61.0
385.409393	12.0
389.320099	180.0
389.440887	13.0
389.709106	17.0
389.784607	14.0
392.267487	25.0
393.285187	42.0
393.998291	13.0
395.295593	50.0
397.275787	52.0
397.377289	14.0
397.99649	12.0
407.332794	360.0
407.470795	22.0
407.567688	18.0
407.680298	24.0
407.737	24.0
407.881287	13.0
408.025208	21.0
408.205292	25.0
408.31131	16.0
408.495514	24.0
408.90509	28.0
409.314911	36.0
410.314911	21.0
411.293701	64.0
411.387085	13.0
411.553101	14.0
420.292114	42.0
423.293304	24.0
424.266602	13.0
425.34259	39.0
435.326904	430.0
435.467499	15.0
435.567688	16.0
435.685486	15.0
435.861694	17.0
436.014404	18.0
436.122498	16.0
436.173706	17.0
436.308502	17.0
436.438995	22.0
436.788208	18.0
437.213593	13.0
437.964294	13.0
438.485596	17.0
448.883911	17.0
449.662903	18.0
449.8172	19.0
449.975891	13.0
451.626892	16.0
452.1362	16.0
452.438385	30.0
453.06131	10.0
453.337708	2700.0
453.542511	52.0
453.6492	37.0
453.740387	45.0
453.767303	41.0
453.861389	21.0
453.904694	34.0
454.000488	39.0
454.098694	32.0
454.205688	31.0
454.332001	31.0
454.426392	38.0
454.455505	30.0
454.55069	30.0
454.651489	21.0
454.669495	27.0
454.765106	20.0
454.835388	12.0
454.903595	21.0
455.077087	23.0
455.19519	19.0
455.333588	22.0
455.514801	15.0
455.604401	25.0
455.701385	21.0
455.778687	16.0
455.948608	34.0
456.185303	17.0
456.305206	23.0
456.379486	21.0
456.547699	17.0
456.784912	21.0
459.448395	14.0
507.344391	38.0
525.353821	51.0
525.468506	18.0
553.343323	18.0
571.35437	46.0
913.07312	11.0
1585.650513	28.0
END IONS

BEGIN IONS
PEPMASS=142.009
CHARGE=1
MSLEVEL=2
SOURCE_INSTRUMENT=LC-ESI-Orbitrap
FILENAME=t.48fb7fca50674e6e86b3465f15d10203/spectra/specs_ms.mgf;
SEQ=*..*
IONMODE=Positive
ORGANISM=GNPS-LIBRARY
NAME=Methamidophos M+H
PI=Jonathan W. Martin
DATACOLLECTOR=Stefano Papazian
SMILES=COP(=O)(N)SC
INCHI= 
INCHIAUX= 
PUBMED= 
SUBMITUSER=montmasis
LIBRARYQUALITY=3
SPECTRUMID=CCMSLIB00006718059
USI=mzspec:GNPS:GNPS-LIBRARY:accession:CCMSLIB00006718059
SCANS=635
51.023338	42085.0
55.05444	895.0
60.044701	685720.0
63.994759	457232.0
64.003227	457232.0
65.038834	12508.0
65.925552	6940.0
67.054314	6707.0
69.033577	7498.0
71.049026	288.0
78.998993	946297.0
94.009331	848510.0
97.961342	9341.0
100.079247	105213.0
101.081718	8512.0
108.039787	68552.0
109.982323	463614.0
112.01577	10229750.0
112.087112	32200.0
124.981743	969764.0
127.992928	62155.0
END IONS

BEGIN IONS
PEPMASS=183.005
CHARGE=1
MSLEVEL=2
SOURCE_INSTRUMENT=LC-ESI-Orbitrap
FILENAME=t.3f45c88e02d64b73b9c0ad25b2a77857/spectra/specs_ms.mgf;
SEQ=*..*
IONMODE=Negative
ORGANISM=GNPS-LIBRARY
NAME=2,4-Dinitrophenol M-H
PI=Jonathan W. Martin
DATACOLLECTOR=Stefano Papazian
SMILES=C1=CC(=C(C=C1[N+](=O)[O-])[N+](=O)[O-])O
INCHI= 
INCHIAUX= 
PUBMED= 
SUBMITUSER=montmasis
LIBRARYQUALITY=3
SPECTRUMID=CCMSLIB00006718064
USI=mzspec:GNPS:GNPS-LIBRARY:accession:CCMSLIB00006718064
SCANS=2154
50.003281	56071.0
51.02375	90799.0
53.003071	39974.0
55.01865	39260.0
57.0345	53826.0
59.013809	498655.0
59.967232	135327.0
61.988239	35483.0
62.016022	37757.0
64.019157	66904.0
65.003258	121801.0
65.99855	69273.0
66.011124	35138.0
67.01899	243294.0
68.014053	63986.0
68.998466	122719.0
69.034729	123017.0
71.880142	18870.0
72.99295	48159.0
73.029449	49926.0
75.008713	21323.0
75.962517	86645.0
76.970306	498494.0
78.918747	33735.0
78.959137	99583.0
79.019096	219167.0
79.957382	26976.0
80.916878	27420.0
81.034607	21988.0
83.01384	20907.0
83.049988	26159.0
85.029381	51357.0
87.009048	94314.0
93.034416	77404.0
94.029732	44549.0
94.980499	32907.0
95.013939	1570424.0
96.017517	85240.0
96.960083	33697.0
96.969818	18902.0
97.029404	106168.0
98.929443	96313.0
107.013733	26621.0
107.050003	25734.0
108.009422	42864.0
108.021584	758464.0
108.045578	30198.0
109.017189	398178.0
109.025108	48560.0
109.029388	50581.0
110.020569	23359.0
110.024902	68348.0
111.009117	87884.0
111.020302	17446.0
114.960487	23700.0
116.940331	97680.0
118.992912	18794.0
120.008957	26825.0
121.029503	32270.0
123.008957	4725644.0
124.012337	303458.0
125.011673	250916.0
125.024399	21424.0
125.06118	40914.0
126.015511	17678.0
126.995407	25923.0
130.992813	35066.0
135.045486	40356.0
136.004059	20167.0
137.011795	985541.0
137.024597	49464.0
138.020264	1172281.0
139.02301	86149.0
151.040329	29723.0
153.00737	4021091.0
154.009659	265877.0
154.947769	1026164.0
155.010849	19494.0
155.947311	96612.0
156.944107	58434.0
158.950424	48620.0
160.040283	16586.0
168.962631	46734.0
172.958984	17485.0
176.906784	38660.0
182.009842	32010.0
183.005081	8977709.0
END IONS

BEGIN IONS
PEPMASS=192.138
CHARGE=1
MSLEVEL=2
SOURCE_INSTRUMENT=LC-ESI-Orbitrap
FILENAME=t.b30033a26b48478bba2e4cfd095044ce/spectra/specs_ms.mgf;
SEQ=*..*
IONMODE=Positive
ORGANISM=GNPS-LIBRARY
NAME=Diethyltoluamide (DEET) M+H
PI=Jonathan W. Martin
DATACOLLECTOR=Stefano Papazian
SMILES=CCN(CC)C(=O)C1=CC=CC(=C1)C
INCHI= 
INCHIAUX= 
PUBMED= 
SUBMITUSER=montmasis
LIBRARYQUALITY=3
SPECTRUMID=CCMSLIB00006718072
USI=mzspec:GNPS:GNPS-LIBRARY:accession:CCMSLIB00006718072
SCANS=3505
50.01556	2710704.0
51.023369	7800708.0
51.388691	247056.0
53.00256	5039830.0
53.99773	1154582.0
54.005829	274386.0
55.018089	408644.0
59.0494	2294643.0
59.060619	2190712.0
62.01543	2583112.0
63.023071	12964432.0
65.038818	190171040.0
66.042053	9531176.0
67.054291	627903.0
67.989258	1435988.0
69.033478	44475.0
72.044373	57425344.0
72.080803	2295547.0
73.047821	1872480.0
77.041107	2083032.0
89.044838	1962526.0
91.059563	74567344.0
92.062767	5232740.0
95.053558	1653244.0
100.079353	44398552.0
101.081161	2573132.0
105.034538	1393414.0
105.142036	237633.0
109.064621	37217572.0
110.068192	2609164.0
115.469353	226076.0
118.064972	1579555.0
118.676231	527796.0
119.049179	843132352.0
119.423813	343158.0
120.052673	75993688.0
120.184837	238856.0
163.075104	576704.0
174.280762	238763.0
182.762939	274243.0
192.138199	23226020.0
END IONS

BEGIN IONS
PEPMASS=111.044
CHARGE=1
MSLEVEL=2
SOURCE_INSTRUMENT=LC-ESI-Orbitrap
FILENAME=t.b30033a26b48478bba2e4cfd095044ce/spectra/specs_ms.mgf;
SEQ=*..*
IONMODE=Positive
ORGANISM=GNPS-LIBRARY
NAME=Hydroquinone M+H
PI=Jonathan W. Martin
DATACOLLECTOR=Stefano Papazian
SMILES=C1=CC(=CC=C1O)O
INCHI= 
INCHIAUX= 
PUBMED= 
SUBMITUSER=montmasis
LIBRARYQUALITY=3
SPECTRUMID=CCMSLIB00006718073
USI=mzspec:GNPS:GNPS-LIBRARY:accession:CCMSLIB00006718073
SCANS=324
52.018539	91211.0
53.997929	73197.0
54.034119	113259.0
55.018261	5085969.0
55.054661	1058820.0
56.021679	373609.0
56.049809	586036.0
56.057941	71884.0
57.033741	190138.0
57.070122	244490.0
58.029148	106841.0
59.060612	496197.0
60.04475	14554.0
62.92942	451214.0
63.023338	213762.0
64.927368	202651.0
65.038773	26416.0
66.033974	43824.0
66.046654	26173.0
67.029182	88845.0
67.054489	792734.0
67.98954	196698.0
68.013283	3923.0
69.044807	307594.0
69.992393	27458.0
70.028862	158762.0
70.065353	739344.0
72.044647	5475.0
72.937317	137491.0
73.028687	118435.0
73.064903	52753.0
75.046593	228692.0
79.059273	161394.0
81.040993	402858.0
81.05233	138439.0
82.036247	189245.0
83.020233	36121.0
83.05687	2579020.0
83.092987	107014.0
84.051079	205237.0
84.087479	89682.0
85.035103	767104.0
85.071587	173367.0
87.049927	64474.0
92.05471	112801.0
93.037827	63261.0
93.06192	55629.0
93.074463	128912.0
94.032913	179422.0
94.069656	51651.0
95.028603	305481.0
95.089813	31191.0
97.067978	14207.0
97.079353	1143997.0
98.063454	244116.0
98.082764	201970.0
98.979019	405790.0
99.047752	294052.0
100.115837	931362.0
101.026047	272169.0
101.110046	442192.0
101.117699	120429.0
102.057678	313124.0
105.034439	126155.0
105.046181	70998.0
105.071426	95349.0
106.066483	49566.0
107.050507	66063.0
109.07621	59359.0
110.035316	395650.0
110.047707	124668.0
110.060066	561544.0
111.044212	13637038.0
111.055473	1577884.0
111.09198	218544.0
END IONS

BEGIN IONS
PEPMASS=234.149
CHARGE=1
MSLEVEL=2
SOURCE_INSTRUMENT=LC-ESI-Orbitrap
FILENAME=f.zhaohaoq/20220613_DrugExtract_pos/samples/No63.mzML;
SEQ=*..*
IONMODE=Positive
ORGANISM=GNPS-LIBRARY
NAME=methylphenidate M+H
PI=Pieter C. Dorrestein
DATACOLLECTOR=Haoqi Nina Zhao
SMILES=COC(=O)C(c1ccccc1)C1CCCCN1
INCHI=DUGOZIWVEXMGBE-UHFFFAOYSA-N
INCHIAUX= 
PUBMED= 
SUBMITUSER=zhaohaoq
LIBRARYQUALITY=3
SPECTRUMID=CCMSLIB00010011922
USI=mzspec:GNPS:GNPS-LIBRARY:accession:CCMSLIB00010011922
SCANS=855
55.054714	462096.90625
55.818447	409334.9375
56.049915	7981540.0
60.020107	469164.0
60.463287	502172.28125
63.36578	412020.46875
64.266006	454702.0625
67.054535	788624.75
70.065315	819864.6875
72.943863	423664.0625
74.840767	572243.9375
84.0597	1536815.0
84.080849	1070934144.0
85.07798	3221857.25
85.084167	57902340.0
91.054161	2010535.25
93.021988	499135.25
109.293533	446363.875
123.316994	448682.9375
129.070068	1422540.5
135.022461	538042.875
150.43219	492502.375
157.101044	815858.8125
158.961487	527352.375
164.812607	601785.4375
170.482452	529915.75
174.127762	7880952.0
175.13092	868823.4375
175.35405	608653.25
176.711182	509285.96875
191.002487	497391.71875
202.12294	761318.8125
234.148758	335309568.0
235.152176	55980232.0
END IONS

BEGIN IONS
PEPMASS=243.082
CHARGE=1
MSLEVEL=2
SOURCE_INSTRUMENT=LC-ESI-Orbitrap
FILENAME=f.zhaohaoq/20220624_DrugExtract_neg/samples/No60.mzML;
SEQ=*..*
IONMODE=Negative
ORGANISM=GNPS-LIBRARY
NAME=Flurbiprofen M-H
PI=Pieter C. Dorrestein
DATACOLLECTOR=Haoqi Nina Zhao
SMILES=Fc2cc(ccc2c1ccccc1)C(C(=O)O)C
INCHI=SYTBZMRGLBWNTM-UHFFFAOYSA-N
INCHIAUX= 
PUBMED= 
SUBMITUSER=zhaohaoq
LIBRARYQUALITY=3
SPECTRUMID=CCMSLIB00010011931
USI=mzspec:GNPS:GNPS-LIBRARY:accession:CCMSLIB00010011931
SCANS=1346
50.063419	6238.003418
50.098892	7455.227051
51.389755	5868.689941
58.509415	7064.829102
70.055016	6666.819336
71.380157	7080.676758
72.624321	7226.66748
74.42379	6864.76709
80.564278	9019.094727
81.417351	7972.0625
86.18924	8162.133789
87.012466	8533.882812
92.511528	7817.711426
93.321259	6607.134277
99.442398	10609.492188
103.010117	8483.604492
109.810059	7723.34668
115.239891	7148.610352
124.775909	7981.204102
136.550995	8269.491211
145.718307	9721.209961
164.720825	8642.649414
177.070984	19644.894531
179.086777	147133.59375
180.089981	26331.746094
187.056854	19339.425781
195.081909	43920.050781
197.077393	274563.15625
197.882996	9585.672852
198.080597	60286.0
198.09877	23563.177734
199.093063	13395188.0
200.09639	2534636.5
201.099747	78868.515625
213.246841	7431.738281
219.459198	8191.066406
223.062866	36041.621094
225.060165	9054.808594
241.06752	17167.921875
243.070526	11420.053711
243.082855	35500.390625
257.51123	8410.226562
END IONS

BEGIN IONS
PEPMASS=121.03
CHARGE=1
MSLEVEL=2
SOURCE_INSTRUMENT=LC-ESI-qTof
FILENAME=f.stephane/Standards/Benzoic acid_65-85-0_NEG_MS2_20-40eV.mgf;
SEQ=*..*
IONMODE=Negative
ORGANISM=GNPS-LIBRARY
NAME=Benzoic acid M-H
PI=Stephane GREFF
DATACOLLECTOR=Stephane GREFF
SMILES=C1=CC=C(C=C1)C(=O)O
INCHI=1S/C7H6O2/c8-7(9)6-4-2-1-3-5-6/h1-5H,(H,8,9)
INCHIAUX=WPYMKLBDIGXBTP-UHFFFAOYSA-N
PUBMED=243
SUBMITUSER=stephane
LIBRARYQUALITY=3
SPECTRUMID=CCMSLIB00010012074
USI=mzspec:GNPS:GNPS-LIBRARY:accession:CCMSLIB00010012074
SCANS=1
44.999531	148.0
53.03957	108.0
76.969597	156.0
77.039864	3196.0
92.028	132.0
93.034554	1602.0
96.044289	120.0
121.030289	1100.0
END IONS

BEGIN IONS
PEPMASS=360.173
CHARGE=1
MSLEVEL=2
SOURCE_INSTRUMENT=LC-ESI-qTof
FILENAME=f.fronkey/MJH/WUXI20230418/no zlib/C_17 no zlib.mzXML;
SEQ=*..*
IONMODE=Positive
ORGANISM=GNPS-LIBRARY
NAME=Enrofloxacin M+H
PI=Xiang-Rong Cheng
DATACOLLECTOR=Xiang-Rong Cheng
SMILES=CCN1CCN(CC1)C2=C(C=C3C(=C2)N(C=C(C3=O)C(=O)O)C4CC4)F
INCHI=1S/C19H22FN3O3/c1-2-21-5-7-22(8-6-21)17-10-16-13(9-15(17)20)18(24)14(19(25)26)11-23(16)12-3-4-12/h9-12H,2-8H2,1H3,(H,25,26)
INCHIAUX= 
PUBMED= 
SUBMITUSER=fronkey
LIBRARYQUALITY=3
SPECTRUMID=CCMSLIB00011427557
USI=mzspec:GNPS:GNPS-LIBRARY:accession:CCMSLIB00011427557
SCANS=561719
50.422905	6.011364
50.78759	5.025
52.17638	5.017857
53.778019	9.011364
53.945015	11.25
55.055576	36.454544
55.541458	14.240385
56.048954	572.069641
56.11797	10.05
56.251339	8.160714
56.468029	7.05
57.057392	543.710266
57.111645	8.875
58.065689	265.581451
58.134468	5.225
58.169033	18.25
58.311001	8.041667
58.756916	5.25
59.067627	32.240383
59.566113	9.45
60.494499	9.25
62.942242	6.160714
65.041443	48.875
67.05735	216.363632
67.09758	9.680555
68.054337	13.25
69.686043	11.284091
70.06588	1394.257935
70.145668	15.25
70.163315	5.333333
70.280922	6.25
70.625893	18.102272
70.64537	10.025
70.976364	5.125
71.06945	89.474998
71.090508	28.889706
71.130928	6.0625
71.488968	18.408333
72.080971	1097.1073
72.12114	54.125
72.159752	21.173077
72.287766	14.375
72.423172	6.225
72.502701	5.0
72.875626	7.083333
72.914825	12.471154
73.083168	262.360107
73.161545	11.321428
73.181183	6.125
73.240479	6.160714
74.55687	9.160714
75.023376	12.375
75.04583	7.011364
79.378525	6.160714
80.96685	6.041667
81.071609	52.244999
81.105537	9.125
81.221214	7.0625
81.996628	5.083333
82.029221	59.049419
83.049255	97.271736
83.078575	51.219593
83.100624	8.347222
83.153458	6.013889
84.08033	1168.46936
84.138237	17.125
84.166122	18.125
84.244392	7.05
84.304268	30.570652
84.382004	5.0
84.458664	16.625
84.715126	23.4
85.085068	360.5625
85.124557	27.142857
85.141342	16.083334
86.096512	533.007568
86.178841	6.333333
86.217422	8.0
86.298485	14.125
86.984108	10.025
87.209808	6.013889
87.501854	21.0
88.76609	28.005953
90.070427	74.402779
90.13472	6.225
90.993011	6.225
91.953804	5.125
92.051491	14.284091
92.877686	5.0
95.316795	5.625
97.558197	8.5625
98.097458	99.891891
98.133781	9.446428
98.912918	5.083333
102.042595	36.0
103.048836	11.75
107.027916	8.5
107.168007	6.013889
108.616066	5.160714
109.042709	11.011364
109.403938	5.0
111.986015	44.11842
115.057465	73.896278
116.050758	273.446808
116.120178	10.125
116.145546	32.782406
116.175697	7.05
116.921982	6.013889
117.065842	16.025
117.17646	5.041667
120.575363	6.125
120.749207	6.333333
121.050728	125.00338
121.291534	20.011364
121.760971	6.25
122.684601	7.102273
127.055679	10.2
128.056137	99.761902
128.239853	7.0
129.052505	27.480263
130.066772	27.333334
131.063095	61.080128
131.097412	24.680555
131.152664	5.0625
133.031235	95.222565
133.092484	12.102273
134.040573	69.784088
134.285919	9.347222
134.697922	6.041667
135.048782	342.78125
135.120178	15.321428
135.63649	10.2
135.885208	6.0
136.055313	518.840271
136.165726	15.125
136.523895	13.008333
136.78743	18.694445
137.311844	8.160714
137.920761	5.017857
140.042007	13.041667
140.380661	9.011364
141.059174	75.190475
141.144653	6.225
142.062576	19.347221
143.062057	18.0
143.086166	12.875
145.098282	24.25
145.80632	8.125
146.061493	9.125
146.730255	5.025
147.061172	48.625
147.100189	8.2
148.05304	362.038055
148.578171	8.102273
148.964462	25.007353
149.050018	130.960007
149.274139	5.017857
150.063431	105.001984
150.326889	18.666666
151.068375	42.375
151.174942	6.333333
152.046814	13.125
152.088501	5.017857
154.064651	189.163467
154.208038	18.25
155.067978	139.8125
155.13356	7.625
155.29509	5.083333
156.075012	132.92308
157.082916	162.642044
158.036514	41.265625
160.06163	45.016666
161.022263	42.599998
161.056992	228.601471
161.127716	10.0
161.173401	7.5625
161.222839	10.05
161.999023	5.160714
162.029556	94.618149
162.080215	48.041668
163.037262	53.232143
163.090698	5.125
163.329391	7.025
164.009979	22.901316
164.052063	76.275002
164.197128	12.0
164.294815	13.28125
165.086411	78.625
166.064438	9.284091
167.065033	75.640152
167.913513	93.680557
168.619217	9.25
169.073074	261.542603
169.137848	27.4
170.093445	182.615005
171.716263	5.017857
172.051865	28.285715
172.088867	20.556818
173.045776	43.728447
173.214172	6.0
173.450897	31.28125
174.046631	158.800003
174.179962	6.446429
174.558487	6.160714
175.075943	455.885101
175.144775	17.013889
175.205688	7.025
175.419769	25.005953
175.506729	5.625
176.074295	617.512451
176.221863	6.017857
177.04985	45.458332
177.081894	62.066666
177.139633	9.160714
177.225067	16.025
177.564301	6.333333
178.062973	13.125
178.099472	8.025
178.715958	8.011364
178.992233	18.5
179.470154	10.25
179.702652	10.017858
181.073135	70.694443
182.080231	80.64286
183.061844	62.0
183.08989	77.288269
184.063309	373.253967
184.186523	6.025
185.066666	109.25
185.204224	6.0
185.250137	7.041667
185.592514	54.25
186.054062	94.544495
186.182602	14.163462
186.437088	10.0
186.775467	5.017857
187.027374	45.003788
187.068939	102.375
187.249252	9.083333
187.503113	14.680555
187.881012	6.225
188.064835	182.976349
188.138763	20.0625
188.282196	7.2
188.60643	6.013889
188.739639	5.225
189.045364	879.488159
189.212036	6.625
189.255722	7.013889
189.342896	5.017857
189.517334	9.041667
189.843185	11.571428
190.053955	302.581726
190.176117	13.0
190.209259	5.125
190.366898	5.025
190.613312	5.0
191.05928	307.311523
191.130539	21.007353
191.212173	6.446429
192.088715	12.375
192.230453	8.347222
192.822662	19.25
192.938736	6.625
194.081223	35.125
195.094421	49.266666
195.127884	19.875
195.737946	7.160714
196.051849	12.008333
196.082382	24.160715
196.253006	7.160714
197.090179	90.560188
197.182709	8.011364
197.361984	5.333333
198.084702	34.224998
199.08139	39.1875
200.076538	96.409088
200.13002	17.0
201.083786	83.777779
202.066711	441.449463
202.164368	7.0
202.303635	8.011364
202.362823	41.520832
202.713531	6.0
203.063522	1626.52002
203.199387	26.222826
203.250183	6.0
203.509888	23.0
203.61644	39.140625
203.980286	6.446429
204.069916	1199.345703
204.18309	21.125
204.233551	11.05
204.29129	5.083333
204.341919	14.675
204.447815	5.017857
204.493118	23.875
204.72821	6.160714
205.073334	452.48642
205.174591	5.333333
205.264069	14.03125
205.544785	5.0625
205.57782	9.009615
205.626022	5.225
206.024673	14.102273
206.075653	81.446426
206.134384	21.471153
206.214294	8.102273
206.338409	7.0
206.488449	13.284091
206.779251	7.5625
207.11467	43.142857
208.060272	75.01786
208.121323	17.0625
208.154297	16.011364
208.986526	17.0
209.076019	190.546722
209.170029	20.125
209.261383	5.083333
209.987061	9.0
211.086533	45.875
211.223328	11.025
212.075851	33.720238
214.087021	28.240385
215.025864	177.179993
215.058945	230.240387
215.084686	166.024994
215.180374	7.25
215.566513	12.075
216.066666	508.307556
216.218262	8.0
216.29451	5.0625
216.565109	7.083333
217.039551	478.539215
217.075165	329.467529
217.112076	188.77594
217.215866	5.125
217.25293	11.011364
217.584427	6.25
217.735519	6.041667
217.76062	6.041667
218.047684	222.757889
218.082596	311.226135
218.164139	18.125
218.486145	6.025
219.038925	38.125
219.210693	35.048912
219.414963	5.0
219.688705	25.066177
221.791641	6.125
221.912521	18.102272
223.100433	28.291666
223.151428	9.017858
223.593658	18.408333
224.061127	37.111843
224.097778	18.125
225.09407	94.226852
225.14238	20.208334
227.052185	75.760414
227.09964	80.351746
227.172272	27.360294
227.596222	10.0
228.067963	35.125
228.098175	37.720238
228.170013	22.1
229.034317	44.48077
229.076935	635.018372
229.154251	16.360294
229.215561	11.009615
229.250458	6.0
229.30278	5.0
230.073059	302.351349
230.546692	48.125
231.088501	351.285706
231.202347	9.025
232.099716	77.003204
232.190475	7.041667
232.488464	7.25
232.662964	22.321428
235.324051	6.333333
236.081848	19.041666
236.890854	6.446429
237.062347	9.45
237.097397	31.605
237.125366	9.875
238.055298	36.150002
238.107956	103.0
238.180511	10.375
239.089584	63.654068
239.658112	5.083333
241.069321	12.041667
243.055878	769.438599
243.19371	7.0
243.238708	18.440218
243.283524	7.017857
243.400604	8.0
243.526749	7.347222
243.688049	5.017857
243.769119	11.225
244.005402	8.680555
244.055298	88.598404
244.086899	115.054825
244.561127	6.0625
244.827728	19.799999
245.108871	1693.349487
245.196701	27.008333
245.293457	84.964287
245.355911	15.125
245.408676	9.011364
245.882492	12.125
246.004654	6.013889
246.10881	229.880051
246.218338	33.5625
246.446655	8.25
246.510239	22.125
246.73645	18.013889
247.0448	9.0
247.119247	88.164474
248.097656	5.333333
249.118866	38.480263
249.166306	6.041667
250.087326	6.0625
250.124146	54.014706
250.343155	32.135868
251.151428	34.224998
251.197983	6.225
251.674973	8.041667
252.073837	51.0
252.115494	20.083334
252.222992	6.0625
254.240295	5.083333
254.966568	5.083333
255.081711	75.716835
255.139908	14.2
256.366577	5.0
257.101685	243.945419
258.070068	228.756302
258.213165	19.240385
258.427643	5.025
258.939056	17.471153
259.069031	208.189362
259.178223	7.0
259.215332	11.0
260.552612	7.2
260.717804	13.556818
262.807739	6.0
265.166382	29.0
266.089722	80.041664
266.146057	11.8
266.227448	12.0
266.326141	5.625
267.875	8.125
270.105499	77.18409
270.159515	11.25
271.075684	471.450012
271.187195	13.666667
271.239502	7.446429
271.43515	13.920455
273.135895	63.065788
273.223572	5.125
273.385529	13.5
274.773132	6.0625
277.558929	7.0
279.443176	5.017857
279.723297	11.2
281.111938	24.05921
282.117828	15.240385
282.445984	18.164474
282.97879	7.011364
283.803101	5.013889
285.085358	43.004631
285.128235	85.041664
286.098511	1402.875854
286.205719	48.059212
286.251953	27.225
286.337677	18.625
286.508514	17.694445
286.858521	13.035714
287.103546	225.519226
287.229401	5.0
287.278229	6.017857
287.410034	13.0
287.57608	10.875
289.102051	11.125
292.969177	6.013889
294.124054	25.006578
294.160767	32.450001
295.132385	13.011364
297.453156	6.083333
298.105072	76.816666
299.378937	6.25
300.11731	261.401917
300.255646	6.25
300.447998	8.446428
300.587738	10.125
301.114655	204.0336
301.570221	5.017857
301.920502	7.0625
302.124237	60.920456
302.260834	5.083333
302.621552	5.017857
302.791565	12.05
306.976288	5.0
312.532196	6.017857
314.186188	56.416668
314.562653	33.173077
315.167542	69.080879
315.267761	6.160714
316.170166	29.208334
316.226318	8.041667
317.018951	6.0
318.496033	5.333333
319.158539	32.284092
321.217529	7.013889
322.174927	21.556818
330.157898	5.025
334.96936	5.0
340.759399	21.694445
341.070099	6.160714
341.240021	6.0
342.15918	322.616119
342.294342	7.0
343.16275	98.052635
344.365112	7.125
361.086151	13.8
361.194183	5.5
364.128723	6.05
366.826965	5.083333
373.737	16.53125
374.257324	44.541668
375.003387	5.0
378.681305	8.083333
381.186493	6.0
397.003113	6.0
397.221222	6.0625
402.254333	5.017857
406.703156	6.0625
409.228027	9.0
412.83078	6.375
416.261688	8.0
420.787109	5.017857
422.904175	7.160714
422.964142	10.102273
426.06192	5.025
431.309967	7.0
433.322906	7.347222
434.378082	5.0
435.880859	7.347222
452.500397	6.0625
463.807098	5.017857
478.554382	36.720238
490.736176	5.017857
493.438873	6.5
496.765106	6.013889
508.400726	5.017857
513.296265	6.05
522.841553	7.013889
536.141052	5.160714
554.153992	13.8
555.616577	102.002777
562.66687	6.0
577.175232	6.0625
595.320862	11.0
603.741394	5.160714
612.260498	18.160715
645.154541	17.125
645.428223	5.013889
661.316101	5.0
661.479065	5.017857
661.922485	36.125
662.012512	16.05921
671.308838	14.041667
677.440552	15.166667
683.88739	9.45
689.278015	6.0
690.670105	6.125
696.603821	12.2
699.768188	8.0
710.204468	19.556818
710.315979	20.285715
713.734741	5.017857
734.833862	5.083333
737.425964	5.333333
739.620117	6.125
739.79248	6.013889
739.996033	5.083333
743.793274	5.013889
743.966003	5.160714
755.812866	5.017857
765.424438	13.086538
770.579285	16.102272
788.126404	9.017858
792.514587	5.0
808.699768	8.009615
809.027466	7.05
809.355164	7.0
812.148621	9.5625
831.882568	5.041667
838.956055	7.125
839.673828	5.025
844.940063	5.013889
860.097839	6.446429
876.229004	16.920454
880.756531	6.125
894.41449	15.5625
898.422791	10.166667
905.553772	11.666667
910.462952	8.102273
910.775879	5.017857
927.927734	5.0
930.087402	7.0
935.841064	10.086538
939.827942	8.0
940.76416	6.0625
946.657166	5.083333
948.432556	9.45
950.347168	5.017857
954.175903	11.45
961.534607	18.796053
968.532288	5.125
985.255615	5.025
994.153564	5.0
996.180115	18.160715
1004.916992	6.0625
1013.553772	13.05
1015.712891	16.041666
1017.117859	25.125
1025.4552	5.0
1053.304565	17.920454
1053.471069	5.25
1058.100708	5.333333
1060.578369	5.083333
1065.519653	18.208334
1065.950684	16.05921
1086.027466	14.0
1095.317871	5.333333
1095.988159	11.009615
1103.151367	8.0
1110.219727	5.333333
1121.749878	6.017857
1145.489502	5.0
1155.356445	6.125
1162.710693	6.013889
1182.354614	13.2
1191.585938	5.083333
1194.235229	5.225
1209.48938	6.0
1219.386475	5.160714
1229.464966	7.0
1240.112427	6.013889
1251.131714	5.017857
1256.435059	7.011364
1294.24585	8.0625
1321.693359	7.625
1326.776978	5.083333
1330.073608	5.017857
1343.867798	15.321428
1347.546631	6.013889
1359.414673	5.0
1367.817139	16.03125
1370.030396	5.333333
1402.139038	8.05
1409.201416	7.011364
1418.21167	6.017857
1419.361694	5.0
1432.042603	6.017857
1436.27478	6.013889
1446.882568	5.017857
1484.683594	6.013889
1489.683105	10.017858
1545.03772	5.017857
1556.22168	9.125
1558.859863	10.25
1572.534546	5.017857
1574.12915	6.446429
1577.42688	6.0
1588.336182	6.0
1589.415405	9.008333
1595.67981	15.0
1607.956787	5.0
1615.750854	6.013889
1624.051147	7.011364
1637.415527	5.375
1639.944946	6.160714
1645.712769	5.0
1661.736816	6.25
1663.756226	11.086538
1670.600952	6.013889
1672.36731	7.011364
END IONS

BEGIN IONS
PEPMASS=317.118
CHARGE=1
MSLEVEL=2
SOURCE_INSTRUMENT=LC-ESI-Orbitrap
FILENAME=f.ikoester/ParticulateMetabolites/20230522_ETNP_OMZ_Particulates/mzML/Sulfadimethoxin-d6_1mgml.mzML;
SEQ=*..*
IONMODE=Positive
ORGANISM=GNPS-LIBRARY
NAME=Sulfadimethoxine-d6 M+H
PI=Lihini Aluwihare
DATACOLLECTOR=Irina Koester
SMILES=COC1=NC(=NC(=C1)NS(=O)(=O)C2=CC=C(C=C2)N)OC
INCHI=InChI=1S/C12H14N4O4S/c1-19-11-7-10(14-12(15-11)20-2)16-21(17,18)9-5-3-8(13)4-6-9/h3-7H,13H2,1-2H3,(H,14,15,16)/i1D3,2D3
INCHIAUX= 
PUBMED=71312411
SUBMITUSER=ikoester
LIBRARYQUALITY=3
SPECTRUMID=CCMSLIB00011428615
USI=mzspec:GNPS:GNPS-LIBRARY:accession:CCMSLIB00011428615
SCANS=1433
78.034325	136218.203125
79.018333	158029.890625
80.04985	340808.96875
81.471176	85784.640625
85.048103	81506.164062
92.049835	10294684.0
93.057793	598310.125
95.283836	69552.65625
96.044518	161153.359375
96.507629	65524.675781
98.178284	65079.476562
100.488182	69157.507812
102.074188	184148.171875
108.044594	18347802.0
110.060181	1459457.625
120.055397	140314.859375
121.955666	77750.492188
124.021156	123413.601562
127.069069	112886.015625
129.083618	253355.484375
131.097641	173813.09375
133.087753	1153407.0
143.06427	85172.507812
144.072144	191093.1875
156.011124	39604592.0
158.070969	103594.617188
159.092407	1046276.125
160.098221	430510.71875
161.073441	117173.742188
161.1064	3361702.75
162.114136	43008212.0
173.057938	1777624.75
173.080872	93552.273438
176.093002	260593.90625
208.065613	79037.742188
224.060272	6941548.0
233.098145	1809242.375
242.070053	416085.59375
251.140427	12676581.0
253.156097	290852.375
275.944733	73136.65625
299.108002	178501.75
300.611084	92371.703125
313.855255	79735.507812
317.11795	74811480.0
END IONS

BEGIN IONS
PEPMASS=139.113
CHARGE=1
MSLEVEL=2
SOURCE_INSTRUMENT=LC-ESI-qTof
FILENAME=f.loi032/B.haynesii and S.marcescens/MS-DIAL/GnpsMgf_0_20239241853.mgf;
SEQ=*..*
IONMODE=Positive
ORGANISM=GNPS-LIBRARY
NAME=Isophorone M+H
PI=LL
DATACOLLECTOR= 
SMILES=CC1=CC(=O)CC(C1)(C)C
INCHI=InChI=1S/C9H14O/c1-7-4-8(10)6-9(2,3)5-7/h4H,5-6H2,1-3H3
INCHIAUX= 
PUBMED=-
SUBMITUSER=loi032
LIBRARYQUALITY=3
SPECTRUMID=CCMSLIB00012052585
USI=mzspec:GNPS:GNPS-LIBRARY:accession:CCMSLIB00012052585
SCANS=66
53.045712	7.0
55.017799	28.0
55.054428	641.0
56.44352	8.0
56.964512	79.0
57.032909	403.0
57.06995	1890.0
58.073471	79.0
60.04409	450.0
60.051151	451.0
62.03191	1.0
63.03289	322.0
67.05452	344.0
69.032593	12.0
69.070198	890.0
69.9925	222.0
71.049637	1113.0
71.085167	1486.0
72.081383	157.0
72.090378	160.0
72.93779	44.0
73.029747	1.0
73.065048	915.0
75.044662	1.0
77.038467	69.0
78.022171	25.0
79.054909	178.0
81.069603	1390.0
82.014999	24.0
82.074829	93.0
83.049797	314.0
83.08577	977.0
84.079536	83.0
84.995621	30.0
85.027496	268.0
85.065338	983.0
85.101387	762.0
86.068619	43.0
86.102959	43.0
86.365227	14.0
87.028069	451.0
87.044731	428.0
87.080681	384.0
87.759712	14.0
88.083252	9.0
89.043869	1.0
89.060143	1.0
89.236519	167.0
89.255577	184.0
89.287193	173.0
89.30838	50.0
89.362671	56.0
90.06385	1.0
91.038887	175.0
91.06414	389.0
92.040657	26.0
93.070084	634.0
94.065773	1.0
95.049179	1185.0
95.059334	1185.0
95.085899	4651.0
96.089363	246.0
97.064857	3013.0
97.101807	2041.0
98.065773	118.0
98.104477	72.0
99.044533	1667.0
99.0811	7279.0
99.146072	20.0
99.169312	16.0
99.367767	21.0
100.046753	80.0
100.114792	8.0
100.515388	31.0
101.060333	2352.0
102.03595	279.0
102.055923	316.0
102.09182	1.0
102.127983	1079.0
102.970413	56.0
103.039391	263.0
103.061317	1366.0
103.075981	1249.0
103.133087	52.0
103.956902	233.0
103.972076	236.0
104.07547	243.0
105.070213	323.0
105.090446	281.0
105.53717	16.0
105.953903	133.0
106.90522	48.0
107.049828	2142.0
107.070534	3445.0
107.085587	1600.0
108.032089	632.0
108.052437	616.0
108.081642	754.0
109.064957	517.0
109.086212	3909.0
109.101593	3419.0
110.105637	352.0
111.080643	1963.0
111.116997	1516.0
111.561462	9.0
113.060173	2623.0
113.096901	2165.0
113.541542	27.0
113.963188	1.0
114.040817	325.0
114.053528	266.0
114.662407	8.0
115.039818	173.0
115.075546	1973.0
115.112053	2328.0
115.96492	182.0
116.111977	439.0
116.143532	30.0
117.038933	409.0
117.055153	575.0
117.092194	336.0
117.958687	72.0
118.089561	142.0
118.123901	76.0
119.086479	1217.0
119.106789	1255.0
119.231117	7.0
120.044533	35.0
120.068352	93.0
120.558128	20.0
121.050552	3050.0
121.065536	3000.0
121.100899	2141.0
121.965446	62.0
122.096611	3106.0
122.964272	86.0
122.984154	33.0
123.037613	195.0
123.056297	3366.0
123.081108	3084.0
123.117569	2363.0
124.086441	734.0
124.119537	396.0
124.896797	5.0
125.02597	45.0
125.060478	695.0
125.096764	1836.0
125.133797	591.0
126.099037	194.0
126.968224	147.0
127.016022	837.0
127.040321	815.0
127.112457	2520.0
127.458069	1.0
127.542976	85.0
128.02536	1.0
128.108429	332.0
128.143509	259.0
128.548004	563.0
128.564728	557.0
129.055939	165.0
129.069489	1293.0
129.091599	1124.0
129.127014	1589.0
130.046082	1353.0
130.065567	1379.0
130.095795	120.0
130.123611	448.0
130.260605	104.0
130.272842	105.0
130.299118	15.0
130.340729	113.0
130.391357	169.0
130.432846	51.0
130.446274	47.0
130.637466	7.0
130.650421	10.0
131.054977	1195.0
131.070724	1170.0
131.106613	42.0
132.074463	229.0
132.086136	110.0
132.1091	68.0
133.064697	519.0
133.085373	1691.0
133.100266	1641.0
134.061096	30.0
134.098557	116.0
135.117477	753.0
136.024307	213.0
136.077454	441.0
136.116318	474.0
137.055618	1216.0
137.096939	2214.0
137.132935	3577.0
137.554382	219.0
138.045685	312.0
138.092361	168.0
138.135803	395.0
139.052185	2525.0
139.075439	2573.0
139.112595	3341.0
139.149384	293.0
END IONS

BEGIN IONS
PEPMASS=289.227
CHARGE=1
MSLEVEL=2
SOURCE_INSTRUMENT=LC-ESI-qTof
FILENAME=f.fronkey/SUZHOU2023/WX20240119nozib/F_simple/F_3.mzXML;
SEQ=*..*
IONMODE=Positive
ORGANISM=GNPS-LIBRARY
NAME=Bupivacaine M+H
PI=Xiang-Rong Cheng
DATACOLLECTOR=Xiang-Rong Cheng
SMILES=CCCCN1CCCCC1C(=O)NC2=C(C=CC=C2C)C
INCHI=1S/C18H28N2O/c1-4-5-12-20-13-7-6-11-16(20)18(21)19-17-14(2)9-8-10-15(17)3/h8-10,16H,4-7,11-13H2,1-3H3,(H,19,21)
INCHIAUX= 
PUBMED=2474
SUBMITUSER=fronkey
LIBRARYQUALITY=3
SPECTRUMID=CCMSLIB00012176188
USI=mzspec:GNPS:GNPS-LIBRARY:accession:CCMSLIB00012176188
SCANS=712296
51.024132	70.003571
54.03701	46.204544
55.05476	8157.710449
55.123695	170.014282
55.14172	66.5
55.261322	45.44643
55.28809	51.025002
56.050083	63101.105469
56.304104	58.60516
56.336765	72.651665
56.425919	65.291664
56.505775	97.72998
56.543003	92.80278
56.66325	50.761326
56.848423	75.13636
56.881485	44.49559
56.977692	50.562881
57.025547	56.997856
57.070469	41397.386719
57.140682	906.676086
57.229649	40.372726
57.279751	56.659164
57.396053	88.400002
57.452461	50.5
57.516483	81.0
57.611977	40.005207
57.664021	90.009613
57.9701	54.028847
58.050144	135.002274
58.074116	2457.110107
58.146141	50.631893
58.542015	47.78125
59.041721	50.173077
59.160965	43.642857
59.874168	42.349998
65.040741	162.348831
67.054695	4828.731934
67.130539	89.682693
67.1511	41.022961
67.846085	54.226852
68.05011	595.343262
69.068695	515.01709
70.065643	20227.613281
70.142868	307.334808
70.163361	194.622849
70.216682	47.347221
70.243996	66.449997
70.281715	68.670456
70.423958	47.266304
70.462654	42.048912
70.653786	74.013885
70.695732	95.344513
71.069725	1011.112915
71.135269	60.08654
71.301361	57.032143
72.082642	41.48077
74.930359	103.931335
77.040077	49.022728
79.05394	178.758621
80.048523	412.736328
81.11496	110.963234
82.065163	3398.059082
82.138824	46.0
83.072189	642.639709
83.968025	47.890625
84.010071	136.322586
84.081276	268685.84375
84.601936	79.859375
84.636108	53.441559
84.687325	73.291664
84.753746	57.791668
84.815643	86.771431
84.874298	53.441277
84.914009	63.054752
84.952461	49.799629
84.974434	70.394264
84.997459	83.892303
85.024452	82.103004
85.084229	20701.470703
85.167679	353.12796
85.198982	121.552139
85.239922	74.001404
85.264671	74.492935
85.286743	60.329956
85.336555	88.583107
85.356079	44.072483
85.382805	52.740158
85.437378	134.53334
85.459717	113.631577
85.480164	106.852867
85.536171	80.657898
85.559296	92.10141
85.595062	107.724747
85.662025	50.812248
85.761192	50.1745
85.841393	40.168308
85.868523	41.67984
85.964294	72.320107
85.995071	57.022346
86.017754	53.406391
86.093376	186.036758
86.127892	46.742657
86.170647	44.343384
86.246834	54.746178
86.273376	71.323326
86.3022	61.344131
86.416306	68.517326
86.449478	50.91127
86.590111	47.060425
86.634216	56.680611
86.733742	44.133064
86.753616	40.150002
86.85527	46.0
86.99144	55.909092
87.028229	47.80357
87.520638	48.148811
88.15181	62.041668
88.867661	83.330643
90.044289	97.909088
91.049484	126.014999
94.650391	64.644737
95.084747	157.125
96.080795	1067.878052
97.090538	110.53186
97.599373	62.041668
97.734848	57.065788
98.096703	139276.015625
98.687225	77.701614
98.769714	89.69841
98.847366	127.098404
98.930878	67.196426
98.960243	46.541668
99.030586	109.836784
99.099785	13773.139648
99.191307	235.835159
99.226936	92.391457
99.26664	68.32
99.299408	91.977295
99.326393	52.517551
99.374634	44.988998
99.406288	60.68969
99.430923	40.845188
99.465393	79.722145
99.482201	45.362617
99.528183	55.984318
99.561134	63.326721
99.651657	45.769737
99.692741	55.243244
99.714417	46.15625
99.7714	40.125
99.805214	53.095238
99.877823	50.584217
99.971497	47.075001
100.058434	44.016666
100.104973	555.592773
100.222458	58.708332
100.241821	46.310917
100.268608	47.640152
100.350319	50.041668
100.43956	46.408436
100.478477	48.285713
100.609612	48.200001
100.779785	54.289288
103.054367	127.840912
105.069717	1163.366943
106.068588	419.007965
106.148552	47.222828
106.803154	68.041664
107.07354	1729.361816
108.072823	326.003571
111.776993	69.0
112.112106	15397.567383
112.210121	227.457947
112.237572	88.601669
112.273819	43.322369
112.341431	45.0
112.38456	53.222828
112.431694	41.076923
112.649315	65.574997
113.115227	1826.66394
113.212387	64.45153
113.239861	40.521553
113.812401	44.083332
114.116074	114.33654
115.957932	76.640152
116.045364	44.013157
117.058189	411.047485
118.061157	54.125
119.086975	71.002548
121.877647	66.227272
122.097015	596.450012
123.078033	352.665619
123.702812	47.165321
124.087212	63.694443
124.918228	52.625
125.946815	52.032143
128.66066	43.25
132.080048	687.094421
133.048798	64.574997
133.082993	85.388885
138.128815	1080.595215
138.397888	41.25
138.877533	69.049416
139.131561	174.507812
139.768356	65.315216
139.939331	73.446426
139.990677	56.066666
140.143326	400720.25
140.756775	132.495056
140.801376	95.042656
140.832504	79.270279
140.886169	95.28437
140.913452	64.910149
140.99028	95.065933
141.048462	89.046875
141.08461	60.492218
141.146469	59636.0
141.492905	95.241829
141.529266	99.121109
141.610428	165.510117
141.654922	122.270676
141.700165	123.777504
141.79631	47.384617
141.843491	140.171234
141.955902	109.967308
142.018967	105.690826
142.073517	97.364502
142.149094	2597.08667
142.23024	89.891495
142.262436	96.858696
142.294556	63.952568
142.331192	50.211956
142.373581	54.272728
142.440811	53.009998
142.488922	59.271969
142.569382	102.449707
142.649933	84.474174
142.722061	81.486191
142.788666	56.283211
142.819946	41.059258
142.864639	57.111111
143.06633	70.074867
143.087097	59.955555
143.114548	52.557541
143.162811	82.587959
143.327011	60.319443
143.396271	55.509384
143.503418	43.851505
143.606979	62.071224
143.632172	42.841503
143.675415	82.002274
143.796677	42.573433
143.885498	75.596397
143.995224	66.565681
144.040634	60.986382
144.118027	56.735722
144.180084	44.246952
144.214188	47.53125
144.318512	51.049999
144.401657	56.022728
144.439743	65.816666
144.566376	47.520832
144.67717	68.59259
144.818192	52.570946
144.9254	49.347221
144.943588	46.680557
145.240936	49.235294
145.268143	43.089287
146.954498	57.799999
149.185883	50.449074
150.091629	883.222778
151.092712	131.880951
176.341949	49.204544
176.442505	42.032143
225.11261	41.6875
286.708069	44.852272
340.735199	45.375
350.833771	65.640625
372.786926	40.57143
450.894714	41.575001
510.559601	56.939518
717.517456	61.063774
754.501282	44.444443
764.050171	66.236702
798.496704	56.583332
817.368408	55.841217
843.153198	40.090908
1189.897217	63.235466
1201.471436	41.07143
1422.451294	76.118423
1540.538208	59.308674
1596.02063	62.964287
END IONS

BEGIN IONS
PEPMASS=223.096
CHARGE=1
MSLEVEL=2
SOURCE_INSTRUMENT=LC-ESI-qTof
FILENAME=t.2e9b0b1860924355ad6daf8a7f6087dc/spectra/specs_ms.mgf;
SEQ=*..*
IONMODE=Positive
ORGANISM=GNPS-LIBRARY
NAME=Diethyl Phthalate M+H
PI=Aldo Moreno-Ulloa
DATACOLLECTOR=Alan G. Hernandez-Melgar
SMILES=CCOC(=O)C1=CC=CC=C1C(=O)OCC
INCHI=1S/C12H14O4/c1-3-15-11(13)9-7-5-6-8-10(9)12(14)16-4-2/h5-8H,3-4H2,1-2H3
INCHIAUX= 
PUBMED=6781
SUBMITUSER=froz9
LIBRARYQUALITY=3
SPECTRUMID=CCMSLIB00012194725
USI=mzspec:GNPS:GNPS-LIBRARY:accession:CCMSLIB00012194725
SCANS=139
51.846699	17.0
53.579201	14.0
54.986599	38.0
55.290298	12.0
55.592999	27.0
55.935501	27.0
57.3615	16.0
62.231098	66.0
62.473598	46.0
65.0411	460.0
66.025299	14.0
67.049896	83.0
67.0924	13.0
68.045799	16.0
69.725197	17.0
70.366997	14.0
72.385902	15.0
77.040802	230.0
77.143097	10.0
77.228699	11.0
78.0457	36.0
79.051697	32.0
81.640198	11.0
84.970802	26.0
85.229797	20.0
87.172401	17.0
87.606499	27.0
88.401604	25.0
89.8927	16.0
91.039497	74.0
91.067497	17.0
93.033096	270.0
93.1614	53.0
93.734497	24.0
94.393204	21.0
95.076599	120.0
96.8563	24.0
99.865501	40.0
99.9869	20.0
102.131302	10.0
104.985199	210.0
105.068703	25.0
105.093697	10.0
105.570396	16.0
106.039001	140.0
107.083199	22.0
108.123703	33.0
109.008598	73.0
109.099602	14.0
113.047501	29.0
116.442596	15.0
117.933197	110.0
120.147102	18.0
121.028702	71.0
121.036697	1200.0
121.183403	65.0
121.460403	30.0
121.577599	29.0
121.8619	34.0
125.492699	13.0
130.537201	14.0
132.264893	18.0
133.025696	130.0
133.119904	18.0
135.1082	260.0
135.197403	13.0
139.218307	34.0
140.945496	17.0
144.095596	73.0
144.133896	11.0
146.084702	17.0
146.952805	22.0
147.775803	22.0
148.175293	12.0
148.605301	66.0
148.794006	11.0
149.021698	10000.0
149.137405	260.0
149.292892	200.0
149.387299	130.0
149.498199	280.0
149.610504	28.0
149.705505	19.0
149.726593	17.0
149.854202	60.0
149.961105	24.0
150.076294	27.0
150.249405	98.0
150.471298	12.0
150.673401	28.0
151.239197	15.0
151.399902	18.0
156.309799	10.0
159.115601	460.0
159.742401	29.0
159.763	13.0
162.022705	38.0
163.6819	17.0
168.620407	27.0
172.416397	32.0
173.604706	19.0
176.253098	13.0
176.640396	62.0
177.061005	150.0
177.120605	19.0
177.824493	53.0
179.285599	58.0
191.600098	31.0
197.366302	11.0
202.427902	12.0
205.381195	37.0
206.210205	41.0
210.558594	25.0
212.710602	17.0
212.903793	26.0
213.995605	17.0
215.979095	13.0
224.776505	11.0
228.280396	30.0
230.537994	10.0
234.182404	20.0
240.133698	22.0
241.005798	30.0
256.311615	12.0
256.419006	13.0
260.374207	20.0
261.890106	18.0
286.492096	10.0
287.696106	16.0
302.472198	28.0
311.588593	12.0
313.822998	33.0
320.354004	12.0
332.548004	41.0
335.378998	19.0
340.322998	10.0
345.7547	13.0
345.872711	11.0
373.257996	10.0
374.646088	21.0
410.673615	32.0
420.741913	16.0
426.568787	29.0
437.255005	27.0
468.129913	16.0
470.521912	14.0
472.977997	26.0
478.161804	19.0
478.515106	28.0
491.772797	19.0
494.291687	39.0
506.045288	14.0
516.231873	10.0
521.060791	34.0
528.849915	17.0
530.586426	13.0
532.131226	20.0
538.645081	35.0
555.18689	33.0
561.055481	27.0
563.444885	49.0
563.505127	13.0
601.462524	10.0
603.172729	13.0
607.861023	30.0
620.287415	19.0
633.847778	15.0
641.692078	15.0
659.439026	23.0
666.488281	30.0
680.170593	40.0
680.230286	15.0
692.703491	14.0
719.609924	13.0
722.83313	11.0
723.928711	20.0
728.094177	14.0
754.141418	16.0
765.454224	23.0
766.535095	12.0
768.771301	26.0
774.55127	10.0
799.879883	32.0
827.210388	24.0
841.291199	34.0
851.234192	10.0
861.331177	19.0
867.77478	20.0
870.801086	24.0
878.835083	39.0
879.493225	14.0
884.997925	21.0
907.430786	29.0
908.092896	26.0
924.691406	16.0
936.7901	12.0
960.749817	22.0
970.045715	16.0
976.479187	18.0
986.588928	35.0
1001.747925	75.0
1017.973389	10.0
1029.107422	11.0
1029.770752	12.0
1037.964233	45.0
1038.387939	17.0
1083.404663	15.0
1089.828369	30.0
1105.382935	14.0
1130.871582	15.0
1134.148193	15.0
1144.256104	14.0
1156.749146	14.0
1165.699463	18.0
1170.629883	15.0
1172.889282	12.0
1178.834351	32.0
1188.693481	44.0
1199.63623	10.0
1214.101196	22.0
1229.561646	16.0
1254.824341	11.0
1259.498657	13.0
1269.19165	11.0
1276.60791	31.0
1282.404175	14.0
1294.213379	29.0
1298.239502	43.0
1304.977173	55.0
1305.100464	13.0
1382.172119	10.0
1395.341187	10.0
1396.851807	10.0
1400.615601	14.0
1415.035156	25.0
1417.311035	16.0
1419.872437	13.0
1451.733643	34.0
1451.834839	11.0
1453.351685	11.0
1473.583984	10.0
1493.970337	71.0
1505.980835	12.0
1509.707764	20.0
1521.027344	16.0
1536.095093	49.0
1570.423828	31.0
1578.088257	30.0
1586.755493	48.0
1588.38147	11.0
1604.787231	33.0
1608.470215	11.0
1619.885498	25.0
1626.807373	16.0
1629.708252	11.0
1648.512207	24.0
1650.802124	17.0
1651.477295	15.0
1666.911743	16.0
1685.057373	21.0
1690.385742	18.0
1691.533569	39.0
1698.687378	17.0
1719.171143	20.0
1750.054077	11.0
1752.762329	29.0
1773.331421	37.0
1808.79895	27.0
1817.605225	15.0
1836.203491	33.0
1839.214844	30.0
1884.275757	14.0
1920.570923	13.0
1920.778687	19.0
1923.046021	42.0
1971.531128	15.0
1973.749146	20.0
1983.169312	14.0
1995.652588	33.0
END IONS

BEGIN IONS
PEPMASS=106.086
CHARGE=1
MSLEVEL=2
SOURCE_INSTRUMENT=ESI-Orbitrap
FILENAME=SP1_E_1_3.mzML
SEQ=*..*
IONMODE=Positive
ORGANISM=GNPS-LIBRARY
NAME=DIETHANOLAMINE M+H
PI=Aron
DATACOLLECTOR=David Hattan
SMILES=OCCNCCO
INCHI=InChI=1S/C4H11NO2/c6-3-1-5-2-4-7/h5-7H,1-4H2
INCHIAUX=N/A
PUBMED=N/A
SUBMITUSER=jzemlin
LIBRARYQUALITY=1
SPECTRUMID=CCMSLIB00013583122
USI=mzspec:GNPS:GNPS-LIBRARY:accession:CCMSLIB00013583122
SCANS=468
53.461159	7719.203613
55.750019	7918.22998
60.912453	7804.430664
62.061123	12469.027344
64.927948	10289.290039
68.050308	18806.251953
70.065842	780741.1875
77.326012	8708.591797
88.076233	511742.125
100.139328	9639.019531
106.086624	219759.609375
106.808647	8819.709961
112.020386	12465.213867
122.545235	8440.641602
END IONS

BEGIN IONS
PEPMASS=113.035
CHARGE=1
MSLEVEL=2
SOURCE_INSTRUMENT=ESI-Orbitrap
FILENAME=SP1_F_1_3.mzML
SEQ=*..*
IONMODE=Positive
ORGANISM=GNPS-LIBRARY
NAME=URACIL M+H
PI=Aron
DATACOLLECTOR=David Hattan
SMILES=O=C1NC=CC(=O)N1
INCHI=InChI=1S/C4H4N2O2/c7-3-1-2-5-4(8)6-3/h1-2H,(H2,5,6,7,8)
INCHIAUX=N/A
PUBMED=N/A
SUBMITUSER=jzemlin
LIBRARYQUALITY=1
SPECTRUMID=CCMSLIB00013583142
USI=mzspec:GNPS:GNPS-LIBRARY:accession:CCMSLIB00013583142
SCANS=327
53.002876	12914.944336
59.145924	1801.781616
67.029861	3629.032227
68.013687	34716.765625
69.993042	5469.785156
70.029335	1417447.0
70.060272	5634.82959
74.097084	5370.119141
94.971931	1911.82373
95.024414	185633.9375
95.956131	3459.045898
96.008377	1343737.25
96.05777	4543.601562
113.034706	1614033.75
113.098076	5984.112793
113.106651	3850.025146
END IONS

BEGIN IONS
PEPMASS=296.024
CHARGE=1
MSLEVEL=2
SOURCE_INSTRUMENT=LC-ESI-Orbitrap
FILENAME=all_ms2.mgf
SEQ=*..*
IONMODE=Positive
ORGANISM=GNPS-LIBRARY
NAME=Diclofenac [M+H]+
PI=Pieter Dorrestein
DATACOLLECTOR=Minions
SMILES=O=C(O)Cc1ccccc1Nc1c(Cl)cccc1Cl
INCHI="InChI=1S/C14H11Cl2NO2/c15-10-5-3-6-11(16)14(10)17-12-7-2-1-4-9(12)8-13(18)19/h1-7,17H,8H2,(H,18,19)"
INCHIAUX=
PUBMED=drug_mix_all_combined.mzML:scan:3116
SUBMITUSER=jzemlin
LIBRARYQUALITY=1
SPECTRUMID=CCMSLIB00015625747
USI=mzspec:GNPS:GNPS-LIBRARY:accession:CCMSLIB00015625747
SCANS=41
54.478241	995.191772
56.945541	1136.712524
57.070702	1318.82666
57.289249	1324.821777
58.065861	4411.277344
58.663689	1224.214233
62.597309	1310.058472
65.87558	1258.497192
70.344704	1578.22583
71.047188	1328.780518
83.086067	1979.072998
84.536133	1517.68689
92.551376	5905.169922
120.044609	3461.126465
157.088638	3189.504883
167.53125	1755.191406
176.107285	26118.640625
179.072815	1935.97583
180.08049	8153.388672
203.320587	2215.898193
214.041779	354264.125
215.049576	409469.96875
243.038177	1946.364746
250.018433	158707.65625
251.084015	2573.489746
254.283463	2408.550293
278.013245	20094.1875
296.024109	6199.04834
296.074219	3240.463379
296.141235	3538.681396
296.29425	6152.947266
END IONS

BEGIN IONS
PEPMASS=309.112
CHARGE=1
MSLEVEL=2
SOURCE_INSTRUMENT=LC-ESI-Orbitrap
FILENAME=all_ms2.mgf
SEQ=*..*
IONMODE=Positive
ORGANISM=GNPS-LIBRARY
NAME=Warfarin [M+H]+
PI=Pieter Dorrestein
DATACOLLECTOR=Minions
SMILES=CC(=O)CC(c1ccccc1)c1c(O)c2ccccc2oc1=O
INCHI="InChI=1S/C19H16O4/c1-12(20)11-15(13-7-3-2-4-8-13)17-18(21)14-9-5-6-10-16(14)23-19(17)22/h2-10,15,21H,11H2,1H3"
INCHIAUX=
PUBMED=drug_mix_all_combined.mzML:scan:3046
SUBMITUSER=jzemlin
LIBRARYQUALITY=1
SPECTRUMID=CCMSLIB00015625754
USI=mzspec:GNPS:GNPS-LIBRARY:accession:CCMSLIB00015625754
SCANS=60
55.091572	205172.28125
59.272221	206064.375
62.766499	380884.90625
68.997833	399557.8125
77.039558	392497.8125
82.072121	219328.84375
91.054817	1137859.25
92.552643	1136084.875
95.049767	1719606.0
103.054733	777891.75
105.045036	361029.34375
105.070099	325070.28125
121.028641	11488084.0
121.037308	509258.71875
128.061981	411898.21875
129.033646	323240.125
129.069916	4201317.0
131.049301	4043058.5
141.069077	238605.890625
147.080475	29463038.0
153.070358	304201.75
155.085571	8675399.0
157.028137	842607.0
163.010971	995549.9375
163.038956	167019264.0
163.060745	814134.0625
163.067459	1252072.25
165.07016	1006093.5
167.085526	2060252.625
171.079575	1572597.125
173.023514	1226728.5
175.038742	981638.75
177.069962	281118.21875
178.07814	1448028.125
179.08522	752570.0
181.064178	371715.90625
183.080368	12333812.0
189.054962	1882025.125
191.016068	631986.25
191.033875	23521344.0
195.080536	1238941.625
205.065338	1656056.5
207.080002	595785.5625
223.075287	6108886.5
233.060059	2462307.25
243.197968	309707.71875
249.054611	590798.625
251.070145	136731264.0
251.123505	865026.0625
291.101044	3288839.5
309.076538	525267.0625
309.111938	8442696.0
END IONS

BEGIN IONS
PEPMASS=365.117
CHARGE=1
MSLEVEL=2
SOURCE_INSTRUMENT=LC-ESI-Orbitrap
FILENAME=all_ms2.mgf
SEQ=*..*
IONMODE=Positive
ORGANISM=GNPS-LIBRARY
NAME=Bumetanide [M+H]+
PI=Pieter Dorrestein
DATACOLLECTOR=Minions
SMILES=CCCCNc1cc(C(=O)O)cc(S(N)(=O)=O)c1Oc1ccccc1
INCHI="InChI=1S/C17H20N2O5S/c1-2-3-9-19-14-10-12(17(20)21)11-15(25(18,22)23)16(14)24-13-7-5-4-6-8-13/h4-8,10-11,19H,2-3,9H2,1H3,(H,20,21)(H2,18,22,23)"
INCHIAUX=
PUBMED=drug_mix_all_combined.mzML:scan:3015
SUBMITUSER=jzemlin
LIBRARYQUALITY=1
SPECTRUMID=CCMSLIB00015625758
USI=mzspec:GNPS:GNPS-LIBRARY:accession:CCMSLIB00015625758
SCANS=158
52.330238	10018.082031
55.055111	10539.546875
57.070789	60047.183594
60.475712	8048.206543
72.526253	9802.423828
85.847603	9481.087891
91.054749	16013.389648
92.549507	49517.902344
108.044693	115568.5625
115.05481	22181.376953
122.589218	9830.861328
124.039558	24575.525391
128.061874	49290.5
129.069992	137170.84375
130.065475	9420.681641
135.093811	10026.555664
139.053986	50488.441406
141.05986	20520.976562
141.069977	231869.640625
152.034286	150175.328125
152.061523	30590.417969
153.06987	104854.523438
154.06485	24664.617188
155.048813	16762.589844
155.072723	22428.671875
156.080795	1608808.125
162.478973	10592.739258
164.034592	11734.952148
164.106125	14667.522461
166.064957	95903.164062
167.047836	11027.581055
167.072739	40328.929688
168.057297	81470.125
168.08049	40726.320312
169.064728	227176.359375
170.096329	155072.09375
171.080444	44750.296875
180.081161	29586.896484
181.051453	14741.073242
181.064957	85701.554688
182.059723	84807.09375
183.067886	915505.0625
183.085175	17936.714844
184.006973	14252.807617
184.075699	2788550.25
184.109222	19475.111328
185.083572	28020.279297
186.091415	21917.757812
194.072159	14699.140625
194.09642	12431.070312
195.068176	107579.085938
196.075729	1052447.75
197.059021	15046.518555
197.084518	53379.480469
198.091339	216552.953125
200.070099	24559.392578
208.075531	27336.761719
208.096329	22995.050781
209.083374	42414.675781
210.054321	50031.980469
210.091339	36726.136719
212.112106	13208.286133
212.122406	13259.581055
212.143341	654691.3125
212.164597	13782.325195
224.070419	29558.802734
225.054199	50407.808594
227.057556	105207.359375
228.064621	15026.125977
229.027054	18658.804688
229.073349	38200.027344
238.122223	217406.5
239.13028	112728.257812
240.046036	8827.072266
240.06572	395077.375
240.085358	23289.433594
240.138138	3239061.25
242.080856	378205.875
248.037552	41735.175781
248.107208	20353.193359
254.101944	13966.191406
255.108658	15351.717773
256.13327	111532.632812
263.695953	12056.510742
266.117493	371547.96875
283.120361	172511.109375
284.095184	18750.732422
284.12793	890418.375
284.159821	26959.03125
291.994751	12182.005859
292.027374	251980.515625
348.089783	101736.304688
365.116821	237797.4375
END IONS

BEGIN IONS
PEPMASS=285.142
CHARGE=1
MSLEVEL=2
SOURCE_INSTRUMENT=LC-ESI-Orbitrap
FILENAME=all_ms2.mgf
SEQ=*..*
IONMODE=Positive
ORGANISM=GNPS-LIBRARY
NAME=Promethazine [M+H]+
PI=Pieter Dorrestein
DATACOLLECTOR=Minions
SMILES=CC(CN1c2ccccc2Sc2ccccc21)N(C)C
INCHI="InChI=1S/C17H20N2S/c1-13(18(2)3)12-19-14-8-4-6-10-16(14)20-17-11-7-5-9-15(17)19/h4-11,13H,12H2,1-3H3"
INCHIAUX=
PUBMED=drug_mix_all_combined.mzML:scan:2332
SUBMITUSER=jzemlin
LIBRARYQUALITY=1
SPECTRUMID=CCMSLIB00015625804
USI=mzspec:GNPS:GNPS-LIBRARY:accession:CCMSLIB00015625804
SCANS=155
50.384289	317575.9375
56.05043	2639450.5
56.313461	314337.15625
58.066002	1283400.0
60.372581	345526.90625
62.433609	302363.6875
63.920551	438550.6875
69.217857	356700.78125
69.943619	326457.625
70.065826	1081531.5
71.073769	18495070.0
84.081413	3791751.0
86.083183	814812.75
86.086433	2345354.0
86.097122	333380064.0
86.108139	2362096.25
86.328979	349775.5625
92.548592	782535.8125
92.553879	564505.0625
105.070663	2433281.5
106.066162	447804.5625
109.011307	813024.5625
130.065353	432196.0625
136.021469	982018.6875
154.065765	1187927.625
162.037064	6555992.0
168.656601	379706.25
171.026794	482467.1875
197.028671	514456.96875
198.023315	3000196.0
198.037262	176109664.0
198.075424	1019838.8125
206.096588	1712776.25
207.103851	3650630.25
208.111267	713126.625
224.052521	1508656.625
225.060745	5580708.5
239.077225	672057.1875
240.084045	45471608.0
278.677673	376474.25
285.141998	30089992.0
END IONS

BEGIN IONS
PEPMASS=358.085
CHARGE=1
MSLEVEL=2
SOURCE_INSTRUMENT=LC-ESI-qTof
FILENAME=Indomethacin.mgf
SEQ=*..*
IONMODE=Positive
ORGANISM=GNPS-SELLECKCHEM-FDA-PART1
NAME=Indomethacin M+H
PI=Sirenas
DATACOLLECTOR=Ed Esquenazi 
SMILES=CC1=C(C2=C(N1C(=O)C3=CC=C(C=C3)Cl)C=CC(=C2)OC)CC(=O)O
INCHI=InChI=1S/C19H16ClNO4/c1-11-15(10-18(22)23)16-9-14(25-2)7-8-17(16)21(11)19(24)12-3-5-13(20)6-4-12/h3-9H,10H2,1-2H3,(H,22,23)
INCHIAUX=N/A
PUBMED=N/A
SUBMITUSER=mwang87
LIBRARYQUALITY=3
SPECTRUMID=CCMSLIB00000004233
USI=mzspec:GNPS:GNPS-SELLECKCHEM-FDA-PART1:accession:CCMSLIB00000004233
SCANS=1
110.998291	161.331604
129.010971	14.73157
138.279495	11.42102
138.328445	19.595039
138.360397	21.70916
138.43457	11.36193
138.801941	17.568821
138.878281	12.68091
138.972351	62.437649
138.994843	10913.179688
139.045288	50.878979
139.062317	34.907181
139.10495	50.703861
139.147369	17.10577
139.159027	16.34083
139.191559	49.648041
139.2258	23.478861
139.266663	45.473492
139.280441	31.411421
139.386154	29.501419
139.420517	56.778019
139.442749	37.35981
139.493011	18.688299
139.501801	11.66955
139.67363	23.50378
139.997437	114.714401
140.024307	15.71902
174.091599	1498.514038
174.151306	13.35232
174.240555	13.67493
175.096542	12.15504
202.084778	158.307907
279.865845	13.42253
312.0802	110.617699
313.191864	11.24747
317.042053	42.409241
355.834381	17.55201
356.009857	11.96314
356.112213	12.73518
356.134613	18.944309
358.084808	4801.604004
358.172028	56.155449
358.29715	23.666719
358.394104	21.52022
358.441895	20.16386
358.497467	35.600491
358.536987	33.604462
358.638519	51.013729
358.915833	25.07869
358.940399	53.315048
358.99057	27.70833
END IONS

BEGIN IONS
PEPMASS=355.188
CHARGE=1
MSLEVEL=2
SOURCE_INSTRUMENT=LC-ESI-qTof
FILENAME=Tretinoin.mgf
SEQ=*..*
IONMODE=Positive
ORGANISM=GNPS-SELLECKCHEM-FDA-PART1
NAME=Tretinoin M+H
PI=Sirenas
DATACOLLECTOR=Ed Esquenazi 
SMILES=CC1=C(C(CCC1)(C)C)/C=C/C(=C/C=C/C(=C/C(=O)O)/C)/C
INCHI=InChI=1S/C20H28O2/c1-15(8-6-9-16(2)14-19(21)22)11-12-18-17(3)10-7-13-20(18,4)5/h6,8-9,11-12,14H,7,10,13H2,1-5H3,(H,21,22)/b9-6+,12-11+,15-8+,16-14+
INCHIAUX=N/A
PUBMED=N/A
SUBMITUSER=mwang87
LIBRARYQUALITY=3
SPECTRUMID=CCMSLIB00000004323
USI=mzspec:GNPS:GNPS-SELLECKCHEM-FDA-PART1:accession:CCMSLIB00000004323
SCANS=1
133.060562	19.776899
225.122208	33.594929
311.197235	136.792999
311.674286	11.63516
314.184204	31.52002
353.002106	10.73016
355.187775	3162.851074
355.240662	28.371771
355.381775	23.56917
355.544464	25.339029
355.75415	25.0375
355.860168	15.25379
355.969147	17.35041
356.290894	17.47756
356.439606	26.03076
END IONS

BEGIN IONS
PEPMASS=273.128
CHARGE=1
MSLEVEL=2
SOURCE_INSTRUMENT=LC-ESI-qTof
FILENAME=Sotalol.mgf
SEQ=*..*
IONMODE=Positive
ORGANISM=GNPS-SELLECKCHEM-FDA-PART1
NAME=Sotalol M+H
PI=Sirenas
DATACOLLECTOR=Ed Esquenazi 
SMILES=CC(C)NCC(C1=CC=C(C=C1)NS(=O)(=O)C)O
INCHI=InChI=1S/C12H20N2O3S/c1-9(2)13-8-12(15)10-4-6-11(7-5-10)14-18(3,16)17/h4-7,9,12-15H,8H2,1-3H3
INCHIAUX=N/A
PUBMED=N/A
SUBMITUSER=mwang87
LIBRARYQUALITY=3
SPECTRUMID=CCMSLIB00000004499
USI=mzspec:GNPS:GNPS-SELLECKCHEM-FDA-PART1:accession:CCMSLIB00000004499
SCANS=1
106.065605	1051.536011
106.458611	25.500931
107.253365	20.16766
108.601433	22.89946
116.047859	172.563004
117.055862	155.730194
118.066864	124.471199
120.081573	60.096981
132.114136	30.67391
132.230118	20.523809
132.35788	27.816891
132.365234	33.890888
132.434219	17.33333
132.594421	22.7038
133.051926	18.005951
133.075912	7040.809082
133.123764	27.512199
133.135971	15.6579
133.152435	19.11128
133.183945	13.11765
133.220078	16.02174
133.256363	22.68531
133.264191	27.50712
133.340561	12.00145
133.356781	14.5125
133.408615	31.35714
133.532715	35.24242
133.553558	18.612499
133.588242	14.24013
133.605347	27.06793
133.722641	17.08036
133.758682	22.223221
134.056686	20.111111
134.083298	3206.36499
134.196365	52.75
134.277969	23.5194
134.415314	17.71875
134.552536	21.662081
135.087463	78.796227
135.105667	36.048611
144.075104	81.772293
146.690964	25.39646
149.118484	41.644741
158.096313	79.853302
158.491348	15.6875
161.106445	170.667404
175.080521	21.566669
175.093445	29.19231
175.121658	217.847397
175.210754	31.504169
175.840881	17.192051
176.130493	3837.331055
176.187027	15.5016
176.219391	20.601139
176.333817	19.611839
176.394897	13.5
176.431641	39.376492
176.501923	39.502781
176.585114	17.360291
176.709229	17.255211
176.813019	14.44676
176.8564	28.736839
177.246078	11.71607
177.919128	15.8288
194.95256	17.5625
194.988068	200.445999
195.944794	10.7025
196.042923	63.558819
198.061234	122.653198
198.107986	25.558821
198.661682	15.54223
205.855209	19.19565
211.650024	11.59191
211.777206	36.236839
211.802658	18.83112
211.82283	23.73053
211.83754	29.19758
211.883865	61.31422
211.934952	47.902451
211.944336	44.00544
211.977173	48.859249
212.040421	19.59524
212.069992	40.51717
212.106308	44.063301
212.160065	37.54018
212.216934	42.864929
212.2379	14.5625
212.261749	43.465279
212.298843	17.5
212.407883	31.00481
212.676056	28.982759
212.705231	14.07143
212.855087	52.450211
213.004013	18.0
213.069321	37189.121094
213.24295	21.60607
213.28566	191.236298
213.298843	46.367352
213.336365	148.006302
213.368256	49.98801
213.383789	28.73703
213.40979	66.47448
213.423767	21.01552
213.448761	109.355103
213.471909	96.913849
213.490265	18.788971
213.509644	24.625
213.522217	23.5
213.545151	78.964951
213.567795	105.426399
213.608749	22.840799
213.620972	45.483551
213.635178	136.778503
213.671844	58.696049
213.698822	104.511398
213.734344	35.22892
213.752701	49.61919
213.854187	24.334721
213.86618	41.245029
213.888443	22.58696
213.950302	65.745934
214.293976	70.049698
214.800446	43.16898
215.116348	25.920139
215.190598	29.846979
216.010162	15.1875
216.629288	24.173611
217.146591	19.117649
245.98468	12.52381
250.286499	15.68445
250.538239	11.28571
250.969452	13.92105
251.286758	15.88461
252.271774	18.53516
252.310455	14.25762
252.570297	29.340281
253.330444	18.777781
253.430878	75.373711
253.458054	108.480797
253.505997	109.672401
253.546402	50.95863
253.598999	106.138496
253.614288	378.257385
253.63443	229.796097
253.670502	203.825302
253.699371	164.225494
253.724503	109.177902
253.747757	384.885101
253.781906	233.868698
253.797943	176.316299
253.820358	81.454308
253.842621	138.981094
253.863815	171.872192
253.890762	71.304169
253.917984	63.821018
253.976929	202.139893
254.007858	264.636688
254.028503	108.576599
254.075974	51.797791
254.233704	65.80162
254.298492	36.244999
254.318954	92.002747
254.391403	72.491814
254.487503	28.657141
254.56189	49.841259
254.705109	71.783386
254.736877	50.65313
254.903931	82.117661
254.948837	46.264019
255.04332	77.504807
255.116913	235554.90625
255.645309	388.768799
255.662552	81.405724
255.707901	415.871796
255.828201	225.985199
255.853973	224.339294
255.883118	174.677307
255.901901	81.597816
255.937057	243.217102
256.000427	64.005539
256.023987	159.812805
256.075684	102.687897
256.187256	108.855499
256.24292	30.740391
256.290558	98.996178
256.442535	12.9025
256.461578	51.349991
256.579254	134.696701
256.592712	36.25
256.62851	20.17226
256.894165	36.70718
256.923431	22.19141
256.990356	22.010229
257.146515	16.092039
257.160248	22.33333
257.228729	87.314491
257.297333	49.5625
257.368622	44.26178
257.39444	36.29707
257.548584	31.773649
257.96167	24.39946
258.010956	19.5016
258.053253	22.0
258.202454	20.50625
258.23999	77.277512
258.257874	17.5
258.493927	15.59559
258.510132	17.24493
258.677582	17.004169
258.721527	16.32143
259.063568	20.004629
259.114349	32.661179
259.136383	11.64464
259.269348	24.296049
259.506317	15.00368
259.595795	14.50152
259.988373	25.04327
260.055634	18.107759
260.515869	13.0
260.63324	17.840719
261.724518	19.50815
265.072632	15.51923
268.893127	16.16667
271.485321	56.032612
271.509949	22.839279
271.54071	17.75625
271.574646	12.00216
271.591797	18.65625
271.630615	31.72283
271.655853	17.26042
271.709473	23.648809
271.741058	31.165541
271.933411	17.133329
272.071014	47.065441
272.118103	18.389111
272.263062	13.22917
272.398285	28.74617
272.462921	10.62019
272.527161	17.05921
272.601959	23.223221
272.685394	42.975639
273.004059	16.1875
273.063232	93.88063
273.127167	27853.339844
273.246368	28.816669
273.262421	112.332199
273.312988	108.645599
273.346985	182.034897
273.373474	58.385738
273.400299	144.369705
273.434082	68.529701
273.471893	53.301979
273.503967	59.424648
273.530823	41.065048
273.5578	48.879169
273.579132	11.84073
273.600616	95.534019
273.668732	104.786903
273.700287	36.85667
273.729309	28.24242
273.789734	19.98098
273.918671	27.640631
273.989502	34.643379
274.022705	47.6385
274.223999	20.71875
274.631653	14.84722
274.893219	32.487801
275.199585	25.950211
275.44577	13.07143
277.842224	13.00961
279.085175	18.96023
310.578247	14.33523
325.736298	18.125
534.632202	17.05114
576.669373	20.02083
1020.209961	46.5084
END IONS

BEGIN IONS
PEPMASS=268.076
CHARGE=1
MSLEVEL=2
SOURCE_INSTRUMENT=LC-ESI-qTof
FILENAME=Sulfisoxazole.mgf
SEQ=*..*
IONMODE=Positive
ORGANISM=GNPS-SELLECKCHEM-FDA-PART1
NAME=Sulfisoxazole M+H
PI=Sirenas
DATACOLLECTOR=Ed Esquenazi 
SMILES=CC1=C(ON=C1C)NS(=O)(=O)C2=CC=C(C=C2)N
INCHI=InChI=1S/C11H13N3O3S/c1-7-8(2)13-17-11(7)14-18(15,16)10-5-3-9(12)4-6-10/h3-6,14H,12H2,1-2H3
INCHIAUX=N/A
PUBMED=N/A
SUBMITUSER=mwang87
LIBRARYQUALITY=3
SPECTRUMID=CCMSLIB00000004605
USI=mzspec:GNPS:GNPS-SELLECKCHEM-FDA-PART1:accession:CCMSLIB00000004605
SCANS=1
103.599403	39.669621
104.96022	35.388889
105.995995	4.017857
106.06456	17.521601
107.424408	19.75556
107.469566	6.805555
107.544525	50.7859
107.567657	9.386905
107.593506	8.533334
107.621117	7.921875
107.649841	11.15278
107.65625	30.82305
107.664726	40.195801
107.686058	4.037037
107.826904	10.3787
108.044441	21106.320312
108.098175	11.67361
108.104797	42.48016
108.115608	4.6875
108.154602	47.623032
108.189438	50.94865
108.20295	18.827221
108.217651	11.8293
108.231781	32.19907
108.246094	100.320702
108.267357	40.722481
108.280251	22.145
108.305328	18.8151
108.314941	12.05357
108.328117	20.57407
108.354996	11.66821
108.369141	24.12397
108.375603	51.770061
108.403351	12.74167
108.441284	24.008329
108.452652	3.066667
108.460007	12.00577
108.479744	40.98888
108.503319	21.58613
108.532394	14.88
108.583229	8.395202
108.630363	10.67064
108.659897	38.676529
108.805077	8.639493
108.816193	22.22159
108.887955	15.33631
108.95694	8.689815
109.047997	495.900696
109.091339	7.66821
109.134949	11.33333
109.210022	7.375
109.549484	8.909483
109.830208	9.005208
110.488548	9.8
111.576172	9.094697
111.694016	12.29167
112.028625	9.204166
112.06176	449.072388
112.080513	5.034091
112.382576	14.72185
112.406044	34.437099
112.419304	19.006149
112.439819	30.686399
112.451874	153.462799
112.476036	218.737
112.496834	64.299767
112.517189	263.588287
112.538498	49.270039
112.547272	81.630211
112.572235	44.580891
112.585663	67.676804
112.591965	40.71402
112.600998	123.285896
112.622581	45.23185
112.632118	52.16082
112.65741	87.976173
112.67028	17.390539
112.681061	93.311363
112.689079	49.395199
112.694969	11.70455
112.716606	89.095612
112.734352	16.82095
112.742249	39.389339
112.761398	45.68132
112.776535	29.19157
112.787277	24.78793
112.801308	24.707069
112.821693	16.0
112.838058	12.29493
112.847939	37.3242
112.861	22.53146
112.887764	48.328011
112.928535	19.370371
112.936157	15.11204
113.047585	50.407551
113.071083	121755.203125
113.256638	19.494619
113.284943	56.910709
113.301636	25.02059
113.328972	17.308491
113.343971	59.753132
113.358635	19.604759
113.374138	163.737595
113.389496	55.820549
113.404343	110.465302
113.41378	30.055361
113.425079	47.343861
113.432808	28.543329
113.485992	87.684433
113.49929	74.225937
113.548363	93.877403
113.553497	92.326263
113.584007	79.219414
113.599541	44.63937
113.611145	130.047302
113.623108	13.51974
113.644577	18.40476
113.652069	34.840279
113.663277	35.769691
113.685837	127.716003
113.699661	20.565229
113.733315	12.49359
113.745354	41.536331
113.771843	26.436359
113.795616	16.362921
113.810799	13.69444
113.821976	70.970833
113.918243	18.74333
114.003143	31.78241
114.073761	1033.115967
114.100685	23.76894
114.11512	8.422101
114.137299	10.00833
114.175545	6.6
114.300896	19.506229
114.427383	26.856979
114.439079	28.48214
114.522591	9.57615
114.63578	9.829301
114.64386	34.313141
114.651001	25.347521
114.725342	17.53788
114.768394	15.32065
114.856636	9.001985
115.060822	22.339291
115.124344	3.003205
115.260925	20.81349
115.273682	7.435897
115.337204	10.66742
115.377464	14.20167
115.463371	9.107142
115.516617	4.75
115.672302	14.72024
115.759789	10.64015
116.078156	9.672619
117.933342	14.17204
118.061798	18.66954
118.315224	13.66724
119.190964	8.334459
119.42379	9.198529
120.134743	18.160721
120.986565	8.782407
123.302551	20.6276
124.018585	18.028851
128.594986	67.163757
129.785431	13.96154
130.675827	14.56061
133.075195	47.74091
139.303024	22.45833
139.397385	9.679598
140.01564	1814.870972
140.228317	7.775537
140.253433	13.36012
140.269547	7.422101
140.289703	9.013888
140.578766	15.13807
140.853851	18.48159
142.712204	6.160088
144.055115	50.546749
146.084641	93.321404
146.379028	11.44872
148.063248	9.667857
152.073441	5.375
153.811325	10.67262
154.174377	33.420761
154.304398	23.28137
154.619614	14.80303
154.931076	11.89387
155.005219	20.002781
155.017471	7.813406
155.026978	17.43219
155.048279	13.43561
155.057281	21.0704
155.065353	9.712037
155.094147	21.725
155.108353	51.043541
155.118164	57.842449
155.135437	30.52273
155.147049	63.790279
155.164703	75.988678
155.197235	114.384499
155.225784	221.903595
155.238388	50.796879
155.266708	100.413399
155.283234	43.463711
155.300827	76.186211
155.312088	118.088997
155.320129	20.19956
155.353531	139.416107
155.388092	91.443481
155.399109	8.843137
155.423828	21.58333
155.433289	53.465279
155.465469	18.75725
155.49794	25.4401
155.518433	79.610786
155.53212	43.486622
155.542984	36.667171
155.555862	28.47756
155.581924	23.1
155.59021	20.56481
155.654694	23.299999
155.672455	23.00054
155.755524	38.091949
155.84021	41.61758
155.910919	31.062241
155.931412	190.5177
155.963776	32.5
155.972763	58.786671
155.983414	66.013733
156.011536	178668.40625
156.399658	195.692505
156.441742	91.615334
156.463959	109.403397
156.481766	107.369598
156.496262	36.81797
156.513718	73.68222
156.523666	35.956829
156.542236	60.695992
156.560822	91.65873
156.575851	18.59811
156.588364	108.617996
156.602798	60.151878
156.615906	92.397873
156.627136	85.556137
156.635223	54.35704
156.655045	47.385208
156.668549	94.94873
156.689392	70.742767
156.707214	9.027778
156.724777	98.487396
156.745468	16.44154
156.752014	61.115589
156.762955	85.820007
156.772995	75.608063
156.785233	49.147228
156.812119	44.632549
156.827118	22.6703
156.843948	60.62418
156.870392	56.016708
156.880447	11.22222
156.904404	38.830132
157.203613	15.0947
157.224655	65.517227
157.308914	10.40895
157.338821	29.596491
157.424332	41.553871
157.527069	27.66667
157.566315	18.815331
157.82843	8.455882
157.948975	25.25248
157.959457	15.07849
157.990112	3.722222
158.142395	21.63636
158.169556	6.097222
158.203156	15.09843
158.239532	8.727273
158.374878	5.231482
158.449661	15.06127
158.509323	10.14969
158.718689	26.21921
158.795792	13.07525
158.853226	26.60778
158.891876	5.080128
158.906296	9.673612
158.953659	9.469697
159.093155	29.037439
159.374191	3.694444
159.449677	7.338235
160.087204	16.687929
160.64679	6.677381
160.814377	8.847222
161.107681	281.567413
161.441452	9.007978
161.490082	7.017544
162.157486	13.90948
163.081924	20.42803
165.377274	20.08003
165.798569	28.31604
168.812759	8.727273
169.077942	25.853331
169.183289	10.98039
169.2108	15.00417
170.083649	38.541889
173.015091	675.921387
173.043259	5.6875
173.09697	58.312931
173.230286	15.82557
173.426025	10.16667
174.021866	1633.911987
174.179367	10.50347
174.381439	14.44676
174.427383	4.083333
174.464142	9.333333
175.076187	11.0303
175.218552	10.02126
175.246063	31.73127
176.117996	55.659111
183.187592	26.96377
186.101547	89.095306
186.133453	8.520833
187.106369	97.465973
187.13443	5.003788
187.430359	3.926282
188.116684	113.8666
188.665283	11.5126
189.953873	22.911619
203.101715	75.014076
209.037598	18.831141
214.046692	42.981369
218.03981	17.246981
240.073303	9.546718
241.063354	57.845928
250.062759	18.89547
250.578781	19.23485
251.046478	98.136627
251.289078	9.240384
251.63118	9.32545
252.050461	52.487659
263.946594	24.34201
266.043427	15.78513
266.064789	17.17778
266.201782	14.52
266.358215	31.87661
266.388184	41.0914
266.408264	74.63398
266.428528	124.845001
266.4729	120.302399
266.496674	211.810303
266.519745	26.68012
266.560944	189.698502
266.579468	39.972832
266.628357	123.959801
266.645935	54.408451
266.669464	28.0098
266.684479	109.845497
266.7099	71.929337
266.733917	32.73457
266.78067	175.886307
266.804169	41.137909
266.83194	29.43162
266.856781	26.092739
266.941589	13.85185
267.029327	62.855
267.054779	49.112701
267.1138	16.615
267.163422	30.742371
267.247589	24.74094
267.279083	15.06373
267.334534	22.505211
267.350403	27.939711
267.727417	15.77003
267.798096	20.360121
267.872284	17.445101
267.947083	10.29643
268.012665	217.4133
268.075317	98828.703125
268.262848	78.203583
268.308075	38.70282
268.332123	24.403669
268.366333	224.804596
268.425262	16.54833
268.502502	11.47118
268.532593	186.929703
268.61499	77.392967
268.634888	57.905819
268.65329	44.83382
268.680176	213.268204
268.710266	237.683807
268.730865	19.65255
268.753326	84.78286
268.803497	84.633461
268.83078	98.896896
268.896698	221.145798
268.950714	162.014206
268.981567	43.697769
269.165741	32.220741
269.379303	8.008333
269.411957	11.20119
269.472321	54.891548
269.491638	29.909031
269.783508	23.53389
270.114441	21.124689
270.245758	8.201667
270.559784	9.047619
270.6922	12.9467
270.801117	8.396825
270.973267	11.17083
271.007263	4.002778
271.042542	6.030303
271.156158	9.881579
271.568604	12.00694
271.926849	10.00595
272.79129	9.363334
273.123474	17.226851
274.385193	12.10417
274.442413	12.01786
276.157471	23.390631
283.167511	12.00417
297.972778	9.177631
310.001312	11.74516
342.998016	23.18968
424.693542	28.00066
496.192505	8.779321
508.826324	6.818182
596.292664	75.93119
688.20697	10.38075
771.188599	9.338889
970.710632	17.279011
1095.493164	41.720032
1212.647827	10.48214
1286.53894	18.35041
END IONS

BEGIN IONS
PEPMASS=666.313
CHARGE=1
MSLEVEL=2
SOURCE_INSTRUMENT=LC-ESI-qTof
FILENAME=Natamycin.mgf
SEQ=*..*
IONMODE=Positive
ORGANISM=GNPS-SELLECKCHEM-FDA-PART1
NAME=Natamycin M+H
PI=Sirenas
DATACOLLECTOR=Ed Esquenazi 
SMILES=C[C@@H]1C/C=C/C=C/C=C/C=C/[C@@H](C[C@H]2[C@@H]([C@H](C[C@](O2)(C[C@H](C[C@@H]3[C@H](O3)/C=C/C(=O)O1)O)O)O)C(=O)O)O[C@H]4[C@H]([C@H]([C@@H]([C@H](O4)C)O)N)O
INCHI=InChI=1S/C33H47NO13/c1-18-10-8-6-4-3-5-7-9-11-21(45-32-30(39)28(34)29(38)19(2)44-32)15-25-27(31(40)41)22(36)17-33(42,47-25)16-20(35)14-24-23(46-24)12-13-26(37)43-18/h3-9,11-13,18-25,27-30,32,35-36,38-39,42H,10,14-17,34H2,1-2H3,(H,40,41)/b4-3+,7-5+,8-6+,11-9+,13-12+/t18-,19-,20+,21+,22+,23-,24-,25+,27-,28+,29-,30+,32+,33-/m1/s1
INCHIAUX=N/A
PUBMED=N/A
SUBMITUSER=mwang87
LIBRARYQUALITY=3
SPECTRUMID=CCMSLIB00000004692
USI=mzspec:GNPS:GNPS-SELLECKCHEM-FDA-PART1:accession:CCMSLIB00000004692
SCANS=1
105.066742	26.504169
119.083008	46.955681
135.044434	3.007813
157.098907	20.981939
163.520325	4.004167
167.084457	36.481129
181.083389	25.01042
182.202362	8.822322
183.114853	15.48532
185.131271	10.16736
203.142685	109.573799
205.714294	3.264803
215.334854	1.836806
231.065933	22.698891
231.093384	25.452829
243.132584	10.61343
243.172379	14.12247
245.092087	6.28125
259.135803	14.36736
271.172028	8.264706
273.06604	6.025
277.063568	35.027889
323.822052	5.104167
329.916626	7.052802
339.157257	24.759701
343.164917	28.52857
345.175842	29.82008
355.113037	6.3375
367.113495	22.32143
386.48349	10.14349
392.146393	1.760417
401.174286	3.75
405.071075	2.25625
405.205322	14.53846
406.354218	4.322917
423.316284	8.05
423.574402	9.184028
423.616943	6.03125
431.198914	34.419079
441.226807	92.101707
443.565674	1.765625
449.190674	49.976662
449.208313	37.396969
449.79303	6.84375
450.000183	3.398897
465.330719	3.55625
467.204712	268.719086
467.291443	1.502841
468.006134	13.53204
468.533112	6.420139
468.630798	13.27889
468.962433	6.002976
482.201141	1.520833
482.384247	5.572321
483.210052	3.060096
484.817139	14.75231
484.947296	9.674569
485.21875	307.509308
485.573456	9.974457
485.646881	2.53125
485.744324	4.322917
485.862152	9.541881
485.97467	6.793478
486.182007	12.66716
486.965363	6.389009
487.335022	4.620066
488.039764	5.195602
500.094696	4.27694
500.872986	3.005682
503.22702	390.672211
503.492432	4.755208
503.556122	23.12326
503.913727	5.65125
504.344086	12.53561
546.901672	29.32654
567.000244	26.972321
604.530029	5.3125
604.863647	7.253472
605.248779	8.521739
630.277832	54.779499
639.252747	5.05
647.9422	17.29495
648.30304	250.741501
648.632019	8.250947
648.887024	5.266667
649.32135	10.29002
649.68927	1.375
664.066467	4.620066
666.311584	85.594437
666.372437	3.291118
666.651917	14.1509
667.064087	9.863426
668.034851	3.25
668.510864	3.560096
670.121948	11.9712
847.304077	3.142857
1462.457397	1.265625
END IONS

BEGIN IONS
PEPMASS=505.324
CHARGE=1
MSLEVEL=2
SOURCE_INSTRUMENT=LC-ESI-qTof
FILENAME=Dipyridamole.mgf
SEQ=*..*
IONMODE=Positive
ORGANISM=GNPS-SELLECKCHEM-FDA-PART1
NAME=Dipyridamole M+H
PI=Sirenas
DATACOLLECTOR=Ed Esquenazi 
SMILES=C1CCN(CC1)C2=NC(=NC3=C2N=C(N=C3N4CCCCC4)N(CCO)CCO)N(CCO)CCO
INCHI=InChI=1S/C24H40N8O4/c33-15-11-31(12-16-34)23-26-20-19(21(27-23)29-7-3-1-4-8-29)25-24(32(13-17-35)14-18-36)28-22(20)30-9-5-2-6-10-30/h33-36H,1-18H2
INCHIAUX=N/A
PUBMED=N/A
SUBMITUSER=mwang87
LIBRARYQUALITY=3
SPECTRUMID=CCMSLIB00000004982
USI=mzspec:GNPS:GNPS-SELLECKCHEM-FDA-PART1:accession:CCMSLIB00000004982
SCANS=1
106.509911	32.960159
114.056107	49.833469
117.706688	11.52519
162.062622	11.13636
175.071823	12.33149
187.077835	10.66955
189.083496	17.222401
202.077957	14.60907
216.093491	16.828279
230.107513	29.857571
242.110825	20.74
243.11821	13.5068
247.108765	50.13327
248.12764	20.34667
248.14856	14.59075
251.101929	6.643282
256.131531	12.53184
258.118927	17.42691
261.090393	12.77802
272.831512	7.278918
275.152588	16.20833
278.15918	44.875
284.154541	25.34503
287.147552	17.1884
288.154327	12.2037
288.191437	19.569269
289.169586	16.772289
290.177399	51.982441
299.163025	28.513411
301.160583	48.643421
303.17746	37.072979
305.169769	16.24931
308.79129	7.166667
312.190765	30.8375
314.162384	17.609421
315.182526	27.262409
316.187012	31.380699
318.189453	11.50938
321.162506	27.202221
326.204224	19.019291
328.186462	41.055599
331.200439	21.33333
332.174927	30.734579
334.197693	11.50938
341.215302	13.26786
342.193085	26.2535
343.206665	30.82052
344.180542	13.66667
346.199921	54.06636
347.72699	6.346688
347.939178	3.002451
348.205017	15.01103
348.319489	43.43985
350.938843	3.9675
356.181549	11.48523
358.197693	19.691759
359.188232	13.45322
361.203461	33.298729
361.918488	7.834723
364.178558	15.83565
370.553253	11.55797
372.424835	7.676879
373.216339	10.17049
373.572845	1.833333
377.208527	28.625
378.226746	28.8571
383.231476	40.891781
385.245026	261.743286
387.224762	10.07562
398.246948	36.69754
399.227234	6.500595
399.258972	58.103291
399.651428	8.282372
404.242584	14.2664
411.25296	25.311871
412.264893	38.20742
415.248932	26.25617
415.291382	34.997459
416.252716	30.061069
416.42572	20.373711
416.512543	9.086957
417.268494	29.024111
418.248047	28.821751
422.24527	76.863419
422.716034	13.38922
426.657745	26.06204
427.259674	22.63719
429.27179	276.943512
429.504486	14.66533
429.546509	8.060012
432.244171	10.61364
442.276978	59.529999
443.2836	52.318439
445.007874	10.26875
446.152496	17.56428
448.21701	14.44676
449.917236	24.080681
454.227081	17.776461
459.271393	17.13361
460.288391	92.338799
462.036346	4.52172
463.143219	3.335648
473.299561	9.063725
474.270416	15.58266
476.746002	7.986413
485.2789	13.02711
487.310638	90.809227
489.259583	6.040441
491.57663	5.345833
495.731781	9.996058
498.568481	10.32521
498.77417	3.190476
499.101196	3.846037
499.381165	16.843809
499.925537	3.334722
500.317017	10.16329
500.750275	3.413462
501.295319	4.508772
501.630951	4.040948
501.708221	11.20593
501.850922	17.340521
501.884125	34.82745
501.914551	14.59524
501.98645	246.817993
502.052124	441.833496
502.099121	3.266667
502.128998	121.103699
502.191223	395.244385
502.285156	287.625397
502.317017	5.026786
502.360596	258.780701
502.434601	261.525604
502.652893	65.720871
502.742188	24.97451
502.848267	43.725121
502.881012	28.334299
502.907745	13.0011
502.964294	73.523941
503.029327	44.443871
503.133881	103.9888
503.206909	6.854167
503.249023	152.669296
503.318787	37.542591
503.403046	19.14476
503.500214	50.68697
503.521667	113.5867
503.69751	45.594471
503.806122	51.050091
503.909515	63.92387
504.104919	134.226593
504.158264	27.751261
504.198212	50.74268
504.282867	30.502649
504.592407	32.985222
504.678436	12.96457
504.880219	4.12963
504.99826	23.645651
505.071991	34.02877
505.173828	208.905197
505.233643	4.620039
505.269623	27.252069
505.325439	222989.203125
505.413849	1.780093
505.635284	2.534722
505.744934	6.261905
505.793793	15.98869
505.875427	117.637604
505.917358	7.49359
505.950317	12.82008
505.989716	277.411194
506.06012	237.506393
506.147827	16.964821
506.223816	233.842499
506.256256	76.238739
506.43103	227.670593
506.534576	253.411194
506.59552	149.098999
506.662811	253.404205
506.802795	133.276993
506.834961	116.8993
506.904938	12.59223
507.068359	134.341202
507.192047	108.638802
507.302002	136.891205
507.446503	26.156401
507.479828	25.71789
507.76001	75.305519
507.909576	72.360222
507.974365	74.791382
508.106079	21.12554
508.199066	7.56631
508.225555	27.07243
508.467041	41.146
508.581024	3.868421
508.613556	19.970591
508.653809	31.78953
508.703949	15.01389
508.840088	1.901389
509.006897	10.30519
509.179657	42.708149
509.385864	11.39735
509.489624	12.82738
509.56192	26.44162
509.772797	16.388161
509.848206	13.09256
510.229919	5.203703
510.308197	9.197349
510.979767	11.21354
511.040497	17.681061
511.144165	4.4675
511.228394	7.342161
511.413208	16.844641
511.683411	17.135811
512.019226	3.0625
512.691956	27.53438
514.12738	4.166667
514.703125	4.71875
515.697205	8.78954
515.761292	7.418561
516.414001	14.18605
518.510864	5.170833
518.804443	8.653985
524.003052	16.63204
588.625793	7.510714
589.013306	3.9
793.984863	2.482143
1059.278931	14.21007
END IONS

BEGIN IONS
PEPMASS=352.997
CHARGE=1
MSLEVEL=2
SOURCE_INSTRUMENT=LC-ESI-qTof
FILENAME=Furosemide.mgf
SEQ=*..*
IONMODE=Positive
ORGANISM=GNPS-SELLECKCHEM-FDA-PART1
NAME=Furosemide M+H
PI=Sirenas
DATACOLLECTOR=Ed Esquenazi 
SMILES=C1=COC(=C1)CNC2=CC(=C(C=C2C(=O)O)S(=O)(=O)N)Cl
INCHI=InChI=1S/C12H11ClN2O5S/c13-9-5-10(15-6-7-2-1-3-20-7)8(12(16)17)4-11(9)21(14,18)19/h1-5,15H,6H2,(H,16,17)(H2,14,18,19)
INCHIAUX=N/A
PUBMED=N/A
SUBMITUSER=mwang87
LIBRARYQUALITY=3
SPECTRUMID=CCMSLIB00000005254
USI=mzspec:GNPS:GNPS-SELLECKCHEM-FDA-PART1:accession:CCMSLIB00000005254
SCANS=1
273.0065	131.353607
274.138763	15.5503
276.038239	52.882351
309.004395	121.148003
309.111786	20.63158
350.854065	12.62348
352.996826	623.115601
353.23822	23.120001
353.389069	10.92045
353.554291	31.00128
353.609344	15.025
370.970673	24.962959
END IONS

BEGIN IONS
PEPMASS=589.193
CHARGE=1
MSLEVEL=2
SOURCE_INSTRUMENT=LC-ESI-qTof
FILENAME=Etoposide.mgf
SEQ=*..*
IONMODE=Positive
ORGANISM=GNPS-SELLECKCHEM-FDA-PART1
NAME=Etoposide M+H
PI=Sirenas
DATACOLLECTOR=Ed Esquenazi 
SMILES=C[C@@H]1OC[C@@H]2[C@@H](O1)[C@@H]([C@H]([C@@H](O2)O[C@H]3[C@H]4COC(=O)[C@@H]4[C@@H](C5=CC6=C(C=C35)OCO6)C7=CC(=C(C(=C7)OC)O)OC)O)O
INCHI=InChI=1S/C29H32O13/c1-11-36-9-20-27(40-11)24(31)25(32)29(41-20)42-26-14-7-17-16(38-10-39-17)6-13(14)21(22-15(26)8-37-28(22)33)12-4-18(34-2)23(30)19(5-12)35-3/h4-7,11,15,20-22,24-27,29-32H,8-10H2,1-3H3/t11-,15+,20-,21-,22+,24-,25-,26-,27-,29+/m1/s1
INCHIAUX=N/A
PUBMED=N/A
SUBMITUSER=mwang87
LIBRARYQUALITY=3
SPECTRUMID=CCMSLIB00000005536
USI=mzspec:GNPS:GNPS-SELLECKCHEM-FDA-PART1:accession:CCMSLIB00000005536
SCANS=1
127.03759	182.331696
127.245224	32.530411
127.284416	12.0875
128.059204	85.82
128.157715	32.719509
129.054962	87.000458
144.240036	11.00833
145.048264	405.004486
145.097122	3.0625
155.281799	27.510229
155.508057	5.889423
168.07338	52.612068
170.25296	18.54044
171.063004	204.478394
171.617386	6.524457
171.681198	6.502976
173.061646	162.726196
173.129211	3.520833
174.087219	14.25
175.057739	54.40625
183.940155	30.30969
183.992035	21.031891
184.162094	43.56377
184.360352	54.210361
184.880844	6.890625
184.998932	51.183708
185.059235	2889.750977
185.117447	33.713131
185.135773	3.025
185.235428	30.36574
185.373001	13.8
185.40094	17.548611
185.432449	10.94643
185.459854	13.88461
185.480515	9.0625
185.516205	21.280519
185.547897	48.24194
185.576797	9.002976
185.675781	8.653846
185.704086	64.034477
185.757477	26.455641
186.302048	21.390631
187.424362	9.506945
189.009018	23.328409
189.075897	565.963074
189.116135	10.76563
189.128708	6.4375
189.281631	6.513889
189.328827	11.95924
189.70343	16.121321
190.535324	14.6875
199.039154	60.167992
199.161682	6.125
201.071014	47.018379
207.082199	41.440971
217.046967	244.142899
217.110275	2.5
217.407898	18.533331
227.593643	21.032141
227.666031	65.022346
227.71962	13.55921
227.746017	28.504471
227.762451	7.944853
227.808868	21.509529
227.828796	21.694441
227.863342	76.964973
227.905243	26.254801
227.940338	12.16667
228.039963	23.59111
228.069656	27.11731
228.103012	20.65765
228.234558	28.62398
228.350159	17.075001
228.45575	19.5322
228.491989	14.56618
228.507767	8.0
228.770782	30.0
228.814911	30.10417
228.888184	30.14271
228.999146	276.821686
229.049393	28491.859375
229.134491	120.764999
229.167755	26.26042
229.193802	17.174999
229.214874	48.072529
229.239532	83.762619
229.256836	28.2435
229.283203	56.313801
229.314224	77.717743
229.335266	106.730499
229.365936	57.613392
229.399872	40.943829
229.413177	14.51136
229.439499	47.003681
229.466202	97.626488
229.486954	24.191669
229.527969	105.405197
229.55899	27.891199
229.584122	32.269989
229.665573	30.520361
229.684952	17.202499
229.771194	37.325539
229.791031	34.444439
229.904236	28.692051
229.921616	50.946461
230.106918	7.9
230.192917	20.96023
230.257156	21.254471
230.282806	53.054241
230.558044	12.51197
230.574982	12.89286
230.590118	29.065161
230.797012	23.55769
230.954422	3.6
231.155334	16.214279
231.213516	20.538111
231.414154	29.16667
231.499268	4.571429
231.949738	3.625
232.060684	5.503676
232.087173	14.01923
232.139694	9.604167
235.744003	8.446428
238.603622	37.815788
244.464172	10.52632
245.771362	19.34914
245.811905	15.00893
245.854706	4.28125
246.240219	5.735577
247.059937	2782.250977
247.125809	2.580357
247.158524	12.09375
247.185852	23.023809
247.224228	11.11765
247.269119	19.566669
247.31723	11.06618
247.353378	17.754049
247.434586	8.125
247.46109	39.81591
247.514221	20.52273
247.919403	8.010417
248.001587	20.50099
248.76918	11.51815
267.063782	18.0152
298.075531	33.520828
299.001404	60.0
299.092651	272.176514
303.276062	5.0125
339.118286	56.51796
365.103821	53.511909
381.225555	14.32721
381.24295	5.520833
381.392883	55.797791
383.113007	1433.479004
383.331146	7.011364
383.405426	11.66118
383.474213	14.0504
383.597839	21.63908
383.635071	16.724541
383.871887	33.450958
384.014648	4.9
384.038361	9.3375
384.081573	30.582769
384.203491	17.08696
386.115173	19.27574
387.526031	26.5625
401.122406	36.837502
407.107422	48.66605
417.113007	10.01136
432.369568	17.714279
432.565704	12.9225
433.100464	7.0
433.165649	9.5
433.390137	4.551136
433.965302	33.04438
434.216125	8.533334
434.498901	11.28125
435.128693	2225.900879
435.289856	52.033588
435.350464	10.22321
435.421173	20.336281
435.44989	31.203211
435.500122	25.03064
435.609222	21.58737
435.667206	16.58882
435.696442	6.6875
435.73468	21.71875
435.834229	3.505682
435.968597	9.75
436.018311	21.235291
436.880646	8.645833
437.677277	16.9375
439.741943	9.847222
440.481049	5.0125
443.128296	36.01717
585.223083	10.00893
585.506226	3.5
585.549133	6.285714
586.39093	8.909091
587.680115	16.112499
588.447632	42.565109
589.139404	15.01563
589.187927	1308.689941
589.279297	6.5625
589.308899	8.086538
589.368896	13.07143
589.503113	9.5025
589.536987	22.9025
589.596008	10.05
589.747742	26.797791
589.779236	34.843449
589.934021	11.00735
589.959351	14.53325
590.302734	9.1875
590.526855	53.289982
590.728699	28.01786
591.337463	11.5875
592.736267	7.5625
599.997864	22.59766
1434.689575	11.34028
END IONS

BEGIN IONS
PEPMASS=316.092
CHARGE=1
MSLEVEL=2
SOURCE_INSTRUMENT=LC-ESI-qTof
FILENAME=Chlorprothixene.mgf
SEQ=*..*
IONMODE=Positive
ORGANISM=GNPS-SELLECKCHEM-FDA-PART1
NAME=Chlorprothixene M+H
PI=Sirenas
DATACOLLECTOR=Ed Esquenazi 
SMILES=CN(C)CC/C=C\1/C2=CC=CC=C2SC3=C1C=C(C=C3)Cl
INCHI=InChI=1S/C18H18ClNS/c1-20(2)11-5-7-14-15-6-3-4-8-17(15)21-18-10-9-13(19)12-16(14)18/h3-4,6-10,12H,5,11H2,1-2H3/b14-7-
INCHIAUX=N/A
PUBMED=N/A
SUBMITUSER=mwang87
LIBRARYQUALITY=3
SPECTRUMID=CCMSLIB00000006200
USI=mzspec:GNPS:GNPS-SELLECKCHEM-FDA-PART1:accession:CCMSLIB00000006200
SCANS=1
103.054092	87.866837
107.910675	33.59269
109.00975	14.56967
115.054466	18.17749
126.04496	13.6989
128.060547	109.808899
128.173874	11.74612
129.070587	37.250401
130.077881	12.44294
149.014267	46.20208
152.044159	18.508579
152.060791	17.571609
154.966812	22.84391
155.981064	9.451805
158.965744	3.730263
159.027649	69.689507
161.041382	55.957512
162.019562	57.18243
165.065247	27.00572
165.50795	23.12001
166.07814	24.603519
168.914398	20.66716
176.061905	14.91892
184.031296	11.83487
192.985764	64.426147
195.022354	37.652401
196.034454	14.44974
199.0298	39.603199
201.047333	11.15042
202.07756	48.357052
203.085159	102.911003
210.050262	431.299286
211.12973	13.42895
212.00499	14.57312
221.041351	1252.427979
221.362335	25.78603
223.569641	16.83182
228.640091	11.32143
229.828598	12.00357
229.864029	15.30952
229.967438	11.71497
230.954056	19.3354
231.002899	4766.727051
231.045135	27.15341
231.06636	28.696989
231.17807	23.17993
231.193649	13.7629
231.26535	11.23987
231.280136	15.46916
231.436981	61.964062
231.523285	10.62451
232.036545	11.63673
233.893936	10.06319
234.050476	262.325287
234.234787	10.90932
235.056992	1551.640991
235.187576	9.227942
235.247192	10.46665
235.369919	11.1313
236.064041	2706.875977
236.299576	9.765435
236.895203	12.56064
237.050262	43.05756
237.117599	1.446429
237.961731	28.38485
238.110153	9.413999
238.567734	12.80524
244.018127	18.69853
245.018524	1313.640991
245.442444	9.956319
251.39386	10.19246
252.066605	14.08766
253.987778	14.14349
254.977371	15.11622
255.001541	75.69799
256.00885	265.944
259.030365	30.896931
269.023712	63.534401
269.370331	11.3708
269.406525	10.32946
269.502686	12.33571
269.564148	19.47961
269.669617	9.121154
270.94751	43.984791
270.978271	9.885505
270.996582	46.43119
271.034088	15272.30957
271.178406	28.58707
271.216034	14.0624
271.236786	34.683601
271.248718	32.24976
271.291107	80.292259
271.319366	13.156
271.345306	13.72735
271.359161	37.1567
271.374573	10.95207
271.400269	22.87554
271.428741	46.88575
271.467163	15.73456
271.527191	18.07299
271.558594	24.30744
271.59082	10.38095
271.610962	47.423409
271.643341	26.34017
271.70166	11.93124
271.763489	12.86104
271.820068	31.489519
271.877899	15.19931
271.980011	11.49855
272.083893	11.64575
272.56488	13.11498
273.049927	4633.14502
273.121521	23.19878
273.169495	35.504871
273.274902	16.317671
273.309845	10.0095
273.343201	9.860293
273.410309	11.47108
273.476746	10.98214
273.536713	15.10604
273.713379	10.125
273.841888	9.722117
273.899994	9.924812
274.000488	10.02484
280.108521	12.9251
280.263885	10.9623
300.297028	12.37755
311.315216	11.34846
311.569	14.15954
313.922913	11.21371
313.984344	10.15476
314.007721	38.05286
314.042877	52.09399
314.086182	21.86607
314.117157	308.408691
314.142242	57.840019
314.176208	245.884903
314.221832	259.724701
314.260223	340.321503
314.28598	4.513158
314.309631	260.149109
314.346375	185.700104
314.3797	263.921387
314.404388	91.745132
314.421875	113.455498
314.442474	172.514008
314.464233	259.399689
314.493225	75.27906
314.517242	123.4636
314.542297	177.798401
314.577881	25.59606
314.643677	76.937393
314.778931	175.264496
314.890686	19.471109
315.06366	35.895981
315.124207	70.121002
315.180054	25.150511
315.223267	20.179461
315.24527	1.357143
315.29361	26.728821
315.332275	36.27879
315.58075	69.595657
315.68515	35.532051
315.706665	12.94357
315.726624	31.755581
315.744049	12.45195
315.812256	11.08631
315.840149	12.65434
315.858765	153.786499
315.87915	12.30553
315.919464	37.63625
316.093506	303687.09375
316.161285	0.875
316.255402	4.755612
316.2836	41.311249
316.472656	8.974026
316.620209	185.736694
316.639526	230.126694
316.655853	73.202133
316.696167	227.671204
316.732025	170.748306
316.808167	207.471603
316.904205	159.155304
316.940155	154.522903
316.969818	45.240898
316.986725	42.804859
317.006989	61.552891
317.032928	42.70076
317.05777	198.349594
317.176514	185.810898
317.257446	135.510193
317.394806	111.975601
317.498596	97.733887
317.532013	67.452911
317.596863	14.44497
317.763641	29.85116
317.921967	61.246651
317.955383	112.8955
318.071533	45.773232
318.160645	40.25732
318.23938	28.468
318.30896	14.91056
318.599518	19.17922
318.669708	56.115509
318.7547	22.54516
318.808716	23.68508
318.859283	16.017321
318.903503	10.73214
319.028809	9.00342
319.301636	21.717581
319.348938	15.75089
319.460938	15.0496
319.477814	12.85171
319.762268	12.63361
319.832153	13.89715
319.921783	22.472321
319.948944	13.4344
320.231659	10.87321
320.379608	15.61984
321.63327	17.60014
321.79834	11.86335
322.008484	14.11505
322.448334	26.522591
330.063782	2.778061
355.960724	11.95833
357.002136	25.2966
361.949738	18.75325
584.629578	19.937599
1091.207642	16.437099
1442.94751	5.480519
END IONS

BEGIN IONS
PEPMASS=309.16
CHARGE=1
MSLEVEL=2
SOURCE_INSTRUMENT=LC-ESI-qTof
FILENAME=Phenylbutazone.mgf
SEQ=*..*
IONMODE=Positive
ORGANISM=GNPS-SELLECKCHEM-FDA-PART1
NAME=Phenylbutazone M+H
PI=Sirenas
DATACOLLECTOR=Ed Esquenazi 
SMILES=CCCCC1C(=O)N(N(C1=O)C2=CC=CC=C2)C3=CC=CC=C3
INCHI=InChI=1S/C19H20N2O2/c1-2-3-14-17-18(22)20(15-10-6-4-7-11-15)21(19(17)23)16-12-8-5-9-13-16/h4-13,17H,2-3,14H2,1H3
INCHIAUX=N/A
PUBMED=N/A
SUBMITUSER=mwang87
LIBRARYQUALITY=3
SPECTRUMID=CCMSLIB00000006293
USI=mzspec:GNPS:GNPS-SELLECKCHEM-FDA-PART1:accession:CCMSLIB00000006293
SCANS=1
101.001984	45.761909
104.048424	41.440479
120.043655	692.418274
125.060616	27.17391
132.045258	60.010071
133.049469	30.215
134.061676	14.72727
145.058411	48.98148
146.057602	50.50005
148.111038	50.385761
160.110703	93.453484
162.126663	94.411011
163.136917	38.477509
168.98735	78.918419
174.058228	22.70709
187.164398	12.52365
188.105667	580.720581
189.370056	15.42857
190.120834	561.831726
190.192444	18.310829
190.328201	13.42014
190.406525	40.646259
190.463028	12.30682
191.041748	15.92157
200.105881	15.55254
211.086609	285.016815
216.100922	164.598602
230.95697	61.53487
231.103821	65.096733
253.092148	114.641098
260.102142	10.75788
263.149811	17.52355
265.167206	58.506721
272.87793	16.471149
281.159973	21.760559
291.146881	27.798401
307.229919	14.96333
309.130463	14.99322
309.158539	3769.616943
309.239685	23.27648
309.274628	41.994061
309.373108	15.81944
309.429443	16.800871
309.527405	25.440861
309.57486	35.929871
309.61142	21.91468
309.642029	11.9616
309.69101	10.71204
309.755798	28.36006
309.802826	13.27083
309.830109	17.40909
309.853363	16.45833
309.892273	13.0997
309.935944	23.05426
309.973602	12.0375
310.110504	19.12855
310.328033	26.110661
310.665283	21.04623
310.910797	11.5126
311.395294	10.33772
END IONS

BEGIN IONS
PEPMASS=328.119
CHARGE=1
MSLEVEL=2
SOURCE_INSTRUMENT=LC-ESI-qTof
FILENAME=Tranilast.mgf
SEQ=*..*
IONMODE=Positive
ORGANISM=GNPS-SELLECKCHEM-FDA-PART1
NAME=Tranilast M+H
PI=Sirenas
DATACOLLECTOR=Ed Esquenazi 
SMILES=COC1=C(C=C(C=C1)/C=C/C(=O)NC2=CC=CC=C2C(=O)O)OC
INCHI=InChI=1S/C18H17NO5/c1-23-15-9-7-12(11-16(15)24-2)8-10-17(20)19-14-6-4-3-5-13(14)18(21)22/h3-11H,1-2H3,(H,19,20)(H,21,22)/b10-8+
INCHIAUX=N/A
PUBMED=N/A
SUBMITUSER=mwang87
LIBRARYQUALITY=3
SPECTRUMID=CCMSLIB00000006383
USI=mzspec:GNPS:GNPS-SELLECKCHEM-FDA-PART1:accession:CCMSLIB00000006383
SCANS=1
119.048851	55.815788
119.095505	1.671296
135.081253	35.400002
148.685608	9.063725
156.110275	40.674999
160.950378	6.34543
162.414566	12.87792
163.074234	84.277168
163.454041	13.40374
164.032425	49.683819
165.167358	6.160088
165.336929	4.297619
190.076157	4.367424
190.234726	8.350877
190.561142	9.34543
190.983994	4.666667
191.0233	55.455341
191.069321	3559.4729
191.12709	25.67436
191.152924	17.615
191.21962	9.819445
191.258911	18.33889
191.27739	6.107143
191.402573	8.647059
191.4702	2.016667
191.484314	4.333333
191.533875	3.375
191.552155	11.25379
192.477295	8.712037
195.949173	23.268749
196.348083	4.333333
206.17868	15.47368
246.934113	31.022129
248.932236	32.615292
267.903046	97.364052
267.956024	4.083333
267.973602	4.695513
297.986206	5.336111
311.011414	22.41934
328.011932	28.452
328.074341	21.777781
649.537415	9.523809
END IONS

BEGIN IONS
PEPMASS=311.038
CHARGE=1
MSLEVEL=2
SOURCE_INSTRUMENT=LC-ESI-qTof
FILENAME=Plate1_21_40_GG2_01_16489.mzXML
SEQ=*..*
IONMODE=Positive
ORGANISM=GNPS-SELLECKCHEM-FDA-PART2
NAME=Malotilate [M+Na]
PI=Dorrestein
DATACOLLECTOR=Garg_Neha
SMILES=C(C(C(=O)OC(C)C)=C1SC=CS1)(=O)OC(C)C
INCHI=N/A
INCHIAUX=N/A
PUBMED=N/A
SUBMITUSER=negarg
LIBRARYQUALITY=1
SPECTRUMID=CCMSLIB00000078021
USI=mzspec:GNPS:GNPS-SELLECKCHEM-FDA-PART2:accession:CCMSLIB00000078021
SCANS=2270
46.770901	176.0
47.30875	180.0
47.459461	144.0
47.506096	144.0
48.414452	180.0
50.33884	212.0
50.440567	160.0
50.526833	244.0
51.161228	144.0
51.252384	140.0
51.895607	160.0
51.928589	156.0
52.807194	188.0
53.046116	168.0
53.414963	160.0
57.131603	184.0
57.179756	156.0
57.194809	292.0
57.70472	184.0
57.952946	156.0
58.213856	140.0
58.688629	144.0
58.786255	156.0
60.585308	140.0
60.596153	148.0
61.477833	168.0
61.591808	152.0
61.679317	144.0
62.266895	192.0
62.675919	160.0
63.363239	144.0
63.418705	184.0
63.548744	140.0
63.726578	144.0
64.207329	144.0
64.712296	140.0
65.600754	144.0
66.232597	208.0
67.09063	156.0
67.121605	160.0
68.511536	160.0
68.750626	196.0
68.773735	168.0
68.919067	160.0
69.604836	168.0
69.722786	148.0
70.365784	188.0
70.430916	160.0
70.807251	160.0
70.926216	240.0
71.771873	180.0
72.183899	168.0
72.754906	172.0
72.84491	204.0
73.456047	180.0
74.014923	168.0
74.302879	244.0
76.176056	184.0
76.464706	172.0
76.525635	164.0
77.687881	160.0
78.721085	160.0
79.102997	180.0
81.055069	228.0
81.47493	164.0
83.206955	176.0
83.973068	192.0
84.124519	144.0
89.513237	180.0
90.026176	144.0
91.134346	208.0
91.223671	200.0
91.402458	244.0
93.036667	144.0
94.056953	228.0
94.4086	268.0
94.720222	148.0
95.702942	172.0
97.56559	224.0
97.659981	160.0
97.984802	328.0
99.539505	196.0
100.790489	156.0
101.424919	156.0
101.581329	220.0
101.765968	156.0
102.707825	180.0
102.977852	144.0
103.184425	196.0
103.437302	212.0
103.741173	160.0
103.884567	192.0
104.712463	204.0
104.865273	164.0
105.038597	148.0
105.081436	216.0
106.596695	212.0
107.457405	224.0
109.359818	144.0
110.371651	188.0
110.476227	188.0
111.709763	148.0
112.149864	184.0
112.257393	180.0
112.869789	220.0
114.203773	244.0
114.985733	196.0
115.032692	164.0
116.216232	168.0
116.295631	148.0
117.315269	140.0
118.896461	180.0
118.911652	192.0
119.193977	188.0
120.07785	172.0
120.838058	148.0
121.164284	160.0
121.363739	180.0
121.591881	164.0
121.974075	152.0
123.066818	144.0
125.643692	160.0
127.17659	292.0
128.960526	272.0
129.001221	148.0
130.111313	196.0
130.536209	148.0
130.816071	200.0
131.447418	172.0
132.813278	148.0
132.856873	184.0
132.964722	172.0
133.104752	176.0
133.125427	192.0
133.325287	164.0
134.017944	224.0
134.437637	232.0
134.751678	176.0
135.849075	220.0
135.948853	168.0
136.146179	184.0
136.464539	232.0
138.410568	160.0
139.748886	156.0
139.835587	224.0
140.153519	220.0
140.252502	160.0
140.776871	176.0
140.972351	168.0
141.170929	172.0
142.393845	204.0
142.55777	168.0
142.9216	156.0
143.493256	228.0
144.001358	160.0
144.558594	176.0
144.620819	184.0
144.831528	172.0
145.459793	160.0
145.601456	216.0
145.906631	208.0
146.809601	180.0
147.478104	204.0
147.770996	176.0
148.044525	140.0
148.344986	148.0
149.000244	216.0
149.102295	196.0
149.561996	156.0
149.793335	156.0
150.127258	144.0
150.427368	140.0
150.791321	168.0
152.033035	180.0
153.691635	172.0
154.887344	144.0
155.436157	188.0
156.457718	176.0
156.485107	180.0
156.502533	148.0
156.736679	212.0
157.120667	260.0
157.49762	172.0
158.774109	164.0
158.968491	156.0
160.703568	176.0
162.081635	152.0
162.185547	180.0
163.117142	152.0
163.801666	172.0
164.449341	172.0
164.807068	108.0
164.880981	152.0
164.944504	39584.0
165.112366	96.0
165.654556	176.0
165.946442	3044.0
166.265518	120.0
166.941635	3320.0
167.102982	144.0
167.350372	228.0
167.629562	152.0
167.799683	160.0
167.941528	280.0
169.82341	192.0
169.915344	224.0
169.943893	148.0
170.203461	152.0
171.116119	184.0
171.968567	140.0
172.449158	144.0
173.742767	168.0
173.873978	164.0
174.457108	144.0
175.11496	168.0
175.942978	180.0
177.888794	240.0
178.916275	196.0
179.645187	164.0
182.954453	1204.0
183.958984	240.0
184.950836	220.0
185.963623	164.0
187.097183	160.0
187.672073	172.0
188.490967	148.0
189.484222	164.0
191.016113	176.0
192.024261	144.0
193.79628	144.0
194.300903	156.0
194.320328	140.0
195.515213	188.0
196.521194	148.0
196.722137	172.0
197.110367	156.0
197.817993	188.0
198.493225	140.0
198.964615	164.0
198.993454	160.0
199.492767	164.0
204.747406	152.0
204.82431	216.0
205.893906	148.0
206.983475	152.0
207.009247	224.0
208.933411	5700.0
209.660889	180.0
209.936584	288.0
210.468628	176.0
210.927368	372.0
212.051086	176.0
213.793671	144.0
213.997437	228.0
214.591827	172.0
214.650146	196.0
214.804718	176.0
217.015747	140.0
218.175461	148.0
218.710861	168.0
220.049271	168.0
220.79985	152.0
220.927048	172.0
222.112	172.0
225.0047	300.0
225.237579	204.0
225.386948	156.0
225.990967	144.0
226.945099	2580.0
227.411453	212.0
227.465485	144.0
227.501511	156.0
227.942627	324.0
228.857468	144.0
228.939941	504.0
229.828064	156.0
229.988007	164.0
230.141983	200.0
231.275681	168.0
233.691376	140.0
234.492279	204.0
234.583725	176.0
234.977249	124.0
235.930038	160.0
236.141022	140.0
237.307785	140.0
238.480499	160.0
240.599884	208.0
242.121246	148.0
242.300903	196.0
243.46579	172.0
244.262939	220.0
244.502518	152.0
244.798279	140.0
245.861359	164.0
246.014297	148.0
246.934341	172.0
247.49942	192.0
249.601822	148.0
249.683594	240.0
251.258606	144.0
252.873383	180.0
253.709656	140.0
254.106094	184.0
254.973007	228.0
255.516769	148.0
256.051544	200.0
256.526337	152.0
257.170685	144.0
258.346619	208.0
260.404572	156.0
261.230682	188.0
262.096771	200.0
262.125763	152.0
262.554535	168.0
264.162048	224.0
265.834961	200.0
266.123871	176.0
266.980316	140.0
267.274536	172.0
267.713989	144.0
267.766113	188.0
267.821472	200.0
267.98764	156.0
268.036926	160.0
268.175354	176.0
268.365723	240.0
268.991272	17040.0
269.06723	140.0
269.307495	132.0
269.63327	112.0
269.992462	1568.0
270.090088	236.0
270.987488	1548.0
271.173889	144.0
271.989319	208.0
272.88092	232.0
273.746338	164.0
275.184021	140.0
275.646484	140.0
276.956635	148.0
277.516693	188.0
279.083923	228.0
279.62619	156.0
280.125641	184.0
280.305573	200.0
281.760345	192.0
282.151398	144.0
282.442322	144.0
282.827148	176.0
282.99118	180.0
285.265869	168.0
285.46759	168.0
285.692963	156.0
287.002808	216.0
287.178497	148.0
287.455139	160.0
287.883881	164.0
287.998352	216.0
289.000305	340.0
289.710388	144.0
290.832855	220.0
292.035675	192.0
293.593048	188.0
293.817322	156.0
296.457062	152.0
297.943298	164.0
298.100861	156.0
298.864258	212.0
300.338776	180.0
302.162811	144.0
304.349915	144.0
304.538788	104.0
305.576874	164.0
305.844849	160.0
306.478668	164.0
306.994598	140.0
308.364929	176.0
308.597534	96.0
308.712799	148.0
309.048615	208.0
309.132904	168.0
309.168915	192.0
309.198883	136.0
309.516144	204.0
309.656219	120.0
309.769836	148.0
309.94278	120.0
310.102722	104.0
310.129608	132.0
310.292023	196.0
310.316559	176.0
310.409393	152.0
310.528778	100.0
310.622314	128.0
310.733215	136.0
310.783875	220.0
310.842285	168.0
310.902008	152.0
310.93396	220.0
310.989349	268.0
311.039368	108356.0
311.11377	172.0
311.212524	156.0
311.254425	124.0
311.351898	140.0
311.447266	204.0
311.502106	168.0
311.618347	504.0
311.834656	176.0
311.881256	208.0
311.94101	260.0
311.984222	140.0
312.041412	15248.0
312.153259	200.0
312.34726	212.0
312.441162	128.0
312.652557	148.0
312.749603	184.0
313.034668	10476.0
313.311462	164.0
313.625458	124.0
313.702209	172.0
313.829498	152.0
313.872833	132.0
313.975403	176.0
314.035492	1052.0
314.154449	120.0
314.331726	148.0
314.425323	100.0
315.402527	140.0
328.289886	156.0
329.045502	372.0
331.0495	136.0
352.052246	148.0
433.634308	160.0
456.517273	156.0
629.710632	168.0
1350.157227	160.0
1467.985107	220.0
1563.975586	152.0
1758.801392	164.0
1785.403687	160.0
1830.826172	160.0
1912.442139	148.0
1926.360474	176.0
1971.47998	224.0
1989.505371	152.0
1990.67749	164.0
END IONS

BEGIN IONS
PEPMASS=220.097
CHARGE=1
MSLEVEL=2
SOURCE_INSTRUMENT=LC-ESI-qTof
FILENAME=Plate1_61_88_GG4_01_16491.mzXML
SEQ=*..*
IONMODE=Positive
ORGANISM=GNPS-SELLECKCHEM-FDA-PART2
NAME=Aniracetam [M+H]
PI=Dorrestein
DATACOLLECTOR=Garg_Neha
SMILES=C1(=CC=C(C=C1)C(N2C(CCC2)=O)=O)OC
INCHI=N/A
INCHIAUX=N/A
PUBMED=N/A
SUBMITUSER=negarg
LIBRARYQUALITY=1
SPECTRUMID=CCMSLIB00000078081
USI=mzspec:GNPS:GNPS-SELLECKCHEM-FDA-PART2:accession:CCMSLIB00000078081
SCANS=1188
45.118862	144.0
45.153629	164.0
45.280777	164.0
45.370525	164.0
45.769608	144.0
45.886829	172.0
46.357227	196.0
46.570229	188.0
46.689835	248.0
47.17252	140.0
47.343552	160.0
47.483341	140.0
47.499802	176.0
48.906513	184.0
49.434074	176.0
49.49987	212.0
49.684887	160.0
50.295631	184.0
50.748344	156.0
51.591206	168.0
51.639824	196.0
51.878956	140.0
51.966442	196.0
52.919174	140.0
53.217861	220.0
53.291939	148.0
53.972645	208.0
54.025295	152.0
54.363766	188.0
54.581177	140.0
54.667969	164.0
55.615349	208.0
56.076443	176.0
56.119289	140.0
56.165905	168.0
56.590332	184.0
58.471317	212.0
58.670864	176.0
58.681534	156.0
58.744064	196.0
58.783733	216.0
59.202606	164.0
59.633724	244.0
59.725979	172.0
59.966179	156.0
60.352123	148.0
60.667969	196.0
60.686573	180.0
61.207108	224.0
61.405025	192.0
62.184196	172.0
62.611843	152.0
62.662251	176.0
62.755245	236.0
62.980919	220.0
63.327316	156.0
63.981564	152.0
64.054817	192.0
64.647171	168.0
64.895462	156.0
65.662529	208.0
66.233093	216.0
66.435722	140.0
66.505501	172.0
66.56395	140.0
66.817513	204.0
67.420845	152.0
68.337502	152.0
69.563812	160.0
69.841316	168.0
70.221077	148.0
71.047432	192.0
71.408585	180.0
72.032249	228.0
72.455185	184.0
72.955833	192.0
73.14637	180.0
73.487213	168.0
74.550606	148.0
75.087746	160.0
75.540298	144.0
75.670097	176.0
75.867607	272.0
76.974205	316.0
76.995163	172.0
77.364113	172.0
77.563812	176.0
77.783081	200.0
78.328209	188.0
78.748009	152.0
79.253967	140.0
79.612297	192.0
79.795319	164.0
80.108543	272.0
80.299271	184.0
80.506302	244.0
81.179176	184.0
81.959335	140.0
82.013405	220.0
82.347206	180.0
82.85733	200.0
83.977119	192.0
84.353271	192.0
84.46299	260.0
84.62587	144.0
85.007141	172.0
85.321228	204.0
85.600906	180.0
86.65007	148.0
86.7761	164.0
86.998741	160.0
87.502571	188.0
89.233238	140.0
89.302818	152.0
89.349846	188.0
89.630394	168.0
89.844078	96.0
89.954796	208.0
92.026649	580.0
92.494499	208.0
92.534698	148.0
92.63237	176.0
92.929535	200.0
93.190659	164.0
93.27906	152.0
93.352127	204.0
95.481422	208.0
95.761688	152.0
95.974106	204.0
96.249237	160.0
96.602997	172.0
96.651909	148.0
96.994644	168.0
97.239822	184.0
97.461739	184.0
98.121101	180.0
98.713463	140.0
99.263977	248.0
99.931389	228.0
99.985115	228.0
101.922928	140.0
102.230598	164.0
102.514511	228.0
103.261543	148.0
105.087761	140.0
106.077675	184.0
106.202759	176.0
106.821053	148.0
107.049011	724.0
107.307083	188.0
108.487602	224.0
109.056374	224.0
109.122894	200.0
109.472473	176.0
109.732941	148.0
109.933189	224.0
110.675278	144.0
112.084747	200.0
112.270256	196.0
112.394714	208.0
112.616386	320.0
113.14505	144.0
113.530701	264.0
113.560387	208.0
113.628273	140.0
114.446579	156.0
114.48278	168.0
114.866432	168.0
114.945374	176.0
115.02961	176.0
115.111877	180.0
115.513695	156.0
115.959068	196.0
117.03701	140.0
118.040901	160.0
118.229111	204.0
119.657433	144.0
119.927559	156.0
120.840385	212.0
120.924149	188.0
122.57505	172.0
124.004921	164.0
124.279907	168.0
124.555199	144.0
125.061363	716.0
126.06134	184.0
126.885056	152.0
126.945595	164.0
127.686714	240.0
127.772194	160.0
128.411942	184.0
129.069122	164.0
129.211609	204.0
129.433426	144.0
129.63504	140.0
130.390778	156.0
130.418045	176.0
130.932251	148.0
132.1604	160.0
132.407639	156.0
133.247208	164.0
133.930435	196.0
134.236969	232.0
134.382294	180.0
134.592331	156.0
134.705505	156.0
134.800232	152.0
134.851074	232.0
134.915802	224.0
134.958282	228.0
134.987274	312.0
135.010315	136.0
135.044632	62916.0
135.133682	248.0
135.187012	176.0
135.206284	112.0
135.305573	144.0
135.463791	96.0
135.808029	248.0
136.047943	4252.0
136.836823	152.0
136.942596	104.0
137.050034	452.0
137.093048	264.0
137.10936	264.0
137.149734	108.0
137.23291	148.0
145.579773	152.0
147.529068	224.0
149.746948	192.0
152.057465	140.0
156.549698	204.0
157.988602	136.0
165.615067	280.0
172.707703	144.0
175.550461	248.0
176.053528	228.0
177.087646	156.0
178.943893	348.0
184.55397	1336.0
185.009018	236.0
185.060455	148.0
185.55899	216.0
188.050827	168.0
198.700226	140.0
201.100647	176.0
201.871933	232.0
204.075211	180.0
205.502197	200.0
216.061905	176.0
216.484619	192.0
218.698334	204.0
220.036682	188.0
220.097565	1900.0
221.094376	316.0
223.108536	128.0
235.067764	160.0
238.006424	160.0
1067.785156	156.0
1090.860718	156.0
1095.783447	156.0
1099.621338	140.0
1113.950317	144.0
1165.314941	160.0
1178.485474	188.0
1222.488281	192.0
1244.830688	196.0
1264.203125	184.0
1268.204712	144.0
1292.296875	208.0
1296.235107	144.0
1309.029053	172.0
1310.25354	248.0
1316.14624	180.0
1317.980957	272.0
1331.513306	188.0
1339.652832	180.0
1354.533325	188.0
1417.056885	160.0
1425.74646	220.0
1425.851685	172.0
1428.88208	216.0
1441.104004	140.0
1444.937256	200.0
1451.837891	196.0
1457.789795	196.0
1468.768677	164.0
1470.485474	176.0
1472.546875	192.0
1475.595947	180.0
1481.236206	140.0
1487.416748	212.0
1489.95105	176.0
1492.90271	164.0
1503.048096	244.0
1505.556885	240.0
1509.289429	172.0
1512.275635	152.0
1514.015015	208.0
1519.02478	220.0
1525.757812	208.0
1546.351562	272.0
1551.23938	192.0
1552.964478	148.0
1556.56665	188.0
1557.438477	144.0
1561.588623	148.0
1568.092041	148.0
1578.093994	224.0
1580.894165	252.0
1585.392456	196.0
1593.756348	156.0
1597.262451	196.0
1607.44458	180.0
1611.636841	244.0
1616.08252	164.0
1616.178467	200.0
1623.853027	156.0
1631.513672	140.0
1635.358765	156.0
1640.457764	232.0
1650.226562	228.0
1652.717896	272.0
1652.855469	172.0
1654.045166	208.0
1659.181152	208.0
1672.210815	176.0
1673.163208	160.0
1675.549561	180.0
1676.934814	232.0
1684.980957	196.0
1686.65625	216.0
1692.463501	120.0
1693.734253	204.0
1694.591797	108.0
1701.163818	200.0
1707.934937	340.0
1710.26355	152.0
1714.150879	228.0
1715.939575	168.0
1721.657959	160.0
1727.501709	176.0
1727.782959	164.0
1747.695801	228.0
1752.400146	200.0
1755.826294	168.0
1756.777222	144.0
1765.614502	160.0
1766.660034	164.0
1772.043335	196.0
1774.733887	192.0
1776.075806	164.0
1780.734131	176.0
1780.927368	172.0
1793.540527	184.0
1794.400391	184.0
1796.770264	184.0
1813.395264	224.0
1817.686523	204.0
1818.942627	152.0
1819.868042	180.0
1821.855469	212.0
1822.900513	232.0
1826.097168	204.0
1828.63269	140.0
1830.369385	148.0
1833.095215	184.0
1838.740967	152.0
1839.355469	204.0
1840.32019	156.0
1846.404541	204.0
1861.315918	144.0
1871.135254	152.0
1877.744629	144.0
1881.420532	152.0
1882.616089	184.0
1886.828857	160.0
1887.831909	208.0
1900.669922	148.0
1903.187134	180.0
1906.027588	152.0
1916.53894	172.0
1917.593384	164.0
1927.149048	148.0
1931.380371	240.0
1936.255615	180.0
1941.303589	180.0
1944.794067	180.0
1946.47229	160.0
1954.876221	140.0
1956.293213	140.0
1956.671875	172.0
1956.821533	212.0
1962.769043	204.0
1963.924438	200.0
1965.300171	152.0
1965.627075	176.0
1982.996338	156.0
1984.450073	144.0
1986.472168	180.0
1988.868042	192.0
2000.726685	160.0
END IONS

BEGIN IONS
PEPMASS=399.076
CHARGE=1
MSLEVEL=2
SOURCE_INSTRUMENT=LC-ESI-qTof
FILENAME=Plate3_21_40_GG10_01_16499.mzXML
SEQ=*..*
IONMODE=Positive
ORGANISM=GNPS-SELLECKCHEM-FDA-PART2
NAME=Sulfasalazine (Azulfidine) [M+H]
PI=Dorrestein
DATACOLLECTOR=Garg_Neha
SMILES=C1(NS(C2=CC=C(C=C2)/N=N/C3=CC(=C(C=C3)O)C(=O)O)(=O)=O)=CC=CC=N1
INCHI=N/A
INCHIAUX=N/A
PUBMED=N/A
SUBMITUSER=negarg
LIBRARYQUALITY=1
SPECTRUMID=CCMSLIB00000078189
USI=mzspec:GNPS:GNPS-SELLECKCHEM-FDA-PART2:accession:CCMSLIB00000078189
SCANS=1211
45.308994	164.0
45.43708	112.0
45.749485	144.0
46.229992	176.0
46.582508	168.0
46.809639	140.0
47.971493	192.0
48.003204	164.0
48.682663	160.0
49.215984	164.0
49.352917	184.0
49.45364	148.0
49.748001	188.0
49.836479	176.0
50.067177	168.0
50.41563	152.0
50.600925	192.0
50.952652	148.0
51.205849	176.0
52.677528	196.0
52.990013	152.0
53.748997	200.0
54.278511	232.0
54.869579	144.0
54.940369	192.0
56.055351	156.0
56.088139	228.0
56.199989	140.0
56.22237	164.0
56.343319	200.0
56.503284	140.0
56.594582	236.0
56.843407	188.0
57.104805	248.0
57.127369	220.0
58.274853	172.0
58.346287	172.0
58.445145	176.0
58.580647	212.0
58.763588	140.0
58.801735	156.0
58.885708	172.0
59.188499	144.0
59.446026	152.0
59.501282	232.0
59.538136	148.0
59.793339	188.0
59.987411	140.0
61.42894	192.0
61.501369	140.0
61.926651	176.0
62.74062	188.0
63.877647	212.0
64.011337	180.0
64.354156	180.0
64.49794	212.0
64.894951	188.0
65.641037	232.0
65.913834	140.0
65.97525	148.0
66.33625	208.0
66.756767	228.0
66.869019	244.0
66.93576	164.0
67.154137	176.0
67.2145	188.0
67.37941	204.0
67.744225	168.0
68.406006	200.0
69.277924	176.0
69.29615	140.0
69.647842	164.0
70.085373	144.0
70.432373	192.0
70.885765	172.0
71.061821	140.0
71.262428	180.0
71.507126	216.0
72.469681	172.0
72.940659	156.0
73.191551	160.0
74.343704	144.0
75.304367	204.0
75.333733	220.0
75.917015	144.0
76.106155	236.0
76.192993	180.0
76.387695	192.0
76.648849	184.0
77.083344	172.0
77.139275	160.0
77.324951	180.0
77.438484	152.0
78.831841	236.0
79.058197	168.0
79.607742	180.0
80.216225	148.0
81.285751	336.0
82.032143	252.0
82.541283	160.0
82.60096	176.0
83.438782	160.0
83.649803	180.0
83.722633	204.0
83.839226	196.0
84.663139	152.0
85.572075	184.0
85.820808	144.0
85.942543	176.0
86.150017	116.0
86.20105	148.0
86.3508	196.0
86.589546	192.0
87.043892	176.0
87.607437	180.0
87.999084	200.0
88.195236	184.0
88.661263	184.0
88.967003	184.0
89.130402	212.0
89.647881	144.0
89.808128	260.0
90.770744	228.0
91.018272	116.0
91.60891	168.0
91.959763	152.0
92.032303	172.0
92.261566	172.0
92.63282	144.0
93.037445	140.0
93.317947	220.0
93.367943	240.0
93.381401	140.0
93.400635	184.0
93.442955	180.0
93.583458	176.0
94.054031	1484.0
94.53315	148.0
94.626053	140.0
95.011726	152.0
95.059853	552.0
95.357368	144.0
96.073936	204.0
96.175407	220.0
97.145966	184.0
97.220528	216.0
97.581955	160.0
97.847557	152.0
98.994751	212.0
99.254333	160.0
99.74073	188.0
99.871964	148.0
100.363853	180.0
101.405373	156.0
102.696175	180.0
102.89579	200.0
103.934265	184.0
104.108833	228.0
104.307945	164.0
104.334373	196.0
104.686378	152.0
104.859543	188.0
104.884354	228.0
105.044945	388.0
105.163437	180.0
105.283783	148.0
105.455505	156.0
105.518875	180.0
105.629311	192.0
105.823723	224.0
106.027031	208.0
106.319786	216.0
106.79232	184.0
106.825233	264.0
107.015419	312.0
107.546425	168.0
108.152039	208.0
108.363266	188.0
109.02784	296.0
109.90741	152.0
110.373924	144.0
110.407379	180.0
110.775757	168.0
110.794609	184.0
111.60054	224.0
112.846619	220.0
113.210571	160.0
114.416611	232.0
114.512436	144.0
114.548645	216.0
114.74897	148.0
115.056244	416.0
115.485695	160.0
115.655876	112.0
116.170258	116.0
116.609177	180.0
117.041573	164.0
117.746735	144.0
117.841782	156.0
118.027664	160.0
118.458351	232.0
118.766151	144.0
118.800858	144.0
119.013397	7348.0
119.056976	140.0
119.787781	140.0
120.013802	552.0
120.040604	152.0
120.160568	172.0
120.457466	184.0
121.015137	168.0
121.037369	496.0
121.104919	208.0
121.350357	180.0
121.86834	160.0
122.021057	208.0
122.110146	152.0
123.011337	320.0
123.031204	152.0
123.08419	152.0
124.011124	164.0
124.357124	196.0
125.84417	196.0
126.398491	160.0
126.552933	172.0
126.662674	144.0
127.060165	216.0
127.164223	180.0
127.409683	164.0
127.776131	168.0
127.949425	176.0
128.048126	164.0
128.637009	200.0
129.158981	164.0
129.448669	164.0
129.487167	156.0
130.892883	152.0
131.052322	144.0
132.056763	140.0
133.315414	216.0
134.023636	1444.0
134.079453	148.0
134.100189	208.0
134.66777	204.0
135.006348	256.0
135.032822	196.0
135.105865	152.0
135.834366	152.0
136.116882	328.0
136.205765	144.0
136.333542	156.0
136.48465	168.0
136.992004	208.0
137.024246	2176.0
137.048676	180.0
138.024826	460.0
138.779892	172.0
138.86058	228.0
138.979248	168.0
139.028534	196.0
139.055222	2412.0
139.331436	228.0
139.954697	240.0
140.060364	208.0
140.35762	168.0
140.584076	152.0
141.030441	144.0
141.060013	160.0
141.077713	300.0
141.177017	180.0
141.309479	196.0
142.319168	236.0
142.62326	240.0
143.05127	184.0
143.396805	212.0
143.625687	204.0
143.814194	176.0
145.014862	152.0
145.074799	228.0
146.035278	148.0
146.093018	200.0
146.957916	204.0
147.020111	7216.0
147.658447	204.0
147.95607	208.0
148.022385	244.0
148.324295	144.0
148.697586	132.0
149.035126	212.0
149.317337	152.0
149.626373	168.0
150.186844	176.0
150.85347	172.0
151.002914	972.0
151.751953	160.0
152.033417	444.0
152.476089	144.0
152.660477	152.0
153.022827	316.0
153.098511	192.0
154.3694	172.0
155.030014	316.0
155.06044	680.0
155.161728	208.0
155.238602	148.0
155.496613	184.0
155.531357	144.0
156.061188	308.0
156.588058	152.0
156.640366	280.0
157.006363	808.0
157.076218	684.0
158.043427	152.0
158.078445	144.0
159.229141	208.0
159.475357	148.0
160.0439	192.0
160.189972	180.0
160.245392	144.0
161.070328	160.0
162.049347	156.0
163.173691	152.0
163.878693	172.0
164.873398	148.0
165.030365	6440.0
165.098114	132.0
165.40094	220.0
165.613266	212.0
165.756744	180.0
166.030731	584.0
166.652237	236.0
166.862991	204.0
167.059326	1288.0
167.148499	140.0
167.328659	172.0
168.066071	996.0
168.561569	204.0
168.70372	168.0
169.011047	204.0
169.076019	1640.0
169.50087	180.0
169.648605	160.0
170.011734	196.0
170.04631	520.0
170.082108	608.0
170.65593	204.0
170.720932	200.0
170.887405	184.0
171.057266	472.0
171.340424	180.0
171.814911	152.0
171.981918	244.0
172.043304	124.0
172.794617	152.0
173.037506	344.0
173.070282	148.0
174.019669	424.0
174.546707	220.0
174.788712	152.0
175.470886	140.0
175.602737	180.0
176.017059	200.0
176.839233	180.0
177.032028	404.0
177.401123	212.0
177.573135	260.0
179.040955	136.0
179.623871	156.0
179.831985	188.0
180.077621	176.0
180.368866	188.0
181.061829	168.0
181.340469	204.0
182.070648	472.0
183.052383	440.0
183.760666	172.0
183.882095	232.0
184.052658	108.0
184.07634	168.0
184.919937	152.0
185.035339	392.0
185.072098	1404.0
185.944412	196.0
186.035522	204.0
186.058014	880.0
186.37619	144.0
186.90097	220.0
187.056458	120.0
187.382889	208.0
187.513687	140.0
187.887253	144.0
187.93364	172.0
188.449677	176.0
189.026611	320.0
190.071426	164.0
190.188629	216.0
190.361588	180.0
190.885513	152.0
191.186295	220.0
191.836319	200.0
191.932678	152.0
192.150711	176.0
192.219696	140.0
193.826248	212.0
193.937103	168.0
194.04245	144.0
194.071121	200.0
194.106216	160.0
194.58345	168.0
195.049591	816.0
195.244781	236.0
195.536896	280.0
195.609268	148.0
196.058273	320.0
196.715942	164.0
197.071671	512.0
198.042572	180.0
198.586029	188.0
198.74498	140.0
199.025665	148.0
199.048904	776.0
199.393661	140.0
199.421768	188.0
199.539841	208.0
199.996536	172.0
200.057251	316.0
200.89444	168.0
201.035522	172.0
201.065475	216.0
202.074829	336.0
203.083832	144.0
203.219986	212.0
204.225632	172.0
204.822784	156.0
204.977554	228.0
205.037048	160.0
205.259033	132.0
206.053757	132.0
206.085281	388.0
206.192902	144.0
206.355835	148.0
206.467361	152.0
209.089874	176.0
209.230591	192.0
209.561798	184.0
209.662643	196.0
209.82724	116.0
210.129776	180.0
210.49057	168.0
211.052963	288.0
211.114746	148.0
211.23912	304.0
211.473495	144.0
212.056717	360.0
212.122314	144.0
212.833099	156.0
212.934738	172.0
213.018982	148.0
213.065628	7956.0
213.257248	200.0
213.347351	300.0
214.027863	152.0
214.067047	952.0
215.004715	192.0
215.068222	296.0
215.237289	172.0
215.273819	144.0
215.517441	96.0
215.579208	116.0
216.586456	212.0
217.33989	200.0
217.609909	152.0
218.366638	164.0
218.556335	152.0
219.053879	168.0
219.207092	184.0
219.587387	168.0
219.637527	144.0
219.675873	144.0
219.705383	216.0
220.086105	208.0
220.260345	164.0
220.390335	160.0
220.552872	208.0
220.975754	148.0
221.049454	132.0
221.603439	144.0
221.713074	144.0
222.05545	164.0
222.445679	208.0
222.54364	180.0
222.754501	216.0
222.778259	156.0
222.980316	140.0
223.013016	184.0
223.050812	9848.0
223.408493	160.0
223.77243	208.0
223.871826	200.0
224.05481	3528.0
225.064133	844.0
225.355301	168.0
225.4599	148.0
226.062561	540.0
226.210632	172.0
226.325958	100.0
226.348358	164.0
226.64946	152.0
226.839691	156.0
227.040344	244.0
227.283569	176.0
227.514664	160.0
228.047668	168.0
228.075775	192.0
228.389114	168.0
228.449265	148.0
229.042282	236.0
229.07962	228.0
229.491318	196.0
229.636063	140.0
230.079758	96.0
230.321213	196.0
231.094345	156.0
231.39476	180.0
231.537079	172.0
233.0383	188.0
233.281738	152.0
234.043671	464.0
234.078873	204.0
234.115417	180.0
235.046661	160.0
235.075668	148.0
235.839294	112.0
236.478561	188.0
237.11853	168.0
237.382355	140.0
237.575409	152.0
237.613785	228.0
237.842377	184.0
239.045746	4260.0
240.048813	464.0
240.600571	184.0
240.86615	152.0
241.061661	3620.0
241.218414	152.0
241.738007	152.0
241.849426	204.0
241.979446	236.0
242.067444	1032.0
242.17453	156.0
242.369705	160.0
242.62384	204.0
243.073532	160.0
243.151169	176.0
243.638657	168.0
244.059708	136.0
244.128555	144.0
245.989822	184.0
246.049133	196.0
246.099472	228.0
246.473907	172.0
246.598907	232.0
246.795853	140.0
247.47168	144.0
247.493607	192.0
247.900818	144.0
249.028381	208.0
249.071976	180.0
249.099335	140.0
249.419846	188.0
249.617554	172.0
249.753143	196.0
250.137039	228.0
250.621048	348.0
251.051407	276.0
251.847244	148.0
251.947128	176.0
252.060883	164.0
252.082993	212.0
252.50029	188.0
253.095215	176.0
253.459488	144.0
253.804977	180.0
255.040848	4444.0
255.081238	384.0
255.345154	148.0
255.401093	136.0
255.981628	184.0
256.043549	860.0
256.985687	156.0
257.055634	5148.0
257.480469	204.0
258.058838	564.0
258.212341	172.0
259.078583	300.0
259.191925	152.0
259.448334	156.0
259.794678	188.0
259.836365	228.0
259.871674	156.0
260.006439	156.0
260.085907	340.0
260.455933	204.0
260.671173	160.0
260.924042	156.0
261.06015	140.0
261.101196	460.0
261.661865	160.0
262.106201	180.0
262.844757	148.0
262.909271	148.0
263.082214	260.0
263.22049	208.0
263.658508	140.0
263.681152	172.0
264.923645	144.0
265.182892	160.0
265.568695	164.0
266.0336	652.0
266.126862	192.0
266.94458	184.0
267.044189	272.0
267.544373	232.0
268.29718	100.0
269.010284	208.0
269.396698	208.0
270.845795	200.0
271.094086	220.0
271.829346	160.0
272.030975	140.0
272.078094	128.0
273.051086	6500.0
273.189117	168.0
274.052063	892.0
274.113129	168.0
274.180664	184.0
275.06662	340.0
275.186737	164.0
275.332031	196.0
275.784485	148.0
275.90036	172.0
276.194672	168.0
276.654633	160.0
277.595612	156.0
277.628937	144.0
278.930267	184.0
279.219543	192.0
279.556061	128.0
279.652039	160.0
279.715302	188.0
279.931702	152.0
280.851532	140.0
281.091736	168.0
281.178497	188.0
281.22522	160.0
281.398804	148.0
281.699371	252.0
282.297638	148.0
283.007019	188.0
283.331909	188.0
284.384827	236.0
285.678497	140.0
286.247314	188.0
286.422424	156.0
286.581451	160.0
287.012543	672.0
287.08432	936.0
287.538452	140.0
287.889557	172.0
288.017578	144.0
288.094757	492.0
288.382812	152.0
288.971222	164.0
289.010284	204.0
289.105255	604.0
289.62796	156.0
290.112518	176.0
291.222107	184.0
291.514282	236.0
291.769226	152.0
292.507416	144.0
293.065918	172.0
294.252838	144.0
294.717346	172.0
294.802765	148.0
294.881378	148.0
295.315582	168.0
295.960968	132.0
296.939026	200.0
297.979126	260.0
298.51532	216.0
298.55661	148.0
299.093781	156.0
299.365326	144.0
299.720123	236.0
301.082703	172.0
301.791107	164.0
302.081604	188.0
302.142395	164.0
302.895081	144.0
303.079895	256.0
303.682526	132.0
304.08783	148.0
304.344696	152.0
305.023773	616.0
305.077789	144.0
305.613373	184.0
305.919647	200.0
306.0224	208.0
306.069336	144.0
306.595337	224.0
306.720825	196.0
307.012482	152.0
308.078247	168.0
308.11319	160.0
308.424194	144.0
308.89975	180.0
310.014984	112.0
310.402252	156.0
310.889862	168.0
310.995148	172.0
311.065338	172.0
311.940002	148.0
312.010315	148.0
312.115814	144.0
312.833527	208.0
313.132812	188.0
314.1409	196.0
314.571411	160.0
315.087311	2292.0
315.38385	180.0
315.624237	180.0
316.0896	836.0
316.866577	144.0
316.909088	152.0
316.937439	192.0
317.103638	3684.0
317.420929	100.0
318.10318	1184.0
319.11319	168.0
319.676453	180.0
320.219879	140.0
320.611786	184.0
321.46051	148.0
321.817474	144.0
322.217468	144.0
323.666046	172.0
323.812866	188.0
324.34314	164.0
325.681732	124.0
325.774231	148.0
327.307037	164.0
327.800537	204.0
327.922058	216.0
329.398834	168.0
329.680634	256.0
330.013184	140.0
330.132507	144.0
331.082367	292.0
332.093384	1528.0
332.160004	156.0
332.47641	152.0
332.52359	176.0
332.697815	164.0
332.767731	244.0
332.839417	228.0
333.097412	2244.0
333.925995	180.0
334.098602	212.0
334.133331	200.0
334.945129	248.0
335.115448	3052.0
335.903168	140.0
336.114044	796.0
336.287659	176.0
336.385651	168.0
336.564362	156.0
337.083069	144.0
337.114288	420.0
337.368134	200.0
339.308441	164.0
340.644257	168.0
340.974945	232.0
341.353577	168.0
342.848175	184.0
342.903473	152.0
343.987885	176.0
344.139221	200.0
344.405121	160.0
344.630463	144.0
346.647095	172.0
347.544434	192.0
347.908173	164.0
348.015839	172.0
348.119812	236.0
349.088287	1164.0
349.152924	168.0
349.428162	152.0
349.800323	164.0
349.960419	180.0
350.093933	584.0
350.571289	148.0
351.102356	140.0
351.886414	188.0
352.0	160.0
352.276398	168.0
352.52298	148.0
352.836945	216.0
352.889282	188.0
352.997742	144.0
353.068787	240.0
353.098694	220.0
354.300262	188.0
354.652496	196.0
355.000488	244.0
355.278717	176.0
356.005859	128.0
356.833527	180.0
356.980164	160.0
357.160706	164.0
357.205841	152.0
357.582092	144.0
358.568848	140.0
359.043884	188.0
359.092896	188.0
359.145691	160.0
359.960876	184.0
361.158905	152.0
363.053894	148.0
363.268982	148.0
363.724121	140.0
363.951935	176.0
364.04892	256.0
364.20636	156.0
365.04248	144.0
365.486267	180.0
366.812866	148.0
367.011108	180.0
367.697754	184.0
367.800812	148.0
367.942047	156.0
368.373596	200.0
370.535034	224.0
370.569519	164.0
370.604004	176.0
371.048615	140.0
371.15979	192.0
371.2995	212.0
371.370697	152.0
371.412903	140.0
371.443604	176.0
372.046082	160.0
372.460785	172.0
373.375549	156.0
373.556305	188.0
373.587097	152.0
373.867981	144.0
373.992157	136.0
374.888489	172.0
375.073486	152.0
377.616364	104.0
377.691437	148.0
377.834564	256.0
378.020294	212.0
378.227875	144.0
378.794617	144.0
379.406921	144.0
379.827484	168.0
379.962799	124.0
380.137726	152.0
380.295227	144.0
380.341797	140.0
380.582581	140.0
380.629089	144.0
380.741058	192.0
380.859924	208.0
380.904816	116.0
380.939789	180.0
381.001709	144.0
381.066498	61284.0
381.377655	116.0
381.430206	156.0
381.565674	344.0
381.770935	144.0
381.864868	180.0
381.996582	144.0
382.068726	11764.0
382.304565	104.0
382.388641	116.0
382.61087	160.0
382.918396	124.0
383.064331	3200.0
383.40741	136.0
384.068268	644.0
384.156921	120.0
384.501099	152.0
384.632751	244.0
384.694794	224.0
384.872009	140.0
385.058472	264.0
385.773071	148.0
386.279968	104.0
387.752502	176.0
387.791687	208.0
388.844391	172.0
389.047272	220.0
389.529907	244.0
389.702759	156.0
390.194061	156.0
390.819427	172.0
392.051941	156.0
392.481598	140.0
394.060394	152.0
395.98288	224.0
396.200745	144.0
396.379028	144.0
396.5336	144.0
396.775391	184.0
396.936188	160.0
396.963654	248.0
397.089203	116.0
397.140228	184.0
397.177063	124.0
397.214142	460.0
397.298889	272.0
397.344604	192.0
397.433624	108.0
397.659821	100.0
397.706909	276.0
398.045502	256.0
398.095428	152.0
398.143707	104.0
398.208893	204.0
398.260071	332.0
398.334991	264.0
398.375763	144.0
398.490295	124.0
398.5896	244.0
398.708618	136.0
398.785919	220.0
398.823486	184.0
398.851074	428.0
398.894714	356.0
398.955811	156.0
399.000916	340.0
399.07782	146012.0
399.189972	148.0
399.220123	312.0
399.251282	348.0
399.322144	120.0
399.358856	128.0
399.402008	108.0
399.436066	104.0
399.550964	176.0
399.673401	268.0
399.729004	520.0
399.800781	228.0
399.92804	184.0
400.079437	33132.0
400.171478	188.0
400.323914	168.0
400.464264	228.0
400.657501	128.0
400.725922	164.0
400.994843	208.0
401.076447	9296.0
401.231873	172.0
401.263977	200.0
401.348206	160.0
401.441956	100.0
401.630829	156.0
401.659637	112.0
401.762482	124.0
401.838287	216.0
401.986816	132.0
402.079193	1892.0
402.159119	268.0
402.195892	116.0
402.371948	128.0
402.418488	168.0
402.475098	188.0
402.564819	116.0
402.648895	212.0
402.698669	228.0
402.735962	96.0
402.782928	140.0
402.838959	116.0
404.295715	172.0
404.339722	144.0
412.193665	144.0
413.788635	108.0
417.984161	140.0
447.041473	184.0
502.283142	160.0
576.259521	192.0
580.93689	160.0
582.799683	192.0
626.287109	180.0
642.272034	180.0
658.312073	420.0
674.354675	272.0
742.334351	144.0
783.311218	184.0
852.848572	192.0
1117.084106	168.0
1198.928345	144.0
1289.727173	180.0
1342.8927	236.0
1348.931274	152.0
1352.559326	156.0
1372.638184	188.0
1412.603882	160.0
1431.464844	184.0
1441.82251	144.0
1444.16626	168.0
1448.776123	236.0
1451.785278	148.0
1453.780396	208.0
1491.22583	168.0
1494.848145	160.0
1513.822632	212.0
1536.214722	184.0
1537.400757	148.0
1539.711548	188.0
1543.525146	220.0
1554.256348	160.0
1560.327637	188.0
1573.18457	216.0
1574.850708	184.0
1579.332275	152.0
1607.392578	164.0
1617.694702	156.0
1620.241333	200.0
1620.377441	224.0
1646.641357	256.0
1647.667236	188.0
1692.933105	168.0
1698.727783	208.0
1700.861206	148.0
1706.332397	184.0
1707.072388	160.0
1729.264648	140.0
1737.103149	140.0
1738.496948	220.0
1739.243896	196.0
1740.896118	176.0
1747.304688	148.0
1749.967896	244.0
1751.225342	220.0
1758.320435	192.0
1759.931519	168.0
1765.981934	180.0
1771.397461	208.0
1788.156982	144.0
1791.07019	216.0
1791.474487	192.0
1813.77478	172.0
1819.305542	200.0
1823.722656	148.0
1850.877197	176.0
1854.123779	216.0
1856.927246	204.0
1862.291504	176.0
1867.852783	232.0
1879.828369	156.0
1888.900146	140.0
1896.086548	200.0
1897.820312	176.0
1908.065308	208.0
1908.67395	240.0
1910.222046	180.0
1913.084961	188.0
1916.786499	188.0
1917.265869	204.0
1924.095581	176.0
1927.667969	156.0
1937.309814	212.0
1938.913208	148.0
1951.87915	272.0
1953.866943	188.0
1967.120972	192.0
1976.135254	148.0
1979.348267	184.0
1985.2854	208.0
1988.559082	236.0
1989.5177	144.0
1990.947266	156.0
END IONS

BEGIN IONS
PEPMASS=202.043
CHARGE=1
MSLEVEL=2
SOURCE_INSTRUMENT=LC-ESI-qTof
FILENAME=Plate4_41_60_GH4_01_16505.mzXML
SEQ=*..*
IONMODE=Positive
ORGANISM=GNPS-SELLECKCHEM-FDA-PART2
NAME=Thiabendazole [M+H]
PI=Dorrestein
DATACOLLECTOR=Garg_Neha
SMILES=N1=CSC=C1C2NC3=C(N=2)C=CC=C3
INCHI=N/A
INCHIAUX=N/A
PUBMED=N/A
SUBMITUSER=negarg
LIBRARYQUALITY=1
SPECTRUMID=CCMSLIB00000078268
USI=mzspec:GNPS:GNPS-SELLECKCHEM-FDA-PART2:accession:CCMSLIB00000078268
SCANS=1022
44.946117	548.0
44.991978	200.0
45.034225	148.0
45.060322	152.0
45.071632	144.0
45.091675	160.0
45.111725	148.0
45.140606	140.0
45.164871	268.0
45.194645	168.0
45.213707	164.0
45.23151	220.0
45.280319	152.0
45.291763	120.0
45.303089	160.0
45.321846	192.0
45.379478	236.0
45.400936	180.0
45.414131	176.0
45.436302	172.0
45.539169	140.0
45.562695	156.0
45.609039	284.0
45.739567	124.0
45.834736	136.0
45.851795	204.0
45.897137	200.0
45.951088	140.0
46.159241	184.0
46.188309	200.0
46.217258	148.0
46.240265	152.0
46.315723	200.0
46.351311	148.0
46.398548	108.0
46.415401	156.0
46.512699	152.0
46.525867	160.0
46.571083	148.0
46.590496	152.0
46.622711	172.0
46.639023	144.0
46.687965	176.0
46.700207	152.0
46.735577	184.0
46.885746	144.0
46.959908	148.0
47.044952	172.0
47.058601	168.0
47.068161	172.0
47.125889	136.0
47.180195	144.0
47.193905	148.0
47.215748	152.0
47.240368	196.0
47.277309	220.0
47.341652	148.0
47.386852	180.0
47.423973	124.0
47.449898	160.0
47.463608	220.0
47.551407	144.0
47.561707	168.0
47.576115	160.0
47.590633	164.0
47.607655	140.0
47.640656	168.0
47.723118	328.0
47.738243	168.0
47.763	164.0
47.797432	144.0
47.812531	148.0
47.850765	232.0
47.87999	204.0
47.899273	188.0
48.001431	172.0
48.022396	172.0
48.042355	196.0
48.070232	204.0
48.177925	172.0
48.205662	200.0
48.281631	144.0
48.392292	160.0
48.44492	164.0
48.458954	184.0
48.543324	156.0
48.764675	200.0
48.797421	196.0
48.818573	152.0
48.846722	400.0
48.863598	172.0
48.889454	148.0
48.90036	168.0
48.976719	176.0
49.004204	224.0
49.04417	144.0
49.063335	176.0
49.100716	124.0
49.152725	132.0
49.203163	140.0
49.261745	136.0
49.288395	176.0
49.299225	176.0
49.31628	156.0
49.440468	144.0
49.47126	152.0
49.49086	144.0
49.514519	152.0
49.542679	152.0
49.56142	288.0
49.573505	164.0
49.607944	168.0
49.676579	256.0
49.706722	188.0
49.848549	204.0
50.022614	288.0
50.075047	260.0
50.11581	164.0
50.138866	240.0
50.199062	204.0
50.213581	216.0
50.280884	140.0
50.303467	172.0
50.331703	168.0
50.388199	200.0
50.39809	248.0
50.422821	240.0
50.464111	152.0
50.470856	100.0
50.518261	180.0
50.567257	320.0
50.630077	160.0
50.66124	160.0
50.709148	168.0
50.72501	188.0
50.783142	196.0
50.793072	168.0
50.864021	156.0
50.902351	144.0
50.917973	140.0
50.952065	176.0
50.998501	168.0
51.01886	168.0
51.034409	124.0
51.054405	152.0
51.071472	212.0
51.084274	152.0
51.095657	156.0
51.135754	156.0
51.176781	208.0
51.238846	104.0
51.359646	172.0
51.370605	148.0
51.389786	164.0
51.460514	156.0
51.499069	168.0
51.523159	304.0
51.584351	152.0
51.606247	188.0
51.660595	144.0
51.679192	140.0
51.724068	236.0
51.741634	216.0
51.801273	132.0
51.823177	192.0
51.872528	180.0
51.912952	332.0
51.935257	200.0
52.007362	156.0
52.031849	188.0
52.109322	152.0
52.138058	256.0
52.152431	180.0
52.168243	172.0
52.247993	184.0
52.29657	208.0
52.310165	176.0
52.346291	192.0
52.381218	204.0
52.39904	288.0
52.470566	176.0
52.51815	176.0
52.536903	208.0
52.565762	212.0
52.58448	144.0
52.611263	152.0
52.641708	180.0
52.669708	144.0
52.711773	172.0
52.728947	172.0
52.845318	168.0
52.885151	140.0
52.896729	184.0
52.919891	164.0
52.948853	180.0
53.02676	176.0
53.054768	168.0
53.080887	108.0
53.122787	176.0
53.193893	140.0
53.23164	144.0
53.301365	168.0
53.374043	176.0
53.417389	164.0
53.441975	108.0
53.509357	212.0
53.531197	160.0
53.564697	164.0
53.574894	224.0
53.596748	124.0
53.641628	156.0
53.665253	152.0
53.678375	140.0
53.71476	232.0
53.773468	196.0
53.787201	180.0
53.823807	180.0
53.850456	140.0
53.8871	144.0
53.905819	276.0
53.987434	200.0
54.005508	192.0
54.034767	164.0
54.053787	144.0
54.122944	232.0
54.185566	144.0
54.19875	152.0
54.378666	140.0
54.387573	392.0
54.40691	168.0
54.41127	156.0
54.434914	176.0
54.464367	148.0
54.525345	208.0
54.539223	156.0
54.602444	172.0
54.670887	184.0
54.695137	204.0
54.760231	216.0
54.863068	172.0
54.924976	216.0
54.975166	140.0
54.99435	184.0
55.045841	164.0
55.070808	204.0
55.108418	148.0
55.131702	312.0
55.173859	152.0
55.269588	196.0
55.312756	348.0
55.349323	140.0
55.389858	240.0
55.43507	148.0
55.448406	152.0
55.487103	152.0
55.500774	184.0
55.520206	372.0
55.553684	220.0
55.63266	200.0
55.670143	260.0
55.688396	180.0
55.698147	200.0
55.728588	192.0
55.798721	120.0
55.879002	176.0
55.915611	172.0
55.932606	156.0
55.971607	184.0
56.086029	204.0
56.112862	144.0
56.2882	160.0
56.306847	172.0
56.353153	164.0
56.376698	148.0
56.429379	200.0
56.462631	164.0
56.508648	216.0
56.538574	176.0
56.562519	204.0
56.576904	184.0
56.598282	140.0
56.66655	172.0
56.704811	172.0
56.727837	280.0
56.787941	180.0
56.82209	152.0
56.888454	148.0
57.0275	172.0
57.068089	152.0
57.08725	140.0
57.131256	160.0
57.146301	172.0
57.171879	164.0
57.196865	180.0
57.319454	184.0
57.404713	136.0
57.475403	152.0
57.494385	164.0
57.552567	172.0
57.611244	172.0
57.66568	152.0
57.684441	180.0
57.719467	156.0
57.755562	180.0
57.77816	104.0
57.813255	320.0
57.850075	320.0
57.985901	220.0
58.017735	164.0
58.034409	200.0
58.090569	136.0
58.165119	152.0
58.202831	192.0
58.233963	208.0
58.403435	144.0
58.49321	168.0
58.544487	220.0
58.568233	148.0
58.605865	140.0
58.691265	188.0
58.76778	168.0
58.947567	132.0
58.95993	160.0
58.993557	232.0
59.020489	180.0
59.065426	152.0
59.079651	148.0
59.132751	168.0
59.347214	188.0
59.377743	132.0
59.390938	156.0
59.404949	124.0
59.430038	212.0
59.469936	176.0
59.520599	140.0
59.577724	164.0
59.631207	192.0
59.663486	224.0
59.739876	208.0
59.788288	184.0
59.809624	156.0
59.840714	224.0
59.943611	204.0
59.986855	208.0
60.070038	228.0
60.136387	140.0
60.243595	288.0
60.289871	228.0
60.3325	204.0
60.423805	180.0
60.464378	196.0
60.483181	152.0
60.589462	180.0
60.634396	144.0
60.670048	176.0
60.702419	196.0
60.77396	208.0
60.828754	208.0
60.880852	172.0
60.918049	212.0
61.025578	144.0
61.042866	204.0
61.062538	172.0
61.091621	120.0
61.143799	176.0
61.195499	148.0
61.216236	236.0
61.243443	172.0
61.294262	200.0
61.394447	252.0
61.416454	348.0
61.441414	188.0
61.4529	312.0
61.469872	140.0
61.502274	144.0
61.566284	160.0
61.583466	208.0
61.597523	456.0
61.627205	180.0
61.682796	308.0
61.699951	132.0
61.727242	224.0
61.77729	200.0
61.796066	172.0
61.821224	152.0
61.852402	148.0
61.871185	248.0
61.896236	228.0
61.932259	176.0
62.093052	216.0
62.129768	160.0
62.142323	212.0
62.176201	236.0
62.201954	196.0
62.223934	168.0
62.278896	204.0
62.346455	216.0
62.426445	172.0
62.445274	140.0
62.480106	180.0
62.55407	168.0
62.598152	172.0
62.680065	184.0
62.733356	168.0
62.758873	152.0
62.788837	164.0
62.853516	140.0
62.875607	160.0
62.97823	148.0
63.005085	176.0
63.055649	208.0
63.132366	228.0
63.184467	224.0
63.199551	164.0
63.240696	152.0
63.254944	160.0
63.273121	172.0
63.409393	172.0
63.423702	200.0
63.489433	232.0
63.511902	192.0
63.808796	160.0
63.869026	164.0
63.89925	152.0
63.972458	332.0
64.036148	140.0
64.083855	156.0
64.197556	244.0
64.22422	156.0
64.234657	156.0
64.253021	224.0
64.28804	240.0
64.313576	164.0
64.412575	160.0
64.472458	300.0
64.510506	208.0
64.533356	132.0
64.549171	184.0
64.602203	192.0
64.628395	148.0
64.764473	180.0
64.859787	148.0
64.958427	236.0
65.094849	288.0
65.133018	196.0
65.16552	244.0
65.179985	144.0
65.24588	164.0
65.263565	172.0
65.298126	236.0
65.311813	172.0
65.336182	396.0
65.359123	108.0
65.422844	148.0
65.435722	172.0
65.452179	216.0
65.516701	152.0
65.595207	240.0
65.691048	240.0
65.719391	176.0
65.809067	180.0
65.830765	228.0
65.973274	224.0
66.005447	156.0
66.033508	184.0
66.065125	140.0
66.093094	196.0
66.149277	204.0
66.165466	140.0
66.187843	156.0
66.209183	160.0
66.305962	228.0
66.348534	152.0
66.375847	132.0
66.40519	184.0
66.421509	220.0
66.434174	220.0
66.445839	200.0
66.462067	172.0
66.527199	208.0
66.556206	208.0
66.669121	188.0
66.690353	132.0
66.715424	144.0
66.754448	196.0
66.782867	132.0
66.829269	196.0
66.985977	312.0
67.000221	160.0
67.036804	132.0
67.088226	192.0
67.15834	212.0
67.222572	216.0
67.242928	156.0
67.301949	144.0
67.342583	200.0
67.382706	108.0
67.441406	272.0
67.468597	164.0
67.48822	172.0
67.543823	176.0
67.560181	176.0
67.5755	328.0
67.604698	228.0
67.635452	188.0
67.672043	208.0
67.697662	180.0
67.820984	192.0
67.850769	136.0
67.865715	180.0
67.955009	180.0
68.004257	248.0
68.053345	156.0
68.077232	148.0
68.140533	164.0
68.206268	196.0
68.285194	144.0
68.31089	184.0
68.326317	184.0
68.340073	220.0
68.364159	168.0
68.42012	148.0
68.574043	200.0
68.62442	196.0
68.645851	148.0
68.776184	144.0
68.787743	188.0
68.8237	200.0
68.906723	160.0
69.012421	200.0
69.098427	144.0
69.123245	200.0
69.166275	200.0
69.215942	172.0
69.241882	204.0
69.340004	168.0
69.374992	212.0
69.490921	164.0
69.499649	176.0
69.60218	184.0
69.630821	180.0
69.649887	188.0
69.68866	140.0
69.737137	164.0
69.769722	140.0
69.888138	144.0
69.922592	332.0
69.982788	396.0
70.031349	192.0
70.056335	160.0
70.128403	192.0
70.143837	112.0
70.177086	168.0
70.229698	200.0
70.245148	196.0
70.26973	188.0
70.284271	140.0
70.298096	340.0
70.347412	124.0
70.406609	176.0
70.426651	144.0
70.473427	332.0
70.538727	160.0
70.563675	148.0
70.576347	152.0
70.605835	132.0
70.645721	204.0
70.685089	204.0
70.734314	216.0
70.791237	164.0
70.807648	248.0
70.883606	200.0
70.915215	156.0
70.961761	172.0
71.05439	140.0
71.07193	176.0
71.093651	208.0
71.136627	140.0
71.173561	168.0
71.21386	188.0
71.237007	200.0
71.260902	192.0
71.347862	188.0
71.375389	172.0
71.400421	196.0
71.491264	192.0
71.551682	152.0
71.608582	216.0
71.612053	236.0
71.688843	184.0
71.723511	152.0
71.755714	156.0
71.795639	260.0
71.814735	144.0
71.84127	180.0
71.88147	144.0
71.932091	160.0
71.972244	168.0
71.998695	188.0
72.016228	220.0
72.090591	212.0
72.111748	144.0
72.128792	164.0
72.321617	180.0
72.545212	220.0
72.581093	196.0
72.738594	152.0
72.779343	220.0
72.872757	204.0
73.033272	164.0
73.083649	124.0
73.110435	160.0
73.208588	168.0
73.291321	208.0
73.313858	160.0
73.419167	144.0
73.444908	132.0
73.483208	148.0
73.512993	148.0
73.608589	140.0
73.653305	240.0
73.666245	184.0
73.68203	184.0
73.723038	168.0
73.828621	216.0
73.861877	176.0
73.906006	140.0
73.938522	152.0
74.021111	180.0
74.08017	192.0
74.184807	188.0
74.292107	156.0
74.320656	156.0
74.33857	232.0
74.384155	140.0
74.434006	236.0
74.452835	168.0
74.495842	188.0
74.512177	160.0
74.541382	168.0
74.588562	304.0
74.626389	164.0
74.660774	164.0
74.717537	176.0
74.73819	212.0
74.757118	144.0
74.834801	184.0
74.858879	204.0
74.875557	240.0
74.912216	188.0
74.983093	164.0
75.065468	236.0
75.081863	136.0
75.09996	264.0
75.124107	168.0
75.160339	236.0
75.177589	176.0
75.198677	220.0
75.244911	168.0
75.26265	276.0
75.289803	172.0
75.313484	236.0
75.35199	184.0
75.422836	148.0
75.487305	168.0
75.529221	176.0
75.570793	244.0
75.585403	144.0
75.737755	200.0
75.7724	296.0
75.832489	116.0
75.860786	168.0
75.893723	276.0
75.917999	164.0
75.974007	180.0
75.996056	168.0
76.032104	192.0
76.047241	144.0
76.060272	256.0
76.127983	148.0
76.180084	204.0
76.207024	180.0
76.343468	232.0
76.377739	192.0
76.447845	204.0
76.526169	224.0
76.602798	232.0
76.634155	144.0
76.686081	156.0
76.704659	168.0
76.726532	156.0
76.891159	188.0
76.920166	144.0
76.946709	156.0
76.977448	208.0
77.026558	224.0
77.079094	192.0
77.091324	152.0
77.112679	164.0
77.232941	412.0
77.247498	148.0
77.266891	108.0
77.430717	212.0
77.467697	176.0
77.507797	172.0
77.535095	192.0
77.593681	196.0
77.642738	172.0
77.70768	212.0
77.724579	316.0
77.748039	148.0
77.888046	156.0
77.980675	164.0
78.062492	172.0
78.129326	180.0
78.2407	168.0
78.267387	160.0
78.293022	160.0
78.337883	148.0
78.382858	140.0
78.480667	148.0
78.506973	168.0
78.529037	144.0
78.566223	316.0
78.585312	176.0
78.65799	272.0
78.6819	156.0
78.697182	196.0
78.73568	148.0
78.778069	228.0
78.978256	192.0
78.996613	116.0
79.033257	272.0
79.083885	196.0
79.140823	160.0
79.202606	152.0
79.309113	184.0
79.392242	196.0
79.426842	316.0
79.498688	156.0
79.518204	176.0
79.539505	292.0
79.566132	140.0
79.672691	140.0
79.741989	168.0
79.795319	212.0
79.891777	152.0
79.923515	156.0
79.988724	100.0
80.019821	128.0
80.064636	180.0
80.140495	132.0
80.227928	208.0
80.251106	140.0
80.273514	136.0
80.340508	128.0
80.358124	212.0
80.392021	152.0
80.466995	176.0
80.484802	164.0
80.57058	168.0
80.679588	252.0
80.736809	244.0
80.799416	220.0
80.8283	164.0
80.874573	168.0
80.922905	152.0
80.942596	148.0
80.994537	344.0
81.012451	156.0
81.053658	156.0
81.075157	208.0
81.162994	176.0
81.213211	176.0
81.241745	172.0
81.258057	164.0
81.28138	140.0
81.329079	148.0
81.362335	116.0
81.439362	144.0
81.457024	192.0
81.46843	240.0
81.491211	172.0
81.648834	164.0
81.773788	172.0
81.806534	164.0
81.825989	340.0
81.847595	208.0
81.860199	140.0
82.083755	200.0
82.142052	248.0
82.188263	228.0
82.211723	164.0
82.249626	156.0
82.312813	184.0
82.372414	188.0
82.389534	192.0
82.426613	192.0
82.45372	140.0
82.511559	168.0
82.553146	212.0
82.623688	196.0
82.653641	188.0
82.670731	228.0
82.699692	152.0
82.782967	156.0
82.816628	164.0
82.848175	192.0
82.864479	180.0
82.877159	180.0
82.956902	176.0
82.974815	164.0
83.058449	388.0
83.085663	184.0
83.143723	220.0
83.245384	140.0
83.283669	156.0
83.310776	144.0
83.363777	212.0
83.397995	184.0
83.457985	144.0
83.569122	192.0
83.6745	172.0
83.740051	276.0
83.756172	136.0
83.7911	176.0
83.805634	176.0
83.846764	216.0
83.880188	220.0
83.899887	296.0
83.965248	128.0
83.986107	220.0
84.061188	228.0
84.142433	180.0
84.166779	180.0
84.209229	180.0
84.345818	148.0
84.448212	188.0
84.46833	308.0
84.501259	160.0
84.526878	180.0
84.548836	308.0
84.574463	204.0
84.620178	164.0
84.675301	312.0
84.707832	348.0
84.740822	184.0
84.756065	144.0
84.814133	160.0
84.836403	152.0
84.869408	204.0
84.924423	160.0
84.987358	104.0
85.010643	224.0
85.023491	164.0
85.053024	176.0
85.105804	152.0
85.164459	264.0
85.197929	184.0
85.223648	184.0
85.243858	176.0
85.298996	152.0
85.333412	200.0
85.397675	168.0
85.423706	176.0
85.464516	316.0
85.495796	148.0
85.701088	256.0
85.795845	160.0
85.923279	184.0
85.936195	396.0
85.967567	208.0
85.990982	180.0
86.022934	192.0
86.048706	192.0
86.074776	152.0
86.161438	160.0
86.292656	176.0
86.312996	176.0
86.39109	108.0
86.498001	176.0
86.524918	116.0
86.645126	160.0
86.673943	220.0
86.731392	400.0
86.84079	152.0
86.856705	228.0
86.903862	160.0
86.939117	184.0
86.95768	152.0
87.007362	172.0
87.054214	152.0
87.07093	176.0
87.123863	188.0
87.202835	172.0
87.243874	160.0
87.44648	188.0
87.504631	152.0
87.560051	160.0
87.710175	188.0
87.753151	192.0
87.865753	140.0
87.882545	140.0
88.007599	160.0
88.069221	168.0
88.084167	172.0
88.097603	164.0
88.127136	148.0
88.164505	200.0
88.239273	192.0
88.338394	160.0
88.36084	156.0
88.380669	248.0
88.398262	192.0
88.439438	140.0
88.467728	172.0
88.508705	112.0
88.551773	196.0
88.600479	232.0
88.658562	200.0
88.684799	192.0
88.79734	172.0
88.836685	172.0
88.979996	220.0
89.003723	164.0
89.065605	172.0
89.140846	168.0
89.202225	176.0
89.224625	184.0
89.292969	148.0
89.351929	180.0
89.479408	200.0
89.518951	144.0
89.64431	156.0
89.72998	252.0
89.743179	156.0
89.78466	164.0
89.801903	140.0
89.847717	168.0
89.892586	96.0
89.926414	140.0
89.955383	440.0
89.973351	164.0
90.002731	160.0
90.022446	224.0
90.039436	140.0
90.08593	248.0
90.105553	224.0
90.118774	144.0
90.239853	200.0
90.301224	164.0
90.352402	152.0
90.387276	180.0
90.423225	176.0
90.440262	172.0
90.582275	156.0
90.603111	192.0
90.698395	172.0
90.779388	172.0
90.927361	328.0
90.950134	296.0
91.001389	192.0
91.050377	152.0
91.072594	188.0
91.124992	204.0
91.143845	220.0
91.226822	280.0
91.280891	124.0
91.341568	168.0
91.394836	176.0
91.425278	140.0
91.472862	156.0
91.49398	204.0
91.608063	172.0
91.633774	152.0
91.651886	172.0
91.680466	200.0
91.754807	140.0
91.785309	164.0
91.841721	256.0
91.895935	160.0
91.922653	196.0
92.004723	188.0
92.047813	1032.0
92.068497	352.0
92.125038	216.0
92.161331	144.0
92.178528	156.0
92.217628	148.0
92.336548	176.0
92.351944	192.0
92.494095	184.0
92.525345	160.0
92.584084	368.0
92.608978	204.0
92.636673	132.0
92.689827	180.0
92.739326	144.0
92.848549	148.0
92.926399	196.0
92.975052	128.0
93.038513	192.0
93.088638	112.0
93.205605	156.0
93.269028	188.0
93.31324	172.0
93.419014	156.0
93.434402	200.0
93.706413	224.0
93.7463	268.0
93.786087	140.0
94.030861	172.0
94.070351	144.0
94.105103	140.0
94.120552	176.0
94.18428	144.0
94.313736	152.0
94.360138	160.0
94.387207	168.0
94.435547	140.0
94.458763	144.0
94.565178	180.0
94.656471	136.0
94.750717	172.0
94.865417	236.0
94.911949	160.0
94.939354	148.0
94.987579	144.0
95.006981	184.0
95.026772	140.0
95.14283	148.0
95.177773	184.0
95.220879	224.0
95.275513	236.0
95.383705	272.0
95.478981	188.0
95.677452	204.0
95.699158	188.0
95.786499	176.0
95.829361	176.0
95.930702	172.0
96.066925	168.0
96.137451	160.0
96.15274	148.0
96.238075	188.0
96.352226	172.0
96.373718	164.0
96.393265	164.0
96.469482	156.0
96.508583	140.0
96.607704	176.0
96.647461	176.0
96.78627	192.0
96.802094	188.0
96.888275	184.0
97.032326	236.0
97.056831	248.0
97.092125	220.0
97.107819	144.0
97.192169	140.0
97.20787	152.0
97.286377	276.0
97.369675	132.0
97.394379	148.0
97.504402	160.0
97.577133	188.0
97.605698	144.0
97.775627	216.0
97.869583	200.0
97.909676	176.0
97.953011	180.0
97.972366	160.0
98.017509	184.0
98.063431	188.0
98.148117	204.0
98.225037	172.0
98.252647	180.0
98.42524	156.0
98.467804	192.0
98.483116	120.0
98.505997	240.0
98.580414	180.0
98.685173	144.0
98.762299	168.0
98.831688	164.0
98.883041	164.0
98.914581	104.0
98.958214	172.0
99.064896	244.0
99.11525	184.0
99.160271	160.0
99.180939	420.0
99.24749	140.0
99.319679	156.0
99.352043	112.0
99.372444	148.0
99.482857	164.0
99.507408	184.0
99.599594	104.0
99.701622	232.0
99.72393	144.0
99.755737	148.0
99.813942	144.0
99.880585	188.0
99.893433	196.0
99.950638	172.0
100.000389	200.0
100.044182	172.0
100.066086	156.0
100.191551	164.0
100.2314	160.0
100.366943	188.0
100.436745	160.0
100.464668	176.0
100.506851	140.0
100.515282	120.0
100.566437	176.0
100.639336	116.0
100.796097	164.0
100.919182	176.0
100.938019	232.0
100.960014	156.0
100.976021	168.0
101.002022	156.0
101.034027	140.0
101.124634	184.0
101.155296	120.0
101.192131	184.0
101.252075	128.0
101.330322	148.0
101.352364	204.0
101.438797	156.0
101.458588	168.0
101.546814	164.0
101.630432	176.0
101.661263	184.0
101.741455	316.0
101.756485	140.0
101.785629	148.0
101.812851	220.0
101.966698	180.0
102.021523	148.0
102.066742	164.0
102.100662	104.0
102.419128	144.0
102.445312	192.0
102.504013	180.0
102.511803	180.0
102.595062	156.0
102.703331	232.0
102.74511	180.0
102.826401	144.0
102.868225	224.0
102.903114	208.0
102.947533	264.0
102.967728	204.0
103.010147	168.0
103.094658	140.0
103.162849	148.0
103.240555	188.0
103.258759	140.0
103.280136	288.0
103.321861	164.0
103.344215	616.0
103.39431	148.0
103.617043	200.0
103.712288	180.0
103.758911	200.0
103.840424	100.0
103.89682	160.0
103.929283	180.0
103.961746	152.0
104.014519	168.0
104.047745	992.0
104.122124	160.0
104.191582	124.0
104.217598	184.0
104.315147	160.0
104.363411	168.0
104.42292	148.0
104.482948	304.0
104.518532	148.0
104.562561	244.0
104.653763	172.0
104.788185	164.0
104.850853	144.0
104.919556	188.0
104.972771	176.0
105.060478	144.0
105.150261	240.0
105.168625	160.0
105.199242	176.0
105.266624	148.0
105.282959	188.0
105.30542	152.0
105.359489	160.0
105.409615	180.0
105.493408	164.0
105.571388	172.0
105.627937	140.0
105.737122	160.0
105.794785	236.0
105.862946	124.0
105.927231	168.0
105.968742	152.0
106.060425	196.0
106.084442	152.0
106.099899	124.0
106.176895	168.0
106.182053	248.0
106.273201	132.0
106.299332	152.0
106.449051	112.0
106.511841	172.0
106.547493	144.0
106.660034	132.0
106.707985	116.0
106.732697	172.0
106.83252	168.0
106.857117	192.0
106.902473	268.0
106.933342	152.0
106.999214	148.0
107.019798	144.0
107.071281	180.0
107.098053	204.0
107.135513	172.0
107.149254	220.0
107.31031	204.0
107.374008	220.0
107.423737	164.0
107.528969	184.0
107.545479	176.0
107.636314	148.0
107.670944	156.0
107.702408	140.0
107.755173	220.0
107.855309	152.0
107.981682	196.0
107.997978	144.0
108.098389	164.0
108.157295	192.0
108.180122	152.0
108.224136	196.0
108.32029	112.0
108.33387	156.0
108.599609	144.0
108.623528	144.0
108.65049	240.0
108.779152	224.0
108.807487	216.0
108.915527	160.0
109.00573	128.0
109.036713	208.0
109.063728	144.0
109.10524	176.0
109.168434	176.0
109.203033	156.0
109.272888	200.0
109.297318	112.0
109.325783	336.0
109.359756	200.0
109.40696	144.0
109.427773	156.0
109.481918	184.0
109.575645	156.0
109.60482	156.0
109.669418	172.0
109.69339	136.0
109.804482	144.0
109.867523	148.0
109.918274	132.0
109.957245	180.0
109.980507	164.0
110.065796	164.0
110.080414	148.0
110.137863	260.0
110.163956	300.0
110.207832	192.0
110.280975	344.0
110.334412	332.0
110.404655	100.0
110.455681	156.0
110.516449	272.0
110.617737	192.0
110.649139	156.0
110.677498	176.0
110.69265	224.0
110.757004	184.0
110.832054	172.0
110.860687	164.0
110.898415	124.0
110.922516	208.0
110.957108	144.0
110.976692	248.0
111.001854	340.0
111.05986	172.0
111.223969	288.0
111.265511	164.0
111.296562	96.0
111.309708	152.0
111.335922	248.0
111.390648	176.0
111.633705	152.0
111.679474	164.0
111.719139	192.0
111.803604	140.0
111.910416	276.0
111.925697	152.0
111.946762	188.0
112.008965	172.0
112.043648	144.0
112.075562	136.0
112.108963	216.0
112.142685	140.0
112.169846	176.0
112.217873	132.0
112.26516	176.0
112.340897	156.0
112.384872	156.0
112.418961	172.0
112.445976	140.0
112.453331	112.0
112.585732	336.0
112.607574	280.0
112.69558	200.0
112.716705	184.0
112.758812	104.0
112.790672	172.0
112.850502	168.0
112.866783	164.0
112.910278	120.0
112.955605	148.0
113.040237	176.0
113.061401	212.0
113.085548	172.0
113.12278	204.0
113.234413	152.0
113.252518	140.0
113.303284	236.0
113.332443	196.0
113.438408	200.0
113.512619	148.0
113.544426	140.0
113.811806	160.0
113.966858	220.0
113.983856	176.0
114.001816	168.0
114.030609	184.0
114.079643	292.0
114.171051	272.0
114.233696	184.0
114.290047	152.0
114.307068	172.0
114.349632	144.0
114.379433	200.0
114.450157	180.0
114.58387	172.0
114.662712	148.0
114.745842	220.0
114.77356	140.0
114.840721	168.0
114.867401	172.0
114.906235	136.0
114.937805	176.0
114.98587	152.0
115.003265	136.0
115.346657	172.0
115.392746	196.0
115.488976	152.0
115.592262	144.0
115.683693	148.0
115.707413	328.0
115.769341	188.0
115.883636	256.0
115.977158	192.0
116.04805	356.0
116.100021	388.0
116.124054	148.0
116.197205	124.0
116.245239	176.0
116.290306	184.0
116.346115	156.0
116.453484	144.0
116.644279	220.0
116.702621	180.0
116.805984	228.0
116.9338	124.0
116.969521	172.0
116.999588	124.0
117.040565	172.0
117.05674	344.0
117.091888	168.0
117.122406	260.0
117.163437	172.0
117.217293	188.0
117.236748	164.0
117.318497	180.0
117.342209	188.0
117.38102	140.0
117.407898	104.0
117.526459	160.0
117.579048	160.0
117.734924	220.0
117.758583	176.0
117.793243	156.0
117.846703	172.0
117.886147	184.0
117.914322	112.0
117.958794	144.0
118.051819	476.0
118.188881	436.0
118.247307	172.0
118.263931	364.0
118.331726	212.0
118.362038	188.0
118.414017	192.0
118.463829	192.0
118.532585	196.0
118.60685	268.0
118.662216	148.0
118.718407	168.0
118.74305	180.0
118.773705	160.0
118.818344	204.0
118.848259	164.0
118.877953	140.0
118.980576	212.0
119.007614	196.0
119.057388	436.0
119.088539	168.0
119.121117	144.0
119.137733	216.0
119.208023	192.0
119.260185	160.0
119.288445	168.0
119.32016	284.0
119.351486	196.0
119.389214	252.0
119.417458	180.0
119.504974	172.0
119.609673	148.0
119.654633	220.0
119.751076	188.0
119.8293	148.0
119.861496	144.0
119.878265	180.0
119.945831	156.0
120.015587	160.0
120.057373	200.0
120.096275	180.0
120.190857	136.0
120.265594	220.0
120.310127	356.0
120.338753	388.0
120.37236	372.0
120.415276	184.0
120.441147	240.0
120.507149	176.0
120.559128	204.0
120.626152	144.0
120.672127	212.0
120.751511	256.0
120.823692	180.0
120.896057	128.0
120.941917	156.0
120.987831	240.0
121.042885	192.0
121.110458	172.0
121.150528	204.0
121.268158	156.0
121.32959	180.0
121.474327	228.0
121.491875	180.0
121.535751	160.0
121.562088	152.0
121.691589	140.0
121.730873	148.0
121.815796	136.0
121.837769	132.0
121.863495	224.0
122.019485	212.0
122.056381	164.0
122.091766	312.0
122.11515	176.0
122.165489	164.0
122.193222	108.0
122.381973	212.0
122.403992	220.0
122.43042	144.0
122.487732	188.0
122.528831	200.0
122.546242	324.0
122.604454	160.0
122.648537	152.0
122.756569	160.0
122.831551	164.0
122.864822	148.0
122.908768	140.0
122.97657	216.0
122.995773	132.0
123.064468	252.0
123.184738	184.0
123.257645	256.0
123.361526	220.0
123.403778	244.0
123.438187	160.0
123.498619	168.0
123.520241	160.0
123.562363	372.0
123.651283	180.0
123.781891	176.0
123.828026	140.0
123.893257	112.0
123.939163	156.0
123.989967	108.0
124.123138	140.0
124.138657	332.0
124.168289	100.0
124.216217	136.0
124.280769	224.0
124.320564	156.0
124.531471	152.0
124.598442	212.0
124.658104	172.0
124.689217	152.0
124.709221	208.0
124.724777	168.0
124.775909	204.0
124.843658	128.0
124.861488	160.0
124.895027	176.0
124.920464	152.0
125.00457	204.0
125.036163	160.0
125.080673	144.0
125.116776	148.0
125.265495	180.0
125.29837	196.0
125.390274	148.0
125.427132	208.0
125.444443	196.0
125.476151	404.0
125.506187	180.0
125.546616	196.0
125.640007	156.0
125.762375	172.0
125.768448	200.0
125.798203	180.0
125.840874	176.0
125.861732	192.0
125.898926	164.0
125.94136	180.0
126.001579	184.0
126.077774	144.0
126.151405	196.0
126.170319	156.0
126.19165	164.0
126.222954	196.0
126.254608	180.0
126.3489	124.0
126.364799	268.0
126.424278	228.0
126.454727	152.0
126.545151	148.0
126.638718	188.0
126.677284	204.0
126.760178	172.0
126.810326	160.0
126.834137	172.0
126.854309	156.0
126.874489	196.0
126.937225	196.0
126.977631	136.0
127.092041	232.0
127.130188	248.0
127.177315	140.0
127.197029	200.0
127.350204	160.0
127.406364	212.0
127.529953	180.0
127.588394	252.0
127.7472	156.0
127.810722	160.0
127.866478	300.0
127.896576	216.0
127.920586	180.0
127.976074	140.0
128.059967	184.0
128.110229	176.0
128.144058	196.0
128.169067	212.0
128.184845	364.0
128.214539	184.0
128.315582	160.0
128.367432	208.0
128.469711	184.0
128.49826	184.0
128.584015	156.0
128.624634	196.0
128.717194	152.0
128.825607	148.0
128.848206	228.0
128.866272	160.0
128.90921	156.0
128.940613	152.0
129.040115	480.0
129.087784	208.0
129.111282	120.0
129.15564	180.0
129.357025	148.0
129.415649	196.0
129.445328	276.0
129.517792	144.0
129.540451	192.0
129.645386	176.0
129.764801	192.0
129.832825	336.0
129.864578	168.0
129.887268	176.0
129.955322	144.0
129.987091	236.0
130.044754	224.0
130.066528	196.0
130.158463	160.0
130.229996	180.0
130.312698	128.0
130.329956	188.0
130.34729	140.0
130.390335	176.0
130.445328	184.0
130.469543	196.0
130.486786	356.0
130.557281	160.0
130.609848	204.0
130.666458	164.0
130.706177	244.0
130.75293	252.0
130.812592	132.0
130.898132	168.0
130.944168	324.0
130.964661	188.0
131.000717	188.0
131.059937	51180.0
131.119827	320.0
131.299698	344.0
131.34613	112.0
131.384094	180.0
131.501205	160.0
131.548355	156.0
131.578339	120.0
131.639725	164.0
131.660278	164.0
131.699112	148.0
131.742508	180.0
131.808228	188.0
131.840759	220.0
131.897232	192.0
131.964188	200.0
132.020691	180.0
132.06282	3596.0
132.119705	156.0
132.156311	152.0
132.195221	140.0
132.242706	144.0
132.355453	172.0
132.383804	168.0
132.429459	264.0
132.456131	148.0
132.500748	200.0
132.574081	172.0
132.601685	180.0
132.664749	180.0
132.684631	172.0
132.709564	196.0
132.733505	216.0
132.828461	152.0
132.873062	196.0
132.913696	220.0
132.94429	196.0
132.983582	208.0
133.06665	336.0
133.090668	252.0
133.151825	172.0
133.214462	204.0
133.250458	164.0
133.308548	152.0
133.380951	328.0
133.5802	184.0
133.63652	180.0
133.656921	356.0
133.795013	240.0
133.837891	168.0
134.005157	1792.0
134.072556	148.0
134.089172	160.0
134.123718	184.0
134.182068	172.0
134.25354	184.0
134.311737	188.0
134.414856	224.0
134.457901	124.0
134.65329	168.0
134.706573	168.0
134.733643	144.0
134.867676	176.0
134.953201	180.0
135.008713	308.0
135.096588	208.0
135.140549	152.0
135.210556	156.0
135.249817	204.0
135.3396	148.0
135.428925	112.0
135.516159	196.0
135.585144	228.0
135.638458	156.0
135.830917	160.0
135.90979	200.0
135.932999	140.0
135.956207	120.0
135.994537	216.0
136.098572	180.0
136.137283	204.0
136.166519	236.0
136.44249	212.0
136.640366	136.0
136.709152	156.0
136.80806	148.0
136.897705	140.0
137.007187	184.0
137.086395	172.0
137.130676	376.0
137.149323	200.0
137.229462	160.0
137.2659	196.0
137.284546	252.0
137.324188	216.0
137.345184	160.0
137.39241	148.0
137.428513	240.0
137.541183	144.0
137.564529	152.0
137.585541	184.0
137.608887	176.0
137.657852	128.0
137.73967	184.0
137.782059	248.0
137.811783	156.0
137.842468	156.0
137.865829	156.0
137.915695	180.0
137.961243	156.0
138.009079	200.0
138.039383	200.0
138.05986	148.0
138.158752	120.0
138.188507	180.0
138.204895	160.0
138.234329	344.0
138.258713	140.0
138.304611	168.0
138.392273	144.0
138.447708	176.0
138.638092	140.0
138.668564	228.0
138.738632	184.0
138.759979	248.0
138.859253	320.0
139.135361	212.0
139.379623	164.0
139.416138	304.0
139.457169	184.0
139.547699	120.0
139.589142	148.0
139.6241	148.0
139.645264	176.0
139.765244	176.0
139.787598	256.0
139.938538	216.0
140.043289	180.0
140.07254	128.0
140.156113	188.0
140.297516	152.0
140.401138	220.0
140.448441	176.0
140.608551	172.0
140.632477	216.0
140.672607	172.0
140.733994	336.0
140.759964	272.0
140.778854	140.0
140.816635	172.0
140.837891	180.0
140.860382	108.0
141.040237	144.0
141.057648	156.0
141.11438	200.0
141.208969	196.0
141.244034	180.0
141.334991	192.0
141.398239	164.0
141.421906	168.0
141.466888	160.0
141.535934	384.0
141.665115	124.0
141.734512	144.0
141.855377	172.0
141.885162	196.0
141.935806	176.0
142.00975	156.0
142.052429	764.0
142.121002	236.0
142.190704	200.0
142.315628	180.0
142.332245	176.0
142.363464	196.0
142.382126	156.0
142.398743	176.0
142.479507	148.0
142.531708	148.0
142.601074	216.0
142.738571	148.0
142.790955	172.0
142.855118	176.0
142.909836	180.0
142.940765	148.0
142.971802	192.0
143.010086	304.0
143.05954	6120.0
143.151215	152.0
143.192139	152.0
143.225967	96.0
143.271713	148.0
143.288391	328.0
143.359879	216.0
143.386093	184.0
143.455215	160.0
143.490189	184.0
143.52684	172.0
143.638824	180.0
143.777206	180.0
143.793915	336.0
143.819901	340.0
143.903778	180.0
143.996857	140.0
144.014862	132.0
144.062241	1196.0
144.113907	208.0
144.192764	168.0
144.24057	172.0
144.272705	108.0
144.421494	204.0
144.47731	172.0
144.525162	152.0
144.573166	128.0
144.625809	144.0
144.692596	184.0
144.714249	160.0
144.841171	180.0
144.869919	148.0
144.905853	160.0
144.994507	248.0
145.021347	148.0
145.055435	240.0
145.075012	240.0
145.109573	156.0
145.164719	168.0
145.212677	164.0
145.263245	144.0
145.358765	188.0
145.391678	124.0
145.458786	240.0
145.511185	200.0
145.579514	216.0
145.616638	192.0
145.655319	196.0
145.735992	208.0
145.766342	140.0
145.833221	176.0
145.913025	172.0
145.921158	204.0
146.05574	144.0
146.109238	132.0
146.135117	236.0
146.168808	208.0
146.282898	232.0
146.337967	176.0
146.42157	192.0
146.454666	168.0
146.508621	144.0
146.593872	144.0
146.616791	144.0
146.693848	176.0
146.769424	196.0
146.797516	204.0
146.852982	144.0
146.923309	180.0
146.9543	180.0
147.063904	124.0
147.098145	192.0
147.184784	180.0
147.287445	148.0
147.316437	140.0
147.391327	208.0
147.420334	180.0
147.439667	172.0
147.465103	168.0
147.499146	192.0
147.617188	120.0
147.700974	152.0
147.739578	104.0
147.79155	116.0
147.845947	180.0
147.879837	200.0
147.93663	144.0
148.019104	520.0
148.109467	124.0
148.143021	196.0
148.192215	268.0
148.347595	176.0
148.381821	172.0
148.524338	152.0
148.594681	148.0
148.638367	180.0
148.657349	168.0
148.754852	164.0
148.885971	148.0
148.949112	276.0
149.018066	288.0
149.090042	180.0
149.138641	164.0
149.196991	148.0
149.26506	248.0
149.301544	304.0
149.351608	184.0
149.439056	276.0
149.504822	100.0
149.583282	156.0
149.612991	156.0
149.661682	140.0
149.742035	172.0
149.794632	196.0
149.973999	156.0
150.006073	220.0
150.092957	208.0
150.114899	164.0
150.141724	236.0
150.283218	156.0
150.325607	224.0
150.488647	140.0
150.5616	188.0
150.585907	192.0
150.634766	172.0
150.719757	228.0
150.810699	212.0
150.951233	172.0
151.033035	124.0
151.064987	164.0
151.14328	172.0
151.182434	180.0
151.209351	144.0
151.296799	204.0
151.38562	160.0
151.483215	156.0
151.561127	160.0
151.59874	188.0
151.6306	224.0
151.68576	168.0
151.758072	156.0
151.786545	124.0
151.848801	180.0
151.881561	328.0
151.936584	224.0
151.993546	232.0
152.011963	120.0
152.029114	284.0
152.062256	148.0
152.100876	152.0
152.196182	204.0
152.246521	220.0
152.268494	156.0
152.288132	188.0
152.389969	132.0
152.408508	248.0
152.44783	160.0
152.543686	152.0
152.613647	136.0
152.856644	96.0
152.915085	220.0
152.984009	144.0
153.027161	160.0
153.067719	160.0
153.262314	168.0
153.382935	148.0
153.412659	160.0
153.447174	164.0
153.496475	268.0
153.550735	232.0
153.572937	184.0
153.607468	224.0
153.646927	224.0
153.694931	140.0
153.720947	208.0
153.748032	152.0
153.810394	132.0
153.852539	404.0
153.889862	236.0
153.932129	180.0
154.055939	124.0
154.104401	124.0
154.135803	188.0
154.316711	184.0
154.342529	164.0
154.577179	184.0
154.652664	200.0
154.78067	204.0
154.813843	156.0
154.85321	156.0
154.910187	172.0
154.993149	168.0
155.154022	148.0
155.214172	128.0
155.334625	160.0
155.425873	168.0
155.463089	236.0
155.50032	176.0
155.526062	216.0
155.587997	160.0
155.621948	152.0
155.664169	188.0
155.715576	160.0
155.782394	172.0
155.950714	116.0
156.05368	416.0
156.105209	176.0
156.183456	172.0
156.285355	348.0
156.326996	128.0
156.350281	180.0
156.43988	184.0
156.472244	140.0
156.50502	176.0
156.630325	168.0
156.678955	160.0
156.701385	188.0
156.754639	160.0
156.778625	160.0
156.797592	204.0
156.850601	196.0
156.912735	184.0
156.935669	176.0
156.993011	160.0
157.010468	192.0
157.062225	1644.0
157.232513	160.0
157.312378	160.0
157.336578	144.0
157.364807	208.0
157.494659	172.0
157.517151	152.0
157.577103	156.0
157.672058	196.0
157.717041	160.0
157.767044	176.0
157.795898	152.0
157.837646	252.0
157.920624	144.0
157.999619	176.0
158.07048	6156.0
158.106583	160.0
158.153702	184.0
158.173813	204.0
158.256638	104.0
158.347549	144.0
158.402664	180.0
158.450638	180.0
158.523865	148.0
158.585953	140.0
158.623657	204.0
158.754379	96.0
158.846344	296.0
158.881149	128.0
158.966721	184.0
159.01445	208.0
159.069092	596.0
159.141479	280.0
159.214798	108.0
159.309708	212.0
159.485565	160.0
159.507614	164.0
159.541946	212.0
159.669983	156.0
159.853821	164.0
159.93811	168.0
159.972397	180.0
160.014862	196.0
160.072403	320.0
160.188675	180.0
160.211349	168.0
160.227875	208.0
160.284424	184.0
160.365356	140.0
160.397827	216.0
160.423035	256.0
160.450211	200.0
160.771103	160.0
160.810547	248.0
160.894791	156.0
160.93013	216.0
161.013702	444.0
161.094284	144.0
161.207993	128.0
161.277649	124.0
161.42218	212.0
161.46843	168.0
161.559433	160.0
161.610107	148.0
161.669968	112.0
161.761169	156.0
161.792252	160.0
161.826965	124.0
161.844284	176.0
161.932739	140.0
162.023682	352.0
162.151947	140.0
162.174149	100.0
162.220779	128.0
162.344147	176.0
162.364914	144.0
162.425781	184.0
162.443542	164.0
162.494278	216.0
162.512924	216.0
162.59404	176.0
162.623688	156.0
162.647781	236.0
162.687149	204.0
162.780624	172.0
162.820969	172.0
162.875061	164.0
162.902161	132.0
162.920792	264.0
163.014801	200.0
163.042755	140.0
163.08342	188.0
163.166351	160.0
163.242218	148.0
163.263092	148.0
163.335129	184.0
163.401276	156.0
163.559052	168.0
163.617599	204.0
163.663162	156.0
163.753006	160.0
163.77803	212.0
163.818405	188.0
163.854446	148.0
163.96431	140.0
164.014816	172.0
164.12207	176.0
164.185425	176.0
164.296005	184.0
164.349075	152.0
164.389908	184.0
164.440948	284.0
164.524689	124.0
164.609619	164.0
164.864883	144.0
164.901703	208.0
165.253555	168.0
165.291946	172.0
165.371277	248.0
165.407104	164.0
165.637833	152.0
165.719543	156.0
165.757355	148.0
165.918015	172.0
165.971603	152.0
166.064423	164.0
166.222107	136.0
166.309357	228.0
166.494705	196.0
166.543015	220.0
166.654846	180.0
166.835281	216.0
166.995102	184.0
167.069641	152.0
167.087006	348.0
167.128342	204.0
167.14856	148.0
167.186737	200.0
167.216644	196.0
167.25267	168.0
167.335846	160.0
167.373672	156.0
167.391693	180.0
167.532791	180.0
167.541382	140.0
167.70343	196.0
167.847794	184.0
167.880859	180.0
168.002533	156.0
168.054016	800.0
168.128738	136.0
168.193497	152.0
168.258881	196.0
168.278915	180.0
168.356155	180.0
168.451889	184.0
168.474808	132.0
168.513718	192.0
168.611908	140.0
168.635178	204.0
168.696625	192.0
168.785263	140.0
168.843933	188.0
168.896317	172.0
168.932526	192.0
169.007553	140.0
169.061371	996.0
169.183548	228.0
169.20401	168.0
169.38295	228.0
169.404312	176.0
169.429565	184.0
169.458069	220.0
169.662811	160.0
169.706894	380.0
169.753403	132.0
169.863281	184.0
169.932541	156.0
170.040298	120.0
170.069733	2900.0
170.259598	148.0
170.319336	144.0
170.366089	184.0
170.619583	236.0
170.649368	180.0
170.674728	208.0
170.762619	204.0
170.849625	152.0
170.935791	156.0
170.956314	148.0
170.98233	164.0
171.070541	676.0
171.124435	204.0
171.242691	160.0
171.312119	176.0
171.425049	192.0
171.621872	184.0
171.711807	188.0
171.829193	140.0
171.883987	156.0
171.92511	180.0
172.042648	212.0
172.050735	176.0
172.225098	164.0
172.318649	224.0
172.377518	220.0
172.41571	204.0
172.518173	176.0
172.706924	148.0
172.790634	176.0
172.921387	124.0
172.950256	336.0
173.034027	160.0
173.057587	164.0
173.229385	140.0
173.399185	200.0
173.43483	216.0
173.500427	144.0
173.538742	332.0
173.628143	196.0
173.662933	148.0
173.851837	152.0
173.879257	336.0
173.934113	96.0
173.993286	196.0
174.023148	952.0
174.068573	192.0
174.119324	144.0
174.282471	220.0
174.34433	320.0
174.376862	144.0
174.423386	136.0
174.539764	204.0
174.570801	116.0
174.588577	180.0
174.62088	164.0
174.645599	124.0
174.676361	260.0
174.726959	144.0
174.763947	136.0
174.804779	388.0
174.847443	232.0
174.880768	364.0
174.93663	264.0
174.957764	416.0
174.988068	488.0
175.032593	183008.0
175.12706	180.0
175.203171	276.0
175.22998	336.0
175.294281	192.0
175.323227	204.0
175.344376	196.0
175.410934	116.0
175.440918	276.0
175.465057	828.0
175.526291	152.0
175.587753	168.0
175.642654	248.0
175.698441	144.0
175.752441	248.0
175.779144	200.0
175.80571	172.0
175.909485	128.0
175.940872	352.0
175.968613	104.0
175.99115	212.0
176.034164	14500.0
176.123947	204.0
176.192963	124.0
176.296646	152.0
176.363785	260.0
176.442459	192.0
176.512436	264.0
176.552109	160.0
176.586563	112.0
176.60701	216.0
176.656723	168.0
176.700851	164.0
176.731979	160.0
176.859573	148.0
177.028259	6648.0
177.115814	224.0
177.154541	152.0
177.249954	380.0
177.272156	164.0
177.355164	208.0
177.392975	212.0
177.415436	164.0
177.445374	160.0
177.486359	104.0
177.685791	164.0
177.756409	196.0
177.809509	212.0
177.890762	152.0
177.911377	196.0
177.968277	116.0
177.988373	164.0
178.040497	180.0
178.073349	184.0
178.129593	136.0
178.196716	172.0
178.267288	148.0
178.289688	164.0
178.378769	144.0
178.443832	116.0
178.468338	140.0
178.538437	180.0
178.755173	160.0
178.812866	104.0
178.906662	140.0
178.971329	212.0
179.00946	156.0
179.131973	256.0
179.193253	164.0
179.256317	156.0
179.318497	200.0
179.345673	204.0
179.424088	160.0
179.446228	204.0
179.59436	196.0
179.683807	156.0
179.706467	160.0
179.729599	316.0
179.91066	152.0
180.10733	116.0
180.137634	140.0
180.215118	156.0
180.444977	184.0
180.481247	148.0
180.581345	168.0
180.688339	168.0
180.709747	188.0
180.737701	116.0
180.790024	192.0
180.9272	128.0
180.983688	172.0
181.009537	180.0
181.19902	140.0
181.223816	156.0
181.248138	156.0
181.393066	180.0
181.723648	204.0
181.805695	184.0
181.83522	188.0
181.975586	164.0
182.015076	172.0
182.181595	196.0
182.256821	144.0
182.284958	152.0
182.677216	216.0
182.713516	220.0
182.740799	160.0
182.948013	192.0
183.002609	172.0
183.025406	204.0
183.058411	180.0
183.098801	212.0
183.123047	156.0
183.362823	144.0
183.587128	180.0
183.659409	176.0
183.791595	180.0
184.004822	168.0
184.060715	160.0
184.215469	176.0
184.255981	180.0
184.289352	160.0
184.372543	204.0
184.414505	112.0
184.545181	140.0
184.766953	144.0
184.875183	172.0
184.938568	156.0
185.012299	340.0
185.156738	144.0
185.216431	184.0
185.332809	156.0
185.36261	156.0
185.397842	148.0
185.425369	104.0
185.44812	204.0
185.511688	156.0
185.668945	152.0
185.736755	156.0
185.899536	144.0
185.934357	168.0
185.994522	172.0
186.016235	156.0
186.074966	152.0
186.094971	144.0
186.256912	228.0
186.391037	160.0
186.601334	192.0
186.728119	168.0
186.932159	168.0
186.970261	192.0
187.016525	200.0
187.063889	160.0
187.228882	172.0
187.343277	140.0
187.373245	176.0
187.446823	268.0
187.542847	152.0
187.564011	220.0
187.596725	164.0
187.678864	156.0
187.838715	172.0
188.030411	144.0
188.093185	172.0
188.32309	100.0
188.477524	180.0
188.532913	164.0
188.599319	200.0
188.649078	164.0
188.705811	156.0
188.826309	172.0
188.8759	196.0
188.953995	152.0
189.167709	176.0
189.32843	172.0
189.47937	156.0
189.528961	188.0
189.596207	232.0
189.663254	156.0
189.779724	132.0
189.814041	156.0
189.867188	432.0
190.115128	152.0
190.184402	208.0
190.204346	136.0
190.316177	152.0
190.401306	188.0
190.703445	156.0
190.739243	208.0
190.904922	168.0
191.013565	232.0
191.036224	156.0
191.125595	112.0
191.272873	148.0
191.443573	140.0
191.465607	164.0
191.562195	184.0
191.753616	148.0
191.796234	160.0
191.949066	164.0
192.027832	176.0
192.135422	196.0
192.157486	168.0
192.187836	268.0
192.207779	160.0
192.409363	200.0
192.465454	144.0
192.679291	148.0
192.720367	156.0
192.777817	224.0
192.825897	136.0
193.149231	168.0
193.22789	176.0
193.425934	316.0
193.445312	184.0
193.550522	224.0
193.611435	152.0
193.71669	144.0
193.788727	180.0
193.844131	164.0
193.889877	164.0
193.968857	212.0
194.235046	168.0
194.260025	152.0
194.30423	188.0
194.356781	208.0
194.421356	108.0
194.688431	160.0
194.753708	164.0
194.827011	136.0
194.861099	140.0
194.890686	192.0
194.995834	140.0
195.162613	188.0
195.415726	276.0
195.445831	204.0
195.510056	164.0
195.535385	196.0
195.643936	160.0
195.872284	196.0
196.227478	156.0
196.289627	176.0
196.382355	180.0
196.433746	188.0
196.481003	164.0
196.70784	124.0
196.770233	184.0
196.824585	292.0
196.931183	188.0
197.024384	140.0
197.194839	152.0
197.24794	184.0
197.346359	200.0
197.502396	260.0
197.576263	176.0
197.706635	156.0
197.814255	232.0
197.889664	184.0
198.034195	212.0
198.115417	200.0
198.177063	172.0
198.28096	192.0
198.510254	152.0
198.585724	164.0
198.723602	236.0
198.791138	108.0
199.057816	180.0
199.080276	164.0
199.240387	184.0
199.377518	184.0
199.439636	172.0
199.569656	256.0
199.638535	232.0
199.695755	180.0
199.738846	224.0
199.951782	184.0
200.025894	132.0
200.083527	124.0
200.216415	204.0
200.24176	180.0
200.318405	208.0
200.383011	196.0
200.416412	152.0
200.506516	136.0
200.575485	216.0
200.777908	208.0
200.816727	144.0
200.85997	204.0
200.926666	184.0
200.937668	160.0
200.946213	164.0
200.976807	240.0
201.039795	296.0
201.074738	176.0
201.114334	168.0
201.158142	140.0
201.178436	232.0
201.219513	108.0
201.242111	196.0
201.284882	172.0
201.307281	292.0
201.333633	156.0
201.374313	264.0
201.405762	424.0
201.442535	164.0
201.46553	372.0
201.48204	160.0
201.528214	364.0
201.555847	164.0
201.584473	208.0
201.60907	380.0
201.639252	128.0
201.681427	204.0
201.719849	216.0
201.787384	144.0
201.817535	180.0
201.854294	324.0
201.876251	556.0
201.919907	568.0
201.971832	668.0
202.005341	1352.0
202.044235	349372.0
202.14032	200.0
202.233551	300.0
202.244614	244.0
202.307983	1428.0
202.332016	508.0
202.35553	792.0
202.393356	880.0
202.416153	212.0
202.477173	1476.0
202.511124	13252.0
202.543243	696.0
202.570404	268.0
202.671112	216.0
202.703217	172.0
202.734741	216.0
202.755203	348.0
202.783081	208.0
202.809235	268.0
202.855713	128.0
202.89978	304.0
202.927933	168.0
203.004944	460.0
203.045547	102536.0
203.186874	164.0
203.236923	224.0
203.345612	364.0
203.376068	116.0
203.402481	144.0
203.43306	164.0
203.470383	216.0
203.542648	188.0
203.567413	140.0
203.623718	108.0
203.646362	176.0
203.723434	96.0
203.763535	160.0
203.841202	120.0
203.909683	208.0
203.933517	164.0
203.981476	260.0
204.039108	27056.0
204.085327	372.0
204.110123	108.0
204.174728	172.0
204.243454	316.0
204.283173	244.0
204.339249	168.0
204.370499	232.0
204.379761	136.0
204.426773	244.0
204.47699	300.0
204.502625	528.0
204.533981	392.0
204.581512	388.0
204.636566	340.0
204.697205	328.0
204.728775	260.0
204.755417	232.0
204.774689	232.0
204.908981	164.0
204.954651	216.0
205.039688	948.0
205.259644	100.0
205.277176	152.0
205.356094	132.0
205.416397	100.0
205.51712	128.0
205.540619	140.0
205.586212	136.0
206.021973	104.0
206.491226	328.0
206.616364	160.0
206.741959	124.0
207.548386	120.0
207.726837	96.0
208.646393	120.0
209.528473	184.0
212.615021	100.0
213.088257	164.0
213.517258	152.0
214.006683	104.0
214.493057	112.0
215.390152	192.0
215.651413	96.0
216.372177	116.0
216.422409	108.0
218.279358	108.0
219.099335	160.0
224.322418	108.0
224.961258	120.0
234.695633	144.0
239.846054	148.0
290.381592	156.0
314.752594	144.0
345.441162	168.0
349.518524	140.0
356.163818	132.0
374.668335	144.0
392.72702	144.0
474.479614	144.0
551.855957	140.0
630.003296	140.0
643.035583	120.0
680.580811	152.0
995.778198	224.0
1030.825195	156.0
1060.915283	140.0
1085.633423	176.0
1103.894287	140.0
1117.85791	144.0
1182.680054	144.0
1185.165894	212.0
1186.200806	176.0
1209.566162	188.0
1222.287354	156.0
1241.441406	144.0
1241.876221	172.0
1255.59082	152.0
1270.267212	168.0
1280.93689	156.0
1291.121948	160.0
1295.588379	172.0
1295.953735	192.0
1300.701172	140.0
1311.548096	176.0
1323.178467	176.0
1329.129028	196.0
1330.972656	140.0
1331.582642	176.0
1341.142944	272.0
1341.230347	232.0
1347.828369	172.0
1350.810547	204.0
1352.925415	168.0
1354.587769	172.0
1369.21875	180.0
1378.070557	160.0
1389.25708	176.0
1394.655396	192.0
1394.72229	244.0
1402.515381	212.0
1402.731567	156.0
1404.327148	176.0
1407.439087	156.0
1411.055298	168.0
1417.87439	184.0
1420.836182	204.0
1421.954224	272.0
1425.123169	144.0
1437.81897	176.0
1441.247314	216.0
1454.963501	188.0
1455.077393	144.0
1463.783813	156.0
1466.231689	112.0
1471.010864	180.0
1472.362183	184.0
1475.166382	144.0
1480.744263	164.0
1485.412109	264.0
1485.580811	172.0
1496.301392	140.0
1497.071411	176.0
1501.124756	156.0
1503.956055	188.0
1509.533936	176.0
1514.796875	224.0
1516.578979	176.0
1516.67981	188.0
1516.873535	188.0
1517.075073	208.0
1519.750732	216.0
1521.194214	212.0
1521.489258	144.0
1521.613403	220.0
1523.438477	148.0
1523.523926	160.0
1527.348389	144.0
1527.542847	144.0
1527.877441	144.0
1534.957275	152.0
1538.554077	148.0
1540.67041	188.0
1545.118652	152.0
1545.877686	152.0
1548.194824	164.0
1550.161011	156.0
1550.568604	160.0
1556.923218	208.0
1559.028564	148.0
1560.223267	160.0
1560.27832	152.0
1561.371216	148.0
1563.660645	180.0
1564.967407	180.0
1572.124634	156.0
1572.535034	184.0
1572.953369	148.0
1574.35083	172.0
1574.603516	192.0
1575.361816	260.0
1579.891479	228.0
1580.342529	180.0
1582.131104	220.0
1582.970337	168.0
1583.057495	196.0
1588.21936	192.0
1588.53418	168.0
1591.36731	160.0
1594.171265	216.0
1596.945801	184.0
1597.128784	160.0
1600.017334	140.0
1601.203735	164.0
1602.295044	140.0
1605.355713	192.0
1605.634888	172.0
1606.193237	144.0
1606.292358	232.0
1607.230347	160.0
1608.818481	196.0
1611.77356	180.0
1618.164185	192.0
1620.038208	176.0
1621.095825	208.0
1622.049561	188.0
1623.36438	148.0
1623.701172	188.0
1624.27063	164.0
1626.469238	168.0
1626.525391	240.0
1628.380127	144.0
1629.681519	152.0
1629.826172	140.0
1629.946655	236.0
1632.703857	144.0
1633.942627	188.0
1634.409302	156.0
1634.505859	180.0
1635.117432	200.0
1636.79187	220.0
1636.952881	168.0
1637.758179	148.0
1639.50647	176.0
1640.382812	128.0
1641.586304	248.0
1642.279907	156.0
1642.804199	168.0
1644.506836	168.0
1644.991089	148.0
1645.798462	168.0
1647.92627	108.0
1648.989258	160.0
1649.053955	196.0
1651.139771	208.0
1653.704468	164.0
1656.481812	196.0
1658.653442	188.0
1661.394287	212.0
1662.622925	212.0
1665.371704	196.0
1665.68042	168.0
1667.085938	168.0
1670.915649	204.0
1671.883911	224.0
1672.535034	204.0
1672.746582	168.0
1673.332764	144.0
1674.363159	220.0
1675.849487	176.0
1681.019043	152.0
1684.129517	152.0
1686.850464	204.0
1687.766113	212.0
1692.274414	152.0
1692.331665	240.0
1692.839355	196.0
1693.183228	228.0
1693.453491	156.0
1694.059692	180.0
1698.297485	148.0
1701.415649	208.0
1702.277832	148.0
1702.614502	168.0
1703.871216	172.0
1703.994507	160.0
1704.980469	160.0
1705.079102	180.0
1706.862915	176.0
1707.512573	164.0
1707.701782	140.0
1710.540527	224.0
1713.010864	204.0
1713.422729	184.0
1714.197876	204.0
1717.02478	188.0
1718.78186	204.0
1719.895996	168.0
1722.273926	176.0
1722.761353	144.0
1723.686646	208.0
1726.910767	140.0
1727.018311	156.0
1727.696655	144.0
1729.54187	192.0
1730.402832	144.0
1732.81958	164.0
1733.64978	144.0
1734.735596	196.0
1736.111938	248.0
1736.866577	140.0
1737.331177	148.0
1739.347656	148.0
1739.878906	148.0
1741.171143	140.0
1742.411865	184.0
1743.533569	236.0
1743.807861	164.0
1743.88269	144.0
1745.445557	168.0
1747.924316	192.0
1749.405762	168.0
1749.680542	148.0
1750.515869	180.0
1751.212646	148.0
1753.553833	212.0
1754.320679	144.0
1754.445679	176.0
1754.579102	160.0
1756.864136	140.0
1757.548218	168.0
1758.424438	144.0
1759.401123	224.0
1759.718384	164.0
1762.056885	160.0
1762.123657	176.0
1764.873413	216.0
1765.701294	208.0
1767.299072	144.0
1767.708984	172.0
1767.859619	184.0
1768.663086	144.0
1768.956055	200.0
1770.463135	168.0
1771.300659	156.0
1773.077026	164.0
1776.028198	156.0
1778.075317	160.0
1778.528564	160.0
1780.240234	164.0
1780.795532	192.0
1781.0979	208.0
1781.299561	156.0
1783.122803	152.0
1784.829224	160.0
1786.216919	180.0
1786.469238	188.0
1788.741333	220.0
1791.149536	196.0
1793.028442	176.0
1793.517212	164.0
1793.896606	192.0
1794.832397	172.0
1795.510498	168.0
1796.392578	156.0
1797.109741	204.0
1797.582275	152.0
1798.274292	156.0
1801.45105	216.0
1802.480835	172.0
1802.910767	152.0
1803.747559	172.0
1806.123535	144.0
1806.944092	196.0
1807.849487	172.0
1810.033447	184.0
1811.049683	164.0
1812.888062	184.0
1813.167725	184.0
1814.939453	176.0
1815.846802	152.0
1816.330322	180.0
1817.085327	188.0
1818.086548	144.0
1819.860596	212.0
1822.451172	240.0
1822.875977	168.0
1823.266846	176.0
1825.39209	168.0
1826.390625	188.0
1827.246338	156.0
1827.314331	176.0
1827.952515	160.0
1829.212158	144.0
1829.365356	188.0
1829.569702	152.0
1829.961304	148.0
1830.667969	200.0
1832.516357	168.0
1833.854248	176.0
1833.91394	152.0
1837.811035	208.0
1838.604614	156.0
1839.577148	140.0
1839.765503	164.0
1841.182861	156.0
1841.618408	220.0
1841.994263	164.0
1843.839844	200.0
1844.679932	216.0
1844.797119	148.0
1846.473022	176.0
1846.865723	164.0
1847.199951	192.0
1847.602051	192.0
1847.781738	160.0
1849.108032	172.0
1849.313477	180.0
1849.536011	156.0
1851.05127	184.0
1852.274902	128.0
1853.184082	188.0
1854.595459	148.0
1856.282471	192.0
1856.858276	204.0
1857.058838	148.0
1857.350464	152.0
1859.040527	152.0
1860.250732	184.0
1861.040527	164.0
1861.968018	140.0
1864.717163	224.0
1864.983643	164.0
1865.121582	152.0
1865.387573	144.0
1865.88623	168.0
1866.187134	160.0
1866.31604	152.0
1866.892212	144.0
1867.193237	144.0
1867.692017	184.0
1868.070557	172.0
1868.560913	228.0
1869.249268	144.0
1870.962036	200.0
1871.168579	160.0
1872.942505	176.0
1873.735107	188.0
1874.096924	148.0
1874.189697	208.0
1877.191406	144.0
1877.294922	200.0
1877.751953	176.0
1880.133057	204.0
1881.168823	200.0
1881.393188	148.0
1881.505493	204.0
1881.928467	192.0
1884.015503	160.0
1884.130859	204.0
1886.325806	188.0
1887.380493	244.0
1888.04187	160.0
1888.305786	152.0
1888.913086	172.0
1891.18689	216.0
1891.273438	180.0
1891.628418	176.0
1892.546021	212.0
1894.035522	156.0
1894.823853	188.0
1895.465088	160.0
1896.539673	188.0
1896.626343	156.0
1896.921021	184.0
1897.163818	160.0
1897.38916	164.0
1897.490112	176.0
1897.718628	148.0
1897.8573	172.0
1898.438354	176.0
1899.25354	196.0
1899.843384	200.0
1900.407349	192.0
1900.771729	140.0
1901.19519	180.0
1904.391846	152.0
1904.600342	148.0
1907.04187	140.0
1908.276245	148.0
1908.693604	152.0
1910.013062	196.0
1910.250366	140.0
1912.112305	168.0
1912.808594	160.0
1912.904419	176.0
1914.489014	140.0
1915.420898	208.0
1916.161377	144.0
1917.764771	192.0
1918.022827	164.0
1918.524658	112.0
1919.662476	256.0
1920.705566	176.0
1921.633423	236.0
1921.715088	200.0
1922.27417	108.0
1922.727295	228.0
1925.564697	208.0
1925.852905	148.0
1926.403198	192.0
1927.215698	148.0
1927.757446	204.0
1928.037109	164.0
1928.144531	96.0
1929.750366	148.0
1930.047607	172.0
1930.575684	192.0
1930.764648	140.0
1931.740112	200.0
1933.966797	152.0
1934.106812	148.0
1934.457031	156.0
1934.889893	180.0
1935.279907	168.0
1935.358765	152.0
1936.558472	180.0
1936.62854	172.0
1936.803711	172.0
1937.907471	188.0
1938.48584	204.0
1938.573364	192.0
1939.861816	152.0
1940.256226	180.0
1942.755615	144.0
1943.808472	168.0
1944.883057	200.0
1946.898438	200.0
1947.144287	176.0
1948.215942	140.0
1948.989136	236.0
1949.296631	188.0
1949.744751	184.0
1951.335815	232.0
1953.499146	172.0
1953.657471	148.0
1954.370117	148.0
1954.730957	196.0
1955.232544	176.0
1956.966675	152.0
1957.270874	188.0
1957.398071	208.0
1957.563354	140.0
1957.741455	156.0
1958.349121	172.0
1960.648682	168.0
1961.785645	180.0
1962.314575	200.0
1962.376343	152.0
1963.206177	212.0
1963.302124	204.0
1963.61084	184.0
1964.025391	160.0
1964.907471	176.0
1965.479126	212.0
1965.95752	164.0
1967.599243	140.0
1967.811157	260.0
1968.01416	220.0
1968.685303	140.0
1969.594971	168.0
1970.133789	180.0
1970.442993	224.0
1970.504883	148.0
1970.787598	164.0
1972.749512	200.0
1974.191284	136.0
1974.77771	172.0
1975.075195	168.0
1975.630615	156.0
1976.030518	188.0
1976.897705	148.0
1980.102417	168.0
1980.483276	140.0
1980.616089	160.0
1980.775513	176.0
1980.890747	160.0
1981.262695	144.0
1981.457642	248.0
1981.581665	200.0
1981.829712	140.0
1982.201904	180.0
1982.517822	116.0
1983.309692	200.0
1983.478149	160.0
1983.611084	164.0
1983.744019	168.0
1984.382324	148.0
1984.670532	148.0
1984.772461	152.0
1985.118286	176.0
1985.313354	228.0
1985.765625	216.0
1986.384766	180.0
1986.501831	224.0
1986.776855	204.0
1987.069702	212.0
1987.974731	168.0
1988.232056	180.0
1988.933228	140.0
1989.729248	132.0
1992.312622	188.0
1994.342407	160.0
1996.476196	156.0
1997.098755	180.0
1998.032715	196.0
1998.780151	148.0
1998.87793	176.0
2000.083496	208.0
2000.435425	160.0
2000.542236	176.0
2001.984619	228.0
2002.332031	152.0
2002.490723	156.0
END IONS

BEGIN IONS
PEPMASS=314.094
CHARGE=1
MSLEVEL=2
SOURCE_INSTRUMENT=LC-ESI-qTof
FILENAME=Plate5_1_20_GH6_01_16508.mzXML
SEQ=*..*
IONMODE=Positive
ORGANISM=GNPS-SELLECKCHEM-FDA-PART2
NAME=Flubendazole (Flutelmium) [M+H]
PI=Dorrestein
DATACOLLECTOR=Garg_Neha
SMILES=C1(C(=O)C2=CC3=C(C=C2)N=C(N3)NC(=O)OC)=CC=C(C=C1)F
INCHI=N/A
INCHIAUX=N/A
PUBMED=N/A
SUBMITUSER=negarg
LIBRARYQUALITY=1
SPECTRUMID=CCMSLIB00000078310
USI=mzspec:GNPS:GNPS-SELLECKCHEM-FDA-PART2:accession:CCMSLIB00000078310
SCANS=1198
44.891262	156.0
44.944622	144.0
44.997284	128.0
45.08884	264.0
45.127605	144.0
45.150337	144.0
45.217232	200.0
45.250896	108.0
45.266582	148.0
45.44772	176.0
45.500256	140.0
45.88768	164.0
45.915852	140.0
45.930687	428.0
45.948734	148.0
45.988297	132.0
46.085968	176.0
46.130569	156.0
46.156223	204.0
46.174564	128.0
46.204914	156.0
46.282063	180.0
46.305084	144.0
46.410782	160.0
46.481316	164.0
46.559639	184.0
46.596725	168.0
46.689159	184.0
46.742012	160.0
46.846127	160.0
46.866119	140.0
47.067993	244.0
47.142262	216.0
47.154057	164.0
47.200535	204.0
47.375721	152.0
47.409977	200.0
47.423683	176.0
47.512814	204.0
47.567707	216.0
47.57983	144.0
47.596535	172.0
47.608894	156.0
47.631603	160.0
47.687366	168.0
47.72707	156.0
47.74147	216.0
47.769707	216.0
47.870178	184.0
47.881195	144.0
47.91563	160.0
47.932163	160.0
47.982365	104.0
48.06316	152.0
48.074474	180.0
48.126652	188.0
48.178375	248.0
48.324299	148.0
48.392117	296.0
48.483994	148.0
48.607483	212.0
48.688862	252.0
48.748024	128.0
48.772224	164.0
48.815323	144.0
48.832012	156.0
48.841747	172.0
48.904362	176.0
48.939163	140.0
49.002037	140.0
49.080929	204.0
49.137241	268.0
49.198479	188.0
49.233189	168.0
49.273895	144.0
49.287865	200.0
49.317215	140.0
49.383396	132.0
49.439785	144.0
49.497684	236.0
49.522892	184.0
49.63224	144.0
49.665859	188.0
49.768684	148.0
49.81184	152.0
49.940243	148.0
50.064644	156.0
50.105854	180.0
50.170681	176.0
50.328167	160.0
50.353699	176.0
50.430168	192.0
50.474236	144.0
50.515251	152.0
50.593082	144.0
50.679592	148.0
50.715626	204.0
50.795727	164.0
50.890812	140.0
50.926033	184.0
50.988533	116.0
51.065601	176.0
51.082558	152.0
51.125053	152.0
51.150719	180.0
51.256054	240.0
51.289139	180.0
51.304821	152.0
51.350979	140.0
51.383259	156.0
51.411797	184.0
51.441071	196.0
51.470322	148.0
51.498886	172.0
51.508884	140.0
51.58033	140.0
51.601467	168.0
51.683338	140.0
51.762608	108.0
51.773483	164.0
51.796398	204.0
51.889545	208.0
51.908184	152.0
51.972733	140.0
52.02153	172.0
52.078968	144.0
52.147076	208.0
52.1978	168.0
52.255783	180.0
52.27161	188.0
52.293198	172.0
52.324512	164.0
52.354633	160.0
52.442986	164.0
52.481911	196.0
52.523731	436.0
52.614643	148.0
52.641018	180.0
52.688297	168.0
52.773571	180.0
52.788029	160.0
52.948662	168.0
53.006611	148.0
53.022839	140.0
53.042725	148.0
53.113892	228.0
53.301174	212.0
53.317158	208.0
53.347683	200.0
53.541069	180.0
53.645962	120.0
53.781765	144.0
53.821182	140.0
53.832264	156.0
53.846004	208.0
53.863201	176.0
54.156071	140.0
54.222004	176.0
54.241055	144.0
54.28944	164.0
54.31144	172.0
54.33931	176.0
54.353985	220.0
54.467026	140.0
54.491646	132.0
54.556667	160.0
54.651684	112.0
54.712605	140.0
54.787712	216.0
54.848129	168.0
54.859924	140.0
55.005371	140.0
55.221687	156.0
55.278721	268.0
55.308983	148.0
55.372204	160.0
55.527527	168.0
55.572769	196.0
55.655033	188.0
55.673706	156.0
55.715298	204.0
55.801537	140.0
55.81451	212.0
55.836395	212.0
56.19091	180.0
56.2514	220.0
56.329948	176.0
56.390308	160.0
56.417923	152.0
56.442009	148.0
56.55685	184.0
56.584774	172.0
56.614719	180.0
56.79607	152.0
56.811069	156.0
56.874092	160.0
57.019779	172.0
57.125771	196.0
57.234898	148.0
57.248451	180.0
57.371716	212.0
57.395	172.0
57.416615	204.0
57.440048	128.0
57.457962	156.0
57.513832	164.0
57.536442	172.0
57.571716	188.0
57.672741	208.0
57.717747	152.0
57.855427	168.0
57.915997	212.0
57.95084	188.0
57.996304	176.0
58.011459	144.0
58.157787	120.0
58.208576	152.0
58.231476	172.0
58.275528	188.0
58.340881	156.0
58.364456	140.0
58.421371	168.0
58.456135	144.0
58.535629	184.0
58.653667	148.0
58.681904	176.0
58.692577	156.0
58.716549	128.0
58.755989	168.0
58.793255	172.0
58.848171	164.0
58.95063	152.0
58.968143	164.0
59.133617	116.0
59.253799	188.0
59.333969	148.0
59.346161	184.0
59.412949	168.0
59.443634	144.0
59.606087	136.0
59.706532	120.0
59.770935	168.0
59.781708	172.0
59.807869	164.0
59.858261	164.0
59.927986	184.0
59.948021	156.0
60.025093	160.0
60.153149	196.0
60.221088	172.0
60.335438	152.0
60.425137	156.0
60.445251	140.0
60.49025	160.0
60.52729	156.0
60.596989	164.0
60.634178	196.0
60.686199	232.0
60.879295	140.0
60.902592	208.0
60.94408	164.0
60.961662	180.0
60.975594	152.0
61.021969	200.0
61.041817	164.0
61.177734	144.0
61.264412	212.0
61.360992	160.0
61.424629	188.0
61.472401	152.0
61.644173	160.0
61.689495	196.0
61.713909	192.0
61.749886	148.0
61.775505	176.0
61.811531	148.0
61.845997	160.0
62.011944	140.0
62.037022	312.0
62.088764	220.0
62.12516	176.0
62.14053	164.0
62.171909	172.0
62.283302	156.0
62.409328	204.0
62.440033	120.0
62.451565	240.0
62.60265	148.0
62.636387	228.0
62.700325	216.0
62.711357	148.0
62.747612	148.0
62.816776	140.0
62.858021	204.0
62.946419	160.0
62.959053	204.0
62.99287	160.0
63.144733	220.0
63.318047	180.0
63.371906	156.0
63.46225	208.0
63.484447	196.0
63.542965	148.0
63.630428	152.0
63.644718	152.0
63.687595	156.0
63.719761	144.0
63.872669	312.0
63.934025	200.0
64.043884	172.0
64.123543	156.0
64.192093	148.0
64.244728	184.0
64.334091	240.0
64.35804	152.0
64.457077	160.0
64.500229	200.0
64.514809	200.0
64.532196	256.0
64.547638	104.0
64.648697	192.0
64.827316	216.0
64.918472	188.0
65.007927	236.0
65.109062	164.0
65.211472	140.0
65.36145	212.0
65.418297	112.0
65.448364	160.0
65.473572	184.0
65.539879	128.0
65.575218	172.0
65.740128	192.0
65.780182	180.0
65.808105	140.0
65.882217	208.0
65.990494	248.0
66.043861	144.0
66.119904	180.0
66.14904	184.0
66.183037	160.0
66.219826	200.0
66.266769	128.0
66.283463	188.0
66.392075	164.0
66.405518	180.0
66.433266	224.0
66.45858	212.0
66.473183	208.0
66.513756	184.0
66.672928	172.0
66.725639	204.0
66.833916	152.0
66.858322	148.0
66.905014	128.0
67.06842	148.0
67.167885	176.0
67.247833	168.0
67.285378	264.0
67.484062	164.0
67.51741	204.0
67.604111	140.0
67.684746	156.0
67.739357	172.0
67.790794	152.0
67.825691	220.0
67.907936	124.0
68.077873	216.0
68.120575	220.0
68.275635	188.0
68.324013	144.0
68.345146	204.0
68.403412	152.0
68.44223	152.0
68.498924	168.0
68.520088	184.0
68.54464	128.0
68.556587	184.0
68.58625	156.0
68.655502	188.0
68.723129	156.0
68.850426	136.0
68.933464	176.0
69.005562	140.0
69.076668	144.0
69.169418	164.0
69.197479	160.0
69.222313	176.0
69.242188	144.0
69.268692	152.0
69.291885	288.0
69.341782	176.0
69.470337	180.0
69.497475	220.0
69.515213	208.0
69.582115	212.0
69.642891	208.0
69.714088	136.0
69.769852	184.0
69.901245	172.0
69.939522	128.0
69.999512	124.0
70.044426	140.0
70.074409	220.0
70.099403	192.0
70.13855	296.0
70.18206	184.0
70.22274	196.0
70.267807	144.0
70.29615	308.0
70.332893	152.0
70.386314	172.0
70.454796	172.0
70.620453	156.0
70.779312	128.0
70.871384	140.0
70.911606	204.0
71.080986	196.0
71.116844	164.0
71.129654	144.0
71.201851	140.0
71.311058	196.0
71.369347	160.0
71.489326	212.0
71.501106	140.0
71.652	156.0
71.678154	148.0
71.762199	144.0
71.794235	244.0
71.817848	228.0
71.848213	160.0
71.941032	152.0
72.123466	200.0
72.18602	140.0
72.254463	136.0
72.292587	244.0
72.312141	268.0
72.336082	256.0
72.396049	140.0
72.427277	140.0
72.515289	168.0
72.549545	192.0
72.566994	168.0
72.617867	156.0
72.633133	144.0
72.759827	164.0
72.815132	224.0
72.94136	192.0
73.057808	204.0
73.119064	208.0
73.148582	164.0
73.166725	200.0
73.190559	160.0
73.233131	304.0
73.304688	164.0
73.37603	140.0
73.488838	192.0
73.505905	196.0
73.53038	152.0
73.594032	216.0
73.635643	160.0
73.75354	152.0
73.850296	224.0
73.869812	144.0
73.922852	244.0
74.052185	220.0
74.076942	156.0
74.173676	136.0
74.330681	216.0
74.389038	140.0
74.412964	128.0
74.440544	192.0
74.456001	144.0
74.535019	188.0
74.846359	144.0
74.963333	132.0
75.030373	232.0
75.055901	208.0
75.092789	160.0
75.20623	176.0
75.272263	140.0
75.344803	180.0
75.446976	168.0
75.552261	160.0
75.566101	140.0
75.589096	220.0
75.643074	184.0
75.694183	200.0
75.73748	168.0
75.751343	140.0
75.768661	204.0
75.784737	172.0
75.867882	144.0
75.885109	148.0
75.913254	180.0
75.979103	156.0
76.005371	176.0
76.053055	148.0
76.15416	208.0
76.209343	228.0
76.232819	228.0
76.297981	164.0
76.313629	132.0
76.377975	204.0
76.468452	180.0
76.518929	176.0
76.546318	176.0
76.559128	240.0
76.682678	196.0
76.712303	220.0
76.727417	192.0
76.928131	136.0
76.974014	196.0
77.108528	192.0
77.159988	164.0
77.29039	196.0
77.475716	132.0
77.537308	160.0
77.627663	296.0
77.670563	308.0
77.705643	200.0
77.809731	188.0
77.921486	128.0
77.928268	120.0
78.081551	152.0
78.174789	192.0
78.20295	188.0
78.232819	160.0
78.270332	192.0
78.313423	172.0
78.340294	164.0
78.450127	132.0
78.463654	272.0
78.488808	180.0
78.503693	96.0
78.64888	148.0
78.704628	208.0
78.763649	168.0
78.788284	140.0
78.821419	172.0
79.024841	164.0
79.073067	228.0
79.152733	196.0
79.168671	184.0
79.210548	116.0
79.283264	192.0
79.547241	224.0
79.680801	192.0
79.705475	176.0
79.775177	116.0
79.86953	148.0
79.885269	332.0
79.92131	152.0
79.938141	104.0
79.975182	252.0
80.035225	224.0
80.074402	172.0
80.190208	148.0
80.259094	144.0
80.313232	156.0
80.339989	224.0
80.441521	192.0
80.599686	212.0
80.742966	448.0
80.79554	148.0
80.812698	156.0
80.857674	172.0
80.905014	144.0
81.00605	264.0
81.101753	152.0
81.125053	188.0
81.140457	196.0
81.196777	156.0
81.232651	292.0
81.279297	180.0
81.350067	332.0
81.409622	332.0
81.56768	284.0
81.625237	144.0
81.665535	136.0
81.86335	188.0
81.89592	160.0
81.958977	164.0
82.152283	256.0
82.242111	172.0
82.256546	144.0
82.292656	168.0
82.344208	160.0
82.357666	220.0
82.476921	156.0
82.554077	224.0
82.576363	148.0
82.708893	144.0
82.864426	148.0
82.880257	124.0
83.02272	112.0
83.0896	120.0
83.113716	140.0
83.127548	128.0
83.219818	144.0
83.243271	188.0
83.303207	152.0
83.340614	156.0
83.468597	144.0
83.581367	160.0
83.654167	156.0
83.723358	160.0
83.827194	152.0
83.847244	292.0
83.861824	204.0
83.891968	164.0
83.942039	160.0
84.069099	128.0
84.106232	148.0
84.161812	144.0
84.223091	240.0
84.272415	148.0
84.299461	192.0
84.332687	216.0
84.394875	140.0
84.49913	156.0
84.556114	140.0
84.614426	172.0
84.698494	128.0
84.734177	156.0
84.788277	180.0
84.90654	356.0
84.92778	288.0
84.94062	152.0
84.961296	148.0
84.999329	192.0
85.038239	180.0
85.234367	148.0
85.281334	192.0
85.410355	204.0
85.502853	240.0
85.515732	196.0
85.641296	184.0
85.714622	144.0
85.73394	116.0
85.77729	156.0
85.867638	168.0
85.896126	168.0
85.915596	188.0
85.966949	168.0
86.074318	172.0
86.148193	160.0
86.191864	164.0
86.279404	176.0
86.467537	176.0
86.525459	220.0
86.566193	440.0
86.595825	208.0
86.668076	156.0
86.718941	164.0
86.738495	164.0
86.783035	152.0
86.844002	160.0
86.877579	260.0
86.898376	152.0
86.922104	168.0
86.953865	140.0
87.014908	184.0
87.058189	180.0
87.157265	204.0
87.175461	164.0
87.295723	212.0
87.340706	252.0
87.354996	152.0
87.378029	136.0
87.434998	204.0
87.49411	180.0
87.687721	368.0
87.712517	184.0
87.757263	176.0
87.785233	156.0
88.003548	152.0
88.025955	208.0
88.068909	148.0
88.108131	144.0
88.184532	172.0
88.296921	196.0
88.349449	400.0
88.618195	140.0
88.633881	196.0
88.708847	144.0
88.775009	112.0
88.802147	148.0
88.841995	196.0
88.855125	184.0
88.894524	144.0
88.968369	152.0
89.046486	140.0
89.23262	240.0
89.268349	164.0
89.304077	160.0
89.326118	152.0
89.35675	208.0
89.486618	216.0
89.53746	176.0
89.574539	192.0
89.676872	148.0
89.701378	176.0
89.716652	160.0
89.778679	156.0
89.804878	144.0
89.817657	192.0
89.854492	232.0
89.893753	156.0
90.019455	200.0
90.043282	156.0
90.063141	228.0
90.099518	168.0
90.140968	144.0
90.281158	160.0
90.322624	176.0
90.508492	192.0
90.597107	144.0
90.640678	164.0
90.670135	192.0
90.702553	204.0
90.790436	144.0
90.805611	204.0
90.877693	172.0
90.902359	224.0
90.938423	172.0
91.154915	216.0
91.18013	224.0
91.236649	192.0
91.322517	100.0
91.398308	140.0
91.437302	188.0
91.516319	200.0
91.542976	148.0
91.594398	324.0
91.641075	148.0
91.757126	132.0
91.833649	100.0
91.973732	188.0
92.009163	112.0
92.092232	160.0
92.111328	304.0
92.23745	140.0
92.272156	152.0
92.328148	228.0
92.410805	228.0
92.463142	272.0
92.540543	192.0
92.566193	148.0
92.675179	268.0
92.752769	184.0
92.777275	156.0
92.812424	156.0
92.834793	168.0
93.112495	136.0
93.161148	172.0
93.196762	224.0
93.214882	176.0
93.228333	168.0
93.28791	140.0
93.443787	152.0
93.464088	252.0
93.489868	168.0
93.574562	144.0
93.65731	164.0
93.688316	176.0
93.732498	192.0
93.784538	144.0
93.892502	156.0
93.927223	168.0
93.963799	200.0
94.114685	168.0
94.143127	152.0
94.185875	192.0
94.227287	164.0
94.277496	152.0
94.315331	160.0
94.331268	264.0
94.363663	180.0
94.396576	180.0
94.435005	300.0
94.512291	156.0
94.591438	308.0
94.644211	244.0
94.662209	352.0
94.717178	136.0
94.748795	160.0
94.764297	172.0
94.799179	140.0
94.817688	296.0
94.853439	232.0
94.886398	148.0
94.903847	152.0
95.028305	2236.0
95.130836	180.0
95.173546	144.0
95.213432	200.0
95.245407	160.0
95.264862	224.0
95.293388	240.0
95.385162	156.0
95.440216	132.0
95.507889	96.0
95.706306	156.0
95.91671	148.0
95.941124	184.0
96.018097	144.0
96.032486	352.0
96.061012	144.0
96.14296	176.0
96.159706	192.0
96.386391	156.0
96.494446	152.0
96.521866	128.0
96.555168	160.0
96.673203	144.0
96.729408	156.0
96.783745	104.0
96.810913	176.0
97.036873	188.0
97.080009	140.0
97.11393	172.0
97.191826	160.0
97.438988	176.0
97.561546	144.0
97.700684	212.0
97.718391	148.0
97.758202	224.0
97.803009	216.0
97.846085	168.0
97.929024	184.0
98.027527	148.0
98.098175	248.0
98.277946	148.0
98.325302	140.0
98.379028	148.0
98.473381	192.0
98.676125	168.0
98.706573	168.0
98.732277	156.0
98.872742	240.0
98.902245	456.0
99.021225	140.0
99.078667	228.0
99.212044	160.0
99.28476	160.0
99.36985	160.0
99.392067	116.0
99.43956	144.0
99.489769	176.0
99.534843	180.0
99.558678	156.0
99.689331	140.0
99.783211	180.0
100.014282	124.0
100.098579	168.0
100.175255	144.0
100.194084	156.0
100.211113	160.0
100.280861	180.0
100.330696	180.0
100.36795	140.0
100.434387	152.0
100.534142	144.0
100.569473	148.0
100.594826	188.0
100.649872	164.0
100.6828	160.0
100.719818	144.0
100.781746	160.0
100.813721	176.0
100.8377	216.0
100.879066	184.0
100.947212	216.0
100.966309	140.0
101.016281	180.0
101.156685	176.0
101.183426	240.0
101.199333	216.0
101.222359	224.0
101.23864	156.0
101.418129	160.0
101.470253	156.0
101.514366	184.0
101.536423	192.0
101.57489	180.0
101.624214	168.0
101.647911	160.0
101.731056	176.0
101.841492	152.0
101.855553	160.0
101.875641	156.0
102.100761	204.0
102.151039	184.0
102.316933	152.0
102.33461	148.0
102.356323	148.0
102.419731	108.0
102.481209	376.0
102.495316	220.0
102.696907	212.0
102.749359	164.0
102.799698	180.0
102.886253	120.0
102.9366	192.0
102.959282	184.0
103.053017	228.0
103.090591	144.0
103.120232	96.0
103.203789	160.0
103.489075	144.0
103.517509	184.0
103.568054	188.0
103.622749	164.0
103.699753	140.0
103.783745	172.0
103.935669	132.0
103.968925	288.0
104.041267	184.0
104.087891	148.0
104.155167	432.0
104.245926	128.0
104.317841	132.0
104.338821	232.0
104.385933	184.0
104.462082	164.0
104.485596	152.0
104.636444	136.0
104.664703	252.0
104.727837	152.0
104.773544	124.0
104.871483	124.0
104.912865	156.0
104.957428	376.0
104.978836	152.0
105.053978	172.0
105.073578	184.0
105.125389	200.0
105.376541	148.0
105.471443	236.0
105.582993	200.0
105.654488	164.0
105.680397	168.0
105.752808	208.0
105.976021	184.0
106.024818	172.0
106.04789	164.0
106.072342	284.0
106.088188	252.0
106.193436	136.0
106.219009	148.0
106.3554	148.0
106.396461	140.0
106.439575	216.0
106.586197	168.0
106.844208	240.0
106.873276	148.0
106.940689	168.0
107.035889	188.0
107.202744	160.0
107.306488	144.0
107.47699	164.0
107.494514	292.0
107.568428	196.0
107.621475	148.0
107.724739	152.0
107.748184	200.0
107.887993	172.0
108.096008	112.0
108.17968	148.0
108.538857	252.0
108.627281	152.0
108.652176	216.0
108.689522	328.0
108.743477	184.0
108.936584	136.0
108.996834	160.0
109.046707	164.0
109.175606	164.0
109.273369	180.0
109.295959	140.0
109.360489	180.0
109.481522	144.0
109.561424	144.0
109.67701	140.0
109.739906	160.0
109.885902	160.0
109.924118	228.0
110.012161	144.0
110.134224	176.0
110.157562	168.0
110.222061	156.0
110.261765	160.0
110.29039	132.0
110.345375	172.0
110.385818	212.0
110.448044	208.0
110.491776	152.0
110.571289	156.0
110.592216	192.0
110.613152	196.0
110.741592	152.0
110.807556	160.0
110.851913	152.0
110.914787	164.0
110.983429	140.0
111.020714	168.0
111.078339	168.0
111.3022	180.0
111.335052	116.0
111.376404	140.0
111.395309	244.0
111.497215	168.0
111.531891	196.0
111.580238	152.0
111.617554	172.0
111.761604	192.0
111.788475	260.0
111.852219	220.0
111.875191	440.0
112.089867	156.0
112.130592	168.0
112.15493	252.0
112.235039	160.0
112.291977	160.0
112.34584	164.0
112.372139	148.0
112.426994	192.0
112.547188	132.0
112.566322	180.0
112.617012	176.0
112.642357	152.0
112.915016	172.0
112.961548	152.0
112.993507	112.0
113.021065	184.0
113.039139	176.0
113.06279	324.0
113.132057	244.0
113.167488	168.0
113.228241	192.0
113.24942	156.0
113.276955	376.0
113.32151	124.0
113.378654	156.0
113.512207	184.0
113.586441	176.0
113.652206	176.0
113.681908	224.0
113.742409	204.0
113.896339	144.0
114.031708	196.0
114.093971	200.0
114.195061	200.0
114.261978	176.0
114.283257	156.0
114.308784	176.0
114.327942	176.0
114.379066	172.0
114.400307	188.0
114.459923	144.0
114.489731	180.0
114.515289	144.0
114.568542	184.0
114.5905	156.0
114.717712	228.0
114.764618	140.0
114.857468	268.0
114.8815	144.0
115.072403	124.0
115.125069	152.0
115.197525	256.0
115.250755	284.0
115.26622	172.0
115.403023	140.0
115.478058	176.0
115.55648	160.0
115.574135	188.0
115.640083	176.0
115.673737	140.0
115.79248	232.0
115.809616	176.0
115.877045	176.0
115.917328	144.0
115.966026	220.0
116.027649	240.0
116.045723	132.0
116.239326	184.0
116.267601	136.0
116.297005	164.0
116.317787	176.0
116.347847	144.0
116.385345	156.0
116.470245	168.0
116.516075	184.0
116.62925	336.0
116.675522	152.0
116.738892	156.0
116.801262	148.0
116.837837	188.0
116.905365	176.0
116.960495	144.0
117.238327	208.0
117.258453	204.0
117.30191	176.0
117.319923	196.0
117.36335	148.0
117.42157	176.0
117.473343	148.0
117.516487	244.0
117.562393	292.0
117.599663	140.0
117.706429	140.0
117.732346	200.0
117.790657	180.0
117.825226	160.0
117.846832	216.0
118.043526	148.0
118.112732	144.0
118.140701	172.0
118.283676	192.0
118.320068	164.0
118.363777	148.0
118.483932	160.0
118.513237	144.0
118.669289	148.0
118.706154	236.0
118.752495	108.0
118.85582	164.0
118.873184	172.0
118.893929	228.0
118.992561	172.0
119.025429	176.0
119.108704	108.0
119.129379	204.0
119.172104	156.0
119.233673	164.0
119.270088	228.0
119.401909	156.0
119.477203	140.0
119.494614	188.0
119.510681	124.0
119.55481	96.0
119.572945	208.0
119.596886	172.0
119.656967	160.0
119.691872	152.0
119.740181	204.0
119.788506	144.0
119.827721	180.0
119.845146	144.0
119.864761	204.0
119.898071	148.0
119.965012	144.0
119.989471	180.0
120.069672	200.0
120.115479	188.0
120.146385	140.0
120.190514	112.0
120.233299	160.0
120.375191	164.0
120.399818	116.0
120.513336	132.0
120.561127	168.0
120.647369	168.0
120.680687	136.0
120.702965	208.0
120.748886	172.0
120.777321	184.0
120.853073	236.0
120.885712	196.0
120.974258	168.0
121.062263	164.0
121.134117	148.0
121.208084	168.0
121.291885	204.0
121.326958	220.0
121.414665	140.0
121.467308	156.0
121.494316	180.0
121.513374	144.0
121.594566	212.0
121.634552	368.0
121.673584	228.0
121.777031	220.0
121.801117	108.0
121.821381	140.0
121.941574	324.0
121.986061	184.0
122.056007	144.0
122.119659	304.0
122.14386	204.0
122.266167	172.0
122.295319	196.0
122.347809	200.0
122.443192	144.0
122.459816	180.0
122.489449	140.0
122.505913	128.0
122.572441	208.0
122.612831	208.0
122.639282	196.0
122.659119	144.0
122.76329	144.0
122.791763	100.0
122.834373	192.0
122.860123	160.0
122.884834	148.0
122.914055	296.0
122.9814	428.0
123.000023	152.0
123.023979	58528.0
123.093742	176.0
123.117798	264.0
123.153374	144.0
123.224442	188.0
123.339302	244.0
123.384552	196.0
123.471542	196.0
123.507072	140.0
123.534424	144.0
123.557899	216.0
123.639961	180.0
123.690674	160.0
123.792984	288.0
123.838783	160.0
123.875267	144.0
123.899353	120.0
123.989685	220.0
124.02739	3668.0
124.074783	132.0
124.139503	228.0
124.21122	144.0
124.344528	200.0
124.379601	220.0
124.4422	144.0
124.535469	176.0
124.567268	164.0
124.592575	96.0
124.803513	168.0
124.831047	156.0
124.853287	248.0
124.921364	112.0
124.937943	192.0
125.032494	308.0
125.235191	152.0
125.345314	148.0
125.392052	172.0
125.45372	180.0
125.518059	152.0
125.557472	120.0
125.63063	256.0
125.647278	148.0
125.689079	164.0
125.715416	172.0
125.747002	160.0
125.78907	164.0
125.811394	160.0
125.901176	212.0
125.918213	248.0
125.927452	208.0
126.031197	204.0
126.059952	168.0
126.103966	176.0
126.153191	208.0
126.180016	168.0
126.273521	160.0
126.343277	196.0
126.431938	96.0
126.571297	200.0
126.64547	188.0
126.67907	176.0
126.696548	164.0
126.776291	112.0
126.811272	140.0
126.943535	192.0
127.006401	140.0
127.066902	164.0
127.100517	128.0
127.130424	196.0
127.15416	104.0
127.266655	156.0
127.572678	196.0
127.619415	168.0
127.699066	152.0
127.71611	164.0
127.77813	164.0
127.996826	196.0
128.037964	140.0
128.148331	168.0
128.188004	152.0
128.25	176.0
128.299332	160.0
128.354019	188.0
128.48877	216.0
128.60611	156.0
128.645508	300.0
128.733215	176.0
128.843216	168.0
129.148392	144.0
129.259232	140.0
129.342972	260.0
129.361084	144.0
129.512772	364.0
129.559692	148.0
129.682724	144.0
129.859573	152.0
129.875458	140.0
129.898132	140.0
130.004776	184.0
130.039215	172.0
130.061905	188.0
130.113495	160.0
130.159134	160.0
130.288589	160.0
130.322678	216.0
130.383957	140.0
130.422668	148.0
130.443649	140.0
130.511322	164.0
130.530655	112.0
130.597977	216.0
130.697845	208.0
130.861359	128.0
130.957367	192.0
130.977341	176.0
131.029633	160.0
131.070328	192.0
131.154846	192.0
131.173553	132.0
131.229721	112.0
131.253616	212.0
131.427231	176.0
131.461197	180.0
131.509125	172.0
131.566193	148.0
131.627838	200.0
131.665405	244.0
131.769699	148.0
131.790009	172.0
131.819717	200.0
131.999969	140.0
132.082642	176.0
132.110641	132.0
132.455734	200.0
132.552872	216.0
132.574753	152.0
132.764099	260.0
132.812408	240.0
132.859192	148.0
133.10672	204.0
133.159897	192.0
133.240295	168.0
133.320709	140.0
133.373566	172.0
133.493362	156.0
133.575928	140.0
133.746201	168.0
133.806046	196.0
133.936874	168.0
133.999512	220.0
134.052505	152.0
134.18158	196.0
134.223083	240.0
134.391464	184.0
134.544525	268.0
134.596954	136.0
134.666168	172.0
134.728928	164.0
134.77475	184.0
134.811722	152.0
134.911102	212.0
134.968903	140.0
135.007065	288.0
135.057251	156.0
135.144684	164.0
135.199509	192.0
135.306702	296.0
135.417847	120.0
135.445206	160.0
135.501007	196.0
135.607834	180.0
135.623688	176.0
135.640884	200.0
135.749252	140.0
135.896606	144.0
136.027664	164.0
136.076416	140.0
136.13829	152.0
136.182831	116.0
136.23201	260.0
136.25293	248.0
136.304047	204.0
136.355515	136.0
136.41095	128.0
136.47139	148.0
136.545807	308.0
136.569519	124.0
136.613266	272.0
136.662125	144.0
136.677536	172.0
136.694687	140.0
136.797104	164.0
136.829697	196.0
136.869278	140.0
136.918182	232.0
136.965515	136.0
137.029984	148.0
137.110764	132.0
137.258408	160.0
137.316696	192.0
137.357422	132.0
137.380417	152.0
137.408157	196.0
137.452652	144.0
137.473007	144.0
137.503387	204.0
137.561707	280.0
137.670105	132.0
137.753998	164.0
137.9133	152.0
137.940125	192.0
137.956482	140.0
137.989929	184.0
138.028961	144.0
138.089767	144.0
138.134766	136.0
138.155258	156.0
138.206741	196.0
138.252655	224.0
138.314392	152.0
138.344818	160.0
138.415054	148.0
138.47374	168.0
138.627151	96.0
138.648224	132.0
138.670761	160.0
138.691498	172.0
138.750107	148.0
138.784241	128.0
138.806381	144.0
138.871567	188.0
138.950806	204.0
138.972916	180.0
139.005768	164.0
139.132507	156.0
139.388519	204.0
139.475708	120.0
139.537842	136.0
139.585968	404.0
139.738861	196.0
139.898895	168.0
139.957993	156.0
139.980652	148.0
140.023315	176.0
140.049591	140.0
140.114914	192.0
140.156723	168.0
140.1819	148.0
140.216873	160.0
140.300598	176.0
140.365387	212.0
140.437805	164.0
140.503616	212.0
140.589493	172.0
140.620163	140.0
140.679184	172.0
140.811401	204.0
140.905899	196.0
140.927155	164.0
140.948639	128.0
140.977249	120.0
141.016953	212.0
141.094482	156.0
141.165634	148.0
141.270981	212.0
141.291245	156.0
141.322006	152.0
141.343307	192.0
141.460526	156.0
141.52948	128.0
141.638031	188.0
141.681641	120.0
141.735977	144.0
141.833542	140.0
141.884964	172.0
141.923615	260.0
141.940216	152.0
141.963928	240.0
142.008041	156.0
142.023026	196.0
142.052414	136.0
142.153702	200.0
142.183136	176.0
142.307999	216.0
142.341476	160.0
142.444519	152.0
142.500931	188.0
142.571655	180.0
142.660492	128.0
142.71666	180.0
142.752335	172.0
142.792755	188.0
142.837143	228.0
142.854599	156.0
142.962814	152.0
142.985474	156.0
143.016403	168.0
143.052109	172.0
143.088989	328.0
143.195648	156.0
143.248291	156.0
143.266434	156.0
143.297256	184.0
143.383194	140.0
143.480026	188.0
143.522369	176.0
143.643265	144.0
143.702728	216.0
143.781464	156.0
143.857849	152.0
144.042953	132.0
144.082321	168.0
144.136948	144.0
144.190231	160.0
144.240051	188.0
144.304001	180.0
144.359589	160.0
144.377747	164.0
144.424164	152.0
144.529419	252.0
144.603607	168.0
144.671692	188.0
144.735275	164.0
144.838257	156.0
144.862198	160.0
144.893341	208.0
144.96283	268.0
145.02063	148.0
145.053391	296.0
145.137955	136.0
145.308105	144.0
145.356094	196.0
145.4953	148.0
145.538513	204.0
145.60556	144.0
145.668564	164.0
145.689819	180.0
145.708115	216.0
145.751907	152.0
146.01088	196.0
146.05423	168.0
146.115082	192.0
146.168274	168.0
146.216415	164.0
146.264999	148.0
146.353012	156.0
146.381042	228.0
146.415939	164.0
146.594498	144.0
146.690903	148.0
146.707779	176.0
146.727066	168.0
146.76564	160.0
146.804169	172.0
146.908707	164.0
146.94397	144.0
147.00061	216.0
147.04776	148.0
147.103912	208.0
147.225128	192.0
147.262772	144.0
147.381134	168.0
147.465363	160.0
147.527069	156.0
147.651886	200.0
147.707138	132.0
147.729279	168.0
147.92308	180.0
147.993561	160.0
148.039078	280.0
148.11235	96.0
148.135971	248.0
148.240143	228.0
148.300735	172.0
148.317703	208.0
148.368607	172.0
148.592194	124.0
148.676651	148.0
148.759171	164.0
148.810165	160.0
148.929764	160.0
149.080521	104.0
149.115601	200.0
149.167282	152.0
149.184296	156.0
149.218048	140.0
149.246933	188.0
149.286407	192.0
149.344772	144.0
149.374069	204.0
149.437225	168.0
149.563766	300.0
149.61261	180.0
149.739059	148.0
149.772125	188.0
149.933975	216.0
150.122055	104.0
150.159943	208.0
150.23143	172.0
150.267349	156.0
150.399811	168.0
150.455307	168.0
150.487686	176.0
150.551178	220.0
150.590256	192.0
150.611557	128.0
150.708847	228.0
150.762863	144.0
150.861481	152.0
150.915268	160.0
150.939926	144.0
150.970718	260.0
151.022873	164.0
151.092041	156.0
151.25531	152.0
151.3508	224.0
151.385071	200.0
151.437927	172.0
151.514893	160.0
151.555374	140.0
151.581039	224.0
151.653091	180.0
151.718307	180.0
151.858063	156.0
151.888077	152.0
151.950119	236.0
152.0177	180.0
152.094315	212.0
152.119736	212.0
152.259964	144.0
152.376282	188.0
152.441132	200.0
152.457794	212.0
152.619339	160.0
152.773178	124.0
152.837067	124.0
152.904694	160.0
153.119385	156.0
153.277435	152.0
153.298721	204.0
153.3591	136.0
153.417038	144.0
153.437729	192.0
153.525513	200.0
153.584717	200.0
153.614304	144.0
153.640472	204.0
153.685852	156.0
153.704895	172.0
153.711609	100.0
153.763855	168.0
153.796906	140.0
153.923203	100.0
153.982132	200.0
154.189606	164.0
154.331772	120.0
154.390396	148.0
154.41954	284.0
154.441238	124.0
154.624878	144.0
154.669434	148.0
154.713394	216.0
154.753601	144.0
154.790741	212.0
154.991379	372.0
155.021652	168.0
155.070694	308.0
155.177277	164.0
155.21199	324.0
155.261581	164.0
155.30127	200.0
155.355835	160.0
155.390579	216.0
155.415024	136.0
155.460052	204.0
155.500977	212.0
155.534454	192.0
155.606033	324.0
155.642395	236.0
155.755859	164.0
155.844925	168.0
155.877228	156.0
155.894623	188.0
155.924454	144.0
155.954269	244.0
156.108414	192.0
156.127975	148.0
156.165619	252.0
156.265121	164.0
156.503937	156.0
156.563705	316.0
156.596283	112.0
156.719315	172.0
156.760406	144.0
156.788544	216.0
156.855331	180.0
156.872971	156.0
156.972275	180.0
157.015381	208.0
157.05658	232.0
157.228256	208.0
157.271881	144.0
157.377533	200.0
157.58403	140.0
157.616959	156.0
157.646652	200.0
157.739685	156.0
157.748077	144.0
157.781479	176.0
157.88649	148.0
157.939011	148.0
157.974823	164.0
158.034286	556.0
158.191742	296.0
158.343094	240.0
158.382675	192.0
158.482452	148.0
158.52655	160.0
158.610062	224.0
158.659683	156.0
158.712799	172.0
158.845215	216.0
158.888412	144.0
158.967499	208.0
159.042587	1136.0
159.189621	156.0
159.332779	152.0
159.442276	160.0
159.468475	208.0
159.546585	164.0
159.59166	220.0
159.641937	160.0
159.700943	140.0
159.753891	180.0
159.972397	224.0
160.048645	3220.0
160.118881	160.0
160.176819	116.0
160.213303	140.0
160.247894	164.0
160.287994	160.0
160.355392	112.0
160.469055	124.0
160.621674	220.0
160.646957	144.0
160.675919	132.0
160.707596	128.0
160.785675	244.0
160.838669	160.0
160.868958	248.0
160.906433	180.0
160.974747	156.0
161.031494	172.0
161.197296	172.0
161.343887	256.0
161.462418	188.0
161.495621	144.0
161.548096	160.0
161.628693	176.0
161.795654	240.0
161.89711	188.0
161.953735	156.0
161.978241	180.0
162.024323	148.0
162.113342	140.0
162.195862	136.0
162.273041	180.0
162.306	188.0
162.359253	200.0
162.455002	144.0
162.502808	212.0
162.524139	160.0
162.562195	236.0
162.589859	120.0
162.643417	156.0
162.821136	144.0
162.838913	200.0
162.90242	148.0
162.946732	152.0
163.019974	104.0
163.057404	152.0
163.148911	160.0
163.185379	128.0
163.235367	160.0
163.271179	140.0
163.38797	176.0
163.419846	204.0
163.530472	144.0
163.608871	376.0
163.757065	188.0
163.880722	348.0
163.911285	180.0
163.971085	176.0
164.087372	160.0
164.126572	164.0
164.224442	140.0
164.249283	168.0
164.280502	240.0
164.316971	248.0
164.374008	184.0
164.413605	216.0
164.488708	144.0
164.542465	160.0
164.695358	140.0
164.78508	212.0
164.852707	120.0
164.90007	156.0
164.945404	196.0
164.994659	140.0
165.093689	120.0
165.127625	144.0
165.183899	200.0
165.23761	172.0
165.304138	156.0
165.328201	136.0
165.526367	152.0
165.608795	408.0
165.626724	236.0
165.674118	104.0
165.715332	184.0
165.736877	220.0
166.158875	176.0
166.221512	204.0
166.303497	164.0
166.398605	204.0
166.5681	184.0
166.596176	276.0
166.631485	160.0
166.8405	168.0
166.902191	240.0
166.957855	216.0
167.002487	184.0
167.084808	152.0
167.125977	140.0
167.168198	156.0
167.19545	256.0
167.222961	248.0
167.277817	188.0
167.337021	184.0
167.378403	176.0
167.502426	140.0
167.549637	152.0
167.599747	164.0
167.780151	140.0
167.799805	144.0
167.843536	212.0
167.872269	184.0
167.94519	152.0
168.054688	116.0
168.100052	144.0
168.259369	240.0
168.292801	148.0
168.366837	140.0
168.409775	168.0
168.497574	368.0
168.579651	212.0
168.619049	152.0
168.654678	128.0
168.682388	256.0
168.781921	172.0
168.821594	116.0
168.895706	160.0
168.917618	204.0
168.970718	216.0
168.994019	164.0
169.045761	140.0
169.089752	176.0
169.113052	220.0
169.302048	156.0
169.412827	228.0
169.483368	424.0
169.529678	152.0
169.63887	176.0
169.778061	176.0
169.821564	176.0
169.971985	164.0
170.022415	160.0
170.116989	220.0
170.194077	164.0
170.264847	140.0
170.385544	144.0
170.521393	144.0
170.555176	140.0
170.682556	164.0
170.74498	140.0
170.767426	208.0
170.885437	200.0
170.911453	148.0
170.974731	152.0
171.064026	372.0
171.104965	160.0
171.160797	152.0
171.190826	148.0
171.25769	208.0
171.286346	160.0
171.343658	148.0
171.369705	164.0
171.393158	224.0
171.481766	140.0
171.501312	192.0
171.656433	200.0
171.724243	172.0
171.760498	164.0
171.776932	212.0
171.799881	160.0
171.899979	168.0
172.031662	264.0
172.052597	136.0
172.081741	140.0
172.10524	144.0
172.142792	104.0
172.201859	164.0
172.272873	212.0
172.30867	212.0
172.40303	148.0
172.492447	188.0
172.53894	200.0
172.56459	104.0
172.690872	120.0
172.783585	140.0
172.80571	300.0
173.002747	136.0
173.023834	152.0
173.13028	192.0
173.170074	144.0
173.456528	140.0
173.604614	144.0
173.747482	180.0
173.790848	152.0
173.817093	152.0
173.943069	168.0
174.025818	324.0
174.061478	160.0
174.110947	128.0
174.229309	176.0
174.31076	140.0
174.339661	148.0
174.358063	140.0
174.40274	200.0
174.428299	144.0
174.484222	384.0
174.537109	180.0
174.577621	192.0
174.66304	172.0
174.692474	128.0
174.748383	236.0
174.936707	176.0
175.038239	148.0
175.098099	220.0
175.189514	200.0
175.245178	156.0
175.285049	124.0
175.337067	104.0
175.486816	144.0
175.511047	216.0
175.678329	284.0
175.729965	180.0
175.77681	140.0
175.810898	204.0
175.872467	196.0
175.895187	204.0
175.922623	196.0
175.9543	176.0
176.00325	112.0
176.037842	444.0
176.087479	152.0
176.150467	172.0
176.506516	176.0
176.532959	144.0
176.63739	132.0
176.674805	188.0
176.752792	152.0
176.784271	160.0
176.861023	176.0
176.938477	200.0
177.027817	152.0
177.051651	188.0
177.077087	152.0
177.136398	164.0
177.16774	188.0
177.197327	156.0
177.239716	252.0
177.258926	160.0
177.316895	132.0
177.548218	176.0
177.600266	280.0
177.631516	184.0
177.72229	152.0
177.75679	148.0
177.801392	164.0
177.945953	164.0
178.070053	156.0
178.104584	180.0
178.194901	152.0
178.314484	128.0
178.428772	288.0
178.447388	364.0
178.580353	152.0
178.649094	156.0
178.682648	172.0
178.743881	136.0
178.812119	176.0
178.862381	176.0
178.948517	200.0
179.003006	132.0
179.070984	156.0
179.141983	308.0
179.198517	164.0
179.245895	156.0
179.291199	140.0
179.596298	164.0
179.655548	160.0
179.720886	176.0
179.776077	112.0
179.934036	196.0
179.969925	192.0
180.041809	208.0
180.107605	172.0
180.153015	168.0
180.174393	216.0
180.33728	224.0
180.374374	164.0
180.492447	152.0
180.644897	148.0
180.788361	180.0
180.866989	188.0
180.909164	148.0
180.941193	200.0
180.994705	96.0
181.102615	192.0
181.149872	224.0
181.228516	144.0
181.281891	96.0
181.310272	204.0
181.4617	196.0
181.539459	188.0
181.624329	168.0
181.700439	220.0
181.754059	144.0
181.805038	324.0
181.836075	156.0
181.884308	164.0
181.983276	220.0
182.038452	240.0
182.108414	212.0
182.128036	144.0
182.165955	176.0
182.217621	104.0
182.36586	176.0
182.493637	160.0
182.541092	148.0
182.721298	144.0
182.784363	228.0
182.861221	268.0
182.932632	160.0
183.006592	172.0
183.133163	140.0
183.188324	172.0
183.216965	144.0
183.257675	160.0
183.324432	140.0
183.370255	388.0
183.405289	184.0
183.42897	236.0
183.5578	196.0
183.620697	112.0
183.71138	164.0
183.795364	120.0
184.057541	856.0
184.26619	196.0
184.385025	360.0
184.483109	200.0
184.539108	228.0
184.59761	144.0
184.641861	156.0
184.733826	184.0
184.828522	144.0
184.936768	176.0
185.058334	128.0
185.135712	124.0
185.23288	212.0
185.310471	256.0
185.351639	284.0
185.397171	228.0
185.600479	196.0
185.67897	216.0
185.747711	112.0
185.881744	104.0
185.904831	296.0
185.981766	212.0
186.030197	3224.0
186.180389	108.0
186.283768	188.0
186.302521	168.0
186.37677	176.0
186.427399	172.0
186.523529	140.0
186.55072	224.0
186.916351	236.0
187.035599	752.0
187.209015	156.0
187.277237	168.0
187.33989	148.0
187.428497	160.0
187.666794	344.0
187.727051	188.0
187.756912	164.0
187.935608	144.0
188.03331	128.0
188.174408	160.0
188.259521	164.0
188.30188	168.0
188.374451	192.0
188.442062	164.0
188.467056	164.0
188.623642	280.0
188.693497	140.0
188.717957	208.0
188.853165	144.0
188.934555	144.0
189.087402	168.0
189.202011	152.0
189.258484	112.0
189.317368	168.0
189.372833	264.0
189.468018	260.0
189.510361	148.0
189.683853	136.0
189.700714	192.0
189.862717	180.0
189.972427	208.0
190.01358	196.0
190.104126	184.0
190.134583	160.0
190.180969	172.0
190.205673	148.0
190.244019	132.0
190.301254	184.0
190.356674	324.0
190.408859	256.0
190.48407	208.0
190.532455	160.0
190.603897	164.0
190.628632	212.0
190.749557	176.0
190.777039	232.0
190.839249	96.0
190.941376	152.0
190.978058	192.0
191.031479	772.0
191.068207	184.0
191.109818	152.0
191.184113	148.0
191.217148	152.0
191.285172	184.0
191.334976	188.0
191.379562	176.0
191.781128	140.0
191.842407	204.0
191.903732	196.0
191.938934	196.0
192.038177	180.0
192.352737	204.0
192.391373	168.0
192.432785	172.0
192.496292	152.0
192.573624	192.0
192.62886	148.0
192.651291	168.0
192.738129	192.0
192.831848	140.0
192.864853	248.0
192.905792	224.0
193.062561	144.0
193.082916	168.0
193.141281	128.0
193.190445	228.0
193.242599	344.0
193.295853	144.0
193.344437	124.0
193.37265	208.0
193.403091	144.0
193.42247	224.0
193.511063	212.0
193.537415	184.0
193.569199	176.0
193.643982	320.0
193.671875	172.0
193.724304	168.0
193.744766	176.0
193.804382	164.0
193.833191	120.0
193.908737	200.0
193.968155	248.0
194.095688	184.0
194.148376	172.0
194.198303	208.0
194.2621	144.0
194.366257	152.0
194.447998	140.0
194.615341	212.0
194.700638	220.0
194.753403	176.0
194.798599	248.0
194.842575	160.0
194.93399	140.0
194.995132	168.0
195.035873	212.0
195.320435	264.0
195.440704	156.0
195.486176	160.0
195.65094	156.0
195.671066	248.0
195.721191	192.0
195.777283	168.0
195.899429	140.0
195.928726	228.0
196.144653	160.0
196.18367	164.0
196.331451	240.0
196.37886	152.0
196.424881	272.0
196.452759	180.0
196.487656	152.0
196.561981	112.0
196.720215	244.0
196.793793	108.0
196.872849	172.0
196.914734	208.0
197.067932	192.0
197.110291	144.0
197.252823	284.0
197.277985	144.0
197.303131	168.0
197.348282	120.0
197.53804	164.0
197.567154	128.0
197.596603	172.0
197.632462	112.0
197.812836	160.0
197.892792	216.0
197.946121	124.0
197.973434	192.0
198.04483	152.0
198.111908	244.0
198.240799	140.0
198.294037	196.0
198.324875	164.0
198.371475	192.0
198.445419	176.0
198.515518	172.0
198.580017	208.0
198.603729	160.0
198.681	140.0
198.746643	112.0
198.758331	184.0
198.79921	124.0
198.990112	140.0
199.045258	184.0
199.064148	220.0
199.152328	172.0
199.323959	188.0
199.413879	168.0
199.512268	184.0
199.564117	208.0
199.672531	140.0
199.709106	424.0
199.735962	144.0
199.807556	144.0
199.830063	180.0
199.94313	176.0
200.050949	204.0
200.090302	376.0
200.220215	164.0
200.290436	232.0
200.407242	272.0
200.457397	160.0
200.501694	132.0
200.562439	176.0
200.640335	200.0
200.699051	176.0
200.969421	176.0
201.078735	320.0
201.148956	192.0
201.237976	180.0
201.28447	188.0
201.362183	164.0
201.388962	176.0
201.42363	212.0
201.522003	204.0
201.568695	232.0
201.614975	140.0
201.640411	144.0
201.680756	176.0
201.80072	220.0
201.841125	140.0
201.8694	144.0
201.894852	176.0
201.925964	184.0
201.951416	144.0
202.038773	168.0
202.091492	172.0
202.130035	144.0
202.165268	196.0
202.285309	144.0
202.447144	196.0
202.497665	160.0
202.571304	232.0
202.676132	216.0
202.705826	160.0
202.764984	180.0
202.786652	180.0
202.880188	152.0
202.970917	388.0
203.026688	176.0
203.114319	144.0
203.183731	116.0
203.338623	168.0
203.362381	352.0
203.391983	276.0
203.424698	148.0
203.462402	196.0
203.490158	160.0
203.558304	160.0
203.640656	156.0
203.74292	148.0
203.814606	156.0
203.870682	120.0
204.141815	184.0
204.334259	252.0
204.394699	132.0
204.673035	300.0
204.749115	172.0
204.874908	136.0
204.953033	212.0
205.051834	152.0
205.168701	180.0
205.194351	184.0
205.277039	156.0
205.409393	252.0
205.721786	168.0
205.867752	312.0
205.899521	180.0
205.942001	232.0
206.014481	204.0
206.070862	332.0
206.113403	168.0
206.16098	216.0
206.253677	100.0
206.277969	124.0
206.461655	160.0
206.509628	200.0
206.550949	172.0
206.595245	144.0
206.708176	136.0
206.865585	264.0
206.902802	176.0
207.013992	168.0
207.057266	208.0
207.113251	160.0
207.134766	240.0
207.429901	188.0
207.476013	192.0
207.553177	164.0
207.584976	184.0
207.637619	160.0
207.768585	136.0
207.819931	192.0
207.868881	196.0
208.061707	180.0
208.190842	204.0
208.224808	188.0
208.305099	192.0
208.509109	252.0
208.531143	168.0
208.829575	124.0
208.887497	156.0
208.928909	116.0
208.96785	120.0
208.995087	152.0
209.051392	208.0
209.116425	148.0
209.14473	204.0
209.229004	116.0
209.324677	340.0
209.405334	112.0
209.49028	160.0
209.545013	140.0
209.666031	180.0
209.717682	152.0
209.747925	184.0
209.79715	180.0
209.879959	152.0
209.983017	160.0
210.037964	236.0
210.08989	200.0
210.258789	164.0
210.296783	308.0
210.361145	140.0
210.518204	188.0
210.670135	156.0
210.705338	108.0
210.758896	192.0
210.794373	152.0
210.814606	192.0
210.855057	212.0
210.904633	160.0
210.933105	156.0
210.976456	144.0
211.002487	180.0
211.030548	164.0
211.089218	184.0
211.110382	164.0
211.153259	140.0
211.215942	184.0
211.342178	168.0
211.373917	176.0
211.4711	132.0
211.497147	188.0
211.540558	148.0
211.649139	152.0
211.673752	220.0
211.749603	144.0
211.954239	336.0
211.980804	148.0
212.056152	148.0
212.110229	164.0
212.135147	188.0
212.218475	188.0
212.379379	108.0
212.499817	160.0
212.635712	120.0
212.778442	220.0
212.86554	176.0
213.055832	132.0
213.095596	220.0
213.132782	204.0
213.252991	132.0
213.284042	160.0
213.356567	168.0
213.386673	112.0
213.464142	172.0
213.73175	144.0
213.861603	156.0
214.125778	124.0
214.276215	164.0
214.317017	164.0
214.646393	144.0
214.768875	172.0
214.813751	260.0
214.984924	152.0
215.074982	180.0
215.167358	172.0
215.218292	172.0
215.252121	164.0
215.297134	156.0
215.359406	200.0
215.454865	296.0
215.519135	196.0
215.646927	352.0
215.887451	444.0
215.913559	168.0
215.961243	120.0
216.098053	140.0
216.237213	140.0
216.340958	164.0
216.372864	156.0
216.420013	212.0
216.455139	148.0
216.67775	140.0
216.766724	160.0
216.812393	160.0
216.821167	152.0
216.906967	128.0
216.940491	236.0
217.014786	140.0
217.116852	204.0
217.154922	148.0
217.210693	220.0
217.294525	160.0
217.334793	232.0
217.399048	268.0
217.450699	120.0
217.484161	152.0
217.539932	220.0
217.5793	156.0
217.622131	160.0
217.684998	132.0
217.712433	116.0
217.783646	160.0
217.82605	220.0
217.895279	176.0
218.133316	160.0
218.257263	124.0
218.419373	184.0
218.444641	188.0
218.492081	168.0
218.550919	248.0
218.695129	216.0
218.730438	164.0
218.831131	188.0
218.86293	144.0
218.888992	108.0
219.054352	300.0
219.15184	136.0
219.244797	164.0
219.394287	236.0
219.472687	152.0
219.528381	236.0
219.632095	176.0
219.788788	252.0
220.089523	164.0
220.368713	160.0
220.405579	168.0
220.467636	156.0
220.535599	180.0
220.576981	148.0
220.678085	200.0
220.86676	144.0
220.920609	140.0
220.976227	188.0
221.053146	148.0
221.174225	148.0
221.221848	156.0
221.339798	148.0
221.369888	176.0
221.432022	216.0
221.523911	156.0
221.590149	188.0
221.621674	196.0
221.728348	228.0
221.901779	132.0
222.056152	316.0
222.193878	176.0
222.298019	104.0
222.330383	180.0
222.351822	176.0
222.42218	124.0
222.451096	196.0
222.534531	144.0
222.602783	204.0
222.729065	152.0
222.801453	184.0
222.848801	320.0
222.921341	152.0
223.013458	152.0
223.055267	184.0
223.149323	216.0
223.256256	180.0
223.376221	160.0
223.545807	136.0
223.575577	156.0
223.708649	152.0
223.739273	152.0
223.791153	180.0
223.864441	164.0
223.960739	204.0
224.024323	140.0
224.055359	176.0
224.078613	148.0
224.140869	188.0
224.200958	156.0
224.229156	164.0
224.251633	376.0
224.532257	124.0
224.576614	164.0
224.631882	196.0
224.72493	128.0
224.825012	172.0
224.883926	140.0
224.9496	208.0
225.052307	256.0
225.081818	140.0
225.116791	224.0
225.200409	272.0
225.247284	116.0
225.288467	200.0
225.308853	120.0
225.364716	148.0
225.444656	128.0
225.506638	116.0
225.53804	168.0
225.787491	152.0
225.860977	312.0
225.900864	180.0
225.965683	192.0
226.077637	3832.0
226.258972	176.0
226.345795	204.0
226.36676	160.0
226.518295	172.0
226.690277	144.0
226.762817	176.0
226.894241	340.0
227.008789	160.0
227.040863	156.0
227.077911	504.0
227.287979	148.0
227.353012	204.0
227.417694	124.0
227.447495	152.0
227.543686	164.0
227.622467	324.0
227.917557	184.0
227.96051	324.0
228.013519	120.0
228.059708	200.0
228.087143	168.0
228.109848	204.0
228.193634	164.0
228.718445	104.0
228.829361	132.0
228.883102	212.0
228.902634	172.0
229.003036	212.0
229.073318	272.0
229.190323	144.0
229.216553	348.0
229.338242	144.0
229.439987	196.0
229.540436	108.0
229.567123	188.0
229.599609	160.0
229.796204	152.0
229.885483	292.0
229.926117	152.0
230.040878	188.0
230.086716	136.0
230.135773	120.0
230.206863	156.0
230.242355	160.0
230.291428	164.0
230.372986	140.0
230.697464	196.0
230.724991	144.0
230.756805	196.0
230.92009	140.0
230.989655	152.0
231.052689	192.0
231.152252	172.0
231.180267	164.0
231.215225	168.0
231.262817	148.0
231.319138	140.0
231.349762	152.0
231.487656	144.0
231.560532	136.0
231.62294	176.0
231.69722	164.0
231.76561	236.0
231.888931	180.0
231.96167	292.0
231.998047	160.0
232.064926	176.0
232.167847	200.0
232.361664	156.0
232.552032	228.0
232.644211	220.0
232.700592	140.0
232.723145	200.0
232.762619	172.0
232.91304	128.0
232.983566	188.0
233.048141	196.0
233.190399	156.0
233.243439	196.0
233.300385	148.0
233.321671	140.0
233.361191	148.0
233.386047	188.0
233.449371	184.0
233.475311	204.0
233.550201	232.0
233.672699	124.0
233.752716	276.0
233.78096	144.0
234.066605	284.0
234.243744	172.0
234.291306	176.0
234.382187	108.0
234.531204	152.0
234.604462	180.0
234.746628	176.0
234.825211	144.0
235.060043	212.0
235.085236	288.0
235.106598	196.0
235.19957	224.0
235.245377	148.0
235.286575	236.0
235.317352	176.0
235.349426	128.0
235.498047	148.0
235.52034	208.0
235.800888	176.0
235.842545	120.0
235.879318	140.0
235.987885	180.0
236.068008	156.0
236.1698	192.0
236.196518	152.0
236.260834	116.0
236.325714	120.0
236.390076	292.0
236.432358	152.0
236.463516	160.0
236.518616	176.0
236.739044	156.0
236.777557	168.0
236.822296	164.0
236.922821	180.0
236.975647	156.0
237.064041	300.0
237.21701	148.0
237.345779	276.0
237.501358	136.0
237.588074	204.0
237.616135	164.0
237.66687	152.0
237.727982	124.0
237.853363	124.0
237.919037	152.0
238.048477	192.0
238.077072	280.0
238.228226	152.0
238.312393	188.0
238.435333	228.0
238.51944	188.0
238.690689	188.0
238.889404	144.0
238.9534	136.0
239.042313	144.0
239.133682	308.0
239.194595	152.0
239.253738	188.0
239.275284	160.0
239.320953	144.0
239.41272	152.0
239.437546	208.0
239.464905	152.0
239.614059	144.0
239.688004	156.0
239.734238	156.0
239.783539	140.0
239.886703	164.0
239.986679	116.0
240.058029	112.0
240.107254	148.0
240.202179	180.0
240.30159	176.0
240.335526	180.0
240.375641	212.0
240.429565	220.0
240.474396	140.0
240.520691	156.0
240.546539	168.0
240.624924	136.0
240.801666	152.0
240.851089	188.0
241.076614	180.0
241.139755	112.0
241.255493	160.0
241.488586	156.0
241.691971	208.0
241.855988	148.0
241.918945	212.0
241.945755	164.0
242.078033	256.0
242.181488	192.0
242.248108	120.0
242.307053	224.0
242.372726	168.0
242.456833	144.0
242.502274	176.0
242.635941	188.0
242.875183	176.0
242.928131	152.0
242.975815	108.0
243.049133	144.0
243.207397	148.0
243.299347	128.0
243.340881	220.0
243.527206	256.0
243.555161	208.0
243.698486	260.0
243.854309	100.0
243.978607	164.0
244.061935	172.0
244.092804	216.0
244.11293	196.0
244.13826	208.0
244.20166	156.0
244.291855	176.0
244.338516	148.0
244.371216	204.0
244.665298	156.0
244.758698	292.0
244.817871	196.0
244.849899	196.0
244.969574	216.0
245.015579	160.0
245.166382	176.0
245.230988	172.0
245.284637	108.0
245.33197	172.0
245.378723	208.0
245.447327	248.0
245.499466	168.0
245.628204	144.0
245.801407	128.0
245.888565	116.0
245.9245	188.0
245.997421	236.0
246.02829	152.0
246.099609	148.0
246.371155	152.0
246.416061	140.0
246.46489	168.0
246.49614	140.0
246.614899	160.0
246.784195	148.0
246.846237	140.0
246.96817	192.0
247.040436	176.0
247.080826	140.0
247.104492	184.0
247.190323	200.0
247.246078	152.0
247.368729	172.0
247.463364	140.0
247.650528	180.0
247.681854	224.0
247.712997	140.0
247.754822	136.0
247.973679	144.0
248.007721	140.0
248.099564	164.0
248.148788	148.0
248.224045	268.0
248.358231	152.0
248.443588	140.0
248.513107	176.0
248.580353	284.0
248.686676	204.0
248.829605	168.0
248.93248	320.0
249.083969	140.0
249.201172	196.0
249.291336	216.0
249.351044	212.0
249.429504	108.0
249.47049	156.0
249.568726	128.0
249.609909	276.0
249.681152	268.0
249.775513	188.0
249.900635	180.0
249.942764	160.0
249.986404	128.0
250.193268	236.0
250.414841	132.0
250.49086	108.0
250.73085	140.0
250.83667	164.0
251.050491	176.0
251.180374	192.0
251.248413	232.0
251.35704	188.0
251.451828	124.0
251.530716	140.0
251.660736	168.0
251.850037	128.0
251.909561	192.0
251.937988	184.0
252.06752	200.0
252.124405	172.0
252.149643	160.0
252.222748	140.0
252.36322	176.0
252.412079	168.0
252.471542	144.0
252.521118	116.0
252.582947	296.0
252.810654	220.0
252.864975	168.0
253.035385	180.0
253.066101	364.0
253.253891	156.0
253.288727	148.0
253.680695	172.0
253.906769	148.0
253.92897	140.0
254.07019	3588.0
254.174606	228.0
254.357315	160.0
254.395416	188.0
254.457733	120.0
254.497009	180.0
254.567535	224.0
254.677032	220.0
254.728836	156.0
254.786011	160.0
254.868622	316.0
254.897125	264.0
254.940186	316.0
254.978149	172.0
255.080185	1392.0
255.167999	168.0
255.220825	144.0
255.348633	156.0
255.38681	216.0
255.414444	168.0
255.454742	156.0
255.47905	180.0
255.738174	164.0
255.783859	148.0
255.992462	156.0
256.022888	196.0
256.083954	216.0
256.16983	160.0
256.262238	272.0
256.324768	360.0
256.491669	340.0
256.515686	136.0
256.743561	156.0
256.772247	200.0
256.817963	156.0
256.903046	192.0
256.953888	168.0
256.990875	148.0
257.068268	888.0
257.175873	192.0
257.512177	96.0
257.551178	160.0
257.678802	224.0
257.744354	172.0
257.784302	232.0
257.849548	152.0
257.908905	140.0
258.014984	104.0
258.074982	152.0
258.198547	120.0
258.283813	156.0
258.311798	140.0
258.462158	208.0
258.504242	228.0
258.586945	232.0
258.670685	156.0
258.746552	192.0
258.777435	112.0
258.911407	196.0
258.989502	176.0
259.035217	192.0
259.144135	164.0
259.240265	200.0
259.438995	140.0
259.474731	164.0
259.5112	100.0
259.54715	180.0
259.689117	180.0
259.835144	176.0
259.910461	200.0
260.027435	196.0
260.226379	200.0
260.249115	144.0
260.335114	136.0
260.368805	184.0
260.435577	144.0
260.552582	172.0
260.645874	192.0
260.697174	148.0
260.743164	128.0
260.88031	152.0
260.902893	324.0
260.976135	256.0
261.043243	216.0
261.13562	148.0
261.229431	164.0
261.31778	200.0
261.504669	192.0
261.545654	156.0
261.581238	156.0
261.6203	172.0
261.648163	128.0
261.843109	136.0
261.904419	136.0
262.029938	136.0
262.060486	140.0
262.112671	196.0
262.328766	116.0
262.34021	108.0
262.448273	140.0
262.481445	172.0
262.551483	168.0
262.621918	232.0
262.633362	204.0
262.701447	184.0
262.732086	232.0
262.783722	312.0
262.812744	308.0
262.858459	196.0
263.068268	260.0
263.195068	152.0
263.351868	156.0
263.536011	148.0
263.631317	140.0
263.743469	416.0
263.897034	172.0
264.052643	852.0
264.179352	172.0
264.253784	144.0
264.339905	188.0
264.379028	168.0
264.427582	196.0
264.50943	160.0
264.573639	188.0
264.781403	176.0
264.888275	184.0
264.989014	180.0
265.059845	308.0
265.154266	320.0
265.212677	208.0
265.25296	296.0
265.32901	144.0
265.37085	208.0
265.395172	312.0
265.429535	196.0
265.568329	100.0
265.587433	256.0
265.65979	176.0
265.757111	200.0
265.78775	192.0
265.870697	144.0
265.959625	212.0
266.016754	264.0
266.070251	268.0
266.110626	136.0
266.179077	140.0
266.208313	176.0
266.236328	152.0
266.27652	220.0
266.425934	204.0
266.482788	208.0
266.591339	140.0
266.682434	140.0
266.812653	144.0
266.836914	140.0
266.969879	148.0
267.020752	344.0
267.143921	148.0
267.294037	180.0
267.326569	144.0
267.538544	128.0
267.632751	252.0
267.788849	180.0
267.904388	156.0
267.936584	148.0
268.11792	172.0
268.18457	184.0
268.245026	176.0
268.376709	112.0
268.416901	196.0
268.48288	240.0
268.557281	308.0
268.61676	144.0
268.650757	152.0
268.817291	200.0
269.021393	152.0
269.101257	180.0
269.15918	176.0
269.23761	180.0
269.312531	128.0
269.364288	156.0
269.412201	160.0
269.554443	116.0
269.626678	128.0
269.661957	148.0
269.779297	208.0
269.821777	184.0
269.91333	188.0
269.974945	148.0
269.983063	124.0
269.994263	188.0
270.051514	128.0
270.103058	1264.0
270.152649	132.0
270.181122	164.0
270.297607	168.0
270.344696	180.0
270.504913	196.0
270.538879	208.0
270.570343	148.0
270.672485	140.0
270.707672	204.0
270.786621	260.0
270.838715	156.0
270.878693	132.0
270.933868	228.0
271.07785	148.0
271.106812	484.0
271.165192	296.0
271.235016	196.0
271.269196	204.0
271.353973	204.0
271.392151	156.0
271.427765	240.0
271.544189	392.0
271.586823	156.0
271.704773	104.0
271.759277	188.0
271.832855	156.0
271.875519	204.0
271.969391	148.0
272.100067	168.0
272.148285	172.0
272.203491	288.0
272.318481	160.0
272.385376	152.0
272.535736	280.0
272.621521	196.0
272.688629	316.0
272.737854	208.0
272.775452	168.0
272.992462	152.0
273.068085	168.0
273.091766	340.0
273.143738	220.0
273.17334	216.0
273.390503	196.0
273.459869	156.0
273.485962	164.0
273.541901	208.0
273.614319	160.0
273.643951	144.0
273.686279	164.0
273.776947	192.0
273.820435	108.0
273.862091	148.0
273.891144	192.0
273.916595	156.0
274.015472	224.0
274.026001	208.0
274.09848	364.0
274.124695	168.0
274.164398	144.0
274.197266	144.0
274.251007	260.0
274.457794	140.0
274.543793	140.0
274.569885	140.0
274.595001	164.0
274.667114	252.0
274.728821	108.0
274.764313	144.0
274.812347	144.0
274.880005	156.0
274.912994	168.0
275.090698	172.0
275.132477	120.0
275.19577	124.0
275.224915	108.0
275.262909	184.0
275.295929	224.0
275.37616	136.0
275.523834	152.0
275.622253	152.0
275.68573	140.0
275.747101	112.0
276.009674	288.0
276.07251	172.0
276.112579	212.0
276.194885	208.0
276.251556	152.0
276.320007	208.0
276.345947	96.0
276.392944	180.0
276.472809	144.0
276.701202	148.0
276.752258	132.0
276.847931	280.0
276.925781	200.0
276.956177	140.0
277.009155	196.0
277.217651	324.0
277.251038	200.0
277.280853	164.0
277.355499	232.0
277.412018	336.0
277.439514	204.0
277.47644	280.0
277.571198	168.0
277.838043	172.0
277.87442	156.0
277.908997	104.0
278.086792	144.0
278.200409	248.0
278.362335	204.0
278.418793	156.0
278.503448	140.0
278.5336	184.0
278.598145	164.0
278.662689	380.0
278.687866	148.0
278.735291	144.0
278.783173	140.0
278.843018	180.0
278.882355	144.0
278.925568	108.0
278.96701	160.0
279.042358	140.0
279.113831	196.0
279.157776	160.0
279.283051	180.0
279.31076	284.0
279.386261	116.0
279.63559	180.0
279.781586	164.0
279.908569	172.0
279.978516	156.0
280.054138	184.0
280.11731	196.0
280.194489	124.0
280.243774	108.0
280.291534	184.0
280.367432	148.0
280.442444	292.0
280.494171	120.0
280.597473	120.0
280.651123	184.0
280.707397	204.0
280.816284	284.0
280.83725	312.0
280.906372	292.0
280.985077	380.0
281.030243	180.0
281.054779	804.0
281.135376	292.0
281.169464	152.0
281.202728	224.0
281.230438	252.0
281.278503	348.0
281.300659	172.0
281.381134	276.0
281.42041	156.0
281.47467	204.0
281.538147	464.0
281.560242	296.0
281.588013	300.0
281.628845	264.0
281.659424	260.0
281.668793	192.0
281.701874	476.0
281.756714	360.0
281.78598	316.0
281.818512	264.0
281.859039	280.0
281.911316	932.0
281.940216	692.0
281.977753	764.0
282.025085	1044.0
282.068939	364620.0
282.163544	152.0
282.187042	364.0
282.304504	608.0
282.387756	376.0
282.426697	308.0
282.451599	548.0
282.505127	208.0
282.573029	188.0
282.618073	10108.0
282.664551	252.0
282.697083	628.0
282.72345	196.0
282.783508	268.0
282.818481	232.0
282.885345	256.0
282.933441	340.0
283.016541	296.0
283.070679	105876.0
283.195526	352.0
283.270782	232.0
283.319946	180.0
283.392761	256.0
283.486725	184.0
283.51532	180.0
283.572021	324.0
283.612244	268.0
283.648346	160.0
283.710693	380.0
283.768402	228.0
283.816101	140.0
283.847809	184.0
283.996826	152.0
284.021606	160.0
284.072449	8512.0
284.130859	232.0
284.204285	180.0
284.268799	236.0
284.320648	116.0
284.34613	96.0
284.374634	176.0
284.414764	180.0
284.492126	316.0
284.520447	196.0
284.565765	160.0
284.620239	296.0
284.660034	156.0
284.716705	232.0
284.766571	244.0
284.777252	284.0
284.815979	276.0
284.850067	320.0
284.907196	244.0
284.957611	316.0
284.993134	324.0
285.075623	924.0
285.130035	264.0
285.168915	352.0
285.194489	204.0
285.22644	232.0
285.283936	128.0
285.330505	136.0
285.379425	168.0
285.444946	168.0
285.520447	104.0
285.544739	216.0
285.572723	152.0
285.650909	128.0
285.709106	164.0
285.752838	228.0
285.868713	152.0
285.934204	136.0
285.98349	188.0
286.004059	120.0
286.039062	168.0
286.176025	168.0
286.214691	148.0
286.272797	136.0
286.427277	164.0
286.477814	196.0
286.508881	140.0
286.602051	228.0
286.742462	124.0
286.77774	160.0
287.095428	152.0
287.184357	124.0
287.329346	292.0
287.450958	152.0
287.492981	176.0
287.591431	152.0
287.76239	188.0
287.819794	168.0
287.851959	160.0
287.874939	184.0
287.926849	196.0
287.954651	156.0
288.011292	164.0
288.044922	164.0
288.115997	136.0
288.245697	200.0
288.322113	172.0
288.474213	204.0
288.497894	200.0
288.637451	184.0
288.82251	152.0
289.094849	168.0
289.157074	172.0
289.48468	128.0
289.970306	160.0
290.036896	184.0
290.161743	160.0
290.214355	200.0
290.241486	352.0
290.284241	184.0
290.723389	132.0
290.800232	176.0
290.930237	204.0
291.004913	120.0
291.195068	220.0
291.227448	132.0
291.263	140.0
291.299042	204.0
291.375122	188.0
291.754974	176.0
291.798218	176.0
291.955353	144.0
292.03418	108.0
292.180847	152.0
292.227448	160.0
292.25708	108.0
292.453064	208.0
292.493927	180.0
292.541565	184.0
292.616455	196.0
292.711792	316.0
292.888885	220.0
292.982361	128.0
293.264923	144.0
293.347656	196.0
293.515961	140.0
293.671661	152.0
293.7005	112.0
293.757599	156.0
293.779053	100.0
294.022644	136.0
294.444916	132.0
294.691437	144.0
294.852844	200.0
294.935638	204.0
295.154968	204.0
295.192596	200.0
295.244904	108.0
295.370422	204.0
295.468048	120.0
295.525696	196.0
295.584106	360.0
295.644135	228.0
295.762817	196.0
296.12262	200.0
296.168976	216.0
296.205505	224.0
296.231232	160.0
296.431885	100.0
296.465759	176.0
296.51059	176.0
296.661377	176.0
296.809479	144.0
296.885559	240.0
296.973419	164.0
297.25473	168.0
297.31308	288.0
297.426331	156.0
297.455597	236.0
297.594543	212.0
297.742889	160.0
298.099487	256.0
298.189209	108.0
298.286438	224.0
298.333191	184.0
298.388214	168.0
298.656433	144.0
298.957733	180.0
299.010803	224.0
299.065796	144.0
299.252136	108.0
299.391327	152.0
299.426239	132.0
299.572052	144.0
299.802887	272.0
299.982117	184.0
300.069458	120.0
300.227539	220.0
300.361969	204.0
300.730621	144.0
300.763092	176.0
300.880127	116.0
300.927399	156.0
301.252014	164.0
301.331207	144.0
301.400696	112.0
301.512146	156.0
301.587189	196.0
302.132294	416.0
302.229248	128.0
302.27417	192.0
302.513	204.0
302.597321	180.0
302.868958	96.0
302.923767	180.0
302.974792	112.0
303.070312	148.0
303.227753	180.0
303.25412	148.0
303.364197	144.0
303.525879	168.0
303.591766	160.0
303.703369	184.0
303.768646	176.0
303.879669	176.0
304.216736	132.0
304.379486	144.0
304.410736	164.0
304.959656	228.0
305.213409	192.0
305.585571	244.0
305.771088	208.0
305.870941	188.0
306.007965	168.0
306.133118	144.0
306.29187	176.0
306.35498	248.0
306.442078	184.0
306.550079	144.0
306.655518	172.0
306.705688	256.0
306.945374	176.0
307.006744	184.0
307.185394	156.0
307.31839	176.0
307.387482	144.0
307.770966	180.0
307.895203	200.0
308.176117	180.0
308.225037	164.0
308.267334	196.0
308.319397	240.0
308.419861	124.0
308.836823	172.0
308.869995	148.0
308.884979	140.0
309.036224	208.0
309.162201	140.0
309.291687	172.0
309.561279	172.0
309.649139	172.0
309.86261	264.0
309.939575	156.0
310.01535	128.0
310.041199	152.0
310.132782	124.0
310.18634	108.0
310.412781	248.0
310.51297	148.0
310.593933	184.0
310.743134	224.0
310.892212	96.0
310.929565	176.0
311.012177	132.0
311.04483	332.0
311.382294	120.0
311.609833	104.0
311.67215	124.0
311.743195	144.0
311.80014	192.0
311.86972	208.0
311.980713	288.0
312.017365	144.0
312.098236	176.0
312.128326	200.0
312.221313	108.0
312.319672	120.0
312.404053	364.0
312.455566	420.0
312.543335	124.0
312.617279	156.0
312.667023	140.0
312.688904	276.0
312.72113	168.0
312.775177	392.0
312.833527	332.0
312.865784	216.0
312.934387	244.0
312.984375	280.0
313.030212	280.0
313.053772	276.0
313.096588	256.0
313.123962	484.0
313.14975	296.0
313.177979	432.0
313.233734	468.0
313.276764	188.0
313.307556	512.0
313.399506	456.0
313.439178	440.0
313.500366	296.0
313.562531	136.0
313.671112	536.0
313.727631	256.0
313.756714	600.0
313.783813	536.0
313.872864	508.0
313.905548	484.0
313.944824	468.0
314.006836	928.0
314.015259	916.0
314.042786	1888.0
314.095612	228664.0
314.223877	276.0
314.33371	220.0
314.346161	232.0
314.423645	1416.0
314.481384	632.0
314.528961	672.0
314.631561	940.0
314.67923	14420.0
314.718994	1092.0
314.764404	464.0
314.792725	304.0
314.930176	136.0
314.955505	420.0
314.989227	492.0
315.018158	544.0
315.097229	134164.0
315.218567	124.0
315.268829	148.0
315.317932	208.0
315.409027	124.0
315.477783	152.0
315.519226	288.0
315.555908	268.0
315.627899	252.0
315.683105	208.0
315.739868	160.0
315.829285	284.0
316.032501	216.0
316.098328	14832.0
316.229462	200.0
316.279907	100.0
316.348389	124.0
316.415466	220.0
316.459717	204.0
316.491791	172.0
316.525177	144.0
316.570221	172.0
316.617584	196.0
316.664398	280.0
316.699219	184.0
316.73288	196.0
316.797119	232.0
316.854889	232.0
316.961212	340.0
317.00238	220.0
317.100098	864.0
317.166687	468.0
317.224487	340.0
317.260437	316.0
317.288116	360.0
317.329834	356.0
317.374481	260.0
317.401093	504.0
317.438171	204.0
317.468536	272.0
317.565094	168.0
317.634674	148.0
317.790619	132.0
317.858093	228.0
317.983246	144.0
318.062408	164.0
318.123108	236.0
318.217682	96.0
318.677368	104.0
318.945648	96.0
319.82608	108.0
319.872345	100.0
320.369995	96.0
320.399109	112.0
323.088379	368.0
324.100128	136.0
326.692963	100.0
327.080841	164.0
327.253601	112.0
327.532684	100.0
328.398163	100.0
328.514313	168.0
331.680054	112.0
344.015015	120.0
345.769226	164.0
348.846161	108.0
355.12735	184.0
366.686737	144.0
385.728455	144.0
394.820221	112.0
411.82135	148.0
432.892944	152.0
453.413177	160.0
453.749207	132.0
459.734711	132.0
466.104614	140.0
473.784515	160.0
541.616821	112.0
544.807739	108.0
582.042114	116.0
605.997131	132.0
613.697388	140.0
630.261047	96.0
634.28009	96.0
637.742798	160.0
641.790833	108.0
662.424438	140.0
693.426941	144.0
699.235596	144.0
706.813538	152.0
719.772766	160.0
740.73175	172.0
840.746094	144.0
863.661682	188.0
923.937195	180.0
926.699402	244.0
926.766052	100.0
933.795654	152.0
954.687012	152.0
996.603821	152.0
1029.901489	164.0
1033.481445	200.0
1043.467651	172.0
1058.727905	188.0
1068.685425	216.0
1084.147949	144.0
1099.457642	156.0
1135.865967	148.0
1191.920288	184.0
1212.962891	172.0
1225.165405	144.0
1227.925659	160.0
1287.808228	212.0
1294.974854	184.0
1307.668457	172.0
1332.849121	164.0
1340.096069	160.0
1342.537842	200.0
1353.725952	140.0
1353.806519	168.0
1361.550659	228.0
1370.56189	168.0
1382.753784	192.0
1383.412598	180.0
1392.599731	204.0
1393.253418	176.0
1410.878296	144.0
1413.091919	204.0
1417.704468	276.0
1422.654663	152.0
1423.127686	144.0
1424.885132	156.0
1442.285034	160.0
1450.300659	224.0
1461.053101	160.0
1462.171631	196.0
1466.253784	172.0
1466.901611	200.0
1467.442871	164.0
1468.075684	144.0
1472.051514	176.0
1478.80188	148.0
1482.493286	172.0
1482.876465	160.0
1484.578369	168.0
1487.509277	140.0
1492.372192	176.0
1493.58728	204.0
1493.879517	172.0
1497.250854	148.0
1518.620483	204.0
1536.488159	156.0
1552.805176	184.0
1554.736694	164.0
1561.090454	200.0
1564.103638	180.0
1569.247803	224.0
1570.343872	184.0
1572.29541	156.0
1576.256836	144.0
1586.165405	228.0
1586.545898	256.0
1591.496582	256.0
1595.755249	156.0
1596.932129	172.0
1599.175781	168.0
1605.023071	176.0
1605.549316	232.0
1605.884277	192.0
1611.008789	224.0
1613.486206	156.0
1614.469604	260.0
1614.629639	176.0
1619.383545	144.0
1622.276123	160.0
1629.111084	132.0
1629.209595	220.0
1634.009155	204.0
1636.359253	180.0
1637.132202	144.0
1639.170166	200.0
1640.653198	164.0
1640.878906	176.0
1642.879028	160.0
1647.779297	180.0
1653.148193	200.0
1659.571655	176.0
1663.425049	144.0
1674.393433	212.0
1680.498901	216.0
1681.616821	168.0
1683.829346	192.0
1703.782959	140.0
1704.859253	208.0
1705.344238	220.0
1705.763428	144.0
1707.629883	208.0
1708.337158	172.0
1711.868042	168.0
1720.492432	224.0
1727.483521	148.0
1733.146362	216.0
1736.122192	164.0
1738.90979	160.0
1744.549683	180.0
1755.565063	164.0
1756.440674	188.0
1758.710327	144.0
1761.42395	192.0
1771.72998	192.0
1774.898071	220.0
1779.56311	180.0
1784.705078	164.0
1785.344238	236.0
1787.270508	180.0
1789.450439	140.0
1792.162476	164.0
1793.384399	140.0
1794.04187	144.0
1799.192749	144.0
1802.557861	188.0
1810.450317	164.0
1820.533325	148.0
1824.53772	180.0
1824.592529	196.0
1824.866821	164.0
1828.499023	212.0
1829.997192	196.0
1835.143311	184.0
1841.799683	180.0
1843.422974	252.0
1844.260498	172.0
1847.689453	220.0
1848.724854	164.0
1856.932007	176.0
1857.909912	196.0
1860.304077	140.0
1861.070068	204.0
1861.600586	152.0
1863.593384	152.0
1865.91394	164.0
1867.762695	152.0
1869.535034	164.0
1870.318237	224.0
1872.298462	164.0
1873.263184	164.0
1875.391479	168.0
1876.572388	144.0
1877.012207	144.0
1879.763794	184.0
1885.212769	148.0
1885.869507	184.0
1889.311035	212.0
1899.003906	160.0
1907.599976	180.0
1908.738892	228.0
1911.322266	140.0
1912.810425	148.0
1912.949707	148.0
1917.200073	140.0
1920.050781	180.0
1922.345093	184.0
1922.61084	140.0
1922.97522	180.0
1924.536011	140.0
1924.710693	148.0
1925.077393	164.0
1925.295776	172.0
1926.5448	184.0
1929.280029	140.0
1930.801392	156.0
1934.528809	176.0
1934.625122	208.0
1936.096069	176.0
1937.331055	212.0
1937.401123	196.0
1939.074707	172.0
1940.031982	232.0
1940.284302	172.0
1942.44165	164.0
1943.643555	184.0
1945.50415	200.0
1949.228149	168.0
1952.023438	168.0
1956.316895	216.0
1956.968384	220.0
1957.390991	152.0
1962.05188	180.0
1964.671021	148.0
1965.032837	252.0
1969.888184	172.0
1970.400635	148.0
1974.546265	188.0
1977.058716	172.0
1980.839233	180.0
1981.485962	180.0
1990.381958	168.0
1990.781616	184.0
1995.846558	176.0
1998.336914	160.0
2000.695312	220.0
2003.375854	148.0
END IONS

BEGIN IONS
PEPMASS=311.154
CHARGE=1
MSLEVEL=2
SOURCE_INSTRUMENT=LC-ESI-qTof
FILENAME=Plate5_21_40_GH7_01_16509.mzXML
SEQ=*..*
IONMODE=Positive
ORGANISM=GNPS-SELLECKCHEM-FDA-PART2
NAME=Bifonazole [M+H]
PI=Dorrestein
DATACOLLECTOR=Garg_Neha
SMILES=C1=CC=CC(=C1)C(C2=CC=C(C=C2)C3=CC=CC=C3)N4C=NC=C4
INCHI=N/A
INCHIAUX=N/A
PUBMED=N/A
SUBMITUSER=negarg
LIBRARYQUALITY=1
SPECTRUMID=CCMSLIB00000078316
USI=mzspec:GNPS:GNPS-SELLECKCHEM-FDA-PART2:accession:CCMSLIB00000078316
SCANS=1264
44.887192	360.0
44.896526	192.0
44.911198	304.0
44.927204	152.0
44.941879	148.0
45.000744	116.0
45.015945	164.0
45.037998	144.0
45.07407	152.0
45.094116	176.0
45.122185	160.0
45.139267	248.0
45.155617	192.0
45.194946	120.0
45.22464	156.0
45.272049	144.0
45.2841	188.0
45.30331	164.0
45.324291	304.0
45.336349	200.0
45.350086	180.0
45.403381	140.0
45.497307	220.0
45.569828	160.0
45.695663	128.0
45.739273	156.0
45.773525	136.0
45.897285	180.0
45.918472	152.0
46.05479	204.0
46.065598	160.0
46.115593	144.0
46.125053	176.0
46.145885	196.0
46.183197	188.0
46.205811	156.0
46.254105	168.0
46.378174	144.0
46.444485	172.0
46.470387	172.0
46.526352	152.0
46.53825	176.0
46.738499	184.0
46.85923	224.0
46.898518	212.0
46.946468	148.0
46.969654	152.0
46.980568	144.0
47.078804	152.0
47.10479	276.0
47.178825	204.0
47.192894	188.0
47.291481	152.0
47.359207	156.0
47.396198	176.0
47.435604	212.0
47.480419	264.0
47.544296	160.0
47.559391	228.0
47.604698	160.0
47.634079	112.0
47.713245	160.0
47.781666	208.0
47.79726	140.0
47.899021	224.0
47.972057	180.0
47.998249	196.0
48.072739	172.0
48.094822	144.0
48.12455	232.0
48.245388	212.0
48.264866	140.0
48.296524	180.0
48.358814	192.0
48.382244	212.0
48.402683	192.0
48.436356	268.0
48.45575	156.0
48.55278	368.0
48.573582	132.0
48.722118	168.0
48.731846	180.0
48.818165	120.0
48.83054	212.0
48.854721	344.0
48.880623	188.0
48.893147	160.0
48.926552	176.0
48.968647	156.0
49.046352	208.0
49.090965	164.0
49.103771	176.0
49.125835	168.0
49.16267	140.0
49.19212	240.0
49.222137	164.0
49.238895	152.0
49.274609	148.0
49.358311	220.0
49.42202	176.0
49.475201	172.0
49.541542	236.0
49.555031	152.0
49.5938	152.0
49.627148	272.0
49.665779	140.0
49.706154	164.0
49.75172	212.0
49.817379	160.0
49.872822	100.0
49.966396	176.0
50.026909	184.0
50.048027	188.0
50.164005	124.0
50.211422	160.0
50.397827	140.0
50.498196	144.0
50.547569	160.0
50.74255	184.0
50.821102	148.0
50.870853	176.0
50.880791	212.0
50.957481	140.0
50.97311	208.0
51.024281	212.0
51.058685	164.0
51.088997	168.0
51.123848	228.0
51.168713	316.0
51.210243	228.0
51.25943	208.0
51.293335	232.0
51.340385	184.0
51.354496	192.0
51.57275	212.0
51.584534	192.0
51.620129	152.0
51.645695	140.0
51.663582	188.0
51.710403	160.0
51.789608	164.0
51.804909	188.0
51.855061	164.0
51.874653	236.0
51.907192	328.0
51.925312	168.0
51.947914	132.0
51.984131	148.0
52.004223	172.0
52.051598	152.0
52.104973	172.0
52.170845	184.0
52.212368	164.0
52.271526	148.0
52.302277	156.0
52.395351	148.0
52.421284	156.0
52.530327	164.0
52.601566	156.0
52.622948	172.0
52.633991	148.0
52.663654	156.0
52.673225	200.0
52.704105	160.0
52.749298	148.0
52.862282	156.0
52.90115	180.0
52.962154	160.0
53.005074	216.0
53.053028	188.0
53.13847	180.0
53.151527	152.0
53.196518	216.0
53.25769	156.0
53.308716	168.0
53.321434	200.0
53.388306	152.0
53.495289	212.0
53.521248	168.0
53.662056	164.0
53.805637	116.0
53.818882	136.0
53.841537	180.0
53.892666	176.0
53.904354	196.0
53.945164	156.0
54.003448	148.0
54.07336	120.0
54.090096	160.0
54.105045	132.0
54.123768	168.0
54.153053	160.0
54.188427	192.0
54.330421	208.0
54.376884	192.0
54.525009	176.0
54.541878	140.0
54.622799	128.0
54.64629	140.0
54.659531	180.0
54.696323	192.0
54.728714	160.0
54.747856	172.0
54.77142	148.0
54.78405	160.0
54.818565	196.0
54.828396	360.0
54.932091	156.0
55.007507	112.0
55.020634	144.0
55.036877	208.0
55.069363	184.0
55.12413	172.0
55.14838	200.0
55.163933	180.0
55.200184	100.0
55.236389	236.0
55.298534	148.0
55.399982	140.0
55.428852	216.0
55.46233	204.0
55.501484	172.0
55.573002	148.0
55.609779	144.0
55.662945	128.0
55.678223	200.0
55.695896	168.0
55.715054	156.0
55.763802	148.0
55.890644	156.0
55.969536	140.0
55.988892	160.0
56.000809	168.0
56.090206	172.0
56.227329	180.0
56.260265	152.0
56.290127	172.0
56.322983	172.0
56.339413	180.0
56.363319	168.0
56.385769	208.0
56.409649	164.0
56.457153	244.0
56.491894	164.0
56.553246	200.0
56.571976	156.0
56.602272	192.0
56.635597	176.0
56.664059	168.0
56.680538	148.0
56.697342	188.0
56.712009	140.0
56.734497	160.0
56.774979	164.0
56.789265	160.0
56.854488	192.0
56.970104	232.0
56.991138	172.0
57.003159	168.0
57.08371	136.0
57.099369	216.0
57.109898	156.0
57.120426	180.0
57.144714	248.0
57.179108	204.0
57.198498	172.0
57.221256	172.0
57.266079	120.0
57.402908	264.0
57.480503	204.0
57.567299	104.0
57.66021	168.0
57.71463	212.0
57.752254	236.0
57.769073	224.0
57.789371	308.0
57.810394	168.0
57.832626	308.0
58.074562	136.0
58.147491	156.0
58.182793	152.0
58.235939	144.0
58.289108	204.0
58.313015	148.0
58.36359	148.0
58.575176	144.0
58.594936	148.0
58.619316	164.0
58.676182	168.0
58.72459	144.0
58.807552	148.0
58.942692	248.0
58.962681	216.0
58.981022	148.0
59.047577	196.0
59.072193	260.0
59.091125	144.0
59.113354	144.0
59.147926	200.0
59.164585	188.0
59.178909	180.0
59.2672	176.0
59.327122	164.0
59.394444	172.0
59.458885	248.0
59.486511	164.0
59.535645	236.0
59.607845	200.0
59.681755	144.0
59.717682	184.0
59.730839	228.0
59.760914	196.0
59.781609	148.0
59.793427	112.0
59.83387	172.0
59.838974	164.0
59.845032	216.0
59.867016	108.0
59.894001	140.0
59.904781	192.0
59.940216	144.0
59.978748	272.0
60.041191	212.0
60.07235	256.0
60.096729	176.0
60.12064	140.0
60.173958	200.0
60.290512	148.0
60.302879	156.0
60.352345	144.0
60.402802	160.0
60.469913	160.0
60.494678	160.0
60.514175	108.0
60.54887	220.0
60.63718	160.0
60.700741	176.0
60.719349	208.0
60.745716	172.0
60.864876	108.0
60.883781	168.0
60.922169	120.0
60.986397	188.0
61.003494	160.0
61.057915	140.0
61.089024	228.0
61.118584	168.0
61.137257	140.0
61.185684	140.0
61.222878	156.0
61.238453	208.0
61.255585	148.0
61.300072	188.0
61.314793	228.0
61.350643	140.0
61.397419	172.0
61.470737	140.0
61.505074	152.0
61.537975	156.0
61.689396	144.0
61.709145	184.0
61.767582	140.0
61.809826	204.0
61.850513	176.0
61.869301	200.0
61.916271	180.0
61.997738	220.0
62.037128	212.0
62.051483	152.0
62.105476	276.0
62.163963	164.0
62.19849	172.0
62.225178	196.0
62.268837	344.0
62.301331	188.0
62.3367	152.0
62.365894	180.0
62.487644	168.0
62.522877	144.0
62.713745	176.0
62.738052	176.0
62.957371	140.0
63.082191	152.0
63.147057	168.0
63.178654	156.0
63.193996	172.0
63.213413	128.0
63.317947	160.0
63.329033	212.0
63.375916	148.0
63.387188	276.0
63.45739	180.0
63.501793	236.0
63.516266	128.0
63.547794	420.0
63.622387	228.0
63.712456	140.0
63.741508	164.0
63.824162	180.0
63.847595	196.0
63.87064	160.0
63.895733	180.0
63.983265	156.0
64.02626	164.0
64.077858	204.0
64.22229	144.0
64.248192	176.0
64.282104	196.0
64.318031	204.0
64.376701	112.0
64.396263	140.0
64.42981	180.0
64.504303	188.0
64.548088	140.0
64.579216	96.0
64.610786	216.0
64.644325	148.0
64.682472	160.0
64.705734	248.0
64.732101	164.0
64.749718	144.0
64.78022	156.0
64.897148	184.0
64.990173	180.0
65.112694	196.0
65.145905	140.0
65.169998	168.0
65.186073	148.0
65.260353	176.0
65.31308	180.0
65.441818	192.0
65.485588	156.0
65.50946	140.0
65.53363	188.0
65.565018	152.0
65.577728	164.0
65.670647	148.0
65.736794	208.0
65.764114	156.0
65.924118	176.0
65.946739	192.0
66.000694	172.0
66.02076	200.0
66.051842	140.0
66.080322	152.0
66.212166	148.0
66.255814	184.0
66.354668	164.0
66.376617	184.0
66.464584	156.0
66.495071	176.0
66.506996	204.0
66.531509	156.0
66.572098	204.0
66.592773	148.0
66.665443	164.0
66.679535	152.0
66.700768	164.0
66.866348	180.0
66.916809	200.0
66.936348	216.0
66.981674	164.0
67.100914	172.0
67.112328	152.0
67.130264	256.0
67.153999	116.0
67.213455	160.0
67.272209	196.0
67.297913	148.0
67.32283	192.0
67.378365	192.0
67.389801	176.0
67.411301	124.0
67.537315	168.0
67.551643	212.0
67.581154	212.0
67.599754	200.0
67.711952	132.0
67.786964	132.0
67.811989	140.0
67.84861	260.0
67.935516	192.0
67.9645	212.0
67.97599	160.0
68.000191	428.0
68.113899	232.0
68.163002	136.0
68.186188	196.0
68.223274	100.0
68.281548	184.0
68.306221	152.0
68.36216	144.0
68.559769	176.0
68.789032	200.0
68.800339	184.0
68.805496	156.0
68.840187	212.0
68.878204	160.0
68.89637	188.0
68.917564	160.0
68.981979	176.0
69.003212	332.0
69.025291	148.0
69.041824	160.0
69.056068	236.0
69.080933	116.0
69.19693	152.0
69.212273	176.0
69.28846	184.0
69.305153	160.0
69.360733	156.0
69.397095	168.0
69.410034	184.0
69.648865	200.0
69.671684	144.0
69.702019	140.0
69.752853	128.0
69.77639	360.0
69.842072	152.0
69.904503	148.0
69.997681	300.0
70.019638	128.0
70.099289	164.0
70.22599	156.0
70.251328	192.0
70.266029	140.0
70.30941	184.0
70.339455	140.0
70.362709	172.0
70.487122	128.0
70.509819	192.0
70.527267	184.0
70.61528	156.0
70.653839	216.0
70.668678	188.0
70.692101	232.0
70.713142	168.0
70.733948	160.0
70.75444	180.0
70.879265	140.0
70.911491	140.0
70.945015	156.0
70.956291	244.0
70.975189	148.0
71.023109	140.0
71.04731	168.0
71.144646	172.0
71.164017	192.0
71.176544	160.0
71.19133	204.0
71.210136	224.0
71.230286	208.0
71.25045	216.0
71.368095	212.0
71.438728	160.0
71.463966	156.0
71.475746	152.0
71.557457	180.0
71.610558	152.0
71.674782	176.0
71.691292	208.0
71.728889	152.0
71.773575	152.0
71.880157	228.0
71.918396	204.0
71.954422	180.0
71.967926	208.0
72.166153	200.0
72.238617	164.0
72.322044	280.0
72.423172	164.0
72.636406	164.0
72.690697	260.0
72.767479	152.0
72.856384	192.0
72.882576	160.0
72.921661	160.0
72.97551	224.0
73.011765	240.0
73.023666	140.0
73.037277	212.0
73.059387	156.0
73.118942	132.0
73.157715	196.0
73.204063	212.0
73.224503	228.0
73.260109	128.0
73.33429	164.0
73.351608	240.0
73.410255	292.0
73.43956	240.0
73.466545	296.0
73.485306	164.0
73.504082	140.0
73.525108	148.0
73.547302	208.0
73.559196	148.0
73.596252	180.0
73.656609	152.0
73.694641	172.0
73.827095	168.0
73.842331	180.0
73.874298	168.0
73.897064	140.0
73.929581	180.0
73.951828	240.0
74.155365	100.0
74.222496	164.0
74.303108	164.0
74.363167	216.0
74.380333	172.0
74.412949	176.0
74.428406	144.0
74.451538	212.0
74.467903	188.0
74.531593	216.0
74.551819	156.0
74.602791	152.0
74.612862	340.0
74.629433	144.0
74.644051	184.0
74.689629	176.0
74.767296	168.0
74.81427	248.0
74.838089	164.0
74.877235	152.0
74.908234	188.0
74.975121	132.0
75.018127	184.0
75.186752	164.0
75.206871	208.0
75.226692	184.0
75.246246	184.0
75.273872	140.0
75.299774	148.0
75.349022	180.0
75.474312	140.0
75.491447	132.0
75.574478	356.0
75.631737	176.0
75.647316	192.0
75.659439	152.0
75.742554	164.0
75.75988	188.0
75.830925	164.0
75.843819	172.0
75.896461	228.0
76.043282	216.0
76.162315	160.0
76.204315	384.0
76.250931	176.0
76.31855	248.0
76.356979	172.0
76.475288	228.0
76.551506	164.0
76.605881	180.0
76.777817	252.0
76.80809	152.0
76.823792	236.0
76.846466	168.0
76.859512	208.0
76.87439	152.0
76.918022	200.0
76.993095	228.0
77.007065	192.0
77.036034	140.0
77.077759	120.0
77.10141	184.0
77.117958	120.0
77.134621	196.0
77.168648	160.0
77.198708	288.0
77.303101	264.0
77.327019	140.0
77.391792	148.0
77.439072	144.0
77.460007	164.0
77.477608	188.0
77.51265	172.0
77.579247	172.0
77.59066	140.0
77.615517	252.0
77.717804	200.0
77.745354	200.0
77.843506	176.0
77.898331	140.0
77.944305	172.0
77.978348	152.0
77.993515	188.0
78.034721	164.0
78.193954	156.0
78.290436	152.0
78.327835	184.0
78.37188	180.0
78.407967	184.0
78.422287	304.0
78.458244	200.0
78.474106	264.0
78.516426	184.0
78.588753	188.0
78.65593	180.0
78.692261	124.0
78.721138	140.0
78.809784	172.0
78.825172	188.0
78.864243	204.0
78.897827	256.0
78.969215	280.0
78.991547	184.0
79.052986	208.0
79.122734	156.0
79.181824	144.0
79.289009	180.0
79.327843	176.0
79.345726	160.0
79.39949	212.0
79.4823	148.0
79.522339	220.0
79.542641	188.0
79.558235	204.0
79.613663	156.0
79.665741	148.0
79.709145	208.0
79.745125	184.0
79.782921	184.0
79.828682	164.0
79.850021	180.0
79.878487	148.0
79.935417	168.0
79.955719	196.0
79.976349	180.0
80.119812	120.0
80.156219	180.0
80.177605	184.0
80.190079	212.0
80.22493	152.0
80.266739	264.0
80.352348	168.0
80.370193	148.0
80.441582	216.0
80.460548	128.0
80.520233	152.0
80.591599	192.0
80.607674	228.0
80.621971	216.0
80.638054	144.0
80.65593	228.0
80.732811	140.0
80.767403	200.0
80.809723	220.0
80.954102	164.0
80.976204	204.0
81.012024	144.0
81.05323	148.0
81.069359	152.0
81.085487	184.0
81.174438	156.0
81.202728	164.0
81.251007	208.0
81.279335	128.0
81.330345	300.0
81.391571	200.0
81.444328	160.0
81.474869	176.0
81.49054	232.0
81.550385	156.0
81.622955	112.0
81.661812	176.0
81.737366	156.0
81.764359	156.0
81.805458	96.0
81.896988	144.0
81.954247	160.0
82.004898	200.0
82.061577	148.0
82.121773	200.0
82.155357	152.0
82.167992	180.0
82.260025	160.0
82.290665	152.0
82.313301	116.0
82.328636	272.0
82.359795	176.0
82.377403	216.0
82.39547	176.0
82.432243	132.0
82.44606	148.0
82.476784	148.0
82.54187	188.0
82.725266	108.0
82.849792	184.0
82.989105	184.0
83.005424	156.0
83.021088	132.0
83.080025	152.0
83.10498	180.0
83.123352	212.0
83.16507	196.0
83.203194	156.0
83.314484	128.0
83.372116	148.0
83.393921	164.0
83.45755	204.0
83.492233	112.0
83.519753	176.0
83.552917	184.0
83.679047	108.0
83.821594	168.0
83.894493	128.0
83.909081	152.0
84.076897	148.0
84.151733	280.0
84.188255	160.0
84.223991	120.0
84.270454	140.0
84.29969	172.0
84.312477	172.0
84.362236	180.0
84.41851	204.0
84.436043	212.0
84.560509	168.0
84.591805	132.0
84.663727	216.0
84.684738	212.0
84.704025	176.0
84.76815	168.0
84.824959	168.0
84.874466	240.0
84.893463	200.0
84.946602	184.0
85.037636	156.0
85.112198	128.0
85.155235	180.0
85.201157	188.0
85.239342	148.0
85.253235	176.0
85.302574	148.0
85.363739	324.0
85.445671	144.0
85.468475	172.0
85.502716	168.0
85.566628	172.0
85.642639	156.0
85.682442	132.0
85.71817	220.0
85.790054	168.0
85.817703	156.0
85.860115	148.0
85.906227	144.0
85.935745	144.0
85.954147	144.0
85.994064	280.0
86.07972	152.0
86.107094	180.0
86.127739	184.0
86.175774	152.0
86.290474	272.0
86.313934	144.0
86.410019	120.0
86.492706	176.0
86.533875	116.0
86.569756	140.0
86.593834	184.0
86.668999	188.0
86.719826	172.0
86.810966	148.0
86.849472	164.0
86.904335	156.0
86.927528	144.0
87.037048	124.0
87.098335	156.0
87.14106	160.0
87.167076	168.0
87.295334	140.0
87.370308	156.0
87.414391	204.0
87.442451	152.0
87.5149	160.0
87.572464	176.0
87.634109	164.0
87.684647	132.0
87.720619	208.0
87.775764	152.0
87.951134	152.0
88.112564	116.0
88.180862	152.0
88.271416	348.0
88.340996	188.0
88.515182	192.0
88.5588	148.0
88.662331	216.0
88.676842	196.0
88.736824	164.0
88.786377	188.0
88.824028	148.0
88.924286	120.0
88.966942	140.0
88.989365	140.0
89.022034	320.0
89.038033	208.0
89.164444	184.0
89.238121	164.0
89.275726	184.0
89.392891	156.0
89.426529	148.0
89.494003	196.0
89.524803	112.0
89.623962	144.0
89.732399	136.0
89.786453	204.0
89.816803	152.0
89.841789	224.0
89.923805	316.0
89.959671	296.0
90.004982	268.0
90.037666	284.0
90.064682	196.0
90.094223	176.0
90.322479	204.0
90.368431	124.0
90.4935	236.0
90.50605	356.0
90.589378	140.0
90.757393	228.0
90.853264	192.0
90.870872	216.0
90.890831	200.0
90.906525	132.0
90.928787	208.0
90.943321	212.0
91.021805	280.0
91.054749	5500.0
91.09967	408.0
91.142456	108.0
91.162369	140.0
91.209946	136.0
91.22509	168.0
91.251709	144.0
91.303406	120.0
91.335381	204.0
91.348465	324.0
91.412666	184.0
91.441933	184.0
91.53653	156.0
91.575638	140.0
91.659637	100.0
91.776405	200.0
91.891647	144.0
91.963326	156.0
91.985336	160.0
92.017342	200.0
92.057091	592.0
92.093788	484.0
92.155121	176.0
92.184975	196.0
92.205933	200.0
92.220093	224.0
92.247627	348.0
92.269798	164.0
92.285088	180.0
92.367325	232.0
92.411072	152.0
92.495529	152.0
92.529755	168.0
92.598923	160.0
92.617035	180.0
92.632233	124.0
92.724297	172.0
92.782028	100.0
92.843491	124.0
92.864441	148.0
92.924797	160.0
92.953575	148.0
93.016907	160.0
93.055305	212.0
93.076424	224.0
93.164078	144.0
93.178314	160.0
93.201279	152.0
93.218575	168.0
93.293533	192.0
93.358902	160.0
93.41468	140.0
93.430069	192.0
93.455078	148.0
93.48642	216.0
93.531914	108.0
93.568924	188.0
93.657219	376.0
93.765114	184.0
93.781952	180.0
93.828461	176.0
93.907784	176.0
93.924316	168.0
93.968979	116.0
94.025238	260.0
94.133575	176.0
94.197311	164.0
94.259132	188.0
94.327705	100.0
94.355774	240.0
94.390579	208.0
94.454964	220.0
94.471245	220.0
94.504143	112.0
94.565376	384.0
94.744774	200.0
94.787399	144.0
94.81308	172.0
94.863968	132.0
94.880432	208.0
94.905258	104.0
94.940788	156.0
94.95993	180.0
95.068573	152.0
95.109985	228.0
95.136505	196.0
95.218056	144.0
95.309021	160.0
95.333565	132.0
95.398758	160.0
95.441536	172.0
95.536835	156.0
95.579063	176.0
95.631035	120.0
95.647751	240.0
95.712135	172.0
95.768875	136.0
95.955544	176.0
96.012642	152.0
96.041351	140.0
96.058907	152.0
96.103775	200.0
96.138901	160.0
96.174026	160.0
96.240402	164.0
96.269302	160.0
96.439659	168.0
96.516861	212.0
96.547188	156.0
96.564796	148.0
96.594131	164.0
96.646736	144.0
96.738342	196.0
96.768394	168.0
96.803551	160.0
96.82901	172.0
96.846634	176.0
96.921082	180.0
96.973991	236.0
97.002037	104.0
97.070053	188.0
97.109276	204.0
97.183815	160.0
97.210922	268.0
97.340843	172.0
97.376198	404.0
97.409584	160.0
97.515541	212.0
97.638542	164.0
97.65728	240.0
97.743813	152.0
97.759552	148.0
97.841644	116.0
97.867928	148.0
97.897354	156.0
97.924927	160.0
97.982048	176.0
98.104233	184.0
98.153702	176.0
98.179817	192.0
98.26667	196.0
98.392258	164.0
98.453468	196.0
98.516678	160.0
98.532478	164.0
98.577927	140.0
98.603615	184.0
98.635239	208.0
98.66291	160.0
98.67675	144.0
98.703758	340.0
98.767929	152.0
98.874557	152.0
98.894432	196.0
98.924042	160.0
98.962433	112.0
98.997299	296.0
99.035545	204.0
99.059654	132.0
99.07653	180.0
99.147858	184.0
99.165695	268.0
99.182449	168.0
99.278702	184.0
99.342171	188.0
99.516716	156.0
99.52179	152.0
99.56646	244.0
99.606735	144.0
99.656464	180.0
99.699562	144.0
99.82679	180.0
99.907516	148.0
99.966072	252.0
99.992592	164.0
100.071533	192.0
100.09742	164.0
100.122124	236.0
100.153183	152.0
100.226662	192.0
100.260765	192.0
100.274719	160.0
100.334518	148.0
100.378944	184.0
100.46756	200.0
100.506966	268.0
100.530998	156.0
100.593857	208.0
100.61924	196.0
100.65168	112.0
100.777382	116.0
100.834404	180.0
100.895508	176.0
100.98349	188.0
100.99749	152.0
101.039497	196.0
101.065987	100.0
101.131546	220.0
101.145561	156.0
101.226143	192.0
101.309761	168.0
101.359734	212.0
101.426178	208.0
101.449097	136.0
101.478973	288.0
101.632545	220.0
101.660637	176.0
101.743896	184.0
101.773048	180.0
101.812485	244.0
101.831284	148.0
101.863518	172.0
101.898201	192.0
101.965897	148.0
101.985992	188.0
102.00441	148.0
102.03022	216.0
102.074394	272.0
102.136078	180.0
102.181053	216.0
102.228996	152.0
102.256073	100.0
102.291733	148.0
102.307838	164.0
102.358177	164.0
102.394691	180.0
102.571289	164.0
102.685791	204.0
102.713776	216.0
102.740112	212.0
102.81485	200.0
102.894501	164.0
102.911049	164.0
102.951691	272.0
102.993446	212.0
103.041191	208.0
103.079262	168.0
103.100525	168.0
103.145973	136.0
103.171272	192.0
103.203621	212.0
103.270355	164.0
103.36544	108.0
103.402756	164.0
103.515228	200.0
103.54966	144.0
103.592194	152.0
103.610428	220.0
103.625565	180.0
103.672104	100.0
103.71344	196.0
103.754318	176.0
103.830872	184.0
103.865845	160.0
103.917931	172.0
104.156113	188.0
104.176422	152.0
104.218361	200.0
104.283234	184.0
104.373749	124.0
104.564041	152.0
104.599388	148.0
104.69046	148.0
104.719521	164.0
104.812431	200.0
104.862991	144.0
104.915138	152.0
104.941299	168.0
104.957954	160.0
105.004173	144.0
105.053276	112.0
105.074211	156.0
105.129784	168.0
105.144859	240.0
105.197899	184.0
105.284805	160.0
105.310226	232.0
105.352951	172.0
105.390671	224.0
105.466286	176.0
105.500336	176.0
105.571335	168.0
105.69838	188.0
105.758606	148.0
105.78334	152.0
105.904144	200.0
105.975845	204.0
106.070114	144.0
106.111588	156.0
106.170578	148.0
106.291611	240.0
106.318176	148.0
106.40834	124.0
106.498962	156.0
106.601418	124.0
106.634567	144.0
106.749344	120.0
106.800728	132.0
106.865234	116.0
106.895744	156.0
106.957481	152.0
107.001938	296.0
107.101616	172.0
107.142815	152.0
107.24791	180.0
107.327187	228.0
107.386047	160.0
107.424095	236.0
107.448067	184.0
107.488037	320.0
107.569687	188.0
107.65934	152.0
107.710106	188.0
107.735924	104.0
107.777077	124.0
107.795883	160.0
107.90229	160.0
107.949844	140.0
108.144379	136.0
108.245392	136.0
108.390755	164.0
108.405266	192.0
108.444641	192.0
108.488167	272.0
108.528831	332.0
108.608437	192.0
108.661629	156.0
108.701797	176.0
108.718399	224.0
108.737076	148.0
108.753677	180.0
108.770287	260.0
108.847275	144.0
108.870956	164.0
108.897095	164.0
108.984192	156.0
109.235748	180.0
109.272995	172.0
109.333534	200.0
109.36776	256.0
109.456352	148.0
109.509857	224.0
109.545509	188.0
109.569511	268.0
109.613533	140.0
109.678436	160.0
109.731384	240.0
109.775177	208.0
109.826477	260.0
109.894066	148.0
109.935799	204.0
109.955383	240.0
110.006874	148.0
110.052696	200.0
110.073578	152.0
110.098633	212.0
110.148758	196.0
110.226059	160.0
110.307571	204.0
110.378128	176.0
110.420479	160.0
110.475739	124.0
110.492905	180.0
110.543907	152.0
110.577698	192.0
110.608948	204.0
110.642281	172.0
110.693527	128.0
110.719925	144.0
110.736511	164.0
110.757233	152.0
110.798561	128.0
110.829765	116.0
111.024574	160.0
111.140656	172.0
111.182907	156.0
111.212204	172.0
111.248611	268.0
111.296692	124.0
111.312202	124.0
111.404793	180.0
111.638939	180.0
111.720772	128.0
111.883568	136.0
111.927223	188.0
111.963562	140.0
112.026207	160.0
112.068718	204.0
112.121506	140.0
112.14534	172.0
112.214615	132.0
112.243294	160.0
112.312889	260.0
112.388206	188.0
112.463829	176.0
112.481689	192.0
112.509789	220.0
112.523911	400.0
112.564034	204.0
112.580414	164.0
112.615448	184.0
112.64006	184.0
112.699211	140.0
112.844658	152.0
112.88311	252.0
112.942329	220.0
112.963478	156.0
113.047096	100.0
113.065529	148.0
113.177231	176.0
113.252579	104.0
113.382858	164.0
113.429344	140.0
113.475983	144.0
113.497353	200.0
113.52475	160.0
113.542709	168.0
113.66687	204.0
113.680588	176.0
113.732666	372.0
113.868546	260.0
113.896156	144.0
113.990723	172.0
114.034264	140.0
114.063217	236.0
114.144814	152.0
114.168205	148.0
114.242645	200.0
114.27243	176.0
114.321373	176.0
114.398392	172.0
114.464218	184.0
114.525757	240.0
114.611504	192.0
114.652031	208.0
114.717529	192.0
114.785751	176.0
114.835716	196.0
114.905197	160.0
114.937202	188.0
114.999863	216.0
115.054016	17556.0
115.099792	172.0
115.120224	168.0
115.225685	140.0
115.24939	228.0
115.345116	144.0
115.420837	132.0
115.474899	164.0
115.503349	156.0
115.569565	252.0
115.575645	156.0
115.651443	168.0
115.672394	152.0
115.695938	228.0
115.768936	172.0
115.954132	140.0
116.005997	168.0
116.057793	2000.0
116.162994	164.0
116.253624	168.0
116.463615	156.0
116.494278	160.0
116.59008	204.0
116.657005	176.0
116.696297	184.0
116.775322	164.0
116.956001	236.0
117.027359	244.0
117.055031	156.0
117.085075	172.0
117.130409	176.0
117.199409	140.0
117.4589	172.0
117.474541	124.0
117.558296	172.0
117.680702	164.0
117.80513	168.0
117.842316	140.0
117.88974	152.0
117.918327	228.0
117.97847	212.0
117.993607	212.0
118.01545	152.0
118.064758	128.0
118.168785	188.0
118.186249	168.0
118.264008	164.0
118.339767	168.0
118.424995	204.0
118.502213	172.0
118.534714	148.0
118.653923	140.0
118.694641	164.0
118.746742	144.0
118.87101	136.0
118.959808	152.0
118.974998	184.0
119.119698	212.0
119.159599	204.0
119.200882	304.0
119.269257	136.0
119.30304	156.0
119.318253	188.0
119.337822	176.0
119.417603	292.0
119.455872	236.0
119.491447	264.0
119.554237	104.0
119.592339	176.0
119.646904	248.0
119.669724	136.0
119.753464	168.0
119.791931	140.0
119.86158	240.0
119.958939	216.0
119.991356	164.0
120.040504	208.0
120.085457	160.0
120.101166	144.0
120.128372	212.0
120.29203	156.0
120.414703	156.0
120.446365	148.0
120.52906	152.0
120.545387	172.0
120.707146	208.0
120.726288	164.0
120.763412	148.0
120.837608	204.0
120.88446	132.0
120.901131	200.0
120.966179	152.0
121.008163	204.0
121.086388	148.0
121.267578	156.0
121.304581	136.0
121.348686	152.0
121.5149	204.0
121.575844	228.0
121.620178	132.0
121.65802	144.0
121.683929	140.0
121.721695	156.0
121.772202	244.0
121.789772	256.0
121.868431	184.0
121.927353	228.0
121.945213	188.0
122.09967	188.0
122.119469	180.0
122.370377	180.0
122.502151	168.0
122.519272	108.0
122.564156	152.0
122.626038	176.0
122.684059	176.0
122.749367	156.0
122.906532	304.0
122.938972	180.0
123.099297	192.0
123.258575	220.0
123.402885	172.0
123.480278	180.0
123.685112	180.0
123.704422	272.0
123.776382	184.0
123.885567	160.0
123.917175	164.0
123.937057	164.0
124.033356	196.0
124.055916	144.0
124.079727	224.0
124.104752	164.0
124.368744	156.0
124.41758	208.0
124.604744	144.0
124.748581	168.0
124.801941	188.0
124.826401	328.0
124.84697	112.0
124.927612	236.0
125.080315	156.0
125.142944	176.0
125.269302	156.0
125.290619	252.0
125.32653	220.0
125.358719	148.0
125.421501	200.0
125.536751	388.0
125.572433	192.0
125.654587	164.0
125.688438	192.0
125.705162	316.0
125.741997	156.0
125.769089	172.0
125.880295	156.0
125.934006	160.0
125.959869	200.0
126.01889	180.0
126.044609	108.0
126.065819	144.0
126.090401	144.0
126.138245	168.0
126.153435	152.0
126.237946	200.0
126.320702	144.0
126.340836	144.0
126.438271	176.0
126.506432	156.0
126.609009	196.0
126.688164	236.0
126.730621	232.0
126.777443	156.0
126.882797	172.0
126.90947	116.0
126.92672	244.0
127.045357	156.0
127.136253	152.0
127.235428	152.0
127.334343	208.0
127.376495	200.0
127.41468	164.0
127.448387	192.0
127.479843	164.0
127.519684	176.0
127.576492	356.0
127.609352	188.0
127.645844	184.0
127.72715	160.0
127.767647	156.0
127.878792	304.0
127.913918	184.0
127.996216	316.0
128.024399	164.0
128.060593	232.0
128.082794	164.0
128.171051	184.0
128.219452	196.0
128.371277	168.0
128.397842	184.0
128.434433	148.0
128.45932	108.0
128.53595	152.0
128.613266	152.0
128.675522	196.0
128.862534	256.0
128.946945	168.0
128.974686	224.0
129.019974	184.0
129.116165	180.0
129.14592	160.0
129.184372	180.0
129.264999	132.0
129.435593	184.0
129.455215	132.0
129.51033	156.0
129.587341	188.0
129.607742	148.0
129.647247	176.0
129.672867	184.0
129.88205	156.0
129.902466	156.0
129.936096	184.0
129.970322	176.0
130.01033	180.0
130.069519	148.0
130.101013	348.0
130.115845	152.0
130.192993	144.0
130.226654	160.0
130.308838	176.0
130.490646	196.0
130.515961	228.0
130.569626	176.0
130.603424	168.0
130.624832	176.0
130.745361	160.0
130.79776	176.0
130.874008	172.0
131.061935	184.0
131.088043	280.0
131.158554	304.0
131.179367	200.0
131.194122	396.0
131.254013	240.0
131.296738	256.0
131.317261	144.0
131.385696	160.0
131.482437	176.0
131.558228	172.0
131.593521	196.0
131.671387	196.0
131.829086	208.0
131.906357	156.0
131.933777	188.0
131.997803	148.0
132.082428	172.0
132.173935	188.0
132.241302	220.0
132.278763	144.0
132.302094	184.0
132.322708	184.0
132.425049	196.0
132.488693	316.0
132.533813	160.0
132.591095	140.0
132.736023	124.0
132.806229	164.0
132.853989	188.0
132.953064	212.0
132.969116	140.0
132.99675	132.0
133.070129	188.0
133.169983	160.0
133.210205	164.0
133.325089	168.0
133.551346	188.0
133.612518	204.0
133.720383	392.0
133.757492	168.0
133.791534	172.0
133.812744	164.0
133.840363	184.0
133.924683	144.0
134.042053	172.0
134.114517	144.0
134.137695	136.0
134.225418	148.0
134.346191	280.0
134.428284	156.0
134.468552	144.0
134.513565	208.0
134.55571	140.0
134.672882	172.0
134.704849	176.0
134.788391	208.0
134.813812	140.0
134.840576	176.0
134.873901	172.0
134.894226	116.0
135.00499	188.0
135.049622	368.0
135.066528	124.0
135.088943	288.0
135.15239	104.0
135.172241	152.0
135.255554	164.0
135.29953	184.0
135.318054	152.0
135.437302	196.0
135.473221	184.0
135.63063	120.0
135.672516	168.0
135.88356	300.0
135.933426	136.0
135.95549	288.0
136.053635	284.0
136.192307	196.0
136.218796	164.0
136.270233	316.0
136.359589	212.0
136.433975	160.0
136.454254	144.0
136.476791	260.0
136.506058	160.0
136.544479	208.0
136.604492	148.0
136.631393	176.0
136.706436	112.0
136.778366	180.0
136.802048	128.0
136.84256	184.0
136.912354	140.0
137.046234	172.0
137.172455	156.0
137.19989	160.0
137.237198	164.0
137.373413	352.0
137.420364	224.0
137.470734	168.0
137.505463	204.0
137.538132	172.0
137.575485	168.0
137.629181	184.0
137.694092	136.0
137.735382	176.0
137.77478	212.0
137.956009	144.0
137.993042	236.0
138.066162	156.0
138.089539	232.0
138.11377	192.0
138.159714	156.0
138.185455	180.0
138.269699	148.0
138.321182	276.0
138.370346	148.0
138.492111	140.0
138.643921	252.0
138.676651	116.0
138.808502	188.0
138.916382	216.0
139.007889	176.0
139.026657	152.0
139.051392	200.0
139.107239	156.0
139.13414	152.0
139.323029	108.0
139.375275	156.0
139.414139	224.0
139.441132	124.0
139.525726	204.0
139.632416	232.0
139.852341	148.0
139.878952	128.0
139.896805	212.0
139.995193	160.0
140.03772	172.0
140.072922	144.0
140.091766	256.0
140.196091	172.0
140.261429	212.0
140.352615	100.0
140.381668	272.0
140.40506	200.0
140.459503	148.0
140.556229	180.0
140.579422	188.0
140.622818	200.0
140.64827	184.0
140.697067	196.0
140.728531	260.0
140.761337	152.0
140.819809	164.0
140.863144	248.0
140.9039	304.0
140.942642	196.0
141.06929	9488.0
141.125473	200.0
141.194214	108.0
141.217514	168.0
141.301804	144.0
141.35643	156.0
141.414078	144.0
141.435593	128.0
141.466141	140.0
141.521866	148.0
141.556122	192.0
141.578262	216.0
141.601105	160.0
141.620056	148.0
141.662689	168.0
141.716415	236.0
141.823822	184.0
141.842789	172.0
141.887833	176.0
142.004013	180.0
142.071472	1444.0
142.129745	168.0
142.207382	112.0
142.234177	224.0
142.283508	160.0
142.303009	144.0
142.332428	156.0
142.355713	260.0
142.405121	148.0
142.452637	172.0
142.494736	172.0
142.611832	148.0
142.674728	192.0
142.73175	152.0
142.772186	168.0
142.813934	140.0
142.886902	208.0
143.020813	156.0
143.071045	172.0
143.138138	176.0
143.178177	188.0
143.224396	144.0
143.240494	212.0
143.299561	168.0
143.344559	176.0
143.395462	140.0
143.423477	140.0
143.623169	132.0
143.688004	116.0
143.715836	208.0
143.75499	140.0
143.785843	160.0
143.813705	112.0
143.838516	176.0
143.986542	164.0
144.00795	100.0
144.089264	156.0
144.125107	156.0
144.402405	176.0
144.546997	144.0
144.580933	192.0
144.649796	152.0
144.70488	228.0
144.727859	176.0
144.747009	216.0
144.786011	140.0
144.81691	232.0
144.86702	188.0
145.024902	140.0
145.147171	168.0
145.175949	148.0
145.293228	140.0
145.37085	164.0
145.42305	208.0
145.521484	168.0
145.565155	212.0
145.630035	156.0
145.65303	184.0
145.675171	212.0
145.749649	188.0
145.805679	140.0
145.939102	200.0
146.026108	164.0
146.088654	144.0
146.155243	268.0
146.34816	164.0
146.39653	144.0
146.440079	152.0
146.479736	172.0
146.606308	360.0
146.640503	108.0
146.682999	108.0
146.712875	192.0
146.755066	140.0
146.799164	212.0
146.984909	156.0
147.023514	168.0
147.182831	168.0
147.235962	144.0
147.33017	224.0
147.366409	216.0
147.465485	156.0
147.495132	148.0
147.569427	140.0
147.637131	228.0
147.718765	180.0
147.876648	208.0
147.918091	160.0
148.02916	156.0
148.226883	164.0
148.271408	188.0
148.298065	144.0
148.324738	176.0
148.365158	108.0
148.458084	192.0
148.475052	148.0
148.492035	144.0
148.53569	148.0
148.562378	160.0
148.703369	184.0
148.73793	208.0
148.865768	312.0
148.982346	212.0
149.007202	160.0
149.04422	188.0
149.08931	176.0
149.111862	212.0
149.179184	200.0
149.198288	180.0
149.288605	140.0
149.310486	316.0
149.356781	112.0
149.400482	140.0
149.425797	152.0
149.519714	140.0
149.551346	160.0
149.597595	208.0
149.667786	200.0
149.69986	148.0
149.77536	180.0
149.826508	156.0
149.851883	188.0
149.885422	180.0
149.975098	164.0
150.056122	208.0
150.077225	336.0
150.119003	152.0
150.248276	204.0
150.340988	320.0
150.423981	240.0
150.475235	172.0
150.54335	224.0
150.631531	152.0
150.687729	172.0
150.710861	144.0
150.805023	164.0
150.927521	148.0
151.00795	152.0
151.048462	356.0
151.130264	192.0
151.154724	176.0
151.306488	152.0
151.357895	188.0
151.42157	188.0
151.475449	148.0
151.492599	188.0
151.54895	228.0
151.658249	176.0
151.682373	244.0
151.737366	132.0
151.77565	156.0
151.840652	144.0
151.882355	176.0
151.906876	164.0
152.018143	208.0
152.06163	1140.0
152.107147	156.0
152.19046	116.0
152.278473	164.0
152.353668	180.0
152.383377	164.0
152.430191	160.0
152.454407	460.0
152.560089	128.0
152.637131	156.0
152.73909	136.0
152.783875	148.0
152.815857	168.0
152.857056	232.0
152.965988	204.0
152.990707	188.0
153.06311	140.0
153.274185	168.0
153.332977	152.0
153.38179	228.0
153.443909	172.0
153.513107	236.0
153.54747	220.0
153.570663	148.0
153.742355	308.0
153.7621	212.0
153.803818	164.0
153.841049	212.0
153.863312	188.0
153.887039	184.0
153.986496	176.0
154.056381	156.0
154.080643	208.0
154.160248	184.0
154.194305	140.0
154.278687	144.0
154.312958	148.0
154.332489	160.0
154.472	244.0
154.490814	188.0
154.518723	180.0
154.583237	184.0
154.639481	144.0
154.663483	172.0
154.760376	172.0
154.822479	144.0
154.896988	160.0
155.000809	244.0
155.066818	156.0
155.215149	196.0
155.358063	164.0
155.377396	96.0
155.61618	156.0
155.661545	160.0
155.680344	228.0
155.757721	236.0
155.834732	196.0
155.85675	144.0
155.862228	136.0
155.891891	204.0
155.998764	180.0
156.036606	180.0
156.205154	152.0
156.231934	136.0
156.27681	224.0
156.319611	100.0
156.388474	220.0
156.485809	192.0
156.610886	168.0
156.640778	176.0
156.719055	132.0
156.787308	136.0
156.805222	180.0
156.902435	224.0
156.979736	148.0
157.076279	528.0
157.146637	140.0
157.2267	184.0
157.299088	148.0
157.329971	208.0
157.488846	196.0
157.55629	124.0
157.586273	220.0
157.611267	292.0
157.708725	256.0
158.160461	192.0
158.369644	208.0
158.494522	144.0
158.517075	172.0
158.574722	160.0
158.594925	196.0
158.632034	192.0
158.740173	148.0
158.930618	204.0
158.991043	168.0
159.008606	168.0
159.087708	136.0
159.28479	152.0
159.310928	276.0
159.355133	164.0
159.468216	176.0
159.534576	144.0
159.552582	184.0
159.621597	292.0
159.671021	228.0
159.691528	168.0
159.757385	176.0
159.811493	204.0
159.858032	160.0
160.081863	100.0
160.207993	188.0
160.257187	176.0
160.294739	140.0
160.369354	208.0
160.437332	96.0
160.497833	168.0
160.581055	140.0
160.641586	208.0
160.679428	240.0
160.704666	144.0
160.772797	224.0
160.795502	268.0
160.856857	208.0
160.962112	204.0
161.076981	108.0
161.131348	212.0
161.245056	192.0
161.432129	244.0
161.502945	152.0
161.578827	160.0
161.601639	140.0
161.65918	224.0
161.718002	172.0
161.908966	184.0
161.939926	120.0
162.087753	360.0
162.199265	140.0
162.309982	184.0
162.358994	220.0
162.601822	128.0
162.630463	140.0
162.662384	136.0
162.795029	224.0
163.009155	252.0
163.054382	420.0
163.178268	264.0
163.250275	136.0
163.259521	112.0
163.294128	208.0
163.314926	196.0
163.33429	140.0
163.476761	180.0
163.582916	232.0
163.646591	128.0
163.690033	220.0
163.700363	172.0
163.853149	160.0
163.887741	200.0
163.977448	172.0
164.021118	144.0
164.06337	460.0
164.121216	148.0
164.166428	148.0
164.252731	284.0
164.286987	360.0
164.406799	172.0
164.429886	160.0
164.463058	188.0
164.572525	168.0
164.593185	144.0
164.668793	172.0
164.711792	204.0
164.747681	164.0
164.800156	224.0
164.833969	192.0
164.871704	152.0
164.902878	300.0
164.941803	176.0
164.952042	156.0
165.0112	308.0
165.042389	228.0
165.069824	104684.0
165.184906	156.0
165.311661	108.0
165.389923	156.0
165.426727	144.0
165.541946	152.0
165.596542	112.0
165.649506	120.0
165.673157	332.0
165.74942	136.0
165.782745	196.0
165.854507	180.0
165.992767	192.0
166.074127	13524.0
166.113693	160.0
166.144272	228.0
166.266159	224.0
166.307663	124.0
166.389603	128.0
166.461441	272.0
166.66217	200.0
166.77182	344.0
166.808029	168.0
166.865738	180.0
166.968719	140.0
167.021042	204.0
167.077759	1092.0
167.1633	188.0
167.279846	116.0
167.337982	144.0
167.39447	168.0
167.489868	148.0
167.509949	208.0
167.625229	208.0
167.68071	116.0
167.713501	156.0
167.772141	204.0
167.810822	140.0
167.869019	216.0
168.061066	312.0
168.125961	164.0
168.175507	184.0
168.194702	188.0
168.332031	148.0
168.393097	140.0
168.424683	128.0
168.501434	164.0
168.598114	188.0
168.704437	200.0
168.756058	156.0
168.776474	140.0
168.832382	116.0
168.903198	204.0
168.950821	176.0
168.975632	140.0
169.063095	588.0
169.145676	268.0
169.229263	188.0
169.252228	120.0
169.344528	196.0
169.372299	120.0
169.407959	140.0
169.470139	368.0
169.535904	180.0
169.591217	188.0
169.633408	156.0
169.703415	284.0
169.836929	148.0
169.97316	144.0
170.005096	156.0
170.10553	148.0
170.165237	144.0
170.227554	160.0
170.261307	196.0
170.331436	192.0
170.474335	348.0
170.572479	152.0
170.703094	156.0
170.875931	160.0
170.958023	144.0
171.02829	144.0
171.158127	156.0
171.278503	128.0
171.38768	168.0
171.455429	196.0
171.528397	212.0
171.570114	144.0
171.606613	184.0
171.696609	156.0
171.714813	224.0
171.751678	96.0
171.83873	260.0
171.885696	148.0
171.953552	144.0
171.984879	208.0
172.102356	168.0
172.149353	204.0
172.34111	224.0
172.404327	172.0
172.529495	132.0
172.653717	160.0
172.742996	232.0
172.910568	156.0
172.936264	168.0
173.132629	180.0
173.150955	320.0
173.300278	144.0
173.346542	184.0
173.455154	320.0
173.530914	228.0
173.72348	168.0
173.746445	132.0
174.003159	152.0
174.138809	164.0
174.200119	148.0
174.322433	204.0
174.444519	392.0
174.570709	180.0
174.590439	156.0
174.646988	180.0
174.752213	204.0
174.815353	276.0
175.023315	292.0
175.169418	284.0
175.212692	292.0
175.290726	200.0
175.339417	180.0
175.368408	144.0
175.429047	144.0
175.494949	144.0
175.530441	140.0
175.548676	192.0
175.642624	180.0
175.672333	124.0
175.724884	156.0
175.866714	128.0
175.92247	148.0
175.998901	168.0
176.034714	100.0
176.059006	132.0
176.108444	252.0
176.130951	192.0
176.152084	160.0
176.181076	176.0
176.241562	124.0
176.367081	308.0
176.448502	144.0
176.471863	196.0
176.553833	168.0
176.596146	184.0
176.635818	204.0
176.726227	164.0
176.749588	204.0
176.879257	320.0
176.964035	160.0
176.996536	176.0
177.067322	200.0
177.092636	136.0
177.150269	200.0
177.389175	160.0
177.515106	156.0
177.559433	152.0
177.619766	200.0
177.681702	124.0
177.846741	184.0
177.877197	236.0
177.942307	148.0
178.00531	164.0
178.027267	224.0
178.076233	1712.0
178.191956	156.0
178.238571	228.0
178.255493	180.0
178.309814	192.0
178.461411	188.0
178.585373	156.0
178.696091	220.0
178.729034	328.0
178.883392	204.0
178.917999	176.0
178.939301	164.0
178.969925	176.0
179.05629	120.0
179.081039	476.0
179.192307	164.0
179.239044	164.0
179.289948	288.0
179.312302	268.0
179.357605	140.0
179.418335	104.0
179.525497	244.0
179.629517	236.0
179.669296	136.0
179.71756	176.0
179.759048	196.0
179.778931	152.0
179.842987	228.0
179.947357	160.0
179.983505	256.0
180.012253	100.0
180.055054	472.0
180.079529	264.0
180.173416	156.0
180.286331	152.0
180.337097	152.0
180.403015	140.0
180.583084	168.0
180.695724	148.0
180.733658	208.0
180.786407	152.0
180.841003	228.0
180.898148	96.0
181.322021	176.0
181.340775	320.0
181.370697	244.0
181.490906	188.0
181.665222	172.0
181.734406	224.0
181.7686	160.0
181.792175	152.0
181.847687	140.0
181.879089	172.0
181.914795	164.0
181.992615	160.0
182.077332	184.0
182.121552	144.0
182.172577	152.0
182.253189	148.0
182.369324	188.0
182.474838	136.0
182.533005	192.0
182.575577	228.0
182.7146	304.0
182.815186	172.0
182.856003	260.0
182.91568	248.0
182.944366	148.0
182.971298	192.0
183.007858	276.0
183.052063	192.0
183.079163	1024.0
183.201233	208.0
183.458908	136.0
183.48317	160.0
183.55867	156.0
183.582932	148.0
183.671936	200.0
183.835953	240.0
183.915131	156.0
183.995758	168.0
184.079086	116.0
184.136169	148.0
184.190201	148.0
184.218445	184.0
184.382019	244.0
184.550369	316.0
184.832947	192.0
184.898575	220.0
185.009995	224.0
185.082657	148.0
185.208389	272.0
185.287003	116.0
185.356232	160.0
185.394165	280.0
185.44519	212.0
185.543243	212.0
185.658371	304.0
185.743912	228.0
185.861938	136.0
185.951141	160.0
186.002899	244.0
186.077713	160.0
186.129303	172.0
186.190536	152.0
186.221222	160.0
186.289536	156.0
186.35202	388.0
186.423813	164.0
186.474304	372.0
186.550415	172.0
186.583038	156.0
186.61087	236.0
186.697235	192.0
186.724426	232.0
186.748901	180.0
186.844116	188.0
186.895813	156.0
186.957764	172.0
187.020996	164.0
187.086319	152.0
187.129883	216.0
187.176392	148.0
187.197952	144.0
187.418594	412.0
187.483994	140.0
187.528198	164.0
187.710159	336.0
187.799454	164.0
187.834778	200.0
187.953018	144.0
187.996674	200.0
188.103638	148.0
188.138794	116.0
188.312805	308.0
188.395309	148.0
188.456421	228.0
188.494507	144.0
188.578384	208.0
188.60791	240.0
188.780701	272.0
188.958206	164.0
188.991318	160.0
189.062469	176.0
189.112213	156.0
189.229431	160.0
189.271011	176.0
189.308502	164.0
189.601974	188.0
189.623337	140.0
189.721741	184.0
189.744507	220.0
189.782883	200.0
189.826462	148.0
189.87825	160.0
190.031235	164.0
190.0737	180.0
190.117538	172.0
190.207092	140.0
190.295959	144.0
190.563614	240.0
190.653046	168.0
190.749252	188.0
190.874344	208.0
191.021484	152.0
191.085434	136.0
191.165131	132.0
191.214081	168.0
191.341614	132.0
191.382751	132.0
191.415878	144.0
191.522446	152.0
191.613083	164.0
191.693649	200.0
191.762253	232.0
191.802597	184.0
191.941025	140.0
191.981995	184.0
192.033737	144.0
192.087509	200.0
192.21994	220.0
192.24881	148.0
192.381958	160.0
192.436127	228.0
192.462982	172.0
192.548462	148.0
192.705902	168.0
192.839783	168.0
192.866196	152.0
192.892166	120.0
192.956619	112.0
192.978912	288.0
193.034622	136.0
193.075623	1300.0
193.116409	176.0
193.149719	140.0
193.200775	172.0
193.245041	180.0
193.311462	148.0
193.362091	200.0
193.566116	192.0
193.64505	176.0
193.807632	168.0
193.839172	228.0
193.937225	180.0
194.00943	288.0
194.034378	144.0
194.075897	368.0
194.251633	128.0
194.272308	188.0
194.336685	140.0
194.361664	164.0
194.525162	140.0
194.608688	152.0
194.732468	236.0
194.772537	188.0
194.855881	280.0
194.936783	196.0
194.966446	212.0
195.021164	108.0
195.104523	176.0
195.168259	152.0
195.325684	148.0
195.347931	172.0
195.443604	128.0
195.478699	180.0
195.648483	140.0
195.670761	144.0
195.915833	160.0
195.935333	208.0
196.051163	184.0
196.308014	116.0
196.403641	164.0
196.48175	216.0
196.523605	180.0
196.598938	192.0
196.622696	236.0
196.677094	176.0
196.707794	160.0
196.780243	168.0
196.92807	176.0
197.020554	192.0
197.056686	140.0
197.141907	176.0
197.196594	164.0
197.266769	152.0
197.604858	192.0
197.708405	144.0
197.738785	168.0
197.823151	180.0
197.929535	184.0
197.99675	196.0
198.021957	176.0
198.117188	184.0
198.167618	144.0
198.276901	272.0
198.302124	164.0
198.582504	156.0
198.663849	144.0
198.863068	148.0
198.890244	200.0
198.962524	232.0
199.135849	252.0
199.156677	252.0
199.192154	180.0
199.276901	140.0
199.300659	392.0
199.340485	156.0
199.373596	220.0
199.450104	144.0
199.518906	200.0
199.631073	312.0
199.700455	196.0
199.73616	180.0
199.772842	220.0
199.812866	144.0
199.909485	200.0
199.953171	176.0
199.988113	408.0
200.055527	228.0
200.092575	212.0
200.159058	148.0
200.202789	204.0
200.344162	200.0
200.369995	220.0
200.472382	156.0
200.516815	212.0
200.626755	144.0
200.741684	188.0
200.804398	152.0
200.86644	148.0
200.907257	132.0
201.03009	296.0
201.064301	164.0
201.137329	196.0
201.272842	280.0
201.323669	208.0
201.348755	184.0
201.411224	208.0
201.457352	268.0
201.566605	188.0
201.628296	148.0
201.722046	172.0
201.787079	148.0
201.92923	176.0
202.006592	196.0
202.036636	164.0
202.077225	8396.0
202.174133	148.0
202.230042	196.0
202.369904	120.0
202.419647	176.0
202.469009	148.0
202.554642	312.0
202.623276	96.0
202.750519	180.0
202.79068	224.0
202.854355	180.0
202.874191	140.0
202.972534	204.0
203.010696	188.0
203.081436	1756.0
203.274994	204.0
203.421692	260.0
203.476151	132.0
203.635162	184.0
203.728378	184.0
203.977402	152.0
204.089264	324.0
204.188858	176.0
204.214905	228.0
204.358215	252.0
204.456284	156.0
204.497955	168.0
204.711624	224.0
204.773712	192.0
204.890076	296.0
205.045792	164.0
205.191177	204.0
205.233932	184.0
205.297501	220.0
205.404297	152.0
205.530579	164.0
205.556259	224.0
205.611572	200.0
205.722824	100.0
205.875977	148.0
205.932129	180.0
205.955948	156.0
206.013077	216.0
206.080124	248.0
206.108307	252.0
206.248627	148.0
206.364441	148.0
206.404633	240.0
206.481842	208.0
206.595535	176.0
206.669922	228.0
206.71582	192.0
206.742203	456.0
206.791977	220.0
206.816589	168.0
206.918411	128.0
207.056717	156.0
207.081787	192.0
207.123596	200.0
207.177399	176.0
207.290665	224.0
207.449631	192.0
207.492874	144.0
207.524872	248.0
207.572449	148.0
207.673294	176.0
207.693375	164.0
207.763275	192.0
207.833939	192.0
207.916718	180.0
207.947174	140.0
207.971695	152.0
207.993744	288.0
208.013458	368.0
208.05423	180.0
208.075027	152.0
208.097992	284.0
208.181274	144.0
208.240967	168.0
208.299026	144.0
208.361115	196.0
208.399582	216.0
208.636398	184.0
208.700134	220.0
208.884094	104.0
209.055176	256.0
209.15213	344.0
209.17894	284.0
209.230759	172.0
209.324997	300.0
209.519547	144.0
209.56517	176.0
209.612427	160.0
209.634003	160.0
209.700287	224.0
209.752167	152.0
209.783875	140.0
210.184753	152.0
210.320404	152.0
210.385498	160.0
210.467636	204.0
210.49939	172.0
210.643951	156.0
210.773315	164.0
211.393997	236.0
211.459564	148.0
211.6259	188.0
211.683823	120.0
211.789246	224.0
211.840347	156.0
212.081894	164.0
212.107971	176.0
212.367035	160.0
212.458862	156.0
212.488892	136.0
212.537186	180.0
212.56041	176.0
212.586517	188.0
212.670685	164.0
212.720551	384.0
212.749054	184.0
212.788574	124.0
212.878311	140.0
212.926178	180.0
212.972656	244.0
212.995117	180.0
213.07225	112.0
213.34938	168.0
213.629196	152.0
213.67482	248.0
213.716736	176.0
213.783783	140.0
213.809982	176.0
213.856552	148.0
213.894394	152.0
213.996277	160.0
214.048691	208.0
214.071625	128.0
214.188477	264.0
214.222214	208.0
214.259155	184.0
214.296265	228.0
214.342896	148.0
214.386841	144.0
214.465515	156.0
214.520676	156.0
214.598221	176.0
214.626556	240.0
214.683777	292.0
214.819916	208.0
214.911469	184.0
214.952805	156.0
214.993103	176.0
215.021713	144.0
215.043411	188.0
215.084778	33652.0
215.134247	264.0
215.208023	152.0
215.286438	148.0
215.314407	148.0
215.371872	108.0
215.435394	132.0
215.488892	116.0
215.5186	120.0
215.570389	140.0
215.683731	100.0
215.781189	144.0
215.812897	180.0
215.917801	160.0
215.976181	140.0
216.010147	180.0
216.055634	392.0
216.087509	5528.0
216.19635	184.0
216.283905	140.0
216.364273	196.0
216.403	128.0
216.430176	148.0
216.451874	180.0
216.483154	140.0
216.686188	172.0
216.818817	168.0
216.883362	208.0
216.914764	236.0
216.948349	280.0
217.001144	276.0
217.061356	152.0
217.095932	1300.0
217.181595	168.0
217.246124	312.0
217.327332	200.0
217.423645	96.0
217.457397	160.0
217.494354	168.0
217.519028	192.0
217.558899	148.0
217.595367	120.0
217.622757	120.0
217.697296	252.0
217.723862	208.0
217.765671	140.0
217.80954	184.0
218.002655	300.0
218.060287	160.0
218.104156	248.0
218.136993	188.0
218.218216	156.0
218.300552	144.0
218.407272	148.0
218.436783	224.0
218.535446	196.0
219.042221	184.0
219.08728	148.0
219.190292	260.0
219.214569	200.0
219.384048	172.0
219.445953	176.0
219.485657	172.0
219.608154	160.0
219.737946	140.0
219.838257	176.0
219.95813	196.0
219.99588	268.0
220.017899	172.0
220.056061	148.0
220.127563	148.0
220.248642	148.0
220.408173	208.0
220.43367	248.0
220.479095	160.0
220.522095	128.0
220.598083	204.0
220.629837	284.0
220.749847	132.0
220.838852	228.0
220.95993	176.0
220.998352	228.0
221.020248	168.0
221.052795	156.0
221.114471	152.0
221.153412	148.0
221.181198	156.0
221.304626	148.0
221.443573	172.0
221.499847	172.0
221.555756	188.0
221.582794	180.0
221.654587	156.0
221.705276	248.0
221.825546	188.0
221.955566	140.0
221.996201	176.0
222.056625	160.0
222.146057	148.0
222.260651	160.0
222.395309	152.0
222.496231	164.0
222.689255	156.0
222.793808	144.0
222.928406	192.0
222.954819	216.0
223.016083	236.0
223.049515	156.0
223.307449	156.0
223.407761	188.0
223.420044	136.0
223.427689	152.0
223.495071	112.0
223.545563	220.0
223.627823	248.0
223.697235	152.0
223.744873	216.0
223.828827	148.0
223.981384	264.0
224.096649	140.0
224.138992	208.0
224.228241	116.0
224.284286	148.0
224.325775	176.0
224.358566	180.0
224.396393	140.0
224.540466	172.0
224.609055	156.0
224.699005	192.0
224.728455	172.0
224.812469	160.0
224.847748	144.0
224.912552	180.0
225.017212	176.0
225.068558	128.0
225.088104	256.0
225.113449	140.0
225.214981	180.0
225.311523	188.0
225.341949	208.0
225.378189	184.0
225.531708	160.0
225.555542	156.0
225.651825	176.0
225.759354	412.0
225.857224	184.0
226.077637	1348.0
226.144852	180.0
226.211273	148.0
226.327469	172.0
226.351425	176.0
226.525131	144.0
226.604828	192.0
226.642563	160.0
226.714844	176.0
226.803802	244.0
226.823776	204.0
226.887543	128.0
227.023849	396.0
227.083801	6156.0
227.171036	216.0
227.204391	176.0
227.24527	148.0
227.277634	172.0
227.384766	160.0
227.406677	160.0
227.436981	120.0
227.519394	116.0
227.590088	164.0
227.653015	220.0
227.72493	144.0
227.768097	180.0
227.796646	164.0
227.852112	152.0
227.953522	152.0
227.989594	172.0
228.035599	172.0
228.093323	115600.0
228.169479	164.0
228.303467	352.0
228.434296	172.0
228.470673	132.0
228.538345	164.0
228.583618	168.0
228.650085	156.0
228.691971	148.0
228.717148	168.0
228.766815	280.0
228.860916	136.0
229.096252	16548.0
229.208862	176.0
229.310822	96.0
229.36673	116.0
229.415894	300.0
229.457321	160.0
229.540207	224.0
229.624466	196.0
229.657806	252.0
229.681351	140.0
229.704727	132.0
229.839767	236.0
229.892548	96.0
229.97403	212.0
230.021881	164.0
230.097855	1420.0
230.26387	224.0
230.300125	196.0
230.391327	208.0
230.438629	160.0
230.503235	216.0
230.544785	144.0
230.567169	124.0
230.76445	196.0
230.799393	144.0
230.840118	176.0
230.877182	124.0
230.940094	136.0
230.983505	132.0
231.038834	168.0
231.138428	108.0
231.190109	128.0
231.276733	152.0
231.393875	132.0
231.429916	200.0
231.706741	228.0
231.818298	168.0
231.876434	156.0
231.903717	424.0
231.999741	292.0
232.065186	176.0
232.148651	212.0
232.182632	168.0
232.231155	156.0
232.310516	124.0
232.340363	164.0
232.364639	152.0
232.434418	180.0
232.564911	196.0
232.598297	160.0
232.702744	148.0
232.801727	196.0
232.962692	364.0
233.104462	248.0
233.135498	96.0
233.382095	156.0
233.445953	172.0
233.540237	160.0
233.588898	216.0
233.637344	156.0
233.728851	204.0
233.753189	152.0
233.77449	140.0
233.811813	224.0
233.94693	128.0
234.103256	200.0
234.136765	176.0
234.337799	180.0
234.423126	156.0
234.48407	148.0
234.612091	200.0
234.760132	216.0
234.834274	176.0
234.930679	256.0
234.971954	148.0
235.036026	168.0
235.066544	168.0
235.508392	192.0
235.588394	200.0
235.633499	184.0
235.771973	168.0
235.992264	152.0
236.017166	176.0
236.067917	212.0
236.141891	196.0
236.200012	168.0
236.237244	192.0
236.276306	140.0
236.340729	328.0
236.428696	156.0
236.463547	120.0
236.576401	192.0
236.62648	176.0
236.748734	180.0
236.842804	172.0
236.872589	188.0
236.919388	176.0
236.999039	200.0
237.078705	140.0
237.106293	172.0
237.415924	96.0
237.44046	312.0
237.603027	256.0
237.643417	152.0
237.673599	144.0
237.731506	220.0
237.860809	152.0
237.941086	144.0
238.075882	148.0
238.13855	192.0
238.26001	160.0
238.314407	136.0
238.414383	100.0
238.493561	140.0
238.558105	188.0
238.771164	124.0
238.831772	144.0
238.868851	300.0
238.936371	144.0
239.004059	144.0
239.050766	308.0
239.084946	1960.0
239.146927	244.0
239.241043	192.0
239.28862	140.0
239.320236	264.0
239.3936	232.0
239.561478	140.0
239.605347	176.0
239.729736	168.0
239.789795	300.0
239.821747	260.0
239.850723	204.0
239.880661	240.0
239.943008	396.0
239.987656	200.0
240.020981	136.0
240.092987	1220.0
240.237549	200.0
240.27652	204.0
240.304291	212.0
240.36908	152.0
240.399933	140.0
240.43721	104.0
240.472137	132.0
240.5289	168.0
240.539764	132.0
240.675156	176.0
240.708267	120.0
240.758041	140.0
240.788925	124.0
240.857697	256.0
240.945007	276.0
241.020508	128.0
241.101074	50816.0
241.207932	336.0
241.301117	196.0
241.331818	132.0
241.492096	116.0
241.535309	148.0
241.591339	320.0
241.663727	176.0
241.69046	440.0
241.793701	264.0
241.825211	244.0
241.890732	156.0
241.914001	236.0
241.97847	252.0
242.024246	332.0
242.107086	25036.0
242.172684	212.0
242.201416	128.0
242.225052	316.0
242.279831	312.0
242.303925	260.0
242.363998	296.0
242.415985	260.0
242.42392	368.0
242.458862	320.0
242.534012	564.0
242.547958	428.0
242.579498	428.0
242.623413	248.0
242.650467	204.0
242.659607	136.0
242.669022	508.0
242.693741	208.0
242.75856	756.0
242.805344	308.0
242.815948	464.0
242.851974	492.0
242.878082	420.0
242.899429	492.0
242.933167	760.0
242.993301	952.0
243.042084	916.0
243.048508	1208.0
243.059937	1588.0
243.118347	421968.0
243.228165	328.0
243.31868	256.0
243.338516	424.0
243.359619	296.0
243.410217	568.0
243.456406	688.0
243.489258	276.0
243.540665	180.0
243.589935	872.0
243.628616	17616.0
243.710571	388.0
243.746643	412.0
243.79747	284.0
243.846039	404.0
243.880859	272.0
243.885025	448.0
243.91951	456.0
243.952362	676.0
243.978821	368.0
244.035904	548.0
244.072906	700.0
244.1203	223576.0
244.210587	124.0
244.236313	188.0
244.322571	352.0
244.34819	384.0
244.406952	240.0
244.430496	148.0
244.468964	260.0
244.50116	224.0
244.53688	192.0
244.590805	124.0
244.631454	524.0
244.665314	164.0
244.706512	152.0
244.758179	216.0
244.857025	332.0
244.929367	212.0
244.994507	228.0
245.122284	15156.0
245.327438	204.0
245.380356	100.0
245.405457	416.0
245.475067	220.0
245.557281	200.0
245.587067	400.0
245.61113	392.0
245.651871	204.0
245.661896	432.0
245.693542	428.0
245.753342	312.0
245.802444	304.0
245.828308	516.0
245.881012	404.0
245.92189	412.0
246.000809	376.0
246.059753	184.0
246.123199	780.0
246.154861	188.0
246.21965	116.0
246.251129	164.0
246.293167	124.0
246.356522	132.0
246.381287	108.0
246.419037	124.0
246.469254	184.0
246.491608	140.0
246.609619	136.0
246.668198	136.0
246.724625	164.0
246.804749	112.0
246.900986	128.0
246.970093	104.0
247.021606	240.0
247.078613	104.0
247.137833	124.0
247.161133	128.0
247.218094	212.0
247.24939	140.0
247.353195	120.0
247.453476	100.0
247.490417	148.0
247.586838	96.0
248.395081	96.0
248.493652	96.0
248.531036	116.0
248.642487	124.0
248.70607	108.0
249.157516	140.0
250.999802	176.0
251.71785	116.0
252.211121	140.0
252.548874	124.0
252.687897	120.0
253.506927	152.0
253.962051	108.0
254.687134	144.0
254.757019	144.0
254.909912	132.0
255.141541	172.0
256.602844	148.0
258.108734	108.0
258.835663	112.0
259.211517	100.0
260.374207	108.0
260.70639	160.0
260.933502	104.0
261.204742	148.0
261.725311	212.0
262.075775	96.0
268.498901	244.0
278.325378	208.0
282.65863	160.0
289.055481	140.0
309.126404	136.0
309.158203	396.0
310.138641	140.0
311.15567	700.0
311.198395	108.0
312.149323	336.0
313.160492	120.0
313.215302	168.0
356.28775	200.0
363.03653	140.0
367.631958	144.0
386.748871	116.0
399.279755	148.0
406.502502	144.0
412.734009	160.0
458.547729	144.0
482.076843	160.0
491.606201	236.0
506.290039	156.0
980.925171	140.0
1022.713989	160.0
1086.874146	212.0
1090.630493	140.0
1169.575684	160.0
1182.256348	160.0
1199.406006	196.0
1202.806519	200.0
1225.065918	200.0
1226.180664	184.0
1241.028198	156.0
1275.230835	176.0
1289.871094	192.0
1294.815186	192.0
1295.352295	160.0
1295.954102	144.0
1342.557617	160.0
1346.996216	140.0
1347.090088	212.0
1355.90686	240.0
1358.641846	164.0
1359.448853	184.0
1365.178833	220.0
1381.131226	168.0
1385.217163	140.0
1387.440308	160.0
1393.407104	172.0
1396.544067	200.0
1397.73877	132.0
1399.453735	204.0
1401.300781	152.0
1418.744019	196.0
1419.508789	224.0
1424.251831	144.0
1426.716553	168.0
1434.500366	152.0
1436.053711	140.0
1442.631592	124.0
1443.71167	160.0
1450.101318	152.0
1462.869507	144.0
1464.194336	208.0
1471.064209	152.0
1473.110718	188.0
1473.401001	160.0
1483.801636	180.0
1497.310059	168.0
1499.09729	156.0
1502.682739	144.0
1504.480835	144.0
1507.122192	152.0
1511.351562	160.0
1511.71521	240.0
1518.501709	176.0
1519.548828	308.0
1521.442505	236.0
1522.141235	164.0
1524.658081	148.0
1536.189331	184.0
1536.42334	180.0
1537.991821	148.0
1539.030029	172.0
1540.328247	176.0
1544.915039	140.0
1552.2146	176.0
1554.878296	136.0
1555.007324	164.0
1555.792236	160.0
1556.106323	168.0
1558.541138	144.0
1559.62561	160.0
1560.435303	228.0
1567.991943	176.0
1568.866821	140.0
1570.104736	188.0
1573.189819	224.0
1576.025146	152.0
1583.286865	144.0
1585.972656	144.0
1587.320312	152.0
1590.79541	176.0
1595.124634	156.0
1603.075439	204.0
1604.81311	188.0
1612.156738	144.0
1618.403931	156.0
1621.367798	172.0
1623.676636	152.0
1625.714355	200.0
1627.865723	140.0
1630.685547	200.0
1632.968872	164.0
1638.321655	204.0
1639.365601	160.0
1644.336792	140.0
1650.063843	148.0
1650.71875	192.0
1651.697388	172.0
1652.554932	184.0
1654.83728	200.0
1656.537964	196.0
1657.920166	160.0
1661.150391	200.0
1664.339844	180.0
1664.7052	164.0
1666.272827	144.0
1667.312866	156.0
1670.101562	160.0
1671.915894	152.0
1674.911987	172.0
1681.08374	140.0
1681.883545	156.0
1684.398438	192.0
1685.492432	148.0
1687.879883	172.0
1688.051636	156.0
1690.235718	152.0
1693.469238	244.0
1694.018066	224.0
1694.837402	140.0
1695.206055	148.0
1695.501099	172.0
1696.419067	140.0
1702.081787	184.0
1703.369385	184.0
1709.44519	180.0
1710.095337	148.0
1711.659424	148.0
1713.331421	200.0
1715.053589	196.0
1716.578735	176.0
1720.283203	204.0
1726.645386	156.0
1727.861328	152.0
1728.556396	160.0
1731.992065	164.0
1734.386719	192.0
1735.464355	212.0
1740.924316	200.0
1741.25647	172.0
1742.136963	164.0
1742.286499	180.0
1742.849976	212.0
1745.004028	144.0
1747.124756	140.0
1747.324463	168.0
1752.311401	148.0
1752.744629	156.0
1753.285522	124.0
1755.211914	192.0
1755.879028	168.0
1756.262695	156.0
1759.650757	156.0
1759.776367	220.0
1761.120361	168.0
1764.044922	160.0
1767.565918	152.0
1768.829712	168.0
1769.377808	248.0
1770.119019	192.0
1770.49585	164.0
1771.425537	160.0
1771.542725	164.0
1771.643311	140.0
1774.207642	240.0
1774.814453	160.0
1775.918213	184.0
1776.295776	144.0
1778.301025	172.0
1779.719727	164.0
1780.248779	220.0
1782.357178	228.0
1784.004395	192.0
1784.492065	172.0
1787.604248	164.0
1789.817993	168.0
1790.239014	164.0
1792.589233	148.0
1793.617432	140.0
1794.047363	192.0
1796.416992	148.0
1798.796631	184.0
1799.944824	180.0
1802.453491	196.0
1803.501465	168.0
1804.044556	172.0
1806.460938	156.0
1808.483276	152.0
1809.719116	184.0
1810.117188	180.0
1811.768677	216.0
1812.336304	148.0
1812.47522	120.0
1813.895752	172.0
1815.404785	140.0
1817.186035	188.0
1818.840942	156.0
1819.800171	144.0
1820.394531	164.0
1821.575073	152.0
1822.229248	144.0
1823.027954	176.0
1825.178467	148.0
1826.462646	196.0
1828.172729	180.0
1828.794067	144.0
1829.023804	144.0
1831.305664	184.0
1832.779419	144.0
1834.859009	180.0
1835.055176	172.0
1835.558228	156.0
1838.023315	148.0
1839.397339	176.0
1841.719849	180.0
1842.296143	196.0
1843.531006	232.0
1845.001221	236.0
1846.069946	160.0
1846.429077	160.0
1847.301514	192.0
1848.060913	256.0
1848.413818	200.0
1848.764648	192.0
1849.791626	148.0
1850.022827	176.0
1850.673462	144.0
1853.088745	276.0
1854.211304	156.0
1855.428467	224.0
1856.680298	176.0
1856.869019	188.0
1858.550293	220.0
1859.511475	164.0
1859.887573	176.0
1861.19397	144.0
1862.679688	172.0
1863.547363	160.0
1864.767578	140.0
1865.145752	168.0
1866.66748	168.0
1867.106079	160.0
1867.897339	212.0
1868.293091	176.0
1869.205078	156.0
1870.805908	208.0
1874.37146	156.0
1875.066162	128.0
1876.052124	172.0
1876.353882	164.0
1879.338013	140.0
1882.549072	140.0
1883.956909	144.0
1884.276489	148.0
1886.895142	192.0
1887.215088	208.0
1889.602173	152.0
1891.523315	168.0
1893.943237	184.0
1894.554077	228.0
1895.68042	208.0
1897.654785	160.0
1898.463135	144.0
1899.286987	196.0
1899.425781	148.0
1900.267334	160.0
1900.782471	160.0
1901.673096	152.0
1902.62793	196.0
1903.174805	164.0
1905.794067	180.0
1906.029419	220.0
1906.656372	188.0
1906.788574	140.0
1909.474976	184.0
1909.822876	208.0
1910.066406	432.0
1910.449219	184.0
1910.710205	216.0
1911.171265	140.0
1912.293823	172.0
1914.000122	176.0
1914.357056	180.0
1914.540039	212.0
1916.212402	164.0
1919.036255	160.0
1920.396606	160.0
1921.277588	176.0
1922.926758	240.0
1923.040161	244.0
1924.035278	140.0
1924.541626	196.0
1924.620239	176.0
1927.572632	140.0
1928.219238	140.0
1928.74707	240.0
1929.976318	144.0
1930.089966	140.0
1930.667114	172.0
1931.603027	212.0
1932.862793	168.0
1933.274048	148.0
1934.569458	216.0
1934.806274	148.0
1939.352051	148.0
1940.710815	160.0
1945.351807	188.0
1946.054077	172.0
1947.072754	192.0
1948.276001	160.0
1948.539673	160.0
1949.479736	144.0
1952.292847	168.0
1952.591797	168.0
1952.688599	228.0
1953.099854	188.0
1954.456787	148.0
1954.826294	216.0
1956.32251	188.0
1956.560181	144.0
1958.435791	140.0
1959.202148	152.0
1959.545776	212.0
1959.930786	172.0
1961.660767	176.0
1962.410156	140.0
1964.588501	172.0
1966.244507	100.0
1966.335571	152.0
1966.647583	156.0
1967.130005	164.0
1969.261353	124.0
1970.830322	140.0
1971.05127	184.0
1973.206787	196.0
1973.623413	188.0
1974.26001	192.0
1974.56958	172.0
1975.878662	196.0
1976.144165	192.0
1976.347656	156.0
1976.69519	180.0
1977.055542	168.0
1977.449219	196.0
1978.850586	160.0
1979.339355	196.0
1980.588013	152.0
1981.119507	160.0
1981.26123	144.0
1981.91687	152.0
1982.732178	264.0
1984.682373	144.0
1985.143433	156.0
1985.533325	116.0
1986.085938	188.0
1989.274048	168.0
1989.721802	160.0
1989.988037	164.0
1990.352173	144.0
1992.075073	172.0
1993.105591	156.0
1994.732056	152.0
1994.803101	168.0
1995.825562	240.0
1996.012207	164.0
1996.287842	152.0
1996.919312	160.0
1996.990479	148.0
1997.72876	196.0
1998.404907	140.0
1999.025146	176.0
1999.602783	168.0
1999.793091	156.0
2000.184692	176.0
2000.326172	144.0
2000.460693	304.0
2001.453857	176.0
END IONS

BEGIN IONS
PEPMASS=262.063
CHARGE=1
MSLEVEL=2
SOURCE_INSTRUMENT=LC-ESI-qTof
FILENAME=Plate5_61_88_GH9_01_16511.mzXML
SEQ=*..*
IONMODE=Positive
ORGANISM=GNPS-SELLECKCHEM-FDA-PART2
NAME=Tolfenamic acid [M+H]
PI=Dorrestein
DATACOLLECTOR=Garg_Neha
SMILES=C1(NC2=CC=CC(=C2C)Cl)=C(C=CC=C1)C(O)=O
INCHI=N/A
INCHIAUX=N/A
PUBMED=N/A
SUBMITUSER=negarg
LIBRARYQUALITY=1
SPECTRUMID=CCMSLIB00000078358
USI=mzspec:GNPS:GNPS-SELLECKCHEM-FDA-PART2:accession:CCMSLIB00000078358
SCANS=2377
45.321503	164.0
45.844219	184.0
45.86174	172.0
46.027676	168.0
46.346893	156.0
46.991371	176.0
47.040501	164.0
47.316647	172.0
47.636177	220.0
48.079525	156.0
48.119556	176.0
48.681725	228.0
49.229	144.0
50.941589	156.0
51.631596	140.0
51.962482	168.0
52.497562	164.0
53.597797	220.0
54.788967	144.0
56.384106	140.0
57.096226	220.0
57.123299	164.0
58.01123	180.0
58.928921	224.0
59.382034	156.0
60.972263	168.0
61.550201	188.0
61.662678	152.0
61.731464	196.0
62.525261	152.0
63.768372	184.0
64.010185	152.0
64.078674	172.0
64.584717	176.0
66.292923	160.0
67.171951	152.0
67.803635	196.0
68.355415	164.0
69.116104	204.0
69.260132	160.0
69.30983	224.0
69.493874	144.0
70.074135	164.0
71.179733	220.0
72.901093	160.0
73.444191	144.0
73.927689	160.0
74.157181	164.0
75.56926	164.0
76.285507	148.0
76.651001	208.0
76.898636	164.0
77.328583	168.0
77.949394	180.0
78.101479	164.0
78.260735	240.0
78.518005	192.0
79.840942	168.0
80.963478	180.0
82.536247	208.0
82.686394	156.0
84.160667	180.0
84.261116	184.0
84.964134	188.0
85.268944	176.0
85.550369	152.0
86.840134	144.0
87.230057	144.0
87.37883	172.0
88.474327	156.0
89.537102	220.0
92.755814	144.0
93.045486	160.0
93.610771	148.0
93.653145	164.0
94.30143	160.0
94.626411	164.0
95.076111	148.0
95.355774	188.0
95.437317	152.0
97.629486	148.0
98.437439	152.0
98.779358	168.0
99.667534	196.0
100.627556	140.0
103.745964	144.0
103.86763	152.0
105.922333	196.0
106.268791	196.0
106.28315	148.0
107.468315	172.0
107.711914	192.0
107.842087	208.0
107.885498	172.0
109.327034	164.0
109.674843	200.0
111.815384	200.0
112.575012	220.0
112.999176	196.0
113.412117	152.0
113.91713	176.0
114.885727	176.0
115.560837	168.0
116.190712	156.0
117.097824	176.0
117.477188	148.0
117.79451	168.0
118.371971	144.0
118.738205	176.0
120.19136	176.0
121.699448	216.0
122.077393	176.0
123.608299	184.0
125.413841	204.0
126.242119	172.0
126.396469	220.0
126.57106	200.0
126.922852	152.0
127.012558	168.0
127.100052	144.0
127.135956	144.0
127.198799	140.0
127.407639	172.0
127.42337	164.0
127.708855	156.0
128.493637	220.0
128.964722	156.0
129.150131	152.0
130.0383	156.0
130.485794	188.0
130.574478	144.0
130.906738	156.0
131.782639	220.0
132.127853	256.0
132.968811	212.0
133.950592	144.0
134.098068	156.0
136.284912	176.0
136.926941	172.0
137.535477	144.0
138.662827	164.0
139.052139	152.0
139.080307	140.0
139.122559	148.0
139.686539	160.0
139.808899	168.0
142.599609	188.0
142.992035	160.0
143.351639	144.0
143.394531	188.0
143.759415	208.0
143.990982	168.0
144.103317	168.0
144.34227	156.0
144.502533	168.0
144.768219	152.0
145.237961	196.0
146.146042	172.0
146.191757	152.0
146.589096	176.0
147.211472	200.0
148.984421	184.0
150.926895	152.0
152.174026	148.0
152.985321	380.0
153.071487	164.0
153.487915	188.0
154.001236	156.0
154.537659	252.0
154.712494	264.0
155.072556	152.0
156.092865	240.0
156.652863	196.0
157.004303	216.0
157.029236	200.0
157.728348	156.0
158.348862	236.0
158.940475	148.0
159.623703	200.0
160.686615	172.0
161.156235	176.0
161.854324	192.0
164.156525	192.0
164.843201	168.0
166.063965	132.0
167.697006	176.0
167.733078	148.0
168.117371	240.0
169.200394	208.0
169.788574	180.0
171.009674	148.0
171.733994	164.0
173.653748	224.0
174.211395	116.0
174.930756	152.0
175.824463	264.0
176.196579	144.0
176.232529	216.0
177.106552	144.0
177.660568	180.0
177.862244	164.0
178.058716	140.0
178.226074	140.0
179.071243	496.0
179.418427	140.0
180.079514	3576.0
180.943893	144.0
181.085526	1768.0
181.63797	144.0
182.011017	196.0
182.059143	180.0
183.062759	476.0
184.074936	224.0
185.811295	208.0
186.001251	148.0
186.085419	160.0
188.135437	192.0
188.40033	144.0
188.826736	180.0
188.990875	176.0
191.45314	148.0
191.962952	140.0
192.178101	220.0
193.953522	192.0
194.058395	488.0
194.847076	152.0
195.094421	140.0
197.285583	180.0
199.340027	196.0
199.798325	172.0
201.033371	444.0
201.600037	156.0
202.638489	176.0
202.777344	176.0
203.024994	228.0
203.441086	152.0
203.895538	208.0
203.980804	212.0
204.751877	220.0
204.814529	160.0
207.067108	96.0
207.254257	176.0
207.712952	140.0
207.936752	140.0
208.025742	140.0
208.074463	3680.0
208.143448	244.0
208.50827	192.0
208.956848	192.0
209.028778	200.0
209.082886	16348.0
209.246231	196.0
209.413986	148.0
209.647903	184.0
209.921768	164.0
210.051392	144.0
210.087219	2596.0
211.063095	176.0
211.093369	500.0
211.675797	204.0
212.020523	156.0
212.240829	152.0
213.007004	156.0
213.169708	160.0
214.039841	560.0
214.931381	184.0
216.025986	164.0
218.53241	148.0
219.351105	172.0
219.92923	144.0
220.112274	180.0
221.688934	192.0
222.023926	180.0
222.647141	184.0
222.68576	156.0
223.936523	188.0
224.548874	152.0
226.596497	248.0
226.70137	176.0
228.148071	156.0
229.02919	4820.0
230.032303	624.0
230.127441	196.0
231.025253	756.0
232.029022	384.0
233.688736	144.0
234.687759	212.0
236.343231	164.0
237.580994	148.0
238.090515	168.0
238.665146	164.0
239.406738	164.0
241.548691	204.0
242.037048	532.0
242.3815	276.0
243.042648	336.0
243.52002	244.0
243.920105	148.0
243.951004	276.0
244.052551	47084.0
244.137177	172.0
244.190414	176.0
244.245895	172.0
244.403427	116.0
244.575943	156.0
244.94458	156.0
245.054886	6700.0
245.770737	188.0
246.049332	9528.0
246.189026	144.0
246.490372	180.0
246.732788	128.0
246.840042	104.0
246.962219	140.0
246.993881	144.0
247.051697	808.0
247.616974	100.0
247.733688	144.0
248.132126	168.0
248.533585	164.0
261.056885	108.0
261.128723	176.0
261.728699	156.0
262.062744	3744.0
262.102356	156.0
262.179688	212.0
263.064819	540.0
263.157074	144.0
263.205505	220.0
264.019836	176.0
264.058411	860.0
264.139496	184.0
265.066284	168.0
265.178833	160.0
443.263702	172.0
879.921997	144.0
944.765259	144.0
1342.437744	172.0
1362.294434	192.0
1709.210693	140.0
1717.564453	188.0
1776.073486	152.0
1789.923218	240.0
1811.154541	156.0
1811.781372	168.0
1839.375977	212.0
1874.048218	184.0
1880.084229	156.0
1888.715332	204.0
1897.678223	148.0
1906.01062	244.0
1914.988281	196.0
1923.463379	204.0
1941.346313	168.0
1941.93396	144.0
1952.956665	164.0
1993.003174	184.0
END IONS

BEGIN IONS
PEPMASS=371.079
CHARGE=1
MSLEVEL=2
SOURCE_INSTRUMENT=LC-ESI-qTof
FILENAME=Plate6_41_60_GD9_01_15776.mzXML
SEQ=*..*
IONMODE=Positive
ORGANISM=GNPS-SELLECKCHEM-FDA-PART2
NAME=Rebamipide [M+H]
PI=Dorrestein
DATACOLLECTOR=Garg_Neha
SMILES=C1(C(NC(CC2=CC(NC3=C2C=CC=C3)=O)C(=O)O)=O)=CC=C(C=C1)Cl
INCHI=N/A
INCHIAUX=N/A
PUBMED=N/A
SUBMITUSER=negarg
LIBRARYQUALITY=1
SPECTRUMID=CCMSLIB00000078401
USI=mzspec:GNPS:GNPS-SELLECKCHEM-FDA-PART2:accession:CCMSLIB00000078401
SCANS=1121
45.068687	184.0
45.209099	196.0
45.760815	208.0
45.856461	172.0
45.871288	188.0
46.460926	184.0
47.606167	180.0
48.03009	172.0
48.052162	160.0
48.70977	164.0
48.844612	144.0
49.523006	164.0
49.96521	200.0
50.17506	204.0
51.596279	148.0
51.627735	192.0
51.812389	232.0
52.273308	144.0
52.30785	192.0
52.747829	144.0
53.005455	220.0
53.167881	164.0
53.471638	188.0
53.611454	204.0
54.143246	160.0
55.127476	152.0
55.310879	156.0
55.570229	184.0
55.998371	228.0
56.305618	212.0
57.72736	140.0
57.75761	176.0
58.452488	140.0
58.531643	144.0
58.626095	192.0
58.680508	132.0
58.966434	156.0
59.931725	208.0
60.127575	188.0
60.22485	160.0
60.76358	140.0
61.099171	196.0
61.668362	188.0
62.56723	208.0
63.410778	140.0
63.442478	184.0
64.565079	164.0
64.640266	180.0
65.036133	148.0
65.741089	160.0
66.226128	228.0
66.363876	224.0
67.886948	160.0
68.016571	148.0
68.051048	220.0
68.580772	152.0
68.9571	172.0
69.583282	148.0
69.722816	152.0
70.117264	168.0
70.696793	148.0
70.731941	144.0
71.171196	148.0
71.795525	144.0
71.967651	168.0
74.353424	148.0
74.393898	256.0
74.56739	152.0
74.964943	240.0
75.021263	160.0
75.251289	152.0
75.301369	176.0
75.801353	148.0
76.323853	156.0
76.497314	240.0
77.202759	196.0
77.302475	160.0
77.775688	184.0
77.916183	160.0
77.963623	140.0
78.058556	172.0
78.264435	164.0
78.595825	152.0
79.226028	120.0
80.04052	184.0
80.350716	132.0
80.752594	168.0
81.419327	184.0
82.654213	208.0
83.425056	172.0
83.454147	160.0
84.024239	160.0
84.23053	160.0
84.301788	260.0
84.429756	164.0
84.457191	220.0
84.574303	160.0
85.094948	160.0
87.000313	172.0
87.03373	148.0
87.537666	172.0
87.875053	156.0
88.155151	200.0
88.463768	148.0
88.83107	160.0
88.868591	180.0
88.911758	188.0
89.375343	156.0
89.792259	180.0
89.848854	208.0
89.867722	156.0
90.622147	224.0
91.469177	144.0
92.783531	164.0
94.209625	180.0
95.016953	164.0
95.179993	188.0
95.440376	192.0
95.687485	204.0
95.888123	172.0
96.026558	188.0
96.58519	172.0
98.466248	192.0
99.412582	180.0
99.951118	160.0
100.876556	156.0
100.978539	188.0
102.011208	152.0
102.353249	148.0
102.472084	180.0
102.974396	144.0
103.053177	184.0
103.19062	176.0
104.035469	168.0
104.126839	208.0
104.555832	144.0
105.253029	204.0
105.868561	196.0
105.915672	168.0
105.985329	184.0
106.12471	228.0
106.210846	224.0
106.582451	168.0
106.880608	204.0
107.903671	144.0
108.290329	192.0
108.956535	180.0
109.012634	200.0
109.818359	140.0
110.488914	340.0
110.53495	160.0
110.99675	484.0
111.016769	244.0
111.36097	164.0
111.783546	208.0
111.831955	140.0
112.565636	204.0
112.994614	156.0
113.015884	164.0
113.104767	216.0
113.664291	188.0
113.795891	216.0
113.875114	236.0
114.354988	152.0
114.565804	164.0
114.644638	172.0
114.994415	188.0
115.053307	888.0
115.438789	148.0
115.517929	192.0
115.937599	188.0
116.058128	340.0
116.353737	244.0
116.456818	236.0
116.508369	188.0
116.990112	360.0
117.147316	168.0
117.186096	140.0
117.833382	156.0
117.874435	148.0
118.707863	240.0
119.291931	212.0
119.66613	164.0
119.825127	148.0
120.025658	156.0
120.897285	140.0
121.313454	140.0
122.671616	268.0
123.036057	216.0
123.106712	144.0
123.243668	172.0
123.464729	148.0
123.511177	152.0
124.169022	164.0
124.215599	144.0
125.037727	148.0
126.04351	172.0
126.611732	140.0
126.761826	204.0
126.973831	184.0
126.999481	172.0
127.05262	124.0
127.599075	188.0
127.716011	180.0
127.992828	212.0
128.060394	152.0
128.175293	156.0
128.31279	180.0
128.619598	160.0
129.013031	292.0
129.190674	196.0
130.067093	176.0
130.604584	152.0
130.634155	140.0
131.028015	152.0
131.050797	324.0
131.069016	152.0
131.436142	192.0
131.965088	112.0
132.302399	156.0
133.013062	144.0
133.958191	140.0
133.981232	172.0
134.347794	168.0
134.532425	144.0
135.846893	180.0
136.07666	140.0
136.276398	176.0
136.413528	140.0
137.669403	232.0
138.017593	160.0
138.188339	156.0
138.322327	96.0
138.748108	232.0
138.909927	192.0
138.993835	38028.0
139.032593	128.0
139.128998	160.0
139.211578	100.0
139.633392	168.0
139.68689	140.0
139.72113	224.0
139.938721	120.0
139.998016	2248.0
140.048203	272.0
140.712662	140.0
140.785858	168.0
140.967636	144.0
140.990463	9876.0
141.051834	188.0
141.205688	156.0
141.24202	172.0
141.843414	132.0
141.994705	568.0
142.063156	1596.0
142.208786	180.0
142.553162	264.0
143.069031	340.0
143.779633	144.0
143.932419	240.0
144.08136	520.0
144.467804	192.0
144.60321	176.0
146.061722	172.0
146.655426	144.0
146.696411	228.0
146.831436	152.0
147.063065	156.0
147.222412	160.0
147.401169	140.0
147.681625	188.0
147.698547	196.0
147.88179	148.0
147.945389	148.0
148.701691	216.0
148.723526	308.0
148.806076	188.0
148.891068	240.0
149.170486	152.0
149.260452	152.0
149.442871	140.0
149.888474	168.0
151.039734	144.0
152.049637	1016.0
152.089615	168.0
152.92041	152.0
153.049393	492.0
153.169098	168.0
153.324326	176.0
154.063828	2000.0
154.215317	172.0
154.984985	156.0
155.06488	288.0
156.020691	2176.0
156.069702	160.0
156.3508	140.0
157.024109	212.0
157.057236	152.0
157.203125	168.0
158.017273	680.0
159.020111	148.0
159.066605	1724.0
159.371689	140.0
160.033203	144.0
160.07579	2120.0
161.077744	312.0
162.863144	200.0
164.357574	140.0
164.952652	164.0
165.441269	148.0
165.917801	160.0
168.235794	140.0
169.073288	152.0
169.215652	144.0
169.345139	176.0
169.539444	148.0
169.878296	176.0
170.059372	18928.0
170.198364	232.0
170.588074	224.0
170.711456	160.0
170.928787	156.0
171.063568	3484.0
171.202133	168.0
171.310608	204.0
172.074783	5972.0
172.108047	324.0
172.201035	172.0
172.792877	180.0
173.043076	140.0
173.076401	1004.0
174.051147	296.0
174.081451	204.0
175.061005	184.0
175.209869	184.0
176.299652	152.0
178.167725	144.0
178.62764	160.0
179.394577	184.0
180.0439	1460.0
180.355576	152.0
181.045868	424.0
181.987106	192.0
182.059601	156.0
184.046967	192.0
184.114487	216.0
185.4375	180.0
185.83342	140.0
186.224335	196.0
186.69725	284.0
186.735321	184.0
187.084808	4268.0
187.792114	148.0
188.070404	564.0
189.073517	332.0
189.095413	172.0
192.559753	140.0
194.62291	152.0
194.800659	172.0
195.793655	144.0
195.930145	160.0
197.07489	300.0
197.18866	160.0
197.767639	152.0
197.949615	192.0
198.018173	108.0
198.054092	11724.0
199.056961	1888.0
199.385986	204.0
200.613235	220.0
201.434433	144.0
201.454208	220.0
202.605637	140.0
202.77565	216.0
203.351425	160.0
203.393997	140.0
203.416702	148.0
203.610855	148.0
205.751144	164.0
206.997803	164.0
207.118088	156.0
207.708588	148.0
209.528336	176.0
210.699692	144.0
210.803711	156.0
210.922211	144.0
212.036575	176.0
212.169907	156.0
212.358398	152.0
212.797241	164.0
212.99118	164.0
213.773285	200.0
214.490509	140.0
214.810318	212.0
215.131546	140.0
215.362228	176.0
215.382675	160.0
215.473145	144.0
215.656982	96.0
215.740051	136.0
215.83371	140.0
215.889862	220.0
215.916901	236.0
216.007721	444.0
216.065643	164472.0
216.126862	180.0
216.170883	108.0
216.246918	176.0
216.275955	172.0
216.334442	156.0
216.445297	108.0
216.547592	600.0
216.627609	176.0
216.690369	112.0
216.721237	172.0
216.759354	96.0
217.034805	248.0
217.067978	21964.0
217.256027	156.0
217.429199	112.0
218.071182	2456.0
218.117645	176.0
218.210709	116.0
218.362946	100.0
218.41983	152.0
218.534775	132.0
218.599899	152.0
218.658707	204.0
218.693909	164.0
218.724106	188.0
218.817596	144.0
219.282242	172.0
221.602036	144.0
222.114914	144.0
222.736053	176.0
224.094894	140.0
225.108109	148.0
228.219513	212.0
230.156998	140.0
232.733826	200.0
238.053329	168.0
240.519501	156.0
242.013443	164.0
242.554901	176.0
244.365479	140.0
246.532669	208.0
246.907822	144.0
251.110184	144.0
252.370224	156.0
253.099945	144.0
253.814117	160.0
254.033875	180.0
255.914444	180.0
256.532532	152.0
257.097107	176.0
257.627136	160.0
258.676056	172.0
258.740082	144.0
261.394592	252.0
262.915649	140.0
263.322449	176.0
264.061249	144.0
264.910675	172.0
265.143982	144.0
265.192596	228.0
265.737427	144.0
267.23526	152.0
268.182953	168.0
268.326385	188.0
270.135651	140.0
270.381073	164.0
270.823059	140.0
274.302917	236.0
274.972504	176.0
279.096954	140.0
281.322571	164.0
281.419403	152.0
283.72464	144.0
286.770233	180.0
287.735016	152.0
290.048981	168.0
294.67395	176.0
296.809814	152.0
298.067932	328.0
298.140381	424.0
298.224854	156.0
299.066956	180.0
299.148041	136.0
300.469513	216.0
302.252411	288.0
304.047516	156.0
304.804565	216.0
306.359833	140.0
310.45993	212.0
315.901886	208.0
316.421112	140.0
318.770264	188.0
321.020111	144.0
322.984497	148.0
323.707458	148.0
324.295013	200.0
325.072601	1188.0
326.028534	144.0
326.07431	392.0
327.071716	616.0
327.536102	140.0
328.07312	168.0
329.050751	248.0
334.361359	168.0
334.496033	152.0
336.070465	168.0
337.032104	200.0
337.078278	208.0
339.886932	164.0
341.087891	180.0
341.275391	232.0
342.965179	156.0
344.829132	184.0
351.036591	140.0
351.495422	140.0
353.063629	1144.0
354.05423	296.0
355.062683	324.0
359.100037	152.0
359.809448	188.0
360.515808	164.0
363.200226	144.0
363.754242	144.0
363.909882	180.0
365.612885	204.0
368.195099	456.0
368.239777	244.0
368.735382	152.0
369.198547	204.0
369.271851	148.0
369.42218	148.0
369.451538	204.0
369.493622	176.0
369.801178	140.0
369.845673	156.0
369.941376	164.0
370.098358	144.0
370.128113	144.0
370.194092	156.0
370.260559	152.0
370.574127	396.0
370.607788	196.0
370.683624	132.0
370.74353	172.0
370.810913	228.0
370.869781	172.0
370.907684	272.0
370.972809	320.0
371.080322	112192.0
371.194672	152.0
371.25116	108.0
371.317139	132.0
371.382416	152.0
371.54184	176.0
371.660187	108.0
371.711273	752.0
371.791199	148.0
371.823242	244.0
371.866852	160.0
371.916107	204.0
371.943115	236.0
371.980957	116.0
372.08194	22976.0
372.140991	408.0
372.215363	212.0
372.25766	104.0
372.300507	196.0
372.387238	160.0
372.506195	176.0
372.560699	108.0
372.615265	132.0
372.65332	136.0
372.842926	140.0
372.893982	236.0
372.982635	140.0
373.029053	128.0
373.076996	40176.0
373.19101	180.0
373.300964	152.0
373.440399	160.0
373.917786	160.0
373.979645	96.0
374.014069	148.0
374.077484	6348.0
374.306885	140.0
374.369598	108.0
374.396729	212.0
374.441467	224.0
374.489838	168.0
374.557251	108.0
374.748627	252.0
374.901703	100.0
375.071045	148.0
376.340179	116.0
376.389923	128.0
389.092926	1212.0
390.092865	140.0
391.091431	276.0
412.104492	156.0
656.22876	144.0
899.029785	148.0
905.726257	140.0
923.864258	204.0
1118.087036	196.0
1190.261597	164.0
1241.695435	160.0
1271.859619	184.0
1320.556885	148.0
1343.241821	232.0
1399.224243	224.0
1408.844971	232.0
1439.037598	140.0
1440.155273	160.0
1467.925415	208.0
1536.415771	144.0
1600.195435	160.0
1610.434937	240.0
1643.817749	144.0
1649.835205	160.0
1658.188965	192.0
1674.275635	160.0
1679.320679	156.0
1699.604126	164.0
1711.561401	168.0
1719.211426	144.0
1719.979004	156.0
1721.151367	156.0
1721.258667	156.0
1762.811279	148.0
1765.904663	208.0
1773.549316	200.0
1783.092651	168.0
1811.96936	168.0
1814.189819	196.0
1817.014038	192.0
1825.686768	140.0
1827.115845	200.0
1827.677368	180.0
1839.91687	168.0
1850.689819	160.0
1858.206787	144.0
1864.191772	148.0
1878.303467	164.0
1885.539062	196.0
1892.854614	136.0
1897.493652	216.0
1899.7052	176.0
1903.741211	180.0
1905.27002	184.0
1913.75	196.0
1914.690552	152.0
1924.116821	192.0
1933.365112	228.0
1938.619629	144.0
1939.031494	152.0
1944.890625	168.0
1951.936768	176.0
1952.701904	140.0
1956.406494	160.0
1956.934692	152.0
1958.792969	140.0
1969.519409	192.0
1986.302612	152.0
1990.891357	148.0
1993.130005	192.0
END IONS

BEGIN IONS
PEPMASS=361.139
CHARGE=1
MSLEVEL=2
SOURCE_INSTRUMENT=LC-ESI-qTof
FILENAME=Plate7_61_80_GD5_01_15771.mzXML
SEQ=*..*
IONMODE=Positive
ORGANISM=GNPS-SELLECKCHEM-FDA-PART2
NAME=Nitrendipine [M+H]
PI=Dorrestein
DATACOLLECTOR=Garg_Neha
SMILES=C1=CC(=CC(=C1)[N+]([O-])=O)C2C(=C(NC(=C2C(=O)OC)C)C)C(=O)OCC
INCHI=N/A
INCHIAUX=N/A
PUBMED=N/A
SUBMITUSER=negarg
LIBRARYQUALITY=1
SPECTRUMID=CCMSLIB00000078489
USI=mzspec:GNPS:GNPS-SELLECKCHEM-FDA-PART2:accession:CCMSLIB00000078489
SCANS=1932
45.421131	200.0
48.186886	164.0
48.709179	212.0
51.312962	164.0
51.46706	152.0
52.323051	148.0
54.289143	148.0
55.851822	168.0
58.307304	140.0
61.591045	172.0
62.971737	188.0
64.085396	144.0
64.471573	164.0
65.178627	240.0
65.829079	152.0
66.577278	152.0
67.475128	148.0
68.360893	180.0
68.999245	148.0
69.650528	156.0
71.560425	144.0
71.573891	144.0
71.958328	176.0
73.574661	188.0
75.198586	180.0
75.31427	188.0
75.462891	156.0
76.216896	192.0
76.272507	204.0
83.913788	152.0
84.94342	160.0
85.161858	188.0
85.494637	248.0
87.04567	144.0
87.512398	180.0
87.849731	180.0
88.432747	156.0
89.874176	140.0
90.858047	148.0
90.987099	168.0
91.761452	200.0
94.535255	220.0
94.957603	144.0
95.072067	144.0
96.773849	200.0
100.869339	148.0
101.089348	152.0
106.064789	180.0
110.617325	184.0
111.118202	148.0
111.279816	140.0
111.893745	196.0
113.103394	184.0
113.442329	224.0
113.788139	196.0
114.517548	164.0
115.057053	172.0
115.277061	192.0
115.743393	140.0
115.979057	144.0
116.631599	148.0
116.949944	176.0
117.158821	156.0
118.470169	180.0
119.288307	164.0
120.061272	172.0
120.644279	180.0
121.025787	208.0
121.099426	204.0
124.949432	172.0
125.950378	232.0
126.053383	348.0
126.455711	160.0
126.558685	232.0
128.058838	164.0
128.629318	216.0
129.033707	176.0
130.039505	436.0
130.075363	160.0
131.069702	236.0
131.434555	208.0
131.455093	180.0
132.97702	148.0
133.535324	144.0
134.05629	132.0
135.664352	220.0
135.743195	176.0
136.08197	168.0
138.233459	248.0
138.252182	164.0
139.051376	204.0
140.067947	316.0
140.39003	240.0
141.093689	140.0
141.488785	176.0
142.078918	164.0
143.255707	196.0
144.07724	120.0
145.095703	196.0
147.044373	148.0
148.038025	164.0
148.134903	144.0
148.251205	196.0
150.018021	440.0
150.051788	256.0
151.064514	204.0
151.325348	156.0
151.467392	192.0
152.059662	276.0
153.065613	168.0
153.973785	164.0
154.065186	148.0
154.084152	124.0
155.048172	276.0
155.067352	296.0
156.052612	176.0
156.080246	156.0
158.067276	188.0
159.028214	148.0
159.470276	144.0
162.183685	168.0
163.351761	148.0
163.713196	172.0
164.049515	172.0
164.541901	160.0
164.766647	144.0
165.068634	168.0
165.741486	196.0
165.777359	192.0
165.96962	180.0
166.057831	152.0
166.075775	184.0
166.783463	144.0
167.014877	152.0
167.075043	196.0
167.993744	204.0
168.054611	328.0
168.0793	1828.0
168.112442	188.0
169.079788	516.0
169.335312	168.0
170.057938	448.0
170.999588	176.0
171.05101	284.0
171.103073	308.0
171.259964	152.0
172.07428	120.0
172.104919	472.0
172.128418	156.0
172.76355	268.0
173.083145	268.0
174.066498	324.0
174.083328	364.0
175.579407	176.0
175.880203	220.0
176.035675	808.0
176.871445	140.0
177.036423	256.0
177.594818	144.0
178.04805	292.0
179.095215	168.0
180.035446	156.0
180.079987	664.0
181.040985	172.0
181.088791	368.0
181.378586	128.0
182.060074	168.0
182.094299	812.0
182.154083	168.0
182.751358	176.0
182.799362	172.0
182.947403	172.0
183.065872	156.0
183.103271	1144.0
184.070557	328.0
184.107437	144.0
184.831329	160.0
185.073685	440.0
186.023849	144.0
186.055557	328.0
186.082657	128.0
186.801056	180.0
187.0625	160.0
187.098373	200.0
187.893494	172.0
188.065414	160.0
189.064362	476.0
190.046936	140.0
191.071609	204.0
191.682877	200.0
191.892365	144.0
192.064911	148.0
192.085419	164.0
192.692764	140.0
193.074234	380.0
194.057632	128.0
194.086121	192.0
194.270828	164.0
195.061371	288.0
196.073959	1096.0
196.107834	136.0
197.060135	300.0
197.080719	524.0
197.11232	332.0
198.056015	268.0
198.087936	468.0
198.467834	196.0
198.936951	200.0
199.064697	160.0
199.094467	536.0
200.033096	612.0
200.074524	156.0
200.094528	144.0
201.034882	308.0
201.887054	148.0
202.048279	168.0
202.085052	196.0
203.090912	276.0
204.08606	196.0
205.585938	140.0
206.039948	140.0
207.066055	152.0
208.074585	1304.0
208.179626	140.0
208.809021	240.0
209.08194	2252.0
210.089203	4864.0
211.095032	1976.0
211.883316	172.0
212.070877	1124.0
212.104233	696.0
213.078186	100.0
213.102631	360.0
213.290787	152.0
214.047989	488.0
214.084595	436.0
214.115707	140.0
214.542542	180.0
215.057266	364.0
215.08989	528.0
215.68396	172.0
216.034866	140.0
216.06543	340.0
217.059845	920.0
218.05217	136.0
219.258957	168.0
219.713058	192.0
220.053726	156.0
222.053513	136.0
223.055969	132.0
223.085632	144.0
223.460968	140.0
224.075302	300.0
225.031708	148.0
225.072845	512.0
226.045868	152.0
226.084717	10496.0
227.084885	1568.0
227.138565	144.0
228.067642	544.0
228.089645	616.0
229.073166	120.0
229.102798	348.0
229.994202	176.0
230.063232	152.0
230.105896	208.0
230.296143	196.0
230.891556	140.0
231.080978	232.0
233.068161	140.0
235.063721	744.0
236.069473	884.0
236.379745	228.0
237.072128	452.0
238.070221	1352.0
238.106689	796.0
238.243942	152.0
239.081268	648.0
239.535995	152.0
239.579132	152.0
240.066849	552.0
240.095947	1012.0
240.556717	164.0
241.07135	880.0
241.10405	604.0
241.148026	140.0
242.045792	264.0
242.077682	1172.0
243.08577	2168.0
243.132156	184.0
243.649292	100.0
244.059341	136.0
244.0923	336.0
244.486984	156.0
245.045868	128.0
245.100067	132.0
246.929855	212.0
248.605972	156.0
249.067871	184.0
250.098877	116.0
250.55864	160.0
251.0466	124.0
251.874146	144.0
252.060669	156.0
252.635986	156.0
253.073303	1952.0
253.376801	144.0
254.079987	9748.0
254.143845	104.0
254.420212	196.0
254.70285	228.0
255.08371	5652.0
255.712967	140.0
255.995468	144.0
256.08902	1612.0
256.136414	116.0
256.800446	144.0
257.088654	776.0
258.071259	252.0
259.080933	156.0
262.212616	224.0
263.012512	176.0
263.939758	176.0
265.064209	128.0
266.067993	500.0
266.344513	208.0
267.084259	1288.0
267.928772	160.0
268.050232	160.0
268.095306	5228.0
268.1521	180.0
268.976715	172.0
269.066559	992.0
269.102295	4968.0
269.321716	148.0
269.66806	180.0
270.068268	864.0
270.104156	1052.0
271.039276	148.0
271.06897	376.0
271.102295	120.0
272.056519	140.0
272.093292	172.0
272.528992	220.0
272.880676	172.0
273.0914	336.0
273.216125	220.0
275.064697	140.0
276.943054	176.0
279.735687	196.0
280.086945	296.0
281.055481	152.0
281.091278	604.0
282.110931	488.0
282.940582	164.0
283.070007	5016.0
283.11853	768.0
283.188385	232.0
283.939148	200.0
284.076813	3512.0
284.966339	204.0
285.063141	2836.0
285.774902	144.0
286.066193	404.0
286.09491	500.0
287.077606	4532.0
288.078857	652.0
288.838928	128.0
289.087494	148.0
289.384827	220.0
290.269196	188.0
295.107849	140.0
296.199585	168.0
296.477112	140.0
297.086792	444.0
298.092743	3256.0
299.078247	2280.0
299.225128	176.0
299.934784	164.0
300.078217	856.0
300.338226	140.0
301.084717	8224.0
302.087952	2004.0
303.091309	320.0
303.424377	132.0
304.061157	148.0
304.111328	124.0
310.463165	216.0
311.315948	140.0
312.107971	896.0
312.662598	148.0
313.083588	576.0
313.338501	240.0
313.997681	260.0
314.089844	156.0
314.128754	176.0
314.265808	128.0
314.526947	140.0
314.562256	180.0
314.872986	168.0
314.972107	120.0
315.022736	176.0
315.097198	84776.0
315.359741	164.0
315.81424	208.0
315.956451	140.0
316.042969	292.0
316.099976	13660.0
316.17926	100.0
316.212952	140.0
316.275085	176.0
316.419891	104.0
316.613922	144.0
316.767548	108.0
316.822021	204.0
316.995636	140.0
317.103088	2388.0
317.83844	140.0
317.968719	104.0
317.998108	108.0
318.098694	548.0
318.131989	128.0
318.313232	140.0
318.360443	100.0
318.426544	156.0
319.13327	180.0
319.246307	148.0
327.684906	108.0
327.870819	148.0
328.659485	160.0
328.965363	204.0
329.113098	58676.0
329.384338	200.0
329.479065	120.0
330.06012	96.0
330.115051	9624.0
330.180023	204.0
331.117249	952.0
331.863983	100.0
332.039368	268.0
332.107971	136.0
332.217102	172.0
332.269257	128.0
332.347717	148.0
332.452393	128.0
332.601746	184.0
333.186432	140.0
339.658997	140.0
357.765503	188.0
359.121124	884.0
360.128723	452.0
361.137878	940.0
362.134064	176.0
362.265289	136.0
365.342102	140.0
365.500427	96.0
427.956085	144.0
1294.244385	148.0
1691.278809	152.0
1709.458008	192.0
1709.778931	208.0
1784.954102	140.0
1807.434448	160.0
1872.221436	168.0
1893.181396	160.0
1902.728271	184.0
1922.29541	188.0
1953.900879	192.0
END IONS

BEGIN IONS
PEPMASS=180.102
CHARGE=1
MSLEVEL=2
SOURCE_INSTRUMENT=LC-ESI-qTof
FILENAME=Plate8_41_60_GC11_01_15764.mzXML
SEQ=*..*
IONMODE=Positive
ORGANISM=GNPS-SELLECKCHEM-FDA-PART2
NAME=Phenacetin [M+H]
PI=Dorrestein
DATACOLLECTOR=Garg_Neha
SMILES=C1=C(C=CC(=C1)NC(C)=O)OCC
INCHI=N/A
INCHIAUX=N/A
PUBMED=N/A
SUBMITUSER=negarg
LIBRARYQUALITY=1
SPECTRUMID=CCMSLIB00000078517
USI=mzspec:GNPS:GNPS-SELLECKCHEM-FDA-PART2:accession:CCMSLIB00000078517
SCANS=1120
45.283855	204.0
45.372295	160.0
45.562874	172.0
45.584373	224.0
45.991108	148.0
46.542118	188.0
47.037689	160.0
47.688335	204.0
48.131401	148.0
48.339294	180.0
48.790085	232.0
49.685314	176.0
49.990223	148.0
50.305946	184.0
51.267628	164.0
52.087231	164.0
52.216839	252.0
53.755436	212.0
53.815285	172.0
54.700798	180.0
55.635101	140.0
56.208134	176.0
56.490517	240.0
56.706139	204.0
57.165703	220.0
57.474617	164.0
57.640717	160.0
57.801006	160.0
57.823708	148.0
57.849438	148.0
58.310562	232.0
60.165638	184.0
60.371143	284.0
60.471706	164.0
60.572353	200.0
61.7491	192.0
61.969826	172.0
63.837238	152.0
64.168442	180.0
64.399834	144.0
64.596443	140.0
64.774132	148.0
66.265968	172.0
66.582283	164.0
67.411415	208.0
67.710892	176.0
67.732185	208.0
68.949768	140.0
69.615753	256.0
69.737038	164.0
69.83181	140.0
70.617393	172.0
71.078102	156.0
71.299774	168.0
71.617767	164.0
72.759232	184.0
73.945663	160.0
74.621544	212.0
75.771019	140.0
75.973854	152.0
76.326439	160.0
77.168625	208.0
77.77652	140.0
78.051491	100.0
78.080482	152.0
78.150848	160.0
79.229614	144.0
80.817787	156.0
81.116875	160.0
81.328545	232.0
81.447502	144.0
81.574638	160.0
81.783295	180.0
81.932762	152.0
82.490402	216.0
84.783844	168.0
85.016754	168.0
85.161797	168.0
85.654755	240.0
85.979263	140.0
86.779381	152.0
86.963898	212.0
87.510445	148.0
88.320374	192.0
88.968758	188.0
89.188431	132.0
89.229904	224.0
89.323929	204.0
90.401268	164.0
90.414513	232.0
90.47509	200.0
90.77256	164.0
92.04879	604.0
92.076172	160.0
92.297844	160.0
92.571487	168.0
92.669174	184.0
93.033966	1784.0
93.054451	460.0
93.067963	180.0
93.500221	280.0
93.700928	172.0
94.073135	184.0
94.256615	148.0
95.264908	176.0
95.33989	200.0
96.709045	156.0
97.973663	172.0
98.908806	96.0
99.494507	176.0
100.443756	264.0
100.465698	168.0
100.917068	168.0
101.005058	188.0
101.203186	152.0
102.216866	160.0
103.033463	184.0
104.027824	196.0
104.102943	172.0
104.853645	164.0
104.984123	136.0
105.053726	160.0
105.335182	220.0
105.566139	208.0
107.046097	168.0
107.867928	96.0
107.997147	188.0
108.045547	728.0
108.794945	144.0
108.830238	192.0
108.986023	168.0
109.050896	1688.0
109.34787	172.0
109.443626	160.0
109.975235	160.0
110.016502	140.0
110.059731	22928.0
110.226158	108.0
111.0439	616.0
111.062843	1132.0
111.093735	188.0
111.36763	172.0
111.670303	356.0
111.69133	240.0
112.061928	108.0
112.880844	160.0
113.454636	224.0
113.961884	160.0
114.178711	144.0
114.559723	188.0
114.668907	100.0
114.757927	152.0
116.045074	216.0
116.332558	184.0
116.979622	184.0
117.43428	160.0
117.492523	160.0
117.803398	176.0
119.368263	196.0
119.490074	156.0
119.905983	216.0
120.473312	180.0
120.676567	148.0
120.85463	132.0
121.037598	156.0
121.125206	192.0
121.831573	176.0
121.908478	140.0
122.060158	140.0
124.71759	208.0
125.409828	144.0
125.655128	164.0
126.061516	184.0
126.381279	144.0
126.611847	248.0
128.931366	304.0
129.764389	156.0
131.064499	196.0
131.137436	164.0
131.176178	164.0
132.513123	176.0
133.019958	156.0
133.132462	168.0
133.942062	196.0
134.06015	768.0
134.629379	168.0
134.816498	216.0
135.079987	804.0
135.594116	192.0
135.962875	188.0
136.076157	144.0
136.274033	140.0
137.080673	528.0
137.190491	144.0
137.818909	128.0
137.905304	212.0
137.954391	144.0
138.038559	140.0
138.090897	36736.0
138.247498	128.0
138.851196	236.0
138.956757	152.0
139.092987	3160.0
139.27475	168.0
139.805023	160.0
140.120544	160.0
140.137039	148.0
140.613388	224.0
140.640442	156.0
140.842422	160.0
140.94989	172.0
141.554352	176.0
141.959106	292.0
142.07338	268.0
142.467453	216.0
142.498352	152.0
142.541107	152.0
142.807388	196.0
143.839127	176.0
147.06282	152.0
147.282547	212.0
147.551056	184.0
148.255173	184.0
148.830078	164.0
149.240723	200.0
149.413406	176.0
149.983231	208.0
151.006302	148.0
152.069046	6992.0
152.236588	144.0
152.369232	148.0
153.074097	512.0
154.046921	200.0
154.247086	152.0
154.272537	188.0
155.229996	152.0
156.041946	200.0
156.880478	148.0
157.013092	140.0
158.400314	176.0
158.870178	148.0
158.971954	144.0
159.977341	184.0
160.221634	272.0
160.963165	244.0
161.059143	144.0
161.962158	160.0
162.089966	2120.0
162.129379	224.0
162.899826	172.0
163.093033	252.0
165.871063	312.0
166.350754	160.0
166.548767	160.0
167.204117	212.0
168.627792	240.0
168.979477	160.0
170.223648	212.0
171.740952	220.0
172.587082	172.0
174.172638	160.0
174.213699	164.0
176.018845	148.0
177.384918	168.0
177.415848	148.0
178.299759	140.0
178.565628	144.0
178.781113	204.0
179.08345	100.0
179.112549	128.0
179.142624	280.0
179.475693	124.0
179.580383	200.0
179.60173	192.0
179.663086	292.0
179.688904	112.0
179.718628	176.0
179.756256	104.0
179.788254	224.0
179.841873	144.0
179.873108	300.0
179.915558	148.0
180.016357	164.0
180.06012	220.0
180.102386	129492.0
180.188156	184.0
180.259613	144.0
180.282547	112.0
180.359451	264.0
180.475967	100.0
180.540497	1844.0
180.57605	128.0
180.687775	116.0
180.866898	140.0
180.89679	104.0
180.993515	100.0
181.104187	13564.0
181.421295	172.0
181.687042	164.0
181.987854	136.0
182.015732	196.0
182.106171	1504.0
182.187637	140.0
182.215134	128.0
182.31929	156.0
182.370224	172.0
182.416138	256.0
182.467865	140.0
182.61235	196.0
183.112961	232.0
183.309616	152.0
189.245941	120.0
198.113297	164.0
235.989395	188.0
246.021301	148.0
1166.003052	140.0
1282.606201	200.0
1284.838257	220.0
1370.549194	204.0
1375.719238	196.0
1401.797852	160.0
1442.818481	156.0
1491.540039	140.0
1502.814697	176.0
1526.47876	172.0
1528.687988	156.0
1548.987915	160.0
1588.053467	152.0
1601.072021	172.0
1605.160156	196.0
1639.286621	160.0
1652.285522	168.0
1662.129883	164.0
1686.137329	160.0
1688.688232	204.0
1690.365356	256.0
1700.91333	144.0
1705.266724	140.0
1706.00647	144.0
1709.518555	184.0
1710.00415	188.0
1711.420044	140.0
1728.531494	152.0
1730.228271	196.0
1735.663574	164.0
1763.920654	164.0
1769.241211	160.0
1781.552368	152.0
1804.476074	160.0
1823.804443	200.0
1829.597412	156.0
1843.842529	152.0
1843.945068	212.0
1849.153687	172.0
1853.889771	160.0
1860.863525	176.0
1861.172607	200.0
1862.606812	196.0
1866.749512	212.0
1869.99292	152.0
1873.618164	200.0
1879.386108	192.0
1880.223145	144.0
1886.935059	164.0
1890.420898	200.0
1890.741089	252.0
1891.46814	176.0
1891.779785	168.0
1895.174805	200.0
1900.654785	164.0
1907.368164	232.0
1908.802734	144.0
1917.612915	260.0
1923.77124	160.0
1924.22522	172.0
1924.548218	140.0
1931.61853	200.0
1933.946045	236.0
1947.378662	192.0
1947.712524	140.0
1949.7948	200.0
1972.473511	180.0
1975.312012	148.0
1990.387695	188.0
1990.698486	156.0
1995.141113	144.0
END IONS

BEGIN IONS
PEPMASS=416.09
CHARGE=1
MSLEVEL=2
SOURCE_INSTRUMENT=LC-ESI-qTof
FILENAME=Plate8_61_80_GD1_01_15765.mzXML
SEQ=*..*
IONMODE=Positive
ORGANISM=GNPS-SELLECKCHEM-FDA-PART2
NAME=Acemetacin (Emflex) [M+H]
PI=Dorrestein
DATACOLLECTOR=Garg_Neha
SMILES=CC1N(C2=C(C=1CC(OCC(O)=O)=O)C=C(C=C2)OC)C(=O)C3=CC=C(C=C3)Cl
INCHI=N/A
INCHIAUX=N/A
PUBMED=N/A
SUBMITUSER=negarg
LIBRARYQUALITY=1
SPECTRUMID=CCMSLIB00000078527
USI=mzspec:GNPS:GNPS-SELLECKCHEM-FDA-PART2:accession:CCMSLIB00000078527
SCANS=2020
45.22517	148.0
45.27047	120.0
45.798523	148.0
46.834755	152.0
46.951969	148.0
47.75045	152.0
48.483566	172.0
48.762531	148.0
49.800674	208.0
49.838608	160.0
49.861092	200.0
50.266682	160.0
50.407894	164.0
50.496964	192.0
51.471886	152.0
52.35527	140.0
52.863434	148.0
54.235428	160.0
54.640739	164.0
55.100739	188.0
56.958508	156.0
57.111832	188.0
58.735672	188.0
59.470146	228.0
59.606831	160.0
60.600548	184.0
60.743179	184.0
61.499424	164.0
62.392338	196.0
62.954861	224.0
63.642113	196.0
64.020576	148.0
64.510422	188.0
64.703995	208.0
65.737549	216.0
66.373283	144.0
68.669441	152.0
69.295967	176.0
69.385468	140.0
70.178551	160.0
70.828659	156.0
71.93515	160.0
72.391655	188.0
72.932877	148.0
73.387428	156.0
75.837257	164.0
76.77961	140.0
77.254715	200.0
78.209328	200.0
78.829773	192.0
79.16626	176.0
80.972153	144.0
81.557076	224.0
84.997002	212.0
85.07592	220.0
87.71582	148.0
88.003128	172.0
88.197418	148.0
88.438713	156.0
88.785324	172.0
89.50695	220.0
89.883949	140.0
90.273094	168.0
90.896324	228.0
91.803726	160.0
92.3423	208.0
92.778893	152.0
93.035973	164.0
93.343391	196.0
93.595467	160.0
93.867165	144.0
93.880669	188.0
93.952034	204.0
94.073616	232.0
94.222321	160.0
94.328606	220.0
94.731117	208.0
95.57373	176.0
95.721672	232.0
96.193497	196.0
96.408348	204.0
97.181831	148.0
97.558922	176.0
98.143669	176.0
98.400642	116.0
99.344193	168.0
100.031776	260.0
100.272789	156.0
102.539604	180.0
103.292755	148.0
104.249741	156.0
104.286324	244.0
104.762489	228.0
104.882713	204.0
105.08461	160.0
105.362274	140.0
106.791069	168.0
107.114235	168.0
109.028137	176.0
110.99939	840.0
112.003433	144.0
112.996567	692.0
113.686417	160.0
113.841393	212.0
114.434654	184.0
114.992683	176.0
115.05294	168.0
116.863998	200.0
116.988831	188.0
118.216652	164.0
119.486328	160.0
119.926216	176.0
120.187912	200.0
121.285782	148.0
121.766296	156.0
122.401855	264.0
123.142853	144.0
123.748772	152.0
124.331772	180.0
124.476067	172.0
125.134232	152.0
126.386398	172.0
126.990273	156.0
127.422272	168.0
127.689774	168.0
128.534576	168.0
129.007339	536.0
129.932877	144.0
130.059967	180.0
131.010498	408.0
131.072891	176.0
132.399261	148.0
132.447693	140.0
133.832199	140.0
134.193939	144.0
134.276962	208.0
134.491531	148.0
136.126068	144.0
136.523453	168.0
136.798004	164.0
136.863205	140.0
138.233429	164.0
138.437088	176.0
138.488617	188.0
138.70462	108.0
138.833145	292.0
138.870667	224.0
138.93869	140.0
138.994568	88724.0
139.044174	108.0
139.152832	148.0
139.288544	152.0
139.381012	260.0
139.425537	156.0
139.447861	120.0
139.613937	144.0
139.997711	7048.0
140.701447	196.0
140.880524	140.0
140.938324	124.0
140.991425	26624.0
141.048874	228.0
141.088226	112.0
141.99501	1300.0
142.991318	200.0
145.34285	156.0
147.633759	172.0
150.887634	148.0
151.75531	124.0
156.092468	160.0
159.070663	188.0
162.084595	164.0
162.302582	172.0
174.091293	11892.0
175.094559	1712.0
176.095718	208.0
176.130661	168.0
181.606064	144.0
188.108582	152.0
193.901474	152.0
201.790268	184.0
202.081955	236.0
203.084427	156.0
204.274612	180.0
208.049713	144.0
211.795654	168.0
218.081772	152.0
220.095535	276.0
232.089996	304.0
233.103653	304.0
241.059113	144.0
254.187317	188.0
255.967438	168.0
257.05127	180.0
258.246094	140.0
259.921173	128.0
260.091248	9280.0
261.095276	1844.0
261.137756	144.0
262.091797	156.0
262.617676	128.0
276.079163	156.0
286.603424	224.0
297.044403	140.0
298.045197	156.0
303.185455	144.0
306.333435	164.0
310.261475	152.0
312.024323	192.0
312.078613	11168.0
313.083649	3564.0
314.075165	3784.0
315.079102	956.0
315.284454	152.0
316.083649	156.0
316.712372	96.0
333.329651	208.0
340.068512	376.0
342.068695	128.0
345.717712	212.0
365.488007	220.0
371.586121	148.0
375.53299	176.0
393.165039	148.0
414.080261	140.0
414.861481	156.0
415.080658	512.0
415.212219	136.0
415.336761	160.0
415.656189	132.0
415.74115	148.0
416.09024	19996.0
416.476318	108.0
416.922241	128.0
417.091339	4792.0
417.218811	152.0
418.087494	5572.0
419.029816	108.0
419.086151	1724.0
419.154327	144.0
419.274017	164.0
420.086212	264.0
420.357269	152.0
421.480225	172.0
1202.887817	168.0
1247.592407	140.0
1249.484253	152.0
1265.286255	152.0
1281.786133	192.0
1299.877808	228.0
1320.156494	172.0
1408.833496	160.0
1434.747681	144.0
1440.075195	164.0
1448.266724	160.0
1489.43457	144.0
1515.960083	140.0
1558.913086	144.0
1564.655029	224.0
1581.999756	188.0
1587.435059	140.0
1599.758423	160.0
1607.601318	200.0
1613.040527	204.0
1629.083618	140.0
1629.356812	172.0
1639.43103	144.0
1640.825439	192.0
1656.876221	168.0
1666.913086	140.0
1668.449341	184.0
1672.410889	180.0
1678.276489	164.0
1693.984619	212.0
1712.557129	204.0
1714.913574	164.0
1715.647217	152.0
1716.43042	140.0
1725.091431	160.0
1731.71106	164.0
1734.544922	200.0
1742.478516	188.0
1747.417114	144.0
1748.440674	180.0
1757.882812	196.0
1762.717773	148.0
1767.12439	156.0
1767.735229	152.0
1773.991821	176.0
1780.452637	284.0
1781.141357	200.0
1793.696167	244.0
1807.259521	204.0
1813.526245	188.0
1821.060791	236.0
1826.704834	168.0
1827.342896	164.0
1828.806641	164.0
1830.72998	228.0
1836.219238	144.0
1841.775635	260.0
1848.923462	148.0
1852.031494	184.0
1854.764893	148.0
1862.272827	144.0
1863.939453	176.0
1891.339233	160.0
1895.704346	192.0
1898.764648	184.0
1901.393433	144.0
1902.105225	184.0
1907.873413	152.0
1911.483032	152.0
1913.641602	152.0
1920.438965	168.0
1921.067017	184.0
1923.973145	148.0
1932.310791	164.0
1945.290039	200.0
1950.841919	188.0
1973.155396	260.0
1974.216553	232.0
1978.499146	180.0
1985.002686	148.0
1986.528198	180.0
1999.581055	192.0
2000.070679	224.0
END IONS

BEGIN IONS
PEPMASS=362.103
CHARGE=1
MSLEVEL=2
SOURCE_INSTRUMENT=LC-ESI-qTof
FILENAME=Plate9_21_40_GC5_01_15753.mzXML
SEQ=*..*
IONMODE=Positive
ORGANISM=GNPS-SELLECKCHEM-FDA-PART2
NAME=Moguisteine [M+Na]
PI=Dorrestein
DATACOLLECTOR=Garg_Neha
SMILES=C1=C(C(=CC=C1)OC)OCC2N(CCS2)C(=O)CC(OCC)=O
INCHI=N/A
INCHIAUX=N/A
PUBMED=N/A
SUBMITUSER=negarg
LIBRARYQUALITY=1
SPECTRUMID=CCMSLIB00000078575
USI=mzspec:GNPS:GNPS-SELLECKCHEM-FDA-PART2:accession:CCMSLIB00000078575
SCANS=1472
46.443089	168.0
51.500156	148.0
52.167908	224.0
56.652088	140.0
59.374569	140.0
62.22686	184.0
66.116737	160.0
68.19133	148.0
70.859795	204.0
71.376762	168.0
71.4104	140.0
72.279213	156.0
75.450432	216.0
77.542793	144.0
78.065964	140.0
78.310593	264.0
78.559135	148.0
81.222168	192.0
84.342186	172.0
85.835381	124.0
88.656754	164.0
91.585297	208.0
97.925583	164.0
98.570694	140.0
98.71302	172.0
99.547661	148.0
100.023743	196.0
100.37709	156.0
100.75032	224.0
102.037415	932.0
104.45771	148.0
108.474472	140.0
109.507164	208.0
110.032539	164.0
110.132889	144.0
112.172478	144.0
114.490448	156.0
114.822914	244.0
115.369537	196.0
117.055969	152.0
118.934723	180.0
121.150002	176.0
121.885246	184.0
123.040398	296.0
124.01667	100.0
124.043709	164.0
124.221115	184.0
127.378563	100.0
128.015656	460.0
129.01355	172.0
129.602051	176.0
130.012497	180.0
130.840149	132.0
131.008392	140.0
132.184235	160.0
132.672089	200.0
135.875031	184.0
137.020859	812.0
137.054276	192.0
137.999573	192.0
138.01828	144.0
138.734711	140.0
140.507935	160.0
140.743958	168.0
142.021683	148.0
143.486755	176.0
145.568436	176.0
146.034409	156.0
146.16217	180.0
147.039093	548.0
147.923996	184.0
147.984192	148.0
148.054657	112.0
148.209778	248.0
149.017746	184.0
149.95462	184.0
150.381439	164.0
150.992233	156.0
151.075394	168.0
151.116989	204.0
154.477631	160.0
158.701569	144.0
159.180832	208.0
160.264954	216.0
161.041946	148.0
163.014069	176.0
163.860275	176.0
164.130447	144.0
165.200577	140.0
165.992188	156.0
166.996124	152.0
167.046143	172.0
167.111893	192.0
169.197266	184.0
169.290222	180.0
170.029282	1140.0
171.016953	152.0
171.282547	144.0
175.10405	140.0
175.567886	176.0
175.78157	204.0
176.60054	160.0
179.055588	204.0
180.06105	192.0
180.093094	208.0
180.542099	196.0
181.012711	200.0
181.181824	176.0
186.299576	156.0
186.99295	212.0
187.881256	144.0
189.05397	124.0
191.910217	248.0
192.012253	148.0
193.069992	156.0
194.074982	108.0
196.344315	160.0
198.393875	152.0
198.592972	200.0
198.997055	164.0
199.092529	160.0
199.533691	180.0
200.031616	148.0
202.343689	140.0
202.490936	212.0
205.5457	208.0
206.079681	608.0
206.738617	164.0
207.466141	140.0
207.538895	116.0
209.569916	196.0
211.033279	272.0
211.594559	164.0
211.88707	164.0
213.367203	196.0
213.873367	152.0
215.927399	148.0
216.067947	564.0
216.518585	148.0
216.553726	140.0
217.074387	176.0
218.038284	144.0
218.079437	160.0
219.233109	196.0
223.625214	176.0
224.399734	164.0
224.681305	144.0
225.058624	676.0
225.471359	196.0
225.5401	228.0
227.706345	168.0
228.524002	144.0
229.508911	160.0
231.454819	144.0
231.476028	176.0
233.18779	160.0
233.2995	148.0
234.111893	156.0
235.753128	212.0
237.050644	172.0
237.795868	152.0
238.049316	4304.0
238.566849	188.0
239.05896	400.0
239.376038	164.0
240.045837	136.0
240.757568	140.0
242.078049	192.0
246.103943	176.0
246.561356	180.0
246.667206	256.0
247.058105	184.0
247.596481	144.0
248.072021	944.0
248.544571	144.0
249.0737	140.0
249.541992	228.0
249.635803	120.0
250.171204	164.0
251.927719	200.0
255.09668	164.0
255.207947	140.0
257.071381	220.0
257.93692	188.0
258.069	176.0
258.666229	160.0
259.031281	188.0
259.234222	220.0
259.813477	212.0
261.07431	1664.0
262.076538	372.0
263.08255	164.0
263.874664	148.0
264.651154	140.0
265.250488	172.0
265.451508	256.0
266.80545	152.0
267.521149	140.0
270.13504	196.0
272.880005	148.0
273.024689	160.0
273.445801	160.0
275.552917	180.0
276.432434	160.0
277.038361	140.0
277.548737	152.0
278.033478	148.0
278.670624	176.0
279.68158	152.0
282.175812	180.0
283.053497	148.0
283.086975	144.0
284.421326	156.0
285.217407	200.0
285.24765	180.0
285.392212	148.0
286.206482	140.0
290.080322	304.0
290.417297	148.0
290.651367	208.0
291.05191	224.0
293.703003	172.0
295.049042	168.0
295.37674	176.0
296.055878	160.0
297.064941	160.0
297.536346	148.0
297.570404	212.0
298.934601	184.0
300.116089	156.0
302.064514	248.0
303.417938	140.0
303.684967	192.0
306.096802	224.0
306.121185	160.0
306.744812	144.0
307.090027	144.0
308.203644	164.0
308.570618	372.0
309.077789	156.0
309.586212	180.0
311.676056	152.0
312.136505	144.0
314.673401	220.0
316.177795	116.0
316.692627	208.0
317.170959	156.0
317.519318	192.0
318.128723	168.0
319.201691	156.0
319.998718	140.0
322.131348	168.0
323.905609	204.0
323.991577	164.0
324.156403	196.0
324.339172	196.0
324.364258	180.0
325.13446	252.0
327.800171	152.0
327.944305	144.0
328.369751	200.0
329.286469	144.0
329.976654	140.0
330.551758	160.0
330.60968	176.0
331.092712	132.0
332.095093	184.0
333.594727	204.0
334.076843	436.0
334.549927	112.0
334.722595	192.0
335.13324	152.0
335.433044	144.0
335.746613	148.0
336.235474	172.0
338.626526	220.0
338.76004	148.0
341.790955	152.0
342.154907	252.0
343.148315	828.0
343.209076	140.0
344.150818	280.0
344.179504	144.0
345.332489	144.0
346.483734	156.0
347.077789	588.0
348.071594	168.0
349.063324	344.0
349.089355	148.0
350.414459	140.0
350.541138	200.0
351.61142	152.0
352.037018	176.0
352.70578	180.0
353.697021	164.0
355.439697	156.0
356.615173	140.0
356.727936	200.0
356.810638	168.0
356.938843	120.0
357.920776	136.0
358.297791	132.0
358.378418	136.0
358.506256	100.0
358.644562	112.0
358.799683	144.0
359.098389	436.0
359.158447	256.0
359.192474	104.0
359.255371	196.0
359.598328	484.0
359.696991	124.0
359.76413	148.0
360.043518	244.0
360.098907	352.0
360.170715	408.0
360.309387	164.0
360.456696	188.0
360.517975	172.0
360.592316	260.0
360.64624	184.0
360.687378	148.0
360.77005	160.0
360.949585	216.0
361.015839	156.0
361.063141	108.0
361.092773	260.0
361.156189	856.0
361.281769	176.0
361.333405	128.0
361.37088	136.0
361.430542	320.0
361.51947	248.0
361.590607	180.0
361.645905	168.0
361.678955	144.0
361.733856	120.0
361.797913	376.0
361.836121	196.0
361.874451	104.0
361.902008	288.0
361.916687	304.0
361.946838	200.0
361.991486	476.0
362.030792	824.0
362.057617	772.0
362.105286	193656.0
362.246155	100.0
362.320312	148.0
362.356171	364.0
362.384216	228.0
362.431702	100.0
362.462311	424.0
362.500793	324.0
362.546783	392.0
362.629425	180.0
362.678558	200.0
362.728577	4928.0
362.812073	348.0
362.850647	156.0
362.876678	236.0
362.932068	272.0
362.978149	144.0
363.03302	208.0
363.107361	54928.0
363.293274	176.0
363.335938	120.0
363.447418	308.0
363.503479	108.0
363.540192	140.0
363.654022	104.0
363.921967	96.0
364.036072	156.0
364.102478	17604.0
364.163452	224.0
364.355103	116.0
364.492645	200.0
364.611115	136.0
364.745605	204.0
364.786407	156.0
364.874969	232.0
365.036011	232.0
365.103363	1948.0
365.263306	164.0
365.299866	236.0
365.444153	124.0
365.484497	140.0
365.548004	188.0
365.602448	224.0
365.6521	244.0
365.717804	192.0
365.797821	104.0
366.166931	136.0
366.22821	100.0
366.259857	172.0
366.333832	108.0
366.53775	100.0
366.724091	172.0
367.002197	112.0
368.048767	128.0
375.894012	100.0
376.394531	104.0
377.444305	112.0
378.053436	128.0
381.104889	104.0
396.080811	120.0
397.080322	148.0
398.076538	152.0
399.079407	124.0
416.890015	180.0
454.95929	132.0
457.074493	156.0
467.731171	176.0
502.132202	408.0
503.128418	220.0
504.115417	116.0
505.132874	168.0
522.93396	164.0
875.368469	136.0
890.95105	164.0
1406.464111	152.0
END IONS

BEGIN IONS
PEPMASS=220.048
CHARGE=1
MSLEVEL=2
SOURCE_INSTRUMENT=LC-ESI-qTof
FILENAME=Plate9_41_60_GC6_01_15755.mzXML
SEQ=*..*
IONMODE=Positive
ORGANISM=GNPS-SELLECKCHEM-FDA-PART2
NAME=Ornidazole [M+H]
PI=Dorrestein
DATACOLLECTOR=Garg_Neha
SMILES=C1=C(N(C(=N1)C)CC(CCl)O)[N+](=O)[O-]
INCHI=N/A
INCHIAUX=N/A
PUBMED=N/A
SUBMITUSER=negarg
LIBRARYQUALITY=1
SPECTRUMID=CCMSLIB00000078579
USI=mzspec:GNPS:GNPS-SELLECKCHEM-FDA-PART2:accession:CCMSLIB00000078579
SCANS=1053
45.411404	148.0
45.532196	160.0
45.876659	204.0
51.243561	204.0
54.527355	140.0
55.748093	268.0
55.974205	168.0
56.510063	144.0
56.911755	156.0
57.292271	160.0
57.372143	140.0
57.70731	148.0
57.952507	156.0
58.193668	164.0
59.333378	152.0
59.752659	152.0
60.983593	144.0
61.378189	120.0
61.425812	220.0
61.663406	168.0
62.315037	144.0
63.757763	212.0
63.829296	200.0
64.324791	260.0
65.297386	168.0
65.471207	140.0
65.71138	160.0
68.936493	196.0
69.047256	144.0
69.481247	160.0
70.373337	180.0
71.366928	160.0
71.395515	220.0
72.840645	188.0
73.141617	148.0
73.441513	148.0
73.671959	252.0
74.561256	156.0
75.615028	192.0
76.86454	144.0
78.266846	148.0
80.848	184.0
81.790276	176.0
81.853287	148.0
83.360138	200.0
83.449203	232.0
85.556877	196.0
85.895958	176.0
85.932854	160.0
86.566856	140.0
86.646507	196.0
86.843002	160.0
89.824669	152.0
90.306328	152.0
90.334702	140.0
91.749504	160.0
93.010788	480.0
93.158012	144.0
94.012901	160.0
94.219505	148.0
94.32386	144.0
94.474693	188.0
94.534676	160.0
95.010689	376.0
95.061806	296.0
95.578659	176.0
95.927277	164.0
96.886803	164.0
96.974983	164.0
98.047089	140.0
98.07962	152.0
98.86174	172.0
99.085487	184.0
100.054665	196.0
103.206749	180.0
103.611542	148.0
104.143021	148.0
105.142693	176.0
105.277428	176.0
106.097931	224.0
106.537102	160.0
106.958656	188.0
109.516098	120.0
109.665909	200.0
109.778488	172.0
110.206398	164.0
111.020683	180.0
111.042267	1424.0
111.24099	144.0
111.75589	168.0
111.97271	216.0
112.046585	168.0
112.767624	172.0
115.032425	208.0
115.21608	216.0
116.158005	160.0
116.731453	148.0
116.845451	208.0
117.029785	180.0
118.553429	188.0
120.459412	180.0
121.92524	156.0
123.02877	156.0
123.121506	180.0
123.439728	168.0
123.756149	192.0
123.771652	172.0
125.071335	284.0
126.257355	168.0
126.514671	196.0
127.371292	244.0
127.726448	156.0
127.813393	124.0
127.956528	264.0
127.990425	244.0
128.014023	332.0
128.046021	70164.0
128.171631	120.0
128.198746	124.0
128.416107	96.0
129.047119	2620.0
129.240982	108.0
129.339233	124.0
129.765701	224.0
129.939026	100.0
130.011826	104.0
130.032516	116.0
130.050751	312.0
130.551361	236.0
132.950104	152.0
133.005188	216.0
135.799423	244.0
136.04538	160.0
139.083847	300.0
140.69252	164.0
141.498703	224.0
144.31575	196.0
152.525192	176.0
152.788315	180.0
153.349747	144.0
155.39978	164.0
157.049088	160.0
159.055862	148.0
161.23201	180.0
161.654343	144.0
163.871048	228.0
165.139771	184.0
174.054443	232.0
175.054642	164.0
176.278641	144.0
176.693756	188.0
178.489395	164.0
178.734116	152.0
183.45871	228.0
186.042252	176.0
187.026276	228.0
192.772125	160.0
193.513428	184.0
198.013504	144.0
202.033112	176.0
203.648849	160.0
204.595764	220.0
205.973114	144.0
207.045685	184.0
213.719879	148.0
216.232452	200.0
219.199722	160.0
219.349823	96.0
219.506668	128.0
219.561127	144.0
219.607498	124.0
219.789749	112.0
219.84729	164.0
219.910919	136.0
219.979507	136.0
220.0495	105060.0
220.152344	128.0
220.193741	148.0
220.263474	200.0
220.411163	168.0
220.532593	192.0
220.554749	204.0
220.748886	100.0
220.966156	244.0
221.051178	4460.0
221.253052	152.0
221.569901	116.0
222.045792	20148.0
222.124832	112.0
222.186386	144.0
222.402573	148.0
222.453598	120.0
222.528229	268.0
222.567764	196.0
222.688004	196.0
222.763229	124.0
222.787476	140.0
222.854736	144.0
223.049011	512.0
224.469788	124.0
356.158051	140.0
428.100647	180.0
624.925598	140.0
1023.300537	188.0
1114.622803	192.0
1122.844238	176.0
1138.430786	144.0
1272.600708	188.0
1283.586914	248.0
1291.900391	172.0
1298.82019	228.0
1301.611938	176.0
1301.877686	168.0
1324.93042	160.0
1334.088989	192.0
1342.97998	164.0
1373.670654	152.0
1416.916016	164.0
1431.19397	196.0
1431.849121	204.0
1460.466431	168.0
1474.73999	172.0
1488.94458	196.0
1496.064697	200.0
1527.265381	172.0
1559.235962	148.0
1570.486938	228.0
1590.211914	176.0
1602.195312	144.0
1607.473633	192.0
1621.131958	192.0
1659.744629	204.0
1672.28772	244.0
1673.793823	212.0
1698.893677	176.0
1708.480713	164.0
1711.237793	196.0
1712.118896	260.0
1719.134399	168.0
1729.42395	160.0
1731.179077	184.0
1741.678955	172.0
1743.008179	196.0
1752.7771	156.0
1754.827515	160.0
1770.486816	172.0
1773.754517	192.0
1778.930176	148.0
1787.805908	168.0
1802.436646	232.0
1809.431519	140.0
1818.315063	212.0
1828.939331	188.0
1847.30249	160.0
1850.314941	176.0
1859.993286	152.0
1862.698242	184.0
1866.651733	180.0
1868.819336	264.0
1869.344116	184.0
1876.036499	152.0
1880.590942	140.0
1884.546021	228.0
1902.74292	168.0
1905.826172	160.0
1909.720825	164.0
1916.999023	220.0
1934.782349	200.0
1956.959717	160.0
1961.59375	148.0
1967.248291	140.0
1988.740479	152.0
1998.213379	176.0
END IONS

BEGIN IONS
PEPMASS=232.144
CHARGE=1
MSLEVEL=2
SOURCE_INSTRUMENT=LC-ESI-qTof
FILENAME=Plate9_81_88_Plate8_81_88_GC8_01_15759.mzXML
SEQ=*..*
IONMODE=Positive
ORGANISM=GNPS-SELLECKCHEM-FDA-PART2
NAME=Amidopyrine [M+H]
PI=Dorrestein
DATACOLLECTOR=Garg_Neha
SMILES=N1(N(C(C(=C1C)N(C)C)=O)C2C=CC=CC=2)C
INCHI=N/A
INCHIAUX=N/A
PUBMED=N/A
SUBMITUSER=negarg
LIBRARYQUALITY=1
SPECTRUMID=CCMSLIB00000078610
USI=mzspec:GNPS:GNPS-SELLECKCHEM-FDA-PART2:accession:CCMSLIB00000078610
SCANS=944
45.186512	152.0
48.479519	252.0
49.286625	188.0
49.364906	188.0
49.495045	172.0
52.567245	160.0
55.457401	196.0
63.878826	180.0
66.611732	196.0
81.228127	204.0
82.859642	144.0
84.965408	212.0
86.524582	144.0
91.778427	224.0
92.263382	144.0
97.075562	912.0
98.083931	1336.0
98.247589	176.0
99.090118	148.0
99.44812	164.0
105.028801	140.0
106.064796	220.0
106.599121	172.0
106.874657	148.0
107.777786	176.0
111.091682	2108.0
111.987854	168.0
112.095383	196.0
113.106903	5724.0
114.108025	444.0
114.817329	140.0
114.956001	184.0
117.926224	192.0
118.06562	384.0
120.071312	176.0
120.086578	232.0
121.333008	172.0
127.087791	164.0
128.95282	188.0
133.074524	176.0
134.061325	196.0
136.066757	148.0
139.085098	612.0
140.09166	180.0
146.062164	168.0
147.08989	124.0
149.106888	228.0
150.089767	152.0
150.11171	148.0
157.017242	152.0
159.089828	532.0
160.062073	148.0
171.8573	172.0
172.060883	156.0
174.11116	184.0
175.085968	476.0
175.107925	176.0
177.100739	532.0
177.619064	156.0
178.10733	148.0
187.086334	904.0
188.091263	128.0
188.980896	148.0
189.098572	140.0
197.043549	212.0
198.987244	172.0
199.926086	144.0
201.107849	180.0
204.145889	252.0
206.946182	164.0
214.140015	128.0
216.107376	180.0
222.221207	144.0
229.932877	196.0
230.01738	144.0
231.014587	176.0
231.132812	272.0
231.166031	152.0
232.14386	8820.0
233.147476	780.0
233.687393	140.0
234.163513	128.0
395.470703	152.0
511.46347	160.0
1338.757568	188.0
1456.253296	188.0
1468.247925	140.0
1531.988037	176.0
1556.80603	148.0
1663.62854	172.0
1740.563843	184.0
1833.400146	196.0
1865.153687	256.0
1889.143555	160.0
1926.96167	212.0
1944.659424	208.0
END IONS

BEGIN IONS
PEPMASS=282.087
CHARGE=1
MSLEVEL=2
SOURCE_INSTRUMENT=LC-ESI-qTof
FILENAME=NCP003272_C2_D11_BC1_01_15714.mzXML
SEQ=*..*
IONMODE=Positive
ORGANISM=GNPS-NIH-CLINICALCOLLECTION1
NAME="7-nitro-5-phenyl-1,3-dihydro-1,4-benzodiazepin-2-one" [M+H]
PI=Dorrestein
DATACOLLECTOR=Garg_Neha
SMILES=[O-][N+](=O)c1ccc2NC(=O)CN=C(c3ccccc3)c2c1
INCHI=N/A
INCHIAUX=N/A
PUBMED=N/A
SUBMITUSER=negarg
LIBRARYQUALITY=1
SPECTRUMID=CCMSLIB00000078921
USI=mzspec:GNPS:GNPS-NIH-CLINICALCOLLECTION1:accession:CCMSLIB00000078921
SCANS=1250
45.092739	168.0
45.413177	156.0
45.519199	144.0
45.63628	180.0
45.963413	196.0
46.028847	160.0
46.230972	212.0
46.684074	180.0
46.850132	140.0
46.97282	140.0
47.304878	168.0
47.775581	156.0
47.910496	148.0
48.012497	204.0
48.531055	140.0
49.228195	172.0
49.29385	168.0
49.363747	172.0
49.397312	160.0
49.426693	160.0
49.661896	144.0
51.927261	148.0
51.965992	164.0
52.794258	168.0
53.074184	296.0
53.237709	188.0
53.371395	180.0
53.551849	176.0
53.627613	160.0
54.384167	176.0
54.506973	156.0
55.191109	140.0
55.761845	152.0
56.016281	140.0
56.292202	152.0
56.305641	200.0
56.493977	148.0
56.714096	152.0
56.726089	176.0
56.755669	148.0
56.882095	280.0
56.903111	244.0
57.781456	188.0
58.676327	148.0
58.711395	168.0
59.229523	160.0
59.854588	172.0
60.002502	220.0
60.121273	148.0
60.655685	160.0
60.983932	156.0
61.050785	152.0
61.066338	232.0
61.228199	176.0
61.283279	200.0
61.448544	168.0
61.901272	164.0
62.371937	180.0
62.73872	152.0
63.554821	168.0
63.662762	156.0
64.907463	176.0
64.931519	140.0
65.333084	144.0
65.817322	212.0
65.942604	276.0
66.577682	140.0
66.792229	160.0
66.845482	120.0
67.296532	176.0
67.392159	160.0
67.784866	196.0
67.804527	196.0
67.868462	148.0
68.055511	180.0
68.514374	156.0
68.958466	188.0
69.067383	160.0
69.226265	140.0
69.459908	148.0
70.101715	168.0
70.206741	172.0
70.463791	192.0
70.554039	160.0
70.823456	152.0
70.84523	168.0
70.979118	172.0
71.155487	184.0
71.35878	180.0
71.612885	184.0
71.75106	160.0
71.853745	104.0
71.901184	160.0
72.720337	144.0
73.232109	168.0
73.310478	228.0
73.568489	148.0
74.110176	200.0
74.14959	188.0
74.375992	140.0
74.544296	140.0
74.556328	152.0
74.594139	164.0
74.864838	168.0
75.064163	156.0
75.397339	152.0
76.114517	140.0
76.737419	156.0
76.899651	164.0
77.079529	168.0
77.389122	148.0
77.871368	164.0
77.883667	148.0
78.112175	200.0
78.492592	168.0
78.603722	152.0
78.709625	220.0
78.799706	152.0
78.859787	164.0
78.916359	152.0
78.978256	152.0
79.256195	156.0
79.295181	148.0
79.447678	140.0
79.678467	160.0
80.16243	216.0
80.456291	180.0
80.756935	172.0
81.054108	176.0
81.132973	196.0
81.41288	144.0
82.242859	184.0
82.259109	220.0
82.510216	152.0
82.727303	188.0
82.76265	268.0
82.783432	184.0
83.374832	140.0
83.393005	280.0
83.420273	156.0
83.704094	148.0
84.077797	140.0
84.225685	144.0
84.728752	164.0
85.064346	140.0
85.148804	148.0
86.006798	140.0
86.387451	308.0
86.807884	152.0
87.173584	292.0
87.317398	188.0
87.780434	148.0
87.868095	164.0
88.250008	108.0
88.43618	156.0
88.767776	172.0
88.891579	280.0
89.303009	156.0
89.647537	156.0
89.830421	220.0
89.917213	244.0
90.049377	168.0
90.624451	156.0
90.643394	196.0
91.055748	336.0
91.074821	180.0
91.188049	192.0
91.642853	164.0
91.955597	176.0
92.054863	352.0
92.20961	144.0
93.063972	160.0
93.29229	124.0
93.744904	152.0
94.33744	160.0
94.565689	212.0
94.794212	164.0
94.943481	176.0
94.982269	152.0
95.075401	168.0
95.18605	180.0
95.226837	180.0
95.302597	144.0
95.395882	156.0
95.436707	180.0
95.49894	200.0
95.808395	168.0
95.861046	208.0
95.992393	244.0
96.059914	180.0
96.24337	228.0
96.691025	152.0
96.816322	192.0
96.957375	176.0
98.095406	224.0
98.939316	168.0
99.291641	144.0
99.305519	172.0
99.394798	200.0
99.800476	164.0
100.180122	232.0
100.272682	184.0
100.343544	152.0
100.415329	160.0
100.782639	180.0
100.874573	256.0
100.93055	224.0
101.010544	168.0
101.078568	168.0
101.2267	156.0
101.749771	164.0
103.0382	196.0
103.089478	152.0
103.251205	152.0
103.392288	184.0
103.477837	168.0
104.021141	160.0
104.049431	1244.0
104.18969	152.0
104.289261	176.0
104.861183	160.0
105.034142	364.0
105.046272	608.0
105.796715	160.0
106.033775	196.0
106.063011	148.0
106.134766	172.0
106.153221	168.0
106.175781	156.0
106.194237	160.0
106.325539	236.0
106.438148	164.0
106.493896	156.0
106.707611	152.0
106.923592	144.0
106.942116	144.0
107.053291	168.0
107.17688	168.0
107.542999	160.0
107.588264	156.0
108.410515	164.0
108.425026	152.0
108.707062	216.0
109.05294	344.0
109.724167	204.0
109.738762	140.0
109.776299	156.0
110.239723	196.0
110.400688	140.0
110.471802	164.0
110.777435	176.0
110.974434	140.0
111.028252	120.0
111.284958	184.0
111.503426	240.0
111.665909	140.0
112.021027	140.0
112.153778	204.0
112.527168	140.0
112.552505	144.0
112.877914	152.0
113.002708	228.0
113.102165	204.0
113.138153	176.0
113.174149	148.0
113.241913	196.0
114.207642	176.0
114.876488	224.0
114.961838	152.0
115.045074	172.0
115.109131	160.0
115.374062	172.0
115.431793	152.0
115.673553	156.0
115.776329	168.0
115.857719	180.0
116.051315	888.0
116.22744	144.0
116.636681	192.0
116.716225	144.0
117.056206	156.0
117.073433	172.0
117.407463	176.0
117.593002	168.0
117.692307	156.0
117.754929	308.0
118.056305	216.0
118.221901	144.0
118.535896	188.0
118.804749	160.0
119.056908	320.0
119.439049	180.0
119.774254	168.0
120.020523	144.0
120.057587	148.0
120.592476	228.0
121.455154	148.0
121.821732	164.0
122.532318	208.0
122.833038	164.0
122.969772	156.0
123.017487	152.0
123.183105	172.0
123.390839	180.0
123.953033	156.0
124.085861	172.0
124.341881	196.0
124.458763	156.0
124.903236	192.0
125.222778	128.0
125.356667	224.0
125.542442	212.0
125.729836	160.0
125.872711	176.0
126.069283	152.0
126.374794	140.0
126.624107	144.0
126.863853	212.0
126.966995	240.0
127.249733	168.0
127.602463	200.0
127.867897	152.0
128.061523	356.0
128.53569	168.0
128.74939	140.0
129.04361	576.0
129.077057	200.0
129.131332	152.0
129.173569	148.0
129.199188	168.0
129.538757	168.0
129.652054	248.0
129.866333	208.0
129.933212	152.0
130.012634	144.0
130.051666	1644.0
130.096619	140.0
130.132614	220.0
130.176086	152.0
130.294189	272.0
130.537262	144.0
130.632919	152.0
130.754913	136.0
130.97435	172.0
131.055466	320.0
131.491928	160.0
131.521591	144.0
132.523239	192.0
132.692841	156.0
133.0186	160.0
133.050873	468.0
133.087479	216.0
133.310287	200.0
133.820923	160.0
133.963715	212.0
134.009796	172.0
134.025925	208.0
134.053024	232.0
134.431763	256.0
134.577408	120.0
135.013916	148.0
135.03241	156.0
135.067108	152.0
135.208237	168.0
135.353348	176.0
135.942871	140.0
136.123825	176.0
136.302795	144.0
136.399185	144.0
136.663193	180.0
136.679489	180.0
136.700424	148.0
136.877335	152.0
137.047318	124.0
137.154572	204.0
137.545593	160.0
137.747253	224.0
137.784637	156.0
138.004333	216.0
138.514511	208.0
138.931778	160.0
139.185242	140.0
139.314423	172.0
139.457764	184.0
139.998199	184.0
140.060104	168.0
140.149628	160.0
140.623627	144.0
140.663757	148.0
140.932983	176.0
141.060242	156.0
141.193008	152.0
141.576385	184.0
141.82753	152.0
142.075027	160.0
142.102615	144.0
142.119217	160.0
142.855713	148.0
143.033463	204.0
143.072266	136.0
143.102219	172.0
143.205612	144.0
144.116882	160.0
144.32962	216.0
144.506607	176.0
144.532928	176.0
144.71962	140.0
144.880081	148.0
145.040558	112.0
145.110992	172.0
145.137024	156.0
145.647705	192.0
145.767822	140.0
146.005814	160.0
146.183838	304.0
146.470337	180.0
147.056244	152.0
147.145569	244.0
147.319443	156.0
147.367767	152.0
147.491013	148.0
147.58287	164.0
148.057159	168.0
148.299042	196.0
149.569763	192.0
150.043732	132.0
150.410706	168.0
150.496155	172.0
151.050125	684.0
151.596664	132.0
151.714539	160.0
151.780731	164.0
151.925446	144.0
152.061371	564.0
152.36734	192.0
152.406647	168.0
152.445953	180.0
152.647537	172.0
152.777893	152.0
153.070053	472.0
153.688217	136.0
153.988174	224.0
154.039017	272.0
154.072388	376.0
154.697815	168.0
154.81868	132.0
154.843903	176.0
154.868668	172.0
154.920105	172.0
155.039612	140.0
155.099106	184.0
155.200745	160.0
155.218109	156.0
155.508362	192.0
155.555511	144.0
155.741745	152.0
156.025024	180.0
156.080246	556.0
156.446884	188.0
156.532593	140.0
156.62973	148.0
156.76918	136.0
157.040924	308.0
157.090469	196.0
158.047577	3064.0
158.642471	164.0
158.954819	172.0
159.049728	556.0
159.107925	200.0
159.178223	148.0
159.195801	160.0
159.467133	244.0
159.76178	236.0
160.035645	180.0
160.057602	280.0
160.257294	184.0
160.411026	168.0
160.559784	172.0
160.665726	152.0
160.877701	188.0
161.110046	160.0
161.299561	180.0
161.375412	176.0
161.764999	176.0
161.909332	180.0
162.037781	468.0
162.16774	160.0
162.720749	160.0
164.0616	768.0
164.229767	192.0
164.648331	228.0
165.041275	652.0
165.069702	816.0
165.156937	296.0
165.202988	164.0
165.481934	164.0
165.971313	144.0
166.07756	296.0
166.916245	192.0
167.019119	140.0
167.074936	448.0
167.405167	140.0
168.064056	268.0
168.080627	1260.0
168.235382	168.0
168.496216	180.0
168.661606	168.0
168.783112	164.0
168.871033	144.0
169.069626	184.0
169.143982	140.0
169.916672	152.0
170.016296	144.0
170.104401	164.0
170.20047	192.0
170.288757	160.0
170.73317	184.0
171.458878	132.0
171.516861	192.0
171.673279	192.0
171.715012	148.0
171.935165	176.0
172.077728	148.0
173.946915	152.0
174.038788	176.0
174.202667	140.0
174.577469	148.0
175.024811	172.0
175.044617	160.0
175.533371	184.0
175.594711	184.0
176.046387	3064.0
176.157379	148.0
176.569412	148.0
177.042664	632.0
177.087296	156.0
177.413589	172.0
177.641281	188.0
178.062622	424.0
178.116425	140.0
178.270523	188.0
178.394531	164.0
178.755508	148.0
179.040543	176.0
179.072739	3468.0
179.636368	144.0
179.847168	172.0
179.977982	140.0
180.081161	44416.0
180.143509	116.0
180.274277	152.0
180.624725	140.0
181.085327	6848.0
181.809891	152.0
181.900208	208.0
182.061813	192.0
182.087555	432.0
182.137375	152.0
182.286957	176.0
182.362213	152.0
182.625702	248.0
183.066986	120.0
183.091309	616.0
183.570984	168.0
183.605392	148.0
183.770599	164.0
184.076233	668.0
184.087311	284.0
184.095673	448.0
184.302505	240.0
184.372757	160.0
184.423157	136.0
184.529541	148.0
184.705322	180.0
185.068085	156.0
185.103149	156.0
185.452637	144.0
185.64241	148.0
186.055527	184.0
186.345428	148.0
186.910965	200.0
187.036011	1480.0
187.076996	144.0
187.283936	180.0
188.039719	224.0
188.101089	152.0
188.295807	140.0
188.552612	156.0
188.637344	160.0
189.012039	152.0
190.009354	160.0
190.038437	160.0
190.066132	2528.0
190.691177	172.0
191.072235	1628.0
191.149612	240.0
191.177124	152.0
191.796875	160.0
192.039444	176.0
192.081467	1600.0
192.14151	156.0
192.456146	152.0
192.521805	144.0
192.657761	144.0
193.08728	1208.0
193.282593	160.0
194.092575	1392.0
194.281616	104.0
194.754684	172.0
194.843567	184.0
194.999176	156.0
195.06958	748.0
195.090881	1756.0
195.544296	160.0
195.611099	208.0
196.014938	140.0
196.077286	3244.0
196.541946	144.0
197.076797	728.0
197.102173	276.0
197.149017	132.0
197.268082	144.0
197.460587	108.0
198.081833	304.0
198.122375	244.0
198.15802	168.0
198.336899	120.0
198.43396	140.0
198.546539	140.0
198.618484	172.0
198.822998	132.0
199.086472	140.0
199.173538	256.0
199.392685	192.0
199.765167	160.0
199.831345	212.0
199.870743	152.0
199.90451	220.0
200.639648	176.0
201.08815	168.0
201.531494	160.0
202.439484	160.0
202.484436	136.0
203.329651	140.0
203.542557	156.0
204.040115	508.0
204.41806	148.0
204.662857	140.0
204.751144	148.0
204.976181	160.0
205.038879	148.0
205.075684	344.0
205.132935	164.0
205.608124	100.0
205.960434	188.0
206.059677	608.0
206.082565	1636.0
206.582504	168.0
206.682175	132.0
206.778168	188.0
206.882629	208.0
206.928162	208.0
207.033386	160.0
207.09259	43000.0
207.13913	156.0
207.203232	208.0
207.255203	116.0
207.333755	172.0
207.394196	104.0
207.744949	128.0
207.781067	192.0
208.033615	164.0
208.098022	15856.0
208.37146	136.0
209.101227	1920.0
209.152313	228.0
209.330292	268.0
209.527267	156.0
209.56813	120.0
209.886429	148.0
210.076279	684.0
210.094757	420.0
210.104126	416.0
210.567474	168.0
210.602036	120.0
210.94577	160.0
210.983566	156.0
211.087906	4004.0
211.333511	152.0
211.402802	144.0
212.056564	168.0
212.091919	1312.0
212.138626	208.0
212.477921	212.0
212.794266	172.0
213.09584	244.0
213.142807	160.0
213.416031	156.0
213.583817	168.0
214.402847	152.0
215.01236	144.0
215.066391	140.0
215.117432	164.0
215.66951	160.0
215.91217	156.0
216.077347	188.0
216.851959	188.0
217.077011	504.0
217.522186	128.0
217.571472	168.0
217.646957	164.0
217.770294	204.0
217.905426	184.0
217.987701	164.0
218.085449	416.0
218.216965	260.0
218.258118	152.0
218.397598	132.0
218.540497	184.0
219.043915	196.0
219.067429	752.0
219.090469	400.0
219.534561	268.0
220.053284	176.0
220.086365	168.0
221.070557	412.0
221.26857	184.0
221.765259	152.0
222.076279	144.0
222.313919	172.0
222.471222	140.0
222.690948	168.0
222.857315	212.0
223.086563	2000.0
223.214096	120.0
223.413269	172.0
223.505493	188.0
223.955017	184.0
224.093857	1032.0
224.613754	160.0
225.090546	516.0
225.931122	236.0
226.068756	148.0
226.092697	156.0
228.354813	140.0
228.974792	140.0
229.026001	160.0
229.384567	140.0
229.492676	144.0
230.812592	200.0
231.511597	140.0
231.650925	168.0
232.096436	172.0
233.034317	140.0
233.660522	124.0
233.831024	200.0
233.934509	164.0
234.076569	424.0
234.226837	236.0
234.5224	160.0
234.744858	128.0
234.950928	112.0
235.049988	140.0
235.086929	13148.0
235.316681	200.0
235.419342	152.0
235.470245	148.0
235.682053	176.0
235.787354	164.0
235.837906	188.0
235.883743	160.0
235.944687	124.0
236.007721	240.0
236.094894	77228.0
236.144653	424.0
236.178513	172.0
236.300049	372.0
236.367157	108.0
236.512375	100.0
236.548401	128.0
236.986694	120.0
237.098312	9776.0
237.155106	136.0
237.410019	192.0
237.724457	220.0
237.770493	156.0
238.097748	1196.0
238.297943	168.0
238.399338	156.0
238.481903	236.0
238.570236	248.0
238.740463	180.0
238.878525	220.0
239.02121	152.0
239.081879	4372.0
239.46759	108.0
239.4953	164.0
239.606201	184.0
239.652008	212.0
239.963028	148.0
240.088577	7820.0
240.269028	144.0
240.362259	112.0
241.090042	1336.0
241.699539	148.0
242.094894	412.0
242.281616	176.0
242.360214	152.0
242.49852	156.0
243.705658	156.0
244.815567	172.0
244.962524	180.0
245.0186	180.0
245.538193	196.0
246.272598	272.0
246.531906	172.0
246.591278	144.0
247.154175	152.0
247.539185	156.0
248.517151	196.0
248.777634	156.0
249.311584	184.0
249.641663	380.0
249.726578	152.0
250.071396	256.0
250.667877	156.0
250.970474	260.0
251.081787	4216.0
251.964661	164.0
252.087524	2516.0
252.186523	172.0
252.472412	180.0
252.54631	140.0
253.084	840.0
253.296463	212.0
253.746475	244.0
253.869232	160.0
253.927216	176.0
254.092972	2780.0
254.234955	192.0
254.510635	188.0
254.536514	168.0
255.095505	496.0
255.253769	144.0
255.689194	120.0
255.859177	156.0
256.233582	216.0
256.678009	140.0
256.872559	152.0
257.466217	196.0
258.050964	148.0
258.538849	168.0
258.629974	212.0
258.758026	304.0
259.562256	168.0
259.911896	148.0
259.992096	184.0
260.018158	148.0
260.070343	180.0
260.149384	184.0
261.000763	196.0
261.065094	160.0
261.335266	156.0
261.557343	180.0
262.457581	180.0
262.698029	228.0
263.10788	196.0
263.246735	140.0
263.556824	160.0
263.608521	164.0
263.726105	172.0
263.947937	180.0
264.077148	184.0
264.442902	200.0
264.581146	192.0
264.607971	172.0
264.658295	236.0
265.083069	504.0
265.417999	192.0
266.219482	184.0
266.903656	124.0
267.113281	176.0
267.162079	196.0
267.329987	144.0
267.417786	116.0
267.469788	148.0
267.585571	120.0
267.675171	124.0
267.735291	320.0
267.780518	196.0
267.899384	172.0
267.92337	188.0
267.985504	224.0
268.085419	132188.0
268.300354	176.0
268.347443	136.0
268.35965	160.0
268.393494	156.0
268.427216	116.0
268.578644	116.0
268.666962	224.0
268.74057	188.0
268.807098	200.0
268.880859	260.0
268.969818	152.0
269.041748	232.0
269.087555	19172.0
269.182404	156.0
269.263214	140.0
269.536255	140.0
269.668579	116.0
269.797089	220.0
270.088898	2296.0
270.150726	108.0
270.387939	116.0
270.474579	116.0
270.55722	96.0
270.668823	176.0
270.716095	100.0
270.750793	112.0
270.867157	112.0
270.930084	168.0
270.956909	328.0
271.032288	108.0
271.075653	144.0
271.101044	364.0
271.178406	152.0
271.307556	104.0
271.457916	164.0
271.655334	124.0
272.985931	104.0
273.405121	140.0
273.576263	172.0
273.717834	204.0
273.958282	164.0
274.643921	144.0
275.148804	148.0
275.241241	152.0
277.414917	164.0
277.51767	264.0
278.855469	184.0
279.09671	252.0
279.154663	188.0
279.468811	220.0
279.528931	180.0
279.930023	144.0
280.072388	192.0
280.151001	128.0
280.329773	204.0
280.399384	180.0
280.463531	140.0
280.485809	248.0
280.555237	160.0
280.703094	152.0
280.840698	356.0
280.947876	220.0
281.032684	152.0
281.060364	156.0
281.091705	248.0
281.210114	224.0
281.26593	224.0
281.289429	212.0
281.329681	188.0
281.39563	364.0
281.480469	224.0
281.512299	252.0
281.547852	336.0
281.621796	272.0
281.656372	172.0
281.680756	224.0
281.73999	336.0
281.771942	320.0
281.810028	236.0
281.832367	364.0
281.859161	172.0
281.897797	392.0
281.925415	324.0
281.949982	508.0
282.004395	340.0
282.012939	316.0
282.048889	668.0
282.090332	232012.0
282.210297	96.0
282.326813	284.0
282.39975	692.0
282.45929	220.0
282.566345	236.0
282.601562	704.0
282.640533	12948.0
282.716797	196.0
282.741913	212.0
282.820679	152.0
282.866211	196.0
282.902771	160.0
282.947144	328.0
282.986633	288.0
283.027557	236.0
283.091675	98116.0
283.218811	144.0
283.287964	132.0
283.324982	140.0
283.375	216.0
283.419678	140.0
283.474396	288.0
283.535553	268.0
283.569244	152.0
283.603271	172.0
283.645935	264.0
283.712616	160.0
283.764893	184.0
283.877655	96.0
283.937408	204.0
283.982758	156.0
284.007019	172.0
284.092957	10364.0
284.188751	316.0
284.289459	172.0
284.335144	144.0
284.400604	124.0
284.429321	284.0
284.474487	164.0
284.586456	176.0
284.635284	100.0
284.68045	236.0
284.709351	192.0
284.791473	284.0
284.815247	296.0
284.864777	240.0
284.889374	176.0
284.929047	276.0
284.995056	260.0
285.032104	248.0
285.058197	392.0
285.093262	1136.0
285.159607	312.0
285.195221	160.0
285.246338	200.0
285.284576	256.0
285.318878	104.0
285.371429	96.0
285.406982	180.0
285.431549	164.0
285.751953	96.0
286.17749	100.0
286.450714	96.0
287.108246	176.0
287.288513	144.0
288.638885	104.0
289.004852	104.0
289.330048	148.0
292.723511	140.0
292.935944	128.0
293.536713	140.0
296.312317	108.0
299.15686	288.0
300.650696	108.0
308.124756	120.0
413.605347	96.0
462.277191	168.0
465.127289	172.0
474.978485	152.0
482.897034	156.0
771.501038	168.0
1054.514282	156.0
1338.886353	164.0
1434.178711	140.0
1467.887451	128.0
1489.706055	224.0
1541.361206	164.0
1588.363281	160.0
1639.156006	156.0
1673.483521	192.0
1680.28894	196.0
1689.839722	184.0
1731.782227	160.0
1764.059204	192.0
1780.842773	164.0
1789.420044	244.0
1793.295044	176.0
1797.233154	184.0
1802.51062	176.0
1812.164917	196.0
1836.451904	172.0
1851.331177	184.0
1853.130005	180.0
1855.829834	144.0
1865.44519	152.0
1867.07019	192.0
1877.111206	168.0
1880.812378	228.0
1899.624146	140.0
1911.283325	180.0
1921.896118	188.0
1922.306274	140.0
1933.649658	160.0
1949.110107	164.0
1957.11438	148.0
1966.45874	140.0
1972.783081	152.0
1983.706909	160.0
1984.371826	176.0
1992.7323	244.0
1998.609497	216.0
END IONS

BEGIN IONS
PEPMASS=294.112
CHARGE=1
MSLEVEL=2
SOURCE_INSTRUMENT=LC-ESI-qTof
FILENAME=NCP003272_E2_F11_BC2_01_15715.mzXML
SEQ=*..*
IONMODE=Positive
ORGANISM=GNPS-NIH-CLINICALCOLLECTION1
NAME=OXAPROZIN [M+H]
PI=Dorrestein
DATACOLLECTOR=Garg_Neha
SMILES=OC(=O)CCc1nc(c(o1)c2ccccc2)c3ccccc3
INCHI=N/A
INCHIAUX=N/A
PUBMED=N/A
SUBMITUSER=negarg
LIBRARYQUALITY=1
SPECTRUMID=CCMSLIB00000078946
USI=mzspec:GNPS:GNPS-NIH-CLINICALCOLLECTION1:accession:CCMSLIB00000078946
SCANS=1662
45.089108	168.0
45.137234	184.0
45.303196	152.0
45.426746	196.0
45.503021	144.0
45.517792	152.0
45.657551	140.0
45.820423	168.0
45.86417	164.0
46.545403	212.0
46.582069	160.0
46.689449	140.0
46.882763	168.0
47.386982	160.0
47.511742	252.0
47.818169	168.0
47.914558	164.0
47.983471	208.0
48.15596	144.0
48.655853	140.0
48.740578	196.0
48.950733	152.0
49.261646	140.0
49.33012	188.0
49.400784	128.0
49.753189	204.0
49.795315	188.0
49.831837	220.0
49.843079	184.0
49.914768	168.0
50.168198	264.0
50.279629	208.0
50.436405	172.0
50.491547	204.0
50.592007	244.0
50.642986	144.0
50.984909	156.0
51.011913	228.0
51.091553	176.0
51.636166	184.0
51.662193	152.0
51.676498	144.0
51.748062	176.0
51.778133	208.0
52.02763	188.0
52.083633	160.0
52.184231	148.0
52.622231	176.0
52.640999	140.0
52.665554	172.0
52.677109	208.0
52.733459	176.0
52.869408	240.0
53.154888	152.0
53.412041	188.0
53.487514	212.0
53.707729	184.0
53.839085	204.0
53.936916	204.0
54.537945	268.0
54.634998	164.0
55.025547	184.0
55.321224	156.0
55.589493	168.0
55.708305	172.0
55.752846	184.0
55.911972	168.0
56.404171	156.0
56.510349	160.0
56.948082	148.0
57.169083	184.0
57.282005	180.0
57.533844	216.0
57.606331	152.0
57.79834	144.0
57.975513	148.0
58.078609	192.0
58.22382	148.0
58.270664	148.0
58.52845	172.0
59.003193	232.0
59.035065	160.0
59.093189	188.0
59.11002	156.0
59.283062	164.0
59.692932	176.0
59.78677	244.0
59.96542	156.0
60.269428	172.0
60.304974	144.0
60.858013	160.0
60.913921	156.0
61.116028	228.0
61.429176	176.0
61.504078	152.0
61.871433	144.0
62.237568	236.0
62.55904	148.0
62.696072	172.0
62.795395	144.0
62.826942	188.0
63.545593	164.0
63.853188	200.0
64.093758	200.0
64.526024	140.0
65.05658	144.0
65.724495	144.0
65.810043	176.0
66.107468	176.0
66.128502	176.0
66.504532	140.0
66.533752	172.0
66.608452	144.0
66.647438	148.0
66.691315	228.0
67.111115	156.0
67.223877	152.0
67.776794	148.0
68.035713	228.0
68.142464	160.0
68.458275	176.0
68.849113	156.0
69.054047	156.0
69.148354	148.0
69.259285	148.0
69.527878	144.0
69.727173	160.0
70.154953	224.0
70.32843	172.0
70.732933	188.0
70.927238	144.0
71.042946	176.0
71.36306	184.0
71.518486	196.0
71.594254	196.0
71.618225	188.0
71.980423	168.0
72.264389	192.0
72.543274	260.0
72.927444	260.0
73.299782	176.0
73.595238	156.0
73.70797	180.0
74.307243	184.0
74.570831	148.0
74.71785	168.0
74.877937	152.0
75.038193	172.0
75.184807	216.0
75.262489	148.0
75.4076	140.0
75.874969	144.0
75.93219	220.0
75.977295	180.0
76.020668	144.0
76.157822	148.0
76.220886	172.0
76.425537	148.0
76.869347	120.0
76.953659	148.0
77.239143	140.0
77.278748	192.0
77.797508	152.0
78.024132	208.0
78.172478	232.0
78.620186	172.0
78.73954	188.0
79.186996	160.0
79.305702	156.0
79.418449	184.0
79.43869	204.0
79.483047	224.0
79.561142	160.0
79.671242	228.0
79.969978	156.0
80.535187	160.0
80.585205	152.0
80.678139	184.0
80.697807	200.0
80.73893	184.0
80.813164	132.0
81.0522	224.0
81.439606	216.0
81.606827	148.0
82.00106	156.0
82.080376	160.0
82.13707	220.0
82.473938	156.0
82.696411	164.0
82.988068	224.0
83.051537	212.0
83.081825	184.0
83.343819	160.0
83.52198	196.0
83.607491	144.0
83.666046	188.0
83.858826	140.0
83.91169	168.0
84.097755	160.0
84.748779	184.0
84.829422	148.0
84.87159	164.0
84.897255	148.0
84.959618	168.0
85.121727	124.0
85.146843	172.0
85.319572	156.0
85.818504	368.0
85.862762	176.0
86.147011	140.0
86.185806	172.0
86.346634	156.0
86.526123	208.0
86.598343	176.0
87.284988	196.0
87.497101	220.0
87.664734	180.0
88.020142	136.0
88.073318	168.0
88.452896	152.0
88.54464	152.0
88.831413	172.0
89.714592	236.0
90.440628	184.0
90.552338	144.0
90.588326	220.0
90.60537	192.0
90.647057	172.0
90.903053	168.0
91.075821	144.0
91.532249	152.0
92.061157	176.0
92.469582	164.0
92.885361	148.0
92.946754	140.0
93.581047	140.0
94.180786	188.0
94.31411	176.0
94.503632	164.0
94.639114	176.0
94.732079	148.0
94.784569	168.0
95.102432	140.0
95.364647	172.0
95.512413	160.0
95.79467	152.0
95.896294	156.0
95.933022	164.0
96.133095	152.0
96.215897	156.0
96.403404	184.0
96.559807	148.0
96.986633	188.0
97.165077	224.0
97.434044	140.0
97.4478	160.0
98.030228	164.0
98.661827	164.0
98.855865	120.0
98.87941	176.0
98.934837	152.0
99.027901	156.0
99.19236	196.0
99.845589	204.0
100.092346	168.0
100.323463	220.0
100.403221	208.0
100.421165	188.0
100.62471	200.0
100.818459	196.0
100.874428	156.0
100.988396	192.0
101.025017	324.0
101.042412	168.0
101.094627	164.0
101.156479	148.0
101.280624	188.0
101.356758	156.0
101.551208	184.0
101.729858	124.0
102.047516	480.0
102.125198	108.0
102.572647	168.0
102.590347	128.0
102.643211	168.0
102.717834	172.0
102.821632	184.0
102.857063	164.0
102.897438	148.0
102.928482	168.0
102.966888	344.0
103.020561	112.0
103.055077	85340.0
103.106125	96.0
103.175369	112.0
103.191582	204.0
103.328552	228.0
103.386917	424.0
103.421173	96.0
103.700516	144.0
103.780159	152.0
103.876915	148.0
104.057411	7216.0
104.409065	212.0
104.595123	208.0
104.654053	144.0
104.7836	156.0
105.032959	324.0
105.055733	140.0
105.397743	168.0
105.44883	176.0
106.055122	196.0
106.832909	152.0
106.937843	216.0
107.310699	140.0
108.012848	172.0
108.226006	140.0
108.511932	164.0
108.800308	176.0
108.966454	144.0
109.059959	156.0
109.586456	144.0
110.197777	212.0
110.440269	208.0
110.844322	216.0
110.986855	172.0
111.774536	140.0
112.079857	140.0
112.147293	168.0
113.081245	104.0
113.176102	180.0
113.303177	192.0
113.832672	112.0
114.082016	152.0
114.47776	188.0
114.518227	164.0
114.895523	140.0
115.054489	2376.0
115.098282	152.0
115.151672	220.0
115.194603	200.0
115.504341	196.0
115.885902	188.0
116.056335	240.0
116.245628	212.0
116.352951	184.0
116.539803	148.0
116.602821	108.0
116.673058	164.0
117.021584	140.0
117.069984	6480.0
117.592834	156.0
118.073898	816.0
118.622421	172.0
119.143234	152.0
119.451927	156.0
119.927513	96.0
119.985466	180.0
120.321434	172.0
120.421883	168.0
120.955391	148.0
121.279564	164.0
122.1073	204.0
122.179886	156.0
122.512314	176.0
123.614052	196.0
123.826576	192.0
124.594063	228.0
125.899323	284.0
125.99984	148.0
126.20993	184.0
126.45153	164.0
126.514206	184.0
126.886093	168.0
127.321136	152.0
127.363258	132.0
127.548325	260.0
127.969009	148.0
128.050705	260.0
128.18074	164.0
128.462555	168.0
128.688232	180.0
129.031662	192.0
129.056625	144.0
129.106277	156.0
129.189957	208.0
129.280457	144.0
129.309891	144.0
129.985214	168.0
130.051025	176.0
130.92215	176.0
131.04689	200.0
131.163284	152.0
131.202042	188.0
131.233963	148.0
131.26886	212.0
131.40448	168.0
131.46434	180.0
131.635559	176.0
131.795441	168.0
132.021744	144.0
132.049393	136.0
132.597885	140.0
133.406631	176.0
133.565292	140.0
134.609314	220.0
134.887268	208.0
134.990585	144.0
135.055344	180.0
135.175644	164.0
135.328415	156.0
135.743179	144.0
135.894836	208.0
136.003006	168.0
136.542038	184.0
137.191666	144.0
137.798462	140.0
138.312927	228.0
138.432343	188.0
138.657227	152.0
139.093491	196.0
139.702103	188.0
139.904495	156.0
140.253113	144.0
140.602188	208.0
141.460175	164.0
142.065018	280.0
142.301773	200.0
142.702759	160.0
142.82695	176.0
143.072052	212.0
143.543808	352.0
144.080841	144.0
145.066803	180.0
145.661911	184.0
146.058517	288.0
146.969162	172.0
147.075348	140.0
147.471466	180.0
147.856003	140.0
147.909256	184.0
147.969772	148.0
148.672714	148.0
148.69455	156.0
148.966492	172.0
149.05397	160.0
149.681534	176.0
149.715622	208.0
150.039703	180.0
150.15918	144.0
150.193329	152.0
150.383636	148.0
150.747528	168.0
151.05069	180.0
151.217072	176.0
151.605759	192.0
151.85408	180.0
151.993912	160.0
152.06282	968.0
152.585846	172.0
152.649765	220.0
152.92038	164.0
153.070969	360.0
153.634964	176.0
153.869415	148.0
153.911392	160.0
154.076874	212.0
154.43187	156.0
154.568893	156.0
155.198044	140.0
155.503174	144.0
155.614868	180.0
155.670593	132.0
155.937805	180.0
156.04538	596.0
156.124268	148.0
156.141678	152.0
156.676834	200.0
156.985901	172.0
157.048325	124.0
157.315247	148.0
157.547485	140.0
157.573135	120.0
157.594727	128.0
158.061279	148.0
158.362946	372.0
158.438095	188.0
158.510757	172.0
158.804062	160.0
158.869278	156.0
159.947311	148.0
160.131104	340.0
160.243622	144.0
160.3629	144.0
160.428436	140.0
160.747025	140.0
160.84584	156.0
160.888107	168.0
161.16539	176.0
161.653412	224.0
162.023071	180.0
162.357651	176.0
162.410919	164.0
162.730667	172.0
163.119354	148.0
164.049728	196.0
164.229538	140.0
165.071136	856.0
165.238556	192.0
165.3358	172.0
165.37674	156.0
165.886871	224.0
165.986465	156.0
166.078125	996.0
166.422668	160.0
166.7155	168.0
166.946869	176.0
167.031738	200.0
167.086288	2828.0
167.337982	252.0
168.088333	816.0
168.242889	140.0
168.560883	168.0
169.064835	176.0
169.397293	128.0
169.665756	160.0
170.059402	936.0
170.304092	204.0
170.387222	172.0
170.566605	128.0
170.862976	232.0
170.899414	184.0
171.065384	320.0
171.167511	180.0
171.313354	148.0
171.931305	152.0
172.649719	164.0
173.071014	160.0
173.20459	148.0
173.24649	152.0
173.443024	176.0
173.699997	144.0
173.881042	140.0
174.05809	292.0
174.32486	188.0
174.603516	188.0
175.124634	144.0
175.168655	140.0
175.2827	160.0
176.031845	160.0
176.063797	280.0
176.44931	140.0
176.584167	160.0
177.070084	800.0
177.569412	144.0
177.877197	148.0
178.077347	1292.0
178.46431	204.0
178.897964	164.0
179.025772	148.0
179.085983	292.0
180.05751	160.0
180.405197	180.0
181.033951	184.0
181.064438	208.0
181.360809	140.0
181.47876	236.0
182.488297	224.0
182.743805	176.0
183.576126	152.0
184.005142	192.0
184.907974	144.0
185.086639	144.0
185.425262	140.0
186.23378	144.0
186.437546	208.0
186.58519	152.0
187.276291	124.0
187.65155	140.0
187.913956	152.0
187.970673	168.0
188.074249	172.0
188.306458	140.0
188.451248	176.0
189.073654	208.0
189.468994	180.0
189.935013	152.0
190.195679	164.0
190.610382	148.0
190.764282	204.0
191.075867	160.0
191.278687	196.0
191.556808	140.0
191.589859	152.0
191.895767	144.0
191.941788	192.0
192.077789	296.0
192.815765	168.0
193.052322	252.0
193.091843	632.0
193.525894	148.0
193.78624	144.0
193.908554	128.0
193.930344	192.0
194.032166	148.0
194.074112	552.0
194.095749	1856.0
194.127182	192.0
194.349091	160.0
194.790512	192.0
195.048935	172.0
195.081039	996.0
195.360367	196.0
195.496155	160.0
196.082031	136.0
196.296188	156.0
196.365906	220.0
197.217484	160.0
197.337677	156.0
197.494278	176.0
198.056885	140.0
198.093292	164.0
198.253006	172.0
199.34462	172.0
199.423309	140.0
199.757919	192.0
200.03392	148.0
200.230774	148.0
200.769653	208.0
201.423859	252.0
201.819504	200.0
201.904343	184.0
202.546814	156.0
202.818832	144.0
202.852844	140.0
203.079514	340.0
204.087158	264.0
204.486069	148.0
204.782166	176.0
205.0755	716.0
205.098083	384.0
205.686035	148.0
205.908737	140.0
206.055573	196.0
206.096268	14292.0
206.160141	172.0
206.265884	140.0
206.296997	124.0
206.383102	172.0
206.986847	252.0
207.09906	1924.0
208.100113	356.0
208.45163	136.0
208.883896	220.0
209.232101	284.0
209.488403	168.0
209.518799	112.0
209.593765	168.0
210.085129	140.0
210.155396	220.0
211.094299	108.0
211.304276	160.0
212.4254	168.0
213.971436	120.0
214.137421	176.0
215.526001	152.0
216.002533	140.0
216.076981	116.0
216.523514	148.0
216.655319	192.0
216.827057	204.0
216.904404	156.0
216.930786	140.0
217.094009	444.0
217.235764	164.0
217.321426	160.0
217.658386	164.0
217.737396	128.0
217.793488	148.0
217.822861	212.0
218.063782	160.0
218.092712	136.0
218.352386	172.0
218.56665	140.0
218.590195	164.0
218.860992	156.0
219.106873	300.0
219.420792	160.0
219.889816	152.0
220.112457	720.0
220.143692	164.0
220.226395	200.0
220.290344	188.0
220.341599	164.0
220.391815	148.0
220.749481	160.0
221.270248	156.0
222.092331	332.0
222.626495	128.0
222.696579	152.0
223.177994	140.0
224.661163	140.0
225.243927	196.0
225.368729	176.0
226.047485	140.0
226.434555	148.0
226.517532	196.0
226.952438	168.0
227.162018	160.0
227.480103	184.0
227.702301	164.0
228.62825	168.0
228.712524	140.0
228.953384	208.0
229.088928	144.0
229.924133	188.0
229.995682	136.0
230.094772	712.0
230.367981	216.0
230.565598	148.0
230.795959	144.0
230.913239	112.0
231.093445	132.0
231.138931	148.0
231.220642	228.0
231.393173	188.0
231.614243	200.0
232.026367	152.0
232.081512	192.0
232.326904	120.0
232.414581	220.0
232.444931	252.0
232.611847	176.0
233.088943	476.0
233.307495	252.0
233.337906	172.0
233.392624	172.0
233.974609	244.0
234.051208	160.0
234.091736	25112.0
234.141327	188.0
234.213715	184.0
234.633316	160.0
235.095108	5316.0
235.153412	160.0
235.266342	152.0
235.489365	208.0
235.590057	208.0
235.702271	148.0
235.812302	196.0
236.097687	428.0
236.466904	260.0
236.6819	140.0
236.80719	132.0
236.897781	140.0
237.981949	204.0
238.01265	140.0
238.242996	152.0
239.116257	164.0
239.654114	148.0
240.339645	144.0
240.4384	176.0
240.559921	136.0
240.650909	128.0
240.799606	184.0
241.389877	212.0
241.631134	196.0
241.82608	148.0
241.923004	128.0
241.971558	244.0
242.179047	148.0
242.408295	280.0
243.028442	160.0
244.028549	180.0
244.06897	152.0
244.488922	160.0
244.750397	172.0
244.893646	188.0
245.363007	148.0
245.425964	152.0
245.969376	244.0
246.225388	216.0
247.084991	160.0
247.883408	196.0
248.104996	1056.0
248.142059	176.0
248.16864	236.0
248.576401	156.0
249.114075	368.0
250.075455	172.0
250.302124	196.0
250.333618	144.0
250.468491	160.0
251.105713	152.0
252.897141	152.0
253.007935	156.0
253.796829	156.0
253.993454	140.0
254.596481	168.0
254.682236	144.0
255.063721	132.0
255.661469	148.0
255.696472	208.0
255.791962	148.0
256.074158	140.0
256.401886	184.0
256.766937	196.0
257.431793	196.0
258.101746	148.0
258.719238	144.0
258.882538	144.0
259.020264	152.0
260.450836	164.0
260.547211	168.0
260.704163	132.0
260.846069	156.0
261.048615	152.0
261.141876	224.0
261.209442	148.0
261.457184	192.0
261.569824	208.0
261.717926	156.0
261.866058	244.0
262.210785	180.0
262.346344	136.0
263.459503	156.0
263.789124	156.0
263.893585	156.0
264.166016	132.0
265.009216	152.0
265.229584	148.0
265.488953	148.0
265.672729	144.0
266.014557	152.0
266.445801	172.0
266.820221	148.0
267.581512	156.0
268.26889	172.0
268.836426	184.0
268.865784	144.0
269.35553	160.0
269.656128	192.0
270.022247	192.0
270.665894	112.0
270.978149	156.0
271.571472	160.0
272.139191	156.0
272.421295	116.0
273.69931	196.0
273.784821	132.0
273.95459	192.0
274.25116	180.0
274.42453	140.0
274.574249	164.0
274.655792	100.0
274.755676	160.0
274.953644	140.0
275.018402	104.0
275.074402	116.0
275.16037	172.0
275.326447	100.0
275.417236	184.0
275.457611	144.0
275.584229	100.0
275.623413	132.0
275.685364	168.0
275.769714	216.0
275.807983	192.0
275.836914	384.0
275.886658	132.0
275.915527	208.0
275.947998	252.0
276.003815	176.0
276.103851	149520.0
276.170502	120.0
276.221924	400.0
276.259308	176.0
276.356384	148.0
276.388184	112.0
276.424103	108.0
276.501038	176.0
276.529694	116.0
276.555969	224.0
276.647308	2200.0
276.694397	180.0
276.736786	124.0
276.830933	100.0
276.914948	124.0
276.949677	172.0
277.033997	184.0
277.106049	40332.0
277.218567	112.0
277.302704	192.0
277.454193	124.0
277.653595	156.0
277.744751	120.0
277.801697	140.0
277.830597	160.0
277.895111	120.0
277.969635	112.0
278.053467	132.0
278.108948	2932.0
278.168762	160.0
278.305725	108.0
278.338196	96.0
278.387421	168.0
278.447418	112.0
278.5177	120.0
278.647217	148.0
278.67865	132.0
278.804932	144.0
278.880676	148.0
278.954163	140.0
279.023499	96.0
279.057434	168.0
279.108124	256.0
279.141937	152.0
279.207886	132.0
279.237366	292.0
279.446259	148.0
279.496338	144.0
279.759155	120.0
280.086639	108.0
280.143951	160.0
281.128021	120.0
281.713989	204.0
281.977936	140.0
282.001343	160.0
282.265442	148.0
282.33902	200.0
282.470795	140.0
282.546387	180.0
283.256073	156.0
284.194763	144.0
284.396118	260.0
285.050995	188.0
285.857819	120.0
286.645203	132.0
287.357452	172.0
287.622559	144.0
287.782715	240.0
288.077942	124.0
288.133972	140.0
288.903809	128.0
289.029938	152.0
290.401947	144.0
290.464966	104.0
290.746002	196.0
290.919464	108.0
290.984802	116.0
291.050201	184.0
291.410156	148.0
291.508698	240.0
291.671173	212.0
291.990417	188.0
292.023285	108.0
292.093079	160.0
292.201172	120.0
292.27298	200.0
292.374725	156.0
292.445404	120.0
292.687958	108.0
292.864471	276.0
292.888916	128.0
292.953979	124.0
293.00885	124.0
293.050446	212.0
293.109406	124.0
293.135498	208.0
293.202576	112.0
293.22879	152.0
293.310455	296.0
293.382965	280.0
293.42392	368.0
293.473541	288.0
293.503235	268.0
293.613373	164.0
293.656006	392.0
293.718353	292.0
293.743774	136.0
293.788544	184.0
293.814758	340.0
293.872131	492.0
293.904907	204.0
293.930786	288.0
294.052216	712.0
294.115173	219560.0
294.221161	168.0
294.282715	128.0
294.345184	340.0
294.43161	1040.0
294.489319	464.0
294.534119	884.0
294.636353	1272.0
294.681213	10252.0
294.714508	484.0
294.745575	208.0
294.805054	180.0
294.834534	156.0
294.891327	148.0
294.93985	360.0
294.94519	436.0
295.021667	280.0
295.117371	104344.0
295.211731	336.0
295.284363	112.0
295.314514	208.0
295.349792	128.0
295.469696	124.0
295.546356	224.0
295.62442	144.0
295.809753	160.0
295.842529	112.0
295.873077	216.0
295.947754	128.0
296.062012	272.0
296.119141	11004.0
296.247925	132.0
296.287903	104.0
296.346344	164.0
296.377869	96.0
296.552063	124.0
296.616089	136.0
296.713684	136.0
296.7742	176.0
296.807922	348.0
296.852173	180.0
296.89389	204.0
296.92981	176.0
296.970367	168.0
297.00235	296.0
297.038605	172.0
297.1203	788.0
297.169861	188.0
297.207275	304.0
297.235168	248.0
297.307831	244.0
297.423187	136.0
297.480957	128.0
297.516022	184.0
297.572327	128.0
297.666168	112.0
297.718689	96.0
298.092926	216.0
298.227631	140.0
298.292694	132.0
298.326996	108.0
298.601013	104.0
298.671326	176.0
298.841553	128.0
298.95871	104.0
299.172333	104.0
301.570831	96.0
301.738312	120.0
303.182587	104.0
306.690552	140.0
307.857422	96.0
309.723877	100.0
323.305511	140.0
323.767334	148.0
329.612976	180.0
333.999695	172.0
338.009125	140.0
358.241852	144.0
392.080109	140.0
404.76059	144.0
458.671906	148.0
487.879028	100.0
519.487793	108.0
522.292175	144.0
581.094421	148.0
908.854492	164.0
945.921936	144.0
1134.81665	140.0
1169.15918	200.0
1207.739014	244.0
1261.528687	164.0
1271.828003	176.0
1279.142334	160.0
1350.803345	164.0
1352.171631	140.0
1360.226807	160.0
1367.12085	176.0
1368.438354	180.0
1369.277832	176.0
1376.60083	148.0
1378.97229	220.0
1416.848267	192.0
1428.559326	144.0
1432.127197	160.0
1436.831055	160.0
1463.517334	188.0
1480.415649	164.0
1481.020752	188.0
1486.364136	204.0
1490.341553	156.0
1493.85498	184.0
1494.531982	200.0
1497.118408	212.0
1503.210938	132.0
1518.712158	140.0
1520.690674	188.0
1525.661987	188.0
1528.158447	144.0
1529.193359	232.0
1529.839478	176.0
1530.143066	192.0
1530.633545	160.0
1532.328857	148.0
1533.227661	172.0
1538.882935	176.0
1542.40625	152.0
1543.391235	188.0
1546.786621	164.0
1558.56604	184.0
1561.411743	148.0
1567.02417	192.0
1571.612061	164.0
1580.691895	148.0
1584.555786	204.0
1588.55127	144.0
1596.374512	192.0
1598.641724	304.0
1601.842407	168.0
1608.57251	160.0
1615.436768	232.0
1617.069092	248.0
1619.150635	160.0
1620.696655	144.0
1623.406006	184.0
1624.208008	200.0
1630.301758	208.0
1630.896484	180.0
1640.322144	188.0
1641.071899	188.0
1653.706177	224.0
1655.114868	164.0
1655.851685	212.0
1658.241821	176.0
1661.436646	148.0
1668.94104	164.0
1687.547241	204.0
1701.097534	228.0
1713.32373	220.0
1714.949341	156.0
1729.511108	168.0
1734.729614	152.0
1745.705688	192.0
1746.254517	192.0
1749.890991	160.0
1761.700073	148.0
1762.134521	140.0
1775.804321	140.0
1777.440186	176.0
1790.604736	168.0
1792.77832	140.0
1794.059448	200.0
1796.494873	192.0
1798.555542	192.0
1800.159668	140.0
1804.418213	160.0
1806.329346	140.0
1809.155762	148.0
1810.341064	148.0
1818.013062	140.0
1824.043213	148.0
1824.765869	172.0
1825.165527	160.0
1837.182861	164.0
1839.324707	148.0
1840.793091	148.0
1844.637817	244.0
1845.039551	192.0
1851.182861	164.0
1853.812744	172.0
1863.835327	252.0
1868.417969	196.0
1870.345581	148.0
1872.265503	204.0
1883.892334	160.0
1884.488525	208.0
1887.556885	148.0
1900.541016	172.0
1909.592896	180.0
1917.350098	164.0
1921.614136	188.0
1927.717529	164.0
1930.777222	180.0
1932.929199	236.0
1936.194458	140.0
1937.306885	196.0
1939.252075	192.0
1946.595093	248.0
1946.735596	212.0
1951.902588	188.0
1953.028198	236.0
1953.387817	160.0
1953.503174	140.0
1959.383911	172.0
1967.250244	184.0
1968.907227	152.0
1969.819946	232.0
1969.996704	184.0
1973.469849	224.0
1975.079346	184.0
1976.645264	180.0
1979.291992	152.0
1982.666992	180.0
1986.089355	148.0
1988.804443	144.0
1994.409058	228.0
1994.649048	184.0
END IONS

BEGIN IONS
PEPMASS=342.148
CHARGE=1
MSLEVEL=2
SOURCE_INSTRUMENT=LC-ESI-qTof
FILENAME=NCP003352_A2_B11_BC4_01_15718.mzXML
SEQ=*..*
IONMODE=Positive
ORGANISM=GNPS-NIH-CLINICALCOLLECTION1
NAME=LEVOSULPIRIDE [M+H]
PI=Dorrestein
DATACOLLECTOR=Garg_Neha
SMILES=CCN1CCC[C@H]1CNC(=O)c2cc(ccc2OC)S(=O)(=O)N
INCHI=N/A
INCHIAUX=N/A
PUBMED=N/A
SUBMITUSER=negarg
LIBRARYQUALITY=1
SPECTRUMID=CCMSLIB00000078968
USI=mzspec:GNPS:GNPS-NIH-CLINICALCOLLECTION1:accession:CCMSLIB00000078968
SCANS=981
46.010506	140.0
46.038864	156.0
48.079945	152.0
48.288563	148.0
48.654381	236.0
50.155426	140.0
50.361431	176.0
50.405228	160.0
50.90527	168.0
51.043106	144.0
51.439178	156.0
51.473446	164.0
53.352329	240.0
55.047604	140.0
56.692936	156.0
57.003571	144.0
57.307518	160.0
58.992813	176.0
59.725128	196.0
60.185917	224.0
60.457981	224.0
60.488937	152.0
60.681034	196.0
61.002396	148.0
61.47744	196.0
62.167568	172.0
63.413483	188.0
63.46104	176.0
64.131897	168.0
64.846336	180.0
65.394028	220.0
66.089554	148.0
66.433022	144.0
67.909248	156.0
68.17028	156.0
68.561943	156.0
69.995102	152.0
70.231537	212.0
70.493652	308.0
70.964821	172.0
70.997536	168.0
71.272835	208.0
72.691254	148.0
72.725197	152.0
73.139931	212.0
73.421059	184.0
75.76046	188.0
76.30217	168.0
77.171928	140.0
77.408142	156.0
77.46244	160.0
79.259491	168.0
79.720863	180.0
80.388657	196.0
80.742371	168.0
81.898216	164.0
81.976486	136.0
82.017143	156.0
82.473801	168.0
82.57505	168.0
82.676361	152.0
83.085861	144.0
84.479515	168.0
85.405853	172.0
85.532814	152.0
86.967163	152.0
87.013573	164.0
88.078537	140.0
88.175926	164.0
88.95887	160.0
88.988907	204.0
89.159843	180.0
89.441963	212.0
89.632179	152.0
89.649139	160.0
92.140526	160.0
92.218872	152.0
93.839058	140.0
94.186424	172.0
94.455101	164.0
95.395584	208.0
95.794502	152.0
97.006569	172.0
97.657974	144.0
97.705185	156.0
98.096001	1864.0
98.223274	156.0
98.237083	140.0
98.262726	184.0
99.011894	152.0
99.099495	260.0
99.30323	156.0
99.893158	164.0
99.940903	204.0
100.880249	184.0
101.03624	160.0
101.520958	156.0
102.131508	144.0
102.802399	188.0
103.234703	148.0
103.524078	200.0
104.500427	224.0
104.549263	224.0
105.759537	176.0
106.17955	140.0
106.280067	140.0
106.902679	184.0
107.053947	224.0
107.616867	192.0
108.60714	176.0
110.09729	572.0
110.435898	156.0
110.607475	148.0
111.0961	156.0
111.337105	172.0
111.374908	176.0
111.833275	160.0
112.01857	168.0
112.112663	33212.0
112.217155	156.0
112.805672	180.0
113.087379	180.0
113.114967	2004.0
113.152618	208.0
113.994682	144.0
114.021103	100.0
114.115837	308.0
116.221832	160.0
116.586884	164.0
116.881485	160.0
117.776161	160.0
117.89283	172.0
118.197731	184.0
118.819557	144.0
120.04631	168.0
120.212097	148.0
121.051514	180.0
121.869682	204.0
124.052376	228.0
124.429512	144.0
126.017502	144.0
126.520454	180.0
127.116905	180.0
127.530128	144.0
128.130951	296.0
129.796722	188.0
130.122528	276.0
130.209732	144.0
130.286972	180.0
132.286942	144.0
133.027359	148.0
133.590363	192.0
133.707718	168.0
134.030106	164.0
134.216812	160.0
135.0345	136.0
138.984375	404.0
139.847763	152.0
141.758347	168.0
143.119431	152.0
143.140671	228.0
144.726349	156.0
146.065491	168.0
146.363907	168.0
148.395935	176.0
150.056503	140.0
150.586029	176.0
151.039963	388.0
152.094604	148.0
152.29071	160.0
154.363327	152.0
154.77655	148.0
155.587296	140.0
155.865479	176.0
156.290665	160.0
156.352875	164.0
156.69899	144.0
158.094803	160.0
158.768692	156.0
159.152618	200.0
160.395401	184.0
160.455902	168.0
161.099426	156.0
162.433472	148.0
163.442062	156.0
163.620224	148.0
164.247116	204.0
164.397644	160.0
164.492065	156.0
164.867523	204.0
165.642761	144.0
166.0289	364.0
166.836014	152.0
166.861725	176.0
167.022079	180.0
168.28392	156.0
169.152542	164.0
169.351929	176.0
169.725098	176.0
169.98967	144.0
170.563644	148.0
170.634201	140.0
170.997406	300.0
171.037048	152.0
171.255768	176.0
173.518753	144.0
174.08551	168.0
175.02359	156.0
175.772858	144.0
176.015701	156.0
176.578583	160.0
176.803467	196.0
177.139725	144.0
177.470993	224.0
177.688477	172.0
178.583679	172.0
179.337173	156.0
180.118958	176.0
180.215134	152.0
180.549271	164.0
180.795395	160.0
180.820511	156.0
181.12738	204.0
181.475769	256.0
183.004562	236.0
183.446396	188.0
184.020844	296.0
185.018646	140.0
186.130264	216.0
187.340546	172.0
187.828964	164.0
188.076797	180.0
188.368973	148.0
189.203033	216.0
189.444397	144.0
189.474152	148.0
190.170654	144.0
191.256561	148.0
192.292679	160.0
193.044098	224.0
194.124084	152.0
194.276627	188.0
195.668945	156.0
195.710709	156.0
196.234512	144.0
196.991425	148.0
197.069031	152.0
197.264664	148.0
197.76535	140.0
199.001801	508.0
199.574783	176.0
199.856049	164.0
200.038147	400.0
200.067123	172.0
201.048004	140.0
201.197601	160.0
201.609985	196.0
201.64389	188.0
202.03862	148.0
202.628632	188.0
203.493652	156.0
204.09494	160.0
204.423111	140.0
204.585358	144.0
205.785599	180.0
205.839844	236.0
206.176941	144.0
207.166931	180.0
208.202454	128.0
208.371841	152.0
208.785751	216.0
209.107971	168.0
210.618805	156.0
211.214233	176.0
211.614822	180.0
212.172745	152.0
212.863297	152.0
213.02504	156.0
213.517151	148.0
213.905579	136.0
213.956635	188.0
213.979889	148.0
214.017731	72484.0
214.134827	188.0
214.246109	100.0
214.299774	124.0
214.407516	136.0
214.524933	136.0
214.918304	140.0
215.020416	4052.0
215.439072	128.0
216.015137	2560.0
216.17186	188.0
216.407104	140.0
216.691711	176.0
216.715714	112.0
216.827835	140.0
217.009583	176.0
218.192764	160.0
218.639862	212.0
220.147217	152.0
220.654495	224.0
221.397186	168.0
223.008163	140.0
223.469101	228.0
225.900497	180.0
226.045547	148.0
226.196747	224.0
229.314529	224.0
229.625061	196.0
230.019165	136.0
230.07164	188.0
230.391754	140.0
230.950974	164.0
231.040451	576.0
231.074997	216.0
231.844101	172.0
232.049332	204.0
233.641632	180.0
233.903336	140.0
234.234833	152.0
234.48204	164.0
234.518616	140.0
234.649689	184.0
234.860107	188.0
234.924667	144.0
234.975266	112.0
235.082809	164.0
235.34993	148.0
237.80658	168.0
240.262115	164.0
240.79921	188.0
241.596695	176.0
243.433167	124.0
244.452209	180.0
245.656906	224.0
246.406143	220.0
246.943451	140.0
247.009491	172.0
248.692108	160.0
249.181976	152.0
249.254242	156.0
249.48053	168.0
250.389877	184.0
250.588333	196.0
251.01384	248.0
252.25145	144.0
253.4319	156.0
255.365158	152.0
255.641937	196.0
255.922043	148.0
256.10675	156.0
256.756927	164.0
257.008942	156.0
259.282532	156.0
261.427765	144.0
261.720703	140.0
262.113678	304.0
262.63916	184.0
262.935974	228.0
263.830719	240.0
265.417145	144.0
266.390808	140.0
267.828552	168.0
268.376678	204.0
269.093811	156.0
269.466156	192.0
269.917206	152.0
270.643585	156.0
271.669403	192.0
273.578308	164.0
274.616669	148.0
274.837677	140.0
276.155792	208.0
276.636017	152.0
277.175415	236.0
277.712463	168.0
278.037598	188.0
278.701752	224.0
279.384399	180.0
280.062347	160.0
280.325562	140.0
280.482178	168.0
280.805603	176.0
283.915894	152.0
284.003082	140.0
285.090027	428.0
287.37384	168.0
287.576324	212.0
288.045654	144.0
288.126709	196.0
288.606659	172.0
289.852264	184.0
290.337006	172.0
291.029266	140.0
291.684937	188.0
292.410461	104.0
294.46524	140.0
294.623657	188.0
296.751099	148.0
296.905396	148.0
297.088318	536.0
298.124084	152.0
299.097992	144.0
299.255768	192.0
299.438293	152.0
300.865814	212.0
301.228394	236.0
302.802185	168.0
303.707153	192.0
303.991272	172.0
304.758636	156.0
305.036682	144.0
305.412201	168.0
306.439148	172.0
308.484222	172.0
309.428772	204.0
309.950623	196.0
310.455414	184.0
311.002716	176.0
311.652405	180.0
311.951111	148.0
312.179657	192.0
312.731995	196.0
312.823517	160.0
314.11322	276.0
314.240234	156.0
314.504883	192.0
314.804993	172.0
314.90387	152.0
315.632843	128.0
316.732483	144.0
317.77713	100.0
317.888275	152.0
319.846527	152.0
319.966797	112.0
320.430542	168.0
320.462616	160.0
320.712067	208.0
321.154205	152.0
322.689728	160.0
322.811279	144.0
323.534027	232.0
324.138977	160.0
324.286255	160.0
324.669861	188.0
325.150604	148.0
325.574219	188.0
326.159851	200.0
326.526581	184.0
327.818542	156.0
328.013611	168.0
329.680511	132.0
331.070221	148.0
331.186127	144.0
332.12851	164.0
334.58136	156.0
334.821686	164.0
335.048492	132.0
335.49942	236.0
338.048828	144.0
338.167603	128.0
338.303284	136.0
338.370911	156.0
338.42218	152.0
338.640411	136.0
338.729248	128.0
339.799957	144.0
339.856201	284.0
339.923523	132.0
340.131104	448.0
340.207489	112.0
340.262054	384.0
340.334503	120.0
340.366364	168.0
340.414795	100.0
340.490814	184.0
340.730194	120.0
340.765656	116.0
340.863831	208.0
340.919312	152.0
340.950867	248.0
341.042511	164.0
341.106232	328.0
341.18335	276.0
341.25589	216.0
341.311981	128.0
341.382355	104.0
341.418762	132.0
341.457489	356.0
341.51123	192.0
341.566589	132.0
341.643555	344.0
341.675751	168.0
341.750732	204.0
341.805695	224.0
341.869324	320.0
341.917542	408.0
341.952637	112.0
341.981934	268.0
342.039612	260.0
342.073975	1020.0
342.150482	225632.0
342.243927	112.0
342.270844	168.0
342.378998	108.0
342.429169	280.0
342.49823	396.0
342.575653	380.0
342.629913	184.0
342.678284	184.0
342.709595	204.0
342.756622	8908.0
342.797211	536.0
342.82782	272.0
342.880585	364.0
342.9375	300.0
343.015045	328.0
343.078308	188.0
343.152039	78312.0
343.27124	168.0
343.334381	116.0
343.384033	136.0
343.415863	252.0
343.493622	256.0
343.548065	152.0
343.609344	168.0
343.689148	228.0
343.746063	268.0
343.860229	124.0
343.900879	160.0
343.952271	164.0
343.996155	412.0
344.039978	284.0
344.147675	21212.0
344.233917	136.0
344.322968	108.0
344.400391	164.0
344.564667	192.0
344.605957	188.0
344.638916	168.0
344.67395	176.0
344.838501	200.0
344.910187	288.0
344.990173	164.0
345.042725	284.0
345.069977	200.0
345.082764	156.0
345.148041	2888.0
345.248108	148.0
345.317902	188.0
345.34848	248.0
345.394775	192.0
345.415527	240.0
345.460327	192.0
345.49527	364.0
345.52597	276.0
345.598083	360.0
345.63031	200.0
345.770142	108.0
345.838715	112.0
345.944672	160.0
345.983154	192.0
346.100403	148.0
346.145569	284.0
346.214874	116.0
346.397308	124.0
346.428131	132.0
346.465759	148.0
346.703735	204.0
346.737549	120.0
347.160553	112.0
347.414886	264.0
347.748108	120.0
347.894165	132.0
348.857788	124.0
356.350006	96.0
356.394775	96.0
356.538422	112.0
357.50885	116.0
358.227814	132.0
360.935974	140.0
424.94223	148.0
488.013	148.0
577.103821	140.0
793.052246	152.0
875.26825	156.0
909.921326	152.0
1254.798706	148.0
1336.974854	160.0
1408.012085	208.0
1442.45459	164.0
1505.452148	196.0
1513.974243	212.0
1514.268433	140.0
1534.79187	140.0
1536.078735	164.0
1563.053223	192.0
1567.273682	184.0
1588.612061	156.0
1605.434204	204.0
1612.099976	148.0
1614.322266	176.0
1631.142944	152.0
1641.488403	232.0
1652.44104	152.0
1662.496704	184.0
1678.432251	164.0
1707.758545	156.0
1740.451172	152.0
1747.058472	152.0
1754.211792	224.0
1764.262695	156.0
1769.550049	148.0
1770.496216	148.0
1787.453369	140.0
1796.839478	164.0
1802.530273	212.0
1804.44043	172.0
1812.794678	152.0
1818.230591	152.0
1829.893066	200.0
1844.224365	200.0
1863.076172	196.0
1885.453125	140.0
1886.109985	160.0
1914.95105	140.0
1927.670654	164.0
1938.206055	180.0
1943.054565	144.0
1945.05542	264.0
1962.615234	176.0
1975.863403	168.0
1984.294678	140.0
1994.796753	148.0
END IONS

BEGIN IONS
PEPMASS=358.957
CHARGE=1
MSLEVEL=2
SOURCE_INSTRUMENT=LC-ESI-qTof
FILENAME=NCP003352_C2_D11_BC5_01_15719.mzXML
SEQ=*..*
IONMODE=Positive
ORGANISM=GNPS-NIH-CLINICALCOLLECTION1
NAME=TRICLABENDAZOLE [M+H]
PI=Dorrestein
DATACOLLECTOR=Garg_Neha
SMILES=CSc1nc2cc(Cl)c(Oc3cccc(Cl)c3Cl)cc2[nH]1
INCHI=N/A
INCHIAUX=N/A
PUBMED=N/A
SUBMITUSER=negarg
LIBRARYQUALITY=1
SPECTRUMID=CCMSLIB00000078991
USI=mzspec:GNPS:GNPS-NIH-CLINICALCOLLECTION1:accession:CCMSLIB00000078991
SCANS=2289
81.113174	160.0
88.346268	160.0
91.593231	156.0
101.992981	176.0
131.297867	188.0
134.085693	188.0
154.734787	184.0
156.776566	200.0
163.032806	148.0
165.020416	304.0
166.022446	152.0
167.016373	288.0
167.907532	144.0
168.242966	144.0
170.977554	188.0
173.07634	188.0
176.259094	180.0
196.997025	168.0
198.003845	116.0
198.970642	452.0
199.350327	184.0
212.979904	164.0
214.003555	196.0
229.989563	264.0
231.987061	152.0
242.030228	176.0
244.01622	140.0
250.984421	152.0
251.996002	148.0
252.985794	128.0
254.14267	164.0
273.998199	1396.0
275.007355	300.0
275.995544	424.0
276.997955	576.0
280.77951	144.0
280.972992	224.0
288.918427	156.0
292.008545	140.0
302.325073	140.0
307.962738	308.0
308.9664	500.0
310.961273	224.0
312.957977	144.0
313.958832	104.0
336.923401	152.0
343.935242	1956.0
344.939911	408.0
345.93277	1680.0
346.94043	288.0
352.46048	144.0
358.229095	112.0
358.886475	148.0
358.95874	6016.0
359.85614	152.0
359.962616	1052.0
360.956177	4544.0
361.125824	144.0
361.159882	228.0
361.248108	148.0
361.959442	856.0
362.233032	136.0
362.940735	128.0
362.992859	152.0
365.454224	148.0
END IONS

BEGIN IONS
PEPMASS=364.113
CHARGE=1
MSLEVEL=2
SOURCE_INSTRUMENT=LC-ESI-qTof
FILENAME=NCP003352_E2_F11_BC6_01_15720.mzXML
SEQ=*..*
IONMODE=Positive
ORGANISM=GNPS-NIH-CLINICALCOLLECTION1
NAME=rufloxacin monohydrochloride [M+H]
PI=Dorrestein
DATACOLLECTOR=Garg_Neha
SMILES=CN1CCN(CC1)c2c(F)cc3c(=O)c(cn4CCSc2c43)C(=O)O
INCHI=N/A
INCHIAUX=N/A
PUBMED=N/A
SUBMITUSER=negarg
LIBRARYQUALITY=1
SPECTRUMID=CCMSLIB00000079024
USI=mzspec:GNPS:GNPS-NIH-CLINICALCOLLECTION1:accession:CCMSLIB00000079024
SCANS=988
58.52063	152.0
117.075005	172.0
132.985809	140.0
154.056915	144.0
164.765015	176.0
166.052567	172.0
184.071991	180.0
187.036133	120.0
200.869888	160.0
202.053543	144.0
203.592667	144.0
206.940308	208.0
207.040527	144.0
213.455688	148.0
215.02449	184.0
216.035507	104.0
217.695801	160.0
226.70549	176.0
234.027725	292.0
235.032639	212.0
236.029327	148.0
249.051895	120.0
256.052155	184.0
262.068085	168.0
263.063263	1272.0
264.067902	104.0
265.06012	284.0
265.082581	164.0
266.059082	180.0
266.156464	156.0
272.093323	148.0
275.057495	116.0
285.03656	216.0
289.045837	172.0
291.915588	180.0
300.917053	144.0
303.087402	168.0
316.55484	180.0
318.107635	144.0
320.120941	1372.0
320.911133	192.0
321.12262	320.0
322.117218	320.0
338.934357	160.0
339.095581	224.0
341.220947	176.0
362.1539	196.0
363.253113	176.0
364.111267	2448.0
365.115845	800.0
365.175079	156.0
366.111359	128.0
367.121185	192.0
401.043854	172.0
443.809967	164.0
END IONS

BEGIN IONS
PEPMASS=264.196
CHARGE=1
MSLEVEL=2
SOURCE_INSTRUMENT=LC-ESI-qTof
FILENAME=NCP003432_A2_B11_BC8_01_15722.mzXML
SEQ=*..*
IONMODE=Positive
ORGANISM=GNPS-NIH-CLINICALCOLLECTION1
NAME=Tramadol [M+H]
PI=Dorrestein
DATACOLLECTOR=Garg_Neha
SMILES=COc1cccc(c1)[C@@]2(O)CCCC[C@@H]2CN(C)C
INCHI=N/A
INCHIAUX=N/A
PUBMED=N/A
SUBMITUSER=negarg
LIBRARYQUALITY=1
SPECTRUMID=CCMSLIB00000079046
USI=mzspec:GNPS:GNPS-NIH-CLINICALCOLLECTION1:accession:CCMSLIB00000079046
SCANS=1050
56.775269	168.0
58.082935	264.0
60.317108	148.0
63.337296	144.0
63.71484	148.0
66.00692	156.0
71.082939	156.0
75.694489	160.0
80.794075	204.0
87.18541	188.0
88.673576	156.0
93.076927	172.0
94.97789	156.0
97.655792	208.0
98.444107	204.0
99.737846	188.0
104.57753	168.0
106.158813	192.0
106.222397	144.0
108.105537	200.0
108.820648	144.0
116.466316	220.0
117.834236	144.0
117.91851	168.0
121.06369	292.0
122.025475	200.0
122.875603	144.0
123.016838	220.0
125.381271	224.0
127.127853	192.0
127.718727	208.0
129.807785	180.0
133.070694	180.0
133.102844	184.0
133.339462	196.0
133.781082	184.0
134.447205	192.0
135.080276	152.0
135.779755	204.0
136.962784	148.0
142.087631	152.0
143.245346	160.0
144.05545	272.0
144.25235	220.0
146.409348	140.0
147.081085	280.0
148.968353	184.0
150.019623	140.0
150.053757	140.0
153.126297	140.0
156.141068	148.0
156.424713	192.0
158.137009	216.0
158.537704	144.0
159.082748	260.0
161.086349	196.0
161.857834	144.0
167.460938	172.0
167.690247	156.0
172.074203	192.0
172.094101	200.0
173.094086	152.0
178.405136	216.0
183.637451	152.0
185.497726	172.0
189.117767	148.0
192.270187	192.0
194.134766	224.0
200.11174	160.0
201.12439	152.0
207.791458	152.0
214.792404	160.0
218.159958	148.0
221.479645	156.0
241.283829	216.0
243.514893	176.0
243.682632	144.0
244.158218	168.0
245.553818	152.0
246.185745	4452.0
247.189224	684.0
251.114212	156.0
251.142609	160.0
253.998825	140.0
254.608215	180.0
255.4823	168.0
261.18808	148.0
262.174835	184.0
262.87735	164.0
263.137421	132.0
263.165833	336.0
263.39621	180.0
263.519897	152.0
263.560364	136.0
263.724243	136.0
263.877228	200.0
264.13504	152.0
264.158905	152.0
264.19693	83600.0
264.279541	108.0
264.382874	152.0
264.444366	268.0
264.484741	200.0
264.559204	304.0
264.627472	268.0
264.726746	188.0
264.964294	132.0
265.017273	108.0
265.157257	188.0
265.199585	10556.0
265.522644	148.0
265.688171	112.0
265.731201	156.0
266.202759	1184.0
266.580872	160.0
266.806183	160.0
266.857849	252.0
267.045044	144.0
267.205383	420.0
267.270294	144.0
268.147705	132.0
328.157593	148.0
355.146912	152.0
1816.903076	140.0
1837.389038	172.0
END IONS

BEGIN IONS
PEPMASS=271.18
CHARGE=1
MSLEVEL=2
SOURCE_INSTRUMENT=LC-ESI-qTof
FILENAME=NCP003512_C2_D11_BD5_01_15729.mzXML
SEQ=*..*
IONMODE=Positive
ORGANISM=GNPS-NIH-CLINICALCOLLECTION1
NAME=Doxylamine  M+H
PI=Dorrestein
DATACOLLECTOR=Garg_Neha
SMILES=CN(C)CCOC(C)(c1ccccc1)c2ccccn2
INCHI=N/A
INCHIAUX=N/A
PUBMED=N/A
SUBMITUSER=negarg
LIBRARYQUALITY=1
SPECTRUMID=CCMSLIB00000079106
USI=mzspec:GNPS:GNPS-NIH-CLINICALCOLLECTION1:accession:CCMSLIB00000079106
SCANS=993
45.131477	176.0
45.266624	144.0
45.442055	168.0
45.767483	168.0
45.864479	200.0
45.946739	212.0
46.260265	144.0
46.327976	140.0
46.374046	200.0
46.494755	256.0
46.528687	172.0
46.752968	156.0
46.872803	220.0
47.103371	160.0
47.158028	152.0
48.322792	184.0
48.781612	176.0
48.947395	168.0
49.125793	148.0
49.208134	164.0
49.398193	164.0
49.511566	144.0
49.532578	168.0
49.685379	152.0
49.860897	148.0
50.077564	184.0
50.649609	164.0
50.78001	156.0
51.690342	148.0
52.005047	216.0
52.209644	156.0
52.4818	172.0
52.734428	160.0
52.886299	152.0
52.897877	180.0
53.047081	284.0
53.176178	160.0
53.228989	200.0
53.34903	148.0
53.498211	156.0
53.710163	144.0
53.945259	184.0
54.739006	180.0
54.765514	168.0
54.889309	180.0
55.224545	192.0
55.38588	140.0
55.975483	192.0
56.596653	188.0
56.688026	176.0
56.723995	176.0
56.770473	160.0
56.873993	140.0
57.258896	144.0
57.688923	164.0
57.931049	140.0
58.156982	208.0
58.188862	156.0
58.207081	140.0
58.226112	188.0
58.354469	156.0
58.825214	220.0
58.904621	152.0
59.443581	152.0
60.054302	200.0
60.528748	168.0
60.666637	164.0
60.728661	196.0
60.935123	184.0
61.173061	168.0
61.333504	168.0
61.545673	176.0
62.156128	168.0
62.815334	160.0
63.430454	180.0
63.48119	172.0
63.620811	176.0
63.639866	176.0
64.219116	232.0
64.281334	156.0
64.493744	144.0
64.51133	160.0
64.781769	172.0
65.00116	196.0
65.060806	156.0
65.533646	176.0
65.75618	216.0
65.796532	164.0
65.886971	228.0
66.10363	148.0
66.775261	204.0
66.902184	196.0
67.008041	140.0
67.365311	184.0
67.928429	232.0
67.948845	208.0
68.255257	140.0
68.647087	164.0
68.888138	184.0
68.91787	200.0
68.960838	248.0
69.329903	180.0
69.560448	212.0
69.8396	160.0
69.977722	172.0
70.045998	188.0
70.075989	204.0
70.267723	216.0
70.331131	204.0
70.3703	188.0
70.610153	184.0
70.789223	200.0
71.598656	160.0
71.821136	160.0
71.890305	168.0
72.521133	224.0
72.768799	172.0
73.090042	212.0
73.706581	152.0
74.008347	144.0
74.84626	140.0
74.937553	140.0
75.377541	212.0
76.205772	200.0
76.35527	156.0
76.457916	164.0
76.557144	148.0
76.956451	212.0
77.451363	184.0
77.752922	196.0
77.870552	184.0
78.157097	184.0
78.869568	160.0
80.200806	208.0
80.423759	176.0
80.593407	144.0
80.800804	180.0
81.225372	232.0
81.358162	148.0
81.40844	148.0
81.566544	204.0
81.907364	196.0
81.930046	140.0
81.976891	136.0
82.056198	144.0
82.929306	180.0
83.130615	164.0
83.288567	156.0
83.381226	172.0
84.020355	144.0
84.153587	152.0
84.297882	176.0
84.37648	176.0
84.700386	144.0
85.068962	144.0
85.151588	148.0
85.686874	220.0
86.197968	204.0
86.734673	144.0
86.881165	260.0
87.38092	224.0
87.645309	140.0
87.958618	144.0
88.025833	212.0
88.188362	156.0
88.513878	156.0
88.654373	164.0
88.744347	144.0
88.779976	204.0
88.984917	180.0
89.601379	148.0
89.774788	164.0
89.933258	148.0
90.091042	760.0
90.71447	152.0
91.092773	168.0
91.335396	148.0
91.519997	168.0
91.987076	152.0
92.346298	156.0
92.526169	144.0
92.614258	180.0
92.727303	152.0
93.099007	160.0
93.264709	188.0
93.670715	196.0
93.832588	172.0
94.179939	148.0
94.205048	240.0
95.070526	152.0
95.295769	140.0
95.739265	148.0
95.998451	232.0
96.349785	212.0
97.121048	148.0
97.24073	144.0
97.266251	180.0
97.621857	176.0
97.840256	148.0
97.950531	168.0
98.003723	168.0
98.37252	184.0
99.157768	208.0
99.918289	140.0
100.20697	144.0
100.905502	200.0
101.067505	196.0
101.14756	144.0
101.636559	140.0
101.893555	248.0
102.146851	204.0
102.650352	144.0
103.387688	152.0
104.054909	164.0
104.911049	204.0
105.013	144.0
105.368187	148.0
105.464226	148.0
105.560318	188.0
105.846794	204.0
106.172615	220.0
107.2314	176.0
108.944695	144.0
109.094315	156.0
109.321022	140.0
109.485481	216.0
109.835632	176.0
109.952469	172.0
109.987953	172.0
110.805603	148.0
111.204025	152.0
111.218712	276.0
111.661781	132.0
112.013535	152.0
112.393021	164.0
113.4823	160.0
113.766586	152.0
113.915237	168.0
114.178795	164.0
114.444786	156.0
114.736671	232.0
115.212578	192.0
116.19738	172.0
116.233856	176.0
116.902145	180.0
117.6371	164.0
117.843956	132.0
118.415504	176.0
118.760117	184.0
118.842552	176.0
120.26796	168.0
120.296341	144.0
120.501617	152.0
120.71801	188.0
120.9543	156.0
121.237419	164.0
121.326698	156.0
121.377121	140.0
122.705139	156.0
123.31218	152.0
124.69738	144.0
124.835213	164.0
126.121605	244.0
126.674294	180.0
126.918579	208.0
127.089043	140.0
127.537315	196.0
127.598465	196.0
127.787796	140.0
128.143524	184.0
128.632904	188.0
128.799988	184.0
128.935547	168.0
129.272507	156.0
129.44455	148.0
129.736816	180.0
130.165634	224.0
130.308731	148.0
130.806763	276.0
131.485977	164.0
131.547607	156.0
132.707504	176.0
132.792343	140.0
133.380142	160.0
133.775787	176.0
134.061615	464.0
134.866837	204.0
135.220718	196.0
135.310989	504.0
135.758179	140.0
135.867203	140.0
136.885223	148.0
137.752823	152.0
137.779999	164.0
138.672394	180.0
138.942047	144.0
138.96785	180.0
139.058395	928.0
139.210907	160.0
139.639694	148.0
140.05571	712.0
140.138733	160.0
140.482941	144.0
140.558441	160.0
140.685883	140.0
141.009491	192.0
141.579636	176.0
141.818924	216.0
142.058426	148.0
142.148575	176.0
142.255371	160.0
142.507111	140.0
143.013641	156.0
143.096954	176.0
144.311554	156.0
144.821075	184.0
146.7146	164.0
147.223709	168.0
147.65387	172.0
147.678055	144.0
147.870331	256.0
147.980545	172.0
149.240967	172.0
149.339478	172.0
149.5755	148.0
149.989594	236.0
150.306625	160.0
150.482361	140.0
150.582489	212.0
150.773041	140.0
150.914825	144.0
150.997971	144.0
151.051773	172.0
151.9263	160.0
152.061264	156.0
152.289597	176.0
152.306778	196.0
152.343628	172.0
152.419479	96.0
152.557419	140.0
152.914078	140.0
153.061783	164.0
153.278549	196.0
153.751831	160.0
153.786575	144.0
153.816193	140.0
154.184204	160.0
154.494507	216.0
154.562546	228.0
154.775421	172.0
154.849716	144.0
154.953461	172.0
155.109879	144.0
155.305756	208.0
155.866821	188.0
156.167618	148.0
156.26712	220.0
156.471207	160.0
157.146622	296.0
157.291367	140.0
157.591034	160.0
157.740982	212.0
158.271362	176.0
158.53688	140.0
158.592026	156.0
158.664719	168.0
159.24939	172.0
159.465454	156.0
159.580917	168.0
160.132187	140.0
160.30098	188.0
160.369019	224.0
160.797775	144.0
162.186325	240.0
162.40184	160.0
163.400162	164.0
163.512115	156.0
163.583389	144.0
163.65976	208.0
163.850784	232.0
163.884155	164.0
164.161743	208.0
164.306915	148.0
164.603195	180.0
165.070816	180.0
165.188675	148.0
165.21405	188.0
165.665955	176.0
165.779892	156.0
165.992661	180.0
166.034119	144.0
166.06517	1792.0
166.177444	196.0
166.213257	260.0
166.624069	164.0
166.869446	168.0
166.919647	108.0
166.967789	276.0
166.978012	200.0
167.049759	576.0
167.074554	178776.0
167.135437	180.0
167.171936	400.0
167.195404	232.0
167.281235	184.0
167.334229	124.0
167.407669	128.0
167.498611	160.0
167.6315	132.0
167.971634	220.0
168.007935	108.0
168.076294	23764.0
168.153229	128.0
168.176834	140.0
168.578857	104.0
168.646927	180.0
168.925903	188.0
169.032181	144.0
169.07962	1436.0
169.149918	124.0
169.221283	128.0
169.244141	112.0
169.263962	104.0
169.314606	152.0
169.33374	232.0
169.517654	96.0
169.617554	152.0
169.761749	104.0
170.087051	172.0
170.113007	156.0
172.039383	176.0
172.42334	160.0
172.894073	160.0
173.70105	168.0
173.931961	156.0
174.173538	140.0
174.754517	200.0
175.262665	140.0
175.776093	140.0
175.808517	168.0
176.035538	148.0
177.276749	96.0
177.55455	192.0
177.915405	152.0
178.276627	312.0
179.24791	196.0
179.802582	164.0
180.082047	1036.0
180.117645	220.0
180.256561	128.0
180.866333	160.0
181.063446	160.0
181.089447	1624.0
181.336441	292.0
181.412781	160.0
181.453537	176.0
181.536118	156.0
181.645386	200.0
181.751999	172.0
181.79332	168.0
181.842331	220.0
181.863419	144.0
181.904739	176.0
181.954681	168.0
181.97551	140.0
182.021637	208.0
182.041	192.0
182.097778	252356.0
182.16713	268.0
182.199799	212.0
182.24472	172.0
182.302246	172.0
182.324753	236.0
182.370285	160.0
182.408905	204.0
182.497284	144.0
182.538681	1044.0
182.569839	340.0
182.617035	144.0
182.745056	100.0
182.989761	188.0
183.046997	196.0
183.10022	36848.0
183.167252	148.0
183.246201	208.0
183.329575	100.0
183.393219	120.0
183.416748	104.0
183.464264	132.0
183.662567	120.0
183.936829	136.0
184.004028	168.0
184.071259	228.0
184.102081	2524.0
184.288925	180.0
184.34111	184.0
184.401306	164.0
184.424881	104.0
184.502304	116.0
184.534409	184.0
184.577744	132.0
184.67804	316.0
185.109177	220.0
185.41275	160.0
185.493881	128.0
185.700134	148.0
190.944031	152.0
191.440689	120.0
194.7332	148.0
195.030487	140.0
211.101303	476.0
212.10611	176.0
215.795868	140.0
216.181976	140.0
226.123047	1220.0
227.126572	360.0
233.287155	144.0
235.209274	144.0
248.979126	156.0
252.104218	256.0
258.822571	176.0
269.131042	184.0
271.091248	196.0
271.182068	21664.0
272.045685	132.0
272.125977	180.0
272.182983	3244.0
273.187286	920.0
274.385681	100.0
275.819794	188.0
305.354309	172.0
557.451538	140.0
1304.38147	172.0
1320.973755	172.0
1357.822632	200.0
1368.183105	200.0
1378.686401	172.0
1393.580444	176.0
1396.174683	172.0
1412.269287	152.0
1429.66748	144.0
1438.817993	236.0
1455.079956	176.0
1456.970947	164.0
1473.930908	164.0
1474.6875	140.0
1477.412231	176.0
1498.398926	148.0
1516.116699	164.0
1519.706909	144.0
1522.004395	204.0
1526.005859	212.0
1550.132446	196.0
1552.782227	188.0
1560.996582	164.0
1563.915283	144.0
1576.91333	172.0
1579.736206	140.0
1580.946655	248.0
1614.894287	164.0
1636.480713	148.0
1659.158936	140.0
1685.063843	144.0
1696.037598	140.0
1699.161865	156.0
1706.170898	180.0
1709.259766	144.0
1716.895996	144.0
1720.25415	196.0
1723.425415	220.0
1727.823853	200.0
1728.775391	192.0
1731.22583	200.0
1731.697876	160.0
1744.559204	172.0
1751.032715	176.0
1754.990967	216.0
1755.733032	148.0
1757.985474	188.0
1761.734375	164.0
1764.032349	192.0
1766.892334	164.0
1776.979492	172.0
1781.134888	188.0
1783.05896	176.0
1786.758667	196.0
1807.091431	168.0
1811.510498	148.0
1815.952026	164.0
1831.242065	168.0
1831.68811	136.0
1831.932007	192.0
1838.719116	152.0
1843.040039	252.0
1843.253662	184.0
1846.425293	168.0
1848.22168	172.0
1848.683716	164.0
1856.170532	140.0
1857.268311	184.0
1869.924194	144.0
1888.17981	148.0
1888.586304	200.0
1889.235107	220.0
1895.633423	180.0
1895.746094	156.0
1906.567627	200.0
1909.384399	164.0
1912.272827	160.0
1917.646606	176.0
1922.696289	184.0
1924.197632	184.0
1925.48999	144.0
1926.43335	208.0
1927.114746	168.0
1929.789185	140.0
1936.711304	184.0
1945.47998	180.0
1945.614746	148.0
1946.884888	216.0
1948.738281	208.0
1949.089722	192.0
1949.968506	148.0
1950.30249	140.0
1952.606079	180.0
1979.592896	160.0
1986.115723	164.0
1988.706543	200.0
1990.144653	200.0
1992.862549	172.0
1994.657715	160.0
2000.688965	152.0
2001.917603	164.0
2003.378296	172.0
END IONS

BEGIN IONS
PEPMASS=230.025
CHARGE=1
MSLEVEL=2
SOURCE_INSTRUMENT=LC-ESI-qTof
FILENAME=NCP003512_E2_F11_BD6_01_15730.mzXML
SEQ=*..*
IONMODE=Positive
ORGANISM=GNPS-NIH-CLINICALCOLLECTION1
NAME="1H-Imidazol-2-amine, N-(2,6-dichlorophenyl)-4,5-dihydro- [CAS]" [M+H]
PI=Dorrestein
DATACOLLECTOR=Garg_Neha
SMILES=Clc1cccc(Cl)c1NC2=NCCN2
INCHI=N/A
INCHIAUX=N/A
PUBMED=N/A
SUBMITUSER=negarg
LIBRARYQUALITY=1
SPECTRUMID=CCMSLIB00000079123
USI=mzspec:GNPS:GNPS-NIH-CLINICALCOLLECTION1:accession:CCMSLIB00000079123
SCANS=967
46.76791	156.0
46.837353	140.0
46.879589	184.0
46.980484	220.0
47.307095	168.0
47.674683	160.0
50.734604	172.0
53.373714	196.0
55.807308	228.0
56.9911	176.0
63.272003	144.0
63.81142	144.0
64.586449	192.0
64.618439	148.0
65.144279	172.0
67.069923	160.0
69.300041	208.0
69.601913	140.0
70.760712	156.0
72.163902	188.0
74.366585	172.0
75.604034	140.0
75.858643	208.0
76.08242	164.0
78.255615	160.0
78.278511	176.0
79.175606	144.0
80.266716	204.0
80.67379	156.0
81.087265	196.0
81.494606	160.0
81.695969	192.0
83.432076	164.0
84.630745	144.0
84.878105	188.0
85.89698	172.0
87.939903	180.0
88.055656	184.0
88.73867	256.0
88.976936	152.0
90.023827	140.0
91.746666	140.0
92.353897	160.0
92.417023	160.0
92.683174	144.0
93.990692	184.0
96.148605	156.0
96.601906	148.0
98.569969	236.0
100.388298	160.0
100.777527	236.0
100.829483	176.0
100.969429	176.0
101.075455	144.0
101.431938	144.0
101.92765	152.0
103.967224	160.0
104.637993	140.0
105.051697	192.0
105.343613	144.0
105.936844	140.0
108.722466	188.0
109.589569	200.0
111.168282	156.0
111.361427	204.0
113.987404	164.0
117.057068	176.0
117.518333	152.0
118.067001	152.0
118.27903	144.0
118.918434	212.0
119.013954	212.0
119.903664	160.0
120.529953	168.0
121.61618	168.0
121.903877	200.0
122.198517	144.0
123.020546	212.0
125.992905	288.0
126.15506	228.0
127.365097	184.0
127.717987	268.0
128.317001	156.0
129.043976	156.0
129.686874	176.0
129.968079	156.0
130.040695	204.0
130.310928	148.0
132.96492	176.0
133.453629	152.0
133.702057	244.0
134.631104	152.0
134.954071	156.0
136.113144	164.0
136.610504	212.0
138.379486	176.0
138.512985	160.0
138.648865	152.0
140.199921	152.0
141.025955	232.0
142.051224	144.0
144.965881	228.0
145.965729	156.0
149.008804	160.0
149.514572	164.0
151.019089	636.0
151.291504	180.0
151.460464	148.0
152.014496	292.0
152.471313	204.0
153.018356	172.0
153.300644	168.0
154.013641	140.0
155.018082	172.0
155.464447	144.0
155.86673	196.0
156.49353	204.0
156.540833	148.0
157.101624	180.0
157.481033	232.0
157.743393	176.0
158.069839	136.0
158.975647	140.0
159.078537	772.0
159.972198	572.0
160.08519	280.0
160.313477	200.0
160.983261	196.0
161.0914	148.0
161.970535	332.0
163.939697	124.0
163.980637	576.0
163.99855	152.0
164.475449	180.0
164.986343	144.0
165.020798	124.0
165.626083	144.0
166.01442	176.0
166.36972	144.0
166.518646	152.0
167.027557	176.0
167.624847	200.0
169.31691	140.0
169.441238	168.0
170.96022	140.0
171.972275	1368.0
172.967194	140.0
173.967972	588.0
174.186569	152.0
175.115051	176.0
175.615814	180.0
176.085617	172.0
176.690933	160.0
177.02179	156.0
178.515778	196.0
178.877609	176.0
178.962799	208.0
179.20517	176.0
180.903702	204.0
181.053635	140.0
181.947067	140.0
182.952164	160.0
184.854782	172.0
184.900787	140.0
184.964417	288.0
185.985153	240.0
186.256439	152.0
186.680405	192.0
186.925232	172.0
186.983398	1144.0
187.456223	260.0
187.938858	160.0
187.98378	140.0
188.564209	184.0
188.791107	224.0
188.97879	724.0
189.974335	148.0
190.965927	184.0
192.034561	144.0
192.343597	140.0
194.047348	844.0
194.078186	184.0
194.21962	188.0
195.055435	148.0
196.038681	160.0
196.656982	160.0
197.060562	244.0
197.53714	168.0
197.920563	152.0
198.854065	176.0
200.989975	176.0
203.009674	188.0
203.679474	188.0
204.07164	180.0
205.5271	148.0
207.254105	196.0
208.439148	208.0
208.625961	144.0
210.29953	208.0
210.518936	144.0
212.492981	164.0
212.998428	2312.0
213.509644	144.0
214.003235	284.0
214.931198	152.0
214.995224	2348.0
216.015076	156.0
216.386734	144.0
219.504196	192.0
220.779892	140.0
220.995834	184.0
223.2948	156.0
223.503036	284.0
224.814148	196.0
225.599686	164.0
228.000534	196.0
228.075668	144.0
228.12677	184.0
228.680222	232.0
229.229889	300.0
229.376007	204.0
229.644821	128.0
229.882614	164.0
229.906128	196.0
229.937515	144.0
229.9758	260.0
230.026321	124412.0
230.089066	140.0
230.187576	144.0
230.289032	296.0
230.354233	264.0
230.38765	196.0
230.523041	400.0
230.650314	144.0
230.756775	192.0
230.862961	152.0
230.92215	104.0
230.982925	144.0
231.027725	9536.0
231.082962	124.0
231.200256	168.0
231.294083	120.0
231.420151	112.0
231.572647	140.0
231.660278	228.0
231.680435	248.0
231.767593	136.0
231.826508	156.0
231.931183	120.0
231.951706	196.0
232.022659	60376.0
232.083176	128.0
232.128128	160.0
232.296478	176.0
232.321884	224.0
232.401642	132.0
232.453781	256.0
232.51709	428.0
232.656754	144.0
232.686554	304.0
232.741501	164.0
232.862106	152.0
232.901001	104.0
233.02507	3312.0
234.034058	208.0
234.702286	168.0
240.468277	96.0
241.981628	148.0
242.638428	156.0
243.033005	108.0
244.39035	100.0
580.31189	152.0
1329.406494	168.0
1516.418091	168.0
1570.256836	168.0
1707.506592	192.0
1765.042969	184.0
1945.364746	156.0
1949.668579	168.0
END IONS

BEGIN IONS
PEPMASS=372.159
CHARGE=1
MSLEVEL=2
SOURCE_INSTRUMENT=LC-ESI-qTof
FILENAME=NCP003592_C2_D11_BE1_01_15735.mzXML
SEQ=*..*
IONMODE=Positive
ORGANISM=GNPS-NIH-CLINICALCOLLECTION1
NAME=Trazodone hydrochloride 25332-39-2 [M+H]
PI=Dorrestein
DATACOLLECTOR=Garg_Neha
SMILES=Clc1cccc(c1)N2CCN(CCCn3nc4ccccn4c3=O)CC2
INCHI=N/A
INCHIAUX=N/A
PUBMED=N/A
SUBMITUSER=negarg
LIBRARYQUALITY=1
SPECTRUMID=CCMSLIB00000079178
USI=mzspec:GNPS:GNPS-NIH-CLINICALCOLLECTION1:accession:CCMSLIB00000079178
SCANS=1102
45.222645	140.0
45.320404	184.0
45.378036	208.0
45.449123	184.0
45.695004	160.0
46.123848	200.0
46.195515	148.0
46.376965	148.0
46.917645	384.0
46.953438	140.0
47.304592	208.0
47.948788	180.0
49.046528	180.0
49.059071	148.0
49.419476	144.0
50.00695	116.0
50.215908	204.0
50.398014	256.0
50.754707	160.0
50.902279	156.0
51.972851	200.0
52.084831	140.0
52.163864	148.0
52.580124	156.0
52.63065	184.0
53.558807	152.0
53.602512	168.0
53.634575	176.0
53.700188	168.0
54.043484	140.0
54.103489	160.0
54.978058	208.0
55.555111	256.0
55.61298	180.0
55.841789	148.0
55.953396	160.0
56.074051	156.0
56.203789	204.0
56.22916	204.0
56.244083	180.0
57.119171	156.0
57.426441	240.0
57.772354	140.0
57.926762	148.0
58.295444	168.0
58.57996	192.0
58.642433	152.0
59.219975	188.0
59.657291	140.0
59.963604	148.0
61.1604	156.0
61.427334	180.0
61.827705	212.0
61.885239	184.0
62.209766	220.0
62.222324	152.0
62.788799	168.0
63.024006	184.0
63.915123	160.0
64.25489	160.0
64.380592	204.0
64.537193	144.0
64.884621	156.0
64.90226	144.0
65.078102	216.0
65.260315	156.0
65.36808	220.0
65.69838	140.0
65.774223	168.0
65.901802	152.0
66.026276	232.0
66.491241	176.0
66.861786	144.0
67.922165	244.0
69.134796	200.0
69.678665	140.0
70.476738	192.0
71.138268	168.0
71.23735	180.0
71.27095	152.0
72.231911	220.0
72.394386	144.0
72.429955	140.0
72.882919	156.0
73.06144	224.0
73.132912	200.0
73.507843	148.0
74.089165	160.0
74.591972	196.0
74.674507	160.0
75.137878	184.0
75.36232	140.0
75.775833	164.0
75.963066	144.0
76.103638	232.0
76.213058	156.0
77.037132	180.0
77.474693	192.0
77.490242	144.0
77.644493	156.0
77.798904	180.0
79.176003	140.0
79.317741	148.0
79.507523	228.0
79.978508	168.0
80.638443	172.0
80.996887	132.0
81.398018	156.0
81.932205	156.0
82.007889	176.0
83.081993	176.0
83.454308	144.0
84.170387	140.0
84.446342	152.0
84.675117	184.0
85.626465	160.0
85.641197	176.0
85.864212	160.0
86.772133	208.0
86.936813	148.0
87.269714	156.0
87.320602	152.0
87.457314	232.0
87.560005	144.0
88.158852	164.0
88.921066	148.0
89.347618	204.0
89.637573	164.0
89.939323	260.0
90.060165	140.0
90.383438	172.0
90.572754	164.0
90.993744	164.0
91.693748	176.0
92.040421	220.0
92.932892	144.0
93.090294	204.0
93.142151	172.0
93.626823	148.0
93.694244	240.0
94.714203	164.0
94.871162	196.0
94.909943	152.0
95.059303	144.0
95.199066	176.0
95.221222	140.0
95.821503	148.0
96.166656	148.0
96.254501	152.0
96.299416	192.0
96.467461	236.0
96.915634	180.0
97.331467	148.0
97.435562	168.0
98.081017	196.0
98.880936	208.0
99.045273	224.0
99.308891	176.0
99.483505	140.0
99.622971	140.0
99.775536	152.0
100.354897	156.0
100.556023	160.0
101.177864	144.0
101.31221	244.0
101.560768	144.0
101.679146	204.0
102.334457	156.0
102.876778	232.0
103.216202	144.0
103.576439	212.0
103.606827	140.0
104.113907	216.0
104.420784	152.0
104.938011	172.0
105.045227	696.0
105.207314	268.0
105.370689	176.0
105.857498	184.0
106.050903	148.0
106.064125	412.0
106.097221	156.0
107.060677	180.0
107.193825	156.0
107.992027	248.0
108.438873	204.0
108.636024	148.0
108.745834	148.0
108.766541	176.0
109.003349	164.0
109.334984	160.0
110.007225	248.0
110.425117	152.0
110.770477	164.0
110.919258	152.0
111.091209	172.0
111.319977	148.0
111.723618	188.0
112.340767	212.0
112.5476	192.0
112.696892	176.0
113.114182	144.0
113.196754	204.0
113.525208	156.0
113.677948	208.0
114.002853	156.0
114.362274	216.0
114.901398	192.0
115.033707	140.0
115.919151	208.0
116.049995	456.0
116.380325	196.0
116.434006	144.0
116.745621	180.0
116.91127	160.0
116.932785	168.0
117.053604	196.0
117.079369	140.0
117.10527	180.0
117.245064	144.0
117.44342	192.0
117.672157	152.0
117.704544	176.0
117.80822	160.0
118.049423	168.0
118.067429	356.0
118.242828	172.0
118.392204	144.0
118.966782	140.0
119.058716	556.0
119.229599	192.0
119.349159	208.0
119.453552	196.0
119.499237	236.0
119.566689	152.0
120.035423	404.0
120.058281	404.0
120.083031	156.0
120.742599	184.0
120.779785	156.0
120.943886	204.0
121.040405	612.0
121.075737	888.0
121.658493	216.0
121.83857	140.0
122.047363	200.0
122.140984	176.0
122.77404	216.0
122.811531	144.0
123.005707	148.0
123.602417	140.0
123.967789	180.0
123.985519	172.0
124.083054	164.0
124.460236	192.0
124.522408	176.0
124.70237	236.0
124.726822	200.0
125.013725	256.0
125.277618	172.0
125.433937	148.0
125.876411	192.0
126.341988	164.0
126.453186	184.0
126.605423	140.0
126.703979	240.0
127.206306	156.0
127.417404	160.0
128.211685	200.0
128.626694	140.0
128.656036	184.0
129.232346	156.0
130.377472	160.0
130.793686	220.0
131.0616	424.0
131.130203	176.0
131.28566	128.0
132.001404	220.0
132.041718	176.0
132.067566	420.0
132.255157	196.0
132.41478	172.0
132.524734	144.0
133.03157	164.0
133.076035	5016.0
133.449692	148.0
134.078629	632.0
134.983032	144.0
135.043335	936.0
135.170395	160.0
135.624115	156.0
136.050613	1284.0
136.299652	164.0
136.488312	120.0
136.566986	152.0
137.055862	176.0
137.31929	216.0
137.470932	196.0
137.50145	264.0
137.678696	156.0
138.011093	224.0
138.590973	148.0
139.142151	212.0
139.99707	228.0
140.028641	180.0
140.111084	176.0
140.615692	188.0
140.754974	168.0
141.354507	260.0
141.833771	192.0
141.997375	144.0
142.286865	212.0
142.745438	240.0
143.671951	144.0
143.726822	144.0
143.86525	148.0
143.969101	160.0
144.049118	256.0
144.276138	164.0
144.749878	220.0
145.553162	156.0
145.704468	152.0
145.918365	172.0
146.035812	272.0
146.182953	176.0
146.447769	184.0
146.573044	272.0
147.059372	212.0
147.511871	200.0
147.785156	248.0
147.808243	128.0
147.884369	168.0
148.051437	110232.0
148.087357	17952.0
148.363297	168.0
148.544037	144.0
148.599228	172.0
148.717468	320.0
149.054504	7136.0
149.090286	2200.0
149.251343	140.0
149.334549	168.0
149.355103	184.0
149.468948	148.0
149.758774	144.0
150.058289	316.0
150.098022	216.0
150.121353	176.0
150.212631	180.0
150.251846	132.0
150.32103	108.0
150.369522	152.0
150.390274	140.0
151.184555	156.0
151.21637	224.0
151.605774	176.0
151.936783	148.0
152.157654	168.0
152.354126	196.0
152.523682	224.0
152.681915	112.0
153.370407	160.0
153.390137	148.0
153.923035	144.0
153.955139	168.0
154.041428	1080.0
154.578079	288.0
154.630051	220.0
154.662231	204.0
154.81572	200.0
155.934601	172.0
156.036942	188.0
156.225525	156.0
156.245422	200.0
156.676117	220.0
156.72345	144.0
156.8936	176.0
157.143723	176.0
158.034286	212.0
159.059265	160.0
160.045059	200.0
160.241211	140.0
161.409821	172.0
162.068771	96.0
162.36705	168.0
162.861969	168.0
162.950882	180.0
163.066849	188.0
163.093948	132.0
163.212662	164.0
163.300278	124.0
163.920303	144.0
164.044449	140.0
164.619247	148.0
165.529587	176.0
165.796005	156.0
166.044052	792.0
166.545166	148.0
166.5914	148.0
166.611954	172.0
167.049026	204.0
167.384872	132.0
167.731354	192.0
168.041611	180.0
168.309235	176.0
168.890717	180.0
169.296616	124.0
169.358871	156.0
169.532776	144.0
169.68959	168.0
170.503174	160.0
170.568344	156.0
170.91684	152.0
170.937653	160.0
171.073242	168.0
171.466629	188.0
171.960953	180.0
172.04274	204.0
172.458069	208.0
173.084183	144.0
173.214264	176.0
173.995728	164.0
174.031631	148.0
174.058746	176.0
174.140152	160.0
174.402893	180.0
174.563263	176.0
174.751602	144.0
175.071152	160.0
175.104111	132.0
175.442657	160.0
175.515244	128.0
175.594299	140.0
175.756516	340.0
175.788177	156.0
175.831635	156.0
175.905304	176.0
175.974976	152.0
176.048203	164.0
176.082809	153120.0
176.149261	236.0
176.211517	136.0
176.243561	128.0
176.295532	156.0
176.516083	160.0
176.557938	164.0
176.588577	148.0
176.715042	164.0
176.814804	108.0
177.038101	96.0
177.085083	10064.0
177.613678	176.0
177.926437	132.0
178.051651	256.0
178.085373	604.0
178.121002	156.0
178.163864	152.0
178.300385	180.0
178.394363	144.0
178.437683	268.0
178.479446	316.0
178.500885	124.0
179.051575	160.0
179.088852	168.0
179.366364	108.0
179.401367	144.0
179.507263	148.0
180.032974	104.0
180.057007	144.0
181.043839	172.0
181.065262	196.0
181.348404	112.0
182.320786	240.0
182.41217	148.0
182.987885	168.0
183.173691	152.0
184.463531	156.0
184.655518	152.0
185.437958	156.0
186.343124	128.0
186.765656	156.0
188.37114	192.0
188.488632	180.0
190.669952	156.0
190.788147	160.0
191.032898	164.0
191.065903	144.0
192.339035	176.0
192.996536	180.0
193.057495	148.0
193.480698	168.0
193.737686	280.0
194.059937	324.0
194.520264	180.0
195.06604	108.0
195.431808	148.0
195.451279	180.0
195.863556	208.0
196.062057	164.0
196.245102	140.0
197.051697	168.0
197.086716	560.0
197.4328	224.0
198.080124	180.0
198.835403	152.0
199.077744	484.0
199.147049	176.0
199.189178	140.0
199.804825	232.0
199.838577	152.0
199.920181	164.0
200.083435	168.0
200.903519	212.0
200.926086	184.0
201.450027	136.0
201.535919	196.0
203.143997	140.0
203.441956	156.0
204.835342	144.0
205.770721	156.0
206.762604	140.0
207.063202	160.0
208.075409	168.0
209.085617	2432.0
209.282959	164.0
209.323273	208.0
209.507599	176.0
209.651672	160.0
210.087509	316.0
210.540207	152.0
211.080429	1004.0
211.159866	148.0
211.552185	188.0
212.080902	324.0
212.662354	204.0
212.909134	140.0
213.685226	176.0
214.043243	148.0
214.337433	148.0
216.013229	156.0
216.540085	176.0
216.947372	172.0
217.783661	144.0
218.048096	144.0
218.468567	164.0
218.52066	152.0
218.912994	180.0
219.12709	432.0
219.28714	176.0
219.856339	148.0
220.429214	172.0
220.59314	224.0
220.973267	188.0
221.500214	164.0
221.675003	156.0
223.590439	140.0
223.795837	144.0
223.908997	156.0
226.09433	172.0
226.915863	120.0
227.060959	220.0
227.117905	224.0
227.947586	148.0
228.17601	140.0
228.392532	140.0
228.771667	212.0
229.069794	144.0
229.154144	168.0
229.446487	196.0
229.62439	148.0
230.270264	144.0
231.397034	172.0
231.940414	144.0
232.210266	196.0
233.376358	140.0
233.765182	144.0
234.051834	188.0
234.71608	156.0
234.969238	148.0
235.102081	388.0
236.057358	160.0
236.097534	136.0
236.858643	124.0
237.115494	2000.0
238.116745	456.0
239.111984	344.0
239.293686	148.0
239.510345	136.0
239.561615	144.0
240.113358	280.0
240.185028	128.0
240.491028	108.0
241.144531	148.0
241.608353	144.0
241.66095	140.0
243.834702	224.0
243.93782	156.0
244.416214	272.0
245.010895	176.0
245.101242	148.0
245.250824	148.0
245.812195	140.0
246.140106	148.0
246.302338	156.0
246.721069	140.0
247.080719	172.0
247.262207	200.0
247.935532	192.0
248.029556	168.0
248.264709	152.0
248.405838	208.0
248.62233	148.0
248.67569	164.0
248.801239	152.0
249.564697	140.0
250.198242	108.0
250.631699	164.0
250.890137	200.0
251.17395	196.0
251.695892	188.0
252.49733	156.0
253.570587	152.0
253.70372	176.0
253.970078	216.0
255.26265	164.0
255.921295	148.0
256.301483	156.0
256.774475	136.0
257.001801	192.0
257.285858	188.0
257.459167	128.0
258.183899	132.0
258.321228	152.0
259.147217	140.0
260.619904	200.0
262.747711	112.0
262.8255	196.0
262.909393	172.0
263.946747	152.0
264.302124	192.0
264.564301	164.0
265.098724	156.0
265.192688	188.0
265.468262	192.0
265.740723	148.0
265.84549	152.0
265.997101	148.0
266.484222	184.0
266.623962	152.0
267.889648	188.0
267.954803	140.0
268.010193	156.0
268.235046	152.0
268.410736	144.0
268.822113	152.0
269.345764	164.0
269.432678	148.0
269.717224	112.0
269.900055	148.0
270.001434	180.0
270.135529	144.0
270.973602	160.0
272.246002	136.0
272.58136	168.0
272.608887	96.0
273.80838	180.0
273.897308	188.0
274.02536	152.0
274.198364	184.0
275.110809	160.0
276.724152	180.0
277.456329	168.0
277.559113	148.0
277.618805	140.0
278.167786	136.0
278.455109	152.0
278.548096	148.0
278.624512	156.0
278.715363	116.0
279.525543	176.0
279.795135	176.0
281.255219	176.0
281.36203	160.0
281.57016	196.0
282.307617	144.0
282.779327	184.0
283.003601	148.0
283.191132	200.0
283.361969	156.0
283.715546	104.0
284.241333	164.0
284.284058	224.0
284.824585	144.0
284.962341	168.0
286.604248	160.0
287.005371	144.0
287.326385	220.0
287.973877	216.0
288.101562	140.0
288.453674	264.0
288.856079	148.0
288.889893	160.0
288.920349	172.0
290.641479	152.0
290.678802	156.0
290.797577	164.0
290.969208	100.0
291.84082	172.0
291.871063	164.0
291.94928	168.0
292.092102	140.0
292.200958	232.0
292.354095	176.0
293.045319	196.0
293.607758	164.0
294.129761	144.0
294.389252	160.0
295.759033	188.0
295.959564	204.0
296.208771	152.0
297.0383	176.0
297.076019	148.0
297.580505	148.0
297.710999	176.0
298.109497	212.0
299.339813	164.0
299.406616	136.0
299.799133	172.0
300.540497	148.0
301.438263	164.0
301.465912	144.0
301.835785	140.0
302.493134	212.0
302.586609	144.0
302.998718	160.0
303.093964	156.0
303.359131	184.0
303.553284	176.0
304.875885	148.0
304.907166	276.0
304.983643	152.0
305.863647	144.0
306.278015	164.0
306.365082	180.0
306.391754	160.0
307.20282	140.0
307.753143	180.0
307.882355	224.0
308.08493	148.0
308.315552	164.0
308.343506	160.0
308.860962	168.0
308.961884	132.0
309.809601	196.0
310.010956	124.0
311.416107	172.0
311.549591	180.0
315.092957	152.0
315.288025	168.0
315.489502	156.0
315.977539	192.0
316.18277	180.0
316.887421	192.0
317.929932	172.0
318.41629	288.0
318.497986	152.0
319.151886	180.0
319.569641	184.0
321.005157	152.0
321.039124	184.0
322.469482	156.0
322.8461	164.0
323.633331	144.0
324.550598	180.0
324.9487	144.0
325.001343	108.0
325.336304	232.0
325.619965	228.0
325.746979	164.0
326.090607	140.0
326.270325	140.0
326.486084	168.0
326.755859	176.0
327.691925	192.0
328.077545	152.0
328.578827	168.0
328.74118	140.0
328.892761	168.0
328.983002	180.0
329.575317	188.0
330.739777	164.0
330.913544	148.0
332.099945	184.0
332.503998	116.0
333.798126	144.0
333.889038	180.0
334.387451	152.0
334.791565	152.0
335.352631	156.0
336.213318	152.0
336.512634	164.0
337.827881	108.0
337.860657	184.0
338.593292	164.0
338.981598	152.0
340.808929	144.0
341.636139	196.0
343.10553	144.0
344.999359	172.0
347.014191	140.0
347.925995	164.0
348.126495	152.0
349.133575	164.0
349.178802	152.0
349.207977	176.0
349.885193	156.0
350.745697	144.0
350.797272	168.0
350.943298	164.0
351.155853	144.0
351.342346	180.0
352.290558	196.0
353.352295	152.0
354.162994	176.0
354.411865	148.0
354.655457	188.0
355.326691	220.0
355.703796	188.0
356.381683	192.0
356.438049	212.0
356.697357	160.0
357.126984	124.0
357.411926	144.0
358.306915	164.0
359.646698	200.0
360.031769	192.0
360.541779	156.0
361.354126	160.0
361.441986	152.0
361.490967	152.0
361.63858	140.0
361.748322	248.0
362.079468	136.0
362.119415	196.0
362.44519	164.0
362.511169	232.0
363.506927	140.0
363.537262	152.0
363.842224	152.0
363.939636	160.0
364.615784	152.0
365.395294	148.0
366.570679	112.0
366.773834	144.0
367.158905	168.0
367.529297	208.0
367.983124	184.0
368.14212	116.0
368.368835	176.0
368.930573	140.0
369.059662	180.0
369.140839	180.0
369.39978	188.0
369.549896	228.0
369.602722	128.0
369.846619	160.0
370.141907	148.0
370.258667	116.0
370.298492	160.0
370.390686	108.0
370.436035	220.0
370.479645	200.0
370.567993	124.0
370.647766	184.0
370.690826	268.0
370.743195	160.0
370.784454	124.0
370.840637	184.0
370.945831	236.0
371.007782	136.0
371.128998	132.0
371.165344	324.0
371.230072	200.0
371.310059	136.0
371.403992	332.0
371.441376	260.0
371.514587	316.0
371.566071	440.0
371.624451	116.0
371.634338	268.0
371.659637	264.0
371.702362	108.0
371.759155	372.0
371.802765	380.0
371.819489	404.0
371.866882	336.0
371.901184	228.0
371.929871	216.0
371.997742	192.0
372.051666	368.0
372.09848	564.0
372.16153	219524.0
372.293121	132.0
372.417542	136.0
372.458954	104.0
372.519592	960.0
372.570038	308.0
372.622589	300.0
372.743347	252.0
372.795166	8692.0
372.852875	664.0
372.892181	492.0
372.96637	124.0
372.994049	184.0
373.072723	212.0
373.16333	101136.0
373.267365	288.0
373.359009	196.0
373.391418	176.0
373.41684	256.0
373.467346	208.0
373.50827	160.0
373.591858	168.0
373.647034	120.0
373.693451	232.0
373.721283	316.0
373.795715	752.0
373.829285	276.0
373.906952	136.0
373.95517	204.0
374.03067	248.0
374.086029	376.0
374.099823	544.0
374.158142	139244.0
374.270966	280.0
374.350739	184.0
374.439087	152.0
374.494232	172.0
374.650391	156.0
374.71109	204.0
374.745636	184.0
374.789612	468.0
374.851196	148.0
374.927338	180.0
374.99411	300.0
375.079071	320.0
375.159119	24864.0
375.235474	184.0
375.318146	128.0
375.387817	224.0
375.457947	120.0
375.501953	116.0
375.567108	180.0
375.6409	248.0
375.68396	124.0
375.699554	248.0
375.785461	388.0
375.830719	284.0
375.856293	320.0
375.909851	104.0
375.98053	116.0
376.038666	124.0
376.092163	112.0
376.160126	416.0
376.257904	128.0
376.297211	132.0
376.347717	112.0
376.457184	168.0
376.524475	128.0
376.614838	128.0
376.695862	144.0
376.773865	112.0
376.946411	124.0
376.990936	96.0
377.230255	180.0
377.31189	100.0
377.393951	208.0
377.477631	132.0
377.608673	244.0
377.666443	360.0
377.737061	164.0
377.807007	204.0
378.083008	104.0
378.227173	116.0
378.819916	104.0
379.011353	132.0
379.678558	168.0
381.283936	108.0
381.769653	96.0
385.19635	152.0
386.380859	140.0
386.689819	96.0
389.146149	104.0
389.359833	160.0
390.603271	100.0
392.614471	144.0
393.573364	140.0
395.907928	124.0
407.861023	96.0
419.391754	160.0
449.479462	148.0
582.051697	140.0
613.449463	144.0
966.30603	144.0
1066.66748	148.0
1180.524902	120.0
1231.497437	184.0
1315.740356	224.0
1324.72937	156.0
1336.257812	164.0
1337.44397	164.0
1379.919556	188.0
1412.058594	208.0
1421.15271	180.0
1422.360962	148.0
1428.793457	204.0
1444.068481	188.0
1448.428223	208.0
1448.769043	172.0
1467.869019	164.0
1471.386353	168.0
1475.381958	144.0
1478.165894	232.0
1507.463989	164.0
1523.921753	148.0
1529.279785	140.0
1537.868896	168.0
1546.302002	260.0
1574.937134	156.0
1578.09021	144.0
1600.481079	256.0
1602.002197	220.0
1610.002197	160.0
1617.5979	140.0
1626.005737	216.0
1634.580322	220.0
1640.84668	204.0
1644.573486	200.0
1653.81189	188.0
1660.374512	156.0
1667.689575	244.0
1686.591187	172.0
1698.381958	148.0
1704.86792	164.0
1705.739136	172.0
1705.80481	196.0
1706.98877	196.0
1709.538818	172.0
1712.86499	156.0
1714.537598	200.0
1714.875488	176.0
1718.528564	204.0
1728.783081	208.0
1745.730957	156.0
1748.617676	248.0
1751.373535	152.0
1753.206421	180.0
1760.564453	188.0
1761.149048	160.0
1783.722412	184.0
1785.151611	140.0
1788.264404	148.0
1788.67688	156.0
1788.862061	160.0
1791.893799	180.0
1796.328003	176.0
1796.429321	172.0
1797.326538	168.0
1799.898071	184.0
1801.30835	172.0
1806.346436	148.0
1809.7146	208.0
1815.739624	224.0
1820.568359	176.0
1823.99231	148.0
1843.150757	216.0
1844.894287	204.0
1845.749268	244.0
1846.715576	208.0
1848.323975	184.0
1850.746216	168.0
1854.824097	244.0
1855.552856	184.0
1856.959106	212.0
1857.062012	152.0
1858.202881	212.0
1868.022217	140.0
1871.550781	180.0
1875.858398	220.0
1877.875977	180.0
1880.636963	228.0
1880.956299	208.0
1883.961426	192.0
1884.12561	156.0
1885.577271	184.0
1885.983398	148.0
1886.657715	200.0
1889.260742	144.0
1895.459839	208.0
1896.361084	168.0
1902.250732	244.0
1908.218872	184.0
1909.940796	176.0
1914.997681	164.0
1915.259033	176.0
1918.273926	180.0
1923.053833	156.0
1923.682373	160.0
1925.201538	160.0
1933.62915	176.0
1936.334473	144.0
1937.333008	188.0
1940.268799	156.0
1941.776978	152.0
1942.505005	188.0
1943.803467	140.0
1947.385254	192.0
1947.464355	196.0
1947.727783	148.0
1948.99292	164.0
1950.548462	188.0
1951.506592	156.0
1952.605835	196.0
1954.734741	164.0
1957.983154	192.0
1959.81543	140.0
1964.637939	280.0
1967.241211	140.0
1970.738525	168.0
1971.710571	188.0
1979.132324	144.0
1985.787476	144.0
1998.988892	184.0
END IONS

BEGIN IONS
PEPMASS=329.188
CHARGE=1
MSLEVEL=2
SOURCE_INSTRUMENT=LC-ESI-qTof
FILENAME=NCP003017_E2_F11_BA8_01_15703.mzXML
SEQ=*..*
IONMODE=Positive
ORGANISM=GNPS-NIH-CLINICALCOLLECTION2
NAME=Labetalol  M+H
PI=Dorrestein
DATACOLLECTOR=Garg_Neha
SMILES=CC(NCC(O)C1=CC(C(N)=O)=C(O)C=C1)CCC2=CC=CC=C2
INCHI=CC(CCc1ccccc1)NCC(O)c2ccc(O)c(c2)C(=O)N
INCHIAUX=N/A
PUBMED=N/A
SUBMITUSER=negarg
LIBRARYQUALITY=1
SPECTRUMID=CCMSLIB00000077054
USI=mzspec:GNPS:GNPS-NIH-CLINICALCOLLECTION2:accession:CCMSLIB00000077054
SCANS=1087
45.481033	188.0
46.020878	152.0
46.234459	148.0
46.354984	240.0
46.429546	176.0
46.746078	184.0
47.24683	272.0
48.165131	160.0
48.372967	172.0
48.477814	156.0
49.699364	180.0
51.06081	148.0
51.078262	180.0
51.091064	184.0
51.929573	288.0
52.396755	144.0
52.705524	176.0
54.954235	148.0
55.764271	204.0
56.967148	232.0
57.198727	196.0
57.527348	168.0
57.670849	168.0
58.138844	168.0
59.451305	196.0
59.66481	212.0
60.672947	156.0
61.503643	188.0
61.833431	248.0
62.799698	220.0
62.944889	140.0
64.602646	184.0
68.815697	220.0
69.326828	164.0
70.581985	220.0
70.911774	172.0
71.279305	152.0
71.354942	236.0
72.218338	188.0
73.29126	176.0
73.419113	140.0
73.979553	168.0
75.172379	172.0
75.407249	168.0
75.716942	156.0
77.238174	184.0
77.841072	140.0
78.202126	224.0
78.305344	156.0
78.772774	144.0
78.979584	148.0
79.076897	188.0
79.369202	176.0
79.930511	168.0
81.198891	144.0
81.227592	152.0
81.516647	172.0
81.622704	148.0
82.128769	152.0
82.422386	188.0
83.603561	168.0
84.545242	208.0
84.75766	152.0
86.085793	140.0
86.187386	180.0
86.226196	168.0
86.435165	212.0
86.770409	172.0
87.893837	196.0
88.602455	196.0
88.86306	228.0
88.919357	192.0
89.120285	216.0
89.643394	140.0
89.656586	188.0
89.901749	160.0
90.011238	144.0
90.041451	220.0
91.054024	5028.0
91.44445	148.0
91.659645	188.0
92.056526	332.0
92.17485	156.0
92.923515	140.0
93.063622	156.0
93.153885	144.0
93.717583	216.0
94.006821	148.0
94.020332	200.0
94.067024	288.0
94.120712	140.0
94.155472	228.0
94.654404	156.0
94.933449	236.0
94.958656	180.0
96.016914	164.0
96.276237	144.0
96.313347	152.0
96.876709	220.0
97.251236	164.0
97.329765	180.0
98.308105	196.0
98.720978	160.0
98.804054	208.0
99.418297	140.0
100.536728	144.0
100.644516	156.0
100.776344	176.0
100.876274	260.0
101.146317	140.0
101.314529	156.0
101.926476	144.0
102.171768	140.0
103.49173	164.0
105.033234	168.0
105.091347	188.0
105.115837	184.0
105.512085	144.0
105.771889	168.0
105.91317	148.0
105.993073	168.0
106.065163	988.0
106.179619	188.0
106.471046	232.0
106.74025	152.0
107.049416	1028.0
107.958977	156.0
108.052956	120.0
108.58857	200.0
110.691338	172.0
111.280533	156.0
111.477982	164.0
112.351784	172.0
115.615578	152.0
116.049423	688.0
117.004349	148.0
117.033127	372.0
117.13356	188.0
117.381409	152.0
118.066551	164.0
118.117882	200.0
118.308311	196.0
118.798073	216.0
119.048347	256.0
119.16497	140.0
119.695694	152.0
120.045189	560.0
120.081421	140.0
120.266884	156.0
120.310539	176.0
122.038216	236.0
122.982033	164.0
124.854187	140.0
125.506653	204.0
125.890465	160.0
127.119446	160.0
129.861267	228.0
129.989868	180.0
130.271393	160.0
130.644211	160.0
130.72612	172.0
131.08136	144.0
131.124664	176.0
131.364075	140.0
131.884705	156.0
132.081345	216.0
132.507141	160.0
132.587341	184.0
132.993301	172.0
133.051941	576.0
133.105804	248.0
134.060074	7300.0
134.101852	208.0
134.404022	208.0
134.944504	152.0
135.043716	1132.0
135.065353	520.0
135.219772	144.0
136.047287	156.0
136.075577	532.0
138.054184	332.0
138.123596	160.0
139.932953	140.0
140.312256	144.0
140.368851	160.0
142.86763	144.0
143.828827	132.0
144.044495	2228.0
144.071259	140.0
144.107376	168.0
144.241196	160.0
144.554504	148.0
145.029449	328.0
146.03714	184.0
146.057495	164.0
147.043488	4928.0
147.226898	176.0
147.317093	168.0
147.943436	152.0
148.047745	824.0
148.077911	188.0
148.109085	184.0
148.551697	176.0
149.723236	144.0
149.881577	144.0
150.055634	160.0
150.128922	216.0
150.603699	156.0
151.259003	236.0
151.37204	168.0
151.518585	180.0
151.670517	148.0
152.578796	140.0
152.972412	272.0
154.265045	152.0
157.275696	144.0
158.068207	108.0
158.839584	184.0
159.045334	160.0
159.076797	376.0
159.628204	144.0
159.650833	144.0
160.090393	168.0
160.928391	152.0
161.050339	292.0
161.405945	160.0
161.960464	144.0
161.98439	184.0
162.020737	140.0
162.055664	93428.0
162.116379	156.0
162.434189	216.0
162.467682	96.0
162.517212	140.0
162.555206	120.0
162.797989	148.0
162.870773	200.0
163.057159	7568.0
163.53949	200.0
163.788376	124.0
163.849152	100.0
163.957214	196.0
164.069717	3540.0
164.136017	168.0
164.20314	160.0
164.245285	144.0
164.537888	100.0
164.842712	140.0
165.013962	140.0
165.054703	2000.0
165.407928	176.0
166.057434	296.0
167.920837	140.0
168.207245	140.0
168.341507	160.0
170.086502	168.0
170.951981	152.0
172.072174	520.0
172.172028	228.0
172.208588	156.0
174.438431	180.0
176.073853	192.0
177.016129	160.0
177.766327	180.0
177.922928	148.0
178.293457	100.0
178.675034	156.0
179.081711	9280.0
179.58873	140.0
179.635864	224.0
180.065872	1160.0
180.084259	932.0
180.229431	216.0
181.06778	196.0
181.086868	192.0
182.220169	300.0
183.336853	176.0
183.368958	220.0
183.932922	232.0
185.02504	156.0
186.089066	156.0
186.367584	192.0
186.454544	188.0
186.579575	156.0
188.151535	152.0
188.799118	156.0
189.464249	148.0
189.985123	140.0
190.08577	5176.0
190.971252	160.0
190.996017	156.0
191.089966	268.0
191.117065	196.0
191.545776	160.0
192.140884	236.0
193.147537	212.0
193.559891	148.0
195.394547	144.0
196.115784	168.0
196.693176	164.0
199.581573	168.0
200.042984	148.0
201.11412	140.0
202.510864	164.0
203.256454	188.0
204.259338	148.0
205.03949	196.0
205.105438	144.0
207.112747	12548.0
207.288544	208.0
207.441879	120.0
208.11499	1492.0
208.78418	224.0
209.056808	140.0
209.109268	172.0
209.14093	160.0
209.982254	148.0
210.319824	184.0
210.461288	224.0
211.279205	140.0
211.3255	156.0
213.797791	160.0
216.53334	156.0
216.829239	236.0
219.50737	140.0
223.987015	144.0
224.107758	184.0
226.28421	136.0
227.130188	168.0
230.713684	264.0
231.21579	188.0
232.006363	164.0
233.93541	204.0
235.070877	156.0
240.631088	144.0
242.40654	164.0
242.449921	156.0
243.107361	208.0
243.964615	156.0
246.00737	180.0
247.869141	212.0
248.87915	164.0
250.029678	152.0
250.130402	152.0
252.098328	264.0
253.106369	164.0
253.921982	160.0
254.318573	156.0
256.369934	148.0
256.653625	164.0
256.790771	160.0
259.598694	176.0
261.980377	148.0
262.46109	152.0
263.329102	148.0
263.693756	144.0
264.369659	148.0
264.593018	196.0
264.706329	180.0
265.036743	156.0
265.227936	148.0
268.10614	128.0
268.130035	144.0
268.169495	140.0
268.208618	172.0
268.782593	176.0
269.127289	244.0
270.144989	196.0
270.21698	212.0
271.241974	164.0
272.314941	144.0
277.214081	160.0
278.152679	228.0
280.314484	200.0
280.454468	164.0
281.618927	172.0
282.143555	144.0
282.745636	160.0
283.502502	152.0
284.471832	200.0
285.610962	148.0
285.99118	192.0
287.548309	144.0
287.595551	172.0
290.047852	160.0
290.519196	176.0
293.229218	144.0
294.148499	17512.0
294.361847	140.0
295.152222	3896.0
295.32901	168.0
296.15509	512.0
299.155029	208.0
301.305695	172.0
301.794312	268.0
303.204834	236.0
303.740601	196.0
305.727966	144.0
306.058655	140.0
306.257141	176.0
307.665924	172.0
308.814911	168.0
309.470703	132.0
309.647461	128.0
309.832397	240.0
310.03598	112.0
310.087402	124.0
310.145935	264.0
310.316284	224.0
310.358948	288.0
310.489685	236.0
310.627411	188.0
310.819366	236.0
310.855743	196.0
310.955658	288.0
311.021912	188.0
311.067047	280.0
311.109039	216.0
311.132385	508.0
311.177032	173508.0
311.273224	172.0
311.315918	116.0
311.403992	280.0
311.440491	296.0
311.493439	124.0
311.571808	252.0
311.642365	132.0
311.688202	184.0
311.753906	1700.0
311.802612	100.0
311.880798	348.0
311.92572	252.0
311.971558	148.0
312.021027	196.0
312.087067	156.0
312.121246	124.0
312.179352	32112.0
312.277344	96.0
312.581848	136.0
312.641541	116.0
312.690277	168.0
312.878571	172.0
312.943146	140.0
313.079041	104.0
313.182495	3556.0
313.589264	132.0
313.640839	128.0
313.754303	128.0
313.837372	164.0
313.896118	140.0
313.975159	164.0
314.071198	224.0
314.185883	308.0
314.213684	132.0
314.23941	452.0
314.268097	120.0
314.31427	212.0
314.351624	208.0
314.403229	180.0
314.469788	148.0
314.604034	112.0
314.636139	140.0
314.709991	176.0
315.039581	144.0
315.247314	132.0
315.282349	104.0
315.384186	204.0
315.471527	156.0
315.503815	192.0
316.133392	164.0
316.29715	136.0
318.185669	140.0
326.436005	176.0
328.155975	296.0
328.539459	168.0
328.680176	160.0
328.784821	160.0
329.102051	180.0
329.186951	58956.0
329.377777	120.0
329.527679	132.0
329.58432	108.0
329.620361	112.0
329.709351	120.0
329.748322	96.0
330.103394	140.0
330.18869	7476.0
331.127533	156.0
331.190186	2008.0
331.229065	128.0
332.179688	136.0
332.21524	176.0
332.265533	148.0
332.397736	108.0
332.446228	124.0
332.539764	108.0
332.806213	136.0
399.802032	144.0
435.452545	152.0
494.746521	176.0
502.787415	140.0
679.139282	144.0
766.789062	192.0
1016.014038	164.0
1186.256226	164.0
1210.709473	212.0
1211.367554	160.0
1310.440674	148.0
1310.65686	168.0
1316.615356	168.0
1343.304077	176.0
1417.076538	180.0
1431.30249	196.0
1455.324707	232.0
1466.301758	148.0
1473.275879	220.0
1474.941772	180.0
1484.16687	164.0
1490.653076	144.0
1497.184326	160.0
1500.220093	252.0
1501.160767	152.0
1502.988892	176.0
1536.889648	192.0
1553.263916	156.0
1556.010498	188.0
1577.146118	188.0
1579.913818	160.0
1610.726074	208.0
1636.026367	140.0
1637.701172	144.0
1646.387451	164.0
1648.600952	148.0
1651.196045	156.0
1654.772705	272.0
1657.810181	164.0
1658.499023	180.0
1664.689331	172.0
1679.607666	144.0
1680.186768	164.0
1702.434204	156.0
1712.830078	184.0
1716.637817	180.0
1721.457031	176.0
1723.439453	140.0
1737.722046	248.0
1739.058105	152.0
1748.657715	172.0
1751.963501	152.0
1756.239746	204.0
1766.999268	184.0
1773.086792	196.0
1775.031738	152.0
1777.481079	168.0
1793.948975	144.0
1808.884155	168.0
1814.314209	144.0
1828.950684	152.0
1850.523193	140.0
1876.76355	156.0
1887.193726	184.0
1890.645142	160.0
1896.647217	160.0
1901.825562	224.0
1918.631714	168.0
1931.162476	160.0
1973.108154	176.0
1974.991699	156.0
1979.159912	184.0
1981.312134	280.0
1988.361572	152.0
END IONS

BEGIN IONS
PEPMASS=353.186
CHARGE=1
MSLEVEL=2
SOURCE_INSTRUMENT=LC-ESI-qTof
FILENAME=p1-A06_GA6_01_17879.mzXML
SEQ=*..*
IONMODE=Positive
ORGANISM=GNPS-NIH-NATURALPRODUCTSLIBRARY
NAME=MLS000111555-01! M+H
PI=Dorrestein
DATACOLLECTOR=VVP/LMS
SMILES=COC(=O)C1=COC(C)C2CN3CCc4c([nH]c5ccccc45)C3CC21
INCHI=N/A
INCHIAUX=N/A
PUBMED=N/A
SUBMITUSER=vphelan
LIBRARYQUALITY=1
SPECTRUMID=CCMSLIB00000079416
USI=mzspec:GNPS:GNPS-NIH-NATURALPRODUCTSLIBRARY:accession:CCMSLIB00000079416
SCANS=1645
95.010468	160.0
95.048492	320.0
95.080315	172.0
95.1269	248.0
95.158958	124.0
95.218155	128.0
95.256683	172.0
95.404686	172.0
95.445511	52.0
95.503853	172.0
95.570641	332.0
95.634209	180.0
95.760765	148.0
95.805565	136.0
95.860115	132.0
95.877655	188.0
95.89325	140.0
95.947823	140.0
95.96891	216.0
95.992668	128.0
96.047714	160.0
96.068733	140.0
96.08239	496.0
96.10054	132.0
96.193863	160.0
96.209236	176.0
96.231697	184.0
96.263908	148.0
96.279526	128.0
96.400642	200.0
96.447548	132.0
96.492508	120.0
96.519882	136.0
96.570724	176.0
96.590286	76.0
96.609634	148.0
96.647018	128.0
96.664627	152.0
96.701813	132.0
96.766403	220.0
96.8134	184.0
96.918907	264.0
96.974045	184.0
97.011284	176.0
97.061508	180.0
97.138748	156.0
97.241653	64.0
97.308632	116.0
97.384094	124.0
97.462677	48.0
97.492149	224.0
97.596329	96.0
97.692696	132.0
97.749748	180.0
97.7892	168.0
97.824539	120.0
97.859978	176.0
97.901321	56.0
97.924957	84.0
97.991928	128.0
98.017548	108.0
98.056961	176.0
98.110176	176.0
98.194962	40.0
98.210739	160.0
98.236382	244.0
98.267944	132.0
98.321228	148.0
98.352806	176.0
98.370567	148.0
98.461388	220.0
98.536453	144.0
98.601074	216.0
98.631302	136.0
98.708221	128.0
98.755867	144.0
98.858742	152.0
98.892387	128.0
99.043625	184.0
99.066628	236.0
99.114182	172.0
99.15976	156.0
99.254906	140.0
99.284294	144.0
99.320351	176.0
99.408592	192.0
99.423805	168.0
99.520782	112.0
99.608162	156.0
99.639946	268.0
99.699554	156.0
99.722977	148.0
99.757195	144.0
99.796959	208.0
99.908325	112.0
99.950005	152.0
99.973984	104.0
100.00782	184.0
100.039711	192.0
100.109352	188.0
100.181053	264.0
100.268723	140.0
100.302605	144.0
100.367043	176.0
100.478088	180.0
100.523979	112.0
100.54792	128.0
100.561897	44.0
100.617783	224.0
100.653725	352.0
100.697655	144.0
100.733612	128.0
100.771568	152.0
100.851494	36.0
100.897476	112.0
100.949455	132.0
100.981453	164.0
101.00042	108.0
101.017456	208.0
101.042351	160.0
101.1175	116.0
101.135963	160.0
101.18956	148.0
101.223351	160.0
101.273666	172.0
101.297699	180.0
101.41993	224.0
101.468033	176.0
101.503326	220.0
101.548248	176.0
101.56945	224.0
101.606415	92.0
101.658585	168.0
101.708206	264.0
101.779022	228.0
101.829224	224.0
101.893501	32.0
101.938477	208.0
101.969856	136.0
101.995987	120.0
102.04512	180.0
102.074387	140.0
102.096512	156.0
102.124664	308.0
102.148987	220.0
102.237328	188.0
102.265503	196.0
102.291672	96.0
102.313812	228.0
102.35408	112.0
102.414162	240.0
102.435188	176.0
102.468224	196.0
102.501122	152.0
102.527321	92.0
102.556023	180.0
102.573669	144.0
102.600677	212.0
102.641884	120.0
102.644798	100.0
102.65583	148.0
102.736839	188.0
102.759201	212.0
102.83992	148.0
102.868172	168.0
102.940857	164.0
102.987305	148.0
103.003464	216.0
103.054382	1924.0
103.132782	168.0
103.152992	96.0
103.175995	180.0
103.209602	136.0
103.231842	112.0
103.253593	196.0
103.278358	92.0
103.351181	152.0
103.37104	228.0
103.397728	208.0
103.487839	240.0
103.545296	368.0
103.598404	200.0
103.61116	224.0
103.658958	152.0
103.727859	40.0
103.753006	224.0
103.768143	176.0
103.79071	128.0
103.849518	228.0
103.871834	164.0
103.916458	364.0
104.036194	228.0
104.056984	460.0
104.087349	164.0
104.103195	92.0
104.188499	96.0
104.218979	160.0
104.237267	148.0
104.255013	136.0
104.340919	160.0
104.354538	232.0
104.387688	128.0
104.458961	168.0
104.511765	160.0
104.566704	140.0
104.599274	132.0
104.644058	184.0
104.699036	56.0
104.827095	148.0
104.875702	168.0
104.992493	180.0
105.025757	372.0
105.067818	1072.0
105.097885	96.0
105.212852	76.0
105.274658	192.0
105.294525	208.0
105.319534	148.0
105.335373	104.0
105.384125	144.0
105.391655	124.0
105.42527	148.0
105.460968	172.0
105.521339	176.0
105.562233	208.0
105.619987	232.0
105.644043	64.0
105.708199	168.0
105.728821	92.0
105.791382	96.0
105.829185	136.0
105.89785	48.0
105.918335	116.0
105.955208	332.0
105.981842	132.0
106.008476	148.0
106.035118	184.0
106.065063	528.0
106.234009	160.0
106.25042	184.0
106.315849	216.0
106.37117	228.0
106.412552	120.0
106.585075	164.0
106.640564	148.0
106.712509	160.0
106.790649	228.0
106.815331	184.0
106.893509	308.0
106.937576	228.0
106.97789	52.0
106.992302	88.0
107.011948	372.0
107.048264	532.0
107.070564	384.0
107.148163	164.0
107.229179	152.0
107.262154	172.0
107.286888	100.0
107.406494	136.0
107.433304	76.0
107.487526	128.0
107.509644	168.0
107.526154	168.0
107.540604	48.0
107.602531	240.0
107.658279	212.0
107.689255	156.0
107.702698	156.0
107.724373	220.0
107.755791	152.0
107.848351	180.0
107.871086	116.0
107.97551	268.0
108.007469	184.0
108.046127	136.0
108.081406	3528.0
108.127556	128.0
108.146179	148.0
108.200005	204.0
108.224846	156.0
108.272476	140.0
108.28904	88.0
108.429924	176.0
108.48381	144.0
108.527344	128.0
108.562599	192.0
108.578926	204.0
108.643486	144.0
108.701881	220.0
108.752754	164.0
108.826118	160.0
108.86557	88.0
108.907104	220.0
108.956757	164.0
108.975655	116.0
109.028954	808.0
109.06588	648.0
109.087875	108.0
109.102432	172.0
109.135696	188.0
109.241867	148.0
109.259033	132.0
109.362946	132.0
109.396599	136.0
109.445709	204.0
109.520676	160.0
109.583839	188.0
109.604012	192.0
109.620682	144.0
109.6436	108.0
109.664444	116.0
109.693626	296.0
109.788879	232.0
109.810387	256.0
109.82885	248.0
109.912605	68.0
109.927208	212.0
109.960602	120.0
110.03157	152.0
110.057823	228.0
110.081139	124.0
110.177757	172.0
110.232079	212.0
110.26342	180.0
110.288506	160.0
110.309402	176.0
110.332397	136.0
110.3554	156.0
110.393036	100.0
110.426498	100.0
110.46833	124.0
110.487152	244.0
110.575035	92.0
110.598061	228.0
110.633942	140.0
110.660858	172.0
110.722534	196.0
110.851463	208.0
110.870392	368.0
110.910141	236.0
111.021263	252.0
111.035942	72.0
111.113548	128.0
111.130333	132.0
111.154922	156.0
111.180695	168.0
111.221375	220.0
111.338142	192.0
111.352844	188.0
111.375946	148.0
111.445267	176.0
111.546143	184.0
111.599556	204.0
111.624428	168.0
111.729095	124.0
111.752235	124.0
111.770317	296.0
111.791389	196.0
111.860451	176.0
111.943779	92.0
112.03434	100.0
112.076477	168.0
112.133369	192.0
112.238777	248.0
112.273262	208.0
112.318642	124.0
112.354774	208.0
112.403297	64.0
112.483498	72.0
112.527824	80.0
112.555275	68.0
112.579201	204.0
112.622856	144.0
112.667213	136.0
112.690453	60.0
112.717918	252.0
112.734825	32.0
112.828407	160.0
112.875542	212.0
112.895485	172.0
112.980087	188.0
113.008049	128.0
113.026634	164.0
113.058372	204.0
113.109169	176.0
113.181145	292.0
113.249603	184.0
113.329407	160.0
113.344238	156.0
113.405167	224.0
113.541382	72.0
113.57003	140.0
113.619865	112.0
113.704735	124.0
113.791763	160.0
113.831818	172.0
113.902191	140.0
113.942551	184.0
113.963799	176.0
114.055176	276.0
114.111595	192.0
114.161476	160.0
114.210388	196.0
114.269951	140.0
114.38723	296.0
114.446609	204.0
114.53392	132.0
114.559479	116.0
114.617004	248.0
114.638741	236.0
114.685196	108.0
114.719299	192.0
114.766006	132.0
114.91098	200.0
114.9347	212.0
114.97525	196.0
115.032593	152.0
115.054436	6892.0
115.083046	160.0
115.103699	116.0
115.137497	116.0
115.167908	152.0
115.207977	120.0
115.254982	64.0
115.356873	148.0
115.385353	44.0
115.419563	200.0
115.46447	204.0
115.499878	216.0
115.537193	128.0
115.588768	336.0
115.642044	156.0
115.659164	88.0
115.759789	208.0
115.819748	96.0
115.834747	248.0
115.959015	164.0
116.006172	128.0
116.054771	1252.0
116.081207	196.0
116.096222	328.0
116.186302	52.0
116.242088	204.0
116.269051	184.0
116.346451	64.0
116.420258	160.0
116.463211	52.0
116.516212	168.0
116.549141	100.0
116.587814	92.0
116.609306	92.0
116.70475	160.0
116.719772	104.0
116.772705	196.0
116.794212	68.0
116.826477	104.0
116.860901	324.0
116.920609	128.0
117.069809	15216.0
117.110603	60.0
117.125679	72.0
117.155228	184.0
117.172699	232.0
117.20108	52.0
117.230423	156.0
117.263351	172.0
117.308838	312.0
117.357002	152.0
117.395081	124.0
117.41449	168.0
117.431229	204.0
117.459778	112.0
117.489983	44.0
117.518028	112.0
117.56118	32.0
117.647514	48.0
117.708603	68.0
117.740356	148.0
117.757637	80.0
117.820274	148.0
117.842598	152.0
117.911835	220.0
117.94561	152.0
117.988838	80.0
118.014786	64.0
118.040092	148.0
118.069321	1516.0
118.096626	156.0
118.128029	220.0
118.198631	260.0
118.224525	228.0
118.249664	72.0
118.274376	44.0
118.309013	176.0
118.327011	140.0
118.425941	232.0
118.460594	152.0
118.482262	160.0
118.571098	168.0
118.627449	164.0
118.646965	52.0
118.66864	76.0
118.694817	108.0
118.712006	152.0
118.768394	144.0
118.791954	172.0
118.822624	216.0
118.848663	112.0
118.879036	120.0
118.8964	80.0
118.915932	56.0
118.981049	152.0
119.022301	212.0
119.049408	172.0
119.072586	676.0
119.189552	200.0
119.235184	80.0
119.272476	176.0
119.309082	148.0
119.335175	356.0
119.35257	220.0
119.448257	36.0
119.493942	136.0
119.54834	224.0
119.564362	132.0
119.577835	108.0
119.598389	124.0
119.617981	200.0
119.6614	244.0
119.708572	216.0
119.757332	152.0
119.809608	48.0
119.830597	120.0
119.888046	56.0
119.942535	132.0
120.048721	68.0
120.08149	376.0
120.110428	116.0
120.138786	152.0
120.194351	140.0
120.256615	156.0
120.333015	76.0
120.36795	80.0
120.387505	92.0
120.418175	156.0
120.433464	128.0
120.449226	216.0
120.508575	156.0
120.568916	124.0
120.608261	172.0
120.649788	96.0
120.673843	112.0
120.770805	176.0
120.826927	140.0
120.849709	184.0
120.938019	224.0
120.960419	120.0
120.986687	60.0
121.017143	136.0
121.03019	156.0
121.064552	868.0
121.08522	180.0
121.137787	84.0
121.177216	184.0
121.223045	192.0
121.36351	188.0
121.409561	148.0
121.430244	316.0
121.468781	188.0
121.484131	208.0
121.538979	176.0
121.600426	236.0
121.819992	140.0
121.846352	188.0
121.932274	176.0
121.947433	196.0
121.973808	112.0
121.993591	204.0
122.022217	404.0
122.062546	144.0
122.068054	92.0
122.095947	556.0
122.128517	332.0
122.154114	56.0
122.261818	160.0
122.311874	144.0
122.320908	100.0
122.361572	88.0
122.41555	132.0
122.52697	200.0
122.587837	140.0
122.612076	184.0
122.642937	164.0
122.687019	356.0
122.713478	160.0
122.735527	176.0
122.77742	184.0
122.795067	156.0
122.872269	204.0
122.892616	196.0
122.91198	180.0
122.990692	200.0
123.043152	316.0
123.073425	196.0
123.095184	132.0
123.150398	136.0
123.240967	348.0
123.291794	188.0
123.380203	152.0
123.559334	88.0
123.616859	132.0
123.694321	212.0
123.787804	196.0
123.824951	196.0
123.853745	128.0
123.920204	248.0
123.935715	140.0
123.969872	144.0
124.040054	3080.0
124.077553	160.0
124.117462	212.0
124.147156	184.0
124.186211	76.0
124.300972	120.0
124.354828	188.0
124.370361	180.0
124.428726	224.0
124.475502	100.0
124.512459	176.0
124.547989	144.0
124.652138	164.0
124.695557	96.0
124.715065	184.0
124.925873	64.0
124.957756	180.0
125.021545	232.0
125.042091	256.0
125.055939	176.0
125.073685	176.0
125.097214	204.0
125.201859	132.0
125.246407	180.0
125.315796	180.0
125.346657	128.0
125.403267	168.0
125.446945	212.0
125.487076	28.0
125.527206	176.0
125.544304	192.0
125.582962	124.0
125.609726	168.0
125.687141	228.0
125.71682	132.0
125.738518	248.0
125.837349	124.0
125.915504	124.0
125.933372	136.0
126.031876	168.0
126.04879	316.0
126.109871	224.0
126.152344	172.0
126.228355	188.0
126.387169	76.0
126.422974	212.0
126.452065	108.0
126.485634	140.0
126.561752	176.0
126.631874	140.0
126.723015	148.0
126.771912	228.0
126.846268	168.0
126.861961	188.0
126.888863	136.0
126.904556	128.0
127.000977	136.0
127.021164	212.0
127.055069	3352.0
127.099686	184.0
127.150421	164.0
127.171501	192.0
127.243332	76.0
127.277008	52.0
127.366837	164.0
127.393791	88.0
127.431984	92.0
127.508385	192.0
127.562325	200.0
127.607285	68.0
127.638763	148.0
127.719719	144.0
127.756287	164.0
127.792671	240.0
127.811958	168.0
127.850212	128.0
127.888077	184.0
127.929245	248.0
127.984962	176.0
128.013596	124.0
128.056091	1500.0
128.133911	92.0
128.167709	232.0
128.217453	320.0
128.237564	184.0
128.386368	156.0
128.422455	228.0
128.456284	168.0
128.527222	252.0
128.668411	112.0
128.69165	244.0
128.790344	72.0
128.986923	108.0
129.027618	156.0
129.069534	1696.0
129.120316	64.0
129.142456	180.0
129.19722	116.0
129.335251	164.0
129.369202	188.0
129.389587	168.0
129.405426	104.0
129.425812	136.0
129.446793	256.0
129.48262	232.0
129.6138	272.0
129.727127	84.0
129.89946	236.0
129.91423	100.0
129.975616	120.0
130.026337	152.0
130.033752	108.0
130.064896	5584.0
130.105957	212.0
130.129135	172.0
130.145157	132.0
130.160446	152.0
130.194519	148.0
130.214951	176.0
130.264923	44.0
130.30127	172.0
130.333069	196.0
130.348984	104.0
130.371704	108.0
130.396698	104.0
130.412613	136.0
130.428528	140.0
130.46489	40.0
130.485352	100.0
130.569489	156.0
130.608154	116.0
130.636551	132.0
130.75148	236.0
130.772812	300.0
130.799286	352.0
130.849365	168.0
130.874405	212.0
130.946335	356.0
131.032242	240.0
131.072006	1320.0
131.111938	160.0
131.138657	32.0
131.211594	208.0
131.286835	156.0
131.309647	92.0
131.339813	316.0
131.424911	144.0
131.626846	112.0
131.645111	40.0
131.663376	132.0
131.690781	72.0
131.757034	76.0
131.855286	200.0
131.871277	96.0
131.955856	112.0
131.97644	212.0
132.046661	548.0
132.081009	840.0
132.249222	192.0
132.385208	228.0
132.440979	100.0
132.460541	200.0
132.500534	172.0
132.523453	96.0
132.562927	228.0
132.596069	192.0
132.727448	80.0
132.775604	96.0
132.798538	104.0
132.839813	160.0
132.933884	180.0
132.949951	180.0
132.970596	80.0
133.011688	160.0
133.064224	620.0
133.08812	104.0
133.108337	108.0
133.135895	128.0
133.259933	140.0
133.280609	56.0
133.301407	236.0
133.345718	168.0
133.374832	172.0
133.397812	44.0
133.425919	160.0
133.519669	188.0
133.602478	224.0
133.64389	148.0
133.745148	148.0
133.837234	44.0
133.913223	140.0
133.947464	180.0
133.984634	184.0
134.005356	240.0
134.021484	120.0
134.062576	304.0
134.095566	1008.0
134.118271	80.0
134.171295	64.0
134.191635	160.0
134.226624	84.0
134.254303	212.0
134.288895	164.0
134.515549	156.0
134.538101	208.0
134.588882	136.0
134.608932	200.0
134.653549	116.0
134.708405	100.0
134.722839	172.0
134.84993	176.0
134.873032	148.0
134.902451	220.0
134.933136	168.0
135.040314	652.0
135.081253	136.0
135.102402	328.0
135.152863	156.0
135.171371	136.0
135.29866	172.0
135.400543	88.0
135.432968	164.0
135.578918	120.0
135.627594	212.0
135.66626	212.0
135.745834	140.0
135.765045	28.0
135.803802	108.0
135.845551	56.0
135.861801	152.0
135.90123	244.0
135.984772	128.0
136.048553	228.0
136.07399	600.0
136.114777	124.0
136.170502	104.0
136.205353	152.0
136.27504	236.0
136.300598	160.0
136.332153	220.0
136.405182	180.0
136.436493	220.0
136.510391	156.0
136.533401	240.0
136.572586	44.0
136.663315	104.0
136.86348	116.0
136.909271	216.0
137.021851	160.0
137.057541	452.0
137.081299	208.0
137.103409	196.0
137.149307	184.0
137.177994	72.0
137.236267	156.0
137.26236	168.0
137.296906	168.0
137.317886	96.0
137.413528	196.0
137.455521	96.0
137.495468	168.0
137.60257	176.0
137.644592	208.0
137.663269	208.0
137.71933	52.0
137.775391	148.0
137.817444	288.0
137.84314	68.0
137.941299	144.0
137.988358	120.0
138.021423	280.0
138.076904	468.0
138.097961	112.0
138.123688	88.0
138.172806	128.0
138.221939	180.0
138.261719	184.0
138.28746	132.0
138.324921	36.0
138.343643	156.0
138.45134	168.0
138.516922	224.0
138.573151	112.0
138.601257	140.0
138.622345	176.0
138.668335	180.0
138.699692	196.0
138.866165	168.0
138.895126	184.0
138.936523	160.0
138.990173	208.0
139.036667	360.0
139.069839	128.0
139.130615	148.0
139.152908	100.0
139.180618	64.0
139.290985	152.0
139.394363	132.0
139.488373	144.0
139.528503	172.0
139.718826	112.0
139.765869	128.0
139.831818	192.0
139.861328	160.0
139.878845	216.0
139.894455	212.0
139.923569	64.0
139.944748	44.0
139.980072	60.0
140.010681	176.0
140.046539	160.0
140.069565	388.0
140.133179	204.0
140.187363	124.0
140.208572	180.0
140.255707	128.0
140.356979	96.0
140.360977	92.0
140.369843	156.0
140.482086	28.0
140.552856	112.0
140.576447	184.0
140.616577	184.0
140.703903	164.0
140.736954	120.0
140.857407	172.0
140.918823	108.0
140.98262	72.0
141.015701	184.0
141.062668	420.0
141.110565	220.0
141.171738	168.0
141.233231	168.0
141.266342	132.0
141.301971	172.0
141.350342	248.0
141.441437	200.0
141.476944	176.0
141.493515	64.0
141.552704	184.0
141.633224	168.0
141.661652	96.0
141.687714	132.0
141.720276	156.0
141.728394	116.0
141.735901	176.0
141.77301	140.0
141.82515	136.0
141.853592	252.0
141.877701	164.0
141.917603	196.0
142.013336	204.0
142.064194	2044.0
142.13974	208.0
142.148514	136.0
142.155914	256.0
142.178528	84.0
142.299591	208.0
142.392197	212.0
142.408813	132.0
142.427826	208.0
142.449203	48.0
142.482635	156.0
142.556229	160.0
142.585754	188.0
142.620285	100.0
142.67157	120.0
142.73439	68.0
142.787628	144.0
142.834274	200.0
142.858185	156.0
142.935364	204.0
142.953232	208.0
142.986542	176.0
143.003204	36.0
143.073334	24588.0
143.125366	176.0
143.146042	228.0
143.165085	80.0
143.185059	52.0
143.207169	120.0
143.248444	168.0
143.287918	136.0
143.314682	224.0
143.359619	200.0
143.443756	224.0
143.447693	104.0
143.495682	300.0
143.534317	156.0
143.570206	168.0
143.591797	160.0
143.632339	400.0
143.660797	232.0
143.66629	324.0
143.684692	72.0
143.731644	176.0
143.76091	268.0
143.7789	284.0
143.795792	136.0
143.81633	316.0
143.842194	112.0
143.868607	508.0
143.883865	300.0
143.906326	356.0
143.946045	188.0
143.958084	180.0
143.981506	532.0
144.012985	600.0
144.046997	660.0
144.081345	308280.0
144.141327	296.0
144.171204	316.0
144.198074	128.0
144.239288	296.0
144.276657	360.0
144.299332	340.0
144.362381	144.0
144.442093	244.0
144.474136	1724.0
144.498245	180.0
144.527344	52.0
144.591873	208.0
144.624222	248.0
144.678131	92.0
144.711166	64.0
144.743179	180.0
144.792923	292.0
144.852036	352.0
144.877304	208.0
144.895813	236.0
144.959366	160.0
144.989319	212.0
145.024796	132.0
145.083954	25568.0
145.131531	216.0
145.147446	48.0
145.15451	56.0
145.204453	56.0
145.222382	48.0
145.263336	80.0
145.286865	128.0
145.305664	152.0
145.330902	108.0
145.349762	68.0
145.384186	188.0
145.408157	228.0
145.438721	72.0
145.484329	96.0
145.502029	60.0
145.53363	60.0
145.568359	36.0
145.611237	84.0
145.661087	92.0
145.704636	124.0
145.725662	164.0
145.760223	64.0
145.768143	116.0
145.784561	48.0
145.836319	52.0
145.871841	212.0
145.908142	208.0
145.929581	156.0
145.964844	96.0
145.99353	148.0
146.037476	332.0
146.059357	460.0
146.090485	1092.0
146.144104	128.0
146.174866	132.0
146.228531	104.0
146.23494	240.0
146.264053	344.0
146.304016	84.0
146.333725	224.0
146.370224	224.0
146.405197	76.0
146.488403	124.0
146.506027	204.0
146.555801	92.0
146.585861	128.0
146.622009	56.0
146.719879	60.0
146.807632	48.0
146.872757	60.0
146.891159	108.0
146.916168	112.0
146.964432	108.0
147.050034	192.0
147.141327	40.0
147.158936	108.0
147.192398	148.0
147.216858	304.0
147.256516	104.0
147.311569	96.0
147.329483	96.0
147.356964	68.0
147.38353	124.0
147.402542	108.0
147.423203	56.0
147.447372	40.0
147.473953	56.0
147.534393	140.0
147.677048	180.0
147.744781	168.0
147.836716	104.0
147.95047	120.0
147.989212	216.0
148.008575	64.0
148.040054	236.0
148.077011	420.0
148.110291	64.0
148.328369	128.0
148.359879	152.0
148.45871	252.0
148.551453	124.0
148.643646	92.0
148.745575	112.0
148.762573	272.0
148.822525	156.0
148.876678	56.0
148.917969	96.0
148.961685	176.0
148.978683	140.0
149.059418	412.0
149.1026	180.0
149.147217	256.0
149.173096	60.0
149.214417	164.0
149.263046	108.0
149.334946	100.0
149.413834	60.0
149.4552	88.0
149.498993	152.0
149.547668	100.0
149.584183	128.0
149.634155	152.0
149.852066	48.0
149.888611	96.0
149.995834	196.0
150.060455	508.0
150.086823	636.0
150.198227	192.0
150.214142	120.0
150.378769	180.0
150.44223	72.0
150.574081	56.0
150.608276	80.0
150.688889	88.0
150.767075	40.0
150.818405	164.0
150.943085	32.0
151.007324	164.0
151.062927	152.0
151.185257	116.0
151.339462	144.0
151.359055	180.0
151.383545	232.0
151.422714	196.0
151.552551	136.0
151.662827	60.0
151.809921	156.0
151.974258	92.0
152.047882	168.0
152.070496	596.0
152.123962	156.0
152.190247	188.0
152.237534	140.0
152.402832	116.0
152.467819	248.0
152.531723	48.0
152.577438	108.0
152.615311	180.0
152.632523	140.0
152.725967	188.0
152.804688	76.0
152.846512	124.0
152.873581	144.0
152.974487	128.0
152.99559	116.0
153.021271	100.0
153.070267	752.0
153.09021	120.0
153.12468	56.0
153.141922	124.0
153.159164	32.0
153.196121	88.0
153.228149	84.0
153.287277	124.0
153.33287	120.0
153.356277	88.0
153.431931	156.0
153.457352	144.0
153.536255	200.0
153.557373	84.0
153.590515	32.0
153.637375	80.0
153.694763	216.0
153.741013	80.0
153.768158	76.0
153.833008	72.0
154.06485	2584.0
154.094101	48.0
154.147217	100.0
154.264618	52.0
154.289337	140.0
154.350906	188.0
154.558914	92.0
154.579834	124.0
154.680176	44.0
154.708572	200.0
154.747025	64.0
154.848541	140.0
154.873306	40.0
154.90799	48.0
154.971344	252.0
155.069244	2844.0
155.160751	44.0
155.205383	96.0
155.222748	164.0
155.252502	88.0
155.378998	144.0
155.403809	68.0
155.465836	192.0
155.540298	36.0
155.617249	68.0
155.73645	128.0
155.945145	72.0
156.032501	112.0
156.080658	11224.0
156.157471	132.0
156.218658	144.0
156.24353	96.0
156.370438	128.0
156.437637	72.0
156.525238	140.0
156.619415	116.0
156.716568	76.0
156.806274	188.0
156.848312	60.0
156.886978	96.0
156.910248	124.0
157.087173	2184.0
157.125961	212.0
157.157883	144.0
157.307617	296.0
157.332581	244.0
157.351196	96.0
157.412476	152.0
157.46463	72.0
157.534851	52.0
157.567322	116.0
157.618057	144.0
157.844757	84.0
157.872269	152.0
157.897278	120.0
157.986893	232.0
158.004822	160.0
158.059616	552.0
158.095795	6804.0
158.257599	44.0
158.35025	112.0
158.392838	152.0
158.47551	136.0
158.51059	152.0
158.643417	128.0
158.924301	228.0
158.99205	156.0
159.014633	92.0
159.058563	304.0
159.099274	636.0
159.125092	48.0
159.175293	56.0
159.245621	156.0
159.353622	36.0
159.491837	160.0
159.602448	152.0
159.687958	88.0
159.708069	104.0
160.013046	188.0
160.073868	464.0
160.151047	152.0
160.21402	84.0
160.347565	56.0
160.42067	96.0
160.574463	100.0
160.672836	76.0
160.776291	132.0
161.053772	316.0
161.08432	92.0
161.113129	184.0
161.137375	104.0
161.294037	204.0
161.478622	136.0
161.503189	128.0
161.640518	64.0
161.863266	112.0
161.924042	156.0
162.035492	248.0
162.065903	160.0
162.089523	1076.0
162.202744	104.0
162.395447	132.0
162.570496	152.0
162.674545	144.0
162.722778	160.0
162.763412	72.0
162.798965	120.0
162.875153	84.0
162.974228	172.0
163.03775	212.0
163.065414	172.0
163.073074	80.0
163.093567	168.0
163.13179	168.0
163.396271	204.0
163.449692	144.0
163.480225	64.0
163.696609	96.0
163.956436	56.0
164.069	1392.0
164.111923	220.0
164.208832	84.0
164.366989	176.0
164.522675	168.0
164.801056	240.0
164.946716	124.0
165.073395	288.0
165.153824	116.0
165.204987	192.0
165.322678	44.0
165.750305	184.0
165.81694	80.0
165.84256	112.0
166.068588	372.0
166.086258	192.0
166.152832	176.0
166.175934	76.0
166.363266	128.0
166.558426	104.0
166.740845	208.0
166.797379	160.0
166.815384	188.0
166.859085	188.0
166.89386	204.0
166.967529	180.0
167.000504	184.0
167.071442	5480.0
167.121414	204.0
167.149719	76.0
167.167725	196.0
167.59259	48.0
167.644119	136.0
167.711121	148.0
167.78331	140.0
167.803925	104.0
168.043777	160.0
168.080338	6360.0
168.130859	240.0
168.369431	252.0
168.423248	40.0
168.457306	176.0
168.487839	168.0
168.73851	204.0
168.841949	60.0
168.979034	64.0
169.051483	148.0
169.085236	2968.0
169.227493	244.0
169.250793	184.0
169.287048	104.0
169.352524	144.0
169.401001	140.0
169.468369	136.0
169.566833	104.0
169.58757	148.0
169.650925	144.0
169.709396	120.0
169.833878	152.0
169.98175	124.0
170.013596	132.0
170.059036	352.0
170.095947	16756.0
170.2202	176.0
170.324432	208.0
170.347809	104.0
170.371201	68.0
170.391983	80.0
170.438751	104.0
170.537491	104.0
170.571289	64.0
170.651962	112.0
170.696075	40.0
170.831314	132.0
170.85733	124.0
171.03688	156.0
171.099075	1592.0
171.375412	164.0
171.417114	196.0
171.482254	48.0
171.547424	40.0
171.604767	64.0
171.67778	100.0
171.750809	52.0
171.784714	140.0
171.88385	84.0
171.980591	176.0
172.039688	180.0
172.075485	620.0
172.108963	320.0
172.291046	96.0
172.359818	156.0
172.453156	148.0
172.521118	136.0
172.573395	76.0
172.787857	280.0
173.002457	100.0
173.057434	280.0
173.083618	164.0
173.111771	328.0
173.23027	36.0
173.589325	228.0
173.76506	136.0
174.045898	92.0
174.090958	368.0
174.192963	168.0
174.219238	124.0
174.274399	180.0
174.708191	156.0
174.939758	56.0
174.992416	148.0
175.0634	208.0
175.097748	328.0
175.171494	152.0
175.403366	108.0
175.609024	196.0
175.764679	180.0
175.880798	172.0
176.071625	280.0
176.263718	288.0
176.282211	116.0
176.652359	80.0
176.678818	96.0
176.816864	228.0
177.047882	236.0
177.074493	180.0
177.163254	132.0
177.208298	124.0
177.282486	144.0
177.701431	124.0
177.804916	144.0
177.844727	40.0
177.873917	72.0
178.009323	168.0
178.038528	136.0
178.085739	13924.0
178.163361	40.0
178.197906	80.0
178.221817	52.0
178.335342	72.0
178.426468	68.0
178.527496	220.0
178.562073	200.0
178.628571	232.0
178.700394	208.0
178.798843	140.0
178.958557	116.0
178.998489	84.0
179.085007	1432.0
179.134323	60.0
179.190262	128.0
179.211578	108.0
179.457336	96.0
179.595444	88.0
179.632797	144.0
179.66481	60.0
179.741425	128.0
179.795547	48.0
179.899643	164.0
180.030472	128.0
180.080414	3152.0
180.228134	44.0
180.2789	64.0
180.360901	200.0
180.425903	60.0
180.51413	176.0
180.572968	156.0
180.70137	132.0
180.990417	168.0
181.046494	132.0
181.087143	2764.0
181.188614	56.0
181.311874	52.0
181.424667	96.0
181.486099	84.0
181.61412	76.0
181.65506	68.0
181.745514	140.0
181.853622	68.0
181.923401	176.0
181.944885	216.0
182.060654	680.0
182.095596	8208.0
182.178513	48.0
182.214905	168.0
182.302109	112.0
182.357788	72.0
182.506393	36.0
182.764603	56.0
182.915298	108.0
182.947601	48.0
183.063034	368.0
183.098938	1232.0
183.133392	44.0
183.189957	40.0
183.216904	40.0
183.273483	44.0
183.323425	112.0
183.521439	140.0
183.799255	40.0
183.90451	216.0
184.042175	92.0
184.076889	664.0
184.104782	668.0
184.161453	72.0
184.320389	132.0
184.344696	44.0
184.431183	52.0
184.847656	156.0
185.031448	168.0
185.075439	132.0
185.10849	1224.0
185.161682	68.0
185.714569	144.0
186.018463	40.0
186.055359	176.0
186.083618	160.0
186.116364	192.0
186.159637	220.0
186.234009	156.0
186.409546	160.0
186.515549	76.0
186.564468	136.0
186.700424	104.0
186.784729	100.0
187.02417	128.0
187.071274	184.0
187.124969	152.0
187.214752	108.0
187.419037	204.0
187.492615	92.0
187.555298	104.0
187.868881	244.0
187.986206	136.0
188.070312	252.0
188.10083	132.0
188.38208	116.0
188.428528	196.0
188.674484	160.0
189.065613	100.0
189.531128	104.0
189.88475	148.0
190.083481	832.0
190.257919	172.0
190.414429	44.0
190.568253	104.0
190.686417	144.0
190.716644	96.0
191.005341	68.0
191.077744	324.0
191.38237	224.0
191.542099	120.0
192.08226	1136.0
192.132004	72.0
192.178909	92.0
192.289276	128.0
192.474243	156.0
192.512894	136.0
192.7173	112.0
192.758743	216.0
192.789139	96.0
193.088715	780.0
193.143021	188.0
193.201111	52.0
193.275803	72.0
193.312698	132.0
193.505524	68.0
193.686203	180.0
193.790802	100.0
193.943207	32.0
193.98201	176.0
194.045639	232.0
194.094162	2404.0
194.153915	140.0
194.381378	172.0
194.434113	100.0
194.656189	96.0
194.964539	76.0
195.034012	200.0
195.068512	184.0
195.100204	892.0
195.264771	176.0
195.392731	120.0
195.946747	52.0
196.076691	908.0
196.106384	1048.0
196.164108	36.0
196.272842	36.0
196.409485	68.0
196.761093	140.0
196.962143	84.0
197.083084	180.0
197.113953	588.0
197.138153	164.0
197.255539	156.0
197.658264	404.0
197.991379	172.0
198.091492	328.0
198.123566	344.0
198.31076	228.0
198.407745	108.0
198.515411	136.0
198.537842	200.0
198.868896	140.0
198.939056	56.0
199.003632	56.0
199.065018	144.0
199.083481	220.0
199.122696	880.0
199.219879	104.0
199.388458	40.0
199.478409	168.0
199.517761	112.0
199.765228	44.0
200.120026	144.0
200.187393	124.0
200.601547	216.0
200.948425	128.0
201.058182	120.0
201.117737	104.0
201.36055	124.0
201.710892	124.0
201.795197	112.0
201.948395	40.0
202.03215	236.0
202.058716	168.0
202.087845	232.0
202.120972	184.0
202.302094	96.0
202.361542	96.0
202.466309	76.0
202.6306	48.0
202.656097	144.0
202.738266	192.0
203.091248	184.0
203.393417	164.0
203.510757	60.0
203.643265	96.0
203.810883	152.0
204.081451	1092.0
204.132065	176.0
204.154816	172.0
204.289978	172.0
204.667007	32.0
204.815094	60.0
204.93576	168.0
205.086411	1004.0
205.163055	72.0
205.191238	56.0
205.256821	116.0
205.644791	96.0
206.06015	140.0
206.095032	2768.0
206.193146	116.0
206.344635	72.0
206.370361	120.0
206.736496	88.0
206.762253	120.0
206.78801	52.0
206.974075	184.0
207.066513	436.0
207.103485	916.0
207.223267	72.0
207.443924	92.0
207.466858	52.0
207.521332	208.0
207.544266	40.0
207.608551	144.0
207.633163	96.0
207.656097	100.0
207.74852	128.0
207.988922	132.0
208.105331	2620.0
208.14682	148.0
208.201263	200.0
208.322006	60.0
208.344986	32.0
208.434052	60.0
208.454178	148.0
208.500153	32.0
208.675491	168.0
208.859528	108.0
208.96022	148.0
208.99762	52.0
209.082382	632.0
209.114761	604.0
209.31424	44.0
209.366074	92.0
209.531158	88.0
209.657028	80.0
209.682968	104.0
209.809784	256.0
209.871216	100.0
209.920532	136.0
210.052017	188.0
210.111603	10200.0
210.216461	60.0
210.285721	68.0
210.317474	48.0
210.409851	52.0
210.430054	60.0
210.541702	88.0
210.684204	68.0
210.707306	80.0
210.799759	128.0
211.054123	108.0
211.115921	1472.0
211.305756	52.0
211.490952	116.0
211.577789	56.0
211.644379	64.0
211.68782	68.0
211.731247	180.0
211.768906	116.0
212.029648	124.0
212.086319	100.0
212.125	280.0
212.374649	188.0
212.5168	200.0
212.569031	140.0
212.972549	132.0
213.106186	156.0
213.140289	348.0
213.216599	116.0
213.501495	128.0
213.573288	152.0
213.708023	116.0
213.795319	320.0
215.08197	144.0
215.11853	156.0
215.27327	60.0
215.731979	60.0
216.065353	136.0
216.407776	108.0
216.439987	132.0
216.46048	124.0
216.574692	160.0
216.791489	136.0
217.014252	136.0
217.088684	1928.0
217.269409	80.0
217.774292	176.0
217.903534	96.0
218.094147	2196.0
218.140015	76.0
218.220947	108.0
218.332687	44.0
218.66217	44.0
219.102371	1464.0
219.204025	32.0
220.075134	1504.0
220.110092	1652.0
220.165695	192.0
220.443375	160.0
220.948959	160.0
220.981506	172.0
221.002213	132.0
221.083527	968.0
221.115707	1176.0
221.145294	80.0
221.298187	168.0
221.597321	72.0
221.81662	56.0
221.97374	108.0
222.044373	152.0
222.114075	3720.0
222.176346	116.0
222.218811	160.0
222.347519	80.0
222.380173	184.0
222.403915	104.0
222.513748	72.0
222.682999	148.0
222.81073	200.0
222.870148	72.0
222.893921	124.0
222.983063	72.0
223.131561	1080.0
223.301178	76.0
223.426117	68.0
223.634399	148.0
223.717743	104.0
223.744537	100.0
223.780258	112.0
223.872574	152.0
223.99765	160.0
224.018509	108.0
224.072784	520.0
224.107697	2324.0
224.139359	600.0
224.30159	108.0
224.555023	160.0
224.704163	160.0
224.835449	108.0
224.86232	72.0
224.975739	76.0
225.008575	108.0
225.038437	168.0
225.068771	148.0
225.107101	360.0
225.137314	940.0
225.175797	28.0
225.749573	88.0
225.958939	28.0
226.087692	180.0
226.116211	136.0
226.20433	44.0
226.39296	112.0
226.422897	192.0
226.461838	64.0
227.078506	276.0
227.145142	156.0
228.080414	236.0
228.118118	144.0
228.370697	52.0
228.427139	120.0
228.797974	136.0
228.942505	116.0
229.084061	164.0
229.316071	68.0
230.094696	1120.0
230.175827	76.0
230.402344	76.0
230.494553	100.0
230.668274	196.0
230.786163	108.0
230.980179	132.0
231.066437	180.0
231.099777	1424.0
231.13855	76.0
231.362991	152.0
231.527527	104.0
232.071335	464.0
232.109451	2096.0
232.464233	84.0
232.5401	60.0
232.594742	72.0
232.615982	104.0
232.773849	76.0
233.082947	500.0
233.113022	616.0
233.46669	188.0
234.052078	148.0
234.090988	2060.0
234.126785	1612.0
234.194061	44.0
234.248886	64.0
234.306763	48.0
234.419495	120.0
234.657242	160.0
234.776154	60.0
235.064713	128.0
235.097977	1456.0
235.12793	484.0
235.282654	216.0
235.386459	104.0
235.960876	68.0
236.071686	312.0
236.107208	560.0
236.141617	1048.0
236.269745	136.0
236.361542	44.0
236.59108	36.0
236.769928	92.0
236.891174	52.0
236.934067	36.0
237.07515	648.0
237.104156	452.0
237.140579	340.0
237.196609	196.0
237.541031	48.0
237.654541	80.0
238.084274	976.0
238.118378	324.0
238.253204	48.0
238.360748	188.0
238.400696	172.0
238.422211	84.0
238.477524	108.0
238.65274	52.0
238.692719	100.0
238.748062	136.0
238.781891	124.0
238.85878	88.0
239.015686	164.0
239.089081	460.0
239.194183	148.0
239.242157	56.0
239.289612	80.0
239.320404	136.0
239.523651	52.0
239.779373	124.0
239.971771	192.0
239.985291	140.0
240.053299	140.0
240.101776	540.0
241.086182	132.0
241.180588	60.0
241.316605	188.0
241.384613	140.0
241.406265	32.0
241.65062	112.0
242.098816	80.0
242.347244	36.0
242.604462	64.0
242.843216	92.0
243.095459	388.0
243.117691	176.0
243.743484	60.0
244.04187	140.0
244.082291	292.0
244.112381	400.0
244.617401	76.0
245.091827	224.0
245.111938	508.0
245.26329	144.0
245.867218	124.0
246.087051	484.0
246.13089	704.0
246.410522	132.0
246.451828	92.0
246.694916	108.0
246.854355	76.0
247.097	796.0
247.129288	536.0
247.179672	80.0
247.228073	60.0
247.458237	144.0
247.805878	44.0
248.069366	292.0
248.10762	1040.0
248.14212	452.0
248.555237	40.0
248.605453	152.0
248.687042	80.0
248.737259	76.0
248.803177	224.0
249.078857	532.0
249.109619	856.0
249.183182	132.0
249.431442	124.0
249.654663	52.0
249.720703	88.0
249.903152	72.0
250.044754	140.0
250.086441	852.0
250.120529	2920.0
250.729584	132.0
250.810089	72.0
250.842178	92.0
251.056015	148.0
251.090652	372.0
251.123505	652.0
251.151978	1408.0
251.213715	92.0
251.330444	32.0
251.361984	80.0
251.440887	164.0
251.522949	144.0
251.784988	212.0
251.819733	132.0
251.889221	120.0
251.961884	140.0
252.101028	7080.0
252.137009	508.0
252.164902	588.0
252.205185	176.0
252.300018	88.0
252.35376	40.0
252.401199	60.0
252.473923	116.0
252.663696	88.0
252.692169	104.0
252.770065	124.0
252.882034	124.0
252.970657	88.0
253.10524	948.0
253.16861	784.0
253.207352	112.0
253.236633	52.0
253.337997	116.0
254.01001	120.0
254.115341	1432.0
254.178146	356.0
254.200363	92.0
254.228928	92.0
254.257492	80.0
254.473328	44.0
254.535141	180.0
254.574936	88.0
254.863998	76.0
255.103439	304.0
255.125763	224.0
255.286743	100.0
255.366257	144.0
255.830811	176.0
256.108826	144.0
256.135254	212.0
256.209778	40.0
256.404144	60.0
256.735687	36.0
257.079071	248.0
257.125336	140.0
257.520752	44.0
257.654907	152.0
257.894592	132.0
258.114655	152.0
258.135834	264.0
258.895935	76.0
258.937592	136.0
259.099915	772.0
259.436218	116.0
260.059692	184.0
260.106598	1644.0
260.165619	116.0
260.438568	60.0
260.724518	88.0
260.898071	96.0
261.023468	148.0
261.111908	496.0
261.138397	200.0
261.769989	52.0
262.086243	624.0
262.123199	652.0
262.166199	40.0
262.788513	60.0
262.814331	80.0
263.087006	708.0
263.118561	216.0
263.146759	344.0
263.353424	56.0
263.560181	64.0
263.980377	48.0
264.099152	176.0
264.13739	1124.0
264.452698	132.0
264.517456	56.0
265.096893	1168.0
265.133881	312.0
265.175385	408.0
265.301361	60.0
265.522644	80.0
266.107513	320.0
266.352722	56.0
266.44043	88.0
266.495667	68.0
266.788147	116.0
267.028748	96.0
267.106049	368.0
267.171875	100.0
267.66333	136.0
268.018372	108.0
268.121735	120.0
268.354065	68.0
268.735657	88.0
268.970612	56.0
269.106567	124.0
269.636902	120.0
270.084839	96.0
270.114258	132.0
270.438202	128.0
270.673889	112.0
271.106293	116.0
272.102753	304.0
272.310272	72.0
273.110107	456.0
273.137695	144.0
273.819855	68.0
273.964783	64.0
274.116302	824.0
275.114471	232.0
275.152985	488.0
275.396332	176.0
276.047363	76.0
276.109863	356.0
276.137299	676.0
276.315277	52.0
276.556854	56.0
276.917725	92.0
277.134979	1008.0
277.161957	160.0
277.229126	60.0
277.374969	124.0
277.461151	124.0
277.991821	68.0
278.116119	3296.0
278.220856	56.0
278.642609	80.0
278.911774	56.0
279.008179	68.0
279.119476	668.0
279.144989	432.0
279.310791	96.0
279.463806	44.0
280.12561	268.0
280.266205	44.0
280.382843	44.0
280.987518	128.0
281.029755	112.0
281.08313	148.0
281.136505	124.0
281.179901	132.0
281.25	200.0
281.330109	48.0
281.510406	152.0
281.650665	164.0
281.941315	192.0
282.044922	92.0
282.115387	320.0
282.146942	240.0
282.416077	80.0
282.603394	52.0
282.871124	100.0
283.113678	296.0
283.91983	56.0
284.124969	3268.0
284.446564	48.0
284.664795	236.0
284.91333	76.0
285.084686	60.0
285.129639	840.0
285.955688	40.0
286.129211	564.0
286.28656	72.0
286.332764	96.0
286.662903	80.0
286.686493	124.0
286.828033	108.0
287.113434	332.0
287.144989	80.0
288.036011	88.0
288.105042	156.0
288.132263	308.0
288.2117	48.0
288.498962	48.0
289.116852	128.0
289.122375	88.0
289.136322	156.0
289.337921	124.0
289.503845	60.0
290.113739	548.0
290.141144	204.0
290.184906	48.0
290.228973	56.0
290.269653	168.0
290.327301	52.0
290.391754	88.0
291.080109	152.0
291.123718	140.0
291.140472	128.0
291.906342	136.0
292.004974	168.0
292.1297	1856.0
292.18866	28.0
292.226074	48.0
292.297516	184.0
292.328156	116.0
292.556183	68.0
292.627686	40.0
292.763885	132.0
292.86441	144.0
293.161346	1016.0
293.261261	56.0
294.149017	148.0
294.16037	188.0
294.173798	300.0
295.073853	152.0
295.131958	188.0
295.159332	188.0
295.186676	68.0
296.045593	44.0
296.162018	168.0
296.624603	48.0
296.984619	148.0
297.173279	120.0
298.402832	160.0
299.218201	148.0
300.593414	104.0
300.797028	92.0
300.879883	148.0
301.129425	136.0
301.715912	56.0
301.902618	116.0
302.110138	176.0
302.142761	144.0
302.338501	60.0
303.144775	948.0
303.183472	220.0
304.136108	1280.0
304.206635	180.0
305.138428	144.0
306.139252	248.0
306.742493	72.0
307.139984	152.0
308.163696	440.0
308.466858	156.0
309.152344	112.0
309.439362	84.0
309.716003	128.0
309.863129	92.0
310.140686	192.0
311.155579	176.0
311.188843	140.0
314.056793	80.0
314.279053	88.0
315.582336	80.0
315.610626	104.0
316.555359	104.0
317.373871	164.0
318.104706	152.0
318.145355	100.0
318.250244	68.0
318.541473	140.0
319.133667	404.0
319.529724	48.0
320.152618	128.0
320.238068	92.0
320.872345	68.0
320.997162	152.0
321.075592	156.0
321.15741	4764.0
321.282471	60.0
321.343109	56.0
321.375244	36.0
321.492981	104.0
321.716003	172.0
321.824951	92.0
322.117798	108.0
322.159943	768.0
322.228516	56.0
322.568024	72.0
323.165985	336.0
323.315521	60.0
323.447662	52.0
323.677063	64.0
324.158142	556.0
325.163696	500.0
325.775146	88.0
325.969147	124.0
326.17041	108.0
327.476471	64.0
329.20755	52.0
329.659088	132.0
331.743805	80.0
332.723267	80.0
332.941132	72.0
334.369843	180.0
335.174713	784.0
335.571899	84.0
335.900116	196.0
336.016846	92.0
336.071564	172.0
336.15741	472.0
337.157318	116.0
337.180511	128.0
338.161804	176.0
339.161682	104.0
339.366974	52.0
339.429291	64.0
342.089233	84.0
344.042969	60.0
344.722565	92.0
346.591187	96.0
346.754242	152.0
348.364532	220.0
348.721252	72.0
350.637909	140.0
351.168274	284.0
351.323975	88.0
351.368744	40.0
351.921112	60.0
351.962189	108.0
352.172791	160.0
352.201202	88.0
352.37381	56.0
352.415863	136.0
352.515015	140.0
352.585999	68.0
352.638336	136.0
352.754211	52.0
352.925293	148.0
353.045837	140.0
353.079498	120.0
353.183685	11304.0
353.250183	56.0
353.606995	48.0
353.75296	72.0
353.864166	96.0
353.926208	172.0
353.973846	148.0
354.056244	144.0
354.123657	176.0
354.185699	2488.0
354.520752	48.0
354.636932	52.0
354.704407	80.0
354.771881	76.0
354.839355	56.0
354.970581	40.0
355.189636	304.0
355.251862	32.0
355.431213	20.0
355.488251	68.0
355.743439	112.0
355.957458	100.0
356.194061	92.0
356.261658	128.0
356.295471	92.0
356.498596	144.0
356.750183	124.0
356.851685	52.0
357.092346	40.0
357.163818	44.0
357.239044	44.0
357.634125	64.0
358.918732	48.0
365.383911	92.0
367.570892	52.0
368.85791	52.0
369.9328	60.0
370.836731	64.0
372.613373	92.0
372.8862	120.0
373.870697	48.0
374.140137	76.0
374.640747	44.0
376.967255	100.0
378.18161	60.0
378.378998	124.0
379.273834	60.0
382.065796	72.0
384.169403	108.0
386.740509	92.0
389.465485	132.0
394.374817	88.0
397.674042	84.0
397.947937	52.0
400.13855	128.0
402.163544	32.0
405.455048	76.0
405.7677	88.0
407.847076	76.0
414.036041	56.0
416.798492	68.0
420.381805	44.0
421.014526	104.0
432.207886	48.0
432.592773	92.0
443.476868	128.0
444.932434	72.0
448.43631	132.0
455.608521	132.0
456.505341	44.0
458.859894	88.0
469.963989	96.0
473.491272	120.0
474.245117	64.0
475.19046	80.0
482.030701	40.0
482.590149	92.0
484.134766	56.0
488.24231	96.0
493.277405	152.0
498.827148	96.0
502.220062	52.0
505.852722	68.0
506.27359	96.0
506.381073	100.0
507.344452	72.0
508.726105	148.0
510.105164	48.0
512.715637	104.0
512.751709	44.0
512.837341	20.0
513.594788	112.0
524.116821	52.0
529.47052	100.0
531.514954	88.0
534.68573	44.0
535.058533	80.0
535.288025	104.0
541.203613	84.0
544.115173	64.0
548.4599	100.0
564.0625	48.0
568.476501	136.0
568.970093	116.0
572.264771	48.0
578.940125	104.0
586.78656	76.0
587.548584	84.0
588.214478	112.0
589.445984	76.0
593.827087	68.0
595.997009	44.0
613.9375	108.0
615.363464	88.0
615.97583	108.0
625.361938	36.0
626.128601	44.0
635.556335	40.0
639.682312	184.0
640.518188	56.0
641.490723	76.0
643.397522	144.0
644.771423	188.0
672.690796	64.0
680.300293	52.0
684.329285	100.0
691.192871	48.0
691.701294	108.0
693.329346	52.0
700.41687	48.0
702.773315	144.0
708.456543	60.0
711.006897	76.0
717.661377	120.0
719.672852	152.0
722.286072	92.0
730.971802	164.0
734.150024	120.0
734.230896	140.0
738.75708	180.0
738.881531	44.0
739.893555	212.0
740.14801	72.0
740.272522	144.0
749.076355	52.0
753.948547	152.0
755.370056	60.0
757.247437	112.0
757.49939	104.0
757.80072	100.0
764.92334	156.0
773.60083	132.0
774.259705	156.0
777.131042	64.0
782.588928	212.0
786.267883	96.0
787.713989	96.0
790.352722	136.0
792.480347	160.0
795.867981	176.0
796.570007	184.0
801.109497	168.0
802.416931	112.0
802.681946	208.0
809.066284	40.0
815.316833	72.0
818.166443	68.0
818.866821	64.0
818.946533	48.0
819.550354	176.0
820.177246	56.0
821.500122	196.0
821.551453	156.0
823.429321	100.0
824.229065	156.0
827.494934	240.0
828.691956	224.0
831.013916	104.0
832.316833	256.0
833.551758	68.0
834.511658	148.0
836.605713	136.0
838.264465	236.0
838.466125	96.0
839.094421	168.0
839.544189	176.0
842.141174	164.0
842.5802	192.0
848.74408	180.0
855.512451	120.0
856.31012	164.0
857.189819	196.0
858.51886	120.0
861.875244	188.0
862.062256	76.0
864.091125	56.0
865.923279	128.0
867.024658	88.0
867.212219	224.0
868.038818	220.0
869.1474	156.0
870.403503	80.0
873.735962	56.0
875.330994	176.0
878.784973	164.0
878.920654	140.0
879.168518	160.0
879.457703	180.0
880.236938	172.0
881.501038	84.0
883.588135	60.0
883.694641	140.0
884.221252	60.0
884.452087	44.0
886.536804	148.0
886.673096	140.0
890.226562	172.0
897.307068	136.0
898.213501	208.0
898.255249	168.0
899.45459	176.0
899.926208	148.0
901.025085	192.0
901.682373	224.0
902.70459	116.0
903.649658	164.0
904.367737	160.0
906.173584	160.0
906.274292	64.0
908.208313	192.0
908.832214	208.0
909.55835	52.0
910.404846	184.0
910.777222	140.0
913.103149	192.0
918.053406	148.0
918.547974	44.0
918.662537	176.0
919.0849	180.0
920.575806	156.0
921.421387	212.0
921.596619	44.0
922.049805	156.0
923.567322	60.0
924.922668	164.0
925.752075	268.0
931.562378	128.0
936.525818	160.0
936.745117	240.0
936.866943	180.0
937.189819	124.0
938.933167	132.0
940.403503	128.0
941.532959	192.0
942.626404	152.0
942.742493	160.0
949.4151	244.0
950.666565	204.0
951.624084	204.0
952.932251	140.0
954.671753	176.0
955.305237	200.0
958.673035	128.0
959.25238	212.0
960.097046	192.0
960.559631	220.0
961.744324	124.0
962.108521	104.0
962.157898	160.0
962.324585	184.0
964.505249	200.0
964.792664	152.0
965.735657	132.0
966.645081	180.0
967.183472	160.0
967.635376	172.0
967.72821	136.0
970.175354	144.0
970.98761	120.0
971.254333	236.0
971.682312	128.0
972.02356	124.0
973.77417	176.0
975.731506	124.0
976.371948	156.0
976.825989	132.0
979.172485	180.0
979.832703	172.0
979.901245	44.0
980.698853	124.0
981.31604	176.0
982.617676	152.0
983.355774	180.0
984.516968	200.0
984.66687	156.0
985.703857	272.0
986.197571	188.0
986.628845	184.0
988.799316	172.0
989.600525	180.0
989.805908	180.0
991.561157	212.0
998.328613	144.0
998.492126	164.0
1001.009277	136.0
1001.909912	48.0
1002.861389	120.0
1004.324158	160.0
1004.63324	148.0
1005.327271	120.0
1005.933167	152.0
1007.461365	92.0
1010.147949	104.0
1010.970398	28.0
1011.350159	48.0
1011.578003	44.0
1012.546753	232.0
1013.015442	140.0
1014.688416	108.0
1015.620605	92.0
1018.05127	124.0
1018.55304	180.0
1022.424927	208.0
1022.959595	64.0
1023.487976	128.0
1025.059937	188.0
1025.998169	180.0
1026.910034	152.0
1026.954712	232.0
1027.235352	96.0
1027.34375	124.0
1027.739258	196.0
1028.837036	120.0
1030.625244	172.0
1030.708374	52.0
1030.983154	124.0
1031.225952	180.0
1032.127319	152.0
1032.312744	288.0
1034.673706	184.0
1035.141113	172.0
1035.589355	208.0
1037.139893	196.0
1037.620728	268.0
1037.806641	128.0
1038.043823	124.0
1038.973877	96.0
1041.310303	184.0
1041.535034	172.0
1042.106812	232.0
1042.569458	176.0
1042.633667	128.0
1043.045044	136.0
1043.192871	196.0
1044.446777	72.0
1046.35791	168.0
1046.641235	160.0
1046.744263	220.0
1046.84729	160.0
1047.207886	228.0
1047.858521	224.0
1048.103394	204.0
1048.40625	256.0
1048.547974	32.0
1048.960449	116.0
1049.179688	112.0
1049.4375	60.0
1049.766357	128.0
1050.024292	108.0
1050.333862	64.0
1050.4823	188.0
1050.69519	132.0
1051.37915	180.0
1052.147217	76.0
1052.521606	184.0
1052.602417	112.0
1052.741211	148.0
1052.915527	52.0
1053.096436	148.0
1054.537109	140.0
1056.45752	208.0
1057.654663	208.0
1057.945923	76.0
1059.64917	196.0
1060.128662	172.0
1060.478638	176.0
1060.737793	124.0
1060.786743	192.0
1061.074951	80.0
1061.535278	168.0
1062.190308	116.0
1063.156982	88.0
1063.520508	212.0
1064.189087	160.0
1065.358032	44.0
1065.462036	148.0
1066.007812	116.0
1066.391235	156.0
1066.547241	224.0
1067.060669	200.0
1067.164795	100.0
1068.036133	140.0
1068.289795	152.0
1068.992432	124.0
1069.923218	192.0
1071.01062	160.0
1071.466675	264.0
1071.668579	180.0
1071.779419	112.0
1072.041992	212.0
1072.219604	176.0
1073.13501	160.0
1073.539307	176.0
1073.682861	212.0
1073.898071	160.0
1074.31543	172.0
1075.555298	132.0
1077.057007	184.0
1077.827881	124.0
1078.304932	160.0
1078.474854	156.0
1078.651367	168.0
1078.729858	84.0
1079.017456	228.0
1079.448975	136.0
1080.312256	52.0
1080.508545	204.0
1081.077759	132.0
1082.05957	148.0
1082.629272	168.0
1083.565918	196.0
1083.762451	220.0
1084.515991	36.0
1084.666748	140.0
1084.83728	20.0
1085.71582	188.0
1088.563843	124.0
1089.397949	208.0
1092.724365	112.0
1092.836182	120.0
1094.845825	188.0
1095.561768	168.0
1095.930664	228.0
1096.121704	168.0
1096.800537	148.0
1097.716919	184.0
1098.14563	180.0
1098.21814	164.0
1098.488525	120.0
1098.890991	188.0
1099.702637	124.0
1100.633423	104.0
1101.05603	112.0
1101.498535	164.0
1101.729736	144.0
1102.099731	172.0
1102.549072	124.0
1102.641602	156.0
1102.767212	216.0
1102.899414	196.0
1103.560425	196.0
1103.633179	140.0
1104.148438	160.0
1104.552368	180.0
1104.949341	224.0
1105.266846	128.0
1105.822754	172.0
1106.266235	56.0
1106.961426	260.0
1107.093872	180.0
1109.439331	132.0
1110.407349	196.0
1110.719116	208.0
1112.304932	196.0
1112.537231	168.0
1113.028564	112.0
1113.805542	144.0
1113.978271	216.0
1114.257324	84.0
1114.435425	104.0
1114.667114	176.0
1114.882935	124.0
1115.134399	160.0
1115.220825	184.0
1115.28064	180.0
1115.865601	196.0
1116.773804	216.0
1117.455078	156.0
1118.375488	208.0
1118.652954	128.0
1118.739502	112.0
1119.418579	248.0
1119.558472	168.0
1120.830811	216.0
1121.290527	204.0
1121.563843	188.0
1121.917114	104.0
1123.246338	224.0
1123.597656	132.0
1124.231567	60.0
1125.559814	160.0
1126.027344	252.0
1126.628418	196.0
1127.112671	188.0
1127.396851	156.0
1127.523804	100.0
1128.245728	256.0
1128.3927	144.0
1129.703491	100.0
1129.95105	136.0
1130.29895	168.0
1133.003784	116.0
1133.98877	148.0
1134.377563	164.0
1134.484741	120.0
1135.208862	188.0
1135.483887	180.0
1135.550903	44.0
1135.745361	108.0
1136.409546	148.0
1137.020142	80.0
1137.214844	200.0
1137.322144	60.0
1137.557129	68.0
1137.993408	136.0
1138.597778	144.0
1139.363525	76.0
1139.544922	160.0
1140.431885	152.0
1140.598267	180.0
1142.153198	168.0
1142.792236	144.0
1143.370972	148.0
1144.421021	204.0
1144.488403	148.0
1145.040527	136.0
1145.565918	420.0
1146.044189	240.0
1146.125122	208.0
1147.459595	212.0
1147.715698	144.0
1147.837158	40.0
1148.585693	184.0
1148.720581	116.0
1148.767822	188.0
1149.806885	56.0
1150.637085	164.0
1150.805908	180.0
1151.947266	144.0
1152.163452	80.0
1152.805298	120.0
1153.014771	160.0
1155.212158	156.0
1155.347412	160.0
1155.868408	176.0
1156.003784	184.0
1156.606079	132.0
1156.714355	64.0
1156.870117	144.0
1156.982422	128.0
1157.215332	56.0
1157.371094	224.0
1157.973755	172.0
1158.353027	148.0
1158.407227	176.0
1158.529175	192.0
1159.403198	200.0
1159.613281	136.0
1160.074219	208.0
1160.203003	216.0
1160.555542	188.0
1160.860718	120.0
1161.694946	108.0
1162.339355	64.0
1162.468384	176.0
1163.703613	88.0
1164.185791	136.0
1164.287598	68.0
1165.154541	172.0
1166.339478	80.0
1166.754028	176.0
1166.862061	140.0
1166.998779	144.0
1167.257202	88.0
1167.487427	236.0
1167.608643	172.0
1168.032471	60.0
1168.134521	172.0
1168.678833	204.0
1168.753662	40.0
1169.182251	228.0
1169.78125	196.0
1170.285034	196.0
1171.493286	212.0
1171.810669	236.0
1172.430664	152.0
1172.894165	40.0
1173.234985	196.0
1173.330444	184.0
1173.77356	80.0
1174.012207	160.0
1174.196411	184.0
1174.319092	220.0
1174.537354	132.0
1175.185425	200.0
1175.567627	188.0
1175.867798	240.0
1176.762085	80.0
1177.30835	156.0
1177.786377	52.0
1177.841064	128.0
1178.025391	164.0
1178.394287	220.0
1179.733765	152.0
1179.877319	124.0
1180.01416	180.0
1180.08252	208.0
1181.197144	216.0
1181.792358	172.0
1182.401367	192.0
1182.483398	212.0
1182.606689	124.0
1182.74353	96.0
1182.921509	244.0
1183.400757	60.0
1184.181396	176.0
1184.326782	184.0
1184.407349	52.0
1184.558105	128.0
1185.030762	216.0
1185.702271	112.0
1186.847046	240.0
1187.436768	196.0
1190.620972	156.0
1190.827148	144.0
1191.184326	44.0
1191.575928	128.0
1191.919434	108.0
1192.015625	120.0
1192.922852	144.0
1193.500366	180.0
1193.651611	44.0
1194.855225	156.0
1195.412476	148.0
1195.529541	184.0
1195.715332	148.0
1195.852905	156.0
1196.093872	276.0
1196.341675	192.0
1196.809814	136.0
1197.345093	200.0
1197.753296	108.0
1197.870361	244.0
1198.579956	172.0
1199.110596	148.0
1199.372437	148.0
1200.01355	228.0
1200.765259	168.0
1203.256226	180.0
1204.810059	180.0
1205.542358	100.0
1205.881348	228.0
1206.219727	208.0
1206.689819	180.0
1208.737061	160.0
1208.83252	60.0
1209.789062	204.0
1210.502197	128.0
1211.409424	124.0
1211.783569	88.0
1211.887451	52.0
1212.434937	204.0
1212.850708	152.0
1213.252808	112.0
1213.474609	212.0
1215.04895	232.0
1215.201538	188.0
1215.277832	168.0
1216.332642	216.0
1216.658936	132.0
1216.811646	164.0
1217.235229	176.0
1217.353271	160.0
1218.675049	212.0
1218.773926	228.0
1218.937012	116.0
1219.284424	152.0
1219.92395	140.0
1220.268311	220.0
1220.480103	80.0
1221.168579	148.0
1221.481567	48.0
1222.09021	168.0
1222.831299	176.0
1223.061035	148.0
1223.276855	132.0
1223.94519	200.0
1224.808716	204.0
1225.122192	192.0
1225.456543	176.0
1225.679565	172.0
1225.770142	192.0
1226.04187	152.0
1227.09436	88.0
1228.600708	152.0
1229.124023	192.0
1229.458984	188.0
1229.759033	176.0
1229.968384	160.0
1232.233887	196.0
1232.789917	108.0
1233.363037	196.0
1233.699585	196.0
1233.880371	152.0
1234.198364	212.0
1235.048096	208.0
1235.341919	184.0
1235.870972	160.0
1236.181396	72.0
1236.265381	152.0
1236.643311	224.0
1236.768555	196.0
1236.832275	224.0
1236.930298	176.0
1237.252319	140.0
1237.651367	84.0
1239.465454	152.0
1239.598633	204.0
1240.054077	200.0
1240.271362	48.0
1241.25293	164.0
1241.386108	220.0
1241.484253	224.0
1241.666626	116.0
1242.03833	180.0
1243.125732	88.0
1243.918823	68.0
1244.417236	236.0
1244.641968	208.0
1244.754272	132.0
1245.449585	204.0
1245.758667	180.0
1246.47522	180.0
1246.580688	136.0
1246.686035	124.0
1246.939087	172.0
1246.995239	48.0
1247.192017	140.0
1247.276367	168.0
1247.641968	188.0
1247.719238	124.0
1248.654419	168.0
1248.714722	120.0
1248.830322	164.0
1249.097534	132.0
1249.34375	128.0
1249.470337	72.0
1249.822144	128.0
1250.539917	220.0
1251.455078	148.0
1252.67334	184.0
1252.912842	160.0
1253.244019	140.0
1253.511719	60.0
1253.673828	56.0
1253.864502	144.0
1254.145996	264.0
1254.294067	108.0
1255.372681	168.0
1255.478516	196.0
1256.169678	152.0
1256.303711	176.0
1256.981079	148.0
1257.594971	160.0
1258.004395	152.0
1258.216187	40.0
1258.295776	216.0
1258.583252	192.0
1259.289429	128.0
1259.458984	196.0
1259.925171	228.0
1260.073486	108.0
1260.285522	268.0
1260.41272	168.0
1260.617554	284.0
1261.189209	200.0
1261.578857	120.0
1261.755493	144.0
1261.988892	144.0
1262.137939	212.0
1262.398926	148.0
1263.028442	196.0
1263.17688	148.0
1263.55188	184.0
1264.061279	156.0
1264.181519	160.0
1264.418823	160.0
1264.584961	140.0
1264.825562	180.0
1265.214966	160.0
1265.370728	156.0
1265.469849	220.0
1266.524902	88.0
1267.226196	188.0
1267.40332	104.0
1267.502563	172.0
1269.012207	168.0
1269.62207	120.0
1269.721313	124.0
1269.856079	364.0
1271.165161	88.0
1271.40979	188.0
1273.02832	256.0
1273.454468	108.0
1273.66748	152.0
1274.655029	116.0
1275.657104	40.0
1275.848999	180.0
1276.567139	160.0
1276.659546	148.0
1277.491699	164.0
1278.110596	152.0
1278.423706	156.0
1279.171021	72.0
1279.427368	108.0
1280.808716	68.0
1280.894287	116.0
1281.257568	160.0
1281.414307	188.0
1281.5354	200.0
1281.606689	152.0
1281.813232	200.0
1282.155273	196.0
1282.44751	204.0
1282.946533	140.0
1284.144409	116.0
1284.479614	200.0
1284.525879	180.0
1284.643677	100.0
1284.814819	140.0
1285.197266	196.0
1285.285767	152.0
1286.27771	124.0
1286.370483	196.0
1286.656128	160.0
1286.713135	68.0
1286.827393	80.0
1286.963135	68.0
1287.798584	284.0
1288.671021	160.0
1288.841553	136.0
1290.378174	188.0
1290.800049	176.0
1291.508057	172.0
1291.844238	180.0
1291.901489	128.0
1292.65979	80.0
1292.774292	156.0
1295.036621	264.0
1295.194214	60.0
1295.287231	128.0
1295.337402	228.0
1295.595337	84.0
1295.674072	328.0
1295.90332	172.0
1296.128418	156.0
1296.148804	208.0
1296.870728	152.0
1297.222046	168.0
1298.082275	160.0
1298.399536	204.0
1298.835327	100.0
1298.993164	68.0
1299.61731	164.0
1300.033447	156.0
1300.105225	228.0
1300.198486	156.0
1300.320557	80.0
1300.37793	188.0
1301.842407	116.0
1302.057861	184.0
1302.201538	164.0
1302.388306	200.0
1302.467285	188.0
1302.761841	96.0
1302.848022	136.0
1303.013184	184.0
1303.516113	160.0
1303.868286	280.0
1304.119873	112.0
1304.206055	136.0
1304.364258	172.0
1304.464844	124.0
1304.730835	216.0
1304.850098	236.0
1306.010742	108.0
1306.140259	192.0
1306.255371	216.0
1306.61499	168.0
1306.665405	168.0
1307.220215	160.0
1307.449707	144.0
1307.513916	300.0
1307.859863	152.0
1308.262939	76.0
1308.428589	208.0
1308.550903	144.0
1309.213379	192.0
1309.35022	196.0
1310.35144	108.0
1310.999878	168.0
1311.48999	68.0
1311.670166	100.0
1312.03064	228.0
1312.996826	136.0
1313.25647	208.0
1314.165405	176.0
1314.882446	32.0
1315.175659	108.0
1315.255005	112.0
1315.334473	136.0
1315.904785	120.0
1316.085205	196.0
1316.251343	224.0
1316.374023	260.0
1316.496826	180.0
1316.605103	168.0
1316.662964	84.0
1316.879517	176.0
1317.334595	116.0
1317.66687	160.0
1317.861938	220.0
1318.28833	144.0
1318.468994	168.0
1318.591797	52.0
1318.743652	176.0
1318.849487	164.0
1319.003784	140.0
1319.090576	136.0
1319.733887	172.0
1320.081055	152.0
1320.688477	204.0
1321.006714	252.0
1321.809814	188.0
1322.22229	160.0
1322.306519	156.0
1322.786865	164.0
1323.293579	136.0
1323.539795	180.0
1323.778687	160.0
1324.061157	196.0
1324.336304	140.0
1324.521118	184.0
1324.60437	152.0
1325.123413	200.0
1325.799805	36.0
1326.075195	100.0
1326.176636	168.0
1326.299927	156.0
1326.930542	236.0
1327.017578	168.0
1327.256836	128.0
1327.68457	156.0
1327.880493	132.0
1328.257568	176.0
1328.467896	148.0
1328.649292	56.0
1329.244263	196.0
1329.469238	96.0
1330.753906	240.0
1330.979004	124.0
1331.138794	128.0
1332.082886	232.0
1333.114624	240.0
1334.052246	164.0
1334.442017	416.0
1335.44104	208.0
1335.586426	172.0
1335.67395	176.0
1336.204712	176.0
1337.398193	148.0
1337.536499	180.0
1337.805786	88.0
1338.02417	144.0
1339.597168	208.0
1339.771973	56.0
1340.369385	212.0
1340.551514	232.0
1340.791992	168.0
1341.017944	196.0
1341.119995	184.0
1341.192871	176.0
1341.630249	160.0
1341.801147	160.0
1342.032593	192.0
1342.19165	168.0
1342.366699	152.0
1342.570801	168.0
1342.621826	204.0
1342.709351	180.0
1342.8479	152.0
1343.081299	208.0
1343.331177	144.0
1343.781616	144.0
1343.869141	184.0
1344.613525	164.0
1344.708374	176.0
1345.022217	156.0
1345.117065	100.0
1345.788696	120.0
1346.048218	204.0
1346.241455	124.0
1346.570068	164.0
1346.716187	136.0
1347.315063	136.0
1347.987305	176.0
1348.16272	152.0
1348.513428	220.0
1348.725464	232.0
1349.039673	160.0
1349.697754	164.0
1349.807373	84.0
1349.917114	104.0
1350.034058	124.0
1350.12915	220.0
1350.224243	320.0
1350.385132	28.0
1351.01416	48.0
1351.467773	140.0
1353.429321	136.0
1353.663574	140.0
1354.198242	140.0
1354.410645	92.0
1354.78418	76.0
1355.370361	108.0
1355.426636	176.0
1355.73999	204.0
1355.853882	160.0
1355.927246	120.0
1356.105713	172.0
1356.249756	144.0
1356.301025	52.0
1356.470825	164.0
1356.726196	88.0
1356.828857	80.0
1357.114746	116.0
1357.320068	160.0
1357.598633	136.0
1358.075317	188.0
1358.830933	120.0
1359.175781	192.0
1359.366577	144.0
1359.660034	200.0
1360.041748	184.0
1360.210571	176.0
1360.269287	168.0
1360.416016	240.0
1360.526245	216.0
1360.584961	192.0
1360.893311	224.0
1361.041016	152.0
1361.245728	212.0
1361.950684	192.0
1362.266602	96.0
1362.450195	148.0
1363.023315	116.0
1363.41272	140.0
1363.464233	160.0
1363.655273	124.0
1364.61084	96.0
1364.912354	144.0
1365.647705	148.0
1365.728638	132.0
1365.858276	340.0
1365.919922	132.0
1366.037598	152.0
1366.331787	216.0
1366.589355	184.0
1366.729126	112.0
1367.744629	148.0
1368.80481	188.0
1369.055176	172.0
1369.106689	56.0
1369.187378	192.0
1369.865356	164.0
1369.91687	136.0
1370.248413	164.0
1370.373657	200.0
1370.557861	208.0
1371.05896	128.0
1372.09082	128.0
1372.260376	124.0
1372.420776	180.0
1372.599609	212.0
1372.85022	196.0
1372.939697	132.0
1373.21814	172.0
1374.03772	140.0
1374.155762	112.0
1374.56897	44.0
1374.650146	172.0
1374.819092	104.0
1375.609619	212.0
1375.771973	192.0
1376.015625	156.0
1376.200195	152.0
1377.056763	44.0
1377.270996	176.0
1377.529541	184.0
1377.655151	152.0
1377.743774	148.0
1377.921021	132.0
1378.113159	216.0
1378.512085	80.0
1378.977661	176.0
1379.110718	112.0
1379.391602	100.0
1379.620728	100.0
1379.694702	68.0
1379.812988	168.0
1380.169067	128.0
1380.32312	156.0
1380.522827	136.0
1381.114502	204.0
1381.639648	208.0
1382.144775	196.0
1382.238892	172.0
1382.460938	164.0
1382.549683	176.0
1382.756958	44.0
1383.205933	140.0
1383.519287	192.0
1384.230103	148.0
1384.504028	236.0
1384.675659	224.0
1385.410522	228.0
1385.474365	168.0
1385.533691	128.0
1385.660889	208.0
1385.87439	200.0
1385.993042	116.0
1386.548706	92.0
1387.082397	156.0
1387.675415	184.0
1387.977783	184.0
1388.505981	168.0
1389.307007	128.0
1389.83374	116.0
1389.900513	188.0
1390.204712	132.0
1390.724243	180.0
1390.798462	136.0
1391.414551	164.0
1391.585327	208.0
1391.919434	212.0
1391.995361	168.0
1392.617554	172.0
1393.789551	124.0
1394.482422	120.0
1394.913452	60.0
1395.047241	140.0
1395.16626	236.0
1395.686646	152.0
1395.820435	132.0
1396.43457	180.0
1397.099731	36.0
1397.583374	228.0
1397.836304	40.0
1397.910645	208.0
1398.133911	88.0
1398.208374	60.0
1398.775879	232.0
1399.161133	172.0
1399.220703	192.0
1400.067871	132.0
1400.359985	244.0
1400.443481	164.0
1400.508911	104.0
1401.887085	104.0
1401.976562	136.0
1402.453491	204.0
1402.565308	172.0
1403.087158	160.0
1403.754883	152.0
1403.847656	128.0
1404.69043	152.0
1404.869507	88.0
1405.35437	140.0
1405.973755	144.0
1407.265015	104.0
1407.421875	228.0
1407.58728	208.0
1408.14624	164.0
1409.460938	132.0
1410.038696	124.0
1410.282959	128.0
1410.365234	120.0
1410.851074	176.0
1410.918335	144.0
1411.008057	136.0
1411.695923	212.0
1411.748291	224.0
1411.980103	200.0
1412.054932	52.0
1412.443848	136.0
1412.660767	112.0
1412.818604	160.0
1412.907593	244.0
1413.326538	52.0
1414.037476	136.0
1414.24707	176.0
1414.306885	132.0
1415.025513	120.0
1415.100464	224.0
1415.197754	132.0
1415.901611	176.0
1416.00647	416.0
1416.33606	160.0
1416.682129	188.0
1417.279907	132.0
1417.564697	160.0
1417.991821	280.0
1419.086182	160.0
1419.213623	176.0
1419.408569	176.0
1419.587646	196.0
1419.75354	176.0
1420.21106	196.0
1420.466064	240.0
1420.601074	164.0
1420.788696	72.0
1421.126221	188.0
1421.313843	180.0
1421.373901	168.0
1421.426392	124.0
1421.478882	148.0
1422.101807	124.0
1422.304443	160.0
1422.559692	260.0
1422.799805	148.0
1423.047607	136.0
1423.137695	128.0
1423.407959	144.0
1423.52063	92.0
1423.595703	176.0
1424.038818	308.0
1424.557129	224.0
1424.609619	156.0
1425.067993	88.0
1425.623901	168.0
1425.849365	120.0
1426.292847	144.0
1426.365723	220.0
1426.743896	80.0
1426.961914	92.0
1427.337769	132.0
1427.570923	140.0
1428.608887	100.0
1428.879639	168.0
1429.346191	172.0
1429.76001	140.0
1429.880371	132.0
1430.249268	116.0
1430.317017	176.0
1430.933838	256.0
1431.182739	176.0
1431.265503	184.0
1431.679688	224.0
1431.755005	180.0
1432.063721	192.0
1432.161621	152.0
1432.229492	168.0
1432.417725	124.0
1432.591064	224.0
1432.726562	176.0
1432.779297	128.0
1433.193726	96.0
1433.321777	76.0
1433.509277	176.0
1434.082886	144.0
1434.588013	132.0
1434.821655	164.0
1435.002563	120.0
1435.281616	180.0
1435.424805	220.0
1436.035645	168.0
1436.691895	144.0
1436.841675	184.0
1437.170166	232.0
1437.328979	248.0
1437.582153	164.0
1437.702881	144.0
1438.035034	56.0
1438.336914	164.0
1438.504639	152.0
1438.647095	176.0
1438.767212	104.0
1439.476929	156.0
1439.597656	252.0
1439.869629	160.0
1439.945068	156.0
1440.05835	200.0
1441.486206	220.0
1441.758179	120.0
1442.097656	132.0
1442.291138	208.0
1442.525635	172.0
1442.854248	156.0
1443.734253	184.0
1444.457397	224.0
1444.585938	144.0
1444.729614	124.0
1444.986938	124.0
1445.244141	156.0
1445.947876	168.0
1446.371704	128.0
1446.939453	108.0
1447.015137	64.0
1447.252441	128.0
1448.022217	200.0
1448.681152	160.0
1449.181274	104.0
1449.321289	156.0
1449.416138	216.0
1449.484253	168.0
1450.613525	228.0
1451.144165	40.0
1451.364014	36.0
1451.621826	140.0
1452.023804	144.0
1452.304443	188.0
1452.638184	180.0
1453.783813	108.0
1454.072144	124.0
1455.250977	176.0
1455.317017	176.0
1455.45459	172.0
1455.575195	160.0
1455.878906	144.0
1456.220703	148.0
1456.380249	136.0
1456.722046	160.0
1456.790405	176.0
1457.443726	172.0
1457.664062	104.0
1457.899658	244.0
1458.036499	168.0
1458.37085	220.0
1458.667236	108.0
1459.625244	124.0
1460.279175	280.0
1460.454102	156.0
1460.606201	136.0
1460.727905	120.0
1460.902954	148.0
1461.481079	160.0
1461.998535	200.0
1462.203979	180.0
1462.569336	116.0
1462.767212	36.0
1462.972778	176.0
1463.193481	112.0
1463.360962	88.0
1464.236694	188.0
1464.358521	96.0
1464.480469	164.0
1464.65564	164.0
1464.746948	204.0
1464.983154	48.0
1465.348755	160.0
1465.949097	204.0
1466.19458	164.0
1466.293701	176.0
1466.522339	144.0
1466.758545	236.0
1467.002563	188.0
1467.109253	136.0
1467.383667	136.0
1467.551392	116.0
1467.742065	168.0
1468.161377	208.0
1468.535156	48.0
1468.588501	80.0
1468.702881	188.0
1468.794434	152.0
1468.863037	196.0
1469.229248	168.0
1469.412354	132.0
1469.740479	180.0
1469.84729	172.0
1470.467773	136.0
1470.572266	172.0
1471.34314	156.0
1471.938721	144.0
1472.794067	48.0
1473.221802	244.0
1473.42041	120.0
1473.550293	120.0
1473.61145	132.0
1474.184448	164.0
1474.237915	180.0
1474.413696	136.0
1474.664307	172.0
1474.811157	124.0
1475.346191	192.0
1475.751343	60.0
1476.087769	32.0
1476.430908	156.0
1476.577271	176.0
1476.730225	156.0
1476.852539	188.0
1476.913696	168.0
1476.994141	148.0
1477.12793	92.0
1477.181519	144.0
1477.257935	144.0
1477.571655	140.0
1478.047119	168.0
1478.137817	148.0
1478.214355	208.0
1478.352051	116.0
1478.589233	180.0
1478.79834	236.0
1478.964355	120.0
1479.312988	172.0
1479.519165	256.0
1480.042358	184.0
1480.304077	48.0
1480.549072	216.0
1480.916748	104.0
1481.008667	148.0
1481.077515	188.0
1481.314941	68.0
1481.531982	224.0
1481.735107	232.0
1482.603638	140.0
1483.18457	80.0
1483.391602	120.0
1483.531738	224.0
1483.629272	172.0
1483.744263	132.0
1484.119873	220.0
1484.219604	208.0
1484.342285	172.0
1484.487915	180.0
1485.369873	172.0
1485.577026	124.0
1485.638428	152.0
1485.699707	48.0
1486.014282	56.0
1486.367188	140.0
1486.474609	272.0
1486.643433	252.0
1486.704834	176.0
1486.827637	216.0
1486.9198	168.0
1487.272827	104.0
1487.633545	168.0
1487.787109	132.0
1487.979004	96.0
1488.232422	220.0
1488.924683	196.0
1489.361206	120.0
1489.553223	156.0
1489.706909	152.0
1489.806763	96.0
1490.183228	176.0
1490.598145	172.0
1491.228271	80.0
1491.358887	148.0
1491.535767	120.0
1491.904663	68.0
1492.058472	40.0
1492.230957	224.0
1492.42749	184.0
1492.512085	156.0
1492.696533	180.0
1492.924683	200.0
1493.365601	140.0
1493.427124	192.0
1494.111816	128.0
1494.588745	176.0
1494.896606	160.0
1495.058105	164.0
1495.281372	168.0
1495.727783	104.0
1495.81189	56.0
1496.297363	156.0
1496.728516	108.0
1497.437012	184.0
1497.498657	156.0
1497.752808	180.0
1497.875977	184.0
1498.176392	140.0
1498.523071	164.0
1498.715698	164.0
1498.777344	188.0
1498.931519	140.0
1499.193481	196.0
1499.762939	188.0
1500.272583	140.0
1501.598022	164.0
1502.200317	136.0
1502.30835	152.0
1502.647827	104.0
1502.740356	128.0
1502.794434	232.0
1502.933228	244.0
1503.125977	172.0
1503.35437	196.0
1503.427124	168.0
1503.57373	204.0
1504.152588	160.0
END IONS

BEGIN IONS
PEPMASS=192.139
CHARGE=1
MSLEVEL=2
SOURCE_INSTRUMENT=LC-ESI-qTof
FILENAME=p2-A06_GA6_01_17983.mzXML
SEQ=*..*
IONMODE=Positive
ORGANISM=GNPS-NIH-NATURALPRODUCTSLIBRARY
NAME=MLS000516055-01! M+H
PI=Dorrestein
DATACOLLECTOR=VVP/LMS
SMILES=CCN(CC)C(=O)Cc1ccccc1
INCHI=N/A
INCHIAUX=N/A
PUBMED=N/A
SUBMITUSER=vphelan
LIBRARYQUALITY=1
SPECTRUMID=CCMSLIB00000080248
USI=mzspec:GNPS:GNPS-NIH-NATURALPRODUCTSLIBRARY:accession:CCMSLIB00000080248
SCANS=1912
95.083794	216.0
95.694176	120.0
95.916267	88.0
97.167862	52.0
99.617897	208.0
100.076569	808.0
101.081352	164.0
101.696609	48.0
102.046158	148.0
102.188957	124.0
103.053497	224.0
103.163071	252.0
104.056511	344.0
105.037415	112.0
105.070061	204.0
106.507141	172.0
107.065384	172.0
108.121552	176.0
111.097115	160.0
115.052628	160.0
117.054985	672.0
118.045746	200.0
118.065033	756.0
119.085854	344.0
120.041435	92.0
120.253052	112.0
120.692154	180.0
121.035698	160.0
127.174896	92.0
128.39209	84.0
134.05986	168.0
134.092133	188.0
135.863403	168.0
146.094894	196.0
147.51001	76.0
149.073318	88.0
157.350296	76.0
160.118683	128.0
160.72876	48.0
162.997604	160.0
163.101807	168.0
163.30777	220.0
164.108444	448.0
166.104752	364.0
176.111633	92.0
191.108994	44.0
192.081497	240.0
192.138733	3696.0
192.171753	208.0
192.531403	56.0
193.142838	576.0
193.510284	92.0
193.945221	64.0
194.591583	88.0
195.700958	64.0
196.888885	60.0
202.069611	224.0
391.905212	40.0
453.418121	80.0
457.610779	44.0
672.434998	184.0
730.976196	116.0
752.364258	140.0
760.048645	88.0
761.646179	40.0
765.953186	176.0
778.108337	176.0
783.764893	152.0
796.144287	164.0
797.998596	252.0
806.313171	204.0
819.871399	172.0
822.654785	124.0
837.909729	204.0
840.89093	196.0
861.142456	136.0
862.591553	212.0
866.641357	200.0
871.282227	100.0
875.052063	240.0
888.865417	156.0
892.792053	76.0
897.222046	188.0
914.04834	28.0
916.202087	224.0
916.822693	132.0
918.49884	168.0
921.601868	184.0
922.50238	268.0
923.088806	144.0
933.987305	144.0
936.446289	148.0
936.543762	112.0
954.641174	152.0
955.680725	168.0
958.580933	160.0
959.764465	212.0
966.744629	204.0
979.864807	152.0
987.49292	212.0
996.595215	184.0
1004.306946	164.0
1007.084106	40.0
1010.01062	124.0
1021.428284	188.0
1023.299255	184.0
1026.312988	156.0
1035.239746	172.0
1044.790527	180.0
1046.856689	240.0
1049.085938	204.0
1049.930664	192.0
1050.943359	192.0
1055.13501	152.0
1056.292603	140.0
1060.170898	168.0
1063.770508	132.0
1064.043213	116.0
1065.082275	224.0
1067.857666	120.0
1068.547119	172.0
1070.493286	284.0
1070.916626	64.0
1074.501953	268.0
1075.872437	40.0
1077.113159	196.0
1078.733765	184.0
1080.604126	84.0
1090.072998	180.0
1095.118286	136.0
1096.996216	208.0
1100.010742	224.0
1106.721069	180.0
1107.601929	172.0
1108.893921	164.0
1113.956665	188.0
1121.175781	152.0
1126.233032	180.0
1135.476074	148.0
1152.115479	52.0
1153.75769	152.0
1165.734253	172.0
1176.919067	152.0
1186.744507	156.0
1187.972046	152.0
1197.223511	132.0
1197.71936	176.0
1200.620972	80.0
1204.575928	204.0
1204.776245	212.0
1208.973145	204.0
1209.596069	56.0
1213.198242	156.0
1223.507812	44.0
1227.953369	164.0
1229.530151	152.0
1233.797974	144.0
1235.93811	168.0
1236.239014	176.0
1236.910889	168.0
1237.765015	52.0
1240.483398	216.0
1247.19397	220.0
1249.613037	216.0
1255.903809	184.0
1256.715088	232.0
1259.842651	160.0
1265.63501	136.0
1269.645874	188.0
1273.421509	156.0
1277.238281	136.0
1277.750488	152.0
1278.654175	208.0
1284.289917	200.0
1286.052246	164.0
1293.47876	56.0
1297.210815	136.0
1299.950684	128.0
1310.15332	160.0
1311.861206	144.0
1311.96936	140.0
1312.120728	172.0
1312.322632	180.0
1313.058105	208.0
1313.945312	172.0
1319.441284	196.0
1324.065063	172.0
1330.540283	164.0
1333.82373	20.0
1336.245361	208.0
1337.249634	160.0
1348.042969	108.0
1350.177612	184.0
1353.229004	188.0
1354.657104	224.0
1356.569702	196.0
1356.642944	212.0
1361.75	240.0
1362.124634	196.0
1366.520752	172.0
1369.038208	152.0
1370.820923	180.0
1372.125488	140.0
1373.268433	168.0
1376.18335	168.0
1377.054688	228.0
1377.165527	168.0
1377.955933	60.0
1379.241821	208.0
1399.859497	164.0
1400.909668	200.0
1402.772583	204.0
1403.741821	148.0
1410.677856	196.0
1418.425415	160.0
1418.642822	176.0
1419.010132	136.0
1427.336914	168.0
1432.72583	136.0
1434.172607	216.0
1435.816284	244.0
1436.208496	96.0
1437.340088	108.0
1438.260864	172.0
1438.864746	92.0
1444.207275	136.0
1444.320679	180.0
1444.933472	144.0
1450.681396	188.0
1450.734497	44.0
1451.25	208.0
1461.125977	252.0
1462.576904	144.0
1464.008179	188.0
1464.541382	188.0
1466.293701	128.0
1466.857788	228.0
1470.564697	156.0
1472.198486	212.0
1473.412964	180.0
1474.429199	132.0
1476.44751	168.0
1479.592285	196.0
1492.428101	176.0
1494.581787	128.0
1495.967041	184.0
1497.838257	204.0
1502.864746	164.0
1503.636353	144.0
END IONS

BEGIN IONS
PEPMASS=247.097
CHARGE=1
MSLEVEL=2
SOURCE_INSTRUMENT=LC-ESI-qTof
FILENAME=p2-G09_GG9_01_18057.mzXML
SEQ=*..*
IONMODE=Positive
ORGANISM=GNPS-NIH-NATURALPRODUCTSLIBRARY
NAME=MLS002415725-01! M+H
PI=Dorrestein
DATACOLLECTOR=VVP/LMS
SMILES=C=CCOC(=O)c1ccccc1C(=O)OCC=C
INCHI=N/A
INCHIAUX=N/A
PUBMED=N/A
SUBMITUSER=vphelan
LIBRARYQUALITY=1
SPECTRUMID=CCMSLIB00000080495
USI=mzspec:GNPS:GNPS-NIH-NATURALPRODUCTSLIBRARY:accession:CCMSLIB00000080495
SCANS=2293
121.027679	200.0
129.065826	248.0
134.884659	164.0
149.024734	488.0
189.049377	144.0
248.241592	104.0
359.252258	72.0
1474.468872	172.0
END IONS

BEGIN IONS
PEPMASS=343.055
CHARGE=1
MSLEVEL=2
SOURCE_INSTRUMENT=LC-ESI-qTof
FILENAME=p3-A11_GA11_01_18232.mzXML
SEQ=*..*
IONMODE=Positive
ORGANISM=GNPS-NIH-SMALLMOLECULEPHARMACOLOGICALLYACTIVE
NAME=MLS002207244-01!Thiophanate M23564-05-8 M+H
PI=Dorrestein
DATACOLLECTOR=VP/LMS
SMILES=COC(=O)NC(=S)Nc1ccccc1NC(=S)NC(=O)OC
INCHI=N/A
INCHIAUX=N/A
PUBMED=N/A
SUBMITUSER=vphelan
LIBRARYQUALITY=1
SPECTRUMID=CCMSLIB00000084811
USI=mzspec:GNPS:GNPS-NIH-SMALLMOLECULEPHARMACOLOGICALLYACTIVE:accession:CCMSLIB00000084811
SCANS=1805
45.418777	156.0
45.50198	152.0
46.039249	148.0
46.684326	92.0
46.785011	124.0
46.968979	156.0
47.094559	176.0
47.328411	96.0
47.35854	40.0
47.405121	60.0
47.753834	44.0
47.996212	60.0
49.540382	188.0
49.754951	96.0
49.906689	144.0
50.39296	184.0
51.875946	124.0
52.019402	216.0
52.257969	276.0
52.394745	164.0
54.563343	180.0
56.772915	180.0
56.954517	280.0
58.139736	196.0
58.356956	132.0
58.460392	144.0
59.936596	164.0
60.334801	52.0
60.655243	160.0
61.345432	84.0
62.197964	160.0
62.452511	104.0
62.967903	48.0
63.317425	184.0
64.087868	132.0
64.156395	212.0
64.819695	136.0
65.356003	188.0
66.043243	116.0
66.461212	184.0
68.638397	124.0
69.087639	164.0
69.890648	112.0
71.083725	156.0
71.616661	144.0
71.717758	196.0
71.958992	140.0
72.522308	176.0
73.387596	180.0
73.534302	56.0
74.866409	88.0
75.707428	284.0
75.859901	200.0
75.937927	100.0
78.971603	188.0
79.416168	204.0
79.698433	116.0
80.46965	96.0
80.896927	200.0
81.474373	192.0
82.129616	212.0
82.169296	176.0
82.320915	196.0
82.434723	120.0
83.193619	164.0
83.771904	188.0
84.677879	100.0
85.386307	168.0
86.284309	176.0
87.784584	56.0
88.406647	232.0
88.571404	184.0
88.706322	168.0
89.578239	176.0
90.412781	128.0
91.851059	208.0
92.051216	288.0
92.080101	92.0
92.13549	224.0
92.366798	144.0
93.060295	560.0
93.287231	180.0
94.016617	176.0
94.061607	160.0
94.192917	188.0
94.411316	116.0
94.705498	128.0
94.980728	120.0
95.847809	164.0
95.888733	224.0
96.842171	120.0
97.195045	156.0
98.76123	148.0
98.903694	168.0
99.63343	176.0
99.724838	204.0
100.896942	172.0
101.026932	240.0
101.425415	152.0
101.557755	160.0
101.601883	176.0
101.939194	76.0
102.984787	120.0
103.727379	164.0
105.167488	180.0
105.216476	60.0
105.326744	136.0
105.745895	204.0
105.907646	176.0
106.054176	200.0
107.064018	204.0
107.874802	152.0
108.375633	188.0
108.956558	180.0
109.076027	812.0
109.757866	60.0
109.948204	164.0
110.756821	176.0
112.563385	92.0
113.259171	116.0
115.293144	156.0
116.110947	48.0
116.701469	136.0
117.045731	84.0
117.377563	164.0
117.785454	176.0
117.995552	316.0
118.051453	548.0
118.073181	196.0
118.45385	28.0
118.477684	136.0
119.058113	572.0
119.102417	96.0
119.347984	196.0
122.005554	188.0
122.074753	116.0
122.145126	164.0
122.973595	136.0
122.989044	200.0
123.019951	180.0
123.114891	148.0
123.745071	180.0
123.818146	184.0
124.024193	224.0
124.650032	220.0
126.391518	180.0
126.601936	48.0
127.070404	112.0
127.737617	148.0
127.892868	116.0
128.462952	176.0
129.888046	176.0
130.351196	40.0
130.37619	196.0
130.803772	204.0
130.940384	180.0
132.065582	136.0
132.926971	156.0
134.005356	180.0
134.069794	508.0
135.016388	124.0
135.058701	284.0
136.593552	132.0
138.013824	156.0
138.976471	228.0
140.015472	144.0
140.642624	112.0
141.401306	152.0
142.076614	168.0
142.551956	216.0
142.656052	160.0
143.046844	184.0
143.200943	216.0
145.679001	164.0
146.075638	128.0
146.366837	128.0
146.388519	196.0
146.619781	204.0
146.69931	196.0
146.880173	128.0
148.549225	196.0
148.71666	140.0
149.01799	1384.0
149.375137	136.0
149.922943	48.0
149.995895	120.0
150.024078	364.0
150.408005	152.0
150.469315	168.0
150.684235	140.0
150.789307	180.0
151.033234	16752.0
151.06282	372.0
151.118637	76.0
151.170807	48.0
151.205078	76.0
151.246674	52.0
151.280945	72.0
151.325012	68.0
151.381332	52.0
151.410721	140.0
151.538086	68.0
151.655716	100.0
151.671844	88.0
151.729263	60.0
151.846954	116.0
151.986786	48.0
152.035263	1092.0
152.180679	48.0
152.227341	40.0
152.281769	120.0
152.298553	152.0
152.386993	28.0
152.645081	56.0
152.750824	108.0
153.029373	616.0
153.092941	140.0
153.282608	168.0
153.307251	56.0
154.01532	68.0
154.198166	96.0
155.275116	156.0
159.042191	196.0
159.975159	104.0
160.051514	2308.0
160.501709	48.0
160.945786	52.0
161.056976	296.0
161.625717	48.0
162.152451	108.0
163.030533	160.0
163.076279	200.0
164.109802	180.0
164.857697	132.0
166.05838	152.0
174.007065	184.0
174.061768	292.0
175.017746	296.0
176.029495	148.0
176.989059	180.0
177.014008	408.0
180.985718	164.0
186.040894	220.0
188.306335	64.0
190.040131	192.0
192.077408	508.0
192.538544	120.0
192.988876	284.0
193.49527	116.0
193.99115	128.0
194.035889	192.0
198.014648	180.0
201.050903	160.0
201.991745	136.0
202.022858	140.0
204.039185	136.0
205.99411	88.0
209.036026	176.0
211.095642	152.0
219.035156	476.0
227.131454	192.0
234.033981	132.0
234.96965	112.0
235.039825	132.0
235.992233	256.0
236.999771	148.0
237.990463	128.0
243.266647	88.0
245.008118	152.0
250.858902	208.0
253.459946	68.0
266.328461	96.0
267.141083	140.0
268.023376	128.0
277.035522	152.0
278.056763	152.0
280.124847	116.0
284.123016	104.0
300.195404	128.0
318.103088	164.0
323.267853	172.0
340.228088	152.0
341.194275	136.0
343.160248	92.0
397.439301	88.0
400.488403	20.0
508.641174	28.0
526.429993	40.0
576.730896	92.0
590.757385	68.0
719.654175	148.0
730.700256	192.0
803.097351	168.0
804.880676	264.0
833.601929	44.0
867.668274	128.0
979.390625	144.0
985.285522	144.0
986.166565	172.0
1017.143494	204.0
1026.789673	56.0
1035.769653	132.0
1054.997314	96.0
1066.314575	176.0
1067.075073	116.0
1075.981079	160.0
1134.661499	176.0
1181.473877	228.0
1188.901245	124.0
1192.733643	196.0
1193.971191	120.0
1218.850342	120.0
1224.66626	180.0
1253.093262	152.0
1261.081299	148.0
1262.516479	172.0
1287.974854	208.0
1289.811157	208.0
1302.709473	152.0
1303.478149	248.0
1311.315063	160.0
1330.781372	148.0
1336.85083	196.0
1343.057983	232.0
1348.643677	184.0
1377.166626	132.0
1392.594604	156.0
1406.085205	200.0
1410.020996	180.0
1410.985229	288.0
1422.671997	72.0
1429.015015	188.0
1432.417725	120.0
1459.169434	168.0
1465.280762	192.0
1478.192139	196.0
1483.913696	188.0
1486.982056	160.0
1489.27002	144.0
1492.636108	212.0
1494.466675	40.0
1494.912964	192.0
1495.998169	224.0
1503.628906	40.0
1505.203735	132.0
END IONS

BEGIN IONS
PEPMASS=282.161
CHARGE=1
MSLEVEL=2
SOURCE_INSTRUMENT=LC-ESI-qTof
FILENAME=p3-D04_GD4_01_18261.mzXML
SEQ=*..*
IONMODE=Positive
ORGANISM=GNPS-NIH-SMALLMOLECULEPHARMACOLOGICALLYACTIVE
NAME=MLS001201741-01!Phentolamine M+H
PI=Dorrestein
DATACOLLECTOR=VP/LMS
SMILES=Cc1ccc(cc1)N(CC2=NCCN2)c3cccc(O)c3
INCHI=N/A
INCHIAUX=N/A
PUBMED=N/A
SUBMITUSER=vphelan
LIBRARYQUALITY=1
SPECTRUMID=CCMSLIB00000084971
USI=mzspec:GNPS:GNPS-NIH-SMALLMOLECULEPHARMACOLOGICALLYACTIVE:accession:CCMSLIB00000084971
SCANS=1531
44.902859	36.0
44.948219	168.0
44.99894	64.0
45.125874	136.0
45.149944	176.0
45.222195	96.0
45.234241	232.0
45.27441	148.0
45.392342	132.0
45.423191	136.0
45.527931	124.0
45.694572	188.0
45.729561	60.0
45.743023	164.0
45.791496	108.0
45.835957	224.0
45.926422	160.0
45.937077	64.0
45.993755	104.0
46.026157	152.0
46.14912	140.0
46.218105	180.0
46.249233	28.0
46.482346	164.0
46.518993	136.0
46.554298	100.0
46.676601	156.0
46.737816	160.0
46.774563	96.0
46.871613	188.0
46.974884	228.0
47.022087	176.0
47.276855	216.0
47.322029	136.0
47.354893	184.0
47.382294	128.0
47.513912	144.0
47.553707	132.0
47.69244	112.0
47.704811	84.0
47.736435	184.0
47.752937	180.0
47.82724	152.0
47.843761	240.0
47.879562	180.0
47.91951	184.0
48.017387	76.0
48.171986	232.0
48.307465	176.0
48.382198	176.0
48.470844	192.0
48.496761	120.0
48.578991	72.0
48.607971	176.0
48.671982	196.0
48.681705	128.0
48.813725	140.0
48.833195	152.0
48.938961	180.0
48.993282	168.0
49.028679	172.0
49.106194	220.0
49.12991	208.0
49.201084	136.0
49.265327	176.0
49.296066	132.0
49.349186	112.0
49.480709	156.0
49.676426	184.0
50.002914	156.0
50.072945	168.0
50.12262	240.0
50.265045	156.0
50.291862	128.0
50.359638	188.0
50.407673	168.0
50.525032	196.0
50.561825	148.0
50.575977	116.0
50.587303	128.0
50.613388	136.0
50.697784	88.0
50.709122	92.0
50.768669	124.0
50.780014	240.0
50.903488	132.0
50.947521	136.0
50.971676	60.0
50.984463	136.0
51.044174	160.0
51.081154	124.0
51.147228	204.0
51.187901	64.0
51.234905	148.0
51.247726	208.0
51.264828	60.0
51.274803	152.0
51.327553	124.0
51.340385	240.0
51.41029	200.0
51.433052	224.0
51.530239	176.0
51.551674	84.0
51.610283	140.0
51.644608	72.0
51.663738	172.0
51.674648	176.0
51.690392	100.0
51.820694	180.0
51.876591	76.0
52.070305	204.0
52.097595	252.0
52.126335	164.0
52.155079	136.0
52.178082	148.0
52.238483	340.0
52.267258	116.0
52.288845	176.0
52.319073	168.0
52.370914	140.0
52.561222	156.0
52.600189	216.0
52.727299	148.0
52.761181	164.0
52.792358	128.0
52.821018	152.0
52.871929	48.0
52.974735	152.0
53.035595	156.0
53.132759	108.0
53.205326	228.0
53.302643	124.0
53.375324	112.0
53.434963	148.0
53.494633	168.0
53.549965	212.0
53.561619	224.0
53.573273	116.0
53.710304	88.0
54.145878	108.0
54.239651	156.0
54.404655	140.0
54.421574	188.0
54.445068	168.0
54.481792	180.0
54.677361	224.0
54.690609	96.0
54.789272	116.0
55.076939	52.0
55.164127	160.0
55.180389	172.0
55.340187	160.0
55.370586	212.0
55.394985	168.0
55.55806	72.0
55.660473	88.0
55.71246	88.0
55.734745	204.0
55.75555	152.0
55.834347	164.0
55.86261	116.0
56.113319	188.0
56.130703	156.0
56.143879	168.0
56.194843	52.0
56.245586	160.0
56.29187	136.0
56.345642	156.0
56.394958	192.0
56.430836	112.0
56.466728	192.0
56.575962	212.0
56.658337	124.0
56.67931	156.0
56.803753	84.0
56.853268	212.0
56.886292	240.0
57.069584	204.0
57.128242	176.0
57.331516	168.0
57.455162	196.0
57.542698	176.0
57.569336	156.0
57.637859	152.0
57.783855	140.0
57.913204	204.0
57.985935	156.0
58.020798	96.0
58.052643	52.0
58.069324	168.0
58.120907	184.0
58.145344	156.0
58.366985	192.0
58.439999	168.0
58.590733	152.0
58.810326	176.0
58.875977	192.0
59.022682	92.0
59.070095	140.0
59.134361	72.0
59.201729	156.0
59.263	156.0
59.278324	192.0
59.341171	128.0
59.404327	224.0
59.602112	136.0
59.638996	128.0
59.67128	140.0
59.74445	168.0
59.763565	176.0
59.788189	192.0
59.832829	216.0
59.993053	220.0
60.011555	208.0
60.022346	88.0
60.113361	180.0
60.213711	176.0
60.340427	212.0
60.535393	164.0
60.554413	152.0
60.58186	152.0
60.628345	120.0
60.653145	188.0
60.668648	208.0
60.696556	140.0
60.716717	136.0
60.79739	84.0
60.813908	212.0
60.839302	160.0
60.91695	112.0
60.966671	180.0
61.058399	160.0
61.091064	184.0
61.176659	180.0
61.22176	216.0
61.412151	160.0
61.556458	232.0
61.603962	80.0
61.713364	224.0
61.835384	168.0
61.8573	92.0
61.902702	180.0
62.106449	200.0
62.162933	184.0
62.191181	144.0
62.266548	128.0
62.376537	180.0
62.503933	100.0
62.609409	40.0
62.666119	124.0
62.942154	144.0
62.965843	356.0
62.997437	136.0
63.043259	180.0
63.18557	48.0
63.264702	140.0
63.416771	36.0
63.51841	164.0
63.563862	172.0
63.629345	236.0
63.642048	148.0
63.775494	112.0
63.851814	148.0
63.955235	128.0
63.977524	160.0
64.014145	204.0
64.095383	48.0
64.368164	168.0
64.433647	164.0
64.595116	64.0
64.625519	116.0
64.735855	172.0
64.7705	228.0
64.84491	44.0
65.038994	228.0
65.069496	192.0
65.117668	176.0
65.170685	128.0
65.284813	140.0
65.376518	120.0
65.500488	140.0
65.590729	124.0
65.655228	204.0
65.668129	200.0
65.702003	144.0
65.761711	220.0
65.819832	372.0
65.96524	156.0
65.989494	144.0
66.18042	140.0
66.227386	240.0
66.334335	60.0
66.374863	124.0
66.522507	100.0
66.589088	116.0
66.663818	188.0
66.729149	208.0
66.748352	236.0
66.810158	176.0
66.867111	132.0
66.891525	80.0
67.008781	76.0
67.090271	44.0
67.138	192.0
67.264229	208.0
67.418365	204.0
67.521362	160.0
67.5868	192.0
67.614616	92.0
67.66864	148.0
67.704666	180.0
67.732506	204.0
67.75708	84.0
67.801323	120.0
67.817711	152.0
67.848862	40.0
67.99321	140.0
68.024399	188.0
68.09008	192.0
68.104858	156.0
68.191948	248.0
68.321854	164.0
68.362991	124.0
68.386032	84.0
68.417305	120.0
68.473289	56.0
68.672722	148.0
68.715614	176.0
68.74202	220.0
68.808968	236.0
68.846024	40.0
68.870796	140.0
69.067497	132.0
69.380486	156.0
69.400383	56.0
69.42691	140.0
69.483307	108.0
69.533089	72.0
69.655968	148.0
69.682549	168.0
69.84214	152.0
69.877075	160.0
69.943642	116.0
70.030228	128.0
70.240257	240.0
70.4673	260.0
70.584305	156.0
70.666267	196.0
70.899033	164.0
71.028137	64.0
71.078468	48.0
71.30014	128.0
71.338799	216.0
71.584457	184.0
71.702385	160.0
71.832489	172.0
71.859215	76.0
72.029724	136.0
72.058037	284.0
72.153091	104.0
72.176758	168.0
72.202126	232.0
72.235954	148.0
72.388283	148.0
72.456039	116.0
72.501793	204.0
72.532295	192.0
72.622169	92.0
72.805466	148.0
72.851334	156.0
72.964752	184.0
73.004303	180.0
73.179573	116.0
73.338005	76.0
73.419846	216.0
73.433495	140.0
73.559761	264.0
73.602448	132.0
73.64856	92.0
73.660515	172.0
73.71006	88.0
73.867355	144.0
74.000847	136.0
74.201309	208.0
74.326523	112.0
74.505089	156.0
74.530861	208.0
74.687309	156.0
74.738922	152.0
74.799156	124.0
74.905922	180.0
74.955055	200.0
75.093803	100.0
75.214592	100.0
75.247391	176.0
75.584229	196.0
75.664062	116.0
75.700424	216.0
75.717743	180.0
76.160034	172.0
76.394707	196.0
76.420799	120.0
76.886078	180.0
76.936699	176.0
77.326508	108.0
77.387779	176.0
77.435059	128.0
77.45433	68.0
77.470093	256.0
77.506889	228.0
77.560356	132.0
77.575241	144.0
77.640114	116.0
77.664673	252.0
77.712036	64.0
77.89814	100.0
77.931519	156.0
77.947334	104.0
78.015884	168.0
78.047531	60.0
78.13723	208.0
78.235786	44.0
78.349533	164.0
78.570641	120.0
78.913277	116.0
79.019402	44.0
79.065407	164.0
79.107887	40.0
79.122055	200.0
79.176949	136.0
79.320465	180.0
79.405579	184.0
79.417992	128.0
79.451645	144.0
79.512032	124.0
79.57061	184.0
79.732254	180.0
79.816147	188.0
79.853157	156.0
80.011528	212.0
80.114822	136.0
80.182533	76.0
80.223534	136.0
80.297081	212.0
80.316261	136.0
80.330536	100.0
80.467949	160.0
80.501694	156.0
80.516167	188.0
80.539383	192.0
80.571587	156.0
80.66983	60.0
80.7342	128.0
81.136307	124.0
81.185501	156.0
81.285698	192.0
81.620079	96.0
81.641663	112.0
81.657845	124.0
81.740601	148.0
81.798195	140.0
81.834206	156.0
81.863014	180.0
81.888229	204.0
82.016159	120.0
82.144188	212.0
82.218163	164.0
82.302826	156.0
82.368027	164.0
82.386093	196.0
82.405968	180.0
82.466805	156.0
82.528877	208.0
82.662727	164.0
82.724266	128.0
82.758667	148.0
82.80394	132.0
82.903587	124.0
82.928955	44.0
82.957962	104.0
83.028679	268.0
83.110313	136.0
83.12664	180.0
83.360901	172.0
83.373627	148.0
83.551819	152.0
83.804901	228.0
83.830406	60.0
83.87233	172.0
83.89238	136.0
84.067482	192.0
84.094856	108.0
84.259209	144.0
84.310371	84.0
84.555443	132.0
84.603035	124.0
84.630501	232.0
84.903809	224.0
84.954903	160.0
85.01178	236.0
85.051308	112.0
85.197235	164.0
85.368172	148.0
85.388405	132.0
85.557693	64.0
85.594521	148.0
85.823013	140.0
86.11644	144.0
86.134911	148.0
86.260567	196.0
86.280899	204.0
86.597336	180.0
86.639755	160.0
86.783417	252.0
86.82901	100.0
86.932907	32.0
87.048004	40.0
87.127869	180.0
87.23008	128.0
87.310036	68.0
87.412354	192.0
87.424538	160.0
87.51757	168.0
87.570595	216.0
87.62648	208.0
87.704758	108.0
87.814156	196.0
88.083549	164.0
88.104103	156.0
88.156418	248.0
88.317207	144.0
88.362106	192.0
88.444443	148.0
88.568031	116.0
88.654213	132.0
88.674828	224.0
88.693573	60.0
88.909271	64.0
88.931793	172.0
89.045479	192.0
89.221085	96.0
89.301941	160.0
89.386597	72.0
89.40918	60.0
89.439301	160.0
89.569862	224.0
89.605019	140.0
89.71244	96.0
90.023773	204.0
90.070992	100.0
90.174911	184.0
90.348885	132.0
90.39521	132.0
90.485146	120.0
90.640465	108.0
90.730446	264.0
90.905945	232.0
90.964783	180.0
91.054291	6244.0
91.082985	196.0
91.133812	56.0
91.166115	124.0
91.211731	120.0
91.291588	36.0
91.327728	144.0
91.518036	120.0
91.575165	216.0
91.67614	168.0
91.773361	180.0
91.843918	196.0
92.01368	180.0
92.057892	500.0
92.091118	248.0
92.118797	240.0
92.311844	136.0
92.496902	160.0
92.662125	180.0
92.917122	176.0
93.003479	164.0
93.033112	2900.0
93.061859	156.0
93.067528	132.0
93.111	52.0
93.143654	104.0
93.164787	120.0
93.187836	204.0
93.247414	164.0
93.399307	220.0
93.491425	96.0
93.713112	76.0
93.749725	88.0
93.861534	156.0
93.984985	196.0
94.036484	268.0
94.071831	188.0
94.458321	180.0
94.541519	176.0
94.586037	144.0
94.626694	164.0
94.653801	104.0
95.052071	376.0
95.124931	40.0
95.164734	88.0
95.190948	124.0
95.206482	140.0
95.297783	140.0
95.330818	268.0
95.344421	140.0
95.587509	164.0
95.616699	148.0
95.690674	88.0
95.730446	252.0
95.908859	96.0
95.932251	132.0
95.949799	184.0
96.055923	124.0
96.144859	96.0
96.183899	236.0
96.232704	84.0
96.3284	208.0
96.416321	172.0
96.840889	128.0
96.891823	108.0
96.93689	196.0
96.971344	172.0
97.025093	172.0
97.160416	88.0
97.195732	168.0
97.276199	168.0
97.323318	140.0
97.568916	172.0
97.602341	136.0
97.705109	192.0
97.810883	128.0
97.856163	64.0
98.003883	132.0
98.113014	120.0
98.181305	192.0
98.404282	200.0
98.461548	184.0
98.478447	160.0
98.514702	132.0
98.799561	68.0
98.841202	176.0
98.955917	196.0
99.021263	164.0
99.043053	176.0
99.104469	136.0
99.150047	68.0
99.334442	120.0
99.934433	168.0
99.982185	144.0
100.029961	156.0
100.416519	112.0
100.584389	92.0
100.606087	148.0
100.646019	136.0
100.723907	156.0
100.755867	132.0
100.831802	208.0
100.927757	112.0
101.368141	148.0
101.404213	40.0
101.522499	68.0
101.538544	112.0
101.608757	152.0
101.831573	200.0
101.851875	264.0
102.121002	204.0
102.151176	188.0
102.231659	280.0
102.512024	164.0
102.684959	172.0
102.797935	264.0
102.828163	200.0
102.929008	176.0
103.027107	144.0
103.048454	184.0
103.17363	116.0
103.240356	172.0
103.652351	92.0
103.874313	168.0
103.888519	116.0
103.93924	204.0
104.050873	324.0
104.103668	160.0
104.445114	96.0
104.489876	80.0
104.51413	156.0
104.656769	252.0
104.689354	240.0
104.772865	152.0
104.980774	76.0
105.035843	112.0
105.070488	584.0
105.111328	120.0
105.170517	132.0
105.219505	160.0
105.250137	172.0
105.319572	52.0
105.415596	192.0
105.507576	112.0
105.656868	168.0
105.676704	100.0
105.703934	132.0
105.865654	124.0
106.043892	112.0
106.068489	160.0
106.160759	48.0
106.213654	96.0
106.324875	168.0
106.390564	100.0
106.431625	84.0
106.456268	132.0
106.521996	168.0
106.554863	292.0
106.581573	156.0
106.676117	184.0
106.719292	132.0
106.799538	176.0
106.955879	140.0
107.047485	860.0
107.273109	188.0
107.293724	108.0
107.370018	184.0
107.673401	220.0
107.745697	212.0
107.791161	188.0
107.824219	132.0
107.993759	260.0
108.020653	188.0
108.068237	216.0
108.088928	140.0
108.175858	172.0
108.457573	136.0
108.530136	136.0
108.565384	132.0
108.601189	228.0
108.68985	48.0
108.708527	128.0
108.745888	164.0
108.795708	68.0
108.835152	160.0
108.884995	160.0
109.032349	164.0
109.067833	228.0
109.267479	192.0
109.354874	112.0
109.415245	36.0
109.543953	184.0
109.738182	264.0
109.779884	36.0
109.948868	168.0
110.074127	224.0
110.187935	180.0
110.226616	92.0
110.435684	172.0
110.85231	204.0
111.04187	228.0
111.184647	196.0
111.294914	116.0
111.502884	104.0
111.561737	192.0
111.757332	156.0
111.940338	132.0
112.041573	156.0
112.08371	144.0
112.197525	164.0
112.305069	144.0
112.334602	148.0
112.528763	172.0
112.64492	68.0
112.733658	112.0
112.775925	60.0
112.816093	196.0
112.983162	196.0
113.080505	168.0
113.252007	136.0
113.300728	60.0
113.334625	100.0
113.601768	168.0
113.79702	104.0
113.835236	76.0
113.862846	60.0
113.884087	244.0
114.007317	136.0
114.034943	80.0
114.04982	164.0
114.296524	68.0
114.317802	188.0
114.430618	68.0
114.526443	108.0
114.569054	108.0
114.642166	216.0
114.777924	148.0
114.835503	124.0
114.857887	168.0
114.890968	188.0
115.01474	176.0
115.051834	500.0
115.089462	136.0
115.228294	124.0
115.380035	148.0
115.44632	140.0
115.544716	180.0
115.60891	172.0
115.664558	80.0
115.775894	132.0
115.810158	116.0
115.869286	248.0
115.895851	164.0
116.050179	100.0
116.217484	212.0
116.258255	236.0
116.318352	88.0
116.50518	224.0
116.58683	248.0
116.793236	168.0
116.939545	160.0
116.956764	60.0
116.984749	140.0
117.029961	180.0
117.057625	416.0
117.124718	184.0
117.314354	212.0
117.328812	192.0
117.361786	168.0
117.389816	144.0
117.436035	204.0
117.583977	160.0
117.601135	160.0
117.637939	144.0
117.696236	208.0
117.942612	204.0
117.979271	180.0
117.996567	156.0
118.011703	168.0
118.038223	240.0
118.064835	23424.0
118.134979	148.0
118.159332	344.0
118.183487	76.0
118.258751	200.0
118.276398	188.0
118.297279	140.0
118.341263	76.0
118.407715	48.0
118.423645	144.0
118.440201	68.0
118.490028	44.0
118.516029	84.0
118.53553	76.0
118.567879	112.0
118.573326	200.0
118.717628	44.0
118.739311	80.0
118.758835	184.0
118.803223	228.0
118.82608	64.0
118.854286	120.0
118.928078	236.0
118.973663	208.0
119.067604	2236.0
119.189552	200.0
119.212585	188.0
119.271271	160.0
119.382156	180.0
119.452759	104.0
119.471336	168.0
119.48526	80.0
119.527901	72.0
119.59008	232.0
119.61496	152.0
119.630196	156.0
119.656326	212.0
119.691162	32.0
119.778275	68.0
119.797882	188.0
119.821564	152.0
119.866608	288.0
119.904648	152.0
119.976585	212.0
120.001602	160.0
120.011353	76.0
120.016945	156.0
120.044624	31812.0
120.077461	152.0
120.105247	40.0
120.140144	52.0
120.187599	224.0
120.221657	224.0
120.244148	140.0
120.264267	212.0
120.32505	72.0
120.401772	196.0
120.465424	96.0
120.718964	44.0
120.74958	72.0
120.802078	56.0
120.926804	176.0
120.948692	56.0
120.996849	76.0
121.045715	2856.0
121.12825	56.0
121.19178	36.0
121.222458	192.0
121.321091	104.0
121.43512	104.0
121.459244	108.0
121.494347	208.0
121.610649	56.0
121.676498	48.0
121.72261	192.0
121.767906	80.0
121.801674	80.0
121.85321	52.0
121.915932	128.0
121.973076	104.0
121.995056	72.0
122.023636	104.0
122.059166	364.0
122.080811	160.0
122.237	136.0
122.453186	192.0
122.842896	124.0
122.86937	128.0
122.946602	136.0
123.063591	164.0
123.193901	168.0
123.346375	136.0
123.392799	128.0
123.503372	240.0
123.536552	128.0
123.675957	128.0
123.737946	160.0
123.786659	84.0
123.842026	148.0
124.332008	140.0
124.423019	256.0
124.454102	184.0
124.765152	56.0
124.831856	120.0
124.92305	180.0
125.214645	160.0
125.432999	220.0
125.557861	104.0
125.582397	188.0
125.635933	192.0
125.693947	120.0
125.903786	156.0
126.013245	48.0
126.299454	152.0
126.320389	124.0
126.592583	220.0
126.61274	152.0
126.636299	216.0
126.655296	64.0
126.74939	60.0
127.056564	184.0
127.23835	160.0
127.319191	212.0
127.339401	32.0
127.368599	156.0
127.462959	156.0
127.609062	68.0
127.669777	180.0
127.780045	204.0
127.802498	116.0
127.856506	88.0
128.060516	460.0
128.39946	140.0
129.00235	84.0
129.043045	160.0
129.070267	332.0
129.257919	160.0
129.334869	148.0
129.559052	188.0
129.579453	176.0
129.629288	60.0
129.726761	80.0
129.826523	48.0
130.001862	136.0
130.064774	360.0
130.241867	160.0
130.387283	188.0
130.537323	156.0
130.63739	216.0
130.908249	108.0
131.042648	160.0
131.081497	160.0
131.147476	88.0
131.224976	156.0
131.300232	120.0
131.398315	300.0
131.762131	160.0
132.040207	124.0
132.220947	208.0
132.236969	100.0
132.417618	200.0
132.445328	172.0
132.468231	152.0
133.048325	168.0
133.071259	136.0
133.195694	164.0
133.312576	228.0
133.457397	128.0
133.76799	236.0
133.857788	120.0
134.055893	160.0
134.120422	188.0
134.165558	172.0
134.332306	172.0
134.436401	108.0
134.471024	136.0
135.113358	160.0
135.130157	204.0
135.171265	144.0
135.273102	168.0
135.312454	140.0
135.355804	200.0
135.45372	136.0
135.518707	156.0
135.555664	208.0
135.657639	192.0
135.743439	88.0
136.075241	176.0
136.288925	212.0
136.316818	196.0
136.400482	136.0
136.598145	104.0
136.74939	136.0
136.958939	184.0
137.184967	108.0
137.43219	120.0
137.46019	216.0
137.509201	128.0
137.551224	128.0
137.71701	176.0
137.733353	144.0
137.756714	176.0
137.793167	212.0
137.922623	212.0
138.004456	156.0
138.121384	116.0
138.18689	32.0
138.273468	188.0
138.5896	176.0
138.648193	64.0
138.739609	180.0
138.831055	112.0
139.018723	132.0
139.089142	180.0
139.126694	112.0
139.284042	124.0
139.308395	152.0
139.366257	160.0
139.615433	108.0
139.728348	180.0
139.80835	72.0
140.213425	176.0
140.357224	216.0
140.463364	136.0
140.488785	200.0
140.578964	172.0
140.654495	92.0
140.911911	204.0
140.961533	156.0
141.071823	192.0
141.093887	116.0
141.26062	144.0
141.318573	116.0
141.633438	100.0
141.792191	200.0
141.90834	208.0
141.955444	212.0
142.01268	164.0
142.074402	356.0
142.166901	144.0
142.311691	228.0
142.439941	44.0
142.525467	52.0
142.54686	136.0
142.62291	160.0
142.670456	180.0
143.00824	144.0
143.058228	180.0
143.079498	168.0
143.127274	52.0
143.403625	156.0
143.580048	40.0
143.622986	184.0
143.878311	120.0
144.04335	152.0
144.079651	324.0
144.100433	160.0
144.176895	84.0
144.212753	116.0
144.413589	32.0
144.624146	144.0
144.734283	40.0
144.901932	164.0
144.995392	232.0
145.063995	320.0
145.082642	168.0
145.104141	208.0
145.460709	120.0
145.751328	92.0
146.043915	124.0
146.067627	284.0
146.18898	132.0
146.213043	136.0
146.299698	80.0
146.408051	156.0
146.711655	148.0
146.943176	140.0
146.960068	200.0
147.020386	128.0
147.050476	292.0
147.084793	176.0
147.203857	92.0
147.23526	168.0
147.276321	156.0
147.467819	188.0
147.551804	236.0
147.764633	164.0
147.793671	140.0
147.863846	196.0
147.914673	84.0
148.072067	80.0
148.110825	108.0
148.156845	208.0
148.207718	80.0
148.326843	132.0
148.428299	168.0
148.593246	48.0
148.73642	60.0
148.899094	156.0
148.937958	180.0
148.97197	272.0
149.011185	208.0
149.042419	240.0
149.315659	176.0
149.533661	184.0
149.63591	120.0
149.799072	112.0
149.828308	52.0
149.867294	208.0
149.9599	96.0
150.137863	224.0
150.575668	176.0
150.86795	168.0
150.968201	184.0
151.052109	168.0
151.173691	52.0
151.281387	224.0
151.443008	220.0
151.543442	224.0
151.602249	188.0
152.061539	1376.0
152.109955	168.0
152.407135	124.0
152.530014	120.0
152.576721	92.0
152.613602	172.0
152.906342	132.0
152.992493	188.0
153.064896	232.0
153.677643	88.0
153.894852	64.0
154.064713	648.0
154.342087	132.0
154.369293	80.0
154.445953	152.0
154.55481	128.0
155.078354	388.0
155.223618	140.0
155.302979	136.0
155.424545	228.0
155.73735	136.0
155.789505	100.0
155.938599	232.0
156.085754	248.0
156.381332	180.0
156.627823	120.0
156.661591	260.0
156.737457	160.0
156.766846	176.0
156.874527	72.0
157.059448	152.0
157.089447	568.0
157.311096	216.0
157.40596	160.0
157.555832	152.0
157.658279	116.0
157.703262	176.0
157.743256	168.0
157.812973	188.0
158.061005	164.0
158.453995	112.0
158.712158	80.0
158.735962	176.0
158.887726	88.0
159.157471	136.0
159.254227	252.0
159.291901	224.0
159.324554	120.0
159.357224	192.0
159.48288	136.0
159.585953	320.0
159.837479	160.0
159.934402	140.0
159.973389	120.0
160.078629	296.0
160.134537	104.0
160.263016	112.0
160.492386	132.0
160.555435	264.0
160.591782	176.0
160.636154	72.0
160.785019	188.0
160.838013	68.0
160.931427	184.0
160.972214	160.0
161.110748	112.0
161.168854	148.0
161.338196	112.0
161.423737	144.0
161.444397	168.0
161.694855	128.0
161.826492	184.0
162.074707	176.0
162.145676	184.0
162.163406	108.0
162.320587	176.0
162.404282	120.0
162.482925	140.0
162.597107	200.0
162.800217	132.0
163.077133	168.0
163.094925	96.0
163.138138	60.0
163.194077	184.0
163.326324	136.0
163.377197	152.0
163.491699	140.0
163.550232	132.0
163.596054	40.0
163.624054	136.0
163.708084	204.0
163.776855	176.0
164.036758	192.0
164.064804	160.0
164.097946	172.0
164.125992	228.0
164.202499	112.0
164.327499	184.0
164.386185	176.0
164.764084	128.0
165.067413	740.0
165.098923	108.0
165.139847	172.0
165.29335	204.0
165.370117	124.0
165.444351	156.0
165.777328	40.0
165.885864	164.0
165.908051	144.0
165.990097	156.0
166.077957	384.0
166.120911	204.0
166.143997	156.0
166.557297	164.0
166.845108	216.0
166.883682	176.0
166.937683	196.0
166.991684	232.0
167.081116	1136.0
167.228394	160.0
167.248993	168.0
167.346817	168.0
167.472992	156.0
168.006592	180.0
168.07782	616.0
168.590149	72.0
168.771088	140.0
168.827988	132.0
168.990952	160.0
169.066803	392.0
169.086914	1068.0
169.231659	204.0
169.365204	188.0
169.418274	76.0
169.537323	160.0
169.69545	212.0
169.967789	180.0
170.022293	116.0
170.075623	316.0
170.09967	304.0
170.161545	148.0
170.276718	192.0
170.453369	152.0
170.575531	100.0
170.661316	32.0
170.903214	192.0
171.071671	180.0
171.101425	180.0
171.129227	192.0
171.223404	48.0
171.41098	168.0
171.889069	184.0
172.062119	236.0
172.070618	152.0
172.079056	148.0
172.73468	156.0
172.875961	176.0
172.985886	208.0
173.004211	164.0
173.080139	184.0
173.108948	204.0
173.667175	48.0
173.803604	88.0
173.841187	148.0
173.942703	108.0
173.976822	48.0
173.995209	76.0
174.047714	60.0
174.131744	156.0
174.189529	144.0
174.223694	56.0
174.349808	128.0
174.36821	220.0
174.69426	104.0
174.733719	136.0
175.023254	256.0
175.164871	160.0
175.268219	128.0
175.399994	216.0
175.518631	168.0
175.560822	120.0
175.729645	184.0
175.795609	176.0
176.061798	144.0
176.149399	28.0
176.241867	148.0
176.302658	180.0
176.440094	160.0
176.529633	144.0
176.577606	52.0
176.632095	212.0
176.881882	76.0
176.905716	40.0
177.06839	460.0
177.189087	176.0
177.361328	132.0
177.515106	112.0
177.804276	148.0
177.838776	128.0
177.860016	116.0
178.073441	160.0
178.162735	68.0
178.229156	136.0
178.290283	44.0
178.407242	180.0
178.460403	132.0
178.580078	68.0
178.614655	176.0
178.670517	84.0
178.851471	184.0
178.910049	140.0
178.934006	180.0
179.074356	536.0
179.397552	156.0
179.437546	128.0
179.637573	152.0
179.693588	216.0
179.877731	168.0
180.055466	436.0
180.081039	800.0
180.126068	124.0
180.391434	252.0
180.403564	76.0
180.411163	240.0
180.485306	144.0
180.612564	32.0
180.655365	72.0
180.898895	200.0
181.027405	172.0
181.077682	392.0
181.113113	52.0
181.544617	220.0
181.595581	84.0
181.678726	84.0
181.740433	148.0
181.871933	188.0
181.939041	104.0
182.000793	144.0
182.052612	204.0
182.095535	428.0
182.264038	180.0
182.376907	204.0
182.41185	176.0
182.497879	160.0
182.583939	164.0
182.608139	172.0
183.06958	1000.0
183.275772	180.0
183.456345	92.0
183.510269	128.0
183.527115	120.0
183.569595	144.0
183.58847	148.0
183.750305	156.0
183.820984	164.0
183.863647	188.0
184.039108	128.0
184.087036	2680.0
184.176392	168.0
184.255188	172.0
184.365967	52.0
184.419861	136.0
184.678864	180.0
184.736389	84.0
184.885208	164.0
184.939346	88.0
185.092926	952.0
185.340149	188.0
185.359116	144.0
185.394348	184.0
185.478363	152.0
185.546143	212.0
185.730545	128.0
185.757996	168.0
185.99646	144.0
186.091476	196.0
186.118637	128.0
186.482666	140.0
186.550613	144.0
186.847046	44.0
186.86882	168.0
187.037537	108.0
187.064758	48.0
187.259171	152.0
187.345261	112.0
187.364334	72.0
187.595978	148.0
187.655945	112.0
187.71312	124.0
187.795029	204.0
187.83049	160.0
187.983276	156.0
188.207108	112.0
188.256683	208.0
188.455673	136.0
188.491196	116.0
188.719864	176.0
188.83371	192.0
189.536484	208.0
189.700928	100.0
190.180954	116.0
190.211151	164.0
190.268799	208.0
190.403351	228.0
190.56395	172.0
190.895279	144.0
190.983276	116.0
191.074066	144.0
191.269455	228.0
191.29422	140.0
191.750198	164.0
191.792801	160.0
191.828644	144.0
191.919617	168.0
192.085098	96.0
192.115448	208.0
192.41626	84.0
192.706268	148.0
192.800217	152.0
192.841675	96.0
192.947464	248.0
193.086823	228.0
193.167953	108.0
193.256485	116.0
193.286926	280.0
193.408691	76.0
193.508347	184.0
193.552658	268.0
193.787582	132.0
193.887848	128.0
193.907257	152.0
193.995956	204.0
194.095703	1608.0
194.148453	88.0
194.244949	152.0
194.278809	60.0
194.706284	180.0
194.753494	176.0
194.834045	224.0
194.917404	64.0
194.936859	176.0
195.050415	220.0
195.079468	760.0
195.171997	216.0
195.248215	208.0
195.303848	148.0
195.368866	140.0
195.442947	168.0
195.506943	116.0
195.732437	152.0
195.763062	140.0
195.792267	156.0
195.994446	136.0
196.074738	5668.0
196.125992	152.0
196.147552	84.0
196.236771	44.0
196.259064	36.0
196.288849	112.0
196.462677	100.0
196.507309	60.0
196.544724	68.0
196.596603	64.0
196.632889	64.0
196.658005	144.0
196.766052	96.0
196.791992	28.0
196.839462	64.0
196.951187	64.0
197.040573	176.0
197.082169	2524.0
197.172745	120.0
197.636108	128.0
197.669693	188.0
198.086731	1268.0
198.124557	44.0
198.165298	72.0
198.26619	148.0
198.319595	68.0
198.347458	64.0
198.414749	156.0
198.456802	112.0
198.501663	168.0
198.552139	32.0
198.650314	124.0
198.762543	168.0
198.855148	88.0
198.937881	144.0
199.0961	1272.0
199.259521	140.0
199.655869	148.0
199.757111	240.0
199.855591	116.0
200.113647	152.0
200.118256	224.0
200.153961	176.0
200.210281	36.0
200.286316	52.0
200.328568	228.0
200.398331	200.0
200.458176	60.0
200.630112	128.0
200.745712	176.0
200.776733	160.0
200.869812	108.0
201.033463	132.0
201.132248	96.0
201.301636	84.0
201.369415	180.0
201.496536	132.0
201.801788	188.0
201.889435	128.0
202.178009	84.0
202.684891	168.0
202.922989	152.0
203.076126	168.0
203.297409	68.0
203.757416	160.0
203.856857	168.0
203.905167	188.0
203.953491	128.0
204.081421	120.0
204.112701	176.0
204.44838	192.0
204.721664	124.0
204.906815	172.0
205.079422	200.0
205.34137	172.0
205.374649	144.0
205.693924	100.0
205.753876	144.0
205.93663	84.0
205.996613	196.0
206.048035	208.0
206.207321	108.0
206.350983	80.0
206.465363	228.0
206.582642	224.0
207.565033	160.0
207.892044	172.0
208.072876	180.0
208.10733	152.0
208.294235	148.0
208.426163	116.0
208.454895	148.0
208.621613	36.0
208.664734	308.0
208.828644	192.0
208.886169	88.0
209.085449	296.0
209.10939	180.0
209.194077	120.0
209.49646	164.0
209.559845	108.0
209.67511	132.0
209.715454	44.0
209.75293	132.0
209.891312	268.0
209.924316	108.0
210.037476	164.0
210.090027	3480.0
210.221313	80.0
210.395874	148.0
210.482849	36.0
210.563705	288.0
210.627258	108.0
210.656143	48.0
210.728363	136.0
210.786148	100.0
210.890198	104.0
210.98848	204.0
211.031845	164.0
211.096893	652.0
211.130173	116.0
211.280579	216.0
211.326874	60.0
211.365555	172.0
211.389282	148.0
211.448853	232.0
211.479279	124.0
211.546326	280.0
211.56041	92.0
211.571823	252.0
211.614243	84.0
211.647858	200.0
211.660706	84.0
211.669632	144.0
211.693527	84.0
211.731323	216.0
211.75119	76.0
211.756363	120.0
211.781372	152.0
211.805374	168.0
211.857697	204.0
211.886551	104.0
211.892609	144.0
211.944901	372.0
211.965393	368.0
212.041336	188.0
212.107132	156112.0
212.163467	84.0
212.182495	208.0
212.218643	68.0
212.254913	92.0
212.27771	184.0
212.305695	72.0
212.343048	76.0
212.38295	108.0
212.429047	128.0
212.461197	216.0
212.5056	72.0
212.523514	184.0
212.544479	80.0
212.557693	104.0
212.583664	816.0
212.657059	184.0
212.716431	136.0
212.742905	92.0
212.790543	64.0
212.846497	132.0
212.891113	88.0
212.922287	152.0
212.946655	132.0
212.985611	160.0
213.008102	136.0
213.050797	56.0
213.109528	22572.0
213.161011	76.0
213.190109	72.0
213.199539	40.0
213.225174	120.0
213.269867	72.0
213.332169	140.0
213.452423	124.0
213.46286	104.0
213.474442	164.0
213.500702	92.0
213.55191	68.0
213.587875	76.0
213.645691	80.0
213.698349	224.0
213.722336	48.0
213.752213	160.0
213.799042	72.0
213.867828	144.0
213.890488	56.0
213.98259	72.0
214.039429	92.0
214.112183	2240.0
214.175369	80.0
214.239517	64.0
214.272385	116.0
214.320923	236.0
214.348969	56.0
214.379807	120.0
214.408325	264.0
214.430054	72.0
214.493866	268.0
214.545502	112.0
214.573929	204.0
214.596954	152.0
214.638062	116.0
214.676239	220.0
214.706711	80.0
214.729233	112.0
214.755219	120.0
214.78801	96.0
214.813171	40.0
214.839294	96.0
214.861679	76.0
214.873978	52.0
214.93483	40.0
214.977951	92.0
215.107895	52.0
215.221756	44.0
215.247665	92.0
215.287247	132.0
215.323196	60.0
215.57959	128.0
215.608749	152.0
215.692215	128.0
215.794434	60.0
215.817825	84.0
215.852921	64.0
215.892105	120.0
216.051804	52.0
216.148361	108.0
216.177628	44.0
216.265427	48.0
216.394241	56.0
216.467987	64.0
216.827774	64.0
217.245758	84.0
217.675598	48.0
218.101593	84.0
218.16626	120.0
218.369156	60.0
218.604523	40.0
218.654556	64.0
218.766403	120.0
219.043213	52.0
219.078568	116.0
219.099182	340.0
220.072464	336.0
220.11676	128.0
220.252625	76.0
220.311691	96.0
221.078598	344.0
221.571991	32.0
222.085999	608.0
222.126358	160.0
222.366699	128.0
222.598267	84.0
223.096954	728.0
223.472168	52.0
223.620956	124.0
223.695374	116.0
223.984207	84.0
224.093887	444.0
224.132721	232.0
224.508789	92.0
224.574402	48.0
224.651947	76.0
224.953354	48.0
225.068604	128.0
225.107483	180.0
226.580231	80.0
226.851349	96.0
227.062836	144.0
227.089828	92.0
227.134827	48.0
229.22435	52.0
229.269547	100.0
229.993408	60.0
230.975449	32.0
231.998993	108.0
232.444839	72.0
233.08252	324.0
233.517258	108.0
234.09549	164.0
234.512878	68.0
235.009949	192.0
235.080139	88.0
235.110657	52.0
236.109772	552.0
236.884048	148.0
237.103531	312.0
238.109985	576.0
239.07016	116.0
239.115143	572.0
239.208664	40.0
239.331818	44.0
239.766174	32.0
240.124588	128.0
240.787369	100.0
242.693619	112.0
248.106216	192.0
250.107254	72.0
251.389999	52.0
252.87854	100.0
253.765533	44.0
256.002533	72.0
259.132904	64.0
261.68631	100.0
262.946747	104.0
263.208221	128.0
265.13205	256.0
266.134003	148.0
271.01825	84.0
272.143311	100.0
281.227539	112.0
281.421661	108.0
282.148376	140.0
282.170532	256.0
283.163422	132.0
283.367737	44.0
285.200043	132.0
299.24057	84.0
300.760834	64.0
302.935883	112.0
313.717133	128.0
314.433197	56.0
315.482269	44.0
317.199158	100.0
319.856201	96.0
322.90332	112.0
323.189514	76.0
324.633118	112.0
328.748566	48.0
329.329834	72.0
335.167084	52.0
339.066284	60.0
349.703461	56.0
352.642548	88.0
353.143555	68.0
355.676514	76.0
355.886749	52.0
356.720764	140.0
360.153564	88.0
364.795502	48.0
368.19809	88.0
371.865906	132.0
375.578918	124.0
377.401733	64.0
380.575104	72.0
380.835297	84.0
381.425934	124.0
384.354645	104.0
388.827606	92.0
395.338196	112.0
398.085419	168.0
398.26416	44.0
399.21402	92.0
404.740814	84.0
405.001129	68.0
405.722443	84.0
408.1073	100.0
414.780731	92.0
416.099182	124.0
419.422791	140.0
423.742371	116.0
425.050323	60.0
436.630005	112.0
442.279358	44.0
444.760803	48.0
452.886108	52.0
453.725159	60.0
464.497498	68.0
466.085999	32.0
474.689117	40.0
482.548584	92.0
483.874268	36.0
494.390198	64.0
497.621643	64.0
501.585449	68.0
504.625641	36.0
505.12207	72.0
507.845459	44.0
517.996582	48.0
540.708496	68.0
544.812195	64.0
548.269409	80.0
557.64386	56.0
560.029358	56.0
562.556824	92.0
576.153442	40.0
595.567322	108.0
595.902527	72.0
601.005188	68.0
602.240356	76.0
607.74292	32.0
637.25293	76.0
680.332886	108.0
691.362305	36.0
699.181946	28.0
717.147461	100.0
718.112549	112.0
731.847656	124.0
747.333435	68.0
753.674805	56.0
764.334412	172.0
771.935791	180.0
776.293945	52.0
777.242493	132.0
778.335999	88.0
786.6651	116.0
793.776367	156.0
793.854858	36.0
793.899719	128.0
797.436707	48.0
815.245178	264.0
820.920898	196.0
825.872498	68.0
829.181885	80.0
831.579285	152.0
834.917297	180.0
835.826233	92.0
839.870544	232.0
872.170898	212.0
883.877686	72.0
890.87384	36.0
905.368164	192.0
909.685181	124.0
911.234619	136.0
915.192322	148.0
920.10614	156.0
921.05426	212.0
923.62323	108.0
924.924194	92.0
927.371277	168.0
935.261414	196.0
936.52179	84.0
940.949036	184.0
943.239929	144.0
943.955261	224.0
944.456787	68.0
944.805481	36.0
948.96405	148.0
951.098938	132.0
952.621765	188.0
962.79718	164.0
965.640198	188.0
967.626526	136.0
969.844299	208.0
971.630249	144.0
975.866028	144.0
978.311096	180.0
980.123474	52.0
980.260559	48.0
985.995789	152.0
988.497253	148.0
989.761719	164.0
993.8172	212.0
995.292236	48.0
996.749512	204.0
1015.493347	164.0
1016.578186	236.0
1020.650024	60.0
1021.1651	152.0
1024.449707	208.0
1025.061279	152.0
1026.616821	108.0
1027.044067	160.0
1036.358643	144.0
1038.018799	196.0
1040.296509	68.0
1042.120483	164.0
1045.477173	160.0
1049.735352	220.0
1052.258301	188.0
1056.103271	164.0
1058.782837	156.0
1058.931763	224.0
1065.580933	216.0
1066.471191	196.0
1068.630249	104.0
1069.241943	120.0
1072.048828	68.0
1072.153076	212.0
1079.922485	144.0
1080.570068	108.0
1080.799072	164.0
1081.813599	76.0
1081.964111	228.0
1086.682983	116.0
1087.011108	140.0
1087.654297	196.0
1088.895264	232.0
1090.255127	200.0
1090.827026	180.0
1092.536865	176.0
1094.899902	128.0
1096.039551	204.0
1101.925049	168.0
1103.174194	172.0
1104.265137	168.0
1105.594971	180.0
1110.829346	148.0
1111.486206	256.0
1113.96936	104.0
1114.44104	184.0
1116.016235	40.0
1117.386475	192.0
1118.098389	160.0
1118.810669	192.0
1118.970459	108.0
1119.256714	52.0
1120.555542	108.0
1134.496826	200.0
1135.85144	228.0
1137.059204	192.0
1141.883179	228.0
1142.206055	228.0
1146.360107	136.0
1146.467896	192.0
1146.622925	132.0
1148.038696	172.0
1151.541382	200.0
1153.284668	140.0
1153.372559	180.0
1154.352783	204.0
1154.57605	44.0
1155.949341	132.0
1156.368896	176.0
1161.125122	248.0
1161.68811	124.0
1163.289551	228.0
1164.097534	188.0
1169.76123	116.0
1170.271729	76.0
1174.026489	164.0
1176.387207	168.0
1177.302124	76.0
1179.433838	72.0
1181.396484	176.0
1182.901978	92.0
1183.37439	244.0
1183.771484	196.0
1187.088257	152.0
1187.143066	100.0
1187.314575	100.0
1188.165039	128.0
1190.643066	172.0
1191.673462	176.0
1193.763062	172.0
1195.090698	208.0
1196.205566	160.0
1197.885864	220.0
1201.415405	188.0
1204.860474	144.0
1210.137573	132.0
1211.931396	156.0
1213.241333	192.0
1214.41333	208.0
1214.461792	156.0
1214.982056	128.0
1219.315063	84.0
1220.295166	192.0
1220.976685	136.0
1222.018921	164.0
1222.228882	80.0
1225.724365	208.0
1228.485352	60.0
1228.987671	108.0
1229.155151	152.0
1231.032959	196.0
1231.116821	192.0
1232.744507	72.0
1235.842163	140.0
1237.725098	116.0
1237.837158	116.0
1237.977173	128.0
1240.807983	196.0
1241.474121	184.0
1242.385986	156.0
1242.498291	60.0
1246.163208	208.0
1249.080688	172.0
1249.369141	180.0
1249.678711	184.0
1250.319092	144.0
1252.163696	144.0
1253.925049	156.0
1257.225586	200.0
1257.493774	172.0
1257.606812	160.0
1257.776123	164.0
1259.689819	136.0
1261.209106	212.0
1261.640259	252.0
1261.845337	124.0
1262.886597	156.0
1263.302124	132.0
1263.358765	48.0
1263.514404	168.0
1264.016724	164.0
1265.998901	184.0
1267.018921	48.0
1268.421997	140.0
1269.116821	176.0
1270.953979	216.0
1272.30249	196.0
1272.57605	156.0
1272.707153	116.0
1276.956787	72.0
1278.956177	172.0
1279.17688	40.0
1280.422852	72.0
1280.707764	172.0
1281.155762	180.0
1282.211182	48.0
1285.827148	164.0
1289.533936	256.0
1290.477539	84.0
1294.792603	48.0
1295.773926	104.0
1297.422241	128.0
1300.391968	176.0
1303.573486	180.0
1305.557617	160.0
1306.11145	88.0
1306.514282	168.0
1306.737305	172.0
1307.053955	208.0
1307.514526	188.0
1308.975952	108.0
1311.468628	108.0
1313.285645	108.0
1313.422729	164.0
1313.682373	164.0
1315.789673	56.0
1315.912476	104.0
1317.111206	192.0
1317.840942	164.0
1321.658691	168.0
1322.5271	204.0
1323.634766	144.0
1324.779175	132.0
1325.39502	96.0
1328.106323	220.0
1329.107544	128.0
1329.317993	144.0
1330.501099	216.0
1330.726196	180.0
1331.081909	216.0
1331.692017	192.0
1334.053589	172.0
1335.798828	180.0
1337.734619	256.0
1339.686279	180.0
1340.349243	228.0
1340.582397	152.0
1340.8302	136.0
1341.216553	184.0
1341.974731	108.0
1342.208008	204.0
1346.835083	168.0
1349.612183	240.0
1350.42395	124.0
1351.682251	52.0
1353.402344	68.0
1354.405762	196.0
1356.45752	136.0
1357.300659	100.0
1358.342041	200.0
1358.906982	132.0
1359.134399	148.0
1359.919678	108.0
1361.600952	128.0
1363.819824	184.0
1364.724121	216.0
1365.407959	264.0
1365.790527	144.0
1366.334839	164.0
1366.923462	160.0
1367.291382	176.0
1367.40918	236.0
1368.329346	148.0
1368.432373	148.0
1371.445435	264.0
1371.79187	136.0
1372.241577	184.0
1372.477539	160.0
1372.639771	68.0
1373.642822	172.0
1374.063354	124.0
1375.487671	176.0
1376.986572	156.0
1377.237671	172.0
1378.042847	164.0
1380.097656	144.0
1380.718872	136.0
1383.589844	52.0
1384.234009	176.0
1384.819092	224.0
1385.94519	156.0
1386.657715	156.0
1388.977417	120.0
1389.667358	200.0
1390.260986	64.0
1391.545166	44.0
1391.828735	144.0
1394.055786	140.0
1394.330811	168.0
1395.631714	56.0
1396.918335	224.0
1397.253174	124.0
1397.327515	172.0
1398.421387	200.0
1399.299805	104.0
1399.798706	160.0
1400.580688	124.0
1401.27356	144.0
1401.795166	212.0
1403.025024	80.0
1403.338135	184.0
1404.57605	136.0
1405.419067	88.0
1405.553467	156.0
1405.702637	160.0
1406.008667	100.0
1406.508667	136.0
1406.807251	28.0
1406.889404	124.0
1407.643555	124.0
1408.412842	80.0
1409.652954	180.0
1410.721802	280.0
1411.327393	120.0
1411.820923	44.0
1412.172485	136.0
1412.247314	124.0
1412.576416	140.0
1412.77832	176.0
1414.26001	264.0
1414.776489	164.0
1415.84729	116.0
1416.064453	172.0
1417.742676	76.0
1418.657104	56.0
1419.121948	28.0
1419.211914	196.0
1420.081909	240.0
1422.783325	164.0
1423.346436	188.0
1424.337769	132.0
1425.179199	184.0
1425.577515	208.0
1427.719971	188.0
1429.013794	112.0
1429.194458	112.0
1430.49646	148.0
1431.204102	140.0
1432.326294	144.0
1432.454346	140.0
1432.936523	160.0
1433.607178	192.0
1433.999023	48.0
1434.654785	196.0
1434.790527	200.0
1436.638184	148.0
1437.407837	244.0
1438.924683	192.0
1440.050171	236.0
1440.722412	124.0
1444.751953	132.0
1445.266357	176.0
1448.468872	160.0
1448.999146	80.0
1449.423462	180.0
1451.485229	200.0
1451.993408	208.0
1452.258789	160.0
1452.789795	64.0
1454.292236	184.0
1456.061401	144.0
1457.109619	68.0
1458.158325	200.0
1459.123657	148.0
1460.568604	172.0
1461.53479	92.0
1461.869629	184.0
1461.93811	132.0
1462.021729	100.0
1462.181641	164.0
1462.760132	136.0
1464.496216	168.0
1465.31897	120.0
1466.53064	156.0
1469.161377	204.0
1471.344116	56.0
1471.443359	176.0
1472.18396	160.0
1472.83313	284.0
1473.788086	140.0
1474.850464	180.0
1476.968506	120.0
1479.930176	140.0
1480.213501	192.0
1480.359009	156.0
1480.466187	224.0
1480.987061	160.0
1482.30481	208.0
1482.465698	160.0
1482.956177	128.0
1485.21814	176.0
1485.501953	120.0
1485.900879	164.0
1486.292236	164.0
1488.387695	88.0
1489.002075	108.0
1489.086548	168.0
1489.263184	104.0
1489.478271	320.0
1492.570435	256.0
1493.113892	48.0
1493.359985	232.0
1493.62146	168.0
1494.660156	228.0
1495.529785	132.0
1496.28418	204.0
1496.630615	228.0
1496.915527	128.0
1497.215942	184.0
1498.186401	148.0
1498.40979	184.0
1498.687256	120.0
1498.856689	84.0
1500.282593	116.0
1501.169312	124.0
1502.015991	88.0
1502.202881	88.0
1502.426514	84.0
1502.627197	228.0
1503.233887	232.0
1503.861816	224.0
END IONS

BEGIN IONS
PEPMASS=338.254
CHARGE=1
MSLEVEL=2
SOURCE_INSTRUMENT=LC-ESI-qTof
FILENAME=p3-E08_GE8_01_18277.mzXML
SEQ=*..*
IONMODE=Positive
ORGANISM=GNPS-NIH-SMALLMOLECULEPHARMACOLOGICALLYACTIVE
NAME=MLS001148124-01! M+H
PI=Dorrestein
DATACOLLECTOR=VP/LMS
SMILES=CCCCCCCCN[C@H](C)[C@@H](O)c1ccc(SC(C)C)cc1
INCHI=N/A
INCHIAUX=N/A
PUBMED=N/A
SUBMITUSER=vphelan
LIBRARYQUALITY=1
SPECTRUMID=CCMSLIB00000085090
USI=mzspec:GNPS:GNPS-NIH-SMALLMOLECULEPHARMACOLOGICALLYACTIVE:accession:CCMSLIB00000085090
SCANS=2158
44.907135	128.0
44.923332	160.0
44.936352	200.0
44.939007	180.0
44.94458	180.0
44.973854	128.0
45.004562	112.0
45.032509	200.0
45.041489	148.0
45.055317	192.0
45.078033	212.0
45.091396	220.0
45.114227	152.0
45.143539	136.0
45.16732	196.0
45.197662	192.0
45.229313	112.0
45.255322	156.0
45.26532	144.0
45.276035	200.0
45.289429	168.0
45.298805	144.0
45.326942	156.0
45.358273	64.0
45.380562	108.0
45.390675	236.0
45.407104	152.0
45.435005	304.0
45.450314	120.0
45.481182	104.0
45.559071	144.0
45.573853	104.0
45.583256	220.0
45.606106	136.0
45.616787	144.0
45.662579	48.0
45.682758	180.0
45.698902	144.0
45.747604	216.0
45.772346	328.0
45.86153	196.0
45.894215	252.0
45.927933	152.0
45.938618	100.0
45.957272	188.0
45.983215	136.0
46.002155	148.0
46.029537	200.0
46.060074	144.0
46.091297	160.0
46.124264	184.0
46.168091	204.0
46.193295	348.0
46.221115	160.0
46.233845	168.0
46.25005	148.0
46.29084	332.0
46.302345	84.0
46.336552	176.0
46.353088	148.0
46.374157	312.0
46.385002	144.0
46.405338	176.0
46.44331	144.0
46.481709	120.0
46.507088	168.0
46.517948	140.0
46.562756	96.0
46.573624	60.0
46.583134	180.0
46.64262	124.0
46.675156	176.0
46.691875	100.0
46.717678	128.0
46.739494	148.0
46.757183	144.0
46.773518	192.0
46.78577	96.0
46.799961	164.0
46.820694	212.0
46.851143	180.0
46.871582	68.0
46.897476	120.0
46.907894	56.0
46.942471	204.0
46.962929	136.0
46.977936	180.0
47.013412	188.0
47.046173	152.0
47.065289	152.0
47.087139	204.0
47.125389	172.0
47.171326	232.0
47.249813	120.0
47.271637	156.0
47.368919	128.0
47.389473	60.0
47.403175	108.0
47.422878	160.0
47.471722	104.0
47.537666	116.0
47.574631	68.0
47.589405	184.0
47.60751	216.0
47.629562	152.0
47.641926	216.0
47.654293	228.0
47.665287	72.0
47.690025	48.0
47.751385	224.0
47.778038	104.0
47.796455	300.0
47.806934	216.0
47.819321	28.0
47.836674	112.0
47.857449	184.0
47.88541	168.0
47.907452	148.0
47.929497	168.0
48.002113	136.0
48.01635	200.0
48.038422	132.0
48.074295	136.0
48.090858	124.0
48.107426	184.0
48.118469	144.0
48.137802	120.0
48.164845	152.0
48.174534	108.0
48.189194	176.0
48.221664	140.0
48.232281	128.0
48.246964	40.0
48.258022	196.0
48.274616	136.0
48.285683	140.0
48.318882	184.0
48.328568	216.0
48.353477	100.0
48.370476	124.0
48.393623	92.0
48.443657	160.0
48.461494	124.0
48.503075	256.0
48.523869	172.0
48.575764	140.0
48.605709	124.0
48.645485	164.0
48.658455	212.0
48.669067	112.0
48.697227	248.0
48.70821	92.0
48.725124	100.0
48.761253	324.0
48.80888	280.0
48.829575	116.0
48.859985	148.0
48.874207	172.0
48.898952	192.0
48.913841	184.0
48.930969	148.0
48.96439	100.0
48.975533	172.0
48.997826	168.0
49.032341	156.0
49.037354	120.0
49.040188	200.0
49.087032	224.0
49.124607	192.0
49.151203	72.0
49.176327	164.0
49.205643	116.0
49.244743	172.0
49.265697	164.0
49.286839	168.0
49.315655	176.0
49.329601	132.0
49.356548	136.0
49.367737	116.0
49.384521	68.0
49.408302	112.0
49.420895	176.0
49.441887	140.0
49.468483	100.0
49.496487	48.0
49.536449	240.0
49.559307	316.0
49.591171	212.0
49.607174	104.0
49.623997	112.0
49.640827	168.0
49.65411	152.0
49.67028	168.0
49.72916	100.0
49.744656	180.0
49.76712	172.0
49.78397	276.0
49.812065	144.0
49.862648	28.0
49.909042	248.0
49.944202	192.0
49.96249	196.0
49.97234	136.0
50.013153	132.0
50.039902	140.0
50.049759	216.0
50.099056	160.0
50.153732	220.0
50.168114	144.0
50.18166	124.0
50.200542	136.0
50.250137	304.0
50.27034	304.0
50.298618	204.0
50.329731	360.0
50.351555	160.0
50.37133	192.0
50.413719	164.0
50.434921	148.0
50.481579	152.0
50.516941	176.0
50.546654	148.0
50.576374	156.0
50.599915	300.0
50.614601	72.0
50.653667	124.0
50.67551	112.0
50.692757	184.0
50.719444	92.0
50.750637	132.0
50.784672	152.0
50.803043	236.0
50.822979	116.0
50.871235	168.0
50.900288	172.0
50.920292	168.0
50.925755	92.0
50.93166	204.0
50.947926	172.0
50.959293	180.0
50.983452	248.0
51.047455	224.0
51.061089	264.0
51.070995	188.0
51.101479	140.0
51.117134	204.0
51.131546	152.0
51.1698	60.0
51.18404	184.0
51.19828	196.0
51.219646	152.0
51.279491	144.0
51.296597	268.0
51.323647	144.0
51.325928	140.0
51.331352	224.0
51.342228	112.0
51.363827	140.0
51.382168	244.0
51.400379	168.0
51.43084	116.0
51.457085	188.0
51.472687	164.0
51.536724	296.0
51.569206	144.0
51.583538	68.0
51.609146	132.0
51.639309	268.0
51.657906	152.0
51.692245	124.0
51.808224	292.0
51.828285	156.0
51.868008	212.0
51.894447	176.0
51.942661	196.0
51.983158	172.0
52.00325	216.0
52.017906	172.0
52.033398	164.0
52.056446	184.0
52.070736	260.0
52.092281	156.0
52.131077	164.0
52.146885	148.0
52.168449	140.0
52.207878	192.0
52.244995	160.0
52.273449	320.0
52.290722	136.0
52.315193	112.0
52.327248	204.0
52.33823	32.0
52.362713	132.0
52.406864	244.0
52.42178	412.0
52.436066	180.0
52.452049	140.0
52.467907	88.0
52.49963	136.0
52.52652	136.0
52.541462	156.0
52.568878	164.0
52.622288	232.0
52.639427	152.0
52.715038	192.0
52.727417	176.0
52.798592	168.0
52.813053	144.0
52.838593	220.0
52.851139	216.0
52.902405	156.0
52.927685	156.0
52.961559	128.0
52.975567	168.0
52.992573	216.0
53.008511	136.0
53.04409	164.0
53.062378	148.0
53.079544	180.0
53.098396	124.0
53.111412	144.0
53.143978	220.0
53.172394	204.0
53.185459	208.0
53.219894	200.0
53.241951	172.0
53.259514	256.0
53.281445	288.0
53.317635	128.0
53.361244	148.0
53.397598	164.0
53.423782	148.0
53.437183	76.0
53.449585	240.0
53.508198	248.0
53.518391	152.0
53.566402	116.0
53.583935	144.0
53.604729	148.0
53.626198	192.0
53.639317	44.0
53.652401	156.0
53.665558	296.0
53.677223	236.0
53.688614	188.0
53.710342	116.0
53.722313	144.0
53.760529	192.0
53.814392	152.0
53.83028	136.0
53.850182	172.0
53.862587	200.0
53.891808	144.0
53.923958	200.0
53.938576	124.0
53.966938	140.0
53.97702	352.0
53.999989	200.0
54.029247	76.0
54.042416	136.0
54.063671	152.0
54.089249	160.0
54.103363	212.0
54.136101	72.0
54.156605	184.0
54.180046	120.0
54.202023	200.0
54.260296	228.0
54.312744	216.0
54.345543	192.0
54.408325	168.0
54.477379	72.0
54.533707	116.0
54.570095	172.0
54.590328	108.0
54.617523	172.0
54.668472	140.0
54.69257	132.0
54.710003	228.0
54.739685	248.0
54.786961	84.0
54.822128	212.0
54.853424	184.0
54.925396	108.0
54.96228	132.0
54.987366	60.0
55.031654	132.0
55.041992	176.0
55.077438	140.0
55.098122	128.0
55.120285	192.0
55.157085	196.0
55.179409	112.0
55.192719	248.0
55.219337	84.0
55.238567	184.0
55.266678	88.0
55.285976	200.0
55.335144	172.0
55.351055	188.0
55.391045	64.0
55.404377	140.0
55.438457	148.0
55.453281	184.0
55.470722	148.0
55.501724	148.0
55.525417	184.0
55.571918	176.0
55.592312	248.0
55.616146	200.0
55.631958	184.0
55.659592	192.0
55.689201	128.0
55.707027	176.0
55.724857	104.0
55.740707	144.0
55.772221	156.0
55.828915	124.0
55.84428	60.0
55.885441	184.0
55.928051	192.0
55.946148	120.0
55.964058	144.0
56.041786	108.0
56.072277	244.0
56.10886	196.0
56.125801	344.0
56.149124	52.0
56.175972	176.0
56.211781	144.0
56.231842	172.0
56.250587	168.0
56.27597	124.0
56.287914	184.0
56.304344	156.0
56.351307	160.0
56.376057	100.0
56.408939	100.0
56.440338	152.0
56.455292	152.0
56.47324	108.0
56.485207	72.0
56.533085	112.0
56.555538	176.0
56.592964	148.0
56.611912	184.0
56.634899	144.0
56.65733	152.0
56.678989	268.0
56.736347	184.0
56.748798	188.0
56.766792	124.0
56.779381	184.0
56.793789	156.0
56.808899	168.0
56.847801	184.0
56.874477	176.0
56.892834	136.0
56.975437	104.0
57.003986	116.0
57.025028	200.0
57.038555	48.0
57.067581	156.0
57.110088	152.0
57.173927	128.0
57.196507	164.0
57.250618	200.0
57.26062	124.0
57.360703	68.0
57.399902	160.0
57.411968	180.0
57.431576	156.0
57.467785	144.0
57.506844	212.0
57.519863	292.0
57.532684	200.0
57.544762	104.0
57.570435	208.0
57.594398	180.0
57.641438	88.0
57.671204	184.0
57.686783	176.0
57.700386	156.0
57.715508	192.0
57.758644	184.0
57.762726	236.0
57.795677	216.0
57.823608	228.0
57.847137	96.0
57.880447	204.0
57.91074	132.0
57.927402	208.0
57.942471	196.0
57.988014	40.0
58.012268	108.0
58.025913	28.0
58.044109	128.0
58.075958	140.0
58.103745	208.0
58.116493	156.0
58.132095	144.0
58.142082	128.0
58.273476	152.0
58.288509	112.0
58.318909	132.0
58.33107	128.0
58.37212	188.0
58.382767	116.0
58.451504	196.0
58.477776	124.0
58.487751	216.0
58.513634	72.0
58.534321	188.0
58.55463	204.0
58.5606	76.0
58.592018	160.0
58.605022	180.0
58.623306	176.0
58.63855	176.0
58.660275	348.0
58.680706	208.0
58.705631	220.0
58.750111	200.0
58.756699	176.0
58.784252	124.0
58.796215	188.0
58.812435	152.0
58.832279	132.0
58.858234	120.0
58.873508	200.0
58.92239	52.0
58.961185	196.0
58.973557	124.0
58.998806	192.0
59.041622	176.0
59.070683	168.0
59.081394	40.0
59.101284	192.0
59.122135	128.0
59.136482	216.0
59.157913	220.0
59.173225	176.0
59.190353	236.0
59.209881	192.0
59.232952	224.0
59.246742	164.0
59.286579	124.0
59.300472	128.0
59.320301	116.0
59.397083	176.0
59.470634	88.0
59.496731	88.0
59.513618	120.0
59.575054	100.0
59.601013	188.0
59.607212	168.0
59.6469	152.0
59.661362	204.0
59.685642	156.0
59.76263	104.0
59.819576	144.0
59.875935	188.0
59.915062	92.0
59.943386	232.0
60.039337	184.0
60.05843	152.0
60.074451	208.0
60.127865	116.0
60.14613	188.0
60.160561	176.0
60.17572	144.0
60.307034	104.0
60.317856	136.0
60.328674	188.0
60.354961	156.0
60.370426	156.0
60.392078	276.0
60.402905	196.0
60.413734	120.0
60.435394	160.0
60.447777	156.0
60.46727	168.0
60.512787	128.0
60.525692	152.0
60.549953	116.0
60.568336	196.0
60.580025	232.0
60.604641	120.0
60.655628	96.0
60.673923	56.0
60.700615	168.0
60.72665	160.0
60.766075	164.0
60.784771	112.0
60.798019	176.0
60.815094	116.0
60.836369	68.0
60.870983	64.0
60.891174	44.0
60.903599	164.0
60.940296	216.0
60.984402	88.0
60.995281	76.0
61.018822	196.0
61.037262	184.0
61.062145	100.0
61.08392	128.0
61.11348	404.0
61.138092	152.0
61.167629	212.0
61.208477	152.0
61.228271	168.0
61.239857	180.0
61.264507	92.0
61.281647	132.0
61.292553	160.0
61.317856	220.0
61.331516	220.0
61.350224	120.0
61.361137	92.0
61.376812	148.0
61.39172	196.0
61.411041	196.0
61.422783	144.0
61.429676	76.0
61.433548	140.0
61.446468	124.0
61.450775	68.0
61.472115	164.0
61.490616	224.0
61.527069	136.0
61.54031	168.0
61.570316	172.0
61.59367	148.0
61.618668	196.0
61.631168	64.0
61.667114	172.0
61.679619	180.0
61.695789	128.0
61.708569	168.0
61.72707	228.0
61.804737	156.0
61.825081	180.0
61.845062	188.0
61.87204	168.0
61.904922	116.0
61.922153	248.0
61.933117	160.0
61.967583	56.0
62.00676	204.0
62.022434	156.0
62.052574	124.0
62.095791	148.0
62.173008	136.0
62.218529	128.0
62.240631	160.0
62.26878	160.0
62.282669	152.0
62.32848	140.0
62.341053	124.0
62.361485	140.0
62.383492	164.0
62.416424	148.0
62.421318	140.0
62.440098	184.0
62.463696	140.0
62.495159	212.0
62.50526	200.0
62.52034	172.0
62.539227	172.0
62.56218	124.0
62.610825	152.0
62.628025	160.0
62.640007	172.0
62.662922	88.0
62.679394	108.0
62.729462	136.0
62.774902	232.0
62.821301	128.0
62.849697	136.0
62.860744	116.0
62.884418	216.0
62.897045	88.0
62.972839	300.0
62.991795	52.0
63.021713	184.0
63.026413	180.0
63.075058	116.0
63.099262	180.0
63.124561	188.0
63.14196	196.0
63.197449	104.0
63.216316	412.0
63.233727	108.0
63.247974	168.0
63.265339	132.0
63.295471	164.0
63.307243	204.0
63.327145	140.0
63.503082	216.0
63.525078	148.0
63.558613	136.0
63.576752	204.0
63.592709	192.0
63.607811	140.0
63.630039	52.0
63.657291	220.0
63.680721	188.0
63.686768	172.0
63.731945	380.0
63.756344	164.0
63.774605	216.0
63.81897	172.0
63.861233	324.0
63.919331	148.0
63.932064	148.0
63.964336	116.0
63.983002	160.0
63.998924	108.0
64.018036	184.0
64.032364	160.0
64.043518	60.0
64.097687	192.0
64.12159	260.0
64.170303	172.0
64.188545	88.0
64.202606	200.0
64.233208	120.0
64.245972	168.0
64.268311	180.0
64.284798	168.0
64.309799	156.0
64.320976	124.0
64.332153	140.0
64.344597	176.0
64.362366	108.0
64.39283	260.0
64.442352	140.0
64.462929	196.0
64.530266	168.0
64.571838	60.0
64.594238	160.0
64.613434	104.0
64.629433	188.0
64.643837	104.0
64.664642	172.0
64.682251	228.0
64.696655	144.0
64.709465	92.0
64.74305	144.0
64.759109	160.0
64.791405	152.0
64.816788	112.0
64.840218	232.0
64.931831	320.0
64.963341	148.0
65.031693	120.0
65.045898	184.0
65.083069	156.0
65.139107	184.0
65.189087	112.0
65.216408	164.0
65.240524	184.0
65.275902	164.0
65.297241	176.0
65.351501	100.0
65.420708	160.0
65.449692	284.0
65.478676	180.0
65.493179	124.0
65.517342	104.0
65.535408	340.0
65.576912	124.0
65.623718	92.0
65.646599	208.0
65.684204	128.0
65.704361	156.0
65.723724	216.0
65.749542	92.0
65.788284	140.0
65.833496	124.0
65.854492	164.0
65.88839	172.0
65.904572	236.0
65.920113	136.0
65.952293	340.0
66.004791	104.0
66.040375	68.0
66.075966	124.0
66.091774	176.0
66.126251	216.0
66.158508	180.0
66.187523	200.0
66.20546	152.0
66.218987	172.0
66.238739	132.0
66.268639	128.0
66.285881	100.0
66.307831	152.0
66.344818	52.0
66.359406	176.0
66.383659	176.0
66.398331	64.0
66.417	160.0
66.437256	172.0
66.457115	168.0
66.472954	76.0
66.489182	152.0
66.502167	120.0
66.513535	96.0
66.577377	212.0
66.5896	104.0
66.605965	200.0
66.620865	128.0
66.671722	204.0
66.69384	200.0
66.745865	104.0
66.764565	160.0
66.801041	156.0
66.812912	144.0
66.828827	204.0
66.867393	212.0
66.889038	176.0
66.902977	164.0
66.926491	212.0
66.960686	176.0
66.986748	156.0
66.998154	48.0
67.022728	144.0
67.04052	184.0
67.058449	192.0
67.093239	152.0
67.128555	176.0
67.148125	140.0
67.170959	120.0
67.19278	160.0
67.205223	180.0
67.234596	128.0
67.248604	144.0
67.263466	140.0
67.275406	160.0
67.287529	112.0
67.298264	196.0
67.312958	100.0
67.329292	92.0
67.370125	212.0
67.386467	184.0
67.407707	296.0
67.435493	248.0
67.464966	248.0
67.487801	104.0
67.514999	184.0
67.530014	148.0
67.576134	224.0
67.589905	192.0
67.616135	180.0
67.67028	192.0
67.698906	148.0
67.710365	168.0
67.733299	120.0
67.758446	148.0
67.780815	128.0
67.79641	168.0
67.83326	284.0
67.871643	168.0
67.889008	152.0
67.913612	112.0
67.934387	144.0
67.96611	152.0
67.994011	28.0
68.015709	180.0
68.0448	140.0
68.077736	140.0
68.089233	132.0
68.104919	152.0
68.127014	136.0
68.153305	160.0
68.168732	196.0
68.214119	164.0
68.23819	180.0
68.252853	64.0
68.25946	152.0
68.28437	188.0
68.298882	132.0
68.34153	68.0
68.34668	120.0
68.352798	176.0
68.36615	212.0
68.379105	132.0
68.395065	80.0
68.414757	204.0
68.437874	144.0
68.479042	180.0
68.495514	148.0
68.520226	164.0
68.546593	220.0
68.638405	184.0
68.661995	120.0
68.675186	156.0
68.714783	120.0
68.754387	192.0
68.784096	124.0
68.814499	212.0
68.820702	184.0
68.833298	304.0
68.863358	116.0
68.901352	144.0
68.920563	224.0
68.945122	188.0
69.024849	224.0
69.089828	148.0
69.141121	140.0
69.15271	52.0
69.224297	216.0
69.240501	156.0
69.25563	164.0
69.291817	144.0
69.36142	220.0
69.391258	168.0
69.43438	168.0
69.463051	84.0
69.497551	152.0
69.533928	184.0
69.555504	136.0
69.650047	188.0
69.699997	208.0
69.729248	160.0
69.771469	136.0
69.831146	184.0
69.847733	308.0
69.867935	96.0
69.901726	168.0
69.918564	188.0
69.947815	136.0
69.978188	296.0
70.000908	144.0
70.033264	164.0
70.061058	144.0
70.076622	212.0
70.1465	180.0
70.184036	172.0
70.207748	48.0
70.226089	80.0
70.251114	100.0
70.281143	80.0
70.344566	164.0
70.371284	172.0
70.411362	140.0
70.456947	164.0
70.495232	220.0
70.526649	104.0
70.565308	196.0
70.605232	200.0
70.628647	104.0
70.657089	156.0
70.693901	140.0
70.70562	152.0
70.738602	204.0
70.76004	248.0
70.784302	108.0
70.82209	180.0
70.885231	176.0
70.920013	136.0
70.941307	204.0
70.982002	168.0
71.029007	76.0
71.089935	76.0
71.102242	68.0
71.124657	108.0
71.163742	412.0
71.179283	140.0
71.197563	184.0
71.218689	56.0
71.239723	276.0
71.290764	196.0
71.330299	176.0
71.346405	116.0
71.368263	132.0
71.384186	72.0
71.430489	148.0
71.480347	152.0
71.504951	80.0
71.538193	164.0
71.558395	84.0
71.578606	208.0
71.598808	172.0
71.62532	184.0
71.762276	216.0
71.780869	152.0
71.801056	156.0
71.821571	148.0
71.89254	160.0
71.916542	176.0
71.934471	60.0
71.97995	192.0
72.012039	148.0
72.023857	124.0
72.036575	152.0
72.052582	160.0
72.107178	208.0
72.120178	96.0
72.150604	136.0
72.245537	304.0
72.272385	160.0
72.297768	220.0
72.324852	132.0
72.357018	136.0
72.404427	180.0
72.417976	140.0
72.433228	216.0
72.458633	144.0
72.473885	148.0
72.516251	184.0
72.528122	144.0
72.577286	216.0
72.603981	200.0
72.638908	204.0
72.663788	144.0
72.68718	148.0
72.702934	280.0
72.730995	212.0
72.755913	188.0
72.784485	188.0
72.810143	188.0
72.828934	200.0
72.855484	396.0
72.870934	116.0
72.884529	156.0
72.928711	104.0
72.945709	220.0
72.958115	148.0
73.005646	176.0
73.016624	148.0
73.044342	112.0
73.098648	148.0
73.143044	136.0
73.178795	176.0
73.195473	156.0
73.258842	120.0
73.303146	128.0
73.371323	152.0
73.392235	188.0
73.412758	160.0
73.451477	128.0
73.511192	116.0
73.565811	228.0
73.577766	148.0
73.596542	164.0
73.622162	164.0
73.644363	144.0
73.670731	228.0
73.70929	192.0
73.743469	140.0
73.784492	212.0
73.796318	184.0
73.81356	196.0
73.841225	184.0
73.873428	140.0
73.895668	196.0
73.940094	176.0
73.964127	160.0
73.988091	136.0
74.006126	212.0
74.030006	136.0
74.049736	100.0
74.076019	188.0
74.1474	108.0
74.16111	204.0
74.184105	164.0
74.209114	244.0
74.250267	136.0
74.284576	336.0
74.341408	200.0
74.37381	108.0
74.408737	104.0
74.450363	116.0
74.474464	168.0
74.504326	136.0
74.526657	128.0
74.554153	156.0
74.566658	148.0
74.586807	140.0
74.635048	136.0
74.664238	124.0
74.714073	84.0
74.726112	108.0
74.75631	124.0
74.800117	152.0
74.848328	152.0
74.879135	148.0
74.896164	160.0
74.943062	184.0
74.997238	148.0
75.010719	284.0
75.059883	156.0
75.079254	168.0
75.118919	296.0
75.132271	168.0
75.13681	76.0
75.144516	168.0
75.187943	216.0
75.219009	164.0
75.246635	204.0
75.318504	184.0
75.325737	164.0
75.331894	152.0
75.336975	220.0
75.35199	156.0
75.380295	164.0
75.405563	176.0
75.540436	100.0
75.58152	376.0
75.647179	264.0
75.673294	136.0
75.679276	184.0
75.70475	176.0
75.733765	152.0
75.775604	144.0
75.780228	120.0
75.80323	220.0
75.819801	248.0
75.824989	180.0
75.846397	188.0
75.878151	152.0
75.913567	192.0
75.959663	76.0
75.990891	148.0
76.016922	80.0
76.037743	136.0
76.055099	204.0
76.081146	164.0
76.094017	268.0
76.133232	116.0
76.166237	148.0
76.18708	120.0
76.21183	168.0
76.232262	156.0
76.246162	72.0
76.295204	224.0
76.316391	140.0
76.336563	96.0
76.395935	208.0
76.41832	156.0
76.451385	80.0
76.520668	160.0
76.543648	180.0
76.559326	152.0
76.592415	164.0
76.608093	96.0
76.641197	136.0
76.662109	160.0
76.699234	200.0
76.717888	208.0
76.757118	264.0
76.789383	40.0
76.81665	184.0
76.848694	120.0
76.878365	236.0
76.918472	188.0
76.945953	188.0
76.965645	164.0
77.002319	136.0
77.028519	324.0
77.04599	168.0
77.115891	160.0
77.157845	120.0
77.170082	224.0
77.184074	136.0
77.224297	232.0
77.259285	104.0
77.27153	72.0
77.290779	200.0
77.308281	56.0
77.349846	160.0
77.401062	208.0
77.416237	132.0
77.432579	124.0
77.467613	64.0
77.513168	60.0
77.551727	184.0
77.578026	76.0
77.600815	192.0
77.62542	132.0
77.63665	120.0
77.653648	220.0
77.667458	36.0
77.718338	144.0
77.767883	224.0
77.821899	60.0
77.835945	200.0
77.862289	156.0
77.903091	140.0
77.953644	44.0
78.023369	140.0
78.045052	88.0
78.076706	144.0
78.106567	192.0
78.134964	100.0
78.160919	152.0
78.180504	124.0
78.22979	212.0
78.243874	188.0
78.294373	260.0
78.360123	96.0
78.390076	180.0
78.434135	124.0
78.448242	360.0
78.460579	140.0
78.497612	148.0
78.546997	148.0
78.575218	96.0
78.58757	204.0
78.599922	104.0
78.612274	200.0
78.630516	168.0
78.65477	208.0
78.689949	48.0
78.750145	184.0
78.836563	116.0
78.859489	172.0
78.935562	128.0
78.96209	88.0
78.981544	152.0
79.01162	140.0
79.067085	140.0
79.12236	112.0
79.158691	136.0
79.197868	192.0
79.2127	96.0
79.238243	144.0
79.266594	160.0
79.311684	96.0
79.354042	204.0
79.381821	204.0
79.397781	164.0
79.436569	148.0
79.481575	156.0
79.513107	160.0
79.532143	160.0
79.587669	152.0
79.605423	168.0
79.658173	276.0
79.707657	160.0
79.726227	160.0
79.740448	104.0
79.778282	212.0
79.829338	160.0
79.88092	176.0
79.894279	128.0
79.941422	136.0
79.963783	184.0
79.991531	196.0
80.041107	36.0
80.053574	184.0
80.069603	188.0
80.140862	104.0
80.159904	168.0
80.183632	240.0
80.201454	108.0
80.250717	152.0
80.299522	92.0
80.356674	168.0
80.415771	200.0
80.438599	204.0
80.472626	192.0
80.490479	136.0
80.540489	52.0
80.569771	180.0
80.5923	132.0
80.604805	112.0
80.701332	132.0
80.724922	148.0
80.757072	284.0
80.838097	176.0
80.858757	36.0
80.876656	216.0
80.891884	140.0
80.908081	204.0
80.920219	144.0
80.927299	152.0
80.953644	220.0
81.04142	96.0
81.061127	112.0
81.161865	164.0
81.192001	108.0
81.21711	128.0
81.240433	168.0
81.270935	140.0
81.283493	160.0
81.311684	136.0
81.346085	156.0
81.382225	84.0
81.436096	148.0
81.491791	136.0
81.538513	128.0
81.561882	152.0
81.667969	144.0
81.712944	272.0
81.752937	124.0
81.77137	136.0
81.807129	216.0
81.821854	172.0
81.85334	168.0
81.909561	168.0
81.927193	304.0
81.943405	152.0
81.968636	184.0
82.067772	76.0
82.12188	100.0
82.138115	180.0
82.22435	156.0
82.296928	76.0
82.325829	136.0
82.380013	188.0
82.414337	200.0
82.433388	156.0
82.439552	84.0
82.444588	152.0
82.458824	156.0
82.479637	152.0
82.553535	164.0
82.587898	172.0
82.608246	176.0
82.659561	176.0
82.694656	112.0
82.720795	200.0
82.725647	228.0
82.770691	84.0
82.787674	204.0
82.814545	204.0
82.863068	160.0
82.881187	156.0
82.924683	196.0
82.94825	148.0
82.988136	168.0
83.017143	176.0
83.05735	144.0
83.091515	112.0
83.14016	228.0
83.178627	224.0
83.203224	168.0
83.234909	76.0
83.251259	180.0
83.303932	48.0
83.318466	104.0
83.356049	140.0
83.373558	172.0
83.407509	84.0
83.423874	168.0
83.443871	164.0
83.476601	216.0
83.522072	156.0
83.5439	188.0
83.561302	144.0
83.576653	232.0
83.594742	348.0
83.630318	148.0
83.640961	108.0
83.662193	160.0
83.709579	176.0
83.731392	216.0
83.797462	208.0
83.858932	172.0
83.905655	152.0
83.971977	68.0
83.995689	56.0
84.008461	116.0
84.080658	136.0
84.103348	216.0
84.185509	136.0
84.209251	96.0
84.22654	224.0
84.252472	140.0
84.346298	168.0
84.370064	164.0
84.4048	112.0
84.440132	164.0
84.465157	204.0
84.485283	100.0
84.507423	160.0
84.531181	192.0
84.58593	212.0
84.611565	144.0
84.628929	184.0
84.651848	212.0
84.674873	216.0
84.783752	192.0
84.80912	208.0
84.840576	140.0
84.908226	148.0
84.959396	172.0
84.978134	152.0
85.001984	172.0
85.037476	156.0
85.057045	204.0
85.082748	148.0
85.101105	152.0
85.128654	80.0
85.154121	300.0
85.16906	152.0
85.181915	120.0
85.216827	128.0
85.266441	144.0
85.282982	228.0
85.305046	188.0
85.338814	108.0
85.380295	216.0
85.406181	52.0
85.48719	144.0
85.509224	148.0
85.52433	212.0
85.562607	180.0
85.575493	152.0
85.597588	156.0
85.616005	180.0
85.628899	152.0
85.656525	156.0
85.684395	160.0
85.721016	128.0
85.738617	116.0
85.754189	184.0
85.776306	148.0
85.796585	172.0
85.846283	260.0
85.8685	128.0
85.92569	32.0
85.962456	212.0
85.986588	136.0
86.027199	148.0
86.043808	140.0
86.073357	152.0
86.102905	208.0
86.117676	140.0
86.1343	148.0
86.163002	172.0
86.202667	176.0
86.219299	52.0
86.304337	200.0
86.324593	180.0
86.346954	176.0
86.363869	188.0
86.383865	120.0
86.419014	268.0
86.434837	192.0
86.465279	132.0
86.502724	264.0
86.517113	376.0
86.56337	220.0
86.577599	144.0
86.656013	172.0
86.736519	200.0
86.806259	156.0
86.841766	184.0
86.869225	124.0
86.88868	152.0
86.910042	232.0
86.962006	180.0
87.058548	148.0
87.142761	96.0
87.154869	212.0
87.203468	44.0
87.218208	112.0
87.220985	104.0
87.245781	84.0
87.286728	168.0
87.316887	144.0
87.335487	184.0
87.396881	60.0
87.434517	188.0
87.451553	136.0
87.475975	120.0
87.529037	180.0
87.542076	80.0
87.558838	212.0
87.5756	184.0
87.613556	320.0
87.654274	176.0
87.718132	196.0
87.747047	224.0
87.763832	136.0
87.816833	152.0
87.861122	124.0
87.883209	128.0
87.898132	192.0
87.927994	140.0
87.969063	96.0
88.00267	172.0
88.031395	148.0
88.104225	64.0
88.118469	200.0
88.137154	164.0
88.15712	156.0
88.179092	136.0
88.195	164.0
88.22126	132.0
88.241058	136.0
88.331596	236.0
88.348434	144.0
88.363403	164.0
88.385857	192.0
88.440132	168.0
88.473824	212.0
88.520638	140.0
88.546654	184.0
88.576828	168.0
88.589935	104.0
88.664894	156.0
88.713623	192.0
88.730499	144.0
88.756653	248.0
88.770905	124.0
88.790504	160.0
88.807388	204.0
88.876801	120.0
88.915939	140.0
88.937454	128.0
88.957001	148.0
88.984131	176.0
89.032616	180.0
89.064545	180.0
89.079575	156.0
89.113388	208.0
89.14109	108.0
89.156609	172.0
89.182922	240.0
89.231804	172.0
89.282463	128.0
89.331085	192.0
89.3489	244.0
89.384163	80.0
89.418037	108.0
89.43309	104.0
89.473328	140.0
89.488319	288.0
89.547951	136.0
89.574318	260.0
89.598816	192.0
89.616692	200.0
89.654892	100.0
89.68927	136.0
89.704346	184.0
89.740173	152.0
89.786476	288.0
89.80806	184.0
89.835548	336.0
89.866547	196.0
89.879753	136.0
89.919388	160.0
89.947701	140.0
89.994896	184.0
90.009209	208.0
90.056137	128.0
90.121452	160.0
90.210281	56.0
90.267334	184.0
90.282135	120.0
90.297264	108.0
90.311363	184.0
90.351768	192.0
90.442474	156.0
90.472137	232.0
90.51812	308.0
90.563423	176.0
90.628555	104.0
90.645607	144.0
90.683662	100.0
90.721428	48.0
90.747971	188.0
90.761246	196.0
90.82193	100.0
90.850288	160.0
90.889404	168.0
90.939255	188.0
90.988251	56.0
91.01931	64.0
91.053391	1232.0
91.109505	148.0
91.125679	48.0
91.186493	132.0
91.215004	220.0
91.230217	168.0
91.250648	112.0
91.283455	184.0
91.304375	148.0
91.332901	132.0
91.404915	132.0
91.424232	176.0
91.450874	116.0
91.511795	224.0
91.548347	164.0
91.602272	152.0
91.616104	156.0
91.641319	300.0
91.68055	224.0
91.720688	156.0
91.744232	124.0
91.796036	144.0
91.818138	196.0
91.87249	144.0
91.908264	128.0
91.921623	372.0
91.971245	56.0
92.013245	92.0
92.039978	172.0
92.056923	348.0
92.099808	208.0
92.14312	80.0
92.155983	152.0
92.211914	148.0
92.225296	188.0
92.265434	160.0
92.301765	184.0
92.315155	124.0
92.389542	180.0
92.417076	200.0
92.465576	224.0
92.468971	140.0
92.500488	148.0
92.533234	120.0
92.600319	140.0
92.622726	176.0
92.675034	144.0
92.70163	140.0
92.726776	152.0
92.762184	192.0
92.799622	176.0
92.818794	224.0
92.857559	132.0
92.885925	152.0
92.903679	140.0
92.945396	196.0
92.962044	208.0
92.985703	240.0
93.0355	136.0
93.074699	168.0
93.148911	120.0
93.175812	48.0
93.195023	76.0
93.224251	192.0
93.256523	116.0
93.287277	188.0
93.306503	156.0
93.399818	172.0
93.423012	152.0
93.460838	184.0
93.514259	92.0
93.543663	160.0
93.570091	156.0
93.601036	192.0
93.619423	168.0
93.655518	188.0
93.670235	152.0
93.683716	212.0
93.723351	132.0
93.75116	136.0
93.800606	196.0
93.832115	332.0
93.895752	156.0
93.935616	228.0
93.941689	152.0
93.948296	200.0
93.974846	200.0
93.999329	344.0
94.019226	52.0
94.053307	128.0
94.098694	120.0
94.191071	200.0
94.216187	112.0
94.250969	148.0
94.274155	212.0
94.314743	192.0
94.346863	124.0
94.35025	76.0
94.358238	152.0
94.428825	336.0
94.472275	204.0
94.501678	164.0
94.583618	508.0
94.618332	152.0
94.655258	160.0
94.712364	140.0
94.782387	172.0
94.81411	48.0
94.841248	172.0
94.873642	180.0
94.893593	136.0
94.916862	184.0
94.982803	108.0
95.019661	208.0
95.048767	136.0
95.08564	248.0
95.121567	112.0
95.180763	192.0
95.202484	176.0
95.268478	296.0
95.288292	380.0
95.346428	204.0
95.399147	192.0
95.496483	132.0
95.512932	132.0
95.593933	168.0
95.649704	352.0
95.680801	168.0
95.709679	140.0
95.781738	224.0
95.810188	172.0
95.828499	88.0
95.881111	188.0
95.896255	144.0
95.917419	156.0
95.932877	180.0
95.959389	208.0
95.993744	124.0
96.024414	144.0
96.037094	232.0
96.078644	348.0
96.113976	128.0
96.134644	144.0
96.158066	124.0
96.175629	252.0
96.194725	184.0
96.249123	256.0
96.280327	212.0
96.294373	316.0
96.322197	136.0
96.383347	292.0
96.447014	116.0
96.497742	132.0
96.513618	64.0
96.529259	124.0
96.558121	280.0
96.584023	164.0
96.687607	136.0
96.713173	128.0
96.733864	196.0
96.80323	124.0
96.909386	168.0
96.930565	176.0
96.958725	148.0
96.979561	52.0
97.011505	108.0
97.017914	156.0
97.083885	172.0
97.10701	228.0
97.141312	148.0
97.169785	184.0
97.203384	96.0
97.230614	244.0
97.253082	152.0
97.282425	244.0
97.338593	164.0
97.352333	112.0
97.387383	180.0
97.420456	176.0
97.436066	204.0
97.453667	176.0
97.468956	208.0
97.52523	168.0
97.553391	148.0
97.5616	48.0
97.565964	172.0
97.607803	156.0
97.63665	108.0
97.676643	128.0
97.698746	152.0
97.730644	196.0
97.757057	152.0
97.773056	132.0
97.796677	180.0
97.835655	160.0
97.857704	92.0
97.916779	140.0
97.96312	160.0
98.021919	76.0
98.046814	152.0
98.095642	2112.0
98.116615	136.0
98.17955	172.0
98.226242	116.0
98.251892	168.0
98.280266	136.0
98.320953	144.0
98.342667	168.0
98.394295	188.0
98.411758	172.0
98.451256	156.0
98.495644	156.0
98.510071	72.0
98.530266	164.0
98.546074	100.0
98.569786	172.0
98.591309	184.0
98.599335	164.0
98.613159	148.0
98.674767	180.0
98.717194	120.0
98.735382	168.0
98.769478	216.0
98.813049	156.0
98.866425	36.0
98.902054	208.0
98.931747	172.0
98.953758	136.0
98.996353	176.0
99.018707	144.0
99.066414	152.0
99.096687	344.0
99.132896	144.0
99.18531	196.0
99.203156	124.0
99.266273	164.0
99.33036	216.0
99.382317	216.0
99.418877	180.0
99.468979	128.0
99.504715	112.0
99.5345	140.0
99.550774	324.0
99.574219	188.0
99.647301	208.0
99.671562	100.0
99.73317	148.0
99.764977	72.0
99.806732	148.0
99.82505	164.0
99.838547	124.0
99.866096	160.0
99.894089	160.0
99.910835	188.0
99.943985	152.0
99.96769	140.0
99.980568	184.0
100.000633	204.0
100.019608	156.0
100.075356	136.0
100.093483	152.0
100.145981	164.0
100.190346	136.0
100.244675	148.0
100.266594	44.0
100.296516	192.0
100.328392	76.0
100.354309	124.0
100.378235	196.0
100.402893	428.0
100.432503	172.0
100.495224	136.0
100.525856	112.0
100.545815	56.0
100.619675	104.0
100.668358	200.0
100.693558	160.0
100.758682	192.0
100.780197	208.0
100.809433	92.0
100.823425	168.0
100.874702	184.0
100.911385	176.0
100.933372	176.0
100.95137	312.0
101.023216	196.0
101.056595	280.0
101.104645	124.0
101.131439	208.0
101.147453	144.0
101.169212	124.0
101.187027	156.0
101.234802	128.0
101.28672	124.0
101.329697	204.0
101.34761	132.0
101.391815	96.0
101.410126	240.0
101.427895	208.0
101.449516	276.0
101.463982	108.0
101.506088	136.0
101.530151	172.0
101.544189	384.0
101.574417	172.0
101.602364	164.0
101.616409	352.0
101.696686	112.0
101.712738	248.0
101.744858	160.0
101.785019	112.0
101.803093	120.0
101.822922	160.0
101.847191	172.0
101.856056	76.0
101.876778	236.0
101.957787	188.0
101.977539	116.0
101.996635	196.0
102.011192	232.0
102.054764	200.0
102.080421	152.0
102.096504	168.0
102.247902	160.0
102.304619	244.0
102.390343	148.0
102.428619	184.0
102.444733	380.0
102.481377	172.0
102.551529	252.0
102.576836	104.0
102.613869	256.0
102.630463	184.0
102.6922	120.0
102.724945	196.0
102.739067	184.0
102.791534	164.0
102.856598	200.0
102.882362	320.0
102.896492	188.0
102.916687	156.0
103.027313	160.0
103.034943	124.0
103.053856	1052.0
103.086365	148.0
103.111732	216.0
103.166191	148.0
103.181366	156.0
103.19957	200.0
103.270439	204.0
103.326988	64.0
103.36068	192.0
103.420242	196.0
103.458542	172.0
103.507133	132.0
103.534904	224.0
103.569923	136.0
103.596252	160.0
103.613342	140.0
103.630699	160.0
103.655014	172.0
103.705681	160.0
103.758385	48.0
103.780693	92.0
103.815163	152.0
103.845589	140.0
103.916992	160.0
103.954933	236.0
103.972923	184.0
103.997765	156.0
104.050385	184.0
104.089127	120.0
104.118385	216.0
104.156143	48.0
104.188652	100.0
104.237419	212.0
104.275642	124.0
104.30735	140.0
104.337013	148.0
104.358147	132.0
104.384132	208.0
104.410217	204.0
104.440933	160.0
104.522659	132.0
104.595444	120.0
104.629982	100.0
104.643456	148.0
104.660522	164.0
104.686874	156.0
104.72625	192.0
104.796661	336.0
104.821693	132.0
104.861687	164.0
104.884674	364.0
104.912216	168.0
104.929482	40.0
104.960068	192.0
104.980461	140.0
104.994736	128.0
105.022781	64.0
105.041649	88.0
105.068764	7764.0
105.100815	112.0
105.129669	276.0
105.214035	340.0
105.245743	212.0
105.284538	136.0
105.321304	308.0
105.353821	196.0
105.358704	208.0
105.381264	120.0
105.454521	184.0
105.482735	184.0
105.509315	124.0
105.558388	132.0
105.573288	200.0
105.597244	120.0
105.63166	160.0
105.648827	168.0
105.686806	144.0
105.736374	112.0
105.761353	176.0
105.786026	188.0
105.812111	136.0
105.828491	76.0
105.851021	148.0
105.865356	200.0
105.882729	224.0
105.940689	236.0
105.959579	148.0
105.982117	200.0
106.023575	260.0
106.0718	1372.0
106.139954	100.0
106.175034	152.0
106.19738	264.0
106.228149	164.0
106.250488	180.0
106.290672	120.0
106.330742	172.0
106.389061	168.0
106.417213	164.0
106.436249	112.0
106.455063	144.0
106.478203	224.0
106.502167	180.0
106.52787	92.0
106.542252	180.0
106.567177	184.0
106.59864	140.0
106.614937	192.0
106.638832	56.0
106.66761	120.0
106.686111	172.0
106.743683	180.0
106.758072	160.0
106.774529	144.0
106.80912	132.0
106.892975	132.0
106.963745	164.0
107.015297	76.0
107.033829	108.0
107.075287	336.0
107.158333	144.0
107.175964	240.0
107.200691	148.0
107.219238	112.0
107.233665	228.0
107.25428	184.0
107.289322	136.0
107.312004	156.0
107.347054	88.0
107.370926	216.0
107.408936	136.0
107.444519	128.0
107.482315	200.0
107.543053	140.0
107.578148	156.0
107.619957	144.0
107.652481	184.0
107.667999	132.0
107.691719	100.0
107.714447	100.0
107.730972	164.0
107.757828	168.0
107.78231	160.0
107.831238	168.0
107.857025	204.0
107.879768	316.0
107.914726	176.0
107.933525	148.0
107.960403	188.0
108.007416	148.0
108.073746	176.0
108.099945	248.0
108.159035	196.0
108.177666	112.0
108.198364	188.0
108.285339	140.0
108.299843	144.0
108.316414	68.0
108.355774	120.0
108.429291	176.0
108.446953	160.0
108.496506	84.0
108.523659	192.0
108.548546	140.0
108.573425	156.0
108.727821	180.0
108.768471	112.0
108.787247	256.0
108.811401	88.0
108.839058	152.0
108.897209	84.0
108.916466	528.0
108.949692	196.0
109.009941	140.0
109.05648	128.0
109.148674	192.0
109.179871	144.0
109.196503	176.0
109.274811	56.0
109.312675	420.0
109.348389	104.0
109.39888	156.0
109.438934	152.0
109.459015	280.0
109.475388	112.0
109.502464	120.0
109.537086	180.0
109.566872	148.0
109.58931	164.0
109.61705	140.0
109.639969	132.0
109.65873	92.0
109.706673	164.0
109.756714	212.0
109.813019	152.0
109.848938	232.0
109.87027	208.0
109.931946	292.0
109.946785	176.0
109.985069	176.0
110.017471	840.0
110.054375	172.0
110.096214	248.0
110.142822	188.0
110.181137	152.0
110.205498	112.0
110.221367	188.0
110.261917	112.0
110.313255	152.0
110.352905	164.0
110.393845	156.0
110.461372	124.0
110.508209	252.0
110.530457	244.0
110.546341	40.0
110.565926	212.0
110.598465	204.0
110.621429	220.0
110.652206	160.0
110.718681	188.0
110.747147	180.0
110.76619	136.0
110.780853	156.0
110.826035	240.0
110.878311	80.0
110.921127	200.0
110.980774	220.0
110.996735	212.0
111.024551	1488.0
111.059067	124.0
111.109634	116.0
111.123863	348.0
111.149864	116.0
111.168755	60.0
111.188492	152.0
111.202332	192.0
111.220993	144.0
111.24527	196.0
111.26416	132.0
111.284203	172.0
111.321999	252.0
111.345802	180.0
111.404968	96.0
111.44384	196.0
111.504646	176.0
111.52002	160.0
111.618301	176.0
111.656158	136.0
111.686333	208.0
111.727676	176.0
111.744507	136.0
111.781265	64.0
111.80764	168.0
111.862366	252.0
111.887627	188.0
111.91777	140.0
111.931564	180.0
111.957695	176.0
112.024521	144.0
112.060333	48.0
112.110718	2144.0
112.146736	132.0
112.178833	160.0
112.209984	116.0
112.254265	204.0
112.279022	216.0
112.301559	132.0
112.328087	40.0
112.391556	240.0
112.416702	180.0
112.445473	164.0
112.467354	96.0
112.485275	184.0
112.504234	144.0
112.556023	116.0
112.59404	208.0
112.623199	228.0
112.644539	132.0
112.666359	136.0
112.689102	148.0
112.719154	216.0
112.779968	148.0
112.811684	140.0
112.881454	104.0
112.904716	120.0
112.930099	112.0
112.959709	156.0
112.976639	88.0
112.995644	148.0
113.024536	220.0
113.060318	248.0
113.064804	120.0
113.133591	148.0
113.231346	212.0
113.27301	140.0
113.300041	132.0
113.337677	192.0
113.377914	160.0
113.448425	196.0
113.494469	100.0
113.514633	80.0
113.544044	120.0
113.549545	104.0
113.55574	168.0
113.569778	264.0
113.590988	140.0
113.616447	196.0
113.656761	216.0
113.677979	200.0
113.714058	360.0
113.731041	188.0
113.773499	188.0
113.822334	104.0
113.875427	172.0
113.926582	192.0
113.965103	168.0
114.011398	168.0
114.048157	164.0
114.065636	128.0
114.081543	160.0
114.109184	120.0
114.134697	152.0
114.164474	56.0
114.207069	132.0
114.241989	176.0
114.270828	76.0
114.32238	160.0
114.332115	192.0
114.37085	120.0
114.43898	180.0
114.458145	100.0
114.494347	64.0
114.51564	172.0
114.568565	128.0
114.626427	184.0
114.662964	172.0
114.686104	160.0
114.722343	172.0
114.754318	156.0
114.779907	44.0
114.805397	164.0
114.857063	132.0
114.866806	124.0
114.872528	216.0
114.888687	120.0
115.012459	140.0
115.028999	220.0
115.05349	18540.0
115.10202	160.0
115.109413	156.0
115.115585	224.0
115.146973	152.0
115.169914	252.0
115.208122	128.0
115.243111	36.0
115.275429	188.0
115.320007	156.0
115.35424	84.0
115.371346	192.0
115.386314	300.0
115.432281	228.0
115.468666	108.0
115.495377	156.0
115.515778	164.0
115.540108	184.0
115.565971	152.0
115.580956	116.0
115.625893	36.0
115.722664	136.0
115.741493	292.0
115.764275	132.0
115.783836	220.0
115.827415	140.0
115.865723	240.0
115.918068	168.0
115.940727	172.0
115.972878	196.0
115.993523	152.0
116.032028	272.0
116.061569	43452.0
116.108818	168.0
116.127258	116.0
116.172806	188.0
116.238815	180.0
116.257095	364.0
116.296524	112.0
116.318459	120.0
116.378731	132.0
116.399811	100.0
116.417366	56.0
116.444916	188.0
116.501259	192.0
116.545639	140.0
116.574059	116.0
116.595306	48.0
116.626472	180.0
116.668121	272.0
116.692856	148.0
116.746429	248.0
116.77153	104.0
116.795273	212.0
116.814629	160.0
116.846062	100.0
116.879654	128.0
116.94886	200.0
116.979248	196.0
117.064484	6848.0
117.103836	192.0
117.172722	216.0
117.208633	172.0
117.223724	168.0
117.238808	80.0
117.272354	188.0
117.294846	60.0
117.344429	56.0
117.361679	144.0
117.425362	68.0
117.447945	184.0
117.463043	104.0
117.479332	268.0
117.512436	184.0
117.553665	124.0
117.583878	252.0
117.60762	112.0
117.622734	180.0
117.661591	352.0
117.675987	96.0
117.708275	132.0
117.770126	92.0
117.799927	216.0
117.822533	100.0
117.886841	216.0
117.908546	384.0
117.944527	128.0
117.976967	160.0
118.007286	104.0
118.025452	240.0
118.066116	2028.0
118.10598	176.0
118.131622	180.0
118.150032	72.0
118.167343	76.0
118.193306	60.0
118.212784	144.0
118.263443	168.0
118.303688	192.0
118.46611	200.0
118.48484	124.0
118.533279	128.0
118.563622	196.0
118.591797	168.0
118.613472	144.0
118.627777	120.0
118.665504	52.0
118.693687	68.0
118.780869	128.0
118.855194	168.0
118.915421	188.0
118.946342	176.0
119.02404	168.0
119.045242	124.0
119.07209	436.0
119.156021	76.0
119.17765	184.0
119.206627	220.0
119.287796	208.0
119.362511	224.0
119.390785	132.0
119.432106	180.0
119.462563	144.0
119.538719	176.0
119.556129	148.0
119.585266	176.0
119.606186	288.0
119.630135	144.0
119.64537	128.0
119.672623	140.0
119.730293	168.0
119.75988	192.0
119.81089	192.0
119.880615	200.0
119.90023	184.0
119.946007	124.0
120.00705	384.0
120.021904	128.0
120.078461	204.0
120.094078	148.0
120.123924	196.0
120.170639	168.0
120.18972	188.0
120.209915	100.0
120.229553	220.0
120.250412	144.0
120.264824	112.0
120.278236	148.0
120.323418	152.0
120.353989	204.0
120.377281	204.0
120.410889	188.0
120.439468	112.0
120.482849	168.0
120.519997	256.0
120.554962	216.0
120.596542	144.0
120.663704	112.0
120.686119	136.0
120.701424	108.0
120.740791	168.0
120.760529	148.0
120.804405	144.0
120.852356	148.0
120.876427	100.0
120.898781	160.0
120.940048	172.0
120.988052	144.0
121.0075	136.0
121.056335	108.0
121.083305	136.0
121.138985	208.0
121.167305	148.0
121.215851	144.0
121.237762	180.0
121.264061	128.0
121.295784	204.0
121.318863	120.0
121.336403	28.0
121.359428	232.0
121.403313	140.0
121.42382	240.0
121.489929	140.0
121.544632	244.0
121.564529	204.0
121.589043	332.0
121.611588	172.0
121.674278	128.0
121.806046	80.0
121.845589	208.0
121.904915	116.0
121.920303	248.0
121.948875	192.0
121.965485	136.0
121.986931	192.0
122.017548	328.0
122.089584	156.0
122.12764	172.0
122.161476	240.0
122.232574	140.0
122.288078	360.0
122.338226	188.0
122.388245	144.0
122.435417	228.0
122.479164	156.0
122.523224	168.0
122.548561	88.0
122.584915	104.0
122.647446	184.0
122.663467	120.0
122.717178	144.0
122.741432	56.0
122.763481	116.0
122.810951	260.0
122.830017	120.0
122.837898	92.0
122.873772	184.0
122.905556	184.0
122.949989	188.0
122.989914	140.0
123.025513	21216.0
123.092293	80.0
123.109962	168.0
123.135269	292.0
123.151924	244.0
123.169594	140.0
123.192207	136.0
123.221138	188.0
123.236801	136.0
123.280922	208.0
123.32737	220.0
123.44117	224.0
123.478371	92.0
123.535339	204.0
123.592339	152.0
123.651031	224.0
123.710281	120.0
123.768951	124.0
123.795525	96.0
123.942032	148.0
123.978439	212.0
124.0326	5876.0
124.101326	164.0
124.142609	84.0
124.18338	64.0
124.212212	100.0
124.272858	112.0
124.32093	72.0
124.374199	172.0
124.436363	68.0
124.494095	144.0
124.521553	144.0
124.56295	176.0
124.595695	168.0
124.612328	160.0
124.638489	92.0
124.658493	144.0
124.685158	152.0
124.700714	48.0
124.752449	96.0
124.794029	168.0
124.808296	164.0
124.836517	148.0
124.86525	64.0
124.936272	172.0
124.958679	88.0
124.990486	176.0
125.020554	656.0
125.039185	1200.0
125.066109	204.0
125.083305	100.0
125.101112	104.0
125.118927	88.0
125.157753	204.0
125.186127	132.0
125.204773	148.0
125.279274	44.0
125.294868	244.0
125.368401	48.0
125.38623	260.0
125.424126	136.0
125.453102	84.0
125.47094	172.0
125.508842	176.0
125.598053	60.0
125.6259	180.0
125.65815	128.0
125.703377	192.0
125.732414	128.0
125.758713	200.0
125.776566	216.0
125.794426	120.0
125.865868	52.0
125.8815	168.0
125.932869	168.0
125.967415	172.0
126.028381	312.0
126.043564	288.0
126.082565	192.0
126.124474	408.0
126.151855	348.0
126.201042	88.0
126.238029	156.0
126.261421	192.0
126.305634	204.0
126.386696	156.0
126.402359	168.0
126.426979	184.0
126.465027	224.0
126.491631	140.0
126.520988	184.0
126.542053	176.0
126.566086	172.0
126.653114	160.0
126.697922	144.0
126.733765	104.0
126.803726	200.0
126.866005	132.0
126.895149	112.0
126.95314	144.0
126.978119	144.0
127.025223	144.0
127.083725	108.0
127.12619	92.0
127.14579	144.0
127.162163	148.0
127.215973	196.0
127.262199	184.0
127.295265	140.0
127.328247	100.0
127.343971	108.0
127.364182	136.0
127.409111	148.0
127.446167	448.0
127.507301	132.0
127.539452	180.0
127.583931	204.0
127.622635	156.0
127.703598	168.0
127.719337	128.0
127.736435	220.0
127.743469	132.0
127.749222	184.0
127.768829	200.0
127.817139	188.0
127.896477	216.0
127.948883	112.0
127.963829	176.0
127.988098	96.0
128.005081	104.0
128.060654	312.0
128.10878	136.0
128.141129	636.0
128.171875	96.0
128.189896	60.0
128.22821	168.0
128.285477	208.0
128.390533	136.0
128.464966	216.0
128.544067	148.0
128.564255	172.0
128.602966	288.0
128.624008	176.0
128.645508	40.0
128.672607	144.0
128.787292	168.0
128.826462	156.0
128.844254	180.0
128.937393	204.0
128.967209	224.0
129.020538	184.0
129.068634	2124.0
129.114777	108.0
129.140091	184.0
129.174316	144.0
129.216202	140.0
129.332718	228.0
129.35762	132.0
129.403687	160.0
129.43927	192.0
129.465897	248.0
129.59935	136.0
129.67247	108.0
129.70549	368.0
129.827774	176.0
129.859665	340.0
129.899673	184.0
129.934341	116.0
129.993988	172.0
130.026291	332.0
130.064316	5620.0
130.103241	80.0
130.126175	152.0
130.157639	2848.0
130.212463	252.0
130.241989	40.0
130.275467	196.0
130.336197	164.0
130.376038	92.0
130.406952	144.0
130.426041	156.0
130.444229	160.0
130.48288	152.0
130.512436	116.0
130.540405	124.0
130.567017	132.0
130.598862	136.0
130.635254	196.0
130.676147	160.0
130.700516	200.0
130.73764	216.0
130.890167	284.0
130.928879	188.0
130.949387	156.0
130.967117	148.0
130.989502	184.0
131.033142	232.0
131.071655	4892.0
131.111252	176.0
131.155182	264.0
131.181808	40.0
131.234238	56.0
131.323181	88.0
131.346817	144.0
131.40065	256.0
131.446381	116.0
131.486923	208.0
131.619873	112.0
131.726913	152.0
131.763763	184.0
131.792572	284.0
131.817352	280.0
131.857452	248.0
131.888535	168.0
131.939743	172.0
131.976334	124.0
131.994629	160.0
132.012924	92.0
132.03215	180.0
132.079697	17092.0
132.129227	320.0
132.144455	144.0
132.157852	112.0
132.192566	124.0
132.216141	184.0
132.259888	168.0
132.285995	144.0
132.330994	32.0
132.383652	164.0
132.42218	168.0
132.484436	104.0
132.505325	68.0
132.531921	136.0
132.562347	60.0
132.595596	136.0
132.63797	96.0
132.680008	84.0
132.703339	144.0
132.754913	120.0
132.770966	64.0
132.791611	232.0
132.850006	148.0
132.869507	100.0
132.880203	200.0
132.932617	180.0
132.951843	124.0
132.959351	148.0
132.98288	184.0
133.005768	348.0
133.020706	244.0
133.030731	144.0
133.087799	66308.0
133.130997	32.0
133.139679	96.0
133.155502	132.0
133.210114	104.0
133.250443	172.0
133.312378	164.0
133.342209	96.0
133.408707	68.0
133.465332	348.0
133.489716	160.0
133.526688	236.0
133.54776	192.0
133.584076	184.0
133.613983	100.0
133.632462	204.0
133.652847	132.0
133.696823	144.0
133.730606	136.0
133.754227	200.0
133.787201	168.0
133.813828	204.0
133.848618	268.0
133.865509	164.0
133.909164	196.0
133.969406	168.0
134.017517	38724.0
134.063965	180.0
134.091034	7056.0
134.139191	376.0
134.175949	112.0
134.205933	348.0
134.222061	168.0
134.24968	144.0
134.291946	180.0
134.314316	384.0
134.330475	68.0
134.35257	124.0
134.401993	152.0
134.438919	148.0
134.464722	108.0
134.485077	296.0
134.526627	48.0
134.544052	68.0
134.56337	160.0
134.612961	256.0
134.651718	184.0
134.707932	156.0
134.733368	160.0
134.746979	160.0
134.787613	96.0
134.803787	88.0
134.822281	40.0
134.849945	124.0
134.858414	88.0
134.897995	148.0
134.929382	96.0
134.946426	148.0
134.969849	148.0
135.021683	4652.0
135.045639	292.0
135.049561	120.0
135.09549	368.0
135.133774	132.0
135.171768	196.0
135.225937	156.0
135.244354	164.0
135.275635	124.0
135.308517	272.0
135.352036	148.0
135.369705	252.0
135.430786	144.0
135.463211	144.0
135.495651	152.0
135.518814	212.0
135.580856	176.0
135.620789	144.0
135.659714	192.0
135.694962	52.0
135.742508	56.0
135.76796	160.0
135.794678	64.0
135.834549	172.0
135.882843	128.0
135.935043	144.0
135.957092	32.0
135.974854	128.0
136.013458	1088.0
136.030914	1540.0
136.082443	184.0
136.132858	184.0
136.189041	216.0
136.263611	48.0
136.304871	116.0
136.370499	48.0
136.403046	164.0
136.4263	120.0
136.475113	144.0
136.521622	164.0
136.541367	256.0
136.568146	260.0
136.612335	72.0
136.645828	168.0
136.682144	40.0
136.751968	172.0
136.821793	128.0
136.842758	124.0
136.895538	120.0
137.001312	100.0
137.04039	2724.0
137.073181	160.0
137.082062	152.0
137.113754	336.0
137.147934	208.0
137.196884	132.0
137.250519	120.0
137.360138	120.0
137.409119	188.0
137.45813	40.0
137.495468	44.0
137.517426	204.0
137.535141	44.0
137.56842	124.0
137.607513	156.0
137.679901	80.0
137.733627	112.0
137.749969	172.0
137.778015	160.0
137.827072	108.0
137.851044	132.0
137.880829	104.0
137.927734	112.0
137.960297	48.0
137.981339	104.0
138.043152	864.0
138.088913	64.0
138.124115	168.0
138.18248	172.0
138.245667	128.0
138.269058	196.0
138.333374	144.0
138.379089	156.0
138.402496	220.0
138.452774	120.0
138.482132	136.0
138.502228	176.0
138.526627	168.0
138.554749	124.0
138.614059	152.0
138.675293	164.0
138.695358	180.0
138.711761	136.0
138.756729	132.0
138.861832	192.0
138.901535	172.0
138.93924	152.0
138.969742	108.0
138.98851	88.0
139.038757	344.0
139.094131	152.0
139.131683	168.0
139.162216	116.0
139.206833	160.0
139.253799	176.0
139.314865	116.0
139.333664	152.0
139.446457	168.0
139.465271	80.0
139.493469	156.0
139.519333	112.0
139.662781	52.0
139.69101	152.0
139.719238	116.0
139.768646	56.0
139.808655	68.0
139.827484	152.0
139.862061	220.0
139.883972	268.0
139.904663	104.0
139.962173	168.0
140.013474	164.0
140.037033	148.0
140.070007	148.0
140.104141	156.0
140.143265	2732.0
140.32399	172.0
140.348114	64.0
140.390564	124.0
140.479187	104.0
140.49408	176.0
140.597397	208.0
140.607407	140.0
140.611069	196.0
140.677551	176.0
140.722595	164.0
140.746399	152.0
140.772171	188.0
140.789398	188.0
140.824829	100.0
140.853165	180.0
140.893326	144.0
140.933502	52.0
140.968948	48.0
141.01857	168.0
141.035126	96.0
141.069931	324.0
141.103683	188.0
141.142487	372.0
141.161041	152.0
141.189163	156.0
141.273956	136.0
141.364166	164.0
141.394638	100.0
141.473969	116.0
141.532715	124.0
141.582733	204.0
141.597641	124.0
141.674057	172.0
141.707214	172.0
141.730911	152.0
141.761719	180.0
141.790924	316.0
141.813858	164.0
141.911057	92.0
141.953842	180.0
142.017776	144.0
142.04277	152.0
142.077332	1572.0
142.150635	192.0
142.170288	184.0
142.208572	168.0
142.231339	196.0
142.25032	128.0
142.297806	188.0
142.316193	172.0
142.362854	212.0
142.397537	72.0
142.471237	188.0
142.53009	156.0
142.575729	76.0
142.692215	40.0
142.777863	240.0
142.820633	52.0
142.844864	172.0
142.87059	148.0
142.991943	208.0
143.038437	384.0
143.083847	1056.0
143.122879	160.0
143.1586	176.0
143.175262	184.0
143.274277	256.0
143.291428	136.0
143.330109	244.0
143.387314	116.0
143.413528	156.0
143.456436	80.0
143.473129	176.0
143.49054	216.0
143.591522	184.0
143.622131	156.0
143.659134	228.0
143.704468	72.0
143.831268	156.0
143.868484	128.0
143.901596	148.0
144.079468	5532.0
144.164383	160.0
144.186844	164.0
144.23465	176.0
144.260941	148.0
144.282471	152.0
144.311157	148.0
144.327896	164.0
144.362381	152.0
144.419067	164.0
144.469009	188.0
144.503983	84.0
144.543182	208.0
144.574295	136.0
144.598221	120.0
144.614975	60.0
144.633133	164.0
144.643097	96.0
144.646851	140.0
144.691574	172.0
144.725098	192.0
144.765015	108.0
144.824997	56.0
144.856827	180.0
144.887054	156.0
144.917587	112.0
144.935883	216.0
144.957458	180.0
145.014969	160.0
145.048538	64.0
145.086563	2024.0
145.14444	116.0
145.175613	120.0
145.192749	272.0
145.211975	124.0
145.252365	144.0
145.295547	136.0
145.32193	136.0
145.357925	92.0
145.379532	104.0
145.454208	176.0
145.513306	120.0
145.615097	132.0
145.647385	92.0
145.65213	136.0
145.71936	168.0
145.745529	204.0
145.768555	176.0
145.823837	140.0
145.874313	184.0
145.917831	160.0
145.946442	152.0
145.975296	144.0
146.049744	160.0
146.094315	9244.0
146.158127	140.0
146.17897	156.0
146.201431	244.0
146.242355	44.0
146.376465	172.0
146.396439	104.0
146.418564	112.0
146.439789	220.0
146.459061	208.0
146.480743	112.0
146.50528	148.0
146.531326	144.0
146.567398	120.0
146.618088	80.0
146.655624	132.0
146.675934	156.0
146.724136	120.0
146.810944	64.0
146.909027	196.0
146.941208	236.0
146.981674	192.0
147.001144	264.0
147.02478	4200.0
147.073944	44.0
147.099228	1988.0
147.154785	244.0
147.199478	116.0
147.228455	116.0
147.259857	104.0
147.298508	184.0
147.340347	320.0
147.357712	180.0
147.408157	192.0
147.466843	160.0
147.531754	192.0
147.590942	104.0
147.656235	164.0
147.675583	164.0
147.709457	128.0
147.753006	176.0
147.789291	88.0
147.807404	356.0
147.840103	84.0
147.867096	184.0
147.944199	124.0
147.975662	392.0
148.031433	3080.0
148.077576	144.0
148.116135	96.0
148.150742	124.0
148.179123	64.0
148.234055	216.0
148.266357	124.0
148.309982	184.0
148.360886	188.0
148.39444	148.0
148.418747	212.0
148.462219	232.0
148.537399	228.0
148.566681	168.0
148.623962	216.0
148.634766	100.0
148.642593	220.0
148.678909	392.0
148.698059	120.0
148.721008	168.0
148.745575	56.0
148.750595	156.0
148.784119	124.0
148.794846	92.0
148.800308	204.0
148.831589	168.0
148.861725	156.0
148.887344	104.0
148.911606	168.0
148.921036	216.0
148.926483	228.0
148.952652	168.0
148.972412	444.0
148.99353	192.0
149.041504	161664.0
149.113846	164.0
149.150574	124.0
149.19342	100.0
149.214767	136.0
149.26297	56.0
149.287109	264.0
149.322769	132.0
149.348785	108.0
149.39212	384.0
149.415726	200.0
149.441162	1032.0
149.470825	168.0
149.478516	208.0
149.539032	56.0
149.576538	232.0
149.621094	112.0
149.638077	156.0
149.660156	164.0
149.694839	116.0
149.755966	208.0
149.805695	200.0
149.862198	136.0
149.886993	68.0
149.937393	100.0
149.960388	52.0
149.989426	152.0
150.005524	216.0
150.042755	20776.0
150.106674	120.0
150.12619	40.0
150.185944	84.0
150.20108	124.0
150.261932	172.0
150.30777	164.0
150.357956	36.0
150.39212	32.0
150.40921	204.0
150.429718	204.0
150.493546	192.0
150.512726	228.0
150.552139	96.0
150.566971	52.0
150.595535	116.0
150.626541	60.0
150.655991	68.0
150.67836	124.0
150.702682	192.0
150.746262	136.0
150.784668	216.0
150.825851	116.0
150.841583	160.0
150.872589	176.0
150.901932	140.0
150.916702	116.0
150.948242	212.0
150.965683	408.0
150.984558	132.0
151.043182	9368.0
151.092468	172.0
151.10968	104.0
151.160812	108.0
151.178329	200.0
151.192261	96.0
151.210251	172.0
151.255005	556.0
151.281021	176.0
151.301498	112.0
151.330276	140.0
151.366287	364.0
151.43721	96.0
151.470932	152.0
151.516266	52.0
151.520477	108.0
151.559204	188.0
151.582916	112.0
151.588577	140.0
151.661606	92.0
151.693604	80.0
151.732697	52.0
151.777237	144.0
151.824905	100.0
151.870026	148.0
151.936188	136.0
151.986298	256.0
152.053253	816.0
152.105179	192.0
152.132263	60.0
152.162064	72.0
152.203796	92.0
152.220993	148.0
152.244873	204.0
152.307571	112.0
152.324142	120.0
152.348709	136.0
152.382263	128.0
152.419968	92.0
152.454376	160.0
152.478943	72.0
152.515808	72.0
152.557877	76.0
152.574814	112.0
152.62645	180.0
152.692841	180.0
152.739578	60.0
152.766632	192.0
152.82077	128.0
152.887131	136.0
153.045746	456.0
153.153122	140.0
153.176254	112.0
153.199539	52.0
153.216553	176.0
153.25412	48.0
153.340378	80.0
153.360092	44.0
153.381561	124.0
153.407974	204.0
153.487473	156.0
153.525284	112.0
153.558212	160.0
153.611618	212.0
153.658493	92.0
153.806549	244.0
153.831238	104.0
153.849915	276.0
153.888031	148.0
153.923935	332.0
153.942352	60.0
153.962112	152.0
154.025879	308.0
154.059769	296.0
154.104218	296.0
154.157822	7120.0
154.209167	136.0
154.241302	44.0
154.345154	72.0
154.414398	200.0
154.503036	120.0
154.511551	100.0
154.548553	200.0
154.590286	104.0
154.635071	168.0
154.661362	128.0
154.738571	300.0
154.812805	176.0
154.85495	84.0
154.949081	132.0
155.060608	92.0
155.122574	148.0
155.161362	1332.0
155.208664	88.0
155.254929	188.0
155.398499	184.0
155.444061	164.0
155.551727	112.0
155.576553	32.0
155.643585	88.0
155.703186	164.0
155.755356	172.0
155.894485	188.0
156.054733	216.0
156.087585	112.0
156.143097	228.0
156.166153	384.0
156.195328	96.0
156.220215	224.0
156.337158	180.0
156.493027	104.0
156.513901	116.0
156.538147	196.0
156.584686	120.0
156.681442	212.0
156.728119	104.0
156.780457	220.0
156.823318	140.0
156.845261	176.0
156.927521	148.0
156.957443	104.0
156.979889	424.0
156.997345	128.0
157.100433	252.0
157.193542	168.0
157.240631	188.0
157.274292	116.0
157.361664	188.0
157.38913	40.0
157.449066	68.0
157.469925	92.0
157.494034	168.0
157.588409	92.0
157.718918	188.0
157.777863	144.0
157.796707	172.0
157.828918	192.0
157.84642	156.0
157.903946	44.0
157.92395	220.0
157.99649	100.0
158.05809	176.0
158.105957	376.0
158.134125	64.0
158.176422	160.0
158.343704	176.0
158.405045	144.0
158.439636	52.0
158.479721	120.0
158.502274	96.0
158.519806	64.0
158.574951	236.0
158.753845	152.0
158.850769	168.0
158.867584	108.0
158.874939	76.0
158.884644	80.0
158.921021	140.0
158.981247	192.0
159.00885	48.0
159.040787	204.0
159.103989	568.0
159.204681	120.0
159.321457	100.0
159.367462	140.0
159.447281	108.0
159.476028	172.0
159.518753	132.0
159.58696	124.0
159.63945	204.0
159.687225	188.0
159.72496	156.0
159.780304	60.0
159.797913	168.0
159.880951	84.0
159.933807	80.0
159.994232	64.0
160.011856	108.0
160.037033	160.0
160.109299	1164.0
160.147842	84.0
160.183105	92.0
160.296478	144.0
160.336411	316.0
160.372086	200.0
160.447723	152.0
160.477264	128.0
160.503189	136.0
160.629288	168.0
160.649475	168.0
160.67218	176.0
160.712555	128.0
160.848831	44.0
160.927094	156.0
160.947296	56.0
161.013107	136.0
161.042603	340.0
161.111328	528.0
161.15947	156.0
161.303528	100.0
161.394547	128.0
161.415421	220.0
161.611298	168.0
161.675339	268.0
161.758301	160.0
161.788544	144.0
161.798203	104.0
161.931061	156.0
161.98172	148.0
162.001984	112.0
162.035446	660.0
162.085587	76.0
162.115997	152.0
162.143875	144.0
162.192032	152.0
162.252884	60.0
162.290909	72.0
162.359375	140.0
162.432938	124.0
162.53949	188.0
162.569946	220.0
162.608017	148.0
162.691788	216.0
162.719711	64.0
162.836533	136.0
162.874619	144.0
163.001663	156.0
163.053619	640.0
163.13382	164.0
163.169418	188.0
163.2612	172.0
163.277588	200.0
163.311829	224.0
163.362701	68.0
163.421219	172.0
163.459381	176.0
163.487381	80.0
163.614655	108.0
163.636658	124.0
163.708862	88.0
163.752167	196.0
163.774017	176.0
163.799744	112.0
163.843994	156.0
163.911545	92.0
163.950882	112.0
164.051575	8340.0
164.119934	76.0
164.153488	68.0
164.194397	164.0
164.228516	72.0
164.304276	88.0
164.36911	76.0
164.399811	264.0
164.444672	132.0
164.495224	176.0
164.550339	140.0
164.572464	156.0
164.698456	304.0
164.716339	188.0
164.750961	312.0
164.772537	96.0
164.828751	116.0
164.864532	92.0
164.897095	152.0
164.920761	112.0
164.941208	48.0
164.99649	244.0
165.007202	268.0
165.059784	25428.0
165.1073	200.0
165.131378	320.0
165.168793	304.0
165.193283	168.0
165.21524	52.0
165.23999	72.0
165.370316	228.0
165.417007	152.0
165.469025	76.0
165.501495	36.0
165.524551	160.0
165.617661	200.0
165.662857	148.0
165.683472	80.0
165.713623	128.0
165.761398	252.0
165.792358	96.0
165.846878	488.0
165.875549	264.0
165.899353	56.0
165.936401	132.0
165.97197	184.0
165.992477	228.0
166.02626	388.0
166.067535	90120.0
166.147385	52.0
166.166992	56.0
166.190033	72.0
166.238953	248.0
166.260193	176.0
166.28389	308.0
166.323059	176.0
166.36441	140.0
166.404037	32.0
166.438828	88.0
166.462723	144.0
166.493576	112.0
166.537582	36.0
166.577484	120.0
166.601624	228.0
166.627487	96.0
166.657013	148.0
166.694641	60.0
166.737991	80.0
166.768829	36.0
166.791367	120.0
166.827957	172.0
166.850143	108.0
166.869919	100.0
166.903992	84.0
166.926102	92.0
166.97229	152.0
167.016068	84.0
167.069336	8268.0
167.124924	120.0
167.135315	56.0
167.146545	92.0
167.168518	108.0
167.215912	88.0
167.290833	128.0
167.313187	148.0
167.355392	92.0
167.378754	264.0
167.417191	40.0
167.464722	44.0
167.508804	148.0
167.540833	80.0
167.561676	44.0
167.60524	64.0
167.648239	140.0
167.679977	64.0
167.75087	200.0
167.793396	124.0
167.837234	68.0
167.873337	164.0
167.90686	224.0
167.937805	84.0
167.988998	128.0
168.063705	3276.0
168.108093	32.0
168.140518	92.0
168.1689	156.0
168.206177	144.0
168.234863	160.0
168.284744	168.0
168.319839	144.0
168.377213	128.0
168.404022	128.0
168.433411	148.0
168.485077	36.0
168.549667	164.0
168.601624	192.0
168.686661	132.0
168.719559	204.0
168.769394	88.0
168.789139	132.0
168.823685	112.0
168.854721	68.0
168.885498	336.0
168.953018	136.0
169.042145	108.0
169.066269	152.0
169.114288	164.0
169.17041	132.0
169.232544	88.0
169.277191	108.0
169.307938	116.0
169.387939	84.0
169.609177	160.0
169.826172	128.0
169.845917	196.0
169.942749	108.0
170.020599	176.0
170.046555	72.0
170.102402	148.0
170.228287	196.0
170.436096	108.0
170.464676	132.0
170.563278	184.0
170.667435	60.0
170.800079	124.0
170.884766	180.0
170.910645	144.0
170.984818	132.0
171.035126	220.0
171.117905	96.0
171.154022	136.0
171.234756	108.0
171.323318	76.0
171.341553	168.0
171.365005	56.0
171.406693	76.0
171.451004	144.0
171.594376	124.0
171.706497	52.0
171.766495	124.0
171.805618	40.0
171.852585	196.0
172.105942	312.0
172.241577	200.0
172.449539	204.0
172.521194	48.0
172.610092	168.0
172.641479	140.0
172.684128	156.0
172.777496	108.0
172.879547	124.0
172.913574	176.0
172.944977	48.0
173.01828	56.0
173.088974	380.0
173.112198	200.0
173.159683	160.0
173.180634	140.0
173.206833	240.0
173.264465	108.0
173.293274	152.0
173.324722	180.0
173.386353	216.0
173.446854	140.0
173.555389	120.0
173.586868	144.0
173.671738	220.0
173.7285	116.0
173.807205	172.0
173.86232	96.0
173.930557	80.0
174.125916	1032.0
174.224686	112.0
174.28511	132.0
174.340302	152.0
174.361313	128.0
174.550598	172.0
174.655029	108.0
174.766296	64.0
174.821564	36.0
174.958435	112.0
174.992661	112.0
175.054977	820.0
175.131302	532.0
175.187363	108.0
175.403641	116.0
175.540741	160.0
175.582947	76.0
175.683182	40.0
175.887589	112.0
175.906769	132.0
175.939163	112.0
176.057404	344.0
176.120392	192.0
176.139877	180.0
176.227051	104.0
176.250839	160.0
176.311615	160.0
176.338043	52.0
176.38562	184.0
176.409409	156.0
176.427917	52.0
176.449066	120.0
176.47551	180.0
176.615677	36.0
176.668579	132.0
176.734726	72.0
176.859116	32.0
176.888229	148.0
177.054703	444.0
177.092911	240.0
177.137146	136.0
177.15834	184.0
177.19809	164.0
177.317337	116.0
177.357086	204.0
177.375641	276.0
177.415405	220.0
177.471085	156.0
177.513519	116.0
177.566559	136.0
177.656738	40.0
177.707153	176.0
177.792068	64.0
177.826569	172.0
177.916824	120.0
177.957977	88.0
178.024155	208.0
178.067093	6512.0
178.153183	80.0
178.203201	148.0
178.23555	84.0
178.352493	52.0
178.382828	224.0
178.450851	68.0
178.534286	172.0
178.553406	92.0
178.737671	116.0
178.807312	60.0
178.831268	216.0
178.884674	128.0
178.943085	96.0
178.967041	48.0
179.02829	184.0
179.07486	10792.0
179.121521	156.0
179.164139	52.0
179.225418	76.0
179.358276	80.0
179.377258	132.0
179.39975	76.0
179.431335	212.0
179.518646	204.0
179.578537	88.0
179.713379	140.0
179.751755	168.0
180.023026	176.0
180.079208	1844.0
180.143219	132.0
180.199326	112.0
180.287506	92.0
180.308884	92.0
180.332932	164.0
180.359665	136.0
180.428284	96.0
180.533463	100.0
180.568222	64.0
180.688599	96.0
180.723389	216.0
180.747467	148.0
180.784927	156.0
180.814072	156.0
180.831589	212.0
180.851837	68.0
180.891998	228.0
180.93483	144.0
180.961594	80.0
180.985703	36.0
181.009796	176.0
181.071213	316.0
181.183243	296.0
181.242844	120.0
181.285721	76.0
181.409012	136.0
181.494812	64.0
181.545761	68.0
181.642258	176.0
181.679886	40.0
181.736801	148.0
181.795258	160.0
181.918732	172.0
181.953629	120.0
182.001129	196.0
182.069092	176.0
182.096451	192.0
182.359253	156.0
182.378082	128.0
182.422607	296.0
182.456039	84.0
182.488297	132.0
182.509811	60.0
182.528625	64.0
182.569336	148.0
182.599808	60.0
182.628143	120.0
182.743393	100.0
182.773422	96.0
183.002213	84.0
183.069534	76.0
183.096466	64.0
183.204208	156.0
183.367126	96.0
183.390137	184.0
183.406738	172.0
183.471008	184.0
183.675964	180.0
183.702942	160.0
183.829758	152.0
183.870239	44.0
183.913422	172.0
183.986313	160.0
184.028702	188.0
184.075409	144.0
184.237473	32.0
184.323929	200.0
184.353653	180.0
184.440384	136.0
184.490158	348.0
184.526657	116.0
184.843124	120.0
185.010941	148.0
185.105713	164.0
185.233002	48.0
185.44165	160.0
185.609741	180.0
185.63414	108.0
185.693802	80.0
185.799866	120.0
185.821304	140.0
185.851151	132.0
185.935272	228.0
185.981415	104.0
186.049286	60.0
186.129333	132.0
186.184128	1848.0
186.23938	120.0
186.299133	40.0
186.334457	84.0
186.35347	108.0
186.40239	156.0
186.538284	136.0
186.889114	104.0
187.082367	52.0
187.120483	148.0
187.146622	156.0
187.21579	68.0
187.262085	164.0
187.343796	204.0
187.378494	256.0
187.411911	128.0
187.507294	64.0
187.560226	220.0
187.583618	136.0
187.62178	120.0
187.927261	108.0
187.969543	152.0
188.014572	144.0
188.142609	124.0
188.235703	204.0
188.257553	36.0
188.325836	172.0
188.364731	232.0
188.508881	172.0
188.588135	240.0
188.610001	100.0
188.634613	160.0
188.686554	140.0
188.839691	76.0
188.867035	196.0
188.998367	136.0
189.064255	148.0
189.146149	172.0
189.272095	112.0
189.387115	32.0
189.406281	136.0
189.597992	112.0
189.651047	184.0
189.800949	108.0
189.820145	152.0
189.874985	148.0
189.989578	208.0
190.014893	68.0
190.06662	284.0
190.316803	80.0
190.377228	128.0
190.396454	120.0
190.445892	164.0
190.536285	132.0
190.58252	136.0
190.640381	116.0
190.726151	120.0
190.775635	180.0
190.891113	140.0
190.990128	136.0
191.042404	144.0
191.087082	1800.0
191.279068	104.0
191.317596	172.0
191.350632	60.0
191.529648	140.0
191.634338	84.0
191.776352	180.0
191.831009	176.0
191.918228	116.0
191.970627	36.0
192.025787	144.0
192.083191	10992.0
192.143433	68.0
192.178436	120.0
192.23912	160.0
192.298935	180.0
192.354141	56.0
192.404587	132.0
192.436966	184.0
192.515152	64.0
192.651337	156.0
192.713165	164.0
192.743561	244.0
192.766907	196.0
192.834763	128.0
192.866501	100.0
192.911484	180.0
192.946503	124.0
193.100418	8804.0
193.16658	44.0
193.203415	228.0
193.255112	388.0
193.296616	104.0
193.31424	76.0
193.37178	124.0
193.408966	128.0
193.448837	80.0
193.504211	92.0
193.528351	56.0
193.573441	44.0
193.695984	196.0
193.723007	72.0
193.889252	52.0
193.925293	60.0
193.950241	128.0
194.104172	1556.0
194.154297	140.0
194.238617	120.0
194.271072	120.0
194.321381	72.0
194.409058	112.0
194.484848	120.0
194.521667	80.0
194.541107	120.0
194.561249	164.0
194.592148	144.0
194.630783	120.0
194.677155	68.0
194.699371	60.0
194.808426	276.0
194.8452	124.0
194.916061	64.0
194.999435	36.0
195.096802	412.0
195.182922	132.0
195.266342	88.0
195.303955	92.0
195.347015	104.0
195.366486	36.0
195.466644	64.0
195.488907	160.0
195.616943	100.0
195.644791	184.0
195.664276	152.0
195.731094	112.0
195.781219	204.0
195.839706	68.0
195.8815	144.0
195.94278	32.0
195.976227	144.0
196.082123	40.0
196.104416	152.0
196.149017	160.0
196.439667	88.0
196.475296	80.0
196.494827	156.0
196.555069	228.0
196.8367	208.0
196.961029	168.0
197.015381	164.0
197.095139	144.0
197.117493	148.0
197.259552	160.0
197.388657	152.0
197.520096	236.0
197.617767	132.0
197.673981	296.0
197.785934	92.0
197.822327	100.0
197.847519	204.0
197.92218	156.0
197.987534	60.0
198.043549	32.0
198.068756	116.0
198.088364	84.0
198.141586	84.0
198.189224	212.0
198.215225	128.0
198.25647	48.0
198.287308	84.0
198.306931	184.0
198.42746	224.0
198.567673	52.0
198.735992	192.0
198.789307	28.0
198.834213	112.0
198.886642	188.0
199.008255	40.0
199.039154	156.0
199.114975	80.0
199.263077	160.0
199.314438	196.0
199.370636	96.0
199.407166	88.0
199.474625	36.0
199.553345	108.0
199.640518	156.0
199.713654	48.0
199.77272	52.0
200.003464	224.0
200.048508	48.0
200.081482	152.0
200.116074	132.0
200.147049	180.0
200.307587	104.0
200.375931	168.0
200.434372	96.0
200.471878	180.0
200.496368	88.0
200.576279	148.0
200.634491	224.0
200.771103	204.0
200.80481	108.0
200.823425	192.0
200.94191	32.0
201.102768	180.0
201.133804	144.0
201.215683	88.0
201.331451	148.0
201.390762	164.0
201.438782	84.0
201.532013	84.0
201.597015	188.0
201.650711	104.0
201.896683	164.0
201.957367	132.0
201.987198	172.0
202.156555	420.0
202.261673	52.0
202.403229	96.0
202.440842	176.0
202.468369	112.0
202.655334	184.0
202.794189	148.0
202.825378	128.0
202.850891	156.0
202.870728	140.0
202.969955	136.0
203.012497	52.0
203.083405	132.0
203.103256	164.0
203.276321	164.0
203.33876	196.0
203.605637	72.0
203.753357	144.0
203.949432	188.0
204.078659	128.0
204.102951	176.0
204.128555	200.0
204.15921	148.0
204.193954	188.0
204.230942	148.0
204.270752	196.0
204.359207	160.0
204.415863	192.0
204.467087	120.0
204.740402	168.0
204.783127	200.0
205.102692	132.0
205.150711	156.0
205.227692	164.0
205.309616	160.0
205.347473	116.0
205.421631	176.0
205.484406	140.0
205.624222	180.0
205.664185	144.0
205.755539	64.0
205.82692	216.0
205.88118	100.0
205.986862	128.0
206.006851	184.0
206.098297	8400.0
206.221161	164.0
206.309784	40.0
206.33551	120.0
206.386978	60.0
206.575745	108.0
206.631088	184.0
206.655853	52.0
206.698776	160.0
206.724533	120.0
206.761734	144.0
206.801804	284.0
206.844742	92.0
206.909225	76.0
206.952332	172.0
207.010803	176.0
207.04985	204.0
207.105682	2904.0
207.142548	108.0
207.187515	132.0
207.2285	56.0
207.253494	124.0
207.305862	96.0
207.348862	164.0
207.380386	212.0
207.409042	68.0
207.442551	64.0
207.475891	88.0
207.54953	112.0
207.578201	36.0
207.621216	128.0
207.661087	196.0
207.724472	136.0
207.756042	152.0
207.803604	180.0
207.83403	220.0
207.866776	332.0
207.91098	140.0
207.956909	336.0
208.005096	248.0
208.025604	388.0
208.114822	92728.0
208.18454	96.0
208.22023	56.0
208.260391	132.0
208.282028	140.0
208.3311	108.0
208.353531	100.0
208.393982	200.0
208.433228	112.0
208.437897	108.0
208.471252	132.0
208.50676	132.0
208.54805	160.0
208.588791	156.0
208.615311	136.0
208.671127	68.0
208.706711	76.0
208.738892	64.0
208.784927	60.0
208.809998	104.0
208.846054	140.0
208.879272	68.0
208.913803	36.0
208.959824	36.0
209.010544	160.0
209.043274	140.0
209.117294	9880.0
209.215759	136.0
209.255371	140.0
209.33403	60.0
209.35675	92.0
209.387466	72.0
209.426193	28.0
209.460754	76.0
209.480927	124.0
209.543945	96.0
209.600967	156.0
209.622101	84.0
209.679733	84.0
209.702805	144.0
209.755783	84.0
209.794281	76.0
209.858887	192.0
209.896515	164.0
209.921906	252.0
209.946213	48.0
209.992157	156.0
210.031509	52.0
210.073074	172.0
210.111252	2940.0
210.17334	92.0
210.251648	156.0
210.296967	124.0
210.375	120.0
210.428864	316.0
210.453506	124.0
210.481537	124.0
210.539108	184.0
210.54715	96.0
210.557297	192.0
210.599442	116.0
210.673752	116.0
210.678879	156.0
210.706284	140.0
210.756149	108.0
210.81395	104.0
210.834167	76.0
210.861191	104.0
210.882584	256.0
210.9151	68.0
210.941116	48.0
210.961349	40.0
211.089569	300.0
211.113953	332.0
211.15509	48.0
211.209427	56.0
211.238846	96.0
211.314194	124.0
211.346024	28.0
211.369171	48.0
211.418365	144.0
211.525757	76.0
211.55658	168.0
211.647049	52.0
211.687592	128.0
211.739731	88.0
211.768692	112.0
211.820831	92.0
211.844009	140.0
211.870071	132.0
211.910645	48.0
211.930923	40.0
212.110611	48.0
212.183075	120.0
212.270065	52.0
212.315277	136.0
212.34346	156.0
212.365768	48.0
212.435394	168.0
212.502121	144.0
212.523788	124.0
212.556091	140.0
212.624008	108.0
212.690765	136.0
212.713974	124.0
212.754166	180.0
213.024704	188.0
213.068283	64.0
213.146729	72.0
213.280426	128.0
213.405426	60.0
213.453705	180.0
213.536301	148.0
213.818512	184.0
213.959106	160.0
213.983017	156.0
214.077621	152.0
214.199951	76.0
214.261124	188.0
214.296143	208.0
214.348541	124.0
214.386414	132.0
214.450546	212.0
214.543823	148.0
214.610886	116.0
214.756699	40.0
214.836853	108.0
214.987183	68.0
215.065994	104.0
215.171204	152.0
215.340454	156.0
215.375504	180.0
215.53035	124.0
215.606323	196.0
215.810944	152.0
216.173004	440.0
216.604065	52.0
216.765213	216.0
216.876587	68.0
216.935211	108.0
216.961594	92.0
217.093536	56.0
217.266602	36.0
217.372238	176.0
217.405106	80.0
217.456039	116.0
217.848312	136.0
218.088593	48.0
218.215256	160.0
218.262299	116.0
218.403458	132.0
218.518188	124.0
218.588821	164.0
218.63205	168.0
218.662384	96.0
218.724197	108.0
218.847855	100.0
218.942078	148.0
218.96991	196.0
219.018661	52.0
219.103516	124.0
219.14534	184.0
219.168915	228.0
219.189545	192.0
219.304474	128.0
219.392914	76.0
219.743881	68.0
219.856018	188.0
219.934128	248.0
219.977036	108.0
220.000641	80.0
220.031647	112.0
220.078613	236.0
220.114426	2044.0
220.195526	164.0
220.266418	224.0
220.501984	144.0
220.67131	68.0
220.704941	148.0
221.119827	480.0
221.168304	180.0
221.189026	112.0
221.258865	88.0
221.325211	128.0
221.437759	136.0
221.479218	104.0
221.579941	84.0
221.62439	72.0
221.787384	72.0
221.85556	148.0
222.015686	116.0
222.074997	184.0
222.130203	1084.0
222.161453	240.0
222.24707	112.0
222.282684	108.0
222.317047	144.0
222.460754	108.0
222.534988	172.0
222.573578	124.0
222.704834	164.0
222.903305	100.0
223.08461	100.0
223.105423	108.0
223.132523	380.0
223.352249	192.0
223.471954	152.0
223.524811	140.0
223.637909	108.0
223.658737	52.0
223.703384	176.0
223.780792	152.0
223.876083	124.0
224.087585	116.0
224.118713	128.0
224.138031	172.0
224.287247	128.0
224.484024	36.0
224.660004	168.0
224.725647	144.0
224.782333	120.0
224.803223	104.0
224.943512	92.0
225.048004	120.0
225.173431	164.0
225.194336	128.0
225.292908	256.0
225.376572	116.0
225.406448	128.0
225.574768	152.0
225.600723	40.0
225.642578	128.0
225.675476	180.0
225.75621	184.0
225.786118	128.0
225.98056	96.0
226.555405	176.0
226.615326	136.0
226.744171	52.0
227.112976	176.0
227.271973	36.0
227.383011	164.0
227.581131	84.0
227.692245	224.0
227.734299	188.0
227.761337	148.0
227.833435	140.0
227.947601	144.0
228.040771	140.0
228.175308	164.0
228.215134	112.0
228.260239	208.0
228.344452	168.0
228.371521	144.0
228.488831	64.0
228.532166	120.0
228.807861	336.0
228.837967	136.0
228.961426	128.0
228.994568	204.0
229.183151	140.0
229.216385	140.0
229.350113	112.0
229.446579	120.0
229.600357	156.0
229.627502	156.0
229.861969	224.0
230.062027	260.0
230.186462	472.0
230.218964	164.0
230.252258	148.0
230.288498	136.0
230.445587	160.0
230.626923	132.0
230.835526	176.0
231.032135	112.0
231.104752	92.0
231.183426	136.0
231.204605	116.0
231.233826	196.0
231.259079	104.0
231.283295	136.0
231.341736	128.0
231.425583	80.0
231.461929	48.0
231.492203	148.0
231.658798	140.0
231.78302	92.0
231.889084	132.0
231.910309	112.0
231.946671	168.0
231.965744	124.0
232.189606	168.0
232.237778	80.0
232.365189	100.0
232.489594	56.0
232.547256	128.0
232.701736	140.0
232.771927	152.0
233.110153	140.0
233.188126	44.0
233.446548	112.0
233.510422	140.0
233.543869	136.0
233.709381	160.0
233.835968	40.0
233.963821	152.0
234.061249	52.0
234.087997	184.0
234.130005	3912.0
234.183075	136.0
234.21962	396.0
234.262268	140.0
234.289688	60.0
234.38414	128.0
234.426804	72.0
234.598694	204.0
234.640167	108.0
234.81691	120.0
234.881088	92.0
234.936005	40.0
235.08551	92.0
235.136597	1008.0
235.174026	152.0
235.235077	192.0
235.430481	48.0
235.577103	168.0
235.610703	152.0
235.785614	184.0
235.879639	196.0
235.93161	100.0
235.968292	140.0
236.026382	64.0
236.124252	144.0
236.270004	148.0
236.298615	124.0
236.390411	48.0
236.509766	52.0
236.953827	108.0
237.088654	416.0
237.110107	88.0
237.143417	152.0
237.238846	132.0
237.284836	188.0
237.318558	136.0
237.487228	184.0
237.519058	128.0
237.542435	64.0
237.757217	116.0
237.95369	192.0
237.996674	36.0
238.230087	180.0
238.371429	176.0
238.605026	152.0
238.691116	88.0
238.780304	120.0
238.823364	100.0
238.875656	176.0
238.98027	104.0
239.091049	196.0
239.171066	140.0
239.531342	144.0
239.571396	168.0
239.722382	208.0
239.750107	132.0
239.987473	172.0
240.280487	120.0
240.342194	92.0
240.680756	176.0
240.740402	176.0
240.817612	264.0
240.916473	80.0
240.964386	120.0
240.987534	136.0
241.154404	64.0
241.188766	140.0
241.219315	156.0
241.259506	152.0
241.562576	128.0
241.695618	136.0
241.726562	48.0
241.763687	212.0
241.961792	112.0
242.079468	156.0
242.234329	136.0
242.256012	160.0
242.333466	188.0
242.528702	180.0
242.631012	140.0
242.863586	72.0
243.08696	44.0
243.254562	168.0
243.288788	192.0
243.329071	128.0
243.384964	136.0
243.453278	344.0
243.534042	224.0
243.89447	204.0
244.014359	184.0
244.077896	120.0
244.124542	152.0
244.205185	708.0
244.298737	56.0
244.424942	156.0
244.460526	172.0
244.482315	108.0
244.644165	164.0
245.002319	140.0
245.211838	2000.0
245.29837	160.0
245.410599	180.0
245.613312	148.0
245.66011	48.0
245.738113	92.0
245.781784	140.0
246.000259	160.0
246.205688	176.0
246.303177	88.0
246.325043	116.0
246.478134	112.0
246.756317	152.0
246.809464	104.0
246.943939	200.0
246.972092	96.0
247.075333	176.0
247.133301	112.0
247.216141	272.0
247.278732	140.0
247.360107	168.0
247.425858	152.0
247.548431	164.0
247.991486	160.0
248.145203	4624.0
248.202896	132.0
248.268753	160.0
248.391083	124.0
248.497742	108.0
248.556595	132.0
248.693985	152.0
248.745071	168.0
248.839859	52.0
248.899521	188.0
248.930923	128.0
249.078949	180.0
249.106812	124.0
249.149582	1204.0
249.196259	144.0
249.370758	52.0
249.408478	36.0
249.439911	60.0
249.540512	80.0
249.691452	116.0
249.899078	52.0
250.139252	152.0
250.182327	144.0
250.536774	120.0
250.613815	100.0
250.654785	64.0
250.812363	112.0
250.85965	72.0
251.149765	80.0
251.23494	212.0
251.316971	32.0
251.405319	204.0
251.440033	84.0
251.654694	84.0
251.784164	128.0
252.046371	164.0
252.160141	56.0
252.198074	92.0
252.422546	96.0
252.723053	176.0
252.779999	116.0
252.811646	40.0
252.893936	196.0
253.007904	44.0
253.03006	204.0
253.327759	128.0
253.4133	140.0
253.625626	176.0
253.674759	176.0
253.999802	116.0
254.177475	76.0
254.342514	132.0
254.43457	136.0
254.587296	208.0
254.621918	108.0
254.742615	108.0
255.247971	164.0
255.311584	56.0
255.394272	96.0
255.550156	128.0
255.769745	52.0
255.88588	176.0
255.948029	144.0
256.062683	108.0
256.123199	92.0
256.374908	100.0
256.416321	112.0
256.559967	72.0
256.751099	160.0
256.811707	76.0
256.881866	88.0
256.983978	156.0
257.14032	120.0
257.191406	76.0
257.236084	128.0
257.724731	76.0
257.782257	140.0
257.817413	68.0
257.858948	136.0
257.930542	184.0
258.226654	100.0
258.376984	124.0
258.508179	44.0
258.578583	200.0
258.831512	108.0
258.873138	96.0
258.962799	152.0
259.10376	32.0
259.190277	196.0
259.222321	136.0
259.254364	80.0
259.404999	100.0
259.446686	124.0
259.469116	44.0
259.68396	152.0
259.882874	172.0
259.959869	104.0
260.040131	140.0
260.091461	28.0
260.113953	52.0
260.137817	144.0
260.319427	136.0
260.357971	132.0
260.383667	188.0
260.544281	124.0
260.70816	104.0
260.733856	180.0
260.769226	152.0
260.875275	124.0
261.005829	160.0
261.016754	96.0
261.027679	160.0
261.055359	68.0
261.125977	204.0
261.167847	164.0
261.351288	76.0
261.377838	220.0
261.445374	184.0
261.495514	176.0
261.506744	144.0
261.589447	92.0
261.612	208.0
261.721466	152.0
261.760101	92.0
261.782654	184.0
261.973755	168.0
262.032654	220.0
262.066101	56.0
262.11142	328.0
262.160919	18252.0
262.227234	68.0
262.277985	108.0
262.338745	156.0
262.391632	136.0
262.431305	144.0
262.481934	176.0
262.51416	72.0
262.559326	120.0
262.59317	112.0
262.720612	76.0
262.762543	92.0
262.811798	136.0
262.948883	388.0
263.027161	140.0
263.100555	132.0
263.129761	128.0
263.165436	5484.0
263.279022	140.0
263.362976	76.0
263.398529	88.0
263.501892	56.0
263.727905	64.0
263.876831	68.0
264.116119	60.0
264.159637	1680.0
264.219666	56.0
264.488251	168.0
264.51416	56.0
264.544434	136.0
264.682495	120.0
264.747284	120.0
264.94693	140.0
264.990204	88.0
265.080933	100.0
265.158478	464.0
265.301361	96.0
265.488495	100.0
265.512115	28.0
265.570496	124.0
265.726227	100.0
265.875488	100.0
265.917664	140.0
265.976685	108.0
266.02478	144.0
266.122192	88.0
266.164398	100.0
266.213104	144.0
266.252075	180.0
266.297546	44.0
266.385254	104.0
266.498962	120.0
266.726471	124.0
266.784973	176.0
266.807739	32.0
267.025604	76.0
267.158112	100.0
267.233795	52.0
267.272858	144.0
267.406281	72.0
267.5495	116.0
267.676483	180.0
267.741608	32.0
267.796997	148.0
267.937073	116.0
268.067413	96.0
268.129333	160.0
268.181458	164.0
268.32489	100.0
268.393372	120.0
268.448822	128.0
268.621674	88.0
268.649597	36.0
268.673431	152.0
268.801117	196.0
268.866394	92.0
269.134064	96.0
269.163452	60.0
269.454163	156.0
269.633881	132.0
269.905243	108.0
269.95755	48.0
269.990265	44.0
270.081848	84.0
270.160339	148.0
270.183258	164.0
270.215973	76.0
270.386139	96.0
270.418854	172.0
270.481049	204.0
270.536682	140.0
270.775726	132.0
270.998505	36.0
271.057465	124.0
271.218079	140.0
271.296753	120.0
271.332794	132.0
271.391815	144.0
271.486908	172.0
271.516449	92.0
271.559082	72.0
271.690277	92.0
272.188782	168.0
272.239502	224.0
272.274567	52.0
272.389526	120.0
272.458527	56.0
272.626099	164.0
272.698395	148.0
272.727997	128.0
273.076508	84.0
273.175201	236.0
273.237701	120.0
273.264038	144.0
273.336426	220.0
273.366028	116.0
273.494385	76.0
273.566803	136.0
273.619476	168.0
273.954071	128.0
274.031189	76.0
274.321198	140.0
274.350861	52.0
274.469574	76.0
274.515747	108.0
274.66745	268.0
274.779633	144.0
274.809326	124.0
275.053528	116.0
275.106354	132.0
275.231812	180.0
275.367218	172.0
275.591858	144.0
275.648041	96.0
275.710815	164.0
275.823181	148.0
275.869476	84.0
275.902527	80.0
276.048035	124.0
276.129059	120.0
276.177124	692.0
276.279541	136.0
276.473297	104.0
276.547607	64.0
276.584015	76.0
276.636963	160.0
276.703186	112.0
276.81012	188.0
276.900177	260.0
276.974731	100.0
277.02774	52.0
277.086304	136.0
277.12381	28.0
277.182983	2100.0
277.299469	32.0
277.322662	96.0
277.355804	96.0
277.387299	112.0
277.425415	68.0
277.514923	76.0
277.538147	76.0
277.579926	160.0
277.644348	148.0
277.697327	160.0
277.734955	104.0
277.821808	120.0
277.887665	192.0
277.902283	144.0
277.990173	104.0
278.03244	200.0
278.087219	164.0
278.140594	184.0
278.192841	57656.0
278.26651	108.0
278.293671	112.0
278.323792	172.0
278.380341	60.0
278.417267	120.0
278.44632	108.0
278.47052	116.0
278.550415	72.0
278.583954	80.0
278.610565	184.0
278.67334	52.0
278.711945	32.0
278.75293	84.0
278.793701	88.0
278.842804	88.0
278.905945	124.0
278.984802	144.0
279.028961	112.0
279.057068	124.0
279.102112	116.0
279.195404	6832.0
279.29834	56.0
279.321625	68.0
279.396698	112.0
279.454681	40.0
279.534546	52.0
279.564484	48.0
279.627747	96.0
279.654358	36.0
279.720947	48.0
279.748901	160.0
279.8974	64.0
279.977325	184.0
280.032471	52.0
280.073242	128.0
280.188965	2968.0
280.260468	120.0
280.285339	120.0
280.367096	56.0
280.422424	124.0
280.523773	96.0
280.553772	60.0
280.607117	84.0
280.705902	140.0
280.753845	256.0
280.811371	64.0
280.847229	156.0
280.948456	184.0
281.007355	68.0
281.044037	36.0
281.097076	112.0
281.134155	112.0
281.187317	292.0
281.192352	380.0
281.26767	112.0
281.317047	260.0
281.374481	128.0
281.401184	68.0
281.461304	56.0
281.581512	72.0
281.621613	32.0
281.644989	96.0
281.688416	36.0
281.77356	164.0
281.842102	104.0
281.949036	160.0
282.099457	148.0
282.169647	108.0
282.68158	224.0
282.761749	72.0
282.788513	116.0
283.063049	48.0
283.361145	80.0
283.471741	140.0
283.545471	48.0
284.014862	176.0
284.045074	136.0
284.076874	168.0
284.175903	52.0
284.286621	100.0
284.608887	68.0
284.632385	84.0
284.723083	160.0
285.385071	36.0
285.549866	148.0
285.630585	88.0
285.741608	52.0
285.832458	124.0
285.909851	140.0
286.044495	132.0
286.334076	80.0
286.360443	96.0
286.600189	84.0
286.947357	156.0
286.973755	116.0
287.068756	168.0
287.183411	132.0
287.223907	180.0
287.310303	184.0
287.446564	104.0
287.480316	160.0
287.817902	136.0
287.858398	180.0
288.040802	72.0
288.307709	132.0
288.68634	116.0
288.916351	136.0
289.222656	228.0
289.41391	128.0
289.596771	68.0
290.001068	184.0
290.101685	52.0
290.186035	624.0
290.291534	148.0
290.403473	236.0
290.457733	176.0
290.536743	220.0
290.590057	176.0
290.817413	80.0
290.993958	96.0
291.021118	160.0
291.194153	172.0
291.292816	120.0
291.347168	136.0
291.598602	132.0
291.656403	108.0
291.816193	64.0
291.86377	120.0
291.938599	104.0
292.05423	124.0
292.222076	156.0
292.357025	220.0
292.387665	104.0
292.479584	52.0
292.510193	140.0
292.629364	244.0
292.677032	40.0
292.704285	148.0
292.833679	224.0
292.976746	44.0
293.185669	140.0
293.323181	188.0
293.438782	144.0
293.569855	108.0
293.641449	68.0
293.907562	132.0
293.979218	76.0
294.149872	100.0
294.3479	88.0
294.399109	132.0
294.76123	192.0
294.798828	116.0
294.858246	128.0
294.897949	96.0
295.056824	200.0
295.106476	120.0
295.137238	128.0
295.393738	140.0
295.434814	164.0
295.516907	84.0
295.866028	208.0
295.948181	120.0
296.133118	32.0
296.246155	100.0
296.361725	148.0
296.40033	168.0
296.595673	120.0
296.938568	56.0
297.118652	232.0
297.281647	52.0
297.624908	96.0
297.782898	124.0
297.940918	188.0
297.989014	160.0
298.112701	92.0
298.340454	200.0
298.545868	84.0
298.683441	100.0
298.876099	168.0
298.965576	128.0
299.402802	148.0
299.6026	80.0
299.681824	32.0
299.730072	160.0
299.905853	56.0
299.943756	124.0
300.026489	52.0
300.48175	120.0
300.605957	60.0
300.668091	76.0
300.737122	116.0
300.871735	40.0
300.961517	180.0
301.120361	128.0
301.329559	180.0
301.458954	164.0
301.524597	152.0
301.569519	76.0
301.687073	112.0
301.776947	136.0
302.046722	124.0
302.143585	140.0
302.493103	156.0
302.579651	136.0
302.635712	144.0
302.794342	68.0
302.971008	128.0
303.019501	120.0
303.068024	128.0
303.217041	148.0
303.422363	52.0
303.601868	168.0
304.004303	108.0
304.049408	92.0
304.211243	148.0
304.27066	80.0
304.38269	152.0
304.461578	132.0
304.486847	124.0
304.525055	40.0
304.608429	156.0
304.723083	136.0
304.782135	48.0
304.809937	44.0
304.841217	76.0
304.938538	40.0
305.056122	120.0
305.101898	148.0
305.162018	140.0
305.214722	7540.0
305.317505	104.0
305.421844	216.0
305.536652	28.0
305.567963	32.0
305.627106	56.0
305.700165	52.0
305.766571	100.0
305.849854	144.0
305.905548	164.0
305.982117	132.0
306.034363	116.0
306.220703	1396.0
306.274658	28.0
306.41748	164.0
306.616119	68.0
306.671875	132.0
306.839203	48.0
307.211578	248.0
307.254242	104.0
307.397308	160.0
307.43219	48.0
307.634644	208.0
307.82666	116.0
307.889526	196.0
307.920959	48.0
308.05719	156.0
308.144531	196.0
308.186462	144.0
308.214417	132.0
308.242371	104.0
308.392639	136.0
308.419006	148.0
308.497528	40.0
308.710815	132.0
309.022125	136.0
309.162109	104.0
309.302094	156.0
309.344116	60.0
309.442139	144.0
309.687256	124.0
309.760834	172.0
309.893951	208.0
310.111237	84.0
310.156799	108.0
310.332092	48.0
310.816132	100.0
311.27951	176.0
311.325165	48.0
311.419983	148.0
311.486725	52.0
311.978699	100.0
312.305756	100.0
312.555542	128.0
312.629425	192.0
312.661102	136.0
312.791321	96.0
312.841553	164.0
312.92865	144.0
312.960327	40.0
313.6297	60.0
313.686096	96.0
313.753082	244.0
313.79184	124.0
313.837677	152.0
313.869415	152.0
314.229187	116.0
314.465637	128.0
314.658661	88.0
314.737457	132.0
314.896393	200.0
314.952911	212.0
315.080078	124.0
315.129547	132.0
315.507721	132.0
315.679077	160.0
315.705719	160.0
315.794159	112.0
316.024109	116.0
316.23642	104.0
316.2966	124.0
316.328461	128.0
316.590485	80.0
316.647125	32.0
316.686096	140.0
316.880951	92.0
316.909271	172.0
317.001404	196.0
317.047485	84.0
317.08078	164.0
317.231812	136.0
317.256622	100.0
317.313354	56.0
317.373627	136.0
317.507599	144.0
317.558044	100.0
317.596802	176.0
317.646576	104.0
317.675079	128.0
317.785065	92.0
317.838287	120.0
317.898621	144.0
317.923462	76.0
317.992004	192.0
318.071259	320.0
318.11969	172.0
318.179047	216.0
318.2323	236.0
318.278595	196.0
318.310425	84.0
318.368622	132.0
318.416962	76.0
318.444031	112.0
318.505066	184.0
318.56189	172.0
318.613037	200.0
318.654968	120.0
318.678467	104.0
318.767242	20.0
318.777496	140.0
318.81842	108.0
318.857513	132.0
318.93927	80.0
318.992584	252.0
319.028137	84.0
319.127686	188.0
319.177246	216.0
319.212708	316.0
319.262634	168.0
319.345215	212.0
319.3927	216.0
319.469269	136.0
319.514954	212.0
319.537781	156.0
319.599854	264.0
319.653137	284.0
319.68689	136.0
319.720154	144.0
319.747437	128.0
319.795532	268.0
319.822235	236.0
319.86026	208.0
319.909912	264.0
319.941925	228.0
319.970123	268.0
320.005951	224.0
320.046967	360.0
320.10495	300.0
320.174469	520.0
320.240509	214816.0
320.384521	368.0
320.419006	172.0
320.47287	160.0
320.493958	120.0
320.569092	380.0
320.618805	292.0
320.664062	88.0
320.69809	132.0
320.735046	156.0
320.747101	92.0
320.785645	228.0
320.829163	1328.0
320.871368	336.0
320.916718	308.0
320.971375	104.0
321.000031	200.0
321.056335	392.0
321.095673	180.0
321.161438	196.0
321.243439	51024.0
321.381104	164.0
321.415527	80.0
321.424194	44.0
321.468231	224.0
321.581055	104.0
321.614929	240.0
321.654694	228.0
321.676788	104.0
321.704132	216.0
321.742828	204.0
321.779266	100.0
321.853333	88.0
321.88739	256.0
321.931	80.0
321.981873	152.0
321.993896	96.0
322.002502	112.0
322.045135	176.0
322.072205	68.0
322.098358	108.0
322.130585	76.0
322.189941	176.0
322.23764	8648.0
322.323944	220.0
322.38736	80.0
322.455536	148.0
322.479767	144.0
322.520691	132.0
322.551575	108.0
322.566956	64.0
322.576416	84.0
322.624756	140.0
322.717834	72.0
322.76062	128.0
322.79068	128.0
322.852081	84.0
322.891571	212.0
322.93512	88.0
323.012848	232.0
323.027313	184.0
323.082672	88.0
323.12085	196.0
323.160187	152.0
323.191711	128.0
323.238342	1656.0
323.314423	220.0
323.360565	216.0
323.386993	168.0
323.414093	256.0
323.439728	264.0
323.498505	152.0
323.543701	296.0
323.596741	136.0
323.612091	72.0
323.620819	244.0
323.67337	128.0
323.679443	120.0
323.744171	108.0
323.773895	104.0
323.855499	148.0
323.889008	56.0
323.9151	76.0
323.985962	76.0
324.071198	100.0
324.139282	140.0
324.191254	88.0
324.233673	136.0
324.353394	144.0
324.397339	56.0
324.440918	80.0
324.469055	128.0
324.533569	144.0
324.586456	196.0
324.621429	88.0
324.659088	136.0
324.70929	68.0
324.809723	72.0
324.859955	44.0
324.940369	96.0
325.00705	104.0
325.091705	88.0
325.207886	100.0
325.283417	44.0
325.328369	76.0
325.336182	40.0
325.35025	104.0
325.416229	96.0
325.454224	132.0
325.495239	36.0
325.573883	40.0
325.778992	60.0
325.861603	36.0
325.990967	68.0
326.149109	28.0
326.18866	84.0
326.235382	44.0
326.289307	60.0
326.321686	40.0
326.37561	104.0
326.469116	28.0
326.713684	56.0
326.811951	52.0
326.86264	100.0
326.897217	112.0
326.990784	92.0
327.13208	128.0
327.622253	76.0
327.648254	68.0
327.721802	64.0
327.808289	52.0
327.920013	76.0
327.988495	52.0
328.6521	56.0
328.807251	100.0
329.27301	100.0
329.764374	88.0
330.129547	68.0
330.16571	64.0
330.238037	52.0
330.295898	72.0
330.46698	124.0
331.063232	68.0
331.505188	48.0
332.168701	52.0
332.248505	120.0
332.662231	64.0
332.98175	40.0
333.399567	108.0
333.966766	136.0
334.03952	88.0
334.141388	56.0
334.312408	68.0
334.352417	96.0
334.379974	48.0
334.739197	84.0
334.767456	80.0
334.887634	64.0
335.190033	100.0
335.255615	112.0
335.372253	80.0
335.463379	100.0
335.503479	80.0
336.050568	52.0
336.282959	76.0
336.38266	36.0
336.492188	100.0
336.583466	48.0
336.663818	96.0
337.332458	104.0
337.460419	76.0
337.610352	152.0
337.635956	76.0
338.209076	144.0
338.251984	248.0
338.58017	144.0
339.102264	112.0
339.24707	136.0
339.921936	48.0
340.134827	64.0
340.252289	208.0
340.505676	60.0
340.711365	132.0
341.012695	96.0
341.049438	40.0
341.281067	104.0
342.083099	88.0
342.337158	60.0
342.716583	88.0
342.978241	64.0
343.232635	132.0
344.14035	76.0
344.520752	84.0
344.668549	156.0
344.857025	44.0
345.289612	148.0
345.448669	44.0
345.670654	76.0
346.718719	92.0
346.837311	52.0
346.892914	80.0
347.515991	108.0
347.994781	88.0
349.883514	72.0
349.976624	64.0
350.516724	60.0
350.632263	124.0
350.717987	72.0
350.934204	88.0
352.513184	100.0
352.54306	72.0
353.111359	68.0
353.171204	140.0
353.38443	100.0
353.848541	48.0
354.223053	76.0
357.324005	100.0
358.174835	76.0
359.241638	96.0
360.064514	76.0
360.340271	48.0
362.360687	76.0
365.215454	100.0
366.14798	44.0
366.323181	68.0
366.490814	52.0
366.58609	76.0
368.134918	32.0
368.501617	84.0
369.545441	84.0
372.562775	100.0
372.820221	48.0
373.639252	48.0
377.198761	108.0
378.502594	76.0
379.021667	96.0
380.157867	108.0
382.727386	68.0
383.116852	84.0
383.580597	28.0
390.031677	68.0
390.141754	52.0
390.833984	56.0
391.101593	40.0
392.30307	108.0
393.080078	36.0
393.210297	76.0
393.427399	84.0
394.130432	104.0
395.012115	88.0
395.245544	76.0
395.308838	40.0
398.306244	88.0
400.310791	80.0
400.713104	84.0
400.872498	132.0
402.120789	60.0
402.168671	56.0
402.292419	48.0
402.903442	112.0
404.07489	108.0
404.971588	68.0
405.61673	48.0
405.877319	76.0
406.784058	76.0
407.932983	64.0
408.829926	56.0
408.894318	112.0
409.897095	92.0
410.292084	64.0
411.123016	84.0
412.427582	100.0
412.779327	36.0
414.175629	60.0
416.621765	100.0
417.674652	60.0
419.156616	52.0
419.845551	84.0
419.971985	52.0
421.221069	68.0
421.735931	88.0
423.220978	28.0
430.718445	40.0
430.982849	96.0
431.127472	72.0
435.211975	72.0
435.90567	88.0
438.802734	52.0
438.852753	64.0
439.753845	64.0
441.918579	72.0
443.862122	132.0
444.017303	60.0
445.679688	36.0
445.978088	84.0
446.941162	48.0
448.343445	64.0
450.229279	88.0
452.66095	56.0
453.588806	96.0
456.646027	32.0
456.800934	76.0
456.914032	92.0
457.49707	56.0
457.748291	136.0
457.816437	68.0
457.927155	108.0
462.748444	48.0
465.119202	48.0
465.514191	68.0
465.90506	108.0
466.016785	28.0
466.652893	112.0
469.917694	88.0
470.426971	48.0
470.690338	84.0
471.550049	92.0
472.142365	92.0
473.063995	44.0
473.609619	68.0
474.849243	48.0
475.022766	84.0
476.529236	72.0
477.194244	64.0
477.289886	92.0
478.852234	80.0
478.961121	92.0
479.026459	68.0
482.653351	100.0
482.983765	40.0
485.951599	56.0
486.228058	44.0
486.535339	88.0
488.583344	80.0
489.331543	96.0
495.315613	52.0
496.698639	40.0
496.769592	72.0
499.030182	120.0
501.129456	112.0
502.080536	60.0
502.276794	96.0
504.844971	72.0
504.929962	56.0
506.433807	60.0
507.72464	96.0
508.568146	120.0
509.376404	60.0
510.288696	100.0
512.543762	100.0
512.593323	40.0
513.95575	88.0
514.609619	96.0
514.663818	40.0
515.029602	64.0
517.340393	48.0
518.028748	60.0
519.683533	28.0
520.1828	84.0
521.713745	104.0
521.86377	124.0
521.909241	32.0
522.577881	84.0
524.996704	80.0
525.927429	48.0
526.466187	112.0
527.462219	84.0
528.129822	76.0
528.189331	92.0
528.683472	108.0
530.721924	72.0
530.776978	68.0
531.487976	40.0
534.856689	64.0
536.141785	84.0
537.409912	40.0
537.765198	80.0
538.074524	76.0
538.656433	80.0
540.926941	52.0
541.14917	156.0
541.658569	64.0
543.392456	96.0
544.580872	64.0
545.393982	108.0
548.284363	104.0
548.759888	72.0
548.974365	84.0
549.202881	48.0
551.696533	120.0
554.11145	96.0
555.170837	56.0
555.794739	52.0
557.067078	56.0
560.921143	92.0
561.4823	88.0
561.52002	60.0
564.741211	88.0
567.127625	48.0
567.473694	92.0
570.108215	112.0
574.250305	68.0
576.145386	48.0
576.580261	48.0
577.62738	104.0
579.178345	68.0
581.417419	64.0
583.232971	124.0
583.858032	60.0
585.489502	56.0
585.706299	88.0
589.426025	52.0
590.204285	120.0
590.320312	116.0
590.562134	156.0
595.413818	112.0
598.258362	44.0
598.662537	140.0
599.359131	112.0
600.577942	68.0
600.968201	100.0
601.651489	60.0
605.445984	48.0
606.798401	88.0
608.638428	88.0
609.47345	116.0
613.913696	76.0
617.365723	108.0
617.568481	36.0
617.860352	68.0
619.335571	124.0
620.039124	80.0
627.114685	88.0
628.777649	52.0
630.150879	96.0
631.195557	44.0
632.411255	36.0
632.856812	100.0
635.739197	80.0
638.537537	80.0
639.453247	80.0
642.491821	164.0
643.49115	80.0
649.838135	112.0
650.264404	76.0
651.005676	212.0
652.209778	120.0
656.78241	80.0
656.909912	136.0
657.246643	48.0
658.124573	128.0
658.655762	48.0
661.125305	88.0
661.278809	132.0
662.098022	104.0
662.487305	104.0
664.030212	136.0
664.563721	140.0
666.735901	68.0
668.999146	64.0
669.153564	80.0
671.426086	100.0
674.276001	80.0
676.060242	152.0
678.370361	80.0
679.044434	84.0
681.473938	128.0
686.221619	80.0
687.112671	48.0
690.22052	128.0
691.66449	68.0
691.784912	76.0
693.188599	52.0
693.351074	52.0
693.869995	68.0
695.575012	148.0
698.296814	72.0
698.959656	176.0
699.543884	184.0
700.233704	56.0
700.850037	44.0
701.218933	68.0
701.96759	80.0
704.023376	100.0
705.33606	80.0
705.579224	60.0
707.430847	44.0
712.686829	136.0
718.682434	80.0
720.182556	52.0
723.460571	76.0
727.395386	112.0
729.006714	124.0
729.329224	160.0
730.17334	80.0
732.175476	176.0
734.80603	168.0
736.150085	152.0
737.722412	88.0
739.967651	124.0
740.45166	116.0
741.853027	192.0
743.322876	60.0
744.97345	64.0
746.886902	124.0
748.966248	68.0
749.353088	88.0
752.238098	64.0
753.193726	168.0
757.438538	72.0
758.638672	88.0
759.143066	80.0
760.21283	124.0
760.503723	120.0
762.656921	132.0
764.703003	144.0
768.26825	132.0
772.251038	116.0
772.937073	220.0
773.318909	192.0
779.219299	120.0
780.786926	88.0
783.603638	84.0
784.333679	144.0
784.846558	168.0
785.276001	140.0
786.710083	44.0
787.648254	56.0
789.984924	96.0
790.035278	52.0
793.401123	168.0
796.566223	184.0
799.501282	92.0
799.540649	40.0
799.833374	224.0
802.740601	192.0
802.8703	72.0
805.410156	80.0
806.868164	56.0
807.757812	116.0
808.24823	144.0
808.41803	172.0
810.320618	56.0
813.053833	64.0
814.121155	120.0
814.274475	48.0
815.479004	144.0
818.716309	224.0
821.389526	72.0
821.429443	196.0
821.766052	192.0
823.724243	60.0
828.546936	156.0
829.125671	196.0
829.670227	140.0
830.409363	164.0
831.270508	196.0
832.723022	96.0
833.469849	244.0
833.625	120.0
836.454773	64.0
839.819885	40.0
840.016052	196.0
840.414124	116.0
841.886108	208.0
844.157288	120.0
845.997253	208.0
846.367798	188.0
849.393127	160.0
851.256226	268.0
851.889282	36.0
851.982239	140.0
852.877197	84.0
854.057556	156.0
854.959351	180.0
855.93158	144.0
856.886841	164.0
860.859131	76.0
860.929199	112.0
861.776245	144.0
862.442444	56.0
863.097229	116.0
863.46344	180.0
864.571411	144.0
867.705322	212.0
867.892944	204.0
867.980896	72.0
868.385559	48.0
868.672974	128.0
872.648987	64.0
873.190002	144.0
873.842957	60.0
874.696289	44.0
875.750305	56.0
876.027161	232.0
878.916138	124.0
881.319397	36.0
881.579407	176.0
881.762634	228.0
882.767639	204.0
883.039734	224.0
885.039978	64.0
885.158386	148.0
885.898743	200.0
888.471741	180.0
888.946411	184.0
891.832825	40.0
893.033936	180.0
894.390564	188.0
895.527832	96.0
896.224854	156.0
898.723267	156.0
902.007996	172.0
903.030518	152.0
905.712036	176.0
907.354065	144.0
907.929749	208.0
908.829529	220.0
909.855896	88.0
910.282227	128.0
910.594482	160.0
911.495667	120.0
911.838196	280.0
912.126709	168.0
913.912903	132.0
913.973083	104.0
914.725403	164.0
914.884705	204.0
916.273132	160.0
917.146973	112.0
921.014771	140.0
924.999756	72.0
925.387207	172.0
925.829224	124.0
926.404663	220.0
926.483459	132.0
927.234802	132.0
927.307556	132.0
927.937988	144.0
930.59552	116.0
930.686584	148.0
931.58551	96.0
934.418579	240.0
934.783691	136.0
935.733215	100.0
938.0849	52.0
938.292175	116.0
938.926331	84.0
939.713257	176.0
940.018372	128.0
940.178711	176.0
940.427246	64.0
941.12323	180.0
941.935486	32.0
943.628357	184.0
945.163635	132.0
949.169739	84.0
949.549988	140.0
950.414978	180.0
951.091736	172.0
951.556641	128.0
953.694458	60.0
953.823547	168.0
954.180115	216.0
954.524414	140.0
955.213257	148.0
955.385559	52.0
955.89624	100.0
956.025452	92.0
956.831848	124.0
956.961121	128.0
958.383972	216.0
958.963257	140.0
959.092712	216.0
960.140869	52.0
960.702148	68.0
960.77002	84.0
960.985962	140.0
961.430298	52.0
961.65863	192.0
962.646423	132.0
964.697815	136.0
965.272827	180.0
966.677063	156.0
967.13501	184.0
967.946106	180.0
968.838013	152.0
969.600159	180.0
971.317688	176.0
971.559631	80.0
972.155273	188.0
973.763245	148.0
974.378235	180.0
975.360168	92.0
976.454468	104.0
976.628662	204.0
977.051636	124.0
978.713501	48.0
978.844238	172.0
981.979065	392.0
982.365784	96.0
983.701233	124.0
984.350586	44.0
985.662415	152.0
986.081116	176.0
988.025879	172.0
988.08844	132.0
988.319946	128.0
989.083496	148.0
992.5979	68.0
993.577026	188.0
994.310913	164.0
994.379944	96.0
994.461548	128.0
995.453491	172.0
995.554016	204.0
996.062744	128.0
996.200928	108.0
997.693542	192.0
997.941833	56.0
998.87262	156.0
999.237549	156.0
999.495483	128.0
999.961182	184.0
1000.659973	176.0
1000.987366	120.0
1001.044067	112.0
1001.988892	100.0
1002.077087	192.0
1003.325012	192.0
1003.640259	164.0
1004.649414	136.0
1006.006226	128.0
1006.17041	124.0
1006.353516	264.0
1007.408203	192.0
1007.711487	152.0
1008.558289	44.0
1009.361267	232.0
1009.784973	180.0
1009.943115	196.0
1012.01886	184.0
1012.633118	72.0
1012.918152	136.0
1013.54541	76.0
1013.634094	164.0
1013.767212	152.0
1014.172852	112.0
1014.965271	164.0
1015.537964	200.0
1016.475037	116.0
1016.766968	184.0
1017.319214	176.0
1018.093811	136.0
1020.661194	136.0
1020.769287	60.0
1021.290771	152.0
1021.958801	172.0
1022.270569	36.0
1022.633362	48.0
1023.327271	160.0
1023.418884	124.0
1023.881287	236.0
1024.116943	132.0
1024.28894	52.0
1025.276489	224.0
1026.111572	152.0
1026.200806	160.0
1026.577026	184.0
1026.793945	92.0
1028.210205	152.0
1028.299561	96.0
1029.091187	112.0
1029.908691	208.0
1030.170532	108.0
1030.387817	148.0
1030.477173	144.0
1031.966431	120.0
1032.247803	164.0
1032.938599	160.0
1033.258423	56.0
1033.955933	208.0
1034.122314	196.0
1034.276001	120.0
1034.660034	44.0
1035.146729	204.0
1035.404663	100.0
1036.767456	200.0
1036.927734	184.0
1037.677734	160.0
1037.966309	136.0
1038.787231	56.0
1040.331787	188.0
1040.62915	196.0
1041.341919	144.0
1041.695312	184.0
1041.926514	144.0
1042.080688	152.0
1042.332642	184.0
1042.504883	132.0
1042.768311	52.0
1043.044678	192.0
1043.30188	48.0
1043.364868	216.0
1043.382812	172.0
1043.96875	228.0
1044.530151	80.0
1044.716675	192.0
1045.031982	172.0
1046.084717	176.0
1046.299927	68.0
1046.505981	136.0
1046.621826	208.0
1048.14209	88.0
1049.218384	144.0
1050.243774	212.0
1050.30188	164.0
1050.495361	188.0
1051.243774	164.0
1051.314819	152.0
1051.650391	140.0
1053.400391	148.0
1053.503662	152.0
1053.871948	148.0
1053.968872	200.0
1054.750977	144.0
1055.390991	48.0
1055.817749	184.0
1055.888916	68.0
1055.966553	72.0
1056.076538	100.0
1056.568115	64.0
1056.755737	252.0
1057.713623	104.0
1057.797729	176.0
1058.12793	68.0
1058.296265	120.0
1058.814331	208.0
1059.377808	212.0
1059.79895	52.0
1060.615601	80.0
1060.725708	156.0
1060.868408	152.0
1061.127686	124.0
1061.335205	132.0
1061.529663	164.0
1061.646484	128.0
1061.737183	80.0
1061.886353	120.0
1062.048584	32.0
1062.937378	68.0
1063.398193	196.0
1063.703247	164.0
1064.112305	160.0
1065.27478	192.0
1065.755615	224.0
1065.911499	144.0
1066.372925	224.0
1066.54187	184.0
1066.639404	80.0
1066.834473	188.0
1067.497681	196.0
1068.915771	144.0
1069.605713	176.0
1069.813965	136.0
1070.074463	148.0
1070.19165	56.0
1071.201172	188.0
1071.337891	196.0
1071.611572	112.0
1072.504395	144.0
1073.854126	200.0
1074.434692	200.0
1075.57666	204.0
1076.11853	168.0
1076.379761	168.0
1077.271606	144.0
1078.163208	164.0
1078.26123	136.0
1078.829712	136.0
1078.93457	156.0
1079.267944	84.0
1079.522949	136.0
1079.902344	172.0
1080.818237	216.0
1081.230469	124.0
1081.852295	256.0
1081.930908	112.0
1082.435059	136.0
1082.814941	216.0
1083.280029	72.0
1083.515869	168.0
1083.568237	84.0
1084.348022	168.0
1084.544678	96.0
1085.154419	156.0
1085.534668	112.0
1086.098755	92.0
1086.498901	200.0
1086.774414	52.0
1086.973389	156.0
1087.621094	164.0
1088.303833	176.0
1088.62561	80.0
1088.947388	160.0
1089.670044	172.0
1090.747803	192.0
1092.141846	200.0
1092.516846	208.0
1092.832642	120.0
1093.287598	144.0
1093.747437	64.0
1093.813232	152.0
1093.918579	172.0
1094.116089	152.0
1094.32019	240.0
1094.497925	72.0
1095.17627	144.0
1097.212524	188.0
1097.364136	60.0
1097.713623	180.0
1098.472168	116.0
1098.630493	140.0
1099.230957	164.0
1099.818237	132.0
1100.405884	56.0
1100.973755	208.0
1101.231323	132.0
1101.574829	200.0
1102.123169	208.0
1102.294922	184.0
1102.513062	168.0
1102.658447	164.0
1103.240112	132.0
1103.445068	152.0
1103.617065	68.0
1105.085449	176.0
1106.707031	180.0
1107.276611	144.0
1108.555664	200.0
1109.012573	184.0
1110.842651	208.0
1110.941284	164.0
1111.088135	180.0
1112.189697	140.0
1112.634521	132.0
1112.734131	208.0
1112.900146	148.0
1113.258667	56.0
1113.400024	268.0
1114.640503	140.0
1115.019287	64.0
1115.285156	144.0
1115.371582	184.0
1115.418091	188.0
1115.916626	188.0
1116.156006	120.0
1116.262451	84.0
1116.76123	252.0
1116.894287	120.0
1117.120483	284.0
1117.273438	124.0
1117.679321	216.0
1118.284912	160.0
1118.571167	172.0
1119.296875	208.0
1119.618774	192.0
1119.689819	136.0
1120.069458	128.0
1120.555786	160.0
1120.995605	224.0
1121.055542	144.0
1121.475464	184.0
1122.095337	140.0
1122.308716	152.0
1122.422119	124.0
1122.928955	132.0
1123.89624	112.0
1123.976318	164.0
1124.123169	128.0
1124.290039	108.0
1124.52356	52.0
1124.657104	48.0
1124.977539	140.0
1125.044312	116.0
1125.725342	164.0
1125.925659	172.0
1126.065918	188.0
1126.613647	164.0
1127.197632	152.0
1127.408813	172.0
1127.696289	144.0
1127.876709	188.0
1128.518555	164.0
1128.779297	108.0
1129.187256	172.0
1130.849365	232.0
1131.166626	180.0
1131.328491	72.0
1132.265991	128.0
1132.654419	100.0
1132.828613	224.0
1134.242554	184.0
1135.429321	104.0
1135.516602	208.0
1135.825073	216.0
1135.87207	136.0
1136.308105	124.0
1136.519165	172.0
1136.764404	172.0
1137.38855	216.0
1137.482544	116.0
1138.268066	160.0
1138.650879	180.0
1138.929932	184.0
1139.410034	156.0
1140.229736	164.0
1141.231445	156.0
1142.529541	156.0
1142.637207	112.0
1142.912964	104.0
1143.21582	100.0
1143.518677	132.0
1144.097656	176.0
1144.191895	132.0
1144.925781	212.0
1145.390625	40.0
1146.509033	188.0
1146.571899	232.0
1146.724731	160.0
1148.100098	224.0
1148.309204	168.0
1148.356445	116.0
1148.498047	156.0
1148.585693	104.0
1148.653198	152.0
1149.004028	148.0
1149.098511	44.0
1149.240112	160.0
1149.348145	148.0
1149.550537	176.0
1149.820557	124.0
1150.83313	120.0
1151.204468	36.0
1151.332764	124.0
1151.582764	180.0
1152.231201	120.0
1152.508301	92.0
1152.832642	160.0
1153.623413	208.0
1153.724854	176.0
1154.218384	192.0
1154.881714	148.0
1155.172119	164.0
1155.578003	48.0
1155.692993	208.0
1155.91626	168.0
1156.038086	92.0
1156.342651	160.0
1156.518677	200.0
1156.606689	188.0
1156.70813	136.0
1156.999268	80.0
1157.195679	204.0
1157.270142	44.0
1157.419067	180.0
1158.121216	136.0
1159.085449	64.0
1159.275146	204.0
1159.356567	228.0
1159.654785	152.0
1159.864868	208.0
1159.946167	152.0
1161.044678	180.0
1161.471924	148.0
1161.716309	156.0
1161.912842	208.0
1162.089355	40.0
1162.319946	136.0
1162.808594	236.0
1163.209106	184.0
1163.66394	136.0
1164.064575	188.0
1164.118896	132.0
1164.492432	144.0
1164.546753	184.0
1164.730225	208.0
1164.845703	60.0
1165.253296	208.0
1166.877686	256.0
1167.183716	164.0
1167.265259	220.0
1167.333252	144.0
1167.428467	156.0
1167.85022	148.0
1168.700562	88.0
1169.687378	156.0
1169.83606	372.0
1170.22522	152.0
1170.340942	232.0
1170.878906	144.0
1171.392822	164.0
1171.684937	136.0
1171.907593	200.0
1171.996216	132.0
1172.18042	116.0
1172.40625	188.0
1172.541382	176.0
1172.786743	168.0
1172.861694	140.0
1172.950317	160.0
1173.134399	184.0
1173.659424	136.0
1174.04126	116.0
1174.218628	124.0
1174.314087	80.0
1174.546021	116.0
1174.75061	172.0
1175.037109	184.0
1175.166748	164.0
1175.796021	156.0
1176.245117	148.0
1176.477051	176.0
1176.593262	72.0
1177.37561	212.0
1177.535645	204.0
1178.109375	136.0
1178.389526	132.0
1178.478394	128.0
1178.594482	188.0
1178.860962	128.0
1179.457153	164.0
1179.599243	200.0
1179.715454	132.0
1180.023071	132.0
1180.371826	140.0
1180.624878	96.0
1180.8573	96.0
1181.175659	128.0
1181.377197	164.0
1181.514038	184.0
1181.78772	176.0
1182.266724	124.0
1182.465942	164.0
1182.678589	164.0
1183.820801	92.0
1184.108398	196.0
1185.225098	156.0
1185.293579	168.0
1186.307983	108.0
1186.705688	152.0
1187.192505	148.0
1187.850952	120.0
1188.17334	204.0
1188.269409	92.0
1188.331177	104.0
1188.76355	136.0
1189.01001	184.0
1189.256836	220.0
1189.902954	172.0
1190.12146	168.0
1190.198242	156.0
1190.4729	144.0
1190.582764	136.0
1191.702515	176.0
1191.915527	120.0
1191.970459	68.0
1192.08728	176.0
1192.925781	124.0
1193.365845	120.0
1193.826538	164.0
1193.991577	108.0
1194.466187	196.0
1195.030396	132.0
1195.37439	76.0
1195.821777	140.0
1196.709839	128.0
1196.875	116.0
1197.136719	188.0
1198.411133	64.0
1198.56665	160.0
1199.114014	84.0
1199.272583	124.0
1199.92749	84.0
1200.35498	72.0
1200.775635	48.0
1200.92041	152.0
1201.030884	124.0
1201.281494	168.0
1201.665527	136.0
1201.713867	308.0
1201.996704	152.0
1202.513672	180.0
1202.776611	104.0
1202.914673	148.0
1203.2323	172.0
1203.287476	144.0
1203.377197	76.0
1203.908936	120.0
1204.806885	316.0
1205.034912	148.0
1205.470215	168.0
1205.974731	120.0
1206.050781	100.0
1206.292725	192.0
1206.437866	184.0
1206.825073	180.0
1207.13623	184.0
1207.31604	124.0
1207.800171	168.0
1208.433838	188.0
1208.734253	152.0
1208.914185	200.0
1209.089966	100.0
1209.737793	152.0
1210.20166	188.0
1210.277832	44.0
1210.840088	192.0
1211.039673	116.0
1211.365234	176.0
1211.455322	156.0
1211.648438	140.0
1211.891724	212.0
1212.376831	60.0
1212.955933	144.0
1213.00061	212.0
1213.17395	148.0
1213.250244	188.0
1213.340332	116.0
1213.645386	164.0
1213.901978	152.0
1214.616333	232.0
1214.803711	236.0
1214.907715	112.0
1215.129761	168.0
1215.178345	216.0
1215.372559	156.0
1215.442017	144.0
1216.024902	156.0
1216.12207	192.0
1217.587158	120.0
1217.788574	172.0
1217.871826	124.0
1218.226196	104.0
1218.879272	52.0
1219.153564	148.0
1219.761963	204.0
1219.914795	40.0
1220.401489	156.0
1220.87439	40.0
1221.173462	92.0
1221.423828	164.0
1221.736938	160.0
1221.980469	148.0
1222.258789	116.0
1222.585815	108.0
1222.67627	72.0
1222.773682	164.0
1223.128662	152.0
1223.268799	124.0
1223.337524	120.0
1223.462891	132.0
1223.734375	176.0
1224.033813	104.0
1224.152222	204.0
1224.256714	128.0
1224.542236	164.0
1225.371216	160.0
1226.493164	168.0
1226.597778	132.0
1226.709229	180.0
1226.779053	52.0
1227.413452	108.0
1227.497192	116.0
1228.069092	180.0
1228.215576	68.0
1228.836426	112.0
1228.98291	132.0
1229.338867	40.0
1229.480591	176.0
1229.799438	188.0
1230.176392	112.0
1231.014282	180.0
1231.32605	112.0
1231.461304	112.0
1231.859375	112.0
1231.957153	48.0
1232.0271	144.0
1232.103882	172.0
1232.348511	124.0
1232.411377	96.0
1232.481201	156.0
1232.58606	132.0
1233.099365	168.0
1234.508423	120.0
1234.82312	288.0
1235.23584	132.0
1235.403809	204.0
1235.893555	120.0
1236.264404	108.0
1237.006348	92.0
1237.132324	152.0
1237.412354	160.0
1237.461426	164.0
1237.699463	188.0
1237.923584	128.0
1238.133667	136.0
1238.378784	52.0
1238.785034	108.0
1239.000366	184.0
1239.128296	120.0
1239.408569	156.0
1239.786987	164.0
1239.906128	164.0
1240.221558	160.0
1240.291626	108.0
1240.466919	160.0
1240.607178	128.0
1240.663208	120.0
1241.343384	128.0
1241.476562	148.0
1242.248169	204.0
1242.830444	172.0
1243.019897	56.0
1243.111206	144.0
1243.36377	192.0
1243.777954	76.0
1243.897217	132.0
1244.227173	32.0
1244.437866	68.0
1244.613403	100.0
1244.978516	168.0
1245.238403	196.0
1245.898682	184.0
1245.959961	236.0
1246.074341	184.0
1246.155151	64.0
1246.545166	172.0
1246.819214	144.0
1246.904907	124.0
1247.247925	252.0
1247.423706	96.0
1247.486938	132.0
1248.197144	44.0
1248.464355	128.0
1248.822998	172.0
1249.174683	180.0
1249.343628	136.0
1249.885376	168.0
1249.976807	148.0
1250.047241	184.0
1250.237183	184.0
1250.363892	168.0
1250.71582	148.0
1250.927002	156.0
1251.206299	248.0
1251.483154	184.0
1251.762085	196.0
1251.905762	80.0
1251.962036	92.0
1252.264893	152.0
1252.356445	172.0
1252.469116	84.0
1252.772095	88.0
1252.863647	132.0
1252.920044	40.0
1252.96936	216.0
1253.166626	204.0
1253.476685	96.0
1254.505737	160.0
1254.555054	184.0
1254.608765	228.0
1255.147339	112.0
1255.260132	64.0
1255.4646	216.0
1255.563354	228.0
1256.141602	148.0
1256.18335	188.0
1256.229126	200.0
1256.42395	192.0
1256.699097	108.0
1256.84021	36.0
1256.895996	156.0
1257.29895	128.0
1257.397705	192.0
1257.546021	200.0
1257.687134	236.0
1257.792969	168.0
1258.018921	108.0
1258.710815	140.0
1258.781494	160.0
1259.106323	84.0
1259.508911	96.0
1259.869263	188.0
1259.939819	108.0
1260.267456	184.0
1260.321411	164.0
1260.964478	152.0
1261.40979	148.0
1261.614868	184.0
1262.010742	208.0
1262.074341	56.0
1262.244141	196.0
1262.477417	140.0
1262.823975	112.0
1262.894775	208.0
1263.071533	108.0
1263.227173	140.0
1263.319214	120.0
1263.375732	64.0
1263.446533	164.0
1263.545532	200.0
1263.948853	156.0
1264.274414	92.0
1264.323975	204.0
1264.798218	124.0
1264.953857	104.0
1265.067139	76.0
1265.123779	164.0
1265.385742	132.0
1266.008911	176.0
1266.575562	136.0
1266.668213	132.0
1267.177734	124.0
1268.170166	168.0
1268.254883	144.0
1268.339966	80.0
1268.474609	200.0
1269.34668	136.0
1269.715454	112.0
1269.8573	184.0
1269.984985	152.0
1270.162354	160.0
1270.382202	140.0
1270.666016	196.0
1270.875366	176.0
1271.077515	84.0
1271.240723	320.0
1271.35437	120.0
1271.567261	184.0
1271.709229	160.0
1271.872437	128.0
1272.490112	112.0
1273.051636	140.0
1274.572998	208.0
1274.637207	128.0
1274.690186	136.0
1274.74646	172.0
1275.530762	40.0
1275.586914	156.0
1275.722656	120.0
1275.840698	180.0
1275.914551	136.0
1275.971436	136.0
1276.092407	136.0
1276.284302	172.0
1276.447876	172.0
1277.038208	104.0
1277.464966	128.0
1277.678345	144.0
1277.856323	160.0
1278.105347	108.0
1278.171387	184.0
1278.582153	136.0
1278.696045	88.0
1278.855591	228.0
1279.030518	124.0
1279.233643	144.0
1279.792236	144.0
1280.376221	48.0
1280.468872	104.0
1280.580322	192.0
1280.703857	112.0
1280.753784	84.0
1281.32605	224.0
1281.624512	180.0
1282.078979	144.0
1282.171631	204.0
1283.133911	152.0
1284.025269	216.0
1284.086426	60.0
1284.160889	208.0
1284.727783	108.0
1285.073975	96.0
1285.238037	168.0
1285.392456	216.0
1286.223022	116.0
1286.596558	132.0
1286.687012	156.0
1286.979248	188.0
1287.801025	84.0
1288.243896	228.0
1288.473022	172.0
1288.786865	124.0
1288.886963	288.0
1288.941772	452.0
1289.35144	148.0
1289.601562	160.0
1289.723145	192.0
1289.973267	80.0
1290.151978	188.0
1290.845581	208.0
1290.974243	160.0
1291.045776	148.0
1291.174561	124.0
1291.331909	216.0
1291.424927	156.0
1291.61084	224.0
1292.125488	176.0
1292.233276	172.0
1292.333374	156.0
1292.56958	132.0
1292.913086	148.0
1293.006104	120.0
1293.063354	148.0
1293.406982	76.0
1293.5	180.0
1293.578735	292.0
1293.972534	184.0
1294.194458	168.0
1294.568115	208.0
1295.118286	144.0
1295.225708	184.0
1295.619751	168.0
1295.705688	64.0
1295.820312	140.0
1296.264648	244.0
1296.407959	156.0
1296.579956	128.0
1297.23938	44.0
1297.411499	44.0
1297.533325	164.0
1297.963501	192.0
1298.114136	180.0
1298.637695	136.0
1299.146973	132.0
1300.31665	124.0
1300.539185	236.0
1300.668335	176.0
1300.72583	288.0
1301.242676	176.0
1301.415039	148.0
1301.702271	220.0
1302.032227	148.0
1302.190552	144.0
1302.340942	128.0
1302.434814	176.0
1302.865845	152.0
1303.203491	144.0
1303.404663	88.0
1303.88623	160.0
1303.943726	120.0
1304.144897	32.0
1304.310303	304.0
1304.497192	184.0
1304.705688	156.0
1305.176636	176.0
1305.395874	208.0
1305.587646	132.0
1305.654785	144.0
1306.122314	144.0
1306.172729	128.0
1306.417236	152.0
1306.827393	132.0
1307.309448	144.0
1307.431885	56.0
1307.597412	192.0
1307.950073	192.0
1308.029297	164.0
1308.137207	164.0
1308.28125	156.0
1308.439575	168.0
1308.588013	204.0
1309.159668	156.0
1309.354126	148.0
1309.541382	132.0
1309.721436	164.0
1309.807861	140.0
1309.901489	156.0
1310.211304	96.0
1310.910278	164.0
1311.195557	68.0
1311.240967	336.0
1311.554932	376.0
1312.373535	224.0
1312.643433	260.0
1312.749268	152.0
1313.036987	160.0
1313.715088	232.0
1313.808838	112.0
1314.191284	144.0
1314.746948	228.0
1314.794434	160.0
1315.122192	188.0
1315.439819	136.0
1315.836914	164.0
1315.909058	144.0
1316.522827	220.0
1316.616821	148.0
1316.667358	68.0
1316.7323	192.0
1316.870239	176.0
1316.948975	172.0
1317.050171	164.0
1317.151245	152.0
1317.274048	88.0
1317.339111	168.0
1317.606323	108.0
1317.678589	52.0
1318.054321	176.0
1318.256714	264.0
1318.473511	172.0
1318.603638	160.0
1318.784302	76.0
1318.957764	164.0
1319.022827	132.0
1319.290283	152.0
1319.615601	152.0
1319.724121	196.0
1320.078491	204.0
1320.244751	148.0
1320.584717	152.0
1320.671509	108.0
1320.780029	160.0
1321.163452	108.0
1321.423828	196.0
1321.568359	184.0
1321.58728	180.0
1321.698853	144.0
1321.763916	116.0
1322.017212	128.0
1322.364624	152.0
1322.610718	96.0
1322.921997	152.0
1323.189819	132.0
1323.283936	152.0
1323.856079	128.0
1324.131226	148.0
1324.254395	188.0
1324.334106	112.0
1324.449951	196.0
1324.522339	152.0
1324.580322	124.0
1324.739746	84.0
1324.884644	164.0
1325.240723	236.0
1325.312012	112.0
1325.413574	128.0
1325.601929	80.0
1325.674438	200.0
1325.732422	172.0
1325.934692	156.0
1326.196167	92.0
1326.333984	124.0
1326.435425	100.0
1326.57312	172.0
1327.431396	320.0
1327.547119	160.0
1327.682495	168.0
1327.81311	104.0
1328.320801	196.0
1328.574707	120.0
1329.017334	108.0
1329.162476	136.0
1329.438232	96.0
1329.626953	116.0
1329.99707	48.0
1330.099243	152.0
1330.356445	188.0
1330.455444	180.0
1331.042603	164.0
1331.485596	64.0
1331.848755	176.0
1332.20459	116.0
1332.393555	128.0
1332.916748	128.0
1333.069336	188.0
1333.141968	132.0
1333.672485	172.0
1333.774292	152.0
1334.130493	148.0
1334.59668	256.0
1335.22876	208.0
1335.286743	160.0
1335.381226	100.0
1335.461304	136.0
1335.91394	168.0
1335.984985	92.0
1337.251221	120.0
1337.556885	60.0
1337.921997	184.0
1338.153809	156.0
1338.235107	172.0
1338.379517	244.0
1338.476562	172.0
1338.7146	164.0
1338.889282	204.0
1339.056885	168.0
1339.425049	192.0
1339.486572	180.0
1339.559448	124.0
1340.07666	128.0
1340.181885	184.0
1340.258911	88.0
1340.528442	120.0
1340.72522	156.0
1340.849121	88.0
1340.936646	232.0
1341.337524	188.0
1341.539795	212.0
1341.898926	208.0
1342.241577	184.0
1342.634888	172.0
1342.868774	96.0
1343.313721	136.0
1343.824463	120.0
1343.890137	440.0
1344.032837	184.0
1344.247681	232.0
1344.393555	200.0
1344.473877	164.0
1344.670898	148.0
1344.907715	216.0
1345.050537	140.0
1345.116211	180.0
1345.269531	40.0
1345.393555	120.0
1345.576172	124.0
1345.700195	36.0
1346.37207	164.0
1346.72998	148.0
1346.868774	140.0
1346.935547	196.0
1347.445923	108.0
1347.557617	212.0
1347.723511	176.0
1348.008545	132.0
1348.154663	152.0
1348.300781	124.0
1348.870972	172.0
1349.046387	184.0
1349.251099	132.0
1349.331543	332.0
1349.441162	80.0
1349.667847	148.0
1349.770264	148.0
1349.858032	172.0
1349.958008	160.0
1350.377197	164.0
1350.530884	112.0
1350.977051	172.0
1351.848389	176.0
1351.906372	80.0
1352.082153	156.0
1352.477173	192.0
1352.872559	72.0
1353.210571	188.0
1353.696167	332.0
1353.856323	212.0
1353.912231	120.0
1353.980469	140.0
1354.049927	160.0
1354.542236	148.0
1354.615479	124.0
1354.974365	56.0
1355.128296	164.0
1355.201538	188.0
1355.509277	160.0
1355.633911	148.0
1355.729126	176.0
1356.425415	204.0
1356.550049	204.0
1356.630737	68.0
1357.129272	76.0
1357.217285	136.0
1357.276001	172.0
1357.671997	144.0
1357.752563	172.0
1358.177979	184.0
1358.236694	136.0
1358.302002	292.0
1358.398071	120.0
1358.662231	116.0
1358.823608	100.0
1359.251587	148.0
1359.329956	100.0
1359.623413	272.0
1359.748169	156.0
1359.858276	184.0
1360.093262	140.0
1360.313477	64.0
1360.474976	180.0
1360.577759	80.0
1361.13623	160.0
1361.216553	168.0
1361.740845	236.0
1361.898315	236.0
1362.435791	108.0
1363.134644	204.0
1363.42041	188.0
1363.486572	136.0
1363.714478	52.0
1363.78064	136.0
1364.118774	180.0
1364.530396	52.0
1364.611328	148.0
1365.118652	152.0
1365.243652	108.0
1365.420166	156.0
1365.559937	60.0
1365.729126	92.0
1365.817383	164.0
1366.060181	128.0
1366.212524	168.0
1366.369141	200.0
1366.575195	176.0
1366.707642	76.0
1367.031372	152.0
1367.208008	88.0
1367.743774	176.0
1367.863037	84.0
1368.120728	216.0
1368.275391	188.0
1368.411743	160.0
1369.041138	164.0
1369.107422	200.0
1369.210571	180.0
1369.416748	104.0
1369.932373	144.0
1370.131348	56.0
1370.290161	240.0
1370.412964	200.0
1370.477539	156.0
1370.706055	144.0
1370.794434	144.0
1370.882935	176.0
1370.978638	204.0
1371.148193	164.0
1371.568359	96.0
1371.664185	204.0
1371.783447	212.0
1372.041992	208.0
1372.290771	160.0
1372.357178	184.0
1372.408813	180.0
1372.511963	132.0
1372.57019	148.0
1372.851196	112.0
1372.947144	212.0
1373.153564	56.0
1373.293701	172.0
1373.640503	240.0
1373.692139	56.0
1373.832275	176.0
1373.906006	132.0
1374.230713	220.0
1374.518433	172.0
1374.776733	180.0
1374.880005	160.0
1375.633423	192.0
1375.736328	124.0
1375.810059	156.0
1375.891357	88.0
1376.408203	132.0
1376.61499	116.0
1376.777466	60.0
1377.021118	148.0
1377.294434	168.0
1377.456909	104.0
1377.781982	140.0
1378.018433	128.0
1378.336182	88.0
1378.469116	180.0
1378.63916	128.0
1378.722168	156.0
1378.779541	156.0
1378.934814	152.0
1379.103638	192.0
1379.444824	232.0
1379.557007	156.0
1379.656128	156.0
1379.880981	64.0
1379.991943	160.0
1380.414307	208.0
1380.568726	48.0
1380.657471	252.0
1380.716553	88.0
1381.138184	132.0
1381.271362	228.0
1381.707764	124.0
1382.196167	148.0
1382.366333	240.0
1382.418213	196.0
1382.825195	156.0
1382.928833	180.0
1383.335938	80.0
1383.56543	176.0
1383.710571	184.0
1383.787598	196.0
1383.913452	208.0
1384.076294	156.0
1384.468872	132.0
1384.528076	60.0
1384.772461	72.0
1385.098389	108.0
1385.236328	148.0
1385.920776	152.0
1385.984863	236.0
1386.194946	112.0
1386.491333	132.0
1386.817505	208.0
1386.987915	188.0
1387.143677	148.0
1387.435547	140.0
1388.115356	152.0
1388.32251	144.0
1388.411621	232.0
1388.789795	168.0
1388.908447	160.0
1388.97522	132.0
1389.160767	208.0
1389.450073	108.0
1389.620728	208.0
1389.754272	68.0
1390.229126	108.0
1390.327881	208.0
1390.414673	88.0
1390.713867	80.0
1390.837769	192.0
1390.993652	160.0
1391.89209	168.0
1392.118652	208.0
1392.449463	208.0
1392.805542	116.0
1392.879883	88.0
1393.674805	48.0
1393.75647	64.0
1394.313843	180.0
1394.455078	176.0
1394.588867	104.0
1394.848877	168.0
1395.19104	124.0
1395.280273	136.0
1395.577637	40.0
1395.747803	132.0
1396.053589	164.0
1396.105591	136.0
1396.432861	200.0
1396.55188	148.0
1396.678345	132.0
1396.730103	124.0
1396.777466	180.0
1396.938721	40.0
1397.102295	44.0
1397.184204	124.0
1397.340454	168.0
1397.861328	160.0
1398.203613	104.0
1398.552612	204.0
1398.660156	240.0
1398.734619	204.0
1399.022461	124.0
1399.335083	176.0
1399.394653	172.0
1399.558472	132.0
1399.841431	144.0
1400.027588	92.0
1400.131958	172.0
1400.28833	360.0
1400.392578	132.0
1400.608643	200.0
1401.003418	204.0
1401.064087	192.0
1401.547363	144.0
1401.688843	168.0
1402.061523	136.0
1402.203125	160.0
1402.988403	184.0
1403.105103	156.0
1403.19458	180.0
1403.358643	136.0
1403.463013	152.0
1404.111816	168.0
1404.186401	148.0
1404.268433	416.0
1404.991943	120.0
1405.118774	160.0
1405.736938	144.0
1405.879883	120.0
1406.245605	168.0
1406.380005	164.0
1407.156372	180.0
1407.238525	176.0
1407.410278	48.0
1407.744019	196.0
1408.130493	248.0
1408.224243	156.0
1408.448364	112.0
1408.582764	160.0
1408.635132	192.0
1408.806885	76.0
1409.02356	144.0
1409.240234	176.0
1409.449463	144.0
1409.770508	172.0
1409.942749	156.0
1410.613037	160.0
1410.847168	92.0
1411.14624	132.0
1411.415405	100.0
1411.527588	136.0
1411.669678	232.0
1411.766846	128.0
1411.998779	200.0
1412.106934	160.0
1412.484863	108.0
1412.5896	160.0
1412.862793	124.0
1413.143311	200.0
1413.225586	96.0
1413.283813	200.0
1413.726929	176.0
1414.04126	128.0
1414.310791	116.0
1414.610107	48.0
1414.662598	180.0
1414.822998	164.0
1415.04541	148.0
1415.20166	180.0
1415.328857	196.0
1415.42627	124.0
1415.501099	168.0
1415.755737	132.0
1415.808228	200.0
1416.025391	168.0
1416.212646	156.0
1416.489746	156.0
1416.763306	164.0
1417.179077	116.0
1417.283936	344.0
1417.448853	128.0
1417.58374	128.0
1417.988403	64.0
1418.235718	128.0
1418.393188	164.0
1418.580566	164.0
1418.633057	120.0
1418.80542	144.0
1418.85791	52.0
1418.932983	192.0
1419.037842	52.0
1419.555298	180.0
1419.630249	152.0
1419.717896	168.0
1419.795288	100.0
1419.907715	216.0
1419.964233	224.0
1420.117798	148.0
1420.447876	132.0
1420.560303	148.0
1420.894775	172.0
1421.036743	440.0
1421.19812	268.0
1421.292847	224.0
1421.355713	164.0
1421.408203	136.0
1421.580811	216.0
1421.678345	104.0
1421.760864	176.0
1421.818481	180.0
1422.038574	136.0
1422.140747	192.0
1422.248779	148.0
1422.36377	196.0
1422.631592	156.0
1422.744263	104.0
1422.870728	136.0
1422.894409	116.0
1422.919067	136.0
1422.999512	112.0
1423.47522	176.0
1423.660278	76.0
1423.727905	144.0
1424.005737	28.0
1424.381348	216.0
1424.501587	220.0
1424.711914	148.0
1424.930176	344.0
1425.003906	144.0
1425.222778	176.0
1425.696167	32.0
1425.981812	52.0
1426.357666	68.0
1426.567261	180.0
1426.588745	160.0
1426.66394	260.0
1426.756104	148.0
1427.047241	220.0
1427.139526	184.0
1427.372681	156.0
1427.853882	216.0
1427.914062	56.0
1428.049438	88.0
1428.154785	216.0
1428.267578	116.0
1428.418091	148.0
1428.613647	140.0
1428.809326	116.0
1428.952271	128.0
1429.162842	140.0
1429.366089	232.0
1429.42627	184.0
1429.599365	164.0
1429.892822	36.0
1430.178833	148.0
1430.374634	192.0
1431.068115	180.0
1431.323242	196.0
1431.4104	200.0
1431.488892	156.0
1432.008545	156.0
1432.46521	148.0
1432.66394	152.0
1432.870239	228.0
1433.040649	88.0
1433.229004	132.0
1433.522949	128.0
1433.647095	156.0
1433.70752	104.0
1433.730103	200.0
1433.884644	152.0
1434.103271	132.0
1434.465088	152.0
1434.585693	112.0
1434.912842	204.0
1435.168091	144.0
1435.422607	164.0
1435.792114	124.0
1436.45874	340.0
1436.712402	168.0
1436.97644	60.0
1437.10498	208.0
1437.395874	196.0
1437.564453	408.0
1437.637085	176.0
1438.06311	156.0
1438.297119	180.0
1438.402832	196.0
1438.647339	200.0
1438.802856	132.0
1438.885986	152.0
1439.331421	144.0
1439.562378	208.0
1439.663696	168.0
1440.033813	56.0
1440.289917	172.0
1440.366211	160.0
1440.575928	172.0
1440.698486	100.0
1440.819214	180.0
1441.401245	108.0
1441.522095	116.0
1441.620361	268.0
1441.794189	228.0
1441.850342	160.0
1442.051147	160.0
1442.149414	184.0
1442.33374	168.0
1442.791992	200.0
1443.669067	144.0
1444.115356	116.0
1444.773438	188.0
1444.909668	76.0
1445.401489	168.0
1445.469604	216.0
1445.560425	120.0
1445.900879	164.0
1445.974854	140.0
1446.264282	236.0
1446.339966	120.0
1446.483765	100.0
1446.582153	156.0
1446.809326	116.0
1446.937988	196.0
1447.036377	144.0
1447.187866	164.0
1447.418701	160.0
1447.596802	156.0
1447.69519	128.0
1447.831543	152.0
1448.096558	112.0
1448.149658	52.0
1448.399536	92.0
1448.725342	152.0
1448.818604	96.0
1449.02832	216.0
1449.119263	176.0
1449.301147	196.0
1449.520874	108.0
1449.702759	144.0
1449.952881	124.0
1450.10376	228.0
1450.225708	136.0
1450.400024	156.0
1450.536499	92.0
1450.809448	148.0
1450.862549	132.0
1451.067139	188.0
1451.594971	112.0
1451.673828	132.0
1451.840698	208.0
1452.036255	156.0
1452.050049	124.0
1452.189575	176.0
1452.386719	152.0
1453.145386	104.0
1453.433716	144.0
1453.585449	124.0
1453.64624	148.0
1454.185059	152.0
1454.306519	160.0
1454.549438	152.0
1454.670898	112.0
1454.737305	176.0
1454.89856	200.0
1454.951782	120.0
1455.035278	168.0
1455.217529	204.0
1455.574341	144.0
1455.627563	140.0
1455.701416	160.0
1455.809814	208.0
1455.938843	148.0
1455.992065	48.0
1456.08313	108.0
1456.690796	64.0
1456.979492	164.0
1457.101074	68.0
1457.154297	88.0
1457.222656	100.0
1457.3927	176.0
1457.53418	180.0
1458.224243	232.0
1458.529785	196.0
1458.688477	196.0
1458.909912	184.0
1459.104736	140.0
1459.480103	200.0
1459.95166	124.0
1460.172119	176.0
1460.285034	172.0
1460.430786	128.0
1460.697021	80.0
1460.910034	128.0
1461.426758	184.0
1461.653564	172.0
1461.792114	120.0
1461.914429	164.0
1462.013306	160.0
1462.333008	144.0
1462.523315	92.0
1462.637451	136.0
1462.766846	192.0
1463.048584	200.0
1463.307373	180.0
1463.393311	164.0
1463.528198	88.0
1463.672852	72.0
1463.749023	136.0
1463.859253	316.0
1464.023193	232.0
1464.076538	204.0
1464.518188	156.0
1464.609619	128.0
1465.104858	160.0
1465.196289	148.0
1465.394287	168.0
1465.462891	96.0
1466.014282	232.0
1466.07251	176.0
1466.219238	144.0
1466.560303	176.0
1466.618896	140.0
1466.693115	192.0
1466.781372	160.0
1466.892212	200.0
1467.276855	204.0
1467.421753	168.0
1467.581909	192.0
1467.639893	140.0
1467.703857	168.0
1467.764893	124.0
1467.848755	124.0
1468.046509	168.0
1468.13855	148.0
1468.199585	168.0
1468.474121	188.0
1468.596191	168.0
1468.8479	108.0
1468.940796	132.0
1469.084351	128.0
1469.153076	148.0
1469.305664	224.0
1469.481079	112.0
1469.671875	160.0
1469.825195	160.0
1469.961792	116.0
1470.068604	164.0
1470.259399	36.0
1470.511353	88.0
1470.572388	168.0
1470.625854	156.0
1471.373901	128.0
1471.488403	184.0
1471.679321	176.0
1472.18335	164.0
1472.286255	168.0
1472.412476	128.0
1472.659912	216.0
1472.80957	160.0
1473.16394	196.0
1473.321411	120.0
1473.436035	164.0
1473.756958	128.0
1474.589966	112.0
1474.696899	144.0
1475.392578	224.0
1475.449707	140.0
1475.585083	112.0
1475.904785	156.0
1475.962646	152.0
1476.057739	132.0
1476.134277	192.0
1476.195435	240.0
1476.301514	132.0
1477.350342	124.0
1477.42688	176.0
1477.549316	104.0
1477.639038	144.0
1478.176758	184.0
1478.375732	48.0
1478.482788	192.0
1478.666504	168.0
1479.079834	224.0
1479.240601	184.0
1479.454956	168.0
1479.531494	144.0
1479.699951	160.0
1479.860718	172.0
1479.990967	168.0
1480.166992	120.0
1480.243652	168.0
1480.38147	152.0
1480.588257	104.0
1480.847168	168.0
1480.932861	100.0
1481.729614	124.0
1481.867554	172.0
1482.323242	120.0
1482.43457	152.0
1482.526489	84.0
1482.656738	104.0
1482.94043	144.0
1483.12439	176.0
1483.354248	204.0
1483.699219	160.0
1483.91394	224.0
1484.098022	204.0
1484.220703	140.0
1484.353882	96.0
1484.420044	224.0
1484.816406	152.0
1485.035767	296.0
1485.110229	216.0
1485.217651	224.0
1485.279053	216.0
1485.440186	112.0
1485.539917	208.0
1485.677979	136.0
1485.77002	160.0
1486.000244	180.0
1486.349976	196.0
1486.575684	136.0
1487.005493	120.0
1487.059204	152.0
1487.151245	180.0
1487.297119	164.0
1487.477051	396.0
1487.796143	144.0
1487.865234	168.0
1488.057129	148.0
1488.233765	120.0
1488.302856	152.0
1488.371948	368.0
1488.563965	120.0
1488.832764	192.0
1489.232178	136.0
1489.362671	120.0
1489.477905	152.0
1490.249268	152.0
1490.376831	200.0
1490.653442	100.0
1490.776367	184.0
1490.837891	96.0
1490.904053	196.0
1491.69873	56.0
1491.778809	184.0
1491.948242	188.0
1492.029297	104.0
1492.09082	64.0
1492.444458	192.0
1492.698242	100.0
1492.752075	172.0
1492.913574	44.0
1493.144287	240.0
1493.228882	200.0
1493.728882	152.0
1493.928955	48.0
1494.136597	88.0
1494.236694	80.0
1494.328979	148.0
1494.552124	64.0
1494.694336	124.0
1494.767578	124.0
1494.898438	132.0
1494.967651	132.0
1495.129272	96.0
1495.313965	152.0
1495.439941	140.0
1495.508545	176.0
1495.591064	156.0
1495.714233	40.0
1495.806641	104.0
1496.153076	132.0
1496.241699	164.0
1496.46875	160.0
1497.192505	208.0
1497.345825	124.0
1497.454468	164.0
1497.631592	52.0
1497.908936	136.0
1498.140015	188.0
1498.19397	136.0
1498.309448	76.0
1498.51355	180.0
1498.825684	168.0
1498.902832	184.0
1498.995239	184.0
1499.187866	212.0
1499.334351	76.0
1499.42688	120.0
1499.650391	144.0
1499.773682	160.0
1499.843018	288.0
1500.69104	156.0
1500.822144	224.0
1501.053467	120.0
1501.238525	40.0
1501.354248	56.0
1501.685913	160.0
1501.863281	132.0
1501.94812	212.0
1502.171875	48.0
1502.241333	172.0
1502.295288	104.0
1502.366577	168.0
1502.441895	124.0
1502.569824	164.0
1502.691162	104.0
1502.771973	72.0
1503.147217	164.0
1503.383301	192.0
1503.437256	156.0
1503.607056	128.0
1503.830933	348.0
1503.936157	100.0
1504.101074	36.0
1504.492188	144.0
1504.857666	164.0
1504.942505	148.0
1505.205078	112.0
END IONS

BEGIN IONS
PEPMASS=462.242
CHARGE=1
MSLEVEL=2
SOURCE_INSTRUMENT=LC-ESI-qTof
FILENAME=p3-F05_GF5_01_18286.mzXML
SEQ=*..*
IONMODE=Positive
ORGANISM=GNPS-NIH-SMALLMOLECULEPHARMACOLOGICALLYACTIVE
NAME=MLS001077311-01!2062-78-4 M+H
PI=Dorrestein
DATACOLLECTOR=VP/LMS
SMILES=Oc1nc2ccccc2n1C3CCN(CCCC(c4ccc(F)cc4)c5ccc(F)cc5)CC3
INCHI=N/A
INCHIAUX=N/A
PUBMED=N/A
SUBMITUSER=vphelan
LIBRARYQUALITY=1
SPECTRUMID=CCMSLIB00000085145
USI=mzspec:GNPS:GNPS-NIH-SMALLMOLECULEPHARMACOLOGICALLYACTIVE:accession:CCMSLIB00000085145
SCANS=1970
44.89209	96.0
44.904091	100.0
44.930447	196.0
44.942783	168.0
44.97081	132.0
44.980152	428.0
44.989498	120.0
45.024807	316.0
45.03624	168.0
45.065628	152.0
45.096367	168.0
45.127117	128.0
45.159897	188.0
45.171253	204.0
45.191517	180.0
45.23415	172.0
45.251556	104.0
45.263607	168.0
45.274578	84.0
45.291733	160.0
45.303791	136.0
45.331928	112.0
45.341312	112.0
45.357395	88.0
45.411034	128.0
45.445431	156.0
45.519691	356.0
45.549046	152.0
45.554451	124.0
45.578854	176.0
45.595959	132.0
45.609287	112.0
45.644947	168.0
45.655483	144.0
45.664898	140.0
45.685562	144.0
45.712746	156.0
45.729179	176.0
45.733322	160.0
45.767181	148.0
45.797653	160.0
45.81028	220.0
45.8251	184.0
45.860142	96.0
45.884407	64.0
45.911377	176.0
45.927998	180.0
45.932335	104.0
45.935944	132.0
45.955894	68.0
45.976139	104.0
45.999084	240.0
46.038242	156.0
46.054821	148.0
46.074715	76.0
46.105877	176.0
46.149757	192.0
46.162979	228.0
46.172047	132.0
46.19482	196.0
46.228867	80.0
46.251877	160.0
46.271885	144.0
46.312813	188.0
46.344032	184.0
46.358883	56.0
46.395481	148.0
46.407204	136.0
46.436508	204.0
46.471436	152.0
46.51894	184.0
46.551525	72.0
46.619453	80.0
46.673832	160.0
46.699673	196.0
46.713276	76.0
46.744572	160.0
46.763626	128.0
46.820301	224.0
46.856541	212.0
46.913471	176.0
46.947563	116.0
46.972115	144.0
47.004993	208.0
47.010906	204.0
47.032158	140.0
47.05127	140.0
47.07312	76.0
47.086777	232.0
47.095928	160.0
47.126354	156.0
47.155094	256.0
47.201576	148.0
47.219357	156.0
47.238506	196.0
47.2486	148.0
47.264503	128.0
47.285034	112.0
47.30172	188.0
47.332951	100.0
47.35178	208.0
47.411308	184.0
47.424744	160.0
47.445995	120.0
47.472088	212.0
47.521393	136.0
47.537212	156.0
47.559143	184.0
47.583885	284.0
47.596241	96.0
47.630413	144.0
47.641571	120.0
47.655807	48.0
47.659843	120.0
47.680992	64.0
47.692417	148.0
47.706161	160.0
47.72509	188.0
47.74604	216.0
47.783184	132.0
47.81287	140.0
47.840687	164.0
47.863018	112.0
47.890682	236.0
47.920872	164.0
47.951191	124.0
47.969112	176.0
48.029675	192.0
48.049103	164.0
48.060143	52.0
48.077126	104.0
48.089931	164.0
48.104961	200.0
48.131924	196.0
48.156525	256.0
48.159546	208.0
48.165524	140.0
48.177505	192.0
48.21896	80.0
48.251877	180.0
48.268784	104.0
48.279797	116.0
48.296394	168.0
48.344341	196.0
48.394657	140.0
48.422352	272.0
48.445782	136.0
48.47916	140.0
48.548477	168.0
48.641445	144.0
48.679913	144.0
48.696442	132.0
48.73172	156.0
48.78891	136.0
48.799618	132.0
48.823051	160.0
48.852116	268.0
48.874943	148.0
48.898762	208.0
48.943054	112.0
48.989117	148.0
49.009686	168.0
49.033707	172.0
49.049042	184.0
49.060043	112.0
49.072044	140.0
49.107605	60.0
49.163418	196.0
49.180164	112.0
49.199619	124.0
49.202503	116.0
49.217312	132.0
49.247192	172.0
49.270939	120.0
49.287708	96.0
49.305874	128.0
49.332436	208.0
49.357601	168.0
49.434685	120.0
49.45414	180.0
49.472336	184.0
49.49194	152.0
49.521885	136.0
49.559845	84.0
49.586704	236.0
49.590267	152.0
49.64048	140.0
49.656578	84.0
49.669937	124.0
49.68116	176.0
49.69519	120.0
49.721024	88.0
49.729214	164.0
49.787842	148.0
49.821556	176.0
49.841225	148.0
49.887611	160.0
49.908699	176.0
49.924168	236.0
49.945484	164.0
49.969116	168.0
49.990292	148.0
50.005775	152.0
50.024075	52.0
50.05505	232.0
50.08181	164.0
50.124077	200.0
50.138172	192.0
50.151237	192.0
50.17482	180.0
50.231236	160.0
50.274975	168.0
50.31839	160.0
50.337093	112.0
50.356865	220.0
50.374008	128.0
50.392185	184.0
50.427513	76.0
50.455788	164.0
50.491142	40.0
50.518894	116.0
50.547729	156.0
50.563297	168.0
50.592873	220.0
50.611435	164.0
50.63126	320.0
50.653923	160.0
50.697281	140.0
50.712513	220.0
50.744629	104.0
50.758808	132.0
50.775826	116.0
50.81271	184.0
50.860962	184.0
50.876579	164.0
50.892078	144.0
50.913498	272.0
50.970325	92.0
50.984539	192.0
50.99733	160.0
51.020073	176.0
51.035717	152.0
51.054203	200.0
51.073853	144.0
51.092609	176.0
51.108261	72.0
51.129494	152.0
51.132751	192.0
51.187645	204.0
51.249634	384.0
51.263485	196.0
51.287712	148.0
51.316132	120.0
51.351269	160.0
51.381836	116.0
51.391827	112.0
51.420368	80.0
51.435429	160.0
51.454731	212.0
51.477474	200.0
51.510254	152.0
51.560341	168.0
51.579823	232.0
51.608944	232.0
51.628796	168.0
51.660435	100.0
51.684761	168.0
51.694778	152.0
51.71159	224.0
51.72913	152.0
51.753468	128.0
51.807659	312.0
51.846588	216.0
51.862354	276.0
51.873138	132.0
51.89246	132.0
51.922607	176.0
51.945526	140.0
51.955566	28.0
52.034508	168.0
52.064663	216.0
52.076153	172.0
52.086208	192.0
52.121338	116.0
52.16444	128.0
52.19746	148.0
52.226376	128.0
52.258736	432.0
52.283787	180.0
52.297592	144.0
52.329266	200.0
52.345104	132.0
52.366707	208.0
52.376221	172.0
52.396362	196.0
52.412811	140.0
52.440193	192.0
52.453167	164.0
52.490654	240.0
52.509403	60.0
52.522385	140.0
52.546913	208.0
52.571102	204.0
52.585033	212.0
52.606358	148.0
52.644489	208.0
52.659515	100.0
52.676849	60.0
52.695633	144.0
52.714417	120.0
52.738987	128.0
52.750553	32.0
52.77224	196.0
52.804054	344.0
52.837326	320.0
52.867714	208.0
52.880741	148.0
52.90535	72.0
52.940334	208.0
52.95686	316.0
52.98349	164.0
53.011089	104.0
53.038628	136.0
53.06205	208.0
53.088219	60.0
53.094337	124.0
53.212883	180.0
53.278862	164.0
53.299877	208.0
53.315865	148.0
53.333469	176.0
53.416195	84.0
53.442383	308.0
53.511845	244.0
53.54842	148.0
53.56031	144.0
53.571739	260.0
53.631798	136.0
53.649208	72.0
53.67271	200.0
53.693192	196.0
53.734528	244.0
53.773201	128.0
53.795097	128.0
53.816898	176.0
53.822556	164.0
53.845463	112.0
53.887112	112.0
53.8988	128.0
53.948498	120.0
53.993828	104.0
54.011379	152.0
54.079407	172.0
54.091866	120.0
54.181202	172.0
54.200249	164.0
54.232491	152.0
54.266384	148.0
54.298203	172.0
54.332214	156.0
54.348354	152.0
54.373081	160.0
54.411469	248.0
54.434963	124.0
54.507221	160.0
54.526051	160.0
54.553982	156.0
54.602509	192.0
54.627514	148.0
54.649582	168.0
54.680489	40.0
54.720234	180.0
54.777676	168.0
54.808617	128.0
54.85368	160.0
54.87347	76.0
54.893421	192.0
54.921818	92.0
54.963451	184.0
54.982635	180.0
55.004128	148.0
55.0284	52.0
55.068272	152.0
55.085678	192.0
55.102249	224.0
55.155689	176.0
55.19981	144.0
55.21312	252.0
55.241226	184.0
55.254883	172.0
55.275257	156.0
55.290367	152.0
55.338909	184.0
55.381855	132.0
55.402973	236.0
55.436676	312.0
55.458626	168.0
55.495972	64.0
55.530083	292.0
55.540466	160.0
55.570137	252.0
55.589428	148.0
55.599815	144.0
55.6166	196.0
55.672142	252.0
55.711185	264.0
55.745983	128.0
55.766171	208.0
55.778061	192.0
55.788467	68.0
55.800362	232.0
55.834564	164.0
55.845856	156.0
55.864315	140.0
55.882168	104.0
55.955101	188.0
56.030121	272.0
56.047089	164.0
56.092167	216.0
56.127949	48.0
56.147373	168.0
56.166729	140.0
56.245815	40.0
56.260647	180.0
56.287624	56.0
56.308533	192.0
56.328197	152.0
56.380096	196.0
56.429577	124.0
56.44453	120.0
56.459488	208.0
56.472946	144.0
56.50901	152.0
56.640331	112.0
56.665169	228.0
56.693043	148.0
56.711029	48.0
56.735016	132.0
56.74551	144.0
56.7995	188.0
56.819004	176.0
56.849194	148.0
56.870026	140.0
56.882305	156.0
56.898552	152.0
56.93396	160.0
56.95562	36.0
57.002647	224.0
57.00964	168.0
57.014946	364.0
57.03075	128.0
57.066948	156.0
57.122482	56.0
57.141357	116.0
57.152573	60.0
57.167622	180.0
57.178158	212.0
57.245102	128.0
57.256447	132.0
57.268497	112.0
57.295612	92.0
57.348358	180.0
57.394512	124.0
57.432232	204.0
57.450905	72.0
57.476837	192.0
57.500023	116.0
57.535419	144.0
57.54882	128.0
57.567131	96.0
57.585255	128.0
57.59885	52.0
57.647202	172.0
57.681892	168.0
57.707664	144.0
57.727325	124.0
57.757576	152.0
57.772701	104.0
57.786644	168.0
57.851398	124.0
57.863514	184.0
57.936211	88.0
57.952877	116.0
57.974918	324.0
58.024593	140.0
58.03928	128.0
58.070408	160.0
58.089333	148.0
58.102985	156.0
58.14378	136.0
58.152721	160.0
58.177353	96.0
58.187981	44.0
58.206203	112.0
58.217377	156.0
58.271519	60.0
58.288235	176.0
58.307991	172.0
58.322918	156.0
58.33297	148.0
58.337143	180.0
58.349033	156.0
58.360256	84.0
58.390842	228.0
58.42601	144.0
58.455513	52.0
58.46769	196.0
58.485954	212.0
58.52998	144.0
58.559803	120.0
58.615414	208.0
58.636913	408.0
58.673336	60.0
58.7015	136.0
58.719086	152.0
58.750061	144.0
58.770954	132.0
58.795372	96.0
58.81216	120.0
58.841248	152.0
58.859489	168.0
58.876289	108.0
58.891563	104.0
58.916759	168.0
58.937397	160.0
59.022881	104.0
59.044411	36.0
59.05946	200.0
59.117847	212.0
59.131622	68.0
59.15152	180.0
59.164242	304.0
59.198986	192.0
59.228088	124.0
59.276497	112.0
59.289379	144.0
59.30164	144.0
59.375237	216.0
59.409283	184.0
59.442741	188.0
59.511818	132.0
59.524101	136.0
59.567108	180.0
59.580936	168.0
59.616177	220.0
59.670422	144.0
59.686993	64.0
59.708523	148.0
59.803814	176.0
59.846062	172.0
59.86689	196.0
59.894772	164.0
59.917881	56.0
59.961029	188.0
59.981068	156.0
60.002651	188.0
60.040211	168.0
60.055084	108.0
60.115669	132.0
60.160789	156.0
60.184723	160.0
60.19862	164.0
60.220245	164.0
60.246922	208.0
60.32996	180.0
60.384083	140.0
60.397083	328.0
60.421963	136.0
60.44574	192.0
60.451942	144.0
60.45742	200.0
60.495499	184.0
60.507141	292.0
60.524918	160.0
60.538857	204.0
60.591522	240.0
60.603916	132.0
60.641491	164.0
60.662815	92.0
60.752636	148.0
60.783794	172.0
60.796211	124.0
60.855202	220.0
60.889366	100.0
60.917397	176.0
60.932861	112.0
60.957726	152.0
60.998135	92.0
61.046337	140.0
61.062305	164.0
61.078999	144.0
61.094559	160.0
61.144352	208.0
61.159412	148.0
61.180954	148.0
61.215969	184.0
61.246441	156.0
61.264256	144.0
61.298534	108.0
61.321915	216.0
61.371799	196.0
61.387394	140.0
61.403511	132.0
61.406868	148.0
61.434189	40.0
61.464828	176.0
61.475445	200.0
61.493488	56.0
61.520439	160.0
61.584049	160.0
61.61998	144.0
61.638733	164.0
61.663876	188.0
61.687187	100.0
61.704384	112.0
61.758335	424.0
61.812313	172.0
61.827965	152.0
61.840485	156.0
61.889019	128.0
61.906158	156.0
62.011215	116.0
62.028458	268.0
62.039165	164.0
62.121025	144.0
62.18375	192.0
62.24498	156.0
62.272224	324.0
62.319881	176.0
62.357635	180.0
62.380104	116.0
62.391109	168.0
62.403687	176.0
62.466599	84.0
62.494919	100.0
62.533672	128.0
62.548431	156.0
62.570469	124.0
62.592514	176.0
62.609837	200.0
62.6399	188.0
62.663399	120.0
62.674427	44.0
62.697075	184.0
62.728016	304.0
62.743782	120.0
62.756371	144.0
62.791088	176.0
62.8027	240.0
62.836838	48.0
62.879444	252.0
62.913403	180.0
62.936279	104.0
62.969955	184.0
62.981361	384.0
63.019997	148.0
63.03896	112.0
63.10004	200.0
63.124329	72.0
63.198517	40.0
63.223469	176.0
63.235519	144.0
63.258995	108.0
63.2794	116.0
63.296818	212.0
63.346333	200.0
63.358074	232.0
63.383945	256.0
63.463203	160.0
63.49968	176.0
63.551197	124.0
63.564121	272.0
63.586945	72.0
63.599644	152.0
63.65255	152.0
63.672684	116.0
63.693573	132.0
63.7509	156.0
63.754208	128.0
63.774372	128.0
63.793812	176.0
63.812527	180.0
63.832329	164.0
63.850693	64.0
63.863419	176.0
63.896828	132.0
63.960484	136.0
64.013023	32.0
64.08754	180.0
64.129333	128.0
64.160118	128.0
64.194702	84.0
64.207458	64.0
64.223412	76.0
64.274467	116.0
64.291138	224.0
64.309647	180.0
64.326797	188.0
64.397171	56.0
64.422958	100.0
64.443008	172.0
64.49675	160.0
64.529884	168.0
64.562019	180.0
64.589211	148.0
64.610008	60.0
64.640411	124.0
64.698547	176.0
64.717247	180.0
64.731659	160.0
64.773308	136.0
64.85022	40.0
64.890297	148.0
64.920769	152.0
64.978516	64.0
65.032127	168.0
65.061974	36.0
65.08606	132.0
65.10051	144.0
65.156425	168.0
65.180664	292.0
65.19738	216.0
65.219406	160.0
65.253174	188.0
65.307846	176.0
65.324417	188.0
65.33989	148.0
65.35054	180.0
65.365059	172.0
65.383469	224.0
65.438202	132.0
65.479408	116.0
65.500969	140.0
65.524277	256.0
65.541298	200.0
65.567841	196.0
65.625114	292.0
65.646866	156.0
65.671883	136.0
65.686401	128.0
65.761452	204.0
65.776695	192.0
65.831665	140.0
65.855896	160.0
65.918907	88.0
65.939919	204.0
65.973976	188.0
66.012672	180.0
66.067665	188.0
66.123146	140.0
66.140488	168.0
66.168015	156.0
66.194565	120.0
66.240028	180.0
66.26033	220.0
66.299225	152.0
66.367966	208.0
66.389801	156.0
66.411095	184.0
66.4403	60.0
66.46788	184.0
66.544357	240.0
66.559113	128.0
66.573402	172.0
66.604263	80.0
66.623756	52.0
66.661133	220.0
66.742409	144.0
66.75502	236.0
66.784088	140.0
66.804932	164.0
66.830246	104.0
66.862793	180.0
66.909271	148.0
66.934425	48.0
66.953835	192.0
66.968628	212.0
66.988174	156.0
67.017029	124.0
67.038506	140.0
67.129982	216.0
67.147926	156.0
67.182182	180.0
67.209183	124.0
67.24276	160.0
67.278473	144.0
67.2948	196.0
67.337257	148.0
67.35849	168.0
67.375237	160.0
67.433662	112.0
67.45237	144.0
67.472893	164.0
67.494148	136.0
67.519951	160.0
67.579208	140.0
67.612724	120.0
67.633217	96.0
67.679054	136.0
67.703621	132.0
67.720001	276.0
67.749489	100.0
67.792908	128.0
67.805199	152.0
67.823235	124.0
67.840912	168.0
67.893738	160.0
67.908501	144.0
67.928185	164.0
67.939667	148.0
67.959351	160.0
67.990532	120.0
68.020081	132.0
68.044708	124.0
68.070976	244.0
68.149902	168.0
68.21228	180.0
68.225433	144.0
68.241875	164.0
68.261604	68.0
68.274765	96.0
68.302727	112.0
68.319176	148.0
68.330696	168.0
68.348793	164.0
68.3843	188.0
68.408051	108.0
68.459244	176.0
68.474251	136.0
68.479919	124.0
68.48436	188.0
68.500267	36.0
68.526772	184.0
68.557938	192.0
68.599144	132.0
68.661804	128.0
68.70977	176.0
68.769058	208.0
68.828117	160.0
68.845818	132.0
68.859871	128.0
68.882996	104.0
68.89621	120.0
68.925949	200.0
68.944702	220.0
68.959358	168.0
69.049942	112.0
69.075676	144.0
69.101227	152.0
69.119431	196.0
69.155075	216.0
69.174049	132.0
69.236504	328.0
69.266785	136.0
69.301086	144.0
69.391083	156.0
69.415955	40.0
69.44249	164.0
69.486397	148.0
69.56031	172.0
69.588531	140.0
69.620361	360.0
69.643761	140.0
69.680473	124.0
69.698158	72.0
69.753006	188.0
69.767899	180.0
69.836151	136.0
69.855171	184.0
69.877739	124.0
69.912689	112.0
69.930031	248.0
69.955963	152.0
69.987206	144.0
70.015907	144.0
70.047562	160.0
70.067551	148.0
70.089211	188.0
70.159218	176.0
70.170433	160.0
70.186546	164.0
70.277641	128.0
70.307678	132.0
70.327881	168.0
70.35376	172.0
70.37278	164.0
70.401772	156.0
70.433449	292.0
70.457962	184.0
70.478546	176.0
70.556572	168.0
70.609451	180.0
70.676147	312.0
70.698761	176.0
70.730263	156.0
70.755669	400.0
70.785812	120.0
70.80088	140.0
70.912506	200.0
70.93158	92.0
70.946671	84.0
71.003677	88.0
71.059631	204.0
71.075958	196.0
71.095955	212.0
71.137924	328.0
71.151352	140.0
71.168144	124.0
71.193329	164.0
71.212334	128.0
71.272232	160.0
71.277992	152.0
71.286377	156.0
71.291214	212.0
71.309258	116.0
71.336159	196.0
71.354652	148.0
71.376511	260.0
71.42865	140.0
71.447151	128.0
71.463982	204.0
71.475761	184.0
71.492584	116.0
71.615494	144.0
71.634026	96.0
71.654243	72.0
71.677834	200.0
71.70311	180.0
71.733452	180.0
71.751358	184.0
71.8144	84.0
71.851509	132.0
71.888634	176.0
71.954468	124.0
72.010193	108.0
72.064255	120.0
72.077774	144.0
72.10746	176.0
72.135239	152.0
72.172432	220.0
72.189346	188.0
72.207947	144.0
72.229935	112.0
72.241776	96.0
72.263771	132.0
72.378876	104.0
72.393501	44.0
72.422913	168.0
72.434715	136.0
72.47374	164.0
72.512718	164.0
72.553398	36.0
72.570351	136.0
72.585617	200.0
72.614403	164.0
72.639893	160.0
72.664078	172.0
72.680611	180.0
72.694183	124.0
72.709457	108.0
72.731529	220.0
72.75869	232.0
72.805153	176.0
72.838509	104.0
72.869003	156.0
72.904045	176.0
72.922951	64.0
72.93367	208.0
72.971069	64.0
72.985535	140.0
73.006401	144.0
73.00882	180.0
73.037399	100.0
73.053505	172.0
73.066315	112.0
73.095245	212.0
73.121544	208.0
73.141197	236.0
73.188866	136.0
73.245827	144.0
73.275734	148.0
73.333679	184.0
73.366066	124.0
73.379654	128.0
73.399117	220.0
73.412109	144.0
73.4394	172.0
73.476929	164.0
73.497406	260.0
73.541779	276.0
73.557137	124.0
73.589577	164.0
73.634735	100.0
73.668144	128.0
73.681808	148.0
73.767265	184.0
73.786064	232.0
73.81955	172.0
73.825531	100.0
73.831291	180.0
73.876823	188.0
73.912437	200.0
73.946449	196.0
74.04789	152.0
74.062469	168.0
74.099281	124.0
74.130249	220.0
74.13768	168.0
74.151154	164.0
74.184975	120.0
74.218216	176.0
74.244995	80.0
74.274712	172.0
74.292526	256.0
74.316994	152.0
74.343903	184.0
74.368347	116.0
74.418983	92.0
74.441757	160.0
74.48156	136.0
74.504196	60.0
74.521378	36.0
74.537849	132.0
74.573242	156.0
74.600433	204.0
74.636543	180.0
74.653305	160.0
74.676094	132.0
74.691574	112.0
74.719101	136.0
74.736313	216.0
74.762123	116.0
74.798271	148.0
74.810318	132.0
74.872139	200.0
74.876785	180.0
74.903366	124.0
74.939133	180.0
74.950119	204.0
75.020615	184.0
75.048088	124.0
75.064293	120.0
75.089478	168.0
75.10759	208.0
75.122147	132.0
75.146278	164.0
75.169586	184.0
75.239609	116.0
75.270683	304.0
75.301773	168.0
75.382973	144.0
75.408897	208.0
75.431374	220.0
75.450386	140.0
75.508705	160.0
75.543777	140.0
75.562042	144.0
75.581841	48.0
75.59742	180.0
75.628571	136.0
75.653107	116.0
75.706482	128.0
75.739395	88.0
75.79657	156.0
75.817368	148.0
75.833466	152.0
75.888443	160.0
75.92659	132.0
75.949142	116.0
75.961281	116.0
75.985573	256.0
76.00061	156.0
76.029831	140.0
76.061935	68.0
76.178284	112.0
76.223457	176.0
76.259956	64.0
76.282555	120.0
76.298203	176.0
76.341675	132.0
76.416138	248.0
76.486084	184.0
76.505234	180.0
76.527664	168.0
76.557724	180.0
76.564026	152.0
76.641312	344.0
76.671448	228.0
76.683792	192.0
76.698608	204.0
76.748611	360.0
76.771446	108.0
76.79451	148.0
76.80954	160.0
76.83812	204.0
76.859062	84.0
76.914909	108.0
76.979515	164.0
77.019684	140.0
77.093063	164.0
77.152496	124.0
77.180473	124.0
77.199486	220.0
77.267326	104.0
77.307602	232.0
77.36676	128.0
77.386826	172.0
77.406212	136.0
77.429993	212.0
77.436188	136.0
77.456711	144.0
77.474525	192.0
77.494507	168.0
77.598961	160.0
77.665604	192.0
77.688408	172.0
77.770889	136.0
77.791954	172.0
77.833374	224.0
77.861832	184.0
77.880196	136.0
77.889618	104.0
77.916649	132.0
77.928947	176.0
77.979912	56.0
78.020973	156.0
78.03968	84.0
78.055511	144.0
78.0942	68.0
78.126595	192.0
78.141701	44.0
78.182892	132.0
78.207726	240.0
78.222656	112.0
78.250397	232.0
78.270195	288.0
78.321266	176.0
78.367073	160.0
78.395271	156.0
78.411133	128.0
78.435806	220.0
78.462257	128.0
78.516273	228.0
78.536324	192.0
78.591011	312.0
78.603363	220.0
78.62101	168.0
78.668373	164.0
78.706299	168.0
78.767563	164.0
78.788765	124.0
78.855919	192.0
78.930168	148.0
78.949623	176.0
78.962006	140.0
78.983231	148.0
79.020859	164.0
79.045151	120.0
79.057541	84.0
79.07711	144.0
79.119499	192.0
79.175644	192.0
79.232941	144.0
79.247017	124.0
79.26651	164.0
79.287781	140.0
79.300186	156.0
79.318474	164.0
79.349823	228.0
79.374649	124.0
79.387062	136.0
79.415436	124.0
79.444817	236.0
79.461563	88.0
79.497017	180.0
79.525497	160.0
79.564507	116.0
79.61245	124.0
79.720375	140.0
79.733261	260.0
79.815041	212.0
79.852005	160.0
79.879066	148.0
79.905754	176.0
79.921768	172.0
79.952019	152.0
79.966263	236.0
80.021446	168.0
80.043129	68.0
80.067749	180.0
80.104546	196.0
80.140785	128.0
80.174644	160.0
80.193359	88.0
80.206726	52.0
80.242386	68.0
80.271446	196.0
80.303017	152.0
80.318893	160.0
80.386971	144.0
80.452629	176.0
80.478081	164.0
80.50042	116.0
80.533272	228.0
80.590096	188.0
80.620819	584.0
80.67981	168.0
80.704842	84.0
80.763855	144.0
80.776382	160.0
80.825203	108.0
80.853935	116.0
80.914185	128.0
80.935669	28.0
80.959892	176.0
80.975067	152.0
81.041351	128.0
81.113045	140.0
81.176964	240.0
81.193733	132.0
81.261902	148.0
81.295998	272.0
81.33548	144.0
81.38755	248.0
81.403709	196.0
81.421722	252.0
81.453949	132.0
81.472374	380.0
81.500717	140.0
81.525497	152.0
81.552834	152.0
81.655281	176.0
81.712883	168.0
81.736595	160.0
81.809662	156.0
81.837082	192.0
81.867645	204.0
81.894714	156.0
81.925339	200.0
81.939751	124.0
81.954163	112.0
81.970268	124.0
81.975227	116.0
82.009544	340.0
82.014275	124.0
82.055183	172.0
82.082146	64.0
82.116417	204.0
82.158455	196.0
82.181358	284.0
82.204697	128.0
82.274536	180.0
82.291466	136.0
82.305908	100.0
82.3452	164.0
82.373711	200.0
82.410675	80.0
82.434166	108.0
82.45224	44.0
82.477249	148.0
82.504662	176.0
82.523605	176.0
82.5354	332.0
82.576996	88.0
82.598701	36.0
82.621674	184.0
82.744293	224.0
82.767021	348.0
82.783318	160.0
82.820358	112.0
82.846718	108.0
82.868462	136.0
82.901695	140.0
82.930077	104.0
82.94989	292.0
82.977211	212.0
82.997154	76.0
83.00985	108.0
83.074066	168.0
83.109619	60.0
83.128319	340.0
83.173462	224.0
83.20134	208.0
83.234871	148.0
83.28199	140.0
83.310555	204.0
83.331139	188.0
83.360214	28.0
83.423294	104.0
83.442017	168.0
83.471581	276.0
83.555344	272.0
83.572914	204.0
83.602898	192.0
83.645775	128.0
83.671265	144.0
83.704041	272.0
83.720428	144.0
83.742287	164.0
83.762062	140.0
83.778717	160.0
83.793289	124.0
83.807869	76.0
83.822449	116.0
83.902756	132.0
83.940941	36.0
83.959526	248.0
83.986534	216.0
84.014771	132.0
84.048569	152.0
84.077087	420.0
84.092369	76.0
84.109802	116.0
84.126045	116.0
84.174522	148.0
84.194611	164.0
84.225662	164.0
84.285957	196.0
84.304863	344.0
84.357239	104.0
84.38781	144.0
84.410103	184.0
84.434036	160.0
84.54747	156.0
84.58007	172.0
84.633507	56.0
84.66098	64.0
84.688454	136.0
84.725365	188.0
84.747078	108.0
84.785561	132.0
84.835716	380.0
84.864388	80.0
84.882721	148.0
84.960136	176.0
85.016647	112.0
85.036835	172.0
85.068451	172.0
85.078903	48.0
85.084038	168.0
85.119446	152.0
85.224152	116.0
85.290314	152.0
85.309074	256.0
85.329826	284.0
85.352829	104.0
85.40741	136.0
85.454163	132.0
85.486855	140.0
85.512436	180.0
85.529449	124.0
85.568108	136.0
85.61599	108.0
85.634407	208.0
85.671249	152.0
85.696526	172.0
85.752327	120.0
85.776794	168.0
85.818054	184.0
85.834488	176.0
85.867569	136.0
85.912758	128.0
85.936356	208.0
85.997017	308.0
86.040108	196.0
86.053032	136.0
86.065956	88.0
86.093658	200.0
86.149071	116.0
86.222984	208.0
86.24147	140.0
86.289536	152.0
86.302475	56.0
86.339462	76.0
86.370903	184.0
86.431961	80.0
86.450462	124.0
86.476273	244.0
86.507843	316.0
86.524506	144.0
86.570267	256.0
86.61525	176.0
86.638718	180.0
86.681953	168.0
86.728287	140.0
86.744972	140.0
86.76722	168.0
86.783768	160.0
86.815849	208.0
86.820412	140.0
86.852272	148.0
86.871078	192.0
86.941589	176.0
86.983765	72.0
87.012123	104.0
87.062263	96.0
87.121239	176.0
87.149574	212.0
87.231354	124.0
87.260674	140.0
87.28904	156.0
87.331337	208.0
87.355949	204.0
87.39502	212.0
87.409904	116.0
87.438156	332.0
87.454575	108.0
87.50856	164.0
87.6045	104.0
87.622177	120.0
87.704178	104.0
87.726547	124.0
87.743324	116.0
87.761971	144.0
87.78994	124.0
87.812325	64.0
87.83638	152.0
87.935471	392.0
87.960938	224.0
88.004066	212.0
88.032555	176.0
88.046486	244.0
88.062439	92.0
88.102577	188.0
88.145149	132.0
88.168938	184.0
88.189491	184.0
88.206322	144.0
88.245583	36.0
88.259743	132.0
88.288589	168.0
88.315269	148.0
88.378334	148.0
88.41581	136.0
88.450142	212.0
88.506126	212.0
88.546867	148.0
88.567474	144.0
88.616035	148.0
88.635818	192.0
88.651848	124.0
88.773643	120.0
88.80056	160.0
88.835617	352.0
88.936584	156.0
88.968788	84.0
88.992516	188.0
89.040634	216.0
89.115807	248.0
89.149117	112.0
89.179184	128.0
89.244987	180.0
89.293877	120.0
89.35183	144.0
89.393593	184.0
89.429352	160.0
89.469368	140.0
89.493362	104.0
89.526146	264.0
89.557396	188.0
89.606377	104.0
89.625214	152.0
89.640289	160.0
89.653481	168.0
89.679871	104.0
89.725113	132.0
89.740196	128.0
89.764709	104.0
89.7798	152.0
89.796776	116.0
89.848289	168.0
89.934875	168.0
90.068581	168.0
90.080917	140.0
90.136597	168.0
90.161171	116.0
90.197914	208.0
90.250015	108.0
90.299271	188.0
90.329453	176.0
90.382431	136.0
90.409233	148.0
90.446777	40.0
90.489647	192.0
90.526299	368.0
90.571426	232.0
90.679764	116.0
90.742195	188.0
90.766304	160.0
90.785934	152.0
90.801109	176.0
90.82766	96.0
90.883316	112.0
90.918739	112.0
90.932281	116.0
90.949104	192.0
91.026947	128.0
91.080132	148.0
91.104828	100.0
91.149261	172.0
91.173233	96.0
91.201744	140.0
91.220749	116.0
91.26638	64.0
91.293007	128.0
91.323433	192.0
91.359581	44.0
91.376701	192.0
91.390022	164.0
91.451378	168.0
91.47567	172.0
91.496613	148.0
91.551834	164.0
91.633743	164.0
91.684517	188.0
91.746193	104.0
91.772888	188.0
91.797676	184.0
91.811028	180.0
91.830612	164.0
91.873268	172.0
91.898773	116.0
91.91964	184.0
91.934868	136.0
91.971245	140.0
92.005661	244.0
92.027542	208.0
92.049927	132.0
92.067429	328.0
92.084801	156.0
92.102432	220.0
92.118774	192.0
92.164192	308.0
92.192856	168.0
92.240585	136.0
92.30352	212.0
92.43956	168.0
92.452957	132.0
92.469254	188.0
92.521866	204.0
92.542923	112.0
92.579308	112.0
92.594475	148.0
92.680954	136.0
92.726837	120.0
92.756714	156.0
92.781158	176.0
92.818855	216.0
92.839333	308.0
92.842239	192.0
92.881432	160.0
92.895576	128.0
92.940575	124.0
92.948341	56.0
92.954353	152.0
93.008003	200.0
93.053627	308.0
93.081757	184.0
93.110565	204.0
93.139374	132.0
93.173958	140.0
93.194626	132.0
93.221992	80.0
93.256584	192.0
93.302727	104.0
93.352722	72.0
93.375801	312.0
93.393112	188.0
93.423889	192.0
93.45549	184.0
93.492531	196.0
93.519279	316.0
93.533577	128.0
93.564384	188.0
93.647621	160.0
93.694481	276.0
93.731956	132.0
93.763779	148.0
93.807129	160.0
93.857254	160.0
93.902115	168.0
93.91761	164.0
93.934219	192.0
93.953697	84.0
93.972992	148.0
93.992043	252.0
94.025093	148.0
94.065437	248.0
94.096947	180.0
94.141411	176.0
94.179558	80.0
94.201454	360.0
94.249115	208.0
94.264572	208.0
94.297424	96.0
94.316757	152.0
94.342529	144.0
94.362038	180.0
94.407486	108.0
94.45018	148.0
94.46566	124.0
94.488876	144.0
94.554665	160.0
94.568253	200.0
94.59404	152.0
94.639793	152.0
94.665909	140.0
94.699883	160.0
94.726418	160.0
94.756065	120.0
94.820007	64.0
94.87429	168.0
94.93634	124.0
94.954933	272.0
95.069679	400.0
95.145256	108.0
95.168427	120.0
95.175476	156.0
95.209496	128.0
95.249725	192.0
95.31675	184.0
95.371254	188.0
95.384857	204.0
95.398468	40.0
95.412079	188.0
95.437355	156.0
95.476242	32.0
95.493401	156.0
95.536545	144.0
95.550163	216.0
95.567673	176.0
95.622169	128.0
95.651367	164.0
95.674728	212.0
95.718208	108.0
95.749847	180.0
95.763565	116.0
95.769501	72.0
95.779121	164.0
95.824692	188.0
95.869514	184.0
95.894852	172.0
95.920189	112.0
95.961891	216.0
96.004669	160.0
96.034302	160.0
96.07885	1748.0
96.109375	124.0
96.124985	112.0
96.160118	40.0
96.17749	160.0
96.203369	152.0
96.292885	76.0
96.322182	108.0
96.348091	200.0
96.398384	72.0
96.417931	120.0
96.44529	48.0
96.48439	92.0
96.533745	248.0
96.550873	92.0
96.572388	140.0
96.611511	188.0
96.660431	148.0
96.674133	88.0
96.69957	144.0
96.723991	124.0
96.752213	236.0
96.800247	528.0
96.828796	128.0
96.850342	144.0
96.883644	160.0
96.930672	140.0
96.958107	132.0
96.979668	132.0
97.01413	200.0
97.042122	284.0
97.062012	228.0
97.086288	1036.0
97.118958	116.0
97.144386	384.0
97.192818	148.0
97.222878	200.0
97.270447	84.0
97.292679	128.0
97.304611	200.0
97.381912	124.0
97.434952	188.0
97.491936	120.0
97.545708	232.0
97.576462	48.0
97.590225	116.0
97.627586	116.0
97.662987	204.0
97.720039	148.0
97.739716	272.0
97.760536	76.0
97.788918	116.0
97.82238	108.0
97.847977	148.0
97.862434	340.0
97.888474	136.0
97.903114	124.0
97.918022	168.0
97.942505	136.0
97.989693	164.0
98.021317	140.0
98.052811	200.0
98.060013	132.0
98.066025	152.0
98.095428	21976.0
98.1455	104.0
98.160843	108.0
98.173904	184.0
98.212555	44.0
98.23896	104.0
98.271416	76.0
98.288818	92.0
98.299278	88.0
98.30529	132.0
98.360558	176.0
98.386215	204.0
98.40596	100.0
98.428902	168.0
98.445457	84.0
98.463226	152.0
98.477058	124.0
98.497246	216.0
98.541771	200.0
98.567932	120.0
98.583748	96.0
98.613388	164.0
98.63118	160.0
98.670723	116.0
98.7276	204.0
98.745041	200.0
98.807419	172.0
98.842285	164.0
98.85675	264.0
98.896774	104.0
98.918015	56.0
98.935837	124.0
98.95829	188.0
99.017021	140.0
99.034851	172.0
99.098358	2504.0
99.122383	176.0
99.151749	196.0
99.19883	172.0
99.227081	108.0
99.264908	152.0
99.290535	152.0
99.30442	36.0
99.318306	164.0
99.364548	128.0
99.399612	224.0
99.447281	176.0
99.4711	152.0
99.488968	160.0
99.517418	180.0
99.534637	192.0
99.562439	60.0
99.59819	156.0
99.630791	156.0
99.668915	160.0
99.690987	176.0
99.749153	132.0
99.775055	44.0
99.848885	288.0
99.920898	196.0
99.93338	160.0
99.962036	64.0
99.981934	64.0
100.037827	204.0
100.102425	284.0
100.155159	148.0
100.185043	148.0
100.202972	140.0
100.21891	104.0
100.289246	124.0
100.323349	120.0
100.368416	60.0
100.412285	144.0
100.44857	316.0
100.483788	152.0
100.521492	168.0
100.54303	176.0
100.583885	176.0
100.606979	120.0
100.630714	132.0
100.691711	164.0
100.721672	116.0
100.741104	132.0
100.774612	72.0
100.845955	164.0
100.880592	160.0
100.896156	156.0
100.922447	200.0
100.929443	92.0
100.93689	288.0
101.010811	100.0
101.041634	108.0
101.085564	172.0
101.10157	172.0
101.121338	196.0
101.152809	192.0
101.227692	180.0
101.243713	160.0
101.259735	96.0
101.273758	128.0
101.287781	116.0
101.305809	144.0
101.331856	216.0
101.361916	152.0
101.383026	112.0
101.445969	128.0
101.486221	272.0
101.506248	144.0
101.608543	44.0
101.650681	104.0
101.692825	148.0
101.735046	180.0
101.750198	160.0
101.783173	64.0
101.817924	184.0
101.863083	132.0
101.909805	188.0
101.976036	48.0
101.992119	108.0
102.016884	324.0
102.025444	104.0
102.035164	136.0
102.100693	160.0
102.122818	132.0
102.167076	204.0
102.201279	176.0
102.215363	120.0
102.254524	236.0
102.291847	104.0
102.401131	176.0
102.448929	140.0
102.516151	204.0
102.535576	56.0
102.55835	148.0
102.577911	172.0
102.630821	164.0
102.658562	128.0
102.700272	176.0
102.731171	192.0
102.749329	196.0
102.773781	172.0
102.836105	68.0
102.872437	84.0
102.910995	124.0
102.954002	172.0
102.989563	96.0
103.053368	3748.0
103.083305	192.0
103.115852	192.0
103.133026	28.0
103.151222	64.0
103.171165	148.0
103.188057	164.0
103.215919	164.0
103.23008	88.0
103.269699	192.0
103.3899	68.0
103.456696	140.0
103.48764	128.0
103.53347	236.0
103.554359	212.0
103.592384	252.0
103.606064	244.0
103.622078	128.0
103.665329	48.0
103.685593	60.0
103.720055	60.0
103.746407	432.0
103.799126	140.0
103.835632	120.0
103.877617	132.0
103.914742	180.0
103.935036	184.0
103.963448	208.0
103.98983	76.0
104.011505	124.0
104.046623	544.0
104.052498	128.0
104.14415	172.0
104.194939	192.0
104.255898	80.0
104.280289	152.0
104.328056	136.0
104.336365	68.0
104.340485	176.0
104.391212	180.0
104.418549	160.0
104.489746	108.0
104.519798	264.0
104.533607	140.0
104.560966	72.0
104.581322	160.0
104.629906	180.0
104.650536	124.0
104.664795	128.0
104.703484	196.0
104.730263	164.0
104.758324	152.0
104.888908	124.0
104.940773	192.0
104.999977	152.0
105.046227	192.0
105.070412	160.0
105.103058	80.0
105.127541	132.0
105.204147	136.0
105.234375	168.0
105.258194	92.0
105.272491	140.0
105.30925	136.0
105.343369	148.0
105.372581	200.0
105.393013	32.0
105.433884	124.0
105.460457	76.0
105.491119	184.0
105.52803	152.0
105.583649	144.0
105.622444	220.0
105.639618	104.0
105.660866	108.0
105.695648	176.0
105.727325	176.0
105.766388	156.0
105.795944	160.0
105.810272	132.0
105.849693	32.0
105.922913	200.0
105.961838	200.0
105.975517	136.0
106.023315	188.0
106.091957	164.0
106.160675	132.0
106.195541	164.0
106.245239	176.0
106.312485	104.0
106.361748	156.0
106.384331	212.0
106.403534	124.0
106.421402	208.0
106.439766	100.0
106.505486	152.0
106.523422	192.0
106.575607	168.0
106.597946	120.0
106.612328	88.0
106.704834	172.0
106.723335	164.0
106.752129	180.0
106.766525	84.0
106.807655	180.0
106.821365	172.0
106.868889	168.0
106.883781	176.0
106.927147	164.0
106.982903	128.0
107.025818	140.0
107.059258	724.0
107.091225	396.0
107.124054	132.0
107.159698	40.0
107.182365	184.0
107.229767	200.0
107.293671	244.0
107.355774	208.0
107.440102	100.0
107.456612	148.0
107.517891	184.0
107.565208	200.0
107.618225	160.0
107.696083	108.0
107.751862	208.0
107.781929	188.0
107.87368	216.0
107.941177	188.0
107.956505	216.0
107.975418	136.0
108.01442	208.0
108.05658	264.0
108.079514	332.0
108.113731	120.0
108.13868	156.0
108.188255	184.0
108.239456	352.0
108.292809	220.0
108.325912	160.0
108.34565	184.0
108.360153	172.0
108.401596	76.0
108.446701	152.0
108.478287	160.0
108.523903	164.0
108.557076	112.0
108.596329	164.0
108.63797	180.0
108.653236	56.0
108.666771	168.0
108.681541	164.0
108.703522	176.0
108.732605	192.0
108.74588	396.0
108.766632	96.0
108.785789	176.0
108.814384	76.0
108.834991	236.0
108.858818	140.0
108.91758	172.0
108.931725	168.0
108.955849	192.0
108.984032	376.0
109.044243	115560.0
109.094147	252.0
109.116592	208.0
109.160568	100.0
109.192436	268.0
109.22654	100.0
109.250702	112.0
109.278358	148.0
109.29821	224.0
109.301788	172.0
109.312523	308.0
109.3647	244.0
109.385498	1060.0
109.424362	172.0
109.458984	176.0
109.473557	232.0
109.493484	120.0
109.548546	52.0
109.566063	88.0
109.579796	132.0
109.608307	76.0
109.651512	192.0
109.711388	204.0
109.726929	204.0
109.732887	124.0
109.740799	208.0
109.756035	156.0
109.783035	112.0
109.812157	160.0
109.867516	32.0
109.893837	156.0
109.952942	156.0
109.98027	240.0
110.004463	148.0
110.019005	216.0
110.047272	8824.0
110.09481	4316.0
110.126999	132.0
110.155174	96.0
110.170235	64.0
110.246948	208.0
110.262009	148.0
110.270119	120.0
110.291443	80.0
110.34182	112.0
110.367416	176.0
110.380997	72.0
110.41317	184.0
110.434677	128.0
110.471283	96.0
110.493332	104.0
110.524529	88.0
110.547104	220.0
110.601028	144.0
110.620392	112.0
110.667091	108.0
110.705086	204.0
110.721687	148.0
110.76078	124.0
110.803116	80.0
110.843407	148.0
110.875938	336.0
110.912506	220.0
110.933067	252.0
110.958717	124.0
110.984421	164.0
111.046967	160.0
111.05764	92.0
111.099602	320.0
111.135445	184.0
111.183716	176.0
111.204704	100.0
111.224129	164.0
111.261383	116.0
111.288673	32.0
111.309677	140.0
111.345375	96.0
111.366379	172.0
111.389488	44.0
111.418098	136.0
111.458824	36.0
111.512764	156.0
111.538689	128.0
111.570328	156.0
111.635406	176.0
111.653633	168.0
111.717438	72.0
111.734268	360.0
111.748604	172.0
111.80014	216.0
111.831505	116.0
111.893417	136.0
111.919495	80.0
111.957397	120.0
111.986885	132.0
112.00795	76.0
112.025948	100.0
112.039551	128.0
112.110619	1652.0
112.138588	144.0
112.16449	280.0
112.199722	84.0
112.273529	208.0
112.338188	104.0
112.364235	172.0
112.377853	136.0
112.432182	200.0
112.524643	108.0
112.552094	184.0
112.571098	352.0
112.623741	208.0
112.628975	208.0
112.706291	136.0
112.723198	144.0
112.737991	120.0
112.780144	140.0
112.805626	144.0
112.827667	132.0
112.888092	204.0
112.945595	240.0
113.003716	200.0
113.019241	164.0
113.074265	264.0
113.111412	512.0
113.161964	168.0
113.190704	148.0
113.237297	188.0
113.259186	84.0
113.299736	168.0
113.345345	88.0
113.414398	172.0
113.474648	172.0
113.502213	148.0
113.548866	104.0
113.576111	208.0
113.608261	100.0
113.707993	168.0
113.731346	152.0
113.784721	140.0
113.820511	180.0
113.852364	176.0
113.869354	132.0
113.941582	116.0
113.971329	128.0
113.988327	192.0
114.007454	124.0
114.043587	56.0
114.079727	148.0
114.096405	128.0
114.125587	196.0
114.22023	56.0
114.271141	112.0
114.300926	124.0
114.320084	72.0
114.403198	80.0
114.522346	172.0
114.585266	172.0
114.648048	160.0
114.677887	264.0
114.693054	216.0
114.711998	156.0
114.743599	180.0
114.775955	156.0
114.814034	216.0
114.872681	220.0
114.974358	184.0
115.022453	172.0
115.052299	216.0
115.089638	144.0
115.104584	200.0
115.11953	172.0
115.149429	324.0
115.175064	144.0
115.217789	188.0
115.251289	212.0
115.349319	88.0
115.467896	208.0
115.485001	184.0
115.519234	148.0
115.544899	144.0
115.57058	212.0
115.617661	184.0
115.63308	216.0
115.707565	216.0
115.754669	64.0
115.778229	176.0
115.941055	172.0
116.022507	212.0
116.063797	356.0
116.088387	392.0
116.142967	164.0
116.19838	104.0
116.239151	188.0
116.279922	160.0
116.319336	276.0
116.357201	172.0
116.421623	376.0
116.465607	192.0
116.484161	152.0
116.526711	148.0
116.556961	48.0
116.606544	168.0
116.657524	132.0
116.690231	140.0
116.73539	92.0
116.781891	148.0
116.803452	364.0
116.822693	88.0
116.861526	200.0
116.896729	148.0
116.962944	172.0
117.008659	168.0
117.066254	340.0
117.088341	160.0
117.182785	184.0
117.208977	220.0
117.267166	144.0
117.315247	132.0
117.364182	152.0
117.39653	148.0
117.415939	336.0
117.431038	116.0
117.482811	152.0
117.514168	224.0
117.536751	96.0
117.597588	212.0
117.655464	128.0
117.672737	120.0
117.707283	124.0
117.748314	132.0
117.763435	120.0
117.864975	108.0
117.936028	148.0
117.968719	164.0
117.996826	196.0
118.0271	172.0
118.063034	188.0
118.076759	108.0
118.101997	368.0
118.15255	68.0
118.206642	148.0
118.230453	164.0
118.25692	188.0
118.282402	44.0
118.317039	136.0
118.344666	200.0
118.374443	148.0
118.418816	124.0
118.440475	136.0
118.462944	140.0
118.569176	212.0
118.588882	180.0
118.609497	164.0
118.631172	168.0
118.70845	144.0
118.776466	204.0
118.809982	160.0
118.841553	108.0
118.863251	104.0
118.896812	224.0
118.916954	416.0
118.960922	124.0
118.982635	116.0
119.010864	168.0
119.039093	28.0
119.059334	944.0
119.088799	176.0
119.115112	168.0
119.134659	180.0
119.152908	140.0
119.168159	96.0
119.199844	124.0
119.251213	396.0
119.275917	132.0
119.312767	332.0
119.356361	152.0
119.388977	80.0
119.47599	44.0
119.495567	160.0
119.541267	176.0
119.569557	136.0
119.584793	112.0
119.606964	108.0
119.645744	164.0
119.695824	116.0
119.724136	204.0
119.745865	168.0
119.752716	164.0
119.798195	64.0
119.835236	164.0
119.853653	176.0
119.859962	80.0
119.867065	204.0
119.900612	44.0
119.941444	196.0
119.963875	172.0
119.994347	140.0
120.011787	176.0
120.03141	156.0
120.054741	176.0
120.070671	124.0
120.135605	104.0
120.157928	160.0
120.208115	80.0
120.232117	128.0
120.378387	80.0
120.41552	184.0
120.491974	128.0
120.537857	116.0
120.584709	156.0
120.62529	76.0
120.657318	292.0
120.680801	112.0
120.723679	164.0
120.78595	280.0
120.815552	144.0
120.843994	148.0
120.90818	204.0
120.955605	176.0
120.99501	216.0
121.019829	132.0
121.043472	3244.0
121.08905	204.0
121.115417	204.0
121.163658	132.0
121.187759	148.0
121.255692	144.0
121.273224	108.0
121.288567	56.0
121.343376	328.0
121.366302	188.0
121.458817	200.0
121.464546	128.0
121.575897	156.0
121.606628	116.0
121.640808	56.0
121.662979	164.0
121.743484	340.0
121.768944	140.0
121.835007	192.0
121.85038	68.0
121.867004	184.0
121.981834	128.0
122.044708	428.0
122.098183	616.0
122.138374	48.0
122.175774	148.0
122.293571	136.0
122.338631	132.0
122.354042	72.0
122.371658	188.0
122.45314	124.0
122.533195	188.0
122.558884	152.0
122.596344	160.0
122.622795	72.0
122.756622	148.0
122.796974	100.0
122.812973	248.0
122.86676	200.0
122.885216	216.0
122.909492	44.0
122.929352	200.0
122.955742	276.0
123.00219	156.0
123.026474	112.0
123.059082	8400.0
123.102432	620.0
123.145714	176.0
123.170013	328.0
123.223038	92.0
123.238503	44.0
123.260597	116.0
123.321838	124.0
123.346794	116.0
123.367691	112.0
123.408699	64.0
123.435234	44.0
123.463982	124.0
123.519279	108.0
123.55571	172.0
123.594505	224.0
123.616631	132.0
123.640007	56.0
123.720665	136.0
123.747231	196.0
123.810051	176.0
123.833603	156.0
123.934601	196.0
123.993126	188.0
124.061455	1344.0
124.110992	7076.0
124.157188	52.0
124.241486	128.0
124.289558	192.0
124.348	76.0
124.527847	188.0
124.545616	96.0
124.616356	176.0
124.623253	148.0
124.657921	180.0
124.678925	144.0
124.730049	160.0
124.750053	108.0
124.776733	128.0
124.800652	148.0
124.830101	168.0
124.850113	152.0
124.875694	104.0
124.89238	48.0
124.925743	112.0
124.954285	192.0
124.988045	168.0
125.004921	164.0
125.036507	144.0
125.077065	160.0
125.116455	1444.0
125.164925	148.0
125.217346	128.0
125.241844	44.0
125.257439	96.0
125.273033	104.0
125.287842	68.0
125.329651	224.0
125.369934	312.0
125.391136	204.0
125.431259	88.0
125.482529	200.0
125.543816	120.0
125.584221	184.0
125.602959	100.0
125.623039	52.0
125.719589	148.0
125.739716	208.0
125.756927	160.0
125.774284	196.0
125.808014	176.0
125.832825	72.0
125.861275	216.0
125.947777	236.0
125.955864	128.0
125.964592	212.0
125.99041	60.0
126.039162	212.0
126.069611	116.0
126.125916	316.0
126.161255	116.0
126.206268	180.0
126.275299	108.0
126.293823	184.0
126.311882	152.0
126.337929	112.0
126.369255	120.0
126.398346	144.0
126.416901	192.0
126.505775	164.0
126.557274	136.0
126.582474	204.0
126.718544	176.0
126.850349	148.0
126.857719	120.0
126.864784	160.0
126.946121	152.0
126.974098	124.0
127.017181	116.0
127.052864	1696.0
127.097488	160.0
127.117683	132.0
127.136322	164.0
127.229912	152.0
127.265411	128.0
127.326469	116.0
127.351173	52.0
127.375885	160.0
127.425308	160.0
127.526436	152.0
127.546669	140.0
127.562401	168.0
127.611862	148.0
127.692825	176.0
127.740059	252.0
127.780556	108.0
127.809807	100.0
127.857903	140.0
127.895042	156.0
127.935852	96.0
127.970169	196.0
127.992142	160.0
128.053909	496.0
128.13179	208.0
128.17807	140.0
128.208405	100.0
128.225983	276.0
128.306152	196.0
128.325623	112.0
128.365112	156.0
128.397781	156.0
128.465454	160.0
128.492523	116.0
128.512833	200.0
128.539917	64.0
128.574844	216.0
128.603287	148.0
128.630188	72.0
128.700867	120.0
128.724915	176.0
128.730515	168.0
128.772446	184.0
128.802887	172.0
128.876373	100.0
128.907089	160.0
128.96225	128.0
128.991638	100.0
129.029404	124.0
129.069534	1236.0
129.096588	268.0
129.112473	348.0
129.14241	320.0
129.163498	168.0
129.181595	144.0
129.222321	100.0
129.247208	128.0
129.274368	108.0
129.303787	120.0
129.340225	160.0
129.392853	184.0
129.498505	48.0
129.54155	124.0
129.581009	152.0
129.623108	148.0
129.683624	176.0
129.755463	216.0
129.793121	104.0
129.811264	144.0
129.83168	200.0
129.867966	224.0
129.890656	116.0
130.040176	160.0
130.063614	4100.0
130.12764	180.0
130.142563	224.0
130.189331	156.0
130.244766	104.0
130.306107	160.0
130.383606	188.0
130.417465	136.0
130.488953	116.0
130.52887	36.0
130.560699	72.0
130.603912	196.0
130.634171	120.0
130.660797	132.0
130.685822	48.0
130.739609	156.0
130.798508	140.0
130.888412	144.0
130.936234	88.0
131.009125	124.0
131.071152	2184.0
131.157242	84.0
131.225647	172.0
131.278091	84.0
131.325989	132.0
131.389862	244.0
131.419525	196.0
131.458313	124.0
131.549606	124.0
131.588425	152.0
131.655548	112.0
131.730026	56.0
131.76886	156.0
131.800858	92.0
131.831375	192.0
131.872437	196.0
131.903702	160.0
131.949524	208.0
131.997437	204.0
132.030548	100.0
132.04776	128.0
132.075623	332.0
132.101883	300.0
132.106705	200.0
132.115173	168.0
132.132401	144.0
132.168488	232.0
132.248917	200.0
132.283447	44.0
132.326935	156.0
132.342972	88.0
132.358994	420.0
132.468002	168.0
132.546677	220.0
132.608185	204.0
132.651627	244.0
132.706024	160.0
132.849487	56.0
132.883911	184.0
132.945862	156.0
133.010864	212.0
133.043396	1288.0
133.074844	148.0
133.143845	168.0
133.168564	312.0
133.214508	136.0
133.237488	184.0
133.267349	84.0
133.290619	448.0
133.340897	160.0
133.36618	52.0
133.506424	116.0
133.522522	112.0
133.543228	204.0
133.580032	164.0
133.635239	84.0
133.711182	140.0
133.743774	124.0
133.837082	232.0
133.865616	160.0
134.050552	1720.0
134.105042	80.0
134.127029	156.0
134.159256	132.0
134.204178	392.0
134.303345	168.0
134.384094	132.0
134.436203	172.0
134.492554	176.0
134.538727	128.0
134.561813	176.0
134.610306	180.0
134.716553	196.0
134.752441	128.0
134.887451	172.0
134.934875	300.0
134.977737	196.0
135.024704	192.0
135.056015	19704.0
135.097031	100.0
135.121643	228.0
135.141586	48.0
135.1651	64.0
135.189514	220.0
135.236847	248.0
135.267471	140.0
135.303986	64.0
135.331772	160.0
135.357239	168.0
135.415146	156.0
135.457886	144.0
135.479996	188.0
135.494888	96.0
135.512436	84.0
135.53447	204.0
135.554138	164.0
135.581955	172.0
135.612091	180.0
135.639908	132.0
135.679306	120.0
135.727997	136.0
135.75351	108.0
135.809174	68.0
135.846298	160.0
135.878769	132.0
135.897339	152.0
135.931976	116.0
135.994247	184.0
136.02774	168.0
136.06044	1496.0
136.088684	284.0
136.116592	140.0
136.141083	188.0
136.168289	184.0
136.201263	92.0
136.227768	176.0
136.274963	176.0
136.357147	148.0
136.378723	436.0
136.484009	216.0
136.531509	148.0
136.604599	180.0
136.694992	148.0
136.724625	44.0
136.747894	136.0
136.792114	64.0
136.824707	144.0
136.845398	176.0
136.848587	156.0
136.857956	216.0
136.878265	52.0
136.983078	144.0
137.063156	216.0
137.084045	144.0
137.104736	164.0
137.167175	156.0
137.195145	76.0
137.23558	288.0
137.31041	112.0
137.435379	136.0
137.456268	80.0
137.498398	192.0
137.520767	176.0
137.559082	164.0
137.589432	180.0
137.619781	140.0
137.647476	56.0
137.7202	96.0
137.757584	176.0
137.783279	76.0
137.812164	192.0
137.827682	252.0
137.878448	220.0
137.915939	168.0
137.946869	120.0
138.014679	156.0
138.052948	196.0
138.076584	128.0
138.180374	168.0
138.213501	88.0
138.241592	64.0
138.261597	180.0
138.288391	136.0
138.319412	80.0
138.351593	36.0
138.37178	232.0
138.396088	104.0
138.534027	112.0
138.59285	116.0
138.627991	88.0
138.660812	164.0
138.766296	72.0
138.787399	180.0
138.88356	184.0
138.919754	168.0
138.953934	60.0
138.972702	192.0
139.00087	152.0
139.021988	108.0
139.094742	144.0
139.141693	108.0
139.18631	88.0
139.285965	216.0
139.468689	148.0
139.53186	124.0
139.575729	144.0
139.632828	148.0
139.685104	124.0
139.710449	124.0
139.736328	156.0
139.755157	148.0
139.778687	156.0
139.811493	180.0
139.841446	168.0
139.879135	168.0
139.896378	128.0
139.915207	116.0
139.952881	148.0
139.99292	152.0
140.055374	228.0
140.091843	124.0
140.149506	160.0
140.223801	132.0
140.268585	220.0
140.303955	308.0
140.367233	148.0
140.410065	168.0
140.442184	116.0
140.463104	164.0
140.492615	100.0
140.528015	128.0
140.612961	180.0
140.743484	140.0
140.82486	172.0
140.84436	124.0
140.919968	64.0
141.012924	200.0
141.052841	304.0
141.068268	144.0
141.139786	160.0
141.170532	188.0
141.22966	204.0
141.260406	192.0
141.279343	156.0
141.300629	160.0
141.32193	168.0
141.41658	132.0
141.440262	152.0
141.56337	164.0
141.598907	116.0
141.627319	64.0
141.724457	136.0
141.741043	124.0
141.766144	156.0
141.871216	148.0
141.959137	136.0
142.03978	200.0
142.096725	164.0
142.129944	160.0
142.210632	100.0
142.276947	184.0
142.280899	172.0
142.300598	80.0
142.338837	64.0
142.400574	152.0
142.505112	140.0
142.526489	112.0
142.555008	120.0
142.626587	68.0
142.74176	136.0
142.792755	152.0
142.880768	100.0
142.904556	180.0
142.930664	144.0
142.97081	352.0
143.056702	168.0
143.160339	208.0
143.223572	144.0
143.286667	128.0
143.306961	152.0
143.485123	128.0
143.502411	148.0
143.52626	148.0
143.562027	164.0
143.60257	144.0
143.65744	164.0
143.707535	60.0
143.808807	220.0
143.885376	148.0
143.962311	172.0
144.039383	172.0
144.076416	448.0
144.140579	260.0
144.260437	176.0
144.285538	120.0
144.311844	108.0
144.342926	272.0
144.359665	168.0
144.40303	60.0
144.430298	188.0
144.534851	104.0
144.555832	184.0
144.582153	44.0
144.632263	176.0
144.680298	240.0
144.721008	104.0
144.742249	216.0
144.764099	196.0
144.872604	336.0
144.905426	156.0
144.993881	172.0
145.038986	496.0
145.073441	3484.0
145.128342	296.0
145.144501	136.0
145.205078	160.0
145.269852	140.0
145.300674	160.0
145.316269	208.0
145.346146	160.0
145.399429	104.0
145.43782	192.0
145.481033	92.0
145.517044	136.0
145.560272	156.0
145.579147	176.0
145.661148	192.0
145.693069	324.0
145.733215	212.0
145.766861	80.0
145.786087	108.0
145.838959	64.0
145.879837	124.0
145.911621	180.0
145.936676	156.0
145.973602	216.0
146.002457	92.0
146.021698	96.0
146.051422	4104.0
146.114944	100.0
146.141678	64.0
146.25029	144.0
146.293671	164.0
146.368027	116.0
146.42186	200.0
146.449265	100.0
146.464767	152.0
146.505539	92.0
146.544388	96.0
146.573013	32.0
146.616394	88.0
146.633255	156.0
146.667389	172.0
146.747803	368.0
146.789963	188.0
146.828278	248.0
146.859909	88.0
146.879196	120.0
146.897797	220.0
146.926117	380.0
146.949173	196.0
146.965195	124.0
147.000458	208.0
147.02301	220.0
147.059723	99228.0
147.143829	208.0
147.162506	44.0
147.188126	156.0
147.21936	116.0
147.225876	108.0
147.240463	204.0
147.267746	108.0
147.295517	112.0
147.302719	60.0
147.342712	80.0
147.367706	160.0
147.387787	172.0
147.410446	68.0
147.45752	408.0
147.492554	104.0
147.537949	72.0
147.564011	100.0
147.60022	60.0
147.647003	132.0
147.668152	192.0
147.687042	100.0
147.722092	152.0
147.748093	144.0
147.790939	224.0
147.82814	224.0
147.860199	132.0
147.906998	72.0
147.935806	172.0
147.976395	92.0
148.015091	188.0
148.062134	11512.0
148.119995	124.0
148.194473	124.0
148.249054	124.0
148.273102	280.0
148.305862	60.0
148.334412	160.0
148.377853	144.0
148.423645	188.0
148.450684	160.0
148.486237	176.0
148.525208	176.0
148.566772	116.0
148.634979	120.0
148.679382	60.0
148.70726	124.0
148.757401	200.0
148.777634	144.0
148.804489	172.0
148.837189	140.0
148.870041	128.0
148.889145	116.0
148.910034	288.0
148.940796	260.0
148.969635	284.0
148.996384	96.0
149.018936	188.0
149.075378	46892.0
149.109329	372.0
149.139648	320.0
149.161377	128.0
149.179596	288.0
149.219406	184.0
149.246002	188.0
149.323227	76.0
149.340393	72.0
149.369446	128.0
149.393936	120.0
149.417801	64.0
149.440002	36.0
149.468658	124.0
149.477234	144.0
149.517868	48.0
149.571808	296.0
149.594452	84.0
149.613525	96.0
149.648117	48.0
149.668396	140.0
149.687439	124.0
149.724823	108.0
149.752991	156.0
149.810074	164.0
149.839584	72.0
149.870178	232.0
149.892914	76.0
149.935669	148.0
149.969513	100.0
149.981735	72.0
150.002594	144.0
150.021103	208.0
150.078049	5848.0
150.120789	48.0
150.139145	40.0
150.190979	156.0
150.210693	88.0
150.229385	212.0
150.27034	296.0
150.292831	40.0
150.31723	112.0
150.341629	180.0
150.363266	224.0
150.42218	128.0
150.458801	76.0
150.541565	112.0
150.558182	172.0
150.67128	88.0
150.733994	192.0
150.795914	56.0
150.857849	172.0
150.888184	172.0
150.940155	88.0
150.976837	100.0
150.998367	104.0
151.052658	136.0
151.076797	248.0
151.108932	108.0
151.155655	164.0
151.190186	192.0
151.228836	152.0
151.252792	212.0
151.290039	128.0
151.358597	144.0
151.412476	184.0
151.478607	104.0
151.495758	220.0
151.517807	216.0
151.569336	152.0
151.628082	120.0
151.667297	212.0
151.711426	32.0
151.760452	140.0
151.823669	108.0
151.862442	220.0
151.976303	80.0
152.037659	120.0
152.089203	132.0
152.133896	140.0
152.178482	124.0
152.270905	124.0
152.351089	168.0
152.393723	48.0
152.424454	172.0
152.519058	216.0
152.571762	164.0
152.617783	156.0
152.66597	364.0
152.701019	92.0
152.72316	140.0
152.762512	116.0
152.819397	100.0
152.863953	264.0
152.932266	264.0
152.96431	120.0
152.984009	168.0
153.02832	148.0
153.068176	152.0
153.163773	144.0
153.198257	96.0
153.257385	172.0
153.296814	164.0
153.327774	172.0
153.363831	104.0
153.397675	152.0
153.444717	168.0
153.523621	140.0
153.54335	172.0
153.593704	176.0
153.642029	64.0
153.66423	164.0
153.697296	124.0
153.804901	168.0
153.846863	176.0
153.878967	224.0
153.906998	68.0
153.980621	120.0
154.002441	144.0
154.041122	240.0
154.057602	168.0
154.090179	200.0
154.209991	240.0
154.280029	120.0
154.368225	144.0
154.392944	196.0
154.415207	196.0
154.444885	92.0
154.486938	144.0
154.519104	88.0
154.536423	144.0
154.590866	52.0
154.627991	156.0
154.650269	116.0
154.729675	184.0
154.832153	192.0
154.846786	140.0
154.887985	84.0
154.922668	120.0
155.016815	100.0
155.059326	2548.0
155.11348	72.0
155.171555	132.0
155.331696	92.0
155.372025	316.0
155.455704	156.0
155.560013	152.0
155.608917	184.0
155.651123	236.0
155.751221	88.0
155.808365	184.0
155.910233	40.0
155.927628	36.0
155.979828	192.0
156.059143	392.0
156.089233	228.0
156.114105	32.0
156.17688	148.0
156.235977	176.0
156.370361	156.0
156.42511	88.0
156.477402	172.0
156.497314	140.0
156.51973	80.0
156.654221	48.0
156.719009	120.0
156.773819	208.0
156.81868	128.0
156.838623	192.0
156.8741	192.0
156.907547	152.0
156.945831	132.0
157.018158	172.0
157.068039	136.0
157.135391	180.0
157.157852	116.0
157.192795	112.0
157.265244	132.0
157.335205	208.0
157.354965	156.0
157.407471	172.0
157.435852	208.0
157.702286	224.0
157.737274	244.0
157.877289	156.0
157.897308	164.0
157.927322	136.0
158.019882	80.0
158.046295	948.0
158.091675	196.0
158.11998	32.0
158.165024	132.0
158.187561	124.0
158.22261	72.0
158.301865	172.0
158.330292	48.0
158.372864	176.0
158.416504	152.0
158.436417	196.0
158.503143	108.0
158.547729	76.0
158.570816	224.0
158.625961	192.0
158.680588	192.0
158.845947	280.0
158.877701	308.0
158.901825	52.0
158.929428	120.0
159.000809	72.0
159.056061	388.0
159.081558	144.0
159.101105	148.0
159.119308	120.0
159.172913	156.0
159.293472	196.0
159.313568	132.0
159.333664	76.0
159.3927	112.0
159.43483	172.0
159.474823	164.0
159.521011	172.0
159.567413	52.0
159.65744	160.0
159.705719	56.0
159.740936	40.0
159.789444	172.0
159.831512	92.0
159.89444	172.0
159.924637	132.0
159.987564	140.0
160.04361	212.0
160.052704	152.0
160.098358	208.0
160.155914	132.0
160.20668	116.0
160.236908	68.0
160.272186	116.0
160.299896	104.0
160.34404	188.0
160.38559	176.0
160.405762	196.0
160.452454	92.0
160.473831	64.0
160.514175	116.0
160.533569	128.0
160.570175	248.0
160.630203	160.0
160.662994	44.0
160.704071	144.0
160.774017	84.0
160.810471	136.0
160.872467	40.0
160.935577	176.0
160.963348	100.0
160.998993	140.0
161.029022	120.0
161.070236	1104.0
161.097214	152.0
161.117432	144.0
161.167969	180.0
161.324661	156.0
161.381836	112.0
161.440979	152.0
161.7117	88.0
161.744598	156.0
161.772446	120.0
161.857407	136.0
161.934509	120.0
161.981293	136.0
162.008865	136.0
162.035843	88.0
162.079529	468.0
162.20192	112.0
162.22084	128.0
162.312119	84.0
162.334946	176.0
162.366409	176.0
162.411026	140.0
162.504898	136.0
162.53569	160.0
162.574707	188.0
162.593643	128.0
162.647568	92.0
162.677475	96.0
162.69606	200.0
162.763809	168.0
162.7892	168.0
162.839996	140.0
162.898422	176.0
162.923828	88.0
162.946686	344.0
162.98735	236.0
163.088501	400.0
163.13063	64.0
163.147476	104.0
163.204315	112.0
163.220749	220.0
163.252914	108.0
163.373016	140.0
163.501038	152.0
163.669067	100.0
163.722534	112.0
163.74292	152.0
163.771286	116.0
163.885574	380.0
163.926346	108.0
163.956924	124.0
164.008835	132.0
164.058044	180.0
164.086487	348.0
164.132828	124.0
164.155777	196.0
164.199615	108.0
164.258804	204.0
164.290771	104.0
164.406723	176.0
164.446396	128.0
164.52861	172.0
164.56662	68.0
164.601837	176.0
164.691757	132.0
164.763275	52.0
164.801605	108.0
164.842484	156.0
164.914047	112.0
164.951233	140.0
165.023987	156.0
165.070007	140.0
165.146729	36.0
165.182541	204.0
165.205566	152.0
165.278671	196.0
165.300247	32.0
165.34787	156.0
165.434586	156.0
165.548553	112.0
165.566483	108.0
165.648453	328.0
165.753494	172.0
165.791611	184.0
165.820129	140.0
165.937393	208.0
165.978439	144.0
166.021271	176.0
166.074326	176.0
166.103668	180.0
166.140091	124.0
166.189423	176.0
166.207382	88.0
166.251007	116.0
166.268967	188.0
166.328003	180.0
166.357361	476.0
166.443542	76.0
166.667023	100.0
166.767242	224.0
166.83136	132.0
166.844833	152.0
166.87941	324.0
166.903503	192.0
167.065536	64.0
167.104614	152.0
167.14389	124.0
167.165161	168.0
167.227661	92.0
167.263702	172.0
167.294586	168.0
167.342636	200.0
167.387924	192.0
167.454239	152.0
167.528946	156.0
167.626846	108.0
167.755722	184.0
167.790009	108.0
167.870743	124.0
167.954285	196.0
168.029099	120.0
168.096191	116.0
168.201477	152.0
168.239685	52.0
168.258804	164.0
168.300125	204.0
168.442169	196.0
168.480911	72.0
168.516006	192.0
168.599777	168.0
168.641129	140.0
168.770401	208.0
168.88678	60.0
168.920288	168.0
168.97258	144.0
169.074005	220.0
169.171432	176.0
169.241333	272.0
169.313843	128.0
169.352692	68.0
169.413055	212.0
169.456314	132.0
169.497772	92.0
169.531464	152.0
169.557388	88.0
169.575531	176.0
169.59436	176.0
169.640335	116.0
169.70015	56.0
169.763184	168.0
169.824448	176.0
169.855576	156.0
169.873734	44.0
169.920425	116.0
170.050995	316.0
170.076141	176.0
170.105179	192.0
170.13324	136.0
170.164398	148.0
170.278656	132.0
170.322815	128.0
170.409653	124.0
170.481308	128.0
170.525497	280.0
170.641098	136.0
170.689285	112.0
170.761673	120.0
170.83493	220.0
170.868759	84.0
170.897202	124.0
170.993668	168.0
171.027496	156.0
171.053345	1728.0
171.085648	188.0
171.134247	148.0
171.161514	212.0
171.227997	136.0
171.296799	180.0
171.341278	156.0
171.399933	136.0
171.462479	176.0
171.527634	124.0
171.595428	152.0
171.626709	180.0
171.644958	108.0
171.668732	104.0
171.746674	116.0
171.766373	160.0
171.834061	128.0
171.926651	164.0
171.98674	96.0
172.028503	304.0
172.060837	968.0
172.224365	132.0
172.253738	172.0
172.280518	184.0
172.305344	316.0
172.341919	188.0
172.372787	168.0
172.43573	76.0
172.499405	200.0
172.603317	76.0
172.640289	204.0
172.649002	180.0
172.677322	120.0
172.739319	156.0
172.773331	36.0
172.793823	120.0
172.8358	240.0
172.852676	160.0
172.889191	100.0
172.915253	160.0
172.943222	208.0
172.974457	428.0
172.993439	196.0
173.042511	492.0
173.070145	102640.0
173.143982	160.0
173.175751	88.0
173.217667	104.0
173.2341	92.0
173.267258	152.0
173.31337	140.0
173.350677	228.0
173.368378	112.0
173.405502	164.0
173.445099	160.0
173.458694	68.0
173.500397	492.0
173.538986	160.0
173.604416	136.0
173.634354	80.0
173.677948	76.0
173.704315	188.0
173.725494	244.0
173.750198	144.0
173.767593	188.0
173.799484	72.0
173.818787	52.0
173.865372	112.0
173.922623	192.0
173.947388	216.0
173.97049	348.0
174.011017	204.0
174.072449	12600.0
174.154205	116.0
174.193527	224.0
174.233643	68.0
174.266678	144.0
174.300034	76.0
174.354523	104.0
174.387955	128.0
174.425491	212.0
174.459671	68.0
174.500275	252.0
174.570099	76.0
174.593765	124.0
174.643738	124.0
174.662155	44.0
174.685837	32.0
174.767395	172.0
174.821274	168.0
174.872437	92.0
174.907043	172.0
174.943985	168.0
174.967422	56.0
174.98793	112.0
175.032181	188.0
175.078491	1080.0
175.119217	112.0
175.159668	32.0
175.211548	192.0
175.233337	160.0
175.250565	72.0
175.272812	212.0
175.301956	124.0
175.358719	308.0
175.408951	328.0
175.449982	172.0
175.506866	100.0
175.519958	140.0
175.543549	56.0
175.620972	136.0
175.673737	156.0
175.764755	160.0
175.829407	184.0
175.882202	56.0
175.927078	48.0
175.968338	64.0
176.022125	52.0
176.085571	272.0
176.114563	60.0
176.201752	60.0
176.241379	104.0
176.259872	44.0
176.294235	172.0
176.376465	192.0
176.508362	96.0
176.555969	240.0
176.577118	160.0
176.755814	176.0
176.780838	212.0
176.804657	92.0
176.831116	116.0
176.85759	68.0
176.876114	152.0
176.923767	48.0
176.97673	76.0
177.021744	112.0
177.068405	964.0
177.201859	112.0
177.254852	268.0
177.435104	124.0
177.487427	120.0
177.522598	144.0
177.561874	84.0
177.56691	68.0
177.576935	132.0
177.602585	152.0
177.623398	132.0
177.644623	76.0
177.684418	64.0
177.79274	184.0
177.835678	160.0
177.861252	88.0
177.90065	84.0
177.984344	144.0
178.02417	116.0
178.077805	208.0
178.10141	1800.0
178.215439	100.0
178.281876	88.0
178.430725	136.0
178.505188	52.0
178.542419	152.0
178.598267	140.0
178.638168	140.0
178.675415	124.0
178.71756	176.0
178.763229	52.0
178.811127	124.0
178.835083	168.0
178.890991	144.0
178.938904	176.0
178.96553	56.0
178.984177	260.0
179.073151	196.0
179.083267	148.0
179.112061	212.0
179.215118	172.0
179.261215	144.0
179.311859	88.0
179.426483	72.0
179.479813	144.0
179.643204	196.0
179.757233	172.0
179.810608	124.0
179.853317	216.0
179.884918	320.0
179.938736	192.0
179.972137	148.0
179.99205	244.0
180.069595	104.0
180.098969	32.0
180.118362	280.0
180.135925	168.0
180.272324	168.0
180.36084	108.0
180.39949	184.0
180.410233	140.0
180.459763	156.0
180.498688	164.0
180.596146	172.0
180.681747	40.0
180.751312	132.0
180.863724	116.0
180.930649	204.0
180.986542	156.0
181.002945	240.0
181.037766	140.0
181.074188	192.0
181.150253	196.0
181.230637	100.0
181.260101	32.0
181.27887	68.0
181.305054	136.0
181.424316	168.0
181.571091	104.0
181.654236	152.0
181.782639	108.0
181.858185	188.0
181.969849	148.0
181.974274	196.0
182.005844	160.0
182.027313	156.0
182.044922	144.0
182.10701	196.0
182.148621	148.0
182.193848	144.0
182.2435	176.0
182.27446	132.0
182.309387	76.0
182.330902	180.0
182.43573	200.0
182.492691	128.0
182.518478	180.0
182.54866	160.0
182.578247	152.0
182.618591	132.0
182.640106	144.0
182.658936	96.0
182.718124	68.0
182.736954	240.0
182.761002	192.0
182.788071	184.0
182.863434	136.0
182.898422	92.0
182.919952	156.0
182.944183	156.0
182.973801	72.0
183.019577	52.0
183.058914	7924.0
183.13269	132.0
183.163574	140.0
183.203644	140.0
183.325027	196.0
183.360504	72.0
183.382324	164.0
183.418304	140.0
183.477615	44.0
183.531418	176.0
183.615143	52.0
183.65419	252.0
183.690674	64.0
183.82515	124.0
183.938934	120.0
183.971329	80.0
184.02533	188.0
184.063385	1252.0
184.11174	124.0
184.130646	148.0
184.180557	200.0
184.244095	108.0
184.328537	160.0
184.35759	172.0
184.380737	192.0
184.425156	192.0
184.452194	116.0
184.473816	32.0
184.492737	96.0
184.636047	160.0
184.692856	196.0
184.736237	104.0
184.814606	52.0
184.897003	168.0
184.925552	168.0
184.952621	132.0
185.026276	136.0
185.06662	520.0
185.117783	264.0
185.230133	108.0
185.280304	56.0
185.299271	84.0
185.411697	156.0
185.434769	92.0
185.470001	56.0
185.526932	36.0
185.559464	132.0
185.635391	132.0
185.743546	100.0
185.792709	120.0
185.844254	124.0
185.896088	124.0
185.921387	180.0
186.078354	516.0
186.115692	128.0
186.159149	48.0
186.18631	108.0
186.21347	76.0
186.297668	56.0
186.332993	176.0
186.364731	152.0
186.436249	136.0
186.547699	140.0
186.642853	60.0
186.727158	88.0
186.792435	112.0
186.855942	176.0
186.947525	72.0
186.977463	100.0
187.085236	5692.0
187.114807	408.0
187.151688	44.0
187.173477	152.0
187.192535	112.0
187.223221	120.0
187.391388	132.0
187.437714	192.0
187.470413	60.0
187.514023	132.0
187.601242	220.0
187.680313	120.0
187.729401	72.0
187.756668	48.0
187.816681	204.0
187.838501	64.0
187.877426	148.0
187.901245	88.0
187.969467	168.0
188.040009	260.0
188.088211	884.0
188.138687	212.0
188.187836	52.0
188.220596	92.0
188.257584	172.0
188.31073	180.0
188.329849	76.0
188.463715	164.0
188.541367	48.0
188.562088	176.0
188.592163	140.0
188.633163	200.0
188.705139	208.0
188.790146	184.0
188.795486	76.0
188.806625	136.0
188.93399	160.0
189.010834	140.0
189.043442	136.0
189.097412	364.0
189.28981	64.0
189.330887	144.0
189.358276	184.0
189.391144	140.0
189.451416	132.0
189.470596	184.0
189.522659	76.0
189.5802	76.0
189.629532	144.0
189.769348	96.0
189.848862	140.0
189.870804	164.0
189.917435	152.0
190.102234	204.0
190.196487	196.0
190.326355	160.0
190.425232	252.0
190.471924	52.0
190.504883	148.0
190.53511	96.0
190.587311	144.0
190.631897	212.0
190.708237	140.0
190.760468	164.0
190.826447	200.0
190.892441	180.0
190.951721	180.0
191.000473	128.0
191.073975	80.0
191.110229	116.0
191.241852	56.0
191.302414	184.0
191.324432	72.0
191.467621	120.0
191.531036	160.0
191.553009	180.0
191.597092	44.0
191.664917	188.0
191.704544	196.0
191.751404	168.0
191.778961	220.0
191.831345	212.0
191.963684	164.0
191.991272	236.0
192.113602	752.0
192.147751	132.0
192.173325	132.0
192.206436	168.0
192.228516	184.0
192.275436	80.0
192.375259	120.0
192.532196	164.0
192.757523	92.0
192.802261	80.0
192.84993	212.0
192.888626	80.0
192.954987	40.0
192.985397	100.0
193.065582	216.0
193.101776	140.0
193.126434	180.0
193.237091	152.0
193.342255	108.0
193.364395	128.0
193.397598	100.0
193.422974	120.0
193.488068	136.0
193.530487	196.0
193.641266	76.0
193.699432	124.0
193.729904	164.0
193.804718	108.0
193.824112	116.0
193.868454	100.0
193.914749	164.0
193.969315	148.0
194.031998	176.0
194.059723	124.0
194.120728	156.0
194.17897	220.0
194.29953	156.0
194.353348	148.0
194.400909	136.0
194.556351	52.0
194.617432	104.0
194.672974	144.0
194.73407	140.0
194.809082	216.0
194.847977	120.0
194.917435	128.0
194.945221	64.0
195.055328	160.0
195.112	108.0
195.137024	196.0
195.198196	164.0
195.353958	144.0
195.559875	144.0
195.621124	168.0
195.68515	112.0
195.79097	88.0
195.829956	84.0
196.064346	464.0
196.133102	96.0
196.191452	204.0
196.222885	96.0
196.309326	96.0
196.33165	92.0
196.381851	148.0
196.462738	116.0
196.501801	164.0
196.577148	64.0
196.700577	72.0
196.733444	156.0
196.758575	52.0
196.831177	76.0
196.888351	168.0
196.941437	116.0
197.00769	328.0
197.036362	104.0
197.074524	4772.0
197.186859	264.0
197.294998	204.0
197.386871	56.0
197.447678	120.0
197.527115	68.0
197.574661	96.0
197.633423	180.0
197.681	228.0
197.736969	116.0
197.864365	188.0
197.888138	160.0
197.932938	72.0
197.958145	116.0
198.07576	824.0
198.110825	156.0
198.148621	120.0
198.185043	112.0
198.224274	124.0
198.299942	140.0
198.327972	240.0
198.428894	60.0
198.46785	148.0
198.524231	116.0
198.56987	132.0
198.619598	36.0
198.639236	104.0
198.672897	232.0
198.692535	156.0
198.743042	144.0
198.765488	200.0
198.810394	72.0
198.870682	116.0
198.900208	148.0
199.084198	160.0
199.116409	52.0
199.139542	168.0
199.265289	192.0
199.299011	168.0
199.490128	108.0
199.606659	108.0
199.644775	200.0
199.698212	92.0
199.720718	96.0
199.751389	192.0
199.875458	200.0
199.909225	184.0
199.957062	28.0
200.009125	348.0
200.096466	232.0
200.148499	140.0
200.168213	136.0
200.20929	116.0
200.252701	128.0
200.312363	200.0
200.356384	184.0
200.404831	112.0
200.434891	132.0
200.450912	136.0
200.489365	168.0
200.509094	180.0
200.568283	104.0
200.599304	144.0
200.620178	148.0
200.669785	124.0
200.697983	60.0
200.74028	144.0
200.803894	164.0
200.831497	140.0
200.867203	96.0
200.962021	152.0
201.011185	124.0
201.049194	2768.0
201.101196	82184.0
201.186203	136.0
201.218277	240.0
201.286407	196.0
201.320984	192.0
201.349869	208.0
201.384445	148.0
201.510468	48.0
201.540375	72.0
201.570358	152.0
201.591278	116.0
201.634735	160.0
201.663483	132.0
201.728287	152.0
201.792068	140.0
201.84726	180.0
201.912292	156.0
201.937759	104.0
201.969193	148.0
202.007309	116.0
202.058594	1536.0
202.103745	8388.0
202.171173	160.0
202.195312	120.0
202.218948	84.0
202.257492	84.0
202.285797	84.0
202.313278	124.0
202.350433	124.0
202.410507	124.0
202.450027	52.0
202.484009	48.0
202.508118	188.0
202.560486	204.0
202.582565	116.0
202.622818	56.0
202.645477	100.0
202.702148	236.0
202.721802	184.0
202.747498	108.0
202.782486	128.0
202.803635	104.0
202.82518	236.0
202.849213	172.0
202.87413	312.0
202.913254	144.0
202.940765	360.0
202.975266	152.0
203.001419	332.0
203.007996	320.0
203.018021	296.0
203.065765	54384.0
203.102051	948.0
203.148819	96.0
203.168427	36.0
203.214859	156.0
203.271194	132.0
203.282166	128.0
203.334579	76.0
203.365799	64.0
203.388504	196.0
203.431091	80.0
203.464355	56.0
203.516891	276.0
203.55574	72.0
203.579987	128.0
203.613678	40.0
203.636963	184.0
203.676392	116.0
203.707809	172.0
203.749176	76.0
203.789764	148.0
203.819336	52.0
203.862946	104.0
203.886963	108.0
203.935501	148.0
203.97937	44.0
204.068085	6456.0
204.116837	424.0
204.150284	36.0
204.200089	64.0
204.219589	72.0
204.231125	52.0
204.245422	144.0
204.280807	72.0
204.320633	64.0
204.363007	128.0
204.396393	96.0
204.44014	96.0
204.537933	112.0
204.59581	212.0
204.619476	44.0
204.650787	220.0
204.678314	144.0
204.703659	148.0
204.782684	64.0
204.835922	184.0
204.912842	76.0
204.982864	180.0
205.042862	116.0
205.072144	240.0
205.132278	268.0
205.168335	80.0
205.204926	188.0
205.259018	124.0
205.291962	128.0
205.329025	132.0
205.360413	60.0
205.387283	104.0
205.467758	76.0
205.505905	60.0
205.548706	164.0
205.575867	100.0
205.614746	112.0
205.668564	100.0
205.698074	152.0
205.724869	104.0
205.751358	64.0
205.791748	136.0
205.835251	116.0
205.908417	164.0
205.943985	136.0
206.01709	84.0
206.036957	168.0
206.091248	144.0
206.13295	212.0
206.159073	160.0
206.256775	152.0
206.311325	36.0
206.376221	200.0
206.423843	152.0
206.508636	200.0
206.548676	96.0
206.58873	48.0
206.654541	108.0
206.768997	116.0
206.854874	128.0
206.890823	56.0
206.945953	64.0
206.97226	140.0
207.132645	136.0
207.213379	332.0
207.275894	136.0
207.299683	112.0
207.347549	76.0
207.422073	52.0
207.456467	140.0
207.637115	76.0
207.751862	136.0
207.823593	152.0
207.878113	88.0
207.994858	136.0
208.054825	268.0
208.214737	188.0
208.235168	76.0
208.673782	68.0
208.739914	148.0
208.860718	128.0
208.892365	104.0
209.000534	168.0
209.065002	164.0
209.168625	92.0
209.204117	204.0
209.231949	40.0
209.374374	140.0
209.600479	228.0
209.633255	172.0
209.664032	156.0
209.744736	36.0
209.790863	60.0
209.886017	100.0
209.913681	208.0
210.073669	188.0
210.145615	128.0
210.296906	132.0
210.336334	48.0
210.358154	124.0
210.402481	116.0
210.615051	92.0
210.697083	28.0
210.769318	180.0
210.931168	248.0
210.954285	96.0
210.996429	152.0
211.067017	288.0
211.086212	140.0
211.153809	172.0
211.17984	168.0
211.205872	96.0
211.255051	160.0
211.411301	44.0
211.590759	160.0
211.663147	176.0
211.695007	116.0
211.741348	60.0
211.764511	140.0
211.81665	68.0
211.98053	136.0
212.079926	168.0
212.149918	104.0
212.236893	140.0
212.270813	132.0
212.344193	44.0
212.419617	96.0
212.637238	372.0
212.674973	128.0
212.786804	92.0
212.850876	80.0
212.901489	236.0
212.965332	144.0
212.991486	96.0
213.051956	108.0
213.110596	92.0
213.136749	132.0
213.232208	52.0
213.264618	160.0
213.441971	164.0
213.770691	264.0
213.872559	292.0
213.921555	100.0
214.057297	912.0
214.271515	64.0
214.420135	132.0
214.592133	312.0
214.691269	136.0
214.73468	168.0
214.850372	148.0
214.872131	168.0
214.957489	268.0
215.063065	1408.0
215.102676	144.0
215.136948	212.0
215.250076	120.0
215.272034	240.0
215.2948	180.0
215.443512	164.0
215.499878	120.0
215.572922	148.0
215.625534	188.0
215.722946	144.0
215.774612	152.0
215.79509	160.0
215.912048	52.0
215.955933	128.0
216.070206	704.0
216.211258	148.0
216.269012	116.0
216.438812	128.0
216.45932	160.0
216.55011	140.0
216.608688	152.0
216.784317	136.0
216.837234	180.0
216.863617	148.0
216.898788	192.0
216.954117	156.0
216.980881	112.0
217.028458	140.0
217.080414	13788.0
217.183228	72.0
217.216202	132.0
217.267136	172.0
217.286835	152.0
217.325348	208.0
217.365128	128.0
217.438492	56.0
217.582336	236.0
217.652802	152.0
217.695648	168.0
217.717407	112.0
217.737961	28.0
217.75853	200.0
217.811401	56.0
217.842239	136.0
217.899536	132.0
217.943604	44.0
218.00238	76.0
218.083954	1924.0
218.125839	3612.0
218.185959	132.0
218.281647	320.0
218.335449	124.0
218.372818	44.0
218.44342	76.0
218.466949	140.0
218.500549	96.0
218.555222	156.0
218.578766	84.0
218.608185	180.0
218.696487	72.0
218.735565	172.0
218.770081	108.0
218.879013	148.0
218.951111	216.0
219.041	52.0
219.092224	332.0
219.131485	716.0
219.236679	88.0
219.338623	44.0
219.421173	72.0
219.457993	132.0
219.502686	80.0
219.558716	112.0
219.589432	144.0
219.645309	168.0
219.727905	108.0
219.760162	116.0
219.822327	68.0
219.934494	176.0
219.984665	144.0
220.132294	144.0
220.309525	144.0
220.540024	32.0
220.640533	224.0
220.676407	120.0
220.702621	156.0
220.815002	124.0
220.86232	128.0
220.920395	140.0
220.986572	60.0
221.020599	96.0
221.076157	384.0
221.167099	88.0
221.318085	180.0
221.341782	176.0
221.403976	140.0
221.528381	144.0
221.593552	84.0
221.646896	108.0
221.715057	28.0
221.928482	108.0
222.01152	76.0
222.032288	140.0
222.183563	116.0
222.298813	100.0
222.4655	112.0
222.575363	120.0
222.628815	152.0
222.748764	128.0
222.815948	116.0
222.869431	160.0
222.893204	164.0
222.943726	184.0
222.994247	116.0
223.032898	164.0
223.089951	144.0
223.128021	184.0
223.148834	164.0
223.169647	28.0
223.368912	56.0
223.422455	128.0
223.470062	148.0
223.609924	144.0
223.937454	64.0
224.071503	160.0
224.154938	148.0
224.217514	180.0
224.238373	188.0
224.295013	48.0
224.319077	108.0
224.38147	104.0
224.414261	120.0
224.45845	88.0
224.49173	204.0
224.599167	176.0
224.630722	160.0
224.685684	196.0
224.721481	224.0
224.751328	140.0
224.876663	124.0
224.927414	196.0
224.948303	84.0
225.031906	64.0
225.070724	128.0
225.104294	432.0
225.229004	128.0
225.318634	60.0
225.425156	184.0
225.447113	148.0
225.539764	368.0
225.656357	48.0
225.745346	180.0
225.769989	116.0
225.821625	152.0
225.862717	40.0
225.961441	136.0
226.034363	152.0
226.084122	120.0
226.106613	176.0
226.185898	160.0
226.227951	180.0
226.332596	120.0
226.421707	148.0
226.467361	336.0
226.488327	164.0
226.677078	68.0
226.79245	108.0
226.904892	100.0
227.066376	160.0
227.201202	256.0
227.25882	120.0
227.389465	284.0
227.55896	120.0
227.610016	48.0
227.72113	104.0
227.748169	140.0
227.790222	68.0
227.946457	176.0
227.97879	116.0
228.030609	156.0
228.071884	376.0
228.108765	184.0
228.168884	208.0
228.212372	164.0
228.358337	148.0
228.490692	124.0
228.529816	156.0
228.803711	208.0
228.833817	72.0
228.884995	236.0
229.031097	204.0
229.065552	324.0
229.122314	152.0
229.156097	48.0
229.266052	164.0
229.306763	72.0
229.403229	68.0
229.454483	128.0
229.584137	108.0
229.623352	136.0
229.700943	248.0
229.805511	156.0
229.836609	124.0
229.88475	112.0
229.909973	208.0
229.993576	80.0
230.042068	140.0
230.067688	176.0
230.127579	11876.0
230.293411	48.0
230.31456	32.0
230.360504	144.0
230.400436	140.0
230.444092	128.0
230.486771	276.0
230.507919	156.0
230.607651	56.0
230.642197	140.0
230.707413	128.0
230.78299	60.0
230.825333	104.0
230.967484	108.0
231.04628	164.0
231.091522	124.0
231.130997	1860.0
231.200165	168.0
231.235291	120.0
231.260986	116.0
231.354828	56.0
231.444565	144.0
231.462875	140.0
231.533478	132.0
231.578918	156.0
231.615982	136.0
231.678879	40.0
231.79248	156.0
231.821289	200.0
231.925629	132.0
231.972839	124.0
232.147614	3048.0
232.213226	160.0
232.305145	44.0
232.378967	44.0
232.430817	112.0
232.464203	232.0
232.491516	168.0
232.527939	176.0
232.588638	104.0
232.615067	148.0
232.670609	80.0
232.737411	76.0
232.764099	132.0
232.831543	40.0
232.933609	120.0
233.001663	84.0
233.05275	196.0
233.088943	264.0
233.11821	112.0
233.151321	404.0
233.208298	208.0
233.267242	164.0
233.293411	144.0
233.424164	96.0
233.530609	56.0
233.606659	92.0
233.673584	104.0
233.740524	128.0
233.801392	228.0
233.822693	204.0
233.847046	216.0
233.917053	168.0
233.993164	96.0
234.06929	212.0
234.111923	128.0
234.13324	76.0
234.158615	144.0
234.356308	124.0
234.498856	104.0
234.549576	144.0
234.58725	112.0
234.697006	256.0
234.718353	104.0
234.761047	48.0
234.822052	136.0
234.901352	172.0
234.925766	40.0
234.950165	168.0
234.995926	152.0
235.061127	120.0
235.141251	136.0
235.203461	128.0
235.359161	136.0
235.380539	160.0
235.44902	132.0
235.490479	116.0
235.551575	156.0
235.679886	184.0
235.716568	52.0
235.780746	64.0
235.879623	204.0
236.003906	88.0
236.049774	148.0
236.095169	132.0
236.159866	124.0
236.199631	204.0
236.230225	80.0
236.30365	116.0
236.337311	176.0
236.401566	152.0
236.422989	132.0
236.545425	156.0
236.713821	204.0
236.753632	148.0
236.906143	76.0
237.145813	116.0
237.188629	144.0
237.216309	196.0
237.415619	176.0
237.450851	188.0
237.544434	72.0
237.602722	152.0
237.697845	144.0
237.826752	200.0
237.903488	64.0
237.980255	160.0
238.032455	124.0
238.106155	124.0
238.130722	84.0
238.253601	152.0
238.401093	168.0
238.551697	44.0
238.582443	128.0
238.61319	176.0
238.668533	216.0
238.840759	76.0
238.862289	168.0
238.982285	212.0
239.120758	132.0
239.210037	160.0
239.323944	152.0
239.422485	48.0
239.517975	180.0
239.607315	160.0
239.628876	124.0
239.659683	100.0
239.715164	76.0
239.767822	180.0
239.844604	132.0
239.992584	124.0
240.043884	132.0
240.055801	104.0
240.183792	144.0
240.322632	132.0
240.353485	84.0
240.375092	52.0
240.427002	136.0
240.473846	136.0
240.498245	188.0
240.668335	160.0
240.705399	56.0
240.764923	72.0
240.785202	128.0
240.811066	128.0
240.9216	68.0
240.97876	144.0
241.014297	144.0
241.075562	160.0
241.246094	108.0
241.289383	100.0
241.363586	136.0
241.533691	148.0
241.654343	136.0
241.739441	96.0
241.81218	96.0
242.087723	112.0
242.151337	148.0
242.322601	152.0
242.399689	312.0
242.450195	144.0
242.55867	192.0
242.602081	100.0
242.710587	204.0
242.788116	56.0
242.930801	124.0
242.985153	316.0
243.045593	84.0
243.096848	7636.0
243.138702	272.0
243.22049	136.0
243.266312	36.0
243.315643	168.0
243.377731	140.0
243.411896	116.0
243.52092	192.0
243.638641	196.0
243.679031	40.0
243.779907	112.0
243.836685	120.0
244.100662	1628.0
244.181442	124.0
244.204391	136.0
244.266602	116.0
244.34024	180.0
244.419067	96.0
244.447067	92.0
244.490631	52.0
244.513809	108.0
244.574677	96.0
244.61203	60.0
244.651413	104.0
244.836212	44.0
244.927704	140.0
245.07608	168.0
245.107803	236.0
245.169571	164.0
245.247482	68.0
245.284897	136.0
245.447021	48.0
245.49379	156.0
245.549927	136.0
245.618561	104.0
245.68718	76.0
245.714218	112.0
245.776779	248.0
245.846329	108.0
245.955566	212.0
246.102295	128.0
246.127274	192.0
246.205353	104.0
246.361526	164.0
246.399017	192.0
246.424011	192.0
246.477127	116.0
246.502136	68.0
246.586517	164.0
246.611526	184.0
246.727188	132.0
246.761581	168.0
246.852249	160.0
246.889786	136.0
246.977356	112.0
247.002274	120.0
247.118134	156.0
247.143173	68.0
247.16507	208.0
247.559509	120.0
247.816376	152.0
247.99501	116.0
248.082779	120.0
248.120392	116.0
248.161163	112.0
248.317963	120.0
248.342361	92.0
248.415192	92.0
248.540695	140.0
248.572083	168.0
248.656815	180.0
248.727325	60.0
248.785507	128.0
248.957397	156.0
248.995895	260.0
249.061859	140.0
249.087906	164.0
249.112122	168.0
249.467239	136.0
249.508102	88.0
249.570984	104.0
249.593002	140.0
249.630737	48.0
249.737671	140.0
249.87294	120.0
249.961044	104.0
250.020828	120.0
250.158096	92.0
250.197281	148.0
250.272675	132.0
250.420029	172.0
250.445343	116.0
250.452057	96.0
250.609711	72.0
250.732605	132.0
250.779892	124.0
250.972198	128.0
251.026382	144.0
251.053207	180.0
251.259216	148.0
251.369659	84.0
251.445251	88.0
251.536942	152.0
251.622177	72.0
251.672562	92.0
251.742172	100.0
251.775055	164.0
251.871658	184.0
251.922211	108.0
251.975906	112.0
252.051743	144.0
252.175003	128.0
252.209763	140.0
252.415268	92.0
252.459549	136.0
252.557602	120.0
252.649338	128.0
252.696793	88.0
252.858185	192.0
252.889832	172.0
252.943649	60.0
253.022797	128.0
253.146408	192.0
253.203293	100.0
253.236603	116.0
253.269806	164.0
253.377518	176.0
253.418701	140.0
253.478912	84.0
253.52327	56.0
253.577148	188.0
253.790222	208.0
253.84346	224.0
253.944519	120.0
253.954956	104.0
253.961548	136.0
254.002045	156.0
254.062317	108.0
254.144806	124.0
254.236847	56.0
254.332062	216.0
254.386017	172.0
254.457901	156.0
254.506546	204.0
254.563828	132.0
254.837006	56.0
255.046539	112.0
255.097	204.0
255.132599	148.0
255.196182	172.0
255.310654	32.0
255.336105	104.0
255.533325	248.0
255.623825	108.0
255.682892	48.0
255.749741	48.0
255.775192	168.0
255.963043	216.0
256.020355	164.0
256.342133	204.0
256.619446	168.0
256.660889	132.0
256.683228	88.0
256.759766	116.0
256.823547	96.0
256.873077	144.0
256.932007	128.0
257.108215	136.0
257.171356	52.0
257.229614	176.0
257.337738	136.0
257.479584	96.0
257.525787	120.0
257.642395	100.0
257.679108	164.0
257.717468	88.0
257.784546	148.0
257.93158	176.0
257.966736	116.0
258.075439	204.0
258.158081	244.0
258.273743	156.0
258.328125	264.0
258.374359	116.0
258.468903	224.0
258.494507	116.0
258.542511	108.0
258.622528	152.0
258.867462	260.0
258.968323	52.0
259.109283	140.0
259.166962	176.0
259.216644	172.0
259.240662	160.0
259.343201	140.0
259.387573	168.0
259.452209	148.0
259.562225	140.0
259.747253	76.0
259.90918	212.0
259.987885	132.0
260.036041	136.0
260.10022	56.0
260.160553	76.0
260.202972	196.0
260.389221	144.0
260.540192	128.0
260.588379	140.0
260.614075	104.0
260.667572	148.0
260.733002	152.0
260.758698	188.0
260.823517	144.0
261.025543	152.0
261.048035	128.0
261.18634	188.0
261.308594	84.0
261.430878	136.0
261.756012	160.0
261.785004	48.0
261.826874	188.0
262.174805	156.0
262.271515	160.0
262.36499	116.0
262.423035	148.0
262.448822	168.0
262.555237	72.0
262.645569	88.0
262.726196	80.0
262.81424	208.0
262.9198	124.0
263.003723	160.0
263.045685	156.0
263.11026	144.0
263.190979	124.0
263.333069	136.0
263.407379	180.0
263.501068	128.0
263.54306	124.0
263.608673	184.0
263.63678	72.0
263.80484	104.0
263.848602	156.0
263.879211	156.0
263.943878	212.0
263.995636	116.0
264.086182	124.0
264.228516	168.0
264.647736	124.0
264.710815	136.0
264.778809	140.0
264.810791	60.0
264.853333	56.0
264.953735	200.0
265.00235	92.0
265.203278	176.0
265.323212	308.0
265.401031	136.0
265.439941	44.0
265.585876	160.0
265.645721	216.0
265.696198	152.0
265.752258	144.0
265.829224	108.0
265.93161	160.0
265.981781	132.0
266.014221	156.0
266.069427	156.0
266.196045	128.0
266.37793	112.0
266.430023	132.0
266.592377	76.0
266.680145	144.0
266.768005	140.0
266.829681	116.0
266.914215	172.0
267.131531	212.0
267.285065	60.0
267.478699	176.0
267.6008	96.0
267.685455	136.0
267.896271	96.0
267.972107	104.0
268.024231	160.0
268.209991	48.0
268.493683	80.0
268.51651	236.0
268.588257	108.0
268.640442	136.0
268.695923	192.0
268.793793	204.0
268.831177	284.0
268.855927	124.0
268.957001	156.0
269.014771	132.0
269.081055	200.0
269.259094	120.0
269.311829	232.0
269.474487	148.0
269.550873	148.0
269.682129	84.0
269.731171	116.0
269.76059	64.0
269.816162	148.0
270.03894	124.0
270.097412	116.0
270.182465	160.0
270.313354	136.0
270.388611	104.0
270.442291	72.0
270.506287	84.0
270.614502	116.0
270.748749	128.0
270.807709	140.0
270.856842	140.0
270.90271	328.0
270.958405	124.0
271.043121	144.0
271.07309	116.0
271.458679	172.0
271.51239	132.0
271.679688	204.0
271.774811	204.0
271.801727	204.0
271.866699	144.0
271.906097	168.0
271.9422	116.0
272.073486	56.0
272.125458	112.0
272.23111	64.0
272.2771	96.0
272.50705	168.0
272.549744	108.0
272.635193	112.0
272.677917	112.0
272.75351	52.0
272.819275	168.0
272.875153	64.0
272.950775	184.0
273.072479	100.0
273.102478	128.0
273.134979	180.0
273.19223	168.0
273.230927	116.0
273.342255	72.0
273.404755	56.0
273.431091	96.0
273.495575	156.0
273.559479	72.0
273.607391	180.0
273.733978	124.0
273.766907	140.0
273.859131	88.0
273.895355	88.0
273.951355	148.0
274.060089	120.0
274.139252	10300.0
274.230255	164.0
274.264435	148.0
274.349304	204.0
274.37265	48.0
274.429688	92.0
274.483521	124.0
274.55246	56.0
274.622498	60.0
274.672791	132.0
274.798676	116.0
274.878174	128.0
274.902466	148.0
274.96405	136.0
274.993378	96.0
275.049683	140.0
275.075897	96.0
275.141479	1980.0
275.207855	140.0
275.322937	128.0
275.369781	72.0
275.424622	180.0
275.492004	100.0
275.535889	168.0
275.58783	176.0
275.652588	160.0
275.736511	100.0
275.809235	152.0
275.835693	92.0
275.882599	164.0
275.944794	104.0
276.001007	56.0
276.093689	156.0
276.143158	552.0
276.232513	184.0
276.421112	80.0
276.46347	132.0
276.530334	128.0
276.553497	172.0
276.581696	92.0
276.623016	140.0
276.685242	60.0
276.732544	140.0
276.801788	100.0
276.848145	116.0
276.881287	148.0
276.908966	144.0
276.995819	288.0
277.030334	128.0
277.140076	184.0
277.229126	72.0
277.274475	176.0
277.388245	128.0
277.434662	160.0
277.474426	184.0
277.590485	92.0
277.766266	172.0
277.882385	120.0
277.945435	116.0
278.141235	80.0
278.38031	68.0
278.450043	92.0
278.632751	368.0
278.732422	232.0
278.768982	128.0
278.890594	116.0
278.945129	52.0
279.014954	116.0
279.051544	84.0
279.147949	68.0
279.174408	88.0
279.271027	36.0
279.31427	112.0
279.364166	140.0
279.417389	184.0
279.47229	96.0
279.561188	152.0
279.676971	220.0
279.860077	156.0
279.966644	28.0
280.011108	180.0
280.13446	144.0
280.210266	216.0
280.289764	104.0
280.453064	140.0
280.546814	148.0
280.636444	68.0
280.876099	180.0
280.901703	104.0
280.939941	176.0
281.045624	124.0
281.256958	80.0
281.307037	88.0
281.33374	140.0
281.588684	168.0
281.70932	148.0
281.888275	176.0
282.078705	172.0
282.19574	192.0
282.312775	76.0
282.536865	124.0
282.577026	132.0
282.607147	64.0
282.657318	120.0
282.82132	184.0
282.899628	204.0
282.985352	84.0
283.065735	156.0
283.095551	132.0
283.226501	212.0
283.259979	120.0
283.501221	144.0
283.60849	120.0
283.72583	100.0
283.772766	116.0
284.041046	148.0
284.139832	268.0
284.239014	124.0
284.322906	152.0
284.403442	68.0
284.645172	260.0
284.6922	92.0
284.725769	100.0
284.819824	100.0
285.09198	192.0
285.406647	180.0
285.438232	144.0
285.468506	176.0
285.53241	144.0
285.646759	184.0
285.68042	104.0
285.740967	76.0
285.787689	172.0
285.838531	168.0
285.935699	120.0
285.998596	144.0
286.023651	140.0
286.138336	644.0
286.316589	208.0
286.417633	108.0
286.625732	156.0
286.683807	168.0
286.711243	172.0
286.855713	144.0
286.896149	160.0
287.141144	304.0
287.435822	212.0
287.564087	168.0
287.604584	140.0
287.665344	116.0
287.753113	88.0
287.856567	144.0
288.013153	132.0
288.063812	192.0
288.090851	148.0
288.155243	132.0
288.182068	148.0
288.236145	48.0
288.273315	176.0
288.347656	92.0
288.455841	88.0
288.506531	108.0
288.566223	164.0
288.712799	72.0
288.894226	188.0
288.986816	152.0
289.017242	108.0
289.139099	160.0
289.206787	144.0
289.274475	84.0
289.352356	176.0
289.376038	84.0
289.501343	80.0
289.531525	224.0
289.674072	56.0
289.982422	132.0
290.470703	88.0
290.518219	164.0
290.552124	228.0
290.616608	76.0
290.725189	120.0
290.806641	156.0
290.986572	76.0
291.037079	132.0
291.18692	244.0
291.224274	128.0
291.258789	188.0
291.292206	160.0
291.380554	144.0
291.448517	188.0
291.489288	144.0
291.54364	68.0
291.598022	112.0
291.657684	388.0
291.684418	84.0
291.723816	148.0
291.839386	176.0
291.910797	192.0
291.938019	100.0
291.989044	160.0
292.060455	80.0
292.131897	144.0
292.302002	148.0
292.397308	120.0
292.45517	208.0
292.479004	156.0
292.516449	156.0
292.584534	96.0
292.618561	140.0
292.690094	112.0
292.83313	140.0
292.914856	52.0
293.092041	160.0
293.177216	156.0
293.227295	196.0
293.383484	148.0
293.456757	140.0
293.492859	136.0
293.620422	52.0
293.682343	156.0
293.715942	52.0
293.756866	172.0
293.789673	144.0
294.005676	100.0
294.228943	196.0
294.319366	204.0
294.36969	220.0
294.705994	36.0
294.757263	168.0
294.805756	172.0
295.0401	160.0
295.205078	224.0
295.315033	132.0
295.426727	140.0
295.485565	184.0
295.543732	80.0
295.724792	156.0
295.779877	216.0
295.882599	136.0
295.91684	80.0
295.971619	52.0
296.077789	144.0
296.101746	108.0
296.197662	184.0
296.235352	168.0
296.447784	128.0
296.584869	104.0
296.78714	112.0
296.830597	296.0
296.903748	128.0
296.996338	116.0
297.414978	148.0
297.441284	108.0
297.524811	160.0
297.579742	144.0
297.648438	68.0
297.68277	180.0
297.830444	136.0
297.863251	160.0
297.895721	60.0
297.930084	132.0
297.954132	104.0
298.05722	200.0
298.146545	96.0
298.232483	188.0
298.33905	180.0
298.42157	128.0
298.46283	116.0
298.493774	100.0
298.538483	200.0
298.565979	72.0
298.610718	116.0
298.645111	192.0
298.73111	136.0
298.786133	140.0
298.875824	60.0
299.028046	240.0
299.06366	176.0
299.106201	120.0
299.140625	96.0
299.199127	144.0
299.274902	168.0
299.305878	148.0
299.422974	100.0
299.519409	76.0
299.581421	112.0
299.681335	300.0
299.73645	148.0
299.764038	156.0
299.82608	108.0
299.87088	52.0
299.991516	124.0
300.105286	208.0
300.148743	140.0
300.253571	88.0
300.284607	128.0
300.332916	164.0
300.567505	84.0
300.629639	116.0
300.722809	240.0
300.861755	176.0
300.895416	136.0
300.950653	44.0
301.00592	136.0
301.057709	140.0
301.112976	176.0
301.213135	160.0
301.403168	132.0
301.524109	144.0
301.641632	164.0
301.771912	152.0
301.911346	184.0
301.990875	140.0
302.052734	132.0
302.09726	340.0
302.181915	184.0
302.312653	120.0
302.361084	120.0
302.551483	276.0
302.603424	236.0
302.849304	164.0
302.970673	124.0
303.036377	92.0
303.272034	116.0
303.344818	196.0
303.396057	184.0
303.497375	96.0
303.532043	92.0
303.68811	156.0
303.722809	148.0
303.806061	128.0
303.979553	132.0
304.021179	104.0
304.052429	188.0
304.0802	100.0
304.122742	176.0
304.160034	48.0
304.199524	84.0
304.288483	152.0
304.323181	168.0
304.350983	276.0
304.406525	124.0
304.434326	168.0
304.569763	160.0
304.670502	32.0
304.739471	132.0
304.771271	132.0
304.802551	64.0
304.869263	160.0
304.913757	124.0
304.971008	160.0
305.011078	200.0
305.07016	148.0
305.167511	192.0
305.226624	152.0
305.268372	104.0
305.316284	184.0
305.449219	116.0
305.538879	148.0
305.61792	264.0
305.65799	104.0
305.713654	124.0
305.82251	72.0
305.8508	128.0
305.923462	160.0
305.957306	120.0
306.131409	112.0
306.16275	136.0
306.225464	128.0
306.377258	132.0
306.389862	164.0
306.434479	92.0
306.598236	36.0
306.723724	100.0
306.829987	132.0
306.894562	144.0
307.196991	196.0
307.309631	112.0
307.347107	76.0
307.410828	136.0
307.557404	108.0
307.672607	112.0
307.697052	108.0
307.721497	148.0
307.745941	116.0
307.983429	156.0
308.182556	128.0
308.241943	96.0
308.276886	164.0
308.438354	184.0
308.596863	108.0
308.937744	148.0
309.039215	128.0
309.221191	120.0
309.389221	168.0
309.532776	108.0
309.651825	124.0
309.721893	152.0
309.851501	96.0
309.942627	144.0
310.005676	144.0
310.058258	144.0
310.11084	380.0
310.183899	104.0
310.207306	192.0
310.36676	176.0
310.466003	160.0
310.551453	120.0
310.724518	144.0
310.752594	224.0
310.822784	160.0
310.889435	124.0
310.956116	152.0
311.173767	172.0
311.222931	180.0
311.535522	88.0
311.572479	116.0
311.637421	136.0
311.735809	160.0
311.785004	40.0
311.929108	200.0
312.326477	120.0
312.430817	152.0
312.477753	104.0
312.576263	104.0
312.637909	112.0
312.681854	116.0
312.706482	132.0
312.798004	148.0
312.893066	264.0
312.93634	176.0
313.037415	88.0
313.086731	80.0
313.162994	104.0
313.192383	140.0
313.227631	76.0
313.296173	208.0
313.37558	144.0
313.400238	60.0
313.470734	48.0
313.601135	124.0
313.638916	144.0
313.728027	76.0
313.946655	164.0
314.04541	220.0
314.167358	124.0
314.295898	124.0
314.365051	168.0
314.599426	76.0
314.804199	212.0
314.864258	116.0
314.927826	96.0
314.977295	96.0
315.002014	68.0
315.033813	188.0
315.072662	140.0
315.097382	80.0
315.16098	136.0
315.277618	132.0
315.447266	148.0
315.574554	128.0
315.687714	140.0
315.751373	32.0
315.889313	168.0
315.980286	140.0
316.04245	112.0
316.108673	124.0
316.147614	96.0
316.225464	208.0
316.342285	104.0
316.367065	92.0
316.448486	108.0
316.498077	64.0
316.537018	172.0
316.597229	120.0
316.705048	100.0
316.742432	132.0
316.912506	36.0
317.04007	148.0
317.100311	76.0
317.128662	128.0
317.206665	132.0
317.266937	76.0
317.380371	172.0
317.446625	176.0
317.500946	188.0
317.597351	136.0
317.64856	176.0
317.735077	116.0
317.827332	76.0
317.869904	80.0
318.047363	176.0
318.132568	56.0
318.292328	164.0
318.434387	72.0
318.516083	176.0
318.583588	100.0
318.663605	160.0
318.764801	176.0
318.904694	120.0
319.017151	160.0
319.052704	116.0
319.143463	124.0
319.212708	144.0
319.256897	112.0
319.344299	208.0
319.500824	68.0
319.710754	92.0
319.803314	52.0
319.828217	140.0
320.13797	120.0
320.173584	140.0
320.454285	240.0
320.522705	188.0
320.618927	128.0
320.658142	48.0
320.704468	160.0
320.779327	160.0
320.87851	132.0
321.018219	188.0
321.132355	140.0
321.207245	192.0
321.528381	84.0
321.679626	136.0
321.740631	148.0
321.822968	108.0
321.853241	316.0
322.053223	108.0
322.131836	96.0
322.185425	104.0
322.213135	244.0
322.410522	112.0
322.499878	76.0
322.635712	124.0
322.73584	132.0
322.800385	148.0
322.882446	144.0
323.036865	168.0
323.089935	72.0
323.117065	96.0
323.170197	184.0
323.277588	108.0
323.318939	144.0
323.359558	148.0
323.381348	92.0
323.422729	124.0
323.516846	96.0
323.683441	148.0
323.741394	80.0
323.77005	168.0
323.798706	112.0
323.852417	68.0
323.877502	152.0
323.924072	144.0
324.011078	124.0
324.156982	200.0
324.217865	156.0
324.273407	136.0
324.399536	152.0
324.522583	156.0
324.556915	124.0
324.611328	148.0
324.673187	148.0
324.773621	92.0
324.832672	168.0
324.938629	72.0
325.019073	164.0
325.114929	224.0
325.146759	56.0
325.18924	120.0
325.264526	164.0
325.378418	172.0
325.415985	188.0
325.481812	280.0
325.548248	148.0
325.638275	120.0
325.71048	144.0
325.757202	128.0
325.797607	176.0
325.844238	256.0
325.855072	164.0
325.911346	340.0
325.976349	56.0
326.01947	64.0
326.06311	252.0
326.113708	132.0
326.170135	57264.0
326.266327	196.0
326.316162	160.0
326.35144	92.0
326.381165	92.0
326.449097	132.0
326.50174	336.0
326.561951	120.0
326.59671	96.0
326.6297	212.0
326.695801	172.0
326.748505	132.0
326.795746	220.0
326.819733	180.0
326.844818	96.0
326.891693	136.0
326.960052	152.0
327.05719	188.0
327.172943	13816.0
327.242523	160.0
327.278168	88.0
327.314545	76.0
327.339661	112.0
327.36496	92.0
327.412567	200.0
327.459747	252.0
327.515594	148.0
327.559631	144.0
327.594055	268.0
327.617859	192.0
327.652679	180.0
327.692413	136.0
327.733826	196.0
327.779327	92.0
327.807373	396.0
327.857513	144.0
327.891785	180.0
327.936676	172.0
327.96756	376.0
327.996613	232.0
328.11441	588.0
328.186737	191684.0
328.343994	196.0
328.411713	148.0
328.441284	104.0
328.486176	508.0
328.566071	404.0
328.6008	228.0
328.672638	128.0
328.721924	180.0
328.779327	596.0
328.805603	280.0
328.817871	168.0
328.830994	208.0
328.880432	220.0
328.894409	184.0
328.919861	104.0
328.969269	212.0
328.996948	136.0
329.022125	236.0
329.05368	340.0
329.099457	108.0
329.189178	44240.0
329.307007	76.0
329.337891	164.0
329.387177	128.0
329.426392	224.0
329.477112	80.0
329.545532	48.0
329.586304	148.0
329.616852	168.0
329.670563	80.0
329.721405	124.0
329.762604	184.0
329.799774	292.0
329.831116	224.0
329.876129	152.0
329.883148	148.0
329.932831	152.0
329.976898	252.0
330.004242	112.0
330.061737	156.0
330.111633	304.0
330.193054	4036.0
330.334595	144.0
330.345551	36.0
330.361786	128.0
330.392365	80.0
330.45755	76.0
330.498322	40.0
330.547485	104.0
330.569366	172.0
330.612793	44.0
330.684021	76.0
330.728516	112.0
330.770691	96.0
330.810791	96.0
330.848755	128.0
330.889038	148.0
330.918274	148.0
330.962189	80.0
331.006287	84.0
331.03595	192.0
331.088287	132.0
331.127838	104.0
331.193054	236.0
331.244934	208.0
331.279816	104.0
331.305054	108.0
331.361206	88.0
331.405884	280.0
331.44693	176.0
331.476471	124.0
331.522095	164.0
331.566315	92.0
331.625488	132.0
331.693329	92.0
331.72403	104.0
331.762573	172.0
331.812347	208.0
331.835815	156.0
331.88562	72.0
331.911011	100.0
331.950897	76.0
331.974365	72.0
332.008942	104.0
332.037933	72.0
332.103973	92.0
332.19931	116.0
332.250519	80.0
332.319275	108.0
332.364441	32.0
332.461365	68.0
332.499451	184.0
332.63797	164.0
332.667816	68.0
332.704376	100.0
332.748566	68.0
332.756195	56.0
332.769287	120.0
332.800018	136.0
332.865387	56.0
332.930756	104.0
332.963867	68.0
333.043335	116.0
333.072418	36.0
333.097839	44.0
333.125183	76.0
333.25769	80.0
333.352173	80.0
333.450287	152.0
333.476715	148.0
333.50174	144.0
333.562988	40.0
333.617493	176.0
333.709747	88.0
333.777496	84.0
333.80899	168.0
333.85022	60.0
333.970245	68.0
333.999329	104.0
334.032074	44.0
334.13031	224.0
334.206726	60.0
334.25766	96.0
334.381378	188.0
334.548828	44.0
334.643494	68.0
334.763672	32.0
334.872925	84.0
335.10434	100.0
335.18988	128.0
335.407166	116.0
335.420898	72.0
335.428619	144.0
335.466888	44.0
335.499695	76.0
335.594482	96.0
335.671082	56.0
335.711182	76.0
335.930023	64.0
336.024872	88.0
336.165192	124.0
336.236542	104.0
336.298584	144.0
336.371582	36.0
336.466522	140.0
336.535889	60.0
336.809784	132.0
336.849976	32.0
336.889465	84.0
336.974182	72.0
337.018036	92.0
337.109375	116.0
337.22998	132.0
337.259247	64.0
337.495453	88.0
337.588287	52.0
337.807739	188.0
337.869934	64.0
337.932129	116.0
338.170013	76.0
338.334747	104.0
338.558105	112.0
338.766022	188.0
338.865814	136.0
338.927643	160.0
339.074677	148.0
339.206635	64.0
339.353302	224.0
339.432434	176.0
339.496307	56.0
339.576996	60.0
339.678345	164.0
339.852142	108.0
339.91452	68.0
339.987915	60.0
340.029327	112.0
340.087006	100.0
340.123718	156.0
340.296265	128.0
340.432129	68.0
340.472534	44.0
340.531281	72.0
340.663513	96.0
340.755371	180.0
340.795807	108.0
340.828857	104.0
340.921112	76.0
340.994232	84.0
341.03833	140.0
341.211121	124.0
341.336151	52.0
341.383942	124.0
341.531067	48.0
341.579529	68.0
341.607758	108.0
341.641418	72.0
341.983643	116.0
342.123535	88.0
342.156677	76.0
342.230316	168.0
342.451263	104.0
342.506531	136.0
342.587555	104.0
342.62442	108.0
342.69809	68.0
342.779175	208.0
342.878662	152.0
342.926575	172.0
342.970825	104.0
343.011353	184.0
343.059296	124.0
343.110901	92.0
343.324768	84.0
343.372711	100.0
343.409607	196.0
343.478271	220.0
343.627258	128.0
343.782227	128.0
343.837585	120.0
344.025848	160.0
344.092285	116.0
344.180908	76.0
344.276917	180.0
344.432068	152.0
344.5784	240.0
344.631561	208.0
344.675903	144.0
344.735016	160.0
344.767365	80.0
344.834808	192.0
345.057922	124.0
345.208221	124.0
345.252594	144.0
345.3573	144.0
345.456024	116.0
345.705292	176.0
345.8927	44.0
345.922333	80.0
346.003754	40.0
346.28891	104.0
346.388916	192.0
346.614929	156.0
346.748352	164.0
346.800232	52.0
346.993011	204.0
347.033783	92.0
347.113983	108.0
347.426941	72.0
347.588745	144.0
347.708557	112.0
347.760895	80.0
347.861145	124.0
347.916809	36.0
348.087616	188.0
348.176758	112.0
348.269592	192.0
348.295593	72.0
348.523865	64.0
348.826996	172.0
348.873566	128.0
349.035187	68.0
349.278168	152.0
349.369965	132.0
349.433197	108.0
349.474121	140.0
349.637878	76.0
349.742065	92.0
349.809937	160.0
349.861206	120.0
350.095795	200.0
350.171722	52.0
350.352814	220.0
350.591278	184.0
350.770203	68.0
350.796295	32.0
350.83728	100.0
350.952881	120.0
351.001343	144.0
351.086761	160.0
351.150513	136.0
351.254974	136.0
351.284058	100.0
351.340759	184.0
351.575836	112.0
351.792328	32.0
351.915558	44.0
352.213165	192.0
352.259155	48.0
352.449677	36.0
352.520691	124.0
352.595428	100.0
352.636536	96.0
352.86084	128.0
352.894501	96.0
352.995453	84.0
353.118866	72.0
353.186188	104.0
353.249786	196.0
353.657684	112.0
353.691345	148.0
353.978485	168.0
354.043304	72.0
354.305511	120.0
354.384216	128.0
354.417938	112.0
354.489136	144.0
354.530334	96.0
354.676514	160.0
354.77774	148.0
354.897705	192.0
354.983948	80.0
355.032715	128.0
355.066467	104.0
355.133972	80.0
355.212769	132.0
355.246521	200.0
355.302795	128.0
355.385345	172.0
355.456635	116.0
355.497925	132.0
355.779419	132.0
355.8461	148.0
355.853882	72.0
355.959656	132.0
356.026428	72.0
356.100067	124.0
356.154968	108.0
356.320251	124.0
356.696075	104.0
356.748688	168.0
356.887817	76.0
357.218781	80.0
357.2854	152.0
357.625183	148.0
357.881165	176.0
357.930115	140.0
358.043091	36.0
358.303009	120.0
358.355774	108.0
358.630859	132.0
358.781647	88.0
359.045624	116.0
359.166321	88.0
359.230438	120.0
359.264404	216.0
359.347382	100.0
359.721039	160.0
359.894684	156.0
359.940002	68.0
360.015533	120.0
360.121277	80.0
360.147736	140.0
360.238403	88.0
360.276154	196.0
360.397064	96.0
360.588226	132.0
360.756134	172.0
361.096436	156.0
361.296936	108.0
361.323425	200.0
361.78653	164.0
361.853302	196.0
361.9328	140.0
362.300201	180.0
362.33429	120.0
362.403564	100.0
362.497223	104.0
362.56546	112.0
362.622284	92.0
362.664001	128.0
362.762543	96.0
362.927856	212.0
363.001434	200.0
363.035553	188.0
363.284393	172.0
363.298431	104.0
363.361755	76.0
363.407288	84.0
363.468018	64.0
363.612213	228.0
363.69574	136.0
363.828583	160.0
363.953888	160.0
364.177948	116.0
364.212128	60.0
364.269135	180.0
364.310913	60.0
364.417297	124.0
364.611084	172.0
364.717529	124.0
365.033081	88.0
365.074921	72.0
365.261292	44.0
365.736938	96.0
365.803009	180.0
365.853577	112.0
366.191284	468.0
366.361481	156.0
366.41098	48.0
366.677734	120.0
366.738739	92.0
366.773041	120.0
366.799713	88.0
366.975098	136.0
367.036102	76.0
367.169556	208.0
367.204041	116.0
367.30307	112.0
367.474762	164.0
367.63501	128.0
367.883118	120.0
368.197876	148.0
368.303162	172.0
368.337555	132.0
368.42923	116.0
368.513306	144.0
368.574432	124.0
368.807556	128.0
368.868713	172.0
369.350555	88.0
369.576263	208.0
369.652802	152.0
369.687225	88.0
369.967712	88.0
369.993469	156.0
370.26535	104.0
370.372589	120.0
370.57431	176.0
370.644592	68.0
370.924377	88.0
371.020233	48.0
371.411377	112.0
371.468933	88.0
371.518799	140.0
371.887177	32.0
371.971619	188.0
372.034485	160.0
372.067596	120.0
372.155914	128.0
372.311768	164.0
372.443939	116.0
372.501556	84.0
372.532288	104.0
372.563049	68.0
372.724396	120.0
372.80127	76.0
372.951172	132.0
372.993439	144.0
373.135681	68.0
373.447174	172.0
373.474091	144.0
373.761475	104.0
373.808838	48.0
373.858856	100.0
373.905029	128.0
374.139252	264.0
374.263062	132.0
374.367035	84.0
374.401703	124.0
374.517242	180.0
374.676056	88.0
374.725281	176.0
374.783051	28.0
374.944916	124.0
375.180054	160.0
375.261017	124.0
375.303436	60.0
375.365143	88.0
375.415253	88.0
375.530975	164.0
375.654419	196.0
375.777863	164.0
376.090454	92.0
376.283478	160.0
376.360687	80.0
376.928528	120.0
377.187469	196.0
377.280273	64.0
377.450378	128.0
377.504517	116.0
377.575867	144.0
377.96875	156.0
378.065491	96.0
378.189331	124.0
378.371277	316.0
378.510681	76.0
378.603607	76.0
378.704315	108.0
379.07666	120.0
379.138245	120.0
379.173126	140.0
379.285553	136.0
379.661652	148.0
379.878845	140.0
379.944794	104.0
380.030151	76.0
380.29895	124.0
380.545563	132.0
380.624054	132.0
380.837646	44.0
381.082397	136.0
381.272827	128.0
381.369995	140.0
381.541687	144.0
381.599365	200.0
381.638245	160.0
381.751007	168.0
381.809357	220.0
381.92215	136.0
381.961029	112.0
382.027161	212.0
382.132202	108.0
382.198364	152.0
382.283966	112.0
382.381256	116.0
382.544769	164.0
382.665436	96.0
382.696594	200.0
382.722748	140.0
382.879608	176.0
382.922455	160.0
383.015961	144.0
383.179565	84.0
383.510803	36.0
383.572296	176.0
383.658936	140.0
383.811005	172.0
383.928009	68.0
383.970886	136.0
384.060608	108.0
384.162048	32.0
384.345398	44.0
384.638123	112.0
385.239502	76.0
385.317657	100.0
385.391876	140.0
385.423157	144.0
385.538147	168.0
385.602905	92.0
385.747528	124.0
386.019409	180.0
386.271545	120.0
386.518036	80.0
386.730133	144.0
387.109131	124.0
387.171814	208.0
387.46167	124.0
387.696686	144.0
387.971161	124.0
388.088776	100.0
388.116241	124.0
388.198578	144.0
388.237793	116.0
388.465302	120.0
388.516296	368.0
388.89386	148.0
389.115173	108.0
389.167816	68.0
389.34848	104.0
389.471069	92.0
389.537018	156.0
389.6745	180.0
390.138275	160.0
390.209045	128.0
390.287689	160.0
390.42926	128.0
390.478149	168.0
390.570862	136.0
390.8974	112.0
391.027283	156.0
391.142426	156.0
391.21228	136.0
391.424347	168.0
391.468231	192.0
391.82666	84.0
391.90152	160.0
392.465179	104.0
392.575592	168.0
392.97403	336.0
393.001648	76.0
393.155548	56.0
393.254211	148.0
393.353149	120.0
393.416046	128.0
393.467377	84.0
393.656921	140.0
393.704315	64.0
393.897858	204.0
393.929443	188.0
393.992645	56.0
394.134888	92.0
394.233704	176.0
394.458984	120.0
394.549896	104.0
394.628998	252.0
394.680389	80.0
394.806946	148.0
394.861755	176.0
394.941406	128.0
395.07196	92.0
395.139221	44.0
395.226257	64.0
395.3013	116.0
395.347321	168.0
395.467682	96.0
395.527039	116.0
395.561676	432.0
395.64978	112.0
395.721039	112.0
396.109161	136.0
396.208191	112.0
396.562775	96.0
396.600525	36.0
396.913727	128.0
396.98114	140.0
397.028717	136.0
397.25943	120.0
397.294495	88.0
397.385742	96.0
397.441864	164.0
397.50592	168.0
397.814362	40.0
397.953339	136.0
398.036133	140.0
398.151886	80.0
398.214691	196.0
398.294861	68.0
398.394196	136.0
398.561646	180.0
398.615173	208.0
398.675629	96.0
398.855042	128.0
398.954529	60.0
399.03009	152.0
399.197083	160.0
399.344238	196.0
399.578949	84.0
399.833618	160.0
399.986816	172.0
400.343231	76.0
400.626038	148.0
400.75351	188.0
400.853149	136.0
400.881042	112.0
400.968719	124.0
401.092285	80.0
401.156067	144.0
401.207886	112.0
401.355408	220.0
401.494995	152.0
401.754272	52.0
401.869965	56.0
402.25708	228.0
402.476685	84.0
402.576508	84.0
402.832153	100.0
403.091858	132.0
403.263702	128.0
403.379639	140.0
403.445374	144.0
403.499573	148.0
403.547424	156.0
403.644653	112.0
403.675507	108.0
403.739471	108.0
403.803467	140.0
404.049835	224.0
404.543762	184.0
404.844055	164.0
404.936157	56.0
405.176514	152.0
405.220581	52.0
405.36084	148.0
405.533173	132.0
405.95816	168.0
405.986237	44.0
406.523743	120.0
406.828857	92.0
406.858673	112.0
407.009552	164.0
407.073792	52.0
407.13916	128.0
407.230408	76.0
407.330841	60.0
407.459412	108.0
407.796967	148.0
407.929596	148.0
407.96579	128.0
408.182922	124.0
408.363892	144.0
408.428253	60.0
408.476501	92.0
408.806458	204.0
408.862793	32.0
408.93927	84.0
409.015747	200.0
409.088196	132.0
409.144562	140.0
409.253265	124.0
409.28952	80.0
409.615753	140.0
409.704376	164.0
409.760773	132.0
410.050903	56.0
410.079132	180.0
410.155701	100.0
410.40567	172.0
410.52832	136.0
410.611328	168.0
410.776733	76.0
410.950195	176.0
410.998627	140.0
411.160034	168.0
411.313416	80.0
411.474915	96.0
411.632385	120.0
411.660645	180.0
411.692963	120.0
411.765656	132.0
411.842407	156.0
411.955505	116.0
411.983795	76.0
412.092865	40.0
412.222168	112.0
412.282806	112.0
412.371704	96.0
412.424255	56.0
412.452545	160.0
413.120483	144.0
413.245209	184.0
413.370667	80.0
413.56897	196.0
413.738983	264.0
414.224976	120.0
414.46402	44.0
414.504517	60.0
414.57605	160.0
414.68689	68.0
414.715271	72.0
414.930115	132.0
415.027435	136.0
415.11261	140.0
415.222107	96.0
415.753571	124.0
415.810394	160.0
415.972748	92.0
416.07019	128.0
416.131104	156.0
416.187927	140.0
416.252899	60.0
416.309753	80.0
416.399109	64.0
416.43161	148.0
416.472229	176.0
416.500671	112.0
416.638916	112.0
416.780975	132.0
416.971985	140.0
417.045166	212.0
417.130524	64.0
417.175232	204.0
417.415131	108.0
417.585938	132.0
417.915436	56.0
417.969147	104.0
418.131134	156.0
418.200317	112.0
418.269531	128.0
418.456787	144.0
418.501587	124.0
418.548737	136.0
418.766296	144.0
418.900726	136.0
419.014801	196.0
419.251129	156.0
419.446777	160.0
419.681366	152.0
419.764801	48.0
419.796814	160.0
419.858582	96.0
420.42569	88.0
420.507294	324.0
420.695068	64.0
420.723663	116.0
420.795105	104.0
420.929382	136.0
421.087189	108.0
421.156525	144.0
421.340363	100.0
421.516052	232.0
421.577362	172.0
421.679535	80.0
421.926117	160.0
422.370544	108.0
422.476898	120.0
422.722412	100.0
422.801941	140.0
422.882019	68.0
422.914764	136.0
423.041656	120.0
423.258667	208.0
423.31601	60.0
423.373322	108.0
423.422485	108.0
423.475739	128.0
423.543823	160.0
423.684631	120.0
423.776306	128.0
423.844452	112.0
424.14682	144.0
424.205109	136.0
424.266602	28.0
424.340393	196.0
424.406006	128.0
424.623352	68.0
424.661835	304.0
424.869476	88.0
425.0336	60.0
425.144409	52.0
425.230591	144.0
425.304474	72.0
425.435852	76.0
425.657562	152.0
425.875214	48.0
425.92041	116.0
425.957367	136.0
426.031342	112.0
426.076508	32.0
426.162811	120.0
426.278503	52.0
426.355927	192.0
426.59433	132.0
426.816376	52.0
426.976746	88.0
427.059021	56.0
427.104248	152.0
427.157745	112.0
427.202972	212.0
427.359314	120.0
427.622711	136.0
427.980865	124.0
428.083801	112.0
428.192993	180.0
428.236206	180.0
428.281525	124.0
428.471863	76.0
428.572571	80.0
428.631714	132.0
428.730621	140.0
428.808075	176.0
429.122223	128.0
429.221191	100.0
429.31604	96.0
429.505768	120.0
429.885345	128.0
429.988525	60.0
430.021545	132.0
430.122925	204.0
430.182526	116.0
430.310516	76.0
430.343536	36.0
430.459167	204.0
430.628479	176.0
430.66153	88.0
431.008575	148.0
431.054016	160.0
431.25238	164.0
431.450806	84.0
431.698914	136.0
431.827118	80.0
431.8685	180.0
432.021545	124.0
432.075317	212.0
432.108429	128.0
432.542969	156.0
432.580231	76.0
432.683716	60.0
432.807953	128.0
432.870056	124.0
433.031555	112.0
433.072998	76.0
433.292542	108.0
433.450012	64.0
433.495575	148.0
433.710724	132.0
433.770111	84.0
434.046936	160.0
434.153992	200.0
434.279175	176.0
434.544678	68.0
434.860077	88.0
435.015717	120.0
435.04071	124.0
435.159332	276.0
435.237854	160.0
435.412262	68.0
435.453796	176.0
435.736298	44.0
435.890015	216.0
435.964813	144.0
436.064575	204.0
436.279694	160.0
436.526062	96.0
436.800568	108.0
436.852448	164.0
436.950317	124.0
437.04187	92.0
437.070984	140.0
437.204163	80.0
437.262421	44.0
437.308197	200.0
437.428925	36.0
437.605072	156.0
437.861969	132.0
437.916107	140.0
438.095245	208.0
438.14566	160.0
438.774567	104.0
438.895477	340.0
439.016418	200.0
439.049774	156.0
439.170715	176.0
439.204102	144.0
439.265045	124.0
439.325073	164.0
439.448517	164.0
439.617157	156.0
439.817505	80.0
439.876343	124.0
439.967773	128.0
440.070618	120.0
440.138977	136.0
440.388428	108.0
440.554047	112.0
440.694519	52.0
440.846954	92.0
440.941071	136.0
441.296387	224.0
441.434387	224.0
441.509674	200.0
441.627899	136.0
441.702087	92.0
441.823395	124.0
441.877777	56.0
442.246033	156.0
442.426056	140.0
442.488861	136.0
442.651367	188.0
442.702423	60.0
442.828064	140.0
442.865753	100.0
442.899261	92.0
442.983032	172.0
443.279388	176.0
443.294006	128.0
443.360138	100.0
443.457458	148.0
443.812897	216.0
443.846436	100.0
443.930298	228.0
443.959656	176.0
444.078613	144.0
444.358154	28.0
444.505035	168.0
444.635132	144.0
444.752655	48.0
444.899567	108.0
444.987915	96.0
445.075928	88.0
445.188263	124.0
445.239685	92.0
445.432922	64.0
445.684998	228.0
445.76062	104.0
446.668793	96.0
446.800964	124.0
446.900177	44.0
446.954895	88.0
447.013794	120.0
447.114807	112.0
447.321045	84.0
447.684906	172.0
447.919037	132.0
448.011688	88.0
448.129669	96.0
448.21817	168.0
448.271729	168.0
448.517395	88.0
448.614349	96.0
448.652283	80.0
448.760498	144.0
448.829041	96.0
448.86734	124.0
449.099304	80.0
449.183655	44.0
449.390381	52.0
449.449463	96.0
449.677338	92.0
449.749115	144.0
449.934845	176.0
450.040405	188.0
450.086853	76.0
450.227661	140.0
450.509216	204.0
450.919098	52.0
451.24884	180.0
451.278412	84.0
451.565887	148.0
451.579773	200.0
451.798645	112.0
451.853638	76.0
451.946747	88.0
451.993286	176.0
452.157837	140.0
452.251434	124.0
452.369965	72.0
452.399597	124.0
452.433472	124.0
452.666351	140.0
452.776459	160.0
452.835754	40.0
452.958588	180.0
453.013672	56.0
453.378082	116.0
453.450134	180.0
453.53064	168.0
453.589996	108.0
453.700226	164.0
453.806213	124.0
453.869812	72.0
453.97583	140.0
454.074249	188.0
454.153595	188.0
454.49762	116.0
454.556366	128.0
454.612183	132.0
454.837128	116.0
455.155548	48.0
455.251434	164.0
455.333923	224.0
455.533569	32.0
455.586609	132.0
455.652527	140.0
455.748352	116.0
455.869232	104.0
455.981506	180.0
456.094482	136.0
456.130493	204.0
456.226257	56.0
456.260284	112.0
456.430359	192.0
456.655762	200.0
456.813141	88.0
456.893982	120.0
456.932281	120.0
457.00885	160.0
457.081207	124.0
457.115234	112.0
457.213104	52.0
457.255676	100.0
457.315277	108.0
457.498322	88.0
457.545135	108.0
457.574951	76.0
457.609009	104.0
457.656982	104.0
457.736755	128.0
457.785156	192.0
457.846497	120.0
457.919891	48.0
458.175476	136.0
458.273468	124.0
458.384247	140.0
458.443909	52.0
458.543671	88.0
458.708191	148.0
458.760956	136.0
458.831818	124.0
458.874451	48.0
458.940674	188.0
458.994446	192.0
459.038879	100.0
459.083405	84.0
459.153961	88.0
459.205353	228.0
459.266602	96.0
459.313721	192.0
459.373138	120.0
459.407562	96.0
459.486084	168.0
459.569092	112.0
459.657379	116.0
459.704956	80.0
459.759338	136.0
459.814209	120.0
459.878845	72.0
459.919647	212.0
459.953796	96.0
459.987946	80.0
460.020477	204.0
460.07077	112.0
460.145203	96.0
460.218414	624.0
460.280609	156.0
460.328705	160.0
460.38504	328.0
460.437775	284.0
460.515594	328.0
460.586517	132.0
460.646057	388.0
460.71933	320.0
460.749084	268.0
460.823547	256.0
460.872192	104.0
460.913208	348.0
460.969788	236.0
461.018707	436.0
461.096497	272.0
461.154175	180.0
461.21225	400.0
461.257599	144.0
461.267731	224.0
461.317627	388.0
461.375244	260.0
461.434875	384.0
461.467194	300.0
461.513062	128.0
461.579742	92.0
461.627075	344.0
461.670258	124.0
461.706421	172.0
461.729736	164.0
461.777649	596.0
461.852478	180.0
461.889099	1256.0
461.928833	312.0
461.995239	452.0
462.01236	368.0
462.038422	568.0
462.110291	724.0
462.235443	250540.0
462.350983	164.0
462.381165	168.0
462.434753	116.0
462.472504	184.0
462.530426	244.0
462.564911	204.0
462.614655	368.0
462.655975	656.0
462.731476	332.0
462.738739	348.0
462.757202	524.0
462.79361	244.0
462.880829	248.0
462.942261	3928.0
462.993256	432.0
463.0914	432.0
463.156128	476.0
463.237915	131416.0
463.338623	272.0
463.36795	180.0
463.43103	144.0
463.505402	236.0
463.542877	284.0
463.584137	252.0
463.63443	136.0
463.678955	580.0
463.725494	104.0
463.762115	112.0
463.805328	168.0
463.877197	208.0
463.945953	564.0
464.007965	260.0
464.074219	200.0
464.115295	104.0
464.154114	452.0
464.240265	13520.0
464.38382	192.0
464.448486	212.0
464.502594	136.0
464.53949	208.0
464.577728	136.0
464.632507	196.0
464.664337	120.0
464.708038	232.0
464.782623	128.0
464.829956	80.0
464.870972	92.0
464.92746	116.0
464.971893	152.0
465.022064	188.0
465.071777	256.0
465.125092	136.0
465.18454	76.0
465.190826	84.0
465.242462	1924.0
465.319489	116.0
465.368347	172.0
465.398193	168.0
465.484314	92.0
465.516907	332.0
465.57486	320.0
465.615234	204.0
465.657715	256.0
465.675934	152.0
465.7435	220.0
465.762329	96.0
465.776886	108.0
465.804657	264.0
465.864746	344.0
465.96225	140.0
465.995239	220.0
466.030426	272.0
466.116608	104.0
466.17984	132.0
466.221741	344.0
466.274567	236.0
466.316467	200.0
466.386963	56.0
466.459076	104.0
466.523682	128.0
466.581024	132.0
466.594055	132.0
466.668182	204.0
466.806213	208.0
466.861938	80.0
466.948517	28.0
466.989441	76.0
467.053925	152.0
467.097778	124.0
467.129822	176.0
467.197296	180.0
467.245728	112.0
467.280579	300.0
467.346741	92.0
467.393829	116.0
467.458374	64.0
467.494171	68.0
467.62677	124.0
467.732849	28.0
467.784454	160.0
467.815186	100.0
467.830841	84.0
467.850616	56.0
467.864807	88.0
467.901978	52.0
467.987061	84.0
468.016998	184.0
468.053314	56.0
468.08313	136.0
468.151733	120.0
468.195831	84.0
468.242188	140.0
468.272339	48.0
468.312622	56.0
468.352448	100.0
468.461853	48.0
468.535583	72.0
468.61264	48.0
468.654144	120.0
468.703125	72.0
468.793976	52.0
468.862579	48.0
468.910004	36.0
468.948792	72.0
469.009125	64.0
469.086182	64.0
469.142761	52.0
469.215515	64.0
469.315216	92.0
469.378937	36.0
469.431641	60.0
469.565796	76.0
469.625732	40.0
469.744995	80.0
469.785339	76.0
469.837128	56.0
469.960297	104.0
470.1521	28.0
470.216858	68.0
470.292267	104.0
470.350647	64.0
470.385193	44.0
470.441315	56.0
470.516052	128.0
470.596741	36.0
470.674469	56.0
470.7565	108.0
470.844666	68.0
471.03891	52.0
471.146973	84.0
471.339691	104.0
471.426117	68.0
471.473663	36.0
471.512543	84.0
471.642212	84.0
471.750305	60.0
471.962158	80.0
472.044312	60.0
472.295166	104.0
472.400208	112.0
472.572052	76.0
472.700775	48.0
472.758118	84.0
473.0784	76.0
473.130371	88.0
473.203979	56.0
473.48111	52.0
473.632721	72.0
473.751617	80.0
474.096313	60.0
474.152649	88.0
474.187317	44.0
474.33905	100.0
474.373718	52.0
474.491211	116.0
474.542816	104.0
474.698914	80.0
474.802979	88.0
475.067596	64.0
475.123993	88.0
475.440765	88.0
475.544922	116.0
475.633911	72.0
476.291748	52.0
476.427979	68.0
476.508972	56.0
476.613251	40.0
476.656708	108.0
476.860962	140.0
476.921814	112.0
476.98703	140.0
477.139191	140.0
477.195709	88.0
477.247894	132.0
477.304413	76.0
477.756775	68.0
477.883362	40.0
477.931976	176.0
477.992645	76.0
478.064392	80.0
478.204956	76.0
478.47052	76.0
478.531464	52.0
478.932129	56.0
478.997467	176.0
479.04538	56.0
479.189148	72.0
479.341675	32.0
479.435028	104.0
479.549561	108.0
479.585724	32.0
479.620605	76.0
479.8255	176.0
479.877808	64.0
480.00293	104.0
480.046509	116.0
480.095856	28.0
480.343384	112.0
480.470978	52.0
480.545135	60.0
480.59314	124.0
480.68042	72.0
480.977203	104.0
481.357056	52.0
481.780731	64.0
481.959869	144.0
482.51059	140.0
482.554321	68.0
482.702972	88.0
482.759827	80.0
482.969788	60.0
483.074768	60.0
483.332886	84.0
483.424805	60.0
483.459808	36.0
483.788086	52.0
483.818726	132.0
483.954468	88.0
484.086884	100.0
484.147156	80.0
484.234741	108.0
484.707886	56.0
484.797729	96.0
484.918243	40.0
484.984009	40.0
485.040985	92.0
485.084808	52.0
485.634888	72.0
485.70752	108.0
485.843506	36.0
486.260376	44.0
486.778412	72.0
486.945312	48.0
487.476898	100.0
488.013184	44.0
488.052765	56.0
488.149506	100.0
488.26825	44.0
488.743347	92.0
489.055817	96.0
489.165863	44.0
489.20108	88.0
490.024658	56.0
490.117188	76.0
490.293488	44.0
490.628479	84.0
490.721069	108.0
491.091522	68.0
491.351776	108.0
492.124176	120.0
493.038605	48.0
493.679657	52.0
495.981995	52.0
497.050842	88.0
497.521332	124.0
498.765198	140.0
498.822968	64.0
499.031952	52.0
499.730255	96.0
499.903809	72.0
500.75415	56.0
501.734497	40.0
502.175537	80.0
502.336578	84.0
503.014862	136.0
503.090759	68.0
503.255951	68.0
504.256653	104.0
504.726044	68.0
506.803009	64.0
507.600922	64.0
508.637329	72.0
508.97406	80.0
510.510925	132.0
511.891632	84.0
513.672852	116.0
513.71344	64.0
513.754028	44.0
515.424622	68.0
515.971558	72.0
516.930481	72.0
517.15802	72.0
517.650269	72.0
517.777039	48.0
519.186584	48.0
519.594788	48.0
519.685547	44.0
520.225647	124.0
521.943115	104.0
522.097717	80.0
522.200317	100.0
522.461609	116.0
522.757385	32.0
525.240479	64.0
525.477722	100.0
526.121277	68.0
526.774292	100.0
528.282898	104.0
530.371094	60.0
530.426086	60.0
530.999268	52.0
531.636963	48.0
531.806763	80.0
532.683838	76.0
533.198486	72.0
534.983215	60.0
536.02417	100.0
538.090576	48.0
538.224487	96.0
538.298401	88.0
539.638428	108.0
540.262817	80.0
540.961609	40.0
542.504272	76.0
542.773193	84.0
542.856689	100.0
544.546021	48.0
546.754456	72.0
547.410889	76.0
547.657776	44.0
549.63916	64.0
554.615356	84.0
555.844116	108.0
556.853516	68.0
557.703979	88.0
558.112976	88.0
558.277588	108.0
558.959656	108.0
559.444458	100.0
559.632812	92.0
559.863525	80.0
560.637024	112.0
560.994385	92.0
561.352783	80.0
561.494263	256.0
561.777283	44.0
564.100708	108.0
564.460022	120.0
565.59082	80.0
565.623962	112.0
566.391052	100.0
567.097107	84.0
567.206116	44.0
567.343567	108.0
568.183044	84.0
568.648071	52.0
569.44574	68.0
569.904724	116.0
571.832581	68.0
573.065979	100.0
576.979736	80.0
577.027527	76.0
578.088806	132.0
579.133179	60.0
580.527893	64.0
581.051697	100.0
581.271423	72.0
582.889771	100.0
583.307922	80.0
584.077271	36.0
585.463501	68.0
585.954834	40.0
586.176453	36.0
587.285339	88.0
589.259827	96.0
589.298462	72.0
590.860168	64.0
591.958923	60.0
592.201111	128.0
592.462708	144.0
594.2323	56.0
594.712769	92.0
595.946289	60.0
596.00946	100.0
596.490601	116.0
596.685059	92.0
598.78241	64.0
599.147766	88.0
600.278564	60.0
600.898071	48.0
602.269897	84.0
602.401794	128.0
604.748962	136.0
605.199341	40.0
605.640076	96.0
605.943848	108.0
606.193726	48.0
606.242737	100.0
606.438782	80.0
606.830994	60.0
607.218384	60.0
607.704041	40.0
609.206421	136.0
609.51593	128.0
610.651611	60.0
612.581177	68.0
612.869263	120.0
613.665405	60.0
614.424988	116.0
614.464478	60.0
614.503906	92.0
615.960327	60.0
616.21228	68.0
617.101929	72.0
617.270081	60.0
619.096191	92.0
620.716675	100.0
620.979492	148.0
622.458435	72.0
622.637268	148.0
624.60553	100.0
625.506226	52.0
625.770081	124.0
626.113708	52.0
626.786255	48.0
626.94574	40.0
627.005493	132.0
627.324524	80.0
627.868042	96.0
628.237183	120.0
628.95575	112.0
629.040588	100.0
629.509949	88.0
629.764648	60.0
629.874573	76.0
631.044006	72.0
631.634155	44.0
631.669189	120.0
633.005554	120.0
633.125732	84.0
635.426575	96.0
638.375122	128.0
638.50592	128.0
638.950562	112.0
640.332886	40.0
640.539429	124.0
641.073486	124.0
641.638062	48.0
641.683411	48.0
642.732605	48.0
644.424133	116.0
644.954773	52.0
645.40979	28.0
645.531128	28.0
645.677795	68.0
648.107727	88.0
648.345947	68.0
650.440735	84.0
651.309021	60.0
652.757507	84.0
654.243286	116.0
657.699585	96.0
662.609009	132.0
663.116333	128.0
663.577698	116.0
666.574341	80.0
666.688416	120.0
666.929993	48.0
667.341309	76.0
667.660095	52.0
668.009888	80.0
668.189941	120.0
669.430481	68.0
669.832214	40.0
670.502075	48.0
671.084595	84.0
671.533264	44.0
672.336365	60.0
673.164124	60.0
673.339722	112.0
673.814941	68.0
673.964783	72.0
674.259338	72.0
674.774597	108.0
675.241699	40.0
675.412415	68.0
676.022949	52.0
676.400757	48.0
678.566284	80.0
678.861877	92.0
678.9552	128.0
681.77948	48.0
682.008179	80.0
682.580078	64.0
683.615295	44.0
683.734985	92.0
684.245117	108.0
684.672119	40.0
684.995056	60.0
685.797546	80.0
686.511841	68.0
688.202576	60.0
689.45105	80.0
690.161987	68.0
690.847168	92.0
691.009338	80.0
691.585022	60.0
691.76825	76.0
693.00946	44.0
693.538818	84.0
694.755432	44.0
695.175171	64.0
697.21283	136.0
697.675415	44.0
698.921936	44.0
699.932617	68.0
701.486938	88.0
703.892822	120.0
705.768738	96.0
706.160095	168.0
706.593872	72.0
708.828369	36.0
710.318237	80.0
710.519836	116.0
711.299927	40.0
712.207947	72.0
712.585144	68.0
716.128113	52.0
717.23114	132.0
717.396362	28.0
717.540344	116.0
718.121582	84.0
718.569702	68.0
719.781372	56.0
719.845459	72.0
720.598633	76.0
720.876465	96.0
721.261292	56.0
721.373535	64.0
721.576721	76.0
722.935364	60.0
723.208374	44.0
723.781189	40.0
723.936462	116.0
724.134644	92.0
724.188232	132.0
725.179443	128.0
725.715576	48.0
726.219666	52.0
728.221741	36.0
728.388245	84.0
728.737488	52.0
728.866455	32.0
728.963135	40.0
729.909302	56.0
730.269592	72.0
730.307251	56.0
730.716125	48.0
731.313477	84.0
732.902161	28.0
733.953308	116.0
735.183228	52.0
735.604248	116.0
736.219788	44.0
736.538452	60.0
738.780457	104.0
742.888367	44.0
745.902283	232.0
747.517639	32.0
747.572083	84.0
747.680908	76.0
748.110962	64.0
748.15448	44.0
748.666321	40.0
748.82666	116.0
749.554321	88.0
749.979431	76.0
750.573669	80.0
751.11908	108.0
752.024841	56.0
752.123108	68.0
753.635925	44.0
753.985657	100.0
754.379211	116.0
756.534668	64.0
757.279419	92.0
757.394409	44.0
757.788879	64.0
759.170227	52.0
760.882263	184.0
765.198242	184.0
769.95166	52.0
770.040039	64.0
771.034546	108.0
771.952271	80.0
772.682434	148.0
772.986755	44.0
773.307739	72.0
774.326477	84.0
775.916931	116.0
776.532471	140.0
777.397949	64.0
777.908569	76.0
778.025146	52.0
778.263916	112.0
778.419373	84.0
778.530457	112.0
779.808289	80.0
781.231873	76.0
781.309753	44.0
784.651428	56.0
785.627441	116.0
785.923157	104.0
786.103088	128.0
788.117554	68.0
788.195801	80.0
788.972717	184.0
790.169617	48.0
794.141418	184.0
794.837097	116.0
797.785828	104.0
800.497864	116.0
802.351685	68.0
804.100403	84.0
804.444763	56.0
804.919006	52.0
805.122314	176.0
810.241577	168.0
813.413086	156.0
813.513367	196.0
813.775085	64.0
813.928406	204.0
814.484985	76.0
814.752014	60.0
815.752197	88.0
816.753052	144.0
816.838379	168.0
817.077332	96.0
817.208191	48.0
818.551514	60.0
821.007751	60.0
822.439819	76.0
822.56543	176.0
823.381958	104.0
823.610413	156.0
823.958923	176.0
824.267456	92.0
824.776123	40.0
824.85614	64.0
825.279236	240.0
826.434631	64.0
826.686401	72.0
827.367554	64.0
829.424194	200.0
829.894287	56.0
830.002625	164.0
830.255554	200.0
831.690002	148.0
831.844971	264.0
832.057373	84.0
832.361694	100.0
832.734985	104.0
832.838379	100.0
836.271118	76.0
836.77771	108.0
837.249939	56.0
838.246582	104.0
839.468689	52.0
840.108948	144.0
840.264709	32.0
841.984924	48.0
843.03064	140.0
843.313843	44.0
843.73584	64.0
845.41333	36.0
846.003723	96.0
846.322144	48.0
847.544373	80.0
848.680481	184.0
849.86377	68.0
850.159729	208.0
851.663452	72.0
851.79126	164.0
852.906982	132.0
853.354614	96.0
853.587219	176.0
853.912903	160.0
854.610962	48.0
857.05658	192.0
857.208069	84.0
857.930847	88.0
858.064941	220.0
858.846375	128.0
859.634033	64.0
859.797424	88.0
860.311096	100.0
860.667297	88.0
862.273804	88.0
862.560242	128.0
862.758972	92.0
863.788269	104.0
865.210327	52.0
867.254822	252.0
867.577209	72.0
867.630005	52.0
868.42749	204.0
868.703186	36.0
868.826416	108.0
869.01416	80.0
869.565796	168.0
870.710693	68.0
873.567383	104.0
877.189087	228.0
877.283447	124.0
879.552551	80.0
880.948242	124.0
881.060486	60.0
881.515503	48.0
884.005127	72.0
884.401672	76.0
886.036133	128.0
887.172791	240.0
887.950867	200.0
888.027954	48.0
888.733948	212.0
889.618286	120.0
890.330811	48.0
890.378296	64.0
891.031738	100.0
891.168396	76.0
891.417969	40.0
893.380127	156.0
894.135803	140.0
895.034729	136.0
895.261047	140.0
896.86377	100.0
899.112366	120.0
899.321289	116.0
899.960083	112.0
901.788147	144.0
901.830017	176.0
902.344116	136.0
902.493591	76.0
902.936096	44.0
903.522339	108.0
906.238464	192.0
906.911804	148.0
907.859131	152.0
907.949097	44.0
908.608948	100.0
908.908936	60.0
908.99292	192.0
909.737183	168.0
910.782104	120.0
910.850525	256.0
910.968323	68.0
911.058411	168.0
911.725403	116.0
913.144287	40.0
914.305481	80.0
914.949585	120.0
915.919189	64.0
916.431274	68.0
916.877197	188.0
917.256897	100.0
919.530945	200.0
920.219116	196.0
920.895508	148.0
921.131104	52.0
921.233765	48.0
922.067627	64.0
922.829346	124.0
923.609497	172.0
925.037598	44.0
925.2677	72.0
925.770264	44.0
927.703125	92.0
928.734009	148.0
928.812866	48.0
930.469666	32.0
930.773254	168.0
931.423096	180.0
931.89093	60.0
931.994202	92.0
932.978821	204.0
933.106506	88.0
934.899719	96.0
935.55835	96.0
936.088074	124.0
936.307312	196.0
936.80072	60.0
937.080994	192.0
937.16626	108.0
937.720825	212.0
938.617065	100.0
942.077759	216.0
942.450439	60.0
943.10437	52.0
943.176086	104.0
943.856384	144.0
944.602539	76.0
944.737122	40.0
945.397949	148.0
946.150879	76.0
947.9823	112.0
948.840454	136.0
948.938599	124.0
949.815552	148.0
950.37384	172.0
951.28833	224.0
952.154114	120.0
952.307678	72.0
952.965027	124.0
954.981445	64.0
956.132019	172.0
956.31665	108.0
957.11084	60.0
957.197021	132.0
958.348938	164.0
959.076172	56.0
960.543762	96.0
960.889221	96.0
961.73468	152.0
961.907532	188.0
962.852234	112.0
962.907837	112.0
963.099304	132.0
963.593506	140.0
964.359802	164.0
964.724548	136.0
964.934753	108.0
966.245972	120.0
966.740967	184.0
967.359924	96.0
967.649292	180.0
967.880005	168.0
969.459717	164.0
969.521667	152.0
969.62085	184.0
970.680969	136.0
970.891785	44.0
971.133667	156.0
971.344604	288.0
971.505859	44.0
971.707092	168.0
971.934021	164.0
972.480103	132.0
973.119568	52.0
973.218872	100.0
973.299622	56.0
974.467346	48.0
975.785034	152.0
976.313599	148.0
976.437988	204.0
977.147156	88.0
977.800537	68.0
978.012146	76.0
979.519104	128.0
979.880432	136.0
980.142151	76.0
981.126953	52.0
981.962524	168.0
982.099792	124.0
982.698669	256.0
983.150635	168.0
983.859558	44.0
984.103088	68.0
985.00238	48.0
985.127319	96.0
985.356262	344.0
985.708618	120.0
985.833374	180.0
987.890503	188.0
988.178345	188.0
988.628845	196.0
988.678955	68.0
988.804138	164.0
989.148376	140.0
989.574097	196.0
990.479797	104.0
990.688904	160.0
990.952087	144.0
991.052307	112.0
991.190186	196.0
991.490967	136.0
992.688416	32.0
993.108582	164.0
993.227783	196.0
994.344666	160.0
994.389343	172.0
994.489014	44.0
994.595764	192.0
994.928467	132.0
995.493591	92.0
996.272461	116.0
996.460938	232.0
996.567749	92.0
996.96991	44.0
997.221313	56.0
998.075806	192.0
998.648621	52.0
999.227356	112.0
999.988831	144.0
1000.234314	96.0
1000.290955	52.0
1000.654541	168.0
1000.863892	136.0
1000.977234	76.0
1001.361389	92.0
1001.487366	88.0
1001.63855	164.0
1002.690857	208.0
1003.163147	108.0
1004.084229	140.0
1004.500488	56.0
1006.450745	120.0
1008.491333	160.0
1008.95282	156.0
1009.642029	104.0
1011.033875	104.0
1011.483276	200.0
1011.856812	104.0
1012.381165	272.0
1012.718079	96.0
1013.161499	88.0
1013.319885	168.0
1013.605042	40.0
1014.067688	132.0
1015.076843	184.0
1015.291321	192.0
1015.849548	180.0
1016.014465	112.0
1016.445923	152.0
1017.429749	120.0
1017.575806	108.0
1017.867859	132.0
1018.109192	140.0
1018.312439	96.0
1019.042969	180.0
1019.570435	56.0
1019.653625	168.0
1019.837341	76.0
1020.600281	44.0
1021.253845	188.0
1021.306213	80.0
1022.025085	56.0
1022.873962	140.0
1022.954346	224.0
1023.883972	76.0
1024.259766	84.0
1024.501831	160.0
1024.973389	216.0
1025.617065	228.0
1025.661621	184.0
1025.891113	148.0
1026.10791	196.0
1026.41394	48.0
1026.854004	160.0
1026.955078	148.0
1029.196167	200.0
1029.279175	144.0
1029.3302	196.0
1029.636841	100.0
1029.700684	88.0
1030.588623	100.0
1031.464233	160.0
1031.560059	72.0
1031.675171	236.0
1031.918091	260.0
1032.065186	240.0
1033.158936	228.0
1034.163574	136.0
1034.205444	132.0
1034.516846	84.0
1034.605347	156.0
1035.015015	260.0
1035.168701	52.0
1035.402466	224.0
1035.501831	96.0
1035.847656	116.0
1036.427612	148.0
1036.962646	116.0
1037.180542	140.0
1038.418091	168.0
1038.604126	156.0
1039.027466	100.0
1039.655396	120.0
1040.163452	144.0
1040.985229	164.0
1041.177856	144.0
1041.306396	96.0
1042.539917	144.0
1043.092651	96.0
1044.082886	148.0
1044.314453	124.0
1044.526733	224.0
1044.925537	104.0
1045.311646	112.0
1045.858765	100.0
1046.135498	180.0
1046.264282	140.0
1046.322266	48.0
1046.553955	44.0
1046.714966	48.0
1047.197998	192.0
1047.391235	200.0
1047.442749	140.0
1047.558716	40.0
1048.273926	36.0
1048.460815	132.0
1049.814697	152.0
1050.608032	192.0
1051.750244	92.0
1051.814819	188.0
1052.034302	76.0
1052.111816	56.0
1052.428223	116.0
1052.546753	196.0
1052.822144	88.0
1053.151489	144.0
1053.524902	176.0
1054.831543	296.0
1055.28418	228.0
1055.814453	156.0
1056.118408	176.0
1056.3125	212.0
1056.661865	112.0
1056.78479	148.0
1057.050049	168.0
1057.690796	112.0
1057.800903	124.0
1058.001587	148.0
1058.687866	148.0
1058.746216	152.0
1058.914551	96.0
1059.044189	76.0
1059.536499	184.0
1060.339966	136.0
1060.625244	148.0
1060.683472	172.0
1061.1698	36.0
1061.831177	128.0
1062.973022	128.0
1063.206665	196.0
1063.303955	152.0
1063.725952	132.0
1063.829834	224.0
1063.979126	184.0
1064.27124	172.0
1064.446655	80.0
1064.553467	176.0
1065.48584	228.0
1065.927734	60.0
1066.525635	176.0
1066.675171	204.0
1067.123779	116.0
1067.175781	196.0
1068.307495	172.0
1068.984009	148.0
1069.342041	144.0
1069.433228	152.0
1069.621948	120.0
1070.331665	148.0
1070.468384	104.0
1070.950317	124.0
1071.862427	152.0
1072.129639	44.0
1073.009644	88.0
1073.520752	216.0
1074.131348	256.0
1074.190063	180.0
1074.340088	120.0
1074.809937	104.0
1076.245972	152.0
1076.513672	216.0
1077.480469	116.0
1078.166504	176.0
1078.336548	180.0
1079.238647	136.0
1079.971191	140.0
1080.067505	120.0
1080.324341	128.0
1080.409424	124.0
1081.233887	188.0
1082.752808	152.0
1083.466919	180.0
1084.29248	148.0
1085.151245	192.0
1085.406982	116.0
1085.60376	156.0
1085.774292	40.0
1085.910522	124.0
1086.541748	152.0
1087.259155	196.0
1087.467041	60.0
1087.585205	168.0
1087.795288	208.0
1088.044678	168.0
1088.202271	156.0
1088.412354	176.0
1089.05603	236.0
1089.634155	172.0
1089.739258	192.0
1090.074341	172.0
1090.46875	108.0
1090.633057	64.0
1091.757324	148.0
1092.526978	144.0
1093.369141	164.0
1093.84314	64.0
1094.376343	108.0
1095.357666	156.0
1095.581665	152.0
1095.878174	124.0
1096.31311	136.0
1096.846924	76.0
1097.644775	32.0
1097.94812	156.0
1098.297729	136.0
1098.469238	80.0
1098.733032	144.0
1098.93103	116.0
1099.062988	136.0
1099.227905	60.0
1099.643677	128.0
1100.706665	160.0
1100.917969	132.0
1100.977417	100.0
1101.710571	204.0
1103.587646	84.0
1104.222534	84.0
1104.288696	52.0
1104.335815	144.0
1104.917114	140.0
1105.330322	152.0
1105.552368	144.0
1106.32019	196.0
1106.618042	156.0
1107.909058	148.0
1108.028809	128.0
1108.081909	164.0
1108.181274	164.0
1108.340332	148.0
1109.407349	116.0
1110.687256	136.0
1111.808594	188.0
1113.501587	172.0
1113.793823	64.0
1113.993164	148.0
1114.278809	212.0
1115.0896	104.0
1115.275635	168.0
1115.501709	216.0
1115.687866	48.0
1116.026123	160.0
1116.246338	48.0
1116.492432	176.0
1116.758423	140.0
1117.17749	60.0
1117.609985	164.0
1117.995972	172.0
1118.355347	220.0
1118.548462	96.0
1118.594971	140.0
1119.920166	68.0
1120.192261	116.0
1120.286499	136.0
1120.493042	88.0
1120.799561	140.0
1121.032837	132.0
1121.158569	148.0
1121.672607	184.0
1121.965942	88.0
1122.372681	196.0
1123.219727	140.0
1124.000366	124.0
1124.44751	76.0
1124.727783	156.0
1125.088257	100.0
1125.188477	192.0
1125.675903	192.0
1125.822754	204.0
1126.109985	116.0
1126.357178	104.0
1126.477417	180.0
1126.811401	132.0
1126.858154	160.0
1127.192261	128.0
1127.670654	200.0
1127.807129	116.0
1128.535889	104.0
1128.830078	72.0
1128.937134	180.0
1129.151123	224.0
1129.385254	44.0
1129.485596	196.0
1129.592529	60.0
1130.415527	100.0
1130.837158	92.0
1131.352661	180.0
1132.069092	128.0
1132.36377	124.0
1132.993408	80.0
1133.060425	172.0
1133.315063	100.0
1133.516113	156.0
1133.831055	128.0
1134.018677	120.0
1134.307007	64.0
1134.805786	172.0
1134.856689	164.0
1135.010986	172.0
1135.567627	160.0
1135.634644	112.0
1136.030396	140.0
1136.459839	116.0
1136.547119	188.0
1136.640991	120.0
1137.251709	228.0
1137.72168	184.0
1137.782104	188.0
1138.050659	176.0
1138.10437	148.0
1138.74231	64.0
1139.004272	248.0
1139.353638	196.0
1139.400635	132.0
1139.542847	156.0
1139.609009	224.0
1139.823975	412.0
1140.146606	144.0
1140.207031	168.0
1140.334717	92.0
1140.435547	88.0
1140.697754	196.0
1140.845581	144.0
1141.081299	192.0
1141.316284	136.0
1141.444092	84.0
1142.035889	160.0
1142.183838	48.0
1143.575073	100.0
1143.792114	232.0
1143.839233	72.0
1143.933472	140.0
1144.270142	200.0
1144.546143	168.0
1145.145508	32.0
1145.22644	148.0
1145.279907	192.0
1145.44873	184.0
1145.940552	156.0
1146.681763	116.0
1146.85022	144.0
1147.039062	116.0
1147.382812	48.0
1147.537964	152.0
1147.955933	124.0
1148.374146	100.0
1148.792358	180.0
1149.163452	144.0
1149.522583	180.0
1149.804565	152.0
1149.953003	144.0
1150.088013	136.0
1150.945435	88.0
1150.992676	44.0
1151.532959	124.0
1151.870728	132.0
1152.262573	128.0
1152.411133	124.0
1152.762573	180.0
1152.972046	208.0
1153.607422	184.0
1153.817017	120.0
1153.87793	104.0
1154.107788	104.0
1154.378296	152.0
1154.4729	180.0
1154.723145	168.0
1155.156128	48.0
1155.568848	192.0
1155.832642	112.0
1155.920654	152.0
1156.204834	156.0
1156.306396	236.0
1156.71936	100.0
1156.915649	180.0
1157.071289	112.0
1157.572388	88.0
1157.619873	80.0
1157.897461	184.0
1158.222656	144.0
1158.90686	80.0
1159.950562	64.0
1160.079346	112.0
1160.227661	144.0
1160.254395	124.0
1160.384521	216.0
1160.789429	180.0
1160.893066	148.0
1160.940552	60.0
1161.015137	120.0
1161.150757	148.0
1161.218628	140.0
1161.951172	144.0
1162.100464	88.0
1162.270142	220.0
1162.806274	228.0
1163.023438	40.0
1163.267212	200.0
1163.342529	92.0
1163.437622	144.0
1163.614136	196.0
1164.109741	168.0
1164.170898	100.0
1164.517334	156.0
1165.114136	144.0
1165.400391	196.0
1165.583862	204.0
1165.719849	156.0
1166.052856	132.0
1166.688721	144.0
1166.992065	152.0
1167.093018	168.0
1167.174561	144.0
1168.255981	60.0
1168.643799	60.0
1168.779907	156.0
1169.018066	156.0
1169.195068	164.0
1169.460449	96.0
1169.521729	100.0
1169.882568	188.0
1170.243408	160.0
1170.393188	160.0
1170.63147	128.0
1170.692749	184.0
1171.302368	172.0
1171.448853	104.0
1172.177856	128.0
1173.410522	148.0
1173.50708	144.0
1173.738892	124.0
1173.834351	224.0
1175.996948	172.0
1176.324829	188.0
1176.461304	48.0
1176.642456	168.0
1177.055298	60.0
1177.403687	144.0
1177.547119	160.0
1177.635864	176.0
1177.806641	184.0
1178.202881	124.0
1178.359985	60.0
1178.93396	172.0
1179.350952	184.0
1179.518555	176.0
1179.610718	160.0
1180.082397	196.0
1180.383301	32.0
1180.916748	180.0
1181.162964	184.0
1181.265625	168.0
1181.388672	168.0
1181.744507	136.0
1182.09668	136.0
1182.408325	184.0
1182.777954	176.0
1183.179932	184.0
1183.318726	172.0
1183.626831	148.0
1184.044678	132.0
1184.777588	84.0
1184.996216	172.0
1185.2229	68.0
1185.29834	172.0
1185.709351	176.0
1186.107056	160.0
1186.285278	256.0
1186.570679	220.0
1186.628052	44.0
1187.128662	148.0
1187.272705	120.0
1187.505859	148.0
1187.842041	160.0
1188.795654	168.0
1189.152588	168.0
1189.406616	152.0
1189.461426	216.0
1189.835083	152.0
1189.955811	156.0
1190.05188	132.0
1190.395264	220.0
1191.054565	88.0
1191.288208	88.0
1191.528564	228.0
1191.782837	156.0
1192.263916	76.0
1192.449463	196.0
1192.504639	144.0
1192.607544	136.0
1192.889404	116.0
1193.70752	60.0
1193.948242	36.0
1194.670532	232.0
1195.213135	148.0
1195.233398	128.0
1195.803345	148.0
1196.067505	128.0
1196.260254	60.0
1197.017578	120.0
1197.072754	116.0
1197.182861	136.0
1197.685669	72.0
1198.27124	204.0
1198.912109	96.0
1199.201538	148.0
1199.256714	196.0
1199.339478	184.0
1199.580688	108.0
1199.918579	152.0
1200.035767	160.0
1200.111572	72.0
1200.525391	196.0
1200.61499	184.0
1200.7323	208.0
1200.904663	156.0
1200.966797	120.0
1201.201294	156.0
1201.477295	148.0
1201.732544	148.0
1201.870483	140.0
1201.918823	184.0
1201.973999	156.0
1202.043091	64.0
1202.236328	208.0
1202.450195	172.0
1202.657349	56.0
1202.712524	128.0
1202.781494	160.0
1202.947266	56.0
1203.168091	124.0
1203.720581	164.0
1204.231567	160.0
1204.818726	208.0
1204.894775	116.0
1206.435913	232.0
1206.546631	116.0
1207.307251	128.0
1207.355591	136.0
1207.5354	132.0
1208.192627	128.0
1208.286987	148.0
1208.44165	148.0
1209.618286	136.0
1209.673584	124.0
1210.026733	220.0
1210.179077	172.0
1210.359009	104.0
1210.483643	136.0
1211.335571	176.0
1211.924561	200.0
1212.340332	120.0
1212.555176	128.0
1213.518799	156.0
1213.608887	132.0
1214.087402	192.0
1214.808716	140.0
1215.280518	148.0
1215.433228	196.0
1215.724609	140.0
1215.917114	196.0
1216.314575	172.0
1216.464111	68.0
1216.988037	172.0
1217.161621	96.0
1217.467163	72.0
1217.534546	188.0
1217.717285	152.0
1217.786743	216.0
1218.060059	196.0
1218.342407	32.0
1218.469971	192.0
1218.557861	184.0
1218.801025	116.0
1219.857422	96.0
1219.920044	260.0
1220.288452	100.0
1220.949097	52.0
1221.051636	188.0
1221.234253	156.0
1222.020386	164.0
1222.173462	84.0
1222.291748	68.0
1222.396118	108.0
1222.938965	52.0
1223.154785	168.0
1223.354248	148.0
1223.746582	160.0
1224.052979	68.0
1224.194336	208.0
1224.90271	72.0
1225.090698	156.0
1225.292847	140.0
1226.289307	156.0
1226.713013	192.0
1226.805176	176.0
1227.077026	160.0
1227.272339	76.0
1227.383911	96.0
1228.074341	52.0
1228.395142	144.0
1228.69519	236.0
1229.057983	168.0
1229.316162	180.0
1229.438721	216.0
1229.688477	172.0
1229.763184	192.0
1230.328247	144.0
1230.391113	164.0
1230.614502	56.0
1231.019531	144.0
1231.197021	196.0
1232.123169	164.0
1232.556396	180.0
1233.143433	216.0
1233.534912	164.0
1233.926392	168.0
1234.164185	156.0
1234.380005	120.0
1234.702637	160.0
1234.772583	112.0
1235.283203	172.0
1235.430054	52.0
1235.640015	200.0
1235.709961	104.0
1235.898804	216.0
1236.087769	84.0
1236.489136	144.0
1236.619751	88.0
1236.682739	200.0
1237.046631	216.0
1237.711792	136.0
1237.865845	152.0
1239.007568	128.0
1239.163574	184.0
1239.224854	144.0
1239.421021	84.0
1239.645264	252.0
1240.009644	140.0
1240.086792	196.0
1240.352051	172.0
1240.437256	176.0
1240.7948	112.0
1241.033203	120.0
1241.152466	136.0
1241.292725	148.0
1241.538086	124.0
1241.860718	136.0
1242.148315	148.0
1242.428467	164.0
1243.291992	188.0
1243.348145	84.0
1243.586792	88.0
1244.148438	164.0
1244.578979	188.0
1244.759277	144.0
1245.089355	148.0
1245.21582	152.0
1245.286011	160.0
1245.623169	152.0
1245.876099	180.0
1246.189575	188.0
1246.487427	188.0
1246.7052	120.0
1246.782593	80.0
1247.162109	96.0
1247.223267	152.0
1247.365967	392.0
1247.415161	188.0
1247.478394	184.0
1247.851074	220.0
1247.977661	112.0
1248.111206	168.0
1248.230713	144.0
1248.526123	204.0
1248.94812	136.0
1249.011475	136.0
1249.328003	128.0
1249.398315	184.0
1249.591675	188.0
1250.185669	72.0
1250.482056	204.0
1250.55896	156.0
1250.635986	160.0
1250.688599	216.0
1250.77063	156.0
1250.918457	132.0
1251.129639	64.0
1251.481689	128.0
1251.716187	192.0
1251.777466	164.0
1251.883057	216.0
1252.10144	144.0
1252.481812	44.0
1252.848145	96.0
1253.02417	192.0
1253.112549	156.0
1253.439941	56.0
1253.771118	136.0
1253.954468	124.0
1254.299805	112.0
1254.511353	256.0
1254.638184	152.0
1254.955444	136.0
1255.166992	104.0
1255.484375	124.0
1255.547852	164.0
1255.646606	144.0
1256.006348	136.0
1256.055664	204.0
1256.189697	148.0
1256.376221	228.0
1256.517822	136.0
1256.775269	224.0
1257.18457	116.0
1257.622192	192.0
1257.932739	116.0
1258.047607	208.0
1258.158691	108.0
1258.780029	180.0
1258.935425	32.0
1259.175537	184.0
1259.479248	72.0
1259.825439	48.0
1259.966675	192.0
1260.093872	184.0
1260.232178	120.0
1261.295288	100.0
1261.514404	88.0
1261.88208	168.0
1261.988159	136.0
1262.164917	388.0
1262.872192	32.0
1263.21167	144.0
1263.890869	124.0
1264.11731	164.0
1264.237671	160.0
1264.329712	244.0
1265.370239	248.0
1266.212891	160.0
1266.326294	188.0
1266.496216	124.0
1267.7323	172.0
1268.161377	160.0
1269.040527	136.0
1269.302856	128.0
1269.756714	120.0
1269.990723	132.0
1270.246094	112.0
1270.402222	292.0
1270.686035	84.0
1270.827881	108.0
1271.42395	104.0
1271.479492	156.0
1272.020264	148.0
1272.069946	72.0
1272.467529	156.0
1272.566895	152.0
1272.80835	116.0
1273.29126	44.0
1273.890747	196.0
1273.954834	180.0
1274.598389	124.0
1275.14563	260.0
1275.39978	164.0
1275.658936	156.0
1275.728516	64.0
1276.233276	120.0
1276.361328	144.0
1276.411133	124.0
1276.581787	160.0
1276.744751	144.0
1276.880493	264.0
1277.243286	172.0
1277.52063	164.0
1277.598877	120.0
1277.648682	144.0
1278.040039	192.0
1278.111206	204.0
1278.232178	148.0
1279.192993	152.0
1279.463623	180.0
1279.520508	132.0
1279.677124	144.0
1279.904175	144.0
1280.026123	220.0
1280.240601	196.0
1280.353638	176.0
1280.47644	152.0
1280.595825	128.0
1280.645752	180.0
1281.07312	120.0
1281.208496	176.0
1281.293945	116.0
1281.422241	140.0
1282.113403	224.0
1282.161011	112.0
1282.298706	180.0
1282.41272	312.0
1282.662231	164.0
1282.812012	100.0
1282.947388	184.0
1283.161987	168.0
1283.3396	104.0
1283.610474	140.0
1283.674683	216.0
1284.081177	76.0
1284.544922	112.0
1284.669067	196.0
1284.922974	160.0
1284.98584	220.0
1285.087036	132.0
1285.456421	232.0
1285.829224	136.0
1286.086182	108.0
1286.193237	76.0
1286.243286	144.0
1286.429932	192.0
1286.714478	168.0
1286.907227	112.0
1286.958984	160.0
1287.035767	124.0
1287.728516	236.0
1287.821289	124.0
1287.985596	152.0
1288.442871	196.0
1288.585693	112.0
1288.963257	156.0
1289.736328	164.0
1290.30188	176.0
1290.42981	188.0
1291.180664	108.0
1291.502441	164.0
1292.097778	116.0
1292.446899	116.0
1293.62793	184.0
1293.778076	128.0
1293.899902	180.0
1294.021606	76.0
1294.08606	172.0
1294.179077	144.0
1294.537109	160.0
1295.199829	196.0
1295.403809	220.0
1295.86853	152.0
1296.055786	72.0
1296.171875	120.0
1296.363892	148.0
1296.557373	156.0
1296.715088	48.0
1297.023315	120.0
1297.532349	116.0
1297.625488	148.0
1297.711548	412.0
1297.819092	132.0
1298.701294	108.0
1298.808838	152.0
1298.959473	244.0
1299.052979	132.0
1299.210571	120.0
1299.382812	224.0
1299.777344	180.0
1300.030762	156.0
1300.143433	88.0
1300.216431	152.0
1300.55249	152.0
1300.846802	180.0
1300.918579	168.0
1301.013306	216.0
1301.191406	160.0
1301.374634	232.0
1301.593506	260.0
1302.125	164.0
1302.466309	152.0
1302.656494	176.0
1302.749878	120.0
1302.83606	140.0
1303.094727	148.0
1303.281616	196.0
1303.353394	180.0
1303.461182	60.0
1303.540283	144.0
1303.705566	164.0
1303.834961	148.0
1304.036133	132.0
1304.25061	196.0
1304.359619	152.0
1304.460327	180.0
1304.532104	208.0
1305.071411	88.0
1305.229614	108.0
1305.300903	184.0
1305.430908	140.0
1306.01355	152.0
1306.207764	128.0
1306.404907	212.0
1307.150269	124.0
1307.301392	156.0
1307.385498	128.0
1307.949219	156.0
1308.21106	252.0
1308.280273	316.0
1308.633057	64.0
1309.007568	64.0
1309.274048	164.0
1309.410889	140.0
1309.857422	156.0
1309.994263	108.0
1310.138428	156.0
1310.54187	184.0
1310.592285	92.0
1310.862427	184.0
1311.034546	188.0
1311.300415	152.0
1311.810303	184.0
1311.940063	124.0
1312.286133	124.0
1312.581787	176.0
1312.646729	132.0
1312.902954	176.0
1312.963989	224.0
1313.245361	200.0
1313.339111	180.0
1313.483398	44.0
1313.613159	264.0
1313.670898	148.0
1313.721436	168.0
1314.111084	152.0
1314.4646	200.0
1314.529541	92.0
1314.738892	124.0
1315.200806	120.0
1315.857666	140.0
1315.929932	88.0
1316.796509	312.0
1316.955444	56.0
1317.338257	156.0
1317.52478	192.0
1317.612793	144.0
1317.909058	140.0
1318.010254	136.0
1318.234253	352.0
1318.465454	84.0
1318.780518	136.0
1319.021973	156.0
1319.231689	180.0
1320.186157	200.0
1320.381348	164.0
1320.540527	148.0
1320.960083	60.0
1321.010742	96.0
1321.285645	220.0
1321.423096	108.0
1321.697998	176.0
1321.763184	52.0
1321.828247	52.0
1322.04541	136.0
1322.689575	160.0
1322.928467	192.0
1322.979126	188.0
1323.073242	168.0
1323.135986	144.0
1323.254272	272.0
1323.514893	112.0
1324.043579	52.0
1324.282593	144.0
1324.405762	192.0
1324.709961	260.0
1324.862305	136.0
1324.970825	124.0
1325.33313	276.0
1325.499756	76.0
1325.654419	160.0
1326.159302	148.0
1326.543457	144.0
1326.905884	116.0
1327.043701	36.0
1327.312012	152.0
1327.652832	200.0
1328.021973	156.0
1328.124268	72.0
1328.233032	168.0
1328.450684	176.0
1328.740967	124.0
1329.081909	76.0
1329.451172	104.0
1330.039917	52.0
1330.16333	188.0
1330.356323	124.0
1330.475464	156.0
1330.542358	224.0
1331.52124	148.0
1331.804443	152.0
1331.898926	100.0
1332.094971	268.0
1332.67627	164.0
1333.192139	196.0
1333.788208	168.0
1333.969971	60.0
1334.202515	136.0
1334.435181	164.0
1334.627197	176.0
1335.344238	68.0
1335.569702	228.0
1336.333618	112.0
1336.675659	128.0
1336.923096	100.0
1337.10498	76.0
1337.22876	160.0
1337.337891	164.0
1337.403442	320.0
1337.519897	144.0
1338.116821	152.0
1338.895996	292.0
1338.968872	88.0
1339.056274	260.0
1339.333008	172.0
1339.397583	116.0
1339.580688	236.0
1339.682495	124.0
1339.856934	132.0
1340.010498	128.0
1340.331177	100.0
1340.593506	92.0
1341.344238	116.0
1341.453613	116.0
1341.555664	84.0
1341.876465	76.0
1341.934814	136.0
1342.117065	112.0
1342.437866	84.0
1342.637451	204.0
1342.78064	176.0
1342.948486	184.0
1343.188721	176.0
1343.313232	160.0
1344.057373	196.0
1344.188721	248.0
1344.254395	112.0
1344.353638	80.0
1345.181396	184.0
1345.371216	84.0
1346.539551	228.0
1347.284668	108.0
1347.430786	136.0
1347.671875	124.0
1347.737671	184.0
1347.788818	132.0
1347.869141	84.0
1348.008057	124.0
1348.175659	120.0
1348.263794	196.0
1348.388062	252.0
1348.895264	164.0
1348.95813	128.0
1349.235962	180.0
1349.294434	64.0
1349.572266	168.0
1349.623535	184.0
1349.99646	164.0
1350.054932	192.0
1350.252441	84.0
1350.396729	112.0
1350.545044	188.0
1350.705933	92.0
1351.020508	168.0
1351.174194	116.0
1351.56189	148.0
1351.832642	164.0
1352.126831	148.0
1352.213257	36.0
1352.322998	168.0
1352.451904	184.0
1352.945312	148.0
1353.003906	132.0
1353.150269	168.0
1353.208862	180.0
1354.138916	52.0
1355.071655	144.0
1355.486938	184.0
1355.587891	200.0
1355.973389	188.0
1356.212524	192.0
1356.337158	144.0
1356.395752	52.0
1356.571655	112.0
1357.407593	156.0
1357.649536	208.0
1358.096924	120.0
1358.15564	140.0
1358.808594	204.0
1359.420166	148.0
1359.441895	52.0
1359.466675	164.0
1359.541504	184.0
1359.755249	164.0
1359.843262	168.0
1360.423218	152.0
1360.599365	168.0
1360.658081	160.0
1360.705933	156.0
1360.914307	112.0
1361.054565	164.0
1361.1427	120.0
1361.304321	216.0
1361.392456	80.0
1361.614502	84.0
1361.670166	152.0
1361.939453	116.0
1362.104858	136.0
1362.288574	124.0
1362.466919	260.0
1362.677856	536.0
1362.72937	172.0
1362.92041	156.0
1363.049927	208.0
1363.287842	124.0
1363.368652	204.0
1364.390381	104.0
1364.449219	188.0
1364.574219	144.0
1364.927124	96.0
1365.117554	180.0
1365.368408	172.0
1365.537598	136.0
1365.714111	156.0
1365.91272	180.0
1366.096191	144.0
1366.167358	180.0
1366.229004	84.0
1366.331177	140.0
1366.40564	156.0
1367.045776	132.0
1367.178223	140.0
1367.399048	176.0
1367.53894	204.0
1367.840698	44.0
1367.951172	208.0
1368.135132	184.0
1368.297119	172.0
1368.598999	100.0
1368.687378	124.0
1368.754028	168.0
1368.878906	128.0
1369.129272	152.0
1369.616577	196.0
1369.806885	124.0
1369.887939	172.0
1370.013184	196.0
1370.086792	68.0
1370.226807	136.0
1370.307861	128.0
1370.587891	104.0
1370.88269	64.0
1371.818726	204.0
1372.895264	164.0
1373.138672	120.0
1373.418945	168.0
1373.839355	120.0
1374.09021	132.0
1374.292969	320.0
1374.392822	184.0
1375.342285	360.0
1375.713989	184.0
1376.068359	76.0
1376.238159	196.0
1376.422729	96.0
1377.109619	200.0
1377.161255	180.0
1377.279419	104.0
1377.486328	132.0
1377.589722	176.0
1377.818726	324.0
1377.951782	228.0
1378.023315	212.0
1378.106934	204.0
1378.358154	184.0
1378.602051	144.0
1378.665649	208.0
1378.764648	184.0
1378.860718	208.0
1379.47644	176.0
1379.666382	188.0
1379.755127	140.0
1379.932617	220.0
1380.043457	144.0
1380.280151	104.0
1380.49231	160.0
1380.738647	116.0
1380.834717	156.0
1380.947754	148.0
1381.024048	192.0
1381.196655	160.0
1381.381226	132.0
1381.581909	196.0
1381.700317	176.0
1381.907471	244.0
1381.959229	124.0
1382.092407	52.0
1382.380981	136.0
1382.839844	188.0
1383.206177	176.0
1383.728271	208.0
1384.016968	80.0
1384.187256	92.0
1384.239136	152.0
1384.750122	120.0
1385.053833	148.0
1385.431641	148.0
1385.751343	84.0
1386.044434	132.0
1386.224731	204.0
1386.557983	188.0
1386.854492	180.0
1386.913574	128.0
1387.062012	148.0
1387.173218	56.0
1387.620361	180.0
1387.843872	164.0
1387.964111	196.0
1388.389282	312.0
1388.500488	152.0
1388.589478	156.0
1388.715576	148.0
1388.805786	96.0
1389.123535	168.0
1389.234863	160.0
1389.290405	152.0
1389.368408	160.0
1389.553833	108.0
1389.806152	92.0
1389.95459	104.0
1390.13269	136.0
1390.875366	132.0
1390.993652	128.0
1391.090088	192.0
1391.149536	144.0
1391.340088	160.0
1391.409424	188.0
1391.535645	68.0
1392.192383	180.0
1392.594116	172.0
1392.760986	232.0
1393.01355	104.0
1393.065552	120.0
1393.243896	116.0
1393.637573	144.0
1393.858521	148.0
1394.239502	140.0
1394.473877	176.0
1394.953125	188.0
1395.296753	184.0
1395.454346	156.0
1395.518188	204.0
1396.380859	212.0
1396.497803	164.0
1396.827148	168.0
1396.886597	152.0
1397.154419	180.0
1397.26355	200.0
1397.638062	128.0
1397.801758	164.0
1397.861328	112.0
1397.957153	132.0
1398.248291	148.0
1398.449219	44.0
1399.476685	148.0
1399.627441	204.0
1400.425049	180.0
1400.639404	208.0
1400.891724	184.0
1400.973633	176.0
1401.182251	60.0
1401.636841	164.0
1402.329956	176.0
1402.583374	44.0
1402.668091	152.0
1403.313965	60.0
1403.403442	324.0
1403.574951	112.0
1403.634644	132.0
1403.873169	220.0
1404.067139	160.0
1404.126831	320.0
1404.365479	96.0
1404.581787	156.0
1405.021973	144.0
1405.096558	112.0
1405.215942	172.0
1405.387573	168.0
1405.454712	116.0
1405.827759	144.0
1405.924805	140.0
1406.195557	176.0
1406.46228	164.0
1406.589111	124.0
1406.738403	128.0
1407.134155	88.0
1407.395508	164.0
1407.4552	176.0
1407.559692	148.0
1407.641846	44.0
1408.022705	140.0
1408.127319	108.0
1408.583008	180.0
1408.739868	184.0
1408.814575	172.0
1408.904175	152.0
1409.143311	144.0
1409.404785	168.0
1409.943481	156.0
1410.050659	196.0
1410.40625	52.0
1410.533325	108.0
1410.630493	152.0
1410.767456	188.0
1410.922119	84.0
1411.079102	96.0
1411.318359	112.0
1411.460449	160.0
1411.692261	132.0
1412.11853	112.0
1412.170898	152.0
1412.275635	236.0
1412.462646	220.0
1412.544922	168.0
1412.799316	136.0
1412.911499	204.0
1413.061157	192.0
1413.95166	92.0
1414.670044	228.0
1414.992188	152.0
1415.182495	144.0
1415.261719	180.0
1415.366577	164.0
1415.868286	156.0
1416.446777	140.0
1416.699829	128.0
1416.971558	144.0
1417.276733	156.0
1417.33667	144.0
1417.56665	144.0
1417.966187	152.0
1418.041138	84.0
1418.318481	124.0
1418.438354	176.0
1418.498413	128.0
1418.640747	152.0
1418.910645	192.0
1419.120605	156.0
1419.233154	176.0
1419.983032	180.0
1420.065552	200.0
1420.268066	128.0
1420.320557	112.0
1420.876587	164.0
1420.980713	60.0
1421.10083	160.0
1421.276123	136.0
1421.378418	60.0
1421.798706	180.0
1422.249023	48.0
1422.505737	228.0
1422.699463	204.0
1423.104858	184.0
1423.315186	124.0
1423.367676	208.0
1423.465332	148.0
1423.593018	116.0
1424.148804	160.0
1424.329102	192.0
1424.516846	32.0
1424.937622	172.0
1425.057861	156.0
1425.230591	120.0
1425.358398	48.0
1425.478638	80.0
1425.636475	60.0
1425.704102	152.0
1425.771729	128.0
1425.959595	180.0
1426.012207	52.0
1426.170044	132.0
1426.39563	140.0
1426.628662	172.0
1426.944336	48.0
1427.042114	160.0
1427.342896	40.0
1427.523438	44.0
1427.718872	192.0
1427.94458	144.0
1428.013916	164.0
1428.102539	164.0
1428.275513	188.0
1428.538818	88.0
1428.65918	168.0
1429.020264	136.0
1429.072754	116.0
1429.128662	188.0
1429.276123	152.0
1429.38147	124.0
1429.584717	224.0
1429.780396	124.0
1429.968506	80.0
1430.053467	252.0
1430.108765	88.0
1430.128906	128.0
1430.478638	168.0
1430.623413	224.0
1430.706177	172.0
1430.789062	224.0
1431.316162	152.0
1431.45166	36.0
1431.655029	164.0
1431.881104	172.0
1431.993896	132.0
1432.265015	164.0
1432.438354	164.0
1432.656738	64.0
1432.837646	128.0
1433.086304	140.0
1433.256104	140.0
1433.349976	188.0
1433.681519	148.0
1433.794678	172.0
1434.261963	172.0
1434.367432	120.0
1434.457886	176.0
1434.744385	148.0
1435.08374	136.0
1435.619141	256.0
1436.026367	176.0
1436.207397	200.0
1436.260254	232.0
1436.312988	168.0
1436.373291	180.0
1436.479004	128.0
1436.569458	256.0
1436.63269	144.0
1436.697754	100.0
1436.924072	196.0
1437.00708	96.0
1437.08252	128.0
1437.256104	120.0
1437.541382	168.0
1437.563721	136.0
1438.161743	164.0
1438.418335	148.0
1438.516479	168.0
1438.622192	148.0
1438.682617	88.0
1438.961914	164.0
1439.316772	40.0
1439.437622	124.0
1439.505615	100.0
1439.656616	132.0
1439.928589	180.0
1440.140015	88.0
1440.404419	124.0
1440.56311	132.0
1440.643555	208.0
1440.835083	176.0
1441.008789	168.0
1441.175049	124.0
1441.545288	240.0
1441.983643	152.0
1442.210449	92.0
1442.338867	196.0
1442.527954	88.0
1442.625366	144.0
1442.951294	172.0
1443.079834	132.0
1443.268799	160.0
1443.813354	248.0
1443.881348	104.0
1443.989746	132.0
1444.205078	192.0
1444.39502	212.0
1444.826904	136.0
1445.114502	288.0
1445.417114	156.0
1445.545776	120.0
1445.62146	240.0
1445.787964	52.0
1445.871216	212.0
1445.954468	136.0
1446.204224	200.0
1446.365112	144.0
1446.514648	132.0
1446.798096	212.0
1447.147339	228.0
1447.272705	160.0
1447.567627	108.0
1447.688232	148.0
1447.88208	120.0
1448.278931	160.0
1448.347168	52.0
1448.506226	160.0
1448.752075	308.0
1449.036499	212.0
1449.241089	224.0
1449.422974	224.0
1449.544189	172.0
1449.741211	128.0
1450.203613	108.0
1450.43103	140.0
1450.499268	180.0
1450.59021	180.0
1450.794922	140.0
1450.931274	188.0
1450.984375	148.0
1451.090576	156.0
1451.712402	104.0
1451.795776	156.0
1451.87915	172.0
1452.068848	204.0
1452.121948	96.0
1452.262573	160.0
1452.853394	196.0
1453.051147	208.0
1453.417114	196.0
1453.578491	180.0
1453.639282	208.0
1453.866943	196.0
1453.920044	132.0
1454.026245	124.0
1454.284302	124.0
1454.337524	156.0
1454.887207	140.0
1455.002441	60.0
1455.142212	204.0
1455.468018	124.0
1455.493408	112.0
1455.508667	152.0
1455.620605	156.0
1455.714355	216.0
1455.810425	84.0
1456.083862	136.0
1456.213013	88.0
1456.668701	112.0
1456.972656	116.0
1457.056152	136.0
1457.139771	128.0
1457.24231	160.0
1457.304688	136.0
1457.990845	216.0
1458.044067	92.0
1458.431641	172.0
1458.606445	184.0
1458.674927	156.0
1459.033447	220.0
1459.273804	188.0
1459.354248	124.0
1459.549316	148.0
1460.142456	204.0
1460.241333	172.0
1461.169434	152.0
1461.424438	112.0
1461.667358	176.0
1462.234741	148.0
1462.301758	180.0
1462.70166	144.0
1463.186279	156.0
1463.422363	196.0
1463.643188	132.0
1463.932495	112.0
1464.237183	148.0
1464.564697	168.0
1464.686523	132.0
1464.838867	112.0
1464.998901	188.0
1465.249756	180.0
1465.338135	168.0
1465.864136	364.0
1466.018188	140.0
1466.324829	188.0
1466.759277	136.0
1466.82019	72.0
1467.064209	176.0
1467.414917	172.0
1467.651245	136.0
1467.895264	92.0
1468.181519	192.0
1468.261353	96.0
1468.673218	124.0
1468.940186	140.0
1469.34082	128.0
1469.434204	124.0
1469.489502	120.0
1469.608887	180.0
1469.970215	116.0
1470.473999	128.0
1470.550293	128.0
1470.977783	28.0
1471.229736	176.0
1471.321289	120.0
1471.521118	188.0
1471.580933	120.0
1471.664917	136.0
1471.79834	52.0
1471.932129	228.0
1472.261353	184.0
1472.428589	156.0
1472.627075	48.0
1472.925049	76.0
1473.123657	192.0
1473.673706	148.0
1474.028687	276.0
1474.178101	144.0
1474.262085	112.0
1474.510132	172.0
1474.690186	84.0
1475.217651	116.0
1475.500488	160.0
1475.553955	136.0
1475.68396	196.0
1475.836914	144.0
1475.959229	168.0
1476.028076	192.0
1476.196289	56.0
1476.502197	132.0
1476.601685	144.0
1476.674683	268.0
1476.961182	336.0
1477.160034	168.0
1477.557861	160.0
1478.789917	84.0
1478.996582	148.0
1479.06543	140.0
1479.172607	168.0
1479.379272	124.0
1479.700928	208.0
1480.121948	104.0
1480.178589	256.0
1480.267456	76.0
1480.512573	120.0
1480.640015	124.0
1480.75	212.0
1481.056396	136.0
1481.125366	148.0
1481.240234	120.0
1481.600342	212.0
1481.68457	148.0
1482.117554	148.0
1482.481689	176.0
1482.565796	128.0
1482.772705	192.0
1482.956665	172.0
1483.063965	164.0
1483.125244	184.0
1483.232544	116.0
1484.038818	172.0
1484.175659	196.0
1484.33667	128.0
1484.41333	32.0
1484.666382	204.0
1484.743164	136.0
1484.896484	136.0
1484.994385	144.0
1485.425781	224.0
1486.455444	160.0
1486.722534	112.0
1486.829956	48.0
1486.914307	188.0
1487.288208	152.0
1487.315796	108.0
1487.332031	184.0
1487.469849	144.0
1487.574463	236.0
1487.751099	112.0
1488.18103	196.0
1488.586792	224.0
1488.687866	40.0
1488.772339	128.0
1489.109375	164.0
1489.202393	164.0
1489.540405	128.0
1489.65564	100.0
1489.709473	44.0
1489.863037	120.0
1490.262573	136.0
1490.539185	160.0
1490.67749	136.0
1490.969604	144.0
1491.077148	48.0
1491.261597	104.0
1491.392334	192.0
1491.576782	36.0
1491.899658	176.0
1491.999634	136.0
1492.237915	68.0
1492.530151	164.0
1493.076172	140.0
1493.337646	188.0
1493.445312	120.0
1493.499146	108.0
1493.63855	136.0
1493.768433	36.0
1493.994995	156.0
1494.068481	184.0
1494.50708	268.0
1494.637817	128.0
1494.799805	152.0
1494.922607	124.0
1495.210693	172.0
1495.368896	116.0
1495.438232	132.0
1495.499756	180.0
1495.753784	152.0
1496.069458	192.0
1496.170532	192.0
1496.261963	132.0
1496.419922	168.0
1496.662354	116.0
1496.939575	192.0
1497.039673	192.0
1497.401611	188.0
1497.478638	168.0
1498.025513	216.0
1498.380005	132.0
1498.441528	184.0
1498.782104	216.0
1498.873047	116.0
1499.011841	72.0
1499.165894	156.0
1499.240845	200.0
1499.443359	140.0
1499.66687	156.0
1500.525269	196.0
1500.68457	164.0
1500.761597	132.0
1501.039185	184.0
1501.116333	80.0
1501.517334	184.0
1501.814331	136.0
1501.949341	52.0
1502.088135	108.0
1502.145874	160.0
1502.289673	192.0
1502.535645	60.0
1503.484741	152.0
1503.546509	352.0
1503.600464	96.0
1503.886108	120.0
1504.250854	140.0
1504.588623	208.0
1504.80481	72.0
1504.920654	52.0
1505.152222	172.0
END IONS

BEGIN IONS
PEPMASS=303.017
CHARGE=1
MSLEVEL=2
SOURCE_INSTRUMENT=LC-ESI-qTof
FILENAME=p3-G03_GG3_01_18296.mzXML
SEQ=*..*
IONMODE=Positive
ORGANISM=GNPS-NIH-SMALLMOLECULEPHARMACOLOGICALLYACTIVE
NAME=MLS002701928-01! M+H
PI=Dorrestein
DATACOLLECTOR=VP/LMS
SMILES=CCC(=C)C(=O)c1ccc(OCC(=O)O)c(Cl)c1Cl
INCHI=N/A
INCHIAUX=N/A
PUBMED=N/A
SUBMITUSER=vphelan
LIBRARYQUALITY=1
SPECTRUMID=CCMSLIB00000085228
USI=mzspec:GNPS:GNPS-NIH-SMALLMOLECULEPHARMACOLOGICALLYACTIVE:accession:CCMSLIB00000085228
SCANS=2180
44.967606	164.0
45.015671	140.0
45.208187	188.0
45.224247	268.0
45.457458	176.0
45.80307	188.0
46.502121	176.0
46.730816	176.0
46.840717	112.0
47.084885	36.0
47.520222	128.0
47.562767	180.0
48.301403	196.0
48.430141	96.0
49.102901	132.0
49.84071	60.0
50.162674	156.0
51.750095	112.0
52.575268	132.0
52.669121	128.0
53.235455	188.0
53.284843	44.0
53.360424	208.0
53.482632	176.0
53.893917	144.0
53.917297	84.0
54.182167	248.0
54.594658	172.0
54.960003	172.0
55.24052	84.0
55.504375	48.0
56.072296	116.0
56.327461	100.0
56.83202	128.0
57.817616	168.0
58.278637	148.0
58.295353	156.0
58.528103	172.0
59.037815	140.0
59.172478	204.0
59.410042	112.0
59.591217	168.0
59.681908	160.0
59.726509	164.0
59.774204	240.0
60.368149	216.0
61.178131	148.0
61.600769	116.0
61.628891	100.0
61.69923	192.0
61.849415	180.0
62.65506	108.0
63.005322	208.0
63.480194	120.0
63.523796	188.0
64.202225	160.0
64.238914	148.0
64.468849	124.0
64.817719	180.0
64.905891	100.0
65.019791	144.0
65.095253	52.0
65.540848	96.0
65.673058	164.0
65.95887	160.0
68.287498	180.0
68.859444	216.0
68.922226	140.0
69.513412	164.0
70.404099	60.0
70.420799	148.0
70.599632	208.0
71.717873	140.0
72.444534	176.0
72.749802	156.0
74.128021	156.0
74.806488	132.0
76.508339	152.0
76.621552	188.0
76.822044	292.0
77.096191	172.0
78.558891	120.0
78.823746	168.0
78.915665	152.0
79.793343	156.0
79.8965	140.0
80.372246	188.0
81.109116	144.0
82.696083	188.0
82.946053	188.0
83.567184	164.0
84.536163	200.0
84.629524	20.0
85.078735	88.0
85.834976	112.0
86.015793	164.0
86.13398	136.0
86.906021	188.0
87.301704	88.0
87.67778	252.0
88.387444	140.0
88.428619	184.0
88.563431	152.0
88.673981	144.0
89.042946	248.0
89.165741	156.0
89.363197	168.0
90.094749	160.0
90.446495	140.0
91.05706	144.0
91.850807	180.0
92.749573	60.0
92.841606	144.0
92.979744	36.0
93.410164	180.0
93.448639	104.0
93.714355	124.0
93.781815	180.0
94.366768	208.0
95.240814	148.0
95.456558	72.0
95.643333	184.0
97.234421	184.0
97.934402	120.0
98.8228	136.0
99.572159	80.0
99.824562	152.0
100.463943	52.0
100.847359	148.0
101.219482	216.0
101.237511	136.0
101.407814	96.0
102.044197	176.0
102.428596	244.0
102.491051	144.0
103.05368	212.0
103.784752	192.0
103.985596	184.0
104.41227	36.0
104.792946	196.0
105.068199	244.0
105.650475	148.0
105.855164	100.0
105.976021	104.0
106.671783	180.0
106.764313	52.0
106.832191	176.0
107.605072	144.0
107.766182	68.0
107.80751	156.0
108.610863	124.0
108.776878	136.0
108.982491	60.0
109.069778	188.0
109.252785	176.0
109.927895	156.0
110.820808	128.0
111.032539	224.0
111.133232	160.0
111.498634	240.0
112.480202	136.0
112.617455	132.0
112.701965	216.0
113.042419	152.0
113.116501	84.0
113.504234	196.0
113.81617	52.0
114.028618	180.0
114.058372	192.0
114.464752	48.0
114.547821	132.0
114.660751	156.0
114.927322	172.0
114.946526	128.0
115.052895	1196.0
116.060249	596.0
116.316338	136.0
116.599876	220.0
117.027977	180.0
117.067459	476.0
117.267105	180.0
117.709381	148.0
118.073448	156.0
118.180618	184.0
118.325638	152.0
119.049896	136.0
120.465721	116.0
120.968704	204.0
121.060669	164.0
121.13076	100.0
122.735207	148.0
123.123611	200.0
123.209763	132.0
123.548027	148.0
124.001984	108.0
125.013939	704.0
126.054649	212.0
126.933754	244.0
127.012253	220.0
127.04879	308.0
127.324249	164.0
127.974152	124.0
128.06189	1048.0
128.28508	32.0
128.853806	256.0
129.068466	1196.0
129.125076	76.0
129.475891	36.0
129.530258	60.0
129.743286	164.0
130.042725	152.0
130.078812	504.0
130.149429	152.0
130.292526	212.0
130.603973	116.0
131.046646	448.0
131.086655	392.0
132.056976	492.0
132.148483	280.0
132.960541	412.0
133.001022	120.0
133.067596	168.0
133.145676	52.0
133.883942	160.0
134.109741	176.0
134.954071	224.0
136.009399	164.0
136.085449	244.0
136.657242	124.0
137.014236	536.0
137.491516	128.0
137.596558	36.0
137.989075	180.0
138.796906	112.0
138.96814	132.0
138.992722	176.0
139.011703	128.0
139.031509	176.0
139.054001	260.0
139.950668	168.0
140.974457	72.0
141.002823	160.0
141.026459	124.0
141.06929	1824.0
141.591949	104.0
141.715134	168.0
142.070114	156.0
143.078476	176.0
143.712479	116.0
143.748276	204.0
144.053894	128.0
144.099289	176.0
144.345505	80.0
144.957245	196.0
144.991882	152.0
145.027847	368.0
145.062393	976.0
145.32283	180.0
145.582077	160.0
146.036331	196.0
146.072021	436.0
147.039459	144.0
147.079697	152.0
147.123154	124.0
148.006744	136.0
148.955444	172.0
149.015015	328.0
149.060898	168.0
149.688522	188.0
150.023361	388.0
150.6642	172.0
151.009918	328.0
151.030991	560.0
151.114059	188.0
151.278046	156.0
151.393127	224.0
151.736191	124.0
152.000412	356.0
152.018066	468.0
152.035706	232.0
152.337479	84.0
152.990585	140.0
153.023941	176.0
153.041656	180.0
153.555954	36.0
153.997772	112.0
154.420441	60.0
155.012604	192.0
155.033844	148.0
155.059235	200.0
155.299744	172.0
155.649689	136.0
156.064789	240.0
156.303452	164.0
156.76915	196.0
157.028427	128.0
157.062439	316.0
158.071243	804.0
158.112778	148.0
158.164734	132.0
158.74913	200.0
158.791779	56.0
158.862015	184.0
158.974655	424.0
159.042114	144.0
159.078308	876.0
159.102936	100.0
159.404358	44.0
159.474731	188.0
159.731216	80.0
159.945114	132.0
159.972946	144.0
160.043289	176.0
160.078552	116.0
160.948547	112.0
160.974915	172.0
161.059677	40.0
161.097565	108.0
162.021439	204.0
162.102081	116.0
162.781952	108.0
162.972458	172.0
162.99942	244.0
163.028748	284.0
163.07666	172.0
163.924179	56.0
164.035065	288.0
165.011292	944.0
165.043579	792.0
165.1241	188.0
165.144562	148.0
165.303192	88.0
165.920502	116.0
166.016006	672.0
166.074371	100.0
167.00325	200.0
167.025787	504.0
167.086533	160.0
167.253799	52.0
167.547394	208.0
167.830902	124.0
167.980499	140.0
168.015015	348.0
168.037262	296.0
168.055313	160.0
168.362518	128.0
168.447754	100.0
168.913071	172.0
169.027405	148.0
169.073486	148.0
169.296143	40.0
169.581146	108.0
170.510345	192.0
170.981339	128.0
171.173752	176.0
171.945435	144.0
172.053131	468.0
172.920334	188.0
172.955383	1156.0
172.992783	172.0
173.011963	160.0
173.058365	200.0
173.289581	88.0
173.958191	208.0
174.021378	140.0
174.06665	712.0
174.402313	188.0
174.951828	784.0
174.988983	148.0
175.030838	332.0
175.06662	120.0
175.094315	252.0
175.363068	152.0
175.392059	80.0
175.766571	40.0
175.798233	132.0
175.997894	76.0
176.037399	1600.0
176.963989	132.0
177.009766	428.0
177.472733	48.0
177.711456	72.0
178.027908	308.0
178.282394	104.0
178.70787	144.0
178.960739	196.0
179.02475	4644.0
179.091232	60.0
179.128525	52.0
179.165817	52.0
179.1978	124.0
179.229767	60.0
179.408356	48.0
179.856522	200.0
179.989746	156.0
180.030045	500.0
180.323959	36.0
180.810745	100.0
181.020889	736.0
181.199036	56.0
181.290131	84.0
181.410751	136.0
181.432205	148.0
181.984909	140.0
182.011627	160.0
182.028778	288.0
182.189041	176.0
182.264267	112.0
182.74559	148.0
182.972031	212.0
183.00267	132.0
183.082077	48.0
184.004303	132.0
184.06102	52.0
184.109619	160.0
184.972168	228.0
184.991699	292.0
185.465179	96.0
186.966446	352.0
187.001923	168.0
187.070633	164.0
187.416519	68.0
187.972809	352.0
188.952896	588.0
188.989334	176.0
189.01123	176.0
189.621948	180.0
189.948257	364.0
190.014099	164.0
190.063492	256.0
190.947021	492.0
191.027145	348.0
191.069138	56.0
191.652847	108.0
192.044327	176.0
192.135727	152.0
192.858902	128.0
192.975006	124.0
193.004349	644.0
193.040222	432.0
193.210098	52.0
194.010834	1116.0
194.048691	720.0
194.079819	48.0
194.759766	200.0
194.834778	184.0
194.979279	100.0
195.019394	3540.0
195.096024	52.0
195.132156	72.0
195.485428	120.0
195.510483	60.0
195.727615	160.0
195.980347	252.0
196.021057	212.0
196.043182	156.0
196.859818	68.0
197.016602	892.0
197.185226	144.0
197.818863	100.0
197.97287	176.0
198.163361	84.0
198.272644	128.0
198.841995	172.0
198.973785	152.0
199.011414	172.0
199.836807	156.0
199.983337	196.0
200.007721	132.0
200.104202	148.0
200.205582	40.0
200.631073	80.0
200.957657	136.0
200.986343	224.0
201.021301	196.0
201.093704	168.0
201.435364	84.0
201.984772	184.0
202.702927	208.0
202.981476	452.0
203.03746	104.0
203.559647	124.0
203.988693	144.0
204.022797	180.0
204.073975	108.0
204.848114	92.0
205.012207	188.0
205.042847	260.0
207.017807	232.0
207.101959	212.0
207.296783	172.0
208.018555	320.0
208.981842	168.0
209.019699	168.0
209.040619	160.0
210.007217	260.0
210.034836	208.0
211.00798	280.0
211.031158	168.0
211.977905	984.0
212.006699	544.0
212.046448	36.0
212.101517	64.0
212.145004	80.0
212.417603	144.0
212.987045	472.0
213.131836	84.0
213.597015	124.0
213.742477	112.0
213.976028	136.0
214.00737	152.0
214.15007	120.0
214.96637	308.0
215.001358	332.0
215.033539	196.0
215.993973	180.0
216.082642	52.0
216.838165	92.0
216.943695	140.0
216.991516	276.0
217.052185	84.0
217.471725	64.0
219.015457	148.0
221.030731	236.0
221.111847	56.0
222.046417	284.0
222.119293	148.0
222.612	96.0
223.036865	160.0
223.069565	92.0
224.0457	132.0
224.967239	116.0
225.028778	276.0
225.950516	232.0
226.022324	180.0
226.833984	156.0
226.971909	148.0
226.992279	300.0
227.974365	152.0
228.600082	108.0
228.792725	120.0
228.980392	1360.0
229.431442	52.0
229.975586	120.0
230.669189	80.0
230.9785	1168.0
231.056305	44.0
231.141022	48.0
231.980347	176.0
232.041748	84.0
232.310562	48.0
233.075012	160.0
233.428314	108.0
234.134369	152.0
234.359802	68.0
234.6707	132.0
235.018433	288.0
235.693268	184.0
235.962234	164.0
237.024384	116.0
238.377686	64.0
239.009506	420.0
239.045013	156.0
240.024612	140.0
240.095551	52.0
240.848663	148.0
241.000549	148.0
241.040222	144.0
241.986313	172.0
242.987183	196.0
243.338608	84.0
243.919571	208.0
243.970001	788.0
244.006943	380.0
244.915329	56.0
244.964981	160.0
245.011902	124.0
245.594864	56.0
245.962952	576.0
246.006775	148.0
246.481522	36.0
248.024506	160.0
248.639267	116.0
248.95636	196.0
251.850876	168.0
253.024384	4536.0
253.705307	52.0
253.733841	32.0
254.027466	472.0
254.266754	104.0
254.598618	84.0
255.021469	1092.0
256.020813	96.0
256.305267	44.0
256.678223	68.0
256.895111	152.0
256.995056	548.0
258.0065	104.0
258.204773	52.0
259.00708	328.0
259.05304	184.0
259.799988	80.0
261.001251	196.0
263.515442	76.0
267.039307	136.0
268.050598	456.0
268.117004	116.0
269.046661	220.0
272.79126	64.0
274.312164	56.0
276.124969	120.0
292.998444	64.0
301.23233	176.0
315.841888	100.0
344.124268	148.0
345.946991	212.0
383.170807	64.0
409.445801	56.0
417.491699	112.0
428.919617	56.0
455.291077	44.0
501.22641	56.0
738.010803	116.0
809.344116	132.0
938.426453	164.0
952.760803	168.0
979.455566	220.0
997.697998	148.0
1053.163818	124.0
1080.317505	176.0
1092.125366	252.0
1122.286011	196.0
1125.609131	136.0
1171.55835	88.0
1176.038574	212.0
1189.029663	204.0
1203.949219	68.0
1220.755249	192.0
1245.44165	168.0
1257.94812	56.0
1259.946777	152.0
1288.601562	224.0
1288.901611	176.0
1314.119995	108.0
1333.048828	216.0
1353.826172	148.0
1360.109741	172.0
1361.761841	104.0
1369.720825	160.0
1372.079102	144.0
1379.67627	124.0
1387.57605	160.0
1388.562378	228.0
1390.098022	112.0
1394.911133	152.0
1415.286987	144.0
1429.700439	144.0
1430.60376	160.0
1435.312866	116.0
1444.247559	188.0
1445.314209	192.0
1455.600952	60.0
1460.875854	136.0
1464.895508	188.0
1473.509033	44.0
1476.811523	156.0
1478.364746	92.0
1482.722534	188.0
1485.774414	180.0
1485.843506	152.0
1494.526001	104.0
1498.460571	120.0
1501.960693	176.0
END IONS

BEGIN IONS
PEPMASS=363.095
CHARGE=1
MSLEVEL=2
SOURCE_INSTRUMENT=LC-ESI-qTof
FILENAME=p3-H03_GH3_01_18308.mzXML
SEQ=*..*
IONMODE=Positive
ORGANISM=GNPS-NIH-SMALLMOLECULEPHARMACOLOGICALLYACTIVE
NAME=MLS002154123-01!Piretanide55837-27-9 M+H
PI=Dorrestein
DATACOLLECTOR=VP/LMS
SMILES=NS(=O)(=O)c1cc(cc(N2CCCC2)c1Oc3ccccc3)C(=O)O
INCHI=N/A
INCHIAUX=N/A
PUBMED=N/A
SUBMITUSER=vphelan
LIBRARYQUALITY=1
SPECTRUMID=CCMSLIB00000085312
USI=mzspec:GNPS:GNPS-NIH-SMALLMOLECULEPHARMACOLOGICALLYACTIVE:accession:CCMSLIB00000085312
SCANS=1982
45.081238	36.0
45.535431	96.0
45.664467	172.0
45.906898	184.0
46.054016	252.0
46.286644	112.0
46.495422	144.0
46.544296	180.0
46.616295	212.0
46.685631	172.0
46.703312	132.0
46.884403	164.0
47.031925	152.0
47.191559	120.0
47.383183	112.0
47.535389	108.0
47.56284	168.0
47.755219	116.0
47.981068	120.0
48.077629	132.0
48.690971	184.0
48.902317	156.0
49.383709	204.0
50.063026	292.0
50.119377	92.0
50.533104	196.0
50.999691	44.0
51.305759	88.0
51.441292	188.0
51.617126	128.0
52.767403	132.0
52.873005	188.0
52.900505	188.0
52.967121	156.0
52.987404	156.0
53.803349	124.0
54.286228	172.0
54.543175	144.0
54.942272	180.0
54.968834	256.0
55.168236	172.0
55.507313	204.0
55.534008	148.0
55.624523	128.0
55.636402	156.0
55.841473	144.0
56.170673	112.0
56.674522	212.0
56.743473	184.0
56.798962	148.0
56.917534	172.0
57.200195	196.0
57.317673	220.0
57.869022	136.0
58.097885	116.0
58.52346	140.0
59.065266	112.0
59.411488	196.0
59.643379	172.0
59.909611	116.0
60.448494	132.0
61.326008	160.0
61.360306	92.0
62.071774	164.0
62.23497	56.0
62.258526	68.0
62.388947	104.0
62.590347	172.0
62.763687	140.0
62.885166	156.0
63.047844	128.0
63.088943	216.0
63.130054	204.0
63.304138	96.0
63.502796	140.0
63.6562	36.0
63.749928	64.0
64.203667	132.0
64.447906	164.0
64.955437	128.0
65.254158	40.0
65.703529	164.0
66.139862	148.0
66.332634	216.0
66.540298	188.0
66.626373	224.0
66.67025	100.0
67.209282	136.0
67.776703	128.0
68.239586	220.0
68.407402	100.0
68.633125	156.0
68.644669	136.0
68.712296	168.0
68.85096	28.0
69.562973	164.0
69.742378	220.0
70.607742	160.0
70.786819	144.0
70.914146	148.0
70.940964	116.0
71.113747	36.0
71.438065	220.0
72.417145	184.0
72.544235	112.0
72.556107	44.0
72.695198	100.0
72.735931	84.0
72.895584	196.0
73.867462	164.0
73.959869	160.0
74.318054	148.0
74.740768	164.0
74.952568	160.0
75.143967	140.0
75.382263	76.0
76.016083	120.0
76.346169	216.0
76.433151	232.0
78.031914	140.0
78.088188	176.0
78.248322	104.0
78.290588	160.0
78.317009	132.0
78.435066	92.0
78.468567	160.0
78.524994	148.0
79.016098	164.0
79.505173	136.0
79.61525	32.0
80.298691	176.0
80.493217	152.0
80.59861	124.0
81.236015	196.0
81.347282	196.0
81.780495	64.0
82.23111	240.0
82.361122	188.0
82.386406	132.0
83.741493	108.0
84.027702	204.0
84.106171	100.0
84.979141	164.0
85.685181	196.0
86.523689	64.0
86.558868	152.0
86.577393	132.0
86.877678	68.0
86.912926	52.0
86.994591	132.0
87.172905	68.0
87.353264	132.0
87.59713	216.0
87.91597	88.0
87.990639	60.0
88.076546	60.0
88.276535	156.0
88.59848	172.0
89.528297	100.0
89.745003	192.0
89.795921	60.0
90.054512	140.0
90.464851	220.0
90.506508	124.0
90.84008	144.0
90.952042	148.0
91.705292	180.0
91.880737	168.0
92.004791	44.0
92.092628	144.0
92.153763	32.0
92.222565	120.0
92.34111	140.0
92.586098	236.0
92.616737	216.0
93.284538	156.0
93.9123	56.0
94.058945	196.0
94.259811	232.0
94.350662	180.0
94.433815	148.0
94.883087	104.0
95.195488	148.0
95.244049	152.0
95.401451	144.0
95.428673	112.0
95.551208	136.0
95.625153	168.0
95.755608	132.0
95.790665	112.0
96.079597	176.0
96.153351	68.0
96.411156	176.0
96.516716	144.0
96.904282	152.0
96.921913	168.0
97.059128	172.0
97.076782	64.0
98.020386	148.0
98.450447	208.0
98.525513	196.0
98.568977	144.0
98.66188	132.0
98.752846	172.0
99.025986	160.0
99.442368	120.0
99.490013	160.0
99.652878	196.0
99.927261	48.0
99.941193	208.0
100.126328	188.0
100.200035	216.0
100.249847	32.0
100.535034	180.0
100.578941	88.0
101.437119	144.0
101.499268	172.0
101.603569	228.0
101.748077	196.0
102.097717	96.0
102.544685	96.0
102.853302	148.0
102.907806	208.0
104.033508	156.0
104.047714	172.0
104.767677	148.0
104.851227	196.0
105.057175	200.0
105.124512	204.0
105.342979	216.0
105.455368	120.0
105.772423	180.0
106.067406	168.0
106.251976	160.0
107.049515	80.0
107.325645	92.0
107.527817	208.0
107.717789	104.0
108.036148	100.0
108.788437	220.0
109.760422	156.0
110.091911	168.0
110.685822	64.0
111.722694	164.0
111.897377	128.0
112.221855	80.0
112.453911	188.0
113.041451	184.0
113.107063	68.0
113.59446	60.0
114.034004	228.0
114.106285	32.0
114.276443	112.0
114.5383	152.0
114.80899	184.0
114.979675	76.0
115.052773	868.0
115.118439	60.0
115.30645	212.0
115.329956	128.0
115.49247	168.0
115.871384	152.0
116.060005	232.0
116.461334	148.0
116.889168	76.0
117.044159	180.0
117.066772	156.0
117.941666	152.0
118.056259	144.0
118.080048	192.0
118.554192	120.0
119.029282	108.0
119.046654	140.0
119.181335	100.0
119.372627	208.0
119.690338	168.0
120.043556	208.0
120.646004	100.0
120.726913	72.0
120.860352	120.0
121.039848	196.0
121.073219	152.0
121.25235	176.0
121.792114	156.0
121.862411	48.0
122.165817	164.0
122.372704	200.0
123.012062	164.0
123.054008	140.0
123.195358	120.0
123.49157	212.0
123.637596	124.0
123.81028	232.0
123.845718	156.0
124.051804	120.0
124.238091	172.0
124.406754	176.0
124.880798	196.0
125.267395	152.0
125.878532	172.0
126.046066	140.0
126.166771	188.0
127.078331	212.0
127.096283	124.0
127.201767	188.0
127.221977	184.0
128.057571	348.0
128.572556	168.0
128.836746	148.0
128.988159	176.0
129.068604	164.0
129.182632	52.0
129.927994	144.0
130.002869	212.0
130.063828	364.0
130.261703	128.0
131.050613	332.0
131.142334	92.0
131.347549	88.0
131.573486	168.0
131.710495	196.0
132.080994	152.0
132.172333	68.0
132.398972	128.0
132.48143	172.0
132.770248	196.0
132.834473	172.0
132.949188	216.0
132.969849	100.0
132.985916	112.0
133.043304	112.0
133.709915	124.0
134.696793	100.0
134.96489	128.0
135.25177	140.0
135.318909	88.0
135.884445	124.0
136.070129	80.0
137.033035	156.0
137.452759	136.0
137.508759	144.0
137.793655	176.0
138.053131	216.0
138.312836	124.0
138.535309	128.0
139.05162	752.0
139.951553	164.0
140.044571	164.0
140.063766	224.0
140.142349	120.0
140.479492	128.0
140.975342	168.0
141.001694	132.0
141.068924	4796.0
141.391586	136.0
141.533615	136.0
141.929337	212.0
142.072052	1252.0
142.128586	68.0
142.396851	100.0
142.520386	112.0
143.07457	140.0
143.150772	132.0
143.684708	92.0
143.765839	88.0
144.043732	208.0
144.083786	152.0
144.234665	208.0
144.848953	88.0
145.357254	72.0
145.508469	152.0
145.571335	132.0
145.681396	44.0
146.054001	152.0
146.09729	176.0
147.172256	240.0
147.271271	148.0
147.454773	164.0
147.791046	116.0
147.931427	140.0
148.036514	276.0
148.355377	180.0
148.522705	136.0
148.830917	160.0
149.024323	232.0
149.042252	64.0
149.711227	180.0
149.840332	184.0
149.918304	140.0
149.935364	112.0
149.962173	188.0
150.025558	60.0
150.157227	184.0
150.41832	164.0
150.877594	108.0
150.938721	132.0
151.019424	232.0
151.05368	156.0
151.308197	152.0
151.969955	156.0
152.043076	176.0
152.064041	160.0
152.259628	80.0
152.296478	140.0
153.067749	248.0
153.177109	48.0
153.667709	52.0
154.071533	412.0
155.047546	408.0
155.084274	128.0
155.575912	108.0
155.70256	68.0
156.050461	200.0
156.083069	212.0
156.515762	244.0
156.814713	52.0
156.89946	148.0
157.062271	156.0
157.281143	136.0
157.32753	172.0
157.793289	240.0
158.015884	144.0
158.065933	164.0
158.872726	100.0
159.018265	136.0
159.040863	132.0
159.073486	224.0
159.364822	112.0
159.651398	36.0
159.958359	148.0
160.041443	132.0
160.071289	132.0
160.275711	128.0
161.013519	224.0
161.64183	248.0
161.98111	72.0
162.013916	444.0
162.090042	156.0
162.665787	172.0
162.909576	144.0
163.018845	136.0
163.044601	148.0
164.034973	140.0
164.37616	176.0
164.917603	116.0
165.037766	120.0
165.063599	280.0
165.127274	124.0
165.244949	60.0
165.439453	140.0
165.646881	184.0
165.669937	160.0
166.047852	800.0
166.068588	452.0
166.185272	176.0
166.765671	36.0
166.963638	212.0
167.045853	552.0
167.070663	1316.0
167.12056	148.0
167.43721	124.0
167.591766	164.0
167.756714	172.0
168.006882	112.0
168.055832	1992.0
168.078522	1764.0
168.135895	60.0
168.246887	52.0
168.306274	168.0
168.605942	132.0
168.626617	80.0
168.68866	48.0
169.063644	3316.0
169.265625	60.0
169.338135	76.0
169.39772	72.0
169.656876	56.0
169.895462	48.0
169.968124	124.0
170.025208	144.0
170.066879	620.0
170.28627	168.0
170.500488	180.0
170.924377	272.0
171.002457	88.0
171.042908	156.0
171.424362	136.0
171.961624	124.0
172.07431	144.0
173.043884	196.0
173.481415	124.0
174.043686	184.0
174.062851	140.0
174.373901	168.0
174.915756	128.0
175.086899	232.0
175.949173	120.0
176.028397	176.0
176.060074	192.0
177.039978	348.0
177.067734	168.0
177.651886	192.0
177.892395	232.0
178.049057	204.0
178.069687	476.0
178.647125	44.0
178.785492	164.0
178.987808	152.0
179.068665	196.0
179.08754	344.0
179.758194	164.0
179.830261	108.0
179.886322	164.0
179.985107	240.0
180.080475	876.0
180.161377	136.0
180.947678	136.0
181.009262	196.0
181.03479	136.0
181.062485	1340.0
181.089661	420.0
181.11908	52.0
181.228912	124.0
181.446014	96.0
181.58815	56.0
181.649841	120.0
181.923569	96.0
182.070435	788.0
182.135712	172.0
182.251236	56.0
182.366791	236.0
182.444748	100.0
182.990921	92.0
183.067596	692.0
183.098801	320.0
183.171356	120.0
183.365372	52.0
184.067215	372.0
184.106186	232.0
184.263977	140.0
184.977951	80.0
185.054703	256.0
185.153946	176.0
186.054703	168.0
186.081421	168.0
186.812439	64.0
186.921265	212.0
187.152649	72.0
187.446838	52.0
188.101425	140.0
188.738007	164.0
188.989655	112.0
189.074432	208.0
189.271591	64.0
189.35376	184.0
189.452362	164.0
189.929352	136.0
190.08992	196.0
190.313568	44.0
190.60199	196.0
191.084335	544.0
191.61731	120.0
192.06813	740.0
192.146683	60.0
192.237732	156.0
192.5	172.0
192.737564	256.0
193.051407	308.0
193.087585	588.0
193.143967	184.0
193.188232	160.0
193.337646	196.0
193.958084	172.0
194.06012	800.0
194.095444	348.0
194.296402	56.0
195.00174	44.0
195.061234	1144.0
195.092651	284.0
196.007278	124.0
196.075867	4840.0
196.137405	236.0
196.170853	64.0
196.282379	88.0
196.304688	28.0
196.324203	148.0
196.393936	44.0
196.533432	40.0
196.625519	40.0
196.999695	120.0
197.077667	1076.0
197.226044	184.0
197.553207	64.0
197.875061	68.0
198.034683	144.0
198.075455	216.0
198.096313	144.0
198.133514	144.0
198.443832	28.0
198.560654	128.0
199.051376	132.0
199.127487	52.0
199.277451	88.0
199.35614	252.0
199.842606	136.0
200.06778	72.0
200.798004	140.0
201.073486	184.0
201.602234	188.0
202.072189	120.0
203.03476	200.0
203.086044	176.0
203.704636	64.0
204.064728	1468.0
204.150879	184.0
204.202072	192.0
204.569138	196.0
205.030579	176.0
205.066452	192.0
205.084549	372.0
205.438339	172.0
206.079559	732.0
206.443756	108.0
206.684052	220.0
207.024704	176.0
207.066681	976.0
207.374252	132.0
208.011032	124.0
208.072617	876.0
208.112595	568.0
208.220642	56.0
208.341293	56.0
209.0802	1588.0
209.116364	304.0
209.149368	176.0
209.425797	72.0
209.772263	64.0
210.048737	144.0
210.085632	420.0
210.126144	3524.0
210.168152	56.0
210.233078	28.0
210.305237	40.0
210.380295	96.0
210.513107	48.0
211.04747	168.0
211.088181	168.0
211.132217	384.0
211.597443	72.0
211.675629	52.0
211.884171	60.0
211.913147	76.0
212.039902	152.0
212.069641	316.0
212.140305	260.0
212.176895	92.0
212.281281	128.0
212.466919	56.0
212.736832	56.0
212.803604	56.0
213.052689	152.0
213.091141	156.0
214.0159	60.0
214.855515	192.0
214.922623	144.0
215.083267	176.0
215.76088	144.0
215.991913	128.0
216.088455	156.0
217.089844	548.0
218.026764	184.0
218.055649	184.0
218.093765	176.0
218.099838	312.0
218.338409	164.0
218.561981	192.0
218.812164	160.0
219.074341	132.0
219.368988	100.0
219.569489	28.0
220.05658	128.0
220.080933	348.0
220.109406	432.0
220.697571	76.0
221.025909	196.0
221.048798	136.0
221.084518	812.0
221.118927	420.0
221.295273	124.0
221.455185	156.0
221.490738	76.0
221.579605	44.0
221.75444	28.0
222.021286	164.0
222.050064	452.0
222.089249	1628.0
222.414566	68.0
222.499023	108.0
222.528717	132.0
223.096909	524.0
223.185379	76.0
223.390594	68.0
223.750702	164.0
224.196213	128.0
224.525467	36.0
225.050674	356.0
225.247787	144.0
225.863571	104.0
226.043091	156.0
226.070023	176.0
226.120895	156.0
226.570068	204.0
226.908737	136.0
227.013687	144.0
227.046677	140.0
227.071899	172.0
227.8181	80.0
228.02243	160.0
228.066574	144.0
228.11261	32.0
228.338135	56.0
229.024384	148.0
229.069946	160.0
229.102783	152.0
229.238297	120.0
229.521667	44.0
230.034561	208.0
230.983444	48.0
232.8992	128.0
233.266891	140.0
234.025848	260.0
234.039139	92.0
234.049576	204.0
234.088669	392.0
234.161484	68.0
234.194992	72.0
235.057785	176.0
235.080566	124.0
235.10051	212.0
235.442444	64.0
235.476044	108.0
235.7724	140.0
235.92218	124.0
235.968033	184.0
236.00473	148.0
236.038361	84.0
236.067169	284.0
236.105347	13980.0
236.171463	164.0
236.308411	136.0
236.338135	76.0
236.399338	80.0
236.442184	152.0
236.469727	60.0
236.592163	120.0
236.782028	56.0
236.841034	188.0
236.907608	56.0
236.935181	80.0
236.956635	72.0
237.035065	80.0
237.057755	124.0
237.110748	4980.0
237.232452	64.0
237.345901	40.0
237.505386	92.0
237.600479	36.0
237.667984	44.0
237.815292	72.0
237.870544	148.0
237.935013	56.0
237.979172	136.0
238.045761	332.0
238.064911	200.0
238.120316	4032.0
238.214478	68.0
238.257492	84.0
238.478745	84.0
238.574036	132.0
238.737	68.0
238.903107	112.0
238.9431	92.0
239.02002	104.0
239.060532	244.0
239.122223	584.0
239.364792	48.0
239.423309	68.0
239.638931	96.0
239.709808	96.0
239.842331	64.0
239.944061	40.0
240.062424	1212.0
240.095657	184.0
240.132172	144.0
240.687683	48.0
241.008926	164.0
241.068085	428.0
241.102722	204.0
241.144897	28.0
241.364395	72.0
242.066849	104.0
242.308456	32.0
243.176743	56.0
243.536926	60.0
244.077682	112.0
244.551605	108.0
245.419754	104.0
245.700455	40.0
246.093918	316.0
246.124954	68.0
246.190521	132.0
246.340454	72.0
246.56543	92.0
248.074295	184.0
248.168213	216.0
248.23407	96.0
248.908752	56.0
249.077072	244.0
249.91777	136.0
250.07019	184.0
251.125473	224.0
251.989334	104.0
252.046204	144.0
252.068329	312.0
252.125793	264.0
253.045731	120.0
253.074219	132.0
253.123184	164.0
253.172394	108.0
253.340271	32.0
254.080414	148.0
254.107864	316.0
254.555069	108.0
255.047531	144.0
255.079819	164.0
255.103027	140.0
256.064301	152.0
256.129425	36.0
257.906769	56.0
258.021851	204.0
258.856995	92.0
259.033142	140.0
260.024445	264.0
261.911346	68.0
262.036987	136.0
262.084015	172.0
262.749542	140.0
262.984039	204.0
264.101898	1368.0
265.102173	344.0
266.085388	180.0
267.089783	148.0
267.139374	32.0
267.380157	64.0
267.50058	64.0
267.891388	44.0
268.015045	208.0
268.064056	52.0
268.096649	236.0
268.148804	156.0
269.05661	392.0
269.71228	84.0
269.833221	224.0
270.06369	292.0
270.109222	192.0
270.693787	144.0
271.053772	180.0
272.041382	152.0
272.507751	100.0
273.484467	60.0
274.090454	132.0
274.901672	36.0
277.011139	32.0
278.065582	140.0
280.050568	120.0
280.093567	1556.0
281.096619	412.0
281.167511	76.0
281.240936	100.0
281.431244	64.0
281.604889	40.0
281.695099	80.0
282.058838	164.0
282.110229	5656.0
282.27832	72.0
282.808594	68.0
282.955902	80.0
283.036255	120.0
283.113983	1408.0
283.213776	60.0
284.038361	76.0
284.122223	152.0
284.273224	116.0
284.521606	64.0
284.692871	156.0
284.917908	88.0
285.001923	172.0
285.028809	148.0
285.126251	180.0
285.213654	84.0
285.469177	40.0
285.52298	76.0
286.002136	128.0
286.030151	192.0
286.373138	64.0
287.321777	80.0
287.963135	40.0
288.027313	124.0
288.061096	168.0
289.529083	80.0
292.013489	148.0
293.68927	88.0
294.385529	108.0
295.010803	88.0
298.102509	164.0
300.150726	144.0
303.026581	92.0
304.029633	1164.0
305.008179	184.0
305.042419	184.0
306.042969	132.0
309.050293	172.0
326.96225	164.0
329.053009	192.0
329.17218	148.0
332.706116	72.0
340.014038	60.0
341.248352	128.0
346.059326	280.0
347.086121	120.0
348.470642	88.0
350.085022	144.0
351.919678	56.0
352.352936	52.0
353.706726	68.0
361.244324	92.0
362.080872	116.0
363.102783	740.0
364.093842	248.0
365.097961	276.0
371.657227	64.0
387.019348	144.0
388.622498	112.0
411.73349	196.0
412.097046	48.0
415.128937	72.0
428.788361	172.0
438.091095	140.0
443.552948	96.0
455.125763	72.0
460.615601	100.0
462.5784	28.0
511.059387	132.0
550.950623	76.0
551.99762	52.0
565.4245	44.0
575.71759	72.0
587.617493	40.0
657.928162	52.0
673.570923	72.0
683.520386	112.0
721.805176	88.0
732.873657	88.0
772.287842	72.0
815.227234	76.0
823.09436	48.0
835.256226	84.0
854.05896	20.0
880.668213	104.0
911.248108	124.0
925.246826	44.0
926.936768	172.0
942.490417	156.0
957.286499	220.0
984.031311	88.0
998.626587	76.0
1047.780762	164.0
1062.800781	120.0
1072.569214	112.0
1087.758667	184.0
1112.382202	204.0
1115.697266	96.0
1117.053833	48.0
1121.768677	152.0
1125.578369	56.0
1161.146606	120.0
1174.703125	136.0
1190.088745	192.0
1196.159424	200.0
1196.290283	92.0
1223.86731	84.0
1224.758667	44.0
1229.269653	168.0
1239.962891	96.0
1258.273926	76.0
1261.332886	48.0
1275.19751	124.0
1275.332642	124.0
1279.067017	180.0
1284.625488	144.0
1291.855103	40.0
1292.928345	208.0
1298.9104	160.0
1300.303345	132.0
1301.868408	116.0
1325.465454	52.0
1329.591919	80.0
1342.170044	168.0
1356.397583	96.0
1357.475342	148.0
1376.572144	180.0
1377.591431	136.0
1378.241699	192.0
1393.446167	140.0
1394.085205	152.0
1394.709473	160.0
1403.121704	136.0
1403.658569	188.0
1404.866943	108.0
1405.314575	128.0
1411.402222	140.0
1426.750488	168.0
1428.397461	184.0
1432.221436	224.0
1433.999634	132.0
1453.904053	192.0
1468.689819	152.0
1476.641235	188.0
1479.036133	148.0
1484.307251	164.0
1485.595825	140.0
1501.626587	56.0
1502.667969	48.0
1504.450806	120.0
END IONS

BEGIN IONS
PEPMASS=154.051
CHARGE=1
MSLEVEL=2
SOURCE_INSTRUMENT=LC-ESI-qTof
FILENAME=p4-A09_GA9_01_18333.mzXML
SEQ=*..*
IONMODE=Positive
ORGANISM=GNPS-NIH-SMALLMOLECULEPHARMACOLOGICALLYACTIVE
NAME=MLS001148121-01! M+H
PI=Dorrestein
DATACOLLECTOR=VP/LMS
SMILES=Nc1ccc(C(=O)O)c(O)c1
INCHI=N/A
INCHIAUX=N/A
PUBMED=N/A
SUBMITUSER=vphelan
LIBRARYQUALITY=1
SPECTRUMID=CCMSLIB00000085432
USI=mzspec:GNPS:GNPS-NIH-SMALLMOLECULEPHARMACOLOGICALLYACTIVE:accession:CCMSLIB00000085432
SCANS=750
56.837921	132.0
72.167244	200.0
85.250694	212.0
107.010895	168.0
108.045364	156.0
119.01281	688.0
136.040955	460.0
137.197388	104.0
137.850906	68.0
154.05571	112.0
171.030624	192.0
883.322937	60.0
971.257507	168.0
1047.193726	52.0
1407.161255	248.0
1417.08606	208.0
END IONS

BEGIN IONS
PEPMASS=251.133
CHARGE=1
MSLEVEL=2
SOURCE_INSTRUMENT=LC-ESI-qTof
FILENAME=p4-C07_GC7_01_18355.mzXML
SEQ=*..*
IONMODE=Positive
ORGANISM=GNPS-NIH-SMALLMOLECULEPHARMACOLOGICALLYACTIVE
NAME=MLS002153860-01!Trolox53188-07-1 M+H
PI=Dorrestein
DATACOLLECTOR=VP/LMS
SMILES=Cc1c(C)c2OC(C)(CCc2c(C)c1O)C(=O)O
INCHI=N/A
INCHIAUX=N/A
PUBMED=N/A
SUBMITUSER=vphelan
LIBRARYQUALITY=1
SPECTRUMID=CCMSLIB00000085558
USI=mzspec:GNPS:GNPS-NIH-SMALLMOLECULEPHARMACOLOGICALLYACTIVE:accession:CCMSLIB00000085558
SCANS=1822
48.948391	196.0
49.128212	160.0
50.459808	172.0
51.757637	112.0
54.327881	72.0
54.44532	180.0
55.075783	160.0
56.759266	132.0
57.06712	156.0
58.798851	212.0
60.674252	156.0
60.844933	140.0
62.047974	72.0
62.555473	164.0
62.793434	64.0
67.729401	164.0
70.340851	164.0
71.45208	184.0
71.848053	192.0
72.51947	208.0
74.676254	164.0
77.15831	184.0
79.02623	80.0
80.218079	140.0
81.094063	204.0
82.229118	208.0
84.062347	176.0
85.252846	196.0
88.520218	172.0
91.082237	468.0
91.11602	188.0
92.088806	164.0
92.542847	204.0
93.127823	204.0
95.116943	152.0
95.151894	144.0
95.692459	96.0
96.932953	108.0
99.073013	200.0
100.032318	236.0
100.512703	200.0
101.535088	188.0
101.70565	116.0
102.621109	144.0
103.09124	188.0
103.174377	80.0
103.441444	148.0
103.917763	164.0
104.916496	204.0
105.099937	224.0
106.60331	188.0
107.083687	772.0
107.119926	132.0
107.175438	176.0
107.685051	228.0
107.87104	208.0
109.134949	596.0
109.906654	184.0
109.933784	128.0
110.13842	136.0
111.494186	188.0
112.623642	272.0
115.088768	172.0
115.786835	168.0
116.383072	172.0
117.109749	368.0
118.746429	128.0
118.785477	192.0
119.125252	336.0
120.134384	184.0
120.459694	52.0
121.101105	600.0
121.140114	200.0
122.111084	840.0
122.136833	124.0
122.522118	60.0
122.755791	160.0
123.115005	164.0
123.484673	72.0
124.519844	132.0
124.562057	100.0
124.759857	80.0
125.104729	156.0
127.094139	148.0
128.103867	360.0
129.109406	356.0
130.362122	140.0
130.423492	172.0
131.106369	64.0
131.127991	148.0
133.099121	144.0
133.143829	120.0
133.632446	180.0
133.825806	208.0
135.093018	124.0
135.124084	840.0
135.238815	72.0
135.34996	180.0
136.129883	328.0
137.048141	104.0
137.110764	196.0
137.140137	1356.0
137.407242	44.0
138.147934	192.0
138.234512	64.0
141.113998	240.0
141.187317	72.0
141.513916	192.0
142.864502	80.0
143.128677	176.0
144.138824	392.0
145.11261	132.0
146.120667	204.0
146.89447	116.0
147.126236	448.0
149.032516	212.0
149.100571	232.0
149.142471	704.0
149.17836	152.0
149.777054	72.0
151.1241	228.0
152.097885	84.0
152.872177	80.0
153.860703	80.0
155.125031	140.0
156.135727	152.0
157.114075	200.0
158.116913	228.0
158.149445	160.0
158.984146	124.0
159.036865	232.0
159.130585	184.0
159.175278	152.0
159.421173	92.0
160.004807	132.0
160.090439	96.0
160.135284	104.0
160.171036	192.0
160.960541	40.0
161.10878	316.0
161.14946	196.0
161.286484	244.0
162.12587	248.0
162.14563	172.0
162.697678	88.0
163.121155	212.0
163.173035	140.0
164.010468	88.0
164.136505	304.0
164.163452	132.0
165.143295	5020.0
165.17244	72.0
165.287582	32.0
165.612762	36.0
165.804932	52.0
166.144989	196.0
166.443787	68.0
166.950089	132.0
167.109589	52.0
167.3284	116.0
167.44429	100.0
167.477768	44.0
167.531876	100.0
167.851517	120.0
169.340286	40.0
169.446503	180.0
171.525787	132.0
172.140808	572.0
173.111908	172.0
173.146088	336.0
175.129211	1244.0
175.165527	500.0
175.455994	32.0
176.135193	308.0
177.145264	268.0
177.185898	432.0
177.502762	160.0
178.182999	144.0
179.188141	140.0
183.304382	212.0
185.00621	168.0
185.090149	124.0
186.107101	156.0
186.158691	192.0
187.167007	376.0
188.139542	324.0
188.173935	200.0
189.159744	284.0
190.159851	1312.0
190.191788	176.0
191.156876	364.0
191.792862	88.0
192.366684	100.0
194.309708	144.0
196.544235	104.0
203.174271	200.0
203.403992	164.0
204.142792	92.0
204.404541	172.0
204.555405	224.0
205.187149	2996.0
206.187958	152.0
206.244293	136.0
206.36438	64.0
207.102798	92.0
207.185883	128.0
207.561401	108.0
210.190887	68.0
214.163223	136.0
219.66011	44.0
220.182602	92.0
227.172623	116.0
232.183395	120.0
236.178452	152.0
249.011566	144.0
249.998871	112.0
253.038986	140.0
254.256378	116.0
309.150574	100.0
320.177673	40.0
475.615143	44.0
782.052734	80.0
877.131348	208.0
949.977722	156.0
991.729858	224.0
1041.993164	132.0
1059.200806	52.0
1087.648315	180.0
1123.25415	200.0
1134.711548	164.0
1176.583984	212.0
1182.709839	64.0
1201.865967	192.0
1262.909058	216.0
1272.193115	116.0
1279.659058	204.0
1279.815674	140.0
1294.942993	168.0
1337.266968	128.0
1351.03833	200.0
1372.716309	152.0
1377.233643	160.0
1379.288086	72.0
1381.284912	204.0
1396.172974	52.0
1400.244507	128.0
1406.075439	76.0
1414.193359	136.0
1415.953125	212.0
1423.265747	140.0
1424.738037	148.0
1432.404663	188.0
1434.861816	236.0
1440.651001	200.0
1467.048828	308.0
1475.891235	180.0
END IONS

BEGIN IONS
PEPMASS=212.094
CHARGE=1
MSLEVEL=2
SOURCE_INSTRUMENT=LC-ESI-qTof
FILENAME=p4-D05_GD5_01_18365.mzXML
SEQ=*..*
IONMODE=Positive
ORGANISM=GNPS-NIH-SMALLMOLECULEPHARMACOLOGICALLYACTIVE
NAME="MLS000028644-01!3-(3,4-DIHYDROXYPHENYL)-2-METHYL-L-ALANINE" M+H
PI=Dorrestein
DATACOLLECTOR=VP/LMS
SMILES=C[C@](N)(Cc1ccc(O)c(O)c1)C(=O)O
INCHI=N/A
INCHIAUX=N/A
PUBMED=N/A
SUBMITUSER=vphelan
LIBRARYQUALITY=3
SPECTRUMID=CCMSLIB00000085614
USI=mzspec:GNPS:GNPS-NIH-SMALLMOLECULEPHARMACOLOGICALLYACTIVE:accession:CCMSLIB00000085614
SCANS=133
45.072041	84.0
47.206612	152.0
47.485992	212.0
48.215534	184.0
49.048466	156.0
49.742279	176.0
51.282688	196.0
51.55814	212.0
52.306843	180.0
55.133717	208.0
57.342625	36.0
58.461823	164.0
59.364666	164.0
61.925041	160.0
63.550346	156.0
64.183395	184.0
64.295067	200.0
68.633347	188.0
69.130554	200.0
89.574463	176.0
89.962921	220.0
90.943451	180.0
93.031876	132.0
102.043823	148.0
102.597466	128.0
103.05407	996.0
103.371048	72.0
103.780212	100.0
104.056824	120.0
104.088631	68.0
105.055389	136.0
106.038918	184.0
107.049683	180.0
107.910118	56.0
109.100136	160.0
110.036713	204.0
110.937233	108.0
111.043594	468.0
111.1092	56.0
112.049156	168.0
112.52771	156.0
118.406502	56.0
120.702385	136.0
120.95179	172.0
121.060692	336.0
122.068504	120.0
122.801865	76.0
122.965134	108.0
123.043732	1364.0
123.964737	160.0
124.046738	176.0
130.908981	156.0
131.051361	920.0
131.300964	204.0
132.053177	180.0
132.146149	60.0
133.046844	204.0
134.977615	176.0
139.038803	1068.0
139.232956	64.0
139.519623	72.0
140.038406	128.0
140.596054	52.0
141.014084	152.0
148.083038	228.0
148.957809	116.0
149.059921	376.0
150.060135	176.0
151.062134	548.0
152.554947	64.0
156.972046	196.0
165.918442	156.0
166.085846	1052.0
166.118469	28.0
166.500916	96.0
166.667877	92.0
167.086044	196.0
168.396469	72.0
176.823593	148.0
177.053925	152.0
178.920593	212.0
195.069885	172.0
223.986313	84.0
278.920685	232.0
279.852203	80.0
317.512177	52.0
416.643097	64.0
847.297302	136.0
871.122986	80.0
951.408752	200.0
962.960571	196.0
972.526489	60.0
985.523315	136.0
992.264099	144.0
1019.978088	96.0
1086.913696	224.0
1118.451782	172.0
1130.230835	56.0
1154.150024	124.0
1181.573853	148.0
1217.618896	152.0
1301.717773	200.0
1348.782837	148.0
1373.454834	112.0
1401.917725	128.0
1414.338013	156.0
1425.497803	184.0
1434.680298	184.0
1436.988159	216.0
1497.518188	72.0
END IONS

BEGIN IONS
PEPMASS=338.216
CHARGE=1
MSLEVEL=2
SOURCE_INSTRUMENT=LC-ESI-qTof
FILENAME=p4-E04_GE4_01_18376.mzXML
SEQ=*..*
IONMODE=Positive
ORGANISM=GNPS-NIH-SMALLMOLECULEPHARMACOLOGICALLYACTIVE
NAME=MLS001066617-01!DANAZOL M+H
PI=Dorrestein
DATACOLLECTOR=VP/LMS
SMILES=C[C@@]12CC[C@H]3[C@@H](CCC4=Cc5oncc5C[C@]34C)[C@@H]2CC[C@@]1(O)C#C
INCHI=N/A
INCHIAUX=N/A
PUBMED=N/A
SUBMITUSER=vphelan
LIBRARYQUALITY=3
SPECTRUMID=CCMSLIB00000085695
USI=mzspec:GNPS:GNPS-NIH-SMALLMOLECULEPHARMACOLOGICALLYACTIVE:accession:CCMSLIB00000085695
SCANS=2411
44.893974	200.0
44.977238	204.0
44.992367	100.0
45.092552	72.0
45.11795	152.0
45.212921	236.0
45.275032	204.0
45.317371	124.0
45.383049	192.0
45.400482	220.0
45.416576	196.0
45.450115	168.0
45.483669	212.0
45.534691	204.0
45.55442	168.0
45.596493	136.0
45.616657	212.0
45.81987	188.0
45.830647	148.0
45.84547	176.0
45.871078	128.0
45.916924	100.0
45.956043	180.0
45.983036	176.0
45.992481	200.0
46.039738	164.0
46.062698	40.0
46.150547	128.0
46.196529	148.0
46.302479	176.0
46.459347	96.0
46.500057	96.0
46.516346	164.0
46.578808	172.0
46.61618	144.0
46.644035	112.0
46.660721	176.0
46.713387	212.0
46.736515	152.0
46.853607	164.0
46.943569	152.0
47.062286	68.0
47.085503	192.0
47.107357	392.0
47.12785	160.0
47.138783	220.0
47.170216	72.0
47.3522	60.0
47.372746	164.0
47.396038	180.0
47.412483	228.0
47.441269	168.0
47.533165	100.0
47.56847	204.0
47.58395	128.0
47.636135	228.0
47.773609	144.0
47.809383	136.0
47.844841	216.0
47.89275	160.0
47.897816	88.0
47.902336	180.0
47.920921	48.0
47.944347	200.0
48.00087	128.0
48.113144	140.0
48.138863	176.0
48.158199	292.0
48.203793	84.0
48.24802	132.0
48.337925	224.0
48.386372	144.0
48.423759	148.0
48.538788	108.0
48.635403	156.0
48.662277	136.0
48.761856	164.0
48.780369	140.0
48.798439	432.0
48.831818	132.0
48.866592	132.0
48.932007	32.0
48.943146	136.0
48.983536	180.0
49.067154	332.0
49.129913	160.0
49.225357	188.0
49.261139	152.0
49.289871	176.0
49.315636	164.0
49.382748	136.0
49.419537	416.0
49.454514	192.0
49.543728	160.0
49.566185	148.0
49.599781	176.0
49.654465	116.0
49.672699	144.0
49.690937	180.0
49.786388	192.0
49.804649	176.0
49.848202	144.0
49.86647	108.0
49.918686	256.0
49.981789	208.0
50.011345	124.0
50.066254	140.0
50.11274	208.0
50.135284	76.0
50.145149	168.0
50.253735	232.0
50.318661	164.0
50.411888	96.0
50.475727	176.0
50.489643	152.0
50.522091	136.0
50.56321	152.0
50.600014	176.0
50.669415	164.0
50.779984	204.0
50.825378	168.0
50.992954	236.0
51.010014	156.0
51.031338	220.0
51.054268	128.0
51.068314	144.0
51.179935	160.0
51.230587	160.0
51.304695	140.0
51.358536	164.0
51.430225	156.0
51.443073	224.0
51.473057	72.0
51.485909	168.0
51.505417	176.0
51.543053	80.0
51.593243	244.0
51.630604	148.0
51.67746	120.0
51.781963	92.0
51.836403	204.0
51.872234	44.0
51.969757	176.0
51.988411	84.0
52.04583	244.0
52.08086	256.0
52.160767	436.0
52.228352	164.0
52.299767	152.0
52.326206	204.0
52.36797	184.0
52.428482	180.0
52.443993	236.0
52.572083	132.0
52.603008	108.0
52.630436	112.0
52.803852	164.0
52.853039	164.0
52.889221	116.0
52.922447	168.0
52.936996	108.0
52.993595	112.0
53.039864	156.0
53.1646	108.0
53.202339	196.0
53.267017	136.0
53.326168	388.0
53.350521	152.0
53.456699	168.0
53.487263	172.0
53.512012	152.0
53.543396	152.0
53.635841	152.0
53.647503	224.0
53.682499	76.0
53.701458	204.0
53.819664	160.0
53.986252	132.0
54.087208	104.0
54.112095	228.0
54.144085	156.0
54.158955	168.0
54.170673	108.0
54.245674	112.0
54.260071	104.0
54.273266	64.0
54.312862	156.0
54.349541	140.0
54.361282	124.0
54.38036	224.0
54.412655	140.0
54.502087	144.0
54.533112	116.0
54.624279	156.0
54.644058	108.0
54.706688	212.0
54.744675	160.0
54.862846	160.0
54.91003	160.0
54.96019	160.0
55.010368	208.0
55.038422	128.0
55.06271	152.0
55.125576	132.0
55.172874	140.0
55.190617	220.0
55.271973	136.0
55.307491	188.0
55.318604	120.0
55.354752	164.0
55.396339	180.0
55.442524	164.0
55.46302	132.0
55.47488	152.0
55.526779	124.0
55.6544	328.0
55.67519	168.0
55.758915	180.0
55.797035	156.0
55.819836	264.0
55.899414	164.0
55.914551	88.0
56.078384	140.0
56.103725	196.0
56.123108	120.0
56.136528	204.0
56.239471	152.0
56.255894	224.0
56.304024	204.0
56.466972	152.0
56.487656	176.0
56.578808	148.0
56.611748	156.0
56.643204	176.0
56.703136	116.0
56.742111	228.0
56.764603	208.0
56.785599	80.0
56.805099	128.0
56.817101	164.0
56.86512	204.0
56.950703	80.0
56.97023	120.0
56.982742	156.0
57.010799	144.0
57.183754	152.0
57.236092	220.0
57.268074	240.0
57.313721	200.0
57.359989	128.0
57.531963	152.0
57.559139	112.0
57.56971	56.0
57.605961	120.0
57.66489	176.0
57.686054	216.0
57.703197	176.0
57.71629	168.0
57.737461	136.0
57.754101	136.0
57.767712	148.0
57.782841	144.0
57.885769	128.0
57.940296	176.0
58.028202	212.0
58.05835	168.0
58.078247	152.0
58.198071	176.0
58.227287	184.0
58.249775	176.0
58.295357	76.0
58.342476	132.0
58.360756	168.0
58.520481	160.0
58.553249	120.0
58.58445	120.0
58.636257	208.0
58.689613	196.0
58.756721	172.0
58.839138	136.0
58.89418	176.0
58.939945	172.0
59.137226	172.0
59.344036	160.0
59.403851	148.0
59.419189	152.0
59.561962	112.0
59.761818	132.0
59.857254	116.0
59.883434	136.0
59.93119	140.0
60.068401	116.0
60.083832	96.0
60.096172	128.0
60.122406	152.0
60.176434	148.0
60.201141	128.0
60.439198	120.0
60.519688	64.0
60.578537	40.0
60.677475	200.0
60.711838	208.0
60.761475	140.0
60.811131	148.0
60.832863	196.0
60.975765	176.0
60.995972	140.0
61.101723	120.0
61.135956	180.0
61.232479	52.0
61.27454	172.0
61.291679	244.0
61.37429	220.0
61.388325	180.0
61.40704	168.0
61.456959	196.0
61.495975	200.0
61.558422	216.0
61.572479	228.0
61.624027	172.0
61.706867	112.0
61.744396	72.0
61.766293	128.0
61.797581	96.0
61.824184	320.0
61.83514	36.0
61.935349	148.0
61.952579	192.0
62.032501	212.0
62.049747	60.0
62.070129	144.0
62.141602	184.0
62.182457	192.0
62.219189	96.0
62.269436	132.0
62.305946	132.0
62.379429	164.0
62.41087	108.0
62.426598	104.0
62.629623	188.0
62.640652	196.0
62.748974	180.0
62.829826	156.0
62.842449	136.0
62.870853	164.0
62.888214	148.0
62.959263	148.0
63.071331	116.0
63.163155	172.0
63.224998	228.0
63.240841	204.0
63.329357	124.0
63.430767	116.0
63.451374	204.0
63.468815	148.0
63.487846	176.0
63.573513	132.0
63.611607	184.0
63.68465	60.0
63.697357	156.0
63.757736	180.0
63.787933	160.0
63.86108	96.0
63.975651	184.0
64.015457	160.0
64.045715	376.0
64.077576	72.0
64.195534	140.0
64.217857	128.0
64.339134	72.0
64.382248	136.0
64.399818	116.0
64.446144	116.0
64.542046	152.0
64.556442	148.0
64.626823	128.0
64.638023	164.0
64.700447	188.0
64.770584	236.0
64.810959	192.0
64.859261	124.0
64.875069	180.0
64.955254	132.0
64.979317	192.0
65.001778	176.0
65.023018	156.0
65.04924	148.0
65.251389	140.0
65.295769	56.0
65.313461	148.0
65.348854	100.0
65.361725	172.0
65.406792	164.0
65.429329	176.0
65.479248	148.0
65.524353	224.0
65.57914	236.0
65.593651	176.0
65.643631	168.0
65.709763	40.0
65.830658	196.0
65.869583	100.0
65.941574	196.0
65.976242	152.0
66.005348	144.0
66.029602	192.0
66.054237	52.0
66.071663	124.0
66.116684	180.0
66.183342	108.0
66.3405	224.0
66.389137	164.0
66.439697	164.0
66.5065	216.0
66.520569	264.0
66.574142	168.0
66.588707	116.0
66.616379	160.0
66.643997	120.0
66.689499	176.0
66.706161	192.0
66.765915	144.0
66.80658	176.0
66.937477	184.0
66.956329	148.0
66.977974	124.0
67.010086	196.0
67.151909	160.0
67.205742	48.0
67.218796	140.0
67.522568	140.0
67.548233	164.0
67.583191	144.0
67.629013	192.0
67.683037	132.0
67.722343	120.0
67.791153	104.0
67.807541	184.0
67.82885	216.0
67.906967	180.0
68.068024	156.0
68.142296	148.0
68.166008	208.0
68.222832	152.0
68.270515	204.0
68.299187	92.0
68.313278	132.0
68.365929	192.0
68.387329	152.0
68.418358	160.0
68.47715	176.0
68.520714	172.0
68.540482	164.0
68.552017	256.0
68.611359	128.0
68.657524	152.0
68.740402	168.0
68.761467	240.0
68.796127	76.0
68.827278	176.0
68.880348	112.0
68.969582	156.0
68.983673	144.0
69.020828	124.0
69.07045	152.0
69.138283	124.0
69.259148	168.0
69.285652	164.0
69.315475	100.0
69.388985	220.0
69.416595	156.0
69.482941	148.0
69.506172	160.0
69.661964	168.0
69.718735	152.0
69.732033	200.0
69.761948	228.0
69.77359	160.0
69.791878	176.0
69.823471	108.0
69.853409	152.0
69.976562	32.0
70.028725	212.0
70.108162	160.0
70.125755	144.0
70.17984	100.0
70.204849	92.0
70.298271	132.0
70.323303	192.0
70.334862	152.0
70.427025	172.0
70.450218	72.0
70.495331	180.0
70.515381	80.0
70.533768	192.0
70.592285	112.0
70.689751	192.0
70.736176	152.0
70.788078	140.0
70.819901	148.0
70.876572	188.0
70.96241	100.0
70.983421	176.0
71.15934	116.0
71.178795	188.0
71.219101	148.0
71.276222	132.0
71.299751	272.0
71.331337	116.0
71.343452	168.0
71.368675	172.0
71.483055	68.0
71.531868	36.0
71.607635	176.0
71.666595	176.0
71.725586	208.0
71.744125	200.0
71.757614	36.0
71.786507	332.0
71.847	180.0
71.872307	208.0
71.929695	112.0
72.07325	156.0
72.13134	140.0
72.171288	160.0
72.195618	184.0
72.208488	108.0
72.312431	212.0
72.326927	200.0
72.340469	212.0
72.400955	172.0
72.42514	164.0
72.484436	188.0
72.569183	148.0
72.617905	184.0
72.717621	264.0
72.922287	96.0
72.95118	128.0
73.000488	260.0
73.145111	152.0
73.15873	80.0
73.191078	228.0
73.236382	260.0
73.310318	160.0
73.36657	200.0
73.383614	112.0
73.406563	180.0
73.438187	168.0
73.482544	108.0
73.497894	140.0
73.588364	192.0
73.639595	312.0
73.67205	84.0
73.752365	236.0
73.825882	160.0
73.848114	168.0
73.861801	100.0
73.883743	184.0
74.027817	176.0
74.056931	128.0
74.074059	164.0
74.16272	92.0
74.192307	176.0
74.212883	136.0
74.226601	160.0
74.355263	324.0
74.420494	140.0
74.435448	232.0
74.472015	148.0
74.490906	44.0
74.521835	236.0
74.639542	192.0
74.671387	72.0
74.693016	140.0
74.714394	148.0
74.745361	120.0
74.785011	220.0
74.917542	100.0
74.93132	204.0
74.967506	136.0
75.091682	168.0
75.207237	208.0
75.224503	152.0
75.241768	176.0
75.286659	60.0
75.379944	156.0
75.460167	204.0
75.602295	208.0
75.62899	120.0
75.698242	188.0
75.713829	164.0
75.751938	88.0
75.810844	132.0
75.885384	168.0
75.980774	164.0
76.173965	212.0
76.312508	72.0
76.338585	160.0
76.352501	324.0
76.376854	68.0
76.430786	116.0
76.516068	196.0
76.559601	188.0
76.578758	156.0
76.598763	144.0
76.657158	68.0
76.674583	104.0
76.744873	124.0
76.766983	68.0
76.793144	148.0
76.819046	296.0
77.02005	148.0
77.074211	168.0
77.115822	148.0
77.149368	148.0
77.18084	204.0
77.193077	124.0
77.236801	176.0
77.268288	112.0
77.296288	120.0
77.310287	64.0
77.331291	116.0
77.483597	164.0
77.545746	172.0
77.619629	160.0
77.669456	36.0
77.697525	128.0
77.753677	108.0
77.816872	196.0
77.839699	264.0
77.902931	172.0
77.965401	160.0
78.168327	148.0
78.293411	120.0
78.429077	52.0
78.483055	156.0
78.489433	204.0
78.536369	160.0
78.587799	180.0
78.614265	188.0
78.71489	184.0
78.787308	236.0
78.836777	100.0
78.861526	284.0
78.950485	228.0
79.017143	164.0
79.036606	128.0
79.082619	108.0
79.095009	128.0
79.118019	92.0
79.151657	184.0
79.171509	116.0
79.291611	108.0
79.40863	56.0
79.458458	224.0
79.598518	116.0
79.61628	152.0
79.666016	112.0
79.735313	44.0
79.755905	184.0
79.864647	108.0
79.882896	112.0
79.94339	44.0
79.970085	120.0
80.009247	152.0
80.03595	248.0
80.080475	140.0
80.110756	124.0
80.174904	100.0
80.233727	76.0
80.251556	264.0
80.306839	112.0
80.444237	140.0
80.626427	176.0
80.660385	148.0
80.733688	96.0
80.853554	44.0
80.887566	184.0
80.996025	228.0
81.089966	92.0
81.117477	164.0
81.145538	148.0
81.22879	228.0
81.262123	204.0
81.414696	148.0
81.42907	188.0
81.50811	160.0
81.599777	156.0
81.622574	136.0
81.707695	144.0
81.720284	176.0
81.763474	112.0
81.808472	100.0
81.857086	112.0
81.885902	168.0
81.929642	156.0
82.011932	152.0
82.082336	220.0
82.168915	124.0
82.199593	144.0
82.311508	96.0
82.361816	84.0
82.385559	192.0
82.418083	168.0
82.430733	72.0
82.446999	148.0
82.463264	164.0
82.58802	368.0
82.707443	152.0
82.741837	184.0
82.79435	136.0
82.850502	200.0
82.889748	444.0
82.926613	80.0
82.991875	156.0
83.024513	68.0
83.115494	224.0
83.138062	156.0
83.176926	148.0
83.196892	320.0
83.224121	216.0
83.462158	156.0
83.500343	184.0
83.611328	160.0
83.638626	68.0
83.686615	220.0
83.797066	216.0
83.822578	200.0
83.911888	124.0
84.019493	96.0
84.054161	112.0
84.174637	200.0
84.23941	168.0
84.284241	148.0
84.297028	120.0
84.357346	156.0
84.401222	152.0
84.432312	160.0
84.47139	164.0
84.501823	108.0
84.52195	96.0
84.551231	180.0
84.575027	152.0
84.599365	244.0
84.628113	96.0
84.644592	176.0
84.937836	128.0
84.996544	88.0
85.054642	152.0
85.071793	164.0
85.084648	128.0
85.101166	184.0
85.117699	44.0
85.174629	224.0
85.305099	200.0
85.321648	144.0
85.363937	128.0
85.470627	152.0
85.492706	220.0
85.551201	216.0
85.687897	144.0
85.798477	52.0
85.831665	184.0
85.931267	236.0
85.975548	144.0
85.990318	160.0
86.008774	200.0
86.038307	188.0
86.064156	72.0
86.091858	92.0
86.190987	200.0
86.21933	92.0
86.245209	160.0
86.313202	144.0
86.40609	212.0
86.429855	152.0
86.513435	180.0
86.528244	136.0
86.546486	244.0
86.570831	56.0
86.630104	224.0
86.657089	184.0
86.711632	132.0
86.754265	220.0
86.80217	184.0
86.898926	120.0
86.934181	224.0
86.984299	208.0
87.049278	156.0
87.066032	176.0
87.10128	152.0
87.123573	128.0
87.205338	108.0
87.223923	60.0
87.31131	308.0
87.339211	180.0
87.385719	192.0
87.419212	180.0
87.43782	124.0
87.462021	172.0
87.625603	176.0
87.678078	180.0
87.706032	216.0
87.760094	160.0
87.799255	132.0
87.830513	116.0
87.857079	52.0
87.882332	120.0
87.953232	160.0
87.990379	188.0
88.174515	156.0
88.253029	188.0
88.294174	228.0
88.354027	96.0
88.412033	192.0
88.428879	132.0
88.499901	200.0
88.610519	132.0
88.698601	188.0
88.739845	188.0
88.755661	160.0
88.769844	204.0
88.873016	196.0
88.899284	120.0
88.939735	160.0
88.998779	112.0
89.055115	140.0
89.09832	156.0
89.250565	148.0
89.282532	196.0
89.34272	180.0
89.368744	164.0
89.445274	224.0
89.481995	156.0
89.514	104.0
89.564857	80.0
89.722946	332.0
89.826874	144.0
89.977844	152.0
90.023766	212.0
90.068489	140.0
90.098717	132.0
90.157295	160.0
90.174301	180.0
90.2537	176.0
90.266937	120.0
90.306656	76.0
90.456055	184.0
90.478851	92.0
90.497787	104.0
90.550812	164.0
90.577332	164.0
90.747894	192.0
90.780128	180.0
90.812019	196.0
90.850304	152.0
90.947083	176.0
90.967964	148.0
91.021126	116.0
91.054352	4480.0
91.081398	240.0
91.112297	236.0
91.224419	84.0
91.294769	140.0
91.315689	124.0
91.376564	148.0
91.429848	180.0
91.445068	336.0
91.49012	120.0
91.523125	148.0
91.586647	168.0
91.646935	28.0
91.689865	264.0
91.701454	144.0
91.772736	156.0
91.814682	232.0
91.841217	176.0
91.929146	40.0
91.948235	196.0
91.969231	216.0
92.02459	124.0
92.051666	824.0
92.09716	140.0
92.188866	160.0
92.410538	164.0
92.475746	160.0
92.515945	156.0
92.544662	212.0
92.590622	92.0
92.620811	168.0
92.636589	192.0
92.661499	116.0
92.701736	244.0
92.745811	136.0
92.805069	220.0
92.822502	156.0
92.85894	88.0
92.938385	116.0
93.025131	216.0
93.069244	1908.0
93.181435	112.0
93.194885	48.0
93.340973	172.0
93.383286	104.0
93.458305	128.0
93.489098	220.0
93.51989	92.0
93.533363	80.0
93.631561	180.0
93.649017	196.0
93.752937	132.0
93.826607	216.0
93.849319	172.0
93.912956	108.0
93.932251	152.0
93.947678	196.0
93.995918	184.0
94.028725	316.0
94.065338	1280.0
94.119453	180.0
94.24501	160.0
94.268196	140.0
94.318443	56.0
94.372581	36.0
94.386116	132.0
94.401581	136.0
94.418991	188.0
94.492493	232.0
94.537003	252.0
94.635719	32.0
94.653145	148.0
94.699631	36.0
94.780991	40.0
94.810059	172.0
94.990379	136.0
95.047928	592.0
95.068329	220.0
95.087158	696.0
95.130104	140.0
95.161163	128.0
95.190292	148.0
95.215759	176.0
95.2369	156.0
95.34182	204.0
95.357368	68.0
95.384583	148.0
95.452629	180.0
95.520699	40.0
95.556137	148.0
95.698601	196.0
95.843887	84.0
95.88871	128.0
95.968636	68.0
96.045128	668.0
96.078896	180.0
96.137444	208.0
96.21283	348.0
96.292572	144.0
96.317963	148.0
96.378532	72.0
96.588676	184.0
96.603371	196.0
96.642494	72.0
96.673805	60.0
96.810844	252.0
96.842178	104.0
96.906097	204.0
96.940552	208.0
96.97345	168.0
97.002853	128.0
97.044022	232.0
97.063225	152.0
97.104004	184.0
97.155815	120.0
97.170769	168.0
97.271599	36.0
97.307648	100.0
97.328537	152.0
97.418724	100.0
97.470581	204.0
97.58004	196.0
97.609528	224.0
97.640999	220.0
97.673447	168.0
97.694107	208.0
97.739357	160.0
97.814148	184.0
97.90078	200.0
97.934258	72.0
97.961838	100.0
97.983505	180.0
98.011093	152.0
98.030792	136.0
98.058388	408.0
98.235847	152.0
98.255577	124.0
98.291092	172.0
98.362144	192.0
98.391754	192.0
98.415451	256.0
98.50235	152.0
98.577423	220.0
98.713829	192.0
98.826576	92.0
98.953041	152.0
99.093872	200.0
99.129791	156.0
99.413116	240.0
99.442352	208.0
99.695114	216.0
99.713005	168.0
99.858147	92.0
99.956688	180.0
100.065102	200.0
100.081024	48.0
100.100937	160.0
100.322105	44.0
100.393883	168.0
100.43	148.0
100.483643	172.0
100.541512	156.0
100.569252	156.0
100.580353	260.0
100.595406	176.0
100.611374	152.0
100.639328	180.0
100.727203	56.0
100.775146	96.0
100.829102	96.0
100.889069	76.0
100.975052	108.0
101.001053	332.0
101.041061	84.0
101.115105	236.0
101.185165	116.0
101.199181	84.0
101.281288	184.0
101.329369	204.0
101.363426	148.0
101.395493	164.0
101.473671	56.0
101.569931	200.0
101.589989	124.0
101.604034	88.0
101.636139	196.0
101.682297	116.0
101.814796	168.0
101.844925	144.0
101.947441	160.0
102.02681	112.0
102.047859	328.0
102.166557	164.0
102.232956	52.0
102.29174	176.0
102.35173	164.0
102.365822	156.0
102.396034	160.0
102.497185	76.0
102.53875	248.0
102.843735	172.0
102.958725	188.0
103.00518	76.0
103.054153	2560.0
103.118332	48.0
103.132477	196.0
103.245552	108.0
103.252548	176.0
103.283607	140.0
103.365059	224.0
103.38327	264.0
103.407555	192.0
103.440536	164.0
103.484482	116.0
103.593689	156.0
103.599869	144.0
103.715431	120.0
103.747864	136.0
103.845474	164.0
103.871567	128.0
103.908081	184.0
103.99128	56.0
104.01767	100.0
104.056717	352.0
104.0867	128.0
104.109039	144.0
104.126335	224.0
104.151688	64.0
104.169968	80.0
104.22686	252.0
104.292206	204.0
104.346779	136.0
104.403717	192.0
104.437286	268.0
104.513802	136.0
104.563477	136.0
104.570091	72.0
104.577919	192.0
104.649933	200.0
104.741577	148.0
104.774178	208.0
104.794548	112.0
104.821953	108.0
104.851608	184.0
104.882179	152.0
104.910721	132.0
104.92907	160.0
104.973923	168.0
105.004517	148.0
105.036209	356.0
105.06987	8804.0
105.116814	204.0
105.245003	104.0
105.280037	96.0
105.296371	52.0
105.367867	172.0
105.420998	80.0
105.439384	168.0
105.581779	136.0
105.656136	192.0
105.768692	112.0
105.858772	92.0
105.895157	144.0
105.930458	120.0
105.97348	132.0
106.034958	132.0
106.065018	5036.0
106.102608	52.0
106.13131	148.0
106.155914	164.0
106.172325	164.0
106.194885	100.0
106.223602	156.0
106.270782	188.0
106.334404	156.0
106.492493	108.0
106.689766	168.0
106.704155	40.0
106.776131	84.0
106.889275	216.0
106.913971	208.0
106.936607	52.0
106.955132	44.0
107.0494	1044.0
107.084312	2028.0
107.161438	180.0
107.24662	172.0
107.260544	120.0
107.313591	212.0
107.354836	136.0
107.54052	152.0
107.569412	160.0
107.587997	224.0
107.62516	192.0
107.658508	160.0
107.682434	212.0
107.718094	52.0
107.732559	112.0
107.800743	108.0
107.912361	72.0
107.933037	108.0
108.012337	128.0
108.04731	448.0
108.081055	1624.0
108.115082	180.0
108.191666	196.0
108.22686	52.0
108.276566	80.0
108.35775	144.0
108.397636	208.0
108.508644	144.0
108.541824	104.0
108.635155	160.0
108.743057	156.0
108.799622	176.0
108.886314	204.0
108.965248	160.0
109.025513	144.0
109.063553	1068.0
109.102112	1004.0
109.158554	140.0
109.250076	160.0
109.300011	144.0
109.320282	220.0
109.488647	200.0
109.5811	136.0
109.597519	164.0
109.631111	152.0
109.670715	72.0
109.738976	236.0
109.7687	64.0
109.804153	128.0
109.8563	160.0
109.908455	200.0
110.00029	188.0
110.06041	588.0
110.101692	152.0
110.152725	172.0
110.225853	136.0
110.338722	204.0
110.449554	76.0
110.510223	160.0
110.524872	40.0
110.558357	188.0
110.577194	148.0
110.637894	108.0
110.674828	156.0
110.723747	184.0
110.811264	72.0
110.83268	140.0
110.876686	156.0
110.924896	40.0
110.945862	172.0
110.969711	256.0
111.00013	172.0
111.05455	168.0
111.080994	264.0
111.160248	112.0
111.31514	40.0
111.367645	112.0
111.400131	120.0
111.42646	136.0
111.476669	188.0
111.504814	140.0
111.638763	132.0
111.823906	344.0
111.847054	212.0
112.023972	252.0
112.045006	64.0
112.082932	160.0
112.178398	176.0
112.23259	76.0
112.272659	44.0
112.348595	360.0
112.506874	188.0
112.530098	228.0
112.597672	132.0
112.73922	188.0
112.802628	116.0
112.825882	160.0
112.84491	80.0
112.880859	176.0
112.983353	152.0
113.021233	184.0
113.077606	152.0
113.109352	128.0
113.153809	112.0
113.17498	156.0
113.206749	200.0
113.227928	152.0
113.257576	164.0
113.33596	192.0
113.352913	120.0
113.40802	168.0
113.427094	44.0
113.454651	104.0
113.480095	256.0
113.526749	148.0
113.639168	264.0
113.662506	204.0
113.863518	140.0
113.877914	152.0
113.893921	268.0
113.919411	200.0
113.940659	184.0
114.01503	172.0
114.059662	188.0
114.087296	188.0
114.119392	168.0
114.174477	28.0
114.189362	208.0
114.21489	128.0
114.338295	84.0
114.365753	248.0
114.407829	204.0
114.461769	176.0
114.549088	164.0
114.5811	156.0
114.623657	160.0
114.637375	124.0
114.655624	180.0
114.732361	192.0
114.877373	220.0
114.924316	52.0
114.960587	144.0
114.977661	168.0
114.992599	160.0
115.054337	4376.0
115.144188	152.0
115.176231	148.0
115.276642	184.0
115.327934	204.0
115.543922	108.0
115.601692	196.0
115.641098	136.0
115.715141	188.0
115.747009	172.0
115.787949	100.0
115.823715	80.0
115.906097	188.0
115.926521	164.0
116.031731	208.0
116.062286	3232.0
116.095688	176.0
116.126579	48.0
116.148033	140.0
116.167336	180.0
116.193085	188.0
116.210243	220.0
116.360779	148.0
116.42276	140.0
116.450676	132.0
116.476456	156.0
116.538757	52.0
116.601074	136.0
116.689209	116.0
116.891556	252.0
116.923676	104.0
117.031311	196.0
117.069626	5144.0
117.135712	76.0
117.169159	80.0
117.203629	148.0
117.220871	40.0
117.314629	96.0
117.356667	48.0
117.401955	64.0
117.451561	176.0
117.488228	200.0
117.546486	52.0
117.598282	160.0
117.760216	148.0
117.781815	140.0
117.799095	112.0
117.814217	172.0
117.930908	244.0
117.974144	92.0
118.039001	148.0
118.06855	1608.0
118.09668	324.0
118.242363	204.0
118.264008	96.0
118.309464	160.0
118.357094	60.0
118.387413	200.0
118.426399	36.0
118.488319	176.0
118.517387	268.0
118.813019	140.0
118.842628	144.0
118.879517	144.0
118.92292	212.0
118.972847	32.0
118.997681	64.0
119.029297	136.0
119.050827	516.0
119.084625	5436.0
119.133553	44.0
119.161797	64.0
119.19854	88.0
119.255241	64.0
119.340027	172.0
119.379166	124.0
119.457466	36.0
119.494453	92.0
119.544754	136.0
119.581497	28.0
119.596733	164.0
119.668571	56.0
119.688164	100.0
119.712898	112.0
119.790527	104.0
119.890755	116.0
119.916908	136.0
119.962967	184.0
120.044373	2396.0
120.080978	10876.0
120.12188	216.0
120.139328	156.0
120.159836	60.0
120.233154	40.0
120.306511	124.0
120.391045	312.0
120.572762	144.0
120.673843	124.0
120.784416	120.0
120.836258	152.0
120.915039	60.0
120.936928	76.0
121.002693	180.0
121.064789	10260.0
121.085686	2148.0
121.1306	80.0
121.185081	176.0
121.207588	144.0
121.234787	44.0
121.344383	36.0
121.386185	64.0
121.400154	120.0
121.462692	164.0
121.503624	132.0
121.528625	56.0
121.594055	220.0
121.608612	244.0
121.613373	136.0
121.621437	212.0
121.640549	168.0
121.671288	80.0
121.752533	136.0
121.84259	56.0
121.868652	144.0
121.90062	156.0
121.923889	188.0
121.968521	248.0
121.996429	128.0
122.021118	160.0
122.062057	2444.0
122.095779	2148.0
122.133354	164.0
122.18116	132.0
122.227364	184.0
122.258171	76.0
122.325172	164.0
122.350624	40.0
122.396858	184.0
122.432091	168.0
122.451912	240.0
122.56427	116.0
122.718559	112.0
122.742813	184.0
122.808975	180.0
122.917076	112.0
122.947975	156.0
122.976051	188.0
123.068001	892.0
123.097206	348.0
123.115669	176.0
123.158722	132.0
123.193062	140.0
123.252716	152.0
123.270393	176.0
123.301338	44.0
123.34996	228.0
123.47821	88.0
123.509171	124.0
123.588814	148.0
123.920937	140.0
123.94088	52.0
124.076576	836.0
124.175873	140.0
124.213577	208.0
124.25573	180.0
124.29567	232.0
124.326736	176.0
124.42218	136.0
124.453262	140.0
124.495461	132.0
124.52433	40.0
124.635406	140.0
124.86438	84.0
124.953354	172.0
125.040138	132.0
125.084312	208.0
125.098572	192.0
125.184853	156.0
125.282852	120.0
125.309586	44.0
125.367523	232.0
125.423241	136.0
125.484772	200.0
125.510193	208.0
125.54364	132.0
125.737732	144.0
125.853813	156.0
125.882843	112.0
125.947609	168.0
125.965485	92.0
125.987823	196.0
126.005692	168.0
126.048515	196.0
126.091492	284.0
126.168846	172.0
126.241173	208.0
126.306656	168.0
126.403694	144.0
126.628128	272.0
126.652206	120.0
126.91217	168.0
126.954781	172.0
127.053421	1032.0
127.154449	216.0
127.174652	88.0
127.197098	124.0
127.212807	56.0
127.268936	188.0
127.291389	208.0
127.347534	212.0
127.49807	52.0
127.531784	216.0
127.594727	72.0
127.653183	108.0
127.779144	124.0
127.830078	208.0
127.866905	64.0
127.938942	192.0
127.972206	160.0
128.06221	7088.0
128.197968	40.0
128.240784	164.0
128.279114	156.0
128.320206	176.0
128.371552	220.0
128.398087	156.0
128.441467	224.0
128.487244	184.0
128.527191	128.0
128.552017	104.0
128.608444	180.0
128.635025	108.0
128.653595	160.0
128.691971	48.0
128.790665	120.0
128.850067	212.0
128.864349	112.0
128.938202	148.0
128.982651	144.0
129.039917	136.0
129.068939	9124.0
129.202759	304.0
129.363434	140.0
129.392868	156.0
129.465332	128.0
129.501572	76.0
129.531906	152.0
129.551407	184.0
129.685089	260.0
129.714569	156.0
129.789383	212.0
129.8302	208.0
129.900513	220.0
129.982193	196.0
130.074051	1800.0
130.132004	88.0
130.152435	112.0
130.184219	68.0
130.327332	120.0
130.412689	136.0
130.536453	144.0
130.575119	188.0
130.59787	80.0
130.689438	172.0
130.725266	172.0
130.748032	72.0
130.793549	168.0
130.911942	60.0
130.936996	124.0
130.955215	136.0
130.971161	200.0
131.012573	188.0
131.049454	1100.0
131.084747	6268.0
131.129456	124.0
131.159454	184.0
131.23703	180.0
131.270584	84.0
131.308487	60.0
131.333359	168.0
131.374634	68.0
131.392197	144.0
131.43396	188.0
131.47731	172.0
131.530396	264.0
131.561768	80.0
131.77298	200.0
131.817581	152.0
131.849579	168.0
131.883865	152.0
131.940125	176.0
131.982162	56.0
132.019211	96.0
132.056534	1132.0
132.084198	1752.0
132.12854	84.0
132.183456	40.0
132.210922	348.0
132.252121	208.0
132.348267	68.0
132.384903	88.0
132.421555	80.0
132.458206	208.0
132.474243	216.0
132.527893	124.0
132.559006	152.0
132.614014	204.0
132.669037	48.0
132.703415	88.0
132.719467	196.0
132.735519	120.0
132.783676	120.0
132.827255	80.0
132.852493	168.0
132.883926	172.0
132.913162	172.0
132.945053	152.0
132.96051	168.0
133.062592	1396.0
133.099152	2416.0
133.153442	72.0
133.17157	136.0
133.240479	56.0
133.256561	80.0
133.35997	180.0
133.580719	212.0
133.68483	208.0
133.704971	164.0
133.783966	88.0
133.820068	116.0
133.989639	172.0
134.033997	164.0
134.059189	1424.0
134.095581	2024.0
134.133377	76.0
134.188705	220.0
134.261063	220.0
134.463364	196.0
134.482025	152.0
134.521606	164.0
134.555557	56.0
134.599426	200.0
134.980698	152.0
135.077042	1008.0
135.103104	844.0
135.111557	532.0
135.178589	184.0
135.276855	120.0
135.383362	96.0
135.409836	180.0
135.476013	64.0
135.513077	144.0
135.529297	84.0
135.596497	168.0
135.772705	156.0
135.809814	92.0
135.82605	160.0
135.86911	212.0
135.891006	208.0
135.925812	72.0
135.953659	136.0
136.076416	904.0
136.110641	304.0
136.197449	92.0
136.299667	84.0
136.360092	192.0
136.42749	132.0
136.464691	100.0
136.5112	120.0
136.532135	184.0
136.562256	172.0
136.62059	132.0
136.63681	180.0
136.655411	256.0
136.708939	92.0
136.776428	180.0
136.853668	208.0
137.056625	156.0
137.080551	180.0
137.086853	292.0
137.093765	112.0
137.186417	76.0
137.324387	144.0
137.342651	184.0
137.424316	92.0
137.440643	204.0
137.470154	156.0
137.496643	136.0
137.850937	104.0
137.93576	84.0
137.956802	168.0
137.998886	144.0
138.052673	72.0
138.090469	148.0
138.164948	100.0
138.359192	48.0
138.401337	116.0
138.4552	200.0
138.555298	168.0
138.591064	112.0
138.626205	52.0
138.669022	164.0
138.977951	192.0
139.058807	176.0
139.107025	132.0
139.132858	96.0
139.17276	128.0
139.506393	220.0
139.526169	192.0
139.56282	92.0
139.579269	244.0
139.600433	228.0
139.785278	160.0
139.901611	232.0
140.002319	88.0
140.127701	116.0
140.16069	212.0
140.188965	116.0
140.221954	124.0
140.262024	148.0
140.297394	116.0
140.353973	164.0
140.370483	148.0
140.445953	188.0
140.474258	84.0
140.6064	176.0
140.63707	148.0
140.66777	88.0
140.880295	56.0
140.932281	172.0
140.977173	196.0
140.996078	92.0
141.014984	208.0
141.03154	168.0
141.070053	5864.0
141.194153	108.0
141.215958	164.0
141.26326	160.0
141.284561	28.0
141.331879	156.0
141.375092	216.0
141.417068	176.0
141.516495	144.0
141.58754	96.0
141.620941	160.0
141.736786	172.0
141.79129	212.0
141.807877	148.0
141.85054	164.0
141.890854	60.0
141.914551	44.0
142.076828	6776.0
142.139893	64.0
142.244751	68.0
142.301086	180.0
142.490601	160.0
142.690948	216.0
142.748016	176.0
142.845535	152.0
142.924042	160.0
142.940704	200.0
142.997391	136.0
143.024002	112.0
143.045258	480.0
143.084091	7252.0
143.138275	132.0
143.193054	156.0
143.295486	124.0
143.474228	76.0
143.560074	68.0
143.657867	176.0
143.832062	148.0
143.882187	88.0
143.910843	124.0
143.949051	44.0
144.008759	72.0
144.054382	712.0
144.085098	1504.0
144.166336	180.0
144.187943	160.0
144.316406	172.0
144.355286	196.0
144.479675	176.0
144.513168	120.0
144.534698	108.0
144.608887	44.0
144.685486	148.0
144.733368	148.0
144.772858	180.0
144.820236	176.0
144.848328	188.0
144.87468	180.0
144.915405	48.0
144.984909	128.0
145.063797	2052.0
145.099487	4364.0
145.138321	156.0
145.17627	68.0
145.222549	132.0
145.25824	168.0
145.318222	64.0
145.361404	148.0
145.46257	164.0
145.560654	112.0
145.663925	152.0
145.779251	160.0
145.801926	256.0
145.860962	76.0
145.91626	100.0
145.952332	208.0
145.976379	188.0
146.069443	560.0
146.09761	2076.0
146.156296	176.0
146.195282	36.0
146.286743	132.0
146.303604	32.0
146.327682	72.0
146.399918	92.0
146.552414	144.0
146.786789	156.0
146.891602	28.0
147.028824	120.0
147.080795	5448.0
147.108566	1280.0
147.195007	152.0
147.265747	32.0
147.379288	176.0
147.430038	60.0
147.463867	236.0
147.524307	52.0
147.613754	64.0
147.662125	120.0
147.707626	184.0
147.862946	144.0
147.93129	220.0
148.003342	220.0
148.036514	184.0
148.075775	18360.0
148.110291	656.0
148.181702	44.0
148.256454	140.0
148.287735	92.0
148.302658	80.0
148.418442	104.0
148.461349	84.0
148.485596	48.0
148.546234	64.0
148.563217	168.0
148.621445	36.0
148.672409	64.0
148.742798	28.0
148.781631	28.0
148.944336	52.0
148.978348	104.0
149.020981	176.0
149.057312	148.0
149.080658	2628.0
149.12822	348.0
149.148453	204.0
149.211655	40.0
149.243256	160.0
149.326981	224.0
149.54248	64.0
149.674011	136.0
149.773804	124.0
149.978485	68.0
150.058395	128.0
150.090469	1632.0
150.21257	88.0
150.321594	140.0
150.383377	72.0
150.401855	176.0
150.441956	156.0
150.606461	120.0
150.759491	156.0
151.006409	188.0
151.058807	168.0
151.091141	212.0
151.1483	232.0
151.177673	72.0
151.199402	200.0
151.329437	184.0
151.34903	64.0
151.402893	152.0
151.432281	112.0
151.448898	92.0
151.495972	172.0
151.561905	132.0
151.615433	144.0
151.812164	176.0
151.836685	156.0
151.924988	48.0
151.956879	148.0
151.978973	116.0
152.061798	1176.0
152.104126	160.0
152.175323	56.0
152.248032	236.0
152.285828	96.0
152.339874	176.0
152.359528	140.0
152.438156	136.0
152.534012	184.0
152.567123	76.0
152.634811	172.0
152.824203	124.0
152.848816	192.0
153.068634	3692.0
153.102371	36.0
153.194336	144.0
153.250168	160.0
153.516388	140.0
153.548447	316.0
153.578049	116.0
153.629852	200.0
153.661926	32.0
153.6866	108.0
153.814926	56.0
153.896408	68.0
153.960602	56.0
154.007538	192.0
154.076385	3172.0
154.107559	164.0
154.148743	156.0
154.190369	176.0
154.336212	44.0
154.353531	96.0
154.719711	88.0
154.916443	248.0
154.957474	144.0
155.084793	7748.0
155.13591	76.0
155.204544	164.0
155.267334	128.0
155.311981	152.0
155.334305	40.0
155.384888	68.0
155.409607	68.0
155.676819	224.0
155.751328	144.0
155.768723	156.0
155.91748	188.0
155.923676	164.0
156.091827	4612.0
156.144043	204.0
156.221146	156.0
156.260956	196.0
156.325653	40.0
156.358414	120.0
156.412766	132.0
156.497406	68.0
156.53476	148.0
156.714096	112.0
156.741516	104.0
156.782745	176.0
156.868622	196.0
156.98082	64.0
157.020721	128.0
157.067154	588.0
157.100479	6224.0
157.147949	92.0
157.167587	188.0
157.250259	52.0
157.271942	64.0
157.28894	88.0
157.32515	36.0
157.371613	300.0
157.39006	48.0
157.420029	36.0
157.453491	100.0
157.468719	80.0
157.495163	188.0
157.537415	140.0
157.584885	136.0
157.627365	76.0
157.668289	148.0
157.71402	184.0
157.742325	64.0
157.827332	204.0
157.844833	88.0
157.864838	80.0
157.899857	136.0
157.969894	112.0
158.021271	52.0
158.069733	692.0
158.099472	2996.0
158.169098	304.0
158.232437	268.0
158.290253	68.0
158.337845	84.0
158.435532	196.0
158.498169	108.0
158.545776	68.0
158.708725	96.0
158.824081	56.0
158.869232	100.0
158.889313	152.0
158.967087	156.0
159.039871	40.0
159.08049	2996.0
159.115219	2836.0
159.178284	152.0
159.254974	48.0
159.298508	56.0
159.326141	92.0
159.406555	44.0
159.45932	124.0
159.519653	140.0
159.600098	108.0
159.660461	96.0
159.770294	60.0
159.806351	144.0
159.952316	112.0
160.076096	940.0
160.112289	1584.0
160.175049	124.0
160.221786	84.0
160.241928	64.0
160.279724	36.0
160.451126	52.0
160.53685	160.0
160.680634	244.0
160.973419	172.0
161.013824	68.0
161.096161	1284.0
161.233627	80.0
161.274063	84.0
161.327148	84.0
161.392883	212.0
161.914185	156.0
161.936981	204.0
162.057663	220.0
162.091034	2496.0
162.126114	564.0
162.218246	204.0
162.256989	196.0
162.334885	100.0
162.441406	44.0
162.535278	36.0
162.794205	92.0
162.885635	108.0
162.934799	140.0
162.959305	136.0
163.020935	96.0
163.047348	112.0
163.098267	544.0
163.148422	128.0
163.17189	144.0
163.203323	56.0
163.521301	36.0
163.635742	176.0
163.71225	96.0
163.862473	172.0
163.920227	156.0
164.088211	184.0
164.096176	120.0
164.108902	188.0
164.113129	176.0
164.136932	172.0
164.27829	100.0
164.298508	160.0
164.334213	172.0
164.362289	160.0
164.420975	204.0
164.461823	152.0
164.580704	148.0
164.870468	104.0
165.011063	184.0
165.069229	4836.0
165.128693	128.0
165.159378	68.0
165.30777	88.0
165.392227	148.0
165.515121	200.0
165.599625	44.0
165.735397	200.0
165.791779	152.0
165.927628	28.0
165.948151	180.0
166.02507	172.0
166.075638	3216.0
166.143066	172.0
166.195724	84.0
166.216003	84.0
166.30986	204.0
166.350937	76.0
166.849319	136.0
166.872467	36.0
166.991409	248.0
167.085632	5064.0
167.182953	216.0
167.268646	148.0
167.33815	64.0
167.356171	176.0
167.428284	44.0
167.46434	128.0
167.531311	136.0
167.554504	136.0
167.636948	180.0
167.660233	120.0
167.680771	244.0
167.786804	144.0
168.090698	2044.0
168.204376	40.0
168.23793	104.0
168.333603	72.0
168.454849	112.0
168.576294	112.0
168.723618	76.0
168.788254	68.0
168.832214	192.0
168.930511	64.0
169.010712	352.0
169.100021	5140.0
169.169159	180.0
169.209442	164.0
169.264389	32.0
169.339493	52.0
169.378342	116.0
169.525238	172.0
169.686737	152.0
169.764526	208.0
169.831955	160.0
169.878784	152.0
170.100601	1928.0
170.213455	72.0
170.247223	136.0
170.29657	36.0
170.326935	144.0
170.371887	192.0
170.566788	148.0
170.707184	100.0
170.863251	136.0
170.914658	160.0
170.949127	104.0
171.0298	212.0
171.079666	1936.0
171.115707	2928.0
171.187943	92.0
171.225082	44.0
171.34491	72.0
171.443924	108.0
171.50386	124.0
171.610748	228.0
171.628998	228.0
171.647263	140.0
171.715057	208.0
171.738541	60.0
171.910721	32.0
171.942047	148.0
171.993011	144.0
172.081985	592.0
172.112793	1636.0
172.22229	96.0
172.26059	264.0
172.359879	140.0
172.534424	152.0
172.712814	140.0
172.812225	44.0
172.943069	144.0
172.961395	36.0
173.095184	2200.0
173.12709	860.0
173.238968	136.0
173.262558	136.0
173.286133	32.0
173.451233	48.0
173.524643	236.0
173.63739	48.0
173.734451	108.0
173.800049	136.0
173.926834	128.0
174.090958	1376.0
174.127899	1924.0
174.156067	176.0
174.256912	148.0
174.312088	68.0
174.489166	128.0
174.515076	160.0
174.730164	52.0
174.748566	116.0
174.816986	112.0
174.890686	92.0
174.930161	60.0
175.030212	132.0
175.049957	128.0
175.074402	168.0
175.105362	468.0
175.341064	208.0
175.388504	156.0
175.412231	84.0
175.46759	144.0
175.673309	136.0
175.807648	48.0
175.932388	160.0
176.023285	180.0
176.078476	168.0
176.106888	860.0
176.140549	120.0
176.240936	204.0
176.317566	68.0
176.425949	148.0
176.542282	120.0
176.703644	60.0
176.740692	64.0
176.870361	72.0
177.064789	304.0
177.114105	244.0
177.145767	144.0
177.262344	144.0
177.675964	176.0
177.705154	164.0
177.824127	168.0
178.021027	40.0
178.077713	2116.0
178.118408	336.0
178.20166	76.0
178.286697	32.0
178.37175	60.0
178.427567	48.0
178.556137	148.0
178.637665	112.0
178.698853	192.0
178.893143	120.0
178.93573	160.0
179.050598	212.0
179.084396	3976.0
179.148788	36.0
179.23671	44.0
179.564621	156.0
179.625961	204.0
179.673981	148.0
179.770035	156.0
179.802063	56.0
179.860779	172.0
179.906158	116.0
179.929794	160.0
180.089569	2120.0
180.143845	44.0
180.181244	48.0
180.340103	196.0
180.389694	60.0
180.411072	108.0
180.603607	152.0
180.855133	52.0
180.93811	100.0
180.96489	184.0
181.065903	776.0
181.099396	4624.0
181.169327	132.0
181.345291	120.0
181.369415	48.0
181.423019	160.0
181.473969	148.0
181.56514	128.0
181.672424	136.0
181.938507	196.0
182.018661	64.0
182.070755	684.0
182.105453	2140.0
182.169067	172.0
182.246979	108.0
182.276535	108.0
182.303864	96.0
182.322327	112.0
182.382736	140.0
182.413605	80.0
182.626953	176.0
182.903183	192.0
182.978561	108.0
183.079391	840.0
183.115509	4508.0
183.342209	112.0
183.361069	80.0
183.392136	44.0
183.479675	88.0
183.555176	104.0
183.671143	48.0
183.722397	136.0
183.787155	40.0
183.811432	48.0
183.887009	36.0
183.912979	96.0
183.972382	248.0
184.084015	740.0
184.115906	1008.0
184.53804	180.0
184.684067	64.0
184.83287	164.0
184.868042	144.0
184.957367	56.0
185.095596	2876.0
185.130157	988.0
185.275269	200.0
185.528946	100.0
185.596725	80.0
185.659103	156.0
185.79744	148.0
185.876114	108.0
186.094223	612.0
186.128784	1140.0
186.313263	120.0
186.416504	188.0
186.452362	104.0
186.574158	124.0
187.110092	876.0
187.149002	652.0
187.333435	156.0
187.420609	120.0
187.521454	100.0
187.62471	136.0
187.780457	116.0
187.865021	284.0
187.946869	56.0
188.009644	112.0
188.074768	176.0
188.10997	1516.0
188.140839	344.0
188.329071	112.0
188.386826	144.0
188.424683	112.0
188.472473	180.0
188.635117	216.0
188.747208	148.0
188.80191	160.0
188.848404	152.0
189.02623	128.0
189.06868	596.0
189.119781	144.0
189.160339	52.0
189.264374	160.0
189.620499	84.0
189.828857	132.0
189.861771	88.0
189.955032	136.0
190.048233	160.0
190.075302	812.0
190.120789	168.0
190.173782	124.0
190.484146	156.0
190.616699	48.0
190.762375	132.0
190.888855	192.0
190.930099	68.0
191.084473	2224.0
191.119385	84.0
191.124435	236.0
191.144241	176.0
191.329086	132.0
191.805664	116.0
191.871826	104.0
191.953003	76.0
191.995911	140.0
192.039291	172.0
192.09137	3616.0
192.131073	136.0
192.313202	80.0
192.365646	228.0
192.418091	164.0
192.650085	172.0
192.81311	100.0
192.860092	76.0
192.87944	76.0
192.930756	144.0
193.099609	3856.0
193.142136	72.0
193.180862	192.0
193.296143	72.0
193.352417	64.0
193.474213	124.0
193.567307	64.0
193.673584	52.0
193.767776	56.0
193.823196	176.0
193.856445	136.0
194.014435	60.0
194.036606	120.0
194.058289	76.0
194.105209	2012.0
194.239059	184.0
194.319504	60.0
194.752579	204.0
194.783127	76.0
194.927597	104.0
194.988739	88.0
195.081482	1144.0
195.115143	3268.0
195.208359	64.0
195.28067	96.0
195.34465	64.0
195.36969	140.0
195.447586	76.0
195.561691	64.0
195.745438	128.0
195.876343	116.0
196.084869	408.0
196.125381	1456.0
196.180084	176.0
196.202393	84.0
196.241425	144.0
196.324951	88.0
196.475693	92.0
196.503601	36.0
196.598465	44.0
196.765945	160.0
197.096832	1400.0
197.131775	1500.0
197.285599	176.0
197.324738	96.0
197.422592	40.0
197.444977	84.0
197.590424	160.0
197.692566	128.0
197.889908	176.0
197.9487	136.0
197.993515	32.0
198.100494	504.0
198.129013	872.0
198.236603	228.0
198.262466	160.0
198.338135	44.0
198.47551	64.0
198.531601	96.0
198.68306	76.0
198.713928	240.0
198.78688	152.0
199.033905	56.0
199.070068	168.0
199.110718	840.0
199.144547	644.0
199.213654	96.0
199.289505	96.0
199.528412	172.0
199.663376	132.0
199.767456	184.0
199.860306	176.0
200.10675	1140.0
200.147812	420.0
200.217804	148.0
200.443176	156.0
200.634842	40.0
200.68277	128.0
201.074875	124.0
201.120468	476.0
201.433472	116.0
201.648224	28.0
201.947922	124.0
202.078033	1048.0
202.101395	184.0
202.123917	768.0
202.154449	160.0
202.259171	196.0
202.290314	140.0
202.749161	128.0
202.805847	60.0
202.961777	192.0
202.995804	168.0
203.041183	172.0
203.085617	1772.0
203.120132	392.0
203.142731	368.0
203.287994	48.0
203.674118	136.0
203.875839	124.0
204.09288	1516.0
204.13501	220.0
204.1772	216.0
204.248306	104.0
204.310883	60.0
204.345032	196.0
204.424698	116.0
204.521469	48.0
204.663818	156.0
204.791962	180.0
204.834686	56.0
204.920151	96.0
205.062637	156.0
205.100586	3396.0
205.177719	172.0
205.780151	92.0
205.812927	120.0
206.059662	176.0
206.108093	1664.0
206.147141	160.0
206.272888	64.0
206.467316	80.0
206.616058	120.0
206.71907	60.0
206.885086	144.0
206.998138	124.0
207.075836	372.0
207.116287	2640.0
207.268875	144.0
207.28894	84.0
207.363449	52.0
207.41217	108.0
207.460907	140.0
207.555527	60.0
207.624344	44.0
207.987381	220.0
208.115906	1272.0
208.198318	56.0
208.245468	136.0
208.327576	36.0
208.453995	120.0
208.543091	168.0
208.632202	76.0
208.658081	148.0
208.71846	156.0
208.75296	68.0
208.784607	56.0
208.82486	76.0
208.948563	132.0
209.046387	180.0
209.094208	960.0
209.131851	2760.0
209.224854	80.0
209.322739	40.0
209.488007	148.0
209.509964	172.0
209.636734	76.0
209.677094	32.0
209.733429	80.0
210.043274	172.0
210.100327	852.0
210.131149	1664.0
210.216385	96.0
210.291412	52.0
210.76503	72.0
210.854614	60.0
211.071182	136.0
211.110916	1332.0
211.148331	872.0
211.195786	128.0
211.249985	60.0
211.389633	32.0
211.470673	104.0
211.548828	28.0
211.583557	68.0
211.829712	88.0
211.85289	196.0
211.942703	124.0
212.07666	144.0
212.115128	696.0
212.145126	996.0
212.470398	64.0
212.534225	104.0
212.595169	52.0
212.839005	136.0
212.963882	132.0
213.088806	168.0
213.128082	1160.0
213.160019	800.0
213.21666	56.0
213.271881	52.0
213.356186	144.0
213.37944	68.0
213.52774	72.0
213.690643	76.0
213.754669	104.0
213.856522	184.0
213.952591	120.0
214.088867	164.0
214.124359	476.0
214.159302	776.0
214.319565	92.0
214.62854	208.0
214.686859	140.0
214.745193	144.0
214.786026	116.0
214.838531	28.0
214.930832	164.0
215.084137	1084.0
215.138504	928.0
215.428238	60.0
215.550949	128.0
215.735077	80.0
216.033371	92.0
216.091553	596.0
216.140152	308.0
216.165924	184.0
216.674515	156.0
216.941208	64.0
217.099899	1996.0
217.149399	48.0
217.17131	152.0
217.43692	88.0
217.624802	148.0
217.689392	72.0
217.748138	100.0
217.830383	56.0
217.921448	180.0
217.986099	136.0
218.006668	72.0
218.106659	1520.0
218.150375	184.0
218.215363	40.0
218.315338	176.0
218.427109	112.0
218.594818	44.0
218.670044	128.0
218.850906	72.0
218.942184	80.0
219.083298	316.0
219.115936	1764.0
219.160172	44.0
219.180801	44.0
219.758728	160.0
219.90332	80.0
219.980072	132.0
220.08992	368.0
220.119385	1696.0
220.160187	64.0
220.299011	84.0
220.343323	108.0
220.786713	108.0
221.095993	620.0
221.132187	1272.0
221.186142	80.0
221.49411	116.0
221.64267	244.0
221.923828	180.0
221.974228	60.0
222.131638	1060.0
222.288666	132.0
222.371765	48.0
222.576614	228.0
222.62709	72.0
222.676102	168.0
222.897415	32.0
222.942001	80.0
222.989548	104.0
223.025208	140.0
223.106796	1224.0
223.143906	752.0
223.224411	36.0
223.327347	268.0
223.480225	88.0
223.666412	104.0
223.873154	64.0
224.111969	468.0
224.143539	556.0
224.230652	68.0
224.287277	120.0
224.582474	68.0
224.660034	124.0
225.124908	880.0
225.162216	2432.0
225.245132	120.0
225.340729	28.0
225.370605	76.0
225.490143	44.0
225.537964	56.0
225.586517	184.0
225.730759	132.0
225.823563	116.0
226.076324	176.0
226.120438	572.0
226.166031	484.0
226.303818	32.0
226.40564	40.0
226.906052	132.0
227.087357	196.0
227.140976	796.0
227.319977	52.0
227.557114	92.0
227.710251	52.0
227.858673	88.0
227.91153	92.0
228.091293	236.0
228.136551	532.0
228.173767	272.0
228.90419	116.0
229.098694	324.0
229.150085	308.0
229.184326	52.0
229.359116	92.0
229.609375	164.0
229.850708	136.0
230.10965	584.0
230.149048	144.0
230.188797	144.0
230.276382	172.0
230.324707	88.0
230.366989	40.0
230.877808	152.0
230.947372	120.0
231.004852	48.0
231.11525	2208.0
231.16272	156.0
231.510315	124.0
231.622375	116.0
231.655701	100.0
231.722351	100.0
232.013763	104.0
232.082626	120.0
232.121384	1160.0
232.175201	140.0
232.340836	32.0
232.395447	152.0
232.48233	152.0
233.094925	324.0
233.101013	360.0
233.131058	1552.0
233.324844	68.0
233.534668	88.0
233.863266	124.0
234.103302	392.0
234.133926	776.0
234.223846	144.0
234.426697	92.0
234.563858	72.0
234.716293	116.0
234.993866	272.0
235.110825	428.0
235.145828	1228.0
235.210541	80.0
235.357697	100.0
235.467026	68.0
235.818375	92.0
235.93454	72.0
236.01709	48.0
236.060837	92.0
236.116196	288.0
236.146347	716.0
236.182236	172.0
236.705582	224.0
236.791687	204.0
236.87709	60.0
236.910797	132.0
237.033356	100.0
237.082382	264.0
237.124451	1212.0
237.153381	432.0
237.284683	48.0
237.723328	140.0
238.018021	32.0
238.094788	140.0
238.127548	252.0
238.157898	364.0
238.798599	180.0
238.971863	112.0
239.14061	764.0
239.830078	112.0
240.096161	304.0
240.139557	552.0
240.179565	472.0
240.255615	36.0
240.37085	128.0
240.440765	200.0
240.561142	128.0
241.1026	164.0
241.157471	424.0
241.788254	124.0
241.940948	160.0
241.983261	56.0
242.112579	288.0
242.152679	220.0
242.161453	284.0
242.190262	936.0
242.277496	140.0
242.829254	68.0
242.981247	60.0
243.049515	60.0
243.11554	276.0
243.166885	248.0
243.188004	360.0
243.294708	76.0
243.555557	56.0
243.931549	56.0
244.062119	140.0
244.124588	584.0
244.16951	168.0
244.345169	80.0
244.612793	44.0
244.777817	180.0
245.097473	180.0
245.130295	1476.0
245.177444	156.0
245.301239	232.0
245.622421	152.0
245.685532	108.0
245.815857	48.0
245.971909	48.0
246.006256	80.0
246.091034	104.0
246.137756	812.0
246.243561	188.0
246.69664	180.0
246.824829	40.0
246.868607	108.0
246.893631	36.0
247.113922	456.0
247.146729	1320.0
247.334793	64.0
247.425583	48.0
247.469406	100.0
247.660431	220.0
247.876617	76.0
248.055252	136.0
248.113022	544.0
248.14682	520.0
248.202606	68.0
248.259064	128.0
248.347794	124.0
248.437851	84.0
248.500595	140.0
248.600998	52.0
248.757935	84.0
248.848984	184.0
248.886658	60.0
248.990295	36.0
249.130508	812.0
249.153503	460.0
249.288742	208.0
249.391098	180.0
249.527634	96.0
250.015198	52.0
250.046448	116.0
250.123932	548.0
250.163361	668.0
250.254425	172.0
250.292221	60.0
250.437088	48.0
250.875092	72.0
250.966522	116.0
251.06427	104.0
251.104126	116.0
251.146439	596.0
251.176086	340.0
251.673309	60.0
251.834366	56.0
251.929138	48.0
252.140549	348.0
252.170837	648.0
252.510742	92.0
252.6436	92.0
252.849274	36.0
252.931564	44.0
252.953735	140.0
253.110703	148.0
253.15654	724.0
253.219711	72.0
253.400269	104.0
253.812317	104.0
254.008957	176.0
254.103348	168.0
254.159836	308.0
254.370712	84.0
255.115021	880.0
255.156616	248.0
255.188843	284.0
255.352539	64.0
255.410522	140.0
256.115997	176.0
256.141907	184.0
256.162506	172.0
256.855957	96.0
257.072906	148.0
257.134216	324.0
257.178558	152.0
257.268951	48.0
257.666809	128.0
257.717926	76.0
257.839355	156.0
258.096771	216.0
258.134216	548.0
258.174377	152.0
258.424561	116.0
258.866302	204.0
258.891907	120.0
259.105408	152.0
259.141632	332.0
259.712402	96.0
259.782959	64.0
260.150421	496.0
260.656281	60.0
260.688416	152.0
260.726959	172.0
260.784821	100.0
261.128052	512.0
261.162415	804.0
261.244659	156.0
261.885223	132.0
261.975433	48.0
262.129028	432.0
262.158722	756.0
262.387939	76.0
262.707214	132.0
262.733032	140.0
263.094482	196.0
263.144104	680.0
263.172302	444.0
263.64682	92.0
263.669434	80.0
263.708221	80.0
263.853699	108.0
263.892487	68.0
264.025055	128.0
264.054169	36.0
264.141449	384.0
264.176483	568.0
264.361511	64.0
264.465607	76.0
264.915192	156.0
265.086914	128.0
265.115112	216.0
265.163666	164.0
265.210052	140.0
265.394867	132.0
265.839264	56.0
265.93988	156.0
266.125488	112.0
266.1586	224.0
266.190826	160.0
266.816956	120.0
267.106384	140.0
267.170929	128.0
267.199432	168.0
267.366669	116.0
268.105957	152.0
268.141785	248.0
268.170715	348.0
268.207001	192.0
268.461304	148.0
268.575439	68.0
269.127533	144.0
269.163086	128.0
269.17041	316.0
270.055084	32.0
270.134308	296.0
270.145538	144.0
270.185638	756.0
270.670349	48.0
270.807892	92.0
271.151917	196.0
271.186462	332.0
271.473206	56.0
271.8078	40.0
271.878021	172.0
272.140076	324.0
273.136597	360.0
273.175262	168.0
274.050323	216.0
274.129028	168.0
274.158081	444.0
274.986877	52.0
275.124725	224.0
275.175476	508.0
275.287292	108.0
275.821167	164.0
276.140472	584.0
276.17395	560.0
276.331818	140.0
276.672699	68.0
276.864777	60.0
277.166565	724.0
277.225861	100.0
277.394897	76.0
277.610413	108.0
277.855865	72.0
278.164429	416.0
278.185944	576.0
278.469971	128.0
279.133911	256.0
279.166779	776.0
279.35083	128.0
279.400757	76.0
279.540497	116.0
279.58374	60.0
279.999908	68.0
280.168182	288.0
280.266022	204.0
280.473022	96.0
280.666412	84.0
280.796448	92.0
281.12674	144.0
281.178833	492.0
281.306976	36.0
281.834656	40.0
282.186279	376.0
282.226227	152.0
282.312683	56.0
283.170776	1596.0
283.229736	100.0
283.316833	56.0
283.39389	40.0
283.651947	36.0
283.87323	168.0
283.936951	140.0
284.176941	364.0
284.197937	192.0
284.232178	52.0
284.416748	124.0
285.027985	200.0
285.147736	132.0
285.175842	236.0
286.157379	172.0
286.596008	132.0
286.720703	156.0
287.047699	212.0
287.153564	144.0
287.168243	108.0
287.176239	324.0
287.945404	64.0
288.147583	692.0
288.394745	56.0
288.428558	156.0
288.962891	68.0
289.159973	220.0
289.568817	148.0
289.782227	124.0
289.843231	76.0
290.090637	108.0
290.152374	156.0
290.184113	252.0
290.283905	64.0
290.562042	76.0
290.59256	108.0
290.796173	164.0
290.942139	64.0
291.180328	280.0
291.46521	40.0
292.131592	52.0
292.204529	868.0
292.499115	88.0
292.774902	80.0
293.151672	160.0
293.192078	864.0
293.787231	140.0
293.985138	136.0
294.138733	84.0
294.184967	988.0
294.292358	72.0
294.476746	60.0
294.531403	240.0
294.558746	40.0
294.760315	52.0
295.016663	96.0
295.098694	56.0
295.190521	3504.0
295.238892	248.0
295.365448	32.0
295.403076	76.0
295.471497	52.0
295.540649	136.0
295.642578	44.0
295.739197	156.0
296.165314	1036.0
296.200165	1400.0
296.374146	88.0
296.464508	60.0
296.512482	60.0
296.594727	60.0
297.071381	192.0
297.180847	124.0
297.202026	700.0
297.287537	84.0
297.599915	36.0
297.933075	80.0
298.080811	104.0
298.156403	200.0
298.314514	68.0
298.448608	244.0
300.091003	88.0
300.167053	148.0
300.246185	68.0
300.301361	68.0
300.34964	120.0
302.205139	176.0
302.56131	112.0
303.17569	328.0
303.593872	48.0
304.163544	368.0
304.190674	328.0
305.121704	136.0
305.183868	228.0
305.716492	80.0
306.082031	96.0
306.179535	104.0
306.743988	56.0
306.813721	212.0
307.164917	192.0
307.281036	216.0
307.399689	144.0
307.958282	60.0
308.154968	184.0
308.204254	176.0
309.186737	448.0
309.303345	172.0
309.626587	76.0
309.696655	52.0
309.801727	44.0
309.889313	180.0
309.927856	100.0
310.008453	88.0
310.217133	8332.0
310.464203	48.0
310.537842	160.0
310.695709	68.0
310.786926	60.0
310.822021	128.0
310.895721	124.0
310.965912	84.0
311.077789	96.0
311.158966	184.0
311.220154	1912.0
311.274841	188.0
311.397766	80.0
311.664734	140.0
311.752594	124.0
312.191895	112.0
312.222931	488.0
312.272919	76.0
312.659943	56.0
312.916901	112.0
313.198639	136.0
313.406494	48.0
313.667267	100.0
313.981079	72.0
314.104523	72.0
314.570343	48.0
315.121277	56.0
315.867218	88.0
316.001648	88.0
316.203064	100.0
316.507812	52.0
317.730621	56.0
318.177795	140.0
318.778076	44.0
319.168457	160.0
319.446503	180.0
320.129883	144.0
320.199829	928.0
320.307953	124.0
320.963715	72.0
320.988678	64.0
321.186768	540.0
321.210754	572.0
321.341827	64.0
321.381073	88.0
321.787964	180.0
322.030792	140.0
322.185272	384.0
322.388062	36.0
323.18985	268.0
323.847778	64.0
323.955231	88.0
324.019714	128.0
324.191711	124.0
324.306396	148.0
324.840668	80.0
325.292847	172.0
325.619568	88.0
326.226837	128.0
326.424591	176.0
327.183838	360.0
327.291809	176.0
327.317017	64.0
327.367432	32.0
328.084442	172.0
328.239471	88.0
328.585754	124.0
329.007996	104.0
330.544128	48.0
331.058167	124.0
331.706726	64.0
331.90976	172.0
333.881622	120.0
334.078064	108.0
336.355621	108.0
336.706146	76.0
337.038574	88.0
337.495483	128.0
337.609314	88.0
337.663696	120.0
337.993805	256.0
338.048584	172.0
338.102722	188.0
338.142975	180.0
338.211243	13576.0
338.288147	164.0
338.357605	120.0
338.423035	72.0
338.460938	56.0
338.50174	64.0
338.669128	68.0
338.699524	84.0
338.801849	60.0
338.996277	112.0
339.135773	64.0
339.213989	2004.0
339.388519	64.0
339.480194	40.0
339.531525	48.0
339.615875	60.0
339.641571	112.0
340.026825	116.0
340.125916	60.0
340.16629	176.0
340.214813	448.0
340.485748	112.0
340.746552	36.0
341.117737	52.0
341.220215	128.0
341.316254	72.0
341.34201	100.0
341.474396	84.0
341.683472	124.0
342.457123	120.0
343.33429	52.0
343.802826	32.0
344.116577	72.0
344.981079	80.0
345.720856	116.0
346.368774	40.0
348.364532	84.0
349.111603	88.0
351.331573	64.0
352.563751	56.0
353.771912	72.0
355.147156	116.0
356.506256	88.0
357.224396	136.0
360.591614	84.0
364.742065	48.0
365.753876	104.0
367.945862	68.0
368.851257	76.0
377.030487	44.0
377.730316	60.0
378.763855	88.0
393.125122	88.0
394.270386	80.0
395.611267	64.0
397.688385	56.0
398.379333	76.0
400.81427	48.0
401.827026	60.0
404.004395	56.0
404.132416	144.0
404.576691	72.0
408.268188	124.0
416.84259	84.0
420.516022	136.0
430.645355	112.0
430.723846	144.0
435.840393	52.0
436.750854	96.0
441.70636	52.0
447.708405	100.0
461.919128	76.0
465.914581	60.0
471.166321	40.0
472.082672	44.0
472.90036	52.0
473.757721	40.0
476.06958	136.0
476.438782	88.0
477.738647	84.0
479.301697	88.0
486.180481	64.0
488.35968	40.0
494.187286	76.0
498.590668	84.0
505.010956	92.0
506.295441	68.0
508.87384	180.0
509.336395	44.0
513.865295	76.0
520.532715	104.0
525.631042	128.0
532.511902	48.0
535.321899	44.0
538.277832	48.0
544.571655	112.0
549.244873	56.0
551.401978	128.0
552.341797	152.0
553.671082	40.0
554.406616	88.0
561.302917	56.0
562.194519	68.0
564.06488	84.0
569.143677	48.0
572.596191	100.0
575.295044	32.0
576.159424	96.0
592.837158	136.0
607.822876	40.0
610.146118	60.0
616.939697	88.0
627.175659	52.0
627.21051	64.0
627.773926	56.0
639.130066	52.0
647.712769	36.0
653.719055	48.0
655.659363	72.0
661.011353	128.0
663.141785	84.0
678.825073	100.0
683.619873	88.0
699.27887	112.0
699.973755	84.0
708.297363	104.0
713.333191	56.0
720.500977	96.0
721.361389	76.0
737.80658	112.0
740.479675	112.0
744.900391	220.0
751.717041	72.0
753.546265	188.0
754.95105	100.0
755.591064	188.0
760.127869	196.0
760.77002	60.0
766.269714	56.0
790.32312	104.0
794.379395	216.0
796.220459	32.0
796.978821	156.0
799.323608	168.0
805.655396	92.0
806.282593	112.0
806.836548	52.0
814.157471	232.0
814.378967	120.0
814.509644	224.0
818.507812	236.0
821.106506	120.0
825.589722	68.0
831.427551	136.0
836.574768	20.0
836.96344	196.0
838.657166	208.0
839.729614	64.0
840.964355	244.0
845.802368	64.0
847.812134	152.0
849.766296	192.0
853.320801	136.0
857.675354	260.0
863.455688	36.0
863.794922	68.0
864.10498	88.0
868.164307	48.0
870.805359	136.0
876.093567	208.0
876.889038	156.0
878.55188	192.0
880.706543	200.0
882.976135	216.0
883.277832	168.0
889.357361	132.0
890.818115	180.0
894.40979	80.0
896.673157	148.0
901.238342	128.0
904.198486	164.0
904.282227	164.0
907.325317	132.0
909.160767	132.0
911.016174	224.0
912.795227	68.0
913.390625	176.0
914.106628	60.0
915.720032	176.0
916.304382	144.0
918.305725	192.0
918.522888	164.0
919.814209	32.0
926.902466	172.0
928.175415	108.0
929.552429	180.0
931.477051	180.0
931.701843	112.0
933.987549	104.0
934.364746	92.0
934.486389	36.0
936.885193	112.0
938.238159	148.0
938.713745	116.0
945.191284	172.0
945.390808	88.0
945.947754	48.0
948.036377	64.0
949.262451	132.0
949.452576	120.0
950.139526	204.0
950.483154	148.0
952.662781	232.0
956.235352	156.0
956.813965	140.0
957.509766	224.0
957.977905	180.0
959.124084	28.0
961.628357	144.0
964.828125	148.0
966.646606	132.0
968.980957	72.0
970.232849	60.0
974.111511	108.0
976.038208	212.0
976.355347	136.0
978.744995	220.0
979.616943	180.0
984.375854	176.0
987.694519	152.0
989.703491	208.0
990.64917	124.0
991.620422	200.0
992.021606	184.0
992.479309	204.0
995.861877	208.0
997.04303	260.0
998.696594	168.0
999.527039	252.0
1001.050415	132.0
1003.217896	136.0
1003.299866	168.0
1003.987122	164.0
1005.785339	124.0
1006.403992	84.0
1006.467163	164.0
1007.768311	64.0
1007.957886	80.0
1008.495056	60.0
1009.740662	164.0
1009.797546	180.0
1009.955688	84.0
1012.120117	132.0
1012.607727	152.0
1014.2995	36.0
1015.244202	208.0
1017.941284	68.0
1019.376953	160.0
1020.991638	188.0
1021.837708	116.0
1022.015869	156.0
1023.498962	128.0
1025.951904	188.0
1026.736206	160.0
1030.444946	136.0
1030.572754	128.0
1032.752686	200.0
1034.480469	184.0
1035.024658	136.0
1035.709961	116.0
1038.38269	56.0
1038.934326	48.0
1038.998535	144.0
1039.877563	212.0
1040.185669	92.0
1041.155273	44.0
1042.228027	160.0
1042.59436	108.0
1043.661499	140.0
1043.770752	168.0
1044.12439	136.0
1047.271729	200.0
1049.024414	144.0
1050.133545	160.0
1050.959351	184.0
1051.114136	48.0
1054.123413	168.0
1054.226807	124.0
1054.407715	96.0
1054.924805	152.0
1055.694214	168.0
1055.862427	148.0
1056.496338	108.0
1056.735718	48.0
1058.237305	136.0
1059.454834	100.0
1060.556519	56.0
1061.152954	160.0
1061.217773	128.0
1061.353882	168.0
1062.625244	144.0
1065.358398	120.0
1066.060181	148.0
1068.648193	204.0
1070.138672	160.0
1071.493408	184.0
1072.223267	168.0
1073.331421	132.0
1073.579224	208.0
1074.16626	152.0
1075.869507	164.0
1075.941406	228.0
1076.176392	32.0
1078.051147	116.0
1078.260254	196.0
1082.447144	60.0
1083.907959	176.0
1084.111084	68.0
1086.825928	112.0
1088.302734	208.0
1088.788696	132.0
1090.772949	88.0
1091.160889	108.0
1091.463257	136.0
1091.969727	268.0
1093.956909	212.0
1094.964355	120.0
1096.222656	240.0
1096.954224	168.0
1098.035645	140.0
1098.404907	152.0
1098.451172	188.0
1101.045166	120.0
1101.104614	164.0
1104.336548	204.0
1104.726807	228.0
1104.812866	196.0
1105.86499	180.0
1106.189331	132.0
1106.87793	160.0
1107.7323	160.0
1108.240479	220.0
1110.436646	112.0
1110.582642	188.0
1110.682129	164.0
1112.374146	76.0
1113.084595	216.0
1113.32373	56.0
1113.589355	256.0
1113.694946	196.0
1114.426392	152.0
1114.599121	172.0
1115.077637	136.0
1115.649292	216.0
1117.744385	188.0
1118.383301	136.0
1119.954712	100.0
1121.100708	60.0
1121.960449	136.0
1122.193848	160.0
1123.407715	144.0
1125.356445	108.0
1125.503418	200.0
1125.944092	180.0
1126.926147	216.0
1127.69458	88.0
1127.814941	188.0
1128.60376	48.0
1128.924805	144.0
1130.021729	60.0
1130.082031	192.0
1130.717651	36.0
1132.512085	80.0
1134.435303	120.0
1135.105713	232.0
1135.280029	196.0
1135.588623	60.0
1137.158569	132.0
1137.917114	180.0
1138.125366	144.0
1139.018555	184.0
1140.846436	148.0
1141.00769	160.0
1141.236328	172.0
1141.32373	156.0
1143.173584	192.0
1143.786133	156.0
1143.988037	168.0
1144.04187	224.0
1144.620972	164.0
1145.105835	128.0
1145.651367	152.0
1146.0354	152.0
1146.102783	160.0
1147.235107	112.0
1148.044189	168.0
1148.1521	144.0
1148.428711	236.0
1151.317383	160.0
1151.600952	188.0
1151.844238	72.0
1152.033325	168.0
1152.431885	108.0
1154.554565	196.0
1154.642456	144.0
1154.737183	188.0
1155.359497	156.0
1156.036133	168.0
1156.679077	176.0
1157.559204	196.0
1159.096924	124.0
1162.168579	140.0
1163.288452	188.0
1163.519287	152.0
1163.607544	152.0
1165.80835	156.0
1166.991089	196.0
1167.161133	144.0
1170.931152	260.0
1171.264893	140.0
1171.428467	128.0
1171.632812	196.0
1173.207153	88.0
1174.366333	172.0
1174.454956	248.0
1175.40332	56.0
1176.078979	72.0
1176.235962	156.0
1176.652344	172.0
1176.775269	148.0
1179.439575	164.0
1180.465088	140.0
1180.581421	164.0
1182.052246	136.0
1182.647583	196.0
1184.482666	52.0
1184.660767	152.0
1185.414551	152.0
1185.791382	176.0
1185.942261	216.0
1186.127319	140.0
1186.257568	176.0
1186.737427	236.0
1187.279175	192.0
1187.635864	248.0
1188.287598	160.0
1188.486572	144.0
1188.548218	156.0
1189.358154	128.0
1189.77002	264.0
1191.89917	164.0
1193.52832	156.0
1193.603882	148.0
1194.112793	156.0
1194.298584	184.0
1195.984375	152.0
1196.514282	180.0
1196.734741	184.0
1196.858643	156.0
1197.464722	160.0
1197.623047	160.0
1198.346436	204.0
1198.670288	200.0
1200.607422	128.0
1203.685303	228.0
1203.871704	156.0
1204.935425	160.0
1205.366577	256.0
1205.737061	76.0
1206.200073	188.0
1206.303833	128.0
1208.399292	224.0
1208.682983	92.0
1209.063599	40.0
1209.319702	36.0
1210.378906	132.0
1210.912109	120.0
1211.905396	276.0
1212.055176	128.0
1212.893799	196.0
1213.649536	104.0
1213.857544	160.0
1214.134888	168.0
1214.301392	112.0
1214.356812	232.0
1214.897949	92.0
1215.109863	220.0
1218.049561	140.0
1218.237061	124.0
1218.619263	128.0
1218.716431	156.0
1218.931885	224.0
1219.870239	152.0
1220.064819	60.0
1220.182983	144.0
1220.746216	132.0
1221.34436	248.0
1221.490479	144.0
1221.615723	192.0
1221.713013	180.0
1222.019165	208.0
1222.589844	176.0
1223.724365	152.0
1224.650635	128.0
1225.34729	224.0
1225.653809	180.0
1227.117554	140.0
1229.838257	92.0
1230.08252	212.0
1230.859009	176.0
1231.723511	172.0
1233.316772	144.0
1234.715088	172.0
1234.875977	160.0
1235.253662	184.0
1236.086182	156.0
1236.660156	196.0
1237.157104	180.0
1239.531494	144.0
1239.608521	264.0
1239.952026	132.0
1240.218262	184.0
1242.12561	72.0
1242.806152	104.0
1242.953491	164.0
1243.38855	176.0
1243.451782	172.0
1243.915039	216.0
1244.013306	132.0
1245.530029	216.0
1246.063965	176.0
1246.246704	164.0
1246.675293	200.0
1246.865112	272.0
1247.097046	192.0
1247.293823	172.0
1247.40625	200.0
1247.814575	212.0
1248.700073	204.0
1249.910034	164.0
1249.980469	144.0
1250.261963	184.0
1250.656128	164.0
1250.719482	184.0
1250.923584	136.0
1251.222778	152.0
1252.007935	172.0
1253.423828	160.0
1254.001709	152.0
1254.61499	164.0
1256.251099	72.0
1257.655396	180.0
1259.392334	180.0
1259.505371	144.0
1259.802124	188.0
1259.978638	116.0
1261.505127	176.0
1261.943481	172.0
1263.733032	140.0
1264.242432	28.0
1264.596313	104.0
1264.929077	172.0
1265.254639	188.0
1265.495361	160.0
1266.08313	172.0
1266.161011	60.0
1266.224731	148.0
1266.345215	200.0
1269.293335	132.0
1270.754517	144.0
1271.293823	108.0
1272.017822	220.0
1272.436646	68.0
1272.575439	144.0
1274.425415	112.0
1275.171509	72.0
1276.067261	152.0
1276.216553	160.0
1279.703003	164.0
1280.58606	192.0
1280.899414	176.0
1281.127441	152.0
1281.590454	156.0
1282.630981	176.0
1283.130005	188.0
1283.450928	140.0
1284.142578	156.0
1284.577759	136.0
1284.813599	132.0
1285.041504	40.0
1287.197144	56.0
1287.411377	180.0
1288.468506	40.0
1290.348145	196.0
1290.562622	192.0
1290.920166	148.0
1291.849976	48.0
1292.13623	120.0
1292.229248	192.0
1292.34375	160.0
1293.624756	156.0
1294.498291	52.0
1295.006714	136.0
1295.472412	60.0
1295.601318	92.0
1295.715942	156.0
1295.916626	208.0
1296.174561	180.0
1296.50415	136.0
1297.271118	188.0
1297.407349	228.0
1297.68689	132.0
1298.109985	164.0
1298.425537	136.0
1298.518799	220.0
1299.020874	184.0
1299.487183	164.0
1299.903442	116.0
1300.147339	124.0
1300.664185	124.0
1301.128418	216.0
1301.78418	160.0
1302.7323	176.0
1303.450806	216.0
1303.881958	180.0
1304.744507	144.0
1305.226318	60.0
1305.42041	184.0
1306.736816	124.0
1307.175659	232.0
1307.42041	168.0
1307.729858	72.0
1307.80896	80.0
1307.902588	180.0
1308.111328	212.0
1308.269775	164.0
1308.70166	152.0
1309.537109	128.0
1310.019653	140.0
1310.877075	32.0
1311.035645	224.0
1311.331177	144.0
1311.381592	120.0
1311.576172	60.0
1311.79248	156.0
1311.8573	152.0
1312.304321	108.0
1313.155273	172.0
1314.886841	172.0
1314.995117	140.0
1315.132202	176.0
1315.796387	220.0
1316.345093	172.0
1316.489502	140.0
1316.987915	80.0
1317.060181	56.0
1318.013794	156.0
1318.440186	100.0
1318.62085	176.0
1319.148438	260.0
1319.604004	216.0
1319.748535	160.0
1320.14624	224.0
1320.240234	140.0
1321.527832	264.0
1321.716064	148.0
1321.933105	180.0
1322.664062	188.0
1322.779907	180.0
1324.372925	60.0
1326.198853	252.0
1326.554077	200.0
1326.647949	172.0
1327.141357	160.0
1327.293579	244.0
1327.910034	136.0
1328.585938	176.0
1329.172363	140.0
1329.651367	212.0
1330.326416	152.0
1331.480835	52.0
1332.069214	200.0
1332.635864	152.0
1332.832031	144.0
1335.071045	40.0
1336.402222	192.0
1337.10083	140.0
1337.515747	180.0
1337.56665	144.0
1338.265625	192.0
1339.255981	156.0
1340.239502	172.0
1340.596558	156.0
1341.02478	168.0
1341.172363	228.0
1341.420166	164.0
1341.704468	112.0
1341.901367	184.0
1341.988892	224.0
1342.171143	164.0
1343.345337	128.0
1344.629517	156.0
1345.009155	116.0
1345.761108	180.0
1345.863281	160.0
1345.936279	176.0
1347.017212	44.0
1347.501587	156.0
1347.791626	148.0
1347.893921	124.0
1349.377808	168.0
1349.787231	172.0
1349.984619	148.0
1350.598999	120.0
1350.730713	120.0
1351.842773	136.0
1352.179443	88.0
1352.6698	168.0
1352.830933	156.0
1353.885254	152.0
1354.639771	136.0
1355.027954	216.0
1355.665527	180.0
1355.790039	124.0
1355.951294	180.0
1356.14917	200.0
1356.449707	144.0
1356.830933	164.0
1357.219604	172.0
1358.137329	144.0
1358.344849	212.0
1358.598389	160.0
1358.891846	212.0
1359.053345	144.0
1359.22937	236.0
1359.596313	208.0
1359.845825	120.0
1361.535034	172.0
1363.329834	136.0
1363.738647	184.0
1364.098877	144.0
1364.334106	212.0
1364.444336	136.0
1364.70166	76.0
1364.767822	156.0
1364.892822	124.0
1365.929932	116.0
1366.584595	180.0
1367.828369	160.0
1367.960938	164.0
1368.019775	196.0
1368.255371	36.0
1368.623535	180.0
1368.682373	180.0
1368.895996	240.0
1369.330444	124.0
1369.74292	172.0
1369.890259	176.0
1370.516479	212.0
1371.010254	148.0
1371.260864	196.0
1371.585205	188.0
1371.806274	172.0
1371.9021	164.0
1372.838501	168.0
1373.118774	212.0
1373.192505	80.0
1373.487549	196.0
1373.553955	108.0
1374.1073	216.0
1374.240112	148.0
1374.419678	164.0
1374.645874	132.0
1375.155151	112.0
1375.494629	164.0
1376.06311	56.0
1376.491455	148.0
1377.141357	264.0
1378.718872	92.0
1379.047607	164.0
1379.202881	144.0
1379.29895	80.0
1379.350708	144.0
1379.68335	148.0
1379.757202	132.0
1379.845947	40.0
1380.282227	124.0
1380.807251	40.0
1381.214111	152.0
1381.310303	176.0
1381.887329	124.0
1382.118164	212.0
1382.434937	220.0
1382.679077	144.0
1383.249023	144.0
1384.167114	144.0
1386.152344	152.0
1386.31543	148.0
1386.982422	120.0
1387.464233	196.0
1387.794556	268.0
1388.027832	164.0
1388.381592	164.0
1388.606201	160.0
1390.112305	180.0
1391.143921	140.0
1391.210815	160.0
1391.626587	208.0
1391.804688	192.0
1391.961792	240.0
1392.049805	184.0
1392.926147	204.0
1393.007324	236.0
1393.840088	172.0
1393.996094	120.0
1394.419678	112.0
1394.486572	172.0
1395.476685	108.0
1395.638916	192.0
1396.085083	172.0
1396.189209	132.0
1396.694946	64.0
1397.401611	160.0
1397.989502	192.0
1399.046509	228.0
1399.418701	236.0
1399.776123	280.0
1400.208008	148.0
1400.431519	160.0
1400.83374	132.0
1400.982788	128.0
1401.742676	160.0
1402.428345	176.0
1403.583984	44.0
1404.001587	188.0
1404.135742	148.0
1404.232788	124.0
1404.486328	76.0
1404.642944	128.0
1405.113037	144.0
1405.896484	56.0
1406.053223	104.0
1406.635376	156.0
1406.971313	168.0
1407.172241	164.0
1407.531372	128.0
1407.718018	40.0
1407.800171	156.0
1408.352783	164.0
1409.159668	200.0
1409.241821	144.0
1409.40625	200.0
1409.869507	212.0
1410.101196	180.0
1410.474976	164.0
1410.744019	112.0
1411.373047	176.0
1411.626343	140.0
1412.434082	156.0
1412.96521	92.0
1413.025024	132.0
1413.451538	172.0
1413.878174	84.0
1414.695068	196.0
1415.487671	184.0
1415.734741	132.0
1416.341431	204.0
1416.745972	160.0
1417.008179	176.0
1417.519165	296.0
1418.162231	128.0
1418.731934	76.0
1418.964355	188.0
1419.526733	156.0
1419.654175	104.0
1419.984131	216.0
1420.531738	148.0
1421.31958	36.0
1421.687256	220.0
1421.747314	116.0
1421.912354	164.0
1423.466431	180.0
1423.759277	176.0
1424.09729	164.0
1424.164795	40.0
1424.390137	68.0
1424.465332	164.0
1424.585449	212.0
1424.810913	128.0
1424.953491	148.0
1425.201538	132.0
1425.259766	172.0
1425.765137	176.0
1426.419067	156.0
1427.752319	260.0
1428.283936	168.0
1428.457031	132.0
1428.524658	140.0
1428.930542	152.0
1429.59314	148.0
1430.511353	72.0
1432.81958	200.0
1433.192505	140.0
1433.856934	176.0
1434.345703	152.0
1434.865845	112.0
1435.227783	164.0
1435.853638	292.0
1436.072388	160.0
1436.434448	200.0
1436.827515	180.0
1437.520874	192.0
1437.664307	40.0
1438.019043	164.0
1438.17749	104.0
1438.351074	48.0
1438.592651	180.0
1439.385498	160.0
1439.717773	184.0
1440.752563	208.0
1441.568604	152.0
1442.044678	152.0
1442.362183	216.0
1442.558716	152.0
1443.904663	192.0
1445.205811	188.0
1445.266357	200.0
1445.886841	36.0
1446.02124	220.0
1446.409058	240.0
1446.795166	140.0
1446.911987	212.0
1447.057129	196.0
1447.711426	52.0
1448.491455	192.0
1448.961182	160.0
1449.12793	196.0
1449.665894	180.0
1449.953857	152.0
1450.135742	160.0
1450.704224	120.0
1451.265259	208.0
1451.454834	176.0
1452.182861	240.0
1452.607666	168.0
1452.729126	136.0
1452.895996	144.0
1453.67749	172.0
1453.806519	168.0
1454.284668	168.0
1454.778076	188.0
1455.05896	108.0
1455.49939	144.0
1455.863892	152.0
1455.962524	228.0
1456.173218	168.0
1456.600586	160.0
1456.813232	164.0
1457.816284	88.0
1457.930176	68.0
1457.983398	144.0
1458.218994	156.0
1458.371094	96.0
1458.933594	32.0
1459.146484	188.0
1460.411987	204.0
1460.58374	124.0
1460.872803	144.0
1460.968506	160.0
1461.260864	36.0
1462.067383	80.0
1462.661133	152.0
1462.714355	144.0
1462.950317	144.0
1463.254883	192.0
1463.726929	108.0
1464.572388	160.0
1464.762817	176.0
1464.983643	252.0
1465.113159	156.0
1465.357056	112.0
1465.425537	104.0
1465.599854	184.0
1467.087036	60.0
1467.16333	128.0
1467.277588	184.0
1467.948608	188.0
1468.52063	132.0
1468.726562	80.0
1468.963013	56.0
1469.191895	92.0
1469.619141	188.0
1469.741211	164.0
1470.069336	148.0
1470.176147	132.0
1470.725708	192.0
1470.802002	128.0
1471.11499	188.0
1471.596069	44.0
1472.092407	196.0
1472.405518	140.0
1472.581177	200.0
1473.069946	164.0
1473.199829	200.0
1474.32312	152.0
1474.50647	156.0
1475.209717	148.0
1475.301392	120.0
1475.683716	180.0
1477.182739	164.0
1477.328003	132.0
1477.542236	180.0
1477.871216	176.0
1478.223267	152.0
1478.582886	160.0
1479.317749	136.0
1479.653198	136.0
1480.94104	188.0
1481.339478	132.0
1482.710938	140.0
1482.810547	124.0
1482.887207	172.0
1482.948608	64.0
1483.032837	56.0
1483.176392	176.0
1483.301147	148.0
1483.4646	164.0
1483.991089	76.0
1484.474243	140.0
1484.796265	172.0
1484.903687	164.0
1485.087769	52.0
1485.647705	120.0
1485.946899	212.0
1486.092773	120.0
1487.435791	132.0
1487.635376	48.0
1488.011597	80.0
1488.103638	140.0
1488.410767	216.0
1489.263306	120.0
1489.424561	144.0
1489.693481	64.0
1489.96228	40.0
1490.308105	200.0
1491.161133	96.0
1491.460815	112.0
1492.460327	156.0
1492.5448	176.0
1492.706299	176.0
1492.950073	200.0
1493.183105	128.0
1494.106201	80.0
1494.252441	152.0
1494.460083	196.0
1494.521729	212.0
1495.052612	140.0
1495.451782	148.0
1495.547607	152.0
1495.876221	100.0
1496.130249	168.0
1496.499878	144.0
1496.569092	180.0
1497.254517	128.0
1497.513428	352.0
1498.186523	180.0
1498.417603	240.0
1498.594849	172.0
1498.679565	324.0
1499.465698	180.0
1499.719971	156.0
1500.683594	180.0
1501.662964	184.0
1501.794189	196.0
1502.673584	140.0
1502.959106	124.0
1503.849854	176.0
1504.070435	172.0
1504.410034	132.0
1504.842407	148.0
1505.120361	128.0
1505.213013	100.0
END IONS

BEGIN IONS
PEPMASS=467.0
CHARGE=1
MSLEVEL=2
SOURCE_INSTRUMENT=LC-ESI-qTof
FILENAME=p4-F02_GF2_01_18386.mzXML
SEQ=*..*
IONMODE=Positive
ORGANISM=GNPS-NIH-SMALLMOLECULEPHARMACOLOGICALLYACTIVE
NAME=MLS002207187-01!TEMEPHOS3383-96-8 M+H
PI=Dorrestein
DATACOLLECTOR=VP/LMS
SMILES=COP(=S)(OC)Oc1ccc(Sc2ccc(OP(=S)(OC)OC)cc2)cc1
INCHI=N/A
INCHIAUX=N/A
PUBMED=N/A
SUBMITUSER=vphelan
LIBRARYQUALITY=1
SPECTRUMID=CCMSLIB00000085758
USI=mzspec:GNPS:GNPS-NIH-SMALLMOLECULEPHARMACOLOGICALLYACTIVE:accession:CCMSLIB00000085758
SCANS=2783
45.436275	188.0
45.479218	200.0
45.702309	160.0
45.729225	72.0
46.050121	236.0
46.105518	128.0
46.231289	124.0
46.429089	112.0
46.698006	64.0
46.714329	140.0
46.740181	184.0
47.182106	128.0
47.202614	160.0
47.290173	200.0
47.593147	116.0
47.64809	116.0
47.731934	88.0
47.866791	248.0
47.948071	156.0
48.001701	200.0
48.044598	208.0
48.121887	192.0
48.331985	184.0
48.585537	204.0
49.400532	180.0
49.469105	184.0
49.544273	184.0
49.558739	104.0
49.918091	188.0
49.954659	172.0
50.225124	236.0
50.308384	52.0
50.36628	132.0
50.421387	116.0
50.717205	220.0
51.225925	144.0
51.272945	176.0
51.790169	168.0
51.944981	136.0
51.973675	252.0
52.079914	188.0
52.212147	72.0
52.357506	176.0
52.396397	180.0
52.495857	216.0
52.567986	164.0
52.673386	180.0
52.716728	120.0
52.738407	136.0
52.761539	152.0
52.84687	176.0
52.865685	152.0
52.89463	112.0
52.962688	212.0
53.145359	136.0
53.283291	188.0
53.335609	156.0
53.736553	96.0
53.995083	192.0
54.059029	200.0
54.218658	236.0
54.352108	228.0
54.587139	148.0
54.660694	76.0
55.225193	188.0
55.701565	156.0
55.948429	116.0
55.984165	148.0
56.382263	152.0
56.448277	176.0
56.669815	148.0
56.725269	144.0
56.861767	44.0
56.950352	228.0
57.007442	176.0
57.023975	172.0
57.278267	136.0
57.560303	152.0
57.623741	216.0
57.770393	48.0
57.800652	208.0
58.339092	168.0
58.355816	156.0
58.404678	124.0
58.59325	136.0
58.629822	184.0
58.829639	200.0
59.152199	72.0
59.302311	72.0
59.512482	88.0
59.578526	88.0
59.605976	120.0
59.752254	128.0
59.787647	160.0
59.824589	200.0
59.912373	204.0
60.009468	56.0
60.126709	180.0
60.355343	200.0
60.425171	164.0
60.458988	224.0
60.674297	112.0
60.758049	172.0
60.858932	168.0
60.987877	208.0
61.053181	144.0
61.470684	212.0
61.565914	156.0
61.704987	196.0
61.894314	124.0
61.966366	172.0
62.168644	144.0
62.248707	128.0
62.276978	184.0
62.742779	76.0
62.758545	184.0
62.777466	180.0
62.935268	176.0
63.148613	224.0
63.175503	96.0
63.297375	140.0
63.35915	212.0
63.444729	64.0
63.536716	268.0
64.056564	176.0
64.417091	104.0
64.552948	176.0
64.833107	112.0
64.850731	172.0
65.192589	124.0
65.274574	44.0
65.379143	224.0
65.880608	116.0
65.895149	128.0
65.980812	176.0
66.013145	188.0
66.121544	120.0
66.275383	116.0
66.871391	192.0
67.004921	168.0
67.029366	248.0
67.140221	80.0
67.506035	48.0
68.073044	188.0
68.317947	220.0
68.433159	188.0
68.653969	32.0
68.668808	120.0
68.772758	112.0
68.800819	112.0
68.903221	212.0
69.096657	156.0
69.235703	84.0
69.298653	172.0
69.338425	224.0
69.65036	180.0
69.750061	144.0
69.834862	120.0
69.972984	156.0
70.061256	88.0
70.076248	168.0
70.677353	168.0
70.75769	188.0
71.120697	104.0
71.133224	272.0
71.207108	144.0
71.254143	276.0
71.344894	132.0
71.393654	168.0
71.700066	216.0
71.838333	176.0
71.907516	136.0
72.345322	112.0
72.660545	144.0
72.740311	128.0
72.852386	148.0
73.024071	156.0
73.170418	92.0
73.495972	160.0
73.543755	48.0
73.856445	168.0
73.991638	172.0
74.013901	140.0
74.087547	112.0
74.262398	160.0
74.56974	236.0
74.664299	80.0
74.690102	132.0
74.764084	272.0
74.975914	164.0
75.12075	132.0
75.184593	140.0
75.372826	152.0
75.488647	136.0
75.58033	84.0
75.614944	120.0
75.673798	136.0
75.971901	84.0
76.289703	116.0
76.644768	184.0
76.66568	164.0
76.819115	44.0
76.995407	184.0
77.427399	128.0
77.639458	176.0
77.820198	196.0
78.078522	212.0
78.148888	108.0
78.203438	200.0
78.294991	92.0
78.317894	100.0
78.337265	132.0
78.436813	204.0
78.492371	140.0
78.585854	76.0
78.698822	192.0
78.898468	148.0
79.009888	104.0
79.119621	184.0
79.220566	212.0
79.383629	132.0
80.048256	104.0
80.256744	160.0
80.271004	108.0
80.683464	188.0
80.830132	128.0
81.209946	252.0
81.270935	132.0
81.491791	140.0
81.763329	168.0
82.251785	200.0
82.408905	192.0
82.835869	156.0
83.000801	152.0
83.46566	216.0
83.837021	160.0
83.864365	212.0
83.94458	184.0
84.075935	152.0
84.437675	156.0
84.492554	148.0
84.802025	168.0
85.590164	124.0
85.61042	192.0
85.960678	184.0
86.036354	96.0
86.134232	200.0
86.39119	224.0
86.430038	184.0
86.442993	172.0
86.496666	156.0
86.591103	148.0
86.693001	128.0
86.824959	156.0
87.186653	136.0
87.236839	152.0
87.665352	180.0
87.761871	164.0
87.814087	96.0
87.959625	172.0
88.292213	144.0
88.580467	108.0
88.756638	148.0
88.81665	168.0
89.093796	152.0
89.619415	160.0
89.932472	200.0
89.953232	168.0
90.009872	124.0
90.106201	36.0
90.376579	48.0
90.46743	120.0
90.613258	180.0
90.666313	128.0
90.829376	188.0
91.26239	144.0
91.40181	176.0
91.528778	196.0
92.209839	64.0
92.408722	68.0
92.816704	180.0
92.947144	136.0
92.970177	152.0
93.007706	312.0
93.07	168.0
93.181396	200.0
93.793373	152.0
93.912926	108.0
93.93029	212.0
93.947647	124.0
94.003601	156.0
94.420898	128.0
94.511818	176.0
94.556328	200.0
94.593102	96.0
94.618271	228.0
94.813911	176.0
94.846863	160.0
94.96788	132.0
95.003944	192.0
95.042747	176.0
95.06797	144.0
95.083672	400.0
95.467934	168.0
95.904411	64.0
95.92617	176.0
95.962769	124.0
96.002884	212.0
96.029076	164.0
96.042732	128.0
96.109062	208.0
96.914658	124.0
97.0401	220.0
97.112663	184.0
97.161705	168.0
97.479797	140.0
97.713928	160.0
97.739365	52.0
97.948051	144.0
98.084023	176.0
98.707909	76.0
98.929512	100.0
99.097855	136.0
99.395287	120.0
99.431007	116.0
99.832314	232.0
100.162712	136.0
100.342072	160.0
100.543541	184.0
100.905098	88.0
101.023094	172.0
101.152962	152.0
101.195213	176.0
101.21524	208.0
101.349442	188.0
101.891182	164.0
101.96553	184.0
102.027847	172.0
102.089592	2116.0
102.172646	108.0
102.268311	156.0
102.307487	152.0
102.436371	160.0
102.54921	52.0
102.956764	156.0
103.098183	236.0
103.16893	128.0
103.243744	188.0
103.363098	212.0
103.610123	92.0
103.790512	152.0
103.851349	112.0
103.944672	136.0
104.01368	112.0
104.31839	208.0
104.662231	176.0
104.929146	96.0
105.010719	68.0
105.06987	148.0
105.233154	148.0
105.310753	244.0
105.377602	168.0
105.531815	116.0
105.856819	224.0
105.901871	168.0
106.016609	124.0
106.04335	160.0
107.047882	108.0
107.204445	152.0
107.354942	52.0
107.466331	212.0
107.534431	184.0
107.571587	160.0
107.637657	140.0
107.730598	172.0
107.991539	172.0
108.004906	132.0
108.055504	176.0
108.336746	108.0
108.846977	108.0
109.004295	2192.0
109.079674	140.0
109.099945	224.0
109.191956	60.0
109.252281	108.0
109.362572	200.0
109.470833	40.0
109.877296	132.0
110.012184	312.0
110.038002	172.0
110.075584	204.0
110.111595	148.0
110.46434	204.0
110.533386	48.0
110.585701	120.0
110.64222	176.0
110.67572	156.0
110.778351	148.0
110.895691	164.0
110.962776	148.0
111.025681	176.0
111.130569	120.0
111.227104	160.0
111.250198	44.0
111.376198	212.0
111.617889	188.0
111.77565	132.0
112.199013	152.0
112.245399	100.0
113.014282	124.0
113.091927	192.0
113.173035	208.0
113.202682	232.0
113.722107	212.0
113.795021	92.0
113.866486	120.0
114.107811	156.0
114.227829	128.0
114.858368	172.0
115.052559	148.0
115.184959	204.0
115.749596	188.0
115.775291	176.0
115.863113	184.0
115.916679	144.0
116.058159	160.0
116.073166	112.0
116.521774	176.0
116.594833	204.0
116.83136	88.0
116.855026	228.0
117.419418	172.0
117.531601	144.0
117.870613	232.0
118.114922	168.0
118.177666	104.0
118.339996	68.0
118.357323	48.0
118.467781	180.0
118.524109	176.0
118.684517	212.0
118.986107	152.0
119.009995	152.0
119.085999	208.0
119.309822	140.0
119.391861	216.0
119.551262	64.0
119.710182	172.0
119.906258	64.0
119.954208	116.0
120.04142	36.0
120.311981	84.0
120.44519	144.0
120.552254	240.0
120.569733	164.0
120.834328	136.0
121.007744	272.0
121.086067	76.0
121.506943	356.0
121.68911	160.0
121.794525	64.0
122.017654	164.0
122.09124	140.0
122.106636	44.0
122.163826	160.0
122.370705	212.0
122.445137	96.0
122.988136	156.0
123.022392	176.0
123.116096	508.0
123.332558	148.0
123.367928	180.0
123.403305	128.0
123.502823	176.0
123.905716	116.0
123.945602	108.0
123.987709	204.0
124.00322	132.0
124.032455	192.0
124.105194	164.0
124.295959	108.0
124.45134	164.0
124.566826	232.0
124.675697	120.0
124.746826	132.0
124.795738	156.0
124.86245	128.0
124.887917	240.0
124.926956	140.0
124.945786	424.0
124.981773	32800.0
125.035988	196.0
125.057968	76.0
125.100433	84.0
125.147293	48.0
125.174019	60.0
125.231918	36.0
125.25045	300.0
125.276474	88.0
125.292068	60.0
125.316574	44.0
125.346786	76.0
125.45253	28.0
125.481506	92.0
125.541718	44.0
125.584091	112.0
125.615318	88.0
125.673325	188.0
125.830093	84.0
125.92112	56.0
125.954628	112.0
125.983627	852.0
126.028351	224.0
126.106567	216.0
126.334656	76.0
126.45459	120.0
126.599266	160.0
126.625648	80.0
126.720215	148.0
126.916977	60.0
126.956078	240.0
126.977921	1848.0
127.014435	1436.0
127.100113	236.0
127.125595	48.0
127.145798	72.0
127.217621	72.0
127.258034	44.0
127.350113	116.0
127.391716	92.0
127.493904	84.0
127.532112	136.0
127.550095	172.0
127.595055	148.0
127.966286	84.0
127.989037	196.0
128.063095	332.0
128.104721	176.0
128.825562	156.0
128.9216	72.0
128.979233	196.0
129.069656	492.0
129.189529	176.0
129.517776	188.0
129.615189	124.0
129.658249	68.0
129.744385	220.0
129.796539	116.0
129.86911	172.0
130.105118	180.0
130.16188	160.0
131.048981	140.0
131.126465	68.0
131.194839	176.0
131.226761	152.0
132.243347	120.0
132.781219	212.0
133.440826	156.0
134.073853	144.0
134.322876	80.0
134.417465	156.0
134.509796	148.0
134.595215	136.0
134.692215	88.0
135.110641	108.0
135.323578	140.0
135.423157	180.0
135.930878	64.0
136.046921	216.0
136.077103	48.0
137.005081	168.0
137.044693	312.0
137.113571	272.0
138.04863	336.0
138.223892	220.0
138.369888	212.0
138.441605	172.0
138.467361	240.0
138.868149	116.0
138.919754	112.0
138.945557	136.0
138.966675	104.0
138.985443	140.0
139.021408	696.0
139.054413	840.0
139.116882	216.0
139.38298	172.0
139.976059	304.0
139.999603	168.0
140.022171	256.0
140.056152	168.0
140.092834	84.0
140.405685	128.0
140.517197	220.0
140.602158	176.0
140.647003	184.0
140.852432	200.0
140.958054	1376.0
141.010742	176.0
141.061676	168.0
141.259018	124.0
141.285049	32.0
141.351303	180.0
141.682785	144.0
141.96669	160.0
142.335052	48.0
142.577362	132.0
142.593994	92.0
142.705719	76.0
142.791336	128.0
142.905518	68.0
142.953888	336.0
142.991837	7552.0
143.188797	88.0
143.995941	188.0
144.052277	180.0
144.202805	156.0
144.511292	140.0
144.733902	180.0
144.993271	332.0
145.042953	112.0
145.063431	168.0
145.246979	48.0
145.335556	124.0
145.443542	172.0
145.683685	36.0
145.7005	48.0
145.844681	108.0
145.895172	92.0
146.015396	208.0
146.065903	192.0
146.166962	120.0
146.790863	180.0
146.82222	180.0
146.96936	132.0
147.018448	252.0
147.256653	76.0
147.295288	80.0
147.626419	172.0
147.740097	120.0
148.006332	244.0
148.680267	184.0
148.840485	116.0
148.891479	212.0
149.00322	120.0
149.026611	120.0
149.29248	72.0
149.316803	156.0
149.418152	132.0
149.769516	172.0
149.87915	48.0
150.003448	96.0
150.135117	72.0
150.320511	152.0
150.684341	176.0
150.706329	172.0
150.813858	168.0
151.019257	140.0
151.051239	200.0
151.144012	196.0
151.161148	208.0
151.462296	192.0
151.535782	48.0
151.690186	208.0
152.057693	544.0
152.252075	108.0
152.365067	200.0
152.583801	40.0
152.981293	168.0
153.013	284.0
153.068527	176.0
153.122711	144.0
153.337051	92.0
153.855072	128.0
154.013107	144.0
154.341812	228.0
154.391266	108.0
154.559479	40.0
154.710464	140.0
154.968658	136.0
154.996384	2684.0
155.025879	216.0
155.045471	296.0
155.090576	144.0
155.198547	240.0
155.362244	88.0
155.521072	64.0
155.714737	128.0
155.911011	152.0
155.974579	352.0
156.003174	360.0
156.050735	224.0
156.724747	160.0
156.9552	220.0
157.004074	724.0
157.067688	216.0
157.148621	92.0
157.240952	152.0
157.263412	248.0
157.748016	88.0
157.973083	148.0
158.013351	124.0
158.295959	60.0
158.466293	48.0
158.538956	80.0
158.737	148.0
158.874954	60.0
158.950226	72.0
159.025513	428.0
159.490189	132.0
159.656143	148.0
160.03389	176.0
160.293045	108.0
160.434189	80.0
160.999512	180.0
161.035858	296.0
161.100433	80.0
161.188873	124.0
161.633926	192.0
161.80098	212.0
162.044113	148.0
162.43454	136.0
162.532806	184.0
162.69339	124.0
162.944824	104.0
163.09729	136.0
163.43808	156.0
163.499161	196.0
165.07576	388.0
165.185745	60.0
166.013046	172.0
166.077393	176.0
166.449295	160.0
166.780716	92.0
167.055862	208.0
167.189667	104.0
167.207672	132.0
167.323517	188.0
167.898148	196.0
168.054413	212.0
168.590027	108.0
168.985062	184.0
169.006363	108.0
169.029648	132.0
169.063293	304.0
169.200485	140.0
169.84317	196.0
170.019592	124.0
170.115631	76.0
170.17276	164.0
170.523453	184.0
170.812073	252.0
170.965591	476.0
170.991608	160.0
171.02478	5008.0
171.100937	136.0
171.969055	304.0
172.030853	1792.0
172.078644	152.0
172.541092	96.0
172.974319	160.0
173.031754	224.0
173.108887	168.0
173.454742	216.0
173.538635	136.0
173.56485	108.0
173.824539	112.0
173.968903	120.0
174.030365	344.0
174.063431	112.0
175.020248	188.0
176.247147	108.0
176.646362	264.0
177.117554	72.0
177.308319	196.0
177.385193	48.0
177.679565	172.0
177.71405	144.0
178.075089	68.0
178.378006	184.0
178.580093	136.0
179.765671	228.0
180.056656	152.0
180.30513	152.0
181.008713	40.0
181.06488	192.0
181.075073	184.0
181.084457	256.0
181.44278	100.0
182.069992	172.0
182.662003	128.0
182.858429	72.0
182.914963	72.0
183.024246	1112.0
183.661362	144.0
183.985199	220.0
184.033508	1756.0
184.171707	124.0
184.639114	160.0
184.84201	172.0
184.942154	164.0
184.977402	328.0
185.001709	124.0
185.037537	1700.0
185.131668	148.0
185.16687	204.0
185.459503	180.0
185.480316	188.0
185.624878	152.0
185.708954	140.0
185.945007	192.0
185.998718	172.0
186.042435	328.0
186.050018	308.0
186.059265	332.0
186.316101	204.0
186.393097	160.0
186.480072	140.0
186.575211	164.0
186.626862	132.0
186.667648	168.0
186.749237	108.0
186.94397	664.0
186.976776	160.0
187.018356	1512.0
187.056305	156.0
187.871552	108.0
188.023758	596.0
188.570587	28.0
188.96196	208.0
189.030273	440.0
189.095734	148.0
189.2901	128.0
189.31749	196.0
189.753174	96.0
190.038422	100.0
190.900955	132.0
190.993256	164.0
191.110016	204.0
191.143036	40.0
192.352966	100.0
192.410934	184.0
193.140503	124.0
193.904694	52.0
194.109848	56.0
194.190277	168.0
194.862076	120.0
195.023254	192.0
196.019608	144.0
196.05304	152.0
196.306732	132.0
196.350677	164.0
196.37645	80.0
196.404343	188.0
196.543839	92.0
197.041687	756.0
197.311935	140.0
197.384644	100.0
197.555252	68.0
197.807114	288.0
198.008545	132.0
198.051987	160.0
198.504761	88.0
198.816147	140.0
198.936844	136.0
199.020569	900.0
199.070099	148.0
199.833389	64.0
199.889664	144.0
200.027817	2776.0
200.067398	156.0
200.236786	80.0
200.266922	100.0
200.345795	88.0
200.458496	104.0
200.551498	152.0
200.590973	128.0
200.667084	112.0
200.870148	80.0
200.978531	340.0
201.034485	1360.0
201.214432	28.0
201.27655	40.0
201.440369	108.0
201.853012	240.0
201.929382	40.0
201.982452	868.0
202.03334	340.0
202.359512	36.0
202.441635	32.0
202.855301	52.0
202.969238	352.0
202.99501	568.0
203.049164	152.0
203.082153	104.0
203.482285	132.0
203.502151	68.0
203.627106	196.0
203.92543	188.0
204.003098	592.0
204.05336	228.0
204.542679	76.0
204.964188	260.0
205.013153	168.0
205.052536	144.0
205.577286	76.0
205.597275	72.0
206.02153	156.0
206.455826	132.0
206.634552	136.0
206.826279	188.0
207.019455	104.0
207.169922	256.0
207.479431	120.0
208.481201	136.0
208.633545	84.0
209.03334	112.0
209.456573	120.0
209.600632	144.0
209.629456	120.0
209.868698	132.0
209.92926	88.0
210.004242	32.0
210.033096	144.0
210.099442	124.0
210.261032	148.0
210.627716	148.0
210.853088	152.0
210.931137	208.0
211.033081	160.0
211.064133	156.0
211.550201	168.0
211.900635	44.0
211.955688	104.0
212.01944	160.0
212.15567	112.0
212.62558	152.0
212.805557	76.0
212.988525	208.0
213.035583	436.0
213.238403	128.0
213.465164	48.0
213.63678	204.0
213.674591	140.0
213.86084	192.0
213.948166	164.0
213.986633	344.0
214.04512	440.0
214.452118	96.0
214.472519	92.0
214.49585	52.0
214.621216	144.0
214.694107	172.0
214.939163	36.0
215.011414	2328.0
215.05098	876.0
215.090927	44.0
215.207153	64.0
215.236893	84.0
215.47934	52.0
215.593292	180.0
215.85054	80.0
215.879791	76.0
215.900269	128.0
216.008881	940.0
216.062195	120.0
216.567566	76.0
216.693542	144.0
216.75499	140.0
216.952255	132.0
216.983047	288.0
217.024918	2260.0
217.08403	184.0
217.262314	68.0
217.385559	184.0
217.602768	52.0
217.96405	156.0
218.005051	276.0
218.028381	720.0
218.572739	176.0
218.613937	128.0
218.722839	84.0
218.796432	280.0
218.960968	244.0
218.983978	128.0
219.025696	840.0
219.070328	148.0
219.568466	128.0
219.704163	164.0
219.8517	188.0
220.013947	136.0
220.043564	232.0
220.143951	200.0
220.452911	100.0
220.480743	116.0
220.785263	176.0
220.962967	160.0
221.025009	168.0
221.383072	216.0
222.035065	140.0
222.061752	136.0
222.907867	144.0
223.333008	180.0
224.253067	112.0
224.745132	164.0
225.646164	60.0
226.991592	168.0
227.024582	104.0
227.051575	104.0
227.993866	152.0
228.022141	132.0
228.045364	84.0
228.300919	76.0
228.683014	124.0
229.024261	480.0
229.140747	240.0
229.424042	148.0
229.982498	184.0
230.021408	412.0
230.278015	132.0
230.565033	148.0
230.821991	56.0
230.86528	192.0
230.994766	1108.0
231.042816	472.0
231.112381	124.0
231.175934	32.0
231.49379	180.0
231.717941	160.0
231.965302	148.0
232.001068	932.0
232.024826	840.0
232.139267	128.0
232.257553	88.0
232.315201	52.0
232.489807	44.0
232.618668	188.0
232.71582	176.0
232.828171	72.0
232.976501	712.0
233.007172	1156.0
233.034531	228.0
233.10463	212.0
233.128937	76.0
233.195801	80.0
233.390366	140.0
233.779739	56.0
233.957275	316.0
233.988342	484.0
234.018524	356.0
234.309555	92.0
234.41925	84.0
234.5625	92.0
234.583832	208.0
234.855225	96.0
234.93454	108.0
234.989731	112.0
235.053726	128.0
235.322144	148.0
235.606186	132.0
235.80481	112.0
235.878159	228.0
236.031036	152.0
236.272659	48.0
236.486877	104.0
236.551147	48.0
236.581772	108.0
236.963989	180.0
237.068787	44.0
238.188675	204.0
238.431396	148.0
238.680405	140.0
239.714722	96.0
240.115494	216.0
240.470306	236.0
241.183807	196.0
241.567261	208.0
242.186356	72.0
243.007874	108.0
243.045105	160.0
243.336884	176.0
243.905396	136.0
243.959946	160.0
243.972229	88.0
243.981491	116.0
244.235001	204.0
244.574158	48.0
244.636414	124.0
244.989624	284.0
245.04129	68.0
245.306198	44.0
245.599319	144.0
245.898849	92.0
245.985916	252.0
246.033081	176.0
246.242294	76.0
246.975815	264.0
246.997391	584.0
247.023575	924.0
247.052383	200.0
247.183304	40.0
247.671707	92.0
247.756287	56.0
247.989517	312.0
248.028564	1372.0
248.89769	176.0
248.90715	160.0
248.977753	2080.0
249.021103	576.0
249.259216	168.0
249.581787	148.0
249.774826	40.0
249.84404	88.0
249.981262	244.0
250.020477	220.0
250.218552	72.0
250.451599	68.0
250.883316	60.0
250.979721	604.0
251.094574	40.0
251.732071	164.0
251.779449	156.0
251.956345	100.0
251.99527	208.0
252.180695	160.0
252.250244	172.0
252.405167	64.0
252.493713	120.0
252.636047	128.0
253.189987	204.0
253.316681	268.0
254.671158	104.0
257.224915	88.0
257.525085	92.0
258.442566	144.0
258.964386	132.0
258.997925	120.0
259.01886	172.0
259.634247	148.0
259.849182	128.0
260.102692	128.0
260.867249	200.0
260.973572	532.0
261.027435	116.0
261.076233	52.0
261.288544	120.0
261.401154	112.0
261.903412	76.0
261.979462	1236.0
262.014343	188.0
262.049255	156.0
262.631866	36.0
262.689941	128.0
262.735107	40.0
262.989288	1860.0
263.051361	176.0
263.115936	48.0
263.144989	32.0
263.174042	116.0
263.283844	104.0
263.329071	88.0
263.380737	80.0
263.487335	64.0
263.526123	128.0
264.015411	2076.0
264.218018	80.0
264.353912	88.0
264.930267	124.0
265.003998	784.0
265.059845	144.0
265.283508	88.0
265.721313	112.0
265.9935	276.0
265.998962	124.0
266.256927	224.0
266.575317	92.0
266.969757	180.0
267.004425	204.0
267.049957	176.0
267.362305	148.0
267.391602	96.0
267.554352	124.0
268.033142	48.0
268.267822	128.0
268.430847	136.0
268.998566	332.0
269.812012	148.0
269.988586	168.0
270.119415	52.0
270.377899	36.0
272.706573	152.0
272.759155	52.0
273.966888	148.0
273.999847	216.0
274.438202	220.0
274.929718	136.0
274.986389	136.0
275.131073	52.0
275.857849	120.0
275.999237	132.0
276.19516	144.0
277.004578	344.0
277.652496	208.0
277.732117	172.0
277.974304	660.0
278.009918	448.0
278.914215	108.0
278.985382	1344.0
279.339844	192.0
279.612701	184.0
279.892334	100.0
279.945618	200.0
279.990173	644.0
280.019501	456.0
280.185455	52.0
280.702087	240.0
280.912201	176.0
280.978485	548.0
281.050262	372.0
281.272614	68.0
282.001434	160.0
282.047119	176.0
282.76001	72.0
282.860413	136.0
282.975769	160.0
283.033997	104.0
285.006866	44.0
285.618744	156.0
286.096588	148.0
286.645599	176.0
287.323334	80.0
287.903931	112.0
287.995117	124.0
289.354553	152.0
290.740967	140.0
290.832611	116.0
290.934448	76.0
290.968384	196.0
291.019318	140.0
291.043091	88.0
291.420105	208.0
292.045654	184.0
292.164703	136.0
292.321228	168.0
292.505005	96.0
292.938995	188.0
292.996002	788.0
293.043091	104.0
293.09079	40.0
293.475983	44.0
293.952698	292.0
293.995911	684.0
294.042267	268.0
294.243652	36.0
294.701324	136.0
294.773102	124.0
294.96109	740.0
295.0	236.0
295.012817	240.0
295.063629	208.0
295.350891	56.0
295.446686	92.0
295.549316	72.0
295.908722	124.0
295.955841	164.0
295.968048	160.0
295.98822	324.0
296.292297	200.0
296.926453	96.0
296.95047	144.0
296.997437	592.0
297.753601	92.0
297.880676	44.0
297.908173	72.0
297.994354	368.0
298.609406	108.0
298.990875	164.0
299.118652	80.0
300.001831	116.0
301.166901	72.0
301.21524	88.0
301.277435	176.0
301.540039	248.0
303.308777	172.0
304.144745	164.0
304.485016	144.0
305.63916	172.0
305.792297	136.0
306.168304	148.0
307.845764	108.0
307.960999	32.0
308.016052	100.0
308.04483	152.0
308.149658	144.0
308.974487	240.0
309.001221	136.0
309.025726	356.0
309.53479	128.0
309.622345	80.0
309.836029	64.0
309.899078	136.0
309.923615	164.0
309.983795	1624.0
310.037262	352.0
310.081299	68.0
310.298645	168.0
310.652863	56.0
310.761627	80.0
310.912506	44.0
310.951355	136.0
310.981689	512.0
310.994995	400.0
311.005035	236.0
311.231964	136.0
311.290863	6768.0
311.34787	80.0
311.456726	68.0
311.651978	96.0
311.889923	100.0
311.941681	92.0
311.982361	300.0
312.020844	680.0
312.149109	148.0
312.198334	44.0
312.297546	1144.0
312.336426	200.0
312.398834	40.0
312.472717	76.0
312.539551	56.0
312.588837	68.0
312.655701	48.0
312.930267	216.0
312.961945	100.0
313.006226	708.0
313.092255	56.0
313.290466	72.0
313.317688	36.0
313.529114	48.0
313.765289	44.0
313.969788	104.0
314.000885	304.0
314.010345	160.0
314.074768	204.0
314.12146	36.0
314.287292	180.0
314.368439	76.0
314.689667	56.0
314.774414	100.0
314.837982	68.0
315.027588	272.0
315.03421	300.0
315.131165	36.0
315.855896	72.0
315.979736	36.0
316.028473	200.0
317.013672	164.0
318.624603	168.0
318.663696	68.0
318.827148	44.0
321.141388	44.0
321.458923	196.0
322.966614	164.0
323.567841	44.0
323.94928	140.0
324.002563	296.0
324.177917	148.0
324.216187	160.0
324.67865	184.0
324.944702	48.0
325.010834	876.0
325.532776	60.0
325.877625	44.0
325.965118	632.0
326.020294	768.0
326.197479	148.0
326.301727	180.0
326.413208	52.0
326.477936	144.0
326.959229	148.0
326.988312	472.0
327.024445	156.0
327.143585	80.0
327.373718	48.0
327.945374	264.0
327.995941	548.0
328.032501	96.0
328.045715	164.0
328.317322	632.0
328.397583	92.0
328.596008	196.0
328.99762	204.0
329.198792	84.0
329.314362	312.0
329.341034	240.0
329.985779	132.0
330.312012	124.0
330.503754	68.0
331.017792	176.0
331.079346	100.0
332.235626	156.0
332.464233	72.0
334.776367	92.0
337.0271	180.0
337.293884	44.0
337.769257	48.0
338.965057	228.0
339.022369	140.0
339.146057	32.0
339.179047	204.0
339.600739	56.0
339.91626	216.0
339.971283	88.0
340.000641	116.0
340.039276	180.0
340.709351	156.0
340.86734	112.0
340.896729	212.0
340.926147	76.0
341.003937	8896.0
341.106232	56.0
341.154022	116.0
341.184204	164.0
341.216522	96.0
341.29007	44.0
341.334198	68.0
341.423248	56.0
341.455536	48.0
341.576935	44.0
341.628418	28.0
341.705688	56.0
341.948853	160.0
342.011719	3308.0
342.292297	108.0
342.417328	76.0
342.456665	120.0
342.536316	124.0
342.76474	128.0
343.007294	1304.0
343.086792	48.0
343.190033	52.0
343.249023	76.0
343.37442	60.0
343.437134	96.0
343.625275	100.0
343.702759	68.0
343.84668	160.0
343.890961	136.0
343.963928	172.0
344.008118	488.0
344.071838	224.0
344.18631	52.0
344.965881	116.0
345.017853	144.0
345.110077	60.0
345.150726	28.0
345.431824	76.0
345.662994	108.0
346.000092	144.0
346.149841	112.0
347.551025	140.0
348.531311	120.0
348.894196	184.0
349.096344	80.0
351.029083	72.0
351.230469	68.0
351.670776	148.0
352.320526	72.0
353.543243	120.0
354.32959	160.0
354.929291	84.0
354.95929	128.0
355.017059	200.0
355.210602	128.0
355.967865	152.0
356.029388	1052.0
356.152771	52.0
356.24292	56.0
356.366913	52.0
356.925934	284.0
356.979431	1108.0
357.035858	1844.0
357.126312	48.0
357.981964	920.0
358.037109	416.0
358.248047	76.0
358.988953	172.0
359.039124	120.0
359.122589	76.0
359.62442	64.0
359.703705	100.0
359.971771	116.0
360.323029	64.0
360.984528	76.0
361.343872	160.0
361.461151	156.0
362.938477	36.0
365.182892	52.0
365.616638	56.0
366.004913	92.0
368.224426	160.0
368.350006	4616.0
368.434509	104.0
368.611603	80.0
368.763153	124.0
368.908386	56.0
369.275482	84.0
369.306091	128.0
369.352173	1240.0
369.489716	56.0
369.585358	60.0
370.079132	60.0
370.262939	76.0
370.353485	320.0
370.995667	228.0
371.366089	156.0
371.381165	128.0
371.58316	128.0
371.838715	56.0
371.967865	184.0
371.982635	136.0
371.995331	124.0
372.954254	148.0
373.007294	308.0
374.476257	84.0
374.510925	100.0
374.595673	172.0
374.97406	120.0
375.131317	128.0
375.759949	36.0
376.319611	96.0
376.949219	216.0
378.221649	68.0
378.895477	72.0
379.178345	52.0
379.748291	192.0
385.397064	72.0
386.871552	64.0
386.966766	316.0
387.173065	172.0
387.917542	184.0
387.971344	968.0
388.035156	212.0
388.917816	140.0
388.964447	164.0
389.964172	232.0
390.505219	72.0
390.960327	100.0
391.138702	128.0
391.524567	88.0
391.780609	220.0
393.255402	116.0
394.368164	176.0
395.364655	124.0
395.788635	160.0
397.490051	48.0
399.150513	112.0
400.969818	152.0
401.559906	144.0
401.759338	80.0
401.982788	144.0
402.943726	116.0
402.980957	408.0
403.966888	352.0
404.988983	192.0
405.992523	200.0
406.484741	40.0
406.994507	104.0
410.688995	40.0
412.142365	164.0
412.324188	124.0
412.371948	152.0
412.413544	196.0
412.930664	80.0
413.37973	204.0
416.046783	156.0
418.738708	148.0
418.990326	2892.0
419.117554	176.0
419.504761	64.0
419.94632	428.0
419.99295	780.0
420.279663	40.0
420.981628	552.0
421.149231	48.0
421.827576	112.0
421.978607	292.0
422.528595	96.0
422.813324	52.0
422.932007	140.0
423.398773	40.0
423.665009	152.0
423.985931	152.0
425.022156	72.0
426.081451	116.0
432.187805	152.0
434.006195	192.0
434.134766	112.0
434.65329	140.0
434.966675	672.0
435.051758	112.0
435.1763	136.0
435.903229	88.0
435.97229	316.0
436.244049	124.0
436.302246	84.0
436.505981	64.0
436.797119	40.0
437.002472	352.0
437.987396	292.0
438.013611	104.0
439.313263	172.0
439.551086	56.0
439.584442	116.0
439.73053	88.0
441.163269	84.0
441.209259	88.0
445.744446	80.0
446.31192	28.0
447.287964	68.0
449.129395	88.0
449.943848	80.0
451.410065	72.0
460.970734	104.0
465.932556	180.0
465.963715	112.0
466.014191	80.0
466.968567	52.0
467.325623	176.0
467.893738	72.0
468.441711	720.0
469.350067	100.0
469.442322	564.0
469.522552	48.0
470.34668	104.0
470.447906	112.0
470.586578	64.0
470.648895	84.0
471.365936	156.0
471.547455	44.0
471.638214	76.0
473.109009	68.0
473.191284	112.0
476.922089	88.0
481.160767	44.0
486.142029	116.0
488.022125	48.0
488.756683	48.0
493.471863	116.0
495.685059	180.0
496.984314	36.0
497.78775	68.0
500.077362	92.0
505.33429	100.0
510.025208	88.0
514.299866	48.0
521.433655	36.0
537.910095	108.0
548.775635	124.0
549.680542	68.0
553.752502	64.0
560.42334	72.0
562.01239	124.0
563.391052	68.0
571.760254	68.0
572.155334	72.0
573.679871	140.0
574.772095	112.0
577.79657	60.0
593.872131	148.0
604.444153	112.0
612.94928	92.0
619.535461	48.0
639.545593	100.0
645.109619	40.0
657.840454	40.0
667.112854	64.0
674.903259	32.0
676.589966	80.0
677.366821	76.0
682.80127	100.0
691.085327	120.0
694.023804	92.0
709.795654	80.0
733.745239	100.0
754.28833	68.0
755.546143	76.0
756.076904	36.0
773.132446	48.0
782.062744	40.0
783.421448	88.0
787.996277	184.0
793.784058	136.0
837.890381	36.0
838.2995	88.0
839.066101	60.0
865.609192	104.0
872.656433	92.0
885.142212	96.0
907.595459	140.0
913.583557	196.0
949.508545	60.0
954.618164	140.0
969.136841	68.0
972.827087	184.0
975.019714	100.0
976.505676	152.0
978.347595	164.0
979.680298	152.0
981.456604	244.0
986.263794	92.0
988.358887	104.0
992.938293	136.0
995.957336	160.0
996.648438	204.0
1006.102356	208.0
1009.261414	140.0
1009.691467	104.0
1026.157593	108.0
1030.478516	136.0
1035.212036	180.0
1043.013916	136.0
1047.022461	124.0
1056.672852	84.0
1062.562256	116.0
1073.855347	64.0
1077.837646	180.0
1094.551758	152.0
1106.430176	136.0
1108.629272	164.0
1112.702026	80.0
1113.691528	148.0
1128.426025	152.0
1137.09436	180.0
1143.647583	176.0
1145.05481	180.0
1146.294434	160.0
1147.851685	156.0
1148.391113	52.0
1148.526123	64.0
1164.371216	112.0
1171.288574	92.0
1171.377197	208.0
1180.413818	76.0
1181.85022	192.0
1189.395874	152.0
1189.533203	256.0
1190.865234	48.0
1192.390625	152.0
1194.425781	64.0
1196.338867	64.0
1197.578369	180.0
1197.826416	108.0
1198.411987	156.0
1203.833862	100.0
1206.120728	124.0
1219.915649	132.0
1221.744751	48.0
1221.848999	184.0
1222.426636	116.0
1224.515137	104.0
1228.216309	144.0
1230.323853	148.0
1235.061768	96.0
1236.132202	52.0
1242.424316	212.0
1243.540039	140.0
1245.730835	240.0
1254.302002	180.0
1255.211548	100.0
1255.296143	152.0
1255.430054	152.0
1256.220093	152.0
1258.34436	192.0
1259.763916	184.0
1264.204346	196.0
1264.848389	244.0
1265.676758	176.0
1266.363647	132.0
1269.049561	180.0
1272.064819	188.0
1283.220093	168.0
1286.787598	164.0
1294.825195	80.0
1297.304443	188.0
1302.255737	116.0
1304.03772	144.0
1304.404297	192.0
1304.497681	152.0
1307.504395	64.0
1308.072998	136.0
1310.896362	192.0
1310.975586	236.0
1317.187866	144.0
1320.505615	172.0
1324.798096	116.0
1324.928589	268.0
1326.79834	204.0
1326.979614	228.0
1327.944092	128.0
1330.120972	148.0
1332.001709	160.0
1333.069702	120.0
1333.389526	212.0
1335.789062	148.0
1336.298218	200.0
1339.457886	140.0
1343.503784	120.0
1344.481567	216.0
1344.897583	152.0
1345.744507	196.0
1346.438232	144.0
1350.107056	144.0
1351.204224	220.0
1352.221436	208.0
1353.099854	116.0
1358.493774	116.0
1358.677246	124.0
1362.002686	132.0
1362.156982	220.0
1363.369263	84.0
1366.465088	76.0
1366.936035	204.0
1369.181396	80.0
1369.39502	224.0
1377.767456	156.0
1378.986816	124.0
1380.162231	184.0
1382.433228	212.0
1383.432495	172.0
1384.869019	224.0
1388.612061	136.0
1392.330444	132.0
1395.667725	144.0
1397.876343	108.0
1397.980591	152.0
1398.575928	92.0
1399.275757	144.0
1400.564087	228.0
1400.891846	212.0
1402.106445	164.0
1403.463135	176.0
1404.231323	176.0
1405.536865	208.0
1406.275635	284.0
1407.765503	252.0
1413.861816	204.0
1419.4729	136.0
1421.018066	160.0
1421.318237	192.0
1422.014282	196.0
1423.17981	96.0
1424.847168	140.0
1425.04248	212.0
1425.688721	160.0
1426.846313	164.0
1427.651001	208.0
1429.283325	92.0
1431.714844	88.0
1436.848145	168.0
1437.632935	128.0
1439.550415	140.0
1448.869263	192.0
1449.1875	144.0
1451.393188	148.0
1452.371582	172.0
1453.501953	92.0
1454.313965	128.0
1458.544922	212.0
1459.571289	48.0
1461.914307	204.0
1465.409424	184.0
1468.046875	164.0
1468.710449	224.0
1475.721191	204.0
1478.245483	120.0
1486.022949	196.0
1487.734497	168.0
1488.402466	104.0
1494.167114	188.0
1496.037354	88.0
1498.224487	148.0
1498.278442	140.0
1499.264771	144.0
1503.413818	192.0
1504.772461	232.0
END IONS

BEGIN IONS
PEPMASS=200.054
CHARGE=1
MSLEVEL=2
SOURCE_INSTRUMENT=LC-ESI-qTof
FILENAME=p4-F03_GF3_01_18387.mzXML
SEQ=*..*
IONMODE=Positive
ORGANISM=GNPS-NIH-SMALLMOLECULEPHARMACOLOGICALLYACTIVE
NAME=MLS002152928-01!92-84-2 M+H
PI=Dorrestein
DATACOLLECTOR=VP/LMS
SMILES=N1c2ccccc2Sc3ccccc13
INCHI=N/A
INCHIAUX=N/A
PUBMED=N/A
SUBMITUSER=vphelan
LIBRARYQUALITY=1
SPECTRUMID=CCMSLIB00000085764
USI=mzspec:GNPS:GNPS-NIH-SMALLMOLECULEPHARMACOLOGICALLYACTIVE:accession:CCMSLIB00000085764
SCANS=2367
44.934635	132.0
45.052124	164.0
45.062809	152.0
45.102901	148.0
45.118946	224.0
45.163074	52.0
45.193844	188.0
45.212582	184.0
45.258095	220.0
45.357712	256.0
45.426968	100.0
45.444408	184.0
45.498096	188.0
45.550468	160.0
45.606907	132.0
45.627071	160.0
45.723923	108.0
45.753536	176.0
45.861305	88.0
45.913891	156.0
45.938171	192.0
45.961105	140.0
46.128578	184.0
46.146156	144.0
46.228668	136.0
46.257092	164.0
46.295006	52.0
46.30584	160.0
46.389851	244.0
46.513298	192.0
46.570328	240.0
46.645061	180.0
46.699455	168.0
46.715778	56.0
46.774292	128.0
46.838295	136.0
46.903702	232.0
46.932331	52.0
47.027828	116.0
47.043633	228.0
47.063324	244.0
47.081078	56.0
47.161686	148.0
47.247841	140.0
47.410786	176.0
47.435459	136.0
47.520489	124.0
47.656422	128.0
47.722397	164.0
47.847603	152.0
48.090221	68.0
48.099884	132.0
48.179981	140.0
48.192417	176.0
48.220055	144.0
48.340378	224.0
48.430367	208.0
48.444221	168.0
48.505196	204.0
48.523216	40.0
48.645302	116.0
48.720295	116.0
48.812031	48.0
49.012482	396.0
49.072418	76.0
49.15332	200.0
49.16309	144.0
49.185421	180.0
49.199379	228.0
49.211945	132.0
49.256638	228.0
49.364258	156.0
49.575645	228.0
49.710274	148.0
49.798721	152.0
49.836655	120.0
49.923809	124.0
49.960381	156.0
49.992741	192.0
50.027931	76.0
50.044827	220.0
50.096935	116.0
50.118073	152.0
50.153305	172.0
50.19701	208.0
50.27319	124.0
50.44268	176.0
50.618122	164.0
50.700287	120.0
50.718716	200.0
50.758411	148.0
50.839703	172.0
50.881176	156.0
50.935822	144.0
51.028198	156.0
51.086506	148.0
51.107849	208.0
51.136311	216.0
51.258789	124.0
51.271996	180.0
51.435642	68.0
51.957989	116.0
52.041237	120.0
52.094376	156.0
52.120235	228.0
52.147541	164.0
52.350399	120.0
52.402256	160.0
52.552208	148.0
52.572411	156.0
52.637375	96.0
52.793446	184.0
52.813694	172.0
52.958439	180.0
53.093231	176.0
53.144005	108.0
53.234001	48.0
53.271767	136.0
53.2892	132.0
53.491356	200.0
53.535034	152.0
53.609333	204.0
53.657436	240.0
53.679306	176.0
53.711391	164.0
53.725983	152.0
53.788731	176.0
53.826694	132.0
53.863205	164.0
53.902653	272.0
53.933346	104.0
54.0284	148.0
54.041565	184.0
54.100109	192.0
54.18359	48.0
54.261269	168.0
54.324329	168.0
54.337532	68.0
54.363945	160.0
54.380089	156.0
54.478401	240.0
54.629894	176.0
54.681396	160.0
54.710838	80.0
54.760906	148.0
54.838997	152.0
54.858559	44.0
54.914192	140.0
54.954021	208.0
55.032249	120.0
55.05883	144.0
55.150436	152.0
55.168175	136.0
55.256912	188.0
55.471657	64.0
55.493893	180.0
55.559151	76.0
55.640778	144.0
55.719494	192.0
55.912807	140.0
55.92918	180.0
56.231754	100.0
56.339272	160.0
56.352715	172.0
56.391571	120.0
56.428944	164.0
56.509712	152.0
56.593529	156.0
56.671417	272.0
56.686401	164.0
56.774853	196.0
56.79285	104.0
56.882885	168.0
56.935436	196.0
57.012058	180.0
57.040615	176.0
57.078201	172.0
57.231686	180.0
57.291931	152.0
57.325081	160.0
57.442684	60.0
57.500023	204.0
57.60421	156.0
57.660118	220.0
57.694881	180.0
57.755371	164.0
57.803226	212.0
57.829514	156.0
57.906734	208.0
58.094696	104.0
58.196384	236.0
58.243465	164.0
58.263214	160.0
58.410675	148.0
58.508068	188.0
58.520248	128.0
58.540047	76.0
58.591835	152.0
58.904575	128.0
58.997009	148.0
59.026848	104.0
59.09874	200.0
59.147713	96.0
59.192112	196.0
59.377548	172.0
59.498039	144.0
59.543304	200.0
59.818542	108.0
59.910942	200.0
59.978748	204.0
60.032711	232.0
60.103668	40.0
60.224091	108.0
60.41283	192.0
60.70232	156.0
60.807816	184.0
60.848175	160.0
60.871468	124.0
60.955151	124.0
60.995762	168.0
61.086369	136.0
61.258751	228.0
61.439594	192.0
61.556656	180.0
61.694157	200.0
61.711353	204.0
61.739502	176.0
61.877201	176.0
62.07777	124.0
62.134239	156.0
62.148361	204.0
62.20015	192.0
62.24411	144.0
62.442127	128.0
62.464352	184.0
62.575886	160.0
62.752354	168.0
62.930645	192.0
63.028522	224.0
63.053864	164.0
63.128166	52.0
63.207264	184.0
63.231003	48.0
63.287991	180.0
63.455944	220.0
63.484489	176.0
63.532074	184.0
63.565392	164.0
63.606659	140.0
63.655876	124.0
63.736893	228.0
63.770264	200.0
63.838631	236.0
63.897484	112.0
63.949997	276.0
64.004128	352.0
64.043938	152.0
64.058281	132.0
64.150703	32.0
64.227249	212.0
64.270325	72.0
64.425194	160.0
64.500305	36.0
64.514694	116.0
64.527481	92.0
64.625046	220.0
64.653854	112.0
64.773941	88.0
64.830017	204.0
64.980751	104.0
65.032104	200.0
65.081474	164.0
65.130051	108.0
65.184845	148.0
65.210388	172.0
65.250572	140.0
65.306862	156.0
65.355881	136.0
65.422722	72.0
65.514519	172.0
65.538689	128.0
65.567696	88.0
65.798363	236.0
65.993866	144.0
66.037529	216.0
66.105484	64.0
66.116806	148.0
66.222092	156.0
66.29171	144.0
66.32737	188.0
66.338715	128.0
66.350067	164.0
66.371147	32.0
66.426285	204.0
66.579094	140.0
66.645462	124.0
66.840591	164.0
66.923607	168.0
66.936638	124.0
67.052299	32.0
67.068604	124.0
67.0849	172.0
67.148499	92.0
67.163177	116.0
67.249382	120.0
67.252594	100.0
67.258636	200.0
67.404808	348.0
67.496346	124.0
67.750046	104.0
67.830345	204.0
68.045258	212.0
68.085617	152.0
68.156944	132.0
68.229263	148.0
68.337479	176.0
68.400352	208.0
68.431633	120.0
68.454689	48.0
68.469513	152.0
68.509041	132.0
68.528816	112.0
68.749779	112.0
68.809204	180.0
68.852135	148.0
68.895088	176.0
69.177879	132.0
69.370041	196.0
69.409836	148.0
69.542557	196.0
69.786766	152.0
69.815033	84.0
69.884895	36.0
69.949806	128.0
70.016411	96.0
70.058052	144.0
70.239761	212.0
70.304832	164.0
70.353233	188.0
70.453438	116.0
70.5905	204.0
70.712624	252.0
70.732712	200.0
70.978996	140.0
71.009186	92.0
71.118248	152.0
71.170288	48.0
71.197159	192.0
71.294601	148.0
71.323174	100.0
71.535126	112.0
71.661438	144.0
71.676605	164.0
71.884018	160.0
71.91777	216.0
71.956604	144.0
72.101875	108.0
72.193169	176.0
72.22451	136.0
72.387779	196.0
72.418266	96.0
72.569092	240.0
72.589439	168.0
72.932388	168.0
72.97319	140.0
73.000397	152.0
73.056526	180.0
73.095665	152.0
73.119484	168.0
73.29319	200.0
73.368187	144.0
73.447922	180.0
73.521706	136.0
73.555946	188.0
73.593399	152.0
73.78476	224.0
73.914757	100.0
74.033234	172.0
74.164795	56.0
74.197372	160.0
74.278931	172.0
74.341454	136.0
74.360336	188.0
74.422134	156.0
74.466782	92.0
74.501137	120.0
74.561279	196.0
74.624886	128.0
74.675674	156.0
74.700554	116.0
74.856949	204.0
75.001907	176.0
75.063972	132.0
75.181282	140.0
75.315956	168.0
75.435188	120.0
75.578735	196.0
75.641045	140.0
75.68779	136.0
76.025826	124.0
76.150833	132.0
76.168205	88.0
76.182098	168.0
76.251602	232.0
76.475975	44.0
76.533424	112.0
76.561905	180.0
76.72683	160.0
76.808792	48.0
76.983322	140.0
77.133583	188.0
77.191284	132.0
77.25425	172.0
77.280495	144.0
77.446808	176.0
77.548431	100.0
77.616806	180.0
77.650124	160.0
77.772285	96.0
77.811569	160.0
77.862488	200.0
77.962631	116.0
78.059319	76.0
78.090973	160.0
78.108566	124.0
78.187744	216.0
78.200066	248.0
78.222946	40.0
78.263443	120.0
78.439621	220.0
78.497803	248.0
78.612473	112.0
78.663658	160.0
78.706032	204.0
78.720154	192.0
78.766075	148.0
78.787048	156.0
78.854424	72.0
78.923698	172.0
78.99765	112.0
79.151634	200.0
79.167572	208.0
79.327042	164.0
79.481339	148.0
79.499084	68.0
79.697975	204.0
79.765511	216.0
79.925575	176.0
79.948708	72.0
80.141029	192.0
80.235497	120.0
80.260452	172.0
80.283638	132.0
80.319305	180.0
80.492432	80.0
80.747986	244.0
80.84639	156.0
80.955589	160.0
80.984245	56.0
81.021866	212.0
81.079544	192.0
81.09713	160.0
81.177811	224.0
81.269295	160.0
81.326721	196.0
81.344673	216.0
81.373398	56.0
81.61956	80.0
81.8787	44.0
82.03907	168.0
82.170731	144.0
82.484962	156.0
82.498566	204.0
82.615166	232.0
82.65316	172.0
82.74366	84.0
82.75634	180.0
82.912125	124.0
83.082619	152.0
83.113419	124.0
83.491272	168.0
83.560394	128.0
83.678703	376.0
83.801155	244.0
84.02317	232.0
84.446976	104.0
84.505516	152.0
84.562706	208.0
84.640968	188.0
84.840683	124.0
84.895691	188.0
84.981903	128.0
84.994751	364.0
85.025948	164.0
85.077339	112.0
85.194878	152.0
85.208763	208.0
85.256012	176.0
85.450432	108.0
85.533241	108.0
85.570061	84.0
85.77063	156.0
85.878502	204.0
85.89257	168.0
85.926483	168.0
86.197205	108.0
86.474617	140.0
86.500526	148.0
86.522743	48.0
86.772865	152.0
86.835915	40.0
86.993637	132.0
87.162651	96.0
87.180946	204.0
87.238861	168.0
87.281624	108.0
87.350433	100.0
87.391365	280.0
87.419281	168.0
87.53656	224.0
87.553322	176.0
87.570084	116.0
87.68187	160.0
87.70269	256.0
87.724739	44.0
87.892601	128.0
87.941124	192.0
88.019531	152.0
88.069962	208.0
88.103584	208.0
88.258713	164.0
88.283073	160.0
88.303596	188.0
88.419601	148.0
88.507584	148.0
88.546738	176.0
88.567513	128.0
88.700554	156.0
88.790558	144.0
88.809311	128.0
88.826195	164.0
88.993225	36.0
89.151016	132.0
89.2845	180.0
89.318352	128.0
89.497147	116.0
89.71344	180.0
89.834511	184.0
89.98172	200.0
90.034592	200.0
90.066696	192.0
90.360939	168.0
90.641846	40.0
90.706291	132.0
90.947189	140.0
91.047821	136.0
91.093407	100.0
91.197922	128.0
91.238091	212.0
91.327217	180.0
91.504066	176.0
91.597511	184.0
91.652763	168.0
91.910187	192.0
91.992256	160.0
92.026619	132.0
92.078178	144.0
92.281738	188.0
92.328545	148.0
92.447037	184.0
92.53138	136.0
92.611816	128.0
92.642464	180.0
92.742111	160.0
92.954994	140.0
93.106651	140.0
93.296883	212.0
93.317284	216.0
93.429588	252.0
93.475761	152.0
93.658669	100.0
93.691414	192.0
93.793549	140.0
93.830177	152.0
93.932388	276.0
93.963257	184.0
93.976761	96.0
94.007637	248.0
94.023079	264.0
94.04483	132.0
94.098358	228.0
94.320526	104.0
94.386261	184.0
94.407532	144.0
94.434608	156.0
94.552628	160.0
94.608765	136.0
94.659111	120.0
94.738518	220.0
94.826691	116.0
94.862549	128.0
94.994751	560.0
95.070084	236.0
95.105789	212.0
95.200157	88.0
95.240944	192.0
95.273972	40.0
95.330315	152.0
95.400291	204.0
95.487793	160.0
95.590904	120.0
95.692123	176.0
95.836258	156.0
95.879128	140.0
95.949303	108.0
95.962952	188.0
96.002289	504.0
96.029251	136.0
96.241966	128.0
96.284927	196.0
96.495979	148.0
96.587891	176.0
96.64267	40.0
96.705292	116.0
96.745712	272.0
96.856064	188.0
97.019119	176.0
97.048126	164.0
97.128532	184.0
97.173653	100.0
97.23645	88.0
97.250191	152.0
97.385674	144.0
97.411209	200.0
97.501595	176.0
97.635284	156.0
97.66478	192.0
97.702156	104.0
97.761192	196.0
97.916718	212.0
97.952171	40.0
98.094055	172.0
98.19265	144.0
98.214012	220.0
98.403793	148.0
98.498589	92.0
98.522301	144.0
98.777313	172.0
99.012856	180.0
99.092094	172.0
99.240746	160.0
99.361732	188.0
99.381577	120.0
99.496346	68.0
99.520515	60.0
99.661545	96.0
99.882225	240.0
100.085228	188.0
100.200752	96.0
100.252556	196.0
100.290428	140.0
100.384132	144.0
100.465912	172.0
100.575661	44.0
100.697464	296.0
100.779366	184.0
100.909286	52.0
100.943275	64.0
100.98484	200.0
101.059059	200.0
101.103317	180.0
101.127335	232.0
101.177383	96.0
101.287521	92.0
101.499969	96.0
101.624329	160.0
101.776878	196.0
101.889359	200.0
101.949638	292.0
101.971748	160.0
102.047073	208.0
102.114502	188.0
102.180885	208.0
102.388741	124.0
102.488945	144.0
102.567543	180.0
102.611893	156.0
102.686508	124.0
102.89032	212.0
102.906548	212.0
103.013512	132.0
103.052094	532.0
103.090286	124.0
103.252022	124.0
103.384087	216.0
103.466621	156.0
103.529495	196.0
103.608284	108.0
103.634621	228.0
103.808952	156.0
103.957039	96.0
103.993576	104.0
104.038231	152.0
104.056503	172.0
104.078842	148.0
104.158043	216.0
104.442627	60.0
104.471565	176.0
104.544357	148.0
104.570816	112.0
104.601341	148.0
105.072105	228.0
105.219055	176.0
105.550064	116.0
105.629822	188.0
105.683014	156.0
105.760788	92.0
106.073471	228.0
106.154152	148.0
106.260818	68.0
106.388062	208.0
106.40654	148.0
106.420914	148.0
106.505112	224.0
106.692116	164.0
106.768196	136.0
106.803162	92.0
107.070198	168.0
107.192284	104.0
107.301529	204.0
107.325523	240.0
107.476845	108.0
107.56559	116.0
107.59243	272.0
107.780388	176.0
108.057457	140.0
108.092628	172.0
108.112823	148.0
108.189911	88.0
108.22718	100.0
108.247887	124.0
108.438484	160.0
108.571175	208.0
108.753754	232.0
108.803574	184.0
109.009659	456.0
109.050774	152.0
109.242081	160.0
109.308662	160.0
109.431473	164.0
109.546021	184.0
109.721077	164.0
110.014572	212.0
110.152191	124.0
110.242912	96.0
110.405495	52.0
110.475006	132.0
110.550072	132.0
110.629868	144.0
110.701057	40.0
110.793221	204.0
110.833023	92.0
110.853981	192.0
110.877037	64.0
110.908478	176.0
111.000725	188.0
111.048958	152.0
111.176941	168.0
111.252502	136.0
111.407913	180.0
111.647537	132.0
111.886719	352.0
111.982178	56.0
112.066437	192.0
112.112801	172.0
112.235069	200.0
112.258263	172.0
112.579033	240.0
112.655075	48.0
112.752274	180.0
112.872772	220.0
112.989258	164.0
113.036613	452.0
113.175362	44.0
113.190186	96.0
113.257957	68.0
113.306679	32.0
113.355415	140.0
113.371719	196.0
113.416878	176.0
113.465637	104.0
113.613174	240.0
113.66066	156.0
114.042953	180.0
114.172737	72.0
114.247185	172.0
114.462158	132.0
114.536705	104.0
114.675201	232.0
114.758339	76.0
114.856445	168.0
114.873512	164.0
114.924713	176.0
115.053329	1004.0
115.118965	116.0
115.177696	40.0
115.465179	144.0
115.844048	136.0
115.923241	196.0
115.955475	192.0
116.015488	176.0
116.049736	692.0
116.099113	192.0
116.126999	172.0
116.466133	40.0
116.48761	124.0
116.57576	152.0
116.603645	108.0
116.782104	124.0
116.906883	120.0
116.921951	164.0
116.999443	204.0
117.055511	848.0
117.130806	116.0
117.247162	184.0
117.551239	76.0
117.592239	148.0
117.788734	172.0
118.056747	128.0
118.327225	148.0
118.422508	100.0
118.671722	156.0
118.704247	164.0
118.769318	36.0
118.906006	200.0
118.921204	220.0
118.990669	252.0
119.12532	136.0
119.25135	136.0
119.294823	124.0
119.397766	164.0
119.578171	168.0
119.819313	148.0
119.902115	188.0
119.956612	112.0
119.99585	60.0
120.039459	96.0
120.417023	208.0
120.677071	96.0
120.733925	156.0
120.779854	220.0
120.85424	164.0
120.952721	196.0
121.024971	240.0
121.180481	260.0
121.230881	124.0
121.281296	56.0
121.513748	192.0
121.690613	216.0
122.006012	408.0
122.070641	68.0
122.157455	128.0
122.397354	92.0
122.459023	148.0
122.485451	100.0
122.571373	144.0
122.712448	160.0
122.734497	84.0
122.908752	108.0
122.966133	148.0
122.986	172.0
123.159393	204.0
123.189156	184.0
123.213455	88.0
123.271706	220.0
123.308472	124.0
123.392479	192.0
123.759766	132.0
123.777481	164.0
123.808479	148.0
124.045563	220.0
124.183044	176.0
124.329475	96.0
124.36055	164.0
124.615067	184.0
124.764839	192.0
124.94944	192.0
125.033997	192.0
125.076286	256.0
125.183495	208.0
125.312347	120.0
125.363602	216.0
125.73381	204.0
125.956741	204.0
126.019646	224.0
126.041992	324.0
126.155975	104.0
126.437813	112.0
126.549744	140.0
126.764778	124.0
126.930664	212.0
126.948608	176.0
126.994942	188.0
127.054405	700.0
127.07296	192.0
127.190918	144.0
127.29937	184.0
127.442451	176.0
127.458183	160.0
127.649254	104.0
127.752716	168.0
127.788712	144.0
127.838219	180.0
127.903488	72.0
128.016068	176.0
128.049866	1156.0
128.117416	140.0
128.203049	128.0
128.257141	252.0
128.275177	104.0
128.320267	140.0
128.399185	184.0
128.426254	68.0
128.505203	80.0
128.717392	152.0
128.98172	148.0
129.026932	88.0
129.044556	156.0
129.069168	1132.0
129.196564	48.0
129.314224	148.0
129.420624	184.0
129.565582	84.0
129.653961	164.0
129.672089	172.0
129.751434	176.0
129.901108	124.0
129.9487	184.0
130.008667	196.0
130.062775	436.0
130.137131	156.0
130.182556	168.0
130.364288	184.0
130.407471	148.0
130.457489	76.0
130.498413	200.0
130.655334	144.0
130.835129	124.0
130.855621	200.0
131.06517	208.0
131.115997	264.0
131.142654	224.0
131.761078	120.0
131.902771	124.0
131.931259	164.0
132.035385	80.0
132.05307	188.0
132.218414	164.0
132.303101	128.0
132.378662	168.0
132.415314	156.0
132.545898	180.0
132.594025	52.0
132.777435	192.0
132.802658	216.0
133.211258	28.0
133.282471	208.0
133.436478	180.0
133.583664	140.0
133.60437	152.0
133.684906	156.0
133.772369	232.0
133.788483	196.0
133.843735	128.0
133.981934	188.0
134.018402	204.0
134.057968	152.0
134.241165	112.0
134.3508	152.0
134.475418	96.0
134.588531	148.0
134.611633	140.0
134.840347	216.0
134.921249	104.0
135.009109	160.0
135.124771	136.0
135.279831	212.0
135.351608	232.0
135.527649	168.0
135.604126	148.0
135.838318	184.0
135.947372	288.0
136.02861	104.0
136.163284	40.0
136.186508	276.0
136.244171	200.0
136.409576	124.0
136.460724	180.0
136.539795	172.0
136.588638	72.0
136.607254	204.0
136.658432	120.0
136.816696	160.0
136.907501	48.0
137.012329	96.0
137.03717	380.0
137.142487	140.0
137.189453	180.0
137.324692	108.0
137.478668	132.0
137.579041	236.0
137.663101	136.0
137.826614	160.0
137.971527	240.0
138.013626	140.0
138.032318	316.0
138.048691	224.0
138.067398	228.0
138.132889	208.0
138.200745	168.0
138.240524	196.0
138.29277	196.0
138.530853	184.0
138.690201	188.0
138.711304	128.0
138.844955	140.0
138.873093	220.0
138.911835	156.0
138.992737	44.0
139.053818	7040.0
139.104263	152.0
139.126526	228.0
139.241592	44.0
139.319107	88.0
139.377838	84.0
139.4366	40.0
139.502411	64.0
139.523575	40.0
139.551788	136.0
139.577652	128.0
139.612915	232.0
139.662308	132.0
139.704651	112.0
139.808182	68.0
139.852905	156.0
140.011032	192.0
140.049713	8084.0
140.094574	224.0
140.166138	84.0
140.243912	72.0
140.279266	108.0
140.319351	184.0
140.383789	144.0
140.439621	68.0
140.533981	124.0
140.616577	148.0
140.765305	100.0
140.797638	168.0
140.885773	64.0
141.057037	816.0
141.09137	144.0
141.14473	168.0
141.20961	144.0
141.2995	196.0
141.405991	68.0
141.47464	64.0
141.593033	136.0
141.848938	100.0
142.035385	172.0
142.064056	352.0
142.128799	124.0
142.192871	152.0
142.237961	80.0
142.259323	192.0
142.496826	124.0
142.513458	148.0
142.710739	248.0
142.760681	96.0
142.777328	192.0
143.003357	144.0
143.031906	104.0
143.069016	148.0
143.098572	80.0
143.196213	216.0
143.317703	108.0
143.367752	68.0
143.423904	156.0
143.489319	128.0
143.885361	144.0
143.909241	132.0
144.05014	188.0
144.150497	68.0
144.188736	144.0
144.207855	128.0
144.234146	104.0
144.27478	204.0
144.439789	96.0
145.016983	148.0
145.057449	176.0
145.112747	88.0
145.134323	212.0
145.801697	128.0
145.868988	224.0
145.935196	156.0
146.014725	216.0
146.058136	168.0
146.227386	136.0
146.566956	224.0
146.723618	140.0
146.745316	84.0
146.9431	196.0
147.00824	160.0
147.028946	124.0
147.142593	200.0
147.225525	136.0
147.261749	140.0
147.445374	164.0
147.575912	152.0
147.658127	172.0
147.868622	92.0
148.022064	308.0
148.105911	152.0
148.178589	76.0
148.370041	180.0
148.50827	184.0
148.811615	108.0
149.06424	40.0
149.083084	164.0
149.453308	56.0
149.677246	48.0
149.708908	144.0
149.820953	168.0
149.911102	100.0
150.037857	176.0
150.086609	156.0
150.193924	148.0
150.396454	148.0
150.423309	148.0
150.479462	132.0
150.538055	132.0
151.259323	108.0
151.54097	224.0
151.609573	168.0
151.962692	180.0
152.043671	44.0
152.112549	124.0
152.168854	172.0
152.19342	212.0
152.249893	176.0
152.42186	120.0
152.547211	72.0
152.687363	208.0
152.802399	208.0
152.894028	228.0
153.057755	396.0
153.233841	96.0
153.354584	160.0
153.417084	308.0
153.544434	208.0
153.63324	136.0
153.717133	256.0
153.739334	100.0
153.93309	216.0
154.06395	10908.0
154.104797	136.0
154.144333	56.0
154.193771	192.0
154.211075	56.0
154.403915	96.0
154.601837	64.0
154.7677	148.0
154.785034	144.0
154.834564	64.0
154.911346	200.0
155.070663	3396.0
155.161652	200.0
155.243469	48.0
155.320358	68.0
155.466751	96.0
155.635544	124.0
155.796768	176.0
155.844193	252.0
155.895813	140.0
155.901764	168.0
156.073944	492.0
156.192261	64.0
156.368912	68.0
156.49588	232.0
156.530731	116.0
156.573074	156.0
156.744965	84.0
156.978775	176.0
157.070648	228.0
157.076004	144.0
157.084702	196.0
157.242432	168.0
157.423492	120.0
157.674164	188.0
158.010895	60.0
158.045929	56.0
158.085968	140.0
158.113495	108.0
158.168564	180.0
158.323792	100.0
158.346344	140.0
158.461563	156.0
158.639511	60.0
158.663879	188.0
158.890305	124.0
159.010742	160.0
159.204071	108.0
159.379913	196.0
159.450272	144.0
159.651398	68.0
159.782196	184.0
159.988571	148.0
160.069153	136.0
160.5177	152.0
160.558044	140.0
160.691742	232.0
160.753265	136.0
160.841705	76.0
161.009811	56.0
161.040115	160.0
161.090637	160.0
161.249817	164.0
161.310486	204.0
161.330704	184.0
161.386337	204.0
161.639282	136.0
161.662064	204.0
161.768372	204.0
161.859512	132.0
161.940552	224.0
162.011475	164.0
162.059616	68.0
162.42215	176.0
162.846451	176.0
162.88414	72.0
163.041672	116.0
163.062012	52.0
163.164536	252.0
163.298462	244.0
163.62674	120.0
164.049927	616.0
164.087891	180.0
164.108292	168.0
164.312332	160.0
164.447571	192.0
164.516495	116.0
164.84343	32.0
164.90477	176.0
164.986572	72.0
165.019806	128.0
165.055649	1196.0
165.273865	272.0
165.413788	124.0
165.477798	84.0
165.52388	128.0
165.733932	92.0
165.78775	188.0
165.908997	180.0
165.954361	168.0
165.972321	148.0
166.003082	168.0
166.064941	30564.0
166.142349	220.0
166.167252	52.0
166.205734	52.0
166.310959	48.0
166.352036	176.0
166.371292	80.0
166.421356	164.0
166.48526	36.0
166.569366	208.0
166.745621	88.0
166.766174	176.0
166.840149	104.0
166.870178	264.0
166.915665	140.0
166.937286	144.0
166.977127	152.0
167.072235	74596.0
167.144562	228.0
167.17572	148.0
167.207977	124.0
167.237396	56.0
167.261215	264.0
167.288956	44.0
167.310028	104.0
167.328751	80.0
167.346191	64.0
167.373871	112.0
167.419098	40.0
167.494446	564.0
167.540161	72.0
167.584259	68.0
167.60199	168.0
167.676727	108.0
167.69368	76.0
167.738586	140.0
167.788589	112.0
167.831406	88.0
167.863068	100.0
167.915985	236.0
167.937134	72.0
167.977585	112.0
168.020523	208.0
168.039566	340.0
168.075653	16652.0
168.109802	108.0
168.11412	108.0
168.174515	56.0
168.199081	148.0
168.220978	104.0
168.245255	232.0
168.266449	72.0
168.306183	52.0
168.334595	40.0
168.366226	128.0
168.384109	92.0
168.412064	168.0
168.439285	88.0
168.468903	100.0
168.585175	76.0
168.611023	44.0
168.688553	40.0
168.714417	32.0
168.770462	76.0
168.799744	52.0
168.817841	68.0
168.84111	60.0
168.87648	208.0
168.903198	64.0
168.941788	92.0
168.97821	44.0
169.023758	232.0
169.049026	208.0
169.07872	1360.0
169.136078	48.0
169.198685	160.0
169.257751	40.0
169.275879	68.0
169.294006	56.0
169.31871	156.0
169.368256	156.0
169.402039	108.0
169.448074	244.0
169.711731	144.0
169.742325	132.0
169.786423	76.0
169.833099	80.0
170.0578	180.0
170.144501	68.0
170.178253	220.0
170.201019	172.0
170.326294	76.0
170.34967	48.0
170.386047	44.0
170.471359	160.0
170.736954	204.0
170.755173	172.0
170.874832	192.0
170.897446	108.0
171.024048	2076.0
171.10907	60.0
171.132507	32.0
171.288757	88.0
171.377335	72.0
171.497223	96.0
171.572815	80.0
171.789276	76.0
171.828415	32.0
171.938004	52.0
172.024155	916.0
172.234634	188.0
172.324478	76.0
172.632935	116.0
172.759262	148.0
172.970444	60.0
173.031219	580.0
173.096115	152.0
173.153732	44.0
173.282089	140.0
173.512726	60.0
173.578278	80.0
173.971848	64.0
174.005981	160.0
174.032654	392.0
174.562439	88.0
174.962982	148.0
175.019394	168.0
175.334396	60.0
175.801193	92.0
175.919968	44.0
175.978043	168.0
175.999176	136.0
176.036133	268.0
176.284454	56.0
176.302963	148.0
176.480072	80.0
176.757812	112.0
176.980164	104.0
177.043716	76.0
177.860336	68.0
177.939987	48.0
178.043549	180.0
178.363586	144.0
178.391632	156.0
178.740051	176.0
178.787949	132.0
178.809235	140.0
178.939682	64.0
179.035538	160.0
179.088806	88.0
179.251328	40.0
179.552567	144.0
179.603241	188.0
179.741974	120.0
179.995575	144.0
180.056992	152.0
180.113083	148.0
180.364258	108.0
180.409714	128.0
180.776154	96.0
180.824326	60.0
181.20726	44.0
181.255493	184.0
181.290329	120.0
181.68985	136.0
182.057587	236.0
182.393433	72.0
182.649414	164.0
182.912598	124.0
182.96106	196.0
182.996063	144.0
183.02298	232.0
183.0672	212.0
183.203445	152.0
183.257324	72.0
183.362427	176.0
183.715652	156.0
184.016647	172.0
184.037109	160.0
184.074661	324.0
184.412338	60.0
184.455597	212.0
185.026413	404.0
185.07785	228.0
186.015915	168.0
186.037643	140.0
186.249451	148.0
186.556519	68.0
186.610901	116.0
186.765915	96.0
187.021683	136.0
187.940094	76.0
188.371475	64.0
189.022186	124.0
189.580841	228.0
190.057983	208.0
192.234634	116.0
192.298111	92.0
192.331238	196.0
192.48584	80.0
192.69577	116.0
192.764847	224.0
192.900284	244.0
192.963867	88.0
193.060654	176.0
193.436951	172.0
193.495087	164.0
193.528305	148.0
194.068619	196.0
194.476425	188.0
194.562485	128.0
194.856873	44.0
194.901337	216.0
194.984695	144.0
195.221008	228.0
195.663437	160.0
195.838867	80.0
196.022827	460.0
196.555359	220.0
196.932251	80.0
197.028381	1944.0
197.351456	128.0
197.401779	36.0
197.435349	192.0
197.709518	144.0
197.891464	136.0
197.922272	176.0
197.975845	120.0
198.035843	19828.0
198.108688	136.0
198.19397	152.0
198.301727	176.0
198.382156	56.0
198.423813	100.0
198.503571	72.0
198.566818	28.0
198.631332	76.0
198.673584	68.0
198.80249	148.0
198.829361	152.0
198.930237	148.0
198.994003	368.0
199.043625	47040.0
199.086929	112.0
199.139389	40.0
199.175125	232.0
199.223663	52.0
199.254562	64.0
199.305145	132.0
199.341675	40.0
199.391769	172.0
199.449982	60.0
199.476578	52.0
199.507935	56.0
199.529999	72.0
199.563736	212.0
199.58342	48.0
199.678268	88.0
199.707153	96.0
199.735291	136.0
199.79155	44.0
199.819687	204.0
199.868805	52.0
199.892838	80.0
199.915359	100.0
199.935059	60.0
199.97049	104.0
200.047867	7088.0
200.087067	160.0
200.142548	68.0
200.258835	84.0
200.302307	84.0
200.326447	96.0
200.357437	36.0
200.484558	176.0
200.540604	56.0
200.591339	72.0
200.619522	124.0
200.71257	68.0
200.756989	64.0
201.039658	1668.0
201.172455	84.0
201.19223	132.0
201.242096	144.0
201.336227	96.0
201.409195	72.0
201.471817	52.0
201.500061	60.0
201.549042	144.0
201.617172	272.0
201.723328	148.0
201.748779	92.0
201.925247	88.0
202.042374	364.0
202.088165	108.0
202.178711	72.0
202.228592	116.0
202.369492	152.0
202.495819	136.0
202.563797	64.0
202.736816	92.0
203.147766	132.0
203.244232	88.0
203.394653	128.0
203.573517	84.0
203.66156	40.0
204.230057	84.0
205.075714	48.0
206.846695	84.0
207.649002	76.0
207.711761	68.0
207.818253	44.0
207.84407	44.0
209.335999	44.0
211.547699	56.0
212.016937	88.0
212.808853	108.0
214.120361	88.0
214.448227	112.0
215.216858	108.0
215.62291	40.0
215.72522	92.0
216.008881	120.0
216.570908	140.0
217.004623	88.0
217.421173	88.0
217.987961	76.0
219.032425	196.0
219.167953	164.0
219.955399	92.0
221.04303	80.0
224.021057	128.0
224.220688	44.0
224.301178	68.0
225.050003	156.0
225.393509	80.0
237.075348	104.0
238.401108	76.0
240.631271	88.0
243.062195	132.0
256.176239	36.0
261.096008	48.0
262.36792	124.0
268.118378	44.0
273.308899	100.0
274.138733	68.0
275.184387	80.0
277.072937	164.0
278.339966	108.0
279.097565	164.0
283.058472	52.0
293.067505	128.0
294.554962	68.0
324.266937	96.0
333.445435	124.0
335.593231	44.0
342.55307	56.0
348.948242	120.0
353.521454	68.0
363.659943	96.0
369.842468	104.0
379.434906	72.0
379.795563	44.0
383.828613	100.0
383.961212	104.0
390.069458	72.0
390.384003	108.0
395.762512	144.0
398.539093	140.0
407.396912	48.0
409.738373	76.0
415.674133	48.0
415.722839	44.0
416.994019	68.0
419.040924	44.0
419.130554	44.0
474.249176	76.0
474.661041	164.0
483.732239	76.0
490.801422	92.0
498.917267	88.0
505.071289	48.0
506.051361	136.0
511.654633	36.0
516.293335	116.0
529.061523	84.0
532.696228	124.0
533.764465	100.0
538.894775	56.0
546.559448	72.0
555.450378	72.0
578.730957	100.0
584.890503	128.0
605.958313	96.0
622.090637	84.0
634.026978	84.0
636.475037	72.0
641.057739	84.0
660.790527	112.0
665.244141	56.0
675.840759	52.0
678.58075	80.0
743.174011	40.0
744.368225	48.0
744.541992	56.0
761.791809	236.0
779.211365	48.0
784.197449	120.0
819.9729	72.0
863.346069	148.0
879.373779	160.0
889.578735	100.0
890.160645	148.0
899.759033	72.0
900.648804	112.0
904.350037	124.0
905.607483	132.0
908.070862	152.0
916.228149	128.0
917.566162	148.0
927.644165	212.0
930.416626	192.0
936.120117	136.0
936.69873	100.0
945.509521	128.0
991.516968	200.0
1009.282288	120.0
1010.034851	164.0
1018.020874	124.0
1024.840088	172.0
1028.334717	152.0
1036.937378	132.0
1039.496216	152.0
1059.50415	188.0
1060.236328	192.0
1063.414429	132.0
1077.003418	68.0
1077.552124	148.0
1085.131348	152.0
1095.818481	156.0
1101.241089	84.0
1108.25354	88.0
1117.549438	104.0
1118.980469	132.0
1120.125977	112.0
1120.425659	172.0
1121.112061	220.0
1121.165405	88.0
1125.374634	84.0
1128.006836	140.0
1135.036865	184.0
1139.171265	132.0
1140.710205	128.0
1143.380493	64.0
1150.012695	240.0
1153.9646	184.0
1161.530029	192.0
1163.551636	92.0
1163.605957	160.0
1168.465576	128.0
1170.500732	164.0
1173.942139	136.0
1175.838745	152.0
1187.689453	112.0
1187.88147	184.0
1194.483032	172.0
1196.719727	148.0
1197.077881	168.0
1197.57373	52.0
1198.262573	224.0
1198.372803	132.0
1199.199829	244.0
1199.902954	32.0
1201.158081	124.0
1207.713379	100.0
1208.820312	224.0
1214.418335	224.0
1216.5	148.0
1216.708252	32.0
1222.428833	44.0
1229.209351	228.0
1232.442383	132.0
1234.784302	160.0
1235.812622	188.0
1237.275391	136.0
1238.01062	112.0
1241.164062	128.0
1241.802246	176.0
1244.42688	236.0
1244.72876	176.0
1246.969849	172.0
1251.345459	124.0
1253.613525	120.0
1253.909546	148.0
1255.277222	104.0
1262.020874	412.0
1264.744507	160.0
1264.99231	140.0
1265.643677	192.0
1267.754639	124.0
1268.009766	180.0
1270.314331	164.0
1273.011475	220.0
1275.974487	104.0
1276.920288	176.0
1277.859253	176.0
1279.005005	136.0
1282.288696	188.0
1283.593262	60.0
1285.455078	200.0
1285.697754	192.0
1299.121216	44.0
1300.061157	152.0
1304.291626	168.0
1305.08252	44.0
1305.168701	144.0
1310.992432	120.0
1311.165405	168.0
1317.269775	168.0
1317.91272	144.0
1318.6427	96.0
1319.235352	156.0
1319.922241	156.0
1320.02356	72.0
1320.124756	80.0
1320.291138	152.0
1320.81189	72.0
1321.16626	236.0
1322.780151	196.0
1324.720825	220.0
1327.351807	164.0
1329.339478	176.0
1329.775024	160.0
1331.430298	144.0
1331.488403	172.0
1332.730713	172.0
1333.55188	128.0
1333.871704	132.0
1335.595093	180.0
1336.337158	204.0
1338.498901	224.0
1339.110718	116.0
1339.56958	128.0
1340.327393	188.0
1340.38562	120.0
1341.012329	88.0
1344.491333	128.0
1346.65979	184.0
1349.414795	176.0
1350.00708	180.0
1353.475708	216.0
1353.695435	156.0
1354.457153	168.0
1356.208374	276.0
1356.831543	176.0
1357.454834	152.0
1359.042603	164.0
1359.890503	144.0
1360.881592	116.0
1364.285645	176.0
1364.74646	176.0
1364.937622	124.0
1367.409546	100.0
1369.154419	108.0
1369.427002	164.0
1370.546753	148.0
1372.433716	156.0
1372.507446	176.0
1374.757446	148.0
1375.458618	180.0
1376.152588	160.0
1377.836548	228.0
1379.078003	152.0
1380.25354	136.0
1381.836426	196.0
1382.317383	124.0
1384.753052	116.0
1385.24939	44.0
1386.80542	160.0
1388.731934	152.0
1389.660522	200.0
1390.343262	120.0
1391.093018	136.0
1391.634888	76.0
1391.909668	200.0
1394.472778	208.0
1396.056274	152.0
1397.953369	180.0
1398.079834	84.0
1406.330444	220.0
1408.15979	140.0
1408.241943	92.0
1410.334106	60.0
1410.520996	200.0
1411.276123	168.0
1411.747192	144.0
1412.547485	64.0
1414.994751	144.0
1416.155396	196.0
1416.822144	196.0
1417.54895	152.0
1418.298462	204.0
1420.83313	184.0
1420.983154	204.0
1421.140747	144.0
1421.410889	108.0
1421.478394	120.0
1422.243896	116.0
1422.754395	220.0
1422.904541	172.0
1425.172852	120.0
1425.345703	36.0
1425.82666	140.0
1426.189819	188.0
1427.676147	192.0
1428.014526	224.0
1428.962402	136.0
1429.98584	104.0
1430.685913	108.0
1430.791382	172.0
1431.612061	312.0
1432.018799	96.0
1435.463013	164.0
1435.877808	156.0
1436.141724	92.0
1438.533813	92.0
1438.782959	224.0
1439.054688	192.0
1441.958374	208.0
1442.091675	200.0
1445.827881	116.0
1446.864868	96.0
1449.811523	120.0
1450.77417	172.0
1451.509644	128.0
1452.624512	144.0
1453.125244	188.0
1454.50647	180.0
1454.635498	152.0
1456.860596	240.0
1458.486816	120.0
1459.011353	136.0
1459.878174	168.0
1461.574585	172.0
1462.404053	192.0
1462.602051	76.0
1465.297852	196.0
1465.80835	96.0
1466.95166	208.0
1467.859009	148.0
1468.011475	172.0
1469.048828	160.0
1469.193726	56.0
1469.99585	164.0
1470.521484	212.0
1470.666504	252.0
1470.964233	160.0
1471.422363	124.0
1471.949219	136.0
1473.767212	196.0
1474.997559	144.0
1475.525146	224.0
1477.184692	128.0
1477.337646	192.0
1477.528931	128.0
1477.88855	256.0
1478.952271	140.0
1479.671875	232.0
1479.809692	204.0
1480.093018	244.0
1483.180542	140.0
1483.632812	168.0
1483.816772	144.0
1483.993164	132.0
1486.048706	176.0
1487.123169	128.0
1487.837036	172.0
1487.952271	124.0
1488.528076	156.0
1488.858276	152.0
1489.034912	152.0
1491.824219	248.0
1491.893433	136.0
1492.016479	140.0
1492.085693	160.0
1492.59314	196.0
1493.616089	140.0
1493.739136	180.0
1494.108398	132.0
1495.000977	136.0
1495.755249	208.0
1497.749634	176.0
1500.076782	132.0
1500.392944	184.0
1502.135742	44.0
1503.4552	176.0
1504.999146	180.0
END IONS

BEGIN IONS
PEPMASS=305.112
CHARGE=1
MSLEVEL=2
SOURCE_INSTRUMENT=LC-ESI-qTof
FILENAME=p4-G05_GG5_01_18401.mzXML
SEQ=*..*
IONMODE=Positive
ORGANISM=GNPS-NIH-SMALLMOLECULEPHARMACOLOGICALLYACTIVE
NAME=MLS002207243-01!Diazinon333-41-5 M+H
PI=Dorrestein
DATACOLLECTOR=VP/LMS
SMILES=CCOP(=S)(OCC)Oc1cc(C)nc(n1)C(C)C
INCHI=N/A
INCHIAUX=N/A
PUBMED=N/A
SUBMITUSER=vphelan
LIBRARYQUALITY=1
SPECTRUMID=CCMSLIB00000085870
USI=mzspec:GNPS:GNPS-NIH-SMALLMOLECULEPHARMACOLOGICALLYACTIVE:accession:CCMSLIB00000085870
SCANS=2466
44.896957	168.0
44.908276	136.0
44.918301	172.0
44.950321	144.0
44.978348	160.0
44.99704	104.0
45.011726	124.0
45.022411	124.0
45.042915	192.0
45.05444	172.0
45.058952	168.0
45.094559	156.0
45.142689	92.0
45.173382	152.0
45.187756	156.0
45.202888	156.0
45.262978	144.0
45.284554	180.0
45.320728	140.0
45.341537	136.0
45.371735	216.0
45.381355	156.0
45.399879	172.0
45.421486	112.0
45.428467	168.0
45.452137	196.0
45.519257	52.0
45.534031	124.0
45.547462	36.0
45.572369	240.0
45.585083	76.0
45.644608	112.0
45.674557	204.0
45.68996	172.0
45.700726	184.0
45.722256	116.0
45.733025	88.0
45.746487	52.0
45.766682	196.0
45.777454	140.0
45.799004	60.0
45.808434	264.0
45.82999	96.0
45.842117	256.0
45.854248	376.0
45.878513	144.0
45.913723	248.0
45.937851	152.0
45.959438	232.0
45.977768	240.0
45.999702	192.0
46.026932	212.0
46.040436	168.0
46.056644	196.0
46.089069	152.0
46.114746	148.0
46.130306	188.0
46.142452	212.0
46.169041	184.0
46.179153	88.0
46.187763	172.0
46.209263	152.0
46.253017	272.0
46.264145	120.0
46.282501	136.0
46.346165	156.0
46.366493	140.0
46.390892	148.0
46.403137	124.0
46.422077	56.0
46.454121	180.0
46.463802	168.0
46.492622	100.0
46.509972	220.0
46.546925	160.0
46.559147	108.0
46.590874	168.0
46.602619	172.0
46.617565	276.0
46.627079	160.0
46.653553	180.0
46.66309	120.0
46.683384	232.0
46.698151	176.0
46.748543	144.0
46.765598	252.0
46.78487	240.0
46.817505	116.0
46.842068	44.0
46.854328	160.0
46.870888	156.0
46.88419	168.0
46.907413	84.0
46.922718	180.0
46.963387	124.0
46.984715	120.0
47.012505	140.0
47.022057	188.0
47.04697	192.0
47.067108	168.0
47.109451	132.0
47.158646	136.0
47.184616	172.0
47.201027	132.0
47.218803	104.0
47.246655	156.0
47.259342	152.0
47.280151	200.0
47.302273	108.0
47.322102	264.0
47.346951	140.0
47.352875	88.0
47.364254	168.0
47.394035	144.0
47.41185	192.0
47.462494	384.0
47.481216	168.0
47.497162	164.0
47.509209	284.0
47.525444	120.0
47.558609	200.0
47.579201	200.0
47.640045	184.0
47.661613	172.0
47.675354	124.0
47.70697	152.0
47.72546	160.0
47.767479	112.0
47.780617	196.0
47.806263	148.0
47.829403	172.0
47.840416	176.0
47.858315	308.0
47.880348	164.0
47.90694	196.0
47.926689	200.0
47.93457	200.0
47.945652	144.0
47.957504	144.0
47.981285	48.0
48.020519	160.0
48.024872	112.0
48.030663	144.0
48.040504	148.0
48.062634	116.0
48.10244	176.0
48.124435	112.0
48.150673	52.0
48.164486	152.0
48.18861	156.0
48.210197	140.0
48.222179	180.0
48.248756	208.0
48.287502	196.0
48.304932	156.0
48.327415	160.0
48.364319	132.0
48.394363	108.0
48.421757	60.0
48.454845	104.0
48.479946	200.0
48.499352	176.0
48.515987	176.0
48.572845	136.0
48.589493	172.0
48.604244	228.0
48.631462	136.0
48.661667	136.0
48.673595	88.0
48.701939	108.0
48.740723	140.0
48.788376	212.0
48.818687	96.0
48.828423	144.0
48.840942	208.0
48.853462	128.0
48.863201	148.0
48.879765	184.0
48.899384	60.0
48.910519	176.0
48.949501	312.0
48.962036	168.0
49.001041	140.0
49.014973	120.0
49.0256	188.0
49.054001	152.0
49.072769	200.0
49.087463	124.0
49.10257	144.0
49.11396	196.0
49.126682	168.0
49.138474	180.0
49.177006	152.0
49.192108	136.0
49.209576	180.0
49.213303	220.0
49.232601	112.0
49.256962	172.0
49.287083	108.0
49.301029	200.0
49.304821	196.0
49.325699	184.0
49.335361	272.0
49.373756	144.0
49.400333	328.0
49.409153	144.0
49.423626	228.0
49.438866	156.0
49.459332	148.0
49.476448	176.0
49.517483	376.0
49.531921	188.0
49.547333	124.0
49.558064	164.0
49.580963	180.0
49.592175	76.0
49.606018	160.0
49.672478	60.0
49.684483	228.0
49.698116	128.0
49.711388	120.0
49.742268	144.0
49.756306	132.0
49.76754	120.0
49.781582	240.0
49.808266	124.0
49.83215	132.0
49.847607	68.0
49.867634	144.0
49.920708	156.0
49.943211	144.0
49.967003	180.0
49.988235	68.0
49.999493	232.0
50.012161	192.0
50.023987	160.0
50.062847	152.0
50.087559	168.0
50.11356	128.0
50.182549	152.0
50.199207	200.0
50.260204	116.0
50.270081	172.0
50.287231	160.0
50.30732	368.0
50.322636	208.0
50.344906	172.0
50.368916	56.0
50.389481	176.0
50.402218	252.0
50.421196	164.0
50.4491	200.0
50.472088	176.0
50.481968	164.0
50.503204	204.0
50.51479	168.0
50.526943	164.0
50.588108	32.0
50.602264	148.0
50.623505	116.0
50.658081	224.0
50.704262	96.0
50.739956	180.0
50.763332	144.0
50.777985	284.0
50.809959	104.0
50.843174	152.0
50.85503	160.0
50.865356	244.0
50.875896	156.0
50.900036	152.0
50.929863	100.0
50.957638	168.0
50.992046	204.0
51.01228	168.0
51.039974	176.0
51.060627	200.0
51.093346	224.0
51.122276	176.0
51.160698	208.0
51.204525	152.0
51.229557	236.0
51.255665	176.0
51.279282	196.0
51.296997	140.0
51.319626	156.0
51.368298	124.0
51.399689	196.0
51.408714	160.0
51.443935	172.0
51.477058	140.0
51.498196	172.0
51.538029	172.0
51.568855	240.0
51.593941	164.0
51.603951	176.0
51.615391	132.0
51.629639	112.0
51.637501	164.0
51.658905	196.0
51.681393	168.0
51.69355	188.0
51.726986	152.0
51.745743	240.0
51.759808	132.0
51.772186	168.0
51.785698	188.0
51.795937	160.0
51.828674	304.0
51.858891	144.0
51.870239	196.0
51.8913	168.0
51.916122	140.0
51.927593	188.0
51.947678	64.0
51.967846	140.0
52.032352	200.0
52.073997	204.0
52.086926	196.0
52.108212	132.0
52.129028	92.0
52.189529	348.0
52.209099	152.0
52.218342	140.0
52.245495	180.0
52.26664	116.0
52.299744	220.0
52.334946	168.0
52.347256	96.0
52.363094	44.0
52.381229	136.0
52.385857	80.0
52.389503	120.0
52.400551	156.0
52.410637	48.0
52.428688	152.0
52.442341	204.0
52.462524	192.0
52.502872	236.0
52.546173	220.0
52.556274	48.0
52.570705	128.0
52.587578	152.0
52.617741	176.0
52.648663	72.0
52.659874	168.0
52.695465	120.0
52.698166	164.0
52.723789	136.0
52.735352	208.0
52.746918	216.0
52.765709	120.0
52.777279	104.0
52.866966	376.0
52.895454	396.0
52.916431	380.0
52.935005	148.0
52.957699	168.0
52.985703	120.0
53.004539	200.0
53.02338	416.0
53.080765	296.0
53.095074	176.0
53.113277	176.0
53.145195	184.0
53.185833	136.0
53.21051	160.0
53.275867	224.0
53.289471	188.0
53.300484	140.0
53.305939	132.0
53.309811	100.0
53.349678	132.0
53.371796	132.0
53.395061	112.0
53.411064	80.0
53.427616	116.0
53.452114	192.0
53.469265	88.0
53.486732	144.0
53.496922	132.0
53.542061	132.0
53.555241	196.0
53.566822	56.0
53.582848	140.0
53.609077	152.0
53.627182	180.0
53.648434	64.0
53.682632	120.0
53.707142	324.0
53.718433	148.0
53.730103	160.0
53.741776	188.0
53.786655	160.0
53.801617	184.0
53.839012	204.0
53.858875	192.0
53.885582	172.0
53.915321	176.0
53.963299	188.0
54.013935	168.0
54.032623	136.0
54.057659	212.0
54.092995	212.0
54.105717	160.0
54.132072	224.0
54.149647	120.0
54.173046	152.0
54.208668	168.0
54.234947	184.0
54.247822	160.0
54.284996	256.0
54.29768	40.0
54.371037	132.0
54.404884	132.0
54.437218	148.0
54.479698	164.0
54.500267	204.0
54.511864	148.0
54.531128	224.0
54.543991	176.0
54.552189	196.0
54.592037	224.0
54.633358	200.0
54.662018	120.0
54.672321	180.0
54.695869	148.0
54.715008	40.0
54.725315	268.0
54.762131	132.0
54.781281	172.0
54.866096	240.0
54.887402	152.0
54.920326	160.0
54.931084	52.0
54.972961	152.0
55.00396	212.0
55.031757	240.0
55.048252	76.0
55.067375	152.0
55.092564	188.0
55.145763	204.0
55.179764	144.0
55.204899	124.0
55.215252	144.0
55.235962	140.0
55.287148	336.0
55.305706	212.0
55.326893	144.0
55.336597	196.0
55.354591	188.0
55.373619	168.0
55.391396	80.0
55.453629	164.0
55.4729	88.0
55.489437	192.0
55.501534	140.0
55.533695	92.0
55.550014	168.0
55.560398	116.0
55.595715	160.0
55.606621	320.0
55.625698	96.0
55.642029	164.0
55.653252	76.0
55.6745	152.0
55.685093	188.0
55.704403	176.0
55.731144	180.0
55.761856	216.0
55.780437	172.0
55.803978	188.0
55.823307	216.0
55.8493	252.0
55.870907	192.0
55.90662	124.0
55.917038	324.0
55.949261	216.0
56.010983	128.0
56.022991	156.0
56.048092	92.0
56.064484	168.0
56.086254	192.0
56.121128	84.0
56.147972	340.0
56.171837	128.0
56.183773	84.0
56.207775	184.0
56.225555	160.0
56.253914	176.0
56.292648	204.0
56.332184	172.0
56.35099	140.0
56.391342	356.0
56.418667	128.0
56.443283	172.0
56.464603	52.0
56.492496	168.0
56.518372	140.0
56.537579	196.0
56.55368	172.0
56.58308	116.0
56.620258	204.0
56.632908	168.0
56.657707	156.0
56.67662	180.0
56.699665	124.0
56.801689	140.0
56.815125	48.0
56.829334	324.0
56.845135	104.0
56.860882	140.0
56.884159	148.0
56.927101	120.0
56.965588	144.0
56.978775	248.0
56.993797	164.0
57.017845	156.0
57.035881	164.0
57.076473	176.0
57.100311	160.0
57.110828	128.0
57.127613	192.0
57.140598	164.0
57.16222	216.0
57.177982	152.0
57.211082	440.0
57.229774	132.0
57.234993	116.0
57.259022	160.0
57.276829	148.0
57.300747	116.0
57.327595	196.0
57.335991	176.0
57.358017	44.0
57.397217	176.0
57.430824	212.0
57.448498	132.0
57.480183	120.0
57.496063	188.0
57.511669	224.0
57.533249	152.0
57.553944	176.0
57.569252	140.0
57.579823	152.0
57.616077	368.0
57.636494	148.0
57.650112	160.0
57.67347	200.0
57.689751	176.0
57.706444	172.0
57.730957	112.0
57.741543	208.0
57.796001	136.0
57.810078	328.0
57.828514	116.0
57.85722	72.0
57.885998	180.0
57.908031	120.0
57.920151	168.0
57.937473	176.0
57.975075	192.0
57.990017	192.0
58.021687	188.0
58.032299	108.0
58.072098	164.0
58.121792	128.0
58.139656	328.0
58.164288	164.0
58.207222	176.0
58.234138	68.0
58.24477	128.0
58.258442	100.0
58.320747	216.0
58.353916	176.0
58.369045	208.0
58.39373	152.0
58.423294	208.0
58.443932	180.0
58.460148	220.0
58.486546	96.0
58.516438	228.0
58.529083	132.0
58.562656	136.0
58.577419	172.0
58.58054	116.0
58.617527	192.0
58.632767	96.0
58.649979	220.0
58.687649	112.0
58.727299	184.0
58.739502	140.0
58.752377	164.0
58.765438	188.0
58.795959	212.0
58.80817	152.0
58.820381	136.0
58.836533	172.0
58.860077	84.0
58.871277	276.0
58.921005	216.0
58.962471	156.0
58.993004	228.0
59.025436	132.0
59.040405	132.0
59.052639	152.0
59.08371	180.0
59.139854	148.0
59.159756	124.0
59.233265	156.0
59.246983	176.0
59.259426	140.0
59.286892	124.0
59.299152	148.0
59.332985	212.0
59.364147	336.0
59.388084	96.0
59.40189	116.0
59.414635	148.0
59.444851	304.0
59.47094	164.0
59.484756	204.0
59.52314	144.0
59.561539	176.0
59.583813	140.0
59.627609	196.0
59.642979	192.0
59.65374	152.0
59.675209	112.0
59.744389	216.0
59.767555	64.0
59.836819	156.0
59.876953	256.0
59.892258	224.0
59.907661	96.0
59.927692	52.0
59.964195	128.0
60.009384	140.0
60.024803	120.0
60.035599	108.0
60.051022	144.0
60.091129	132.0
60.108105	48.0
60.135883	204.0
60.148232	212.0
60.202061	176.0
60.236252	108.0
60.251701	136.0
60.262516	128.0
60.282734	184.0
60.301308	160.0
60.327431	268.0
60.359684	116.0
60.373817	164.0
60.418503	144.0
60.472836	140.0
60.499989	200.0
60.584332	316.0
60.597515	120.0
60.61031	188.0
60.613556	144.0
60.643631	164.0
60.661819	156.0
60.692825	204.0
60.730896	140.0
60.750793	224.0
60.809109	172.0
60.84333	108.0
60.883705	132.0
60.967117	276.0
60.991264	124.0
61.009567	176.0
61.036518	72.0
61.052326	208.0
61.068657	88.0
61.087326	124.0
61.10461	144.0
61.121555	68.0
61.188061	236.0
61.242546	84.0
61.274147	232.0
61.301453	160.0
61.336483	108.0
61.352074	148.0
61.395592	176.0
61.428375	108.0
61.445576	164.0
61.472176	128.0
61.500271	176.0
61.51432	132.0
61.545094	208.0
61.559601	172.0
61.572094	132.0
61.601772	152.0
61.628643	140.0
61.662754	152.0
61.71854	180.0
61.730953	148.0
61.745815	132.0
61.76017	280.0
61.793365	328.0
61.811077	152.0
61.851974	180.0
61.870518	204.0
61.908276	96.0
61.939667	152.0
61.953072	200.0
61.975986	176.0
62.00391	160.0
62.025852	204.0
62.049004	144.0
62.083866	112.0
62.130924	124.0
62.146614	112.0
62.174725	136.0
62.197151	208.0
62.210964	196.0
62.229156	136.0
62.25029	176.0
62.273777	140.0
62.291447	128.0
62.302624	176.0
62.318607	148.0
62.333477	192.0
62.349194	228.0
62.36491	80.0
62.428612	180.0
62.44038	160.0
62.468697	160.0
62.5159	180.0
62.534786	172.0
62.549553	152.0
62.598347	172.0
62.622959	176.0
62.640285	128.0
62.6838	188.0
62.741146	164.0
62.760544	172.0
62.77869	148.0
62.82	164.0
62.849976	128.0
62.868763	208.0
62.906563	136.0
62.931583	80.0
62.962063	236.0
62.974972	160.0
62.992073	188.0
63.020512	196.0
63.035152	480.0
63.105865	312.0
63.174927	264.0
63.199188	348.0
63.226208	160.0
63.2435	184.0
63.254856	180.0
63.279995	140.0
63.311581	160.0
63.373363	144.0
63.384453	200.0
63.43993	164.0
63.466801	240.0
63.494076	188.0
63.524921	184.0
63.543774	176.0
63.558884	168.0
63.587448	204.0
63.599319	148.0
63.620785	188.0
63.666832	248.0
63.679096	232.0
63.701778	144.0
63.720974	144.0
63.742294	152.0
63.786003	100.0
63.806225	124.0
63.843243	112.0
63.870712	192.0
63.890961	132.0
63.905281	96.0
63.935516	220.0
63.949841	136.0
63.960983	172.0
63.992825	176.0
64.031044	192.0
64.05175	40.0
64.072456	60.0
64.0868	216.0
64.120911	228.0
64.152145	160.0
64.172913	156.0
64.192009	176.0
64.204956	192.0
64.237946	140.0
64.292374	184.0
64.305283	140.0
64.331749	144.0
64.367546	136.0
64.404274	168.0
64.415459	52.0
64.438782	280.0
64.463501	116.0
64.480225	128.0
64.499428	168.0
64.52301	148.0
64.549713	112.0
64.561806	164.0
64.610497	112.0
64.634193	168.0
64.67131	48.0
64.690514	224.0
64.724136	136.0
64.743355	184.0
64.785004	156.0
64.802444	140.0
64.810997	160.0
64.835533	172.0
64.884811	204.0
64.906815	184.0
64.927666	176.0
64.953957	112.0
64.97438	164.0
64.981613	108.0
65.078278	176.0
65.085419	92.0
65.098999	116.0
65.120262	76.0
65.157997	312.0
65.171677	228.0
65.189346	140.0
65.205452	204.0
65.211327	136.0
65.248825	116.0
65.260078	196.0
65.287415	176.0
65.306717	220.0
65.319542	144.0
65.333977	144.0
65.352913	184.0
65.372681	80.0
65.407898	196.0
65.465515	136.0
65.511154	132.0
65.537827	180.0
65.54744	108.0
65.577011	184.0
65.580727	160.0
65.587288	212.0
65.612686	228.0
65.647072	160.0
65.696548	164.0
65.716125	188.0
65.729439	308.0
65.746574	96.0
65.793381	184.0
65.828903	204.0
65.845055	132.0
65.860451	204.0
65.875748	180.0
65.896751	168.0
65.92099	88.0
65.945229	188.0
65.96463	104.0
65.98114	56.0
66.001816	212.0
66.024109	132.0
66.06813	132.0
66.081642	184.0
66.095634	168.0
66.116676	80.0
66.149048	68.0
66.17009	68.0
66.196716	144.0
66.249451	164.0
66.270515	112.0
66.291023	176.0
66.297783	164.0
66.302925	148.0
66.348312	104.0
66.380737	136.0
66.394218	320.0
66.421288	92.0
66.450493	168.0
66.474167	352.0
66.518654	148.0
66.536514	52.0
66.560867	180.0
66.572235	92.0
66.59343	160.0
66.610794	184.0
66.628944	232.0
66.653458	220.0
66.666458	188.0
66.689217	304.0
66.716812	188.0
66.741325	148.0
66.748199	128.0
66.753082	184.0
66.779129	120.0
66.804672	208.0
66.827446	180.0
66.840462	148.0
66.868134	140.0
66.923477	284.0
66.939766	192.0
66.95179	252.0
66.964195	140.0
66.983231	396.0
67.022446	180.0
67.026962	136.0
67.045654	136.0
67.065216	68.0
67.079803	156.0
67.105972	168.0
67.123909	148.0
67.151634	180.0
67.187523	260.0
67.211685	148.0
67.233955	176.0
67.251122	164.0
67.285843	148.0
67.324638	124.0
67.383438	104.0
67.408562	128.0
67.425652	140.0
67.461891	192.0
67.479004	120.0
67.499359	144.0
67.55674	168.0
67.579651	112.0
67.593544	164.0
67.606552	176.0
67.640205	104.0
67.653297	128.0
67.688675	224.0
67.71701	44.0
67.746651	220.0
67.764671	208.0
67.790886	164.0
67.812706	192.0
67.843018	124.0
67.857277	120.0
67.907402	288.0
67.940102	140.0
67.963066	332.0
67.984505	196.0
68.030365	164.0
68.049942	160.0
68.12397	48.0
68.140396	164.0
68.159004	148.0
68.16394	256.0
68.186409	96.0
68.230537	176.0
68.280037	148.0
68.405182	180.0
68.424911	244.0
68.454597	276.0
68.484222	92.0
68.50399	160.0
68.527664	184.0
68.544891	160.0
68.549873	132.0
68.584557	184.0
68.62925	172.0
68.645737	164.0
68.730347	192.0
68.748734	132.0
68.765732	344.0
68.794235	168.0
68.810745	44.0
68.833862	152.0
68.894241	304.0
68.92141	180.0
69.027206	128.0
69.048088	128.0
69.060287	164.0
69.093369	96.0
69.12236	308.0
69.140343	124.0
69.169304	172.0
69.182602	196.0
69.197151	188.0
69.200401	132.0
69.207436	144.0
69.239037	228.0
69.265541	152.0
69.288322	192.0
69.310272	140.0
69.350861	188.0
69.357155	264.0
69.381546	124.0
69.400742	180.0
69.430923	180.0
69.492668	136.0
69.5159	200.0
69.540794	172.0
69.56736	244.0
69.592262	192.0
69.635956	268.0
69.680222	188.0
69.728485	152.0
69.745972	368.0
69.768379	176.0
69.788963	168.0
69.81356	160.0
69.829903	156.0
69.864838	128.0
69.908096	176.0
69.932449	140.0
69.941788	116.0
69.955177	140.0
69.968201	112.0
69.984177	204.0
70.032967	116.0
70.074615	140.0
70.091278	148.0
70.112946	120.0
70.12542	156.0
70.167397	120.0
70.200188	296.0
70.21965	124.0
70.248009	120.0
70.27092	312.0
70.302231	128.0
70.314262	164.0
70.329773	188.0
70.374054	176.0
70.397705	204.0
70.463371	156.0
70.481377	212.0
70.484276	164.0
70.563652	108.0
70.575356	144.0
70.603378	324.0
70.630379	188.0
70.65744	160.0
70.688538	152.0
70.72921	212.0
70.754387	156.0
70.779503	176.0
70.798248	200.0
70.836334	288.0
70.863258	104.0
70.91185	76.0
70.963821	188.0
70.99736	76.0
71.030907	212.0
71.081238	160.0
71.098022	44.0
71.11422	196.0
71.144989	208.0
71.18158	264.0
71.215553	252.0
71.244255	128.0
71.267632	284.0
71.286308	180.0
71.308556	136.0
71.337395	136.0
71.361755	144.0
71.386978	152.0
71.403801	160.0
71.422882	288.0
71.447533	148.0
71.459312	180.0
71.48455	164.0
71.499702	184.0
71.515915	120.0
71.525833	160.0
71.540672	148.0
71.565353	164.0
71.58342	148.0
71.587364	108.0
71.592812	156.0
71.629349	136.0
71.651253	144.0
71.668098	148.0
71.696747	148.0
71.715683	120.0
71.744476	244.0
71.767548	128.0
71.791397	140.0
71.808022	124.0
71.824471	120.0
71.843742	192.0
71.880905	160.0
71.917702	172.0
71.932892	192.0
71.979324	124.0
72.007164	280.0
72.024323	140.0
72.047729	156.0
72.077293	192.0
72.099876	144.0
72.120567	172.0
72.134644	164.0
72.151268	168.0
72.204048	276.0
72.249138	180.0
72.268715	148.0
72.282753	188.0
72.296295	176.0
72.309174	156.0
72.338608	140.0
72.37117	308.0
72.400101	88.0
72.416504	164.0
72.435135	184.0
72.457161	312.0
72.485748	128.0
72.509689	160.0
72.523247	192.0
72.540199	156.0
72.584282	168.0
72.601242	160.0
72.616966	192.0
72.635963	340.0
72.66774	200.0
72.684013	152.0
72.714821	140.0
72.740379	152.0
72.76075	208.0
72.779427	224.0
72.794708	204.0
72.814796	116.0
72.855858	204.0
72.889839	156.0
72.915329	192.0
72.933281	224.0
72.949196	132.0
72.992966	156.0
73.047958	184.0
73.066559	176.0
73.102409	144.0
73.115623	172.0
73.12751	180.0
73.154633	176.0
73.171364	172.0
73.223282	212.0
73.24202	164.0
73.294304	180.0
73.321091	216.0
73.331032	116.0
73.381767	164.0
73.395409	172.0
73.407051	164.0
73.414116	136.0
73.456886	172.0
73.479553	144.0
73.543068	188.0
73.549088	104.0
73.553169	196.0
73.567734	192.0
73.582428	132.0
73.624664	152.0
73.647995	208.0
73.670197	292.0
73.694199	168.0
73.730835	156.0
73.75222	208.0
73.764511	148.0
73.782997	144.0
73.822556	588.0
73.838966	184.0
73.916061	196.0
73.993439	308.0
74.024353	144.0
74.063652	360.0
74.132187	128.0
74.177612	148.0
74.198242	304.0
74.214462	116.0
74.229836	116.0
74.269348	132.0
74.305374	288.0
74.340424	220.0
74.365433	56.0
74.377449	60.0
74.39917	172.0
74.427528	140.0
74.442589	136.0
74.466049	228.0
74.510719	148.0
74.533257	192.0
74.581863	100.0
74.603325	156.0
74.648529	144.0
74.683311	148.0
74.711914	224.0
74.734924	368.0
74.764786	204.0
74.789993	164.0
74.838196	120.0
74.854141	416.0
74.871941	236.0
74.894142	124.0
74.922592	80.0
74.991524	156.0
75.022552	116.0
75.058235	144.0
75.081177	156.0
75.157082	116.0
75.176064	212.0
75.189873	168.0
75.264107	128.0
75.277916	104.0
75.329735	184.0
75.357376	188.0
75.385025	120.0
75.438606	124.0
75.468002	180.0
75.508484	304.0
75.530563	184.0
75.563133	48.0
75.584999	88.0
75.587898	128.0
75.608894	104.0
75.677345	292.0
75.70507	136.0
75.733429	136.0
75.746193	200.0
75.760437	104.0
75.766182	144.0
75.788223	228.0
75.835655	232.0
75.876617	176.0
75.899757	208.0
75.918236	64.0
75.940956	192.0
75.965118	140.0
75.999763	136.0
76.015381	224.0
76.067451	220.0
76.090027	136.0
76.105652	152.0
76.145515	176.0
76.171646	128.0
76.21508	180.0
76.240372	116.0
76.294189	156.0
76.318825	164.0
76.336494	128.0
76.359375	228.0
76.37677	156.0
76.393524	120.0
76.398277	88.0
76.411583	288.0
76.425484	180.0
76.451584	160.0
76.481171	56.0
76.501877	188.0
76.517731	112.0
76.537148	184.0
76.602669	204.0
76.671021	120.0
76.693443	324.0
76.716652	136.0
76.751213	144.0
76.775909	148.0
76.790314	172.0
76.812256	64.0
76.82621	160.0
76.840172	124.0
76.91172	208.0
76.930923	124.0
77.021729	100.0
77.074631	144.0
77.117599	208.0
77.145805	200.0
77.197594	136.0
77.222443	140.0
77.250732	188.0
77.274727	252.0
77.281601	180.0
77.332977	152.0
77.356506	216.0
77.363243	96.0
77.367294	244.0
77.383385	196.0
77.400604	184.0
77.425774	180.0
77.454041	200.0
77.482758	140.0
77.532646	88.0
77.550171	160.0
77.585228	176.0
77.613281	152.0
77.649635	192.0
77.679947	208.0
77.702354	164.0
77.731384	148.0
77.767715	140.0
77.788345	308.0
77.825424	240.0
77.865005	92.0
77.903778	212.0
77.930992	148.0
77.955269	152.0
77.973167	196.0
77.994263	204.0
78.025421	160.0
78.045242	192.0
78.082085	152.0
78.127907	220.0
78.161339	148.0
78.191254	144.0
78.203575	180.0
78.244278	168.0
78.279282	132.0
78.291611	92.0
78.314507	112.0
78.348549	272.0
78.398277	44.0
78.409065	140.0
78.432564	368.0
78.451401	140.0
78.469589	172.0
78.513672	144.0
78.535896	180.0
78.569641	180.0
78.589531	168.0
78.656418	188.0
78.65947	184.0
78.685966	188.0
78.712791	212.0
78.736885	296.0
78.762825	208.0
78.778534	152.0
78.798149	128.0
78.838516	144.0
78.859207	136.0
78.86599	96.0
78.874252	188.0
78.921677	96.0
78.937515	132.0
78.951668	168.0
78.970787	148.0
79.062164	148.0
79.08197	216.0
79.099831	168.0
79.115082	192.0
79.137474	172.0
79.156952	136.0
79.187943	184.0
79.26947	168.0
79.317497	300.0
79.344238	172.0
79.355675	188.0
79.419258	152.0
79.523735	272.0
79.552345	140.0
79.577309	200.0
79.605614	152.0
79.618042	336.0
79.65992	292.0
79.676659	236.0
79.719223	84.0
79.738853	144.0
79.758408	124.0
79.774361	160.0
79.808189	80.0
79.834862	192.0
79.850067	196.0
79.888222	200.0
79.899681	108.0
79.927368	168.0
80.016365	132.0
80.028831	76.0
80.055542	144.0
80.081108	124.0
80.100204	156.0
80.130356	148.0
80.162376	140.0
80.187378	68.0
80.251556	132.0
80.362144	220.0
80.415115	152.0
80.428291	180.0
80.452347	252.0
80.484482	172.0
80.520668	208.0
80.558578	156.0
80.580582	188.0
80.597839	224.0
80.642517	172.0
80.657715	136.0
80.684319	188.0
80.717606	144.0
80.771202	280.0
80.786728	248.0
80.835678	168.0
80.856247	224.0
80.920639	112.0
80.991928	160.0
81.008957	164.0
81.029579	180.0
81.06131	256.0
81.118668	36.0
81.145645	176.0
81.180199	376.0
81.208176	312.0
81.244202	224.0
81.274704	140.0
81.345329	152.0
81.359062	240.0
81.398567	128.0
81.411133	108.0
81.430618	160.0
81.481827	192.0
81.49736	124.0
81.529709	140.0
81.560265	156.0
81.576439	184.0
81.598015	160.0
81.624985	144.0
81.650482	136.0
81.682541	128.0
81.720322	128.0
81.759712	184.0
81.788712	240.0
81.817261	144.0
81.902153	340.0
81.941788	124.0
81.959801	196.0
82.000496	152.0
82.007034	192.0
82.020378	232.0
82.059479	200.0
82.074226	156.0
82.120956	164.0
82.139229	200.0
82.16716	136.0
82.188812	112.0
82.210464	120.0
82.237534	156.0
82.275444	176.0
82.30468	168.0
82.334106	140.0
82.354813	168.0
82.361313	160.0
82.369354	96.0
82.37748	160.0
82.405487	208.0
82.423553	192.0
82.438683	140.0
82.447273	172.0
82.453323	144.0
82.477776	104.0
82.490425	204.0
82.526588	40.0
82.585747	168.0
82.615211	44.0
82.638321	176.0
82.651398	220.0
82.661385	108.0
82.668327	168.0
82.718361	64.0
82.771065	112.0
82.805275	148.0
82.855995	184.0
82.870453	176.0
82.928574	160.0
82.973015	220.0
83.030792	168.0
83.089302	176.0
83.120728	200.0
83.147041	232.0
83.215118	140.0
83.253937	172.0
83.280495	168.0
83.316826	180.0
83.333176	192.0
83.362251	164.0
83.379761	208.0
83.394539	188.0
83.418205	112.0
83.445869	304.0
83.458344	172.0
83.47496	128.0
83.487694	60.0
83.51886	256.0
83.540436	184.0
83.573921	188.0
83.621269	148.0
83.636681	212.0
83.639671	132.0
83.686043	160.0
83.715179	192.0
83.731522	156.0
83.764801	140.0
83.780746	188.0
83.815369	120.0
83.84613	264.0
83.857895	168.0
83.913795	56.0
83.928383	76.0
83.946617	76.0
83.972321	172.0
84.008636	192.0
84.023743	156.0
84.043549	176.0
84.049057	180.0
84.070671	108.0
84.08345	164.0
84.118126	132.0
84.132492	152.0
84.166618	200.0
84.181168	160.0
84.221146	300.0
84.245743	164.0
84.264236	120.0
84.306259	352.0
84.326363	148.0
84.366585	100.0
84.436066	164.0
84.467163	160.0
84.494522	188.0
84.534859	168.0
84.5495	136.0
84.569023	60.0
84.61174	128.0
84.644516	208.0
84.708321	200.0
84.747276	164.0
84.760735	104.0
84.782089	228.0
84.794922	156.0
84.840752	168.0
84.853584	500.0
84.871597	160.0
84.905991	152.0
84.92852	144.0
84.945282	168.0
84.969276	140.0
84.985031	156.0
84.995872	244.0
85.037025	104.0
85.055382	192.0
85.095772	164.0
85.112297	164.0
85.136169	124.0
85.175308	196.0
85.196785	164.0
85.216995	156.0
85.233536	132.0
85.283432	216.0
85.303375	136.0
85.322433	196.0
85.362213	148.0
85.423866	108.0
85.461395	148.0
85.507553	128.0
85.538841	204.0
85.568298	152.0
85.611298	160.0
85.665428	204.0
85.698029	176.0
85.71994	148.0
85.742165	188.0
85.761734	164.0
85.780167	172.0
85.794312	208.0
85.814613	480.0
85.846336	180.0
85.861298	116.0
85.881584	248.0
85.900032	184.0
85.946159	252.0
85.982956	136.0
86.029831	168.0
86.034355	188.0
86.066551	160.0
86.095688	128.0
86.121544	164.0
86.143707	176.0
86.160339	208.0
86.174118	148.0
86.177727	68.0
86.185043	108.0
86.219955	136.0
86.247192	148.0
86.293709	248.0
86.332245	160.0
86.365532	200.0
86.384033	152.0
86.39698	152.0
86.438675	140.0
86.458046	104.0
86.504318	52.0
86.524689	140.0
86.53833	216.0
86.563568	216.0
86.57798	184.0
86.632103	228.0
86.656494	144.0
86.695099	160.0
86.721046	176.0
86.738358	236.0
86.752563	136.0
86.79335	184.0
86.885658	184.0
86.951042	160.0
86.998062	180.0
87.031624	136.0
87.060577	232.0
87.101639	184.0
87.123734	180.0
87.131073	160.0
87.157173	120.0
87.181168	136.0
87.198059	208.0
87.237434	176.0
87.269905	136.0
87.302177	152.0
87.362701	244.0
87.413795	148.0
87.42868	168.0
87.465912	188.0
87.59626	192.0
87.63166	196.0
87.683838	252.0
87.750572	120.0
87.777054	132.0
87.803093	112.0
87.834869	284.0
87.874084	180.0
87.9095	196.0
87.937492	140.0
87.986336	156.0
88.014038	108.0
88.027107	128.0
88.071938	188.0
88.12117	188.0
88.148537	48.0
88.163483	128.0
88.180107	152.0
88.195259	80.0
88.274986	184.0
88.296227	180.0
88.309319	148.0
88.346733	340.0
88.371056	120.0
88.404739	156.0
88.422134	148.0
88.449654	144.0
88.493568	148.0
88.517059	288.0
88.529793	120.0
88.560928	216.0
88.578865	164.0
88.605095	156.0
88.61821	136.0
88.7099	224.0
88.760666	188.0
88.776001	172.0
88.796303	96.0
88.809433	148.0
88.826309	116.0
88.841316	132.0
88.859901	84.0
88.890106	224.0
88.922546	196.0
88.946411	140.0
88.959549	172.0
88.972137	96.0
89.004234	140.0
89.044342	104.0
89.080482	212.0
89.091728	136.0
89.122948	116.0
89.137985	172.0
89.16993	180.0
89.197021	136.0
89.212708	228.0
89.228706	136.0
89.259422	160.0
89.303818	212.0
89.335411	124.0
89.373039	456.0
89.405304	280.0
89.462639	180.0
89.483292	188.0
89.501228	156.0
89.51432	152.0
89.566444	208.0
89.592247	156.0
89.608398	220.0
89.649857	136.0
89.695419	336.0
89.723366	188.0
89.745995	184.0
89.774048	132.0
89.80587	244.0
89.827415	264.0
89.862938	168.0
89.891243	192.0
89.949753	48.0
89.967728	176.0
89.974625	92.0
89.979057	192.0
90.004868	292.0
90.031021	188.0
90.10083	224.0
90.127289	84.0
90.143433	172.0
90.204773	144.0
90.242004	324.0
90.256691	208.0
90.269058	208.0
90.314453	140.0
90.32769	244.0
90.348503	144.0
90.393181	340.0
90.455383	176.0
90.490448	96.0
90.511276	152.0
90.533348	116.0
90.546555	204.0
90.593857	60.0
90.599655	152.0
90.653358	120.0
90.685577	116.0
90.72728	128.0
90.780373	152.0
90.81205	188.0
90.880913	156.0
90.904709	340.0
90.926453	84.0
90.947334	156.0
90.993721	1048.0
91.040695	140.0
91.056953	136.0
91.098488	180.0
91.116348	148.0
91.163849	148.0
91.179054	156.0
91.232277	196.0
91.256996	40.0
91.274109	180.0
91.332245	212.0
91.380821	120.0
91.397751	204.0
91.416786	168.0
91.447235	124.0
91.46627	160.0
91.494431	212.0
91.51577	184.0
91.541351	304.0
91.590042	136.0
91.618614	180.0
91.645294	108.0
91.671967	200.0
91.688133	176.0
91.734589	136.0
91.769188	136.0
91.856918	120.0
91.877899	132.0
91.959961	144.0
91.97332	288.0
92.017227	48.0
92.034393	284.0
92.04969	208.0
92.102211	120.0
92.123314	144.0
92.139465	168.0
92.168198	216.0
92.233101	184.0
92.280899	156.0
92.294281	164.0
92.314682	84.0
92.337708	116.0
92.357391	152.0
92.384415	160.0
92.412872	148.0
92.443489	128.0
92.480362	212.0
92.500458	184.0
92.577499	84.0
92.622879	164.0
92.640709	112.0
92.656036	144.0
92.694542	208.0
92.746109	132.0
92.786552	268.0
92.820877	52.0
92.851562	200.0
92.891846	120.0
92.924454	132.0
92.964752	196.0
92.998238	360.0
93.049561	232.0
93.076096	208.0
93.091461	72.0
93.116425	96.0
93.152016	196.0
93.179817	184.0
93.193268	176.0
93.22123	116.0
93.254761	52.0
93.277832	100.0
93.315361	152.0
93.380356	212.0
93.422058	128.0
93.441299	184.0
93.478027	136.0
93.520119	180.0
93.553665	372.0
93.577957	148.0
93.63826	140.0
93.686882	204.0
93.757103	108.0
93.792557	132.0
93.813004	136.0
93.829025	372.0
93.911736	180.0
93.934494	208.0
93.963432	104.0
94.010574	232.0
94.036766	164.0
94.052155	160.0
94.066322	272.0
94.100471	184.0
94.114479	156.0
94.148743	164.0
94.172302	148.0
94.192497	184.0
94.223076	144.0
94.244225	132.0
94.260414	164.0
94.300926	172.0
94.307297	132.0
94.315384	180.0
94.353294	140.0
94.435234	192.0
94.471542	120.0
94.490891	160.0
94.510239	164.0
94.557365	160.0
94.615929	172.0
94.624214	160.0
94.656647	208.0
94.734833	112.0
94.75351	156.0
94.807816	192.0
94.829781	164.0
94.849167	92.0
94.879227	136.0
94.905388	152.0
94.944405	168.0
94.983978	132.0
95.01207	104.0
95.038521	120.0
95.069504	504.0
95.095512	68.0
95.112976	272.0
95.147926	120.0
95.192581	176.0
95.219772	128.0
95.237251	416.0
95.258949	164.0
95.277931	196.0
95.30719	100.0
95.320793	132.0
95.373566	104.0
95.421692	172.0
95.427155	156.0
95.447815	140.0
95.472427	124.0
95.519112	132.0
95.54837	192.0
95.563858	124.0
95.579422	160.0
95.602776	104.0
95.626129	136.0
95.647453	176.0
95.663055	256.0
95.728516	68.0
95.763123	156.0
95.798378	332.0
95.836189	176.0
95.854759	224.0
95.87738	56.0
95.941284	260.0
95.958214	120.0
96.027069	252.0
96.067505	196.0
96.099686	148.0
96.125053	168.0
96.165932	360.0
96.184982	176.0
96.215897	140.0
96.246727	132.0
96.293762	212.0
96.31781	140.0
96.348793	184.0
96.390144	208.0
96.394104	196.0
96.401787	164.0
96.417992	200.0
96.447311	236.0
96.486412	48.0
96.500092	100.0
96.517303	220.0
96.567909	148.0
96.576286	100.0
96.591156	328.0
96.633781	148.0
96.660492	64.0
96.703545	152.0
96.722458	236.0
96.768341	188.0
96.789055	160.0
96.804451	128.0
96.81823	164.0
96.839485	160.0
96.874107	320.0
96.890755	344.0
96.896736	484.0
96.906349	324.0
96.923019	308.0
96.951004	106752.0
97.014771	196.0
97.050896	328.0
97.077057	224.0
97.102318	304.0
97.123138	116.0
97.148071	80.0
97.173737	284.0
97.213631	120.0
97.23027	108.0
97.255722	96.0
97.273117	1204.0
97.295189	64.0
97.308319	64.0
97.346786	132.0
97.373764	48.0
97.38707	100.0
97.395058	48.0
97.405693	144.0
97.43042	108.0
97.442863	192.0
97.49086	140.0
97.495773	56.0
97.519302	160.0
97.5457	256.0
97.562752	168.0
97.607216	116.0
97.625671	52.0
97.643044	96.0
97.661072	256.0
97.674843	64.0
97.709885	180.0
97.728333	148.0
97.749603	244.0
97.792061	228.0
97.819321	172.0
97.840149	152.0
97.85984	144.0
97.912453	212.0
97.931877	124.0
97.949776	884.0
97.987862	160.0
98.005592	160.0
98.061462	184.0
98.096947	564.0
98.130226	52.0
98.14949	148.0
98.17942	144.0
98.241425	124.0
98.265869	140.0
98.289543	184.0
98.321693	96.0
98.345245	160.0
98.371361	132.0
98.390846	248.0
98.442085	132.0
98.470085	240.0
98.486862	204.0
98.519897	96.0
98.566536	192.0
98.599327	148.0
98.633202	100.0
98.656281	136.0
98.671005	156.0
98.687149	124.0
98.707336	136.0
98.728104	40.0
98.747879	388.0
98.77388	216.0
98.786041	132.0
98.831017	168.0
98.868568	128.0
98.894302	156.0
98.907753	124.0
98.946587	6748.0
98.982941	232.0
99.016563	240.0
99.028374	168.0
99.069473	208.0
99.103844	168.0
99.135002	96.0
99.15509	156.0
99.209267	208.0
99.249527	92.0
99.286598	208.0
99.324417	184.0
99.337944	288.0
99.361977	92.0
99.377853	192.0
99.397697	124.0
99.419525	308.0
99.435402	168.0
99.463188	56.0
99.490242	140.0
99.536652	192.0
99.550552	152.0
99.57637	68.0
99.593117	176.0
99.659805	364.0
99.696754	148.0
99.715446	168.0
99.75856	140.0
99.79673	104.0
99.828773	144.0
99.848663	68.0
99.868553	60.0
99.892502	192.0
99.932472	464.0
99.957558	396.0
100.000854	404.0
100.021637	70256.0
100.100746	136.0
100.108978	40.0
100.120552	280.0
100.153099	172.0
100.180183	124.0
100.206833	108.0
100.249619	140.0
100.269363	220.0
100.284035	36.0
100.316246	88.0
100.328896	172.0
100.349869	704.0
100.387581	104.0
100.399094	200.0
100.413017	160.0
100.436241	176.0
100.467926	160.0
100.483124	120.0
100.505981	184.0
100.561951	64.0
100.577919	72.0
100.605865	148.0
100.619843	172.0
100.659775	76.0
100.6875	156.0
100.709709	184.0
100.736015	164.0
100.776932	80.0
100.807892	128.0
100.831589	176.0
100.849579	52.0
100.868568	176.0
100.893555	92.0
100.913551	280.0
100.933884	308.0
100.956078	152.0
101.023376	3784.0
101.05864	148.0
101.096245	216.0
101.123604	140.0
101.14608	208.0
101.181656	140.0
101.20768	196.0
101.25631	228.0
101.281128	328.0
101.323853	108.0
101.367935	84.0
101.402008	288.0
101.460136	44.0
101.494415	168.0
101.542793	128.0
101.608185	180.0
101.652695	276.0
101.668755	52.0
101.728668	80.0
101.74704	192.0
101.7854	148.0
101.806442	112.0
101.820747	156.0
101.83551	132.0
101.855484	100.0
101.880104	176.0
101.92421	116.0
101.9534	208.0
102.016602	3520.0
102.048096	176.0
102.080589	48.0
102.138916	40.0
102.167625	148.0
102.190384	260.0
102.29351	184.0
102.313995	196.0
102.336143	196.0
102.361618	172.0
102.390518	208.0
102.415657	124.0
102.436844	100.0
102.467064	184.0
102.497002	168.0
102.543388	192.0
102.600983	188.0
102.608749	268.0
102.662003	124.0
102.727135	124.0
102.763451	120.0
102.804314	144.0
102.831261	160.0
102.856285	180.0
102.874458	160.0
102.893631	88.0
102.930992	100.0
102.955223	136.0
103.017769	116.0
103.046822	128.0
103.074409	148.0
103.098663	128.0
103.118874	44.0
103.159302	200.0
103.177498	168.0
103.195694	180.0
103.215378	120.0
103.244225	152.0
103.286697	68.0
103.323112	112.0
103.361557	180.0
103.400009	164.0
103.41925	300.0
103.450615	168.0
103.512413	284.0
103.549835	124.0
103.594398	116.0
103.617111	152.0
103.663292	172.0
103.685585	76.0
103.77681	192.0
103.80722	192.0
103.847786	168.0
103.874153	180.0
103.900528	108.0
103.985756	144.0
104.006058	148.0
104.031212	132.0
104.048683	108.0
104.067795	144.0
104.115692	44.0
104.138039	192.0
104.257469	188.0
104.272133	72.0
104.318886	184.0
104.345322	160.0
104.370461	164.0
104.376152	196.0
104.40332	424.0
104.463478	204.0
104.569847	256.0
104.61631	200.0
104.634354	128.0
104.674446	120.0
104.738091	132.0
104.764572	96.0
104.784943	80.0
104.801247	108.0
104.868118	300.0
104.884804	100.0
104.917419	172.0
104.963295	136.0
105.018196	192.0
105.03978	164.0
105.058144	220.0
105.090782	144.0
105.119354	128.0
105.16581	184.0
105.170059	192.0
105.233665	204.0
105.305138	68.0
105.329651	132.0
105.368469	64.0
105.386856	152.0
105.415466	104.0
105.444077	116.0
105.475838	252.0
105.515625	96.0
105.536072	88.0
105.556519	148.0
105.574921	96.0
105.613785	164.0
105.666267	104.0
105.693573	216.0
105.721954	124.0
105.726883	172.0
105.763161	36.0
105.824577	100.0
105.843002	192.0
105.871674	124.0
105.892151	104.0
106.029427	104.0
106.066322	128.0
106.080673	40.0
106.13974	188.0
106.164734	88.0
106.181145	176.0
106.22422	180.0
106.242683	88.0
106.268982	244.0
106.304237	136.0
106.324615	168.0
106.378128	168.0
106.414917	148.0
106.511612	136.0
106.576561	124.0
106.665726	224.0
106.689102	76.0
106.729462	164.0
106.762367	36.0
106.790253	168.0
106.811729	108.0
106.828186	192.0
106.863159	76.0
106.903305	116.0
106.918724	180.0
106.974617	312.0
106.995453	160.0
107.058716	168.0
107.091675	132.0
107.116394	92.0
107.235901	136.0
107.250336	156.0
107.289497	200.0
107.320427	140.0
107.338989	180.0
107.359612	128.0
107.390549	132.0
107.447365	176.0
107.473068	188.0
107.586586	264.0
107.607887	164.0
107.636139	176.0
107.673309	112.0
107.700165	468.0
107.775696	180.0
107.822159	176.0
107.853073	92.0
107.890282	144.0
107.91716	52.0
107.962654	64.0
107.987114	256.0
108.045395	252.0
108.077751	304.0
108.134377	168.0
108.153	100.0
108.169563	156.0
108.188194	160.0
108.213043	180.0
108.289574	140.0
108.312447	124.0
108.341454	96.0
108.355949	296.0
108.373375	176.0
108.409828	184.0
108.428482	152.0
108.451279	296.0
108.503105	132.0
108.546646	112.0
108.56324	96.0
108.590202	160.0
108.620499	148.0
108.647148	204.0
108.685677	172.0
108.706383	172.0
108.761902	192.0
108.828857	188.0
108.849617	156.0
108.870789	104.0
108.884926	176.0
108.932701	56.0
108.953476	156.0
108.984474	196.0
109.003906	5920.0
109.055527	248.0
109.080597	236.0
109.108452	212.0
109.124275	336.0
109.137085	188.0
109.175888	84.0
109.221649	136.0
109.273659	80.0
109.306953	72.0
109.388123	320.0
109.427681	88.0
109.517227	60.0
109.542221	144.0
109.606812	156.0
109.635117	124.0
109.665169	160.0
109.692268	64.0
109.701729	148.0
109.707321	144.0
109.715614	180.0
109.792229	136.0
109.831978	76.0
109.852837	80.0
109.900826	136.0
109.928619	120.0
109.955383	56.0
109.973373	268.0
109.992332	156.0
110.000496	132.0
110.007607	124.0
110.014053	152.0
110.020927	140.0
110.038582	172.0
110.094246	552.0
110.12365	148.0
110.159714	120.0
110.20359	228.0
110.218216	128.0
110.257919	148.0
110.297638	124.0
110.312271	248.0
110.345718	200.0
110.446289	132.0
110.548164	240.0
110.565361	232.0
110.606529	240.0
110.673485	80.0
110.693069	92.0
110.707726	168.0
110.726578	172.0
110.764275	204.0
110.822937	180.0
110.87381	236.0
110.900955	160.0
110.951477	172.0
110.987717	164.0
111.027649	172.0
111.058899	188.0
111.087296	136.0
111.131981	176.0
111.223511	48.0
111.240303	300.0
111.355789	76.0
111.383102	124.0
111.404106	200.0
111.442032	192.0
111.469566	128.0
111.509171	92.0
111.53019	48.0
111.547005	164.0
111.574341	192.0
111.605873	272.0
111.642357	212.0
111.657402	144.0
111.687897	48.0
111.702621	144.0
111.725761	200.0
111.797302	176.0
111.812035	108.0
111.826767	100.0
111.869148	120.0
111.913086	132.0
111.970482	156.0
112.022255	168.0
112.076576	536.0
112.102669	176.0
112.123741	396.0
112.275543	144.0
112.303307	148.0
112.319839	108.0
112.34304	136.0
112.373772	156.0
112.421112	72.0
112.473839	204.0
112.541435	32.0
112.602676	172.0
112.634361	176.0
112.661179	92.0
112.689293	156.0
112.731697	144.0
112.780167	144.0
112.803413	68.0
112.833015	92.0
112.895752	292.0
112.942978	108.0
112.9599	44.0
113.004333	112.0
113.024826	320.0
113.080513	136.0
113.105049	176.0
113.117889	304.0
113.163078	64.0
113.177902	156.0
113.19696	200.0
113.273209	152.0
113.31134	144.0
113.334564	200.0
113.379814	184.0
113.419418	160.0
113.459702	136.0
113.494926	208.0
113.521187	168.0
113.538727	208.0
113.552155	140.0
113.569038	200.0
113.62281	132.0
113.659073	108.0
113.675034	156.0
113.697273	168.0
113.716377	156.0
113.734398	120.0
113.754585	80.0
113.801498	164.0
113.818283	136.0
113.840149	188.0
113.898987	244.0
113.928726	132.0
113.949974	184.0
113.996719	96.0
114.017441	144.0
114.034973	164.0
114.075363	156.0
114.134583	108.0
114.168922	88.0
114.235283	160.0
114.411499	188.0
114.445564	92.0
114.491722	124.0
114.592941	144.0
114.601471	144.0
114.605659	172.0
114.647934	160.0
114.690323	176.0
114.697014	156.0
114.731064	80.0
114.769447	144.0
114.803757	232.0
114.82489	152.0
114.875229	120.0
114.89315	152.0
114.908089	144.0
114.935974	176.0
114.960701	23828.0
115.0187	212.0
115.035469	140.0
115.04895	188.0
115.109497	312.0
115.174942	48.0
115.197212	76.0
115.227036	280.0
115.262535	180.0
115.332451	140.0
115.351326	236.0
115.373535	172.0
115.414307	164.0
115.446945	212.0
115.491356	144.0
115.541443	220.0
115.645355	144.0
115.687317	60.0
115.712143	244.0
115.754547	108.0
115.894188	148.0
115.938507	252.0
115.960411	336.0
116.018089	188.0
116.060303	192.0
116.084564	160.0
116.103004	200.0
116.193954	176.0
116.215416	68.0
116.23687	136.0
116.268379	144.0
116.299019	220.0
116.327019	156.0
116.342041	144.0
116.406456	120.0
116.440483	176.0
116.466599	100.0
116.490356	64.0
116.520447	180.0
116.55468	148.0
116.593361	376.0
116.629906	172.0
116.675987	176.0
116.696106	156.0
116.741707	196.0
116.765366	112.0
116.806229	152.0
116.819656	116.0
116.835793	108.0
116.883682	240.0
116.909447	136.0
116.955963	828.0
116.982437	228.0
117.001053	144.0
117.054794	164.0
117.081741	196.0
117.128944	48.0
117.149651	152.0
117.176521	200.0
117.194672	104.0
117.248016	180.0
117.290741	360.0
117.400703	192.0
117.446442	116.0
117.471878	192.0
117.502083	184.0
117.560349	64.0
117.579773	220.0
117.627525	256.0
117.643211	144.0
117.681229	156.0
117.802177	168.0
117.830261	124.0
117.853371	144.0
117.886444	96.0
117.914536	176.0
117.94696	172.0
117.987022	340.0
118.010452	152.0
118.050743	96.0
118.071579	184.0
118.119957	284.0
118.171143	132.0
118.187889	60.0
118.236794	148.0
118.293076	52.0
118.363937	104.0
118.42733	172.0
118.446823	92.0
118.507484	172.0
118.561661	196.0
118.620972	224.0
118.641861	84.0
118.685875	148.0
118.717758	180.0
118.754623	128.0
118.780655	176.0
118.798012	152.0
118.878822	180.0
118.915184	132.0
118.973915	148.0
118.991112	160.0
119.015053	184.0
119.044487	144.0
119.069901	800.0
119.138855	60.0
119.205223	132.0
119.231689	148.0
119.25061	260.0
119.321945	164.0
119.372215	176.0
119.410568	36.0
119.44487	208.0
119.510643	132.0
119.563255	204.0
119.608582	108.0
119.630348	88.0
119.656471	156.0
119.684219	128.0
119.704376	116.0
119.729767	164.0
119.83725	144.0
119.904808	256.0
119.959984	148.0
120.017914	68.0
120.03997	164.0
120.065575	636.0
120.114128	52.0
120.139709	176.0
120.216675	144.0
120.301804	176.0
120.3395	120.0
120.376038	256.0
120.391327	168.0
120.435013	140.0
120.46122	216.0
120.565453	248.0
120.644791	68.0
120.668846	144.0
120.692894	120.0
120.713135	156.0
120.781593	232.0
120.808815	108.0
120.837868	156.0
120.90728	116.0
120.924789	132.0
120.950722	632.0
120.988274	200.0
121.003601	80.0
121.023308	64.0
121.070824	264.0
121.174438	212.0
121.189774	116.0
121.211685	148.0
121.247025	160.0
121.264282	92.0
121.311111	144.0
121.382675	152.0
121.410744	100.0
121.432686	144.0
121.455048	72.0
121.512085	180.0
121.547195	164.0
121.587051	148.0
121.650352	152.0
121.665718	144.0
121.687675	108.0
121.71714	160.0
121.740372	152.0
121.782104	156.0
121.799675	188.0
121.828232	180.0
121.891953	88.0
121.931511	244.0
121.961441	208.0
121.979866	64.0
122.008446	184.0
122.023842	100.0
122.067955	124.0
122.186592	284.0
122.228401	148.0
122.400101	148.0
122.419922	176.0
122.463966	188.0
122.53006	160.0
122.596161	232.0
122.640709	152.0
122.675148	188.0
122.70723	216.0
122.783562	116.0
122.821053	116.0
122.867378	148.0
122.902687	180.0
122.937988	68.0
122.967049	192.0
123.034248	348.0
123.054985	188.0
123.092598	188.0
123.143318	196.0
123.18087	112.0
123.222847	136.0
123.264832	144.0
123.292358	180.0
123.320084	144.0
123.359871	196.0
123.3787	324.0
123.406296	140.0
123.437195	156.0
123.466003	32.0
123.500572	224.0
123.545822	140.0
123.632751	216.0
123.701424	104.0
123.73597	140.0
123.7714	164.0
123.786896	32.0
123.837837	188.0
123.859985	52.0
123.910942	192.0
123.926453	132.0
123.961906	100.0
124.017311	164.0
124.068298	164.0
124.099342	128.0
124.128166	240.0
124.150345	68.0
124.174736	120.0
124.216881	124.0
124.298973	172.0
124.324234	84.0
124.392876	144.0
124.414391	136.0
124.491638	164.0
124.552078	124.0
124.569847	108.0
124.604301	116.0
124.636505	48.0
124.669838	164.0
124.716507	160.0
124.749329	176.0
124.792099	216.0
124.809883	228.0
124.828056	140.0
124.879875	256.0
124.912193	172.0
124.927765	204.0
124.943771	164.0
124.98143	10692.0
125.04158	224.0
125.063011	36.0
125.081635	168.0
125.132523	80.0
125.15033	84.0
125.180489	192.0
125.209435	156.0
125.239418	88.0
125.260262	156.0
125.310699	92.0
125.388695	184.0
125.413216	92.0
125.462791	148.0
125.482323	148.0
125.511314	148.0
125.53138	172.0
125.560371	124.0
125.578217	184.0
125.622826	140.0
125.638443	36.0
125.720695	144.0
125.73864	164.0
125.772621	192.0
125.877274	180.0
125.92688	160.0
125.950981	40.0
125.983208	280.0
126.025917	340.0
126.032707	152.0
126.038322	380.0
126.060951	164.0
126.093979	168.0
126.149704	168.0
126.196815	132.0
126.334579	248.0
126.342613	148.0
126.364563	200.0
126.501083	156.0
126.523476	296.0
126.562309	128.0
126.625565	156.0
126.634171	92.0
126.63887	196.0
126.683266	160.0
126.71833	148.0
126.838104	136.0
126.890907	52.0
126.931267	80.0
126.977104	616.0
127.025002	460.0
127.069092	144.0
127.096619	208.0
127.112976	120.0
127.145798	96.0
127.16684	188.0
127.193771	72.0
127.225723	188.0
127.272354	336.0
127.339722	128.0
127.381088	144.0
127.420593	176.0
127.436325	88.0
127.481262	164.0
127.599648	148.0
127.652	168.0
127.677292	124.0
127.697098	196.0
127.762329	140.0
127.784828	176.0
127.827797	168.0
127.859131	152.0
127.899605	120.0
127.940125	184.0
127.955032	148.0
127.976151	140.0
128.051956	1112.0
128.107513	184.0
128.124802	128.0
128.148666	156.0
128.239548	144.0
128.282562	204.0
128.390793	48.0
128.416153	164.0
128.433212	168.0
128.499069	132.0
128.569016	136.0
128.60614	404.0
128.668335	148.0
128.715759	164.0
128.733826	232.0
128.781769	140.0
128.819656	148.0
128.839981	136.0
128.871613	244.0
128.917969	296.0
128.946198	200.0
128.962021	140.0
129.040573	144.0
129.054428	96.0
129.059845	168.0
129.079575	112.0
129.130768	188.0
129.17215	168.0
129.226608	152.0
129.251495	80.0
129.274124	124.0
129.308075	140.0
129.348373	124.0
129.385086	212.0
129.414474	164.0
129.52771	128.0
129.554733	164.0
129.602798	192.0
129.625137	120.0
129.670456	116.0
129.71579	164.0
129.736206	108.0
129.792877	332.0
129.824631	148.0
129.904022	116.0
129.944427	192.0
129.994781	140.0
130.012924	108.0
130.048218	160.0
130.115082	116.0
130.135513	220.0
130.166138	312.0
130.18988	200.0
130.262695	92.0
130.308136	44.0
130.324036	144.0
130.360397	200.0
130.385391	136.0
130.428116	116.0
130.508148	124.0
130.590027	168.0
130.635513	168.0
130.651443	152.0
130.671921	144.0
130.696945	360.0
130.803925	196.0
130.842621	104.0
130.859482	352.0
130.936264	224.0
130.967972	196.0
131.000824	196.0
131.05217	136.0
131.086349	40.0
131.113693	100.0
131.13649	120.0
131.163834	168.0
131.232224	168.0
131.284683	204.0
131.325729	100.0
131.342941	192.0
131.380478	136.0
131.490219	212.0
131.521973	216.0
131.553925	132.0
131.585892	124.0
131.613342	152.0
131.636124	100.0
131.660187	148.0
131.738907	244.0
131.773178	136.0
131.821167	144.0
131.869156	100.0
131.93544	208.0
131.953949	212.0
131.969482	176.0
132.074738	184.0
132.102386	264.0
132.125275	68.0
132.141281	144.0
132.176697	152.0
132.228241	116.0
132.244263	120.0
132.306076	60.0
132.326675	92.0
132.342712	72.0
132.372482	208.0
132.422867	232.0
132.454727	148.0
132.491043	188.0
132.53511	52.0
132.571777	96.0
132.608444	68.0
132.638245	164.0
132.670349	168.0
132.718491	60.0
132.810226	128.0
132.846939	124.0
132.913467	236.0
132.961655	108.0
133.032822	192.0
133.075333	240.0
133.12236	68.0
133.211945	164.0
133.23262	60.0
133.257889	120.0
133.294662	164.0
133.324539	156.0
133.359009	140.0
133.403946	180.0
133.437164	164.0
133.524551	188.0
133.584366	132.0
133.622192	260.0
133.629898	116.0
133.642242	192.0
133.679764	208.0
133.707138	188.0
133.745438	188.0
133.76239	164.0
133.798386	84.0
133.832932	148.0
133.904312	148.0
133.936569	72.0
133.967697	124.0
133.983856	136.0
134.012589	124.0
134.033875	168.0
134.078201	264.0
134.134735	212.0
134.153351	104.0
134.180847	164.0
134.208511	148.0
134.319214	112.0
134.353821	160.0
134.411499	96.0
134.468246	116.0
134.499207	196.0
134.522293	160.0
134.656219	172.0
134.749084	180.0
134.802994	180.0
134.850296	140.0
134.875732	64.0
134.900894	104.0
134.942764	156.0
134.993637	184.0
135.022385	160.0
135.056091	104.0
135.090012	1772.0
135.148621	64.0
135.194916	100.0
135.257401	108.0
135.314117	148.0
135.336121	168.0
135.374527	204.0
135.417175	148.0
135.484344	176.0
135.516785	180.0
135.553085	144.0
135.625702	188.0
135.652603	96.0
135.706848	44.0
135.725403	144.0
135.826096	172.0
135.959702	140.0
135.994522	156.0
136.016647	188.0
136.074982	680.0
136.097473	1104.0
136.175629	148.0
136.205826	184.0
136.22905	272.0
136.284805	184.0
136.338455	48.0
136.354523	136.0
136.380203	140.0
136.479904	120.0
136.487701	168.0
136.526581	196.0
136.547501	180.0
136.566116	140.0
136.619614	148.0
136.66629	136.0
136.733643	148.0
136.749924	220.0
136.812775	40.0
136.873322	184.0
136.896835	124.0
136.912903	180.0
136.931534	124.0
136.980667	172.0
137.034042	156.0
137.069901	1180.0
137.106277	124.0
137.162216	72.0
137.190186	144.0
137.209518	192.0
137.264801	92.0
137.313782	128.0
137.355759	104.0
137.372086	144.0
137.404755	132.0
137.437759	292.0
137.472427	104.0
137.498093	136.0
137.5224	224.0
137.575119	52.0
137.602692	184.0
137.635834	128.0
137.65451	140.0
137.677872	172.0
137.801666	204.0
137.834381	148.0
137.868713	192.0
137.949036	156.0
138.029968	120.0
138.076859	2172.0
138.119614	152.0
138.143539	248.0
138.160095	176.0
138.190994	180.0
138.232178	112.0
138.250641	136.0
138.284927	160.0
138.323196	104.0
138.409836	136.0
138.432312	160.0
138.49649	152.0
138.548019	132.0
138.578476	184.0
138.611099	148.0
138.648788	204.0
138.692657	100.0
138.72261	136.0
138.747238	180.0
138.819916	64.0
138.843369	88.0
138.869171	192.0
138.918427	140.0
138.939102	84.0
138.959656	156.0
138.993515	152.0
139.029129	336.0
139.076614	232.0
139.124954	120.0
139.150772	140.0
139.177368	204.0
139.22699	88.0
139.273239	160.0
139.291687	68.0
139.317398	148.0
139.376266	148.0
139.449127	156.0
139.472626	128.0
139.5056	152.0
139.524353	184.0
139.561966	140.0
139.634537	144.0
139.64389	124.0
139.726608	180.0
139.757202	148.0
139.77652	192.0
139.854599	216.0
139.888992	144.0
139.919601	196.0
139.938431	192.0
139.954926	156.0
139.971405	120.0
140.038345	552.0
140.098587	108.0
140.141006	156.0
140.166153	196.0
140.190491	64.0
140.206985	72.0
140.225983	192.0
140.268265	180.0
140.348434	160.0
140.393234	104.0
140.52861	176.0
140.55365	152.0
140.5914	212.0
140.611633	196.0
140.636246	148.0
140.690536	164.0
140.737762	132.0
140.756653	168.0
140.777908	52.0
140.867126	188.0
140.886566	128.0
140.940903	124.0
140.96817	104.0
141.010818	316.0
141.03627	216.0
141.073257	152.0
141.104004	160.0
141.12764	76.0
141.163116	168.0
141.179672	140.0
141.248856	144.0
141.281372	156.0
141.309769	364.0
141.342896	132.0
141.380753	184.0
141.457458	188.0
141.475433	144.0
141.49202	164.0
141.522003	184.0
141.57962	168.0
141.660019	136.0
141.686905	192.0
141.738342	112.0
141.77626	116.0
141.799973	152.0
141.842636	164.0
141.87233	144.0
141.913757	172.0
141.939835	192.0
141.959793	164.0
141.989639	140.0
142.065552	356.0
142.082153	140.0
142.15097	212.0
142.195663	220.0
142.27327	228.0
142.309265	252.0
142.336121	168.0
142.360764	148.0
142.404999	192.0
142.421631	168.0
142.516647	112.0
142.552292	224.0
142.580811	124.0
142.628357	212.0
142.678467	128.0
142.740097	44.0
142.7948	156.0
142.837067	140.0
142.852737	180.0
142.880432	132.0
142.901245	204.0
142.923264	216.0
142.978134	216.0
142.986053	144.0
143.025604	160.0
143.163696	88.0
143.189896	244.0
143.240524	216.0
143.269562	224.0
143.309006	188.0
143.353104	172.0
143.38765	160.0
143.494919	96.0
143.553452	180.0
143.571228	176.0
143.678558	108.0
143.773575	244.0
143.826523	104.0
143.855164	228.0
143.890762	228.0
143.922012	152.0
143.948288	156.0
143.974548	140.0
143.999191	252.0
144.029495	176.0
144.115494	80.0
144.251724	140.0
144.279922	232.0
144.316284	40.0
144.397583	192.0
144.415604	120.0
144.454987	128.0
144.480835	100.0
144.507629	164.0
144.525314	144.0
144.560272	168.0
144.598557	164.0
144.629684	48.0
144.664154	208.0
144.684738	132.0
144.746994	88.0
144.802078	148.0
144.87767	324.0
144.916626	176.0
145.032593	344.0
145.08696	108.0
145.123199	184.0
145.199936	128.0
145.233521	180.0
145.255112	212.0
145.284485	400.0
145.325653	192.0
145.364105	168.0
145.390808	36.0
145.45668	64.0
145.47348	80.0
145.509491	180.0
145.535904	72.0
145.615158	128.0
145.637772	392.0
145.667999	160.0
145.696823	32.0
145.743011	200.0
145.768906	168.0
145.833801	36.0
145.892593	148.0
145.911819	140.0
145.946671	164.0
145.997208	224.0
146.03093	236.0
146.050201	64.0
146.108978	196.0
146.137833	160.0
146.372711	220.0
146.435333	152.0
146.51001	140.0
146.575058	172.0
146.602585	380.0
146.63028	136.0
146.656219	140.0
146.695572	64.0
146.728531	184.0
146.775131	88.0
146.818542	184.0
146.84024	172.0
146.857132	112.0
146.895309	160.0
146.953629	48.0
146.989822	124.0
147.013962	188.0
147.091599	164.0
147.146713	232.0
147.281952	112.0
147.301285	168.0
147.3311	220.0
147.372192	148.0
147.419678	232.0
147.452576	196.0
147.474182	312.0
147.513947	124.0
147.533279	64.0
147.593719	128.0
147.610657	132.0
147.661438	136.0
147.695297	172.0
147.758148	176.0
147.794495	120.0
147.821106	180.0
147.879486	240.0
147.91066	168.0
148.026886	124.0
148.115082	200.0
148.234589	92.0
148.286102	144.0
148.315201	76.0
148.344284	140.0
148.392593	164.0
148.431564	140.0
148.470367	60.0
148.48735	124.0
148.504318	112.0
148.539993	176.0
148.657166	160.0
148.679016	208.0
148.728149	212.0
148.761536	212.0
148.885376	180.0
148.939896	188.0
148.992264	192.0
149.013229	196.0
149.046158	88.0
149.100388	136.0
149.128342	216.0
149.181824	144.0
149.318985	224.0
149.364212	164.0
149.383667	164.0
149.423935	84.0
149.442062	236.0
149.466385	184.0
149.509064	224.0
149.525848	240.0
149.566177	192.0
149.626221	84.0
149.661118	124.0
149.730362	100.0
149.774063	224.0
149.852066	308.0
149.885223	116.0
149.953461	148.0
149.975403	168.0
150.006653	248.0
150.034668	572.0
150.065598	36.0
150.108276	224.0
150.174805	164.0
150.294876	152.0
150.34613	116.0
150.38475	180.0
150.426682	160.0
150.57074	124.0
150.658264	164.0
150.714874	160.0
150.74176	224.0
150.795517	108.0
150.993561	132.0
151.033752	120.0
151.088379	488.0
151.115875	48.0
151.167267	124.0
151.208862	168.0
151.24559	156.0
151.287567	160.0
151.343506	192.0
151.476318	176.0
151.596176	112.0
151.642395	128.0
151.667542	232.0
151.691406	112.0
151.722488	184.0
151.755157	36.0
151.78949	100.0
151.815353	132.0
151.828583	200.0
151.877777	324.0
151.906662	88.0
151.936661	124.0
151.954605	140.0
151.99118	200.0
152.052292	1764.0
152.08606	480.0
152.132645	200.0
152.201736	204.0
152.233612	200.0
152.266998	56.0
152.295059	224.0
152.324539	152.0
152.399628	164.0
152.422821	148.0
152.447983	136.0
152.471588	212.0
152.495728	180.0
152.533417	216.0
152.576584	336.0
152.623795	196.0
152.654785	188.0
152.6875	180.0
152.696655	228.0
152.729538	260.0
152.75798	248.0
152.767349	124.0
152.802872	92.0
152.838394	148.0
152.860809	184.0
152.895432	132.0
152.929153	204.0
152.936523	164.0
152.960953	348.0
153.012726	1164.0
153.046982	6456.0
153.102081	209080.0
153.172089	280.0
153.188599	400.0
153.226379	164.0
153.258728	280.0
153.292816	148.0
153.330017	140.0
153.372986	116.0
153.406219	208.0
153.424057	56.0
153.442673	144.0
153.476807	132.0
153.506744	1712.0
153.531754	180.0
153.573578	136.0
153.631546	192.0
153.673691	68.0
153.718918	168.0
153.76413	80.0
153.79155	200.0
153.80983	152.0
153.850464	160.0
153.864288	112.0
153.884613	44.0
153.905716	44.0
153.935349	72.0
153.963806	268.0
153.997177	120.0
154.020508	204.0
154.05545	12308.0
154.103958	14056.0
154.176041	188.0
154.205673	184.0
154.297028	184.0
154.308167	164.0
154.336945	72.0
154.362778	124.0
154.387589	152.0
154.412674	56.0
154.464859	84.0
154.51622	160.0
154.543579	68.0
154.574982	220.0
154.583633	164.0
154.624649	180.0
154.660706	156.0
154.685211	156.0
154.703293	76.0
154.734024	212.0
154.76973	88.0
154.793457	172.0
154.8172	184.0
154.85289	32.0
154.877136	76.0
154.886414	60.0
154.895737	56.0
154.918869	196.0
154.956192	144.0
154.98735	436.0
155.056641	1268.0
155.106873	1308.0
155.187057	152.0
155.210785	80.0
155.218353	240.0
155.284683	104.0
155.318268	168.0
155.343109	152.0
155.378418	132.0
155.411758	128.0
155.433716	248.0
155.477676	108.0
155.508362	84.0
155.54718	28.0
155.614212	112.0
155.648972	184.0
155.666351	100.0
155.698639	84.0
155.72348	28.0
155.763229	100.0
155.817871	172.0
155.875031	64.0
155.902359	140.0
155.944611	196.0
155.978729	160.0
156.001785	32.0
156.024155	120.0
156.048721	604.0
156.103729	144.0
156.141037	76.0
156.170059	216.0
156.226944	56.0
156.277863	112.0
156.295273	128.0
156.337585	88.0
156.359238	132.0
156.400635	120.0
156.52063	136.0
156.554169	116.0
156.58696	96.0
156.647568	180.0
156.757172	196.0
156.786972	144.0
156.837341	116.0
156.868698	52.0
156.906097	164.0
157.017853	160.0
157.085007	192.0
157.093536	184.0
157.100067	188.0
157.164917	260.0
157.242279	48.0
157.282211	108.0
157.342117	172.0
157.383133	152.0
157.456985	140.0
157.521942	192.0
157.579391	140.0
157.59938	172.0
157.734344	76.0
157.790436	128.0
157.836853	116.0
157.866867	124.0
157.896866	156.0
157.934387	204.0
158.016953	248.0
158.064011	232.0
158.083923	52.0
158.117126	148.0
158.189056	192.0
158.234695	192.0
158.26474	40.0
158.290848	104.0
158.321381	188.0
158.340942	188.0
158.407501	196.0
158.522751	132.0
158.587921	224.0
158.66803	164.0
158.813583	168.0
158.921463	40.0
158.951569	100.0
159.126297	284.0
159.182526	88.0
159.313126	124.0
159.354584	160.0
159.406143	236.0
159.694031	84.0
159.737991	260.0
159.796814	224.0
159.848694	160.0
159.873856	88.0
159.891479	124.0
159.956924	212.0
160.03244	56.0
160.075256	76.0
160.137192	148.0
160.213791	120.0
160.236465	72.0
160.319611	120.0
160.36499	196.0
160.382629	128.0
160.438095	160.0
160.460785	124.0
160.513733	48.0
160.556595	200.0
160.638351	136.0
160.753387	128.0
160.778885	300.0
160.805801	212.0
160.856857	132.0
160.937653	168.0
160.965439	180.0
160.985641	92.0
161.102692	140.0
161.21553	148.0
161.298935	324.0
161.362137	208.0
161.38237	124.0
161.420303	164.0
161.50882	80.0
161.531586	128.0
161.572067	152.0
161.615067	112.0
161.640381	68.0
161.694748	140.0
161.75174	152.0
161.773819	116.0
161.840347	52.0
161.894684	132.0
161.977631	900.0
162.04361	144.0
162.15448	152.0
162.192505	56.0
162.220383	100.0
162.25589	96.0
162.304062	36.0
162.382675	68.0
162.411987	172.0
162.560272	140.0
162.641479	32.0
162.725266	52.0
162.776047	156.0
162.796356	172.0
162.839539	48.0
162.880173	88.0
162.95639	160.0
163.031433	68.0
163.055496	88.0
163.104919	208.0
163.190231	108.0
163.220749	152.0
163.256348	156.0
163.361679	116.0
163.475128	64.0
163.519409	256.0
163.564209	152.0
163.584946	140.0
163.622772	120.0
163.648224	88.0
163.806976	120.0
163.88002	136.0
163.915695	168.0
163.987045	132.0
164.025284	40.0
164.050781	96.0
164.081375	112.0
164.131073	128.0
164.183365	64.0
164.221619	56.0
164.27774	180.0
164.298157	116.0
164.345062	116.0
164.36705	92.0
164.458557	196.0
164.494659	152.0
164.527847	136.0
164.611069	236.0
164.657043	368.0
164.711716	124.0
164.739822	128.0
164.760254	104.0
164.788361	140.0
164.842026	68.0
164.862457	192.0
164.959198	184.0
165.086197	124.0
165.141586	164.0
165.262146	132.0
165.373993	140.0
165.405396	176.0
165.514801	188.0
165.56601	128.0
165.694092	104.0
165.714584	164.0
165.791458	176.0
165.843719	184.0
165.886307	148.0
165.929886	116.0
166.035019	196.0
166.130844	216.0
166.163284	116.0
166.206894	100.0
166.315079	160.0
166.337799	180.0
166.376297	104.0
166.409164	160.0
166.471313	180.0
166.552139	228.0
166.576614	160.0
166.647705	128.0
166.669113	212.0
166.705078	116.0
166.78476	160.0
166.813034	116.0
166.859436	160.0
166.885681	140.0
166.904434	80.0
166.926163	124.0
166.985321	224.0
167.003326	152.0
167.02034	136.0
167.061218	3312.0
167.157684	60.0
167.191101	224.0
167.332718	136.0
167.392258	168.0
167.412552	96.0
167.451172	108.0
167.471786	100.0
167.515579	204.0
167.549072	108.0
167.567108	212.0
167.600403	152.0
167.657608	160.0
167.680481	104.0
167.742355	76.0
167.831116	204.0
167.860947	188.0
167.902222	72.0
167.992188	168.0
168.036362	160.0
168.068817	1196.0
168.118927	88.0
168.190094	140.0
168.257553	184.0
168.290146	148.0
168.317947	212.0
168.361374	132.0
168.410675	36.0
168.43605	136.0
168.462341	176.0
168.491333	200.0
168.524231	124.0
168.540649	116.0
168.548737	148.0
168.556412	156.0
168.590515	284.0
168.622757	240.0
168.651382	156.0
168.670944	100.0
168.688217	132.0
168.729614	96.0
168.751144	172.0
168.793594	172.0
168.818375	176.0
168.859741	488.0
168.868378	248.0
168.897873	324.0
168.925507	352.0
168.964935	220.0
169.003555	308.0
169.014923	488.0
169.047363	1232.0
169.079407	338256.0
169.142258	288.0
169.1548	52.0
169.160675	116.0
169.181427	148.0
169.203262	112.0
169.242935	224.0
169.269272	188.0
169.287308	340.0
169.316406	392.0
169.357758	204.0
169.385223	284.0
169.411774	156.0
169.448471	412.0
169.475281	380.0
169.505157	3988.0
169.544586	148.0
169.556458	120.0
169.56572	180.0
169.597809	140.0
169.623734	196.0
169.631317	128.0
169.670624	96.0
169.70224	240.0
169.725006	136.0
169.746094	136.0
169.755356	128.0
169.764557	164.0
169.781326	248.0
169.812454	92.0
169.872528	132.0
169.889847	236.0
169.935028	132.0
169.945007	120.0
169.951065	160.0
169.985245	140.0
170.011688	300.0
170.03511	52.0
170.081818	37100.0
170.151978	132.0
170.169724	124.0
170.188828	100.0
170.208206	76.0
170.233765	120.0
170.266479	64.0
170.274063	40.0
170.307251	80.0
170.330109	64.0
170.383667	220.0
170.408569	76.0
170.487381	196.0
170.538254	40.0
170.581085	76.0
170.618576	76.0
170.671463	152.0
170.719635	88.0
170.75029	92.0
170.779938	156.0
170.802979	44.0
170.83963	216.0
170.877243	96.0
170.917419	76.0
170.939865	96.0
170.964355	160.0
170.982483	244.0
171.025848	344.0
171.07431	16660.0
171.156784	168.0
171.19342	296.0
171.234726	264.0
171.241165	288.0
171.282547	184.0
171.293137	128.0
171.323441	232.0
171.364441	152.0
171.406219	224.0
171.457581	164.0
171.492172	176.0
171.523071	92.0
171.538757	300.0
171.568848	144.0
171.599899	88.0
171.610428	80.0
171.633026	108.0
171.66011	64.0
171.696609	160.0
171.729813	88.0
171.761826	68.0
171.782684	76.0
171.805939	44.0
171.868881	68.0
171.910538	32.0
171.952301	48.0
171.981018	36.0
172.030609	64.0
172.076736	1180.0
172.137665	32.0
172.155945	128.0
172.184662	36.0
172.239761	44.0
172.273483	100.0
172.296997	228.0
172.343903	88.0
172.364929	72.0
172.422424	172.0
172.47789	128.0
172.5159	168.0
172.617233	68.0
172.744034	56.0
172.775436	76.0
172.830383	100.0
172.889206	48.0
172.916733	44.0
173.005737	56.0
173.045013	80.0
173.079651	212.0
173.191666	124.0
173.220474	88.0
173.279099	80.0
173.341003	60.0
173.38765	100.0
173.485168	60.0
173.533478	80.0
173.584793	100.0
173.794647	40.0
173.868134	36.0
173.922333	92.0
173.96788	136.0
173.986252	92.0
174.086029	64.0
174.149063	68.0
174.243637	184.0
174.409195	100.0
174.522247	88.0
174.84845	48.0
175.101196	160.0
175.156509	96.0
175.203934	84.0
175.541321	88.0
175.570328	44.0
175.781372	88.0
175.818329	52.0
175.849991	116.0
175.913345	116.0
175.945023	64.0
176.033539	108.0
176.156296	120.0
176.454941	140.0
176.880875	92.0
176.904709	72.0
177.280823	60.0
177.329483	100.0
177.405396	52.0
177.620209	100.0
177.649384	68.0
177.797974	124.0
177.882919	140.0
177.939468	92.0
177.98912	32.0
178.018326	120.0
178.064072	472.0
178.084717	132.0
178.238815	152.0
178.278671	52.0
178.478043	84.0
178.919724	72.0
179.058197	92.0
179.122116	132.0
179.148758	52.0
179.231354	124.0
179.281998	92.0
179.305969	68.0
179.348618	68.0
179.60994	88.0
179.652618	52.0
179.740677	132.0
179.786041	44.0
179.858109	108.0
179.900818	100.0
179.92218	88.0
179.949585	104.0
179.9729	76.0
179.994263	128.0
180.093079	96.0
180.223984	80.0
180.272095	80.0
180.352264	132.0
180.542099	60.0
180.566177	116.0
180.705276	124.0
180.817673	204.0
180.938126	152.0
180.994354	72.0
181.080276	100.0
181.131973	2436.0
181.267593	76.0
181.31366	64.0
181.369431	48.0
181.406967	84.0
181.524933	96.0
181.75296	80.0
181.7771	84.0
181.887695	136.0
181.943527	96.0
182.086349	148.0
182.133987	580.0
182.187912	104.0
182.238968	72.0
182.284653	88.0
182.402908	88.0
182.480865	56.0
182.499695	60.0
183.140198	140.0
183.277603	96.0
183.309937	76.0
184.12738	132.0
184.165192	48.0
184.384048	84.0
184.906036	52.0
184.968292	36.0
185.290558	56.0
185.374557	128.0
185.442322	68.0
185.621246	80.0
185.653793	132.0
185.995667	44.0
186.041809	160.0
186.147705	76.0
186.297089	76.0
186.968719	72.0
187.045227	296.0
187.074875	60.0
187.600662	44.0
187.737	48.0
188.048019	116.0
188.577896	68.0
188.662643	72.0
188.938858	56.0
189.083893	148.0
189.218597	76.0
189.749557	48.0
190.010117	284.0
190.066208	184.0
190.787354	100.0
191.621277	96.0
192.040298	36.0
192.459793	160.0
192.744308	52.0
193.023499	76.0
193.482803	60.0
194.000885	52.0
194.877914	36.0
194.983521	96.0
195.562042	84.0
196.211121	116.0
196.384003	68.0
196.50676	44.0
196.743988	44.0
197.107758	1860.0
197.688751	108.0
197.811905	68.0
197.974304	44.0
198.054306	256.0
198.109314	344.0
198.14238	196.0
198.201218	112.0
198.290894	68.0
198.77327	36.0
199.023102	44.0
199.061768	744.0
199.112457	132.0
199.29837	64.0
199.781967	76.0
200.062164	128.0
200.099991	144.0
200.38446	84.0
200.886292	92.0
202.00499	68.0
202.381409	76.0
203.109085	116.0
203.192047	92.0
203.53833	72.0
204.257385	52.0
204.485016	64.0
206.013443	60.0
206.062881	100.0
206.091492	312.0
206.310654	92.0
207.088806	228.0
207.822906	84.0
208.402924	48.0
209.833435	36.0
210.17955	116.0
211.141556	76.0
211.161789	56.0
211.769623	40.0
212.233307	192.0
213.802002	36.0
214.014511	128.0
214.084396	104.0
214.33783	116.0
214.792664	60.0
215.061447	376.0
215.542999	64.0
215.715439	132.0
216.010803	108.0
216.066391	120.0
216.479111	104.0
216.610916	56.0
218.445648	100.0
218.943085	72.0
219.736038	100.0
219.783249	88.0
220.426987	240.0
220.598419	108.0
220.805405	48.0
220.959229	92.0
221.107178	92.0
221.87439	92.0
222.221405	96.0
222.764709	144.0
223.070801	164.0
223.237305	76.0
227.435135	108.0
228.56517	40.0
228.598267	40.0
230.906219	196.0
231.034393	2252.0
231.872055	52.0
232.035248	220.0
232.126709	88.0
232.848999	80.0
233.037354	328.0
233.083588	204.0
233.453796	48.0
233.834106	120.0
235.080597	96.0
235.605789	136.0
236.042877	184.0
236.312057	48.0
236.354889	48.0
238.799988	32.0
238.870743	132.0
238.97226	60.0
239.440186	44.0
239.63118	72.0
241.628799	104.0
243.828751	56.0
244.533401	40.0
244.857208	48.0
245.252914	100.0
245.50235	112.0
246.679474	128.0
247.702774	104.0
247.871964	100.0
248.282639	52.0
248.317139	64.0
249.044983	1904.0
249.69281	72.0
249.840652	124.0
249.991699	32.0
250.044586	164.0
250.189987	52.0
250.227768	52.0
250.356888	152.0
251.041977	144.0
251.0849	60.0
251.33728	80.0
251.712921	52.0
252.408127	80.0
256.551666	48.0
257.649506	128.0
258.621674	84.0
258.986694	116.0
260.896088	172.0
261.040771	168.0
261.835663	84.0
263.152527	144.0
263.32254	72.0
263.526062	128.0
263.622986	88.0
263.975372	96.0
264.010925	48.0
265.426117	72.0
268.170013	56.0
268.274323	96.0
269.125885	96.0
269.779327	56.0
270.122711	60.0
271.160706	76.0
272.187531	76.0
272.506165	32.0
273.95459	64.0
275.745544	40.0
276.129089	52.0
276.665161	76.0
276.996307	68.0
277.074921	168.0
277.228241	108.0
277.586273	32.0
277.745483	64.0
277.805176	32.0
279.186981	76.0
279.82254	68.0
279.919098	68.0
282.830475	92.0
282.987793	52.0
284.936493	120.0
284.993622	112.0
285.40033	104.0
286.652557	60.0
286.794128	112.0
287.303314	144.0
287.644165	80.0
289.161865	56.0
289.236328	68.0
289.849335	128.0
291.72287	52.0
292.665314	68.0
294.22348	96.0
294.50351	64.0
295.53595	108.0
296.01178	40.0
296.207001	64.0
296.957672	64.0
297.094879	96.0
297.414032	100.0
297.719604	156.0
297.774567	84.0
298.651031	56.0
300.200897	80.0
300.818512	56.0
300.960083	112.0
301.319275	48.0
302.654388	72.0
302.806793	104.0
303.205231	132.0
303.78775	104.0
304.231964	48.0
305.003174	192.0
305.103851	2144.0
305.222198	36.0
305.486542	96.0
305.521332	132.0
305.730103	56.0
305.886719	40.0
306.108093	252.0
306.381256	44.0
307.106842	168.0
307.961487	52.0
311.172821	40.0
311.921112	100.0
313.353485	84.0
313.790527	104.0
314.471375	108.0
314.609039	128.0
314.835022	68.0
318.973511	104.0
322.413116	32.0
330.508179	100.0
331.264862	108.0
333.514709	72.0
336.089539	64.0
338.212921	56.0
341.42337	104.0
341.478546	84.0
344.645294	108.0
348.788788	124.0
349.380066	56.0
350.646149	72.0
351.739044	52.0
355.298004	56.0
355.414307	44.0
356.796509	72.0
356.901794	76.0
357.349396	164.0
359.014374	104.0
359.86261	72.0
361.265625	52.0
361.30722	56.0
363.322754	112.0
364.017365	32.0
367.096039	96.0
371.49469	92.0
376.023743	96.0
376.629974	32.0
378.134064	48.0
383.521423	52.0
383.751434	96.0
384.42627	60.0
386.704803	56.0
387.887756	76.0
393.805878	48.0
398.929565	36.0
399.382904	160.0
399.649445	88.0
401.174866	40.0
403.258575	40.0
404.178406	64.0
407.695343	76.0
408.310486	88.0
414.223846	40.0
418.683685	76.0
425.295105	68.0
425.746765	108.0
426.626099	116.0
427.703888	84.0
427.938538	68.0
432.12796	44.0
441.818054	124.0
445.015961	88.0
447.210419	72.0
447.711456	68.0
448.689056	64.0
453.296356	52.0
454.869904	124.0
459.039551	32.0
459.555695	32.0
463.836731	44.0
476.842377	32.0
477.41568	60.0
481.73584	52.0
482.863586	80.0
483.712463	44.0
484.982788	72.0
486.878204	52.0
492.931305	152.0
499.760162	52.0
513.189026	92.0
513.76178	120.0
516.440613	72.0
517.472412	64.0
519.548157	100.0
523.015564	56.0
524.878906	152.0
525.015747	60.0
527.275696	104.0
536.197998	68.0
538.190918	96.0
538.888367	92.0
539.826721	96.0
541.154785	32.0
542.693115	72.0
549.106018	88.0
557.514648	84.0
557.749695	40.0
564.000122	44.0
567.465515	64.0
572.612122	48.0
573.474487	112.0
577.992432	76.0
584.667786	84.0
600.0578	96.0
600.994324	84.0
603.460999	56.0
612.121765	68.0
617.110474	68.0
622.99353	84.0
630.497742	40.0
631.987976	52.0
654.318237	76.0
655.34198	136.0
659.092407	108.0
662.023621	52.0
670.258423	84.0
670.887268	72.0
678.326355	60.0
689.177856	40.0
692.903259	48.0
703.036194	276.0
704.821106	56.0
706.470703	96.0
712.780273	152.0
714.029602	84.0
714.620056	84.0
716.339722	92.0
723.249695	76.0
726.411316	136.0
727.07666	116.0
731.198914	172.0
735.143982	132.0
736.601807	72.0
737.352844	72.0
740.58844	28.0
743.212402	56.0
744.982361	144.0
746.547791	104.0
747.097168	92.0
754.230103	156.0
755.750488	64.0
760.463501	48.0
764.84436	136.0
767.196655	144.0
769.546997	140.0
772.100037	124.0
772.260437	68.0
773.02948	168.0
776.908081	28.0
777.72937	52.0
779.0177	140.0
779.612244	204.0
781.653137	160.0
781.865173	208.0
782.193054	36.0
784.543945	152.0
788.009827	112.0
795.020691	180.0
795.890808	152.0
798.312805	232.0
799.060913	132.0
800.180969	204.0
800.890564	164.0
801.797668	200.0
803.523254	180.0
806.103699	160.0
807.047729	240.0
809.373352	124.0
812.167419	56.0
812.93335	116.0
814.716309	224.0
815.239014	164.0
815.381104	92.0
818.083008	156.0
818.213989	96.0
819.506897	224.0
819.580994	48.0
821.20575	152.0
821.279907	72.0
821.319824	48.0
822.466797	152.0
823.323242	136.0
824.122986	168.0
824.957397	120.0
825.50061	140.0
827.171326	116.0
828.981201	72.0
829.376709	232.0
830.678406	128.0
831.349731	136.0
833.394043	148.0
833.750305	160.0
834.422852	108.0
834.61261	168.0
835.26825	220.0
836.390381	104.0
837.507446	140.0
837.662964	128.0
838.181519	140.0
841.169128	52.0
843.12146	28.0
844.029053	216.0
844.526428	92.0
844.850342	200.0
845.087585	152.0
846.540527	164.0
847.05603	88.0
848.348328	200.0
849.426941	96.0
851.249451	184.0
851.493347	180.0
852.132385	164.0
852.440369	72.0
853.254089	152.0
853.341309	164.0
857.695984	32.0
857.806763	136.0
858.244019	160.0
858.71637	148.0
858.955566	128.0
861.197021	80.0
861.58844	148.0
862.248718	144.0
862.692993	160.0
863.230896	60.0
863.336182	200.0
864.207764	200.0
864.383362	140.0
864.857422	172.0
865.237915	128.0
865.899597	152.0
866.262817	124.0
866.344788	144.0
866.50885	120.0
866.561584	204.0
866.766663	100.0
867.112427	124.0
869.499512	112.0
869.986755	60.0
870.250916	164.0
870.914551	144.0
870.982483	136.0
871.319885	140.0
871.831116	128.0
872.172058	152.0
872.818726	128.0
874.58374	152.0
875.490479	140.0
876.309265	152.0
876.609802	84.0
877.246338	100.0
877.771118	160.0
878.478882	68.0
878.708984	180.0
879.564697	192.0
879.682739	172.0
880.527161	80.0
881.200562	80.0
881.318726	180.0
882.092957	96.0
882.666504	208.0
882.767029	124.0
882.997681	60.0
883.606995	224.0
884.109924	172.0
885.009766	148.0
885.915955	80.0
886.425476	116.0
886.502502	176.0
887.385742	152.0
887.812683	152.0
887.913513	216.0
888.014343	184.0
890.079651	116.0
890.335022	196.0
890.424072	92.0
890.721069	80.0
890.958679	164.0
891.499451	172.0
891.612366	136.0
891.856018	164.0
891.909546	116.0
892.628967	48.0
893.19397	168.0
893.271301	160.0
893.598511	96.0
893.735352	264.0
894.116211	140.0
894.163818	48.0
894.806763	156.0
895.354614	204.0
895.408203	152.0
895.551147	140.0
896.707031	44.0
896.820312	152.0
897.005066	212.0
897.213745	124.0
897.55957	272.0
898.901794	136.0
900.884094	32.0
901.364502	196.0
902.10321	128.0
902.324402	56.0
902.683167	140.0
902.754944	32.0
903.012085	108.0
903.963379	28.0
904.40625	212.0
905.388184	192.0
906.766174	68.0
906.916016	40.0
907.053894	76.0
907.107849	60.0
907.17981	200.0
907.455566	164.0
908.421143	132.0
908.973145	140.0
909.05719	40.0
909.26123	136.0
909.45929	148.0
909.753418	160.0
909.975586	104.0
910.023621	184.0
910.122192	172.0
910.473999	184.0
912.871887	152.0
914.171326	88.0
914.556519	60.0
915.014038	116.0
915.869202	156.0
916.055908	188.0
916.212585	32.0
916.706665	64.0
917.07428	156.0
917.297363	180.0
917.544495	172.0
918.225952	136.0
919.185181	156.0
919.716248	108.0
920.253601	116.0
920.700439	112.0
920.863525	360.0
921.183655	140.0
921.388733	152.0
921.469177	140.0
921.666992	180.0
922.730835	208.0
924.170349	72.0
924.297424	176.0
924.88446	176.0
925.532288	156.0
925.701843	156.0
926.041016	108.0
926.116089	164.0
926.343872	116.0
926.752991	208.0
926.816467	152.0
927.125488	88.0
927.355835	160.0
927.483093	112.0
927.804382	168.0
928.623047	156.0
928.932434	140.0
929.205444	92.0
929.612	136.0
930.061096	176.0
930.668213	172.0
931.336243	204.0
931.779724	196.0
932.739929	156.0
932.843262	128.0
933.080383	192.0
933.621582	108.0
933.901367	124.0
934.205505	104.0
934.813965	128.0
935.014771	176.0
935.276489	68.0
935.416504	184.0
935.641785	200.0
935.733093	144.0
935.891418	108.0
936.104553	116.0
936.409058	128.0
936.54303	152.0
936.896362	40.0
936.939026	128.0
937.188843	152.0
937.45697	92.0
937.938477	176.0
938.0177	212.0
938.109131	124.0
938.371338	176.0
940.14032	76.0
940.299011	172.0
940.46991	220.0
940.585876	168.0
940.732361	108.0
941.055969	148.0
941.233032	152.0
941.452881	140.0
941.642212	124.0
941.843811	76.0
942.116089	252.0
942.53418	160.0
942.680847	132.0
942.778625	36.0
943.285889	132.0
943.340942	76.0
943.487671	72.0
943.591614	180.0
943.823975	44.0
943.940125	212.0
944.019653	208.0
944.111389	152.0
944.435547	116.0
944.796448	152.0
944.967773	164.0
945.053406	128.0
945.120728	88.0
945.81842	84.0
946.002075	72.0
946.259216	224.0
946.50415	224.0
946.58374	188.0
947.309387	136.0
947.392273	164.0
947.465759	200.0
947.557678	180.0
948.084656	40.0
948.342102	40.0
948.391113	168.0
948.513733	176.0
949.997742	120.0
950.316772	120.0
950.421082	120.0
950.507019	68.0
950.893616	60.0
950.948853	128.0
951.403137	96.0
951.501343	200.0
951.618042	168.0
951.949646	164.0
952.17688	156.0
952.361084	176.0
952.662109	168.0
952.895569	152.0
953.036926	120.0
953.15979	52.0
953.27655	164.0
953.331848	108.0
953.424072	224.0
953.835876	196.0
953.973938	148.0
954.235474	128.0
954.313232	224.0
954.503784	200.0
955.047241	92.0
955.324036	184.0
955.594788	120.0
955.742432	128.0
955.95166	96.0
956.037842	104.0
956.524048	188.0
957.115112	188.0
957.281372	96.0
957.817261	132.0
957.977417	168.0
958.340881	152.0
958.384033	220.0
958.439514	164.0
960.054626	140.0
960.831848	136.0
961.158875	112.0
962.10321	124.0
962.516907	80.0
962.591003	32.0
962.967712	132.0
963.136292	204.0
963.27655	96.0
963.341553	160.0
963.560791	48.0
963.641113	156.0
963.974731	148.0
964.160156	96.0
964.535889	132.0
964.642273	132.0
964.840149	188.0
965.056519	128.0
966.046082	236.0
966.20697	108.0
966.388428	204.0
967.029968	128.0
967.337402	180.0
967.847168	252.0
968.163025	108.0
968.509827	80.0
968.77002	152.0
969.421936	192.0
969.470215	160.0
970.021851	128.0
970.41864	76.0
971.42334	144.0
971.628052	132.0
971.916565	172.0
972.037598	60.0
972.254822	112.0
972.645813	176.0
972.695496	172.0
972.850708	40.0
973.31012	176.0
973.620667	176.0
973.825623	188.0
973.881531	48.0
974.024353	44.0
974.123779	96.0
975.310669	104.0
975.481018	280.0
975.913696	160.0
976.572937	176.0
977.363037	204.0
977.468811	140.0
977.792419	124.0
978.832092	192.0
979.093628	168.0
979.230652	112.0
979.386414	160.0
979.672913	140.0
979.753906	84.0
980.15271	176.0
980.408203	72.0
980.726074	140.0
980.86322	176.0
981.031494	176.0
981.135254	132.0
982.029236	200.0
982.322449	168.0
982.727966	184.0
983.127319	160.0
983.445618	88.0
984.001221	172.0
984.044922	292.0
984.294739	128.0
984.557007	120.0
984.823059	172.0
984.9505	104.0
985.327759	168.0
985.375305	212.0
985.562744	128.0
985.625244	136.0
985.762756	196.0
986.031433	132.0
986.625305	140.0
986.737854	160.0
986.906677	76.0
987.194336	236.0
987.919861	204.0
988.048401	140.0
988.714539	148.0
988.764648	172.0
988.877258	180.0
988.971191	224.0
989.891541	208.0
990.499023	76.0
990.65564	76.0
990.75592	132.0
991.244629	140.0
991.526794	188.0
992.391724	104.0
992.711548	192.0
992.830688	188.0
993.121582	220.0
993.47052	188.0
993.85321	124.0
994.374084	172.0
994.819763	240.0
994.895142	80.0
995.278137	88.0
995.529297	248.0
996.056885	160.0
996.119751	164.0
996.295654	84.0
996.634888	52.0
996.781555	208.0
997.043396	144.0
997.118774	44.0
997.326233	36.0
997.571411	180.0
998.098511	204.0
998.231567	60.0
998.288147	148.0
998.363647	172.0
998.678101	144.0
998.734741	76.0
998.967468	196.0
999.294617	156.0
999.357544	148.0
999.426758	84.0
999.546326	224.0
999.678467	48.0
999.772888	80.0
999.889648	168.0
999.96759	136.0
1000.150513	116.0
1000.56604	72.0
1000.817871	204.0
1001.29303	188.0
1001.39093	100.0
1001.485413	184.0
1001.567322	116.0
1002.285522	232.0
1002.559387	132.0
1002.69519	120.0
1003.76062	164.0
1004.208374	140.0
1004.328247	116.0
1004.46344	268.0
1004.681519	176.0
1004.725647	156.0
1004.78241	140.0
1005.129456	184.0
1005.703796	104.0
1005.912109	176.0
1005.994141	224.0
1006.109497	212.0
1006.322449	152.0
1006.725281	132.0
1006.751648	104.0
1006.852905	200.0
1007.187683	160.0
1008.280762	192.0
1008.356628	184.0
1009.089905	200.0
1009.21637	60.0
1009.273315	176.0
1009.349182	160.0
1009.463013	152.0
1009.572205	176.0
1009.798218	180.0
1010.108154	76.0
1010.184021	240.0
1010.247314	132.0
1010.370544	172.0
1010.44342	220.0
1010.628052	132.0
1010.696533	212.0
1010.823059	92.0
1011.65741	212.0
1011.87384	112.0
1012.057434	44.0
1012.101746	160.0
1012.168579	208.0
1012.386719	152.0
1012.690735	104.0
1013.045471	196.0
1013.115173	216.0
1013.286255	160.0
1013.374939	100.0
1013.793152	156.0
1013.869202	172.0
1014.538513	188.0
1014.908691	132.0
1014.923584	196.0
1015.650879	184.0
1016.050537	124.0
1016.196838	132.0
1016.558167	108.0
1016.697754	160.0
1016.869141	200.0
1016.989746	84.0
1017.040527	52.0
1017.14209	104.0
1017.275391	176.0
1017.567017	124.0
1017.637268	156.0
1017.764282	164.0
1017.846802	196.0
1018.316772	84.0
1018.901184	136.0
1019.110901	164.0
1019.981567	172.0
1020.172302	156.0
1020.483826	144.0
1020.547424	228.0
1020.700012	92.0
1020.776306	184.0
1021.113403	168.0
1021.237122	172.0
1021.348755	144.0
1021.615906	132.0
1021.738281	168.0
1021.902222	64.0
1022.016724	208.0
1022.538574	104.0
1022.710449	168.0
1023.181519	148.0
1023.238831	172.0
1023.385254	164.0
1023.773682	56.0
1023.946045	160.0
1024.098511	176.0
1024.327881	220.0
1024.49353	168.0
1024.710083	64.0
1024.827637	168.0
1025.003174	184.0
1025.61499	108.0
1025.844482	156.0
1025.978394	152.0
1026.09314	168.0
1026.813721	164.0
1027.036987	176.0
1027.228394	160.0
1027.362305	104.0
1027.458008	124.0
1027.706909	120.0
1028.131226	244.0
1028.396118	140.0
1028.613159	40.0
1029.264404	152.0
1029.424072	144.0
1029.647583	96.0
1030.139404	212.0
1030.31189	128.0
1030.593018	160.0
1030.797485	144.0
1030.93811	56.0
1031.008423	144.0
1031.551636	168.0
1031.788208	148.0
1032.02478	100.0
1032.143555	144.0
1032.689941	164.0
1032.932983	116.0
1033.099243	140.0
1033.451172	172.0
1033.566406	136.0
1033.845337	116.0
1033.929688	160.0
1034.0271	132.0
1034.219116	164.0
1034.359985	188.0
1034.545654	172.0
1034.654419	224.0
1034.865723	76.0
1035.153931	108.0
1035.19873	128.0
1035.25	164.0
1035.749512	224.0
1035.887817	184.0
1036.04541	160.0
1036.652954	168.0
1037.210571	164.0
1037.736328	40.0
1038.44812	224.0
1038.512207	216.0
1038.621338	204.0
1038.66626	208.0
1039.019043	184.0
1039.128052	200.0
1039.58374	128.0
1040.14209	224.0
1040.463135	124.0
1040.508057	124.0
1041.137329	120.0
1041.574097	128.0
1041.631958	160.0
1041.811768	148.0
1041.978882	120.0
1042.030273	184.0
1042.075195	128.0
1042.595703	180.0
1042.827148	140.0
1043.174194	168.0
1043.360596	140.0
1043.450684	140.0
1043.849365	80.0
1044.016479	108.0
1044.09375	148.0
1044.305908	100.0
1044.634033	132.0
1044.691895	120.0
1044.949219	184.0
1045.663574	212.0
1046.062622	128.0
1046.339478	148.0
1046.64856	124.0
1046.914185	164.0
1047.195923	112.0
1047.241089	136.0
1047.361572	108.0
1047.410278	192.0
1047.460083	172.0
1047.627563	192.0
1047.896729	204.0
1047.988403	120.0
1048.428223	152.0
1048.658569	140.0
1049.200195	204.0
1049.62561	180.0
1050.168091	176.0
1050.599609	108.0
1050.793091	232.0
1050.986694	176.0
1051.315796	208.0
1051.538086	180.0
1051.690186	152.0
1052.096802	120.0
1052.419678	196.0
1052.64563	144.0
1052.839355	160.0
1053.155884	100.0
1053.239868	288.0
1053.311768	184.0
1053.420776	136.0
1053.721802	256.0
1053.833862	168.0
1054.607544	228.0
1054.697998	212.0
1054.900635	128.0
1054.952393	276.0
1055.366089	148.0
1055.443726	180.0
1055.579468	144.0
1056.232788	116.0
1056.278076	28.0
1056.439819	148.0
1056.698608	28.0
1057.248535	144.0
1057.850586	164.0
1058.011841	180.0
1058.077148	184.0
1058.154785	120.0
1059.268799	168.0
1059.67688	192.0
1059.955566	132.0
1060.143433	152.0
1060.610107	88.0
1060.869385	160.0
1060.940796	160.0
1061.037964	140.0
1061.109375	120.0
1061.185547	200.0
1061.498413	260.0
1061.712402	296.0
1062.127441	120.0
1062.711426	160.0
1062.964478	152.0
1063.152588	132.0
1063.29541	176.0
1063.392822	136.0
1063.561523	136.0
1063.860352	128.0
1063.977051	68.0
1064.184814	144.0
1064.268311	156.0
1064.414917	164.0
1064.658813	152.0
1064.723755	64.0
1064.842285	224.0
1065.490234	160.0
1065.587769	156.0
1065.802124	184.0
1066.237549	172.0
1066.296021	136.0
1066.497559	144.0
1066.653564	180.0
1066.699097	164.0
1066.881104	108.0
1067.355713	132.0
1067.589844	204.0
1068.097168	180.0
1068.285767	28.0
1068.370361	136.0
1068.851929	168.0
1068.936523	116.0
1069.23584	236.0
1069.314087	132.0
1070.47937	184.0
1070.804932	192.0
1071.143677	156.0
1071.567139	120.0
1071.837158	108.0
1071.987549	140.0
1072.084717	240.0
1072.21875	168.0
1072.407837	52.0
1072.654175	116.0
1072.812012	120.0
1072.960693	172.0
1073.24231	80.0
1073.385742	112.0
1073.776978	120.0
1073.943848	116.0
1074.131104	224.0
1074.370605	56.0
1074.527222	152.0
1074.612061	116.0
1074.918701	112.0
1075.062256	128.0
1075.162842	128.0
1075.395142	124.0
1075.486572	176.0
1075.604004	96.0
1075.721558	140.0
1075.852051	32.0
1076.19812	168.0
1076.400513	132.0
1076.661743	144.0
1077.393433	172.0
1077.503052	176.0
1077.811523	152.0
1077.896484	64.0
1078.314697	140.0
1078.589233	128.0
1078.648071	184.0
1078.739624	144.0
1078.997925	180.0
1079.360718	168.0
1079.5177	132.0
1079.759644	188.0
1079.847412	160.0
1080.250244	176.0
1080.55127	136.0
1080.623169	148.0
1080.956909	160.0
1081.172852	144.0
1081.263428	252.0
1081.445435	148.0
1081.532837	144.0
1081.689941	144.0
1081.748901	88.0
1081.820923	144.0
1082.281982	204.0
1082.331543	128.0
1082.528076	128.0
1082.790039	180.0
1082.854248	204.0
1082.953735	112.0
1083.220093	196.0
1083.608887	180.0
1083.838135	148.0
1083.956177	28.0
1084.162476	160.0
1084.224854	172.0
1084.681519	220.0
1084.945923	132.0
1085.011475	176.0
1085.181885	128.0
1085.594971	140.0
1085.759033	220.0
1085.842407	200.0
1086.034424	224.0
1086.132812	144.0
1086.408325	156.0
1086.618286	152.0
1086.77832	112.0
1087.432007	224.0
1087.484497	228.0
1087.951782	152.0
1088.038208	176.0
1088.482422	156.0
1089.003784	200.0
1089.211548	144.0
1089.336304	124.0
1089.526855	108.0
1089.704224	48.0
1089.910522	152.0
1090.321899	172.0
1090.455933	104.0
1090.552002	152.0
1090.647339	244.0
1090.696533	104.0
1091.189697	232.0
1091.301392	192.0
1091.413208	180.0
1091.617065	132.0
1091.834106	176.0
1091.939331	128.0
1092.083984	248.0
1092.590576	160.0
1093.294678	88.0
1093.518433	120.0
1093.64563	268.0
1093.801392	152.0
1094.03186	152.0
1094.403442	260.0
1094.54541	144.0
1094.848389	136.0
1095.019531	52.0
1095.072266	148.0
1095.151367	124.0
1095.602539	96.0
1096.086792	144.0
1096.469116	180.0
1096.528442	156.0
1096.574585	112.0
1096.890869	104.0
1097.036011	160.0
1097.220581	104.0
1097.437378	168.0
1097.76123	108.0
1097.843018	200.0
1098.005249	96.0
1098.097656	52.0
1098.308716	208.0
1098.540039	152.0
1098.608521	224.0
1098.914062	180.0
1099.034424	156.0
1099.154785	168.0
1099.833008	124.0
1099.958374	152.0
1100.063965	100.0
1100.248901	156.0
1100.334717	152.0
1100.638428	176.0
1100.717651	132.0
1100.7771	176.0
1100.994995	128.0
1101.04126	164.0
1101.113892	144.0
1101.193115	40.0
1101.391357	108.0
1101.549805	172.0
1101.701782	252.0
1101.748047	40.0
1101.820679	120.0
1102.012329	140.0
1102.316284	332.0
1102.481445	92.0
1102.772339	92.0
1102.898315	132.0
1103.334229	144.0
1103.61853	132.0
1103.98877	148.0
1104.074829	164.0
1104.147583	124.0
1104.226929	148.0
1104.44519	140.0
1104.875244	108.0
1105.318481	120.0
1105.581665	176.0
1105.735474	52.0
1105.781738	76.0
1105.873169	184.0
1106.02002	144.0
1106.22522	176.0
1106.821167	92.0
1107.0	164.0
1107.139038	132.0
1107.264893	116.0
1107.483398	148.0
1107.589478	188.0
1108.249146	144.0
1108.324829	172.0
1108.49707	164.0
1108.57666	228.0
1108.623047	148.0
1108.768799	176.0
1109.299072	104.0
1109.458252	128.0
1109.765503	224.0
1109.909058	144.0
1110.200806	180.0
1110.446289	104.0
1110.565674	120.0
1110.718262	132.0
1110.77124	136.0
1110.959961	212.0
1111.076416	144.0
1111.130737	160.0
1111.195923	184.0
1111.354614	180.0
1111.560791	164.0
1112.25769	188.0
1112.403687	180.0
1112.476807	244.0
1112.580322	148.0
1112.994629	140.0
1113.452881	108.0
1113.545898	180.0
1113.6521	100.0
1113.884644	132.0
1113.95105	164.0
1114.04187	168.0
1114.093506	220.0
1114.549072	152.0
1114.927856	168.0
1115.519409	152.0
1116.011353	172.0
1116.091187	204.0
1116.210815	156.0
1116.536743	92.0
1116.715698	92.0
1117.14209	68.0
1117.301758	128.0
1117.348267	212.0
1117.527954	180.0
1117.574463	192.0
1117.987061	200.0
1118.0802	120.0
1118.346436	192.0
1118.393066	164.0
1118.4729	28.0
1118.539551	212.0
1118.666016	168.0
1118.781982	132.0
1118.892334	212.0
1119.155151	208.0
1119.371826	156.0
1119.524902	160.0
1119.711426	140.0
1119.791382	108.0
1120.004517	148.0
1120.151001	172.0
1120.304321	120.0
1120.45752	180.0
1120.584106	180.0
1120.77356	164.0
1121.270508	156.0
1121.370483	124.0
1121.943726	108.0
1122.130371	148.0
1122.270386	128.0
1122.377075	132.0
1122.757202	316.0
1123.097412	156.0
1123.564331	136.0
1123.784546	96.0
1124.131592	208.0
1124.204956	108.0
1124.6521	168.0
1124.765625	124.0
1124.825684	128.0
1124.933838	140.0
1125.063354	108.0
1125.119385	196.0
1125.52002	316.0
1126.087646	96.0
1126.181152	168.0
1126.227905	112.0
1126.321533	224.0
1126.548584	148.0
1126.608765	144.0
1126.702271	204.0
1126.909424	168.0
1127.18335	168.0
1127.256836	120.0
1127.510864	64.0
1127.591064	128.0
1127.798218	172.0
1128.714111	132.0
1128.901367	180.0
1129.048462	72.0
1129.262573	120.0
1129.362915	196.0
1129.423096	80.0
1129.501587	184.0
1129.871338	176.0
1129.931519	184.0
1130.466797	200.0
1130.5271	172.0
1130.600708	204.0
1130.974487	164.0
1131.223145	160.0
1131.537842	60.0
1131.591431	112.0
1131.691772	200.0
1131.765503	112.0
1132.2677	136.0
1132.398682	232.0
1132.662964	160.0
1132.783447	92.0
1132.927612	208.0
1133.218994	52.0
1133.75293	160.0
1134.188477	168.0
1134.505859	212.0
1134.572876	132.0
1134.713623	52.0
1134.823853	208.0
1135.126831	216.0
1135.380127	200.0
1135.525024	108.0
1135.62561	132.0
1135.800781	196.0
1136.31665	140.0
1136.417236	236.0
1136.886963	148.0
1137.048096	96.0
1137.116089	292.0
1137.644287	108.0
1137.771606	200.0
1138.008057	184.0
1138.229614	180.0
1138.344971	136.0
1138.397583	304.0
1138.827393	140.0
1139.094238	192.0
1139.539429	96.0
1139.599976	128.0
1139.653687	208.0
1139.909058	196.0
1140.38623	100.0
1140.52063	56.0
1141.105591	52.0
1141.253418	200.0
1141.825073	160.0
1141.878906	140.0
1142.033569	144.0
1142.21521	160.0
1142.349731	192.0
1142.490967	164.0
1142.762329	172.0
1143.237915	88.0
1143.3927	184.0
1143.581177	180.0
1143.702271	60.0
1143.823486	204.0
1143.916504	152.0
1144.139893	64.0
1144.368774	168.0
1144.550659	72.0
1144.60144	220.0
1144.961426	188.0
1145.089355	128.0
1145.287231	120.0
1145.414429	172.0
1145.547363	112.0
1145.662964	184.0
1145.71582	148.0
1145.823608	192.0
1145.904541	208.0
1146.189575	196.0
1146.34375	124.0
1146.416626	128.0
1146.463745	140.0
1146.515503	204.0
1147.142456	140.0
1147.286133	116.0
1147.333374	128.0
1147.414185	192.0
1147.528809	108.0
1148.05481	100.0
1148.230225	164.0
1148.358276	148.0
1148.533691	100.0
1148.756348	280.0
1148.938477	112.0
1149.113892	152.0
1149.235352	144.0
1149.32312	28.0
1149.491821	92.0
1149.619995	100.0
1149.93042	232.0
1149.984497	156.0
1150.546509	148.0
1150.720215	96.0
1150.848511	40.0
1150.976807	232.0
1151.071411	136.0
1151.191895	160.0
1151.361816	152.0
1151.687744	124.0
1151.760254	168.0
1151.814331	212.0
1151.881836	168.0
1152.037231	48.0
1152.152466	164.0
1152.230347	200.0
1152.357788	80.0
1152.429077	128.0
1152.496704	120.0
1152.699463	128.0
1152.794067	168.0
1153.165771	168.0
1153.260376	204.0
1153.449585	112.0
1153.666016	160.0
1154.335327	44.0
1154.558472	144.0
1154.700562	128.0
1154.834839	136.0
1154.86084	116.0
1154.965698	188.0
1155.025269	312.0
1155.153809	120.0
1155.207886	152.0
1155.867432	160.0
1156.484131	172.0
1156.622192	144.0
1156.693481	184.0
1156.865845	164.0
1156.925903	208.0
1157.33313	208.0
1157.386475	168.0
1157.413818	148.0
1157.529419	164.0
1157.895142	176.0
1157.956055	144.0
1158.091553	124.0
1158.460205	164.0
1158.629517	212.0
1158.728394	128.0
1158.965454	96.0
1159.467041	228.0
1159.52124	196.0
1159.670288	96.0
1159.887207	216.0
1159.956543	156.0
1160.049927	176.0
1160.619507	72.0
1160.895752	224.0
1161.982788	140.0
1162.166016	120.0
1162.362305	156.0
1162.371216	148.0
1162.535767	124.0
1162.790283	180.0
1162.86499	140.0
1163.034668	176.0
1163.312988	116.0
1163.471558	184.0
1163.699951	188.0
1163.754272	116.0
1164.019165	148.0
1164.202515	212.0
1164.508179	180.0
1164.672607	148.0
1164.739014	152.0
1165.078735	176.0
1165.207886	116.0
1165.296143	120.0
1165.391235	176.0
1165.588379	188.0
1165.669922	60.0
1165.728149	164.0
1165.771851	248.0
1165.968384	164.0
1166.383545	120.0
1166.798218	168.0
1166.852661	196.0
1166.920654	164.0
1166.997559	228.0
1167.090576	192.0
1167.178955	176.0
1167.396606	48.0
1167.828125	192.0
1168.06604	168.0
1168.248291	212.0
1168.546143	200.0
1168.886353	128.0
1169.14502	68.0
1169.526123	160.0
1169.648682	200.0
1169.778076	232.0
1169.859741	128.0
1170.043701	160.0
1170.172852	104.0
1170.315918	160.0
1170.384033	184.0
1170.663208	240.0
1170.82666	104.0
1170.964233	176.0
1171.1604	188.0
1171.289795	44.0
1171.528198	156.0
1171.678101	108.0
1171.937012	136.0
1172.193604	284.0
1172.461792	172.0
1172.611694	192.0
1172.949463	228.0
1173.606934	128.0
1173.688843	180.0
1173.941162	72.0
1174.098022	148.0
1174.398071	140.0
1174.623169	52.0
1174.909668	152.0
1175.250854	228.0
1175.455566	104.0
1175.571533	120.0
1175.667114	280.0
1175.810425	124.0
1176.01355	196.0
1176.11084	188.0
1176.47937	116.0
1176.667236	180.0
1176.738892	140.0
1177.062256	144.0
1177.3125	136.0
1177.364258	128.0
1177.643921	148.0
1177.729126	92.0
1177.947632	276.0
1178.00769	148.0
1178.098022	124.0
1178.227783	156.0
1178.74707	188.0
1178.794922	136.0
1178.904297	60.0
1179.403198	164.0
1179.572021	224.0
1179.690918	176.0
1179.813354	180.0
1179.936401	120.0
1179.997925	120.0
1180.066284	144.0
1180.120972	120.0
1180.599731	136.0
1180.681763	236.0
1180.77063	60.0
1180.8927	120.0
1180.910156	100.0
1180.930542	160.0
1181.324707	108.0
1181.40686	52.0
1181.468384	200.0
1181.530029	44.0
1181.796875	152.0
1181.878906	96.0
1182.279297	160.0
1182.857666	132.0
1183.364258	136.0
1183.567383	180.0
1183.720337	180.0
1183.953125	160.0
1184.138062	80.0
1184.425781	312.0
1184.549072	184.0
1184.631348	172.0
1184.679199	88.0
1184.795654	148.0
1184.953247	200.0
1185.040161	176.0
1185.282227	216.0
1185.384644	180.0
1185.899048	184.0
1186.11145	168.0
1186.167603	180.0
1186.234863	152.0
1186.323975	76.0
1186.529663	168.0
1186.803955	192.0
1186.947876	108.0
1187.105713	236.0
1187.20166	188.0
1187.249634	196.0
1187.359375	148.0
1187.578857	100.0
1187.6604	144.0
1188.175659	164.0
1188.64917	68.0
1188.968262	148.0
1189.136475	152.0
1189.198242	188.0
1189.445312	124.0
1189.692505	136.0
1190.14563	176.0
1190.310425	96.0
1190.399658	124.0
1190.468384	104.0
1190.805054	216.0
1191.114014	96.0
1191.498657	76.0
1191.636108	176.0
1191.7323	160.0
1191.979614	164.0
1192.041504	140.0
1192.130859	152.0
1192.378296	96.0
1192.508911	148.0
1192.608276	136.0
1192.804443	160.0
1193.07251	124.0
1193.122314	136.0
1193.271973	108.0
1193.368164	164.0
1193.562622	140.0
1193.63562	188.0
1193.691406	136.0
1194.076538	80.0
1194.145264	108.0
1194.227783	140.0
1194.425903	172.0
1194.843994	144.0
1195.349243	148.0
1195.448242	280.0
1195.590088	160.0
1195.741577	144.0
1195.872314	192.0
1195.9375	196.0
1196.161377	128.0
1196.409302	192.0
1196.691528	172.0
1196.808594	112.0
1197.054688	216.0
1197.20105	176.0
1197.266479	172.0
1197.331909	152.0
1197.517944	160.0
1197.93811	156.0
1198.151489	196.0
1198.317017	92.0
1198.385986	176.0
1199.240479	56.0
1199.343872	256.0
1199.419678	72.0
1199.661011	144.0
1199.778198	160.0
1199.826416	36.0
1200.116089	156.0
1200.371216	144.0
1200.702148	64.0
1201.053955	148.0
1201.233276	140.0
1201.495483	132.0
1201.773071	160.0
1201.917114	152.0
1202.095825	272.0
1202.420166	132.0
1202.509888	212.0
1202.841187	180.0
1203.013794	200.0
1203.338989	188.0
1203.393555	140.0
1203.697388	172.0
1204.058105	132.0
1204.346558	148.0
1204.553833	120.0
1204.615112	156.0
1204.690063	192.0
1204.843872	200.0
1205.033569	100.0
1205.123657	152.0
1205.230835	212.0
1205.334473	356.0
1205.599487	92.0
1205.825195	148.0
1205.963379	64.0
1206.274536	184.0
1206.371216	88.0
1206.426514	236.0
1206.737671	164.0
1206.792969	140.0
1206.862793	124.0
1206.91748	200.0
1207.17334	144.0
1207.235596	156.0
1207.331421	152.0
1207.463745	244.0
1207.574463	148.0
1207.664429	144.0
1207.712769	120.0
1207.860474	172.0
1208.159912	176.0
1208.234497	204.0
1208.386841	272.0
1208.39917	188.0
1208.82666	76.0
1208.919189	212.0
1209.006592	152.0
1209.11731	68.0
1209.179688	136.0
1210.05188	124.0
1210.224976	156.0
1210.384277	140.0
1210.530151	208.0
1210.688965	200.0
1210.758179	192.0
1211.146118	124.0
1211.284668	124.0
1211.988892	256.0
1212.060547	136.0
1212.254639	180.0
1212.538818	68.0
1212.718994	144.0
1212.795288	104.0
1212.933838	136.0
1212.982422	128.0
1213.051758	112.0
1213.12793	140.0
1213.294312	128.0
1213.349854	172.0
1213.631104	204.0
1213.828247	140.0
1213.904541	240.0
1214.057739	188.0
1214.390015	96.0
1214.577271	108.0
1214.674438	96.0
1214.736816	128.0
1214.917236	180.0
1215.028198	100.0
1215.076782	168.0
1215.611084	136.0
1215.729126	96.0
1215.812378	164.0
1215.999756	176.0
1216.07605	64.0
1216.244385	192.0
1216.2948	204.0
1216.423218	96.0
1216.541138	128.0
1216.624512	144.0
1216.90918	80.0
1217.15918	196.0
1217.22168	44.0
1217.367432	136.0
1217.457764	188.0
1217.617432	156.0
1217.867554	132.0
1218.082886	156.0
1218.270386	140.0
1218.58313	216.0
1219.261597	176.0
1219.35144	148.0
1219.437866	120.0
1219.48645	208.0
1219.695068	244.0
1219.799316	148.0
1219.98999	112.0
1220.272095	128.0
1220.341553	156.0
1220.656982	280.0
1220.981323	148.0
1221.113525	100.0
1221.40564	148.0
1221.487549	140.0
1221.503662	204.0
1221.677002	80.0
1222.101318	208.0
1222.337891	196.0
1222.477173	104.0
1222.699829	164.0
1223.103516	160.0
1223.180054	164.0
1223.472534	96.0
1223.660522	140.0
1223.716187	132.0
1223.813599	136.0
1223.890259	136.0
1223.973755	100.0
1224.301147	200.0
1224.370728	136.0
1224.489136	108.0
1224.874146	180.0
1225.123047	128.0
1225.203125	172.0
1225.562012	204.0
1225.743164	136.0
1225.812866	192.0
1226.282471	164.0
1226.349487	176.0
1226.426147	72.0
1226.546997	96.0
1226.600464	376.0
1227.40918	144.0
1227.702148	152.0
1228.162476	120.0
1228.232178	92.0
1228.322876	172.0
1228.42749	88.0
1228.573975	152.0
1228.671631	120.0
1228.860107	236.0
1228.943481	188.0
1229.118286	52.0
1229.404297	160.0
1229.606689	140.0
1230.144165	196.0
1230.221069	180.0
1230.465332	160.0
1230.849365	140.0
1231.093872	168.0
1231.219482	124.0
1231.387207	144.0
1231.442993	60.0
1231.638672	104.0
1231.841187	192.0
1231.966919	104.0
1232.075073	136.0
1232.267334	104.0
1232.487549	208.0
1232.553833	180.0
1232.623779	164.0
1232.721558	136.0
1233.036011	116.0
1233.441406	160.0
1233.895874	116.0
1234.063721	164.0
1234.140625	192.0
1234.268677	160.0
1234.692993	164.0
1234.860962	224.0
1235.43457	172.0
1235.721313	188.0
1235.84375	172.0
1236.057251	136.0
1236.127197	152.0
1236.2052	200.0
1236.37915	152.0
1236.437378	184.0
1236.533081	132.0
1236.631104	184.0
1236.792114	52.0
1236.900269	232.0
1237.09314	112.0
1237.233887	160.0
1237.443115	168.0
1237.59021	172.0
1237.639282	192.0
1237.793335	104.0
1237.891357	120.0
1238.052368	132.0
1238.185425	232.0
1238.541504	200.0
1238.822876	148.0
1238.878906	192.0
1239.117188	84.0
1239.446899	200.0
1239.565552	108.0
1239.621704	108.0
1239.831909	236.0
1240.042114	88.0
1240.213013	188.0
1240.394165	148.0
1240.44873	144.0
1240.546875	220.0
1240.641235	120.0
1240.844971	152.0
1240.992554	140.0
1241.170898	160.0
1241.360229	180.0
1241.465454	144.0
1241.556519	144.0
1241.612671	124.0
1241.725586	132.0
1241.781006	172.0
1242.426392	148.0
1242.559692	168.0
1242.973633	136.0
1243.135498	68.0
1243.298218	212.0
1243.373657	136.0
1243.605347	172.0
1243.661499	40.0
1243.745728	180.0
1243.98584	184.0
1244.110718	132.0
1244.216064	156.0
1244.272217	184.0
1244.489868	236.0
1244.616211	172.0
1244.778809	188.0
1244.918213	136.0
1245.030518	168.0
1245.10083	176.0
1245.578491	164.0
1245.718994	152.0
1245.817261	144.0
1246.063232	208.0
1246.344238	180.0
1246.435547	132.0
1246.719116	200.0
1247.068115	40.0
1247.539062	200.0
1247.588257	132.0
1247.672607	148.0
1247.925781	148.0
1248.017212	128.0
1248.150757	176.0
1248.571167	104.0
1248.685303	136.0
1248.980713	100.0
1249.248047	140.0
1249.297241	184.0
1249.345215	172.0
1249.402832	180.0
1249.536499	200.0
1249.803833	128.0
1250.161865	196.0
1250.226074	168.0
1250.289429	228.0
1250.401978	148.0
1250.578003	108.0
1250.72583	152.0
1250.810303	180.0
1250.869507	240.0
1250.962524	120.0
1251.098877	196.0
1251.425415	104.0
1251.739624	144.0
1251.810059	104.0
1251.915649	352.0
1252.619995	220.0
1252.669312	160.0
1252.753906	132.0
1252.887695	132.0
1252.951172	164.0
1253.190674	120.0
1253.25415	220.0
1253.500732	136.0
1253.553223	188.0
1253.705078	48.0
1253.876099	204.0
1254.052124	160.0
1254.120972	120.0
1254.663818	92.0
1254.981079	120.0
1255.326538	192.0
1255.439453	152.0
1256.264648	140.0
1256.8573	156.0
1257.062012	204.0
1257.435425	144.0
1257.619507	168.0
1257.668945	120.0
1257.810181	52.0
1257.972534	100.0
1258.036011	136.0
1258.149048	112.0
1258.763306	96.0
1258.96106	188.0
1259.073975	128.0
1259.172852	88.0
1259.611938	152.0
1259.69104	244.0
1259.836914	280.0
1259.957031	156.0
1260.059204	180.0
1260.317383	140.0
1260.4021	212.0
1260.543457	116.0
1260.741333	96.0
1260.896851	104.0
1261.140015	188.0
1261.427002	112.0
1261.518921	132.0
1261.5896	96.0
1261.727051	124.0
1261.907715	136.0
1262.190552	124.0
1262.332031	196.0
1262.39563	172.0
1262.890747	208.0
1263.131226	188.0
1263.258545	124.0
1263.499146	136.0
1263.753784	160.0
1263.860352	132.0
1264.06189	196.0
1264.227905	176.0
1264.772949	180.0
1264.900269	132.0
1265.207886	244.0
1265.310913	164.0
1265.473755	132.0
1265.547363	240.0
1265.647949	188.0
1265.714478	112.0
1265.76416	188.0
1265.997803	196.0
1266.118164	104.0
1266.316528	132.0
1266.45105	172.0
1266.607056	224.0
1266.741455	184.0
1266.792725	168.0
1266.840698	84.0
1267.230347	156.0
1267.465942	176.0
1267.620117	96.0
1267.839844	96.0
1268.41394	76.0
1268.583984	92.0
1269.158325	168.0
1269.298462	184.0
1269.477417	248.0
1269.768188	156.0
1269.839111	156.0
1269.993652	204.0
1270.015991	124.0
1270.040405	196.0
1270.286011	48.0
1270.335693	108.0
1270.548462	128.0
1270.605225	68.0
1270.794067	160.0
1270.923584	196.0
1271.314819	160.0
1271.388672	132.0
1271.565674	196.0
1272.173706	188.0
1272.258911	124.0
1272.324829	216.0
1272.379639	136.0
1272.450562	132.0
1272.635254	76.0
1272.748779	216.0
1272.905029	204.0
1272.968994	156.0
1273.054199	104.0
1273.103882	128.0
1273.365356	224.0
1273.792847	200.0
1274.005981	128.0
1274.084106	172.0
1274.503296	176.0
1274.942505	232.0
1275.206909	172.0
1275.413086	112.0
1275.548096	80.0
1276.010376	128.0
1276.105225	144.0
1276.32312	192.0
1276.415527	96.0
1276.522217	164.0
1276.718994	144.0
1276.963135	128.0
1277.012939	68.0
1277.406616	144.0
1277.546387	148.0
1277.603271	112.0
1277.695801	180.0
1278.058716	156.0
1278.193848	40.0
1278.279297	176.0
1278.556885	168.0
1278.663574	180.0
1279.040894	132.0
1279.171509	168.0
1279.282837	140.0
1279.361206	128.0
1279.688721	128.0
1279.973511	164.0
1280.037598	200.0
1280.315308	124.0
1280.472046	44.0
1280.60022	172.0
1280.963501	160.0
1281.440918	112.0
1281.547729	144.0
1281.938721	160.0
1282.075073	180.0
1282.153442	116.0
1282.210449	120.0
1282.267456	120.0
1282.338745	28.0
1282.459961	144.0
1282.588257	176.0
1282.659546	128.0
1282.873413	172.0
1282.954712	180.0
1283.172852	120.0
1283.237061	148.0
1283.385742	120.0
1283.486572	180.0
1283.536499	152.0
1283.600708	140.0
1283.668091	192.0
1284.007202	168.0
1284.156982	216.0
1284.349487	136.0
1285.14856	204.0
1285.291992	152.0
1285.399902	208.0
1285.462524	208.0
1285.655273	132.0
1285.833618	116.0
1286.154907	156.0
1286.437622	440.0
1286.52124	112.0
1286.983032	204.0
1287.075806	108.0
1287.125854	140.0
1287.325806	140.0
1287.625732	156.0
1287.685547	144.0
1287.818604	120.0
1287.890015	68.0
1287.954346	124.0
1288.420288	140.0
1288.632935	112.0
1288.818726	108.0
1288.925903	128.0
1289.026001	200.0
1289.218994	148.0
1289.426147	212.0
1289.654907	196.0
1289.755005	152.0
1289.905151	352.0
1290.07666	152.0
1290.249512	176.0
1290.318604	192.0
1290.398438	120.0
1290.713013	124.0
1290.777344	208.0
1291.006226	172.0
1291.295654	200.0
1291.500122	136.0
1291.707153	124.0
1291.785889	136.0
1292.043457	104.0
1292.164062	156.0
1292.183716	136.0
1292.203857	240.0
1292.272339	136.0
1292.379639	200.0
1292.43689	104.0
1292.508545	140.0
1292.737427	180.0
1293.038086	100.0
1293.431763	216.0
1293.5177	84.0
1293.71228	220.0
1293.87561	40.0
1293.961792	120.0
1294.11145	180.0
1294.427002	196.0
1294.684814	160.0
1294.829346	108.0
1294.956909	160.0
1295.135986	160.0
1295.737793	140.0
1295.838013	180.0
1296.037109	196.0
1296.447144	176.0
1296.542603	196.0
1296.686646	212.0
1296.827026	152.0
1297.02771	136.0
1297.379028	144.0
1297.44397	188.0
1297.766113	304.0
1297.852295	212.0
1298.014526	220.0
1298.074463	228.0
1298.210693	152.0
1298.366455	164.0
1298.461792	148.0
1298.641113	120.0
1298.748657	176.0
1298.863403	128.0
1298.985352	160.0
1299.064331	92.0
1299.248535	172.0
1299.466064	180.0
1299.57373	180.0
1299.916138	88.0
1299.979248	188.0
1300.233887	124.0
1300.320068	136.0
1300.5354	168.0
1300.779419	348.0
1300.941406	128.0
1301.016357	140.0
1301.110962	156.0
1301.230835	196.0
1301.389648	128.0
1301.508301	132.0
1301.626587	164.0
1301.734375	220.0
1302.071899	248.0
1302.189453	172.0
1302.617798	44.0
1302.732788	144.0
1302.905151	268.0
1303.276001	184.0
1303.578369	128.0
1304.002075	228.0
1304.148438	144.0
1304.325806	160.0
1304.594116	136.0
1304.781006	164.0
1304.888794	192.0
1305.032593	192.0
1305.176392	164.0
1305.269897	104.0
1305.598022	84.0
1305.881226	164.0
1305.987427	180.0
1306.075439	196.0
1306.250977	160.0
1306.68689	116.0
1307.197876	56.0
1307.305786	92.0
1307.420898	356.0
1307.550415	128.0
1307.629639	184.0
1307.748779	160.0
1307.843262	232.0
1308.039917	180.0
1308.195312	136.0
1308.386475	180.0
1308.486084	140.0
1308.853516	76.0
1309.163208	164.0
1309.321655	228.0
1309.480713	180.0
1310.077881	168.0
1310.178833	128.0
1310.380493	140.0
1310.444092	184.0
1310.712036	100.0
1310.834473	176.0
1310.949951	208.0
1311.187622	108.0
1311.360596	76.0
1311.518066	184.0
1311.66333	120.0
1311.735474	196.0
1311.858032	176.0
1311.922852	76.0
1312.153564	204.0
1312.23291	132.0
1312.362671	108.0
1312.506836	124.0
1312.643921	104.0
1312.861328	168.0
1312.928101	140.0
1313.011719	112.0
1313.091064	124.0
1313.17041	168.0
1313.278564	228.0
1313.393921	148.0
1313.502197	216.0
1313.610352	228.0
1313.855713	172.0
1314.020874	108.0
1314.259766	168.0
1314.404053	92.0
1314.505127	128.0
1314.57666	196.0
1314.75769	132.0
1314.903076	184.0
1315.03186	164.0
1315.11792	156.0
1315.209961	176.0
1315.703857	316.0
1315.833252	156.0
1315.943115	164.0
1316.187012	108.0
1316.349976	336.0
1316.417969	200.0
1316.627563	164.0
1316.738281	192.0
1317.017578	180.0
1317.187134	308.0
1317.342651	108.0
1317.545044	264.0
1317.717163	144.0
1317.963989	176.0
1318.059937	172.0
1318.375122	148.0
1318.490723	148.0
1318.621582	136.0
1318.679443	272.0
1318.946899	124.0
1319.096313	172.0
1319.199951	208.0
1319.346558	208.0
1319.828979	168.0
1320.045898	192.0
1320.259888	124.0
1320.443604	100.0
1320.508545	120.0
1320.675049	176.0
1320.837524	164.0
1320.92041	140.0
1321.101929	116.0
1321.181519	180.0
1321.277466	148.0
1321.480591	160.0
1321.630005	204.0
1321.74585	192.0
1321.912231	40.0
1321.991943	148.0
1322.187256	216.0
1322.259644	144.0
1322.447876	164.0
1322.61438	172.0
1322.788086	160.0
1322.976318	184.0
1323.048706	160.0
1323.099365	236.0
1323.287598	156.0
1323.39624	132.0
1323.455566	168.0
1323.649658	292.0
1323.707642	156.0
1323.772705	176.0
1324.12561	220.0
1324.2146	116.0
1324.667114	144.0
1324.769531	220.0
1324.873779	112.0
1324.97522	168.0
1325.040405	172.0
1325.112793	188.0
1325.221558	160.0
1325.431641	176.0
1325.525879	136.0
1326.547852	184.0
1326.692871	136.0
1326.916504	144.0
1326.969482	148.0
1327.026367	92.0
1327.11499	104.0
1327.330811	120.0
1327.475952	76.0
1327.671753	144.0
1327.814209	220.0
1327.935547	208.0
1328.085083	168.0
1328.182617	316.0
1328.273682	220.0
1328.479004	216.0
1328.62854	168.0
1328.729858	152.0
1328.883179	72.0
1328.977417	96.0
1329.190918	240.0
1329.272095	132.0
1329.362061	216.0
1329.478149	176.0
1329.596069	132.0
1329.674194	140.0
1329.768555	72.0
1329.89917	120.0
1329.974121	144.0
1330.138672	116.0
1330.194458	216.0
1330.392822	140.0
1330.537964	112.0
1330.821167	144.0
1330.988159	164.0
1331.099121	112.0
1331.234497	320.0
1331.532104	200.0
1331.670776	112.0
1331.850708	124.0
1331.925049	152.0
1332.251953	112.0
1332.375488	104.0
1332.535278	124.0
1332.687866	180.0
1333.203857	112.0
1333.392822	180.0
1333.606812	184.0
1333.705322	128.0
1333.830322	192.0
1334.025146	52.0
1334.0979	136.0
1334.24353	100.0
1334.364746	140.0
1334.41626	208.0
1334.505005	156.0
1334.584961	176.0
1334.890381	168.0
1334.992188	124.0
1335.14502	116.0
1335.199341	216.0
1335.435913	120.0
1335.58728	172.0
1335.675903	116.0
1335.788452	132.0
1335.863281	168.0
1335.959595	112.0
1336.074341	168.0
1336.268677	176.0
1336.333862	284.0
1336.658203	188.0
1336.876465	216.0
1336.956543	112.0
1337.031738	248.0
1337.349487	196.0
1337.43689	144.0
1337.66333	184.0
1337.724487	144.0
1338.099365	208.0
1338.172119	236.0
1338.252319	140.0
1338.332397	52.0
1338.383301	188.0
1338.478027	128.0
1338.654541	148.0
1338.783203	144.0
1339.205933	144.0
1339.410278	80.0
1339.548706	268.0
1339.665039	164.0
1339.810913	160.0
1340.022217	108.0
1340.080444	160.0
1340.13147	152.0
1340.313721	156.0
1340.896729	128.0
1340.96228	136.0
1341.404907	212.0
1341.46521	132.0
1341.909912	100.0
1341.968262	128.0
1342.077148	100.0
1342.311035	136.0
1342.515259	160.0
1342.734009	68.0
1343.113281	116.0
1343.18811	192.0
1343.339478	128.0
1343.405029	248.0
1343.675049	76.0
1343.831665	176.0
1343.897583	236.0
1343.959595	256.0
1344.156616	132.0
1344.390137	88.0
1344.470459	212.0
1344.535522	140.0
1344.755005	116.0
1345.229492	172.0
1345.643555	164.0
1345.901245	144.0
1346.169922	184.0
1346.237183	120.0
1346.310181	104.0
1346.485474	116.0
1346.653442	264.0
1346.806885	228.0
1346.956909	112.0
1347.004028	148.0
1347.109985	160.0
1347.28894	88.0
1347.534058	156.0
1347.639648	200.0
1347.815063	164.0
1347.939331	108.0
1348.110229	208.0
1348.238892	128.0
1348.60437	244.0
1348.757812	304.0
1348.87561	160.0
1348.94043	196.0
1349.064941	48.0
1349.247681	196.0
1349.348389	220.0
1349.481567	156.0
1349.583984	164.0
1349.7229	52.0
1350.037354	204.0
1350.154419	212.0
1350.344604	76.0
1350.417725	164.0
1350.483154	140.0
1350.60791	160.0
1350.666382	144.0
1350.757568	180.0
1350.820068	184.0
1350.988281	124.0
1351.090698	128.0
1351.310181	156.0
1351.424438	216.0
1351.617554	132.0
1351.676025	188.0
1352.012695	240.0
1352.071289	88.0
1352.122437	152.0
1352.239624	152.0
1352.30542	168.0
1352.495728	184.0
1352.664062	184.0
1352.861816	128.0
1352.934692	204.0
1353.125366	32.0
1353.30835	172.0
1353.498779	156.0
1353.623291	96.0
1353.85791	120.0
1354.012817	152.0
1354.285156	136.0
1354.443604	132.0
1354.502197	116.0
1354.741089	204.0
1354.834351	176.0
1354.897705	112.0
1355.051636	176.0
1355.381348	128.0
1355.667114	152.0
1355.879639	196.0
1355.954224	168.0
1356.216797	72.0
1356.664551	156.0
1356.782959	172.0
1357.059937	80.0
1357.25061	172.0
1357.415161	196.0
1357.543945	48.0
1357.719727	148.0
1358.035278	152.0
1358.314087	156.0
1358.438721	140.0
1358.651489	128.0
1358.794922	140.0
1358.953003	120.0
1359.157715	52.0
1359.379517	168.0
1359.531982	248.0
1359.700806	124.0
1359.862305	132.0
1360.074463	176.0
1360.163208	132.0
1360.515625	176.0
1360.677124	188.0
1360.797363	200.0
1360.904785	96.0
1361.220459	164.0
1361.418823	172.0
1361.496338	156.0
1361.580322	172.0
1361.793335	168.0
1361.874146	128.0
1362.344238	116.0
1362.461792	136.0
1362.79248	84.0
1362.980591	188.0
1363.09375	204.0
1363.200562	144.0
1363.299561	148.0
1363.355713	176.0
1363.505249	124.0
1363.556763	212.0
1363.753784	124.0
1363.827515	236.0
1364.071289	88.0
1364.188843	152.0
1364.335938	104.0
1364.416748	212.0
1364.571167	152.0
1364.674194	152.0
1364.828613	172.0
1364.898315	208.0
1365.194336	156.0
1365.221313	116.0
1365.250854	204.0
1365.306519	344.0
1365.431641	172.0
1365.740479	204.0
1365.793091	236.0
1366.012695	148.0
1366.115723	208.0
1366.365845	232.0
1366.586548	116.0
1366.769409	160.0
1366.822021	228.0
1367.028076	168.0
1367.189941	36.0
1367.315063	160.0
1367.459961	88.0
1367.50415	196.0
1367.594727	164.0
1367.731689	256.0
1367.984375	192.0
1368.000977	168.0
1368.392822	136.0
1368.573853	116.0
1368.647583	48.0
1368.85376	100.0
1368.956787	96.0
1369.008423	172.0
1369.067261	124.0
1369.347168	168.0
1369.546021	152.0
1369.66394	204.0
1369.913818	180.0
1370.157471	176.0
1370.210449	176.0
1370.348999	180.0
1370.474365	180.0
1370.540649	64.0
1370.610718	288.0
1370.760376	132.0
1370.864868	200.0
1370.945923	140.0
1371.376953	144.0
1371.682983	180.0
1371.771484	192.0
1372.014771	156.0
1372.147461	148.0
1372.265381	124.0
1372.390747	172.0
1372.615356	80.0
1372.732544	160.0
1372.796387	136.0
1373.13562	176.0
1373.253662	168.0
1373.511719	184.0
1373.842896	108.0
1373.983887	176.0
1374.596069	184.0
1374.684937	136.0
1374.869385	332.0
1374.950562	156.0
1375.016846	148.0
1375.135132	176.0
1375.282715	212.0
1375.374512	148.0
1375.50293	92.0
1375.61145	180.0
1375.747803	184.0
1375.902832	64.0
1376.196655	216.0
1376.283325	420.0
1376.354736	200.0
1376.449219	148.0
1376.552612	124.0
1376.670776	112.0
1376.973633	212.0
1377.26123	196.0
1377.529419	172.0
1377.667969	184.0
1377.727051	200.0
1377.815674	112.0
1377.911011	156.0
1377.985596	204.0
1378.162964	168.0
1378.296021	180.0
1378.384399	140.0
1378.584106	80.0
1378.668823	96.0
1379.027588	164.0
1379.367676	188.0
1379.456299	132.0
1379.522827	204.0
1379.62793	188.0
1379.707764	156.0
1379.789062	184.0
1379.848145	200.0
1380.121704	104.0
1380.254883	192.0
1380.313965	168.0
1380.498901	144.0
1380.696289	200.0
1380.876099	152.0
1381.208984	152.0
1381.430908	128.0
1381.48999	160.0
1381.556641	88.0
1381.615845	120.0
1381.734131	208.0
1381.920898	228.0
1382.044922	68.0
1382.096802	160.0
1382.274292	152.0
1382.326172	156.0
1382.400146	224.0
1382.48645	116.0
1382.548096	184.0
1382.666626	164.0
1383.073608	160.0
1383.258667	140.0
1383.359009	200.0
1383.443848	120.0
1383.525269	136.0
1383.668701	156.0
1383.843628	52.0
1383.962036	196.0
1384.013916	160.0
1384.116699	160.0
1384.221191	164.0
1384.322144	140.0
1384.413818	244.0
1384.613159	368.0
1384.736938	260.0
1384.813721	176.0
1384.976685	184.0
1385.080444	132.0
1385.139648	232.0
1385.376709	172.0
1385.547119	136.0
1385.834961	136.0
1385.932373	88.0
1386.013916	104.0
1386.199219	228.0
1386.28064	152.0
1386.658691	188.0
1386.769897	120.0
1386.880981	140.0
1387.034424	148.0
1387.088623	112.0
1387.170166	124.0
1387.341553	184.0
1387.6427	136.0
1387.792847	208.0
1388.10437	180.0
1388.267456	120.0
1388.319458	184.0
1388.475098	100.0
1388.623535	144.0
1388.764404	156.0
1388.853394	144.0
1389.016602	40.0
1389.528564	400.0
1389.608521	144.0
1389.765991	120.0
1390.211182	160.0
1390.2854	172.0
1390.411621	60.0
1390.506592	164.0
1390.676392	164.0
1390.91626	192.0
1391.062988	200.0
1391.192383	144.0
1391.250366	228.0
1391.56958	52.0
1391.636475	152.0
1391.73291	164.0
1391.963135	136.0
1392.021851	116.0
1392.2677	124.0
1392.372925	160.0
1392.453369	272.0
1392.749512	160.0
1393.260986	164.0
1393.388794	176.0
1393.418091	164.0
1393.797974	148.0
1393.872314	148.0
1393.929321	212.0
1394.095215	152.0
1394.370239	156.0
1394.491821	100.0
1394.615479	116.0
1394.697266	112.0
1394.849487	156.0
1394.920288	116.0
1395.120972	140.0
1395.226562	232.0
1395.306885	44.0
1395.559692	136.0
1395.693481	132.0
1395.745605	124.0
1395.94519	136.0
1396.050415	164.0
1396.206665	164.0
1396.3479	200.0
1396.50415	76.0
1396.563599	388.0
1396.615723	156.0
1396.764526	164.0
1397.300171	104.0
1397.381958	144.0
1397.475342	192.0
1397.627441	136.0
1397.709351	132.0
1397.768921	188.0
1398.085938	152.0
1398.274902	172.0
1398.416382	164.0
1398.513184	172.0
1398.721558	132.0
1398.928467	180.0
1399.181396	192.0
1399.325317	40.0
1399.344971	156.0
1399.466187	224.0
1399.671021	144.0
1400.277832	172.0
1400.486328	92.0
1400.605347	156.0
1400.619019	152.0
1400.699707	136.0
1400.873657	168.0
1401.045044	132.0
1401.168457	168.0
1401.485962	236.0
1401.83374	204.0
1402.080811	148.0
1402.170288	148.0
1402.26709	220.0
1402.386353	108.0
1402.6521	268.0
1402.863403	332.0
1403.146729	200.0
1403.348022	120.0
1403.504639	148.0
1403.581299	192.0
1403.676147	176.0
1403.73877	164.0
1403.959595	204.0
1404.026733	148.0
1404.092285	192.0
1404.342529	224.0
1404.608887	144.0
1404.690552	184.0
1404.95166	108.0
1405.033691	136.0
1405.166748	172.0
1405.267456	136.0
1405.384399	184.0
1405.436646	116.0
1405.563477	116.0
1405.733521	148.0
1406.190308	104.0
1406.347046	216.0
1406.436646	124.0
1406.518799	180.0
1406.589722	96.0
1406.824829	148.0
1406.921875	120.0
1407.041382	132.0
1407.183228	180.0
1407.347534	180.0
1407.506104	180.0
1407.817993	152.0
1407.944946	144.0
1408.040039	136.0
1408.154663	88.0
1408.210327	212.0
1408.452759	204.0
1408.54248	68.0
1408.736694	124.0
1409.282349	196.0
1409.361084	136.0
1409.498779	76.0
1409.625854	188.0
1409.715454	108.0
1409.922241	164.0
1409.972168	188.0
1410.35083	128.0
1410.765625	160.0
1411.075928	84.0
1411.158203	140.0
1411.390015	212.0
1411.539551	144.0
1411.614258	184.0
1411.756348	136.0
1411.898438	236.0
1411.995728	196.0
1412.122925	148.0
1412.302368	176.0
1412.377197	172.0
1412.493408	96.0
1412.661499	168.0
1412.761597	336.0
1412.998169	136.0
1413.207642	304.0
1413.347168	152.0
1413.514404	96.0
1413.574219	128.0
1413.64917	132.0
1413.918579	132.0
1414.443237	152.0
1414.515259	200.0
1414.697021	124.0
1414.835815	264.0
1414.960327	360.0
1415.138794	216.0
1415.296021	136.0
1415.625488	136.0
1415.957642	172.0
1416.104858	164.0
1416.198975	184.0
1416.227295	104.0
1416.260498	116.0
1416.280518	196.0
1416.434326	260.0
1416.509277	172.0
1416.644165	132.0
1416.842163	160.0
1416.906372	188.0
1417.123657	156.0
1417.351929	160.0
1417.498291	176.0
1417.573242	132.0
1417.651123	196.0
1417.730591	176.0
1417.926147	140.0
1418.007935	156.0
1418.607544	188.0
1418.914917	136.0
1418.997437	172.0
1419.184937	128.0
1419.342407	140.0
1419.477295	140.0
1419.717285	152.0
1419.811279	160.0
1419.964844	168.0
1420.062378	172.0
1420.152832	168.0
1420.314087	152.0
1420.444824	180.0
1420.653076	192.0
1420.737427	44.0
1421.035522	192.0
1421.142578	108.0
1421.238403	156.0
1421.480225	84.0
1421.600342	260.0
1421.652832	172.0
1421.712891	140.0
1421.945557	144.0
1422.027222	140.0
1422.250244	332.0
1422.403442	176.0
1422.560181	160.0
1422.701782	196.0
1422.906494	132.0
1422.981567	172.0
1423.064087	340.0
1423.131714	196.0
1423.214355	92.0
1423.326904	32.0
1423.442139	188.0
1423.616577	120.0
1423.717407	180.0
1423.860107	184.0
1424.05542	140.0
1424.220703	100.0
1424.273193	156.0
1424.754028	108.0
1424.842163	180.0
1425.016968	160.0
1425.137207	268.0
1425.287476	60.0
1425.400269	176.0
1425.497925	100.0
1425.550537	176.0
1425.776001	192.0
1425.843628	380.0
1425.89624	176.0
1426.121704	144.0
1426.211914	52.0
1426.585938	176.0
1426.685547	116.0
1426.828125	148.0
1426.88855	204.0
1426.955933	164.0
1427.15918	216.0
1427.244385	144.0
1427.467529	120.0
1427.520142	116.0
1427.61792	152.0
1427.903687	144.0
1428.091675	308.0
1428.302368	116.0
1428.456909	132.0
1428.806396	168.0
1429.1073	164.0
1429.160034	140.0
1429.363159	152.0
1429.55127	60.0
1429.673584	148.0
1429.878174	140.0
1430.025513	132.0
1430.145874	148.0
1430.218262	216.0
1430.273804	128.0
1430.341553	168.0
1430.469604	140.0
1430.529785	164.0
1430.667236	128.0
1430.92749	196.0
1431.079468	180.0
1431.22998	184.0
1431.312866	116.0
1431.410767	84.0
1431.463501	184.0
1431.656006	172.0
1431.93689	148.0
1432.062988	100.0
1432.196045	332.0
1432.314575	120.0
1432.549683	168.0
1432.796631	116.0
1433.008179	164.0
1433.241211	268.0
1433.349609	208.0
1433.535156	60.0
1433.587891	168.0
1433.776245	152.0
1433.911987	108.0
1434.138062	92.0
1434.454712	128.0
1434.515015	132.0
1434.680786	116.0
1434.831543	240.0
1435.042725	92.0
1435.118164	136.0
1435.186035	156.0
1435.306641	100.0
1435.449951	156.0
1435.834473	76.0
1435.947632	176.0
1436.045654	120.0
1436.128662	76.0
1436.309692	176.0
1436.47168	60.0
1436.561279	196.0
1436.709595	120.0
1436.86792	188.0
1436.973633	184.0
1437.147095	136.0
1437.252808	96.0
1437.358398	152.0
1437.501831	148.0
1437.570923	208.0
1437.788574	172.0
1437.894287	136.0
1438.144165	140.0
1438.203735	124.0
1438.377319	72.0
1438.56604	156.0
1438.68689	144.0
1438.739746	176.0
1438.836792	152.0
1438.918945	172.0
1439.043213	136.0
1439.207764	212.0
1439.373901	180.0
1439.728882	60.0
1439.837524	224.0
1439.935791	244.0
1440.045288	172.0
1440.21228	88.0
1440.298828	184.0
1440.423828	176.0
1440.514404	152.0
1440.688232	228.0
1440.756226	156.0
1440.97522	184.0
1441.031738	140.0
1441.133911	184.0
1441.254883	128.0
1441.337036	160.0
1441.421143	68.0
1441.532715	200.0
1441.700684	84.0
1441.829712	120.0
1441.99646	224.0
1442.193359	192.0
1442.244873	336.0
1442.320435	136.0
1442.476562	124.0
1442.547241	164.0
1442.675781	136.0
1442.766479	232.0
1442.824829	152.0
1442.944092	172.0
1443.013306	160.0
1443.091675	140.0
1443.167236	72.0
1443.375	120.0
1443.552856	184.0
1443.651245	196.0
1443.787354	96.0
1443.893188	172.0
1444.052002	172.0
1444.354614	76.0
1444.649902	124.0
1445.398682	48.0
1445.693848	132.0
1445.784668	140.0
1446.011719	64.0
1446.099976	144.0
1446.248901	128.0
1446.383179	144.0
1446.446045	196.0
1446.559204	232.0
1446.79895	104.0
1446.882202	56.0
1446.957886	84.0
1447.207764	92.0
1447.480347	144.0
1447.624268	332.0
1448.13501	140.0
1448.313477	204.0
1448.370972	324.0
1448.510498	140.0
1448.729248	172.0
1448.866577	224.0
1449.033203	140.0
1449.275635	164.0
1449.402954	176.0
1449.480225	112.0
1449.692505	132.0
1449.912231	136.0
1450.253296	228.0
1450.366943	232.0
1450.785889	192.0
1450.86731	276.0
1451.011353	204.0
1451.07959	124.0
1451.686279	120.0
1451.864258	148.0
1451.989624	288.0
1452.235718	236.0
1452.312622	136.0
1452.457153	176.0
1452.633423	164.0
1452.679932	196.0
1452.748169	180.0
1452.953003	124.0
1453.059204	168.0
1453.434326	216.0
1453.688965	148.0
1453.878784	192.0
1454.104004	176.0
1454.589722	152.0
1454.766846	136.0
1454.819946	120.0
1454.915894	208.0
1455.009766	56.0
1455.123657	236.0
1455.237549	112.0
1455.303833	192.0
1455.366577	116.0
1455.4198	164.0
1455.746338	320.0
1455.948242	176.0
1456.07251	164.0
1456.315918	124.0
1456.391846	164.0
1456.760254	168.0
1457.067993	256.0
1457.311157	152.0
1457.409912	124.0
1457.463135	88.0
1457.56189	132.0
1457.69873	128.0
1457.865845	160.0
1457.985352	140.0
1458.261108	176.0
1458.405518	112.0
1458.610718	160.0
1458.798706	108.0
1459.112427	184.0
1459.302612	172.0
1459.38623	168.0
1459.464722	180.0
1459.53418	200.0
1459.708862	176.0
1459.758789	184.0
1459.827271	188.0
1460.181519	184.0
1460.535767	200.0
1460.724731	156.0
1461.089966	152.0
1461.173584	164.0
1461.25647	136.0
1461.36853	140.0
1461.4552	52.0
1461.596436	228.0
1461.69104	164.0
1461.805176	160.0
1462.120483	112.0
1462.307495	232.0
1462.634766	144.0
1462.754028	164.0
1462.781494	212.0
1462.802979	184.0
1462.969727	180.0
1463.441772	160.0
1463.495117	164.0
1463.7146	144.0
1464.066162	128.0
1464.127197	44.0
1464.251709	180.0
1464.412231	144.0
1464.530884	140.0
1464.607056	216.0
1464.724731	184.0
1464.888794	192.0
1464.965088	112.0
1465.182007	244.0
1465.340576	160.0
1465.452637	128.0
1465.589844	80.0
1465.654663	164.0
1465.756836	200.0
1466.115601	60.0
1466.260376	120.0
1466.390015	124.0
1466.519531	172.0
1466.923584	208.0
1467.091309	184.0
1467.182739	136.0
1467.277466	212.0
1467.354858	236.0
1467.419067	128.0
1467.525879	168.0
1467.647827	116.0
1467.754639	88.0
1467.84668	124.0
1467.945557	192.0
1468.0448	164.0
1468.220459	140.0
1468.296143	192.0
1468.410522	84.0
1468.500977	144.0
1468.778809	168.0
1468.959717	160.0
1469.474365	148.0
1469.606934	164.0
1469.626831	292.0
1469.722656	172.0
1469.821899	152.0
1469.875244	212.0
1470.150024	144.0
1470.256836	136.0
1470.317871	172.0
1470.424805	116.0
1470.48584	176.0
1470.563965	212.0
1470.638428	140.0
1470.691895	180.0
1470.740234	112.0
1470.890381	184.0
1471.003296	136.0
1471.059937	136.0
1471.18811	200.0
1471.361084	168.0
1471.562256	180.0
1471.623291	212.0
1471.867065	160.0
1472.081421	160.0
1472.249512	204.0
1472.562622	140.0
1472.75	224.0
1472.852905	116.0
1472.944458	236.0
1473.158447	136.0
1473.234863	216.0
1473.331665	160.0
1473.418213	132.0
1473.539307	212.0
1473.593872	232.0
1473.739014	200.0
1473.835815	188.0
1473.899536	180.0
1474.078369	128.0
1474.10022	216.0
1474.183594	140.0
1474.312256	352.0
1474.457397	96.0
1475.000122	140.0
1475.214111	164.0
1475.328857	128.0
1475.48938	156.0
1475.550537	132.0
1475.665283	164.0
1475.768066	184.0
1476.028564	176.0
1476.100952	208.0
1476.200439	140.0
1476.303589	108.0
1476.429932	120.0
1476.666992	192.0
1476.796997	52.0
1476.888794	260.0
1477.141235	180.0
1477.225464	180.0
1477.416626	132.0
1477.473877	188.0
1477.768677	136.0
1477.890991	188.0
1478.120605	172.0
1478.418213	136.0
1478.510864	108.0
1478.579834	84.0
1478.755859	216.0
1479.077271	60.0
1479.360596	212.0
1479.479736	204.0
1479.58252	192.0
1479.651489	144.0
1479.735718	176.0
1479.934814	168.0
1480.14917	136.0
1480.30603	176.0
1480.363647	212.0
1480.532104	220.0
1480.624023	56.0
1480.703857	136.0
1480.826904	104.0
1481.05127	92.0
1481.12085	152.0
1481.229248	204.0
1481.313354	160.0
1481.388306	144.0
1481.489502	140.0
1481.829712	148.0
1481.93396	176.0
1482.010498	128.0
1482.071899	220.0
1482.350342	152.0
1482.447388	72.0
1482.771362	176.0
1482.960815	92.0
1483.091187	88.0
1483.213745	200.0
1483.558716	124.0
1483.727417	148.0
1483.834717	140.0
1483.949829	52.0
1484.080078	140.0
1484.563232	152.0
1484.655273	144.0
1484.731934	132.0
1484.808594	152.0
1485.069458	180.0
1485.337891	128.0
1485.483643	204.0
1485.706177	172.0
1485.828857	100.0
1485.928589	184.0
1486.043701	176.0
1486.212524	136.0
1486.296875	156.0
1486.419678	224.0
1486.569336	164.0
1486.680664	148.0
1486.811157	188.0
1486.985229	188.0
1487.156494	100.0
1487.248657	52.0
1487.411377	228.0
1487.62085	200.0
1487.741943	224.0
1487.832031	180.0
1488.054688	124.0
1488.13147	132.0
1488.269653	172.0
1488.39502	160.0
1488.840332	208.0
1488.953125	100.0
1489.035278	160.0
1489.268066	84.0
1489.32666	200.0
1489.444702	76.0
1489.612793	64.0
1489.677124	188.0
1489.733032	132.0
1489.849487	168.0
1490.082153	128.0
1490.136353	128.0
1490.344849	168.0
1490.428101	208.0
1490.581787	128.0
1490.758545	116.0
1490.866211	180.0
1490.935303	228.0
1491.073608	408.0
1491.135498	188.0
1491.404175	184.0
1491.511841	204.0
1491.596313	104.0
1491.703979	164.0
1491.762329	116.0
1491.903809	188.0
1491.975586	192.0
1492.088379	144.0
1492.142212	128.0
1492.264282	160.0
1492.557373	160.0
1492.711182	312.0
1492.795776	100.0
1492.888062	440.0
1493.046875	208.0
1493.177246	180.0
1493.385132	280.0
1493.449585	184.0
1493.611084	180.0
1493.764526	172.0
1493.793091	164.0
1494.057251	184.0
1494.257324	116.0
1494.380371	228.0
1494.434204	104.0
1494.488159	136.0
1494.588135	132.0
1494.657227	164.0
1494.742065	112.0
1494.800903	204.0
1494.865845	136.0
1495.049927	32.0
1495.24231	132.0
1495.434692	108.0
1495.519409	124.0
1495.750244	184.0
1496.012085	168.0
1496.112061	148.0
1496.189087	52.0
1496.319946	192.0
1496.985596	160.0
1497.12854	248.0
1497.228638	72.0
1497.392822	284.0
1497.513672	128.0
1497.706177	160.0
1497.829468	168.0
1497.898804	124.0
1498.016724	232.0
1498.183838	40.0
1498.287598	164.0
1498.368652	228.0
1498.561279	136.0
1498.635498	176.0
1498.8927	124.0
1498.992798	224.0
1499.208618	104.0
1499.540039	104.0
1499.701904	148.0
1499.902344	36.0
1500.17981	132.0
1500.467407	216.0
1500.577393	128.0
1500.765747	128.0
1500.896851	108.0
1501.020264	84.0
1501.151367	200.0
1501.248291	172.0
1501.321045	160.0
1501.614136	180.0
1501.907227	152.0
1502.007446	192.0
1502.196411	192.0
1502.277466	128.0
1502.94104	148.0
1503.123779	164.0
1503.311401	176.0
1503.38623	160.0
1503.450317	184.0
1503.535156	160.0
1503.604736	104.0
1504.075562	184.0
1504.260742	192.0
1504.338013	180.0
1504.415161	108.0
1504.56958	108.0
1504.747192	168.0
1505.001587	180.0
1505.114258	120.0
1505.195068	92.0
1505.411255	80.0
END IONS

BEGIN IONS
PEPMASS=230.007
CHARGE=1
MSLEVEL=2
SOURCE_INSTRUMENT=LC-ESI-qTof
FILENAME=p4-G08_GG8_01_18404.mzXML
SEQ=*..*
IONMODE=Positive
ORGANISM=GNPS-NIH-SMALLMOLECULEPHARMACOLOGICALLYACTIVE
NAME=MLS002207196-01!Dimethoate60-51-5 M+H
PI=Dorrestein
DATACOLLECTOR=VP/LMS
SMILES=CNC(=O)CSP(=S)(OC)OC
INCHI=N/A
INCHIAUX=N/A
PUBMED=N/A
SUBMITUSER=vphelan
LIBRARYQUALITY=1
SPECTRUMID=CCMSLIB00000085896
USI=mzspec:GNPS:GNPS-NIH-SMALLMOLECULEPHARMACOLOGICALLYACTIVE:accession:CCMSLIB00000085896
SCANS=1422
44.95155	188.0
44.994263	232.0
45.047684	172.0
46.382648	44.0
46.876022	120.0
49.238071	160.0
49.985306	184.0
50.045834	196.0
52.858162	216.0
52.995724	216.0
53.800034	128.0
54.907921	168.0
57.112438	168.0
57.926075	108.0
59.767414	152.0
60.016953	132.0
60.214489	84.0
60.389145	88.0
61.60944	188.0
62.437092	116.0
62.465405	204.0
62.614937	84.0
66.972183	160.0
67.273865	152.0
68.012146	124.0
68.043343	160.0
68.733009	216.0
68.770966	136.0
69.338287	216.0
70.129448	136.0
70.169456	188.0
70.752548	184.0
73.731544	220.0
73.892288	56.0
75.841774	204.0
75.902451	220.0
76.074219	172.0
78.057373	76.0
79.188644	200.0
80.756767	180.0
81.036774	264.0
85.794716	156.0
86.147209	148.0
86.402115	200.0
86.696754	160.0
87.551353	184.0
88.02877	224.0
88.704216	196.0
88.846741	200.0
89.943878	144.0
90.344513	68.0
90.838959	140.0
92.489212	144.0
93.007599	308.0
94.038475	44.0
94.798553	204.0
94.899353	80.0
96.056541	148.0
96.9991	124.0
99.455704	116.0
99.830528	204.0
101.103355	212.0
102.833847	52.0
103.579979	152.0
104.017197	360.0
104.642128	164.0
105.621719	144.0
110.946342	172.0
110.96627	376.0
111.498405	176.0
112.589745	216.0
112.968102	96.0
115.589447	184.0
116.33963	160.0
116.5802	176.0
118.022354	164.0
118.886696	140.0
119.99514	172.0
123.999763	200.0
124.099052	240.0
124.981728	13560.0
125.020927	52.0
125.058769	32.0
125.488724	84.0
125.756424	44.0
125.984032	488.0
126.02047	196.0
126.113808	92.0
126.581398	176.0
126.684425	40.0
126.805428	68.0
126.843536	128.0
126.944435	44.0
126.979568	508.0
127.016487	208.0
127.04985	88.0
127.433777	48.0
127.654068	128.0
128.354416	28.0
128.622894	52.0
128.954941	100.0
128.975784	480.0
130.974396	184.0
137.325119	56.0
137.390442	140.0
137.817703	144.0
138.240967	164.0
140.402344	140.0
142.76355	196.0
142.991699	1872.0
143.027649	64.0
143.118118	52.0
143.22052	100.0
143.258636	104.0
143.280075	60.0
143.993164	344.0
144.02916	60.0
144.987671	212.0
145.629227	132.0
145.679672	124.0
147.973267	216.0
150.497131	212.0
152.739624	64.0
152.808502	276.0
155.822479	164.0
155.972748	200.0
156.951965	1636.0
157.0448	64.0
157.164551	60.0
157.964035	136.0
158.947571	292.0
159.121887	84.0
163.945892	152.0
170.925095	48.0
170.970734	1220.0
171.1698	40.0
171.974213	168.0
172.973923	140.0
189.529846	172.0
197.039581	124.0
198.95755	160.0
231.707886	100.0
290.7677	84.0
843.148376	72.0
870.119751	192.0
933.534241	72.0
936.44342	120.0
966.000549	84.0
970.86908	124.0
992.333008	40.0
1036.797974	176.0
1053.431274	176.0
1085.290894	160.0
1095.40564	220.0
1102.145264	20.0
1121.781128	128.0
1130.089478	60.0
1136.904541	256.0
1140.921387	112.0
1142.878662	140.0
1146.31958	180.0
1154.440918	160.0
1175.30957	180.0
1189.195435	156.0
1201.85144	224.0
1205.048462	172.0
1205.960571	180.0
1209.315308	116.0
1234.760132	204.0
1246.418701	152.0
1250.9552	144.0
1258.244873	236.0
1267.843994	80.0
1271.297729	92.0
1283.455078	284.0
1288.279907	64.0
1290.845947	136.0
1298.487427	260.0
1321.967163	224.0
1330.701904	180.0
1333.723999	168.0
1346.088013	204.0
1348.279663	136.0
1348.652344	60.0
1359.763672	176.0
1374.224243	140.0
1377.70166	152.0
1384.477295	176.0
1385.025391	256.0
1388.783447	192.0
1390.289551	84.0
1406.224365	180.0
1419.871582	164.0
1421.409424	184.0
1429.939331	52.0
1437.77771	216.0
1456.745605	188.0
1461.322388	108.0
1471.337402	272.0
1482.474609	192.0
END IONS

BEGIN IONS
PEPMASS=280.165
CHARGE=1
MSLEVEL=2
SOURCE_INSTRUMENT=LC-ESI-qTof
FILENAME=p4-H11_GH11_01_18419.mzXML
SEQ=*..*
IONMODE=Positive
ORGANISM=GNPS-NIH-SMALLMOLECULEPHARMACOLOGICALLYACTIVE
NAME=MLS000756891-01!Oxamniquine M+H
PI=Dorrestein
DATACOLLECTOR=VP/LMS
SMILES=CC(C)NCC1CCc2cc(CO)c(cc2N1)[N+](=O)[O-]
INCHI=N/A
INCHIAUX=N/A
PUBMED=N/A
SUBMITUSER=vphelan
LIBRARYQUALITY=1
SPECTRUMID=CCMSLIB00000085979
USI=mzspec:GNPS:GNPS-NIH-SMALLMOLECULEPHARMACOLOGICALLYACTIVE:accession:CCMSLIB00000085979
SCANS=1211
44.897369	116.0
44.922714	124.0
44.960075	168.0
44.982143	172.0
45.037514	188.0
45.060902	144.0
45.076256	192.0
45.113991	172.0
45.139084	160.0
45.155132	172.0
45.185394	244.0
45.212662	156.0
45.253216	176.0
45.272907	28.0
45.298355	156.0
45.320766	176.0
45.419857	156.0
45.435097	120.0
45.456562	164.0
45.483406	208.0
45.507572	144.0
45.528885	224.0
45.558456	144.0
45.569355	176.0
45.588169	164.0
45.621769	172.0
45.635216	172.0
45.65353	168.0
45.674175	128.0
45.69574	64.0
45.710541	56.0
45.728035	192.0
45.750919	144.0
45.769772	152.0
45.787277	164.0
45.800747	156.0
45.835773	100.0
45.858685	124.0
45.884842	268.0
45.896431	140.0
45.93454	156.0
45.961178	132.0
45.974674	208.0
46.040825	92.0
46.073025	148.0
46.083302	224.0
46.096157	192.0
46.147575	84.0
46.162453	68.0
46.17868	252.0
46.190853	152.0
46.25716	48.0
46.285591	132.0
46.301842	48.0
46.328934	176.0
46.364895	168.0
46.374271	176.0
46.396221	160.0
46.399651	156.0
46.4128	132.0
46.43602	144.0
46.461792	204.0
46.479355	208.0
46.48439	196.0
46.486782	336.0
46.505219	124.0
46.521053	204.0
46.53101	172.0
46.552734	168.0
46.569183	144.0
46.58596	208.0
46.645008	176.0
46.656403	176.0
46.676395	136.0
46.689995	148.0
46.702236	176.0
46.71312	128.0
46.723736	164.0
46.729362	132.0
46.751854	332.0
46.763466	100.0
46.787968	204.0
46.801582	168.0
46.836071	168.0
46.866962	104.0
46.914665	144.0
46.933754	164.0
46.945438	324.0
47.010422	196.0
47.035355	212.0
47.046997	224.0
47.09206	280.0
47.118015	292.0
47.13031	176.0
47.178326	152.0
47.198223	76.0
47.216434	156.0
47.234131	64.0
47.236221	120.0
47.260208	160.0
47.270252	132.0
47.295792	180.0
47.314957	124.0
47.339561	136.0
47.357407	188.0
47.375973	208.0
47.402515	160.0
47.458817	328.0
47.471161	252.0
47.483501	140.0
47.506565	156.0
47.535633	136.0
47.567543	160.0
47.591915	128.0
47.608391	152.0
47.630207	136.0
47.649044	128.0
47.695541	160.0
47.717525	220.0
47.751781	120.0
47.77058	116.0
47.814613	152.0
47.846378	200.0
47.865547	228.0
47.881489	160.0
47.900566	348.0
47.99078	172.0
48.036949	228.0
48.047489	132.0
48.068962	192.0
48.116493	116.0
48.133785	196.0
48.151016	84.0
48.219578	212.0
48.249126	148.0
48.276733	116.0
48.286686	180.0
48.311359	152.0
48.327251	140.0
48.347336	156.0
48.361176	220.0
48.370293	164.0
48.381939	192.0
48.411018	92.0
48.424866	196.0
48.438042	172.0
48.457191	204.0
48.477291	176.0
48.479874	148.0
48.501076	264.0
48.514484	220.0
48.530186	140.0
48.552376	120.0
48.563469	136.0
48.574566	160.0
48.625908	100.0
48.657833	108.0
48.678661	120.0
48.70644	192.0
48.742992	232.0
48.747616	232.0
48.762016	172.0
48.828701	168.0
48.846027	200.0
48.876251	312.0
48.885792	168.0
48.940582	200.0
48.965149	144.0
48.993572	300.0
49.013905	308.0
49.06583	204.0
49.08918	72.0
49.13364	128.0
49.167305	168.0
49.187145	148.0
49.196617	184.0
49.211781	144.0
49.227333	268.0
49.246887	144.0
49.286045	132.0
49.301113	360.0
49.324951	152.0
49.360088	56.0
49.407642	192.0
49.423897	156.0
49.439301	160.0
49.456623	64.0
49.487419	148.0
49.504223	124.0
49.574268	200.0
49.589684	96.0
49.613514	152.0
49.624729	184.0
49.65979	132.0
49.679295	168.0
49.702103	148.0
49.728287	176.0
49.733967	120.0
49.738575	160.0
49.791721	140.0
49.826839	140.0
49.852493	108.0
49.883053	160.0
49.905548	196.0
49.919609	60.0
49.943344	228.0
49.967712	220.0
49.978687	148.0
50.009647	152.0
50.030766	192.0
50.039856	176.0
50.092804	148.0
50.119495	104.0
50.156139	184.0
50.168827	192.0
50.193924	180.0
50.22298	208.0
50.244217	172.0
50.286697	192.0
50.291237	108.0
50.296288	168.0
50.328697	192.0
50.346058	160.0
50.373451	116.0
50.403118	136.0
50.415836	52.0
50.432011	180.0
50.445518	256.0
50.482281	160.0
50.497742	156.0
50.523384	132.0
50.582737	112.0
50.61813	148.0
50.663734	244.0
50.688961	144.0
50.701714	192.0
50.712097	256.0
50.728645	128.0
50.76181	204.0
50.775436	208.0
50.786781	140.0
50.811481	156.0
50.867664	400.0
50.890381	92.0
50.927135	168.0
50.939297	116.0
50.953598	212.0
51.008297	128.0
51.022247	128.0
51.050491	168.0
51.092201	184.0
51.10643	160.0
51.15197	132.0
51.164322	124.0
51.18187	216.0
51.197086	128.0
51.211777	148.0
51.248814	156.0
51.284443	128.0
51.310101	132.0
51.338619	100.0
51.357376	204.0
51.371426	128.0
51.388546	128.0
51.398533	124.0
51.425648	196.0
51.468479	116.0
51.481987	148.0
51.532753	168.0
51.56419	176.0
51.60136	124.0
51.624237	168.0
51.680023	184.0
51.724293	180.0
51.751865	168.0
51.768776	112.0
51.790588	216.0
51.813179	136.0
51.857601	200.0
51.87767	88.0
51.90921	160.0
51.91925	152.0
51.97332	156.0
51.993855	140.0
52.005337	136.0
52.102982	128.0
52.117352	152.0
52.151402	144.0
52.170528	192.0
52.192097	168.0
52.207912	176.0
52.225819	160.0
52.236015	156.0
52.264015	184.0
52.276966	220.0
52.295677	156.0
52.335987	144.0
52.406353	192.0
52.433945	176.0
52.462772	184.0
52.474304	252.0
52.522301	228.0
52.557964	276.0
52.585384	168.0
52.622917	120.0
52.667683	204.0
52.688271	144.0
52.709579	132.0
52.731258	156.0
52.761616	88.0
52.776073	184.0
52.812225	192.0
52.872135	256.0
52.887466	208.0
52.938141	172.0
52.959866	120.0
52.981594	64.0
53.014919	160.0
53.037956	152.0
53.064205	140.0
53.075806	156.0
53.106258	176.0
53.122215	116.0
53.208969	180.0
53.236881	180.0
53.247047	132.0
53.284813	176.0
53.308064	336.0
53.318237	168.0
53.345852	164.0
53.361843	188.0
53.381618	80.0
53.404224	144.0
53.450573	216.0
53.485943	224.0
53.51025	172.0
53.529179	108.0
53.549568	208.0
53.559761	168.0
53.586811	472.0
53.628246	168.0
53.639908	56.0
53.650913	108.0
53.679443	172.0
53.695164	192.0
53.739429	232.0
53.753334	208.0
53.787239	248.0
53.806217	124.0
53.823959	208.0
53.853966	160.0
53.871933	388.0
53.939743	308.0
53.952312	172.0
53.992611	168.0
54.006416	180.0
54.038601	152.0
54.048843	264.0
54.08543	192.0
54.098606	176.0
54.143997	176.0
54.164505	148.0
54.182083	164.0
54.191994	404.0
54.243633	60.0
54.304291	228.0
54.325752	184.0
54.36097	64.0
54.402889	164.0
54.412186	372.0
54.45052	128.0
54.472866	220.0
54.493122	164.0
54.525562	104.0
54.559258	96.0
54.583763	192.0
54.613667	180.0
54.665161	144.0
54.679878	112.0
54.694595	128.0
54.710789	44.0
54.722569	108.0
54.752018	80.0
54.798359	148.0
54.831577	188.0
54.844841	168.0
54.857197	136.0
54.87875	148.0
54.90234	128.0
54.92004	76.0
54.931843	96.0
54.943348	140.0
54.983482	176.0
55.005623	200.0
55.027767	204.0
55.041828	200.0
55.058777	136.0
55.07798	180.0
55.125259	180.0
55.172558	188.0
55.208042	184.0
55.224689	172.0
55.240498	140.0
55.268448	168.0
55.313885	296.0
55.336781	184.0
55.361622	108.0
55.367737	84.0
55.373123	184.0
55.395512	152.0
55.420002	192.0
55.437508	144.0
55.468632	148.0
55.514374	188.0
55.5858	340.0
55.622902	160.0
55.646717	200.0
55.662663	200.0
55.688236	164.0
55.728481	176.0
55.74469	36.0
55.76104	220.0
55.777607	164.0
55.798203	220.0
55.845787	212.0
55.860664	160.0
55.888931	156.0
55.916668	200.0
55.93074	172.0
55.946918	200.0
55.986263	232.0
56.008881	140.0
56.024418	128.0
56.045277	48.0
56.061668	160.0
56.083298	156.0
56.100422	120.0
56.14217	124.0
56.18692	104.0
56.285427	252.0
56.318375	132.0
56.336807	160.0
56.353718	128.0
56.376553	128.0
56.40794	160.0
56.475227	32.0
56.497665	148.0
56.536572	124.0
56.699814	132.0
56.756889	164.0
56.807793	184.0
56.819775	188.0
56.846783	140.0
56.861004	168.0
56.873798	196.0
56.902321	168.0
56.91283	100.0
56.936859	196.0
56.948589	212.0
56.9855	136.0
56.990627	136.0
56.996109	244.0
57.007465	128.0
57.033638	116.0
57.052319	176.0
57.056469	60.0
57.093155	96.0
57.120232	148.0
57.150169	160.0
57.192459	112.0
57.208347	144.0
57.224072	112.0
57.28582	188.0
57.308418	168.0
57.385288	112.0
57.407906	128.0
57.457684	320.0
57.490879	52.0
57.542355	232.0
57.556976	244.0
57.640499	136.0
57.663048	128.0
57.688744	168.0
57.70084	172.0
57.747299	160.0
57.76133	104.0
57.779484	40.0
57.808609	252.0
57.84153	52.0
57.852127	68.0
57.865753	140.0
57.902096	184.0
57.914211	112.0
57.935421	168.0
57.954727	208.0
57.973301	108.0
58.030903	160.0
58.064262	160.0
58.074879	224.0
58.097633	204.0
58.109772	184.0
58.149227	176.0
58.159851	132.0
58.171993	172.0
58.198723	244.0
58.20285	148.0
58.229332	208.0
58.23547	204.0
58.258556	228.0
58.34214	76.0
58.360245	132.0
58.384686	204.0
58.407528	192.0
58.427307	132.0
58.460781	172.0
58.472954	140.0
58.507271	152.0
58.538418	52.0
58.559738	224.0
58.610012	40.0
58.686615	156.0
58.702866	184.0
58.706924	160.0
58.715477	204.0
58.750282	156.0
58.764011	204.0
58.776951	200.0
58.807106	168.0
58.828114	48.0
58.838799	120.0
58.864754	160.0
58.893772	148.0
58.93502	140.0
58.967113	124.0
58.97934	228.0
59.018623	196.0
59.034222	152.0
59.064972	104.0
59.095348	140.0
59.116989	188.0
59.130764	152.0
59.143444	140.0
59.16655	148.0
59.196701	144.0
59.21191	128.0
59.274681	164.0
59.29464	200.0
59.308437	144.0
59.320698	124.0
59.336029	180.0
59.362095	104.0
59.374363	136.0
59.388168	108.0
59.403507	144.0
59.448002	188.0
59.460281	132.0
59.494049	120.0
59.520275	196.0
59.532436	100.0
59.552402	148.0
59.577057	244.0
59.600025	120.0
59.643059	188.0
59.657928	160.0
59.689178	160.0
59.727631	144.0
59.803387	340.0
59.826115	196.0
59.857479	216.0
59.88155	144.0
59.89233	136.0
59.923141	124.0
59.938549	204.0
59.954136	140.0
60.020248	252.0
60.038174	160.0
60.060345	152.0
60.079784	176.0
60.143295	132.0
60.165558	332.0
60.19672	232.0
60.232063	244.0
60.265671	264.0
60.307396	172.0
60.319763	148.0
60.347591	176.0
60.36972	64.0
60.380707	164.0
60.397079	208.0
60.415642	192.0
60.430424	144.0
60.486858	192.0
60.523689	168.0
60.537918	136.0
60.548759	232.0
60.559601	240.0
60.577511	184.0
60.607529	124.0
60.633972	204.0
60.64637	100.0
60.664974	140.0
60.697533	284.0
60.748714	208.0
60.759575	180.0
60.773537	184.0
60.790211	172.0
60.800926	148.0
60.840275	196.0
60.860458	136.0
60.891369	124.0
60.933285	180.0
60.941715	140.0
60.984741	60.0
61.029949	148.0
61.085236	140.0
61.128647	108.0
61.181595	256.0
61.210323	208.0
61.222782	112.0
61.275745	348.0
61.320934	132.0
61.342319	164.0
61.400448	168.0
61.4291	304.0
61.442028	116.0
61.476894	228.0
61.498741	112.0
61.522923	196.0
61.542454	196.0
61.575249	144.0
61.612106	148.0
61.629925	132.0
61.661251	176.0
61.692936	172.0
61.730156	200.0
61.758118	188.0
61.794136	168.0
61.812782	136.0
61.855133	44.0
61.876385	288.0
62.005497	176.0
62.017059	212.0
62.068203	164.0
62.108982	116.0
62.141926	124.0
62.156048	128.0
62.178017	88.0
62.207127	168.0
62.219025	160.0
62.247093	104.0
62.273792	232.0
62.297352	156.0
62.337238	156.0
62.443539	188.0
62.454548	200.0
62.501743	160.0
62.514332	168.0
62.545811	144.0
62.559978	124.0
62.636627	184.0
62.66077	148.0
62.711739	140.0
62.715195	172.0
62.723122	184.0
62.72591	276.0
62.803043	164.0
62.835777	216.0
62.877506	216.0
62.92416	128.0
62.999966	152.0
63.031567	152.0
63.060013	176.0
63.073559	232.0
63.120838	76.0
63.177029	100.0
63.233662	192.0
63.240242	152.0
63.24218	184.0
63.281483	196.0
63.309986	172.0
63.323364	148.0
63.338493	72.0
63.408211	100.0
63.465523	208.0
63.480759	168.0
63.50499	200.0
63.536652	72.0
63.560452	236.0
63.613571	128.0
63.657284	108.0
63.743156	140.0
63.757366	204.0
63.825726	192.0
63.839218	196.0
63.860043	76.0
63.900936	196.0
63.946629	208.0
63.959362	120.0
63.980503	180.0
63.99778	184.0
64.046867	176.0
64.090584	264.0
64.102699	196.0
64.117043	212.0
64.129799	56.0
64.15345	200.0
64.156227	144.0
64.176994	296.0
64.20256	216.0
64.214859	172.0
64.246201	76.0
64.281372	184.0
64.337166	196.0
64.357925	176.0
64.423996	184.0
64.437782	116.0
64.458557	208.0
64.513336	176.0
64.543274	204.0
64.581657	92.0
64.594452	168.0
64.610451	192.0
64.627251	392.0
64.647255	132.0
64.66806	184.0
64.695274	148.0
64.722488	172.0
64.781311	420.0
64.804176	156.0
64.82341	324.0
64.835854	208.0
64.857063	128.0
64.89875	112.0
64.943649	204.0
64.95488	140.0
64.978943	100.0
64.991776	84.0
65.008583	236.0
65.036713	364.0
65.092903	124.0
65.108963	160.0
65.16037	136.0
65.181252	288.0
65.195717	116.0
65.20697	132.0
65.232689	64.0
65.252823	160.0
65.269661	124.0
65.280922	100.0
65.309868	164.0
65.328392	152.0
65.345978	200.0
65.36779	140.0
65.398369	96.0
65.453102	128.0
65.483704	172.0
65.557442	196.0
65.577148	160.0
65.594879	168.0
65.627129	112.0
65.644867	180.0
65.664902	156.0
65.686798	156.0
65.703461	220.0
65.759407	116.0
65.796539	180.0
65.820381	156.0
65.854668	196.0
65.880516	144.0
65.891823	136.0
65.903137	76.0
65.914444	252.0
65.950737	200.0
65.966164	192.0
65.98735	388.0
66.009819	80.0
66.022369	168.0
66.04702	60.0
66.061577	136.0
66.131157	88.0
66.155434	136.0
66.181343	80.0
66.200401	228.0
66.22345	128.0
66.312561	112.0
66.327148	104.0
66.353088	208.0
66.417953	52.0
66.453644	144.0
66.473114	116.0
66.48687	128.0
66.503952	140.0
66.517303	160.0
66.540421	300.0
66.586754	180.0
66.602905	204.0
66.638489	132.0
66.653168	136.0
66.66497	188.0
66.687492	196.0
66.700417	164.0
66.718376	152.0
66.731384	152.0
66.768784	156.0
66.798851	156.0
66.841988	124.0
66.853378	132.0
66.875473	180.0
66.890816	172.0
66.905464	236.0
66.958946	232.0
66.973274	200.0
66.994576	112.0
67.011955	180.0
67.025993	92.0
67.059265	164.0
67.076004	308.0
67.086731	196.0
67.123795	264.0
67.162941	188.0
67.200462	148.0
67.277168	216.0
67.288597	116.0
67.303291	48.0
67.319138	256.0
67.323067	180.0
67.328354	276.0
67.354126	224.0
67.375153	100.0
67.44706	132.0
67.483612	144.0
67.514053	168.0
67.543533	156.0
67.612885	188.0
67.619286	112.0
67.641716	172.0
67.654816	124.0
67.685921	76.0
67.704079	180.0
67.738327	60.0
67.750664	196.0
67.799461	208.0
67.8134	332.0
67.85289	164.0
67.858009	148.0
67.874359	240.0
67.892403	248.0
67.911324	168.0
67.995758	152.0
68.038437	180.0
68.100838	156.0
68.131325	136.0
68.166595	148.0
68.192589	100.0
68.217506	192.0
68.261894	100.0
68.281822	104.0
68.314529	136.0
68.386765	320.0
68.431099	140.0
68.437683	116.0
68.448792	228.0
68.465958	128.0
68.510612	184.0
68.540482	184.0
68.556572	188.0
68.582939	128.0
68.600197	136.0
68.620857	208.0
68.673058	300.0
68.711571	264.0
68.742874	140.0
68.803932	184.0
68.842453	220.0
68.879547	212.0
68.91465	220.0
68.951004	164.0
68.969185	180.0
69.007103	124.0
69.038628	208.0
69.061775	64.0
69.096596	168.0
69.126305	168.0
69.151123	136.0
69.197479	132.0
69.214035	100.0
69.23542	140.0
69.252121	152.0
69.305092	140.0
69.317207	156.0
69.330452	204.0
69.368118	136.0
69.394638	156.0
69.475685	180.0
69.514069	300.0
69.529007	148.0
69.568993	220.0
69.582901	232.0
69.638588	168.0
69.65686	120.0
69.672615	156.0
69.701714	124.0
69.72332	100.0
69.74659	164.0
69.818085	152.0
69.843033	204.0
69.859665	228.0
69.881294	140.0
69.892937	136.0
69.936211	136.0
69.972832	84.0
69.99781	188.0
70.014465	244.0
70.026123	152.0
70.062141	180.0
70.06839	288.0
70.081558	144.0
70.107704	148.0
70.152893	148.0
70.184441	136.0
70.20845	200.0
70.233482	176.0
70.248161	192.0
70.334587	32.0
70.356735	200.0
70.394691	136.0
70.453148	116.0
70.503281	164.0
70.554489	176.0
70.583649	156.0
70.609291	224.0
70.643501	144.0
70.660461	100.0
70.680542	216.0
70.710663	180.0
70.75251	124.0
70.799393	156.0
70.822838	92.0
70.834564	196.0
70.863045	144.0
70.889854	72.0
70.911644	120.0
70.949509	212.0
70.970322	128.0
71.017136	96.0
71.062569	248.0
71.079346	104.0
71.102844	120.0
71.114594	104.0
71.163277	160.0
71.192825	180.0
71.199905	108.0
71.202446	160.0
71.225487	180.0
71.25061	140.0
71.263313	164.0
71.272995	136.0
71.309952	356.0
71.329597	132.0
71.346405	120.0
71.393486	60.0
71.418716	168.0
71.433853	216.0
71.502838	104.0
71.523041	152.0
71.55777	152.0
71.602173	160.0
71.618866	184.0
71.639229	160.0
71.671242	36.0
71.723106	160.0
71.743713	104.0
71.760574	92.0
71.846588	104.0
71.875275	160.0
71.926285	124.0
71.959663	168.0
71.976555	120.0
72.008347	184.0
72.02597	240.0
72.045799	196.0
72.098343	128.0
72.131599	164.0
72.161499	180.0
72.175941	172.0
72.21315	116.0
72.235916	156.0
72.258179	148.0
72.272354	44.0
72.29763	180.0
72.326515	92.0
72.340057	96.0
72.3536	180.0
72.37561	64.0
72.394623	176.0
72.438271	80.0
72.453522	176.0
72.480629	180.0
72.524971	184.0
72.60099	196.0
72.646454	332.0
72.673927	316.0
72.690895	120.0
72.732208	164.0
72.745209	256.0
72.774071	108.0
72.820107	184.0
72.872581	120.0
72.888466	104.0
72.909966	188.0
72.972862	124.0
73.018776	116.0
73.04599	140.0
73.059601	160.0
73.097031	228.0
73.108948	108.0
73.166817	312.0
73.182045	144.0
73.219604	204.0
73.242729	188.0
73.266495	184.0
73.325615	200.0
73.352509	168.0
73.384178	160.0
73.403656	64.0
73.483826	108.0
73.541847	208.0
73.559341	160.0
73.646004	116.0
73.673737	340.0
73.71727	364.0
73.730507	156.0
73.761574	176.0
73.801514	52.0
73.820328	148.0
73.833145	188.0
73.873344	168.0
73.899818	152.0
73.933701	176.0
73.952057	32.0
73.988007	96.0
74.019699	188.0
74.03595	212.0
74.058815	172.0
74.101898	112.0
74.127525	132.0
74.155228	220.0
74.160919	136.0
74.166489	212.0
74.188454	200.0
74.208771	136.0
74.212509	116.0
74.228889	256.0
74.277626	108.0
74.296364	156.0
74.300446	144.0
74.309975	200.0
74.327377	184.0
74.367805	388.0
74.375046	216.0
74.37941	172.0
74.4132	52.0
74.438957	144.0
74.450974	140.0
74.468147	144.0
74.492195	136.0
74.512894	176.0
74.543739	44.0
74.559212	180.0
74.584991	140.0
74.603157	200.0
74.625305	176.0
74.646881	136.0
74.684013	292.0
74.72773	120.0
74.760368	128.0
74.817223	208.0
74.840698	196.0
74.901604	88.0
74.946396	96.0
74.969627	324.0
75.018784	224.0
75.041199	152.0
75.06189	260.0
75.073761	176.0
75.118805	188.0
75.208534	164.0
75.223419	128.0
75.239746	200.0
75.245735	116.0
75.252029	188.0
75.282776	108.0
75.302124	176.0
75.329407	184.0
75.355751	232.0
75.372597	176.0
75.394241	196.0
75.441879	144.0
75.498009	184.0
75.588867	180.0
75.620728	192.0
75.644135	128.0
75.663177	100.0
75.852005	136.0
75.876274	140.0
75.907486	72.0
75.928299	128.0
75.949112	124.0
75.985542	184.0
76.018509	132.0
76.058426	100.0
76.079254	140.0
76.109627	176.0
76.14003	132.0
76.226891	156.0
76.251221	164.0
76.334671	164.0
76.353798	36.0
76.365974	176.0
76.423386	208.0
76.440781	76.0
76.491257	100.0
76.522591	196.0
76.541748	164.0
76.57309	152.0
76.618729	160.0
76.630531	136.0
76.661385	288.0
76.68634	60.0
76.702034	168.0
76.726433	132.0
76.763947	164.0
76.786278	164.0
76.829895	148.0
76.840637	92.0
76.855507	140.0
76.890068	164.0
76.981628	188.0
77.002144	160.0
77.035332	112.0
77.097931	164.0
77.114456	208.0
77.127945	200.0
77.149094	200.0
77.170776	176.0
77.190887	180.0
77.230331	188.0
77.287094	148.0
77.302841	148.0
77.33609	176.0
77.348343	168.0
77.42025	176.0
77.434143	164.0
77.477936	196.0
77.525246	168.0
77.549782	176.0
77.572899	128.0
77.584839	160.0
77.653229	112.0
77.683617	208.0
77.700592	156.0
77.721642	184.0
77.742699	272.0
77.763763	104.0
77.862083	196.0
77.920052	48.0
77.939377	140.0
77.974525	160.0
77.988586	120.0
78.002647	276.0
78.109917	60.0
78.15007	184.0
78.190361	188.0
78.211975	180.0
78.268311	200.0
78.29409	272.0
78.317619	128.0
78.336006	164.0
78.366943	232.0
78.38633	100.0
78.403397	140.0
78.439201	208.0
78.458595	164.0
78.477989	156.0
78.506203	144.0
78.522934	172.0
78.55735	140.0
78.622635	212.0
78.645584	148.0
78.659706	200.0
78.695015	104.0
78.726593	68.0
78.764427	196.0
78.78862	180.0
78.80629	204.0
78.819092	260.0
78.892891	128.0
78.907028	108.0
78.921173	252.0
78.956497	148.0
78.979256	140.0
79.003075	228.0
79.027306	128.0
79.039688	32.0
79.133347	136.0
79.170685	180.0
79.19194	180.0
79.239769	152.0
79.278748	164.0
79.292358	212.0
79.360291	204.0
79.422363	168.0
79.463165	208.0
79.491554	72.0
79.507523	184.0
79.521721	180.0
79.55545	136.0
79.569656	176.0
79.63195	144.0
79.649567	112.0
79.727745	128.0
79.750847	104.0
79.798843	212.0
79.813072	116.0
79.825516	100.0
79.905563	152.0
79.918015	304.0
79.974754	68.0
80.012344	152.0
80.053299	152.0
80.076454	128.0
80.117424	156.0
80.1567	176.0
80.190483	164.0
80.222565	136.0
80.254662	160.0
80.281403	176.0
80.306511	160.0
80.334915	260.0
80.361679	160.0
80.383087	84.0
80.425713	172.0
80.454483	144.0
80.484833	208.0
80.497337	96.0
80.51162	68.0
80.531265	208.0
80.583076	136.0
80.608543	168.0
80.624176	188.0
80.644402	240.0
80.65992	188.0
80.679581	160.0
80.695625	156.0
80.701698	152.0
80.735016	116.0
80.774361	140.0
80.801201	144.0
80.822273	164.0
80.854881	100.0
80.870987	116.0
80.883514	140.0
80.90242	172.0
80.935127	216.0
80.947731	280.0
80.959663	156.0
80.98558	188.0
81.041115	172.0
81.062172	192.0
81.098465	148.0
81.127144	140.0
81.148659	312.0
81.164795	32.0
81.180931	144.0
81.215012	148.0
81.238663	172.0
81.274208	184.0
81.288567	148.0
81.31369	172.0
81.347794	216.0
81.367546	152.0
81.380814	156.0
81.407043	100.0
81.451302	188.0
81.478897	156.0
81.492233	180.0
81.511238	172.0
81.531006	152.0
81.628082	184.0
81.673042	140.0
81.696541	124.0
81.726089	176.0
81.779205	120.0
81.808189	184.0
81.822403	116.0
81.842209	112.0
81.903442	128.0
81.923256	204.0
81.946678	184.0
81.96109	84.0
81.98632	148.0
82.006149	148.0
82.02655	200.0
82.065681	176.0
82.08654	128.0
82.138611	164.0
82.184059	220.0
82.220772	96.0
82.250404	248.0
82.2742	100.0
82.307045	188.0
82.323677	272.0
82.341736	108.0
82.368088	136.0
82.383278	204.0
82.432068	168.0
82.459618	212.0
82.486282	152.0
82.526062	112.0
82.540527	208.0
82.558609	212.0
82.578545	184.0
82.601532	180.0
82.623726	152.0
82.654488	152.0
82.704285	124.0
82.766708	76.0
82.811989	180.0
82.877876	196.0
82.907684	268.0
82.931572	108.0
82.964203	128.0
83.001228	212.0
83.053055	136.0
83.067039	400.0
83.121803	112.0
83.176445	164.0
83.199387	168.0
83.219421	164.0
83.236359	152.0
83.258148	200.0
83.298111	384.0
83.333641	208.0
83.350517	104.0
83.3535	204.0
83.387138	172.0
83.399864	84.0
83.41259	216.0
83.450768	200.0
83.477119	152.0
83.499191	156.0
83.525597	164.0
83.545341	160.0
83.558075	176.0
83.57991	136.0
83.639969	88.0
83.667274	224.0
83.713097	212.0
83.740112	160.0
83.758324	108.0
83.778366	92.0
83.808388	140.0
83.980705	108.0
83.995293	120.0
84.024536	144.0
84.059151	152.0
84.074623	92.0
84.097481	160.0
84.123032	156.0
84.203377	108.0
84.217987	216.0
84.238609	152.0
84.270401	104.0
84.375145	72.0
84.387939	232.0
84.472733	164.0
84.492142	160.0
84.552574	64.0
84.600166	164.0
84.619064	212.0
84.643661	148.0
84.659775	252.0
84.746681	136.0
84.784943	208.0
84.818153	156.0
84.834656	76.0
84.876823	68.0
84.893326	172.0
84.913506	160.0
84.983292	204.0
85.006134	160.0
85.02076	164.0
85.049278	84.0
85.113533	212.0
85.137405	152.0
85.159447	212.0
85.172302	52.0
85.203529	96.0
85.225578	172.0
85.25589	284.0
85.300934	156.0
85.326668	168.0
85.392868	220.0
85.435173	152.0
85.455414	160.0
85.486694	120.0
85.512459	168.0
85.544991	184.0
85.567688	280.0
85.637665	160.0
85.661606	116.0
85.698456	116.0
85.729782	120.0
85.768486	112.0
85.781387	252.0
85.83744	160.0
85.86805	244.0
85.882179	224.0
85.912552	212.0
85.949219	132.0
85.962135	156.0
85.994263	188.0
86.026741	164.0
86.066437	128.0
86.10244	244.0
86.186348	200.0
86.207748	268.0
86.257652	84.0
86.272438	60.0
86.285378	192.0
86.306747	144.0
86.329605	212.0
86.366745	144.0
86.418549	328.0
86.450005	112.0
86.486633	96.0
86.549454	204.0
86.57589	152.0
86.592056	176.0
86.624725	208.0
86.63887	272.0
86.651833	196.0
86.674072	176.0
86.688896	104.0
86.718178	192.0
86.783432	132.0
86.830704	176.0
86.844627	136.0
86.894714	220.0
86.918839	192.0
86.977715	320.0
87.022781	64.0
87.046921	188.0
87.065445	156.0
87.092331	356.0
87.154655	164.0
87.176956	124.0
87.227142	244.0
87.255028	420.0
87.288345	152.0
87.357307	168.0
87.418709	160.0
87.483856	132.0
87.528542	132.0
87.636574	148.0
87.681213	184.0
87.696495	204.0
87.747597	168.0
87.77317	192.0
87.792122	152.0
87.811806	168.0
87.83419	88.0
87.850975	144.0
87.890846	152.0
87.946144	180.0
88.000198	164.0
88.018654	148.0
88.033401	228.0
88.070732	112.0
88.075562	52.0
88.084236	88.0
88.090584	176.0
88.111206	164.0
88.166534	204.0
88.205788	192.0
88.248787	180.0
88.334816	364.0
88.363976	156.0
88.39225	140.0
88.405273	140.0
88.476768	112.0
88.521797	168.0
88.5653	184.0
88.613762	220.0
88.6325	152.0
88.726212	148.0
88.778717	220.0
88.794724	156.0
88.839363	168.0
88.889397	124.0
88.932724	136.0
88.96447	216.0
88.987137	276.0
89.013283	140.0
89.03791	144.0
89.060822	160.0
89.088417	96.0
89.1026	196.0
89.124115	176.0
89.150299	64.0
89.170715	180.0
89.22937	156.0
89.254631	228.0
89.267937	84.0
89.295181	84.0
89.39386	240.0
89.411827	144.0
89.432533	32.0
89.453239	256.0
89.47966	188.0
89.522858	172.0
89.555588	404.0
89.615204	88.0
89.651291	184.0
89.665962	200.0
89.705666	172.0
89.721375	144.0
89.773544	140.0
89.79052	140.0
89.811264	156.0
89.830559	208.0
89.853218	184.0
89.915039	216.0
89.952789	180.0
89.992432	144.0
90.01046	244.0
90.045654	184.0
90.071754	76.0
90.086861	152.0
90.124893	156.0
90.152893	180.0
90.16732	76.0
90.194221	128.0
90.238052	292.0
90.375801	204.0
90.421158	176.0
90.485909	156.0
90.528023	148.0
90.569229	132.0
90.622276	124.0
90.6679	152.0
90.69239	180.0
90.737892	184.0
90.782402	156.0
90.816391	232.0
90.83461	116.0
90.861168	156.0
90.883934	140.0
90.937073	156.0
90.950356	204.0
90.973137	196.0
90.992905	116.0
91.014908	136.0
91.030098	348.0
91.054848	876.0
91.083771	168.0
91.102272	120.0
91.126968	264.0
91.187782	200.0
91.208351	156.0
91.22419	180.0
91.290443	144.0
91.311363	116.0
91.369492	292.0
91.393166	196.0
91.438835	140.0
91.496529	208.0
91.522598	32.0
91.55497	176.0
91.602585	180.0
91.62545	104.0
91.652122	128.0
91.681847	140.0
91.747421	148.0
91.76889	200.0
91.830589	208.0
91.837936	128.0
91.845436	140.0
91.880676	156.0
91.91526	232.0
91.94397	188.0
91.968697	104.0
91.9897	216.0
92.050049	316.0
92.07753	200.0
92.111908	240.0
92.167313	132.0
92.186424	188.0
92.201714	160.0
92.234207	148.0
92.316475	132.0
92.35276	144.0
92.368057	136.0
92.387192	192.0
92.400528	136.0
92.4104	152.0
92.429283	160.0
92.480957	128.0
92.521156	140.0
92.534554	148.0
92.551788	136.0
92.62587	188.0
92.641808	44.0
92.70887	76.0
92.727898	168.0
92.73481	156.0
92.808548	164.0
92.831558	176.0
92.877319	172.0
92.988045	120.0
93.017662	156.0
93.05928	432.0
93.094467	76.0
93.167221	168.0
93.25296	176.0
93.32505	228.0
93.344162	132.0
93.400055	184.0
93.413521	140.0
93.43853	164.0
93.463547	192.0
93.488564	160.0
93.527054	128.0
93.593117	140.0
93.618256	308.0
93.654137	336.0
93.696159	236.0
93.735054	132.0
93.756248	136.0
93.771667	108.0
93.810219	120.0
93.858421	192.0
93.906631	208.0
93.956787	232.0
94.037834	156.0
94.072678	360.0
94.15802	224.0
94.194237	148.0
94.23085	196.0
94.265724	120.0
94.283394	164.0
94.314041	144.0
94.376022	196.0
94.406845	172.0
94.430046	144.0
94.444878	132.0
94.457916	148.0
94.474541	148.0
94.499687	68.0
94.517105	172.0
94.534523	136.0
94.551941	180.0
94.565483	172.0
94.604111	180.0
94.671036	176.0
94.696434	188.0
94.730072	116.0
94.753326	180.0
94.803993	160.0
94.832771	44.0
94.877991	196.0
94.910316	136.0
94.923889	132.0
94.954391	176.0
94.980133	40.0
94.994431	344.0
95.016998	124.0
95.045616	208.0
95.069389	104.0
95.112793	220.0
95.141205	140.0
95.163254	344.0
95.192978	60.0
95.209167	32.0
95.226646	148.0
95.365875	292.0
95.450134	156.0
95.465691	124.0
95.485039	156.0
95.52404	360.0
95.601868	136.0
95.671936	196.0
95.695305	212.0
95.728401	72.0
95.791481	280.0
95.809135	196.0
95.839439	144.0
95.929085	128.0
95.942734	108.0
95.991478	184.0
96.01442	136.0
96.026581	260.0
96.06041	164.0
96.075348	320.0
96.104614	168.0
96.120224	200.0
96.13974	108.0
96.163162	120.0
96.210007	112.0
96.225624	216.0
96.254913	132.0
96.308083	108.0
96.325226	40.0
96.389702	148.0
96.428787	76.0
96.454193	212.0
96.48156	176.0
96.495247	184.0
96.548042	148.0
96.565605	176.0
96.589119	172.0
96.641937	208.0
96.675209	140.0
96.688904	76.0
96.714691	208.0
96.748672	196.0
96.77504	200.0
96.802452	144.0
96.876877	156.0
96.89843	200.0
96.961136	148.0
96.987495	152.0
97.049194	180.0
97.071846	152.0
97.098373	124.0
97.129753	332.0
97.15432	260.0
97.190575	96.0
97.267609	184.0
97.342209	160.0
97.367363	144.0
97.479233	160.0
97.502174	148.0
97.509491	100.0
97.513557	188.0
97.570892	132.0
97.587341	140.0
97.624702	100.0
97.716301	232.0
97.746704	200.0
97.787994	148.0
97.80571	56.0
97.821251	232.0
97.829025	208.0
97.852951	284.0
97.883507	332.0
97.890686	172.0
97.923058	180.0
97.964638	192.0
97.998703	188.0
98.012497	212.0
98.026291	164.0
98.04113	400.0
98.060341	72.0
98.085419	164.0
98.099213	140.0
98.116959	176.0
98.164177	152.0
98.178482	304.0
98.197807	136.0
98.22345	152.0
98.245148	160.0
98.280663	176.0
98.33197	364.0
98.363556	200.0
98.387245	208.0
98.408958	124.0
98.477058	116.0
98.51561	160.0
98.549194	120.0
98.588715	48.0
98.616386	112.0
98.646004	244.0
98.671074	108.0
98.72908	192.0
98.763336	200.0
98.778397	184.0
98.810181	176.0
98.831085	248.0
98.85965	156.0
98.895271	160.0
98.931259	156.0
98.950699	128.0
99.004166	104.0
99.051697	176.0
99.105186	120.0
99.130058	132.0
99.166626	136.0
99.185654	200.0
99.191597	120.0
99.196777	152.0
99.226097	68.0
99.255112	164.0
99.275665	84.0
99.319298	56.0
99.333183	204.0
99.352371	184.0
99.367256	180.0
99.40461	152.0
99.430412	156.0
99.503853	60.0
99.548943	192.0
99.569382	116.0
99.597313	196.0
99.617401	160.0
99.643112	136.0
99.694	160.0
99.722366	124.0
99.765884	112.0
99.782005	180.0
99.835693	100.0
99.866234	196.0
99.899338	104.0
99.943108	204.0
99.968979	164.0
100.00679	96.0
100.02272	108.0
100.064522	112.0
100.084435	192.0
100.100365	292.0
100.130234	192.0
100.152054	176.0
100.260391	276.0
100.285263	228.0
100.323517	184.0
100.379349	284.0
100.44516	112.0
100.462387	120.0
100.48671	184.0
100.544922	96.0
100.578308	96.0
100.654724	40.0
100.684677	168.0
100.720627	164.0
100.740601	200.0
100.762581	84.0
100.788551	132.0
100.814529	368.0
100.862549	172.0
100.880493	224.0
100.896484	164.0
100.917015	164.0
100.961586	144.0
101.004471	60.0
101.028351	248.0
101.037483	120.0
101.044785	132.0
101.051994	196.0
101.074493	68.0
101.104515	172.0
101.128532	128.0
101.144539	240.0
101.186676	176.0
101.204277	204.0
101.228294	168.0
101.27269	136.0
101.314758	124.0
101.381119	68.0
101.410942	188.0
101.443016	144.0
101.457047	156.0
101.49514	156.0
101.523216	144.0
101.539207	148.0
101.553726	152.0
101.591919	184.0
101.617493	196.0
101.637558	212.0
101.667664	168.0
101.685722	140.0
101.706947	188.0
101.725868	168.0
101.775841	184.0
101.802788	160.0
101.840324	176.0
101.854385	172.0
101.874474	76.0
101.908623	176.0
101.932739	172.0
101.972931	216.0
101.999062	136.0
102.044495	376.0
102.081497	220.0
102.097878	136.0
102.123726	176.0
102.163963	84.0
102.180054	348.0
102.209511	144.0
102.242432	136.0
102.296776	180.0
102.346443	176.0
102.39093	132.0
102.437744	100.0
102.488113	48.0
102.504227	180.0
102.520355	412.0
102.553841	104.0
102.586868	112.0
102.602997	152.0
102.619125	152.0
102.645332	204.0
102.667397	136.0
102.726715	172.0
102.752235	88.0
102.790573	52.0
102.863235	176.0
102.893517	156.0
102.919762	76.0
102.935913	188.0
102.962166	152.0
102.978325	472.0
103.032463	200.0
103.054863	6800.0
103.084908	196.0
103.12178	360.0
103.144012	100.0
103.166252	188.0
103.216797	168.0
103.235672	192.0
103.287582	240.0
103.342201	116.0
103.421127	180.0
103.439346	100.0
103.461617	164.0
103.508957	328.0
103.562866	188.0
103.633766	152.0
103.674294	168.0
103.690506	192.0
103.726997	116.0
103.753166	176.0
103.771591	104.0
103.790497	136.0
103.822289	148.0
103.844597	160.0
103.964806	128.0
104.013008	152.0
104.051727	1616.0
104.104378	240.0
104.137939	296.0
104.179527	160.0
104.20797	156.0
104.234383	180.0
104.250641	140.0
104.311615	160.0
104.366508	48.0
104.423378	224.0
104.482544	160.0
104.498718	344.0
104.517029	160.0
104.567909	140.0
104.586227	132.0
104.618797	164.0
104.635078	112.0
104.69413	156.0
104.722649	80.0
104.78376	196.0
104.894859	132.0
104.907974	160.0
104.928864	208.0
104.954247	204.0
104.991676	248.0
105.005951	168.0
105.07032	1416.0
105.094559	184.0
105.163498	184.0
105.256966	120.0
105.2733	112.0
105.29744	356.0
105.344788	168.0
105.367264	108.0
105.381561	120.0
105.404037	88.0
105.436737	40.0
105.483749	88.0
105.543037	280.0
105.567574	180.0
105.583939	128.0
105.606438	52.0
105.640755	224.0
105.657578	128.0
105.671898	152.0
105.707794	176.0
105.770126	144.0
105.791054	224.0
105.825401	120.0
105.845879	128.0
105.860214	108.0
105.880692	236.0
105.909363	92.0
105.951218	112.0
105.981071	208.0
106.013695	200.0
106.026917	208.0
106.043045	288.0
106.065842	3140.0
106.121849	336.0
106.153252	140.0
106.200424	64.0
106.229553	240.0
106.249657	132.0
106.286987	168.0
106.315536	112.0
106.341995	208.0
106.36161	188.0
106.393318	200.0
106.43438	144.0
106.495689	192.0
106.510368	80.0
106.528854	148.0
106.543236	188.0
106.567978	160.0
106.585457	212.0
106.630486	148.0
106.654205	216.0
106.676819	296.0
106.727142	92.0
106.775688	156.0
106.802254	164.0
106.81665	296.0
106.837219	96.0
106.859856	204.0
106.878372	92.0
106.925705	96.0
106.989883	244.0
107.056374	296.0
107.072449	1032.0
107.109985	56.0
107.126732	232.0
107.152214	140.0
107.176941	108.0
107.19136	324.0
107.230034	68.0
107.277931	216.0
107.325706	160.0
107.370712	280.0
107.47049	196.0
107.492432	104.0
107.508942	228.0
107.554344	104.0
107.569969	200.0
107.636925	44.0
107.726639	128.0
107.744331	44.0
107.764992	104.0
107.841454	172.0
107.866409	148.0
107.929192	228.0
107.97998	148.0
108.028969	340.0
108.078957	308.0
108.099968	160.0
108.215889	172.0
108.232452	116.0
108.259369	60.0
108.273872	108.0
108.327148	144.0
108.416016	228.0
108.457756	196.0
108.49144	216.0
108.530708	208.0
108.536118	196.0
108.568153	92.0
108.592163	160.0
108.62001	168.0
108.640755	196.0
108.659424	204.0
108.702995	68.0
108.751732	184.0
108.773605	216.0
108.792252	172.0
108.861572	72.0
108.891922	112.0
108.923035	188.0
109.024887	64.0
109.04982	152.0
109.064377	188.0
109.142776	236.0
109.165627	120.0
109.182884	212.0
109.201607	168.0
109.234055	220.0
109.266418	200.0
109.280167	136.0
109.305626	204.0
109.38208	152.0
109.430511	252.0
109.467995	64.0
109.495064	164.0
109.56797	44.0
109.617981	148.0
109.6409	204.0
109.655487	84.0
109.674248	164.0
109.696159	180.0
109.734879	188.0
109.784752	140.0
109.801437	124.0
109.821274	156.0
109.891136	232.0
109.916176	148.0
110.047676	72.0
110.062286	320.0
110.092613	200.0
110.131203	136.0
110.164627	160.0
110.193878	164.0
110.226677	172.0
110.242722	192.0
110.292099	144.0
110.323456	260.0
110.356903	192.0
110.41127	184.0
110.467941	128.0
110.511681	152.0
110.55632	204.0
110.585022	172.0
110.633072	92.0
110.67131	200.0
110.69474	232.0
110.752434	160.0
110.767097	152.0
110.802711	124.0
110.820969	168.0
110.866577	164.0
110.913773	84.0
110.928452	128.0
110.964714	200.0
111.003281	364.0
111.020706	136.0
111.062653	184.0
111.08844	176.0
111.119293	216.0
111.138176	156.0
111.167557	176.0
111.254677	140.0
111.308449	136.0
111.348274	196.0
111.38591	256.0
111.415321	44.0
111.442635	172.0
111.532997	56.0
111.593063	196.0
111.718048	124.0
111.746712	180.0
111.776962	200.0
111.823288	136.0
111.853767	164.0
111.879768	156.0
111.920097	172.0
111.942413	208.0
111.958	184.0
111.974854	180.0
112.010933	124.0
112.031723	120.0
112.097038	176.0
112.139191	156.0
112.160271	120.0
112.175026	172.0
112.217186	160.0
112.240334	176.0
112.267349	152.0
112.322632	216.0
112.347946	92.0
112.388184	228.0
112.428131	52.0
112.457169	100.0
112.487228	100.0
112.548454	112.0
112.578018	184.0
112.606842	160.0
112.614655	104.0
112.621292	196.0
112.651268	88.0
112.656586	200.0
112.681519	176.0
112.711098	212.0
112.732231	140.0
112.785065	416.0
112.887878	256.0
112.93026	156.0
112.949997	100.0
112.98452	188.0
113.015587	248.0
113.03463	204.0
113.04818	200.0
113.119286	156.0
113.136223	104.0
113.151039	140.0
113.187035	156.0
113.210335	112.0
113.25795	160.0
113.278107	176.0
113.292648	148.0
113.316238	144.0
113.343788	200.0
113.396767	140.0
113.447639	188.0
113.479439	160.0
113.500648	160.0
113.574226	184.0
113.591652	136.0
113.653366	156.0
113.734016	112.0
113.748871	220.0
113.796707	324.0
113.832436	212.0
113.859283	244.0
113.873474	188.0
113.916634	92.0
113.939056	216.0
113.98037	160.0
114.012245	112.0
114.029251	268.0
114.044128	172.0
114.078041	172.0
114.114281	168.0
114.169563	124.0
114.205727	176.0
114.22998	148.0
114.292816	196.0
114.365303	164.0
114.380203	176.0
114.416397	148.0
114.431297	164.0
114.467499	196.0
114.501572	216.0
114.539909	148.0
114.565468	96.0
114.597183	172.0
114.677261	176.0
114.697594	136.0
114.745461	132.0
114.784348	196.0
114.87458	120.0
114.918106	220.0
114.932983	128.0
114.964554	120.0
115.006424	188.0
115.054405	6356.0
115.087334	152.0
115.139725	180.0
115.188385	176.0
115.207611	136.0
115.226753	200.0
115.253746	220.0
115.321754	172.0
115.355873	116.0
115.389267	156.0
115.417877	116.0
115.443008	152.0
115.464111	100.0
115.494057	160.0
115.539955	140.0
115.58844	172.0
115.628845	176.0
115.65667	200.0
115.693062	196.0
115.719162	136.0
115.765862	164.0
115.793701	144.0
115.85154	44.0
115.873634	140.0
115.89225	108.0
115.932892	132.0
115.982254	148.0
116.023865	156.0
116.051537	1872.0
116.090569	200.0
116.11245	172.0
116.190269	160.0
116.223633	232.0
116.256783	144.0
116.323318	176.0
116.356575	188.0
116.376411	148.0
116.409691	148.0
116.457199	252.0
116.484375	92.0
116.499413	168.0
116.522148	260.0
116.585358	144.0
116.611153	52.0
116.632645	108.0
116.651993	124.0
116.712669	196.0
116.733688	64.0
116.795174	136.0
116.804512	172.0
116.83564	164.0
116.855835	168.0
116.913239	140.0
116.965111	128.0
117.016586	184.0
117.059105	18276.0
117.10817	188.0
117.123772	180.0
117.166328	68.0
117.198647	260.0
117.227524	80.0
117.263298	164.0
117.289162	200.0
117.306404	48.0
117.347809	176.0
117.370316	336.0
117.393776	96.0
117.431198	128.0
117.463821	200.0
117.489716	124.0
117.541496	168.0
117.584656	120.0
117.612778	80.0
117.644684	120.0
117.713043	172.0
117.731461	72.0
117.754341	148.0
117.782631	104.0
117.799858	48.0
117.81678	208.0
117.844749	316.0
117.969337	44.0
118.025993	228.0
118.065865	22748.0
118.115509	180.0
118.150284	168.0
118.170486	184.0
118.213272	480.0
118.239517	184.0
118.297806	172.0
118.347755	132.0
118.364372	148.0
118.382401	204.0
118.40152	116.0
118.444191	216.0
118.512367	88.0
118.593002	192.0
118.609894	176.0
118.631355	164.0
118.671463	100.0
118.704857	240.0
118.728004	152.0
118.74649	204.0
118.761673	196.0
118.788925	64.0
118.802109	100.0
118.828384	168.0
118.870155	168.0
118.897789	180.0
118.914619	172.0
118.965958	156.0
118.987778	104.0
119.029236	160.0
119.066872	2872.0
119.099297	184.0
119.124207	176.0
119.180664	120.0
119.229591	156.0
119.291168	128.0
119.341515	64.0
119.37413	184.0
119.410034	192.0
119.452431	200.0
119.470604	124.0
119.511391	196.0
119.543808	192.0
119.566422	224.0
119.582985	196.0
119.606979	164.0
119.731392	96.0
119.754318	104.0
119.785484	380.0
119.808983	200.0
119.857384	80.0
119.93148	232.0
120.001236	236.0
120.019577	148.0
120.045784	424.0
120.081291	3400.0
120.138641	156.0
120.17263	76.0
120.191002	80.0
120.228096	156.0
120.257851	120.0
120.286591	100.0
120.363441	40.0
120.434891	196.0
120.47702	152.0
120.51416	172.0
120.542381	144.0
120.575348	112.0
120.597641	160.0
120.645294	108.0
120.679649	168.0
120.710884	172.0
120.740685	220.0
120.780289	104.0
120.81739	180.0
120.831192	272.0
120.883705	96.0
120.899025	364.0
120.935638	148.0
120.954285	132.0
120.99752	140.0
121.014206	168.0
121.032211	280.0
121.056366	96.0
121.081757	372.0
121.125931	176.0
121.147362	220.0
121.222939	136.0
121.304222	48.0
121.361229	136.0
121.401047	176.0
121.458839	204.0
121.485825	168.0
121.514763	196.0
121.53347	160.0
121.563034	104.0
121.578392	128.0
121.611313	180.0
121.653023	248.0
121.685417	296.0
121.732895	116.0
121.765007	112.0
121.786972	160.0
121.819923	148.0
121.869377	172.0
121.91169	224.0
121.940834	140.0
121.969109	148.0
122.033661	164.0
122.062805	800.0
122.162857	164.0
122.183533	552.0
122.220062	128.0
122.24427	108.0
122.261871	116.0
122.312492	116.0
122.34111	204.0
122.382942	208.0
122.396721	156.0
122.415977	72.0
122.431389	148.0
122.45562	200.0
122.482048	148.0
122.497467	64.0
122.532623	192.0
122.592255	184.0
122.618073	152.0
122.651718	168.0
122.668526	192.0
122.698013	152.0
122.723465	176.0
122.786217	68.0
122.806061	140.0
122.949471	236.0
122.964699	156.0
123.048805	92.0
123.075554	140.0
123.097382	176.0
123.115051	132.0
123.162392	176.0
123.21003	128.0
123.238754	220.0
123.274109	64.0
123.401367	188.0
123.424423	100.0
123.484833	164.0
123.508461	220.0
123.550491	128.0
123.579254	116.0
123.614662	204.0
123.643425	116.0
123.678841	184.0
123.71769	320.0
123.76075	128.0
123.792519	128.0
123.822762	104.0
123.865326	164.0
123.909309	164.0
123.926872	124.0
123.954872	208.0
123.987503	144.0
124.017731	112.0
124.053284	180.0
124.076294	144.0
124.108414	164.0
124.16407	104.0
124.225708	172.0
124.25058	144.0
124.292732	52.0
124.317459	196.0
124.387634	200.0
124.401367	148.0
124.454514	224.0
124.510551	200.0
124.57473	152.0
124.625801	368.0
124.661354	180.0
124.685799	148.0
124.75248	164.0
124.78669	292.0
124.844627	208.0
124.883675	96.0
124.923058	172.0
124.939293	120.0
124.972298	196.0
124.997139	128.0
125.014938	168.0
125.030518	156.0
125.057228	168.0
125.092842	164.0
125.128464	152.0
125.153671	112.0
125.206398	76.0
125.252037	188.0
125.286591	164.0
125.33783	112.0
125.377945	60.0
125.396858	164.0
125.45089	160.0
125.525078	104.0
125.600723	148.0
125.609238	136.0
125.65567	160.0
125.668808	156.0
125.685684	192.0
125.748169	168.0
125.763794	60.0
125.87542	144.0
125.895515	64.0
125.917458	136.0
125.940186	156.0
125.997375	156.0
126.019104	248.0
126.051132	224.0
126.085411	404.0
126.18824	156.0
126.208366	184.0
126.235199	44.0
126.29142	116.0
126.362694	184.0
126.402969	144.0
126.461159	152.0
126.503685	192.0
126.539505	180.0
126.557419	164.0
126.613007	144.0
126.635803	280.0
126.653717	188.0
126.674477	164.0
126.708626	212.0
126.743202	136.0
126.792633	136.0
126.812393	152.0
126.835831	176.0
126.86837	152.0
126.922653	128.0
126.976189	188.0
127.021332	112.0
127.055611	1284.0
127.095367	168.0
127.116913	120.0
127.132423	176.0
127.180649	100.0
127.221054	136.0
127.263718	128.0
127.28273	196.0
127.315361	168.0
127.349052	144.0
127.400719	156.0
127.427673	152.0
127.445648	108.0
127.465874	176.0
127.495087	152.0
127.533295	84.0
127.551277	132.0
127.57151	148.0
127.602982	176.0
127.647552	180.0
127.672691	120.0
127.699677	104.0
127.717674	168.0
127.752289	196.0
127.795021	128.0
127.861671	120.0
127.911186	136.0
127.942703	100.0
127.960716	92.0
127.976479	544.0
127.994492	68.0
128.058426	1444.0
128.09584	176.0
128.174698	144.0
128.192719	60.0
128.226532	248.0
128.262589	164.0
128.321198	236.0
128.381027	180.0
128.442657	164.0
128.448502	140.0
128.485672	152.0
128.50972	172.0
128.528717	144.0
128.558044	148.0
128.577011	140.0
128.590469	88.0
128.659622	196.0
128.682205	164.0
128.704773	128.0
128.795898	160.0
128.827698	348.0
128.870865	212.0
128.917114	148.0
128.980408	124.0
129.007523	152.0
129.061554	3828.0
129.116058	164.0
129.139496	156.0
129.179398	168.0
129.215591	52.0
129.23143	68.0
129.300812	124.0
129.325623	276.0
129.346848	164.0
129.398911	52.0
129.41983	188.0
129.44194	156.0
129.481537	180.0
129.497314	160.0
129.550522	200.0
129.577957	164.0
129.616364	140.0
129.651825	160.0
129.70929	180.0
129.74556	140.0
129.765961	120.0
129.789978	176.0
129.834244	180.0
129.856659	80.0
129.876282	136.0
129.9245	172.0
129.958755	152.0
129.981216	160.0
130.024078	452.0
130.065994	38548.0
130.105164	176.0
130.138199	64.0
130.236282	112.0
130.258423	64.0
130.273926	276.0
130.292496	48.0
130.310684	28.0
130.342484	112.0
130.439682	128.0
130.468109	240.0
130.490234	188.0
130.51297	56.0
130.543991	188.0
130.579865	164.0
130.622131	212.0
130.640991	180.0
130.658539	120.0
130.675659	180.0
130.720169	304.0
130.76413	196.0
130.806458	216.0
130.861359	136.0
130.913467	116.0
130.954453	136.0
130.98259	260.0
130.999908	172.0
131.072906	19836.0
131.110718	192.0
131.131973	204.0
131.156845	248.0
131.202454	200.0
131.241608	88.0
131.280289	116.0
131.312302	148.0
131.33107	140.0
131.356995	92.0
131.378113	140.0
131.425613	172.0
131.503952	80.0
131.545822	100.0
131.603714	108.0
131.658096	224.0
131.691177	56.0
131.72702	184.0
131.762177	240.0
131.801727	192.0
131.828629	144.0
131.849014	144.0
131.883102	164.0
131.903595	108.0
131.942749	376.0
131.970612	172.0
132.045898	856.0
132.080658	19180.0
132.170883	148.0
132.179825	180.0
132.225433	244.0
132.267548	212.0
132.303848	196.0
132.356674	224.0
132.427658	160.0
132.445908	124.0
132.482254	48.0
132.505554	108.0
132.528458	64.0
132.560547	204.0
132.577347	168.0
132.61554	148.0
132.634216	140.0
132.652222	160.0
132.66684	128.0
132.681747	136.0
132.697739	144.0
132.753098	120.0
132.808823	148.0
132.837967	136.0
132.889328	164.0
132.932037	108.0
132.955673	160.0
132.988342	216.0
133.020325	120.0
133.052948	1564.0
133.085632	2216.0
133.147827	164.0
133.170807	76.0
133.198364	80.0
133.226822	196.0
133.255798	140.0
133.313248	72.0
133.33316	108.0
133.344528	180.0
133.358017	292.0
133.393692	44.0
133.425873	80.0
133.442673	156.0
133.50058	164.0
133.550049	52.0
133.581894	52.0
133.635223	168.0
133.745636	44.0
133.774551	240.0
133.872253	160.0
133.890686	72.0
133.913712	136.0
133.945435	148.0
133.982819	168.0
134.029266	128.0
134.060333	3080.0
134.086563	456.0
134.105453	200.0
134.156403	176.0
134.187943	148.0
134.223557	80.0
134.259415	76.0
134.341873	392.0
134.390915	148.0
134.423218	240.0
134.478607	52.0
134.49707	68.0
134.531693	144.0
134.547852	168.0
134.576691	164.0
134.60788	152.0
134.679413	284.0
134.686844	188.0
134.714127	112.0
134.734924	116.0
134.79007	244.0
134.822723	228.0
134.862015	188.0
134.878204	196.0
134.910568	140.0
134.926743	64.0
135.041443	488.0
135.065155	520.0
135.093323	336.0
135.134903	100.0
135.157089	204.0
135.193726	200.0
135.22052	32.0
135.243668	44.0
135.387512	200.0
135.434601	164.0
135.456696	36.0
135.472916	44.0
135.493317	188.0
135.512955	168.0
135.580139	200.0
135.701431	204.0
135.764969	152.0
135.811783	152.0
135.83223	212.0
135.859863	144.0
135.92038	136.0
135.952881	176.0
136.006256	124.0
136.052856	276.0
136.07518	116.0
136.169708	160.0
136.268188	132.0
136.297745	164.0
136.338379	188.0
136.377899	112.0
136.394165	188.0
136.423691	188.0
136.466232	164.0
136.485001	168.0
136.543503	160.0
136.658661	252.0
136.702164	172.0
136.726776	80.0
136.831512	220.0
136.855865	184.0
136.917145	180.0
136.933975	136.0
137.008514	160.0
137.042419	152.0
137.087738	144.0
137.213608	76.0
137.320877	188.0
137.347763	156.0
137.392136	356.0
137.41185	152.0
137.453857	160.0
137.495865	168.0
137.512192	184.0
137.661606	128.0
137.717667	100.0
137.741028	156.0
137.76796	128.0
137.774948	168.0
137.857849	48.0
137.887924	184.0
137.956009	224.0
137.998093	152.0
138.036926	92.0
138.133728	124.0
138.173508	100.0
138.201584	212.0
138.290512	48.0
138.309235	176.0
138.348602	132.0
138.419266	156.0
138.440353	140.0
138.484848	112.0
138.502991	144.0
138.562347	128.0
138.595596	216.0
138.630096	152.0
138.665253	108.0
138.684006	204.0
138.702759	192.0
138.719162	168.0
138.742554	164.0
138.776489	116.0
138.791153	176.0
138.808258	212.0
138.864822	136.0
138.923187	176.0
138.999725	232.0
139.051636	216.0
139.073029	192.0
139.100708	172.0
139.125015	176.0
139.185867	216.0
139.277649	164.0
139.294083	80.0
139.322281	172.0
139.34343	128.0
139.425674	144.0
139.460922	164.0
139.519684	260.0
139.540085	196.0
139.562012	100.0
139.587402	164.0
139.599899	180.0
139.61792	160.0
139.667404	128.0
139.8396	168.0
139.856079	144.0
139.893738	236.0
139.945541	180.0
139.98114	168.0
140.029678	176.0
140.05452	512.0
140.12532	48.0
140.145752	100.0
140.181091	136.0
140.233704	148.0
140.256516	184.0
140.29187	152.0
140.31308	72.0
140.34845	68.0
140.386185	160.0
140.41449	60.0
140.476761	160.0
140.506485	252.0
140.543304	132.0
140.591431	48.0
140.61731	136.0
140.759033	92.0
140.790009	148.0
140.836975	108.0
140.852203	80.0
140.957458	64.0
140.976959	112.0
141.012344	268.0
141.058441	308.0
141.113464	164.0
141.1371	120.0
141.271912	120.0
141.335022	184.0
141.364197	108.0
141.383133	68.0
141.402054	156.0
141.444656	164.0
141.50621	144.0
141.542389	216.0
141.56778	200.0
141.59343	168.0
141.625687	184.0
141.6548	200.0
141.688583	148.0
141.714691	224.0
141.745453	124.0
141.767273	344.0
141.783371	152.0
141.809433	96.0
141.893051	116.0
141.913177	136.0
142.065765	4624.0
142.120453	184.0
142.205536	108.0
142.235718	100.0
142.282593	172.0
142.305069	120.0
142.318359	236.0
142.36087	224.0
142.371323	96.0
142.375381	208.0
142.434494	176.0
142.507126	188.0
142.523758	316.0
142.552261	196.0
142.576035	104.0
142.592667	320.0
142.611679	124.0
142.6521	180.0
142.690125	208.0
142.716278	144.0
142.749374	140.0
142.799515	296.0
142.839951	148.0
142.897049	72.0
142.913712	60.0
142.980148	200.0
143.029541	160.0
143.072693	7412.0
143.126953	68.0
143.180313	116.0
143.213669	152.0
143.242249	212.0
143.266068	80.0
143.304184	52.0
143.332779	112.0
143.349457	216.0
143.372177	160.0
143.405579	124.0
143.470291	156.0
143.504395	240.0
143.532257	104.0
143.566391	184.0
143.592636	40.0
143.618866	132.0
143.64856	224.0
143.678513	60.0
143.735764	176.0
143.775177	256.0
143.795425	124.0
143.822617	216.0
143.865982	396.0
143.895691	164.0
143.917175	100.0
143.953705	200.0
143.983124	332.0
144.081345	66508.0
144.12352	228.0
144.151871	132.0
144.221344	132.0
144.267075	292.0
144.297348	220.0
144.316208	52.0
144.360062	164.0
144.407074	196.0
144.441528	236.0
144.474838	296.0
144.503952	64.0
144.529587	152.0
144.54483	76.0
144.600876	120.0
144.635071	208.0
144.662704	176.0
144.738342	180.0
144.755768	112.0
144.786133	168.0
144.823486	180.0
144.848694	112.0
144.875793	172.0
144.884872	140.0
144.913071	140.0
144.9384	72.0
144.963577	128.0
144.993683	180.0
145.022049	52.0
145.088959	52960.0
145.164047	284.0
145.182098	140.0
145.225708	92.0
145.254211	132.0
145.270065	188.0
145.326981	112.0
145.349701	248.0
145.375885	116.0
145.39537	76.0
145.418045	80.0
145.454697	92.0
145.479599	232.0
145.512894	184.0
145.531387	304.0
145.591782	256.0
145.606613	140.0
145.645142	68.0
145.662354	200.0
145.714523	208.0
145.743134	212.0
145.770401	184.0
145.810852	168.0
145.8405	168.0
145.868118	100.0
145.890259	232.0
145.914597	232.0
145.937408	180.0
145.957031	88.0
145.974579	276.0
145.997849	232.0
146.016418	84.0
146.052414	3520.0
146.097214	75836.0
146.145111	204.0
146.178818	276.0
146.214508	24.0
146.256393	136.0
146.278549	128.0
146.287109	100.0
146.315491	120.0
146.369522	208.0
146.386017	124.0
146.416336	164.0
146.463226	116.0
146.494003	324.0
146.523071	56.0
146.552567	128.0
146.619476	164.0
146.653931	200.0
146.679688	136.0
146.733398	176.0
146.753296	80.0
146.777863	172.0
146.808868	180.0
146.844238	112.0
146.863022	56.0
146.884827	392.0
146.940033	164.0
146.982697	108.0
147.002228	52.0
147.02742	264.0
147.062973	2772.0
147.098907	8240.0
147.138687	180.0
147.203186	360.0
147.232605	88.0
147.257019	76.0
147.289825	176.0
147.323593	160.0
147.392456	100.0
147.426971	196.0
147.458191	180.0
147.476959	204.0
147.496857	244.0
147.531891	292.0
147.553299	120.0
147.584946	204.0
147.635529	68.0
147.669495	152.0
147.695145	76.0
147.748154	172.0
147.799164	128.0
147.846512	152.0
147.884171	200.0
147.917526	128.0
147.941971	344.0
147.95784	208.0
147.967926	100.0
147.979706	216.0
147.990387	148.0
148.020844	104.0
148.037979	180.0
148.074982	7644.0
148.157379	204.0
148.16037	124.0
148.223434	188.0
148.248108	132.0
148.267029	60.0
148.286621	360.0
148.303787	184.0
148.326874	144.0
148.353317	140.0
148.437225	88.0
148.479889	128.0
148.50415	48.0
148.541824	112.0
148.58905	388.0
148.610886	160.0
148.639999	120.0
148.683685	180.0
148.733658	68.0
148.742828	108.0
148.771072	44.0
148.807007	204.0
148.892471	84.0
148.912704	180.0
148.981201	76.0
149.021454	40.0
149.07193	356.0
149.097351	252.0
149.122513	88.0
149.142593	152.0
149.179184	216.0
149.21431	196.0
149.279526	164.0
149.311859	128.0
149.419952	212.0
149.449722	136.0
149.483215	44.0
149.512421	56.0
149.563538	92.0
149.617081	64.0
149.695007	172.0
149.729095	376.0
149.843582	92.0
149.86795	132.0
149.915024	144.0
149.950806	144.0
150.016617	164.0
150.038559	288.0
150.057999	144.0
150.077057	188.0
150.133652	216.0
150.20195	84.0
150.271408	76.0
150.301483	200.0
150.338577	44.0
150.355667	124.0
150.44841	180.0
150.477707	44.0
150.521667	120.0
150.61203	124.0
150.658447	140.0
150.687759	56.0
150.712189	124.0
150.74884	48.0
150.809952	76.0
150.846146	168.0
150.888168	172.0
150.90773	116.0
150.983093	244.0
151.052643	188.0
151.067078	208.0
151.237991	28.0
151.264908	344.0
151.385971	120.0
151.480316	236.0
151.526947	124.0
151.659805	248.0
151.681931	180.0
151.727921	144.0
151.809128	200.0
151.877518	164.0
151.99057	140.0
152.046799	196.0
152.086075	144.0
152.135178	56.0
152.249481	144.0
152.280045	208.0
152.338196	184.0
152.368484	184.0
152.427444	104.0
152.465088	88.0
152.572464	192.0
152.648682	200.0
152.680649	168.0
152.707703	164.0
152.744598	68.0
152.820877	140.0
152.976501	188.0
153.02269	132.0
153.04599	148.0
153.10202	168.0
153.177841	136.0
153.225784	184.0
153.25914	136.0
153.34787	176.0
153.438522	180.0
153.459747	208.0
153.570419	124.0
153.593491	168.0
153.649857	200.0
153.707916	136.0
153.735062	204.0
153.811584	160.0
153.833801	168.0
153.865891	112.0
153.953003	100.0
153.960281	176.0
154.001709	176.0
154.031342	124.0
154.06076	172.0
154.065231	156.0
154.127701	148.0
154.159821	152.0
154.271057	200.0
154.454041	56.0
154.473938	176.0
154.501038	92.0
154.600235	220.0
154.706451	112.0
154.726257	164.0
154.820343	84.0
154.902084	112.0
154.959061	256.0
155.060364	1180.0
155.226761	168.0
155.261475	44.0
155.37381	140.0
155.400391	140.0
155.490189	128.0
155.521988	180.0
155.559235	216.0
155.593979	80.0
155.633377	152.0
155.735535	164.0
155.785202	116.0
155.802597	116.0
155.897018	148.0
155.951691	108.0
156.01384	140.0
156.040268	108.0
156.078781	2460.0
156.115143	172.0
156.125107	128.0
156.205322	344.0
156.236343	64.0
156.257568	64.0
156.294144	104.0
156.309814	140.0
156.347153	100.0
156.367065	108.0
156.388046	120.0
156.426804	232.0
156.454178	164.0
156.50647	152.0
156.55246	160.0
156.648422	216.0
156.717346	216.0
156.795441	136.0
156.852768	36.0
156.897629	104.0
156.937454	152.0
156.993958	108.0
157.001923	68.0
157.008804	164.0
157.078583	2880.0
157.142044	180.0
157.26683	88.0
157.398422	84.0
157.481552	200.0
157.51152	112.0
157.537704	200.0
157.568985	140.0
157.643951	120.0
157.748917	212.0
157.767426	148.0
157.883942	96.0
157.923965	180.0
158.000351	156.0
158.060867	3204.0
158.084274	4312.0
158.149475	156.0
158.194199	136.0
158.244278	96.0
158.274323	96.0
158.331924	124.0
158.354858	252.0
158.449646	140.0
158.50592	96.0
158.549881	84.0
158.610031	160.0
158.637527	324.0
158.679108	116.0
158.735397	64.0
158.762558	168.0
158.767639	140.0
158.78569	208.0
158.853012	316.0
158.894012	84.0
158.924515	200.0
158.946106	144.0
158.965591	156.0
159.007126	172.0
159.058319	4180.0
159.092133	35276.0
159.168427	28.0
159.187149	152.0
159.217224	52.0
159.243652	76.0
159.263596	64.0
159.285034	60.0
159.308441	220.0
159.360397	148.0
159.381561	72.0
159.399307	224.0
159.417557	212.0
159.438843	92.0
159.491806	124.0
159.520462	64.0
159.550552	104.0
159.64122	180.0
159.668137	96.0
159.688965	120.0
159.712357	140.0
159.735001	56.0
159.757004	112.0
159.800354	212.0
159.918686	136.0
159.959076	164.0
159.977921	152.0
159.995514	252.0
160.021088	140.0
160.075836	12936.0
160.097565	10868.0
160.190262	56.0
160.226379	228.0
160.257385	144.0
160.278091	84.0
160.337982	124.0
160.368271	96.0
160.404816	52.0
160.427505	36.0
160.52713	112.0
160.551056	40.0
160.581329	124.0
160.601501	72.0
160.646912	60.0
160.669617	56.0
160.725128	212.0
160.778122	96.0
160.804611	128.0
160.834641	132.0
160.856354	120.0
160.906296	252.0
160.943848	100.0
160.972504	112.0
160.994019	52.0
161.047577	2184.0
161.072662	9140.0
161.131912	36.0
161.17749	80.0
161.193558	204.0
161.213089	100.0
161.24913	56.0
161.302444	92.0
161.3358	112.0
161.341904	180.0
161.359787	116.0
161.386429	220.0
161.429886	144.0
161.450119	292.0
161.468536	128.0
161.500702	52.0
161.526001	80.0
161.550461	212.0
161.579254	156.0
161.632263	336.0
161.664581	124.0
161.768936	40.0
161.814499	44.0
161.898056	160.0
161.944839	68.0
162.001175	180.0
162.055084	1048.0
162.091095	4400.0
162.160156	116.0
162.224915	40.0
162.274231	196.0
162.311218	112.0
162.333939	284.0
162.350082	144.0
162.383102	84.0
162.440475	136.0
162.496277	40.0
162.529266	196.0
162.574936	80.0
162.609528	140.0
162.648544	232.0
162.668854	44.0
162.722168	212.0
162.745026	96.0
162.799576	328.0
162.823318	140.0
162.859299	36.0
162.919495	160.0
162.963455	192.0
163.050079	5800.0
163.090881	752.0
163.235428	196.0
163.268936	92.0
163.321899	100.0
163.356064	48.0
163.391434	120.0
163.525452	120.0
163.629822	180.0
163.655289	116.0
163.738602	228.0
163.852005	68.0
163.920197	172.0
163.94313	60.0
163.963516	108.0
163.981369	60.0
164.057526	660.0
164.093613	168.0
164.145279	176.0
164.185318	164.0
164.206268	224.0
164.261032	76.0
164.289902	336.0
164.310318	176.0
164.463425	244.0
164.636429	84.0
164.662064	80.0
164.669128	64.0
164.676498	116.0
165.052231	148.0
165.108673	176.0
165.130295	64.0
165.199356	164.0
165.232742	156.0
165.295914	108.0
165.303116	80.0
165.317551	188.0
165.409195	148.0
165.434799	104.0
165.462952	152.0
165.619171	56.0
165.652466	44.0
165.685776	148.0
165.760071	172.0
165.788269	228.0
165.918686	200.0
166.065231	320.0
166.102554	76.0
166.183167	180.0
166.319168	228.0
166.411591	116.0
166.468079	168.0
166.516876	40.0
166.606781	136.0
166.632477	208.0
166.706985	156.0
166.766098	236.0
166.797745	192.0
166.83551	40.0
166.902359	72.0
166.966644	132.0
167.007797	208.0
167.028366	200.0
167.077255	60.0
167.154434	160.0
167.198181	68.0
167.227585	180.0
167.319168	124.0
167.487656	140.0
167.538071	108.0
167.599915	160.0
167.692688	92.0
167.767441	172.0
167.873154	136.0
167.906677	136.0
167.932465	40.0
167.955811	84.0
168.056305	284.0
168.074356	232.0
168.131134	96.0
168.175903	184.0
168.258514	172.0
168.409973	60.0
168.438385	104.0
168.490051	228.0
168.576614	128.0
168.771774	144.0
168.82608	168.0
168.981277	180.0
169.040787	136.0
169.080582	160.0
169.165024	160.0
169.289307	52.0
169.447311	140.0
169.473221	128.0
169.561325	84.0
169.595032	128.0
169.628723	212.0
169.646866	180.0
169.693527	44.0
169.776505	184.0
169.81282	216.0
169.908798	136.0
170.060013	540.0
170.27095	136.0
170.326752	168.0
170.357925	116.0
170.438461	148.0
170.529419	136.0
170.591812	140.0
170.945541	164.0
170.968964	104.0
171.013199	88.0
171.054779	1028.0
171.114731	120.0
171.151184	284.0
171.169403	144.0
171.190231	64.0
171.242325	224.0
171.317871	76.0
171.338715	200.0
171.391327	164.0
171.459045	152.0
171.500275	120.0
171.625412	152.0
171.727112	140.0
171.771454	120.0
171.81842	144.0
172.036026	184.0
172.074173	2292.0
172.112061	136.0
172.147293	48.0
172.181244	224.0
172.300232	152.0
172.356277	72.0
172.392853	96.0
172.526154	224.0
172.579056	172.0
172.609833	156.0
172.685669	180.0
172.766754	172.0
172.821701	72.0
172.923767	92.0
172.965637	140.0
173.075073	5336.0
173.178375	196.0
173.205856	200.0
173.237976	48.0
173.265778	92.0
173.292999	140.0
173.345398	124.0
173.399017	140.0
173.421402	152.0
173.455475	152.0
173.499832	100.0
173.521027	220.0
173.543045	336.0
173.576797	176.0
173.610825	272.0
173.638046	172.0
173.654755	276.0
173.696732	92.0
173.725525	168.0
173.770187	328.0
173.793167	200.0
173.822662	108.0
173.843658	196.0
173.884384	344.0
173.909943	140.0
173.969147	592.0
173.999039	144.0
174.09198	138356.0
174.190033	108.0
174.241455	248.0
174.253799	184.0
174.282013	104.0
174.310944	56.0
174.330231	56.0
174.365036	172.0
174.416962	56.0
174.426224	184.0
174.43306	244.0
174.472549	92.0
174.49382	100.0
174.524841	532.0
174.546936	144.0
174.556793	324.0
174.576584	32.0
174.633301	128.0
174.687057	164.0
174.710907	120.0
174.752823	52.0
174.780319	76.0
174.810394	152.0
174.840393	204.0
174.868988	172.0
174.90213	196.0
174.912842	100.0
174.919037	140.0
174.958054	164.0
174.991104	200.0
175.011017	240.0
175.064316	3224.0
175.09227	22300.0
175.154373	76.0
175.18013	92.0
175.203033	96.0
175.228409	168.0
175.253235	156.0
175.274185	136.0
175.307816	120.0
175.339035	92.0
175.401657	152.0
175.431473	144.0
175.465927	64.0
175.485123	76.0
175.508591	156.0
175.531631	72.0
175.593933	112.0
175.626617	88.0
175.642441	76.0
175.685486	28.0
175.724014	172.0
175.770447	40.0
175.833054	140.0
175.872833	88.0
175.893951	116.0
175.922989	192.0
175.944107	32.0
176.000412	160.0
176.030441	92.0
176.069534	4684.0
176.094696	19652.0
176.135345	148.0
176.165558	136.0
176.192368	144.0
176.213501	88.0
176.250916	124.0
176.279495	112.0
176.303284	180.0
176.339172	140.0
176.371536	160.0
176.393631	152.0
176.422287	168.0
176.461288	48.0
176.505173	216.0
176.536835	108.0
176.562164	40.0
176.590271	160.0
176.626999	184.0
176.645462	168.0
176.671616	268.0
176.701172	80.0
176.717102	68.0
176.740372	136.0
176.793274	172.0
176.879669	144.0
176.911697	132.0
176.930237	48.0
176.948761	160.0
176.98111	124.0
177.014969	184.0
177.079361	31676.0
177.162354	80.0
177.196793	80.0
177.220306	100.0
177.267792	100.0
177.307693	96.0
177.33287	112.0
177.37915	200.0
177.408295	80.0
177.444214	148.0
177.477478	84.0
177.510422	128.0
177.571503	120.0
177.592712	112.0
177.611282	80.0
177.637802	48.0
177.680252	48.0
177.722275	124.0
177.761246	116.0
177.818237	152.0
177.842453	148.0
177.929733	100.0
177.969559	76.0
178.005096	176.0
178.035095	100.0
178.081329	4380.0
178.110855	124.0
178.179382	136.0
178.208603	68.0
178.269714	48.0
178.35965	96.0
178.461105	44.0
178.485046	48.0
178.531952	144.0
178.539993	132.0
178.549927	220.0
178.5728	76.0
178.618011	124.0
178.651718	156.0
178.679199	48.0
178.860168	56.0
178.913406	36.0
178.940033	96.0
178.974075	208.0
179.043884	56.0
179.081329	376.0
179.206375	52.0
179.241013	52.0
179.342285	128.0
179.367172	200.0
179.435318	80.0
179.575577	56.0
179.675613	72.0
179.779678	60.0
179.931625	52.0
179.946152	76.0
179.985229	76.0
180.025284	76.0
180.076019	148.0
180.140137	40.0
180.230972	60.0
180.33786	136.0
180.41272	100.0
180.516983	172.0
180.559784	68.0
180.60257	88.0
180.640015	152.0
180.792526	68.0
180.926361	44.0
180.98259	120.0
181.028107	160.0
181.06163	132.0
181.092514	196.0
181.153992	84.0
181.253128	84.0
181.336212	80.0
181.405899	220.0
181.515823	96.0
181.612366	68.0
181.63652	104.0
181.663345	84.0
181.695526	72.0
181.861908	52.0
182.219711	116.0
182.442139	112.0
182.488571	132.0
182.538925	96.0
182.654572	188.0
182.785095	140.0
182.864456	124.0
182.912903	116.0
182.953278	144.0
182.980209	68.0
183.036743	204.0
183.087906	48.0
183.201035	52.0
183.271088	60.0
183.319595	152.0
183.370804	76.0
183.435486	148.0
183.551422	104.0
183.909653	224.0
183.96962	104.0
184.023621	88.0
184.137833	108.0
184.285614	92.0
184.420731	220.0
184.525436	120.0
184.858856	100.0
184.968994	168.0
185.00502	48.0
185.037506	140.0
185.070755	2708.0
185.12616	172.0
185.214951	100.0
185.300217	76.0
185.449265	60.0
185.563126	204.0
185.584808	52.0
185.736679	72.0
185.785507	140.0
185.824905	108.0
185.899475	72.0
185.970032	104.0
186.048752	148.0
186.07634	1548.0
186.195389	112.0
186.277512	168.0
186.339355	56.0
186.483383	136.0
186.687286	64.0
186.766159	96.0
186.827072	192.0
186.986542	56.0
187.010345	172.0
187.048996	1224.0
187.087112	47408.0
187.160385	56.0
187.177933	80.0
187.205017	128.0
187.345978	48.0
187.388428	152.0
187.415421	112.0
187.443146	72.0
187.459869	144.0
187.507996	96.0
187.532852	96.0
187.560455	68.0
187.594116	72.0
187.632126	48.0
187.651215	64.0
187.675751	72.0
187.694839	76.0
187.753738	84.0
187.812119	36.0
187.887619	76.0
187.924301	64.0
188.01947	104.0
188.089676	5228.0
188.131378	68.0
188.179947	56.0
188.243332	396.0
188.366226	52.0
188.390396	52.0
188.415833	52.0
188.450928	72.0
188.535629	56.0
188.593033	120.0
188.642365	168.0
188.685974	48.0
188.75853	52.0
188.77507	212.0
188.828171	60.0
188.847321	32.0
188.892807	172.0
189.005981	96.0
189.069611	580.0
189.175674	68.0
189.222214	72.0
189.244125	168.0
189.265488	148.0
189.321884	100.0
189.365906	160.0
189.416656	64.0
189.452271	40.0
189.49202	92.0
189.512543	112.0
189.577164	172.0
189.62236	52.0
189.704758	88.0
189.803619	104.0
189.830505	80.0
189.888107	100.0
189.923752	88.0
189.991791	80.0
190.018829	116.0
190.086502	6048.0
190.179581	132.0
190.256973	56.0
190.324432	76.0
190.36145	176.0
190.417816	56.0
190.439789	76.0
190.486481	280.0
190.539001	136.0
190.637375	52.0
190.698502	124.0
190.722794	88.0
190.754654	68.0
190.997757	72.0
191.03627	232.0
191.081589	10876.0
191.135315	220.0
191.16008	100.0
191.184021	40.0
191.212372	136.0
191.245407	48.0
191.306732	72.0
191.345474	136.0
191.380295	64.0
191.468414	60.0
191.487701	36.0
191.523499	40.0
191.680542	100.0
191.710846	120.0
191.768723	148.0
191.832123	52.0
191.89003	84.0
192.085541	1160.0
192.135483	44.0
192.232056	92.0
192.254135	36.0
192.350739	96.0
192.441833	172.0
192.625122	152.0
192.69191	140.0
192.765015	80.0
192.798187	60.0
192.867279	112.0
192.905975	148.0
192.925323	48.0
192.944687	68.0
192.994446	144.0
193.060623	1908.0
193.089798	424.0
193.152084	104.0
193.268829	100.0
193.398346	96.0
193.423264	72.0
193.570007	88.0
193.644775	152.0
193.758347	52.0
193.852554	68.0
193.894684	60.0
193.996689	44.0
194.073135	384.0
194.093719	180.0
194.387756	180.0
194.576508	28.0
194.609818	80.0
194.718124	76.0
195.10437	136.0
195.218369	32.0
195.563354	140.0
195.635727	152.0
195.669128	88.0
195.694183	224.0
195.909775	196.0
196.051315	176.0
196.561066	52.0
196.644791	40.0
197.248108	80.0
197.27887	72.0
197.614471	108.0
197.869171	108.0
198.328583	68.0
198.513626	84.0
199.094543	84.0
199.159134	140.0
199.187225	48.0
199.206894	116.0
199.249023	240.0
199.836639	232.0
199.946381	96.0
200.00267	160.0
200.089951	104.0
200.247635	148.0
200.622406	132.0
200.938278	112.0
201.057236	204.0
201.077896	112.0
201.103302	196.0
201.404068	76.0
201.457733	32.0
201.548157	124.0
201.66684	120.0
201.924133	68.0
202.045761	320.0
202.072128	356.0
202.119339	164.0
202.277817	140.0
202.331604	208.0
202.708328	72.0
203.082779	1640.0
203.109909	124.0
203.258438	48.0
203.30101	60.0
203.352097	68.0
203.539978	120.0
203.778061	168.0
203.810364	136.0
203.860458	128.0
204.013947	100.0
204.036697	84.0
204.089584	8636.0
204.170868	64.0
204.23291	48.0
204.267044	96.0
204.338165	84.0
204.369827	92.0
204.560135	112.0
204.916138	76.0
204.973114	44.0
205.062302	1984.0
205.093018	928.0
205.135574	88.0
205.18689	52.0
205.258163	48.0
205.343719	72.0
205.740356	204.0
205.837433	104.0
205.931686	72.0
206.07254	168.0
206.094925	168.0
206.397507	108.0
206.431824	96.0
206.537643	148.0
206.590332	152.0
207.051285	200.0
207.077942	184.0
207.431046	52.0
207.479782	36.0
207.508453	64.0
207.620285	52.0
207.755096	148.0
207.918655	72.0
208.065048	116.0
208.122467	136.0
208.19426	196.0
208.763275	116.0
209.082596	108.0
209.279175	84.0
209.796951	84.0
210.18631	44.0
210.399902	68.0
211.015289	168.0
211.663422	64.0
211.996552	64.0
212.089294	96.0
213.450912	144.0
213.564331	92.0
213.782532	192.0
214.091125	172.0
214.280457	96.0
214.309586	104.0
214.478622	144.0
215.175842	116.0
215.386093	64.0
215.675385	144.0
215.903427	64.0
216.032135	52.0
216.286713	188.0
216.447739	216.0
216.623459	204.0
216.682053	180.0
216.863739	52.0
216.986862	156.0
217.089493	44.0
217.324158	128.0
217.705765	72.0
218.087708	164.0
218.620041	164.0
218.65535	144.0
218.796646	44.0
218.935043	84.0
219.076416	164.0
219.144989	132.0
219.723419	252.0
219.763367	136.0
219.848938	220.0
219.928619	120.0
220.023087	136.0
220.084564	156.0
220.1091	992.0
220.215027	72.0
220.241608	104.0
220.306595	152.0
220.350922	168.0
220.380463	140.0
220.530807	128.0
220.567825	180.0
220.605072	136.0
220.645126	124.0
220.75882	84.0
220.807404	132.0
220.863815	192.0
220.884659	144.0
220.910034	164.0
220.952759	332.0
220.998428	320.0
221.022385	164.0
221.047516	416.0
221.092987	61496.0
221.200409	32.0
221.267639	60.0
221.305664	60.0
221.365479	108.0
221.394424	72.0
221.424698	112.0
221.44426	80.0
221.46225	148.0
221.512482	44.0
221.573166	36.0
221.645996	40.0
221.706161	52.0
221.742432	84.0
221.842499	48.0
221.872589	80.0
221.904755	60.0
221.940475	84.0
222.002609	76.0
222.035233	60.0
222.095154	5628.0
222.128021	112.0
222.177612	100.0
222.255188	80.0
222.284424	84.0
222.311142	84.0
222.352676	132.0
222.373459	92.0
222.407043	64.0
222.480316	72.0
222.546509	48.0
222.622849	40.0
222.655518	172.0
222.71286	52.0
222.807007	108.0
222.839676	60.0
222.976379	60.0
223.036179	100.0
223.062576	64.0
223.095596	1016.0
223.177658	96.0
223.235016	80.0
223.27771	112.0
223.302597	116.0
223.413483	84.0
223.462006	52.0
223.535477	136.0
223.563873	96.0
223.651535	76.0
223.696198	92.0
223.722488	120.0
223.730133	80.0
223.741699	140.0
223.770615	40.0
223.791458	104.0
223.97908	116.0
224.0625	60.0
224.300903	80.0
224.533463	36.0
224.748245	48.0
225.17215	60.0
226.101959	96.0
226.455246	64.0
226.724884	44.0
227.76001	48.0
228.457413	68.0
228.526611	140.0
228.824585	68.0
230.870438	44.0
231.003525	52.0
231.275864	92.0
231.387863	124.0
231.56955	28.0
232.287933	56.0
232.354675	224.0
232.463898	68.0
232.53067	56.0
232.78569	44.0
232.891983	180.0
233.198868	120.0
233.344772	32.0
234.071991	120.0
234.89183	84.0
235.102798	224.0
236.067719	32.0
236.673599	72.0
238.951035	100.0
239.09874	300.0
239.471283	116.0
239.656113	76.0
240.096924	132.0
242.344254	44.0
243.53241	56.0
243.759201	72.0
243.818253	40.0
244.098038	88.0
245.929916	72.0
246.162842	152.0
246.498322	100.0
247.467987	76.0
248.941757	40.0
250.486038	144.0
250.64357	36.0
250.75386	56.0
250.908325	100.0
251.873978	68.0
254.769379	80.0
256.730072	144.0
257.253357	64.0
257.511993	88.0
257.697296	96.0
259.284485	84.0
260.564819	84.0
261.201324	36.0
261.938477	52.0
262.447693	44.0
262.818634	188.0
263.124847	164.0
263.454651	44.0
264.169098	32.0
265.101593	84.0
266.56839	88.0
268.909973	80.0
269.416107	36.0
270.904602	96.0
271.012726	96.0
273.202606	48.0
273.884033	120.0
274.67511	168.0
275.176758	40.0
276.211151	84.0
277.045349	84.0
278.285736	160.0
279.12973	116.0
280.163361	280.0
280.244812	64.0
280.521423	96.0
280.878235	60.0
280.978302	40.0
281.168518	188.0
281.291992	76.0
282.180664	208.0
282.399231	84.0
282.682373	36.0
283.241516	44.0
283.301819	44.0
284.36142	56.0
284.996094	64.0
285.887207	140.0
286.042053	76.0
288.143036	52.0
288.207214	60.0
290.930298	60.0
292.245575	116.0
294.563873	92.0
296.689026	64.0
297.021667	72.0
298.491608	56.0
299.679108	44.0
300.541107	28.0
300.810303	100.0
301.432007	96.0
301.532227	76.0
302.248077	48.0
303.51239	92.0
304.647308	76.0
304.897491	84.0
305.972321	88.0
306.313599	40.0
307.47818	48.0
308.026367	96.0
309.061218	56.0
310.665863	152.0
311.115051	48.0
312.79892	48.0
313.824127	64.0
317.409576	36.0
318.758453	96.0
318.84021	72.0
319.398407	76.0
319.885925	84.0
320.053253	60.0
320.559082	88.0
320.822845	176.0
322.157532	100.0
323.477081	36.0
323.964111	64.0
328.197937	52.0
330.99472	56.0
332.582642	84.0
333.130951	64.0
334.742188	80.0
338.386292	92.0
339.338898	104.0
341.237091	68.0
341.910248	108.0
344.133057	128.0
348.823303	104.0
349.303009	124.0
353.137512	84.0
354.713898	48.0
355.95575	52.0
359.015228	28.0
359.573578	88.0
361.077271	28.0
361.731842	92.0
361.864349	56.0
363.425934	72.0
366.936523	100.0
368.046844	136.0
369.097626	52.0
370.184387	80.0
370.525299	48.0
374.801697	60.0
376.514496	52.0
376.781006	52.0
379.455353	68.0
380.518433	76.0
380.902893	104.0
385.144867	72.0
386.994629	56.0
388.287811	96.0
389.206085	40.0
389.991455	88.0
390.683899	116.0
392.69281	48.0
393.896698	52.0
395.011444	96.0
395.84259	64.0
397.102844	36.0
397.261536	108.0
397.56308	40.0
400.294128	84.0
400.640656	76.0
401.166687	100.0
402.076111	80.0
402.894684	40.0
404.018066	36.0
409.187317	88.0
410.154144	80.0
410.307343	84.0
410.541199	112.0
411.009125	40.0
411.3078	136.0
413.458038	56.0
413.668518	92.0
414.032928	80.0
414.571716	76.0
418.638245	88.0
420.754456	76.0
420.979034	92.0
421.322144	60.0
421.702148	40.0
427.962341	56.0
431.920105	80.0
432.044189	68.0
433.037659	40.0
436.349121	64.0
438.18457	68.0
444.045227	84.0
448.649658	52.0
449.202118	84.0
450.751587	84.0
454.749451	76.0
455.314117	40.0
457.699799	84.0
470.028046	84.0
470.468292	52.0
474.105988	68.0
474.56546	60.0
478.902496	116.0
479.590942	108.0
479.939697	104.0
481.886383	68.0
486.954773	60.0
488.110565	88.0
492.60614	96.0
499.143494	48.0
502.863403	48.0
504.62793	88.0
504.963318	52.0
506.664307	36.0
507.529358	36.0
508.368195	124.0
512.185303	56.0
513.009949	72.0
517.903809	52.0
517.998901	104.0
522.434082	140.0
525.513977	48.0
525.564148	28.0
534.053162	56.0
536.977905	40.0
541.266541	48.0
544.847229	44.0
546.576843	132.0
551.796143	40.0
559.123291	56.0
560.715149	100.0
566.948792	116.0
570.033447	76.0
571.835876	112.0
574.54248	160.0
577.700256	76.0
582.172241	40.0
586.242065	232.0
586.42041	56.0
586.979614	80.0
589.190247	88.0
591.10498	60.0
592.499451	104.0
599.822937	112.0
606.956055	44.0
607.799744	88.0
624.274414	76.0
628.668274	56.0
630.161316	44.0
631.596069	108.0
632.807129	68.0
633.202698	72.0
637.673096	112.0
641.377625	48.0
644.279236	68.0
648.585632	84.0
656.639587	60.0
657.736572	68.0
662.359131	100.0
670.848389	68.0
671.709595	196.0
671.874634	140.0
673.397461	88.0
674.978821	36.0
678.178284	76.0
680.029968	196.0
683.392212	44.0
683.90741	44.0
694.792542	68.0
706.096741	72.0
710.387146	84.0
715.281372	64.0
719.092468	76.0
719.70636	44.0
720.074829	104.0
721.250305	252.0
723.481018	152.0
723.539917	96.0
725.125488	136.0
729.381897	56.0
729.634583	88.0
730.231445	72.0
731.248291	84.0
735.117859	104.0
740.220886	116.0
743.294434	192.0
743.560364	40.0
743.767639	84.0
746.804016	76.0
748.26239	228.0
750.054688	152.0
751.761841	96.0
753.90802	48.0
754.13208	208.0
758.582336	208.0
760.721741	108.0
764.244629	112.0
765.730957	188.0
766.910095	56.0
768.868042	104.0
771.502808	76.0
778.689758	88.0
781.591675	208.0
782.888672	140.0
785.285217	92.0
786.077393	140.0
787.864136	216.0
789.910156	80.0
796.069824	144.0
796.676453	104.0
798.688904	176.0
801.672913	156.0
802.044861	132.0
802.715759	140.0
802.941345	244.0
806.208496	108.0
808.885437	148.0
809.428955	64.0
809.689514	20.0
816.437439	168.0
816.528381	116.0
818.702454	56.0
819.032776	44.0
819.659485	80.0
821.643677	124.0
822.174316	128.0
822.248535	60.0
823.653137	100.0
831.267822	44.0
832.898315	48.0
838.064514	168.0
845.28241	192.0
846.382202	92.0
847.395813	84.0
847.662354	176.0
849.140686	180.0
849.320496	136.0
849.395935	152.0
850.823486	148.0
853.129883	48.0
853.746216	76.0
854.781677	72.0
858.649963	120.0
858.702454	76.0
860.797546	144.0
864.07666	140.0
864.369202	172.0
865.452087	96.0
866.014282	184.0
866.078735	136.0
866.846191	220.0
868.001038	168.0
869.279785	232.0
870.735718	184.0
871.793213	136.0
872.181152	180.0
873.492432	64.0
875.152039	132.0
876.271118	204.0
876.636475	152.0
877.37915	184.0
879.668091	124.0
880.654175	168.0
881.351318	40.0
881.434021	64.0
883.438354	136.0
883.544861	36.0
883.947205	220.0
884.243103	140.0
884.450256	140.0
885.054138	200.0
887.946045	60.0
889.019836	160.0
889.096985	188.0
895.410889	204.0
895.488281	108.0
895.875488	148.0
897.842468	220.0
898.289856	132.0
898.874512	188.0
899.429565	136.0
902.117676	180.0
904.414734	44.0
904.737976	156.0
904.86969	144.0
906.732666	188.0
909.839844	144.0
911.551636	124.0
915.088501	104.0
916.353333	176.0
916.570251	168.0
918.071289	64.0
919.670105	140.0
920.358337	252.0
920.636108	200.0
923.0896	180.0
927.14563	184.0
927.369873	192.0
927.654785	124.0
928.7948	124.0
929.704895	96.0
930.23291	52.0
932.541138	232.0
932.954468	192.0
933.416565	208.0
933.550354	184.0
934.631531	92.0
936.355957	52.0
937.099121	52.0
938.348572	236.0
939.568359	140.0
939.897827	140.0
941.204102	164.0
942.786255	144.0
943.366943	132.0
945.103882	160.0
945.991333	156.0
946.897522	52.0
947.491699	204.0
947.559082	196.0
950.802917	192.0
952.393127	120.0
953.751099	100.0
954.593384	188.0
955.589844	152.0
956.728455	180.0
958.046326	32.0
960.734253	196.0
962.054871	100.0
962.388306	204.0
963.660645	80.0
964.396057	164.0
964.698914	276.0
964.946228	152.0
966.331665	172.0
967.055664	68.0
969.402893	96.0
971.256714	248.0
971.517212	172.0
972.336304	156.0
972.894958	200.0
973.03772	192.0
974.484863	92.0
975.423279	80.0
977.693542	152.0
978.726868	128.0
980.059875	148.0
980.334045	144.0
980.894958	108.0
981.125671	200.0
984.10791	96.0
985.779419	148.0
986.594543	128.0
988.333252	72.0
988.4021	92.0
989.090515	148.0
990.324036	60.0
991.401672	128.0
991.683655	124.0
991.972046	232.0
993.658997	196.0
993.746826	132.0
994.594055	192.0
994.750977	148.0
996.233032	144.0
996.873901	160.0
997.035278	188.0
998.206604	144.0
998.879578	180.0
1000.112915	180.0
1001.290283	236.0
1004.069641	136.0
1004.700439	112.0
1004.914917	112.0
1005.981506	208.0
1006.158264	48.0
1006.215088	192.0
1006.423462	140.0
1007.206604	220.0
1007.250793	200.0
1007.389771	124.0
1008.211182	180.0
1009.039246	128.0
1009.905579	76.0
1011.531799	168.0
1014.190735	208.0
1014.90863	156.0
1016.139099	176.0
1016.335815	116.0
1017.780396	176.0
1018.297424	176.0
1018.824646	176.0
1019.682495	156.0
1019.84137	128.0
1021.030334	108.0
1021.513855	164.0
1021.749084	200.0
1022.194519	52.0
1022.512695	204.0
1023.142883	128.0
1023.219299	144.0
1023.505798	124.0
1025.264038	144.0
1026.213745	144.0
1026.762207	44.0
1026.806885	192.0
1028.523193	144.0
1028.612549	180.0
1028.861572	140.0
1029.512817	80.0
1031.909058	180.0
1032.068848	52.0
1032.452515	220.0
1033.009033	144.0
1033.316162	152.0
1034.327271	168.0
1035.133911	184.0
1035.300415	192.0
1035.402954	184.0
1037.440552	64.0
1037.671387	44.0
1039.801025	132.0
1040.077026	124.0
1040.638184	208.0
1041.181396	44.0
1041.496094	184.0
1041.591675	144.0
1042.164185	176.0
1042.421265	200.0
1043.038208	244.0
1043.089722	176.0
1043.488281	116.0
1044.202026	136.0
1044.304932	144.0
1044.742432	132.0
1045.109131	136.0
1045.478027	200.0
1045.733276	136.0
1046.422119	160.0
1047.098267	160.0
1049.566406	180.0
1050.056519	236.0
1052.399048	104.0
1052.450684	160.0
1052.747803	220.0
1053.070679	148.0
1053.445312	144.0
1054.750732	132.0
1055.235596	168.0
1055.364868	112.0
1055.636475	144.0
1056.005127	204.0
1056.218506	116.0
1056.645508	120.0
1056.884888	144.0
1057.201904	40.0
1057.409058	200.0
1057.693848	116.0
1057.791016	140.0
1058.068848	144.0
1058.328369	176.0
1059.008301	228.0
1059.124878	212.0
1059.429321	144.0
1059.733887	68.0
1059.863403	212.0
1059.947632	168.0
1060.485596	148.0
1061.036621	140.0
1061.659058	148.0
1061.983398	44.0
1062.327148	40.0
1062.846191	132.0
1064.31311	84.0
1064.897583	144.0
1065.417236	156.0
1065.677124	160.0
1066.43103	84.0
1066.483032	188.0
1068.362305	80.0
1068.68103	116.0
1069.735352	164.0
1070.406006	92.0
1071.545898	124.0
1072.497314	152.0
1072.569092	156.0
1072.660278	160.0
1072.855835	100.0
1073.214478	124.0
1073.370972	152.0
1073.484863	168.0
1073.605713	132.0
1074.140503	104.0
1074.884277	196.0
1075.29541	156.0
1077.365356	164.0
1077.417725	108.0
1077.541748	116.0
1077.881592	124.0
1078.816162	176.0
1079.712036	148.0
1080.37915	124.0
1080.595093	172.0
1080.732544	120.0
1081.930176	156.0
1082.244507	168.0
1082.336182	172.0
1082.643921	140.0
1083.783813	168.0
1084.681641	136.0
1084.884888	56.0
1085.06189	176.0
1086.773682	144.0
1086.845825	184.0
1086.891846	148.0
1087.443115	120.0
1087.810669	164.0
1087.974731	156.0
1088.20459	168.0
1088.598511	128.0
1089.045166	160.0
1089.169922	208.0
1089.412964	176.0
1089.885986	64.0
1090.076538	80.0
1090.635254	192.0
1090.760132	192.0
1090.950806	160.0
1091.690796	208.0
1092.015991	188.0
1092.167358	156.0
1093.325317	80.0
1093.792603	156.0
1094.477295	224.0
1094.664307	80.0
1094.9646	140.0
1095.20166	148.0
1096.315186	184.0
1096.756714	136.0
1096.987427	68.0
1098.537109	128.0
1098.748291	160.0
1100.127563	80.0
1100.794434	204.0
1101.012329	192.0
1102.14856	112.0
1103.113525	168.0
1104.396362	200.0
1104.707275	80.0
1104.879272	204.0
1105.633545	180.0
1106.792114	88.0
1107.606689	68.0
1107.66626	184.0
1108.72644	256.0
1109.521851	136.0
1109.680908	104.0
1109.873169	148.0
1110.377197	252.0
1110.496582	136.0
1110.761963	248.0
1111.591309	168.0
1112.367798	220.0
1112.480713	124.0
1113.045044	100.0
1113.755615	76.0
1114.074463	172.0
1114.459839	188.0
1114.625977	92.0
1114.876831	192.0
1115.184204	156.0
1115.380859	116.0
1115.802368	84.0
1116.26355	156.0
1116.866455	160.0
1117.638184	164.0
1117.954834	192.0
1119.08252	140.0
1119.297363	152.0
1119.535278	156.0
1119.668457	172.0
1121.827393	136.0
1122.807617	100.0
1123.081055	56.0
1123.401245	172.0
1123.768188	132.0
1124.308594	136.0
1124.508911	188.0
1124.916016	152.0
1125.643799	176.0
1126.211426	152.0
1126.465332	104.0
1126.999756	144.0
1127.287109	216.0
1127.921997	184.0
1128.095825	140.0
1128.459839	212.0
1128.66748	120.0
1129.118896	104.0
1129.306152	164.0
1129.353027	152.0
1129.567017	60.0
1129.714233	208.0
1129.928345	120.0
1130.068848	164.0
1130.597412	56.0
1131.376587	208.0
1131.567993	84.0
1132.264404	44.0
1132.311279	288.0
1132.559204	140.0
1132.827148	148.0
1133.03479	160.0
1134.194092	76.0
1135.23999	76.0
1135.34729	180.0
1135.897339	120.0
1136.803101	128.0
1137.621948	156.0
1138.266479	124.0
1138.380615	152.0
1139.15979	176.0
1139.267212	124.0
1139.509155	68.0
1139.630005	64.0
1140.039917	144.0
1141.458374	120.0
1143.106445	156.0
1143.328613	200.0
1143.683838	188.0
1144.567261	128.0
1144.647949	200.0
1144.789429	132.0
1145.038574	208.0
1145.186768	124.0
1145.422485	144.0
1145.718994	44.0
1146.527466	228.0
1146.851074	196.0
1147.358887	152.0
1147.626343	196.0
1147.875854	204.0
1148.13208	116.0
1148.273682	124.0
1148.877808	128.0
1148.97229	192.0
1149.103394	136.0
1149.623047	108.0
1150.196655	144.0
1150.419434	128.0
1151.283691	128.0
1151.533569	144.0
1151.59436	168.0
1152.364502	248.0
1152.587524	208.0
1154.067749	104.0
1154.209717	116.0
1154.831909	156.0
1155.040894	112.0
1155.078979	212.0
1155.474609	104.0
1155.71814	120.0
1155.887329	144.0
1156.52356	116.0
1157.234375	172.0
1157.329102	92.0
1157.901489	120.0
1158.175659	148.0
1158.304321	180.0
1158.453369	140.0
1158.961548	220.0
1159.14917	200.0
1159.957764	112.0
1160.201782	104.0
1161.171509	212.0
1161.578491	128.0
1162.161865	108.0
1162.440186	136.0
1162.616577	120.0
1163.207031	160.0
1163.566895	164.0
1163.974243	108.0
1164.361328	168.0
1164.687378	180.0
1164.731934	196.0
1164.925171	188.0
1165.03833	108.0
1165.305542	144.0
1165.359985	112.0
1165.509399	208.0
1165.611328	168.0
1165.760864	108.0
1165.915649	144.0
1166.182251	152.0
1166.291016	160.0
1166.474487	136.0
1166.984375	112.0
1167.052368	124.0
1167.235962	68.0
1167.623657	148.0
1167.800415	168.0
1167.888916	104.0
1167.966187	164.0
1168.922974	56.0
1168.977417	168.0
1169.349365	204.0
1169.521851	184.0
1169.766968	128.0
1170.24353	44.0
1170.856323	144.0
1171.789551	160.0
1172.314209	204.0
1172.886719	156.0
1173.295776	172.0
1173.466187	60.0
1173.66394	144.0
1173.74585	208.0
1173.875366	128.0
1173.991333	132.0
1174.352783	84.0
1174.598267	124.0
1174.680176	120.0
1175.144043	148.0
1175.191895	80.0
1175.335083	84.0
1176.024414	228.0
1176.870972	168.0
1176.963867	208.0
1177.526489	156.0
1177.669922	148.0
1177.783203	172.0
1178.578491	196.0
1178.763062	112.0
1178.831421	64.0
1179.255127	144.0
1179.781494	220.0
1179.890869	176.0
1180.061768	88.0
1180.273682	116.0
1180.731934	152.0
1180.786621	144.0
1180.930298	140.0
1181.935913	192.0
1182.061401	132.0
1183.654053	160.0
1184.085449	176.0
1184.181396	184.0
1184.325195	120.0
1184.400513	124.0
1184.564941	204.0
1184.859497	192.0
1185.126709	212.0
1185.188354	176.0
1185.592651	92.0
1186.079346	124.0
1186.579834	216.0
1187.43689	132.0
1187.532959	136.0
1187.752441	140.0
1188.116089	128.0
1188.75415	152.0
1189.008057	256.0
1189.165894	240.0
1189.522827	224.0
1189.824951	196.0
1189.948486	204.0
1190.401733	96.0
1190.504761	88.0
1190.745117	152.0
1191.548828	144.0
1191.713623	180.0
1192.284058	272.0
1192.394043	208.0
1192.785767	108.0
1192.971436	68.0
1193.383911	176.0
1193.535156	168.0
1193.686401	72.0
1193.947754	176.0
1194.26416	132.0
1194.601196	216.0
1195.743408	172.0
1196.218384	168.0
1196.417969	248.0
1196.61084	100.0
1196.672729	224.0
1196.769165	144.0
1196.961914	236.0
1197.330078	240.0
1197.845947	180.0
1198.346436	160.0
1198.498047	236.0
1198.821899	212.0
1199.06311	168.0
1199.235352	156.0
1199.380127	180.0
1199.649048	152.0
1199.738647	160.0
1200.09021	164.0
1200.510864	148.0
1200.579834	108.0
1201.283325	40.0
1201.724854	220.0
1201.773193	336.0
1202.090576	208.0
1202.159668	176.0
1202.394287	48.0
1202.918823	40.0
1203.120361	172.0
1203.210571	136.0
1203.664551	192.0
1203.913086	164.0
1204.030518	196.0
1204.141968	224.0
1204.327515	108.0
1204.645264	136.0
1205.543701	152.0
1205.723145	192.0
1205.778442	168.0
1206.521362	180.0
1206.949341	244.0
1208.385376	232.0
1208.837158	184.0
1209.18811	140.0
1209.381958	164.0
1209.45813	164.0
1209.575806	60.0
1210.039551	144.0
1210.171143	148.0
1210.275024	32.0
1210.344238	80.0
1210.55896	132.0
1211.76416	136.0
1211.93042	32.0
1212.602661	108.0
1212.866089	80.0
1213.26123	180.0
1213.695557	120.0
1214.058594	192.0
1214.162598	136.0
1214.26123	148.0
1214.356812	236.0
1214.752197	140.0
1214.849243	160.0
1215.001953	124.0
1215.522339	184.0
1216.556519	180.0
1217.150269	140.0
1217.813354	176.0
1217.938354	164.0
1218.04248	108.0
1218.313477	72.0
1218.619141	156.0
1219.036133	140.0
1219.911865	56.0
1220.071777	148.0
1220.155151	240.0
1220.238525	104.0
1220.447144	192.0
1221.06604	144.0
1221.253906	156.0
1221.580811	108.0
1221.859131	72.0
1222.161743	168.0
1222.84021	124.0
1223.007324	136.0
1223.365601	116.0
1223.786987	224.0
1224.720215	124.0
1225.354126	196.0
1225.577148	164.0
1225.688599	64.0
1226.106689	200.0
1226.18335	164.0
1226.741211	160.0
1226.803711	176.0
1227.20813	188.0
1227.410278	92.0
1227.56665	152.0
1227.759033	136.0
1227.835693	136.0
1227.961304	116.0
1228.010132	192.0
1228.358887	192.0
1228.665771	160.0
1228.819336	152.0
1228.944824	92.0
1229.552002	176.0
1229.712524	148.0
1229.761353	148.0
1230.033569	112.0
1230.340698	120.0
1230.480347	104.0
1231.059937	92.0
1231.367188	192.0
1231.765381	140.0
1232.037842	176.0
1232.722534	172.0
1232.79248	156.0
1232.953125	148.0
1233.31665	208.0
1233.596191	132.0
1233.722046	148.0
1234.330322	192.0
1234.374878	128.0
1234.631104	180.0
1234.79895	116.0
1234.994751	292.0
1235.694336	152.0
1236.072144	128.0
1236.254028	36.0
1236.457031	136.0
1236.583008	128.0
1236.786011	152.0
1237.11499	208.0
1237.17688	96.0
1237.317993	360.0
1237.392456	84.0
1237.448364	144.0
1237.612061	148.0
1237.794189	176.0
1238.522461	188.0
1239.706543	124.0
1239.902832	108.0
1240.191895	176.0
1240.541016	152.0
1240.842041	152.0
1241.108521	188.0
1241.271362	308.0
1241.487183	84.0
1241.634521	132.0
1241.802856	172.0
1241.851929	48.0
1242.202637	120.0
1242.356934	152.0
1242.44812	80.0
1242.742798	108.0
1243.044556	236.0
1243.214966	176.0
1243.465698	200.0
1243.697266	140.0
1243.767456	172.0
1243.921875	116.0
1244.307983	124.0
1244.381348	152.0
1244.757324	152.0
1245.501831	168.0
1245.698486	128.0
1245.789795	136.0
1245.895264	64.0
1246.309814	136.0
1246.640015	148.0
1246.710327	52.0
1246.794678	152.0
1247.349854	144.0
1247.891235	40.0
1248.291992	232.0
1248.531128	140.0
1248.650635	36.0
1249.340088	92.0
1250.043701	176.0
1250.444824	124.0
1250.57019	148.0
1250.620728	160.0
1250.860107	172.0
1250.93042	172.0
1251.251953	120.0
1251.888062	160.0
1252.106323	200.0
1252.190918	168.0
1252.444458	196.0
1252.500732	136.0
1252.697998	68.0
1252.794189	140.0
1252.923462	196.0
1253.022095	180.0
1253.325073	140.0
1253.430786	152.0
1253.64917	176.0
1253.839478	64.0
1253.952271	176.0
1254.086182	184.0
1254.812256	88.0
1255.044922	144.0
1255.139648	180.0
1255.644409	204.0
1255.898315	244.0
1256.004028	44.0
1256.109863	248.0
1256.490845	132.0
1256.730713	172.0
1256.935303	52.0
1257.45752	204.0
1257.774414	176.0
1258.52356	144.0
1258.657715	208.0
1259.272095	148.0
1259.328613	224.0
1259.43457	128.0
1259.78772	132.0
1259.886719	100.0
1260.572021	132.0
1261.045532	116.0
1261.540405	212.0
1261.697632	148.0
1262.059448	168.0
1262.127197	196.0
1262.268555	176.0
1262.530273	128.0
1262.586792	220.0
1262.890991	168.0
1263.032471	144.0
1263.633789	104.0
1263.718628	56.0
1263.782349	228.0
1264.362549	228.0
1264.43335	60.0
1264.758911	188.0
1264.907593	192.0
1265.077515	252.0
1265.148315	144.0
1265.311157	200.0
1265.466919	172.0
1265.721802	64.0
1265.976685	188.0
1266.203369	52.0
1266.553345	164.0
1266.982544	148.0
1267.485596	164.0
1267.613159	188.0
1267.747803	160.0
1267.797363	228.0
1268.453857	212.0
1268.548706	184.0
1268.796875	160.0
1269.065063	148.0
1269.810425	196.0
1270.137085	204.0
1270.186768	188.0
1270.451416	132.0
1270.718872	192.0
1271.250977	120.0
1271.442993	176.0
1272.208252	160.0
1272.606812	156.0
1272.763062	172.0
1273.423462	204.0
1273.601074	152.0
1273.693359	204.0
1275.000732	128.0
1275.128662	84.0
1275.178467	192.0
1275.981689	192.0
1276.335449	184.0
1276.436768	148.0
1276.564697	144.0
1276.785156	104.0
1277.091064	124.0
1277.389771	244.0
1277.652954	144.0
1277.745483	156.0
1278.022949	140.0
1278.328979	164.0
1278.468018	132.0
1278.691895	124.0
1278.87085	236.0
1279.090454	128.0
1279.52478	192.0
1279.909302	120.0
1280.037476	164.0
1280.122925	156.0
1280.564453	180.0
1280.671265	112.0
1280.778076	172.0
1281.098633	132.0
1281.169922	52.0
1281.255371	144.0
1281.467041	232.0
1282.381348	204.0
1282.580811	168.0
1282.880249	152.0
1282.96582	212.0
1283.108398	152.0
1283.336426	160.0
1283.750122	176.0
1283.871338	72.0
1284.056763	212.0
1285.069702	136.0
1285.397949	164.0
1285.569214	92.0
1285.654907	156.0
1286.099243	200.0
1286.493408	152.0
1286.846924	156.0
1286.975464	192.0
1287.139771	124.0
1287.546753	204.0
1287.661011	176.0
1288.432495	104.0
1288.661133	224.0
1288.76123	104.0
1288.925537	124.0
1288.978149	112.0
1289.139893	112.0
1289.23999	140.0
1290.111938	180.0
1290.319336	164.0
1290.390747	124.0
1290.898438	212.0
1291.077271	140.0
1291.248901	156.0
1291.363403	180.0
1292.085815	172.0
1292.336304	128.0
1292.63623	108.0
1293.137695	176.0
1293.359619	208.0
1293.481323	164.0
1294.104126	144.0
1295.24292	160.0
1295.350342	88.0
1296.073975	260.0
1296.518188	216.0
1296.869385	172.0
1296.93396	164.0
1296.984131	100.0
1297.371216	124.0
1297.428589	164.0
1297.679443	48.0
1298.253174	360.0
1298.339233	168.0
1298.468262	140.0
1298.554321	184.0
1298.647583	168.0
1299.214111	196.0
1299.472534	204.0
1299.551514	168.0
1299.608887	72.0
1300.010742	196.0
1300.12561	204.0
1300.485352	160.0
1300.663818	124.0
1301.295654	64.0
1301.862915	152.0
1301.992188	112.0
1302.214844	184.0
1302.344116	300.0
1302.523682	180.0
1302.674561	56.0
1302.854126	80.0
1303.213379	188.0
1303.335449	92.0
1303.436035	132.0
1303.589966	224.0
1303.745117	160.0
1303.831299	144.0
1304.09729	260.0
1304.248169	116.0
1304.327271	48.0
1304.406372	168.0
1304.824463	192.0
1304.945557	208.0
1305.004395	172.0
1305.211548	180.0
1305.607056	204.0
1305.736572	108.0
1305.786865	128.0
1305.988281	156.0
1306.160889	84.0
1306.41272	76.0
1306.578125	148.0
1306.90918	136.0
1307.254517	120.0
1307.548462	176.0
1307.657593	244.0
1307.765503	204.0
1308.125366	200.0
1308.706665	208.0
1308.720703	152.0
1309.126221	124.0
1309.507935	84.0
1309.862183	160.0
1310.162964	176.0
1310.372314	144.0
1310.444458	192.0
1310.682251	180.0
1310.826294	76.0
1311.046997	220.0
1311.227905	144.0
1311.438965	84.0
1311.581421	200.0
1311.806519	164.0
1311.957886	128.0
1312.271973	180.0
1312.770874	216.0
1312.873657	104.0
1313.017944	220.0
1313.133301	80.0
1313.299194	160.0
1313.638184	104.0
1314.087646	216.0
1314.20813	188.0
1314.323608	136.0
1314.417358	148.0
1314.532837	152.0
1314.891602	152.0
1315.810425	104.0
1316.229248	208.0
1316.857544	176.0
1317.276489	96.0
1317.328857	192.0
1317.384888	168.0
1317.587158	152.0
1318.237427	148.0
1318.63208	228.0
1318.728882	196.0
1319.083008	144.0
1319.313477	128.0
1319.581909	184.0
1319.65564	200.0
1319.787354	192.0
1320.058105	180.0
1320.381714	180.0
1320.796875	124.0
1321.086182	204.0
1321.194702	168.0
1321.404541	160.0
1321.672241	180.0
1322.128174	88.0
1322.475586	172.0
1322.613037	200.0
1322.717285	148.0
1322.996704	56.0
1323.192139	172.0
1323.431152	124.0
1323.518066	156.0
1323.619873	196.0
1324.387085	176.0
1324.445068	48.0
1324.727539	68.0
1324.821655	224.0
1325.2854	120.0
1325.444824	128.0
1325.560791	148.0
1325.836182	240.0
1326.198486	92.0
1326.328979	108.0
1326.481201	104.0
1326.682739	156.0
1326.785645	120.0
1326.930664	144.0
1327.670288	136.0
1327.938599	216.0
1327.996704	104.0
1328.058838	172.0
1328.141724	116.0
1328.714844	160.0
1328.874512	180.0
1328.940796	148.0
1329.178467	192.0
1330.02832	76.0
1330.289673	192.0
1330.347778	136.0
1330.463867	104.0
1330.65271	132.0
1330.805176	104.0
1330.986694	120.0
1331.110107	88.0
1331.255371	184.0
1331.683838	160.0
1331.821899	160.0
1331.93811	160.0
1332.003418	184.0
1332.199585	120.0
1332.621704	168.0
1332.991577	232.0
1333.064209	260.0
1333.122314	156.0
1333.471191	144.0
1333.798218	132.0
1334.096313	204.0
1334.161743	148.0
1334.859741	224.0
1335.365112	172.0
1335.536133	116.0
1336.008911	172.0
1336.278198	260.0
1336.445435	244.0
1336.547363	180.0
1336.714722	148.0
1336.809326	96.0
1337.056763	152.0
1337.301514	152.0
1337.457031	164.0
1337.522583	200.0
1337.668213	168.0
1337.926025	236.0
1338.120728	192.0
1338.257935	216.0
1339.054199	196.0
1339.121216	152.0
1339.35022	188.0
1339.466797	152.0
1339.561523	136.0
1339.648926	208.0
1339.758179	168.0
1340.10791	172.0
1340.239014	36.0
1340.537842	124.0
1340.930176	164.0
1341.412476	152.0
1341.762329	160.0
1341.844482	196.0
1342.00293	132.0
1342.107056	176.0
1342.404053	120.0
1342.743652	164.0
1342.827026	204.0
1342.89502	212.0
1343.220947	176.0
1343.271973	212.0
1343.373657	128.0
1344.003662	220.0
1344.322632	216.0
1344.723999	140.0
1344.855347	216.0
1345.001343	168.0
1345.256836	172.0
1345.436768	204.0
1345.556152	104.0
1345.716797	116.0
1345.797119	188.0
1346.067261	100.0
1346.169556	140.0
1346.220703	116.0
1346.447021	180.0
1346.505493	148.0
1346.622314	172.0
1346.739258	156.0
1346.885254	204.0
1346.958374	132.0
1347.037231	160.0
1347.279785	160.0
1347.384644	104.0
1347.522949	228.0
1347.768433	192.0
1347.908081	60.0
1348.463501	96.0
1348.900391	204.0
1349.421143	152.0
1349.494263	176.0
1349.925659	180.0
1350.335205	144.0
1350.386475	180.0
1350.7229	172.0
1350.979004	120.0
1351.234985	164.0
1351.359375	140.0
1351.564331	176.0
1352.383911	108.0
1352.464478	220.0
1352.530273	164.0
1353.08667	132.0
1353.243042	164.0
1353.555298	160.0
1353.846436	288.0
1353.972656	80.0
1354.141113	160.0
1354.346191	124.0
1354.514771	140.0
1354.61731	60.0
1354.719849	316.0
1354.968872	144.0
1355.10083	168.0
1355.247314	156.0
1355.44519	152.0
1355.687012	192.0
1355.75293	116.0
1356.112061	144.0
1356.178101	104.0
1356.22937	200.0
1356.566528	200.0
1356.848389	196.0
1357.052124	228.0
1357.68103	192.0
1357.937744	108.0
1358.084473	56.0
1358.348511	156.0
1358.701294	132.0
1359.199585	180.0
1359.397705	140.0
1359.588501	140.0
1359.75	124.0
1359.933472	164.0
1360.043579	192.0
1360.139038	100.0
1360.300537	188.0
1360.594116	76.0
1361.440918	176.0
1361.497314	176.0
1362.283203	160.0
1362.342041	172.0
1362.444824	236.0
1362.749878	140.0
1362.937134	144.0
1363.238403	36.0
1363.370728	188.0
1363.456421	160.0
1363.774902	36.0
1364.77478	156.0
1364.991577	220.0
1365.215942	116.0
1365.40332	196.0
1366.091187	184.0
1366.289795	80.0
1366.356079	156.0
1366.488525	156.0
1366.620972	136.0
1366.687134	212.0
1366.922607	36.0
1367.540771	268.0
1367.769043	124.0
1368.166504	160.0
1368.240112	200.0
1368.483154	148.0
1368.578857	164.0
1368.71936	152.0
1369.160522	64.0
1369.341187	176.0
1369.528809	148.0
1369.94873	104.0
1370.037109	184.0
1370.609375	180.0
1370.729736	164.0
1370.818115	176.0
1370.91394	144.0
1371.31189	164.0
1371.584595	152.0
1371.658325	136.0
1371.886841	164.0
1371.997437	180.0
1372.389893	192.0
1372.495728	272.0
1372.550415	152.0
1372.675781	180.0
1372.793823	152.0
1372.934692	188.0
1373.317383	184.0
1373.435425	196.0
1373.531372	136.0
1374.077271	216.0
1374.23999	156.0
1374.711792	184.0
1374.859375	196.0
1375.006958	172.0
1375.13147	92.0
1375.272705	176.0
1375.71167	196.0
1375.774658	152.0
1376.143799	152.0
1376.461304	192.0
1376.675537	164.0
1376.756714	140.0
1376.838013	196.0
1377.030029	168.0
1377.325439	176.0
1377.665283	220.0
1377.827759	252.0
1378.189819	148.0
1378.433594	184.0
1378.559326	80.0
1378.837891	228.0
1379.431396	96.0
1379.515625	324.0
1379.638428	216.0
1380.045044	144.0
1380.244751	152.0
1380.555298	156.0
1380.614502	76.0
1380.814087	112.0
1380.939819	100.0
1381.080444	148.0
1381.339355	172.0
1381.428101	44.0
1381.605591	128.0
1381.716553	204.0
1381.86438	164.0
1382.047852	196.0
1382.193726	204.0
1382.389893	48.0
1382.611938	148.0
1382.819214	144.0
1382.98938	104.0
1383.090088	168.0
1383.344727	220.0
1383.411377	168.0
1383.717529	168.0
1383.914795	76.0
1383.976562	276.0
1384.15918	192.0
1384.424072	144.0
1384.492432	168.0
1384.788574	180.0
1385.314575	88.0
1385.376831	164.0
1385.470093	104.0
1385.536743	160.0
1385.595459	236.0
1385.649902	208.0
1385.803467	124.0
1386.22583	60.0
1386.292603	132.0
1386.359253	208.0
1386.463013	60.0
1386.663086	88.0
1386.752075	180.0
1386.820312	216.0
1386.961548	120.0
1387.026367	124.0
1387.204224	48.0
1387.256104	176.0
1387.708374	168.0
1387.762939	232.0
1387.930786	92.0
1388.049438	136.0
1388.130981	200.0
1388.227417	144.0
1388.546387	160.0
1389.236206	160.0
1389.332642	200.0
1389.770386	204.0
1390.297241	148.0
1390.364014	192.0
1390.482788	212.0
1390.764771	180.0
1390.824219	164.0
1391.507202	292.0
1391.796753	144.0
1392.026978	120.0
1392.542236	184.0
1392.708374	144.0
1392.78479	168.0
1392.977661	104.0
1393.144897	268.0
1393.297852	144.0
1393.401123	156.0
1393.542236	108.0
1393.601685	40.0
1393.75769	260.0
1393.921143	148.0
1394.017822	128.0
1394.077271	180.0
1394.188721	172.0
1394.270508	112.0
1394.456299	180.0
1394.697144	152.0
1394.711304	140.0
1395.251709	172.0
1395.363159	104.0
1395.749756	164.0
1396.317139	164.0
1396.369629	212.0
1396.552979	124.0
1396.697632	192.0
1396.858032	140.0
1396.957031	204.0
1397.187622	88.0
1397.289429	156.0
1397.50354	156.0
1397.79541	220.0
1397.892212	56.0
1398.353149	148.0
1398.629028	148.0
1398.840942	152.0
1398.956543	184.0
1399.053345	212.0
1399.291504	136.0
1399.358521	188.0
1399.410645	64.0
1399.462769	192.0
1399.534546	232.0
1399.708496	168.0
1400.103149	48.0
1400.244751	140.0
1400.423462	144.0
1400.490479	116.0
1400.751221	180.0
1400.840576	80.0
1401.101318	136.0
1401.190674	148.0
1401.362061	132.0
1401.593018	208.0
1401.734619	180.0
1401.809204	176.0
1401.861328	188.0
1402.241455	220.0
1402.383057	200.0
1402.614136	176.0
1402.755737	180.0
1402.986816	156.0
1403.039062	152.0
1403.262695	120.0
1403.739868	160.0
1403.799561	132.0
1403.889038	88.0
1404.060547	148.0
1404.18396	208.0
1404.403687	120.0
1404.485718	152.0
1404.59021	96.0
1404.724365	196.0
1404.910889	156.0
1405.164551	196.0
1405.231689	140.0
1405.298828	168.0
1405.470459	152.0
1405.530151	140.0
1405.685303	152.0
1405.925659	124.0
1405.981445	188.0
1406.294556	152.0
1406.440674	164.0
1406.649658	192.0
1406.79895	56.0
1406.903564	200.0
1406.978149	140.0
1407.224609	196.0
1407.501831	164.0
1407.575439	176.0
1407.904053	132.0
1408.217773	160.0
1408.42688	144.0
1408.524048	136.0
1408.643555	120.0
1408.792969	120.0
1408.922729	180.0
1409.278564	96.0
1409.487793	192.0
1410.406982	140.0
1410.519165	200.0
1410.601318	100.0
1410.668701	192.0
1410.720947	176.0
1410.870483	92.0
1411.386353	168.0
1411.775269	152.0
1412.00708	144.0
1412.121948	160.0
1412.283813	144.0
1412.373535	132.0
1412.515747	124.0
1412.62793	260.0
1413.091797	220.0
1413.421021	120.0
1413.652954	116.0
1413.862549	116.0
1413.952271	100.0
1414.139404	120.0
1414.422729	180.0
1414.663452	112.0
1415.082642	172.0
1415.397095	156.0
1415.621826	172.0
1415.741577	228.0
1415.943848	132.0
1416.153564	152.0
1416.205933	72.0
1416.370728	128.0
1416.487915	148.0
1417.373413	164.0
1417.524536	160.0
1418.349854	168.0
1418.611328	152.0
1418.971191	140.0
1419.383545	216.0
1419.50354	92.0
1419.601074	136.0
1419.713501	76.0
1419.998535	192.0
1420.073486	172.0
1420.433594	116.0
1420.538574	84.0
1420.636108	184.0
1420.891235	160.0
1421.198853	112.0
1421.266357	136.0
1421.483887	116.0
1421.799072	116.0
1422.624756	112.0
1422.812134	148.0
1422.831177	140.0
1423.053955	220.0
1423.129395	184.0
1423.353027	188.0
1423.474854	176.0
1423.736084	132.0
1423.811157	112.0
1423.915161	188.0
1424.016235	168.0
1424.194214	332.0
1424.336914	120.0
1424.419312	132.0
1424.705078	180.0
1424.900391	108.0
1424.990479	156.0
1425.118286	100.0
1425.170898	148.0
1425.671387	140.0
1426.102661	64.0
1426.26062	204.0
1426.456055	88.0
1426.546265	80.0
1427.012329	132.0
1427.117554	144.0
1427.267944	124.0
1427.456787	176.0
1428.035034	140.0
1428.238159	120.0
1428.486328	132.0
1428.561646	164.0
1428.619751	188.0
1429.043091	184.0
1429.268799	108.0
1429.487061	64.0
1429.885864	184.0
1430.337524	132.0
1430.556274	140.0
1430.744019	56.0
1431.052734	156.0
1431.323853	108.0
1431.530762	228.0
1431.737915	120.0
1432.453491	136.0
1432.641846	192.0
1432.905518	196.0
1432.980835	288.0
1433.063721	188.0
1433.183716	140.0
1433.267212	180.0
1433.456787	172.0
1433.817383	112.0
1434.050659	168.0
1434.231812	64.0
1434.314819	276.0
1434.80249	144.0
1435.008301	36.0
1435.249634	128.0
1435.634277	132.0
1436.207397	88.0
1436.592773	200.0
1436.735474	96.0
1436.834229	192.0
1437.419189	176.0
1437.610718	180.0
1437.75415	144.0
1438.086182	176.0
1438.207031	212.0
1438.554199	164.0
1439.070068	132.0
1439.104614	44.0
1439.126099	172.0
1439.226196	140.0
1439.331909	72.0
1439.384766	228.0
1439.452637	312.0
1439.513062	176.0
1439.804688	172.0
1439.943604	236.0
1440.004028	204.0
1440.124878	124.0
1440.429688	176.0
1440.502563	276.0
1440.55542	44.0
1440.797119	136.0
1440.970947	112.0
1441.34436	208.0
1442.036377	184.0
1442.663818	120.0
1442.830078	260.0
1443.155273	116.0
1443.574463	200.0
1443.677002	220.0
1443.81604	168.0
1444.632446	124.0
1444.993164	256.0
1445.167236	64.0
1445.530396	176.0
1445.976929	168.0
1446.060181	156.0
1446.120728	112.0
1446.508545	156.0
1446.574829	140.0
1447.029175	172.0
1447.165405	152.0
1447.366089	132.0
1447.566406	168.0
1447.800171	212.0
1447.915039	140.0
1448.069214	140.0
1448.202881	152.0
1448.846802	136.0
1449.028564	188.0
1449.142212	96.0
1449.619629	132.0
1449.785645	204.0
1449.967407	176.0
1450.127441	152.0
1450.354858	184.0
1450.514038	40.0
1451.143188	140.0
1451.332275	164.0
1451.507202	160.0
1451.715942	152.0
1451.984009	152.0
1452.220093	88.0
1452.356567	152.0
1452.8573	172.0
1453.016602	160.0
1453.088257	208.0
1453.153198	120.0
1453.229004	96.0
1453.47937	156.0
1453.846313	124.0
1453.912354	140.0
1454.435669	96.0
1454.541992	144.0
1454.648193	136.0
1454.906372	40.0
1455.2854	304.0
1455.422607	164.0
1455.483398	188.0
1455.658081	136.0
1455.857788	168.0
1456.61499	196.0
1456.76123	208.0
1457.222778	96.0
1457.298706	164.0
1457.409668	364.0
1457.519043	108.0
1457.633057	172.0
1457.782837	160.0
1457.883789	100.0
1458.066284	136.0
1458.22583	220.0
1458.50708	40.0
1458.621094	52.0
1458.841553	152.0
1458.941162	148.0
1459.746338	124.0
1459.858887	124.0
1460.10376	144.0
1460.271118	208.0
1460.583008	52.0
1460.681885	128.0
1460.85437	196.0
1461.180908	212.0
1461.556763	172.0
1461.670898	244.0
1461.763428	304.0
1462.089478	180.0
1462.234009	184.0
1462.310181	208.0
1462.371094	240.0
1462.934326	216.0
1463.071411	156.0
1463.273682	148.0
1463.41394	192.0
1463.478394	136.0
1463.619507	124.0
1463.720093	160.0
1463.787109	128.0
1464.130859	180.0
1464.251587	144.0
1464.838135	184.0
1464.891479	188.0
1465.033203	152.0
1465.462891	172.0
1465.550049	192.0
1465.641968	196.0
1466.171509	180.0
1466.262329	216.0
1466.430542	180.0
1466.522095	132.0
1466.690918	200.0
1466.773682	128.0
1466.853882	212.0
1466.948975	132.0
1467.048096	116.0
1467.430664	140.0
1467.520752	124.0
1468.496948	160.0
1468.573242	132.0
1468.740967	176.0
1468.893555	180.0
1468.946899	112.0
1469.067017	172.0
1469.175781	164.0
1469.328369	124.0
1469.488647	156.0
1469.564941	168.0
1469.689087	192.0
1469.915894	164.0
1470.268311	180.0
1470.341797	152.0
1470.492432	176.0
1470.663086	216.0
1470.727783	192.0
1470.828857	268.0
1471.015015	124.0
1471.65625	52.0
1472.137573	156.0
1472.221313	156.0
1472.480957	176.0
1472.977539	76.0
1473.367065	160.0
1473.473999	208.0
1473.558105	208.0
1473.665039	236.0
1473.83313	104.0
1473.963013	160.0
1474.276367	220.0
1474.360474	196.0
1474.505615	140.0
1474.689087	136.0
1474.773193	132.0
1474.872559	140.0
1475.063599	288.0
1475.231812	248.0
1475.962769	144.0
1476.210449	120.0
1476.355835	132.0
1476.585205	176.0
1476.677002	156.0
1477.516846	196.0
1477.855103	164.0
1478.023438	184.0
1478.316162	208.0
1478.765747	184.0
1478.956299	156.0
1479.171387	148.0
1479.401123	120.0
1479.454712	44.0
1479.52356	92.0
1479.760864	160.0
1479.88623	152.0
1480.112183	152.0
1480.307983	152.0
1480.691284	188.0
1480.833008	140.0
1480.993896	160.0
1481.070435	156.0
1481.202393	200.0
1481.407471	124.0
1481.721558	248.0
1481.924438	144.0
1482.193726	136.0
1482.855713	104.0
1483.154663	136.0
1483.576294	112.0
1483.790894	44.0
1483.995239	220.0
1484.373901	132.0
1484.480957	140.0
1484.580688	132.0
1484.657349	216.0
1484.71875	148.0
1485.054077	176.0
1485.247925	104.0
1485.301636	164.0
1485.409058	220.0
1485.944336	36.0
1486.117798	128.0
1486.202881	172.0
1486.475464	204.0
1486.86145	156.0
1487.020386	148.0
1487.158569	108.0
1488.00293	164.0
1488.402222	144.0
1488.839966	164.0
1488.924438	168.0
1489.508179	168.0
1489.738647	172.0
1489.884644	68.0
1489.961426	88.0
1490.645264	168.0
1490.79126	172.0
1490.856812	152.0
1490.998779	204.0
1491.252441	132.0
1491.318359	188.0
1491.475342	40.0
1491.644409	220.0
1491.713623	168.0
1491.875	136.0
1492.036499	172.0
1492.336304	92.0
1492.497803	204.0
1492.63623	284.0
1492.882324	120.0
1493.305298	108.0
1493.359131	100.0
1493.658203	156.0
1493.751465	192.0
1494.141235	180.0
1494.236084	200.0
1494.495605	164.0
1494.682373	80.0
1494.890137	84.0
1495.08252	116.0
1495.711914	144.0
1495.775269	120.0
1495.875366	252.0
1496.098633	220.0
1496.237183	120.0
1496.368042	188.0
1496.47583	36.0
1496.930176	176.0
1497.1073	160.0
1497.177979	176.0
1497.27002	156.0
1497.629883	112.0
1497.777344	156.0
1498.308838	140.0
1498.501831	404.0
1498.963745	196.0
1499.087158	192.0
1499.262939	172.0
1499.341431	144.0
1499.449341	176.0
1499.649658	212.0
1499.749878	136.0
1500.065918	152.0
1500.38208	72.0
1500.721069	148.0
1500.824829	188.0
1501.122192	200.0
1501.345825	88.0
1501.59436	196.0
1501.754639	112.0
1501.905151	156.0
1502.009155	204.0
1502.757568	172.0
1502.981323	132.0
1503.490601	220.0
1504.385986	108.0
1504.633057	136.0
1504.798584	168.0
1504.812012	208.0
1505.32019	116.0
END IONS

BEGIN IONS
PEPMASS=212.085
CHARGE=1
MSLEVEL=2
SOURCE_INSTRUMENT=LC-ESI-qTof
FILENAME=p5-A02_GA2_01_18431.mzXML
SEQ=*..*
IONMODE=Positive
ORGANISM=GNPS-NIH-SMALLMOLECULEPHARMACOLOGICALLYACTIVE
NAME=MLS002207036-01!Propachlor1918-16-7 M+H
PI=Dorrestein
DATACOLLECTOR=VP/LMS
SMILES=CC(C)N(C(=O)CCl)c1ccccc1
INCHI=N/A
INCHIAUX=N/A
PUBMED=N/A
SUBMITUSER=vphelan
LIBRARYQUALITY=1
SPECTRUMID=CCMSLIB00000085991
USI=mzspec:GNPS:GNPS-NIH-SMALLMOLECULEPHARMACOLOGICALLYACTIVE:accession:CCMSLIB00000085991
SCANS=1946
46.340599	184.0
47.303448	156.0
47.450031	148.0
48.049671	44.0
49.530212	116.0
49.677399	232.0
49.86274	92.0
50.464661	128.0
51.409271	168.0
51.577801	160.0
52.316563	140.0
53.297157	52.0
53.407642	184.0
54.254597	228.0
54.683517	200.0
55.034363	204.0
55.42485	144.0
57.766514	164.0
59.2784	224.0
60.451828	132.0
63.794468	176.0
63.94239	236.0
66.373039	192.0
66.705856	164.0
67.442635	68.0
68.631203	152.0
69.986588	120.0
70.319992	88.0
73.438133	248.0
74.014046	152.0
74.169945	232.0
75.409225	168.0
76.515938	172.0
78.031059	196.0
78.585854	116.0
79.078888	196.0
79.383598	132.0
79.759987	136.0
81.227791	60.0
81.784813	232.0
82.725266	180.0
83.12944	116.0
84.36068	184.0
86.283653	268.0
87.804443	192.0
88.106827	168.0
91.056435	216.0
91.452187	92.0
92.043167	44.0
93.060081	244.0
93.342346	136.0
94.037804	176.0
94.06707	2456.0
94.095718	204.0
94.437752	68.0
94.749405	60.0
95.050232	512.0
95.068596	52.0
95.882248	128.0
95.946571	116.0
96.028465	152.0
96.071381	84.0
96.518639	52.0
98.701271	240.0
99.004036	188.0
100.35128	68.0
100.912315	200.0
103.157951	148.0
104.045265	160.0
104.958801	192.0
105.036301	424.0
106.027931	196.0
106.066757	2088.0
106.095573	72.0
106.116074	72.0
106.137093	48.0
106.179642	52.0
106.750549	52.0
107.068497	292.0
107.32505	120.0
107.963127	144.0
108.068619	140.0
108.681923	184.0
108.877052	104.0
111.118919	144.0
112.006989	296.0
112.98555	208.0
113.769669	64.0
115.076874	120.0
115.382385	208.0
117.058228	496.0
119.088882	120.0
122.957672	140.0
123.959465	164.0
124.252144	128.0
124.403046	60.0
124.514069	248.0
124.571815	172.0
124.831856	64.0
125.012947	188.0
125.125244	56.0
125.174545	128.0
127.278709	108.0
128.029785	52.0
128.88472	192.0
129.006775	168.0
131.733749	144.0
132.928894	188.0
134.060165	708.0
134.600082	124.0
135.062286	180.0
135.880035	136.0
136.344437	128.0
137.768097	200.0
139.119339	88.0
143.472321	180.0
147.633499	160.0
149.961761	184.0
150.39592	164.0
152.028152	1172.0
153.03125	184.0
153.931244	152.0
154.025223	548.0
154.472504	172.0
160.224426	136.0
166.679672	228.0
168.576248	204.0
169.090881	212.0
169.329071	100.0
169.487091	96.0
169.715179	192.0
169.922668	216.0
170.037201	4444.0
170.613495	64.0
170.956833	80.0
171.042221	440.0
172.034164	1320.0
172.310104	92.0
172.336227	136.0
172.799011	64.0
172.872269	48.0
173.034561	148.0
183.09668	240.0
183.277161	64.0
184.391663	80.0
184.421387	48.0
214.097076	160.0
253.784851	100.0
390.062744	108.0
789.877869	72.0
811.044434	76.0
820.05896	124.0
827.319092	124.0
907.654297	80.0
909.069946	140.0
933.608948	88.0
933.730591	92.0
935.178589	236.0
937.797607	152.0
952.90033	196.0
984.666382	184.0
989.343506	180.0
989.60022	72.0
1049.819092	128.0
1053.543335	188.0
1072.869507	176.0
1077.476929	124.0
1081.079712	208.0
1085.717773	216.0
1092.29895	160.0
1093.154175	164.0
1093.746582	180.0
1094.826294	196.0
1095.557373	192.0
1134.206543	132.0
1137.392578	236.0
1153.329346	188.0
1175.756104	224.0
1181.119507	156.0
1192.707642	136.0
1193.862671	156.0
1201.535767	212.0
1201.908325	124.0
1202.591553	104.0
1205.181274	216.0
1213.570068	176.0
1236.376221	212.0
1252.588135	32.0
1273.766724	204.0
1300.048218	212.0
1303.796875	184.0
1309.631714	252.0
1310.546631	140.0
1324.59082	200.0
1325.590576	232.0
1328.55603	220.0
1330.784058	48.0
1344.600342	120.0
1347.170532	172.0
1347.469971	188.0
1348.909668	108.0
1352.852539	72.0
1357.512451	140.0
1361.658813	148.0
1379.083496	148.0
1381.146362	196.0
1383.714233	128.0
1392.464111	228.0
1396.670898	196.0
1401.740967	156.0
1422.060059	196.0
1434.780029	228.0
1438.106567	116.0
1460.709351	44.0
1467.19751	172.0
1478.571045	136.0
1486.932373	112.0
1498.012207	152.0
1498.505249	172.0
1502.707153	220.0
END IONS

BEGIN IONS
PEPMASS=686.483
CHARGE=1
MSLEVEL=2
SOURCE_INSTRUMENT=LC-ESI-qTof
FILENAME=p5-F03_GF3_01_18466.mzXML
SEQ=*..*
IONMODE=Positive
ORGANISM=GNPS-NIH-SMALLMOLECULEPHARMACOLOGICALLYACTIVE
NAME=MLS002222329-01!26305-03-3 M+H
PI=Dorrestein
DATACOLLECTOR=VP/LMS
SMILES=CC(C)C[C@H](NC(=O)[C@H](C)NC(=O)C[C@H](O)[C@H](CC(C)C)NC(=O)[C@@H](NC(=O)[C@@H](NC(=O)CC(C)C)C(C)C)C(C)C)[C@@H](O)CC(=O)O
INCHI=N/A
INCHIAUX=N/A
PUBMED=N/A
SUBMITUSER=vphelan
LIBRARYQUALITY=1
SPECTRUMID=CCMSLIB00000086129
USI=mzspec:GNPS:GNPS-NIH-SMALLMOLECULEPHARMACOLOGICALLYACTIVE:accession:CCMSLIB00000086129
SCANS=1900
44.903965	52.0
44.924694	304.0
44.979721	204.0
45.030144	180.0
45.059532	128.0
45.112988	152.0
45.190704	168.0
45.22401	184.0
45.24543	108.0
45.261497	316.0
45.289619	88.0
45.30019	148.0
45.312393	196.0
45.376724	148.0
45.414272	60.0
45.504181	152.0
45.53793	120.0
45.553871	200.0
45.584175	180.0
45.612995	184.0
45.641602	156.0
45.651985	52.0
45.6614	176.0
45.692459	176.0
45.704445	160.0
45.713867	120.0
45.723286	196.0
45.746166	176.0
45.802723	172.0
45.824276	108.0
45.845837	92.0
45.863358	176.0
45.915939	100.0
45.936172	144.0
45.97665	112.0
46.022953	132.0
46.034698	136.0
46.044151	176.0
46.057659	132.0
46.068462	180.0
46.082031	184.0
46.100891	128.0
46.161724	92.0
46.215828	180.0
46.238804	220.0
46.333618	188.0
46.352589	132.0
46.404095	176.0
46.432571	204.0
46.448097	232.0
46.45834	176.0
46.473999	180.0
46.509907	128.0
46.520767	148.0
46.532532	176.0
46.556068	156.0
46.582645	148.0
46.586723	224.0
46.602253	116.0
46.6759	240.0
46.690609	160.0
46.706928	288.0
46.80764	180.0
46.823185	260.0
46.844414	160.0
46.86076	356.0
46.888016	80.0
46.898918	108.0
46.942543	44.0
46.97937	180.0
46.990284	168.0
47.104958	136.0
47.215668	136.0
47.227978	160.0
47.253429	192.0
47.27039	208.0
47.293056	288.0
47.333355	140.0
47.411438	212.0
47.503975	100.0
47.518394	204.0
47.527996	136.0
47.545837	100.0
47.578781	64.0
47.595798	152.0
47.608986	124.0
47.619976	136.0
47.659813	120.0
47.677677	112.0
47.688671	232.0
47.707008	224.0
47.725788	140.0
47.754665	36.0
47.793186	164.0
47.887463	132.0
47.909954	156.0
47.947414	156.0
48.017727	132.0
48.028763	184.0
48.075672	56.0
48.108795	100.0
48.158451	296.0
48.190281	136.0
48.271832	168.0
48.358658	184.0
48.37006	168.0
48.421291	44.0
48.447609	56.0
48.473934	168.0
48.48502	168.0
48.504425	208.0
48.536308	140.0
48.559887	184.0
48.577915	156.0
48.594566	156.0
48.64397	320.0
48.787609	160.0
48.823761	108.0
48.844624	184.0
48.866142	188.0
48.880795	136.0
48.901672	156.0
48.916981	108.0
48.929512	160.0
49.010292	192.0
49.021439	112.0
49.05489	168.0
49.071617	136.0
49.084167	132.0
49.117638	116.0
49.162285	184.0
49.184616	148.0
49.193874	120.0
49.205555	172.0
49.231911	128.0
49.235626	112.0
49.241032	188.0
49.319736	136.0
49.34396	124.0
49.369038	160.0
49.404007	56.0
49.420795	64.0
49.444584	104.0
49.50898	160.0
49.519913	124.0
49.534191	128.0
49.565014	112.0
49.581829	176.0
49.655869	168.0
49.675774	144.0
49.730495	112.0
49.753635	140.0
49.775421	152.0
49.79789	152.0
49.847057	192.0
49.870949	156.0
49.910313	120.0
49.944065	192.0
49.960266	188.0
50.003342	152.0
50.114403	132.0
50.157665	204.0
50.187698	220.0
50.237061	156.0
50.279388	108.0
50.29068	192.0
50.340092	232.0
50.354214	48.0
50.39518	112.0
50.431889	164.0
50.444645	160.0
50.465851	168.0
50.487061	160.0
50.521008	48.0
50.54789	108.0
50.616055	128.0
50.648952	156.0
50.672424	176.0
50.676537	168.0
50.69025	172.0
50.703663	120.0
50.726341	96.0
50.746189	64.0
50.771713	216.0
50.820541	148.0
50.88483	228.0
50.938709	184.0
50.971268	140.0
50.983238	120.0
51.003136	52.0
51.020195	44.0
51.04612	232.0
51.060009	164.0
51.092724	96.0
51.102684	56.0
51.124603	160.0
51.188087	128.0
51.253216	136.0
51.320602	156.0
51.336117	168.0
51.369091	96.0
51.414749	136.0
51.443295	216.0
51.527554	108.0
51.547558	128.0
51.568993	92.0
51.624752	172.0
51.639053	108.0
51.651924	64.0
51.680538	164.0
51.723469	148.0
51.768349	228.0
51.802227	236.0
51.833748	148.0
51.853809	132.0
51.866352	176.0
51.882477	172.0
51.921959	172.0
51.977139	136.0
52.000248	192.0
52.00993	132.0
52.057617	124.0
52.07045	124.0
52.08625	204.0
52.099178	64.0
52.117855	36.0
52.136536	68.0
52.156658	132.0
52.171032	120.0
52.182533	80.0
52.214169	116.0
52.234303	132.0
52.270271	180.0
52.293102	208.0
52.316326	240.0
52.343685	52.0
52.372486	160.0
52.437611	380.0
52.456062	184.0
52.475357	140.0
52.521595	232.0
52.545471	108.0
52.572235	124.0
52.591648	100.0
52.619076	148.0
52.630627	148.0
52.652287	140.0
52.672508	88.0
52.730305	184.0
52.759212	124.0
52.769333	196.0
52.779453	116.0
52.809986	212.0
52.863518	176.0
52.886509	148.0
52.901123	124.0
52.947273	140.0
52.952847	136.0
52.957092	176.0
53.000916	176.0
53.032196	244.0
53.03891	128.0
53.047501	296.0
53.065117	176.0
53.082783	192.0
53.146126	136.0
53.276577	156.0
53.30032	140.0
53.352146	132.0
53.373955	132.0
53.417583	116.0
53.450821	128.0
53.467159	168.0
53.529346	172.0
53.612686	64.0
53.63892	168.0
53.663193	148.0
53.688492	244.0
53.750557	132.0
53.793545	172.0
53.813984	140.0
53.841801	160.0
53.856335	200.0
53.910648	180.0
53.939869	188.0
53.965935	148.0
54.047844	184.0
54.120155	208.0
54.198658	184.0
54.229435	68.0
54.271358	172.0
54.303684	112.0
54.307716	184.0
54.335968	160.0
54.394466	144.0
54.434822	112.0
54.450977	140.0
54.462727	112.0
54.562653	160.0
54.572941	152.0
54.600883	132.0
54.611176	140.0
54.639126	76.0
54.696178	208.0
54.75983	172.0
54.779137	224.0
54.796658	120.0
54.817284	156.0
54.829075	140.0
54.91243	144.0
54.955891	104.0
54.989536	140.0
55.006104	168.0
55.019352	204.0
55.081375	128.0
55.199608	192.0
55.21516	124.0
55.26469	180.0
55.3461	104.0
55.395424	92.0
55.426086	100.0
55.482407	420.0
55.529171	208.0
55.555073	136.0
55.577328	188.0
55.595135	176.0
55.621849	148.0
55.684685	200.0
55.716888	212.0
55.837288	152.0
55.868526	212.0
55.89233	160.0
55.945911	128.0
55.9608	176.0
56.028492	124.0
56.06358	152.0
56.078484	56.0
56.102333	96.0
56.132153	216.0
56.173912	120.0
56.186558	260.0
56.245537	148.0
56.276886	160.0
56.301399	364.0
56.33065	204.0
56.376968	168.0
56.434082	172.0
56.50301	108.0
56.566917	164.0
56.577396	204.0
56.598354	140.0
56.616325	128.0
56.643284	124.0
56.654472	196.0
56.67025	108.0
56.68074	172.0
56.749687	164.0
56.808178	188.0
56.839684	136.0
56.857693	136.0
56.868198	184.0
56.894032	152.0
56.919239	228.0
56.943268	168.0
57.040932	168.0
57.057468	176.0
57.067993	152.0
57.105587	180.0
57.161251	132.0
57.185329	132.0
57.201885	104.0
57.225971	220.0
57.384171	148.0
57.436954	124.0
57.467125	120.0
57.477688	216.0
57.509525	164.0
57.560707	192.0
57.571278	140.0
57.642277	232.0
57.667347	160.0
57.692154	40.0
57.723904	176.0
57.77079	172.0
57.784409	124.0
57.816696	236.0
57.841911	68.0
57.860081	144.0
57.897934	140.0
57.908535	268.0
57.94503	304.0
57.966103	104.0
57.97974	84.0
58.023701	36.0
58.057377	76.0
58.067673	224.0
58.152149	212.0
58.176926	148.0
58.211845	168.0
58.236145	120.0
58.275642	52.0
58.31971	92.0
58.331871	152.0
58.34544	164.0
58.388393	160.0
58.427677	168.0
58.449165	160.0
58.463112	204.0
58.487022	124.0
58.525082	176.0
58.537689	200.0
58.560108	44.0
58.614952	160.0
58.697937	136.0
58.747593	188.0
58.758274	132.0
58.793369	248.0
58.846794	144.0
58.904827	188.0
58.980965	208.0
59.031681	52.0
59.069916	160.0
59.101009	136.0
59.111908	152.0
59.128059	124.0
59.141117	168.0
59.169388	156.0
59.239834	240.0
59.269817	212.0
59.306507	164.0
59.335243	324.0
59.359379	220.0
59.423733	180.0
59.442215	64.0
59.452957	108.0
59.466766	56.0
59.480583	192.0
59.515892	136.0
59.551212	152.0
59.589615	108.0
59.628983	168.0
59.6656	200.0
59.683372	152.0
59.728783	152.0
59.747971	140.0
59.771049	176.0
59.781818	288.0
59.797211	156.0
59.828842	160.0
59.835201	88.0
59.837746	132.0
59.912098	196.0
59.925278	192.0
59.938889	152.0
59.972794	116.0
59.996696	332.0
60.009789	136.0
60.043003	164.0
60.106052	236.0
60.175426	180.0
60.221203	168.0
60.259823	124.0
60.271721	228.0
60.296909	188.0
60.309273	120.0
60.326275	112.0
60.337471	132.0
60.354103	328.0
60.369183	144.0
60.445366	160.0
60.509102	224.0
60.525856	180.0
60.58073	204.0
60.594006	360.0
60.701378	176.0
60.724216	180.0
60.756691	184.0
60.760689	172.0
60.790699	192.0
60.810146	156.0
60.859226	116.0
60.876431	196.0
60.935108	196.0
60.952419	184.0
61.045689	152.0
61.069016	116.0
61.08392	172.0
61.114128	140.0
61.134357	148.0
61.166782	168.0
61.172604	140.0
61.177536	108.0
61.20752	84.0
61.220062	148.0
61.277611	116.0
61.32592	188.0
61.352417	100.0
61.364891	136.0
61.409863	124.0
61.421494	148.0
61.48032	160.0
61.502171	188.0
61.514408	152.0
61.55901	108.0
61.586761	136.0
61.603668	60.0
61.641163	152.0
61.653954	108.0
61.720882	84.0
61.749031	180.0
61.763107	84.0
61.847492	116.0
61.902397	144.0
61.91526	184.0
62.090698	152.0
62.102795	216.0
62.113979	132.0
62.151234	364.0
62.175167	112.0
62.192711	136.0
62.237961	196.0
62.258373	72.0
62.271671	160.0
62.310207	256.0
62.33849	176.0
62.351063	120.0
62.401363	160.0
62.429665	208.0
62.461121	160.0
62.484718	152.0
62.558685	184.0
62.582298	100.0
62.653557	148.0
62.668926	212.0
62.769806	212.0
62.793461	56.0
62.809235	172.0
62.821854	192.0
62.866032	92.0
62.880234	116.0
62.89286	160.0
62.91172	76.0
62.926014	236.0
62.938644	180.0
62.971806	96.0
63.001358	116.0
63.061298	224.0
63.101383	176.0
63.137753	152.0
63.159893	56.0
63.219456	136.0
63.237423	172.0
63.261166	124.0
63.3055	116.0
63.369629	76.0
63.389458	236.0
63.405304	132.0
63.456028	204.0
63.482983	148.0
63.494083	172.0
63.544846	132.0
63.562443	132.0
63.587688	156.0
63.601131	168.0
63.620625	240.0
63.626881	180.0
63.655952	152.0
63.738552	164.0
63.783138	148.0
63.809242	152.0
63.860962	132.0
63.87429	216.0
63.923008	160.0
63.937332	192.0
63.961159	140.0
63.976364	184.0
63.988266	124.0
64.001007	128.0
64.041794	124.0
64.10614	144.0
64.136208	164.0
64.148865	156.0
64.168297	156.0
64.181053	140.0
64.212952	108.0
64.265594	132.0
64.319855	208.0
64.335815	200.0
64.352371	204.0
64.375732	152.0
64.423645	96.0
64.460396	156.0
64.474701	176.0
64.506744	180.0
64.586693	132.0
64.665092	128.0
64.690704	212.0
64.716324	36.0
64.753151	112.0
64.823639	196.0
64.858902	124.0
64.884544	136.0
64.896332	372.0
64.939606	96.0
64.961525	172.0
64.998428	144.0
65.019142	224.0
65.03257	144.0
65.065834	184.0
65.083496	144.0
65.179871	128.0
65.20076	48.0
65.213623	148.0
65.261848	100.0
65.283501	128.0
65.31974	132.0
65.352943	220.0
65.38353	248.0
65.398582	224.0
65.470161	140.0
65.483276	160.0
65.50164	116.0
65.535469	164.0
65.551582	120.0
65.572876	132.0
65.604767	28.0
65.649918	128.0
65.680557	156.0
65.706367	52.0
65.732185	52.0
65.788673	144.0
65.846146	168.0
65.909805	164.0
65.927582	120.0
65.974457	216.0
66.009262	264.0
66.131355	116.0
66.201988	192.0
66.257668	72.0
66.338692	168.0
66.368546	232.0
66.44902	136.0
66.465195	132.0
66.522003	140.0
66.573959	180.0
66.601562	172.0
66.639214	136.0
66.66655	120.0
66.686058	136.0
66.708809	240.0
66.759216	116.0
66.802315	220.0
66.845428	188.0
66.886452	136.0
66.908676	140.0
66.983818	180.0
67.014771	184.0
67.037582	144.0
67.097893	120.0
67.152878	200.0
67.169647	108.0
67.223488	192.0
67.243065	156.0
67.270813	156.0
67.283875	96.0
67.306732	72.0
67.345932	176.0
67.398209	148.0
67.445595	132.0
67.470116	156.0
67.513466	384.0
67.530624	144.0
67.555153	100.0
67.569878	144.0
67.608063	72.0
67.668076	156.0
67.694275	200.0
67.730309	200.0
67.748329	64.0
67.76635	356.0
67.799553	244.0
67.822624	200.0
67.84993	164.0
67.863052	180.0
67.889282	156.0
67.933571	188.0
67.967148	120.0
68.014389	236.0
68.038597	168.0
68.074722	156.0
68.109482	200.0
68.123215	76.0
68.160141	140.0
68.183968	120.0
68.239037	124.0
68.304817	148.0
68.340515	188.0
68.36898	216.0
68.416718	112.0
68.450058	144.0
68.491364	132.0
68.531998	184.0
68.560944	92.0
68.584732	200.0
68.619354	152.0
68.639137	168.0
68.690598	200.0
68.713173	176.0
68.774422	164.0
68.795876	120.0
68.828896	116.0
68.853668	160.0
68.905289	204.0
68.941223	72.0
68.964363	176.0
68.988693	100.0
69.030495	136.0
69.047028	120.0
69.068535	264.0
69.101791	156.0
69.114853	236.0
69.13591	72.0
69.155258	192.0
69.189331	120.0
69.209198	208.0
69.234039	128.0
69.248947	104.0
69.275444	32.0
69.388138	156.0
69.437889	148.0
69.485336	152.0
69.507561	112.0
69.519173	180.0
69.534935	164.0
69.562332	216.0
69.577271	464.0
69.6138	144.0
69.675255	76.0
69.73674	144.0
69.751396	88.0
69.798248	232.0
69.854797	196.0
69.904083	172.0
69.933594	236.0
69.952141	192.0
69.960999	112.0
69.966873	172.0
70.001259	140.0
70.024574	188.0
70.052887	76.0
70.119537	212.0
70.166542	240.0
70.216232	200.0
70.228477	164.0
70.233154	56.0
70.239044	172.0
70.254601	168.0
70.33136	184.0
70.349106	228.0
70.364746	168.0
70.478317	192.0
70.501709	148.0
70.521454	236.0
70.530556	156.0
70.620415	124.0
70.637138	180.0
70.65052	212.0
70.662231	124.0
70.688385	204.0
70.725822	56.0
70.752609	164.0
70.797813	156.0
70.80954	192.0
70.831314	108.0
70.856308	148.0
71.019043	84.0
71.044205	180.0
71.082794	200.0
71.12326	144.0
71.162369	168.0
71.299522	140.0
71.33136	172.0
71.351532	152.0
71.363304	80.0
71.388901	160.0
71.445709	136.0
71.477684	96.0
71.50206	164.0
71.516716	180.0
71.536583	148.0
71.566887	180.0
71.59552	128.0
71.627342	116.0
71.648872	172.0
71.681427	124.0
71.708397	160.0
71.785942	212.0
71.797745	152.0
71.814613	160.0
71.86322	236.0
71.89045	164.0
71.986755	76.0
72.029823	136.0
72.077972	40.0
72.105354	176.0
72.148613	176.0
72.213913	232.0
72.248619	116.0
72.282578	152.0
72.350853	124.0
72.382446	168.0
72.447037	176.0
72.465439	320.0
72.499329	144.0
72.512093	180.0
72.53492	116.0
72.548485	164.0
72.607826	192.0
72.634964	124.0
72.680908	196.0
72.718109	176.0
72.839966	172.0
72.877731	140.0
72.92028	196.0
73.022224	144.0
73.046036	172.0
73.071907	156.0
73.103889	172.0
73.143288	160.0
73.176025	156.0
73.214539	136.0
73.234978	144.0
73.257942	176.0
73.284378	152.0
73.327324	140.0
73.352547	172.0
73.372009	176.0
73.405403	248.0
73.419044	160.0
73.442924	112.0
73.463387	180.0
73.488983	212.0
73.504341	228.0
73.524818	156.0
73.547791	156.0
73.562363	140.0
73.615349	128.0
73.642616	204.0
73.661407	112.0
73.687195	252.0
73.733879	176.0
73.75119	176.0
73.771515	148.0
73.808891	188.0
73.827194	132.0
73.847717	104.0
73.869957	244.0
73.943275	188.0
73.98056	240.0
73.999451	280.0
74.012001	160.0
74.065094	232.0
74.137054	228.0
74.194237	156.0
74.234764	128.0
74.251915	92.0
74.269066	140.0
74.287933	228.0
74.322517	176.0
74.341125	164.0
74.437256	180.0
74.47332	172.0
74.524857	136.0
74.617302	152.0
74.63147	128.0
74.645172	112.0
74.700211	140.0
74.746666	196.0
74.76387	116.0
74.789536	228.0
74.796143	208.0
74.829285	100.0
74.920555	204.0
74.941231	112.0
75.013618	212.0
75.066971	156.0
75.103943	244.0
75.125702	92.0
75.173668	200.0
75.224068	168.0
75.252342	192.0
75.268562	212.0
75.343224	100.0
75.467659	156.0
75.479767	132.0
75.521469	140.0
75.543755	112.0
75.600853	188.0
75.70472	128.0
75.725502	96.0
75.782669	76.0
75.817123	204.0
75.861801	224.0
75.899635	176.0
75.910934	204.0
75.944809	188.0
75.988991	160.0
76.023697	104.0
76.100594	172.0
76.146957	148.0
76.16259	116.0
76.179108	164.0
76.211174	128.0
76.315514	152.0
76.329422	128.0
76.353775	188.0
76.367683	136.0
76.44075	128.0
76.454674	200.0
76.499931	180.0
76.542953	224.0
76.573059	164.0
76.585251	72.0
76.62532	104.0
76.655785	140.0
76.738602	164.0
76.754105	180.0
76.78743	192.0
76.815338	152.0
76.914253	132.0
76.928764	148.0
76.947968	148.0
76.970665	140.0
77.030045	128.0
77.073723	232.0
77.092003	208.0
77.106926	220.0
77.120911	76.0
77.201332	120.0
77.222313	160.0
77.274796	36.0
77.301041	56.0
77.406067	168.0
77.442848	368.0
77.460365	156.0
77.490143	116.0
77.502411	196.0
77.528694	196.0
77.55323	180.0
77.575836	116.0
77.604065	172.0
77.621605	208.0
77.635628	48.0
77.651413	96.0
77.674217	92.0
77.6978	244.0
77.721581	104.0
77.75769	212.0
77.779404	144.0
77.909447	172.0
77.92701	108.0
77.979729	184.0
78.069389	200.0
78.088737	268.0
78.11364	200.0
78.136162	168.0
78.171425	172.0
78.183739	60.0
78.220703	172.0
78.247108	56.0
78.274216	152.0
78.312263	152.0
78.329872	144.0
78.423264	164.0
78.475891	164.0
78.499161	152.0
78.515373	180.0
78.531502	208.0
78.598969	152.0
78.634911	28.0
78.661385	144.0
78.684334	136.0
78.701157	204.0
78.727119	156.0
78.763802	164.0
78.776169	204.0
78.811501	160.0
78.834473	152.0
78.855682	180.0
78.941071	212.0
78.981216	136.0
79.010406	136.0
79.062256	184.0
79.131638	184.0
79.147568	128.0
79.182991	124.0
79.222076	60.0
79.2379	184.0
79.304832	156.0
79.349556	84.0
79.369057	172.0
79.407707	156.0
79.440002	104.0
79.576477	160.0
79.617493	28.0
79.633476	188.0
79.68499	400.0
79.745628	96.0
79.789848	108.0
79.820076	196.0
79.836082	148.0
79.852089	116.0
79.868095	76.0
79.912567	180.0
79.928329	140.0
79.985535	60.0
80.106621	204.0
80.120872	160.0
80.163628	52.0
80.187958	92.0
80.217102	108.0
80.229576	168.0
80.265556	236.0
80.303688	168.0
80.33535	192.0
80.361557	92.0
80.432938	212.0
80.526443	184.0
80.561508	300.0
80.582947	52.0
80.654427	64.0
80.702698	136.0
80.765953	204.0
80.797485	72.0
80.817169	156.0
80.842216	164.0
80.858322	132.0
80.910233	196.0
81.026817	124.0
81.132378	148.0
81.144928	52.0
81.19693	116.0
81.220245	184.0
81.251343	192.0
81.279449	108.0
81.315346	124.0
81.347649	236.0
81.38974	144.0
81.421265	132.0
81.435638	168.0
81.457191	132.0
81.509293	100.0
81.539841	172.0
81.577591	112.0
81.631523	188.0
81.683685	168.0
81.719666	164.0
81.732254	180.0
81.750252	160.0
81.784447	188.0
81.83078	184.0
81.8703	84.0
81.96994	36.0
82.00779	84.0
82.02581	156.0
82.167465	200.0
82.188126	116.0
82.20256	104.0
82.269341	124.0
82.304909	184.0
82.326981	152.0
82.365051	172.0
82.414848	148.0
82.435005	172.0
82.478561	112.0
82.524078	180.0
82.56736	180.0
82.585564	120.0
82.603653	100.0
82.627167	128.0
82.65612	56.0
82.692314	88.0
82.732132	148.0
82.757477	156.0
82.771965	284.0
82.795921	228.0
82.831734	188.0
82.847664	276.0
82.88282	180.0
82.94194	328.0
82.983963	112.0
83.040176	68.0
83.063751	140.0
83.078262	160.0
83.125443	168.0
83.158104	120.0
83.179886	180.0
83.243431	124.0
83.26622	160.0
83.292465	156.0
83.350601	168.0
83.369095	160.0
83.391533	176.0
83.40876	136.0
83.425117	168.0
83.465118	132.0
83.497849	160.0
83.516037	184.0
83.536049	244.0
83.577896	276.0
83.595673	140.0
83.674355	236.0
83.688919	200.0
83.727165	36.0
83.767235	76.0
83.781807	136.0
83.820068	160.0
83.861275	144.0
83.887505	172.0
83.900261	132.0
83.927612	168.0
83.940376	172.0
83.954964	104.0
84.03157	172.0
84.051643	232.0
84.137428	200.0
84.256134	172.0
84.279884	148.0
84.332886	92.0
84.365784	200.0
84.384819	244.0
84.413322	44.0
84.435265	100.0
84.470016	156.0
84.483543	196.0
84.625572	216.0
84.653038	44.0
84.676292	120.0
84.709816	132.0
84.788605	132.0
84.803268	144.0
84.850929	184.0
84.883934	52.0
84.912071	160.0
84.947693	172.0
84.995827	228.0
85.010506	136.0
85.023354	144.0
85.045853	160.0
85.115135	104.0
85.137169	136.0
85.188599	176.0
85.210648	200.0
85.249229	52.0
85.271286	164.0
85.315903	212.0
85.35585	116.0
85.40918	144.0
85.422058	80.0
85.48436	144.0
85.542046	176.0
85.567444	196.0
85.600586	160.0
85.651947	144.0
85.70005	124.0
85.720322	68.0
85.736908	68.0
85.760216	148.0
85.82354	184.0
85.858582	188.0
85.878868	164.0
86.002716	128.0
86.119507	148.0
86.163887	188.0
86.201401	144.0
86.2463	140.0
86.269524	156.0
86.395111	296.0
86.425682	100.0
86.476532	168.0
86.520073	148.0
86.536736	200.0
86.571915	116.0
86.620071	176.0
86.649712	120.0
86.718277	44.0
86.733101	180.0
86.785011	188.0
86.832314	276.0
86.857887	284.0
86.977951	156.0
87.026215	136.0
87.089355	184.0
87.122787	144.0
87.139511	132.0
87.208267	80.0
87.231415	132.0
87.373764	36.0
87.396095	168.0
87.44075	116.0
87.464951	220.0
87.504044	84.0
87.530113	128.0
87.579346	204.0
87.623238	164.0
87.656776	132.0
87.681412	128.0
87.725739	140.0
87.755562	152.0
87.807472	172.0
87.835754	148.0
87.850677	236.0
87.887993	140.0
87.951447	72.0
88.035461	68.0
88.055031	148.0
88.082153	200.0
88.143875	180.0
88.183044	220.0
88.199867	212.0
88.276047	188.0
88.299118	196.0
88.32328	192.0
88.373787	80.0
88.405602	136.0
88.424316	152.0
88.451584	224.0
88.474854	164.0
88.564735	160.0
88.615318	156.0
88.660286	144.0
88.684654	168.0
88.735268	240.0
88.787766	104.0
88.825279	144.0
88.855293	172.0
88.870308	64.0
88.889069	116.0
89.013901	112.0
89.038734	204.0
89.059914	112.0
89.075966	168.0
89.088585	132.0
89.110786	144.0
89.14257	116.0
89.183922	108.0
89.198959	176.0
89.215874	220.0
89.234299	100.0
89.390793	100.0
89.425568	184.0
89.479912	184.0
89.526329	188.0
89.539513	176.0
89.720406	236.0
89.77697	156.0
89.7966	244.0
89.873169	72.0
89.901474	128.0
90.057686	124.0
90.116737	188.0
90.139412	136.0
90.175255	120.0
90.226753	132.0
90.245262	332.0
90.301994	76.0
90.343605	104.0
90.406044	152.0
90.434433	80.0
90.4897	144.0
90.536667	148.0
90.56292	220.0
90.581497	168.0
90.638962	76.0
90.665489	124.0
90.680656	172.0
90.699242	168.0
90.708374	64.0
90.715828	144.0
90.733727	124.0
90.748894	192.0
90.908234	128.0
90.927208	120.0
90.991745	152.0
91.005035	136.0
91.056313	172.0
91.079102	164.0
91.100922	180.0
91.117325	164.0
91.147385	136.0
91.153786	128.0
91.157516	176.0
91.189301	80.0
91.324295	116.0
91.368423	300.0
91.394684	296.0
91.41114	148.0
91.438728	136.0
91.474617	100.0
91.499359	148.0
91.641289	200.0
91.686035	196.0
91.706993	100.0
91.753441	252.0
91.792786	116.0
91.841339	132.0
91.895782	168.0
92.068001	164.0
92.094994	192.0
92.139923	128.0
92.208954	128.0
92.237625	108.0
92.283508	156.0
92.29689	164.0
92.363876	144.0
92.385628	212.0
92.427811	144.0
92.484795	144.0
92.606911	212.0
92.716118	184.0
92.731445	188.0
92.838806	144.0
92.890594	128.0
92.905937	128.0
92.967339	108.0
93.01532	200.0
93.049873	96.0
93.070999	396.0
93.084435	196.0
93.126686	184.0
93.154625	376.0
93.176483	156.0
93.190231	156.0
93.222748	40.0
93.262711	176.0
93.30452	132.0
93.368851	112.0
93.408905	160.0
93.455414	128.0
93.496895	172.0
93.56897	208.0
93.596924	100.0
93.667183	188.0
93.694847	184.0
93.721123	168.0
93.734612	180.0
93.759666	140.0
93.778938	128.0
93.805923	188.0
93.845383	140.0
93.871475	136.0
94.029915	152.0
94.047035	108.0
94.075989	112.0
94.232422	108.0
94.267197	168.0
94.301987	136.0
94.419479	192.0
94.435898	200.0
94.483757	48.0
94.506973	88.0
94.53019	60.0
94.543739	184.0
94.590187	308.0
94.605675	172.0
94.618683	216.0
94.64827	204.0
94.679253	152.0
94.751579	188.0
94.776108	116.0
94.789673	156.0
94.804794	204.0
94.841995	144.0
94.859444	144.0
94.882706	156.0
94.896278	184.0
94.995186	36.0
95.040138	240.0
95.059128	484.0
95.086029	1656.0
95.121315	128.0
95.139458	116.0
95.158203	188.0
95.170769	124.0
95.218399	48.0
95.238686	84.0
95.261131	268.0
95.301926	128.0
95.325241	136.0
95.364113	172.0
95.395416	212.0
95.432571	148.0
95.453537	168.0
95.486603	168.0
95.507996	140.0
95.60878	160.0
95.644196	136.0
95.677292	128.0
95.761024	48.0
95.776604	208.0
95.874084	172.0
95.914948	136.0
95.928596	140.0
95.961205	176.0
96.008408	188.0
96.04541	356.0
96.072441	136.0
96.087906	168.0
96.100975	144.0
96.143143	152.0
96.168694	132.0
96.238792	176.0
96.258316	216.0
96.291283	168.0
96.315948	292.0
96.385284	116.0
96.418053	208.0
96.432999	116.0
96.457596	212.0
96.498825	132.0
96.549492	148.0
96.594475	104.0
96.706009	140.0
96.731949	236.0
96.766876	168.0
96.802803	152.0
96.822563	188.0
96.862648	132.0
96.890076	160.0
96.983765	128.0
96.999466	196.0
97.021378	104.0
97.046867	152.0
97.066475	136.0
97.100227	152.0
97.131195	176.0
97.146889	220.0
97.172394	296.0
97.282295	112.0
97.320213	164.0
97.337265	144.0
97.351013	148.0
97.400108	184.0
97.420357	144.0
97.48056	152.0
97.53373	80.0
97.578941	180.0
97.613182	96.0
97.632034	108.0
97.646172	84.0
97.698906	32.0
97.728416	124.0
97.753998	140.0
97.82682	136.0
97.843697	196.0
97.8815	176.0
97.994217	108.0
98.021805	160.0
98.060104	2496.0
98.096947	1984.0
98.131332	148.0
98.161758	184.0
98.203171	180.0
98.274193	88.0
98.302856	168.0
98.33931	64.0
98.362068	180.0
98.42025	172.0
98.449867	124.0
98.467644	104.0
98.514175	252.0
98.542709	168.0
98.584206	96.0
98.617683	136.0
98.659309	212.0
98.700829	152.0
98.740341	208.0
98.77401	204.0
98.833359	172.0
98.888763	132.0
98.946175	368.0
98.973358	192.0
98.980682	140.0
99.011513	148.0
99.054787	132.0
99.061882	112.0
99.080376	1780.0
99.103928	192.0
99.17794	236.0
99.263191	200.0
99.28302	216.0
99.325821	200.0
99.345596	160.0
99.362366	128.0
99.376251	180.0
99.394112	144.0
99.407997	88.0
99.435783	176.0
99.479446	212.0
99.493347	176.0
99.548943	104.0
99.63073	112.0
99.670593	164.0
99.68998	164.0
99.728905	164.0
99.74762	256.0
99.763519	104.0
99.797318	152.0
99.877823	308.0
99.928589	152.0
99.980698	172.0
100.00222	156.0
100.027985	148.0
100.05397	136.0
100.076889	196.0
100.114235	180.0
100.169472	120.0
100.225258	208.0
100.247177	128.0
100.267105	140.0
100.327278	148.0
100.35083	228.0
100.388672	184.0
100.442558	72.0
100.466499	156.0
100.502411	200.0
100.54232	144.0
100.588226	152.0
100.648117	48.0
100.700043	148.0
100.720421	196.0
100.739754	100.0
100.771957	108.0
100.793938	132.0
100.813919	132.0
100.851891	140.0
100.885872	104.0
100.923859	124.0
100.943855	176.0
100.963852	204.0
101.060707	316.0
101.115898	176.0
101.180763	128.0
101.312126	168.0
101.365822	200.0
101.448776	212.0
101.480476	204.0
101.494514	204.0
101.628899	152.0
101.661003	196.0
101.769394	128.0
101.802841	348.0
101.857758	96.0
101.897942	124.0
101.951607	164.0
102.044174	168.0
102.068092	152.0
102.104935	180.0
102.112389	176.0
102.150589	160.0
102.177391	148.0
102.223671	168.0
102.314247	164.0
102.334381	108.0
102.394791	48.0
102.418358	160.0
102.461258	140.0
102.497528	116.0
102.521065	100.0
102.560181	92.0
102.630562	156.0
102.737175	88.0
102.858055	188.0
102.906982	168.0
102.933228	136.0
103.051224	172.0
103.084732	104.0
103.121254	164.0
103.151428	100.0
103.209793	184.0
103.238365	112.0
103.309158	180.0
103.357468	164.0
103.394142	164.0
103.410019	152.0
103.493591	92.0
103.51358	68.0
103.539688	224.0
103.608772	176.0
103.63916	76.0
103.680046	136.0
103.748604	172.0
103.774963	132.0
103.799294	204.0
103.819572	72.0
103.890564	188.0
103.967667	212.0
103.990288	176.0
104.01506	200.0
104.061035	136.0
104.109772	112.0
104.144844	164.0
104.191017	156.0
104.223579	148.0
104.284615	164.0
104.31498	128.0
104.343445	116.0
104.373009	112.0
104.402405	100.0
104.450043	152.0
104.467491	160.0
104.480804	140.0
104.488693	76.0
104.493042	172.0
104.552155	336.0
104.601799	32.0
104.628265	224.0
104.655838	172.0
104.719894	204.0
104.76384	216.0
104.79731	164.0
104.887451	172.0
104.990959	120.0
105.068466	128.0
105.140869	188.0
105.185654	184.0
105.224754	256.0
105.270477	136.0
105.411484	164.0
105.434242	116.0
105.489151	368.0
105.603653	144.0
105.622063	148.0
105.674248	100.0
105.701851	156.0
105.808281	52.0
105.8349	148.0
105.892235	84.0
105.908623	152.0
105.947548	116.0
106.045898	84.0
106.079338	212.0
106.185318	236.0
106.228394	160.0
106.250961	160.0
106.269424	28.0
106.302254	200.0
106.36998	260.0
106.39872	128.0
106.493179	96.0
106.55275	132.0
106.610283	208.0
106.635788	176.0
106.645027	168.0
106.663719	172.0
106.699699	136.0
106.722313	184.0
106.779144	204.0
106.846741	116.0
106.889954	52.0
106.920822	164.0
106.955811	144.0
107.003159	48.0
107.038155	80.0
107.056694	184.0
107.132896	116.0
107.265816	216.0
107.349312	48.0
107.392044	200.0
107.448318	108.0
107.466888	140.0
107.530861	132.0
107.586594	184.0
107.623756	180.0
107.711723	200.0
107.795013	176.0
107.82206	204.0
107.884399	100.0
107.908417	160.0
107.960365	196.0
108.012283	172.0
108.073502	360.0
108.111588	160.0
108.161263	168.0
108.223366	144.0
108.320702	184.0
108.380783	172.0
108.443794	176.0
108.471977	128.0
108.625053	92.0
108.671059	136.0
108.692627	192.0
108.706337	180.0
108.722939	144.0
108.756203	140.0
108.808174	220.0
108.837112	188.0
108.872414	128.0
108.891098	140.0
108.930565	156.0
108.97979	156.0
108.987968	108.0
108.993965	224.0
109.026138	112.0
109.074333	152.0
109.113441	104.0
109.16259	220.0
109.186432	176.0
109.204941	144.0
109.244461	184.0
109.261101	124.0
109.281906	76.0
109.333931	252.0
109.419273	116.0
109.450607	160.0
109.490067	120.0
109.525475	92.0
109.550468	152.0
109.569221	80.0
109.631729	136.0
109.646317	164.0
109.708527	204.0
109.729507	132.0
109.747101	92.0
109.782021	168.0
109.835251	148.0
109.89238	168.0
109.952888	124.0
109.971672	208.0
110.014671	160.0
110.059601	112.0
110.086502	152.0
110.147064	84.0
110.21183	92.0
110.232727	104.0
110.297516	200.0
110.340439	220.0
110.368599	100.0
110.462044	176.0
110.481537	136.0
110.697983	184.0
110.75576	144.0
110.78508	52.0
110.84375	156.0
110.8647	68.0
110.936707	124.0
110.979996	168.0
111.058701	132.0
111.149895	204.0
111.170876	76.0
111.234764	100.0
111.292625	168.0
111.338821	168.0
111.357582	304.0
111.378723	148.0
111.395531	152.0
111.456459	148.0
111.481674	132.0
111.509781	168.0
111.614105	84.0
111.643547	208.0
111.740303	136.0
111.782387	132.0
111.879204	140.0
111.923416	204.0
112.007652	172.0
112.053238	308.0
112.077179	132.0
112.111557	1376.0
112.196762	200.0
112.218147	136.0
112.259865	244.0
112.302742	192.0
112.344666	192.0
112.397675	48.0
112.433556	172.0
112.456345	180.0
112.479988	204.0
112.526428	52.0
112.560837	176.0
112.615959	128.0
112.641342	164.0
112.710854	216.0
112.750336	172.0
112.900436	176.0
112.930046	148.0
112.966003	204.0
112.996162	372.0
113.031586	136.0
113.076027	92.0
113.111519	172.0
113.1353	208.0
113.182716	212.0
113.198814	148.0
113.215759	180.0
113.325905	136.0
113.344978	176.0
113.389481	188.0
113.419151	160.0
113.459427	128.0
113.480629	176.0
113.506073	156.0
113.532837	200.0
113.601509	136.0
113.63546	128.0
113.682137	148.0
113.697441	152.0
113.722458	148.0
113.776115	160.0
113.798721	124.0
113.828606	152.0
113.847717	152.0
113.862587	184.0
113.902939	188.0
113.930557	200.0
113.947556	184.0
113.970924	136.0
113.990051	220.0
114.013313	152.0
114.055603	284.0
114.127495	544.0
114.14682	64.0
114.177124	40.0
114.196266	168.0
114.338806	172.0
114.404793	96.0
114.438858	172.0
114.496353	224.0
114.519775	180.0
114.569969	192.0
114.585533	180.0
114.624168	96.0
114.662521	112.0
114.707283	32.0
114.735001	236.0
114.760582	148.0
114.77977	132.0
114.798965	168.0
114.856544	172.0
114.877876	220.0
114.948357	124.0
115.049698	352.0
115.069946	140.0
115.129738	160.0
115.16391	168.0
115.206627	112.0
115.311333	112.0
115.351776	256.0
115.413475	184.0
115.453079	172.0
115.508041	192.0
115.52729	192.0
115.558632	160.0
115.591476	100.0
115.606461	120.0
115.647125	124.0
115.664246	152.0
115.703316	184.0
115.779861	180.0
115.876251	84.0
115.931961	160.0
116.015556	160.0
116.036995	308.0
116.054146	144.0
116.073441	108.0
116.107079	692.0
116.152977	140.0
116.198677	144.0
116.245049	132.0
116.267769	184.0
116.290115	108.0
116.424286	168.0
116.461884	188.0
116.50914	96.0
116.558563	80.0
116.599388	100.0
116.618736	160.0
116.719772	112.0
116.831612	156.0
116.868187	172.0
116.885399	136.0
116.944801	220.0
117.004715	188.0
117.031769	144.0
117.103333	504.0
117.136787	220.0
117.181351	152.0
117.208389	256.0
117.266579	128.0
117.348488	224.0
117.363586	136.0
117.380836	164.0
117.421806	68.0
117.439064	140.0
117.458473	136.0
117.475731	84.0
117.518883	140.0
117.540459	128.0
117.621109	108.0
117.650528	136.0
117.687233	232.0
117.799538	152.0
117.872993	100.0
117.918373	136.0
117.95256	108.0
117.966156	224.0
118.019974	200.0
118.084854	228.0
118.103218	308.0
118.123787	168.0
118.154068	140.0
118.184364	164.0
118.262268	124.0
118.305557	164.0
118.325043	180.0
118.376846	212.0
118.467339	204.0
118.535744	200.0
118.552475	140.0
118.587151	196.0
118.610992	104.0
118.637993	164.0
118.735756	156.0
118.769279	140.0
118.797485	192.0
118.834366	88.0
118.856064	48.0
118.871246	176.0
118.903801	204.0
118.951553	228.0
118.982391	212.0
119.011047	128.0
119.031883	140.0
119.053596	136.0
119.164375	216.0
119.181763	128.0
119.242607	140.0
119.280876	168.0
119.328285	116.0
119.35347	160.0
119.458862	184.0
119.609039	156.0
119.649368	244.0
119.677513	108.0
119.727074	228.0
119.753891	28.0
119.776024	292.0
119.8032	208.0
119.844963	164.0
119.886787	196.0
119.904228	124.0
119.99501	104.0
120.018394	172.0
120.026604	200.0
120.050285	204.0
120.073158	232.0
120.109177	228.0
120.141899	140.0
120.21608	160.0
120.248817	184.0
120.272827	136.0
120.294655	52.0
120.315025	176.0
120.39946	132.0
120.458427	196.0
120.516106	140.0
120.607018	56.0
120.624504	32.0
120.644173	196.0
120.663849	164.0
120.711952	52.0
120.731636	132.0
120.788498	148.0
120.862885	160.0
120.884766	108.0
120.908836	128.0
120.933968	180.0
120.972313	120.0
121.009529	136.0
121.043449	384.0
121.114967	164.0
121.14093	160.0
121.186935	204.0
121.250488	116.0
121.298706	144.0
121.362442	164.0
121.434647	204.0
121.493874	208.0
121.511429	160.0
121.597008	156.0
121.678223	52.0
121.713348	84.0
121.741898	140.0
121.777039	248.0
121.802414	116.0
121.850365	188.0
121.893471	180.0
121.983429	228.0
122.042183	208.0
122.097229	448.0
122.160049	148.0
122.225502	124.0
122.25631	176.0
122.291527	40.0
122.335548	56.0
122.375175	68.0
122.445641	228.0
122.472069	104.0
122.606468	140.0
122.650543	144.0
122.716194	196.0
122.740936	152.0
122.849815	168.0
122.87989	96.0
122.898766	108.0
122.926224	124.0
122.94471	96.0
123.038597	136.0
123.080269	4856.0
123.122643	156.0
123.165474	188.0
123.196457	112.0
123.217682	88.0
123.255241	92.0
123.295937	120.0
123.334267	164.0
123.339935	124.0
123.346718	204.0
123.367622	180.0
123.425446	128.0
123.454193	140.0
123.472954	132.0
123.529388	44.0
123.597977	100.0
123.616638	172.0
123.693138	100.0
123.710365	160.0
123.762299	140.0
123.814682	116.0
123.961121	36.0
123.976639	124.0
123.994362	100.0
124.012093	84.0
124.075996	392.0
124.110718	424.0
124.187256	228.0
124.22274	80.0
124.262672	184.0
124.304832	136.0
124.373634	140.0
124.398048	136.0
124.444672	136.0
124.480202	148.0
124.502403	96.0
124.573479	136.0
124.609436	108.0
124.641426	184.0
124.66169	132.0
124.686798	100.0
124.717911	128.0
124.75621	140.0
124.835747	168.0
124.877998	140.0
124.953629	208.0
124.993683	212.0
125.08123	260.0
125.116096	132.0
125.167305	100.0
125.187347	88.0
125.225204	148.0
125.25193	180.0
125.324165	236.0
125.390076	176.0
125.412361	140.0
125.454033	172.0
125.517563	148.0
125.572891	156.0
125.63089	116.0
125.67997	140.0
125.744682	164.0
125.784859	164.0
125.831741	112.0
125.854073	172.0
125.929993	92.0
125.992538	164.0
126.024994	228.0
126.054008	396.0
126.091469	472.0
126.13829	184.0
126.164864	212.0
126.193909	184.0
126.218277	164.0
126.273987	136.0
126.345222	248.0
126.38604	164.0
126.419601	288.0
126.43808	360.0
126.502419	100.0
126.518089	96.0
126.553909	100.0
126.609886	160.0
126.654686	260.0
126.71965	204.0
126.797447	100.0
126.822731	108.0
126.847389	132.0
126.90081	140.0
126.942139	200.0
126.96846	44.0
126.988647	104.0
127.071648	48.0
127.087349	380.0
127.129768	204.0
127.136574	184.0
127.144669	96.0
127.177116	120.0
127.201683	144.0
127.253441	204.0
127.275894	160.0
127.295982	152.0
127.352249	132.0
127.373161	180.0
127.437614	132.0
127.462326	128.0
127.516266	200.0
127.531776	164.0
127.561218	160.0
127.582123	160.0
127.607353	176.0
127.64328	152.0
127.658798	160.0
127.709625	156.0
127.792145	216.0
127.806358	248.0
127.851143	208.0
127.885124	180.0
127.912132	36.0
127.92968	176.0
127.952652	112.0
127.986084	184.0
128.0112	244.0
128.038223	100.0
128.070374	1204.0
128.103531	144.0
128.130569	48.0
128.146347	204.0
128.18718	164.0
128.263519	116.0
128.317627	200.0
128.337921	56.0
128.372086	156.0
128.430389	196.0
128.50032	212.0
128.535141	92.0
128.575058	164.0
128.726547	192.0
128.751129	172.0
128.782486	164.0
128.908997	172.0
128.927078	60.0
128.974594	180.0
129.019974	248.0
129.049149	72.0
129.069138	168.0
129.098892	100.0
129.137344	132.0
129.19841	28.0
129.273071	116.0
129.297974	208.0
129.320602	192.0
129.340973	136.0
129.409805	168.0
129.438324	208.0
129.463242	140.0
129.483612	60.0
129.499466	184.0
129.517593	104.0
129.585556	124.0
129.680725	180.0
129.732864	156.0
129.846237	156.0
129.99823	148.0
130.052704	104.0
130.075394	152.0
130.138336	164.0
130.226639	132.0
130.297943	152.0
130.377472	116.0
130.433411	144.0
130.457031	196.0
130.516144	152.0
130.686722	116.0
130.755569	204.0
130.782303	140.0
130.887024	120.0
130.914352	208.0
130.957153	172.0
130.975845	180.0
131.195999	184.0
131.242477	96.0
131.263	180.0
131.285751	176.0
131.29393	172.0
131.302963	100.0
131.342834	132.0
131.361084	76.0
131.393021	180.0
131.45462	148.0
131.523087	196.0
131.539062	104.0
131.61441	196.0
131.631729	212.0
131.653229	124.0
131.676544	152.0
131.742691	212.0
131.845123	152.0
131.975418	100.0
132.00972	140.0
132.058716	200.0
132.117218	156.0
132.174408	120.0
132.213318	248.0
132.245361	200.0
132.30188	180.0
132.35524	104.0
132.478912	44.0
132.517868	128.0
132.547821	116.0
132.623276	136.0
132.681091	184.0
132.792953	104.0
132.867828	192.0
132.979172	144.0
133.040771	204.0
133.086685	312.0
133.16246	100.0
133.192322	100.0
133.219879	192.0
133.249756	156.0
133.293411	316.0
133.399124	80.0
133.466309	252.0
133.498001	216.0
133.581741	88.0
133.691238	48.0
133.709641	116.0
133.730362	120.0
133.748764	176.0
133.774094	160.0
133.865906	100.0
133.883514	144.0
133.90303	252.0
133.926071	112.0
133.960617	136.0
133.982986	152.0
134.018219	144.0
134.087601	140.0
134.135223	160.0
134.170334	148.0
134.200302	136.0
134.26947	100.0
134.327133	148.0
134.387802	172.0
134.433273	44.0
134.486359	180.0
134.527603	124.0
134.557907	216.0
134.587921	44.0
134.684921	116.0
134.768082	144.0
134.784256	180.0
134.823547	160.0
134.916931	188.0
134.939117	156.0
134.987671	80.0
135.037369	164.0
135.225967	176.0
135.274567	236.0
135.316238	212.0
135.355606	188.0
135.390335	32.0
135.415817	112.0
135.464447	168.0
135.501526	92.0
135.547867	280.0
135.580307	124.0
135.603485	148.0
135.642883	96.0
135.749527	96.0
135.80307	92.0
135.869507	380.0
135.921539	184.0
135.945084	188.0
136.032593	176.0
136.076752	184.0
136.126923	184.0
136.135544	116.0
136.141129	144.0
136.184647	144.0
136.203964	288.0
136.292709	128.0
136.3508	80.0
136.378693	152.0
136.460052	76.0
136.483307	132.0
136.536789	236.0
136.622849	172.0
136.660065	80.0
136.67868	132.0
136.698578	160.0
136.755478	104.0
136.776428	148.0
136.815475	160.0
136.821945	196.0
136.871887	140.0
136.911469	144.0
136.934753	128.0
137.006973	132.0
137.04895	188.0
137.07579	156.0
137.08197	192.0
137.109039	604.0
137.139786	44.0
137.165436	84.0
137.223709	132.0
137.251694	56.0
137.278458	224.0
137.372971	144.0
137.417297	60.0
137.438293	100.0
137.470963	188.0
137.512802	172.0
137.527252	228.0
137.575989	220.0
137.606339	152.0
137.651184	196.0
137.676392	176.0
137.701279	280.0
137.723099	196.0
137.741791	260.0
137.798706	164.0
137.825897	132.0
137.884308	332.0
137.921707	184.0
137.942749	172.0
137.994171	128.0
138.023605	144.0
138.030243	188.0
138.07135	148.0
138.091156	444.0
138.118073	1084.0
138.240677	212.0
138.273529	228.0
138.362656	168.0
138.417679	76.0
138.450317	132.0
138.525421	124.0
138.5513	172.0
138.572922	160.0
138.59935	172.0
138.619141	172.0
138.637299	240.0
138.687103	204.0
138.712875	140.0
138.884048	140.0
138.900467	168.0
138.919235	144.0
138.970856	176.0
138.987854	180.0
139.02951	104.0
139.09758	120.0
139.123337	512.0
139.141174	168.0
139.165665	104.0
139.198364	160.0
139.273682	128.0
139.29483	168.0
139.358261	136.0
139.4095	188.0
139.433456	144.0
139.466354	172.0
139.498367	220.0
139.53923	112.0
139.567444	152.0
139.654861	164.0
139.682678	144.0
139.751465	84.0
139.786758	152.0
139.856812	104.0
139.874496	160.0
139.905716	144.0
139.923004	324.0
139.950974	148.0
139.973709	164.0
140.063538	288.0
140.074966	220.0
140.107697	67416.0
140.186523	144.0
140.205383	204.0
140.225037	140.0
140.250198	160.0
140.283951	48.0
140.310303	116.0
140.335999	68.0
140.357819	144.0
140.376587	128.0
140.39566	84.0
140.404037	60.0
140.421097	228.0
140.450851	156.0
140.468216	116.0
140.49321	332.0
140.521347	72.0
140.540222	40.0
140.565857	144.0
140.624146	164.0
140.649796	124.0
140.680435	264.0
140.708313	148.0
140.736237	172.0
140.77562	116.0
140.811691	156.0
140.851852	52.0
140.873901	96.0
140.917236	200.0
140.979431	188.0
141.037659	120.0
141.057037	144.0
141.092407	2652.0
141.110474	6188.0
141.135956	440.0
141.215851	120.0
141.263153	60.0
141.317566	168.0
141.336502	192.0
141.353058	180.0
141.394241	160.0
141.426971	160.0
141.457199	116.0
141.491943	136.0
141.522552	244.0
141.544159	180.0
141.593307	60.0
141.61348	48.0
141.65712	160.0
141.662796	68.0
141.6716	148.0
141.69165	40.0
141.722443	96.0
141.748505	104.0
141.821976	156.0
141.843307	128.0
141.866287	104.0
141.978455	80.0
142.01268	196.0
142.050781	364.0
142.091568	328.0
142.118347	952.0
142.153061	132.0
142.208511	124.0
142.26474	116.0
142.29985	136.0
142.319244	156.0
142.339157	228.0
142.381897	68.0
142.421249	152.0
142.457901	124.0
142.510498	272.0
142.545822	120.0
142.588593	160.0
142.643265	140.0
142.761246	148.0
142.810547	192.0
142.833496	60.0
142.85965	208.0
142.940552	196.0
142.969101	172.0
143.019089	56.0
143.077805	180.0
143.11792	2088.0
143.176224	224.0
143.192886	180.0
143.216003	188.0
143.238144	84.0
143.283417	48.0
143.330643	136.0
143.39064	144.0
143.409698	148.0
143.426392	128.0
143.52652	128.0
143.623505	72.0
143.666245	280.0
143.675201	164.0
143.891571	128.0
143.915436	156.0
143.956039	192.0
143.987076	112.0
144.008575	56.0
144.082626	76.0
144.100845	308.0
144.123474	148.0
144.144745	176.0
144.161469	132.0
144.180588	164.0
144.21405	164.0
144.252304	84.0
144.32402	168.0
144.36467	192.0
144.470291	176.0
144.615875	84.0
144.663742	120.0
144.716415	108.0
144.785858	104.0
144.84288	208.0
145.013397	164.0
145.029907	172.0
145.063797	176.0
145.099701	168.0
145.183685	116.0
145.223099	212.0
145.242294	64.0
145.277222	168.0
145.296417	108.0
145.320404	48.0
145.337204	116.0
145.396881	284.0
145.488403	156.0
145.534027	136.0
145.57724	148.0
145.606064	172.0
145.728577	52.0
145.77182	156.0
145.824692	100.0
145.908829	132.0
145.947418	160.0
146.079559	168.0
146.115906	112.0
146.14212	104.0
146.161362	168.0
146.243195	144.0
146.284103	180.0
146.30336	168.0
146.344299	172.0
146.426163	128.0
146.561066	120.0
146.730911	324.0
146.758514	196.0
146.804535	88.0
146.867233	88.0
146.942017	196.0
147.002335	164.0
147.075424	204.0
147.098877	80.0
147.127853	188.0
147.202698	132.0
147.299301	212.0
147.319427	192.0
147.424942	52.0
147.559509	196.0
147.62558	172.0
147.649765	108.0
147.695724	120.0
147.80217	132.0
147.831207	88.0
147.851685	192.0
147.899185	140.0
147.951218	172.0
147.99823	128.0
148.015182	148.0
148.075714	156.0
148.099945	184.0
148.187546	144.0
148.279236	60.0
148.303131	144.0
148.309097	124.0
148.450912	176.0
148.459503	144.0
148.504715	180.0
148.531387	60.0
148.682373	176.0
148.723083	136.0
148.740067	160.0
148.759491	152.0
148.78392	128.0
148.831131	204.0
148.907608	164.0
148.956741	192.0
149.05336	148.0
149.097107	156.0
149.145706	164.0
149.18541	156.0
149.245377	148.0
149.306183	172.0
149.381577	120.0
149.448608	160.0
149.498367	80.0
149.520264	44.0
149.540878	196.0
149.569214	164.0
149.624939	160.0
149.663895	216.0
149.729645	136.0
149.853867	156.0
149.899277	188.0
149.948898	124.0
149.971054	136.0
150.004532	68.0
150.039093	124.0
150.058594	172.0
150.102493	188.0
150.124435	132.0
150.156143	148.0
150.204102	64.0
150.334229	44.0
150.37912	192.0
150.406372	292.0
150.431854	180.0
150.495331	100.0
150.573471	204.0
150.593018	148.0
150.617432	176.0
150.637787	132.0
150.693161	168.0
150.732269	112.0
150.781143	148.0
150.826233	176.0
150.876465	168.0
150.93515	104.0
150.988937	196.0
151.030518	88.0
151.057434	88.0
151.097488	160.0
151.170715	132.0
151.201782	148.0
151.22908	132.0
151.255417	136.0
151.27858	172.0
151.341949	108.0
151.363358	84.0
151.383698	168.0
151.39444	52.0
151.401917	204.0
151.421112	128.0
151.600967	172.0
151.640182	156.0
151.676941	204.0
151.708817	152.0
151.759644	180.0
151.803513	372.0
151.858383	92.0
151.90744	76.0
151.934662	124.0
151.963867	132.0
152.010498	144.0
152.070618	168.0
152.103531	172.0
152.108856	156.0
152.116394	184.0
152.147934	148.0
152.189682	116.0
152.211777	140.0
152.243576	180.0
152.278915	148.0
152.295273	132.0
152.3405	168.0
152.388412	192.0
152.459335	180.0
152.484467	80.0
152.516418	184.0
152.550827	180.0
152.570496	168.0
152.661469	128.0
152.695892	224.0
152.772141	120.0
152.858261	108.0
152.917328	176.0
152.948395	176.0
153.050262	156.0
153.07399	176.0
153.106888	132.0
153.138763	132.0
153.141922	124.0
153.151779	160.0
153.200485	160.0
153.257568	196.0
153.276871	128.0
153.342804	180.0
153.372986	88.0
153.477142	144.0
153.636841	64.0
153.654099	88.0
153.737991	160.0
153.765152	172.0
153.872543	136.0
153.908325	108.0
153.942886	144.0
154.037888	216.0
154.086151	156.0
154.122742	292.0
154.160278	136.0
154.222061	220.0
154.308578	60.0
154.335785	124.0
154.362091	144.0
154.523392	188.0
154.694519	32.0
154.771866	216.0
154.83812	148.0
154.874725	432.0
154.917389	176.0
154.965408	240.0
155.082031	228.0
155.116623	276.0
155.195755	248.0
155.229675	184.0
155.254471	36.0
155.279282	72.0
155.306564	368.0
155.398346	124.0
155.419769	120.0
155.467285	200.0
155.492645	88.0
155.579514	60.0
155.605255	76.0
155.626694	128.0
155.68248	128.0
155.758698	152.0
155.78067	172.0
155.827866	220.0
155.858978	168.0
155.865616	208.0
155.933731	180.0
155.970581	132.0
155.996857	148.0
156.018112	152.0
156.059738	304.0
156.075653	208.0
156.111969	320.0
156.138901	41596.0
156.197739	204.0
156.245132	156.0
156.279694	204.0
156.308792	180.0
156.34259	76.0
156.3759	208.0
156.403381	112.0
156.45787	92.0
156.488464	152.0
156.498322	92.0
156.54837	272.0
156.578262	180.0
156.621429	168.0
156.682022	160.0
156.725296	108.0
156.776474	52.0
156.818268	112.0
156.835709	176.0
156.855652	108.0
156.899918	180.0
156.940414	100.0
156.96286	168.0
156.980316	100.0
157.002762	72.0
157.031143	84.0
157.055481	188.0
157.077591	220.0
157.140518	7664.0
157.16893	388.0
157.204819	36.0
157.247253	144.0
157.292053	80.0
157.323013	148.0
157.351227	128.0
157.392044	256.0
157.434494	124.0
157.473022	140.0
157.491928	156.0
157.51442	128.0
157.541168	116.0
157.564224	64.0
157.582565	144.0
157.621628	188.0
157.630508	172.0
157.669327	108.0
157.689316	56.0
157.726807	432.0
157.751801	84.0
157.816513	236.0
157.849319	256.0
157.866821	52.0
157.936417	140.0
157.966858	100.0
157.985641	132.0
158.017197	168.0
158.036911	260.0
158.057922	236.0
158.117859	23048.0
158.202011	124.0
158.241058	64.0
158.267868	192.0
158.292786	160.0
158.311508	120.0
158.333923	160.0
158.365814	128.0
158.39241	72.0
158.409103	48.0
158.427078	72.0
158.456833	136.0
158.534332	116.0
158.562973	100.0
158.60553	108.0
158.622147	128.0
158.648819	136.0
158.723907	44.0
158.810638	292.0
158.838074	100.0
158.86116	68.0
158.883743	156.0
158.908829	56.0
158.943695	200.0
158.97908	40.0
159.041046	204.0
159.074463	148.0
159.11879	2480.0
159.179901	200.0
159.222595	56.0
159.243698	80.0
159.262787	60.0
159.290695	36.0
159.358246	96.0
159.396957	128.0
159.431122	64.0
159.486404	44.0
159.519089	160.0
159.581467	108.0
159.632217	76.0
159.712708	152.0
159.752945	108.0
159.78566	224.0
159.890427	164.0
159.921539	44.0
159.960693	188.0
159.986984	128.0
160.076782	252.0
160.120285	316.0
160.153275	104.0
160.185928	152.0
160.206085	160.0
160.260788	152.0
160.311905	204.0
160.335938	112.0
160.369812	164.0
160.384888	104.0
160.440445	88.0
160.503479	132.0
160.5242	184.0
160.551392	136.0
160.596786	72.0
160.634888	152.0
160.690125	32.0
160.745636	176.0
160.78096	136.0
160.857483	100.0
160.965668	120.0
161.185013	220.0
161.222916	184.0
161.261154	180.0
161.394806	148.0
161.466797	184.0
161.523788	172.0
161.549072	160.0
161.579437	148.0
161.617386	132.0
161.635101	100.0
161.695831	160.0
161.756577	132.0
161.791595	164.0
161.795746	136.0
161.847717	144.0
161.893295	152.0
161.921158	168.0
161.945435	116.0
161.95491	172.0
162.002213	108.0
162.08075	188.0
162.103622	140.0
162.131439	152.0
162.177048	184.0
162.25563	256.0
162.33931	160.0
162.42807	144.0
162.491501	148.0
162.534897	152.0
162.580307	156.0
162.625992	52.0
162.66153	148.0
162.678787	176.0
162.841797	152.0
162.956116	176.0
162.996765	60.0
163.022171	176.0
163.080627	144.0
163.116211	144.0
163.15181	168.0
163.169601	92.0
163.2052	208.0
163.23317	36.0
163.281479	232.0
163.336777	200.0
163.393402	116.0
163.421387	160.0
163.45192	56.0
163.473099	136.0
163.490097	168.0
163.591904	80.0
163.640274	108.0
163.742126	72.0
163.812134	108.0
163.851669	132.0
163.869507	132.0
163.940842	72.0
163.99437	128.0
164.105759	300.0
164.154984	136.0
164.199219	164.0
164.21463	104.0
164.246796	192.0
164.274857	192.0
164.318161	184.0
164.435608	152.0
164.4841	104.0
164.521942	92.0
164.553024	168.0
164.574051	180.0
164.606644	52.0
164.683304	200.0
164.708801	132.0
164.892761	156.0
164.979675	160.0
164.997559	128.0
165.025177	284.0
165.084503	184.0
165.139023	1448.0
165.186798	132.0
165.274567	152.0
165.307053	192.0
165.340317	68.0
165.365616	140.0
165.463181	216.0
165.504974	124.0
165.604019	220.0
165.678314	252.0
165.734528	144.0
165.756668	192.0
165.778244	144.0
165.8013	72.0
165.821808	172.0
165.873062	112.0
165.957672	108.0
165.990997	216.0
166.057678	152.0
166.086777	208.0
166.122681	21672.0
166.164062	160.0
166.18428	216.0
166.203674	44.0
166.215332	132.0
166.250092	196.0
166.272552	88.0
166.31041	40.0
166.339203	128.0
166.368164	76.0
166.412781	200.0
166.434219	60.0
166.475998	176.0
166.498596	100.0
166.519196	180.0
166.554977	196.0
166.576157	192.0
166.609009	224.0
166.64296	44.0
166.680618	200.0
166.7117	60.0
166.731537	144.0
166.770401	208.0
166.81514	144.0
166.921494	172.0
166.946274	96.0
167.038437	148.0
167.124756	1860.0
167.162048	168.0
167.247284	44.0
167.305756	140.0
167.35025	104.0
167.410904	212.0
167.440887	164.0
167.491898	136.0
167.520233	108.0
167.557999	164.0
167.59494	312.0
167.619263	220.0
167.673935	160.0
167.803711	152.0
167.838898	204.0
167.924911	156.0
167.976501	136.0
168.06163	148.0
168.103241	732.0
168.130173	344.0
168.151947	232.0
168.175186	144.0
168.218811	200.0
168.275864	36.0
168.306229	84.0
168.324921	144.0
168.376572	104.0
168.438217	120.0
168.503143	160.0
168.552231	148.0
168.580658	196.0
168.634918	140.0
168.705719	124.0
168.75383	140.0
168.784393	196.0
168.818481	180.0
168.859863	100.0
168.911591	72.0
168.932281	40.0
168.963333	180.0
168.985016	148.0
169.018417	68.0
169.105576	180.0
169.129852	136.0
169.16803	776.0
169.240265	156.0
169.298843	148.0
169.333481	116.0
169.417633	164.0
169.465591	184.0
169.52742	172.0
169.56546	140.0
169.583939	132.0
169.606796	160.0
169.746719	156.0
169.811142	148.0
170.020508	120.0
170.041275	108.0
170.075012	88.0
170.098526	136.0
170.119141	232.0
170.137314	144.0
170.176254	152.0
170.207413	52.0
170.300903	80.0
170.321686	44.0
170.542542	112.0
170.656662	156.0
170.740143	36.0
170.782578	176.0
170.812973	152.0
170.949692	144.0
170.976883	120.0
170.996628	224.0
171.023727	108.0
171.075409	300.0
171.115128	1008.0
171.148102	3276.0
171.187744	28.0
171.234619	108.0
171.271088	160.0
171.304947	188.0
171.349243	52.0
171.372818	152.0
171.419586	80.0
171.445648	116.0
171.502991	132.0
171.523209	200.0
171.562759	180.0
171.617691	96.0
171.635941	180.0
171.66301	180.0
171.716782	112.0
171.815903	172.0
171.86026	48.0
171.921158	200.0
171.999435	232.0
172.024673	116.0
172.069061	116.0
172.119171	112.0
172.15213	764.0
172.285812	228.0
172.325012	84.0
172.385101	172.0
172.572479	268.0
172.599457	132.0
172.677902	188.0
172.751144	136.0
172.884583	60.0
172.902893	100.0
172.939545	116.0
173.138245	156.0
173.314026	128.0
173.365738	152.0
173.400497	152.0
173.429337	204.0
173.494873	92.0
173.557877	124.0
173.588699	224.0
173.711899	216.0
173.722061	164.0
173.799103	192.0
173.817474	200.0
173.898819	140.0
173.927689	176.0
173.991318	152.0
174.014328	140.0
174.051086	164.0
174.08522	48.0
174.157745	148.0
174.181351	60.0
174.253326	108.0
174.31868	156.0
174.397858	36.0
174.468826	44.0
174.50563	136.0
174.562531	216.0
174.592407	152.0
174.627045	164.0
174.712982	148.0
174.825394	132.0
174.87323	184.0
174.956009	192.0
175.048462	172.0
175.108246	136.0
175.137665	288.0
175.168823	284.0
175.232407	176.0
175.257889	124.0
175.31636	76.0
175.416519	84.0
175.440247	136.0
175.461334	76.0
175.496445	164.0
175.635376	244.0
175.656296	168.0
175.677582	216.0
175.715729	148.0
175.75853	124.0
175.80423	96.0
175.851746	176.0
175.875488	132.0
175.905777	220.0
175.937164	132.0
175.977158	204.0
176.007996	180.0
176.041489	96.0
176.128693	64636.0
176.190033	224.0
176.199142	36.0
176.209625	164.0
176.236526	180.0
176.296906	56.0
176.322876	196.0
176.342133	136.0
176.405838	108.0
176.413406	152.0
176.443817	116.0
176.493301	336.0
176.528229	60.0
176.567596	136.0
176.588882	36.0
176.628555	36.0
176.658798	88.0
176.681458	156.0
176.743973	216.0
176.785873	148.0
176.83493	132.0
176.881378	192.0
176.932877	100.0
176.984543	136.0
177.010941	60.0
177.040833	124.0
177.131027	4964.0
177.169083	288.0
177.200363	184.0
177.271912	80.0
177.307022	160.0
177.332855	164.0
177.357437	160.0
177.382599	188.0
177.468063	136.0
177.518433	48.0
177.547607	72.0
177.568817	96.0
177.587387	128.0
177.660568	80.0
177.688187	148.0
177.717377	72.0
177.796982	60.0
177.847412	128.0
177.871307	56.0
177.891281	136.0
177.939438	132.0
177.958908	60.0
178.019974	192.0
178.057159	100.0
178.099655	152.0
178.133545	448.0
178.168716	28.0
178.200867	164.0
178.241898	124.0
178.287933	88.0
178.299484	76.0
178.305664	60.0
178.386627	108.0
178.406616	208.0
178.435867	48.0
178.470383	112.0
178.497025	172.0
178.507263	204.0
178.548828	60.0
178.572754	36.0
178.62738	156.0
178.647003	92.0
178.651093	168.0
178.687134	136.0
178.71907	152.0
178.739777	92.0
178.844147	340.0
178.861893	144.0
178.929337	236.0
178.975128	196.0
179.014526	116.0
179.07312	92.0
179.166351	120.0
179.238297	36.0
179.347549	124.0
179.375397	136.0
179.406204	144.0
179.467514	36.0
179.53685	216.0
179.555511	108.0
179.606201	156.0
179.651535	180.0
179.726242	136.0
179.75293	192.0
179.820816	164.0
179.873032	120.0
179.998917	180.0
180.035889	96.0
180.097321	84.0
180.136337	584.0
180.257614	108.0
180.295029	144.0
180.356491	160.0
180.446503	60.0
180.492844	56.0
180.562363	36.0
180.688095	36.0
180.835266	96.0
180.92627	204.0
181.036499	144.0
181.076218	192.0
181.105682	164.0
181.138458	384.0
181.161942	128.0
181.18605	36.0
181.234268	132.0
181.261063	172.0
181.290543	144.0
181.419205	156.0
181.448685	184.0
181.513046	164.0
181.569351	152.0
181.590805	188.0
181.61763	200.0
181.676651	76.0
181.695419	44.0
181.778595	128.0
181.859116	136.0
182.012131	80.0
182.036301	172.0
182.071213	64.0
182.114288	224.0
182.146408	76.0
182.20015	196.0
182.296875	176.0
182.382874	104.0
182.495773	108.0
182.544174	140.0
182.602722	104.0
182.665207	160.0
182.711594	148.0
182.802414	144.0
182.82312	144.0
182.867004	280.0
182.891235	104.0
182.964813	196.0
183.047379	48.0
183.08606	120.0
183.108002	128.0
183.148743	9908.0
183.208984	60.0
183.227844	68.0
183.273956	172.0
183.304321	108.0
183.338318	76.0
183.386826	160.0
183.416473	108.0
183.438034	224.0
183.491959	180.0
183.543182	180.0
183.566101	136.0
183.612732	96.0
183.656448	48.0
183.678024	108.0
183.706512	72.0
183.72316	148.0
183.742767	124.0
183.80983	140.0
183.837219	204.0
183.866898	68.0
183.912781	208.0
184.000778	120.0
184.050262	84.0
184.070053	188.0
184.093887	244.0
184.133759	56512.0
184.223648	68.0
184.246994	136.0
184.291977	100.0
184.312469	120.0
184.339493	36.0
184.358398	48.0
184.388428	256.0
184.410095	156.0
184.435425	32.0
184.451553	172.0
184.471542	188.0
184.495575	144.0
184.517883	52.0
184.563171	100.0
184.570358	108.0
184.683197	132.0
184.728622	136.0
184.763992	292.0
184.807281	48.0
184.83374	184.0
184.864105	72.0
184.926346	56.0
184.956741	52.0
184.990463	140.0
185.008286	252.0
185.067108	244.0
185.099609	196.0
185.134384	7916.0
185.22023	104.0
185.253983	48.0
185.274857	68.0
185.319	56.0
185.346466	176.0
185.393066	96.0
185.425476	96.0
185.457397	184.0
185.527817	160.0
185.558304	220.0
185.590042	168.0
185.611084	148.0
185.633972	140.0
185.65741	176.0
185.67865	452.0
185.750046	52.0
185.777435	84.0
185.869431	68.0
185.966354	156.0
186.005127	72.0
186.025284	140.0
186.076981	236.0
186.1129	41580.0
186.167496	188.0
186.206558	172.0
186.232849	60.0
186.264526	120.0
186.294678	140.0
186.329041	128.0
186.36496	152.0
186.393494	116.0
186.435898	344.0
186.473282	132.0
186.501602	256.0
186.558319	160.0
186.606155	124.0
186.632431	128.0
186.653778	188.0
186.681625	120.0
186.70993	76.0
186.74202	120.0
186.771378	112.0
186.833954	80.0
186.869308	56.0
186.898132	88.0
186.915756	156.0
186.970001	112.0
187.012009	92.0
187.067978	88.0
187.11618	4380.0
187.14183	420.0
187.168716	36.0
187.204117	44.0
187.239517	128.0
187.329407	72.0
187.375717	232.0
187.413864	128.0
187.612808	104.0
187.631897	72.0
187.664612	120.0
187.713745	124.0
187.751877	192.0
187.779144	164.0
187.82666	152.0
187.838135	64.0
187.843246	128.0
187.923721	152.0
187.94989	156.0
188.010101	116.0
188.032867	60.0
188.084732	144.0
188.118393	752.0
188.150253	316.0
188.215775	32.0
188.248276	84.0
188.325012	104.0
188.353546	72.0
188.376144	112.0
188.443069	148.0
188.494385	104.0
188.592377	140.0
188.663849	104.0
188.702118	80.0
188.77594	52.0
188.830643	136.0
188.943909	124.0
188.964676	204.0
189.112305	152.0
189.142563	100.0
189.190674	180.0
189.227417	116.0
189.25206	60.0
189.284927	28.0
189.336945	196.0
189.410904	56.0
189.43924	244.0
189.479385	244.0
189.52597	68.0
189.716095	160.0
189.749481	176.0
189.787445	192.0
189.824738	108.0
189.918564	192.0
189.945419	120.0
190.003021	112.0
190.03595	232.0
190.079178	180.0
190.305847	236.0
190.343369	56.0
190.420258	176.0
190.615311	172.0
190.675766	184.0
190.711502	136.0
190.766464	192.0
190.879196	128.0
190.934189	92.0
190.958954	228.0
190.978195	84.0
191.04422	112.0
191.075729	184.0
191.112991	180.0
191.140518	88.0
191.176285	204.0
191.291885	184.0
191.311157	180.0
191.437805	168.0
191.514923	192.0
191.658173	144.0
191.68573	104.0
191.791229	156.0
191.908997	212.0
191.941666	52.0
191.995758	172.0
192.115845	144.0
192.157516	152.0
192.195847	208.0
192.245514	92.0
192.264832	68.0
192.411133	104.0
192.464859	192.0
192.549194	136.0
192.75914	128.0
192.786774	160.0
192.819946	128.0
192.983032	168.0
193.030045	60.0
193.068588	136.0
193.107407	176.0
193.133423	1668.0
193.202255	180.0
193.24025	84.0
193.298355	80.0
193.334335	184.0
193.619476	136.0
193.708115	132.0
193.809326	364.0
193.846252	112.0
193.985214	76.0
194.004623	156.0
194.024033	204.0
194.043228	160.0
194.063568	200.0
194.11763	12900.0
194.153931	4196.0
194.25975	32.0
194.287491	148.0
194.322983	156.0
194.396713	68.0
194.423447	32.0
194.459534	80.0
194.503937	200.0
194.538956	156.0
194.623322	164.0
194.66629	236.0
194.740936	68.0
194.766281	184.0
194.884399	44.0
194.99556	168.0
195.034073	56.0
195.077164	368.0
195.120895	1672.0
195.155716	1188.0
195.192932	156.0
195.279144	52.0
195.337555	108.0
195.482239	152.0
195.526337	124.0
195.553574	132.0
195.652023	160.0
195.732758	60.0
195.757828	124.0
195.827438	108.0
195.875839	236.0
195.933121	128.0
196.000168	164.0
196.019669	64.0
196.076599	140.0
196.122055	76.0
196.189682	64.0
196.265717	164.0
196.345825	208.0
196.368149	36.0
196.471832	164.0
196.489899	80.0
196.521576	96.0
196.556793	96.0
196.624817	104.0
196.655518	60.0
196.711349	184.0
196.75322	128.0
196.772766	116.0
196.813293	160.0
196.873184	164.0
196.912384	156.0
197.038086	92.0
197.093964	60.0
197.134048	172.0
197.162094	888.0
197.203827	216.0
197.228104	80.0
197.35025	208.0
197.373474	164.0
197.421021	200.0
197.505661	212.0
197.560684	60.0
197.614014	160.0
197.673309	148.0
197.766769	116.0
197.895142	172.0
197.930298	96.0
198.003113	132.0
198.061935	136.0
198.163742	180.0
198.216019	84.0
198.272675	260.0
198.392273	144.0
198.432922	124.0
198.454269	88.0
198.50267	164.0
198.527176	188.0
198.611313	80.0
198.661804	64.0
198.727737	108.0
198.950851	108.0
199.040695	124.0
199.074387	168.0
199.144974	1092.0
199.206406	188.0
199.243484	120.0
199.403519	180.0
199.428375	136.0
199.476166	156.0
199.507355	84.0
199.535202	96.0
199.585815	80.0
199.611115	128.0
199.684937	160.0
199.799561	64.0
199.881561	160.0
199.91774	44.0
199.940247	80.0
199.97757	124.0
200.047211	168.0
200.143326	652.0
200.179535	132.0
200.210236	124.0
200.249939	132.0
200.328812	212.0
200.418961	148.0
200.449966	200.0
200.551422	244.0
200.599503	212.0
200.652893	124.0
200.774155	256.0
200.819275	60.0
200.838379	180.0
200.888123	284.0
200.937744	96.0
201.028046	144.0
201.093414	216.0
201.112	48.0
201.15979	9928.0
201.227448	136.0
201.259506	100.0
201.282486	144.0
201.314514	124.0
201.332916	192.0
201.428955	72.0
201.468674	204.0
201.51088	140.0
201.708694	80.0
201.736969	132.0
201.847229	116.0
201.887527	80.0
202.062195	52.0
202.154068	752.0
202.220657	80.0
202.285751	188.0
202.328217	44.0
202.372513	160.0
202.509445	96.0
202.61142	132.0
202.633347	92.0
202.679764	168.0
202.75209	112.0
202.809784	76.0
202.839249	164.0
202.962875	180.0
203.007599	152.0
203.087646	32.0
203.111374	188.0
203.138702	168.0
203.166275	224.0
203.206787	144.0
203.340164	92.0
203.392578	156.0
203.419632	60.0
203.496292	132.0
203.541718	76.0
203.5616	184.0
203.621902	120.0
203.64679	48.0
203.680878	204.0
203.743378	148.0
203.77179	108.0
203.814911	136.0
203.92807	112.0
203.973557	216.0
204.095795	52.0
204.139023	412.0
204.181107	48.0
204.229462	48.0
204.2892	100.0
204.422913	156.0
204.494064	136.0
204.580826	392.0
204.793015	248.0
204.815811	68.0
204.852844	152.0
204.938309	212.0
205.118683	172.0
205.172012	60.0
205.243942	176.0
205.277512	96.0
205.374466	116.0
205.408707	76.0
205.468613	88.0
205.494278	68.0
205.540985	120.0
205.647369	168.0
205.711182	172.0
205.748291	212.0
205.851074	164.0
205.925323	96.0
205.979599	244.0
206.176743	176.0
206.205322	52.0
206.239624	136.0
206.27037	148.0
206.305359	172.0
206.476929	156.0
206.582748	140.0
206.671448	132.0
206.900406	40.0
207.069351	48.0
207.149551	156.0
207.186798	148.0
207.230743	176.0
207.252686	176.0
207.327194	108.0
207.361801	104.0
207.40744	172.0
207.479111	44.0
207.534119	104.0
207.570862	204.0
207.630661	196.0
207.697037	100.0
207.794586	216.0
207.866318	204.0
207.909363	124.0
207.950104	140.0
207.96962	184.0
208.170593	148.0
208.52002	228.0
208.564194	116.0
208.592941	216.0
208.650421	156.0
208.828705	220.0
208.906372	208.0
208.975418	112.0
209.126678	392.0
209.199905	144.0
209.254593	44.0
209.349625	52.0
209.387054	168.0
209.418747	32.0
209.496506	172.0
209.629044	116.0
209.675156	156.0
209.731247	104.0
209.757904	180.0
209.85965	152.0
210.024338	164.0
210.093246	168.0
210.112747	132.0
210.13092	304.0
210.158508	192.0
210.184204	136.0
210.208664	132.0
210.286972	148.0
210.319946	292.0
210.34317	204.0
210.392487	116.0
210.477112	64.0
210.514648	116.0
210.5522	340.0
210.627289	160.0
210.71106	112.0
210.771744	116.0
210.822601	144.0
210.896011	132.0
210.916245	208.0
210.963501	92.0
211.053558	164.0
211.075165	308.0
211.144363	48492.0
211.179672	1388.0
211.23674	204.0
211.263748	120.0
211.282745	228.0
211.344131	100.0
211.352356	60.0
211.384766	84.0
211.432434	140.0
211.45488	124.0
211.496124	100.0
211.542587	120.0
211.577301	140.0
211.619659	80.0
211.661163	140.0
211.723465	44.0
211.767258	64.0
211.833527	68.0
211.857132	132.0
211.93782	148.0
211.963898	48.0
211.997894	180.0
212.020798	120.0
212.042145	108.0
212.078369	176.0
212.128342	10516.0
212.225815	160.0
212.256256	104.0
212.282761	40.0
212.326263	220.0
212.401672	60.0
212.443558	116.0
212.542831	140.0
212.570267	180.0
212.632401	176.0
212.72377	144.0
212.769669	128.0
212.793442	60.0
212.825378	72.0
212.847076	84.0
212.870895	124.0
212.932816	56.0
212.967667	44.0
213.026794	68.0
213.054825	108.0
213.131821	1912.0
213.193222	596.0
213.240784	96.0
213.29892	60.0
213.338577	156.0
213.35997	28.0
213.39183	96.0
213.402802	96.0
213.447189	116.0
213.470444	68.0
213.538788	136.0
213.570648	128.0
213.604233	80.0
213.642059	108.0
213.717224	244.0
213.750992	52.0
213.783386	104.0
213.816635	68.0
213.854477	120.0
213.877762	100.0
213.901047	44.0
213.973816	140.0
214.02623	224.0
214.141678	1844.0
214.199265	116.0
214.233017	92.0
214.276718	76.0
214.30751	112.0
214.439896	192.0
214.463211	128.0
214.579819	120.0
214.646881	28.0
214.731445	152.0
214.751862	164.0
214.802658	148.0
214.833542	48.0
214.887726	56.0
214.919601	168.0
214.973587	188.0
215.023193	200.0
215.14238	248.0
215.17572	5944.0
215.226746	160.0
215.256744	64.0
215.294708	32.0
215.402771	68.0
215.47142	224.0
215.516708	120.0
215.641586	196.0
215.665741	56.0
215.785599	60.0
215.81192	92.0
215.881119	240.0
216.028336	152.0
216.117523	140.0
216.180328	1720.0
216.230225	216.0
216.26535	92.0
216.300476	152.0
216.329742	124.0
216.405869	56.0
216.520706	188.0
216.560303	92.0
216.605011	128.0
216.634293	124.0
216.675873	124.0
216.701675	180.0
216.742706	56.0
216.774933	128.0
216.913712	148.0
216.977173	116.0
217.02803	152.0
217.076874	68.0
217.126724	136.0
217.182449	252.0
217.293915	160.0
217.38176	132.0
217.41423	44.0
217.440643	64.0
217.472916	60.0
217.607956	112.0
217.687241	96.0
217.784149	88.0
217.995682	68.0
218.160278	164.0
218.243362	152.0
218.401535	160.0
218.704453	56.0
218.79866	168.0
218.854599	144.0
218.945221	108.0
219.134399	208.0
219.213959	196.0
219.271942	160.0
219.322296	132.0
219.349533	68.0
219.384811	116.0
219.432083	132.0
219.486191	116.0
219.520538	176.0
219.71225	132.0
219.890717	192.0
220.01622	48.0
220.039841	72.0
220.128418	180.0
220.165665	252.0
220.377396	256.0
220.474045	168.0
220.562714	144.0
220.669144	92.0
220.755402	184.0
220.808121	176.0
220.991531	156.0
221.018158	108.0
221.12822	176.0
221.167221	1424.0
221.288864	208.0
221.314148	44.0
221.366577	344.0
221.408905	116.0
221.438522	156.0
221.53067	36.0
221.562927	52.0
221.583664	152.0
221.607361	60.0
221.628113	172.0
221.702194	116.0
221.746643	80.0
221.832596	192.0
221.888931	136.0
221.974915	40.0
222.002655	168.0
222.052017	136.0
222.148346	8404.0
222.253906	72.0
222.369476	104.0
222.431808	164.0
222.464462	140.0
222.503052	92.0
222.555466	184.0
222.803009	56.0
222.834854	72.0
222.865402	128.0
222.899429	88.0
222.92186	216.0
222.942657	72.0
223.079376	164.0
223.118027	48.0
223.152618	1728.0
223.20256	200.0
223.257416	168.0
223.277039	84.0
223.335098	116.0
223.576096	128.0
223.647522	148.0
223.683243	172.0
223.72403	176.0
223.745758	188.0
223.775528	148.0
223.912506	60.0
223.951218	100.0
223.99292	80.0
224.046539	92.0
224.100174	88.0
224.15152	184.0
224.186584	220.0
224.213394	36.0
224.246185	60.0
224.267044	92.0
224.387177	148.0
224.463806	36.0
224.499588	156.0
224.520462	164.0
224.653107	104.0
224.744186	84.0
224.875504	140.0
224.979965	104.0
225.081482	168.0
225.1203	204.0
225.160721	304.0
225.278595	56.0
225.423508	128.0
225.45787	52.0
225.556503	192.0
225.580414	184.0
225.640213	188.0
225.761154	204.0
225.936279	64.0
225.963211	116.0
226.023911	208.0
226.100861	148.0
226.160706	92.0
226.241531	152.0
226.364288	152.0
226.436157	176.0
226.457809	212.0
226.493073	216.0
226.541	136.0
226.597916	160.0
226.684814	88.0
226.72377	176.0
226.798706	48.0
226.849655	132.0
227.049866	140.0
227.138245	576.0
227.170517	168.0
227.194519	144.0
227.386566	52.0
227.436829	128.0
227.515625	128.0
227.545654	240.0
227.605698	44.0
227.632721	88.0
227.692795	132.0
227.839966	120.0
227.933105	72.0
227.957153	116.0
228.033432	312.0
228.066055	168.0
228.114777	124.0
228.169739	520.0
228.230682	168.0
228.31488	96.0
228.353989	260.0
228.375031	112.0
228.422394	124.0
228.462265	32.0
228.511658	164.0
228.542847	128.0
228.635971	140.0
228.663879	136.0
228.696976	152.0
228.721405	104.0
228.763199	112.0
228.784271	208.0
228.865891	148.0
228.913498	220.0
228.987732	196.0
229.011734	164.0
229.042953	212.0
229.068069	180.0
229.087433	140.0
229.11087	284.0
229.155212	76336.0
229.237015	156.0
229.280136	156.0
229.307632	48.0
229.31395	52.0
229.334595	92.0
229.36647	160.0
229.424835	208.0
229.4561	76.0
229.480209	92.0
229.507355	100.0
229.543716	272.0
229.563431	60.0
229.616592	88.0
229.649506	148.0
229.696136	60.0
229.741592	96.0
229.787415	84.0
229.850128	224.0
229.881393	36.0
229.938721	104.0
229.965958	92.0
229.996078	88.0
230.052567	116.0
230.075745	104.0
230.156586	10680.0
230.202164	128.0
230.270157	236.0
230.308975	128.0
230.329803	132.0
230.358215	60.0
230.41185	148.0
230.461411	92.0
230.548767	44.0
230.594193	224.0
230.64566	136.0
230.699066	88.0
230.760361	360.0
230.808136	288.0
230.854095	28.0
230.888702	76.0
230.996246	48.0
231.111206	104.0
231.157761	880.0
231.218674	148.0
231.250412	72.0
231.301865	48.0
231.341217	96.0
231.401764	48.0
231.425842	160.0
231.498657	144.0
231.519867	44.0
231.572571	116.0
231.60466	108.0
231.644043	112.0
231.665253	48.0
231.69252	164.0
231.743042	124.0
231.773148	156.0
231.831299	136.0
231.85083	128.0
231.85939	64.0
231.922806	184.0
231.962921	172.0
231.982941	244.0
232.008469	152.0
232.156921	184.0
232.247253	96.0
232.277573	100.0
232.298813	64.0
232.392853	128.0
232.440903	72.0
232.475632	100.0
232.53006	56.0
232.581009	64.0
232.617432	96.0
232.656906	108.0
232.702438	156.0
232.724457	208.0
232.754059	68.0
232.839081	92.0
232.878571	96.0
232.989182	96.0
233.085144	60.0
233.118576	132.0
233.198975	132.0
233.32222	112.0
233.41951	120.0
233.449921	192.0
233.616165	200.0
233.714569	200.0
233.821075	140.0
233.851501	68.0
233.90564	112.0
234.119415	60.0
234.411865	104.0
234.469757	136.0
234.494141	172.0
234.549011	40.0
234.581772	208.0
234.745285	380.0
235.006454	104.0
235.073578	104.0
235.149872	32.0
235.244492	160.0
235.394104	236.0
235.532745	152.0
235.788177	108.0
235.925735	48.0
236.013306	124.0
236.051086	180.0
236.087784	160.0
236.136719	164.0
236.20401	92.0
236.238388	132.0
236.311081	40.0
236.341675	84.0
236.586517	72.0
236.659988	68.0
236.698822	112.0
236.877441	176.0
236.957092	200.0
237.118927	324.0
237.194717	768.0
237.291153	164.0
237.315674	64.0
237.398468	136.0
237.508881	96.0
237.640793	76.0
238.006042	64.0
238.033676	172.0
238.128448	152.0
238.159149	272.0
238.198273	280.0
238.227173	200.0
238.340851	116.0
238.365433	180.0
238.454544	108.0
238.53447	120.0
238.611313	192.0
238.65744	48.0
238.691254	180.0
238.712784	52.0
238.777359	260.0
238.832733	60.0
238.906555	176.0
238.928085	184.0
239.024231	200.0
239.069626	108.0
239.103485	152.0
239.139023	2204.0
239.175095	27856.0
239.246567	272.0
239.298172	80.0
239.333466	124.0
239.339584	40.0
239.418854	100.0
239.457047	76.0
239.495605	132.0
239.542068	188.0
239.61969	100.0
239.643631	116.0
239.67952	124.0
239.708664	120.0
239.78598	236.0
239.827255	124.0
239.895935	100.0
239.919312	144.0
239.950897	148.0
240.012222	112.0
240.071289	212.0
240.11261	160.0
240.161652	7164.0
240.241135	124.0
240.283646	132.0
240.33609	44.0
240.400894	56.0
240.448212	96.0
240.478058	64.0
240.51709	80.0
240.549042	64.0
240.601517	64.0
240.660187	56.0
240.684891	140.0
240.734299	184.0
240.755905	76.0
240.823853	60.0
240.978317	68.0
241.03392	80.0
241.062653	124.0
241.161865	1728.0
241.24028	396.0
241.283066	132.0
241.309021	44.0
241.357773	224.0
241.52858	128.0
241.581161	96.0
241.679947	116.0
241.77919	92.0
241.825607	84.0
241.87204	100.0
241.908386	92.0
241.949432	40.0
242.018692	148.0
242.053604	80.0
242.083908	120.0
242.112076	128.0
242.158432	284.0
242.191406	172.0
242.234329	44.0
242.287003	100.0
242.41713	132.0
242.479111	76.0
242.614197	96.0
242.6465	60.0
242.693008	104.0
242.730209	52.0
242.789139	84.0
242.826355	116.0
242.857361	56.0
242.88063	136.0
243.015579	100.0
243.09314	56.0
243.167725	136.0
243.241333	152.0
243.313522	156.0
243.431503	56.0
243.453247	156.0
243.563553	108.0
243.673782	60.0
243.709808	168.0
243.798065	196.0
243.900635	80.0
243.99823	140.0
244.182861	120.0
244.258804	172.0
244.416885	132.0
244.479126	52.0
244.57872	100.0
244.636215	68.0
244.692093	76.0
244.788605	172.0
244.93483	124.0
245.007675	128.0
245.226578	176.0
245.26709	164.0
245.366852	64.0
245.441666	188.0
245.550812	76.0
245.610077	136.0
245.640427	148.0
245.72728	84.0
245.800385	172.0
245.928345	36.0
245.962677	72.0
246.065689	160.0
246.146866	120.0
246.182571	156.0
246.20932	84.0
246.261841	152.0
246.303024	100.0
246.344452	212.0
246.524857	108.0
246.556107	196.0
246.634232	176.0
246.74678	68.0
246.781158	120.0
246.818573	156.0
246.885651	208.0
246.945572	136.0
246.981125	136.0
247.059509	108.0
247.165512	32132.0
247.28537	44.0
247.331757	104.0
247.358292	128.0
247.396088	116.0
247.435333	136.0
247.460098	96.0
247.493912	60.0
247.500549	48.0
247.526428	84.0
247.563431	92.0
247.603256	140.0
247.632339	48.0
247.654251	52.0
247.67778	88.0
247.700851	64.0
247.746368	108.0
247.785828	36.0
247.832825	64.0
247.879822	72.0
247.962784	152.0
247.995117	136.0
248.045929	128.0
248.083542	272.0
248.124298	72.0
248.168182	3884.0
248.232712	148.0
248.300537	204.0
248.325867	172.0
248.376221	144.0
248.401215	128.0
248.47998	204.0
248.643051	116.0
248.685806	68.0
248.723007	108.0
248.84462	216.0
248.908691	124.0
248.999771	180.0
249.038559	204.0
249.122269	60.0
249.16983	716.0
249.21965	100.0
249.251083	64.0
249.323349	52.0
249.357925	56.0
249.405075	84.0
249.469574	192.0
249.518234	72.0
249.644012	100.0
249.732071	256.0
249.846191	264.0
249.904404	128.0
249.942841	92.0
249.982956	188.0
250.139542	48.0
250.176071	136.0
250.229263	100.0
250.314285	120.0
250.416901	152.0
250.490646	160.0
250.522156	100.0
250.559952	108.0
250.699936	56.0
250.883682	208.0
250.998062	88.0
251.025223	104.0
251.089508	128.0
251.14621	292.0
251.468109	216.0
251.512299	92.0
251.569107	136.0
251.63588	80.0
251.769424	200.0
251.802765	40.0
252.03653	116.0
252.131332	108.0
252.275177	196.0
252.305176	44.0
252.428497	56.0
252.529694	76.0
252.599274	56.0
252.634079	36.0
252.893539	168.0
253.007507	188.0
253.077148	152.0
253.118317	160.0
253.155869	168.0
253.4319	128.0
253.793228	68.0
253.897873	84.0
254.043777	152.0
254.150253	196.0
254.187897	132.0
254.225296	144.0
254.383331	124.0
254.411896	180.0
254.634171	248.0
254.678635	72.0
254.710388	76.0
254.856537	92.0
254.942322	80.0
254.967743	116.0
255.057068	116.0
255.134842	720.0
255.203857	256.0
255.244308	152.0
255.292007	80.0
255.361984	44.0
255.416321	48.0
255.466949	148.0
255.641937	48.0
255.667404	144.0
255.705582	84.0
255.880661	60.0
255.911118	148.0
256.100372	72.0
256.130493	344.0
256.2034	1184.0
256.294708	156.0
256.345703	92.0
256.37439	164.0
256.412628	104.0
256.506561	196.0
256.580048	172.0
256.747375	56.0
256.798401	108.0
256.954712	144.0
257.017212	220.0
257.040863	164.0
257.068817	156.0
257.089752	124.0
257.111877	472.0
257.149078	5588.0
257.186584	31460.0
257.266235	52.0
257.305756	68.0
257.351715	56.0
257.379211	84.0
257.480469	56.0
257.503662	168.0
257.51178	164.0
257.579926	52.0
257.60553	116.0
257.673035	96.0
257.701813	88.0
257.794464	48.0
257.828674	68.0
258.001434	160.0
258.046967	52.0
258.114136	48.0
258.154297	1048.0
258.188995	4996.0
258.270844	36.0
258.296417	64.0
258.366791	44.0
258.473633	220.0
258.517181	56.0
258.57373	72.0
258.629181	144.0
258.728424	76.0
258.750824	144.0
258.789246	52.0
258.939758	148.0
259.019836	84.0
259.067871	144.0
259.099915	120.0
259.125183	36.0
259.189331	928.0
259.285767	48.0
259.333832	96.0
259.362701	156.0
259.455658	112.0
259.529388	148.0
259.606354	64.0
259.638428	32.0
259.696136	88.0
259.805206	68.0
259.83728	124.0
259.864746	100.0
259.898254	156.0
259.991302	44.0
260.03302	108.0
260.071564	44.0
260.130554	112.0
260.185516	120.0
260.248108	140.0
260.32196	60.0
260.366913	144.0
260.512054	200.0
260.603455	228.0
260.836029	64.0
261.022491	36.0
261.070709	176.0
261.096436	76.0
261.122192	80.0
261.147919	152.0
261.203979	156.0
261.24762	164.0
261.421356	116.0
261.443909	80.0
261.55011	156.0
261.6362	108.0
261.70462	132.0
261.785126	68.0
261.879608	176.0
261.968719	112.0
262.062134	72.0
262.158813	32.0
262.316742	76.0
262.339294	36.0
262.600494	176.0
262.797272	56.0
263.068359	32.0
263.103882	144.0
263.136139	76.0
263.226562	88.0
263.262085	120.0
263.394501	88.0
263.525116	180.0
263.656219	48.0
263.692719	120.0
263.785492	212.0
264.050629	124.0
264.20108	168.0
264.629852	64.0
264.769104	168.0
264.846832	160.0
264.875977	120.0
264.901886	204.0
264.966675	148.0
265.145874	380.0
265.188202	2356.0
265.644226	92.0
265.812927	160.0
265.978455	124.0
266.066101	152.0
266.144012	88.0
266.192017	300.0
266.296661	164.0
266.342133	80.0
266.44931	172.0
266.520813	36.0
266.670288	140.0
266.764557	96.0
266.884827	80.0
267.014923	216.0
267.053955	68.0
267.084778	184.0
267.138519	76.0
267.16806	396.0
267.198975	136.0
267.259705	120.0
267.284912	148.0
267.332031	224.0
267.439941	184.0
267.718964	140.0
267.836151	136.0
267.997986	100.0
268.182526	200.0
268.226135	136.0
268.369568	60.0
268.490204	148.0
268.813171	100.0
268.884979	124.0
269.028595	104.0
269.156708	212.0
269.196045	192.0
269.28656	144.0
269.470825	148.0
269.658997	32.0
269.714569	124.0
269.904175	120.0
270.054626	152.0
270.110229	92.0
270.162567	112.0
270.381775	68.0
270.610931	140.0
270.732086	124.0
270.813965	136.0
270.974487	144.0
271.164429	2332.0
271.551392	64.0
271.597992	96.0
271.677368	168.0
271.736725	116.0
271.909027	144.0
272.004211	108.0
272.076416	112.0
272.167328	420.0
272.201172	168.0
272.234039	136.0
272.345703	180.0
272.434387	156.0
272.541962	124.0
272.907623	100.0
272.983276	40.0
273.049042	180.0
273.14679	684.0
273.256256	36.0
273.562317	156.0
273.621582	228.0
273.674255	184.0
274.033264	84.0
274.161652	296.0
274.185638	132.0
274.283722	204.0
274.323273	220.0
274.379333	136.0
274.606842	36.0
274.72229	104.0
274.765198	148.0
274.887268	128.0
274.949982	144.0
275.022583	208.0
275.157715	672.0
275.184906	160.0
275.5047	52.0
275.630249	108.0
275.67981	164.0
275.725586	132.0
275.798798	120.0
275.924408	84.0
275.973999	224.0
276.053345	156.0
276.093048	224.0
276.142426	176.0
276.154327	136.0
276.165466	124.0
276.195557	204.0
276.231964	204.0
276.460236	148.0
276.51651	144.0
276.612488	76.0
276.657928	144.0
276.701874	100.0
276.890625	248.0
276.980042	88.0
277.15564	116.0
277.202026	108.0
277.407501	200.0
277.629639	80.0
277.871796	200.0
277.911621	124.0
278.123993	100.0
278.160522	92.0
278.492554	112.0
278.728424	132.0
278.761658	76.0
278.859497	216.0
278.897919	128.0
278.957733	136.0
279.097382	124.0
279.150574	104.0
279.198792	156.0
279.479889	112.0
279.523132	148.0
279.669586	112.0
279.739471	176.0
279.832703	152.0
279.869324	100.0
280.006317	140.0
280.187225	88.0
280.562317	160.0
280.929138	132.0
281.089294	116.0
281.152588	136.0
281.186066	252.0
281.28952	132.0
281.326263	148.0
281.393036	128.0
281.556641	164.0
281.700256	116.0
281.723663	176.0
282.021057	120.0
282.102875	132.0
282.149048	324.0
282.175934	132.0
282.217102	10572.0
282.327362	112.0
282.368256	80.0
282.415588	124.0
282.445099	180.0
282.519287	44.0
282.558167	172.0
282.623718	112.0
282.663147	56.0
282.733429	100.0
282.795563	84.0
282.950989	124.0
282.99118	60.0
283.021301	100.0
283.061493	72.0
283.126587	172.0
283.201385	18584.0
283.34668	80.0
283.385376	40.0
283.460114	32.0
283.498749	120.0
283.53717	132.0
283.587524	160.0
283.634369	72.0
283.705627	92.0
283.787201	68.0
283.812531	116.0
283.848938	68.0
283.929413	60.0
283.975372	132.0
284.023346	332.0
284.205139	3220.0
284.264893	80.0
284.305176	32.0
284.383331	148.0
284.431091	108.0
284.603912	88.0
284.661011	68.0
284.711365	56.0
284.785248	68.0
284.808777	44.0
284.838989	96.0
284.909546	132.0
284.936432	52.0
285.006989	80.0
285.040588	164.0
285.143646	120.0
285.179199	168.0
285.207916	536.0
285.26239	84.0
285.31955	104.0
285.359894	64.0
285.405426	104.0
285.484314	56.0
285.543793	156.0
285.668884	100.0
285.756775	140.0
285.783691	132.0
285.88916	128.0
285.931732	140.0
286.048035	196.0
286.096893	124.0
286.120728	240.0
286.210083	128.0
286.25827	88.0
286.308807	188.0
286.355957	72.0
286.44516	272.0
286.504761	136.0
286.544586	72.0
286.625458	120.0
287.036682	72.0
287.14798	128.0
287.2323	60.0
287.441467	72.0
287.549469	48.0
287.951233	40.0
288.042419	112.0
288.20459	148.0
288.299194	116.0
288.478333	88.0
288.677795	172.0
288.94162	156.0
289.087128	148.0
289.178497	148.0
289.249573	220.0
289.308807	164.0
289.435791	152.0
289.862579	120.0
290.190063	176.0
290.267883	204.0
290.415192	160.0
290.510162	140.0
290.707367	124.0
290.856293	80.0
290.930969	168.0
291.080353	132.0
291.170593	168.0
291.21106	164.0
291.6409	84.0
291.793884	168.0
291.882263	44.0
292.035309	144.0
292.206848	576.0
292.243683	140.0
292.321075	128.0
292.515076	216.0
292.756805	184.0
292.87262	128.0
292.961182	168.0
293.002045	184.0
293.049744	244.0
293.186218	1668.0
293.24173	168.0
293.295105	36.0
293.31897	132.0
293.448517	80.0
293.476685	76.0
293.581512	92.0
293.656525	108.0
293.683807	56.0
293.714508	156.0
293.816864	56.0
293.915802	52.0
294.052307	68.0
294.189545	588.0
294.270782	160.0
294.303406	72.0
294.492737	44.0
294.837799	116.0
295.080505	120.0
295.162567	124.0
295.194244	340.0
295.371185	116.0
295.525116	228.0
295.559326	124.0
295.69281	108.0
295.737305	72.0
295.905029	112.0
295.963226	88.0
296.000885	56.0
296.089935	60.0
296.150269	176.0
296.22937	152.0
296.236664	220.0
296.84729	164.0
296.963898	104.0
297.032501	112.0
297.077087	200.0
297.176575	164.0
297.239441	328.0
297.265778	136.0
297.334412	180.0
297.578156	84.0
297.84256	88.0
297.9422	164.0
298.10025	148.0
298.196472	208.0
298.244598	104.0
298.268646	108.0
298.299591	176.0
298.344269	76.0
298.774139	28.0
298.904877	224.0
298.997803	148.0
299.042542	108.0
299.104492	116.0
299.159576	92.0
299.269745	148.0
299.445374	148.0
299.522919	164.0
299.751984	112.0
300.066467	164.0
300.127686	380.0
300.16925	76.0
300.22821	15480.0
300.396698	36.0
300.476044	40.0
300.50708	52.0
300.544525	52.0
300.576111	68.0
300.683075	44.0
300.818115	64.0
300.845306	60.0
300.908539	192.0
301.138794	52.0
301.229645	2624.0
301.295868	228.0
301.380615	176.0
301.446289	60.0
301.501556	96.0
301.689301	128.0
301.738281	60.0
301.836884	164.0
301.864563	32.0
301.912964	80.0
302.023651	84.0
302.090546	92.0
302.135529	140.0
302.156738	92.0
302.179321	136.0
302.23172	264.0
302.562134	72.0
302.611938	108.0
302.653473	124.0
302.812775	80.0
302.927094	108.0
303.003296	104.0
303.057465	164.0
303.146637	204.0
303.192413	124.0
303.228546	44.0
303.259735	60.0
303.290924	140.0
303.372711	168.0
303.568268	52.0
303.630707	76.0
303.71048	136.0
303.845764	112.0
304.04007	72.0
304.217072	120.0
304.251801	48.0
304.320923	88.0
304.526123	168.0
304.797089	232.0
304.932617	176.0
305.040375	160.0
305.22464	156.0
305.356781	64.0
305.495911	124.0
305.829956	212.0
305.92395	108.0
306.160706	36.0
306.21167	192.0
306.244934	240.0
306.29306	144.0
306.320923	148.0
306.627533	68.0
306.923859	152.0
307.091248	152.0
307.146851	212.0
307.239349	884.0
307.279602	68.0
307.576233	44.0
307.607666	76.0
307.67746	56.0
307.789215	120.0
307.859039	96.0
308.072083	104.0
308.155945	152.0
308.182953	148.0
308.244019	348.0
308.32019	28.0
308.365601	60.0
308.393555	120.0
308.41803	168.0
308.503632	180.0
308.599823	52.0
308.694214	180.0
308.771179	148.0
308.841125	196.0
308.977539	160.0
309.177032	200.0
309.224213	160.0
309.426575	196.0
309.572571	100.0
309.649628	72.0
309.69165	160.0
309.772217	72.0
309.800232	32.0
309.838776	112.0
309.999939	88.0
310.094574	32.0
310.150635	164.0
310.212585	10188.0
310.336456	120.0
310.37851	68.0
310.448639	84.0
310.480225	56.0
310.525818	56.0
310.567902	64.0
310.676636	56.0
310.71875	44.0
310.755524	64.0
310.824005	92.0
310.876617	40.0
310.904694	192.0
310.936279	56.0
310.974884	60.0
311.059143	128.0
311.165039	120.0
311.21402	2116.0
311.266266	48.0
311.322449	108.0
311.353516	124.0
311.417297	80.0
311.582397	116.0
311.64563	104.0
311.719421	172.0
311.807281	204.0
311.983032	232.0
312.047699	80.0
312.113098	108.0
312.151794	128.0
312.194275	444.0
312.220093	256.0
312.313568	68.0
312.584442	48.0
312.753387	184.0
312.880096	292.0
313.03775	124.0
313.100128	88.0
313.146759	148.0
313.159027	188.0
313.225769	384.0
313.295654	152.0
313.344971	124.0
313.383728	92.0
313.41333	100.0
313.468292	152.0
313.524689	84.0
313.566986	116.0
313.640991	132.0
313.706177	124.0
314.02533	64.0
314.253052	272.0
314.392242	108.0
314.547516	28.0
314.582825	100.0
314.918274	40.0
315.07016	36.0
315.154968	128.0
315.197357	96.0
315.224182	136.0
315.397827	72.0
315.487183	112.0
315.533142	68.0
315.681641	92.0
315.720551	40.0
315.76651	100.0
315.82309	128.0
315.89032	196.0
316.608429	112.0
316.878021	116.0
317.069366	188.0
317.154419	212.0
317.477051	148.0
317.508972	208.0
317.725342	124.0
317.938232	228.0
317.995026	80.0
318.019867	92.0
318.115692	112.0
318.69104	112.0
318.943359	144.0
318.996674	60.0
319.042877	100.0
319.07489	124.0
319.224213	32.0
319.410278	192.0
319.480316	116.0
319.658203	176.0
319.868195	96.0
319.92514	116.0
320.071106	136.0
320.128082	200.0
320.1922	132.0
320.233032	140.0
320.523499	216.0
320.737335	192.0
320.815735	192.0
321.076019	144.0
321.098999	124.0
321.257935	148.0
321.379242	124.0
321.525543	120.0
321.700439	76.0
321.803986	176.0
321.828979	264.0
322.013092	200.0
322.189697	116.0
322.329041	96.0
322.357605	40.0
322.464844	124.0
322.507721	188.0
322.636414	92.0
322.78299	148.0
323.119202	60.0
323.176453	144.0
323.214508	128.0
323.236237	248.0
323.580902	136.0
323.781403	52.0
323.974823	268.0
324.168304	204.0
324.22287	144.0
324.266876	996.0
324.372589	148.0
324.401276	88.0
324.590912	220.0
324.623566	120.0
324.716827	52.0
324.835175	116.0
324.910522	156.0
324.987915	160.0
325.001617	92.0
325.012482	104.0
325.036957	180.0
325.080139	128.0
325.202362	148.0
325.265015	148.0
325.337585	140.0
325.772095	156.0
326.119781	148.0
326.181763	48.0
326.233978	172.0
326.270355	272.0
326.591644	44.0
326.627625	64.0
326.782318	132.0
326.951447	172.0
327.041412	176.0
327.228821	424.0
327.351044	84.0
327.433868	48.0
327.740051	72.0
327.83374	168.0
327.941864	72.0
328.221558	2884.0
328.331238	112.0
328.416992	232.0
328.572906	124.0
328.630646	88.0
328.728058	32.0
328.767761	148.0
329.110687	44.0
329.168457	156.0
329.224762	500.0
329.341797	52.0
329.442932	56.0
329.558563	152.0
329.594696	212.0
329.659729	84.0
329.71756	72.0
329.760925	192.0
329.836823	148.0
329.898285	64.0
330.071808	144.0
330.144135	144.0
330.205627	124.0
330.527588	92.0
330.581848	80.0
330.914856	176.0
330.947449	120.0
331.114044	52.0
331.320496	112.0
331.50528	208.0
331.632141	200.0
331.835114	216.0
332.034576	100.0
332.197784	44.0
332.244934	112.0
332.273956	72.0
332.346527	84.0
332.536041	208.0
332.68042	36.0
332.713104	132.0
332.766663	164.0
332.818298	164.0
332.91803	76.0
333.003601	100.0
333.218323	1036.0
333.261505	136.0
333.31601	176.0
333.505005	92.0
333.574066	196.0
333.999481	84.0
334.119537	172.0
334.215118	284.0
334.241547	196.0
334.286896	160.0
334.323303	124.0
334.463837	124.0
334.523132	120.0
334.634094	172.0
334.709167	32.0
335.062469	72.0
335.13739	184.0
335.217316	232.0
335.393585	152.0
335.711243	100.0
335.973877	136.0
336.147247	100.0
336.226013	292.0
336.80249	72.0
337.021698	84.0
337.175171	144.0
337.221588	160.0
337.259247	196.0
337.482239	136.0
337.540741	48.0
337.569977	80.0
337.721375	176.0
337.749207	40.0
337.822357	64.0
338.180389	80.0
338.203735	220.0
338.247009	356.0
339.212036	236.0
339.254211	176.0
339.415527	116.0
339.705261	60.0
340.06485	220.0
340.208008	212.0
340.241058	96.0
340.321808	48.0
340.692749	60.0
340.747864	60.0
340.942596	168.0
341.240356	116.0
341.906128	136.0
342.21167	76.0
342.278564	456.0
342.344208	104.0
342.499512	96.0
342.557831	56.0
342.742065	176.0
342.918945	172.0
342.996338	248.0
343.132751	100.0
343.221222	124.0
343.255646	204.0
343.278473	144.0
343.970154	196.0
344.259735	320.0
344.291382	56.0
344.838135	160.0
345.046143	208.0
345.139221	140.0
345.200439	96.0
345.56662	160.0
345.639496	172.0
345.71463	96.0
345.851593	120.0
345.951538	120.0
345.988556	160.0
346.233002	320.0
346.436646	156.0
347.229858	128.0
347.379395	64.0
347.430145	72.0
347.619385	136.0
347.745575	100.0
347.901459	160.0
348.246796	160.0
348.361359	156.0
348.439941	152.0
348.562775	140.0
348.882202	216.0
348.956573	88.0
349.012329	132.0
349.079254	88.0
349.112732	168.0
349.188354	120.0
349.376801	80.0
349.540527	224.0
349.583313	184.0
349.864319	40.0
350.055359	232.0
350.122406	168.0
350.242401	4048.0
350.432159	172.0
350.497498	112.0
350.53476	160.0
350.562683	80.0
350.624176	52.0
350.757629	56.0
350.828094	176.0
350.918365	100.0
350.963409	128.0
351.052887	112.0
351.105225	176.0
351.139191	200.0
351.226715	14928.0
351.362305	236.0
351.500366	88.0
351.563965	160.0
351.603058	76.0
351.662537	232.0
351.713257	92.0
351.762177	76.0
351.822479	92.0
351.855103	84.0
351.901001	68.0
351.964325	288.0
352.039734	144.0
352.158295	216.0
352.231781	3828.0
352.351837	56.0
352.416351	116.0
352.445221	44.0
352.491669	112.0
352.557343	68.0
352.644806	52.0
352.71225	124.0
352.751678	80.0
352.804016	136.0
352.912445	64.0
352.938629	152.0
352.97226	72.0
353.033539	124.0
353.084442	60.0
353.233948	708.0
353.315857	88.0
353.383698	76.0
353.484741	172.0
353.518402	80.0
353.585785	40.0
353.754211	128.0
353.971375	28.0
354.001312	172.0
354.079956	76.0
354.1586	92.0
354.184845	60.0
354.237579	668.0
354.360901	276.0
354.406738	120.0
354.458313	64.0
354.574493	68.0
354.621338	88.0
354.735657	92.0
355.085846	92.0
355.174377	140.0
355.246796	372.0
355.293152	232.0
355.665924	148.0
355.842377	60.0
356.254181	676.0
356.356903	232.0
356.409515	48.0
356.61734	108.0
356.706421	112.0
356.81543	64.0
356.841736	104.0
356.916931	84.0
357.152802	128.0
357.255768	320.0
357.311859	152.0
357.831238	68.0
357.947968	168.0
358.354736	100.0
358.426331	148.0
358.452728	108.0
358.721222	176.0
358.961609	36.0
359.070953	40.0
359.143372	180.0
359.255798	92.0
359.410461	108.0
359.667114	104.0
359.9729	32.0
360.142853	208.0
360.173065	124.0
360.244843	48.0
360.324188	96.0
360.448853	140.0
360.755005	128.0
361.008331	72.0
361.087738	104.0
361.250397	172.0
361.443329	160.0
361.488739	100.0
361.752655	96.0
361.950562	120.0
362.537689	200.0
362.583191	124.0
362.846313	200.0
362.878845	72.0
363.280853	180.0
363.384796	120.0
363.474335	88.0
363.523682	148.0
363.660278	112.0
364.043732	168.0
364.233643	160.0
364.273193	128.0
364.370392	44.0
364.450165	56.0
364.567963	124.0
364.65918	112.0
364.834045	40.0
365.123016	192.0
365.169495	128.0
365.214294	116.0
365.408295	120.0
365.59024	132.0
365.640411	68.0
365.73938	152.0
366.002045	132.0
366.165802	40.0
366.203888	160.0
366.293213	156.0
366.424835	76.0
366.640045	132.0
367.038483	116.0
367.080414	44.0
367.223236	256.0
367.332123	228.0
367.374481	108.0
367.477509	76.0
367.526703	36.0
367.640289	68.0
367.770935	80.0
367.831116	84.0
367.885468	88.0
367.938904	196.0
367.965637	80.0
368.011261	352.0
368.13208	220.0
368.168732	164.0
368.254181	25780.0
368.377411	136.0
368.396759	112.0
368.404999	152.0
368.530884	32.0
368.592987	64.0
368.668457	100.0
368.699036	108.0
368.752533	52.0
368.802887	156.0
368.878662	40.0
368.930206	116.0
368.995514	184.0
369.005463	120.0
369.105927	136.0
369.140045	176.0
369.242554	13284.0
369.317963	144.0
369.388458	92.0
369.457581	152.0
369.509369	100.0
369.540436	48.0
369.58078	112.0
369.665009	100.0
369.716278	48.0
369.751678	120.0
369.819611	52.0
369.846405	68.0
369.87915	36.0
369.90152	80.0
369.934448	152.0
369.977814	72.0
370.118225	40.0
370.152679	52.0
370.179504	152.0
370.246002	2324.0
370.342926	164.0
370.377716	232.0
370.407532	104.0
370.5336	116.0
370.589722	40.0
370.61615	168.0
370.658325	76.0
370.731628	92.0
370.811584	136.0
370.84314	52.0
370.895935	56.0
370.941925	60.0
370.977692	96.0
371.026245	92.0
371.053101	100.0
371.091431	128.0
371.171173	80.0
371.240814	316.0
371.309998	104.0
371.343719	96.0
371.432739	92.0
371.474945	80.0
371.513306	128.0
371.551666	64.0
371.633392	196.0
371.690826	104.0
371.739655	128.0
371.770752	116.0
371.820251	100.0
371.861877	180.0
371.900848	40.0
371.935394	272.0
371.966095	68.0
372.006561	124.0
372.123505	64.0
372.192627	92.0
372.254578	300.0
372.322418	100.0
372.353912	72.0
372.507538	88.0
372.830292	76.0
372.883911	80.0
372.991699	120.0
373.11087	140.0
373.149323	84.0
373.337738	52.0
373.391571	76.0
373.48111	128.0
373.566742	228.0
373.614685	124.0
373.680084	140.0
373.823853	176.0
373.907104	48.0
374.217102	120.0
374.302887	104.0
374.623291	104.0
374.832489	148.0
374.873718	228.0
374.931519	120.0
375.34787	40.0
375.440399	128.0
375.606262	128.0
375.793549	84.0
375.884033	104.0
375.938049	72.0
376.069275	132.0
376.158051	92.0
376.308594	72.0
376.980713	144.0
377.100494	172.0
377.197144	48.0
377.475494	192.0
377.545105	212.0
378.133148	120.0
378.186157	104.0
378.237915	680.0
378.299591	112.0
378.94635	40.0
378.985107	172.0
379.097473	112.0
379.238708	116.0
379.550995	76.0
379.752655	156.0
379.888428	132.0
380.148376	60.0
380.228882	144.0
380.283508	124.0
380.300568	88.0
380.312653	168.0
380.474396	44.0
380.680176	116.0
381.041412	32.0
381.28772	636.0
381.422241	164.0
381.484772	140.0
381.853851	136.0
382.079437	76.0
382.153656	164.0
382.219513	148.0
382.288025	284.0
382.363495	168.0
382.569794	140.0
383.259155	92.0
383.535828	128.0
383.590424	100.0
384.070038	60.0
384.300201	216.0
384.4953	68.0
384.733673	112.0
384.788055	76.0
384.975464	280.0
385.088745	68.0
385.146301	168.0
385.32312	148.0
385.526306	148.0
385.608368	156.0
385.729523	136.0
385.776428	160.0
385.909363	96.0
386.065765	132.0
386.264648	5796.0
386.421722	80.0
386.484314	108.0
386.550842	72.0
386.654266	56.0
386.723053	168.0
386.816986	48.0
386.850647	80.0
386.883514	60.0
387.012726	68.0
387.094971	188.0
387.250183	6156.0
387.322113	156.0
387.363617	164.0
387.489777	148.0
387.619843	60.0
387.706055	116.0
387.743011	104.0
387.802643	112.0
387.943695	192.0
388.041626	132.0
388.070618	188.0
388.25415	1320.0
388.329437	96.0
388.364288	36.0
388.478485	48.0
388.607941	92.0
388.725647	124.0
388.99646	128.0
389.051422	112.0
389.259796	292.0
389.38913	124.0
389.420532	36.0
389.647858	152.0
389.697571	116.0
389.907715	112.0
390.013824	68.0
390.049194	132.0
390.261505	164.0
390.465973	128.0
390.686249	208.0
390.906586	136.0
390.94986	160.0
391.146667	68.0
391.174225	68.0
391.292297	136.0
391.367126	80.0
391.414368	228.0
391.571899	96.0
391.883087	56.0
392.04071	84.0
392.119507	120.0
392.240784	120.0
392.574646	60.0
392.655701	120.0
392.746429	88.0
392.860809	196.0
392.983124	112.0
393.133057	228.0
393.267242	44.0
394.040527	112.0
394.28186	164.0
394.566864	48.0
394.644836	144.0
394.768524	96.0
395.108673	116.0
395.175934	112.0
395.231323	64.0
395.266937	76.0
395.310455	112.0
395.409393	48.0
395.472717	160.0
395.595428	84.0
395.641327	100.0
395.706268	132.0
395.797333	88.0
395.840912	52.0
396.157379	128.0
396.249847	12556.0
396.376862	208.0
396.435089	52.0
396.466797	68.0
396.519897	124.0
396.557953	32.0
396.618317	136.0
396.648468	224.0
396.712555	164.0
396.758789	60.0
396.795807	92.0
396.898895	68.0
396.958374	148.0
397.033691	40.0
397.148712	132.0
397.250031	2516.0
397.32724	120.0
397.382782	224.0
397.489258	100.0
397.495087	144.0
397.688324	76.0
397.908752	68.0
398.009888	100.0
398.053558	136.0
398.132996	148.0
398.267517	376.0
398.448761	56.0
398.497589	104.0
398.538177	84.0
398.596863	88.0
398.836212	100.0
399.302521	532.0
399.552002	212.0
399.702881	100.0
399.730225	236.0
399.846466	184.0
399.926056	92.0
400.260468	72.0
400.300537	192.0
400.523315	100.0
400.628479	80.0
400.676575	160.0
400.822113	104.0
400.889832	64.0
400.988953	156.0
401.026306	84.0
401.547638	124.0
401.671295	136.0
401.826874	196.0
401.902679	108.0
402.110199	68.0
402.213959	88.0
402.257874	64.0
402.437531	168.0
402.481445	72.0
402.741028	172.0
402.89682	176.0
402.964722	88.0
403.132538	140.0
403.420319	104.0
403.540253	188.0
403.751099	160.0
403.868164	144.0
403.976166	272.0
404.060699	152.0
404.196228	72.0
404.275299	13656.0
404.365631	168.0
404.420319	68.0
404.460358	88.0
404.556427	68.0
404.661804	176.0
404.744598	48.0
404.801208	88.0
404.8367	104.0
404.920807	72.0
405.048981	84.0
405.08902	132.0
405.165131	60.0
405.208984	144.0
405.280609	3972.0
405.33548	228.0
405.391541	112.0
405.447388	100.0
405.525787	48.0
405.690125	44.0
405.749176	180.0
405.797241	184.0
405.858521	56.0
405.974792	36.0
406.022919	68.0
406.147247	88.0
406.201141	232.0
406.281281	748.0
406.379944	48.0
406.412018	116.0
406.648804	68.0
406.849487	48.0
407.018127	56.0
407.078369	116.0
407.122528	120.0
407.260529	144.0
407.293213	144.0
407.305054	196.0
407.415741	124.0
407.631256	88.0
407.709045	48.0
407.849731	48.0
407.910004	36.0
408.038666	36.0
408.135162	76.0
408.291992	140.0
408.320129	116.0
408.573547	60.0
408.754608	44.0
408.802887	108.0
408.959839	120.0
409.201385	108.0
409.283722	344.0
409.334259	36.0
409.507416	44.0
409.681763	100.0
409.745087	172.0
409.78537	44.0
409.865967	28.0
409.999512	84.0
410.135956	136.0
410.262604	176.0
410.418152	208.0
410.472137	104.0
410.539124	64.0
410.641693	56.0
411.095825	152.0
411.1604	96.0
411.446991	124.0
411.547913	124.0
411.648865	148.0
411.721558	48.0
411.778107	136.0
412.145721	116.0
412.245728	500.0
412.297577	140.0
412.444763	88.0
412.634766	96.0
412.76416	32.0
412.816711	56.0
412.990631	36.0
413.071533	84.0
413.246063	140.0
413.281891	136.0
413.326416	100.0
413.362823	36.0
413.58136	48.0
413.747345	144.0
413.779724	128.0
413.897125	56.0
414.066132	144.0
414.19278	148.0
414.260864	10592.0
414.350769	64.0
414.447998	116.0
414.476379	44.0
414.555603	144.0
414.596344	92.0
414.630341	72.0
414.687103	160.0
414.776276	92.0
414.812744	128.0
414.861389	28.0
414.922211	88.0
414.986328	148.0
415.058441	100.0
415.180237	56.0
415.210083	100.0
415.262451	1936.0
415.388977	80.0
415.510254	44.0
415.567047	72.0
415.6604	52.0
415.717194	144.0
415.774017	92.0
415.851135	48.0
415.895782	48.0
415.960724	40.0
416.2612	684.0
416.354553	84.0
416.435791	252.0
416.712006	100.0
416.842041	44.0
416.955811	84.0
417.138733	220.0
417.215973	136.0
417.281006	128.0
417.439575	152.0
417.474396	128.0
417.805634	92.0
417.976532	152.0
418.14743	40.0
418.265472	88.0
418.526031	124.0
418.652252	80.0
418.745941	136.0
419.043304	80.0
419.312225	120.0
419.352997	44.0
419.585358	40.0
419.630188	124.0
419.772888	60.0
419.970428	120.0
419.990692	40.0
420.000092	136.0
420.441925	176.0
420.584778	188.0
420.792969	92.0
420.83786	164.0
420.899109	96.0
421.321991	180.0
421.376984	68.0
421.769318	68.0
421.81427	80.0
422.022766	104.0
422.05957	76.0
422.254822	80.0
422.299927	1972.0
422.624023	48.0
422.828613	68.0
423.06192	76.0
423.172455	152.0
423.309448	1044.0
423.340698	420.0
423.495972	176.0
423.733582	72.0
424.24176	172.0
424.321045	288.0
424.381134	108.0
425.321564	280.0
425.50531	56.0
426.154236	88.0
426.314178	104.0
426.947571	48.0
427.292114	152.0
427.589355	76.0
427.663452	96.0
427.745758	140.0
428.046295	88.0
428.223389	132.0
428.412872	48.0
428.49115	68.0
428.627106	72.0
428.86615	72.0
429.39389	136.0
429.647186	216.0
430.020996	108.0
430.186096	180.0
430.248016	136.0
430.413177	192.0
430.606323	124.0
431.049286	144.0
431.111267	96.0
431.284851	120.0
431.404724	64.0
431.58252	68.0
431.718964	92.0
431.756195	64.0
431.971252	236.0
432.087097	140.0
432.16983	40.0
432.288269	116.0
433.276154	132.0
433.478302	100.0
433.793274	72.0
433.905212	108.0
434.527313	80.0
435.054382	140.0
435.469604	52.0
435.939056	88.0
436.196747	88.0
436.242462	148.0
436.367188	40.0
436.887054	76.0
437.14917	72.0
437.182465	112.0
437.315643	140.0
437.394714	124.0
437.43219	128.0
437.815247	164.0
437.956848	64.0
438.115143	160.0
438.144287	48.0
438.181793	68.0
438.315125	112.0
438.577667	76.0
438.965393	156.0
439.328369	2712.0
439.391113	120.0
439.51181	100.0
439.607788	240.0
439.795593	136.0
440.050262	84.0
440.175507	116.0
440.31189	5668.0
440.42041	176.0
440.526337	68.0
440.576477	48.0
440.626617	52.0
440.960907	56.0
440.993225	92.0
441.042755	96.0
441.11972	176.0
441.313904	1628.0
441.487671	28.0
441.66333	208.0
441.696777	112.0
441.755341	168.0
441.822266	80.0
441.864105	68.0
442.002075	172.0
442.064941	28.0
442.218201	84.0
442.313568	288.0
442.367188	168.0
442.558868	36.0
442.860382	52.0
442.965118	136.0
443.019562	40.0
443.327972	184.0
443.757172	128.0
443.933289	60.0
444.004578	108.0
444.092651	120.0
444.411469	56.0
444.776581	148.0
444.818542	116.0
445.141815	124.0
445.313995	104.0
445.570251	120.0
445.854462	156.0
446.084595	92.0
446.360413	68.0
446.410889	164.0
446.545471	200.0
446.982971	148.0
447.206024	64.0
447.324982	336.0
447.429108	96.0
447.601746	132.0
448.090332	52.0
448.267303	156.0
448.309753	156.0
448.633972	252.0
449.009247	88.0
449.305389	232.0
449.429321	152.0
449.61676	140.0
449.72226	88.0
450.017761	112.0
450.303375	124.0
450.368286	72.0
450.702026	48.0
451.309174	236.0
451.350891	156.0
452.312988	192.0
452.613892	44.0
452.84256	180.0
453.285858	200.0
453.334015	220.0
453.846893	52.0
454.097107	176.0
454.239471	164.0
454.30423	140.0
454.411011	48.0
455.013672	40.0
455.05188	44.0
455.30545	156.0
455.863159	148.0
456.067169	44.0
456.186188	104.0
456.35199	132.0
456.526337	100.0
456.785767	64.0
456.824066	104.0
457.215485	124.0
458.333466	112.0
458.349579	164.0
459.264801	56.0
459.323029	136.0
459.401306	80.0
460.617889	108.0
460.652069	88.0
460.746063	88.0
461.451233	204.0
461.613708	100.0
461.793335	188.0
462.629852	76.0
462.739044	76.0
462.987396	44.0
463.1073	128.0
463.150146	80.0
463.57428	84.0
463.690002	132.0
463.886505	104.0
464.260162	148.0
464.414581	68.0
464.535187	100.0
465.041687	124.0
465.341827	4224.0
465.435944	124.0
465.500366	76.0
465.547577	60.0
465.797913	128.0
466.348358	1528.0
466.424042	180.0
466.463806	168.0
466.531525	88.0
466.647583	72.0
466.978699	72.0
467.047516	136.0
467.19519	136.0
467.322723	7780.0
467.390167	220.0
467.439026	64.0
467.486359	128.0
467.568115	40.0
467.653595	28.0
467.735992	100.0
467.771118	124.0
467.882355	56.0
468.039825	180.0
468.125183	120.0
468.322327	2760.0
468.428009	96.0
468.468018	112.0
468.514709	48.0
468.584351	60.0
468.804108	52.0
468.847198	124.0
468.953613	52.0
469.010956	56.0
469.327118	276.0
469.662048	88.0
469.761261	136.0
469.821655	68.0
469.890686	80.0
470.201355	156.0
470.325531	264.0
470.425812	48.0
470.486267	80.0
470.589874	152.0
470.654633	116.0
470.779846	288.0
470.961243	100.0
471.047638	104.0
471.099487	48.0
471.147003	92.0
471.259338	72.0
471.329926	172.0
471.408722	140.0
471.445129	92.0
471.831757	116.0
471.868744	32.0
472.154114	40.0
472.201691	152.0
472.337738	132.0
472.634277	56.0
472.712189	60.0
472.893951	116.0
472.984833	64.0
473.17099	72.0
473.348511	52.0
473.46228	188.0
473.612671	36.0
473.859589	40.0
474.006927	108.0
474.683136	80.0
474.756866	40.0
474.912994	40.0
475.273071	168.0
475.329468	172.0
475.433624	196.0
475.663635	128.0
476.162964	80.0
476.329376	280.0
476.766846	84.0
477.236298	136.0
477.301514	128.0
477.501556	40.0
477.779938	116.0
478.067108	88.0
478.167206	80.0
478.343048	140.0
478.450134	68.0
478.69397	232.0
478.855103	40.0
478.99884	128.0
479.273315	244.0
479.364807	140.0
479.788971	176.0
479.94455	108.0
480.123352	128.0
480.289062	100.0
480.380676	56.0
480.446106	84.0
480.638092	112.0
480.73407	152.0
481.087616	80.0
481.157471	160.0
481.257874	112.0
481.406342	84.0
481.53299	184.0
481.733917	92.0
481.947998	148.0
482.0354	216.0
482.144623	108.0
482.271393	36.0
482.354431	68.0
482.529297	44.0
482.594879	72.0
482.686707	56.0
482.862946	80.0
483.170624	144.0
483.224701	188.0
483.350342	1800.0
483.443481	64.0
483.547913	116.0
483.631653	72.0
483.662292	48.0
483.951233	40.0
483.99939	144.0
484.055084	84.0
484.117615	56.0
484.249023	116.0
484.351898	468.0
484.485535	196.0
484.564392	132.0
484.638885	48.0
484.781097	100.0
484.814178	192.0
484.966736	212.0
485.041412	80.0
485.074188	152.0
485.135376	128.0
485.173584	160.0
485.218536	156.0
485.332855	30844.0
485.453583	56.0
485.473145	192.0
485.551819	124.0
485.593323	116.0
485.708008	92.0
485.7612	40.0
485.810669	144.0
485.841003	88.0
485.891052	132.0
485.94986	32.0
485.98056	72.0
486.052521	220.0
486.112213	36.0
486.168152	64.0
486.194427	136.0
486.273987	48.0
486.336243	10788.0
486.439178	136.0
486.496521	128.0
486.548645	224.0
486.606781	96.0
486.658112	88.0
486.739929	44.0
486.805786	44.0
486.869263	68.0
486.913055	48.0
486.943207	96.0
487.003418	40.0
487.038544	164.0
487.102295	88.0
487.151001	40.0
487.229645	96.0
487.338013	2000.0
487.433929	84.0
487.470703	44.0
487.592133	104.0
487.644897	44.0
487.746094	140.0
487.816315	92.0
487.851471	216.0
487.926941	96.0
488.181244	80.0
488.249908	124.0
488.338959	376.0
488.396729	52.0
488.434784	68.0
488.590607	112.0
488.638672	108.0
488.697723	96.0
488.781097	152.0
488.817932	92.0
488.964294	132.0
489.025909	160.0
489.093262	80.0
489.13089	80.0
489.193634	132.0
489.312042	52.0
489.344513	96.0
489.388031	124.0
489.506836	184.0
489.633484	60.0
489.829926	160.0
489.909821	180.0
490.140076	120.0
490.184143	112.0
490.214996	48.0
490.386871	100.0
490.479431	48.0
490.585236	112.0
490.633728	68.0
490.955597	72.0
490.990875	104.0
491.096741	40.0
491.476105	60.0
491.621735	72.0
491.829163	60.0
492.222076	52.0
492.26181	164.0
492.345734	60.0
492.403137	40.0
492.456146	116.0
492.637238	36.0
492.844879	92.0
492.898499	60.0
493.171906	56.0
493.337219	3080.0
493.494629	48.0
493.611664	72.0
493.870514	44.0
494.133087	112.0
494.175751	40.0
494.342163	1320.0
494.516479	108.0
494.631561	96.0
494.78479	144.0
494.928192	96.0
495.108276	108.0
495.224884	84.0
495.322021	496.0
495.354218	304.0
495.593964	64.0
495.641327	52.0
495.688293	100.0
495.840729	36.0
495.889465	136.0
496.164307	40.0
496.315857	356.0
496.496857	48.0
496.621033	64.0
496.705322	44.0
497.348724	84.0
497.650574	44.0
497.816589	188.0
498.485657	84.0
498.7612	92.0
498.850098	68.0
498.890106	48.0
498.956787	76.0
499.534912	80.0
501.373779	120.0
501.71698	76.0
502.568817	76.0
502.698242	64.0
502.863342	100.0
503.238342	88.0
503.343567	2800.0
503.457123	28.0
503.613434	68.0
503.769775	80.0
504.0289	76.0
504.136169	116.0
504.347046	1268.0
504.58313	200.0
504.838013	108.0
504.990051	104.0
505.092926	64.0
505.267395	128.0
505.348083	208.0
505.428467	44.0
505.491119	120.0
505.62088	32.0
505.782013	80.0
505.84021	28.0
505.947632	68.0
506.10434	48.0
506.359589	236.0
506.964386	84.0
507.022644	148.0
507.107788	40.0
507.179504	52.0
507.29718	32.0
507.331909	80.0
507.374451	124.0
507.681641	88.0
508.619354	128.0
509.041351	148.0
509.342255	108.0
509.60733	72.0
509.998291	40.0
510.353424	200.0
511.355072	1320.0
511.51413	36.0
511.545624	104.0
512.000366	112.0
512.248108	104.0
512.35022	792.0
513.321655	376.0
514.006409	68.0
514.334351	300.0
515.68634	120.0
515.898804	84.0
516.332886	64.0
516.835022	144.0
516.880249	156.0
516.925537	140.0
517.264954	60.0
517.305664	52.0
517.489197	52.0
518.315674	120.0
518.573975	28.0
518.737122	124.0
519.929993	76.0
519.996643	120.0
521.02887	120.0
521.378723	132.0
522.369934	192.0
522.407471	336.0
523.425781	124.0
523.653503	120.0
524.774475	28.0
524.874817	108.0
525.600037	112.0
525.66394	92.0
526.175171	84.0
526.869324	68.0
527.445129	68.0
528.263611	56.0
528.547302	52.0
528.611328	84.0
530.704651	64.0
531.374268	144.0
531.502747	52.0
532.191223	48.0
533.679871	72.0
534.512451	160.0
535.44696	76.0
535.562073	180.0
536.06427	96.0
537.281494	88.0
538.255371	108.0
538.564758	84.0
538.934326	60.0
538.999023	88.0
539.096069	72.0
539.156128	124.0
539.979065	120.0
541.775024	148.0
542.062317	40.0
542.405945	108.0
542.535034	84.0
542.715881	100.0
543.741028	28.0
546.361694	88.0
546.492004	160.0
546.668823	36.0
548.370789	52.0
548.597046	108.0
549.389893	224.0
549.987122	76.0
550.729492	72.0
551.131287	44.0
551.378906	136.0
553.123535	76.0
553.807129	96.0
554.120972	72.0
555.886963	152.0
556.658508	120.0
557.913025	128.0
559.220703	56.0
561.373657	168.0
562.001038	36.0
562.274719	108.0
562.680664	88.0
564.405212	72.0
564.953857	156.0
565.767822	112.0
565.876709	48.0
566.089783	76.0
566.392761	480.0
567.343079	132.0
567.395081	360.0
567.606934	184.0
567.653564	104.0
568.398254	108.0
569.252686	116.0
569.329529	136.0
569.404663	172.0
569.63269	92.0
570.226624	160.0
570.383423	96.0
571.063354	76.0
571.881714	112.0
572.124512	92.0
572.73877	140.0
573.667969	68.0
574.569275	116.0
574.855591	136.0
574.965332	144.0
575.141907	176.0
576.460083	176.0
577.994995	52.0
579.349976	136.0
579.402649	96.0
580.931946	48.0
581.320557	104.0
581.570129	60.0
582.876343	116.0
583.131042	108.0
583.376221	120.0
584.401001	1464.0
584.891479	100.0
585.016602	40.0
585.413086	1040.0
585.86145	164.0
586.403198	148.0
586.443909	116.0
587.387451	128.0
587.474304	92.0
587.792725	40.0
589.057617	72.0
589.419983	76.0
589.753479	64.0
589.922607	192.0
590.421326	148.0
590.657654	152.0
591.320496	100.0
592.366394	144.0
592.753967	104.0
593.825317	160.0
594.310425	64.0
595.611511	48.0
595.703796	112.0
595.883545	80.0
597.375977	104.0
597.648438	88.0
598.383362	104.0
598.714478	116.0
598.768066	64.0
598.816772	164.0
602.372559	116.0
602.416199	132.0
602.611938	96.0
602.714539	84.0
602.807373	40.0
603.349915	184.0
604.171509	88.0
604.2547	108.0
604.362305	180.0
604.734253	128.0
604.837036	100.0
605.13562	88.0
606.036865	52.0
606.453125	320.0
607.399719	48.0
607.451721	308.0
608.433044	220.0
608.467896	164.0
608.621704	36.0
608.808289	160.0
609.435852	128.0
609.540222	132.0
609.776123	152.0
609.977661	64.0
610.203796	96.0
610.631592	92.0
610.774231	100.0
611.718994	152.0
613.167114	96.0
613.485291	108.0
613.515259	164.0
613.684692	164.0
614.296204	156.0
615.436279	124.0
615.925171	104.0
618.516174	84.0
618.595337	60.0
619.402527	92.0
619.813721	56.0
621.038208	76.0
621.564087	100.0
623.038635	196.0
624.321045	132.0
624.813477	96.0
624.858215	64.0
625.425537	72.0
625.744141	80.0
626.400208	196.0
626.441345	100.0
626.49115	184.0
626.570862	68.0
627.442993	100.0
627.841919	152.0
628.575195	156.0
629.663513	132.0
630.7677	124.0
631.912903	108.0
632.446533	448.0
632.508423	44.0
632.67865	104.0
633.406738	132.0
633.443359	120.0
636.1828	124.0
636.398682	100.0
636.433838	144.0
636.790405	108.0
637.554016	76.0
639.012207	76.0
639.097778	60.0
640.154846	108.0
641.48999	76.0
641.802551	40.0
642.059753	120.0
642.473328	116.0
642.993042	36.0
644.012939	56.0
644.644409	96.0
644.760681	268.0
645.453186	72.0
645.953918	60.0
646.049988	104.0
646.232117	104.0
646.657227	80.0
646.981201	92.0
648.074402	116.0
649.448914	80.0
649.579895	112.0
649.727966	112.0
650.179504	160.0
650.447754	5684.0
650.765381	116.0
650.859741	56.0
650.895325	44.0
651.022278	48.0
651.073059	84.0
651.296509	56.0
651.377747	60.0
651.447632	2456.0
651.565735	56.0
651.61969	148.0
651.713074	132.0
651.78418	104.0
651.992554	96.0
652.073853	64.0
652.251587	100.0
652.367126	116.0
652.450684	500.0
652.526306	64.0
652.948303	44.0
653.451782	128.0
653.492615	44.0
653.599487	100.0
653.88446	28.0
654.261108	56.0
654.439331	96.0
654.91803	108.0
655.508972	44.0
655.69751	68.0
655.85553	124.0
656.018616	124.0
656.333862	120.0
656.508118	60.0
656.554016	92.0
657.227356	124.0
657.701965	96.0
657.79895	76.0
658.621033	128.0
659.20105	84.0
659.494751	76.0
659.873047	272.0
660.13385	48.0
660.629944	68.0
661.284912	72.0
661.586914	92.0
662.165527	36.0
662.314026	112.0
662.380615	56.0
662.657288	112.0
662.795593	68.0
662.887817	60.0
663.036438	64.0
663.103088	176.0
663.436279	60.0
663.537659	248.0
663.574707	56.0
663.70929	96.0
664.313171	276.0
664.364441	68.0
664.400391	92.0
664.610718	120.0
664.662048	260.0
664.913513	88.0
665.036682	144.0
665.149597	68.0
665.257385	120.0
665.329285	60.0
665.755432	124.0
666.289612	64.0
666.325562	148.0
666.366699	36.0
666.430725	128.0
666.532593	164.0
666.587646	132.0
666.622681	164.0
666.690369	104.0
666.777771	164.0
666.849731	84.0
666.901855	80.0
666.976257	104.0
667.020996	112.0
667.067993	156.0
667.188965	156.0
667.255798	128.0
667.307678	132.0
667.389465	72.0
667.446045	80.0
667.503845	148.0
667.548889	148.0
667.636292	168.0
667.749878	92.0
667.860291	144.0
667.948792	180.0
667.994202	204.0
668.134766	140.0
668.232971	104.0
668.289612	284.0
668.356567	236.0
668.458435	31460.0
668.606201	232.0
668.71637	84.0
668.766907	112.0
668.819641	44.0
668.936279	72.0
668.994629	36.0
669.084839	108.0
669.105713	84.0
669.127502	104.0
669.18457	72.0
669.274109	116.0
669.325562	152.0
669.461304	10472.0
669.638062	200.0
669.702759	140.0
669.751587	108.0
669.841003	128.0
669.88855	56.0
669.954346	200.0
670.008362	116.0
670.096741	40.0
670.186523	124.0
670.229309	104.0
670.328613	108.0
670.463867	3128.0
670.585449	124.0
670.625793	72.0
670.661865	144.0
670.751221	40.0
670.807922	148.0
670.882751	108.0
670.973145	80.0
671.030762	72.0
671.310547	60.0
671.354431	52.0
671.473328	432.0
671.588562	92.0
671.627808	48.0
671.696167	104.0
671.741272	48.0
671.865112	60.0
671.948975	76.0
672.025024	36.0
672.076599	72.0
672.123047	32.0
672.164368	128.0
672.246887	84.0
672.288208	72.0
672.360413	92.0
672.411621	60.0
672.458496	148.0
672.592712	132.0
672.644287	100.0
672.695923	116.0
672.775391	92.0
672.812866	88.0
672.869751	132.0
672.906006	64.0
672.983337	108.0
673.08313	124.0
673.144775	124.0
673.232544	96.0
673.288391	100.0
673.367371	168.0
673.527283	108.0
673.651245	88.0
673.709656	104.0
673.842407	164.0
673.950928	80.0
673.997437	96.0
674.068298	144.0
674.170288	48.0
674.204102	84.0
674.328125	88.0
674.441833	32.0
674.515137	92.0
674.819214	32.0
674.967163	52.0
675.331177	48.0
675.517395	52.0
675.667419	56.0
675.961304	100.0
676.08136	40.0
676.19519	92.0
676.283203	52.0
676.428101	60.0
676.59375	60.0
676.909607	72.0
677.085693	72.0
677.386108	72.0
677.484497	116.0
677.779846	76.0
678.277344	48.0
678.992859	68.0
679.101807	32.0
679.164001	52.0
679.397461	116.0
679.438965	92.0
682.196533	76.0
683.439514	96.0
684.490967	40.0
685.063843	88.0
685.417114	80.0
686.473633	268.0
686.924866	68.0
687.434692	188.0
687.468262	288.0
687.608337	104.0
688.0625	40.0
688.360107	104.0
688.481323	144.0
688.877136	144.0
689.336914	164.0
689.629578	68.0
689.760254	80.0
690.487061	80.0
690.727661	76.0
690.81134	104.0
691.052002	96.0
691.09906	144.0
692.161621	92.0
694.755981	92.0
696.955811	80.0
703.301697	40.0
704.753967	48.0
705.150269	64.0
706.805481	116.0
708.441467	76.0
708.791138	48.0
709.480164	36.0
712.159851	56.0
715.179932	48.0
718.062317	44.0
718.275696	84.0
724.267639	88.0
725.291077	112.0
725.446533	104.0
728.338806	56.0
729.316711	96.0
731.452148	68.0
732.566772	44.0
732.841553	44.0
733.175659	64.0
733.531372	56.0
734.323975	76.0
734.755493	88.0
738.899292	92.0
739.364624	64.0
739.900513	132.0
740.479858	120.0
740.766968	64.0
741.536377	48.0
742.35498	72.0
743.711304	52.0
747.368652	92.0
747.455688	84.0
747.575378	88.0
751.171326	52.0
754.010559	76.0
754.63916	56.0
756.231018	108.0
757.506836	96.0
758.065674	88.0
759.820251	52.0
760.566528	100.0
761.477966	44.0
765.332886	88.0
766.241638	48.0
766.555725	76.0
767.029663	44.0
767.338379	56.0
773.276611	120.0
775.214905	84.0
777.549622	104.0
778.654419	72.0
781.634094	92.0
783.209656	32.0
784.251587	88.0
786.013855	92.0
786.661255	72.0
787.152588	100.0
787.236328	96.0
787.69989	76.0
789.538757	36.0
790.008606	56.0
791.193848	100.0
791.648499	92.0
794.271423	88.0
796.567261	44.0
801.749207	124.0
802.814636	124.0
804.99292	44.0
807.49646	80.0
807.750977	108.0
807.835815	52.0
808.775146	176.0
814.837158	52.0
815.502014	76.0
816.241089	56.0
818.249573	140.0
818.887329	64.0
825.255798	152.0
829.262939	136.0
831.4021	68.0
832.567505	88.0
833.251038	72.0
834.279724	128.0
834.695374	68.0
836.356323	48.0
837.363892	76.0
840.217224	156.0
842.312683	48.0
843.797913	40.0
844.16217	120.0
844.474426	112.0
845.353821	40.0
846.62738	120.0
847.525208	72.0
849.803894	92.0
849.972168	100.0
853.934082	184.0
854.99292	80.0
856.792175	68.0
860.425476	32.0
860.583069	64.0
860.921753	144.0
863.411316	40.0
865.55896	168.0
867.650635	72.0
879.261963	84.0
879.763672	64.0
880.86792	52.0
881.358276	64.0
882.812439	144.0
883.184998	52.0
883.75885	72.0
884.273682	216.0
884.930725	140.0
891.740723	108.0
892.751404	56.0
894.780396	88.0
898.469421	60.0
899.764465	80.0
904.307434	124.0
904.774353	48.0
906.673096	76.0
909.04187	52.0
910.836975	52.0
912.549744	64.0
913.41571	184.0
913.602173	64.0
915.299438	136.0
916.281189	44.0
916.678833	168.0
918.210083	68.0
919.199402	32.0
919.778809	144.0
920.944153	88.0
921.632812	176.0
922.345947	104.0
922.726807	192.0
922.799316	112.0
923.041199	244.0
923.156067	76.0
925.740051	124.0
927.478821	56.0
928.394287	192.0
930.73053	168.0
931.2771	144.0
932.881226	88.0
933.902771	172.0
937.214478	76.0
939.561768	100.0
942.577942	52.0
948.551208	84.0
948.649292	208.0
950.157898	172.0
951.047668	124.0
951.858032	72.0
954.07605	68.0
954.11908	172.0
955.699707	76.0
955.76123	104.0
957.441711	104.0
961.664917	180.0
962.232849	52.0
963.14679	56.0
964.258911	104.0
967.531128	176.0
971.354614	104.0
971.515869	88.0
971.881958	32.0
972.614258	52.0
974.800354	216.0
975.720215	120.0
976.217651	44.0
976.609497	36.0
978.824951	184.0
979.285828	80.0
980.263916	76.0
980.519409	80.0
982.246521	80.0
983.194885	164.0
983.662964	112.0
984.075012	88.0
984.886841	168.0
986.042725	160.0
988.550476	200.0
988.625549	96.0
990.253296	60.0
992.183228	140.0
995.546387	72.0
998.110168	76.0
998.562988	92.0
1001.678589	44.0
1003.06488	52.0
1003.291809	48.0
1005.246155	136.0
1008.164551	92.0
1009.934814	140.0
1011.168579	172.0
1014.227722	92.0
1015.00116	188.0
1016.14917	168.0
1016.999512	196.0
1019.342957	100.0
1019.768738	72.0
1019.927673	108.0
1024.120728	212.0
1024.56665	68.0
1025.012573	52.0
1026.281006	136.0
1027.499268	144.0
1030.806641	52.0
1033.990723	200.0
1035.278076	68.0
1035.989014	56.0
1037.392456	140.0
1037.924561	80.0
1038.104126	92.0
1039.765625	36.0
1039.817017	44.0
1040.683594	44.0
1041.184448	84.0
1041.608398	40.0
1042.475708	172.0
1043.864258	180.0
1045.195801	112.0
1048.621704	36.0
1049.001953	220.0
1049.060059	152.0
1050.697998	140.0
1055.011963	28.0
1057.567017	208.0
1058.279175	212.0
1058.974121	80.0
1066.498657	156.0
1067.18103	76.0
1068.155518	228.0
1068.605347	184.0
1070.408325	120.0
1070.727417	184.0
1071.756714	156.0
1071.893555	44.0
1074.142822	52.0
1074.619019	88.0
1076.538086	68.0
1076.792725	40.0
1077.517822	60.0
1078.243164	184.0
1079.92334	164.0
1080.721436	132.0
1080.786865	160.0
1081.886475	220.0
1082.495361	140.0
1085.942505	156.0
1086.13269	124.0
1086.755859	160.0
1089.244019	112.0
1089.894409	48.0
1091.011719	192.0
1093.952271	164.0
1095.130981	40.0
1095.545898	156.0
1096.356323	216.0
1096.923218	172.0
1099.178711	108.0
1099.297485	104.0
1099.653809	120.0
1100.386597	156.0
1101.106323	168.0
1101.251587	48.0
1103.064209	228.0
1104.358032	156.0
1105.026245	96.0
1106.071777	56.0
1107.833252	40.0
1108.257202	180.0
1108.601807	196.0
1109.324219	112.0
1109.702148	148.0
1111.406738	232.0
1112.24292	48.0
1112.714233	176.0
1112.807129	132.0
1113.358276	160.0
1113.677124	92.0
1114.846313	136.0
1117.017822	136.0
1119.829346	80.0
1120.249023	132.0
1126.078735	148.0
1126.165527	144.0
1126.3927	180.0
1126.446045	196.0
1128.103271	88.0
1128.156738	80.0
1128.745117	72.0
1130.772095	172.0
1130.932739	216.0
1131.200562	64.0
1131.769531	160.0
1132.044067	160.0
1132.781982	164.0
1133.16272	104.0
1134.147827	132.0
1134.563354	76.0
1134.831543	80.0
1135.260742	184.0
1136.354004	52.0
1136.66272	188.0
1136.77002	68.0
1139.213989	64.0
1141.862305	136.0
1144.197144	284.0
1145.914551	160.0
1146.568237	92.0
1148.118774	56.0
1149.879639	64.0
1150.129272	104.0
1151.398682	68.0
1151.560669	152.0
1151.803833	92.0
1152.837524	148.0
1153.13855	248.0
1153.229614	132.0
1153.283691	156.0
1154.236816	176.0
1154.804932	112.0
1156.6521	64.0
1156.970215	72.0
1158.710693	164.0
1158.988525	80.0
1159.205322	188.0
1159.693359	84.0
1159.761108	160.0
1159.971191	228.0
1163.240845	224.0
1164.94519	168.0
1165.047119	244.0
1165.434448	148.0
1167.426025	40.0
1167.500854	132.0
1168.480347	140.0
1168.766113	124.0
1168.956665	184.0
1169.024658	196.0
1169.21521	164.0
1170.134155	184.0
1170.213257	188.0
1170.542725	168.0
1171.121582	152.0
1171.223755	180.0
1171.8573	192.0
1171.99353	184.0
1172.286499	116.0
1174.229492	72.0
1175.19812	108.0
1176.283203	124.0
1176.911255	88.0
1177.361938	152.0
1179.322754	80.0
1179.890137	96.0
1180.076416	164.0
1180.13623	204.0
1183.050781	96.0
1183.310913	132.0
1184.324341	136.0
1185.372559	40.0
1187.388062	64.0
1187.785889	224.0
1188.369019	96.0
1189.913208	224.0
1191.060059	64.0
1191.517578	148.0
1191.657715	64.0
1191.925659	172.0
1194.620728	76.0
1197.539185	196.0
1199.316895	116.0
1199.50293	168.0
1201.013062	140.0
1201.28894	164.0
1201.875366	200.0
1203.172974	64.0
1203.276489	156.0
1203.621704	200.0
1203.884155	152.0
1205.54895	128.0
1206.378296	92.0
1206.613403	176.0
1206.758545	32.0
1207.505371	96.0
1208.439209	40.0
1210.190308	112.0
1210.591919	164.0
1210.709717	120.0
1210.792725	180.0
1211.312256	196.0
1212.38623	148.0
1212.767334	180.0
1212.926758	132.0
1213.03772	72.0
1213.190186	200.0
1214.160889	60.0
1214.209473	32.0
1215.104248	108.0
1216.096558	60.0
1216.388062	60.0
1216.596313	120.0
1217.165649	80.0
1221.217163	148.0
1223.109741	184.0
1224.356079	176.0
1224.564941	228.0
1225.735352	48.0
1226.669189	112.0
1227.06665	184.0
1228.147461	220.0
1229.23584	152.0
1229.947632	152.0
1230.122192	200.0
1230.959961	80.0
1232.070557	108.0
1232.475708	136.0
1233.440186	196.0
1233.754761	212.0
1233.908569	156.0
1234.076294	232.0
1235.223267	144.0
1235.621948	40.0
1236.272705	164.0
1237.021606	100.0
1237.378662	104.0
1239.858276	120.0
1240.390991	184.0
1241.183228	168.0
1241.337402	104.0
1243.463135	128.0
1244.108887	208.0
1244.761841	116.0
1244.874146	196.0
1245.183105	140.0
1245.414917	220.0
1249.055908	140.0
1249.658813	156.0
1250.09021	180.0
1251.181152	64.0
1251.505005	124.0
1252.84314	68.0
1252.941772	116.0
1253.089722	176.0
1253.709717	40.0
1254.978638	124.0
1255.183105	44.0
1255.824829	128.0
1257.052368	120.0
1257.115845	100.0
1257.2146	116.0
1258.252197	152.0
1258.472656	200.0
1259.74939	168.0
1260.667847	216.0
1261.685669	200.0
1262.230103	128.0
1262.611938	220.0
1262.725098	88.0
1263.821655	156.0
1265.272461	132.0
1265.654785	260.0
1265.88855	184.0
1265.93811	160.0
1266.001831	128.0
1266.072632	180.0
1266.157593	140.0
1267.616943	144.0
1268.501587	152.0
1269.474243	216.0
1270.247314	116.0
1271.82251	76.0
1272.780884	64.0
1273.114624	80.0
1273.746704	168.0
1273.924316	44.0
1274.265381	164.0
1274.784058	128.0
1275.487671	96.0
1275.764893	180.0
1277.414673	132.0
1277.93396	176.0
1278.083374	48.0
1278.34668	92.0
1279.065552	120.0
1279.25769	160.0
1280.553589	256.0
1280.603516	116.0
1280.824341	188.0
1281.451172	248.0
1281.522461	176.0
1282.213623	124.0
1282.26355	168.0
1284.147339	104.0
1284.452393	172.0
1284.509521	196.0
1284.880493	68.0
1287.378662	160.0
1287.62146	168.0
1287.678589	192.0
1287.771484	140.0
1288.035767	188.0
1288.592896	184.0
1288.97876	152.0
1289.364624	192.0
1291.32019	116.0
1291.566772	76.0
1292.926147	52.0
1293.233887	136.0
1293.806519	168.0
1294.422241	40.0
1294.479614	212.0
1295.016724	60.0
1296.664551	252.0
1297.022949	184.0
1297.947754	164.0
1299.812744	120.0
1300.487305	172.0
1302.066772	104.0
1302.533691	108.0
1302.612671	120.0
1303.165894	84.0
1303.683228	88.0
1303.826904	204.0
1304.596069	144.0
1305.235962	164.0
1305.875977	184.0
1306.285889	120.0
1306.53772	180.0
1307.127686	128.0
1307.869019	128.0
1308.409546	136.0
1309.604248	128.0
1310.065186	88.0
1310.223633	48.0
1310.288574	224.0
1310.627197	176.0
1311.434326	100.0
1312.256958	156.0
1312.501221	156.0
1312.876221	148.0
1313.121338	212.0
1313.272827	144.0
1313.438721	104.0
1313.813843	152.0
1314.939453	124.0
1315.986206	180.0
1317.271729	64.0
1317.488403	136.0
1318.469604	152.0
1318.66626	176.0
1319.049316	160.0
1321.710693	172.0
1323.245117	44.0
1323.766479	160.0
1323.929932	124.0
1325.331055	96.0
1325.483276	140.0
1325.613647	56.0
1326.1427	88.0
1326.613525	176.0
1327.135864	48.0
1327.433105	152.0
1327.607178	160.0
1327.78125	68.0
1329.203003	148.0
1329.471558	176.0
1330.663452	176.0
1331.359009	200.0
1332.17981	132.0
1333.240601	136.0
1333.400513	144.0
1334.280029	228.0
1335.261597	52.0
1335.450806	176.0
1335.545288	168.0
1336.338257	148.0
1336.942139	144.0
1337.175049	80.0
1337.699097	216.0
1338.5	204.0
1338.572754	164.0
1338.864136	144.0
1339.119019	120.0
1339.228271	272.0
1339.461304	164.0
1340.233521	36.0
1340.823853	212.0
1341.078857	212.0
1341.62561	148.0
1341.822388	204.0
1342.959961	52.0
1343.689453	208.0
1344.324219	60.0
1344.769409	100.0
1346.602051	108.0
1346.704224	168.0
1347.580933	72.0
1348.954834	208.0
1349.115601	192.0
1349.510376	140.0
1349.737061	68.0
1350.885254	180.0
1351.326782	200.0
1351.499878	108.0
1352.619507	144.0
1352.809937	136.0
1353.007568	100.0
1353.175903	240.0
1353.534668	176.0
1354.062012	152.0
1354.274414	128.0
1354.582031	224.0
1355.395264	100.0
1356.164673	192.0
1356.567871	188.0
1356.663208	160.0
1356.994019	272.0
1357.432983	184.0
1357.902344	184.0
1358.026978	204.0
1358.173706	140.0
1358.81189	244.0
1358.892578	120.0
1359.611694	96.0
1359.883301	208.0
1360.235596	176.0
1360.514526	76.0
1360.573242	148.0
1361.138672	208.0
1361.770142	80.0
1362.306396	52.0
1362.974976	200.0
1363.783325	48.0
1364.261108	144.0
1364.393433	140.0
1364.569946	160.0
1365.231689	44.0
1365.672974	100.0
1365.952515	148.0
1366.018677	108.0
1366.187866	192.0
1366.592529	208.0
1366.953003	172.0
1367.136963	164.0
1368.233765	176.0
1368.336792	96.0
1368.432495	236.0
1369.109985	156.0
1369.316162	172.0
1369.839111	136.0
1370.413696	152.0
1370.678955	144.0
1370.93689	148.0
1371.1875	160.0
1371.327515	192.0
1371.4823	132.0
1371.990967	168.0
1372.831421	172.0
1373.782959	224.0
1374.151733	60.0
1375.000366	108.0
1375.125854	64.0
1375.192261	224.0
1375.568726	124.0
1375.937866	160.0
1376.491577	128.0
1376.557983	136.0
1377.244873	128.0
1377.45166	164.0
1379.032959	252.0
1380.237915	84.0
1380.674194	80.0
1380.733398	32.0
1380.888672	56.0
1381.236328	152.0
1382.124023	204.0
1382.510742	208.0
1383.811646	120.0
1383.984619	76.0
1384.652588	204.0
1384.826172	156.0
1385.255737	216.0
1386.137451	128.0
1386.641357	44.0
1386.715454	112.0
1387.004517	104.0
1387.975708	200.0
1388.287109	156.0
1390.20105	60.0
1391.982666	112.0
1393.289795	240.0
1393.851196	180.0
1393.973389	88.0
1394.434204	156.0
1394.545654	140.0
1395.422852	104.0
1395.682983	128.0
1395.995361	104.0
1396.300293	48.0
1396.352295	104.0
1396.515991	32.0
1396.575439	204.0
1396.694458	96.0
1396.761353	124.0
1397.006836	44.0
1397.929443	140.0
1398.249512	52.0
1398.383423	128.0
1399.343628	228.0
1399.44043	120.0
1399.827637	156.0
1400.408569	188.0
1401.227905	204.0
1401.645264	56.0
1401.749512	128.0
1401.950684	88.0
1402.099731	204.0
1403.456787	184.0
1403.608032	112.0
1403.665283	136.0
1403.956055	192.0
1404.202148	96.0
1404.396118	212.0
1405.522583	64.0
1405.731567	152.0
1406.022583	140.0
1406.761475	48.0
1407.000366	120.0
1407.201904	160.0
1407.79187	116.0
1407.985962	152.0
1408.57605	168.0
1408.665649	156.0
1408.843872	132.0
1409.123535	136.0
1409.651855	116.0
1410.033081	144.0
1410.518799	136.0
1410.832764	164.0
1411.468262	152.0
1411.588013	292.0
1411.722534	180.0
1412.25354	164.0
1413.106323	164.0
1413.704956	120.0
1413.906982	172.0
1413.996826	128.0
1414.588135	204.0
1415.419189	140.0
1415.682617	128.0
1415.81604	128.0
1416.130615	148.0
1416.235474	168.0
1416.677734	100.0
1416.988647	152.0
1417.18689	60.0
1417.366699	128.0
1417.553955	88.0
1417.733887	140.0
1417.896484	164.0
1418.595825	188.0
1419.637939	144.0
1421.14563	32.0
1421.243164	120.0
1421.56189	208.0
1421.903564	116.0
1422.008667	92.0
1422.316406	128.0
1422.421509	204.0
1422.86438	144.0
1423.254761	144.0
1423.735352	184.0
1424.223511	160.0
1424.606689	120.0
1425.012329	176.0
1425.185181	168.0
1425.485718	48.0
1425.651001	72.0
1425.823853	236.0
1425.876465	104.0
1426.045776	160.0
1426.154541	96.0
1426.462769	120.0
1426.628174	68.0
1427.402466	184.0
1428.320068	192.0
1428.432861	164.0
1429.877563	100.0
1430.148438	128.0
1430.637695	328.0
1430.795776	144.0
1431.093384	180.0
1431.27771	188.0
1432.075928	36.0
1432.196411	176.0
1432.557983	128.0
1432.969604	172.0
1433.846436	180.0
1434.87915	120.0
1435.301392	132.0
1435.73877	180.0
1436.221436	112.0
1436.726807	220.0
1437.654907	176.0
1438.085083	156.0
1438.575684	104.0
1438.787109	140.0
1439.32312	160.0
1439.436401	208.0
1439.542114	108.0
1440.274658	172.0
1440.539062	192.0
1441.007446	176.0
1441.083008	76.0
1442.046997	232.0
1442.216553	184.0
1442.337524	152.0
1442.473511	168.0
1443.252197	132.0
1443.327881	196.0
1443.789185	120.0
1445.029663	96.0
1446.172363	60.0
1447.042847	104.0
1447.186768	136.0
1447.504761	168.0
1448.356323	192.0
1448.693848	164.0
1449.633301	192.0
1449.79248	180.0
1449.966797	132.0
1450.467041	212.0
1450.593872	164.0
1450.619385	120.0
1450.63623	176.0
1450.800537	160.0
1451.118896	204.0
1451.80896	168.0
1451.862061	56.0
1451.998535	176.0
1452.42334	128.0
1452.761353	140.0
1454.289795	184.0
1454.608643	96.0
1454.80603	176.0
1455.269165	184.0
1455.466553	80.0
1457.578125	100.0
1457.768066	184.0
1457.988525	136.0
1458.505371	144.0
1458.740967	92.0
1459.060303	160.0
1459.698975	128.0
1459.828247	136.0
1460.147583	324.0
1460.292114	88.0
1462.993408	216.0
1463.66333	64.0
1463.716675	164.0
1463.777588	124.0
1463.896118	188.0
1464.478149	128.0
1464.699097	200.0
1465.544678	152.0
1465.765625	176.0
1466.390625	136.0
1466.710693	200.0
1467.282471	80.0
1467.511108	140.0
1467.586304	192.0
1467.755127	144.0
1468.113525	116.0
1468.571167	172.0
1469.120361	132.0
1470.379272	116.0
1471.280029	224.0
1471.41748	224.0
1472.174072	184.0
1472.32605	132.0
1472.379517	296.0
1472.601074	116.0
1473.601685	136.0
1474.165283	168.0
1474.862671	192.0
1476.009399	88.0
1477.409058	160.0
1478.291992	160.0
1478.457275	108.0
1478.564331	216.0
1478.893433	68.0
1479.888672	116.0
1480.60083	108.0
1482.056274	172.0
1482.355103	168.0
1482.903564	64.0
1483.08313	44.0
1483.45105	188.0
1483.926392	64.0
1483.987671	72.0
1484.102783	184.0
1484.570435	156.0
1485.0	148.0
1485.115723	184.0
1485.613647	132.0
1485.828369	128.0
1485.932495	220.0
1486.309814	124.0
1486.703125	56.0
1486.956421	132.0
1487.140625	128.0
1487.332397	96.0
1488.000366	108.0
1488.307373	192.0
1488.683716	44.0
1490.642578	164.0
1490.857666	160.0
1491.567749	148.0
1491.933716	136.0
1492.049072	136.0
1492.249023	152.0
1492.841064	56.0
1493.296143	140.0
1494.125488	188.0
1494.194824	156.0
1494.371704	160.0
1494.594849	124.0
1494.841064	164.0
1495.482178	92.0
1495.957031	120.0
1496.049438	144.0
1496.141846	172.0
1496.408691	164.0
1496.796265	164.0
1497.142822	140.0
1497.920654	208.0
1498.176147	208.0
1498.467651	148.0
1498.706543	124.0
1499.284424	188.0
1499.338379	116.0
1499.726685	180.0
1499.954956	248.0
1500.263306	172.0
1500.710449	160.0
1500.903198	92.0
1501.196289	208.0
1501.481567	112.0
1501.620483	184.0
1501.720703	168.0
1501.998413	120.0
1502.792969	100.0
1502.947266	168.0
1503.132446	140.0
1503.950562	160.0
1504.662842	220.0
1505.208862	116.0
END IONS

BEGIN IONS
PEPMASS=249.162
CHARGE=1
MSLEVEL=2
SOURCE_INSTRUMENT=LC-ESI-qTof
FILENAME=p5-H04_GH4_01_18479.mzXML
SEQ=*..*
IONMODE=Positive
ORGANISM=GNPS-NIH-SMALLMOLECULEPHARMACOLOGICALLYACTIVE
NAME=MLS001056774-01!S(?)-Pindolol M+H
PI=Dorrestein
DATACOLLECTOR=VP/LMS
SMILES=CC(C)NC[C@H](O)COc1cccc2[nH]ccc12
INCHI=N/A
INCHIAUX=N/A
PUBMED=N/A
SUBMITUSER=vphelan
LIBRARYQUALITY=1
SPECTRUMID=CCMSLIB00000086181
USI=mzspec:GNPS:GNPS-NIH-SMALLMOLECULEPHARMACOLOGICALLYACTIVE:accession:CCMSLIB00000086181
SCANS=1200
44.983315	172.0
45.430279	200.0
45.86462	112.0
46.008961	144.0
46.341667	176.0
46.436275	152.0
46.545128	52.0
46.56414	184.0
46.798035	192.0
46.819824	180.0
46.949291	216.0
46.961567	196.0
47.125381	232.0
47.294956	88.0
47.312752	196.0
47.459351	116.0
47.514214	52.0
47.558125	44.0
47.76836	188.0
47.816521	48.0
47.835789	124.0
47.890869	164.0
47.910152	108.0
47.992847	56.0
48.002502	164.0
48.204041	184.0
48.686131	148.0
48.898842	176.0
49.029758	244.0
49.543961	176.0
49.687469	220.0
49.814713	92.0
49.917313	184.0
50.117191	164.0
50.224335	68.0
50.330181	72.0
50.341476	184.0
50.518154	104.0
50.625725	68.0
50.818504	172.0
50.839787	128.0
51.279247	120.0
51.457561	132.0
51.599003	84.0
51.714874	156.0
52.077629	48.0
52.191158	152.0
52.277466	56.0
52.492107	144.0
52.577221	140.0
52.604645	176.0
52.762817	172.0
52.898098	236.0
53.118359	132.0
53.170593	232.0
53.510742	128.0
53.583561	180.0
53.612705	40.0
53.809624	188.0
54.132771	184.0
54.795219	116.0
54.94265	208.0
55.090279	188.0
55.183384	76.0
55.270653	140.0
55.408348	156.0
55.587761	204.0
55.812057	200.0
55.870064	176.0
55.998077	172.0
56.270969	108.0
56.439808	176.0
56.950844	96.0
57.341011	224.0
57.412895	136.0
57.459007	140.0
57.523037	92.0
57.828369	224.0
57.914673	164.0
58.151203	176.0
58.365402	208.0
58.538876	156.0
58.569336	120.0
58.741585	164.0
58.851467	172.0
58.866737	80.0
58.973682	88.0
59.024132	140.0
59.242996	148.0
59.46994	128.0
59.512924	196.0
59.617378	128.0
60.522877	192.0
60.719685	148.0
60.891956	176.0
61.022491	152.0
61.414925	60.0
61.544453	72.0
61.595989	196.0
62.222401	160.0
62.241241	92.0
62.335491	160.0
62.839359	204.0
63.167961	200.0
63.313576	136.0
63.57357	104.0
63.597378	180.0
63.662468	120.0
63.694233	120.0
63.878628	152.0
64.036209	152.0
64.12384	248.0
64.214714	192.0
64.296082	120.0
64.38549	172.0
64.7117	48.0
64.722908	144.0
64.73732	152.0
64.887939	136.0
64.928024	44.0
65.056389	192.0
65.147926	136.0
65.160782	164.0
65.779182	236.0
67.04921	112.0
67.075287	104.0
67.43438	140.0
67.760017	172.0
68.010925	224.0
68.065102	160.0
68.170235	172.0
68.553658	140.0
68.669067	124.0
68.928253	128.0
69.14489	180.0
69.604088	160.0
69.64727	176.0
69.743721	176.0
69.878342	196.0
69.943245	136.0
70.008179	224.0
70.445175	156.0
70.552124	108.0
70.727776	188.0
71.06797	52.0
71.185471	268.0
71.274506	204.0
71.314835	220.0
71.517731	184.0
71.678345	124.0
71.867203	124.0
71.889137	176.0
72.249031	204.0
72.379356	152.0
72.45388	208.0
72.713318	192.0
73.680519	260.0
73.886276	140.0
74.130524	124.0
74.195656	176.0
74.784859	220.0
74.910561	180.0
75.343567	76.0
75.592552	60.0
75.767426	176.0
75.80555	52.0
76.329788	92.0
76.381966	140.0
76.637878	196.0
77.33992	124.0
78.148941	168.0
78.56826	148.0
78.684738	144.0
78.70063	152.0
78.864922	172.0
79.295013	164.0
79.642776	140.0
80.149803	180.0
80.319168	172.0
80.349495	144.0
80.61554	168.0
80.794342	204.0
81.150749	48.0
81.454041	188.0
81.554665	196.0
82.123642	196.0
82.168739	116.0
82.806839	244.0
83.105949	144.0
83.140434	168.0
83.769539	40.0
83.798691	212.0
84.094109	80.0
85.018349	192.0
85.106461	184.0
85.119316	220.0
85.347168	80.0
85.44281	92.0
85.555069	188.0
85.927345	228.0
85.942108	144.0
86.211708	176.0
86.278252	112.0
86.685448	196.0
86.965492	152.0
86.982201	44.0
87.446884	268.0
87.625648	192.0
87.890411	156.0
88.030411	180.0
88.198563	104.0
88.232208	52.0
88.737709	160.0
89.039986	172.0
89.40078	68.0
89.521263	136.0
89.658783	176.0
89.743614	168.0
89.951141	192.0
90.056877	104.0
90.083321	160.0
90.09655	92.0
90.253418	164.0
90.641457	192.0
90.813972	192.0
90.92971	104.0
91.001846	60.0
91.053535	384.0
91.132904	44.0
91.83918	148.0
91.921211	192.0
91.93457	180.0
91.996284	204.0
92.016647	108.0
92.04792	736.0
92.574989	172.0
92.695671	128.0
92.850952	32.0
93.558067	176.0
93.638939	224.0
93.721779	108.0
94.053482	156.0
94.163536	200.0
94.256271	164.0
94.318115	112.0
94.339378	192.0
94.414886	152.0
94.453468	168.0
94.645065	152.0
94.662491	236.0
94.786469	48.0
95.08123	196.0
95.123932	112.0
95.158882	76.0
95.178299	148.0
95.242386	164.0
95.287064	184.0
95.318153	180.0
95.349243	180.0
95.413391	116.0
95.84938	136.0
95.863014	196.0
96.095055	80.0
96.339096	204.0
96.624527	156.0
96.865318	180.0
96.898621	244.0
97.681923	52.0
97.756691	176.0
97.882675	156.0
98.096687	568.0
98.45768	144.0
98.582962	204.0
98.683777	116.0
99.099419	180.0
99.166794	228.0
99.496086	112.0
99.684776	232.0
99.953224	96.0
100.11013	464.0
100.192154	172.0
100.216064	200.0
100.413414	208.0
100.46727	164.0
100.740768	136.0
100.974632	152.0
101.20076	216.0
101.230789	196.0
101.294884	204.0
101.371017	100.0
101.39106	164.0
101.689896	148.0
102.046463	200.0
102.081253	224.0
102.304985	176.0
103.054665	620.0
103.225029	196.0
103.467834	156.0
103.658501	208.0
103.719025	176.0
103.970528	204.0
104.049026	1064.0
104.435791	176.0
104.545654	112.0
104.602646	120.0
104.781853	148.0
104.96122	88.0
105.035194	192.0
105.056854	208.0
105.077766	168.0
105.835762	64.0
106.030373	176.0
106.06498	2316.0
106.155426	208.0
106.26004	72.0
106.648155	76.0
106.68927	120.0
106.711884	60.0
107.049583	1740.0
107.067223	700.0
107.11525	56.0
107.168816	80.0
107.566841	136.0
107.845695	160.0
107.955276	124.0
108.054558	176.0
108.28019	184.0
108.441795	124.0
108.742538	88.0
109.037453	112.0
109.089417	168.0
110.334	164.0
110.997726	252.0
111.190727	204.0
111.825447	176.0
112.029694	168.0
112.40921	220.0
112.700607	188.0
112.950073	256.0
114.022942	148.0
114.188774	208.0
114.239822	188.0
114.30365	36.0
114.582573	128.0
114.676338	136.0
114.846909	140.0
114.930115	144.0
115.053894	2856.0
115.083794	124.0
115.130768	96.0
115.211937	148.0
115.282448	104.0
115.320396	272.0
115.451332	48.0
115.519775	160.0
115.845161	148.0
116.00589	160.0
116.049141	3104.0
116.107422	6336.0
116.134544	96.0
116.177444	112.0
116.220352	88.0
116.39637	260.0
116.486572	56.0
116.516647	200.0
116.557472	84.0
116.867104	120.0
116.901527	160.0
116.929504	140.0
117.059692	3324.0
117.111664	260.0
117.174988	56.0
117.209465	36.0
117.287048	160.0
117.47506	192.0
117.496223	168.0
117.59549	144.0
117.768219	76.0
117.794136	152.0
117.925941	48.0
118.065056	5000.0
118.11319	140.0
118.215744	104.0
118.354286	132.0
118.510895	144.0
118.607758	56.0
118.95266	140.0
119.032303	152.0
119.06749	1044.0
119.180695	44.0
119.659195	160.0
119.776794	48.0
119.872658	196.0
119.898811	152.0
119.929321	172.0
120.044548	520.0
120.077583	120.0
120.153931	168.0
120.212845	196.0
120.354729	120.0
120.780891	92.0
120.909981	160.0
120.925301	36.0
121.040802	184.0
121.078552	52.0
121.102646	172.0
121.345894	120.0
121.819931	32.0
122.526108	36.0
122.587807	108.0
122.896515	52.0
122.942406	204.0
123.086342	132.0
123.260849	132.0
123.783859	164.0
123.900276	136.0
124.197327	160.0
124.912582	208.0
125.034958	228.0
125.620964	160.0
126.047401	248.0
126.434273	176.0
127.05368	644.0
127.335541	188.0
127.902145	152.0
128.052078	360.0
128.603149	172.0
128.668427	224.0
128.686676	132.0
128.729706	68.0
129.009735	136.0
129.057831	400.0
129.215546	228.0
129.340012	164.0
130.038544	216.0
130.063797	912.0
130.601608	156.0
130.8246	168.0
131.044968	164.0
131.054443	228.0
131.069077	416.0
131.183975	196.0
131.46965	76.0
131.789337	128.0
131.985916	168.0
132.044357	1532.0
132.078323	648.0
132.420715	172.0
132.835602	120.0
133.016876	116.0
133.053436	1408.0
133.090347	140.0
133.108719	60.0
133.570663	64.0
133.605179	44.0
133.724838	76.0
133.750153	88.0
133.770874	92.0
134.005768	156.0
134.059799	10544.0
134.10025	168.0
134.148666	60.0
134.164795	40.0
134.180939	48.0
134.330841	40.0
134.356216	68.0
134.37236	108.0
134.621658	32.0
134.640121	72.0
134.665527	48.0
134.815704	176.0
134.875793	152.0
135.064697	1572.0
135.144058	32.0
135.31958	72.0
135.468185	44.0
135.55159	52.0
135.654724	56.0
135.671707	156.0
135.959732	92.0
136.243011	88.0
136.687103	32.0
137.243805	168.0
138.775314	160.0
138.951218	256.0
140.336533	176.0
140.643219	88.0
141.006943	140.0
141.259949	204.0
142.0298	92.0
142.064941	208.0
142.958755	208.0
143.072632	2700.0
143.306412	84.0
143.523315	156.0
143.957779	172.0
144.056656	684.0
144.080017	14972.0
144.179779	100.0
144.301697	60.0
144.359085	76.0
144.40213	68.0
144.432343	184.0
144.497818	44.0
144.607895	76.0
144.855774	84.0
144.873047	76.0
144.919205	108.0
144.962326	100.0
145.059204	800.0
145.084274	740.0
145.326813	40.0
145.614075	96.0
145.78064	116.0
145.807068	40.0
145.929672	52.0
145.96814	56.0
146.018646	148.0
146.059357	3952.0
146.244812	188.0
147.063034	236.0
147.095688	88.0
148.077377	204.0
150.052979	36.0
152.321579	60.0
153.002762	164.0
153.064316	144.0
153.747162	44.0
154.064041	688.0
154.59729	168.0
154.976151	128.0
155.059814	544.0
157.048599	328.0
157.411362	96.0
157.846161	96.0
158.058777	172.0
160.074066	800.0
161.049057	164.0
161.081421	244.0
161.245041	124.0
162.102951	44.0
163.507324	144.0
164.009079	100.0
166.326538	80.0
167.275055	44.0
169.475449	132.0
170.059677	316.0
170.087479	128.0
170.594025	148.0
171.066116	168.0
171.187256	52.0
171.395645	208.0
171.466003	68.0
171.505096	88.0
171.932831	144.0
171.974594	224.0
171.995483	196.0
172.075821	3512.0
172.13385	44.0
172.395081	28.0
172.604202	52.0
173.051636	52.0
173.077682	312.0
173.148529	52.0
173.203522	104.0
173.308319	72.0
173.405273	96.0
173.455566	64.0
173.780273	40.0
173.893112	48.0
174.087387	156.0
174.134659	132.0
174.181946	68.0
180.941971	176.0
182.068161	256.0
183.001266	172.0
185.039719	40.0
185.077621	160.0
186.126984	128.0
198.60556	128.0
199.105148	192.0
207.032089	208.0
207.12088	248.0
210.615753	68.0
210.84111	140.0
223.037949	128.0
228.11972	88.0
247.210236	120.0
248.237732	172.0
249.156769	584.0
250.149612	172.0
268.820587	76.0
272.35318	52.0
273.010498	152.0
279.181549	84.0
290.555481	88.0
418.708588	96.0
427.522949	44.0
439.227722	100.0
488.396973	52.0
584.12323	108.0
591.762756	236.0
626.134827	56.0
685.34845	72.0
710.788513	44.0
738.059631	128.0
748.091309	44.0
786.816895	168.0
787.710388	248.0
839.594299	172.0
853.684265	236.0
856.780762	204.0
874.72406	172.0
892.324036	172.0
902.113159	212.0
941.26001	164.0
945.282227	172.0
970.599915	80.0
980.259705	180.0
982.136292	136.0
983.059692	256.0
995.52356	100.0
997.578125	192.0
998.458374	172.0
1001.813293	204.0
1004.044617	104.0
1014.826233	208.0
1020.197266	212.0
1026.577148	152.0
1031.327148	144.0
1042.266724	152.0
1042.530151	260.0
1043.770752	116.0
1050.417358	112.0
1062.611938	244.0
1079.959595	160.0
1085.729736	120.0
1086.326538	148.0
1088.590942	184.0
1088.650024	72.0
1089.911255	140.0
1099.895386	212.0
1100.535767	140.0
1102.953613	204.0
1104.798584	172.0
1106.731201	196.0
1109.759155	96.0
1112.127441	132.0
1114.896973	204.0
1115.801025	132.0
1117.017944	220.0
1122.132568	224.0
1125.5354	140.0
1125.642212	176.0
1126.22998	160.0
1126.630737	164.0
1126.791138	160.0
1134.815918	200.0
1135.117554	204.0
1146.828979	168.0
1150.086792	100.0
1150.6875	84.0
1151.740967	156.0
1154.769043	196.0
1155.655273	160.0
1162.363403	80.0
1167.206543	48.0
1167.342529	68.0
1174.459595	52.0
1175.755859	144.0
1178.767456	232.0
1178.897339	52.0
1179.676514	172.0
1181.687134	168.0
1184.781738	172.0
1185.08313	96.0
1188.93689	76.0
1192.597656	128.0
1198.350586	244.0
1200.259888	176.0
1201.591064	184.0
1204.138184	136.0
1207.213623	216.0
1209.074585	196.0
1212.897827	264.0
1213.064087	180.0
1216.359131	160.0
1218.963623	124.0
1220.840454	164.0
1222.614502	200.0
1229.318481	136.0
1240.859741	192.0
1241.820435	124.0
1242.093994	160.0
1246.039307	196.0
1247.965088	192.0
1249.223999	152.0
1249.885254	160.0
1250.103394	216.0
1250.786133	168.0
1250.955078	148.0
1253.37085	188.0
1254.343384	188.0
1254.717041	164.0
1264.486206	168.0
1265.250732	200.0
1266.220825	176.0
1266.757202	180.0
1271.22583	192.0
1273.16394	172.0
1280.06897	236.0
1285.308228	216.0
1287.542603	124.0
1289.092896	68.0
1290.543945	48.0
1293.291016	76.0
1296.478027	240.0
1296.807739	72.0
1298.435303	88.0
1299.281616	184.0
1299.46106	104.0
1302.892822	172.0
1303.323853	184.0
1304.200684	100.0
1306.494507	156.0
1307.883423	156.0
1310.27417	104.0
1313.763428	260.0
1318.991577	144.0
1319.114502	124.0
1321.530029	196.0
1321.71814	160.0
1324.606812	116.0
1327.788818	188.0
1328.187622	36.0
1328.579346	132.0
1329.101807	92.0
1329.595215	168.0
1330.088745	88.0
1330.814819	116.0
1333.386353	236.0
1335.858521	148.0
1338.602417	228.0
1338.755249	208.0
1339.738647	176.0
1340.33606	160.0
1341.516724	204.0
1341.684448	28.0
1342.982422	272.0
1344.412354	260.0
1345.989136	116.0
1352.027344	172.0
1352.451904	252.0
1352.56897	148.0
1354.948975	164.0
1358.196411	104.0
1361.829712	204.0
1362.96106	140.0
1363.181519	56.0
1364.298706	208.0
1365.357544	204.0
1366.622803	140.0
1370.252563	184.0
1375.244873	160.0
1379.21875	200.0
1379.270386	184.0
1380.579102	240.0
1381.141235	192.0
1381.333496	164.0
1382.125122	148.0
1383.168579	200.0
1386.286743	212.0
1386.509033	124.0
1388.125122	108.0
1391.709106	48.0
1392.02832	48.0
1392.637329	168.0
1393.707153	176.0
1395.94458	184.0
1397.744751	64.0
1398.494995	156.0
1400.469482	88.0
1409.69812	288.0
1410.019531	48.0
1411.021118	84.0
1411.948364	164.0
1412.075562	140.0
1414.410034	76.0
1415.997314	68.0
1418.132568	148.0
1418.222534	196.0
1420.734619	64.0
1421.079712	176.0
1421.88269	168.0
1422.926025	216.0
1425.09668	68.0
1425.817993	248.0
1426.742554	184.0
1430.534058	148.0
1435.996948	156.0
1436.939941	156.0
1438.298218	180.0
1438.479492	164.0
1439.030518	204.0
1440.367188	236.0
1441.462769	196.0
1442.052246	144.0
1442.611572	172.0
1443.912109	232.0
1447.6875	160.0
1448.218628	172.0
1448.445801	140.0
1449.35498	184.0
1449.445923	76.0
1452.72876	36.0
1454.071777	236.0
1457.162354	136.0
1457.489136	260.0
1460.712646	180.0
1462.371338	176.0
1464.952637	148.0
1465.585083	160.0
1466.072754	40.0
1467.25415	124.0
1467.307617	216.0
1467.696411	192.0
1468.245483	68.0
1468.397949	156.0
1468.596313	168.0
1470.137451	132.0
1472.458252	196.0
1472.969971	208.0
1474.926147	144.0
1475.323608	184.0
1479.875854	156.0
1481.759888	180.0
1483.698853	196.0
1484.619019	164.0
1486.160889	168.0
1486.314331	204.0
1488.617188	92.0
1489.469727	96.0
1490.575928	196.0
1490.921753	124.0
1491.30603	144.0
1492.912842	236.0
1493.335938	132.0
1493.528198	116.0
1494.405151	180.0
1495.513306	180.0
1499.988525	184.0
1500.404907	164.0
1500.744141	52.0
1503.081177	44.0
1503.328125	152.0
1504.022827	128.0
1504.895142	260.0
1505.142212	224.0
1505.28894	240.0
END IONS

BEGIN IONS
PEPMASS=165.102
CHARGE=1
MSLEVEL=2
SOURCE_INSTRUMENT=LC-ESI-Q-Exactive Plus Orbitrap Res 14k
FILENAME=Pesticide_Mix3_pos_14k.mzXML
SEQ=*..*
IONMODE=positive
ORGANISM=GNPS-COLLECTIONS-PESTICIDES-POSITIVE
NAME=Pesticide3_Fenuron_C9H12N2O_Urea, N,N-dimethyl-N'-phenyl- M+H
PI=Dorrestein/Touboul
DATACOLLECTOR=lfnothias
SMILES=CN(C)C(=O)NC1=CC=CC=C1
INCHI=InChI=1S/C9H12N2O/c1-11(2)9(12)10-8-6-4-3-5-7-8/h3-7H,1-2H3,(H,10,12)
INCHIAUX=N/A
PUBMED=n/a
SUBMITUSER=mwang87
LIBRARYQUALITY=1
SPECTRUMID=CCMSLIB00001058211
USI=mzspec:GNPS:GNPS-COLLECTIONS-PESTICIDES-POSITIVE:accession:CCMSLIB00001058211
SCANS=1276
72.044601	55436124.0
77.038879	85120.882812
92.04921	931490.8125
95.049286	110153.789062
120.044159	2247693.0
120.215294	59043.820312
165.102631	17381454.0
END IONS

BEGIN IONS
PEPMASS=233.089
CHARGE=1
MSLEVEL=2
SOURCE_INSTRUMENT=LC-ESI-Q-Exactive Plus Orbitrap Res 14k
FILENAME=Pesticide_Mix3_pos_14k.mzXML
SEQ=*..*
IONMODE=positive
ORGANISM=GNPS-COLLECTIONS-PESTICIDES-POSITIVE
NAME=Pesticide3_Fluometuron_C10H11F3N2O_Urea, N,N-dimethyl-N'-[3-(trifluoromethyl)phenyl]- M+H
PI=Dorrestein/Touboul
DATACOLLECTOR=lfnothias
SMILES=CN(C)C(=O)NC1=CC=CC(=C1)C(F)(F)F
INCHI=InChI=1S/C10H11F3N2O/c1-15(2)9(16)14-8-5-3-4-7(6-8)10(11,12)13/h3-6H,1-2H3,(H,14,16)
INCHIAUX=N/A
PUBMED=n/a
SUBMITUSER=mwang87
LIBRARYQUALITY=1
SPECTRUMID=CCMSLIB00001058223
USI=mzspec:GNPS:GNPS-COLLECTIONS-PESTICIDES-POSITIVE:accession:CCMSLIB00001058223
SCANS=2224
70.477867	65744.703125
72.044632	65934772.0
73.455345	70667.289062
75.803871	71490.015625
81.776169	68501.320312
85.839111	69758.570312
99.985344	81808.34375
103.656792	69849.34375
141.164169	89374.640625
145.026443	117367.671875
147.969574	78657.226562
156.851227	72492.609375
160.03688	1337453.0
161.515961	88132.210938
168.026367	964942.5625
168.084396	68602.375
188.030762	1056995.125
213.08371	567894.0
224.084198	72175.375
231.094788	139963.234375
233.090378	43090752.0
END IONS

BEGIN IONS
PEPMASS=249.019
CHARGE=1
MSLEVEL=2
SOURCE_INSTRUMENT=LC-ESI-Q-Exactive Plus Orbitrap Res 14k
FILENAME=Pesticide_Mix3_pos_14k.mzXML
SEQ=*..*
IONMODE=positive
ORGANISM=GNPS-COLLECTIONS-PESTICIDES-POSITIVE
NAME=Pesticide3_Linuron_C9H10Cl2N2O2_Urea, N'-(3,4-dichlorophenyl)-N-methoxy-N-methyl- M+H
PI=Dorrestein/Touboul
DATACOLLECTOR=lfnothias
SMILES=CN(C(=O)NC1=CC(=C(C=C1)Cl)Cl)OC
INCHI=InChI=1S/C9H10Cl2N2O2/c1-13(15-2)9(14)12-6-3-4-7(10)8(11)5-6/h3-5H,1-2H3,(H,12,14)
INCHIAUX=N/A
PUBMED=n/a
SUBMITUSER=mwang87
LIBRARYQUALITY=1
SPECTRUMID=CCMSLIB00001058258
USI=mzspec:GNPS:GNPS-COLLECTIONS-PESTICIDES-POSITIVE:accession:CCMSLIB00001058258
SCANS=2733
82.564636	7720.490723
88.039482	172620.71875
95.409805	8275.511719
96.955009	6893.282715
106.049843	77345.015625
123.966614	9314.087891
123.995255	72370.335938
125.002182	195244.53125
125.246361	8670.43457
132.960358	502514.5625
136.180679	9121.189453
141.693832	8465.794922
153.020782	202966.53125
153.033554	8834.102539
154.029617	18073.773438
159.971451	4062452.5
160.979874	841581.8125
165.022247	15283.175781
181.016418	150306.125
182.02533	3030916.25
187.9673	52513.617188
216.993057	233551.578125
218.000671	87457.882812
248.349075	8628.119141
249.018631	1787406.25
END IONS

BEGIN IONS
PEPMASS=192.076
CHARGE=1
MSLEVEL=2
SOURCE_INSTRUMENT= -Q-Exactive Plus Orbitrap Res 70k
FILENAME=Pesticide_Mix10_pos.mzXML
SEQ=*..*
IONMODE=positive
ORGANISM=GNPS-COLLECTIONS-PESTICIDES-POSITIVE
NAME=Pesticide10_Carbendazim_C9H9N3O2_mecarzole M+H
PI=Dorrestein/Touboul
DATACOLLECTOR=lfnothias
SMILES=COC(=O)NC1=NC2=CC=CC=C2N1
INCHI=InChI=1S/C9H9N3O2/c1-14-9(13)12-8-10-6-4-2-3-5-7(6)11-8/h2-5H,1H3,(H2,10,11,12,13)
INCHIAUX=N/A
PUBMED=n/a
SUBMITUSER=mwang87
LIBRARYQUALITY=1
SPECTRUMID=CCMSLIB00001058284
USI=mzspec:GNPS:GNPS-COLLECTIONS-PESTICIDES-POSITIVE:accession:CCMSLIB00001058284
SCANS=673
70.369446	123647.671875
71.188408	123971.992188
76.19339	117252.148438
76.503929	124461.28125
76.686256	131732.03125
79.730721	128784.953125
83.803131	130126.820312
85.53334	118919.140625
85.772255	134419.5
85.858971	139353.78125
88.241287	128016.492188
90.034065	292009.3125
92.049759	638299.3125
93.122978	117196.6875
98.700157	128069.90625
100.865829	123137.9375
102.363251	124473.96875
105.045135	1298107.0
108.473587	125930.65625
110.783592	130314.546875
111.145309	149715.21875
116.057159	446100.03125
117.842758	126370.65625
130.594421	133426.109375
131.744339	132493.78125
132.056152	6294175.0
133.063721	881723.5
135.055695	1326839.875
135.415253	1127930.5
139.642288	153427.25
148.087555	189585.890625
148.175201	153067.34375
159.997467	604312.5625
160.051239	477980320.0
160.106461	616831.625
160.407135	147990.4375
172.085464	168421.90625
192.077301	136661136.0
207.86673	135230.90625
END IONS

BEGIN IONS
PEPMASS=223.144
CHARGE=1
MSLEVEL=2
SOURCE_INSTRUMENT= -Q-Exactive Plus Orbitrap Res 14k
FILENAME=Pesticide_Mix9_pos_14k.mzXML
SEQ=*..*
IONMODE=positive
ORGANISM=GNPS-COLLECTIONS-PESTICIDES-POSITIVE
NAME=Pesticide9_Mexacarbate_C12H18N2O2_4-(Dimethylamino)-3,5-dimethylphenyl methylcarbamate M+H
PI=Dorrestein/Touboul
DATACOLLECTOR=lfnothias
SMILES=CC1=CC(=CC(=C1N(C)C)C)OC(=O)NC
INCHI=InChI=1S/C12H18N2O2/c1-8-6-10(16-12(15)13-3)7-9(2)11(8)14(4)5/h6-7H,1-5H3,(H,13,15)
INCHIAUX=N/A
PUBMED=n/a
SUBMITUSER=mwang87
LIBRARYQUALITY=1
SPECTRUMID=CCMSLIB00001058314
USI=mzspec:GNPS:GNPS-COLLECTIONS-PESTICIDES-POSITIVE:accession:CCMSLIB00001058314
SCANS=1121
84.647728	185846.59375
128.463379	216869.65625
134.072495	970848.9375
135.081223	1455551.125
136.075043	5838467.0
136.0858	271468.84375
138.027756	259178.6875
140.173569	182758.546875
150.09227	290478.78125
151.098419	135486720.0
151.324203	196746.390625
166.123581	195983728.0
203.765274	217437.484375
208.121307	257755.453125
213.562698	220994.546875
223.145309	47385468.0
237.920212	185842.234375
END IONS

BEGIN IONS
PEPMASS=221.049
CHARGE=1
MSLEVEL=2
SOURCE_INSTRUMENT=LC-ESI-Q-Exactive Plus Orbitrap Res 70k
FILENAME=Pesticide_Mix2_pos.mzXML
SEQ=*..*
IONMODE=positive
ORGANISM=GNPS-COLLECTIONS-PESTICIDES-POSITIVE
NAME=Pesticide2_Thidiazuron_C9H8N4OS_1-Phenyl-3-(1,2,3-thiadiazol-5-yl)urea M+H
PI=Dorrestein/Touboul
DATACOLLECTOR=lfnothias
SMILES=C1=CC=C(C=C1)NC(=O)NC2=CN=NS2
INCHI=InChI=1S/C9H8N4OS/c14-9(12-8-6-10-13-15-8)11-7-4-2-1-3-5-7/h1-6H,(H2,11,12,14)
INCHIAUX=N/A
PUBMED=n/a
SUBMITUSER=mwang87
LIBRARYQUALITY=1
SPECTRUMID=CCMSLIB00001058322
USI=mzspec:GNPS:GNPS-COLLECTIONS-PESTICIDES-POSITIVE:accession:CCMSLIB00001058322
SCANS=1315
71.371574	2478.176025
71.990677	19376.865234
72.394753	2541.165527
72.956711	3067.682861
74.006287	13342.451172
74.342583	2917.480957
76.095154	2561.911865
77.039001	6032.437988
86.187515	2810.237793
89.9963	2824.754883
90.976883	30032.878906
92.049675	41230.347656
94.065262	650992.6875
94.259392	2692.653076
95.049248	19075.839844
101.984276	6110.249512
102.012115	7606726.0
102.039734	6236.491211
120.044449	70975.40625
125.594719	2955.831543
127.991585	1035026.5
164.885025	6153.971191
174.813171	2763.305908
180.826935	3477.605225
196.393082	4588.657227
197.182556	3650.606689
200.051926	2693.347412
216.350189	3094.929932
221.049652	2388588.0
221.117477	4496.304688
225.647324	2890.094482
END IONS

BEGIN IONS
PEPMASS=229.111
CHARGE=1
MSLEVEL=2
SOURCE_INSTRUMENT=LC-ESI-Q-Exactive Plus Orbitrap Res 70k
FILENAME=Pesticide_Mix2_pos.mzXML
SEQ=*..*
IONMODE=positive
ORGANISM=GNPS-COLLECTIONS-PESTICIDES-POSITIVE
NAME=Pesticide2_Tebuthiuron_C9H16N4OS_Urea, N-[5-(1,1-dimethylethyl)-1,3,4-thiadiazol-2-yl]-N,N'-dimethyl- M+H
PI=Dorrestein/Touboul
DATACOLLECTOR=lfnothias
SMILES=CC(C)(C)C1=NN=C(S1)N(C)C(=O)NC
INCHI=InChI=1S/C9H16N4OS/c1-9(2,3)6-11-12-8(15-6)13(5)7(14)10-4/h1-5H3,(H,10,14)
INCHIAUX=N/A
PUBMED=n/a
SUBMITUSER=mwang87
LIBRARYQUALITY=1
SPECTRUMID=CCMSLIB00001058342
USI=mzspec:GNPS:GNPS-COLLECTIONS-PESTICIDES-POSITIVE:accession:CCMSLIB00001058342
SCANS=1270
73.230858	59116.164062
73.291527	70031.65625
74.006271	1388389.375
75.342545	78016.992188
79.911423	60545.652344
82.065544	129449.007812
83.659508	66251.445312
88.021851	103436.007812
89.016991	6433058.0
92.05825	58720.898438
97.979256	73308.554688
99.091782	654442.0
107.260506	229253.4375
116.027985	20392230.0
116.053185	408495.90625
133.982269	124089.296875
141.048386	522712.34375
142.043686	395326.03125
156.448532	66649.21875
157.067062	4098796.0
158.123093	60107.316406
162.264694	65040.121094
171.577866	65837.820312
172.029099	129285.804688
172.032837	118240.554688
172.090622	162667760.0
193.860123	76402.460938
205.338501	100197.695312
229.11235	67083900.0
244.477432	63991.222656
246.75943	70349.1875
END IONS

BEGIN IONS
PEPMASS=325.05
CHARGE=1
MSLEVEL=2
SOURCE_INSTRUMENT= -Q-Exactive Plus Orbitrap Res 14k
FILENAME=Pesticide_Mix5_pos_14k.mzXML
SEQ=*..*
IONMODE=positive
ORGANISM=GNPS-COLLECTIONS-PESTICIDES-POSITIVE
NAME=Pesticide5_Ethofumesate_C13H18O5S_2-Ethoxy-3,3-dimethyl-2,3-dihydro-1-benzofuran-5-yl methanesulfonate M+K
PI=Dorrestein/Touboul
DATACOLLECTOR=lfnothias
SMILES=CCOC1C(C2=C(O1)C=CC(=C2)OS(=O)(=O)C)(C)C
INCHI=InChI=1S/C13H18O5S/c1-5-16-12-13(2,3)10-8-9(18-19(4,14)15)6-7-11(10)17-12/h6-8,12H,5H2,1-4H3
INCHIAUX=N/A
PUBMED=n/a
SUBMITUSER=mwang87
LIBRARYQUALITY=1
SPECTRUMID=CCMSLIB00001058478
USI=mzspec:GNPS:GNPS-COLLECTIONS-PESTICIDES-POSITIVE:accession:CCMSLIB00001058478
SCANS=3276
81.07785	4102.650391
85.101624	4288.17627
108.011803	4851999.5
126.022438	25524.341797
141.1642	16217.541992
155.059265	7325.41748
182.072052	16747.494141
190.030136	20436.679688
210.088791	4684.626465
211.097565	6667.001953
216.032135	113239.28125
217.041534	284570.84375
217.062927	6567.384766
218.04863	36696.023438
225.112061	52001.316406
226.121307	52430.765625
234.079132	9143.013672
245.059662	9055.077148
246.066803	57529.46875
261.092041	111385.8125
289.179474	6199.371094
325.053284	23370.232422
END IONS

BEGIN IONS
PEPMASS=317.164
CHARGE=1
MSLEVEL=2
SOURCE_INSTRUMENT= -Q-Exactive Plus Orbitrap Res 14k
FILENAME=Pesticide_Mix5_pos_14k.mzXML
SEQ=*..*
IONMODE=positive
ORGANISM=GNPS-COLLECTIONS-PESTICIDES-POSITIVE
NAME=Pesticide5_Bupirimate_C13H24N4O3S_Sulfamic acid, N,N-dimethyl-, 5-butyl-2-(ethylamino)-6-methyl-4-pyrimidinyl ester M+H
PI=Dorrestein/Touboul
DATACOLLECTOR=lfnothias
SMILES=CCCCC1=C(N=C(N=C1OS(=O)(=O)N(C)C)NCC)C
INCHI=InChI=1S/C13H24N4O3S/c1-6-8-9-11-10(3)15-13(14-7-2)16-12(11)20-21(18,19)17(4)5/h6-9H2,1-5H3,(H,14,15,16)
INCHIAUX=N/A
PUBMED=n/a
SUBMITUSER=mwang87
LIBRARYQUALITY=1
SPECTRUMID=CCMSLIB00001058510
USI=mzspec:GNPS:GNPS-COLLECTIONS-PESTICIDES-POSITIVE:accession:CCMSLIB00001058510
SCANS=2956
71.060646	938550.75
76.430634	383862.03125
86.071945	583391.9375
90.008904	348082.9375
95.06073	799329.0
95.086227	372024.4375
96.044678	3695963.75
96.080742	452460.21875
97.040199	1611229.625
98.060043	2923055.75
108.011711	73579232.0
109.07592	394920.03125
110.096588	1976983.875
112.112648	497276.375
122.071884	1431216.625
138.066193	2095983.5
138.092361	389252.25
138.103134	635809.6875
139.075043	3828567.0
140.107361	11192177.0
148.087738	3571568.0
150.10257	30484460.0
151.123093	2477647.25
152.082733	2331975.0
165.090652	5125242.0
165.102722	5661560.0
166.097168	99304592.0
167.104614	10319753.0
173.412613	436990.40625
180.114868	2804652.5
180.150665	4973782.0
181.12262	940065.75
182.130005	3064042.75
191.118134	675216.25
192.149826	6811083.0
193.133621	5267571.0
194.12796	7852751.5
208.143921	36783792.0
209.152924	11008935.0
210.160812	50549536.0
222.722336	414235.84375
224.176544	2479698.0
237.208099	35188224.0
259.332489	420405.96875
262.087524	2102213.0
272.105103	28673672.0
273.657379	468519.9375
290.114594	689298.9375
317.166992	206199936.0
END IONS

BEGIN IONS
PEPMASS=302.071
CHARGE=1
MSLEVEL=2
SOURCE_INSTRUMENT= -Q-Exactive Plus Orbitrap Res 70k
FILENAME=Pesticide_Mix4_pos.mzXML
SEQ=*..*
IONMODE=positive
ORGANISM=GNPS-COLLECTIONS-PESTICIDES-POSITIVE
NAME=Pesticide4_Triadimefon_C14H16ClN3O2_2-Butanone, 1-(4-chlorophenoxy)-3,3-dimethyl-1-(1H-1,2,4-triazol-1-yl)- M+H
PI=Dorrestein/Touboul
DATACOLLECTOR=lfnothias
SMILES=CC(C)(C)C(=O)C(N1C=NC=N1)OC2=CC=C(C=C2)Cl
INCHI=InChI=1S/C14H16ClN3O2/c1-14(2,3)12(19)13(18-9-16-8-17-18)20-11-6-4-10(15)5-7-11/h4-9,13H,1-3H3
INCHIAUX=N/A
PUBMED=n/a
SUBMITUSER=mwang87
LIBRARYQUALITY=1
SPECTRUMID=CCMSLIB00001058516
USI=mzspec:GNPS:GNPS-COLLECTIONS-PESTICIDES-POSITIVE:accession:CCMSLIB00001058516
SCANS=2134
73.522102	1949.712402
74.081993	2890.111084
76.994301	1943.511841
77.492218	1671.037842
78.592957	1862.864624
80.809105	2021.080078
81.07019	2090.116211
83.347755	1814.913086
84.265587	1959.269653
84.945976	1937.838013
89.038719	1788.168457
95.013016	610725.125
95.049263	4164.97168
97.07576	3161.758057
97.098892	15152.481445
97.101395	3591667.5
111.028053	1818.77417
123.963966	2154.583008
125.015656	3788.881348
125.096275	18602.230469
129.457626	4391.166016
129.460083	6617.364746
139.812531	2166.878906
140.137299	1894.21582
142.005981	160473.8125
142.008789	2256.818604
143.013718	165340.5
146.481018	2013.826538
151.299835	2070.05542
153.010635	123129.523438
168.001694	3362.170654
175.87085	2361.351807
177.982513	111830.007812
181.16185	2906.479736
196.677322	1906.944458
197.652878	12850.917969
201.982773	2904.548828
212.470734	1981.001221
216.218216	2269.122314
230.197647	2039.164795
242.118027	389295.40625
244.83136	2068.747803
268.11145	2073.106201
270.113007	75171.804688
284.060272	7960.249512
302.071136	4182678.0
302.138367	11645.098633
END IONS

BEGIN IONS
PEPMASS=210.16
CHARGE=1
MSLEVEL=2
SOURCE_INSTRUMENT= -Q-Exactive Plus Orbitrap Res 14k
FILENAME=Pesticide_Mix6_pos_14k.mzXML
SEQ=*..*
IONMODE=positive
ORGANISM=GNPS-COLLECTIONS-PESTICIDES-POSITIVE
NAME=Pesticide6_Ethirimol_C11H19N3O_882476 M+H
PI=Dorrestein/Touboul
DATACOLLECTOR=lfnothias
SMILES=CCCCC1=C(NC(=NC1=O)NCC)C
INCHI=InChI=1S/C11H19N3O/c1-4-6-7-9-8(3)13-11(12-5-2)14-10(9)15/h4-7H2,1-3H3,(H2,12,13,14,15)
INCHIAUX=N/A
PUBMED=n/a
SUBMITUSER=mwang87
LIBRARYQUALITY=1
SPECTRUMID=CCMSLIB00001058541
USI=mzspec:GNPS:GNPS-COLLECTIONS-PESTICIDES-POSITIVE:accession:CCMSLIB00001058541
SCANS=1264
70.065445	1725835.5
71.060562	3407485.0
81.070213	407452.625
87.591476	154201.859375
88.95871	160278.90625
95.060715	248882.265625
95.085335	261598.171875
96.044113	184534.21875
96.080734	179949.125
97.039284	3204317.75
98.060104	13674245.0
107.072708	1243490.0
113.827858	173613.0625
114.066681	202984.609375
122.070587	818211.125
122.096184	815696.0625
123.055161	283704.15625
126.066704	182930.890625
135.536316	183449.234375
138.066177	1148479.875
139.074081	1196227.375
140.107483	45314324.0
140.405212	170528.40625
150.102783	3073930.75
151.123077	211238.3125
152.082718	325273.125
154.096725	196158.15625
165.102798	4665365.0
166.097198	839260.0625
167.104584	3195154.75
168.113342	382534.0
182.128052	16815064.0
193.133911	13262643.0
208.144043	797040.0
210.161057	309527712.0
216.93251	182863.328125
223.693375	191405.6875
END IONS

BEGIN IONS
PEPMASS=294.136
CHARGE=1
MSLEVEL=2
SOURCE_INSTRUMENT= -Q-Exactive Plus Orbitrap Res 14k
FILENAME=Pesticide_Mix6_pos_14k.mzXML
SEQ=*..*
IONMODE=positive
ORGANISM=GNPS-COLLECTIONS-PESTICIDES-POSITIVE
NAME=Pesticide6_Paclobutrazol_C30H40Cl2N6O2_1H-1,2,4-Triazole-1-ethanol, beta-[(4-chlorophenyl)methyl]-alpha-(1,1-dimethylethyl)- M+H
PI=Dorrestein/Touboul
DATACOLLECTOR=lfnothias
SMILES=CC(C)(C)C(C(CC1=CC=C(C=C1)Cl)N2C=NC=N2)O
INCHI=InChI=1S/C15H20ClN3O/c1-15(2,3)14(20)13(19-10-17-9-18-19)8-11-4-6-12(16)7-5-11/h4-7,9-10,13-14,20H,8H2,1-3H3
INCHIAUX=N/A
PUBMED=n/a
SUBMITUSER=mwang87
LIBRARYQUALITY=1
SPECTRUMID=CCMSLIB00001058548
USI=mzspec:GNPS:GNPS-COLLECTIONS-PESTICIDES-POSITIVE:accession:CCMSLIB00001058548
SCANS=2544
70.040466	69277976.0
71.085663	233375.640625
83.085876	137556.09375
87.080444	1614482.875
92.801949	60291.367188
103.053841	111563.390625
113.096436	146174.625
122.688286	56767.3125
125.015236	3934685.5
127.011932	836626.0625
129.491577	59207.679688
130.077789	130233.835938
139.031235	1331322.25
141.01001	273006.875
151.031509	412802.875
155.026306	145271.21875
165.046097	1949817.75
196.298599	61632.316406
207.094208	643868.3125
226.160355	62882.53125
267.158478	324109.34375
294.135162	19934092.0
END IONS

BEGIN IONS
PEPMASS=294.196
CHARGE=1
MSLEVEL=2
SOURCE_INSTRUMENT= -Q-Exactive Plus Orbitrap Res 70k
FILENAME=Pesticide_Mix4_pos.mzXML
SEQ=*..*
IONMODE=positive
ORGANISM=GNPS-COLLECTIONS-PESTICIDES-POSITIVE
NAME=Pesticide4_Amitraz_C19H23N3_N'-(2,4-Dimethylphenyl)-N-{(E)-[(2,4-dimethylphenyl)imino]methyl}-N-methylimidoformamide M+H
PI=Dorrestein/Touboul
DATACOLLECTOR=lfnothias
SMILES=CC1=CC(=C(C=C1)N=CN(C)C=NC2=C(C=C(C=C2)C)C)C
INCHI=InChI=1S/C19H23N3/c1-14-6-8-18(16(3)10-14)20-12-22(5)13-21-19-9-7-15(2)11-17(19)4/h6-13H,1-5H3/b20-12+,21-13+
INCHIAUX=N/A
PUBMED=n/a
SUBMITUSER=mwang87
LIBRARYQUALITY=1
SPECTRUMID=CCMSLIB00001058578
USI=mzspec:GNPS:GNPS-COLLECTIONS-PESTICIDES-POSITIVE:accession:CCMSLIB00001058578
SCANS=2880
76.823799	146895.203125
79.054626	605233.3125
80.133293	133768.0625
80.709625	127602.9375
80.754005	121785.351562
84.45649	127252.578125
84.49736	130546.25
86.985573	121923.804688
88.021858	138151.953125
91.313805	149015.421875
95.049477	165139.015625
96.125603	131365.0625
98.273613	160937.03125
103.054527	559531.75
105.070076	3643492.75
106.065186	287076.15625
107.073212	9567310.0
108.578049	152862.015625
113.791267	164830.71875
115.054665	250126.8125
116.216728	154329.921875
117.057579	8989947.0
120.080986	2951427.0
121.088913	161892.03125
122.096779	74086920.0
123.080704	327702.96875
132.081207	36892280.0
136.02063	147888.53125
136.112473	319821.8125
148.099808	234664.0625
153.24968	165960.875
162.605423	141844.5625
163.065628	227637.890625
163.068588	334767.46875
163.123398	592729024.0
163.179749	559665.25
228.92337	544838.8125
253.169815	36212668.0
271.685242	174585.96875
283.67691	165722.890625
294.195984	4162668.5
318.591675	166279.046875
END IONS

BEGIN IONS
PEPMASS=328.098
CHARGE=1
MSLEVEL=2
SOURCE_INSTRUMENT= -Q-Exactive Plus Orbitrap Res 14k
FILENAME=Pesticide_Mix6_pos_14k.mzXML
SEQ=*..*
IONMODE=positive
ORGANISM=GNPS-COLLECTIONS-PESTICIDES-POSITIVE
NAME=Pesticide6_Diclobutrazol_C15H19Cl2N3O_1-(2,4-Dichlorophenyl)-4,4-dimethyl-2-(1H-1,2,4-triazol-1-yl)-3-pentanol M+H
PI=Dorrestein/Touboul
DATACOLLECTOR=lfnothias
SMILES=CC(C)(C)C(C(CC1=C(C=C(C=C1)Cl)Cl)N2C=NC=N2)O
INCHI=InChI=1S/C15H19Cl2N3O/c1-15(2,3)14(21)13(20-9-18-8-19-20)6-10-4-5-11(16)7-12(10)17/h4-5,7-9,13-14,21H,6H2,1-3H3
INCHIAUX=N/A
PUBMED=n/a
SUBMITUSER=mwang87
LIBRARYQUALITY=1
SPECTRUMID=CCMSLIB00001058579
USI=mzspec:GNPS:GNPS-COLLECTIONS-PESTICIDES-POSITIVE:accession:CCMSLIB00001058579
SCANS=2804
70.040482	5558456.5
70.074982	44229.007812
71.029411	76285.109375
71.620766	53901.117188
75.023064	290524.46875
77.038895	347486.625
91.053947	823171.3125
94.753784	53400.128906
95.049301	130733.609375
99.110168	52714.390625
101.038727	362120.34375
109.044601	120848.351562
111.333054	65865.6875
113.015274	564394.125
113.039413	301398.84375
119.04882	606963.9375
121.044777	61373876.0
123.024185	15551145.0
123.034462	353755.21875
123.037056	115395.21875
129.045471	1659585.375
137.015091	95698.351562
138.994217	650801.625
141.010086	5803807.0
141.019547	84930.117188
190.077347	74888.742188
206.741257	59937.863281
251.519775	52810.640625
261.048279	122888.46875
274.044281	65882.859375
276.090942	68606.773438
330.080658	9802058.0
END IONS

BEGIN IONS
PEPMASS=308.152
CHARGE=1
MSLEVEL=2
SOURCE_INSTRUMENT= -Q-Exactive Plus Orbitrap Res 14k
FILENAME=Pesticide_Mix6_pos_14k.mzXML
SEQ=*..*
IONMODE=positive
ORGANISM=GNPS-COLLECTIONS-PESTICIDES-POSITIVE
NAME=Pesticide6_Tebuconazole_C16H22ClN3O_1-(4-Chlorophenyl)-4,4-dimethyl-3-(1H-1,2,4-triazol-1-ylmethyl)-3-pentanol M+H
PI=Dorrestein/Touboul
DATACOLLECTOR=lfnothias
SMILES=CC(C)(C)C(CCC1=CC=C(C=C1)Cl)(CN2C=NC=N2)O
INCHI=InChI=1S/C16H22ClN3O/c1-15(2,3)16(21,10-20-12-18-11-19-20)9-8-13-4-6-14(17)7-5-13/h4-7,11-12,21H,8-10H2,1-3H3
INCHIAUX=N/A
PUBMED=n/a
SUBMITUSER=mwang87
LIBRARYQUALITY=1
SPECTRUMID=CCMSLIB00001058588
USI=mzspec:GNPS:GNPS-COLLECTIONS-PESTICIDES-POSITIVE:accession:CCMSLIB00001058588
SCANS=2852
70.02771	43800.335938
70.040497	60110476.0
74.514084	54058.042969
83.085831	422807.53125
91.624397	58073.628906
97.102798	54413.976562
109.294533	54834.242188
115.054131	296898.8125
116.062737	117434.875
125.006088	119845.296875
125.015373	3287739.25
125.797295	50329.25
139.031448	633931.9375
151.031555	2172969.25
159.258041	57175.699219
165.046631	547558.0625
179.061798	97708.039062
181.078705	68668.984375
253.162308	54684.539062
255.819366	319516.34375
308.153534	26044956.0
END IONS

BEGIN IONS
PEPMASS=214.029
CHARGE=1
MSLEVEL=2
SOURCE_INSTRUMENT=LC-ESI-Q-Exactive Plus Orbitrap Res 14k
FILENAME=Pesticide_Mix1_pos_14k.mzXML
SEQ=*..*
IONMODE=positive
ORGANISM=GNPS-COLLECTIONS-PESTICIDES-POSITIVE
NAME=Pesticide1_Omethoate_C5H12NO4PS_ M+H
PI=Dorrestein/Touboul
DATACOLLECTOR=lfnothias
SMILES=CNC(=O)CSP(=O)(OC)OC
INCHI= 
INCHIAUX=N/A
PUBMED=n/a
SUBMITUSER=mwang87
LIBRARYQUALITY=1
SPECTRUMID=CCMSLIB00001058630
USI=mzspec:GNPS:GNPS-COLLECTIONS-PESTICIDES-POSITIVE:accession:CCMSLIB00001058630
SCANS=59
72.044624	2767666.0
72.852325	97825.304688
76.021561	1218288.625
78.99424	1674372.625
81.565384	89622.179688
86.006012	153408.109375
88.021492	2703549.0
90.336143	100355.273438
93.010017	192926.859375
97.333649	117104.695312
104.016113	5682379.5
104.62043	115513.304688
107.547913	110083.6875
109.004837	755752.1875
111.020241	855022.25
114.810928	113795.171875
114.858788	108365.9375
124.98217	26174306.0
127.015846	28165444.0
128.977173	509190.65625
140.976532	210739.0625
142.992264	125286944.0
143.001877	2464297.5
150.031082	619068.25
151.942154	134434.078125
154.99324	31177572.0
160.119232	174234.171875
167.673691	120451.0625
173.003799	603900.375
182.004242	2158295.5
182.986618	68682160.0
188.040527	128639.15625
196.019699	20094772.0
214.031036	12988553.0
END IONS

BEGIN IONS
PEPMASS=224.068
CHARGE=1
MSLEVEL=2
SOURCE_INSTRUMENT=LC-ESI-Q-Exactive Plus Orbitrap Res 14k
FILENAME=Pesticide_Mix1_pos_14k.mzXML
SEQ=*..*
IONMODE=positive
ORGANISM=GNPS-COLLECTIONS-PESTICIDES-POSITIVE
NAME=Pesticide1_Monocrotophos_C7H14NO5P_Dimethyl (2E)-4-(methylamino)-4-oxo-2-buten-2-yl phosphate M+H
PI=Dorrestein/Touboul
DATACOLLECTOR=lfnothias
SMILES=CC(=CC(=O)NC)OP(=O)(OC)OC
INCHI=InChI=1S/C7H14NO5P/c1-6(5-7(9)8-2)13-14(10,11-3)12-4/h5H,1-4H3,(H,8,9)/b6-5+
INCHIAUX=N/A
PUBMED=n/a
SUBMITUSER=mwang87
LIBRARYQUALITY=1
SPECTRUMID=CCMSLIB00001058634
USI=mzspec:GNPS:GNPS-COLLECTIONS-PESTICIDES-POSITIVE:accession:CCMSLIB00001058634
SCANS=769
70.065491	6962.480957
80.049667	11315.287109
91.05468	12609.352539
93.069641	13720.050781
98.060036	2297072.0
105.667648	7415.193848
112.999466	35808.550781
121.064888	11737.791992
127.015846	6027310.0
165.054367	16090.636719
167.047318	215329.53125
170.977768	15142.204102
175.244232	6806.722656
193.026962	621566.4375
193.044708	14525.1875
224.130081	70658.9375
END IONS

BEGIN IONS
PEPMASS=256.93
CHARGE=1
MSLEVEL=2
SOURCE_INSTRUMENT=LC-ESI-Q-Exactive Plus Orbitrap Res 14k
FILENAME=Pesticide_Mix1_pos_14k.mzXML
SEQ=*..*
IONMODE=positive
ORGANISM=GNPS-COLLECTIONS-PESTICIDES-POSITIVE
NAME=Pesticide1_Trichlorfon_C4H8Cl3O4P_Cekufon M+H
PI=Dorrestein/Touboul
DATACOLLECTOR=lfnothias
SMILES=COP(=O)(C(C(Cl)(Cl)Cl)O)OC
INCHI=InChI=1S/C4H8Cl3O4P/c1-10-12(9,11-2)3(8)4(5,6)7/h3,8H,1-2H3
INCHIAUX=N/A
PUBMED=n/a
SUBMITUSER=mwang87
LIBRARYQUALITY=1
SPECTRUMID=CCMSLIB00001058639
USI=mzspec:GNPS:GNPS-COLLECTIONS-PESTICIDES-POSITIVE:accession:CCMSLIB00001058639
SCANS=1269
75.60141	2304.930908
76.979225	4429.117188
78.994293	292469.59375
82.362869	3147.746582
82.367119	5919.973145
82.945137	88309.664062
93.010048	63018.71875
96.960388	12632.175781
97.004784	9597.742188
98.983871	4353.697754
109.00457	4932.095703
111.020531	16478.476562
112.999451	4795.145508
114.59771	2478.644287
114.609352	2600.871826
127.015862	4266494.0
129.020279	5988.385254
140.068054	4019.609863
144.981766	119116.273438
157.591629	3087.606445
192.874344	2612.511719
220.954681	807469.25
247.062103	3021.322754
256.929047	423846.28125
END IONS

BEGIN IONS
PEPMASS=288.048
CHARGE=1
MSLEVEL=2
SOURCE_INSTRUMENT=LC-ESI-Q-Exactive Plus Orbitrap Res 14k
FILENAME=Pesticide_Mix1_pos_14k.mzXML
SEQ=*..*
IONMODE=positive
ORGANISM=GNPS-COLLECTIONS-PESTICIDES-POSITIVE
NAME=Pesticide1_Vamidothion_C8H18NO4PS2_Phosphorothioic acid, O,O-dimethyl S-[2-[[1-methyl-2-(methylamino)-2-oxoethyl]thio]ethyl] ester M+H
PI=Dorrestein/Touboul
DATACOLLECTOR=lfnothias
SMILES=CC(C(=O)NC)SCCSP(=O)(OC)OC
INCHI=InChI=1S/C8H18NO4PS2/c1-7(8(10)9-2)15-5-6-16-14(11,12-3)13-4/h7H,5-6H2,1-4H3,(H,9,10)
INCHIAUX=N/A
PUBMED=n/a
SUBMITUSER=mwang87
LIBRARYQUALITY=1
SPECTRUMID=CCMSLIB00001058650
USI=mzspec:GNPS:GNPS-COLLECTIONS-PESTICIDES-POSITIVE:accession:CCMSLIB00001058650
SCANS=1393
76.226921	40236.371094
86.060555	3999327.25
86.065834	96055.554688
87.026558	295969.9375
88.594498	46384.816406
89.00563	311812.3125
90.0373	1407610.875
98.444313	43597.269531
104.070412	54198.410156
118.032501	23079544.0
121.835495	52881.863281
130.342667	44421.972656
146.064056	45956804.0
174.758926	48802.074219
202.624832	47168.101562
243.091949	102982.125
280.766174	51561.070312
288.048401	413834.59375
END IONS

BEGIN IONS
PEPMASS=202.086
CHARGE=1
MSLEVEL=2
SOURCE_INSTRUMENT=LC-ESI-Maxis HD qTOF
FILENAME=Pesticide_mix1_BA1_01_8691.mzXML
SEQ=*..*
IONMODE=positive
ORGANISM=GNPS-COLLECTIONS-PESTICIDES-POSITIVE
NAME=Pesticide1_Carbaryl_C12H11NO2_1-Naphthyl methylcarbamate M+H
PI=Dorrestein/Touboul
DATACOLLECTOR=lfnothias
SMILES=CNC(=O)OC1=CC=CC2=CC=CC=C21
INCHI=InChI=1S/C12H11NO2/c1-13-12(14)15-11-8-4-6-9-5-2-3-7-10(9)11/h2-8H,1H3,(H,13,14)
INCHIAUX=N/A
PUBMED=n/a
SUBMITUSER=mwang87
LIBRARYQUALITY=1
SPECTRUMID=CCMSLIB00001058720
USI=mzspec:GNPS:GNPS-COLLECTIONS-PESTICIDES-POSITIVE:accession:CCMSLIB00001058720
SCANS=412
70.312195	203.0
70.526718	175.0
70.816093	163.0
71.203712	139.0
71.626419	202.0
71.772133	164.0
72.042351	190.0
72.258636	183.0
72.519119	202.0
72.968529	210.0
73.009445	224.0
73.790894	265.0
74.014961	294.0
74.575951	244.0
75.022255	627.0
76.024399	297.0
76.721016	155.0
77.038391	3167.0
77.407814	193.0
78.043671	587.0
78.337051	193.0
78.445229	131.0
79.302788	109.0
79.690033	118.0
79.86866	137.0
80.616661	108.0
80.897766	239.0
81.032448	361.0
81.392227	322.0
81.532356	195.0
82.306053	202.0
82.389236	185.0
82.598244	269.0
83.039703	246.0
83.623177	131.0
83.803078	262.0
83.840706	149.0
84.565262	132.0
85.082451	116.0
85.232063	266.0
85.695114	213.0
85.717659	175.0
86.131706	245.0
87.613266	250.0
87.736313	109.0
88.253242	305.0
88.438942	113.0
89.039139	939.0
90.153763	168.0
90.33593	181.0
90.712448	253.0
90.775894	130.0
90.817749	133.0
90.849236	147.0
91.009941	158.0
91.054482	92922.0
91.143394	255.0
91.222176	205.0
92.058098	6496.0
92.34874	240.0
92.371017	320.0
92.640572	285.0
92.959648	169.0
93.294106	157.0
93.43306	155.0
94.476822	189.0
94.630615	134.0
94.990417	193.0
95.049599	8754.0
95.451698	248.0
95.987198	135.0
96.526962	113.0
96.838318	111.0
97.89518	113.0
99.007385	195.0
99.296806	199.0
99.424515	142.0
99.970192	109.0
100.028091	223.0
100.201286	228.0
100.469627	186.0
101.018707	158.0
101.036194	897.0
101.172508	202.0
101.658768	190.0
102.012199	182.0
102.045898	1070.0
102.142639	177.0
102.260704	313.0
103.031914	200.0
103.054756	5251.0
103.709526	247.0
103.844627	200.0
103.943367	287.0
103.991379	243.0
104.059486	370.0
104.678566	145.0
104.79599	263.0
104.94146	142.0
105.044762	20764.0
105.108948	341.0
105.384285	152.0
105.565834	184.0
106.047592	1068.0
106.165367	192.0
106.503029	295.0
106.614777	151.0
107.111649	187.0
107.322762	120.0
107.655128	168.0
108.043007	159.0
109.311562	194.0
109.475792	142.0
111.353645	120.0
111.654099	119.0
112.553238	159.0
113.77887	193.0
114.651443	141.0
114.817764	197.0
114.842667	168.0
114.952995	289.0
115.054382	207265.0
115.101982	114.0
115.124016	469.0
115.246979	215.0
116.016815	158.0
116.060692	41597.0
116.104393	456.0
116.607468	128.0
116.671928	280.0
116.745804	120.0
116.776199	352.0
116.890556	229.0
116.997215	221.0
117.07016	275492.0
117.128792	174.0
117.1978	240.0
117.319489	179.0
117.721321	170.0
117.907166	128.0
118.073204	16813.0
118.124794	275.0
118.596466	123.0
118.89711	139.0
119.050797	1496.0
119.724739	108.0
120.048172	171.0
120.11528	165.0
120.784225	248.0
121.674164	249.0
123.066162	342.0
123.21312	198.0
124.15535	264.0
124.312599	167.0
125.03685	851.0
125.441689	204.0
125.588837	275.0
125.843132	216.0
125.979523	280.0
125.999359	385.0
126.046951	22200.0
126.143135	164.0
126.238205	222.0
126.386581	114.0
126.76368	227.0
126.792625	213.0
126.818245	117.0
126.975853	395.0
127.054611	152440.0
127.126724	441.0
127.241058	125.0
127.896049	314.0
128.016449	414.0
128.059433	16233.0
128.121552	163.0
128.637939	142.0
128.997925	238.0
129.045013	11869.0
129.126083	289.0
129.172852	189.0
129.810455	166.0
130.050522	296.0
130.721771	234.0
130.762421	115.0
131.05127	913.0
132.06044	646.0
132.959518	128.0
133.705566	223.0
134.420212	248.0
134.665268	171.0
134.715652	244.0
135.426727	248.0
138.414276	170.0
138.528259	119.0
138.637817	99.0
138.933701	316.0
140.567474	187.0
140.926239	138.0
141.218369	150.0
142.053955	223.0
142.316818	156.0
142.862091	193.0
142.989471	124.0
143.029633	203.0
143.061295	627.0
143.235611	182.0
143.894455	153.0
144.057709	24775.0
144.103714	222.0
144.166412	252.0
144.659134	311.0
144.693481	160.0
144.750656	123.0
144.796265	170.0
144.850098	158.0
144.939667	883.0
145.00238	1013.0
145.065414	867232.0
145.103485	955.0
145.136063	344.0
145.176895	411.0
145.230484	508.0
145.281921	149.0
145.30954	332.0
145.378708	257.0
145.45488	249.0
145.512589	221.0
145.630768	249.0
145.708893	117.0
145.750702	150.0
146.020386	436.0
146.068756	39051.0
146.272385	219.0
146.316116	127.0
146.647476	116.0
146.689606	135.0
146.892166	151.0
146.935959	142.0
147.043045	327.0
147.06987	756.0
147.168808	121.0
147.213638	282.0
147.247604	272.0
147.274323	143.0
147.308746	130.0
147.537781	414.0
148.087418	150.0
148.291946	160.0
149.511383	165.0
149.674683	319.0
151.705063	185.0
152.683136	197.0
152.836365	122.0
153.048233	221.0
154.047897	166.0
154.342026	116.0
154.392166	211.0
154.492447	273.0
154.54454	232.0
154.57222	254.0
154.653961	341.0
154.70314	110.0
154.736572	148.0
154.759109	174.0
154.843246	139.0
154.90947	422.0
154.930115	419.0
154.957855	454.0
154.98468	1428.0
155.061081	857320.0
155.101105	267.0
155.179382	128.0
155.217163	254.0
155.254776	444.0
155.275269	566.0
155.307297	192.0
155.354095	290.0
155.390427	687.0
155.456558	229.0
155.494965	220.0
155.709427	123.0
155.784531	104.0
155.839584	183.0
155.868744	255.0
155.989777	621.0
156.064072	66546.0
156.228241	161.0
156.398941	255.0
156.577179	117.0
156.786377	233.0
156.968155	131.0
157.063736	1041.0
157.308151	340.0
157.342728	117.0
157.373398	235.0
157.403366	232.0
157.445221	253.0
157.611572	102.0
158.105255	121.0
158.976944	304.0
161.056595	288.0
162.065277	136.0
163.078659	299.0
168.083405	310.0
171.055435	486.0
182.537964	138.0
194.981857	180.0
201.021301	202.0
202.046188	884.0
230.002441	162.0
237.038849	566.0
245.50499	140.0
255.056076	254.0
279.104309	133.0
640.694702	199.0
640.801697	126.0
654.720154	150.0
686.298279	226.0
783.632996	221.0
806.680481	159.0
858.202271	190.0
868.44812	223.0
901.16925	124.0
901.281189	192.0
903.576843	145.0
931.531311	192.0
935.642151	166.0
941.671753	176.0
945.720398	262.0
966.99823	233.0
982.2995	166.0
1002.286438	163.0
END IONS

BEGIN IONS
PEPMASS=288.065
CHARGE=1
MSLEVEL=2
SOURCE_INSTRUMENT=LC-ESI-qTof
FILENAME=mmv_positive.mgf
SEQ=*..*
IONMODE=Positive
ORGANISM=MMV_POSITIVE
NAME=MMV001499 M+H
PI=Sirenas MD
DATACOLLECTOR=Sirenas MD
SMILES=CC1CS(=O)(=O)CCN1\N=C\c2oc(cc2)[N+](=O)[O-]
INCHI=N/A
INCHIAUX=N/A
PUBMED=N/A
SUBMITUSER=mwang87
LIBRARYQUALITY=3
SPECTRUMID=CCMSLIB00004722097
USI=mzspec:GNPS:MMV_POSITIVE:accession:CCMSLIB00004722097
SCANS=102
105.000008	435.049713
105.04776	14.086538
105.551132	24.367647
105.562531	23.333334
105.662361	18.005953
105.792114	33.0625
105.995697	4794.01416
106.052071	182.533875
106.065559	261.148865
106.098785	30.006578
106.123802	19.307692
106.141716	22.004032
106.155342	11.160714
106.181297	43.3125
106.213417	60.006756
106.224251	49.16
106.2537	13.778846
106.280243	25.6
106.306664	13.025
106.368896	38.36842
106.425087	21.306818
106.460503	9.556818
106.536362	10.011364
106.995956	126.222565
107.015327	223.176468
107.059792	1004.579773
107.086884	75.053574
107.120491	42.53125
107.387314	14.5
107.461235	10.035714
107.555023	28.049999
107.580963	38.5
107.634415	18.005434
107.75663	17.0625
108.033249	202.617981
108.043053	221.181824
108.065933	389.514862
108.111618	11.017858
108.143944	6.0
108.160225	9.875
108.187363	6.0
108.600281	10.027778
109.05159	185.560181
109.137527	39.002357
109.171379	51.145409
110.022507	283.446442
111.03154	554.159119
111.07943	24.125
111.428825	30.889286
111.442963	17.125
112.037834	128.938293
112.055473	38.75
112.097664	9.008333
114.018913	240.266129
114.094505	20.720238
114.367012	17.038794
115.055031	76.852615
119.060699	240.223145
119.108925	11.225
119.480469	21.28409
120.011887	644.752136
120.05529	125.259407
120.073303	54.592213
120.176071	25.487904
120.359238	18.100807
120.382133	49.532894
120.431694	19.03125
120.573669	10.666667
120.637894	9.125
120.829163	10.035714
121.038933	1082.201416
121.091171	28.148809
121.439224	9.8
121.460983	6.05
121.610588	5.160714
121.720963	19.78125
121.729866	15.240385
121.963791	11.208333
122.046478	205.773209
123.018715	96.14975
123.051491	93.208336
123.327812	46.063774
123.416626	78.108109
123.452126	22.796053
123.610481	17.075001
123.708565	7.875
123.801445	30.777779
123.94278	16.027779
123.987328	24.25
124.026627	7529.505859
124.073578	153.404816
124.089981	96.119118
124.119698	49.191177
124.147224	57.969826
124.170227	20.0
124.194672	23.004629
124.252777	22.007353
124.278877	67.786766
124.328712	48.979652
124.349602	20.035715
124.365341	30.964285
124.396362	20.022728
124.422531	21.889706
124.433655	57.840908
124.470551	10.066176
124.504326	16.183823
124.605988	31.153847
124.664299	13.163462
124.846397	23.086538
125.029282	337.170074
125.074989	11.446428
125.203354	36.222561
126.017052	197.79715
126.129036	8.125
127.025177	67.052635
127.36142	38.36842
131.204681	26.900862
131.642532	17.015625
132.045776	101.384613
132.083191	115.053574
132.117981	7.011364
132.209991	14.066176
132.289886	26.521551
132.418549	10.025
133.032227	140.072723
133.171585	29.1875
133.604996	68.84375
134.02652	1537.972656
134.075302	32.0
134.205597	18.076923
134.224594	9.125
134.253967	11.208333
134.274124	16.045
134.491898	16.11574
134.717529	24.844999
135.038757	164.876587
135.055222	1603.496704
135.105789	32.125
135.121048	20.674999
135.14592	20.041666
135.295792	20.657608
135.453873	38.408333
135.71312	12.086538
136.058701	174.028168
136.082626	57.007355
136.111053	8.083333
137.020859	266.451538
137.090561	16.071428
137.336868	49.297619
137.750504	11.666667
138.029892	1647.001953
138.079758	36.5
138.107971	76.891891
138.147568	5.160714
138.172836	10.45
138.204865	7.0625
138.331696	8.086538
138.798569	21.052631
139.036118	80.568184
139.336304	7.083333
140.645004	34.375
140.980438	11.556818
141.028244	590.753906
141.060242	38.16346
141.094955	12.166667
141.206787	10.013889
141.233994	18.556818
141.615891	66.1875
141.645264	10.027778
142.562378	7.102273
145.680542	12.360294
146.333298	21.0
147.064392	7.375
147.106491	18.347221
147.129791	5.0
147.239014	41.349136
147.264862	27.0
147.34584	71.326614
147.432968	32.845001
147.450012	15.284091
147.721207	15.482142
147.809998	10.066176
147.856522	23.058823
147.992065	6.083333
148.043137	11103.717773
148.094467	290.077576
148.143066	50.900002
148.179077	87.360291
148.20607	62.920456
148.241745	8.05
148.271423	35.920456
148.286224	13.25
148.318298	32.765625
148.351944	37.387821
148.40332	25.09091
148.466705	32.289288
148.496002	15.204545
148.525955	21.75
148.805649	11.142858
148.878113	54.740944
149.045654	339.912659
149.079712	115.612244
149.196289	36.017857
149.785583	9.375
150.058914	433.449707
150.117996	6.05
150.141235	10.0
150.196762	40.259617
150.247482	22.4
150.426987	7.0
150.57634	5.025
150.910263	10.347222
151.04744	116.201187
151.083542	9.8
151.101929	5.0
151.148987	6.0
151.431503	57.041668
151.69696	24.066668
151.761246	19.0
151.971329	37.0
153.027237	53.816666
154.018982	44.416668
155.033997	83.03125
156.039749	130.504196
157.28804	9.0
163.048508	117.737701
164.070923	86.264709
164.248596	10.240385
165.050674	179.245071
165.085556	12.125
165.258011	45.055557
166.060394	46.191177
167.058167	86.740944
167.223267	10.083333
168.040161	1339.856201
168.068558	181.793106
168.096542	55.171612
168.163574	16.041666
168.195694	10.066176
168.266602	16.778847
168.335587	26.004032
168.385254	41.375
168.448456	9.075
169.547775	14.408334
169.665283	8.008333
169.692459	24.125
175.085602	165.29657
175.139267	13.041667
177.030441	19.083334
181.045578	131.489822
181.113327	7.0
182.057678	764.704407
182.112701	26.291666
182.137268	6.625
182.219971	10.208333
182.393768	17.1875
183.060593	260.101868
183.132202	14.125
183.749802	18.0625
185.037003	90.911293
185.182816	50.964622
188.080261	51.052631
190.093735	89.476692
190.113937	17.041666
190.496857	10.666667
194.057297	50.099998
194.643356	63.469444
208.068817	199.765518
211.806183	17.1875
212.561539	42.814816
213.069031	562.752869
213.11467	8.160714
213.152374	5.333333
213.545944	26.818182
214.074249	96.648529
227.667114	5.083333
239.045898	35.112499
241.063049	95.254547
241.320114	8.166667
242.218948	10.666667
244.659668	15.125
246.019379	131.120193
251.814026	18.75
254.05542	77.485214
256.038269	21.13587
257.05719	353.688599
258.063477	76.215515
258.107758	6.0
266.121002	27.347221
269.573181	8.284091
269.620636	15.125
269.733124	43.360001
269.819733	5.333333
270.219086	5.160714
271.062195	6681.85791
271.175995	9.041667
271.232208	19.032143
271.255127	36.235466
271.277222	53.235294
271.304535	41.224998
271.332977	52.125
271.366486	26.163462
271.405884	63.004032
271.462006	30.041666
271.541687	12.25
271.618073	20.225
271.654388	43.25
271.786224	48.445
271.803284	29.125
271.857086	37.235466
271.89151	40.934322
271.979858	33.0
272.064056	374.15094
272.201599	22.969828
272.376495	22.125
272.471222	17.006578
274.410278	25.165323
286.31076	19.0
286.446106	34.210526
286.49884	14.007353
286.528534	13.595589
286.657837	6.0
286.786316	27.918478
287.27301	76.0
287.324921	15.008333
287.724731	19.075001
287.995758	7.2
288.065125	4770.298828
288.135376	135.458328
288.220917	34.573978
288.275909	30.520161
288.320038	61.5
288.344818	29.022728
288.386353	30.964285
288.409943	25.226852
288.446289	14.0625
288.497498	27.208334
288.571381	20.125
288.60495	18.0
288.646484	6.25
288.701813	26.166666
288.749084	16.53125
288.805939	33.084461
288.871002	19.058823
289.00705	36.328949
289.067322	377.887573
289.151917	9.0
289.203796	30.266666
289.243622	20.032143
289.386139	30.852272
289.421082	32.266666
289.440857	9.125
290.076813	33.941177
290.106842	6.225
290.286316	21.390625
290.50531	41.681602
291.907654	15.041667
425.895233	9.25
882.798035	14.240385
1178.356689	17.204546
END IONS

BEGIN IONS
PEPMASS=709.153
CHARGE=1
MSLEVEL=2
SOURCE_INSTRUMENT=LC-ESI-qTof
FILENAME=NEG_122_Usnic_acid_Comp_2Mm2HpNa_@201.933_merged.mzXML
SEQ=*..*
IONMODE=Negative
ORGANISM=LDB_POSITIVE
NAME=Usnic acid [2M-2H+Na]
PI=David RONDEAU Thomas DELHAYE
DATACOLLECTOR=Damien OLIVIER
SMILES=CC12C(=O)C(=C(C=C1Oc1c2c(O)c(C)c(O)c1C(=O)C)O)C(=O)C
INCHI="InChI=1S/C18H16O7/c1-6-14(22)12(8(3)20)16-13(15(6)23)18(4)10(25-16)5-9(21)11(7(2)19)17(18)24/h5,21-23H,1-4H3"
INCHIAUX=N/A
PUBMED=N/A
SUBMITUSER=mpanitchpakdi
LIBRARYQUALITY=3
SPECTRUMID=CCMSLIB00005718996
USI=mzspec:GNPS:LDB_POSITIVE:accession:CCMSLIB00005718996
SCANS=1
50.126343	28.0
50.395756	33.0
51.867363	32.0
54.256889	20.0
54.819199	57.0
54.859631	24.0
55.081635	37.0
55.307148	65.0
55.877708	19.0
57.166409	97.0
58.974445	48.0
59.268055	22.0
61.049892	35.0
61.105831	24.0
61.385166	138.0
61.983334	28.0
62.506336	49.0
62.601521	45.0
63.068401	31.0
63.140903	49.0
63.599148	34.0
63.620296	28.0
64.251343	25.0
64.349792	41.0
65.856613	22.0
66.931984	36.0
68.447662	28.0
68.859711	20.0
69.780769	57.0
70.28624	20.0
70.32267	23.0
71.137489	20.0
71.574989	28.0
72.907051	60.0
74.658264	18.0
74.697044	39.0
75.40258	60.0
75.471039	20.0
76.036263	38.0
77.569954	22.0
79.996544	18.0
80.823532	46.0
81.016502	28.0
81.518105	31.0
81.56855	43.0
81.739891	20.0
82.624382	20.0
82.687187	24.0
82.89782	20.0
83.016182	4031.939453
84.045273	44.0
84.211014	28.0
84.253998	24.0
84.467613	28.0
85.024704	36.0
85.54821	24.0
85.779732	68.0
85.930901	22.0
88.788643	20.0
89.575424	25.0
90.631943	21.0
91.190041	22.0
94.417801	72.0
94.929146	27.0
95.04924	73.584595
95.954277	49.0
96.043121	63.0
96.064514	33.0
96.700256	29.0
96.741982	39.0
96.777298	150.0
97.745781	24.0
98.914818	24.0
98.942871	47.0
99.106049	25.0
99.222427	66.0
99.476311	18.0
99.567383	43.0
100.683434	44.0
101.09272	47.0
101.941872	47.0
102.212303	27.0
103.028282	26.0
103.169579	43.0
104.00692	24.0
104.051834	19.0
104.24234	74.0
104.315796	46.0
104.530128	47.0
104.705475	28.0
106.448914	40.0
106.494621	35.0
106.653587	21.0
107.079567	137.0
107.635651	41.0
108.037941	57.0
108.111031	138.0
108.815659	18.0
110.724167	27.0
111.784042	24.0
112.985596	56.0
114.925438	20.0
115.050308	40.0
116.58448	46.0
117.817131	20.0
117.861748	42.0
118.434906	30.0
118.487793	18.0
119.041924	27.0
119.78492	30.0
120.499527	29.0
120.868752	35.0
121.604271	30.0
121.994347	34.0
123.992287	21.0
124.013084	50.0
124.283516	18.0
125.247154	25.0
125.633553	20.0
126.055824	21.0
126.472084	83.0
127.029343	23.0
127.576302	24.0
128.072739	25.0
128.107239	28.0
128.183823	46.0
128.80986	28.0
128.906433	32.0
130.4935	27.0
130.548691	45.0
130.776352	80.0
130.860794	26.0
131.90741	45.0
133.062866	95.0
133.266525	18.0
133.657608	18.0
133.853622	110.0
133.878052	32.0
134.875534	36.0
134.903931	49.0
135.986282	27.0
136.419891	20.0
138.044708	19.0
138.105484	31.0
138.298706	39.0
138.390152	44.0
138.468445	21.0
139.038559	178.963867
139.063278	26.0
139.207397	35.0
140.287567	33.0
140.853104	24.0
141.049225	33.0
141.155472	22.0
141.296127	18.0
141.585968	29.0
142.13829	54.0
142.279495	24.0
142.673874	40.0
142.875137	59.0
143.015594	21.0
143.260941	58.0
143.28949	20.0
143.389786	39.0
143.475632	30.0
143.545807	45.0
143.652954	19.0
143.719681	27.0
143.75441	21.0
143.946365	48.0
143.977081	21.0
144.200073	60.0
144.459137	24.0
144.50209	24.0
144.568146	18.0
144.596375	20.0
144.631836	20.0
144.737259	26.0
144.816437	29.0
144.923233	55.0
144.968445	27.0
145.074448	39.0
145.427261	47.0
145.751831	27.0
145.807816	97.0
145.928452	99.0
145.987732	22.0
146.079834	35.0
146.76741	40.0
146.884094	65.0
146.93483	38.0
147.081284	23.0
148.303879	21.0
148.692703	60.0
148.946198	53.0
149.51709	34.0
149.824554	66.0
151.04071	90.082703
151.805084	19.0
153.069107	19.0
153.511047	27.0
155.250351	19.0
155.888809	55.0
156.524841	28.0
157.061874	37.0
157.257706	91.0
157.304047	18.0
157.339142	19.0
157.930786	85.0
158.52919	50.0
158.561996	25.0
158.745926	33.0
159.044113	36.503387
159.076019	73.695251
159.7397	31.0
160.046173	32.0
160.095032	92.0
160.826263	38.0
161.018661	53.0
161.063904	44.0
161.249054	27.0
161.357269	46.0
161.506439	40.0
162.717087	30.0
162.822113	41.0
162.936554	26.0
163.102417	58.0
163.175583	36.0
163.753036	18.0
163.821869	20.0
164.037018	46.0
164.21138	109.0
164.694168	28.0
165.040848	31.0
165.297134	101.0
166.228745	75.0
166.716446	33.0
167.054321	19.0
167.244415	20.0
168.858765	21.0
168.895523	79.0
169.062851	46.0
169.093887	36.0
169.296539	65.0
169.339874	29.0
169.469727	34.0
169.562454	30.0
170.069565	43.0
170.270996	18.0
171.080841	124.0
171.128616	88.0
171.384796	22.0
171.666748	32.0
171.824585	34.0
171.899475	84.0
172.670364	47.0
172.738373	34.0
173.053177	33.0
173.183716	24.0
173.409195	28.0
173.868851	27.0
174.092133	33.0
174.773438	33.0
174.876678	64.0
175.036316	44.0
175.074493	62.0
175.323242	52.953918
175.414047	40.0
175.443146	31.0
176.219833	47.0
176.814514	18.0
177.007263	42.0
177.061539	103.0
177.300171	69.0
177.487885	32.0
177.552658	24.0
177.777161	24.0
177.858383	174.0
178.025406	35.0
178.086258	28.0
178.135651	19.0
178.174652	33.0
178.233505	20.0
178.637451	134.0
178.670975	26.0
178.790787	40.0
178.892075	24.0
179.03154	134.0
179.378174	96.0
179.733353	21.0
179.790817	43.0
180.038757	28.0
180.093689	28.0
180.226364	25.0
180.338257	20.0
180.404221	24.0
180.468552	67.0
180.499634	50.0
180.603653	21.0
180.668076	20.0
181.049332	75.0
181.339157	30.0
181.641174	24.0
181.685379	57.0
181.951782	26.0
182.179611	49.0
182.289871	42.0
182.712387	30.0
183.186737	65.0
183.676132	31.0
183.879379	59.0
183.918732	39.0
183.986526	18.0
184.017639	59.0
184.107437	25.0
184.24704	41.0
184.358856	18.0
184.665939	60.0
184.761307	27.0
184.863098	46.0
185.060211	47.0
185.093933	50.0
185.195572	29.0
185.598373	60.0
185.720779	38.0
185.774796	31.0
186.101501	23.0
186.124237	27.0
186.220673	18.0
186.271927	21.0
186.384644	24.0
186.434006	19.0
186.628006	67.0
186.748566	47.0
186.972137	18.0
187.03421	44.0
187.070206	107.0
187.111694	74.0
187.29425	62.0
187.401932	44.0
187.562973	27.0
188.048355	43.0
188.113388	27.0
188.427292	36.0
188.506042	33.0
188.535828	33.0
189.051483	123.0
189.158615	19.0
189.754196	18.0
189.796936	61.442871
190.055161	23.0
190.178833	25.0
190.750214	21.0
191.03009	56.0
191.061996	25.0
191.314819	24.0
191.595062	29.0
191.638	24.0
191.734833	45.0
191.78009	29.0
191.891556	39.0
192.818329	43.0
192.866852	48.0
193.052948	30.0
193.243683	22.0
193.390686	24.0
193.427704	24.0
193.71492	27.0
193.746277	18.0
193.885025	26.0
193.929581	33.0
193.999466	31.0
194.056519	28.0
194.133926	29.0
194.442139	29.0
194.560806	30.0
194.742508	188.0
195.045837	50.0
195.084747	72.0
195.477264	18.0
195.534973	78.0
195.5867	42.0
195.680206	25.0
195.898254	41.0
195.972855	27.0
196.005051	44.0
196.053741	66.0
196.075058	18.0
196.494904	45.0
197.060898	91.0
197.295853	38.0
198.07045	52.713867
198.682098	22.0
198.703537	23.0
198.880493	19.0
199.075211	185.0
199.101959	46.0
199.573746	22.0
199.904037	23.0
200.191299	25.0
200.694275	61.0
201.063232	50.0
201.320175	47.0
201.698074	36.0
201.783752	20.0
202.065292	33.0
202.527328	25.0
202.98819	93.0
203.021469	62.0
203.069885	67.0
203.40979	36.0
204.216202	35.0
204.579636	33.0
204.825516	18.0
204.975357	34.0
205.050125	79.0
205.911499	82.0
206.162537	57.0
206.416824	24.0
206.519806	21.0
206.622086	237.0
206.92215	30.0
207.031647	133.0
207.189194	54.0
207.27475	30.0
207.807449	126.0
208.00058	28.0
208.075592	25.0
208.681061	31.0
209.192947	20.0
209.667923	20.0
209.976196	64.0
210.484039	84.0
210.504333	18.0
211.038818	41.0
211.067169	39.0
211.114029	128.182251
211.16275	20.0
211.528824	44.0
211.829987	22.0
212.083267	110.0
212.197083	23.0
212.26442	42.0
212.516708	40.0
212.634079	29.0
212.661743	67.0
212.774155	24.0
212.875153	22.0
212.943878	29.0
213.02034	30.0
213.087784	306.171143
213.118027	121.0
213.143173	264.0
213.164597	26.0
213.298737	99.0
213.857681	21.0
214.062851	38.0
214.12532	19.0
214.599442	48.0
214.674957	26.0
215.028046	97.0
215.069214	1019.634766
215.136688	290.69873
215.228287	46.0
215.265808	22.0
215.296402	100.0
215.455109	28.0
215.522049	54.0
216.148651	89.0
216.417084	28.0
216.631409	21.0
216.695679	98.0
216.791962	30.0
216.842392	29.0
217.050461	126.246216
217.281815	18.0
217.471039	18.0
217.513565	24.0
217.551514	33.0
217.638077	46.0
217.707382	50.0
217.755066	31.0
218.107025	37.0
218.403702	94.0
218.441544	106.0
218.502319	48.0
219.032242	37.0
219.116974	73.0
219.193848	43.0
219.405289	52.0
219.716599	74.0
219.852844	54.0
219.932419	47.0
220.088486	33.0
220.147736	74.0
221.062241	25.0
221.37709	20.0
221.468628	127.0
221.499741	41.0
221.724365	83.0
221.794037	20.0
221.8535	22.0
221.91304	39.0
222.301636	44.0
222.342148	31.0
222.568527	24.0
222.623322	45.0
222.698868	21.0
222.754684	24.0
222.897339	50.0
222.978806	30.0
223.006287	39.0
223.061249	44.0
223.399582	51.0
223.781342	39.0
223.819168	25.0
224.04277	41.0
224.150803	20.0
224.227707	49.0
224.553192	29.0
224.728088	19.0
224.818497	28.0
225.152878	18.0
225.284393	29.0
225.407578	43.0
225.519119	20.0
225.793823	27.0
225.848877	29.0
225.949402	66.0
226.04837	38.0
226.229477	42.0
226.597595	35.0
226.638626	64.0
226.796692	25.0
226.995209	21.0
227.109375	116.0
227.17511	19.0
227.445938	142.0
227.520691	26.0
227.695984	28.0
228.062607	87.0
228.840347	18.0
228.974655	30.0
229.043198	128.0
229.085571	100.474243
229.559494	24.0
229.66507	37.0
230.05928	21.0
230.101395	44.0
230.27565	30.0
230.374283	21.0
230.408859	57.0
230.999023	63.0
231.064041	10875.140625
231.11908	601.622559
231.319778	19.0
231.372009	48.0
231.535187	28.0
231.586411	39.0
231.733871	38.0
232.102646	39.0
232.155167	21.0
232.247192	24.0
232.760742	19.0
233.08226	87.0
233.288055	93.0
234.034378	47.0
234.085434	50.0
234.253265	26.0
234.638031	18.0
235.870789	43.0
236.520203	73.0
237.118317	30.0
237.141541	63.0
237.772049	18.0
237.834152	27.0
237.906982	57.0
238.048233	35.0
238.073761	27.0
238.203156	28.0
238.420441	35.0
238.740265	25.0
238.833405	43.0
239.035858	21.0
239.069824	171.0
239.092148	25.0
239.273163	34.0
239.436111	109.0
239.601501	19.0
239.871948	22.0
240.082016	232.541626
240.122269	20.0
240.488937	50.0
240.726257	47.0
241.047165	110.0
241.132919	31.0
241.672516	21.0
242.053406	144.623779
242.244385	36.0
242.28421	111.0
242.361649	52.0
242.488846	59.0
242.739365	27.0
243.03125	37.0
243.066315	58.0
243.098999	40.0
243.305054	66.0
243.708649	48.0
243.803299	22.0
243.888428	51.0
244.082596	24.0
244.345917	25.0
244.616623	27.0
244.673584	68.0
244.980576	52.0
245.029037	28.0
245.118454	48.0
245.599686	27.0
245.77066	21.0
245.871826	25.0
246.04805	41.0
246.128754	54.0
246.633621	26.0
246.691315	33.0
246.95787	20.0
247.036011	72.0
247.29747	40.0
247.320023	70.0
247.565262	22.0
248.238663	40.0
249.262283	21.0
249.320419	19.0
249.396805	39.0
249.495819	60.0
250.340805	30.0
250.529007	27.0
250.746674	24.0
251.462326	69.0
251.50145	59.0
251.748123	42.0
251.864914	27.0
252.271866	20.0
252.592987	35.0
252.805557	30.0
253.483643	46.0
253.611465	33.0
253.651031	41.0
254.004715	42.0
254.047836	53.0
254.170013	63.0
254.471527	33.0
254.505356	28.0
254.53331	19.0
254.721741	18.0
255.034134	61.53775
255.085251	1516.119141
255.166077	103.0
255.201309	43.0
255.222	35.0
255.630325	84.0
255.861847	52.0
255.99173	39.0
256.070526	281.0
256.097778	20.0
256.131256	97.0
256.162964	19.0
256.574463	31.0
256.705902	18.0
256.752625	60.0
256.847534	28.0
257.029449	45.0
257.071472	505.174072
257.115692	74.0
257.153564	21.0
257.277039	44.0
257.298309	22.0
257.532166	21.0
257.924469	21.0
258.052734	36.0
258.095734	32.0
258.413361	22.0
258.589935	28.0
258.918182	51.0
258.947266	45.0
258.980438	65.0
259.021729	219.697388
259.059814	74715.75
259.092255	564.242676
259.123322	3377.166016
259.215149	66.0
259.262665	33.0
259.315582	37.0
259.370178	27.0
259.445404	28.0
259.756714	23.0
259.910706	47.0
260.070618	140.253662
260.137238	22.0
260.382263	34.0
260.42981	30.0
260.704559	49.0
261.009735	46.0
261.290222	27.0
261.369812	27.0
261.421478	51.0
261.468018	20.0
261.663025	32.0
261.904297	18.0
262.360748	39.0
262.936462	24.0
262.998474	20.0
263.326355	212.0
263.441895	24.0
264.416779	32.0
264.449371	24.0
264.784637	35.0
264.92215	64.0
265.247284	23.0
265.405304	22.0
265.456726	43.0
265.993896	58.0
266.243713	24.0
266.815308	60.0
267.009827	18.0
267.48465	44.0
267.827454	54.0
268.18692	76.0
268.26355	42.0
268.375946	94.0
269.039307	73.0
269.100983	26.0
269.171417	145.0
269.499756	39.0
269.657379	19.0
270.034241	59.0
270.088196	41.0
270.484131	77.0
270.541321	88.0
270.575745	63.0
271.059052	36.0
271.097076	274.739746
271.133423	34.0
271.216278	19.0
271.357941	19.0
271.792206	41.0
272.067444	106.0
272.299805	18.0
272.615082	56.0
272.681366	65.0
273.070923	151.0
273.150513	20.0
273.325745	53.0
273.803009	54.0
274.111511	62.0
275.100067	72.0
275.251068	29.0
275.369904	49.0
275.446503	47.0
275.707764	24.0
275.746765	23.0
276.037048	32.0
276.265045	24.0
277.257568	54.0
277.648682	38.0
277.839264	53.0
278.039917	30.0
278.220764	21.0
278.543671	24.0
278.633179	23.0
279.86911	57.0
280.101959	24.0
280.332397	33.0
280.463287	51.0
280.597687	52.0
280.764191	23.0
280.901917	55.0
280.933075	22.0
281.037384	31.0
281.083954	137.0
281.160248	22.0
281.470978	45.0
281.615692	60.0
282.030304	37.0
282.093475	19.0
282.14505	19.0
282.678192	32.0
282.818665	112.0
283.060181	959.838379
283.125	18.0
283.342499	27.0
283.446533	27.0
283.873718	41.0
284.005402	19.0
284.068573	362.968018
284.154449	41.0
284.2901	24.0
284.369537	28.0
284.592682	28.0
284.645966	28.0
284.831726	27.0
284.870941	18.0
284.935242	38.0
285.037506	97.613953
285.266846	49.0
285.434814	24.0
285.605957	46.0
285.633514	25.0
285.683624	111.0
285.784576	32.0
285.824341	21.0
285.958801	81.0
286.050201	488.009521
286.4953	26.0
286.673004	48.0
286.728577	18.0
286.863434	25.0
287.026917	18.0
287.052094	31.0
287.111267	21.0
287.152649	26.0
287.369232	26.0
287.690979	18.0
287.732422	52.0
287.763	62.0
287.822327	52.0
287.976013	79.0
288.011566	128.0
288.059296	52.0
288.131622	28.0
288.169861	20.0
288.446777	141.0
288.641571	28.0
288.689209	28.0
289.070007	35.0
289.354919	19.0
289.376831	38.0
289.786072	41.0
289.816193	47.0
289.973114	44.0
290.026276	30.0
290.420227	39.0
290.517914	91.0
290.543427	23.0
291.317932	38.0
291.480255	27.0
291.591919	31.0
291.649841	29.0
291.739838	62.0
291.984985	28.0
292.159607	61.0
292.279114	33.0
292.305786	27.0
292.404205	36.0
292.612854	38.0
292.642883	37.0
292.727386	20.0
292.761169	24.0
292.853668	34.0
293.240662	64.0
293.419617	62.0
293.512421	24.0
293.823578	30.0
294.05838	45.0
294.108917	97.0
294.389496	154.0
294.463348	52.0
294.510284	23.0
294.722717	30.0
294.86496	27.0
295.346924	21.0
295.815582	23.0
296.071564	28.0
296.133575	20.0
296.172333	41.0
296.259338	60.0
296.880798	34.0
297.076233	86.0
297.631775	26.0
298.077423	22.0
298.149353	20.0
298.320465	40.0
298.926117	31.0
298.97583	27.0
299.000031	28.0
299.04538	148.754272
299.090363	18243.890625
299.152008	527.799805
299.258148	33.0
299.364441	46.0
299.415192	47.0
299.865204	75.0
300.063629	496.597412
300.101288	64.0
300.169312	70.0
300.245972	26.0
300.277313	23.0
300.323364	23.0
300.347565	25.0
300.393158	24.0
300.432983	22.0
300.666351	31.0
300.766632	28.0
300.819397	42.0
300.910431	32.0
301.069885	7743.140625
301.104767	291.736084
301.145996	467.0
301.356384	31.0
302.235413	21.0
302.694763	27.0
303.180634	21.0
303.661224	69.0
303.91687	67.0
304.052124	25.0
304.909576	55.0
305.088409	64.0
305.444977	82.0
305.758148	32.0
305.905396	20.0
305.936249	54.0
306.401489	58.0
307.76886	53.0
308.174652	48.0
309.012848	51.0
309.308655	42.0
310.407379	30.0
310.697449	94.0
310.961853	69.0
311.056244	35.0
311.242523	20.0
311.572235	30.0
311.627441	160.0
311.692993	78.0
312.035126	57.0
312.227325	20.0
312.508667	41.0
313.010101	197.879761
313.035126	2497.859375
313.085205	185.0
313.117645	181.0
313.180664	24.0
313.425873	56.0
313.463654	87.0
313.494141	38.0
313.601654	34.0
313.75592	50.0
314.027618	45.0
314.057007	69.0
314.177185	40.0
314.308502	30.0
315.011444	21.0
315.045044	26.0
315.085876	1507.933594
315.116699	76.0
315.153137	355.139893
315.420959	38.0
315.725372	63.0
315.918762	60.0
316.023743	18.0
316.112518	69.0
316.325134	34.0
316.453644	22.0
316.933105	19.0
317.016083	30.0
317.432251	31.0
317.585144	24.0
317.838623	35.0
317.917053	29.0
318.014252	18.0
318.369537	20.0
318.763977	97.0
319.065857	30.0
319.137878	20.0
319.862518	20.0
319.908539	18.0
320.26358	84.0
320.35611	24.0
320.43985	63.0
320.868378	33.0
321.066101	42.0
321.627258	22.0
321.872742	24.0
322.070312	84.0
322.333344	27.0
322.367706	37.0
322.445221	18.0
322.63324	21.0
322.877075	23.0
323.067139	31.0
323.522278	18.0
323.802521	24.0
323.839844	149.0
325.067841	1234.0
325.109009	168.0
325.14325	148.0
325.199097	47.0
325.544281	20.0
325.674133	105.0
325.737946	116.0
325.881165	33.0
326.094238	21.0
326.116943	28.0
326.267883	54.0
326.681274	19.0
326.707123	40.0
327.049469	116.375183
327.192017	35.0
327.240997	74.0
327.318848	36.0
327.357147	54.0
327.590973	18.0
327.815247	34.0
327.852844	30.0
327.904877	84.0
327.93576	98.0
328.000793	333.581787
328.057678	164042.75
328.129486	4844.738281
328.200165	83.833191
328.23645	253.116333
328.271637	57.0
328.315491	77.0
328.435822	20.0
328.571838	24.0
328.665863	74.0
328.739014	27.0
328.766144	51.0
328.796722	24.0
328.817078	76.0
328.887024	46.0
328.912018	20.0
329.064026	213.0
329.206207	22.0
329.23819	42.0
329.36618	19.0
329.387054	18.0
329.456329	26.0
329.515747	20.0
329.559906	34.0
329.628387	24.0
329.92749	29.0
329.971375	26.0
330.021637	24.0
330.065887	107.0
330.132568	22.0
330.207611	18.0
330.26712	18.0
331.040131	71.0
331.096191	67.0
331.332306	36.0
331.512024	46.0
331.536133	20.0
331.562927	20.0
331.623962	59.0
331.666229	64.0
331.948792	43.0
332.035156	62.0
332.267761	27.0
332.376221	20.0
332.466888	20.0
332.815216	20.0
333.335876	45.0
333.442322	49.0
333.846375	44.0
334.008759	33.0
334.057281	27.0
334.258911	24.0
334.427979	27.0
334.506531	29.0
334.553955	38.0
334.827515	87.0
335.090851	21.0
335.219696	18.0
335.488159	26.0
336.11438	27.0
336.158356	28.0
336.270416	48.0
336.3685	20.0
336.439148	79.0
336.618317	18.0
336.680389	22.0
336.796875	46.0
336.833221	63.0
336.870056	21.0
336.956024	74.0
337.012421	148.005859
337.056183	175.0
337.100922	58.69809
337.126556	134.0
337.149353	18.0
337.177917	36.0
337.34845	30.0
337.439606	30.0
337.514191	26.0
337.562531	20.0
337.656799	30.0
337.779877	23.0
337.82962	25.0
337.849792	28.0
337.872711	26.0
337.994568	19.0
338.136658	23.0
338.358124	36.0
338.389862	33.0
338.508362	47.0
338.652863	27.0
338.7995	23.0
338.864624	19.0
338.888519	18.0
339.233978	64.0
339.454895	97.0
339.583496	20.0
339.852051	20.0
340.047943	18.0
340.379456	60.0
340.479736	46.0
340.762665	31.0
340.882965	30.0
341.076294	20.0
341.171387	27.0
341.229492	18.0
341.28241	18.0
341.394562	19.0
341.440552	24.0
341.522125	18.0
341.661774	44.315338
341.817261	27.0
341.847046	23.0
341.942535	24.0
341.971313	18.0
342.055969	68.0
342.103119	104.0
342.130219	33.0
342.195923	43.0
342.224701	22.0
342.32193	35.0
342.378418	30.0
342.464478	50.0
342.577179	26.0
342.630371	18.0
342.68692	55.0
342.758026	59.0
342.797241	69.0
342.867493	82.0
342.90213	37.0
342.92981	101.0
342.991821	1415.097656
343.032928	257.524658
343.081482	865894.5
343.162354	52396.71875
343.193024	26.0
343.230774	111.0
343.268311	26814.15625
343.310059	1422.665039
343.369202	13605.59375
343.418365	15624.507812
343.476074	25.0
343.516052	6034.75
343.555237	33.0
343.598938	35.0
343.662048	18.0
343.703705	22.0
343.750671	18.0
343.789154	30.0
343.819366	20.0
343.858063	39.0
343.896179	37.0
343.95694	25.0
344.012665	53.0
344.044312	20.0
344.084229	1164.263672
344.134216	21.0
344.172974	228.920044
344.230713	89.0
344.29538	106.0
344.334137	1473.302734
344.382874	45.771729
344.40741	103.09021
344.430573	559.197754
344.471161	52.0
344.54715	60.0
344.59903	20.0
344.634521	40.0
344.691345	24.0
344.805481	21.0
344.843994	30.0
344.87796	25.0
344.907928	30.0
344.997742	42.0
345.040741	25.0
345.09726	114.0
345.127502	21.0
345.208649	52.0
345.250305	53.0
345.336548	52.0
345.377991	45.556183
345.416626	19.0
345.457245	24.0
345.496521	26.0
345.525024	74.0
345.623871	30.0
345.723694	56.0
345.790924	24.0
345.816406	32.0
345.896271	19.0
345.918213	31.0
345.979248	18.0
346.050751	33.0
346.077881	18.0
346.150085	127.0
346.202515	95.0
346.244934	33.0
346.281555	31.0
346.322998	33.0
346.348358	21.0
346.418091	38.0
346.496002	25.0
346.530701	24.0
346.551636	19.0
346.652222	44.0
346.7117	18.0
346.745483	21.0
346.79599	28.0
346.856842	36.0
346.929993	30.0
347.053375	20.0
347.250702	33.0
347.275513	20.0
347.367737	27.0
347.4021	20.0
347.462769	35.0
347.506561	20.0
347.554779	36.0
347.589142	42.0
347.641907	42.0
347.668091	21.0
347.720825	24.0
347.741943	47.0
348.032135	25.0
348.056274	18.0
348.147827	64.0
348.194855	147.0
348.223022	23.0
348.246002	21.0
348.338593	20.0
348.406433	25.0
348.518646	38.0
348.561371	24.0
348.591949	39.0
348.659607	20.0
348.723785	23.0
348.775635	33.0
348.850098	19.0
348.883087	21.0
349.090851	20.0
349.188507	20.0
349.2966	21.0
349.373657	28.0
349.442902	18.0
349.568665	20.0
349.743805	28.0
349.768311	22.0
349.863647	40.0
349.944092	56.0
350.037872	38.0
350.077759	33.0
350.5625	23.0
350.601379	41.0
350.813812	25.0
350.852844	43.0
350.975647	18.0
351.010132	21.0
351.042236	18.0
351.133057	24.0
351.226105	51.0
351.286621	89.0
351.513916	56.0
351.600494	20.0
351.639374	40.0
351.758667	36.0
351.795685	43.0
351.95578	18.0
352.02774	38.0
352.222961	65.0
352.380249	25.0
352.4328	45.0
352.803253	39.0
352.842163	26.0
353.014801	20.0
353.119507	20.0
353.15921	21.0
353.198242	24.0
353.236603	28.0
353.264954	25.0
353.310638	23.0
353.587952	30.0
353.60849	36.0
353.631317	23.0
353.916595	24.0
354.112915	60.0
354.50293	53.0
354.537384	27.0
354.629028	34.0
354.744049	33.0
354.78183	38.0
355.040802	42.0
355.142365	19.0
355.238892	26.0
355.263916	20.0
355.289032	19.0
355.432312	30.0
355.481262	37.0
355.506805	18.0
355.554688	43.0
355.664398	45.0
355.750214	24.0
355.898895	38.0
356.074707	24.0
356.182098	41.0
356.22522	29.0
356.320404	41.0
356.524689	65.0
356.564728	35.0
356.595886	25.0
356.692688	26.0
356.82962	23.0
356.888428	21.0
357.205475	121.0
357.227081	28.0
357.268158	79.0
357.423828	18.0
357.64682	115.0
357.721069	35.0
357.76062	21.0
357.824341	33.0
357.866028	36.0
357.886505	20.0
357.954956	24.0
357.977234	31.0
358.046021	25.0
358.068024	27.0
358.629395	36.0
358.755371	21.0
358.847626	32.0
358.931	41.0
359.029053	38.0
359.112732	24.0
359.206024	71.0
359.39035	47.0
359.421692	26.0
359.592529	217.0
359.665222	43.0
359.69101	34.0
359.810699	30.0
359.877716	28.0
360.536285	27.0
361.057068	38.0
361.122101	39.0
361.539154	25.0
361.713043	19.0
361.853424	57.0
361.981476	33.0
362.026581	100.0
362.247009	71.0
362.294891	54.0
362.486084	99.0
362.824463	29.0
362.97406	26.0
363.026215	19.0
363.084686	32.0
363.150665	55.0
363.215118	22.0
363.244812	21.0
363.369141	45.0
363.408783	21.0
363.437073	28.0
363.481903	33.0
363.547913	63.0
363.591095	24.0
363.695496	26.0
363.782867	68.0
363.820648	50.0
363.855927	30.0
364.702148	38.0
365.007355	63.0
365.062286	1149.15332
365.093597	99.0
365.130768	121.0
365.229156	36.0
365.445251	33.0
365.868134	20.0
366.036377	21.0
366.067352	47.0
366.456787	60.0
366.553619	21.0
366.613068	37.0
366.803131	37.0
366.861145	280.0
367.35199	22.0
367.607574	21.0
367.682281	30.0
367.958466	40.0
368.051636	31.0
368.148499	25.0
368.200897	45.0
368.433411	31.0
368.489899	23.0
368.683533	25.0
368.828125	35.0
368.901733	19.0
368.971313	57.0
368.999847	27.0
369.045135	24.0
369.268188	25.0
369.553986	62.0
369.633026	22.0
370.092682	26.0
370.572235	24.0
370.790375	22.0
370.992432	48.0
371.095673	22.0
371.159943	38.0
371.251038	67.0
371.313995	57.0
371.536438	79.0
371.891296	21.0
371.983521	21.0
372.417603	34.0
372.657532	26.0
372.947357	79.0
373.058655	48.0
373.282288	93.0
373.418396	19.0
373.648529	27.0
374.13324	44.0
374.646606	27.0
374.684937	38.0
375.021637	20.0
375.077026	20.0
375.329163	36.0
375.479919	54.0
375.95752	27.0
376.206573	22.0
376.26355	104.0
376.344452	28.0
376.891296	44.0
377.038727	20.0
377.280579	60.0
377.409393	71.0
377.53241	49.0
377.616943	24.0
377.858795	23.0
377.910797	19.0
378.539185	43.0
378.649231	90.0
378.720917	30.0
379.036499	47.0
379.068268	25.0
379.205505	21.0
379.574615	39.0
379.609985	28.0
379.758209	31.0
380.036896	41.0
380.331635	54.0
380.672729	29.0
380.935272	65.0
381.218353	20.0
381.296417	45.0
381.321503	19.0
381.373657	90.0
381.584869	99.0
381.992218	18.0
382.049561	21.0
382.146942	18.0
382.23642	29.0
382.594421	61.0
382.818939	47.0
383.007324	39.0
383.337952	27.0
383.376312	25.0
384.101501	21.0
384.138123	29.0
384.162109	30.0
384.272675	21.0
384.358887	33.0
384.819977	37.0
385.241699	29.0
385.61615	31.0
385.722504	37.0
386.078094	19.0
386.10907	18.0
386.145081	119.0
386.25354	65.0
386.673859	23.0
386.763336	102.0
386.905914	90.0
387.177521	21.0
387.468872	26.0
387.542664	18.0
387.565521	21.0
388.52124	40.0
388.581116	29.0
388.797943	25.0
388.838867	29.0
389.076599	36.0
389.348816	33.0
389.403442	23.0
389.834808	28.0
390.016846	33.0
390.488861	24.0
390.597382	43.0
390.628693	23.0
391.021698	40.0
391.177979	71.0
391.391571	90.0
392.099976	35.0
392.538818	24.0
392.62265	62.0
392.757599	27.0
392.813385	41.0
393.214142	49.0
393.337219	53.0
393.54538	28.0
393.747406	28.0
393.832214	27.0
393.970184	29.0
394.315887	83.0
394.361084	92.0
394.456177	22.0
394.498474	18.0
394.719055	51.0
394.9487	18.0
395.173462	22.0
395.359253	53.0
395.390839	32.0
395.483246	47.0
395.569672	35.0
395.732178	63.0
395.90799	28.0
396.101746	24.0
396.263885	23.0
396.285248	24.0
396.365997	18.0
396.406372	30.0
396.477692	28.0
396.586975	36.0
396.718384	55.0
396.739044	20.0
397.023468	40.0
397.37442	36.0
397.464935	73.0
397.66272	45.0
398.018402	22.0
398.363007	34.0
398.554932	56.0
398.892487	28.0
399.022034	37.0
399.452484	21.0
399.538513	21.0
399.983246	18.0
400.220062	32.0
400.459656	27.0
400.631409	22.0
400.744354	21.0
400.79422	28.0
400.988403	26.0
401.287781	46.0
401.378204	44.0
401.440216	100.0
401.65744	28.0
401.863953	25.0
402.080292	30.0
402.13266	47.0
402.209167	36.0
402.316681	21.0
402.34079	51.0
402.431702	23.0
402.769073	25.0
402.922119	38.0
403.005859	45.0
403.046906	22.0
403.21994	24.0
403.286346	52.0
403.386383	26.0
403.419281	26.0
403.503204	37.0
403.652222	25.0
403.857208	25.0
404.079803	26.0
404.165253	35.0
404.276031	24.0
404.380096	41.0
404.465698	48.0
404.622742	37.0
404.732574	75.0
404.759644	31.0
404.837677	40.0
404.979065	22.0
405.011902	36.0
405.170868	48.0
405.210052	86.0
405.599213	18.0
405.696747	27.0
405.750854	26.0
405.846252	30.0
405.911469	45.0
406.06076	22.0
406.130127	20.0
406.293274	47.0
406.434814	30.0
406.617798	25.0
406.690735	30.0
406.913147	23.0
407.098175	20.0
407.14151	21.0
407.470825	24.0
407.500183	36.0
408.249512	27.0
408.669769	26.0
408.836029	54.0
408.954102	20.0
409.067841	28.772339
409.111847	18.0
409.145386	23.0
409.247833	31.0
409.353699	23.0
409.826965	127.0
409.893005	95.0
410.075043	21.0
410.139954	25.0
410.185242	26.0
410.230804	18.0
410.408417	31.0
410.593964	54.0
410.622375	30.0
410.822205	33.0
411.053925	26.0
411.350189	52.0
411.409058	111.0
411.438049	42.0
411.475891	18.0
411.653046	21.0
411.695953	47.0
411.79715	43.0
411.8909	53.0
412.030304	20.0
412.138519	49.0
412.175415	27.0
412.230957	19.0
412.522766	20.0
412.559204	19.0
412.739777	29.0
412.775055	108.0
413.042023	30.0
413.318878	28.0
413.803558	23.0
413.938202	29.0
414.031891	43.0
414.546722	24.0
414.655853	20.0
414.710358	33.0
414.912384	19.0
414.941254	79.0
415.013214	20.0
415.054108	19.0
415.742065	102.0
415.868134	30.0
415.991119	24.0
416.24472	79.0
416.440918	43.0
416.641998	74.0
416.766144	19.0
416.884064	20.0
417.391602	24.0
417.579651	24.0
417.661102	19.0
417.748077	24.0
418.050598	20.0
418.36496	40.0
418.712891	25.0
418.818512	35.0
418.96637	21.0
419.022125	20.0
419.417389	31.0
419.592438	24.0
420.274567	40.0
420.309692	57.0
420.556641	61.0
421.02597	101.0
421.370239	29.0
421.45105	18.0
421.514099	21.0
421.665192	21.0
421.938812	40.0
422.141418	37.0
422.203308	77.0
422.265717	41.0
422.449493	60.0
422.523438	55.0
422.622894	89.0
422.868317	59.0
423.00116	37.0
423.1539	48.0
423.497253	22.0
423.51886	26.0
423.68103	43.0
423.911865	38.0
424.105621	20.0
424.137054	62.0
424.164886	20.0
424.342377	18.0
424.365936	24.0
424.538025	23.0
424.72113	19.0
424.872467	23.0
424.956848	19.0
425.001343	24.0
425.847198	79.0
426.009094	31.0
426.271576	25.0
426.380493	33.0
426.528961	31.0
426.890991	24.0
427.249908	24.0
427.32843	26.0
427.398956	45.0
427.678741	49.0
427.780945	28.0
428.178467	53.0
428.779877	18.0
428.815063	21.0
428.915588	21.0
429.233948	86.0
429.301575	57.0
429.442474	49.0
429.930511	28.0
429.961182	28.0
430.164612	21.0
430.543304	29.0
430.645691	22.0
430.815613	50.0
430.888519	39.0
430.912415	23.0
431.048492	37.0
431.084381	20.0
431.169586	28.0
431.41391	19.0
431.68869	31.0
431.982269	58.0
432.010986	24.0
432.101685	37.0
432.256348	25.0
432.433868	35.0
432.473541	20.0
432.596313	20.0
432.707611	19.0
432.735168	22.0
432.846313	66.0
432.937164	22.0
433.048462	55.0
433.081299	24.0
433.438202	45.0
433.498779	31.0
433.628357	23.0
433.748169	34.0
433.780701	28.0
433.804565	21.0
433.851837	41.0
433.919769	21.0
434.174164	58.0
434.263733	28.0
434.449432	33.0
434.582794	20.0
434.790192	45.0
434.947998	42.0
435.151367	35.0
435.22522	20.0
435.305725	41.0
435.528534	27.0
435.623016	21.0
436.056274	21.0
436.077667	18.0
436.400452	37.0
436.979156	33.0
437.119934	36.0
437.231079	33.0
437.291412	26.0
437.412537	34.0
437.475342	32.0
437.619904	19.0
437.69519	34.0
437.876892	34.997803
438.392731	61.0
438.50235	35.0
438.534668	24.0
438.840332	32.0
439.365295	40.0
439.408264	29.0
439.663239	64.0
439.900208	47.0
440.000793	31.0
440.163422	23.0
440.260803	18.0
440.333282	28.0
440.411163	28.0
440.597839	31.0
440.826538	47.0
440.988281	73.0
441.037415	54.0
441.170624	26.0
441.855743	20.0
442.043701	39.0
442.194519	23.0
442.269806	59.0
442.336273	44.0
442.382904	29.0
442.676971	58.0
442.725403	98.0
442.810181	92.0
442.838898	185.0
442.99353	43.0
443.121307	38.0
443.692139	27.0
443.933075	23.0
443.97998	56.0
444.006897	38.0
444.771332	81.0
444.815369	33.0
444.93515	37.0
444.978607	38.0
445.243256	22.0
445.338654	35.0
445.726318	56.0
445.927002	24.0
445.994507	21.0
446.390961	44.0
446.764923	23.0
446.861115	90.0
447.736359	39.0
447.891418	34.0
448.204834	20.0
448.71106	26.0
448.964294	64.0
449.126282	47.0
449.244812	105.0
449.442322	35.0
449.463806	30.0
449.785889	35.0
449.888885	26.0
449.931	57.0
450.039001	25.0
450.084656	38.0
450.194366	33.0
450.299683	25.0
450.451508	51.0
450.674744	76.0
450.88382	25.0
450.972626	37.0
451.510681	55.0
451.610809	39.0
451.677765	79.0
451.752747	79.0
451.826935	49.0
451.858459	18.0
451.883667	27.0
451.98172	22.0
452.731079	171.526123
452.832397	36.0
453.065399	88.0
453.339386	34.0
453.369354	60.0
453.623627	30.0
453.943054	35.0
454.13913	21.0
454.464294	36.0
454.612885	93.0
454.659088	22.0
454.7164	24.0
455.17041	24.0
455.439056	54.0
455.668427	41.0
456.213135	79.0
456.568542	30.0
456.614105	21.0
456.754395	54.0
456.989044	23.0
457.02005	20.0
457.429779	20.0
457.727722	20.0
457.775024	52.0
457.852753	18.0
458.228638	61.0
458.74472	31.0
458.915375	31.0
458.976593	35.0
459.374939	28.0
459.718781	59.0
460.016937	49.0
460.09433	26.0
460.312653	62.0
460.660736	20.0
460.703552	19.0
460.837952	214.0
461.092285	47.0
462.546661	35.0
462.691071	30.0
462.909424	21.0
462.933807	25.0
463.29657	24.0
463.604004	27.0
463.651764	25.0
464.046295	63.0
464.253693	41.0
464.728088	156.0
464.783936	50.0
465.363281	93.0
465.646759	27.0
465.722809	23.0
465.762299	44.0
466.593842	21.0
467.096924	36.0
467.129883	39.0
467.325867	67.0
468.185669	46.0
468.415558	66.0
468.440521	40.0
468.705353	37.0
468.76712	34.0
468.863068	44.0
469.763123	34.0
469.903381	51.0
470.813477	23.0
471.437927	57.0
471.470367	28.0
471.576233	108.0
471.681976	48.0
472.039246	43.0
472.154846	18.0
472.397583	53.0
472.471863	31.0
472.72229	25.0
472.807617	20.0
472.881348	26.0
472.906464	41.0
472.974213	33.0
473.10434	27.0
473.151978	117.0
473.584045	28.0
473.658112	56.0
473.794098	65.0
474.889923	165.0
475.112488	30.0
475.322235	25.0
475.457642	58.0
476.021606	22.0
476.854065	43.0
476.963806	35.0
477.120056	33.0
477.616699	35.0
477.673279	22.0
477.717621	18.0
477.983246	24.0
478.035522	37.0
478.056213	49.0
478.102661	18.0
478.128082	47.0
478.159271	28.0
478.456665	29.0
478.687103	31.0
478.849152	33.0
478.996674	119.0
479.317383	24.0
479.965393	19.0
480.053284	25.0
480.20639	67.0
480.446259	28.0
480.507874	71.0
480.570984	23.0
481.610077	18.0
481.815125	61.0
482.160248	67.0
482.448212	65.0
482.679535	63.0
482.732941	212.0
482.851776	24.0
482.934692	42.0
483.190521	46.0
483.476868	85.0
483.66095	20.0
483.695801	90.0
483.81665	65.0
483.998627	45.0
484.375305	91.0
484.651245	30.0
485.022797	48.0
485.161865	49.0
485.406616	54.0
485.723358	27.0
485.768616	25.0
485.870819	37.0
485.953979	41.0
486.862061	27.0
487.051178	24.0
487.676086	60.0
487.970673	43.0
488.167236	23.0
488.255035	47.0
488.361572	65.0
488.432617	110.0
488.761108	44.0
488.976196	40.0
489.00943	50.0
489.130005	39.0
489.466461	62.0
489.486755	30.0
489.520203	29.0
489.562164	28.0
489.682617	39.0
490.133575	41.0
490.301056	38.0
490.345642	18.0
490.737732	33.0
490.834564	40.0
491.204865	37.0
491.485931	49.0
491.601746	56.0
491.664612	22.0
491.995056	68.0
492.338196	50.0
492.922424	30.0
493.025055	58.0
493.207428	36.0
493.282104	64.0
493.397736	30.0
493.479706	20.0
493.65564	36.0
493.726837	24.0
493.764832	24.0
493.927917	34.0
494.15979	22.0
494.183472	24.0
494.212097	37.0
494.369995	36.0
494.694824	75.0
494.715393	79.0
494.750671	43.0
494.837891	20.0
494.859528	26.0
494.997437	45.0
495.28125	40.0
495.4151	25.0
496.108276	23.0
496.185516	47.0
496.486511	69.0
496.643799	18.0
497.105621	47.0
497.134674	63.0
497.320892	23.0
497.395416	22.0
497.574249	19.0
497.981812	61.0
498.096527	20.0
498.511078	34.0
498.558655	35.0
498.638153	22.0
498.703979	31.0
498.876251	26.0
498.964478	60.0
499.107758	18.0
499.335144	51.0
499.435699	21.0
499.570068	23.0
499.890991	42.0
500.68161	28.0
501.214142	18.0
501.541931	27.0
501.77652	24.0
501.842102	59.0
501.862488	53.0
501.924957	21.0
501.963867	40.0
502.162903	42.0
502.250336	45.0
502.302521	27.0
502.435425	32.0
502.502899	59.0
502.625397	27.0
502.705109	21.0
502.911682	18.0
502.933807	20.0
502.989044	58.0
503.148682	50.0
503.538666	73.0
504.061584	64.0
504.499878	74.0
504.567749	21.0
504.632751	35.0
504.694244	26.0
504.892395	20.0
504.939117	68.0
504.997253	22.0
505.501801	27.0
505.669708	20.0
505.741364	27.0
505.867218	25.0
506.717346	33.0
506.839386	77.0
506.96875	28.0
507.207367	33.0
507.876801	33.0
508.35498	25.0
509.152679	27.0
509.240234	20.0
509.400482	52.0
509.645477	95.0
509.829773	36.0
510.071472	47.0
510.24826	21.0
510.636719	67.0
510.941467	36.0
511.015198	51.0
511.095978	34.0
511.540527	35.0
511.673096	56.0
511.729401	67.0
511.960815	68.0
512.052185	37.0
512.325867	29.0
513.083008	28.0
513.554932	38.0
513.956238	60.0
514.155457	31.0
514.365173	33.0
514.892212	44.0
515.618774	50.0
515.777588	31.0
515.822388	25.0
515.972107	81.0
516.389893	25.0
516.55127	61.0
516.727051	21.0
516.949951	22.0
517.037354	81.0
517.124817	24.0
517.415649	39.0
517.486755	33.0
517.74823	21.0
517.870056	105.0
518.115784	20.0
518.248901	33.0
518.671631	26.0
518.71936	30.0
518.845703	33.0
518.876282	47.0
519.056763	41.0
519.107483	38.0
519.579224	29.0
520.174866	71.0
520.270325	19.0
520.38324	91.0
520.450623	26.0
520.478882	21.0
520.644287	70.0
521.403381	24.0
521.46991	79.0
521.588623	31.0
523.459167	35.0
523.484802	33.0
523.682556	28.0
524.104553	24.0
524.23291	28.0
524.733521	38.0
525.184265	31.0
525.702942	111.0
525.995789	51.0
526.072876	22.0
526.557861	136.0
526.659729	21.0
526.710815	25.0
526.732361	30.0
526.971436	42.0
527.074219	29.0
527.19751	67.0
527.613464	48.0
527.685364	21.0
527.74884	47.0
527.822571	45.0
528.113403	39.0
528.604736	20.0
528.722107	33.0
528.856445	33.0
529.116882	102.0
529.888123	19.0
529.968262	95.0
530.34613	28.0
530.867554	21.0
530.934387	68.0
531.156738	30.0
531.346619	138.0
531.586975	38.0
531.786621	84.0
531.889221	22.0
532.266724	37.0
532.984375	54.0
533.300842	28.0
534.134033	23.0
534.202454	28.0
534.453796	50.0
534.645447	31.0
534.915466	40.0
535.100525	34.0
535.602905	25.0
535.749268	57.0
536.129456	29.0
536.461975	32.0
536.56781	24.0
536.849426	34.0
536.896301	100.0
537.194702	64.0
537.71228	63.0
538.034119	18.0
538.185303	64.0
538.967407	19.0
538.999329	25.0
539.113831	31.0
539.141724	39.0
539.217834	24.0
539.245544	70.0
539.768188	20.0
539.901855	35.0
540.081848	54.0
540.265198	34.0
540.465576	107.0
540.736694	21.0
540.919983	20.0
541.058105	20.0
541.095032	51.0
541.14978	31.0
541.688416	18.0
542.320984	49.0
542.351196	58.0
542.386658	68.0
543.325684	42.0
543.444153	50.0
544.177124	73.0
544.822998	24.0
545.502075	109.0
545.85498	104.0
546.4599	34.0
546.689026	24.0
547.302124	78.0
547.631287	49.0
548.056152	46.0
548.924316	47.0
549.540222	38.0
549.625671	27.0
549.739075	22.0
549.799622	57.0
550.042725	20.0
550.167664	67.0
550.505676	72.0
550.650879	86.0
550.730652	25.0
550.840088	20.0
550.907532	28.0
550.928345	24.0
551.469421	31.0
551.963379	39.0
552.154175	36.0
552.443787	18.0
552.862488	122.0
553.14032	34.0
553.209167	49.0
553.508728	36.0
553.786072	25.0
553.998291	69.0
554.051636	61.0
554.139221	47.0
554.740906	21.0
554.84967	33.0
555.306885	20.0
555.647095	63.0
555.772644	118.0
555.812622	33.0
555.886169	26.0
556.123657	29.0
556.256897	52.0
556.47522	458.0
556.669983	33.0
556.691833	24.0
556.828796	26.0
556.889954	18.0
556.988159	19.0
557.824951	27.0
557.866394	40.0
557.934998	46.0
558.142822	29.0
558.488708	18.0
558.51062	27.0
558.752808	28.0
559.31958	39.0
559.399841	41.0
560.727417	28.0
560.88446	53.0
561.047974	104.0
561.374146	31.0
561.676636	124.0
561.763	27.0
561.909424	27.0
562.038086	21.0
562.509521	20.0
562.718323	59.0
562.929993	18.0
563.174927	33.0
563.676453	31.0
564.094666	82.0
564.153076	39.0
564.875427	47.0
564.934021	20.0
564.975586	27.0
566.324463	19.0
566.602905	59.0
566.626709	26.0
566.783691	42.0
566.835266	102.0
566.989258	50.0
567.283569	69.0
567.666199	24.0
567.770508	37.0
567.878906	23.0
567.973206	23.0
568.021057	19.0
568.088562	67.0
568.504272	26.0
568.780762	62.0
568.983826	18.0
569.227844	41.0
569.48291	43.0
569.631165	24.0
569.771179	18.0
570.027649	27.0
570.467285	35.0
570.887024	40.0
570.977905	62.0
571.124084	20.0
571.304443	69.0
571.424072	23.0
571.486633	78.0
572.36731	39.0
572.437988	50.0
572.710083	45.0
572.736084	35.0
572.864624	25.0
572.943481	20.0
573.173401	73.0
573.344788	102.0
573.569031	47.0
573.591248	24.0
573.685913	39.0
573.716248	19.0
573.750244	20.0
574.247498	92.0
574.304443	19.0
574.579285	30.0
574.744385	18.0
575.019714	36.0
575.441711	18.0
575.679077	70.0
575.949219	45.0
576.023621	36.0
576.161377	33.0
576.386963	19.0
576.622192	34.0
576.649658	26.0
576.890564	30.0
577.625916	20.0
577.873352	44.0
578.387207	20.0
578.530273	54.0
578.625488	30.0
578.704102	43.0
578.749878	31.0
578.917297	46.0
578.956238	44.0
579.389465	21.0
579.714417	41.0
580.085266	24.0
580.215881	21.0
580.702515	47.0
580.948975	68.0
581.204895	40.0
581.394592	24.0
581.599915	22.0
581.950989	79.0
582.237488	46.0
582.770569	38.0
582.831848	44.0
583.116821	29.0
583.307373	18.0
583.524597	33.0
583.802551	42.0
583.989075	21.0
584.268372	38.0
585.121765	115.0
585.808105	53.0
586.475464	42.0
587.332397	20.0
587.602661	21.0
587.753174	30.0
587.835083	28.0
588.003235	37.0
588.820129	20.0
588.842346	95.0
588.978027	62.0
589.386658	34.0
589.420654	21.0
590.406494	33.0
590.789185	32.0
590.857056	41.0
590.939148	102.0
591.742676	27.0
592.291565	32.0
592.46637	138.0
592.908691	47.0
593.901001	25.0
594.156616	21.0
594.589539	20.0
594.964905	99.0
595.00293	20.0
595.173096	38.0
595.563599	80.0
595.729126	18.0
595.909607	42.0
596.630066	32.0
596.736328	20.0
596.893494	34.0
598.861023	20.0
599.809937	36.0
600.66803	65.0
600.800476	18.0
601.053284	41.0
601.81842	42.0
602.272278	23.0
602.365234	22.0
603.339783	45.0
603.361206	60.0
604.013123	20.0
604.942444	45.0
605.215393	21.0
605.726685	20.0
606.153503	69.0
606.814819	18.0
606.853394	19.0
606.925659	41.0
607.047668	24.0
607.117065	94.0
607.390076	43.0
607.541138	64.0
608.091064	39.0
609.127014	18.0
609.379883	34.0
609.418884	46.0
609.726807	20.0
610.220337	34.0
610.531006	156.0
610.581787	21.0
611.833679	32.0
612.939392	50.0
613.095947	45.0
613.808899	22.0
613.829895	30.0
614.050659	34.0
614.088501	69.0
615.253662	18.0
616.249146	39.0
616.628113	27.0
616.658875	43.0
617.033264	29.0
617.143127	20.0
617.652771	33.0
617.694458	74.0
617.841675	23.0
618.033508	22.0
619.359375	44.0
619.621521	20.0
619.9151	48.0
620.014343	25.0
620.695923	24.0
621.567444	53.0
622.685181	28.0
622.900452	37.0
624.763	30.0
624.825012	73.0
624.922913	36.0
624.948181	21.0
625.05542	41.0
625.124634	77.044495
625.80957	22.0
626.558716	26.0
626.812683	31.0
627.081055	50.0
627.794373	44.0
627.832764	52.0
628.207153	57.0
628.851685	37.0
628.983765	25.0
630.677246	25.0
631.445862	25.0
631.936401	48.06366
632.091492	31.0
634.905762	52.0
636.737488	32.0
637.585144	49.0
639.814026	28.0
640.297974	18.0
640.823242	20.0
640.87323	24.0
640.896118	62.0
640.93042	18.0
641.020935	28.0
641.653015	42.0
641.673706	27.0
641.744385	27.0
643.341736	33.0
643.542358	23.0
644.176208	19.0
644.958313	52.0
645.070312	20.0
645.458557	71.0
645.645203	40.0
646.696777	52.0
647.024658	39.0
647.581604	38.0
647.831848	24.0
648.490662	55.0
648.643127	41.0
648.852356	64.0
649.064087	20.0
649.224304	46.0
649.956299	25.0
649.982178	47.0
650.032654	25.0
650.119446	39.0
650.808472	47.0
650.910706	41.0
651.107178	121.0
651.142456	36.0
651.496704	40.0
652.705261	28.0
652.983215	121.0
653.108276	33.0
653.175171	54.0
653.822144	29.0
656.35376	41.0
656.485657	33.0
656.591309	33.0
656.796509	34.0
657.125916	88.0
657.257019	20.0
658.318298	25.0
658.449585	25.0
658.739868	20.0
659.319336	21.0
660.803833	31.0
662.022461	24.0
662.072937	29.0
662.563293	18.0
662.733276	32.0
662.830933	34.0
662.866821	30.0
662.89325	73.0
662.928711	105.0
662.967712	34.0
663.029785	30.0
663.069336	64.0
663.101013	18.0
663.138184	60.0
663.188171	47.0
663.266602	34.0
663.596069	43.0
663.663879	50.0
663.697144	26.0
663.759216	77.0
663.783691	33.0
663.848328	22.0
663.88678	30.0
664.002991	64.0
664.41272	20.0
664.718994	28.0
665.106934	24.0
665.143677	25.0
665.236267	27.0
665.762634	20.0
666.222168	25.0
666.588745	20.0
667.183594	47.0
667.38324	27.0
668.063416	34.0
668.404114	42.0
668.48114	34.0
668.70874	18.0
670.286743	20.0
670.383972	71.0
670.421143	52.0
672.736572	24.0
672.904846	48.0
673.578918	20.0
674.260498	56.0
675.15686	29.0
677.162537	30.0
677.419617	32.0
678.842834	25.0
679.041565	24.0
679.062988	18.0
679.090393	65.0
679.572754	27.0
679.669678	27.0
680.036804	35.0
680.116516	69.0
680.863953	32.0
680.924194	26.0
680.962036	27.0
681.019287	38.0
682.641541	20.0
683.893311	32.0
685.710632	32.0
685.853271	28.0
685.911865	29.0
686.218079	20.0
686.503418	45.0
686.697266	26.0
688.198059	33.0
689.893677	24.0
690.643555	24.0
690.881897	34.0
690.929871	24.0
691.123047	19.0
691.639832	19.0
691.720093	31.0
693.170776	22.0
693.520508	20.0
693.544922	55.0
693.716431	26.0
693.89325	22.0
694.099915	26.0
694.129761	930.005859
694.162048	25.0
694.183411	98.011658
694.229187	32.0
694.255859	150.0
694.336426	31.0
694.485718	29.0
694.861816	34.0
695.046082	25.0
695.106384	44.0
695.280396	31.0
695.697388	39.0
696.093445	30.0
696.203918	20.0
696.317017	59.0
696.3526	41.0
696.386414	19.0
696.418457	24.0
696.468689	54.0
696.534485	70.47229
696.565918	19.0
696.623596	153.822266
696.661926	70.0
696.703308	63.0
696.738403	25.0
696.783752	78.0
696.83667	22.0
696.873413	26.0
696.974487	24.0
697.011475	71.0
697.134277	18.0
697.224487	19.0
697.353027	24.0
697.373108	24.0
697.431641	21.0
697.486633	20.0
697.729614	55.0
697.8255	21.0
698.198364	33.0
698.233215	24.0
698.522461	21.0
698.607727	41.0
698.666504	41.0
698.728577	26.0
698.761414	33.0
698.913879	31.0
699.086792	52.0
699.163818	57.0
699.398376	33.0
699.486389	66.0
699.586609	40.0
701.215881	81.0
701.795898	29.0
701.850708	40.0
702.085754	31.0
702.21167	20.0
702.511963	33.0
702.688599	54.0
702.861694	33.0
703.34198	21.0
703.502869	18.0
703.72113	57.0
703.944946	20.0
704.00415	47.125397
704.5495	65.0
705.09613	46.0
705.506409	18.0
705.673584	23.0
706.162476	53.0
706.212769	30.0
706.309265	22.0
706.435181	48.0
706.775208	20.0
706.815247	30.0
706.964233	42.0
707.121033	22.0
707.255005	36.0
707.286011	49.0
707.343567	49.0
707.379578	24.0
707.406921	38.0
707.447388	20.0
707.542969	28.0
707.673157	45.0
707.72699	49.0
707.759521	79.0
707.812317	27.0
707.879883	34.0
707.911682	32.0
707.970764	33.0
708.042969	77.4646
708.107178	26.0
708.150635	196.0
708.200317	25.0
708.254456	47.0
708.304321	112.0
708.412537	64.0
708.452454	129.0
708.497437	81.230835
708.541687	118.430054
708.566467	74.0
708.607422	102.88739
708.645752	104.474976
708.704956	250.0
708.75708	40.0
708.804565	34.0
708.844421	546.026855
708.88208	182.280151
708.920044	178.105835
708.940918	34.0
708.989075	412.318115
709.036377	3548.347656
709.081482	808.507324
709.12085	65.990173
709.153931	937069.5
709.195007	66.0
709.228821	3533.154297
709.27301	52307.15625
709.305542	33.601288
709.343018	667.984863
709.381165	45.0
709.423462	29801.234375
709.483154	1801.097656
709.526794	201.622437
709.561401	15643.453125
709.599915	69.610596
709.640259	15497.445312
709.692261	44.0
709.713623	172.0
709.777405	7122.976562
709.842468	41.0
709.884155	19.0
709.912842	157.0
709.963623	85.0
710.030273	34.0
710.066589	27.0
710.102478	42.382477
710.154785	3509.777344
710.203918	156.0
710.238892	180.048462
710.278687	242.293335
710.373352	21.0
710.41394	29.0
710.47522	20.0
710.513733	26.0
710.550049	20.0
710.627319	43.0
710.687805	36.0
710.743591	119.0
710.786499	291.506348
710.817444	27.0
710.847839	206.206421
710.905273	322.417725
710.953003	5741.828125
711.028442	490.331055
711.062683	124.0
711.095642	2841.634766
711.154419	475.295898
711.210022	82.406067
711.257751	21.0
711.335022	44.0
711.388855	18.0
711.570618	30.0
711.630066	22.0
711.684448	53.0
711.729004	25.0
711.774658	18.0
711.838684	19.0
711.885254	24.0
711.990356	20.0
712.058899	18.0
712.09436	92.0
712.160461	117.380066
712.200378	222.452881
712.235596	21.0
712.305481	24.0
712.349487	45.0
712.405884	33.0
712.462341	42.0
712.55426	93.610291
712.633789	20.0
712.700439	42.0
712.75708	116.0
712.794006	31.0
712.844727	33.0
712.891052	26.0
712.958862	22.0
713.028503	40.0
713.052246	57.0
713.105835	67.555054
713.148438	18.0
713.239807	46.0
713.314087	19.0
713.511169	39.0
713.658936	23.0
713.98822	24.0
714.107727	45.0
714.165894	44.0
714.236267	21.0
714.265137	20.0
714.29718	61.0
714.353882	21.0
714.396179	39.0
714.426331	92.0
714.465942	28.0
714.559082	27.0
714.61322	25.0
714.647949	33.0
714.759216	27.0
714.787842	38.0
714.888062	84.0
715.045166	18.0
715.152283	24.0
715.30188	24.0
715.336853	31.0
715.416016	39.0
715.453735	18.0
715.473816	25.0
715.50293	29.0
715.547302	19.0
715.592407	23.0
715.629883	31.0
715.673035	22.0
715.715271	48.0
715.75116	22.0
715.773865	59.278381
715.798828	67.0
715.84436	46.0
716.018127	19.0
716.038513	23.0
716.074768	18.0
716.357056	22.0
716.673889	34.0
716.755859	72.0
717.037476	19.0
717.167053	42.0
717.397827	18.0
717.572449	30.0
717.652039	22.0
717.789246	26.0
717.857788	30.0
717.914917	21.0
718.365234	19.0
718.536804	36.0
718.833557	21.0
718.897583	40.0
718.941284	26.0
719.047546	56.0
719.211487	20.0
719.241577	24.0
719.304138	49.0
719.495911	41.0
719.539124	24.0
719.725403	50.0
719.864563	35.0
719.928284	23.0
719.979797	21.0
720.010742	18.0
720.053772	24.0
720.079712	68.0
720.216675	28.0
720.268494	26.0
720.440247	57.293915
720.472351	18.0
720.836548	27.0
721.016724	30.0
721.044006	18.0
721.188843	19.0
721.221985	21.0
721.620972	20.0
722.011658	125.0
722.121155	24.0
722.249023	25.0
722.308838	18.0
722.526855	24.0
722.576904	18.0
723.46344	21.0
723.684326	41.0
723.814941	25.0
724.796387	41.0
724.91748	39.0
725.06604	73.651489
725.129456	69.0
725.18103	23.0
725.21814	52.0
725.26001	33.0
725.711426	121.0
726.089966	20.0
726.122986	20.0
726.656555	24.0
727.139465	109.0
727.167542	53.0
727.684021	34.0
728.033386	36.0
728.099548	20.0
728.563416	20.0
729.299927	19.0
729.722656	71.0
729.819824	23.0
730.466614	22.0
730.622314	23.0
730.798645	26.0
731.094666	54.0
731.127319	55.0
732.129089	22.0
732.427612	26.0
733.103333	31.0
735.05365	24.0
736.76001	44.0
736.989624	19.0
737.199768	20.0
739.061768	28.0
740.036987	24.0
740.061401	24.0
741.058472	95.0
741.993591	87.0
742.112366	19.0
742.15033	58.0
742.546936	37.0
742.945129	54.0
743.088867	92.273926
743.145996	36.0
744.080627	29.0
744.116394	23.0
744.914673	49.0
745.096497	63.0
745.381897	20.0
745.432861	30.0
745.961609	34.0
746.086243	41.0
746.287781	24.0
747.100464	38.0
747.793213	20.0
748.213623	25.0
749.094727	35.0
749.145996	29.0
749.206116	26.0
749.563354	18.0
750.250977	56.0
750.824463	21.0
751.024475	30.0
753.379639	31.0
754.482056	38.0
754.853394	20.0
755.18927	42.0
756.149536	40.0
757.611206	56.0
757.92572	34.0
758.361328	27.0
759.116333	25.0
759.235535	18.0
762.072998	32.0
764.046509	18.0
765.046814	24.0
765.066956	71.0
766.625366	32.0
768.141724	40.0
768.595337	25.0
769.370667	26.0
771.125916	18.0
772.007019	34.0
772.160889	66.0
773.97345	19.0
774.853027	54.0
774.97644	21.0
775.661499	130.0
776.644653	20.0
776.9646	30.0
778.095215	38.0
778.129639	50.0
779.907959	20.0
780.114807	19.0
782.080688	24.0
782.371338	20.0
782.556396	54.0
784.922363	33.0
784.947693	57.0
786.516296	38.0
787.126831	26.0
787.393066	57.0
788.208252	24.0
789.072021	96.0
789.09729	22.0
789.141724	37.0
789.608521	22.0
790.111328	33.0
790.250732	25.0
792.102051	21.0
792.140747	24.0
793.119324	24.0
793.623657	27.0
794.066162	95.0
795.215271	131.0
795.996521	20.0
END IONS

BEGIN IONS
PEPMASS=469.075
CHARGE=1
MSLEVEL=2
SOURCE_INSTRUMENT=ESI-qTof
FILENAME=MSV000079274/ccms_peak/plate22/1151.D_RG11_01_5307.mzXML
SEQ=*..*
IONMODE=Positive
ORGANISM=GNPS-NIST14-MATCHES
NAME=Spectral Match to Cromolyn from NIST14 M+H
PI=Data from P.Dorrestein
DATACOLLECTOR=Data deposited by amelnik
SMILES=C1=CC2=C(C(=C1)OCC(COC3=CC=CC4=C3C(=O)C=C(O4)C(=O)O)O)C(=O)C=C(O2)C(=O)O
INCHI=InChI=1S/C23H16O11/c24-11(9-31-14-3-1-5-16-20(14)12(25)7-18(33-16)22(27)28)10-32-15-4-2-6-17-21(15)13(26)8-19(34-17)23(29)30/h1-8,11,24H,9-10H2,(H,27,28)(H,29,30)
INCHIAUX=N/A
PUBMED=N/A
SUBMITUSER=mwang87
LIBRARYQUALITY=3
SPECTRUMID=CCMSLIB00003134785
USI=mzspec:GNPS:GNPS-NIST14-MATCHES:accession:CCMSLIB00003134785
SCANS=1171
147.043732	544.0
206.021942	520.0
207.028534	6912.0
208.030029	624.0
217.049118	796.0
219.031448	548.0
233.044312	804.0
245.044769	4504.0
246.048462	636.0
263.05545	1540.0
467.240692	472.0
END IONS

BEGIN IONS
PEPMASS=337.21
CHARGE=1
MSLEVEL=2
SOURCE_INSTRUMENT=ESI-qTof
FILENAME=MSV000079568/ccms_peak/137ST_10uM_160211160005.mzXML
SEQ=*..*
IONMODE=Positive
ORGANISM=GNPS-NIST14-MATCHES
NAME=Spectral Match to Acebutolol from NIST14 M+H
PI=Data from Pieter Dorrestein
DATACOLLECTOR=Data deposited by amelnik
SMILES=CCCC(=O)NC1=CC(=C(C=C1)OCC(CNC(C)C)O)C(=O)C
INCHI=InChI=1S/C18H28N2O4/c1-5-6-18(23)20-14-7-8-17(16(9-14)13(4)21)24-11-15(22)10-19-12(2)3/h7-9,12,15,19,22H,5-6,10-11H2,1-4H3,(H,20,23)
INCHIAUX=N/A
PUBMED=N/A
SUBMITUSER=mwang87
LIBRARYQUALITY=3
SPECTRUMID=CCMSLIB00003135332
USI=mzspec:GNPS:GNPS-NIST14-MATCHES:accession:CCMSLIB00003135332
SCANS=2128
86.096909	14884.44043
98.096786	352715.28125
114.091469	14427.467773
116.107178	1191185.375
118.64415	2339.469727
148.075378	13773.333984
158.085098	2640.249268
172.075455	3214.214844
180.100845	4523.92627
183.882751	2979.962402
190.086349	4268.182617
198.658966	2687.091309
216.103241	2619.771729
218.11731	70851.390625
222.111969	26623.138672
230.11763	3206.553467
232.133408	3250.435059
234.113602	4623.084961
235.14389	4872.454102
242.117065	5386.728027
244.132065	5940.45752
248.128021	16452.746094
260.127747	182002.4375
275.174591	10308.795898
277.154327	16245.543945
277.192383	3427.435547
278.137543	11343.330078
295.167206	5082.939453
295.20166	3358.497803
319.201172	342124.15625
337.211731	951353.375
END IONS

BEGIN IONS
PEPMASS=150.112
CHARGE=1
MSLEVEL=2
SOURCE_INSTRUMENT=ESI-qTof
FILENAME=MSV000078658/ccms_peak/s103-v312.mgf
SEQ=*..*
IONMODE=Positive
ORGANISM=GNPS-NIST14-MATCHES
NAME=Spectral Match to Triethanolamine from NIST14 M+H
PI=Data from Maria Maansson
DATACOLLECTOR=Data deposited by marjo
SMILES=C(CO)N(CCO)CCO
INCHI=InChI=1S/C6H15NO3/c8-4-1-7(2-5-9)3-6-10/h8-10H,1-6H2
INCHIAUX=N/A
PUBMED=N/A
SUBMITUSER=mwang87
LIBRARYQUALITY=3
SPECTRUMID=CCMSLIB00003135968
USI=mzspec:GNPS:GNPS-NIST14-MATCHES:accession:CCMSLIB00003135968
SCANS=19
44.048653	84.099998
45.032875	228.141235
70.064415	265.10083
72.083694	12.183824
86.096924	35.398586
88.075783	315.494415
106.084358	36.512501
114.090401	77.17794
132.10054	302.322906
132.407379	8.45
150.112	672.979614
456.184784	161.543549
END IONS

BEGIN IONS
PEPMASS=245.057
CHARGE=1
MSLEVEL=2
SOURCE_INSTRUMENT=ESI-qTof
FILENAME=MSV000080604/ccms_peak/1703_Pesticides_standards_QExactive/Positive/Pesticide_Mix2_pos.mzXML
SEQ=*..*
IONMODE=Positive
ORGANISM=GNPS-NIST14-MATCHES
NAME=Spectral Match to Butoxycarboxim from NIST14 M+Na
PI=Data from Pieter Dorrestein;David Touboul
DATACOLLECTOR=Data deposited by lfnothias
SMILES=CC(/C(=N/OC(=O)NC)/C)S(=O)(=O)C
INCHI=InChI=1S/C7H14N2O4S/c1-5(6(2)14(4,11)12)9-13-7(10)8-3/h6H,1-4H3,(H,8,10)/b9-5+
INCHIAUX=N/A
PUBMED=N/A
SUBMITUSER=mwang87
LIBRARYQUALITY=3
SPECTRUMID=CCMSLIB00003136034
USI=mzspec:GNPS:GNPS-NIST14-MATCHES:accession:CCMSLIB00003136034
SCANS=690
70.065498	4031.397705
74.081848	3817.039795
75.13488	4132.390625
82.223572	4199.691895
82.612137	3779.047852
82.637428	4279.599121
85.656265	3783.600342
85.794228	4251.539062
87.448753	4295.296875
90.325195	4001.942627
92.04718	155707.171875
93.131424	4188.634766
94.223404	4297.563477
95.234344	4254.938965
96.897285	3933.000244
99.091881	9151.788086
99.546524	4345.942383
99.585396	3906.875244
101.395348	3868.356934
102.982635	277369.40625
106.078407	4055.921143
108.042152	89274.921875
109.049965	405336.4375
118.762985	4354.528809
130.006027	2325384.5
139.281311	4765.705078
144.021988	112079.375
148.016525	22894.066406
150.479706	4334.581055
161.883087	4428.930176
161.995972	6461.090332
165.063919	153513.484375
166.071808	549686.5625
170.024887	35375.554688
171.032959	50711.121094
178.101379	4468.174316
181.058411	7080.697754
188.035202	63718.789062
197.114319	4596.679688
203.500565	4623.461426
219.547073	4126.713867
223.282135	3986.726562
229.573639	4326.169434
238.700867	4331.026855
239.003738	4472.770508
245.056854	3891130.75
END IONS

BEGIN IONS
PEPMASS=185.107
CHARGE=1
MSLEVEL=2
SOURCE_INSTRUMENT=ESI-qTof
FILENAME=MSV000080142/ccms_peak/LIM-Target-ID_mzxml/Plate1_G2.mzXML
SEQ=*..*
IONMODE=Positive
ORGANISM=GNPS-NIST14-MATCHES
NAME=Spectral Match to 1,4-Benzenediamine, N-phenyl- from NIST14 M+H
PI=Data from James McKerrow
DATACOLLECTOR=Data deposited by daniel
SMILES=C1=CC=C(C=C1)NC2=CC=C(C=C2)N
INCHI=InChI=1S/C12H12N2/c13-10-6-8-12(9-7-10)14-11-4-2-1-3-5-11/h1-9,14H,13H2
INCHIAUX=N/A
PUBMED=N/A
SUBMITUSER=mwang87
LIBRARYQUALITY=3
SPECTRUMID=CCMSLIB00003138733
USI=mzspec:GNPS:GNPS-NIST14-MATCHES:accession:CCMSLIB00003138733
SCANS=824
77.038483	1837.607422
79.020592	1195.822388
79.054588	10927.236328
80.049973	1081.724976
81.000618	977.129883
81.069817	2499.98999
83.049545	1142.20813
83.085457	4033.54541
84.080612	1939.80249
84.9599	39221.375
84.965096	1052.296265
86.096527	5315.935059
86.430916	905.915833
88.021767	10848.5625
90.948082	2493.228027
92.049675	35008.476562
93.05735	381588.40625
94.060677	21974.330078
95.048882	1356.325439
95.085808	1888.134033
97.065132	22481.761719
102.970352	10782.670898
105.934639	1618.9375
107.049202	9527.80957
107.060455	56580.890625
107.085709	6678.310059
108.068054	57807.183594
109.064705	7852.432129
109.071182	4827.075195
109.101448	1420.894409
111.043457	28981.535156
111.080132	5268.952148
113.963509	1744.290894
114.956619	4061.828857
115.963951	1698.336182
116.001862	1751.255493
116.952179	1145.678833
116.971375	4684.383789
117.979813	8301.688477
118.966972	1078.946533
119.975227	1843.727051
120.981117	6987.009766
121.064545	1132.421631
121.101196	6563.368164
122.104752	1455.063232
123.080681	2207.025635
123.116951	1744.755981
123.945282	4428.188965
124.086761	2000.77478
125.059982	36371.101562
125.095886	2415.284912
125.960327	1070.213745
126.054245	1418.936279
126.062302	3505.538086
128.9505	4141.813477
129.102036	1146.234985
132.967224	1680.866577
134.011749	4590.163574
135.007599	1484.161011
135.043213	27393.556641
135.94548	1854.482544
136.047775	2309.875
139.074615	5793.887695
139.111969	4150.114258
140.528046	1000.844116
143.069717	14147.901367
143.996262	3936.243652
144.081528	1372.395264
146.028595	1217.495972
146.962021	2063.810059
149.095749	3847.36377
151.112198	1349.387451
153.054932	12046.419922
155.071777	1160.515625
162.007523	13994.685547
163.114349	2275.197021
163.939316	6819.197754
166.064484	2033.719482
167.071899	27096.082031
167.106628	6763.663086
168.080017	150100.546875
168.096588	1299.991943
169.084824	23674.060547
172.077133	1186.815918
180.0177	1470.771484
181.950699	5541.461914
183.089813	2276.888428
184.099731	208720.53125
185.105957	898260.125
186.111069	158455.53125
186.185257	18263.277344
187.12767	7797.810059
END IONS

BEGIN IONS
PEPMASS=359.2
CHARGE=1
MSLEVEL=2
SOURCE_INSTRUMENT=ESI-qTof
FILENAME=MSV000079069/ccms_peak/Octopus_Project_Part2/150220_EF_PMA_PSN476_PM-88-8-f_ddMS2_pos.mzXML
SEQ=*..*
IONMODE=Positive
ORGANISM=GNPS-NIST14-MATCHES
NAME=Spectral Match to 2-tert-Butyl-4-(5-tert-butyl-4-hydroxy-2-methylphenyl)sulfanyl-5-methylphenol from NIST14 M+H
PI=Data from Wolfender/Litaudon
DATACOLLECTOR=Data deposited by pmallard
SMILES=CC1=CC(=C(C=C1SC2=CC(=C(C=C2C)O)C(C)(C)C)C(C)(C)C)O
INCHI=InChI=1S/C22H30O2S/c1-13-9-17(23)15(21(3,4)5)11-19(13)25-20-12-16(22(6,7)8)18(24)10-14(20)2/h9-12,23-24H,1-8H3
INCHIAUX=N/A
PUBMED=N/A
SUBMITUSER=mwang87
LIBRARYQUALITY=3
SPECTRUMID=CCMSLIB00003139496
USI=mzspec:GNPS:GNPS-NIST14-MATCHES:accession:CCMSLIB00003139496
SCANS=3855
53.188965	2143.486084
55.054928	11001.775391
56.187614	2213.525879
57.067844	3513.199219
57.070568	71812.070312
64.211082	12626.980469
64.214859	19388.875
69.034096	58530.050781
69.070282	2557.143311
70.835442	2349.065918
71.085915	2666.378662
71.435959	2402.656738
75.026886	2547.816895
83.928177	2441.195312
87.026711	61459.277344
91.05455	11505.195312
93.070183	4010.927979
95.085724	5575.210938
105.07019	12134.272461
106.567642	3059.741455
107.049393	4137.605957
109.065208	19101.533203
111.026703	11383.910156
111.043037	2454.363281
114.091591	3824.366455
119.085884	3641.713135
121.064903	12525.853516
123.117172	2845.022217
125.041962	4212.734375
133.101257	81368.328125
134.108047	3232.582031
135.080627	4475.521484
137.096329	3584.964355
139.021164	609786.0625
139.057648	12022.547852
140.024429	21760.699219
141.036865	5014.453613
143.085556	4109.011719
145.064499	3853.260986
147.080215	17714.417969
147.630753	2784.741943
148.084854	3118.722412
149.095963	37546.214844
150.09938	3580.156738
151.021378	15941.578125
151.056671	3089.134033
153.036713	203205.03125
153.072449	19405.462891
154.04007	10802.973633
155.033539	4009.782715
161.096054	88661.632812
162.103836	98144.125
163.110321	14630.183594
164.117935	2850.855469
167.051941	18703.060547
167.088715	35364.777344
177.073227	10868.724609
178.044052	4742.993164
179.052338	222020.625
180.056213	48869.710938
181.048645	3911.058105
193.067963	90685.039062
194.075699	83797.367188
195.083725	949563.75
196.071289	3130.256592
196.08728	78268.140625
197.079498	5594.318359
232.233475	2974.09082
245.06189	3002.769775
247.078857	4305.514648
259.07785	3604.341064
276.611084	2766.854492
279.253845	2359.62207
287.109802	22584.878906
288.113831	6080.350586
302.129913	5164.035645
306.834045	2547.542969
315.140625	38142.75
316.144135	18163.068359
326.165985	2880.447998
343.172394	1458907.625
344.175598	825855.75
345.173035	79501.640625
358.195831	985667.0
359.199036	587181.5625
360.194672	56769.039062
END IONS

BEGIN IONS
PEPMASS=302.109
CHARGE=1
MSLEVEL=2
SOURCE_INSTRUMENT=ESI-qTof
FILENAME=MSV000080616/ccms_peak/Positive_MS2_17k/Pesticide_Mix6_pos_14k.mzXML
SEQ=*..*
IONMODE=Positive
ORGANISM=GNPS-NIST14-MATCHES
NAME=Spectral Match to Flutriafol from NIST14 M+H
PI=Data from Pieter Dorrestein;David Touboul
DATACOLLECTOR=Data deposited by lfnothias
SMILES=C1=CC=C(C(=C1)C(CN2C=NC=N2)(C3=CC=C(C=C3)F)O)F
INCHI=InChI=1S/C16H13F2N3O/c17-13-7-5-12(6-8-13)16(22,9-21-11-19-10-20-21)14-3-1-2-4-15(14)18/h1-8,10-11,22H,9H2
INCHIAUX=N/A
PUBMED=N/A
SUBMITUSER=mwang87
LIBRARYQUALITY=3
SPECTRUMID=CCMSLIB00003140117
USI=mzspec:GNPS:GNPS-NIST14-MATCHES:accession:CCMSLIB00003140117
SCANS=2108
70.040459	5837046.0
75.023064	4832.172852
86.241104	5256.934082
109.044594	547758.0625
113.039413	24917.6875
120.000565	4947.72168
120.008049	5357.653809
123.024063	1411983.625
123.034462	14126.424805
137.039352	116044.953125
195.060135	12043.567383
215.065384	36850.242188
233.076706	385705.75
237.215118	5095.918457
288.443878	5376.35791
302.107147	932430.375
END IONS

BEGIN IONS
PEPMASS=1127.4
CHARGE=1
MSLEVEL=2
SOURCE_INSTRUMENT=ESI-qTof
FILENAME=emgentry/RBAs_POS_mzXML_including_add32/BA14_BB4_01_17237.mzXML
SEQ=*..*
IONMODE=Positive
ORGANISM=BILELIB19
NAME="(4R)-4-((3R,5S,7R,9S,10S,13R,14S,17R)-10,13-dimethyl-3,7-bis(sulfooxy)hexadecahydro-1H-cyclopenta[a]phenanthren-17-yl)pentanoic acid" 2M+Na
PI=Dorrestein
DATACOLLECTOR=Emily Gentry
SMILES=[H][C@@]1([C@H](OS(=O)(O)=O)C[C@H]2[C@]3(C)CC[C@@H](OS(=O)(O)=O)C2)[C@@H]3CC[C@@]4(C)[C@H]1CC[C@@H]4[C@@H](CCC(O)=O)C
INCHI="InChI=1S/C24H40O10S2/c1-14(4-7-21(25)26)17-5-6-18-22-19(9-11-24(17,18)3)23(2)10-8-16(33-35(27,28)29)12-15(23)13-20(22)34-36(30,31)32/h14-20,22H,4-13H2,1-3H3,(H,25,26)(H,27,28,29)(H,30,31,32)/t14-,15+,16-,17-,18+,19+,20-,22+,23+,24-/m1/s1"
INCHIAUX=N/A
PUBMED=
SUBMITUSER=mpanitchpakdi
LIBRARYQUALITY=1
SPECTRUMID=CCMSLIB00005464836
USI=mzspec:GNPS:BILELIB19:accession:CCMSLIB00005464836
SCANS=929
97.067108	80.0
195.136856	86.0
201.146088	86.0
204.17746	71.0
247.170135	83.0
257.222687	77.0
261.181671	109.0
339.266388	219.0
357.277405	4999.0
358.280762	1943.0
359.288422	213.0
374.302307	1224.0
375.307983	480.0
376.30545	221.0
379.259766	32983.0
379.900482	77.0
380.263367	8661.0
380.722504	85.0
381.268066	1147.0
392.31723	744.0
393.294006	100.0
393.332764	84.0
397.269073	9502.0
398.276642	2235.0
399.280029	304.0
415.187439	74.0
415.279755	257.0
420.292206	89.0
464.279327	281.0
472.272766	261.0
473.276642	115.0
474.2677	154.0
477.107361	69.0
477.228821	6409.0
478.231934	1650.0
479.229523	801.0
482.307159	155.0
490.2771	178.0
493.195465	242.0
494.186554	184.0
495.236847	2205.0
496.242126	925.0
497.24472	213.0
500.30365	172.0
511.213104	183.0
513.267395	73.0
575.198914	398.0
576.2099	178.0
591.145325	124.0
592.15625	92.0
593.207275	413.0
594.221069	90.0
609.180664	199.0
611.175232	90.0
673.145447	68.0
735.532227	176.0
736.527283	75.0
753.53656	145.0
771.557434	79.0
835.519897	78.0
849.472473	172.0
850.463257	311.0
851.512756	425.0
852.505188	130.0
869.51178	222.0
870.543884	123.0
871.526733	115.0
947.440796	190.0
948.432556	181.0
949.46936	191.0
950.480896	77.0
951.478882	107.0
967.515076	79.0
968.495178	83.0
1047.522949	77.0
1048.466675	76.0
END IONS

BEGIN IONS
PEPMASS=117.091
CHARGE=1
MSLEVEL=2
SOURCE_INSTRUMENT=ESI-Orbitrap
FILENAME=Marynka_MassSpecGirl/STD_POS/compound_acetic_acid_butyl_ester_urine_pos_rep1.mzML
SEQ=*..*
IONMODE=Positive
ORGANISM=GNPS-NUTRI-METAB-FEM-POS
NAME=acetic_acid_butyl_ester M+H
PI=Ulaszewska
DATACOLLECTOR=Marynka Ulaszewska
SMILES=CCCCOC(=O)C
INCHI=InChI=1S/C6H12O2/c1-3-4-5-8-6(2)7/h3-5H2,1-2H3
INCHIAUX=N/A
PUBMED=31272.0
SUBMITUSER=mpanitchpakdi
LIBRARYQUALITY=1
SPECTRUMID=CCMSLIB00006673886
USI=mzspec:GNPS:GNPS-NUTRI-METAB-FEM-POS:accession:CCMSLIB00006673886
SCANS=145
53.850105	6667.436523
53.853371	11659.110352
53.859043	9319.545898
53.861515	18461.619141
53.864586	21412.654297
53.868088	22900.753906
53.870544	9109.511719
53.872765	29041.091797
53.875759	21540.3125
53.87962	28965.558594
53.883389	10951.075195
53.888332	23594.292969
53.891357	21209.681641
53.894066	14425.288086
53.898689	32107.083984
53.901093	30996.234375
53.903725	12793.964844
53.908321	10008.25293
53.912663	19775.490234
53.917866	6025.832031
53.921253	15726.175781
53.924458	26693.96875
53.928795	4968.573242
53.930595	7257.562012
53.933231	9339.75293
53.935989	21032.152344
53.940147	10218.472656
53.941772	11490.679688
53.945343	5554.001953
53.947632	14704.957031
53.951611	11004.823242
53.953362	11662.926758
53.956882	6440.754883
53.959053	7085.739258
53.962902	10150.182617
53.964344	8495.712891
53.968109	5593.111816
53.971531	5322.766113
53.974556	7712.844238
53.976391	8498.050781
53.983788	4771.13623
53.985577	5466.513672
53.987999	6567.668945
53.998669	4230.566406
66.473488	3619.021729
67.182884	3795.039307
69.166969	4367.651367
69.175133	4845.6875
69.178963	6989.867188
69.184814	7559.598633
69.188133	6602.785156
69.191559	9771.320312
69.196007	12010.290039
69.198746	15109.414062
69.202019	18746.222656
69.208488	9213.696289
69.215225	10604.176758
69.218971	12417.401367
69.228889	20712.787109
69.23597	9069.319336
69.240219	7054.347168
69.243919	10836.94043
69.249924	17173.884766
69.257591	6212.869629
69.262253	11932.586914
69.266907	11515.079102
69.26931	10257.621094
69.280258	5792.929688
69.286636	10782.407227
69.302788	6466.586426
69.306961	6762.62793
69.319878	5687.572754
69.323494	4085.921143
69.336983	4025.157227
69.340378	3881.266602
69.714394	3825.881104
70.783142	3700.556885
73.905212	4298.892578
82.472626	4241.947754
84.810104	4275.232422
85.322823	4622.000977
85.336304	12864.548828
85.350494	4709.679688
88.577057	5303.399414
92.095978	6283.556641
92.1045	5276.868164
92.115875	5764.94873
92.121284	14379.817383
92.128983	13335.249023
92.135399	3063.802002
92.140205	3953.482422
92.146713	9070.53418
92.154343	7681.475098
92.162613	9106.488281
92.176704	5743.61377
92.185791	11444.585938
92.199905	8398.725586
92.20459	7394.927246
92.211563	8307.884766
92.216972	3772.190674
92.224396	6642.606445
92.230804	8836.463867
92.242287	4435.006836
92.249657	7658.406738
92.256203	9050.105469
92.282219	6030.033691
98.954468	3813.54541
100.276924	4404.259766
100.5075	4619.057129
114.788498	4577.920898
116.807022	3606.234375
128.663971	7829.303223
128.672958	6998.741211
128.694305	7848.47168
128.709	7851.29248
128.741211	6822.602051
128.756027	9651.641602
128.778824	5943.638184
128.79628	5644.973633
128.813065	4010.736328
128.821274	6838.887207
128.862198	4142.606934
END IONS

BEGIN IONS
PEPMASS=255.157
CHARGE=1
MSLEVEL=2
SOURCE_INSTRUMENT=ESI-Orbitrap
FILENAME=Marynka_MassSpecGirl/STD_POS/compound_acetic_acid_isobutyl_ester_urine_pos_rep1.mzML
SEQ=*..*
IONMODE=Positive
ORGANISM=GNPS-NUTRI-METAB-FEM-POS
NAME=acetic_acid_isobutyl_ester 2M+Na
PI=Ulaszewska
DATACOLLECTOR=Marynka Ulaszewska
SMILES=CC(C)COC(=O)C
INCHI=InChI=1S/C6H12O2/c1-5(2)4-8-6(3)7/h5H,4H2,1-3H3
INCHIAUX=N/A
PUBMED=8038.0
SUBMITUSER=mpanitchpakdi
LIBRARYQUALITY=1
SPECTRUMID=CCMSLIB00006673888
USI=mzspec:GNPS:GNPS-NUTRI-METAB-FEM-POS:accession:CCMSLIB00006673888
SCANS=1014
65.624634	4184.601074
65.991486	5100.36377
66.021851	3982.693604
68.034256	5395.903809
68.042702	5140.377441
68.051773	8402.892578
68.056259	12197.019531
68.058342	11608.987305
68.064278	12399.991211
68.067551	17386.400391
68.070656	11802.743164
68.073677	17702.037109
68.079933	4006.915039
68.082626	14706.96875
68.087402	20750.435547
68.096573	12330.151367
68.101318	4390.016602
68.105606	8997.013672
68.111511	9381.230469
68.121254	14146.249023
68.130104	5256.895508
68.134605	12109.881836
68.140526	7394.398926
68.14621	7732.165039
68.150612	10842.904297
68.162727	4281.552246
68.167084	8916.054688
68.17437	4372.632812
68.183189	7096.188965
68.195709	4386.091797
68.200302	3835.799316
70.474365	4291.072266
84.821655	3616.849609
85.382675	5717.811523
85.39064	12081.310547
85.403755	5429.423828
88.757996	5963.029785
90.600601	6540.333496
90.605049	5705.574219
90.616302	7867.17041
90.625908	15682.037109
90.632271	10600.671875
90.639694	14191.125977
90.646278	11270.243164
90.66127	8717.935547
90.667351	4203.40625
90.6744	7835.11377
90.700256	8313.331055
90.703873	6200.76416
90.713211	5702.376465
90.719292	5823.404297
90.726151	6976.825195
90.738083	5586.305176
90.75325	6383.580078
90.763184	5498.588867
90.769997	3919.283936
94.009171	4229.295898
99.112694	4633.508789
109.101562	9575.834961
109.223373	3950.339111
111.242355	3712.75708
121.151764	3605.169434
126.529037	4408.125
126.549393	6853.754883
126.55806	4483.266602
126.56765	6845.12207
126.57872	9013.470703
126.591644	7037.991211
126.608086	7762.815918
126.621666	7089.277344
126.63224	5316.160156
126.648849	11214.260742
126.659088	5552.554688
126.692223	6539.776855
126.74173	5444.302246
139.075516	12430.492188
142.601486	3758.061768
149.13179	12854.494141
151.147293	6067.503906
188.452042	3709.643555
189.045258	7049.339844
189.071198	12187.208984
189.091614	6337.527832
189.121902	8648.307617
189.145416	13092.825195
189.201477	9257.685547
189.220184	9102.779297
189.283035	8828.674805
189.354797	5945.847656
193.160019	8993.875
195.137497	668790.75
199.70192	8196.354492
200.596237	9107.024414
214.472931	4757.920898
237.14772	14900.981445
263.342072	5475.772949
END IONS

BEGIN IONS
PEPMASS=173.154
CHARGE=1
MSLEVEL=2
SOURCE_INSTRUMENT=ESI-Orbitrap
FILENAME=Marynka_MassSpecGirl/STD_POS/compound_isoamyl_isovalerate_plasma_pos_rep1.mzML
SEQ=*..*
IONMODE=Positive
ORGANISM=GNPS-NUTRI-METAB-FEM-POS
NAME=isoamyl_isovalerate M+H
PI=Ulaszewska
DATACOLLECTOR=Marynka Ulaszewska
SMILES=CC(C)CCOC(=O)CC(C)C
INCHI=InChI=1S/C10H20O2/c1-8(2)5-6-12-10(11)7-9(3)4/h8-9H,5-7H2,1-4H3
INCHIAUX=N/A
PUBMED=12613.0
SUBMITUSER=mpanitchpakdi
LIBRARYQUALITY=1
SPECTRUMID=CCMSLIB00006674698
USI=mzspec:GNPS:GNPS-NUTRI-METAB-FEM-POS:accession:CCMSLIB00006674698
SCANS=1409
51.474346	7394.888184
51.477547	6487.868164
51.482418	8961.027344
51.485107	16402.773438
51.487984	23150.300781
51.490223	17194.253906
51.493114	21211.835938
51.498909	43925.394531
51.504692	36848.046875
51.509636	47327.636719
51.511574	4484.118652
51.515411	41707.761719
51.517914	27270.732422
51.520386	34662.28125
51.521828	36699.1875
51.524826	21647.140625
51.528488	21192.628906
51.531567	29900.992188
51.534439	30756.582031
51.536491	24108.146484
51.539501	15779.342773
51.542976	18702.5625
51.547226	22739.798828
51.5504	26829.642578
51.558834	26159.740234
51.56094	17998.191406
51.56443	6502.327637
51.566662	18379.916016
51.569542	29277.927734
51.575211	5912.911133
51.577393	16829.072266
51.580273	21547.623047
51.586021	9754.101562
51.588428	11759.150391
51.591232	16589.755859
51.598995	8286.246094
51.601974	12546.245117
51.607662	5753.45459
51.609665	7117.97168
51.612877	10747.027344
51.620522	6311.308594
51.62318	4695.703125
51.625298	3831.022949
51.697491	5095.687012
57.970917	4547.748047
57.973404	3840.782715
58.947636	4012.465088
61.57003	4322.235352
62.573895	4485.748535
65.45372	5617.75
66.126297	5827.330566
66.129379	8477.40332
66.13353	7648.691406
66.13678	9459.317383
66.14212	18932.8125
66.145355	14772.249023
66.151291	12646.830078
66.154236	9880.144531
66.158424	24437.417969
66.162888	17812.849609
66.166283	12264.520508
66.169334	24784.863281
66.172989	20837.058594
66.176064	8394.194336
66.179596	10644.786133
66.186066	10851.325195
66.190239	25594.931641
66.194275	17192.375
66.20108	12896.338867
66.205833	11189.180664
66.209236	8264.257812
66.21299	7748.460449
66.217079	16920.277344
66.225441	11659.463867
66.229996	8289.893555
66.233185	12548.40918
66.237747	6968.293457
66.241066	16100.077148
66.245445	9070.080078
66.248596	7698.728516
66.253387	8093.043945
66.256699	7509.304199
66.263779	8297.619141
66.269371	5377.708008
66.272484	6858.453125
66.279488	6725.685547
66.288757	6877.211426
66.293007	4432.347656
70.923645	11454.415039
71.085281	493638.75
74.45134	5457.865723
81.991508	5070.013672
82.01429	5511.239746
82.256409	4636.516602
85.487709	18234.177734
85.500809	7323.219727
88.054802	12090.708008
88.060028	7490.175781
88.069038	9694.331055
88.077698	19683.220703
88.085495	6465.111328
88.091553	18806.75
88.096992	15704.4375
88.102905	5073.194824
88.106293	5400.586914
88.11039	4936.05957
88.116249	10895.582031
88.123917	15758.529297
88.143562	9290.756836
88.153336	9166.446289
88.167221	17928.091797
88.172409	5521.336914
88.177826	7847.949707
88.191254	13649.121094
88.196716	7253.952637
88.214951	12709.736328
88.239464	8239.981445
88.262718	7576.871582
88.918983	6561.832031
95.89399	4514.736816
98.519371	6092.653809
103.075142	553869.0625
107.863647	4759.425293
115.190193	4564.952637
119.066277	4642.754883
122.978714	6423.255859
123.009399	14998.791992
123.030457	9667.112305
123.038193	8378.443359
123.046623	6970.699707
123.060707	9019.868164
123.068687	12594.136719
123.085457	5410.999023
123.100639	11216.498047
123.115501	10733.033203
123.155075	11214.191406
131.929214	8967.5625
132.25769	4567.258789
142.929214	7073.608398
149.84729	5214.888672
156.862717	10131.091797
158.859695	4898.751465
161.176743	5361.523926
167.532318	6163.735352
172.649719	4892.503906
183.729385	10132.217773
183.748245	16043.667969
183.768021	7264.087891
183.785934	10233.283203
183.820969	14204.205078
183.84079	5283.443848
183.857956	7049.841797
183.870117	6131.831543
183.899933	12057.850586
183.927856	15040.834961
183.975159	7768.823242
183.999893	9387.273438
184.050842	5116.040039
184.072922	7839.590332
184.145905	7696.624512
184.489441	5061.209473
END IONS

BEGIN IONS
PEPMASS=117.091
CHARGE=1
MSLEVEL=2
SOURCE_INSTRUMENT=ESI-Orbitrap
FILENAME=Marynka_MassSpecGirl/STD_POS/compound_isovaleric_acid_methyl_ester_plasma_pos_rep3.mzML
SEQ=*..*
IONMODE=Positive
ORGANISM=GNPS-NUTRI-METAB-FEM-POS
NAME=isovaleric_acid_methyl_ester M+H
PI=Ulaszewska
DATACOLLECTOR=Marynka Ulaszewska
SMILES=CC(C)CC(=O)OC
INCHI=InChI=1S/C6H12O2/c1-5(2)4-6(7)8-3/h5H,4H2,1-3H3
INCHIAUX=N/A
PUBMED=11160.0
SUBMITUSER=mpanitchpakdi
LIBRARYQUALITY=1
SPECTRUMID=CCMSLIB00006674753
USI=mzspec:GNPS:GNPS-NUTRI-METAB-FEM-POS:accession:CCMSLIB00006674753
SCANS=873
50.757412	3592.430176
51.970436	4517.049316
53.340614	4035.397461
53.343056	8232.771484
53.346489	7611.206055
53.351231	9448.048828
53.354309	22601.705078
53.356831	22116.128906
53.36129	10495.826172
53.363163	12180.217773
53.365688	32176.556641
53.367523	30514.46875
53.37056	6503.35498
53.374378	17758.154297
53.378483	11615.00293
53.381641	29612.556641
53.38739	31582.628906
53.391232	16834.931641
53.39357	14447.691406
53.396206	16659.181641
53.400417	14752.486328
53.405254	14406.3125
53.407272	12223.125
53.409584	13026.324219
53.411503	12007.410156
53.413837	16598.970703
53.416355	21401.712891
53.421021	5634.821289
53.423561	10180.857422
53.427303	20555.654297
53.430809	4883.079102
53.434917	11016.227539
53.438351	17581.638672
53.441525	6628.194336
53.44442	4761.066406
53.446362	6492.081055
53.44949	12589.125977
53.452618	5326.578613
53.456005	4299.545898
53.457508	5386.193848
53.460667	11420.231445
53.467041	4501.848145
53.468956	4384.209961
53.472172	6565.097168
53.483421	5524.010742
57.069481	113486.640625
59.04874	114917.125
63.345753	4008.243652
66.462906	4024.810791
68.523659	6533.478027
68.527977	13798.977539
68.533264	6511.912598
68.540321	16279.782227
68.544083	22214.457031
68.54995	7801.751953
68.553864	11940.260742
68.559982	11208.021484
68.565903	17892.083984
68.572121	17253.455078
68.577446	8257.883789
68.58461	10808.763672
68.588531	8158.054688
68.598122	12201.209961
68.600784	8196.9375
68.605652	5926.05127
68.607841	5767.833984
68.614113	14604.858398
68.619606	4112.15332
68.622047	5811.262207
68.625092	5113.841797
68.630623	13613.677734
68.635376	4604.057617
68.638443	4286.761719
68.64711	10609.928711
68.657997	4577.582031
68.663292	5930.389648
70.885864	3920.634033
73.064415	15389.916016
75.043945	6774.859863
83.313393	4073.959717
85.064423	74061.210938
85.376282	13269.882812
85.383583	6868.75293
85.404762	5160.643555
88.652824	6340.743164
89.059402	6241.144043
91.224174	4815.916992
91.228447	6162.878906
91.232964	5621.87793
91.239105	5419.483887
91.249962	13753.369141
91.254707	10953.307617
91.264137	8759.323242
91.276115	11992.080078
91.284782	11661.179688
91.292061	6049.378418
91.300484	9140.935547
91.311516	10449.001953
91.336815	10601.947266
91.357201	9540.732422
91.362915	8050.234375
91.375801	6071.073242
91.382126	6958.612305
91.389313	4150.342773
91.401535	5734.376465
91.407959	6841.119629
94.158081	3719.370605
99.078445	4535.513184
101.058945	5348.291992
109.684105	4066.392822
119.834984	3820.771484
121.063461	3651.318359
127.441933	10789.241211
127.455971	5878.229492
127.466377	4482.241211
127.482208	9927.733398
127.49192	5359.332031
127.514664	5734.70166
127.535545	11388.814453
127.547859	4969.30957
127.560593	5019.65625
127.578606	7046.259766
END IONS

BEGIN IONS
PEPMASS=395.081
CHARGE=1
MSLEVEL=2
SOURCE_INSTRUMENT=LC-ESI-qTof
FILENAME=sciex_positive.mgf
SEQ=*..*
IONMODE=Positive
ORGANISM=GNPS-SCIEX-LIBRARY
NAME=diflufenican [M+H]+
PI=Michael Witting
DATACOLLECTOR=Michael Witting
SMILES=c1cc(cc(c1)Oc2c(cccn2)C(=O)Nc3ccc(cc3F)F)C(F)(F)F
INCHI="InChI=1S/C19H11F5N2O2/c20-12-6-7-16(15(21)10-12)26-17(27)14-5-2-8-25-18(14)28-13-4-1-3-11(9-13)19(22,23)24/h1-10H,(H,26,27)"
INCHIAUX=WYEHFWKAOXOVJD-UHFFFAOYSA-N
PUBMED=N/A
SUBMITUSER=mpanitchpakdi
LIBRARYQUALITY=1
SPECTRUMID=CCMSLIB00006581665
USI=mzspec:GNPS:GNPS-SCIEX-LIBRARY:accession:CCMSLIB00006581665
SCANS=41
238.048004	2289.0
246.036606	4278.0
266.042389	37660.0
395.081604	5663.0
END IONS

BEGIN IONS
PEPMASS=304.113
CHARGE=1
MSLEVEL=2
SOURCE_INSTRUMENT=LC-ESI-qTof
FILENAME=sciex_positive.mgf
SEQ=*..*
IONMODE=Positive
ORGANISM=GNPS-SCIEX-LIBRARY
NAME=fenamiphos [M+H]+
PI=Michael Witting
DATACOLLECTOR=Michael Witting
SMILES=CCOP(=O)(NC(C)C)Oc1ccc(c(c1)C)SC
INCHI="InChI=1S/C13H22NO3PS/c1-6-16-18(15,14-10(2)3)17-12-7-8-13(19-5)11(4)9-12/h7-10H,6H2,1-5H3,(H,14,15)"
INCHIAUX=ZCJPOPBZHLUFHF-UHFFFAOYSA-N
PUBMED=N/A
SUBMITUSER=mpanitchpakdi
LIBRARYQUALITY=1
SPECTRUMID=CCMSLIB00006581669
USI=mzspec:GNPS:GNPS-SCIEX-LIBRARY:accession:CCMSLIB00006581669
SCANS=45
153.036896	2060.0
201.984695	15430.0
217.008102	38412.0
234.034897	6972.0
276.081909	3141.0
END IONS

BEGIN IONS
PEPMASS=291.072
CHARGE=1
MSLEVEL=2
SOURCE_INSTRUMENT=LC-ESI-qTof
FILENAME=sciex_positive.mgf
SEQ=*..*
IONMODE=Positive
ORGANISM=GNPS-SCIEX-LIBRARY
NAME=isoprothiolane [M+H]+
PI=Michael Witting
DATACOLLECTOR=Michael Witting
SMILES=CC(C)OC(=O)C(=C1SCCS1)C(=O)OC(C)C
INCHI="InChI=1S/C12H18O4S2/c1-7(2)15-10(13)9(11(14)16-8(3)4)12-17-5-6-18-12/h7-8H,5-6H2,1-4H3"
INCHIAUX=UFHLMYOGRXOCSL-UHFFFAOYSA-N
PUBMED=N/A
SUBMITUSER=mpanitchpakdi
LIBRARYQUALITY=1
SPECTRUMID=CCMSLIB00006581675
USI=mzspec:GNPS:GNPS-SCIEX-LIBRARY:accession:CCMSLIB00006581675
SCANS=51
84.974297	2657.0
144.977798	13748.0
172.9729	4949.0
188.967194	43068.0
231.014603	6020.0
END IONS

BEGIN IONS
PEPMASS=358.977
CHARGE=1
MSLEVEL=2
SOURCE_INSTRUMENT=LC-ESI-qTof
FILENAME=sciex_positive.mgf
SEQ=*..*
IONMODE=Positive
ORGANISM=GNPS-SCIEX-LIBRARY
NAME=(Z)-chlorfenvinfos [M+H]+
PI=Michael Witting
DATACOLLECTOR=Michael Witting
SMILES=CCOP(=O)(OCC)O/C(=C\Cl)/c1ccc(cc1Cl)Cl
INCHI="InChI=1S/C12H14Cl3O4P/c1-3-17-20(16,18-4-2)19-12(8-13)10-6-5-9(14)7-11(10)15/h5-8H,3-4H2,1-2H3/b12-8-"
INCHIAUX=FSAVDKDHPDSCTO-WQLSENKSSA-N
PUBMED=N/A
SUBMITUSER=mpanitchpakdi
LIBRARYQUALITY=1
SPECTRUMID=CCMSLIB00006581688
USI=mzspec:GNPS:GNPS-SCIEX-LIBRARY:accession:CCMSLIB00006581688
SCANS=64
169.971802	80.0
194.127396	40.0
204.940399	40.0
208.150406	40.0
210.160095	40.0
237.207794	80.0
272.109192	40.0
317.165192	239.0
359.177612	120.0
END IONS

BEGIN IONS
PEPMASS=321.902
CHARGE=1
MSLEVEL=2
SOURCE_INSTRUMENT=LC-ESI-qTof
FILENAME=sciex_positive.mgf
SEQ=*..*
IONMODE=Positive
ORGANISM=GNPS-SCIEX-LIBRARY
NAME=chlorpyrifos-methyl [M+H]+
PI=Michael Witting
DATACOLLECTOR=Michael Witting
SMILES=COP(=S)(OC)Oc1c(cc(c(n1)Cl)Cl)Cl
INCHI="InChI=1S/C7H7Cl3NO3PS/c1-12-15(16,13-2)14-7-5(9)3-4(8)6(10)11-7/h3H,1-2H3"
INCHIAUX=HRBKVYFZANMGRE-UHFFFAOYSA-N
PUBMED=N/A
SUBMITUSER=mpanitchpakdi
LIBRARYQUALITY=1
SPECTRUMID=CCMSLIB00006581689
USI=mzspec:GNPS:GNPS-SCIEX-LIBRARY:accession:CCMSLIB00006581689
SCANS=65
78.9944	350.0
109.005203	219.0
124.982101	2428.0
211.889206	219.0
289.876801	794.0
321.903198	179.0
END IONS

BEGIN IONS
PEPMASS=363.022
CHARGE=1
MSLEVEL=2
SOURCE_INSTRUMENT=LC-ESI-qTof
FILENAME=sciex_positive.mgf
SEQ=*..*
IONMODE=Positive
ORGANISM=GNPS-SCIEX-LIBRARY
NAME=coumaphos [M+H]+
PI=Michael Witting
DATACOLLECTOR=Michael Witting
SMILES=CCOP(=S)(OCC)Oc1ccc2c(c(c(=O)oc2c1)Cl)C
INCHI="InChI=1S/C14H16ClO5PS/c1-4-17-21(22,18-5-2)20-10-6-7-11-9(3)13(15)14(16)19-12(11)8-10/h6-8H,4-5H2,1-3H3"
INCHIAUX=BXNANOICGRISHX-UHFFFAOYSA-N
PUBMED=N/A
SUBMITUSER=mpanitchpakdi
LIBRARYQUALITY=1
SPECTRUMID=CCMSLIB00006581690
USI=mzspec:GNPS:GNPS-SCIEX-LIBRARY:accession:CCMSLIB00006581690
SCANS=66
211.016296	1913.0
225.985596	885.0
226.993301	14619.0
288.949585	3294.0
306.959198	3177.0
334.991486	1896.0
363.021393	2337.0
END IONS

BEGIN IONS
PEPMASS=220.953
CHARGE=1
MSLEVEL=2
SOURCE_INSTRUMENT=LC-ESI-qTof
FILENAME=sciex_positive.mgf
SEQ=*..*
IONMODE=Positive
ORGANISM=GNPS-SCIEX-LIBRARY
NAME=dichlorvos [M+H]+
PI=Michael Witting
DATACOLLECTOR=Michael Witting
SMILES=COP(=O)(OC)OC=C(Cl)Cl
INCHI="InChI=1S/C4H7Cl2O4P/c1-8-11(7,9-2)10-3-4(5)6/h3H,1-2H3"
INCHIAUX=OEBRKCOSUFCWJD-UHFFFAOYSA-N
PUBMED=N/A
SUBMITUSER=mpanitchpakdi
LIBRARYQUALITY=1
SPECTRUMID=CCMSLIB00006581692
USI=mzspec:GNPS:GNPS-SCIEX-LIBRARY:accession:CCMSLIB00006581692
SCANS=68
78.994301	776.0
94.945099	326.0
109.004898	2786.0
127.015404	506.0
144.981796	167.0
220.9534	247.0
END IONS

BEGIN IONS
PEPMASS=349.934
CHARGE=1
MSLEVEL=2
SOURCE_INSTRUMENT=LC-ESI-qTof
FILENAME=sciex_positive.mgf
SEQ=*..*
IONMODE=Positive
ORGANISM=GNPS-SCIEX-LIBRARY
NAME=chlorpyrifos [M+H]+
PI=Michael Witting
DATACOLLECTOR=Michael Witting
SMILES=CCOP(=S)(OCC)Oc1c(cc(c(n1)Cl)Cl)Cl
INCHI="InChI=1S/C9H11Cl3NO3PS/c1-3-14-17(18,15-4-2)16-9-7(11)5-6(10)8(12)13-9/h5H,3-4H2,1-2H3"
INCHIAUX=SBPBAQFWLVIOKP-UHFFFAOYSA-N
PUBMED=N/A
SUBMITUSER=mpanitchpakdi
LIBRARYQUALITY=1
SPECTRUMID=CCMSLIB00006581694
USI=mzspec:GNPS:GNPS-SCIEX-LIBRARY:accession:CCMSLIB00006581694
SCANS=70
96.950897	2602.0
124.982399	911.0
133.956406	319.0
161.951202	339.0
197.928101	5281.0
213.904495	628.0
275.860901	319.0
293.870514	658.0
END IONS

BEGIN IONS
PEPMASS=243.064
CHARGE=1
MSLEVEL=2
SOURCE_INSTRUMENT=LC-ESI-qTof
FILENAME=sciex_positive.mgf
SEQ=*..*
IONMODE=Positive
ORGANISM=GNPS-SCIEX-LIBRARY
NAME=ethoprophos [M+H]+
PI=Michael Witting
DATACOLLECTOR=Michael Witting
SMILES=CCCSP(=O)(OCC)SCCC
INCHI="InChI=1S/C8H19O2PS2/c1-4-7-12-11(9,10-6-3)13-8-5-2/h4-8H2,1-3H3"
INCHIAUX=VJYFKVYYMZPMAB-UHFFFAOYSA-N
PUBMED=N/A
SUBMITUSER=mpanitchpakdi
LIBRARYQUALITY=1
SPECTRUMID=CCMSLIB00006581705
USI=mzspec:GNPS:GNPS-SCIEX-LIBRARY:accession:CCMSLIB00006581705
SCANS=81
77.042099	1847.0
96.950699	15676.0
130.9384	14936.0
138.997803	1452.0
172.985397	4659.0
215.032394	886.0
END IONS

BEGIN IONS
PEPMASS=330.059
CHARGE=1
MSLEVEL=2
SOURCE_INSTRUMENT=LC-ESI-qTof
FILENAME=sciex_positive.mgf
SEQ=*..*
IONMODE=Positive
ORGANISM=GNPS-SCIEX-LIBRARY
NAME=mecarbam [M+H]+
PI=Michael Witting
DATACOLLECTOR=Michael Witting
SMILES=CCOC(=O)N(C)C(=O)CSP(=S)(OCC)OCC
INCHI="InChI=1S/C10H20NO5PS2/c1-5-14-10(13)11(4)9(12)8-19-17(18,15-6-2)16-7-3/h5-8H2,1-4H3"
INCHIAUX=KLGMSAOQDHLCOS-UHFFFAOYSA-N
PUBMED=N/A
SUBMITUSER=mpanitchpakdi
LIBRARYQUALITY=1
SPECTRUMID=CCMSLIB00006581720
USI=mzspec:GNPS:GNPS-SCIEX-LIBRARY:accession:CCMSLIB00006581720
SCANS=96
58.028702	1218.0
96.9506	7514.0
116.034401	6575.0
124.9823	4643.0
128.923203	4249.0
132.011398	1019.0
142.938797	15731.0
153.013596	3557.0
156.954498	1871.0
170.933899	2887.0
170.970093	4033.0
184.985992	2393.0
198.965698	2028.0
199.001404	1534.0
226.996796	2153.0
END IONS

BEGIN IONS
PEPMASS=302.969
CHARGE=1
MSLEVEL=2
SOURCE_INSTRUMENT=LC-ESI-qTof
FILENAME=sciex_positive.mgf
SEQ=*..*
IONMODE=Positive
ORGANISM=GNPS-SCIEX-LIBRARY
NAME=methidathion [M+H]+
PI=Michael Witting
DATACOLLECTOR=Michael Witting
SMILES=COc1nn(c(=O)s1)CSP(=S)(OC)OC
INCHI="InChI=1S/C6H11N2O4PS3/c1-10-5-7-8(6(9)16-5)4-15-13(14,11-2)12-3/h4H2,1-3H3"
INCHIAUX=MEBQXILRKZHVCX-UHFFFAOYSA-N
PUBMED=N/A
SUBMITUSER=mpanitchpakdi
LIBRARYQUALITY=1
SPECTRUMID=CCMSLIB00006581724
USI=mzspec:GNPS:GNPS-SCIEX-LIBRARY:accession:CCMSLIB00006581724
SCANS=100
58.028702	874.0
85.039703	3770.0
145.006897	1009.0
END IONS

BEGIN IONS
PEPMASS=321.038
CHARGE=1
MSLEVEL=2
SOURCE_INSTRUMENT=LC-ESI-qTof
FILENAME=sciex_positive.mgf
SEQ=*..*
IONMODE=Positive
ORGANISM=GNPS-SCIEX-LIBRARY
NAME=phenthoate [M+H]+
PI=Michael Witting
DATACOLLECTOR=Michael Witting
SMILES=CCOC(=O)C(c1ccccc1)SP(=S)(OC)OC
INCHI="InChI=1S/C12H17O4PS2/c1-4-16-12(13)11(10-8-6-5-7-9-10)19-17(18,14-2)15-3/h5-9,11H,4H2,1-3H3"
INCHIAUX=XAMUDJHXFNRLCY-UHFFFAOYSA-N
PUBMED=N/A
SUBMITUSER=mpanitchpakdi
LIBRARYQUALITY=1
SPECTRUMID=CCMSLIB00006581730
USI=mzspec:GNPS:GNPS-SCIEX-LIBRARY:accession:CCMSLIB00006581730
SCANS=106
77.038002	362.0
79.054199	1948.0
91.054001	3215.0
107.049202	2528.0
124.982101	4446.0
135.044098	3339.0
135.080093	1061.0
151.021698	441.0
163.075195	1383.0
247.001099	924.0
END IONS

BEGIN IONS
PEPMASS=300.076
CHARGE=1
MSLEVEL=2
SOURCE_INSTRUMENT=LC-ESI-qTof
FILENAME=sciex_positive.mgf
SEQ=*..*
IONMODE=Positive
ORGANISM=GNPS-SCIEX-LIBRARY
NAME=phospamidon [M+H]+
PI=Michael Witting
DATACOLLECTOR=Michael Witting
SMILES=CCN(CC)C(=O)/C(=C(\C)/OP(=O)(OC)OC)/Cl
INCHI="InChI=1S/C10H19ClNO5P/c1-6-12(7-2)10(13)9(11)8(3)17-18(14,15-4)16-5/h6-7H2,1-5H3/b9-8-"
INCHIAUX=RGCLLPNLLBQHPF-HJWRWDBZSA-N
PUBMED=N/A
SUBMITUSER=mpanitchpakdi
LIBRARYQUALITY=1
SPECTRUMID=CCMSLIB00006581732
USI=mzspec:GNPS:GNPS-SCIEX-LIBRARY:accession:CCMSLIB00006581732
SCANS=108
72.044601	2024.0
75.994797	439.0
100.076103	1537.0
102.994698	382.0
109.005501	622.0
110.060501	609.0
127.0158	7093.0
132.057602	783.0
138.0914	379.0
146.037292	380.0
174.068298	1599.0
226.987305	721.0
END IONS

BEGIN IONS
PEPMASS=306.104
CHARGE=1
MSLEVEL=2
SOURCE_INSTRUMENT=LC-ESI-qTof
FILENAME=sciex_positive.mgf
SEQ=*..*
IONMODE=Positive
ORGANISM=GNPS-SCIEX-LIBRARY
NAME=pirimiphos-methyl [M+H]+
PI=Michael Witting
DATACOLLECTOR=Michael Witting
SMILES=CCN(CC)c1nc(cc(n1)OP(=S)(OC)OC)C
INCHI="InChI=1S/C11H20N3O3PS/c1-6-14(7-2)11-12-9(3)8-10(13-11)17-18(19,15-4)16-5/h8H,6-7H2,1-5H3"
INCHIAUX=QHOQHJPRIBSPCY-UHFFFAOYSA-N
PUBMED=N/A
SUBMITUSER=mpanitchpakdi
LIBRARYQUALITY=1
SPECTRUMID=CCMSLIB00006581735
USI=mzspec:GNPS:GNPS-SCIEX-LIBRARY:accession:CCMSLIB00006581735
SCANS=111
67.029198	7312.0
78.994598	1270.0
95.060699	5046.0
108.055702	13684.0
109.076202	1926.0
123.092102	1435.0
124.982498	5681.0
136.087296	8526.0
151.026901	1790.0
164.118393	24032.0
168.113297	1204.0
179.058502	1767.0
196.145004	1241.0
207.089996	2479.0
246.046494	2256.0
274.078491	2469.0
278.072998	5008.0
306.103699	15793.0
END IONS

BEGIN IONS
PEPMASS=299.061
CHARGE=1
MSLEVEL=2
SOURCE_INSTRUMENT=LC-ESI-qTof
FILENAME=sciex_positive.mgf
SEQ=*..*
IONMODE=Positive
ORGANISM=GNPS-SCIEX-LIBRARY
NAME=quinalphos [M+H]+
PI=Michael Witting
DATACOLLECTOR=Michael Witting
SMILES=CCOP(=S)(OCC)Oc1cnc2ccccc2n1
INCHI="InChI=1S/C12H15N2O3PS/c1-3-15-18(19,16-4-2)17-12-9-13-10-7-5-6-8-11(10)14-12/h5-9H,3-4H2,1-2H3"
INCHIAUX=JYQUHIFYBATCCY-UHFFFAOYSA-N
PUBMED=N/A
SUBMITUSER=mpanitchpakdi
LIBRARYQUALITY=1
SPECTRUMID=CCMSLIB00006581739
USI=mzspec:GNPS:GNPS-SCIEX-LIBRARY:accession:CCMSLIB00006581739
SCANS=115
96.950699	7714.0
119.0606	7330.0
129.044998	3616.0
147.055206	40788.0
163.032303	33437.0
224.988693	4602.0
242.9991	3748.0
299.06189	2593.0
END IONS

BEGIN IONS
PEPMASS=346.985
CHARGE=1
MSLEVEL=2
SOURCE_INSTRUMENT=LC-ESI-qTof
FILENAME=sciex_positive.mgf
SEQ=*..*
IONMODE=Positive
ORGANISM=GNPS-SCIEX-LIBRARY
NAME=tolylfluanid [M+H]+
PI=Michael Witting
DATACOLLECTOR=Michael Witting
SMILES=Cc1ccc(cc1)N(SC(F)(Cl)Cl)S(=O)(=O)N(C)C
INCHI="InChI=1S/C10H13Cl2FN2O2S2/c1-8-4-6-9(7-5-8)15(18-10(11,12)13)19(16,17)14(2)3/h4-7H,1-3H3"
INCHIAUX=HYVWIQDYBVKITD-UHFFFAOYSA-N
PUBMED=N/A
SUBMITUSER=mpanitchpakdi
LIBRARYQUALITY=1
SPECTRUMID=CCMSLIB00006581746
USI=mzspec:GNPS:GNPS-SCIEX-LIBRARY:accession:CCMSLIB00006581746
SCANS=122
137.029495	3338.0
237.9646	617.0
END IONS

BEGIN IONS
PEPMASS=222.043
CHARGE=1
MSLEVEL=2
SOURCE_INSTRUMENT=LC-ESI-qTof
FILENAME=sciex_positive.mgf
SEQ=*..*
IONMODE=Positive
ORGANISM=GNPS-SCIEX-LIBRARY
NAME=chloridazon [M+H]+
PI=Michael Witting
DATACOLLECTOR=Michael Witting
SMILES=c1ccc(cc1)n2c(=O)c(c(cn2)N)Cl
INCHI="InChI=1S/C10H8ClN3O/c11-9-8(12)6-13-14(10(9)15)7-4-2-1-3-5-7/h1-6H,12H2"
INCHIAUX=WYKYKTKDBLFHCY-UHFFFAOYSA-N
PUBMED=N/A
SUBMITUSER=mpanitchpakdi
LIBRARYQUALITY=1
SPECTRUMID=CCMSLIB00006581757
USI=mzspec:GNPS:GNPS-SCIEX-LIBRARY:accession:CCMSLIB00006581757
SCANS=133
65.038597	1184.0
77.038399	1921.0
92.0494	1631.0
94.065201	482.0
104.049202	2171.0
128.985199	766.0
146.011597	977.0
193.0289	468.0
222.042801	7639.0
END IONS

BEGIN IONS
PEPMASS=299.061
CHARGE=1
MSLEVEL=2
SOURCE_INSTRUMENT=LC-ESI-qTof
FILENAME=sciex_positive.mgf
SEQ=*..*
IONMODE=Positive
ORGANISM=GNPS-SCIEX-LIBRARY
NAME=phoxim [M+H]+
PI=Michael Witting
DATACOLLECTOR=Michael Witting
SMILES=CCOP(=S)(OCC)O/N=C(\C#N)/C1=CC=CC=C1
INCHI="InChI=1S/C12H15N2O3PS/c1-3-15-18(19,16-4-2)17-14-12(10-13)11-8-6-5-7-9-11/h5-9H,3-4H2,1-2H3/b14-12+"
INCHIAUX=ATROHALUCMTWTB-WYMLVPIESA-N
PUBMED=N/A
SUBMITUSER=mpanitchpakdi
LIBRARYQUALITY=1
SPECTRUMID=CCMSLIB00006581783
USI=mzspec:GNPS:GNPS-SCIEX-LIBRARY:accession:CCMSLIB00006581783
SCANS=159
77.038597	4922.0
96.950699	3405.0
124.981697	361.0
129.044693	1456.0
299.182587	279.0
END IONS

BEGIN IONS
PEPMASS=355.056
CHARGE=1
MSLEVEL=2
SOURCE_INSTRUMENT=LC-ESI-qTof
FILENAME=sciex_positive.mgf
SEQ=*..*
IONMODE=Positive
ORGANISM=GNPS-SCIEX-LIBRARY
NAME=thiodicarb [M+H]+
PI=Michael Witting
DATACOLLECTOR=Michael Witting
SMILES=C/C(=N\OC(=O)N(SN(C(=O)O/N=C(/SC)\C)C)C)/SC
INCHI="InChI=1S/C10H18N4O4S3/c1-7(19-5)11-17-9(15)13(3)21-14(4)10(16)18-12-8(2)20-6/h1-6H3/b11-7+,12-8+"
INCHIAUX=XDOTVMNBCQVZKG-MKICQXMISA-N
PUBMED=N/A
SUBMITUSER=mpanitchpakdi
LIBRARYQUALITY=1
SPECTRUMID=CCMSLIB00006581823
USI=mzspec:GNPS:GNPS-SCIEX-LIBRARY:accession:CCMSLIB00006581823
SCANS=199
61.011002	327.0
62.005798	383.0
72.997597	374.0
78.9673	855.0
88.021599	6522.0
107.993698	2047.0
END IONS

BEGIN IONS
PEPMASS=296.116
CHARGE=1
MSLEVEL=2
SOURCE_INSTRUMENT=LC-ESI-qTof
FILENAME=sciex_positive.mgf
SEQ=*..*
IONMODE=Positive
ORGANISM=GNPS-SCIEX-LIBRARY
NAME=triadimenol [M+H]+
PI=Michael Witting
DATACOLLECTOR=Michael Witting
SMILES=CC(C)(C)C(C(n1cncn1)Oc2ccc(cc2)Cl)O
INCHI="InChI=1S/C14H18ClN3O2/c1-14(2,3)12(19)13(18-9-16-8-17-18)20-11-6-4-10(15)5-7-11/h4-9,12-13,19H,1-3H3"
INCHIAUX=BAZVSMNPJJMILC-UHFFFAOYSA-N
PUBMED=N/A
SUBMITUSER=mpanitchpakdi
LIBRARYQUALITY=1
SPECTRUMID=CCMSLIB00006581841
USI=mzspec:GNPS:GNPS-SCIEX-LIBRARY:accession:CCMSLIB00006581841
SCANS=217
70.040001	5924.0
END IONS

BEGIN IONS
PEPMASS=585.317
CHARGE=1
MSLEVEL=2
SOURCE_INSTRUMENT=LC-ESI-Orbitrap
FILENAME=tharwood/spectral_libraries/BERKELEY-LAB.mgf
SEQ=*..*
IONMODE=Positive
ORGANISM=BERKELEY-LAB
NAME=Lappaconitine hydrobromide CollisionEnergy:102040 M+H
PI=Trent Northen
DATACOLLECTOR=JGI
SMILES=CCN1CC2(OC(=O)c3ccccc3N=C(C)O)CCC(OC)C34C1C(CC23)C1(O)CC(OC)C2CC4C1(O)C2OC
INCHI="InChI=1S/C32H44N2O8/c1-6-34-16-29(42-28(36)18-9-7-8-10-21(18)33-17(2)35)12-11-25(40-4)31-23(29)14-20(26(31)34)30(37)15-22(39-3)19-13-24(31)32(30,38)27(19)41-5/h7-10,19-20,22-27,37-38H,6,11-16H2,1-5H3,(H,33,35)/t19?,20-,22-,23?,24?,25-,26?,27-,29+,30-,31-,32-/m0/s1"
INCHIAUX=N/A
PUBMED=N/A
SUBMITUSER=mwang87
LIBRARYQUALITY=3
SPECTRUMID=CCMSLIB00010104739
USI=mzspec:GNPS:BERKELEY-LAB:accession:CCMSLIB00010104739
SCANS=2305
55.01828	13244.0
55.054852	6963.0
56.049881	43760.0
58.06554	374944.0
59.049561	26757.0
60.044861	8764.0
60.707829	6911.0
61.02882	8997.0
66.730309	6293.0
67.054573	41191.0
69.033524	5461.0
69.690727	6137.0
70.065491	7460.0
70.836479	5081.0
71.049454	217164.0
72.081017	66827.0
75.044289	313774.0
79.05439	67548.0
81.070122	29680.0
82.065376	13459.0
83.049118	27141.0
84.080887	314503.0
85.028557	30098.0
85.064743	43180.0
86.097122	5069.0
87.044167	25558.0
88.075737	198036.0
91.05426	113549.0
92.049713	9121.0
93.069672	49125.0
94.065201	23713.0
95.049103	37967.0
96.080833	8629.0
98.096138	42432.0
99.04438	9404.0
101.059464	65439.0
102.091187	7735.0
103.054527	6340.0
105.069702	83505.0
107.049347	46066.0
107.085693	7273.0
108.080772	53979.0
109.028152	27658.0
109.064636	72585.0
110.096512	34619.0
111.044037	33809.0
112.075684	7757.0
112.111221	5404.0
113.059532	39783.0
114.091263	11488.0
115.054237	13019.0
115.075043	7567.0
117.069778	103125.0
119.049004	10178.0
119.085373	44173.0
120.04422	344417.0
120.054123	12913.0
121.064522	56367.0
121.101303	12891.0
122.096153	35821.0
123.043968	31944.0
123.08007	40096.0
125.059753	60068.0
127.075317	9315.0
128.062256	22861.0
129.069641	359468.0
130.807785	5878.0
131.085342	317869.0
133.101089	36979.0
134.096359	14352.0
135.043732	9360.0
135.080261	37537.0
136.111832	6283.0
137.059647	92053.0
138.054993	49940.0
139.075485	11529.0
141.054245	29643.0
141.069687	86892.0
142.077591	24047.0
143.085144	104759.0
144.044464	52985.0
145.064896	38201.0
145.089874	7775.0
145.100479	46469.0
146.096451	34703.0
147.07988	46813.0
148.111328	44249.0
149.06012	12802.0
149.096069	14258.0
151.075256	35477.0
153.054642	36044.0
153.069855	28254.0
154.077316	7216.0
155.08522	212945.0
156.09317	23967.0
157.064148	25757.0
157.100967	389881.0
158.096115	32119.0
159.079956	59553.0
159.102264	7307.0
159.116699	150485.0
160.111771	26740.0
161.059738	37968.0
161.096039	194956.0
162.054718	2695279.0
163.074875	8498.0
163.11232	6364.0
165.069244	56089.0
167.070236	34671.0
167.085007	169989.0
169.064972	8368.0
169.085907	12114.0
169.100952	134329.0
170.097183	8314.0
171.079849	65283.0
171.117004	32879.0
172.111801	40138.0
173.095963	47358.0
173.119507	14664.0
174.127289	162275.0
175.075912	9970.0
175.112671	7667.0
175.135452	43337.0
176.071014	10426.0
176.106659	10151.0
176.142883	12701.0
178.077866	42068.0
179.085342	115520.0
180.06514	10454.0
180.091995	22374.0
181.065216	11579.0
181.086624	17971.0
181.101242	162766.0
182.096115	27788.0
183.080338	43498.0
183.117233	51454.0
184.112061	35758.0
185.095886	89780.0
185.119461	40349.0
186.127243	38364.0
187.074036	10864.0
187.111755	58978.0
187.130722	6850.0
188.144135	8020.0
189.090805	12115.0
189.127106	7948.0
190.077057	7254.0
190.122223	6394.0
191.085281	109202.0
191.104172	10566.0
191.128525	8891.0
192.093597	33193.0
192.138168	25690.0
193.100525	289598.0
194.110748	5912.0
195.083221	55286.0
195.117462	139664.0
196.09137	9317.0
196.110748	53235.0
197.096268	66838.0
197.134399	6799.0
198.127441	87017.0
199.111801	65416.0
199.133087	15347.0
200.14328	42014.0
201.091217	10810.0
201.127808	11711.0
201.149582	9797.0
202.079941	7660.0
202.122543	6152.0
202.157471	47242.0
203.08522	55605.0
203.106979	14230.0
203.132309	6768.0
204.093124	172166.0
205.100815	154798.0
206.115341	59682.0
206.153336	12482.0
207.080856	21228.0
207.116791	184038.0
208.087784	12866.0
208.107941	8734.0
208.126389	8378.0
209.097763	73758.0
209.132477	221348.0
210.127075	432511.0
211.074631	7606.0
211.111496	71622.0
211.135406	63410.0
212.142822	386295.0
213.0905	8909.0
213.126999	38052.0
213.151215	82522.0
214.120712	8826.0
214.159042	25080.0
215.10675	14101.0
216.092743	23966.0
217.100342	51428.0
218.109863	10637.0
219.078125	19957.0
219.116623	694282.0
221.096405	125774.0
221.132278	222721.0
222.103653	26344.0
222.127502	33142.0
223.111679	141514.0
223.148849	7922.0
224.143524	27622.0
225.127655	89813.0
225.150696	17356.0
226.158264	10433.0
227.106659	74049.0
227.130814	7694.0
228.137619	27981.0
229.100861	85303.0
229.121414	17545.0
231.116867	69961.0
232.086395	46872.0
233.134109	9984.0
234.102966	9462.0
234.12738	22263.0
235.111099	97716.0
235.134933	17926.0
236.117889	24562.0
236.142746	49678.0
237.127167	325019.0
237.149734	17193.0
238.123489	25738.0
238.157043	67459.0
239.105804	35470.0
239.141953	46711.0
240.138458	12606.0
241.121231	26492.0
241.158463	29820.0
242.15239	60105.0
243.138306	12333.0
244.168732	26049.0
245.119919	11201.0
246.102554	13835.0
247.111237	382830.0
248.119461	17342.0
248.143158	81889.0
249.126816	136043.0
249.152313	28102.0
250.130615	8101.0
250.15889	57849.0
251.108795	15643.0
251.14241	357177.0
252.137924	8356.0
252.174377	11468.0
253.121521	80786.0
253.157761	43073.0
254.153824	13615.0
255.137436	28109.0
258.183685	10196.0
259.132996	87024.0
261.12677	58294.0
261.14917	13551.0
262.12912	6380.0
262.158905	24151.0
263.139893	44331.0
264.111694	14503.0
264.138031	33610.0
264.174255	169841.0
265.120209	114740.0
266.154602	53239.0
267.136627	40746.0
267.164795	10446.0
268.169678	9498.0
269.152252	102382.0
270.153687	11328.0
270.184448	56213.0
271.132019	40078.0
271.166443	7701.0
274.157776	100273.0
277.146027	6476.0
278.152466	11681.0
279.137177	457254.0
280.13562	12892.0
280.16922	231519.0
281.151245	91086.0
282.18454	29358.0
283.166656	42105.0
284.164551	29025.0
285.074829	7500.0
285.147644	8709.0
292.168945	474917.0
293.15329	29444.0
294.182251	22645.0
295.155579	58956.0
296.163269	32521.0
296.199829	162599.0
297.147308	139999.0
298.179779	190593.0
299.161591	9749.0
302.175537	6677.0
303.157227	9746.0
306.184143	143844.0
309.171783	28604.0
310.178131	42263.0
311.16214	211690.0
312.196655	26082.0
313.174713	15030.0
314.17392	11805.0
314.211273	12000.0
316.190125	49962.0
324.194794	1709899.0
326.210449	10267.0
327.183594	31501.0
328.189606	26035.0
328.226776	45640.0
329.173462	67206.0
330.205627	168985.0
338.209869	116224.0
342.206085	221777.0
343.191803	52632.0
346.200043	42406.0
354.209381	8659.0
356.221069	1490620.0
370.235901	66520.0
374.231689	546647.0
388.247192	874718.0
392.242828	13678.0
406.257782	527986.0
424.26709	188557.0
458.199158	7908.0
461.244873	9251.0
471.22876	27712.0
503.25174	178432.0
507.283203	52583.0
517.267395	13944.0
535.279724	590809.0
549.2948	22844.0
553.291138	63126.0
567.304932	700068.0
581.647827	12641.0
585.31604	34723612.0
589.018433	13144.0
END IONS

BEGIN IONS
PEPMASS=787.497
CHARGE=1
MSLEVEL=2
SOURCE_INSTRUMENT=LC-ESI-Orbitrap
FILENAME=tharwood/spectral_libraries/BERKELEY-LAB.mgf
SEQ=*..*
IONMODE=Positive
ORGANISM=BERKELEY-LAB
NAME=CCG-208483 CollisionEnergy:102040 M+Na
PI=Trent Northen
DATACOLLECTOR=JGI
SMILES=CCC(C(=O)O)C1OC(C(C)C(O)C(C)C(=O)C(CC)C2OC3(C=CC(O)C4(CCC(C)(C5CCC(O)(CC)C(C)O5)O4)O3)C(C)CC2C)C(C)CC1C
INCHI="InChI=1S/C43H72O11/c1-12-30(35(46)27(8)34(45)28(9)36-23(4)21-24(5)37(51-36)31(13-2)39(47)48)38-25(6)22-26(7)42(52-38)18-15-32(44)43(54-42)20-19-40(11,53-43)33-16-17-41(49,14-3)29(10)50-33/h15,18,23-34,36-38,44-45,49H,12-14,16-17,19-22H2,1-11H3,(H,47,48)/t23-,24-,25-,26+,27-,28-,29-,30-,31+,32+,33+,34+,36+,37?,38-,40-,41+,42-,43-/m0/s1"
INCHIAUX=N/A
PUBMED=N/A
SUBMITUSER=mwang87
LIBRARYQUALITY=3
SPECTRUMID=CCMSLIB00010110195
USI=mzspec:GNPS:BERKELEY-LAB:accession:CCMSLIB00010110195
SCANS=7761
60.911732	3488.0
70.772858	3405.0
76.989738	2789.0
89.872147	3299.0
92.83242	3478.0
93.142906	3300.0
100.735069	3775.0
235.166397	12668.0
265.139832	41232.0
279.156281	175661.0
279.191254	7137.0
373.19693	4666.0
379.245514	30067.0
403.243561	27207.0
413.229065	88592.0
431.239807	216227.0
501.35733	4622.0
503.337616	4568.0
509.959625	4726.0
513.318481	47913.0
531.327332	98335.0
545.343811	142301.0
580.147095	3498.0
769.483704	70662.0
787.495178	1100059.0
END IONS

BEGIN IONS
PEPMASS=492.224
CHARGE=1
MSLEVEL=2
SOURCE_INSTRUMENT=LC-ESI-Orbitrap
FILENAME=tharwood/spectral_libraries/BERKELEY-LAB.mgf
SEQ=*..*
IONMODE=Negative
ORGANISM=BERKELEY-LAB
NAME=BSPBio_001473 CollisionEnergy:102040 M-H
PI=Trent Northen
DATACOLLECTOR=JGI
SMILES=CC1CCC2(O)C3(C)CC4(O)OC2(C1O)C1(O)C3(O)C(OC(=O)c2ccc[nH]2)C(O)(C(C)C)C41C
INCHI="InChI=1S/C25H35NO9/c1-12(2)22(31)17(34-16(28)14-7-6-10-26-14)23(32)18(4)11-21(30)19(22,5)25(23,33)24(35-21)15(27)13(3)8-9-20(18,24)29/h6-7,10,12-13,15,17,26-27,29-33H,8-9,11H2,1-5H3/t13-,15+,17+,18-,19+,20-,21-,22-,23+,24+,25+/m0/s1"
INCHIAUX=N/A
PUBMED=N/A
SUBMITUSER=mwang87
LIBRARYQUALITY=3
SPECTRUMID=CCMSLIB00010111678
USI=mzspec:GNPS:BERKELEY-LAB:accession:CCMSLIB00010111678
SCANS=9244
57.505539	3280.0
59.013321	8538.0
66.034531	1093944.0
66.87059	3782.0
73.029297	5240.0
73.327698	3281.0
81.022301	3635.0
82.404373	3578.0
85.065643	4998.0
87.008713	6680.0
87.044746	13944.0
99.081413	5172.0
110.024834	5271922.0
111.045021	21985.0
113.060722	5125.0
118.660156	5015.0
125.060829	27250.0
129.055557	8433.0
134.922516	3679.0
135.734772	3686.0
136.076431	4845.0
151.040115	20602.0
151.076294	23787.0
153.056046	5370.0
153.091995	14057.0
157.051041	8432.0
163.112961	18999.0
165.127914	5033.0
167.107803	6318.0
171.066513	4982.0
173.06102	7378.0
175.076767	6151.0
191.107681	4493.0
193.122787	8501.0
207.662125	25375.0
208.937012	4561.0
209.08139	5485.0
209.118744	4459.0
215.1073	4195.0
219.101471	12827.0
221.081131	6387.0
237.112793	27982.0
239.092239	6285.0
273.188141	4758.0
275.130493	4976.0
281.103485	4736.0
283.168945	5541.0
327.161682	15888.0
345.171478	27190.0
363.182739	23148.0
381.192017	2847103.0
474.211823	41631.0
492.224243	4406649.0
END IONS

BEGIN IONS
PEPMASS=654.229
CHARGE=1
MSLEVEL=2
SOURCE_INSTRUMENT=LC-ESI-Orbitrap
FILENAME=tharwood/spectral_libraries/BERKELEY-LAB.mgf
SEQ=*..*
IONMODE=Positive
ORGANISM=BERKELEY-LAB
NAME=bromocriptine CollisionEnergy:102040 M+H
PI=Trent Northen
DATACOLLECTOR=JGI
SMILES=CC(C)CC1C(=O)N2CCCC2C2(O)OC(N=C(O)C3C=C4c5cccc6[nH]c(Br)c(c56)CC4N(C)C3)(C(C)C)C(=O)N12
INCHI="InChI=1S/C32H40BrN5O5/c1-16(2)12-24-29(40)37-11-7-10-25(37)32(42)38(24)30(41)31(43-32,17(3)4)35-28(39)18-13-20-19-8-6-9-22-26(19)21(27(33)34-22)14-23(20)36(5)15-18/h6,8-9,13,16-18,23-25,34,42H,7,10-12,14-15H2,1-5H3,(H,35,39)/t18-,23-,24+,25+,31-,32+/m1/s1"
INCHIAUX=N/A
PUBMED=N/A
SUBMITUSER=mwang87
LIBRARYQUALITY=3
SPECTRUMID=CCMSLIB00010112455
USI=mzspec:GNPS:BERKELEY-LAB:accession:CCMSLIB00010112455
SCANS=10021
152.070526	53343.0
153.138107	10153.0
181.133484	127738.0
191.072311	27662.0
192.081665	5349.0
193.088638	7619.0
196.097305	4425.0
203.282578	5481.0
206.059982	182443.0
207.067963	646555.0
207.09082	68698.0
209.128235	91239.0
211.144257	114447.0
221.107117	114008.0
222.114853	198749.0
223.086273	49241.0
224.094101	105964.0
244.984131	4680.0
245.990067	7327.0
249.101715	19640.0
257.960388	5743.0
257.990692	146082.0
260.007324	6222.0
260.130432	8247.0
262.478577	4713.0
265.53653	4860.0
266.129059	46512.0
267.136627	22000.0
268.982697	58959.0
269.990936	43230.0
272.006592	25066.0
275.017639	265635.0
283.970795	8941.0
285.002594	18359.0
285.984833	435601.0
286.991638	5965.0
291.169891	408588.0
299.017303	164413.0
301.03302	2075401.0
302.04071	17960.0
303.012268	1216768.0
315.011932	44684.0
318.160187	7866.0
327.047791	17593.0
329.028137	97041.0
331.031128	39955.0
337.032257	6411.0
339.048645	63456.0
345.045471	9764.0
346.054443	2872014.0
347.163452	6651.0
355.043518	290843.0
366.49588	4697.0
373.054535	18395.0
383.0383	760359.0
398.085114	49827.0
426.080566	516471.0
462.175873	5074.0
513.249695	10624.0
556.291687	132006.0
557.297791	21019.0
593.175415	45513.0
608.220764	31681.0
611.185059	46736.0
618.202759	6744.0
636.217407	1587449.0
654.227966	10218072.0
658.58197	6906.0
END IONS

BEGIN IONS
PEPMASS=204.29
CHARGE=1
MSLEVEL=2
SOURCE_INSTRUMENT=LC-ESI-qToF
FILENAME=levamisole.mgf
SEQ=*..*
IONMODE=Positive
ORGANISM=DRUGS-OF-ABUSE-LIBRARY
NAME=levamisole M+H
PI=Barkholtz
DATACOLLECTOR=Pieters
SMILES=C1CSC2=NC(CN21)C3=CC=CC=C3
INCHI="1S/C11H12N2S/c1-2-4-9(5-3-1)10-8-13-6-7-14-11(13)12-10/h1-5,10H,6-8H2/t10-/m1/s1"
INCHIAUX=N/A
PUBMED=26879
SUBMITUSER=Jzemlin
LIBRARYQUALITY=2
SPECTRUMID=CCMSLIB00009919330
USI=mzspec:GNPS:DRUGS-OF-ABUSE-LIBRARY:accession:CCMSLIB00009919330
SCANS=1
88.020798	112862.421875
91.053398	440233.0625
103.053299	136236.34375
105.069199	209164.796875
106.066299	35999.808594
115.053497	341943.28125
117.062698	642440.0625
118.0644	490030.65625
123.025597	1182681.25
125.023003	32663.109375
127.053101	165119.625
128.059494	632698.0625
129.068604	474930.25
130.065094	637272.875
130.1586	648313.3125
132.079697	104026.5625
135.025208	98616.21875
144.0802	173897.015625
145.076004	202000.25
146.0952	343877.59375
148.020599	34263.960938
150.036194	139695.84375
178.067902	3978305.0
178.201599	26648.039062
180.064804	147287.90625
188.051804	77674.726562
205.078506	11968389.0
205.221603	309931.28125
205.335999	63028.449219
207.075699	582498.375
279.092407	304779.34375
END IONS

BEGIN IONS
PEPMASS=253.71
CHARGE=1
MSLEVEL=2
SOURCE_INSTRUMENT=LC-ESI-qToF
FILENAME=tizanidine.mgf
SEQ=*..*
IONMODE=Positive
ORGANISM=DRUGS-OF-ABUSE-LIBRARY
NAME=tizanidine M+H
PI=Barkholtz
DATACOLLECTOR=Pieters
SMILES=C1CN=C(N1)NC2=C(C=CC3=NSN=C32)Cl
INCHI="1S/C9H8ClN5S/c10-5-1-2-6-8(15-16-14-6)7(5)13-9-11-3-4-12-9/h1-2H,3-4H2,(H2,11,12,13)"
INCHIAUX=N/A
PUBMED=5487
SUBMITUSER=Jzemlin
LIBRARYQUALITY=2
SPECTRUMID=CCMSLIB00009919365
USI=mzspec:GNPS:DRUGS-OF-ABUSE-LIBRARY:accession:CCMSLIB00009919365
SCANS=1
118.085503	139506.8125
168.961807	18725.130859
185.987503	24961.640625
209.988098	66865.179688
210.984497	47044.730469
218.048996	43300.789062
236.998993	14799.790039
254.025299	11410248.0
254.184494	325497.8125
254.312103	62866.328125
256.0224	4149913.75
256.182098	88985.226562
258.019501	145705.671875
279.092194	380166.09375
279.09259	473922.28125
END IONS

BEGIN IONS
PEPMASS=339.5
CHARGE=1
MSLEVEL=2
SOURCE_INSTRUMENT=LC-ESI-qToF
FILENAME=propoxyphene.mgf
SEQ=*..*
IONMODE=Positive
ORGANISM=DRUGS-OF-ABUSE-LIBRARY
NAME=propoxyphene M+H
PI=Barkholtz
DATACOLLECTOR=Pieters
SMILES=CCC(=O)OC(CC1=CC=CC=C1)(C2=CC=CC=C2)C(C)CN(C)C
INCHI="1S/C22H29NO2/c1-5-21(24)25-22(18(2)17-23(3)4,20-14-10-7-11-15-20)16-19-12-8-6-9-13-19/h6-15,18H,5,16-17H2,1-4H3/t18-,22+/m1/s1"
INCHIAUX=N/A
PUBMED=10111
SUBMITUSER=Jzemlin
LIBRARYQUALITY=2
SPECTRUMID=CCMSLIB00009919371
USI=mzspec:GNPS:DRUGS-OF-ABUSE-LIBRARY:accession:CCMSLIB00009919371
SCANS=1
56.049702	10750.950195
58.0648	3912201.25
58.0979	41670.851562
58.1432	52197.699219
65.037903	8879.0
72.080803	15175.780273
77.038498	113955.921875
79.053902	61584.210938
86.096199	8489.570312
87.042999	19979.240234
91.0541	2388744.5
91.093597	14523.700195
102.045799	82107.09375
103.053101	151406.3125
105.069702	562871.125
115.053596	295679.1875
117.0681	84880.203125
118.085503	127775.929688
126.0448	33953.191406
127.053802	366952.1875
128.061798	2499859.25
128.108398	22173.669922
130.071899	33416.53125
141.069	132843.0625
143.085205	1913336.625
143.135101	12940.820312
145.093903	24692.439453
152.060593	18508.599609
153.0728	5337.419922
163.055496	39449.371094
165.069199	226281.59375
167.080505	19262.009766
177.066696	30360.660156
178.076706	176165.5
181.100906	130193.679688
189.067993	12193.889648
191.083603	89603.671875
193.096603	7158.100098
208.167007	10440.070312
221.133102	98917.578125
224.127197	9653.580078
266.190186	2990850.0
266.262085	29610.869141
266.357391	38787.320312
268.196289	54404.890625
281.052185	8735.55957
321.213898	5787.870117
340.227386	214137.65625
354.981415	7836.060059
376.201294	24952.060547
503.296295	3774.090088
END IONS

BEGIN IONS
PEPMASS=266.4
CHARGE=1
MSLEVEL=2
SOURCE_INSTRUMENT=LC-ESI-qToF
FILENAME=Desipramine.mgf
SEQ=*..*
IONMODE=Positive
ORGANISM=DRUGS-OF-ABUSE-LIBRARY
NAME=Desipramine M+H
PI=Barkholtz
DATACOLLECTOR=Pieters
SMILES=CNCCCN1C2=CC=CC=C2CCC3=CC=CC=C31
INCHI="1S/C18H22N2/c1-19-13-6-14-20-17-9-4-2-7-15(17)11-12-16-8-3-5-10-18(16)20/h2-5,7-10,19H,6,11-14H2,1H3"
INCHIAUX=N/A
PUBMED=2995
SUBMITUSER=Jzemlin
LIBRARYQUALITY=2
SPECTRUMID=CCMSLIB00009919495
USI=mzspec:GNPS:DRUGS-OF-ABUSE-LIBRARY:accession:CCMSLIB00009919495
SCANS=1
72.0802	4719828.5
72.165398	175121.015625
72.232002	32149.279297
91.053497	70684.507812
105.069298	74805.523438
115.053497	96754.6875
116.1427	79624.101562
117.056503	47205.128906
118.064003	86170.039062
118.085403	95688.203125
128.048004	30402.75
130.064499	147044.515625
132.080093	24104.029297
139.053497	128459.820312
140.050003	68384.609375
143.072006	40832.199219
144.080002	68812.53125
145.087204	38488.449219
150.045807	47982.5
151.053101	84412.828125
152.060593	215114.5625
158.095306	96911.789062
162.045303	37705.460938
163.053497	459366.5625
165.069107	1215053.25
167.072998	620884.75
176.060593	60028.140625
177.061493	87812.671875
178.073898	506105.53125
180.080505	1038186.625
180.173798	39258.171875
181.085693	298303.21875
188.048401	32240.25
189.055695	75385.296875
190.064697	330280.75
191.072693	889134.6875
192.0802	1773724.625
193.088104	8485885.0
193.158798	24492.859375
193.2276	316456.875
193.336807	51552.460938
194.093307	2218221.5
195.101593	709553.3125
196.110794	888442.125
200.236404	825891.3125
201.045807	224791.03125
204.0802	201800.359375
206.095703	718478.875
207.950104	45392.449219
208.111603	8759060.0
208.168503	59868.980469
208.256393	249745.625
208.369797	19872.890625
210.119705	118667.15625
218.095398	46659.109375
220.111404	688292.1875
222.126297	238595.0
226.179306	37772.910156
234.126999	91172.84375
236.092606	21905.460938
236.142807	2833459.75
236.297195	37546.359375
238.149094	39750.070312
266.171387	65294.941406
267.185394	10667660.0
267.268402	137868.203125
267.348602	594925.875
267.415985	114837.492188
267.479095	235055.640625
267.532806	12053.959961
267.562805	114255.453125
267.642792	32666.089844
268.313385	13184.400391
268.3927	25270.509766
269.191406	225284.171875
269.365387	31837.960938
269.480988	18659.060547
279.092102	287587.375
279.202911	12447.0
282.086395	19866.640625
288.1539	54085.339844
325.083588	22834.009766
329.105713	41804.449219
331.104309	13533.150391
359.0448	28109.380859
361.040985	17402.539062
429.088013	20453.810547
END IONS

BEGIN IONS
PEPMASS=387.9
CHARGE=1
MSLEVEL=2
SOURCE_INSTRUMENT=LC-ESI-qToF
FILENAME=Flurazepam.mgf
SEQ=*..*
IONMODE=Positive
ORGANISM=DRUGS-OF-ABUSE-LIBRARY
NAME=Flurazepam M+H
PI=Barkholtz
DATACOLLECTOR=Pieters
SMILES=CCN(CC)CCN1C(=O)CN=C(C2=C1C=CC(=C2)Cl)C3=CC=CC=C3F
INCHI="1S/C21H23ClFN3O/c1-3-25(4-2)11-12-26-19-10-9-15(22)13-17(19)21(24-14-20(26)27)16-7-5-6-8-18(16)23/h5-10,13H,3-4,11-12,14H2,1-2H3"
INCHIAUX=N/A
PUBMED=3393
SUBMITUSER=Jzemlin
LIBRARYQUALITY=2
SPECTRUMID=CCMSLIB00009919504
USI=mzspec:GNPS:DRUGS-OF-ABUSE-LIBRARY:accession:CCMSLIB00009919504
SCANS=1
45.0327	30366.439453
58.064999	57105.339844
70.065804	19629.609375
73.028397	30380.75
80.052902	123733.023438
81.069702	30124.369141
87.044403	351837.59375
88.076103	397480.375
89.059998	952965.75
91.0541	119773.273438
95.050697	45537.398438
95.085899	25956.689453
100.112396	137316.5625
101.060097	52002.75
103.038696	108033.34375
104.1073	140090.984375
107.085602	34722.179688
109.042702	25015.970703
109.064796	149511.59375
111.044701	42430.191406
111.077301	13113.05957
113.059196	72807.039062
117.090698	61163.128906
121.100197	39003.699219
124.080803	162478.25
130.063995	18950.669922
131.070496	237591.015625
133.086105	1570678.75
133.134399	12246.580078
134.039703	16360.299805
135.046402	70076.796875
141.069794	18570.810547
143.085007	12385.30957
147.062698	27074.589844
147.077805	32907.140625
150.128098	15531.419922
151.112503	6484.629883
157.085297	28156.830078
161.095703	23621.800781
163.111206	16556.929688
167.082199	23853.060547
167.089294	26966.810547
168.107895	23123.029297
171.112793	4550.580078
175.096298	178645.875
177.112106	741720.25
183.061295	21624.869141
189.126404	7411.459961
191.093307	8824.759766
192.137405	14433.740234
201.115005	23832.330078
202.0495	4227.350098
207.120499	40256.28125
209.064194	7993.240234
209.144302	8824.05957
219.121994	95787.4375
222.140701	20017.539062
223.144501	21414.869141
224.089706	25502.009766
224.133606	12613.759766
225.095001	70945.34375
235.117706	12472.019531
236.0728	25812.679688
239.152603	18990.150391
240.092407	8079.25
243.150696	132873.859375
244.033401	41685.878906
251.158295	49260.628906
253.089005	22623.630859
253.138596	7400.47998
258.047089	19953.320312
259.054413	26100.519531
260.059814	40992.929688
261.128204	6119.140137
263.147003	20369.220703
265.163788	156146.09375
267.178314	6088.430176
271.043701	42141.699219
272.027008	31979.650391
273.036896	20760.160156
275.201691	51522.550781
279.154388	18350.339844
281.102814	5891.509766
283.177704	25137.730469
285.061005	13939.959961
287.050507	54841.871094
287.1763	8916.459961
288.057587	91611.929688
289.056702	58805.269531
292.199402	23574.400391
293.212006	36207.230469
295.175293	22849.160156
295.688995	31821.490234
297.190002	22874.480469
307.178894	16277.910156
308.222198	23639.640625
311.224487	16421.619141
315.069214	951938.125
317.071594	398280.75
317.233093	11777.389648
319.080902	37923.0
327.204803	26624.119141
335.237793	70665.007812
339.194397	15206.540039
339.194397	15346.900391
351.233002	199210.734375
353.25	483142.5
355.208191	5188.089844
355.23819	9457.570312
357.20929	4434.540039
367.292114	12244.040039
369.223999	2382897.5
369.305695	19925.710938
371.171112	8311.459961
371.229797	52870.019531
371.230988	74275.429688
377.260406	15227.669922
383.184204	96467.609375
385.191589	57904.820312
386.210205	6344.379883
388.158386	326815.5625
389.190094	176237.984375
389.191315	238430.5
390.156891	121792.703125
391.208893	740389.375
393.225586	227428.890625
395.200592	9979.950195
397.243713	71997.203125
403.187805	187958.359375
405.175415	159235.265625
409.217194	628679.3125
413.191895	91545.71875
415.261993	25547.070312
437.226196	24770.300781
437.307098	17174.150391
438.602203	27179.300781
440.249603	9785.330078
454.286407	27595.460938
459.280609	25766.269531
460.298615	23822.910156
485.291595	18007.039062
502.812714	2115.820068
503.307495	35107.609375
520.327393	3715.209961
525.322571	13108.75
529.320312	12016.299805
534.318909	20378.0
546.840027	7650.450195
547.33783	41346.710938
550.311584	18380.720703
550.317993	25106.380859
553.333801	4855.540039
564.342407	12207.759766
568.32782	32880.199219
572.299072	2767.610107
574.326172	7612.319824
591.366394	47520.78125
606.303772	19226.480469
606.390503	9307.959961
608.31012	36620.289062
608.319275	25350.259766
608.391479	16413.820312
617.377808	3576.929932
621.396179	10846.599609
628.377319	52817.621094
634.884888	16396.689453
634.894226	10842.280273
635.379822	68949.726562
637.377197	2050.47998
651.397522	132975.25
651.908875	35331.75
656.902771	552395.75
658.406311	400389.34375
658.910095	345737.8125
659.914429	22854.599609
663.89447	43284.949219
664.287903	1939.97998
664.890503	6431.359863
665.414917	1928082.5
668.395996	3231.439941
672.405823	244905.4375
673.408203	59150.570312
675.884705	5422.859863
685.276306	5103.569824
696.435181	47394.648438
723.438904	41689.808594
738.450806	2672.899902
740.464905	57259.941406
754.447693	2946.26001
767.45752	41652.269531
783.480286	3786.909912
784.491516	66027.578125
811.495483	34056.851562
828.519226	65304.53125
855.516602	31290.589844
872.539001	78890.890625
874.547424	5508.259766
899.543579	24955.990234
916.567627	82863.929688
918.581909	3917.72998
943.577209	25623.880859
958.573914	5302.169922
960.591187	88255.0
962.59137	4306.700195
987.585571	26433.990234
END IONS

BEGIN IONS
PEPMASS=352.177
CHARGE=1
MSLEVEL=2
SOURCE_INSTRUMENT=LC-ESI-qTof
FILENAME=DMIM_centroided_library_abundance_filtered.mgf
SEQ=*..*
IONMODE=Positive
ORGANISM=DMIM-DRUG-METABOLITE-LIBRARY
NAME=PIRENZEPINE [M+H]+
PI=Libin Xu
DATACOLLECTOR=Dylan H. Ross
SMILES=CN1CCN(CC1)CC(=O)N2C3=CC=CC=C3C(=O)NC4=C2N=CC=C4
INCHI=N/A
INCHIAUX=N/A
PUBMED=N/A
SUBMITUSER=jzemlin
LIBRARYQUALITY=3
SPECTRUMID=CCMSLIB00012465045
USI=mzspec:GNPS:DMIM-DRUG-METABOLITE-LIBRARY:accession:CCMSLIB00012465045
SCANS=23
55.0485	4200.0
56.050915	1979.0
57.062199	2583.0
58.067383	2902.0
59.018192	2482.0
62.982738	1155.0
65.018036	1256.0
67.055687	4637.0
68.054459	1145.0
69.058945	7034.0
70.070496	1176623.0
70.254547	25786.0
70.736031	4673.0
71.069771	46194.0
71.272896	1421.0
72.07933	6606.0
73.056343	1987.0
74.064713	1042.0
76.029213	3823.0
77.03701	4201.0
78.029709	1372.0
79.049446	4261.0
80.041763	2576.0
81.063698	10555.0
82.066048	7018.0
83.056305	8265.0
84.061607	16592.0
85.030991	9490.0
86.084801	7038.0
87.029221	3108.0
88.053429	2974.0
89.052422	1463.0
91.051529	9091.0
92.056816	1202.0
93.064102	8854.0
94.077415	2044.0
95.076492	16789.0
96.062935	3734.0
97.036636	107772.0
98.085724	183026.0
98.971832	4845.0
99.075096	14425.0
100.066116	2263.0
101.073837	5596.0
102.079834	1827.0
103.023102	1995.0
104.053978	1115.0
105.064415	18913.0
106.065468	2173.0
107.073929	9656.0
108.063599	3069.0
109.081749	18398.0
110.070976	5374.0
111.062241	18524.0
112.081436	6409.0
112.979324	5435.0
113.112602	1383153.0
113.248131	78218.0
113.386269	31955.0
113.816681	1233.0
113.944138	22161.0
114.108215	160294.0
114.703491	8370.0
114.971008	1052.0
115.0858	6094.0
115.437393	2342.0
116.03434	6325.0
117.050758	2963.0
118.070831	1289.0
118.929825	2033.0
119.067345	9390.0
120.070816	4277.0
120.955246	1789.0
121.060936	23206.0
122.069252	4368.0
123.058319	54559.0
124.060181	6922.0
125.041122	15088.0
126.081017	5741.0
127.051788	6312.0
128.066528	1754.0
129.096054	8032.0
130.060928	7755.0
131.071884	4477.0
132.035553	2174.0
133.061951	9660.0
134.06871	3098.0
135.072784	12044.0
136.06752	18164.0
136.947189	20155.0
137.076218	20217.0
138.06488	5390.0
139.038712	26410.0
140.050751	3234.0
140.959366	1828.0
141.094131	11518.0
142.046143	14308.0
142.984207	5173.0
143.092667	2767.0
144.053162	3713.0
145.068573	5071.0
146.049088	2136.0
147.066238	8490.0
148.065857	3385.0
149.076965	8941.0
150.063782	3410.0
151.071075	11693.0
152.061646	4392.0
153.050751	18273.0
154.081802	14141.0
155.056198	11380.0
156.064545	3057.0
156.909607	1359.0
157.074112	5006.0
158.091217	2071.0
158.941849	2942.0
159.096634	7625.0
160.089249	2206.0
161.071289	9320.0
162.060516	5602.0
162.946014	1091.0
163.073456	12862.0
164.082443	4303.0
164.935013	4913.0
165.064163	15279.0
166.066803	5191.0
167.059967	12199.0
168.067978	4893.0
169.068008	11571.0
170.070862	4511.0
171.073669	9075.0
172.076462	3387.0
172.998627	5900.0
173.11026	4722.0
174.01474	1658.0
174.944107	5139.0
175.08992	7320.0
176.083145	2382.0
177.071594	13742.0
178.088867	2967.0
178.957108	2168.0
179.082031	19952.0
180.074875	4306.0
180.91713	3386.0
181.077652	20114.0
182.080902	3400.0
183.064682	12554.0
184.078049	4890.0
185.074554	7169.0
186.075012	1614.0
186.204407	1809.0
186.943115	1015.0
187.104584	5696.0
188.080124	2968.0
189.08078	6303.0
190.072784	2425.0
190.942047	1251.0
191.077347	13346.0
192.080566	2823.0
192.959946	3960.0
193.080948	19819.0
194.077362	4482.0
194.949524	1310.0
195.083618	14259.0
196.087021	150464.0
196.900375	2358.0
197.086487	51848.0
198.090561	6671.0
198.912308	2820.0
199.079834	6753.0
199.968445	1231.0
200.099075	3405.0
200.941116	20463.0
201.105316	5120.0
201.972183	1068.0
202.104294	1869.0
202.915771	1260.0
203.092499	8165.0
204.100494	2084.0
204.924622	1317.0
205.090225	9336.0
206.077576	20752.0
207.085388	17043.0
208.09259	4370.0
209.085327	27221.0
210.087387	4888.0
211.093521	13403.0
212.089417	39328.0
213.094559	12201.0
214.102966	2964.0
214.883926	1239.0
215.040619	8995.0
215.15271	1571.0
216.110977	1838.0
216.916367	18380.0
217.085785	7316.0
218.113342	1920.0
218.954987	2433.0
219.1017	7274.0
220.106613	1747.0
220.938721	3036.0
221.106857	11648.0
222.083847	3805.0
222.927551	3121.0
223.09494	17250.0
224.089218	246299.0
224.249786	2126.0
224.500015	1030.0
225.092163	45563.0
226.103119	5701.0
227.074097	9191.0
228.0979	3467.0
229.100754	5868.0
230.106796	1826.0
230.961182	3330.0
231.099304	7009.0
232.092072	2367.0
232.886368	6511.0
233.096222	8779.0
234.090912	2275.0
234.992783	3847.0
235.117737	10880.0
236.113358	2214.0
236.988129	1484.0
237.110062	14902.0
238.106964	3133.0
238.93277	1460.0
239.100296	10180.0
240.077057	2198.0
240.225327	2888.0
241.093491	5424.0
242.201172	2067.0
243.107086	3073.0
244.109634	1776.0
245.100555	6208.0
246.093399	1804.0
246.942261	1392.0
247.121307	6199.0
248.116882	2093.0
248.920822	1729.0
249.092606	16511.0
250.104233	4187.0
250.998596	1630.0
251.11351	17466.0
252.08551	392253.0
252.258713	7068.0
252.368439	1589.0
252.502472	4153.0
253.092438	72215.0
253.271393	2027.0
253.430832	1990.0
254.099792	8320.0
254.85614	2565.0
255.12384	9585.0
256.075836	1986.0
256.211639	1721.0
256.991089	2353.0
257.149261	2745.0
258.108612	2035.0
258.969177	1206.0
259.130005	3774.0
260.150543	1291.0
261.135132	6520.0
262.146881	1834.0
263.139221	7547.0
264.120941	1547.0
264.937866	2583.0
265.112366	8875.0
266.131805	2130.0
266.985077	1364.0
267.117432	12951.0
268.122864	3826.0
268.965546	1118.0
269.125092	7835.0
270.141449	1914.0
270.325897	4154.0
271.007202	1822.0
271.148438	3689.0
272.134827	1602.0
272.891815	1019.0
273.021606	1058.0
273.140289	3591.0
274.129883	1344.0
275.138306	6171.0
276.14032	1870.0
277.143005	9271.0
278.147858	2393.0
278.994232	1435.0
279.149017	8510.0
280.160583	2065.0
281.121857	7491.0
282.151611	2274.0
283.008057	1588.0
283.139801	5875.0
284.060181	1458.0
285.127686	3044.0
286.064758	2069.0
286.203369	1004.0
287.122742	4092.0
288.168732	1687.0
288.981842	1730.0
289.147064	5305.0
290.156403	1075.0
291.152435	8899.0
292.154083	2016.0
293.158936	8792.0
294.156891	2633.0
294.918732	1122.0
295.150787	8201.0
296.155701	2018.0
296.939331	1617.0
297.126526	3184.0
298.169983	1425.0
298.936768	4685.0
299.142487	3003.0
300.907654	1525.0
301.151489	3246.0
302.008911	2097.0
303.168579	5474.0
304.019043	1127.0
304.162659	1616.0
305.17041	7827.0
306.145844	1978.0
307.163727	10173.0
308.156952	2634.0
309.16095	6861.0
310.156067	1849.0
311.152802	4615.0
312.069855	2420.0
312.942383	1831.0
313.183868	3192.0
314.206451	1168.0
314.948853	1595.0
315.155884	2912.0
316.209198	1461.0
316.956696	1080.0
317.187164	6186.0
318.176788	1747.0
318.924774	1899.0
319.08786	1203.0
319.191803	10574.0
320.192902	2783.0
321.170715	7941.0
322.181854	1944.0
323.175598	8560.0
324.161621	1972.0
325.164581	4414.0
326.176086	1170.0
326.925018	1278.0
327.094666	7696.0
327.255798	22369.0
328.078583	2366.0
328.256439	4234.0
328.912445	3010.0
329.051331	2345.0
329.205658	3394.0
330.081512	2269.0
331.177399	5805.0
332.075958	1472.0
332.226013	1280.0
333.177734	7966.0
334.190582	1617.0
335.004974	1076.0
335.181458	8735.0
336.176422	2291.0
337.192444	8338.0
338.159515	1567.0
339.173065	3458.0
340.184052	1024.0
341.188965	2433.0
342.168854	1421.0
343.191742	3874.0
344.20752	1080.0
344.904388	1265.0
345.18692	5329.0
346.05191	3202.0
347.039368	9082.0
347.197876	7333.0
348.052246	2033.0
348.195648	1552.0
349.194519	10324.0
350.19989	2023.0
351.014557	1143.0
351.191986	7868.0
352.052521	1232.0
352.186646	30275.0
353.18869	11228.0
END IONS

BEGIN IONS
PEPMASS=281.071
CHARGE=1
MSLEVEL=2
SOURCE_INSTRUMENT=LC-ESI-qTof
FILENAME=DMIM_centroided_library_abundance_filtered.mgf
SEQ=*..*
IONMODE=Positive
ORGANISM=DMIM-DRUG-METABOLITE-LIBRARY
NAME=SULFAMONOMETHOXINE [M+H]+
PI=Libin Xu
DATACOLLECTOR=Dylan H. Ross
SMILES=COC1=NC=NC(=C1)NS(=O)(=O)C2=CC=C(C=C2)N
INCHI=N/A
INCHIAUX=N/A
PUBMED=N/A
SUBMITUSER=jzemlin
LIBRARYQUALITY=3
SPECTRUMID=CCMSLIB00012465093
USI=mzspec:GNPS:DMIM-DRUG-METABOLITE-LIBRARY:accession:CCMSLIB00012465093
SCANS=71
55.03524	3096.0
56.053341	7232.0
57.011765	2412.0
58.020607	1079.0
59.002182	54906.0
60.014183	2061.0
60.997444	3448.0
62.996605	1356.0
65.04171	219708.0
66.043243	12600.0
67.049339	6262.0
68.023033	11249.0
69.050049	6156.0
70.049927	7669.0
71.013733	2864.0
72.0783	1981.0
73.023239	3377.0
74.038086	1614.0
76.025055	254430.0
77.03418	13022.0
78.022461	9340.0
79.042503	6263.0
80.052536	63198.0
81.05648	11041.0
82.032936	4292.0
83.044647	10264.0
84.048134	273969.0
85.037598	77218.0
86.059425	8221.0
86.995636	14992.0
88.025124	13211.0
89.02504	2993.0
90.03315	1483.0
91.054146	8694.0
92.055634	915645.0
92.260704	22447.0
92.8246	5686.0
93.058174	105391.0
94.062462	8189.0
95.059921	16303.0
96.053375	6697.0
97.034874	27411.0
98.022331	7168.0
99.017441	15143.0
100.036667	2580.0
101.041794	2182.0
102.055687	6990.0
103.041176	3089.0
104.064484	1950.0
105.064117	8539.0
106.065025	6131.0
107.071648	9657.0
108.04953	791345.0
108.179634	18808.0
108.324142	10065.0
108.881233	3641.0
109.052376	73764.0
110.062035	6673.0
111.046623	10137.0
112.037254	4855.0
113.022423	10804.0
114.040512	10000.0
115.056458	4264.0
116.021408	92951.0
117.039429	9669.0
118.040802	9501.0
118.94088	9716.0
119.074081	15621.0
120.064064	7167.0
121.045654	16728.0
122.062645	4675.0
123.053703	29273.0
124.051323	45294.0
125.045151	20945.0
126.070808	351001.0
126.196175	3701.0
126.37558	2168.0
127.064339	26142.0
128.060303	4035.0
129.07959	10281.0
130.056519	51632.0
131.065628	11065.0
132.078461	12634.0
133.064194	11756.0
134.065933	7219.0
134.942261	1082.0
135.064743	11680.0
136.06604	24738.0
136.955353	31959.0
137.07959	11747.0
138.052734	3261.0
139.020004	20846.0
140.03038	4499.0
141.047028	11942.0
142.037796	85158.0
143.043152	14431.0
144.026062	28780.0
145.066193	15884.0
146.070923	32520.0
147.069168	11847.0
148.065903	4240.0
149.060623	10431.0
150.078796	8894.0
151.049393	9723.0
152.061203	9180.0
152.936981	4054.0
153.049881	14713.0
154.057312	3715.0
155.043839	8707.0
156.017532	200989.0
156.167038	3374.0
156.34639	1624.0
157.029343	22017.0
158.042725	17570.0
158.965103	2913.0
159.084976	8993.0
160.086761	5291.0
161.055222	9463.0
162.03067	42618.0
163.053162	11614.0
164.049606	4866.0
164.934082	3376.0
165.058929	9094.0
166.064041	3411.0
167.050735	8148.0
168.061523	19042.0
169.05574	8190.0
170.051102	14810.0
171.069962	6323.0
172.073593	3501.0
173.065048	47750.0
174.072067	97555.0
174.89505	3924.0
175.075714	16079.0
176.079483	8490.0
177.062943	8757.0
178.071762	3099.0
179.061707	14360.0
180.067261	3825.0
180.929916	5922.0
181.068787	10709.0
182.080307	3588.0
182.920166	1551.0
183.064606	8038.0
184.069366	4289.0
185.063126	5400.0
186.094437	2875.0
186.916092	1645.0
187.067398	13828.0
188.02565	23527.0
189.046417	7103.0
190.058533	3816.0
190.867081	1266.0
191.067413	7427.0
192.064301	2030.0
192.949081	1829.0
193.071671	8374.0
194.078247	13675.0
195.077332	7607.0
196.075378	5812.0
196.901688	2130.0
197.079224	7518.0
198.075485	3677.0
198.895187	1398.0
199.052689	6799.0
200.067307	3304.0
200.921951	2598.0
201.047089	11934.0
202.064835	3057.0
202.911438	2347.0
203.07399	6502.0
204.08519	3029.0
204.922165	1374.0
205.08432	4550.0
206.011658	2282.0
206.11174	1101.0
207.082062	6611.0
208.086594	2578.0
209.078476	6604.0
210.090744	3001.0
211.065247	3864.0
212.088409	2047.0
212.897446	1014.0
213.069855	3475.0
214.087952	2063.0
214.906555	2519.0
215.095001	87278.0
216.093002	12314.0
216.914261	3482.0
217.098495	5182.0
218.096573	1847.0
218.948425	2541.0
219.099243	3609.0
220.08223	1654.0
220.929657	2268.0
221.097305	5061.0
222.087265	2288.0
222.91687	1322.0
223.079498	5662.0
224.090714	1876.0
225.065369	5790.0
226.08844	2167.0
227.062683	5341.0
228.087692	5700.0
229.094452	3026.0
230.095474	2193.0
231.087387	3679.0
232.092972	1676.0
232.882767	1653.0
233.082504	7354.0
234.081833	2027.0
235.100342	5120.0
236.111771	1518.0
237.107651	5016.0
238.112396	1351.0
238.893402	1409.0
239.083893	3483.0
240.08606	1815.0
240.883484	1128.0
241.081757	2362.0
242.076736	1242.0
243.1073	2281.0
244.073166	1809.0
245.072525	4660.0
246.059235	5181.0
247.09053	3122.0
248.050613	3811.0
249.108902	4362.0
250.060287	1411.0
251.081024	7181.0
252.105545	1638.0
253.127762	3728.0
254.142181	1368.0
254.85997	2163.0
255.083832	2488.0
256.061432	1598.0
256.882294	1022.0
257.078613	1436.0
259.123718	2057.0
260.032166	1266.0
260.871979	1277.0
261.019287	1192.0
261.123077	3165.0
262.129669	1258.0
263.126984	4156.0
264.123108	1281.0
265.112671	4157.0
266.11911	1196.0
267.113586	4007.0
269.109497	1435.0
270.120361	1427.0
270.828766	2354.0
271.119476	1602.0
272.11908	1272.0
273.115173	3368.0
275.133331	2550.0
277.126984	3334.0
278.042236	1041.0
279.11908	5561.0
280.109375	1314.0
281.088898	8257.0
282.096832	1474.0
END IONS

BEGIN IONS
PEPMASS=250.085
CHARGE=1
MSLEVEL=2
SOURCE_INSTRUMENT=LC-ESI-qTof
FILENAME=DMIM_centroided_library_abundance_filtered.mgf
SEQ=*..*
IONMODE=Positive
ORGANISM=DMIM-DRUG-METABOLITE-LIBRARY
NAME=METAPROTERENOL [M+K]+
PI=Libin Xu
DATACOLLECTOR=Dylan H. Ross
SMILES=CC(C)NCC(C1=CC(=CC(=C1)O)O)O
INCHI=N/A
INCHIAUX=N/A
PUBMED=N/A
SUBMITUSER=jzemlin
LIBRARYQUALITY=3
SPECTRUMID=CCMSLIB00012465155
USI=mzspec:GNPS:DMIM-DRUG-METABOLITE-LIBRARY:accession:CCMSLIB00012465155
SCANS=133
55.029865	3939.0
56.049839	2389.0
56.998837	2770.0
58.997284	9321.0
61.01046	1537.0
65.03376	1725.0
67.049522	6400.0
68.050812	1904.0
69.019707	8173.0
70.057785	4763.0
71.008957	3200.0
72.081169	2905.0
73.038971	2315.0
74.033913	1313.0
76.025375	18938.0
77.040878	24401.0
78.037888	3070.0
79.051689	16572.0
80.051376	8730.0
81.054359	11611.0
82.062614	4586.0
83.045853	10796.0
84.053268	35943.0
85.000961	14561.0
86.042763	7191.0
87.000076	5505.0
88.029053	3499.0
89.032188	2219.0
91.055855	15212.0
92.053078	4243.0
93.065353	11689.0
94.063972	3980.0
95.069191	12083.0
96.06424	4028.0
97.029427	18356.0
98.024925	6138.0
99.006836	11159.0
100.028908	2758.0
101.020378	2658.0
102.050034	1820.0
102.935326	1045.0
103.04464	3111.0
104.050827	1023.0
105.063362	13793.0
106.062546	5657.0
107.054581	114861.0
108.056496	18126.0
109.061607	16524.0
110.051643	17082.0
111.033485	9567.0
112.036942	4107.0
113.028847	11562.0
114.039597	4860.0
115.048019	6156.0
116.032074	17843.0
117.05397	7158.0
118.055031	2029.0
118.930649	21535.0
119.07589	9173.0
120.067039	4890.0
121.040398	14824.0
122.06382	4695.0
123.050644	25791.0
124.044273	8326.0
125.05925	59057.0
126.054024	5487.0
127.038933	5273.0
128.056885	4825.0
129.070557	7994.0
130.05983	11020.0
131.059219	7243.0
132.048203	5189.0
132.966202	1814.0
133.073868	10346.0
134.072113	6921.0
134.894318	1470.0
135.056107	14629.0
136.067322	24628.0
136.946915	30096.0
137.07486	13302.0
138.051117	3225.0
139.018967	15576.0
140.041138	3264.0
141.046082	9292.0
142.042709	22357.0
142.950577	1202.0
143.059692	6625.0
144.042786	6560.0
144.960098	1197.0
145.065567	8121.0
146.06601	4265.0
147.056793	9962.0
148.063141	3729.0
149.065338	9710.0
150.057587	4582.0
151.039978	9066.0
152.074295	32521.0
152.907272	2732.0
153.037033	14962.0
154.079803	4425.0
155.040878	8022.0
156.081879	3863.0
157.085312	4576.0
158.091034	3246.0
158.919327	1197.0
159.075226	7979.0
160.08049	4422.0
161.062088	10649.0
162.055496	24559.0
163.065735	10468.0
164.07431	9677.0
164.932907	1863.0
165.061905	8080.0
166.069717	2711.0
167.062683	6483.0
168.071213	2914.0
169.06749	4802.0
170.063507	4230.0
171.06572	4528.0
172.10257	2378.0
173.074295	6600.0
174.087234	3255.0
174.896622	4659.0
175.071121	5999.0
176.073059	3486.0
177.054092	9515.0
178.068497	3942.0
179.059204	8063.0
180.072571	3709.0
180.966339	7687.0
181.087875	3411.0
182.082703	1717.0
182.918198	1756.0
183.052307	4639.0
184.084824	2053.0
185.054825	5025.0
186.093414	2281.0
187.069534	7008.0
188.063919	2951.0
189.062164	5817.0
190.07579	1987.0
190.860886	1029.0
191.048141	7630.0
192.055725	2421.0
192.927628	1020.0
193.057541	7243.0
194.098251	3469.0
194.956573	1086.0
195.084213	4752.0
196.087082	2309.0
196.906387	2061.0
197.07991	3476.0
198.072006	2319.0
198.905869	2187.0
199.064682	4309.0
200.085129	2406.0
200.920746	2235.0
201.047302	9681.0
202.059799	2755.0
202.919312	3377.0
203.084534	3387.0
204.093811	3282.0
204.921646	1403.0
205.092194	3745.0
206.10994	2496.0
207.067886	5642.0
208.069046	2057.0
209.079971	4140.0
210.082581	2018.0
211.087219	3726.0
212.105133	2995.0
212.916718	1971.0
213.089355	1987.0
214.096558	2187.0
214.886353	2984.0
215.052475	3649.0
216.118271	2215.0
216.906448	5768.0
217.10434	3386.0
218.105316	1577.0
218.980469	3186.0
219.115143	2230.0
220.115097	1244.0
220.928391	2381.0
221.097641	3207.0
222.085449	1332.0
222.93071	1810.0
223.090698	3294.0
224.098083	1652.0
225.069199	2162.0
226.123825	1271.0
227.061249	1667.0
228.116089	1171.0
229.125137	1315.0
231.073288	2255.0
232.125763	2480.0
232.88179	1538.0
233.082703	3574.0
234.931107	1104.0
235.101913	3439.0
236.116058	1314.0
237.102844	2977.0
238.113434	1183.0
238.896042	1178.0
239.08461	2321.0
241.089508	1564.0
242.098221	1043.0
243.101944	1388.0
245.070694	2313.0
247.103683	1613.0
249.010406	3387.0
249.123825	1904.0
250.962845	1662.0
251.09819	2684.0
END IONS

BEGIN IONS
PEPMASS=281.071
CHARGE=1
MSLEVEL=2
SOURCE_INSTRUMENT=LC-ESI-qTof
FILENAME=DMIM_centroided_library_abundance_filtered.mgf
SEQ=*..*
IONMODE=Positive
ORGANISM=DMIM-DRUG-METABOLITE-LIBRARY
NAME=SULFAMETHOXYPYRIDAZINE [M+H]+
PI=Libin Xu
DATACOLLECTOR=Dylan H. Ross
SMILES=COC1=NN=C(C=C1)NS(=O)(=O)C2=CC=C(C=C2)N
INCHI=N/A
INCHIAUX=N/A
PUBMED=N/A
SUBMITUSER=jzemlin
LIBRARYQUALITY=3
SPECTRUMID=CCMSLIB00012465200
USI=mzspec:GNPS:DMIM-DRUG-METABOLITE-LIBRARY:accession:CCMSLIB00012465200
SCANS=178
55.041897	3026.0
56.053436	8384.0
57.010292	2725.0
58.998173	64026.0
60.014317	1773.0
61.001377	3177.0
65.041573	107730.0
66.041382	6846.0
67.052559	5043.0
68.049911	1896.0
69.045479	7078.0
70.062538	5808.0
71.020584	3137.0
72.084053	2098.0
73.02272	3321.0
74.043793	1575.0
76.024956	308506.0
77.032257	13479.0
78.021935	11131.0
79.04274	7892.0
80.051208	40985.0
81.057404	11364.0
82.054459	2884.0
83.049355	11403.0
84.048134	336251.0
85.021736	24680.0
86.06234	6508.0
86.995239	17049.0
88.025848	14743.0
89.014824	2648.0
90.030556	1255.0
91.053101	8542.0
92.054489	516610.0
92.185257	5713.0
92.30912	5228.0
92.822914	1868.0
93.057121	44457.0
94.061836	3308.0
95.064537	10849.0
96.057251	8888.0
97.033028	23028.0
98.028931	10146.0
99.006302	11225.0
100.024002	1892.0
101.048088	1709.0
102.057106	7879.0
103.037163	2136.0
104.053993	1594.0
105.057358	9147.0
106.059654	2320.0
107.074104	10426.0
108.049103	436156.0
108.177368	6635.0
108.325203	3767.0
109.054665	44673.0
110.063293	7279.0
111.045296	45283.0
112.036354	5942.0
113.019989	10213.0
114.040527	11998.0
115.052567	4670.0
116.021118	113657.0
117.032433	10147.0
118.028908	5972.0
118.938354	9895.0
119.07737	8547.0
120.061668	6513.0
121.052727	17065.0
122.064384	4517.0
122.959412	1213.0
123.059883	29525.0
124.044334	19872.0
125.041168	15731.0
126.070473	248818.0
126.196495	2237.0
126.375908	1224.0
127.063858	19363.0
128.061752	4358.0
129.088684	10469.0
130.055237	56207.0
131.061768	9297.0
132.055817	2921.0
133.052139	9657.0
134.075989	3097.0
135.065811	9801.0
136.066788	17970.0
136.952347	29036.0
137.082199	11008.0
138.055038	3302.0
139.021408	21965.0
140.047424	3222.0
140.925064	1361.0
141.04805	13770.0
142.037582	103275.0
143.04335	13468.0
144.021439	34533.0
145.064835	10221.0
146.046356	6652.0
147.063049	10670.0
148.055618	3881.0
149.057831	10424.0
150.059875	3926.0
151.046692	9402.0
152.061951	8889.0
152.937134	3108.0
153.051895	15828.0
154.061844	3662.0
155.043365	7442.0
156.017792	110152.0
156.160614	1665.0
157.037415	13996.0
158.050354	10549.0
158.934448	1898.0
159.087036	6963.0
160.076797	4056.0
161.057266	10472.0
162.028534	48418.0
163.048798	12647.0
164.050827	5368.0
164.932083	3020.0
165.058304	9807.0
166.059128	2840.0
167.051727	9246.0
168.058365	3857.0
169.055817	7002.0
170.042099	10748.0
171.065598	7066.0
172.077347	6944.0
173.075012	8171.0
174.073135	3266.0
174.88942	4875.0
175.075104	8379.0
176.069702	2924.0
177.04805	8794.0
178.074951	2831.0
179.060394	15787.0
180.069061	2889.0
180.92189	4426.0
181.069321	11392.0
182.075577	2960.0
182.925949	1830.0
183.066452	8591.0
184.068817	2901.0
185.069427	6824.0
186.085449	3685.0
186.912811	1534.0
187.066666	14917.0
188.03566	11265.0
189.051331	6030.0
190.053085	2292.0
191.063538	8129.0
192.08844	2125.0
192.943176	1642.0
193.074234	8790.0
194.085297	2442.0
195.071777	6384.0
196.090469	1642.0
196.908646	2038.0
197.079575	6689.0
198.106598	1779.0
198.901703	2209.0
199.064636	6571.0
200.077438	5724.0
200.920181	2435.0
201.052139	12043.0
202.081161	2686.0
202.907211	2606.0
203.070053	8315.0
204.089447	3040.0
204.923508	1222.0
205.078522	4244.0
206.016556	1724.0
207.080917	5958.0
208.096725	1771.0
209.077057	7915.0
210.093857	1931.0
211.082993	4119.0
212.092072	1936.0
213.057907	3644.0
214.093124	2050.0
214.908234	2214.0
215.076981	19777.0
216.074036	4817.0
216.921265	3447.0
217.098206	6239.0
218.105347	1770.0
218.951828	1771.0
219.091522	3605.0
220.101273	1590.0
220.93103	2034.0
221.100845	5430.0
222.092255	1713.0
222.932526	1723.0
223.083633	5736.0
224.103485	1426.0
225.078247	3694.0
226.11409	1897.0
227.065201	4896.0
228.081787	2093.0
229.081024	3020.0
230.052673	1180.0
230.90448	1131.0
231.089081	3109.0
232.098679	1743.0
232.882263	1570.0
233.07254	9571.0
234.08429	1905.0
235.092728	5431.0
236.116684	1458.0
237.097855	4965.0
238.10495	1683.0
238.888306	1179.0
239.092407	3732.0
240.111618	1390.0
240.886139	1045.0
241.085266	1421.0
243.073639	1949.0
244.103714	1364.0
245.071915	6880.0
246.09433	2018.0
247.125793	2216.0
248.938263	1156.0
249.111969	4269.0
250.114517	1145.0
251.075348	8577.0
252.087067	2036.0
253.104935	3861.0
254.138168	1314.0
254.851166	2459.0
255.060211	2996.0
257.110779	1768.0
259.127106	2419.0
260.878387	1679.0
261.110779	3555.0
262.118958	1004.0
263.126129	4101.0
265.11203	3743.0
266.107727	1066.0
267.119019	3718.0
268.127014	1066.0
269.125916	1327.0
270.831573	1778.0
271.045715	1461.0
271.205719	1194.0
273.076447	2153.0
275.137482	2523.0
276.880035	1108.0
277.140106	3567.0
278.095154	1525.0
279.12851	6902.0
280.141907	1457.0
281.103119	4193.0
282.095154	1129.0
END IONS

BEGIN IONS
PEPMASS=211.124
CHARGE=1
MSLEVEL=2
SOURCE_INSTRUMENT=LC-ESI-qTof
FILENAME=DMIM_centroided_library_abundance_filtered.mgf
SEQ=*..*
IONMODE=Positive
ORGANISM=DMIM-DRUG-METABOLITE-LIBRARY
NAME=NAPHAZOLINE [M+H]+
PI=Libin Xu
DATACOLLECTOR=Dylan H. Ross
SMILES=C1(CC2=NCCN2)=CC=CC3=CC=CC=C13
INCHI=N/A
INCHIAUX=N/A
PUBMED=N/A
SUBMITUSER=jzemlin
LIBRARYQUALITY=3
SPECTRUMID=CCMSLIB00012465301
USI=mzspec:GNPS:DMIM-DRUG-METABOLITE-LIBRARY:accession:CCMSLIB00012465301
SCANS=279
55.03553	2193.0
56.048878	1521.0
56.976681	1407.0
59.003258	3280.0
63.023174	4005.0
65.038528	3573.0
67.050064	2447.0
68.045158	1414.0
69.044403	2806.0
70.055977	2633.0
71.01738	2632.0
73.008476	1360.0
74.022278	1397.0
76.027054	4658.0
77.038757	6442.0
78.045441	1224.0
79.042297	4425.0
80.052666	6126.0
81.053627	5689.0
82.049873	1512.0
83.047523	8494.0
84.055489	17638.0
84.994469	8975.0
86.039772	3447.0
87.012321	2211.0
89.039742	12738.0
90.035934	1232.0
91.055992	28141.0
92.053429	2831.0
93.064369	4286.0
94.062317	1072.0
95.063339	5738.0
96.044571	2797.0
97.024055	14535.0
98.025627	3777.0
99.000679	6534.0
100.030182	1328.0
101.019234	1628.0
102.048035	4556.0
102.995483	5690.0
104.062157	1273.0
105.065353	8440.0
106.0522	2728.0
107.065788	5342.0
108.052086	7635.0
109.062775	9729.0
110.064163	3159.0
111.031593	5602.0
112.031898	2417.0
113.027374	11548.0
114.044044	3896.0
115.058365	721591.0
115.187057	14498.0
115.344734	7832.0
115.900589	1969.0
116.059303	73637.0
117.061172	6456.0
118.064301	1668.0
118.927307	23561.0
119.075974	7534.0
120.062012	2922.0
120.967331	3870.0
121.069717	6694.0
122.063454	2418.0
122.936226	1279.0
123.052559	15430.0
124.039253	5240.0
125.021431	6507.0
126.04734	3094.0
127.052376	11900.0
128.063354	25716.0
129.072388	15760.0
130.06369	6222.0
131.059998	5333.0
132.056091	2510.0
132.938782	1245.0
133.071075	4912.0
134.078201	2139.0
134.915482	4887.0
135.065262	5983.0
136.065933	23538.0
136.942123	18270.0
137.070786	6023.0
138.04982	2152.0
138.453476	2587.0
139.047897	38193.0
140.058197	18892.0
140.931702	3154.0
141.076294	1747692.0
141.229507	116366.0
141.377579	44342.0
141.941162	15603.0
142.075165	373803.0
142.200043	6985.0
142.7043	1081.0
142.856445	23023.0
142.957733	2858.0
143.071701	22359.0
143.501999	1016.0
143.677414	9023.0
144.070862	3579.0
144.494034	2716.0
145.073303	5755.0
146.062714	2518.0
147.053314	5776.0
148.063065	2832.0
149.050735	5693.0
150.063873	3009.0
151.048111	9297.0
152.065231	24077.0
152.914124	4230.0
153.069366	41955.0
154.071167	12789.0
154.955368	1861.0
155.075592	12027.0
156.082123	10969.0
157.073395	6179.0
158.083023	2086.0
159.080078	4834.0
160.078003	2643.0
161.05864	5526.0
162.048996	3319.0
163.039078	3327.0
164.064224	2966.0
164.929855	1542.0
165.069351	20477.0
165.936096	1164.0
166.070633	46830.0
167.078186	52731.0
168.084976	44950.0
169.079147	7876.0
170.077942	5292.0
171.091324	2520.0
172.087708	1891.0
173.082809	3345.0
174.082733	1699.0
174.886948	3774.0
175.076385	3680.0
176.066055	2690.0
177.034393	5671.0
178.068527	3280.0
178.912643	1398.0
179.065979	5812.0
180.083237	8225.0
180.932663	6068.0
181.080795	10654.0
182.094193	12081.0
182.931503	2467.0
183.092102	10196.0
184.094208	2837.0
184.903259	1309.0
185.052887	4540.0
186.087814	1525.0
186.906433	1148.0
187.073242	2805.0
188.082031	1319.0
189.069412	4006.0
190.083038	1104.0
190.870499	1318.0
191.060486	3887.0
192.083801	3450.0
193.080399	6911.0
194.097137	7405.0
195.090179	7086.0
196.08844	1909.0
196.902008	2404.0
197.077484	2430.0
198.91803	2796.0
199.068283	1754.0
200.922836	2106.0
201.028381	3362.0
202.077271	1394.0
202.908936	4398.0
203.083679	2177.0
204.077789	1913.0
204.908859	1961.0
205.073776	2076.0
206.086716	1034.0
207.089676	4189.0
208.105103	10754.0
209.110214	22274.0
210.119415	8155.0
210.966782	1445.0
211.13063	472461.0
211.29335	16059.0
211.426682	10379.0
211.538666	4085.0
212.13382	107019.0
212.302933	7443.0
212.417114	4960.0
212.887589	2280.0
213.081818	1698.0
END IONS

BEGIN IONS
PEPMASS=130.109
CHARGE=1
MSLEVEL=2
SOURCE_INSTRUMENT=LC-ESI-qTof
FILENAME=DMIM_centroided_library_abundance_filtered.mgf
SEQ=*..*
IONMODE=Positive
ORGANISM=DMIM-DRUG-METABOLITE-LIBRARY
NAME=METFORMIN [M+H]+
PI=Libin Xu
DATACOLLECTOR=Dylan H. Ross
SMILES=CN(C)C(=N)N=C(N)N
INCHI=N/A
INCHIAUX=N/A
PUBMED=N/A
SUBMITUSER=jzemlin
LIBRARYQUALITY=3
SPECTRUMID=CCMSLIB00012465855
USI=mzspec:GNPS:DMIM-DRUG-METABOLITE-LIBRARY:accession:CCMSLIB00012465855
SCANS=833
77.040314	2929.0
79.045029	1868.0
81.017189	1012.0
91.052437	2595.0
92.094536	1821.0
97.025612	1360.0
103.050598	1020.0
105.05378	1333.0
107.047043	1580.0
109.031448	1918.0
110.037125	1001.0
115.052261	2500.0
121.036514	2297.0
122.092361	2077.0
122.948624	1336.0
123.072197	3056.0
125.003403	1535.0
127.027847	1533.0
128.048645	1866.0
END IONS

BEGIN IONS
PEPMASS=364.097
CHARGE=1
MSLEVEL=2
SOURCE_INSTRUMENT=LC-ESI-qTof
FILENAME=DMIM_centroided_library_abundance_filtered.mgf
SEQ=*..*
IONMODE=Positive
ORGANISM=DMIM-DRUG-METABOLITE-LIBRARY
NAME=CEFADROXIL [M+H]+
PI=Libin Xu
DATACOLLECTOR=Dylan H. Ross
SMILES=CC1=C(N2[C@@H]([C@@H](C2=O)NC(=O)[C@@H](C3=CC=C(C=C3)O)N)SC1)C(=O)O
INCHI=N/A
INCHIAUX=N/A
PUBMED=N/A
SUBMITUSER=jzemlin
LIBRARYQUALITY=3
SPECTRUMID=CCMSLIB00012465883
USI=mzspec:GNPS:DMIM-DRUG-METABOLITE-LIBRARY:accession:CCMSLIB00012465883
SCANS=861
55.04911	2782.0
57.065853	2012.0
58.064781	1329.0
59.028664	1490.0
67.051575	3241.0
68.052536	1724.0
69.055374	5312.0
70.063293	6128.0
71.056091	2253.0
72.079796	2705.0
73.052071	1467.0
74.059891	1055.0
76.024666	3323.0
77.031273	2481.0
79.04351	3405.0
80.038673	2428.0
81.06086	6138.0
82.053932	1491.0
83.058708	5144.0
84.06118	13480.0
85.033524	7309.0
86.094193	7049.0
87.036926	3261.0
88.057175	2311.0
89.049698	1640.0
91.053604	7639.0
93.066132	4970.0
95.075119	14380.0
96.063957	2092.0
97.036446	47260.0
98.042397	4634.0
99.021759	8541.0
100.05336	1597.0
101.053497	3292.0
102.061005	1982.0
103.021622	2389.0
105.070793	42672.0
106.072144	3645.0
107.071709	8580.0
108.061653	3657.0
109.080841	15877.0
110.069977	6623.0
111.051758	12932.0
112.047234	4881.0
113.036652	10511.0
114.046234	3767.0
115.063095	3276.0
116.033195	5027.0
117.051933	2179.0
118.06514	1563.0
118.925034	1677.0
119.057976	8656.0
120.069695	6584.0
120.953476	1637.0
121.067467	24317.0
122.064598	8909.0
123.055786	63719.0
124.058327	7242.0
125.031815	14250.0
126.079887	7184.0
127.049782	5844.0
128.053696	2278.0
129.096725	11086.0
130.059402	7637.0
131.065842	3571.0
132.06839	1187.0
133.054337	8346.0
134.058121	4788.0
135.071381	10522.0
136.065872	28996.0
136.948013	17760.0
137.074249	24680.0
138.066147	5835.0
139.03981	25831.0
140.031357	7037.0
140.942368	1187.0
141.05864	5237.0
142.03746	12755.0
142.976517	7203.0
143.098251	2480.0
144.038925	3044.0
145.070847	4788.0
146.071716	1657.0
147.069839	8490.0
148.054764	5717.0
149.080338	9067.0
150.05661	4202.0
151.059021	10461.0
152.067154	4323.0
153.051926	16087.0
154.079117	17040.0
155.056198	8981.0
156.066879	2891.0
157.081024	3871.0
158.051788	3482.0
158.938583	2611.0
159.086014	6711.0
160.061615	3895.0
161.081284	9423.0
162.05426	5375.0
163.074829	13455.0
164.081818	5090.0
164.933975	5642.0
165.061966	16860.0
166.061325	4165.0
167.057983	11925.0
168.064957	2917.0
169.056122	10348.0
170.052124	3486.0
171.07428	7767.0
172.075989	2225.0
173.077866	8198.0
174.083832	2088.0
174.929855	2613.0
175.080505	7774.0
176.065979	2707.0
176.955475	1094.0
177.077454	15970.0
178.07547	4237.0
178.96225	1654.0
179.08136	23613.0
180.076447	4652.0
180.914368	3704.0
181.075775	23359.0
182.08075	4271.0
183.068558	14338.0
184.076538	3902.0
185.07045	6213.0
186.102951	2427.0
186.941849	1604.0
187.095154	6059.0
188.058395	2749.0
189.071762	6460.0
190.066208	2247.0
191.072784	13170.0
192.08136	4432.0
192.958603	3319.0
193.079498	23794.0
194.087219	3926.0
194.963516	1226.0
195.086151	15913.0
196.081451	3654.0
196.909836	2169.0
197.083847	34424.0
198.081879	4675.0
198.899002	3163.0
199.074081	6004.0
200.105484	5146.0
200.941254	14171.0
201.107285	6236.0
202.086823	1736.0
202.926468	1127.0
203.087006	10563.0
204.070526	2389.0
205.087051	10907.0
206.082199	3405.0
207.09108	16014.0
208.099365	3359.0
209.08255	33423.0
210.091446	5152.0
211.090317	11360.0
212.0914	3648.0
212.880142	1022.0
213.098557	7830.0
214.101883	2750.0
215.034454	6842.0
215.152405	1258.0
216.086334	2986.0
216.908676	25591.0
217.089569	6942.0
218.096954	2372.0
218.972687	2349.0
219.113556	7667.0
220.098358	2583.0
220.923477	2368.0
221.104172	14116.0
222.099533	3659.0
222.925354	3283.0
223.096375	21188.0
224.094696	3912.0
225.089172	13392.0
226.115479	3586.0
227.068359	8549.0
228.100296	3148.0
229.095978	5848.0
230.1008	1785.0
230.938477	2383.0
231.08812	7357.0
232.088257	2455.0
232.883774	6506.0
233.096054	13148.0
234.102112	2220.0
234.987015	2540.0
235.115311	15029.0
236.105835	3523.0
236.987076	1091.0
237.111893	18429.0
238.110641	3643.0
238.921646	2444.0
239.099533	13192.0
240.100067	2878.0
240.210968	2917.0
241.09082	6028.0
242.087128	2009.0
242.238586	1109.0
243.112305	3788.0
244.131927	1814.0
245.097672	7723.0
246.064926	1690.0
246.933212	1624.0
247.10936	7640.0
248.131302	1774.0
248.935486	2908.0
249.102661	15011.0
250.099457	3765.0
250.990158	1118.0
251.11142	21660.0
252.111282	3958.0
253.001465	1084.0
253.122131	14149.0
254.142746	3028.0
254.864059	3177.0
255.118713	12052.0
256.111969	2697.0
256.937683	1792.0
257.108093	4038.0
258.109528	1875.0
258.976318	1347.0
259.125549	4203.0
260.119873	1409.0
260.931671	1503.0
261.123657	7826.0
262.123749	2275.0
262.941864	1105.0
263.136383	9995.0
264.129791	2581.0
264.937042	2202.0
265.121826	13077.0
266.116119	2419.0
266.938019	1451.0
267.119202	17423.0
268.115601	4325.0
269.129486	10201.0
270.131317	2708.0
270.31546	1332.0
270.926849	1527.0
271.105835	5462.0
272.15918	1667.0
273.017731	1559.0
273.143402	4853.0
274.130859	1281.0
274.95462	1418.0
275.146545	7628.0
276.156372	1458.0
277.1409	10964.0
278.141785	2591.0
279.139221	11726.0
280.14267	2765.0
281.125214	8794.0
282.154968	2322.0
282.860718	1085.0
283.124817	8084.0
283.978149	1179.0
284.115692	2481.0
285.121185	4539.0
286.124908	2176.0
287.143097	4174.0
288.152283	1591.0
288.970947	1858.0
289.142609	8258.0
290.138855	2793.0
291.034027	1045.0
291.151489	11068.0
292.137726	2517.0
293.145416	13131.0
294.147064	2436.0
295.151154	11379.0
296.148346	2815.0
296.940063	2132.0
297.136627	4749.0
298.138794	1542.0
298.937073	5968.0
299.121857	3576.0
301.134033	3964.0
302.050446	2995.0
303.160156	5691.0
304.130066	1862.0
305.164459	10657.0
306.147217	1999.0
307.155212	13070.0
308.15979	3533.0
309.157959	8861.0
310.172852	1831.0
311.157471	6720.0
312.071167	2404.0
312.936676	2763.0
313.151642	3269.0
314.14624	1159.0
314.94873	1713.0
315.168823	3818.0
316.160828	1419.0
317.076721	1023.0
317.185577	6556.0
318.190002	1808.0
318.935181	1636.0
319.182709	10906.0
320.175659	2587.0
320.942383	1303.0
321.167908	9190.0
322.142212	2610.0
323.173431	10352.0
324.186127	2789.0
325.156281	6463.0
326.165405	1248.0
327.097565	9428.0
327.237213	3071.0
328.085876	2434.0
328.906799	3690.0
329.049438	2098.0
329.177795	3218.0
330.075348	2311.0
331.180267	6136.0
332.072968	1563.0
332.210175	1361.0
333.177521	10467.0
334.190826	2621.0
335.180725	11499.0
336.183685	3017.0
337.172455	9068.0
338.170837	1789.0
339.176086	5364.0
340.141327	1528.0
341.16864	3174.0
342.173248	1403.0
343.188904	3483.0
344.176483	1218.0
344.90564	1574.0
345.180298	5509.0
346.056427	4288.0
346.2052	1261.0
347.039612	8198.0
347.193085	9351.0
348.039551	1184.0
348.213226	2365.0
349.195221	11949.0
350.19223	3258.0
351.00293	1344.0
351.186737	10121.0
352.185638	2544.0
353.06543	1349.0
353.191772	5807.0
354.198822	1794.0
355.200806	2861.0
356.166779	1309.0
357.096771	1156.0
357.247345	7065.0
358.233551	1660.0
359.205322	5812.0
360.208008	2334.0
361.204865	11122.0
362.210175	2822.0
363.204224	12542.0
364.193573	3166.0
365.186707	11979.0
END IONS

BEGIN IONS
PEPMASS=145.123
CHARGE=1
MSLEVEL=2
SOURCE_INSTRUMENT=LC-ESI-qTof
FILENAME=DMIM_centroided_library_abundance_filtered.mgf
SEQ=*..*
IONMODE=Positive
ORGANISM=DMIM-DRUG-METABOLITE-LIBRARY
NAME=VALPROATE [M+H]+
PI=Libin Xu
DATACOLLECTOR=Dylan H. Ross
SMILES=CCCC(CCC)C(=O)O
INCHI=N/A
INCHIAUX=N/A
PUBMED=N/A
SUBMITUSER=jzemlin
LIBRARYQUALITY=3
SPECTRUMID=CCMSLIB00012466278
USI=mzspec:GNPS:DMIM-DRUG-METABOLITE-LIBRARY:accession:CCMSLIB00012466278
SCANS=1256
77.040993	2819.0
79.037956	1764.0
84.981308	1072.0
91.052643	2706.0
92.046165	1236.0
95.067032	1005.0
97.006935	1187.0
105.070068	2046.0
107.055779	1588.0
108.060478	1080.0
109.038292	2013.0
110.043961	1896.0
111.017761	1293.0
115.051994	2680.0
117.063072	1122.0
118.934875	1472.0
119.076576	1130.0
121.06617	1887.0
122.087814	2853.0
122.968605	2361.0
123.081627	1572.0
124.99054	1863.0
126.995827	1542.0
128.019577	3430.0
129.062729	1540.0
131.056656	1251.0
132.067368	1427.0
134.898376	3646.0
135.047241	2723.0
137.040955	1539.0
139.033432	1946.0
141.055298	2046.0
143.011215	2628.0
145.03064	1432.0
END IONS

BEGIN IONS
PEPMASS=470.034
CHARGE=1
MSLEVEL=2
SOURCE_INSTRUMENT=LC-ESI-qTof
FILENAME=DMIM_centroided_library_abundance_filtered.mgf
SEQ=*..*
IONMODE=Positive
ORGANISM=DMIM-DRUG-METABOLITE-LIBRARY
NAME=DICLOXACILLIN [M+H]+
PI=Libin Xu
DATACOLLECTOR=Dylan H. Ross
SMILES=CC1=C(C(=NO1)C2=C(C=CC=C2Cl)Cl)C(=O)N[C@H]3[C@@H]4N(C3=O)[C@H](C(S4)(C)C)C(=O)O
INCHI=N/A
INCHIAUX=N/A
PUBMED=N/A
SUBMITUSER=jzemlin
LIBRARYQUALITY=3
SPECTRUMID=CCMSLIB00012466515
USI=mzspec:GNPS:DMIM-DRUG-METABOLITE-LIBRARY:accession:CCMSLIB00012466515
SCANS=1493
55.051228	2377.0
57.058743	1893.0
58.06646	1326.0
59.033428	1177.0
60.066769	1472.0
67.055809	1688.0
69.060425	3582.0
70.067673	5734.0
71.063057	2078.0
72.082695	2820.0
73.053513	1414.0
74.06398	1369.0
76.027443	3453.0
77.033638	1111.0
79.045013	1964.0
80.027985	1841.0
81.060173	5697.0
82.04895	1115.0
83.063049	4925.0
84.064079	7662.0
85.03875	3810.0
86.093613	7108.0
87.048836	5055.0
88.056839	1341.0
89.061493	9889.0
91.054924	7176.0
93.066917	3354.0
95.077347	10224.0
96.059982	1464.0
97.056625	9582.0
98.054131	2011.0
99.034706	6044.0
100.053177	3251.0
101.057587	3116.0
102.056053	1971.0
103.029297	2213.0
104.071747	4884.0
105.071526	38293.0
106.073868	3118.0
107.072029	5976.0
108.054543	2521.0
109.081665	13159.0
110.074005	4220.0
111.058823	9775.0
112.045242	4034.0
113.042664	5722.0
114.047829	4352.0
115.070793	3006.0
116.047073	3385.0
117.057083	1440.0
119.070076	5610.0
120.079849	5025.0
121.072487	18189.0
122.080582	28986.0
123.055511	67664.0
124.055794	6339.0
125.032433	13828.0
126.07856	3112.0
127.067543	4151.0
128.056747	9988.0
129.094513	9899.0
130.065109	5447.0
131.061096	3085.0
133.066788	12466.0
134.066879	2172.0
135.079056	7370.0
136.066238	10347.0
136.933929	5253.0
137.06749	29144.0
138.066498	5467.0
139.043488	21343.0
140.052872	3508.0
141.055084	4066.0
142.039993	4625.0
142.964035	7818.0
143.092651	1947.0
144.04744	2868.0
145.075333	3049.0
146.058136	2252.0
147.053513	7851.0
148.077164	2576.0
149.080261	8023.0
150.070801	2400.0
151.079926	9003.0
152.072128	3720.0
153.055115	11881.0
154.064774	3708.0
155.065002	9274.0
156.085175	1928.0
157.09137	3193.0
158.106918	1754.0
158.937317	4609.0
159.09404	4272.0
160.046967	11688.0
161.080566	7075.0
162.038635	6128.0
163.085052	14343.0
164.079651	5832.0
164.933472	7970.0
165.065933	16720.0
166.068176	4428.0
167.065552	9391.0
168.065414	3053.0
169.06636	8684.0
170.047226	2787.0
171.088364	4200.0
172.082764	1909.0
173.083282	7573.0
174.068878	6718.0
174.908051	5829.0
175.082001	7465.0
176.074371	2813.0
176.915649	1542.0
177.085709	16808.0
178.085175	3788.0
179.084396	24386.0
180.073929	5578.0
180.908432	5693.0
181.080154	28433.0
182.061478	7839.0
183.074371	13776.0
184.077194	2800.0
185.058273	5051.0
186.1035	2175.0
186.918213	1401.0
187.084595	4953.0
188.047119	1226.0
189.082611	5468.0
190.084137	1953.0
191.080811	13727.0
192.079819	3954.0
192.953339	1638.0
193.085068	22840.0
194.093155	4763.0
194.980469	1202.0
195.088989	21768.0
196.090073	4163.0
196.900787	5395.0
197.085632	42300.0
198.076324	6315.0
198.908737	1136.0
199.080704	6017.0
200.006058	2465.0
200.145737	1347.0
200.969666	1543.0
201.105682	4547.0
202.062637	1574.0
203.0952	8495.0
204.098236	2098.0
205.092072	10919.0
206.087051	3315.0
207.093475	17960.0
208.091309	3644.0
209.086273	32984.0
210.092438	4959.0
211.092239	14155.0
211.974777	15769.0
212.117676	2077.0
212.868515	3073.0
213.067856	9503.0
213.973709	10604.0
214.115601	1379.0
214.961258	1517.0
215.088272	6419.0
215.991699	2432.0
216.128235	1391.0
216.966858	2120.0
217.103699	7018.0
218.103912	2011.0
219.106644	10186.0
220.100433	3206.0
220.945175	1572.0
221.110138	18344.0
222.107422	3232.0
223.098038	24629.0
224.104385	3967.0
225.093887	16507.0
226.123428	3541.0
227.069443	6624.0
228.124268	2089.0
229.095795	3835.0
230.117752	1797.0
231.092453	6387.0
232.0849	2508.0
232.891174	1073.0
233.098923	15443.0
234.113434	2874.0
235.012421	1354.0
235.118057	20455.0
236.123901	3508.0
237.118286	24203.0
238.116318	4273.0
238.901077	2713.0
239.106964	15413.0
240.08223	3875.0
240.222107	5018.0
241.094009	7203.0
242.018555	1482.0
242.150742	2092.0
243.118271	4481.0
244.120071	2050.0
245.102921	5496.0
246.118454	1780.0
246.963577	1337.0
247.117554	7489.0
248.120407	1953.0
249.121307	16123.0
250.118835	3297.0
250.991409	1069.0
251.117767	24375.0
252.125641	4825.0
253.120712	18809.0
253.98909	2050.0
254.142395	4362.0
254.870773	1522.0
255.126801	12610.0
256.008728	2122.0
256.134979	1659.0
256.93454	1341.0
257.102997	3868.0
258.031677	3055.0
258.987762	1087.0
259.121277	3578.0
260.103058	1802.0
260.884888	1281.0
261.015625	1122.0
261.134521	10894.0
262.140686	2831.0
262.936798	1077.0
263.131165	12957.0
264.131561	3175.0
265.127075	15586.0
266.131897	2941.0
266.93161	2007.0
267.12677	20768.0
268.121887	4540.0
268.269409	2198.0
269.133514	13160.0
270.126465	2037.0
270.251007	1277.0
270.998108	1511.0
271.100555	3876.0
271.220795	12731.0
272.037598	1429.0
272.211914	3080.0
273.020508	1473.0
273.137268	4186.0
274.137573	1701.0
274.988922	1158.0
275.141846	8221.0
276.146484	2489.0
277.001678	1110.0
277.143982	15942.0
278.135834	3505.0
278.903412	1121.0
279.144531	15025.0
280.148407	3488.0
281.128052	12928.0
282.143341	2494.0
283.133575	11517.0
284.119446	2582.0
284.339325	3405.0
284.931946	1187.0
285.118683	5576.0
286.119385	1785.0
287.008057	1377.0
287.143127	4289.0
288.151855	1781.0
288.870728	1136.0
289.136444	8200.0
290.116486	2335.0
291.143982	11419.0
292.145477	2475.0
292.995117	1359.0
293.155487	15910.0
293.985504	1039.0
294.16037	3486.0
295.008392	1293.0
295.151428	14810.0
295.972717	1557.0
296.151917	3749.0
297.131805	7859.0
298.129822	2351.0
298.342072	1275.0
298.844391	1202.0
298.990021	1020.0
299.139648	5376.0
300.15741	1527.0
300.887238	1433.0
301.12854	3944.0
302.128876	2148.0
303.161682	6251.0
304.180267	1959.0
305.168304	12105.0
306.167297	3076.0
307.160828	13779.0
308.140411	4606.0
309.160126	15799.0
309.999542	1060.0
310.175079	4262.0
311.002411	2004.0
311.159607	11728.0
312.073242	3611.0
312.197815	1507.0
313.013977	2811.0
313.163116	5504.0
314.032867	1118.0
314.169128	2040.0
314.986694	2063.0
315.178772	4132.0
315.999725	1122.0
316.848389	1334.0
317.035004	1435.0
317.19342	7266.0
318.181213	2082.0
318.900024	1117.0
319.043152	1359.0
319.190033	10034.0
320.163605	2455.0
320.887665	1398.0
321.164764	13802.0
322.168213	2662.0
322.865997	1018.0
323.159668	11606.0
324.156769	2238.0
325.164734	11800.0
326.167389	2309.0
327.15097	7894.0
328.028992	1263.0
328.165344	1575.0
328.91214	1483.0
329.178436	4489.0
329.846832	1017.0
330.083771	6469.0
331.066864	1918.0
331.192963	7257.0
332.058624	2865.0
332.19928	1561.0
333.004822	2357.0
333.197845	11938.0
334.076416	1649.0
334.217712	2233.0
334.993713	1515.0
335.191071	11792.0
336.199402	2839.0
336.973114	1109.0
337.172058	9696.0
338.181793	2828.0
339.160614	7431.0
340.186157	2250.0
341.173462	5921.0
342.153229	1561.0
343.17926	5787.0
344.160645	1599.0
345.204285	6459.0
346.05542	16559.0
346.211578	1504.0
347.047668	2578.0
347.202057	10129.0
348.064819	2239.0
348.227875	2880.0
349.194824	14857.0
350.030334	1142.0
350.20108	4245.0
350.999786	1513.0
351.182465	10982.0
352.076385	2289.0
352.216431	1626.0
353.185181	8112.0
354.189789	1521.0
355.168304	4613.0
355.288818	1272.0
356.220001	1554.0
357.136108	2263.0
357.237579	4723.0
358.232025	2479.0
359.216675	7779.0
360.219177	1942.0
361.216553	10424.0
362.240479	3886.0
363.205444	10775.0
364.205322	3457.0
365.168243	17552.0
366.187988	3418.0
367.188049	8001.0
368.032471	4550.0
368.200653	1798.0
369.035522	1400.0
369.190155	5167.0
371.153564	2230.0
371.262848	8743.0
372.236603	2596.0
373.121246	1180.0
373.228943	6459.0
374.048767	7797.0
374.22113	2018.0
375.070618	1901.0
375.227539	10157.0
376.225677	3203.0
377.117981	1250.0
377.23114	11207.0
378.226562	3220.0
379.213776	10094.0
380.218018	2722.0
381.11673	6746.0
381.227966	5664.0
382.198181	2109.0
383.211334	4635.0
384.013092	2650.0
384.196838	1099.0
385.021851	1015.0
385.157532	1453.0
385.274231	4537.0
386.207581	2132.0
387.236145	7248.0
388.232483	2710.0
389.149445	3994.0
389.25708	10306.0
390.019562	4948.0
390.258392	3742.0
391.064148	3234.0
391.240143	14837.0
392.026367	1137.0
392.245575	3988.0
393.225433	14799.0
394.228973	3995.0
395.122223	1379.0
395.226959	8102.0
396.18988	1870.0
397.2164	5567.0
398.23996	2060.0
399.240265	5282.0
400.233978	1837.0
401.156982	1383.0
401.285675	23855.0
402.107635	1210.0
402.290771	5118.0
403.144348	1149.0
403.266174	11453.0
404.257263	3786.0
405.141907	1644.0
405.256714	15121.0
405.994965	4031.0
406.250031	4191.0
407.236969	12497.0
407.997864	1400.0
408.249115	3285.0
408.983856	1146.0
409.177856	87351.0
409.327545	2479.0
410.177521	21390.0
410.292511	1004.0
411.20401	9124.0
412.245544	2579.0
413.221405	4336.0
414.219452	1753.0
415.245758	7400.0
416.246521	2462.0
417.249573	9619.0
418.252014	3109.0
418.789246	1140.0
419.255554	17159.0
420.263977	4484.0
421.244659	19113.0
421.973969	1852.0
422.25	4013.0
423.238525	12037.0
424.240326	3552.0
425.222015	10125.0
426.20578	3186.0
426.994934	1022.0
427.226013	5502.0
428.238312	1868.0
429.238647	5065.0
430.243134	1826.0
431.249054	9678.0
432.256226	2686.0
433.241943	16141.0
434.26297	4049.0
435.241699	15420.0
436.246002	4256.0
436.779999	1410.0
437.24588	40113.0
438.246246	7837.0
439.237152	12461.0
440.23642	2883.0
441.237671	6753.0
442.240601	1811.0
443.236969	3879.0
444.235687	1337.0
445.194397	2181.0
445.30719	11201.0
446.313812	3246.0
447.170349	1497.0
447.275787	11249.0
448.26178	3455.0
449.239746	11583.0
450.241882	3744.0
451.238281	14141.0
452.241425	3526.0
453.233154	14375.0
454.255219	4450.0
454.786499	1108.0
455.242065	6795.0
456.23468	2017.0
457.237488	5139.0
458.249695	1481.0
459.239136	4860.0
460.246246	1465.0
461.256134	6262.0
462.247528	2190.0
463.250458	8266.0
464.246796	3008.0
465.239319	10637.0
466.250854	3031.0
467.236969	9510.0
468.241333	2911.0
469.229034	6809.0
470.253845	3439.0
471.239349	4459.0
END IONS

BEGIN IONS
PEPMASS=281.202
CHARGE=1
MSLEVEL=2
SOURCE_INSTRUMENT=LC-ESI-qTof
FILENAME=DMIM_centroided_library_abundance_filtered.mgf
SEQ=*..*
IONMODE=Positive
ORGANISM=DMIM-DRUG-METABOLITE-LIBRARY
NAME=IMIPRAMINE [M+H]+
PI=Libin Xu
DATACOLLECTOR=Dylan H. Ross
SMILES=CN(C)CCCN1C2=CC=CC=C2CCC3=CC=CC=C31
INCHI=N/A
INCHIAUX=N/A
PUBMED=N/A
SUBMITUSER=jzemlin
LIBRARYQUALITY=3
SPECTRUMID=CCMSLIB00012466544
USI=mzspec:GNPS:DMIM-DRUG-METABOLITE-LIBRARY:accession:CCMSLIB00012466544
SCANS=1522
55.040531	1943.0
56.046524	5183.0
57.022831	2190.0
58.067677	155766.0
59.005749	34574.0
60.01881	1484.0
60.999748	1343.0
67.052696	2547.0
68.042938	1185.0
69.056374	3078.0
70.064865	5642.0
71.037659	3215.0
72.081367	3800.0
73.027046	1926.0
76.024452	161787.0
77.034447	10628.0
78.022842	6625.0
79.032654	4157.0
80.049568	7099.0
81.05455	7534.0
82.053391	1019.0
83.047081	6319.0
84.047966	179332.0
85.027916	13473.0
86.099632	344021.0
86.346771	1894.0
86.991051	9712.0
87.096786	15483.0
88.027756	9312.0
89.036507	2135.0
91.054916	5755.0
93.061821	5030.0
94.06768	1146.0
95.0448	12089.0
96.056358	2156.0
97.034737	14148.0
98.018852	5665.0
99.015541	6925.0
100.032974	1831.0
101.052383	2009.0
102.060692	5888.0
103.012054	2177.0
104.067665	1247.0
105.055084	6733.0
106.064972	1611.0
107.071938	5956.0
108.055138	3752.0
109.074554	9190.0
110.066978	6068.0
111.044289	8865.0
112.017067	10956.0
113.027382	6539.0
114.038857	6991.0
115.060539	4311.0
116.020645	64460.0
117.030495	5849.0
118.028381	3942.0
118.92672	3037.0
119.062988	6614.0
120.046875	7164.0
121.066002	13609.0
122.057274	4108.0
123.05735	30254.0
124.031662	8342.0
125.026573	10077.0
126.029449	2029.0
127.026337	5681.0
128.036819	3140.0
129.092209	8128.0
130.054916	37404.0
131.062836	6212.0
132.055649	2171.0
133.0522	7285.0
134.058548	2289.0
135.067688	7048.0
136.068359	6300.0
136.950119	16310.0
137.080795	11505.0
138.061035	2988.0
139.031113	16084.0
140.031693	3278.0
141.049911	7342.0
142.035583	57930.0
143.036758	9971.0
144.024765	24144.0
145.053802	7898.0
146.046494	3690.0
147.064514	7176.0
148.069748	2014.0
149.075806	7095.0
150.06189	2466.0
151.051956	8860.0
152.062027	13596.0
152.912506	1109.0
153.058029	16998.0
154.059677	3194.0
155.048828	5398.0
156.046539	3297.0
156.975388	1191.0
157.08519	3413.0
158.092926	2542.0
158.935043	3073.0
159.093582	5531.0
160.04068	11605.0
161.061142	8859.0
162.029282	33408.0
163.058716	10356.0
164.052658	4966.0
164.949936	8286.0
165.073364	8676.0
166.058899	3910.0
167.059769	8551.0
168.051254	4538.0
169.056305	6013.0
170.040359	7692.0
171.06308	5435.0
172.07019	2097.0
173.068619	7663.0
174.037582	3278.0
174.899628	5473.0
175.073303	7187.0
176.024277	2405.0
176.945511	1475.0
177.074158	7271.0
178.072922	3354.0
179.062424	15639.0
180.075195	6270.0
180.911957	9646.0
181.074326	13881.0
182.074081	3234.0
182.915771	1227.0
183.068481	9129.0
184.063095	2631.0
185.055679	7281.0
186.085312	2423.0
186.914352	1673.0
187.062744	11275.0
188.051117	3823.0
189.054886	5840.0
190.050598	2999.0
191.07077	8637.0
192.079712	9742.0
192.957657	2236.0
193.093124	133541.0
194.094727	22601.0
195.091904	11876.0
196.06105	6138.0
196.886322	8427.0
197.082535	13177.0
198.071884	2986.0
198.886749	2001.0
199.061554	5355.0
199.994751	1837.0
200.110321	1232.0
200.920273	1621.0
201.053177	11910.0
202.050339	2515.0
203.065628	21136.0
204.096664	3413.0
205.086899	6643.0
205.984634	2728.0
206.09082	6619.0
206.974136	1333.0
207.092636	10989.0
208.118332	128742.0
208.973022	1311.0
209.105255	33020.0
210.103348	4149.0
211.091705	5620.0
212.103149	2063.0
212.86026	3945.0
213.070694	4886.0
214.107635	1751.0
214.865814	1265.0
215.038284	12249.0
216.04364	2953.0
217.067276	4942.0
218.093414	1668.0
218.903732	1663.0
219.106033	3773.0
220.111572	6188.0
220.930695	1919.0
221.105392	6696.0
222.099838	1647.0
223.060562	9746.0
224.104996	5218.0
225.088806	4580.0
226.110336	1519.0
227.059753	5838.0
228.093323	4113.0
229.08757	3986.0
230.090683	1388.0
231.095627	3241.0
232.091583	1614.0
232.883987	1042.0
233.074478	9056.0
234.115051	2077.0
235.117432	7450.0
236.144165	9992.0
237.114197	8749.0
238.097885	1747.0
238.888443	1511.0
239.073013	5788.0
240.045792	1450.0
240.204422	1789.0
241.006577	2165.0
242.054352	1213.0
243.043732	1848.0
244.098877	1056.0
245.077133	6035.0
246.086487	1631.0
247.113586	3210.0
248.966934	1071.0
249.117554	6666.0
250.137054	1068.0
251.086502	13500.0
252.094849	2632.0
253.009552	1256.0
253.131561	5641.0
254.126221	1128.0
254.857056	1689.0
255.061279	4465.0
256.047913	2222.0
256.917816	1371.0
257.09079	2103.0
258.016418	4556.0
258.996857	1118.0
259.130005	3413.0
260.138977	1244.0
260.866241	1648.0
261.11319	6583.0
262.12677	1321.0
263.137146	5315.0
264.147827	1532.0
265.130188	5882.0
266.117249	1710.0
267.118561	4214.0
268.082184	1366.0
269.13205	2477.0
270.842651	1322.0
271.10025	1964.0
273.102203	4719.0
274.072693	1624.0
275.136993	3804.0
277.144836	6923.0
278.082336	2777.0
279.127899	8733.0
280.151215	1251.0
281.140228	5741.0
282.143372	1435.0
283.135925	2002.0
END IONS

BEGIN IONS
PEPMASS=417.21
CHARGE=1
MSLEVEL=2
SOURCE_INSTRUMENT=LC-ESI-qTof
FILENAME=DMIM_centroided_library_abundance_filtered.mgf
SEQ=*..*
IONMODE=Positive
ORGANISM=DMIM-DRUG-METABOLITE-LIBRARY
NAME=SPIRONOLACTONE [M+H]+
PI=Libin Xu
DATACOLLECTOR=Dylan H. Ross
SMILES=CC(=O)S[C@@H]1CC2=CC(=O)CC[C@@]2([C@@H]3[C@@H]1[C@@H]4CC[C@]5([C@]4(CC3)C)CCC(=O)O5)C
INCHI=N/A
INCHIAUX=N/A
PUBMED=N/A
SUBMITUSER=jzemlin
LIBRARYQUALITY=3
SPECTRUMID=CCMSLIB00012466594
USI=mzspec:GNPS:DMIM-DRUG-METABOLITE-LIBRARY:accession:CCMSLIB00012466594
SCANS=1572
55.047703	1653.0
57.046043	1369.0
58.065903	1187.0
59.020676	1094.0
67.053894	1857.0
69.058632	3723.0
70.065453	4314.0
71.05175	1508.0
72.081314	3117.0
73.051758	1200.0
76.027191	4074.0
77.030907	1760.0
79.047714	2618.0
80.033005	1885.0
81.062469	5686.0
82.053596	1210.0
83.064812	4158.0
84.064461	9166.0
85.037773	4097.0
86.093491	6052.0
87.04953	3366.0
88.054893	1317.0
89.061539	6688.0
91.054924	7200.0
93.065193	3444.0
95.07032	10498.0
96.06295	1791.0
97.05603	12478.0
98.060776	1703.0
99.023537	6177.0
100.060684	1461.0
101.062759	3114.0
102.061989	1539.0
103.034195	2449.0
104.074097	2833.0
105.071495	45716.0
106.073669	3737.0
107.077042	8528.0
108.059395	2575.0
109.077835	12395.0
110.073914	4846.0
111.055161	9286.0
112.041199	3464.0
113.041786	4667.0
114.056923	1512.0
115.071938	2979.0
116.040115	4319.0
117.060272	1229.0
119.070976	5900.0
120.075684	5361.0
121.074036	18333.0
122.0774	14838.0
123.054382	62746.0
124.053421	6462.0
125.03022	12897.0
126.07505	4956.0
127.052254	4814.0
128.045898	1575.0
129.096939	10658.0
130.063522	6485.0
131.066879	3281.0
132.069763	1327.0
133.06636	9178.0
134.072205	2227.0
135.081009	7539.0
136.067612	13167.0
136.933792	8239.0
137.065643	26554.0
138.069855	5409.0
139.040878	20672.0
140.05159	3144.0
141.075272	4272.0
142.040039	7364.0
142.964813	7682.0
143.096603	2724.0
144.044739	4279.0
145.080658	3579.0
146.062851	2002.0
147.066559	6898.0
148.071075	1939.0
149.080566	7985.0
150.059998	2258.0
151.068115	8208.0
152.067978	3409.0
153.057922	12024.0
154.083817	11593.0
155.071457	9644.0
156.067047	2541.0
157.080154	4233.0
158.053482	1316.0
158.937393	4848.0
159.095352	5127.0
160.045685	5271.0
161.083328	7905.0
162.039948	5730.0
163.080215	13180.0
164.084412	5583.0
164.933334	9821.0
165.062576	15625.0
166.066269	3816.0
167.063278	9618.0
168.050919	3530.0
169.065247	9015.0
170.045547	3065.0
171.07254	5115.0
172.079498	1482.0
173.077072	8849.0
174.08046	1834.0
174.906982	9921.0
175.086685	7288.0
176.068298	1892.0
176.920197	1716.0
177.081589	14917.0
178.081055	3534.0
179.083237	23960.0
180.084732	5809.0
180.913147	7801.0
181.079041	23543.0
182.080109	4211.0
183.07251	14776.0
184.071121	2543.0
185.052994	5932.0
185.167389	1088.0
186.104156	1718.0
186.942978	2020.0
187.09639	6100.0
188.056519	1785.0
189.079132	6788.0
190.059875	1948.0
191.074844	11705.0
192.077713	4057.0
192.958145	2140.0
193.084808	23582.0
194.085815	4306.0
194.971359	1119.0
195.090103	19121.0
196.07338	4011.0
196.896408	9205.0
197.085022	39722.0
198.091461	4538.0
198.900513	2527.0
199.088745	7107.0
199.996948	2345.0
200.117081	2580.0
200.96019	1949.0
201.09903	5164.0
202.071106	2064.0
203.091309	10623.0
204.103531	2064.0
205.087601	10888.0
206.098083	2873.0
207.095474	16496.0
208.091705	3412.0
209.084396	30434.0
210.087738	5234.0
211.090668	12493.0
212.091797	2407.0
212.863602	5497.0
213.092484	8596.0
214.107819	2134.0
214.864853	1257.0
215.049332	4744.0
215.164124	1168.0
216.052032	2491.0
216.935471	8571.0
217.111298	6679.0
218.111008	1554.0
219.102966	9605.0
220.094894	2450.0
220.941132	1569.0
221.109268	16057.0
222.109283	3903.0
223.097061	23321.0
224.101913	3673.0
225.09314	14830.0
226.114502	3142.0
227.055984	6873.0
227.162262	1341.0
228.061676	2133.0
229.098709	4118.0
230.099838	1585.0
231.093292	5831.0
232.102798	2087.0
232.924774	2103.0
233.101913	12823.0
234.10733	2787.0
234.988693	1696.0
235.118561	15981.0
236.126984	3315.0
237.114212	21566.0
238.111816	3440.0
238.906998	3010.0
239.098663	15426.0
240.087234	3626.0
240.218796	3262.0
241.097412	6458.0
242.071091	1661.0
242.226944	1411.0
243.003983	1010.0
243.118912	5773.0
244.12851	1851.0
245.08165	6615.0
246.106873	1503.0
247.117249	6691.0
248.119141	2200.0
248.953735	1296.0
249.123642	15113.0
250.107605	2605.0
251.115585	23782.0
252.123291	5039.0
252.996353	1827.0
253.125885	15113.0
254.13588	3811.0
254.875946	2317.0
255.120209	12243.0
256.104187	3154.0
256.937927	1406.0
257.110107	3976.0
258.018341	3683.0
258.98819	1648.0
259.128296	4610.0
260.147125	1377.0
260.885345	1275.0
261.006805	1120.0
261.134277	9485.0
262.129791	1920.0
262.951508	1433.0
263.134308	10976.0
264.141388	2700.0
265.125153	14561.0
266.125275	3530.0
266.906128	1748.0
267.124237	21141.0
268.115845	3866.0
268.271515	1643.0
268.963379	1362.0
269.131226	11420.0
270.145203	2523.0
270.281799	1519.0
270.989838	2000.0
271.095856	3502.0
271.201355	4653.0
272.167084	1565.0
273.128326	5493.0
274.124634	1541.0
275.137909	6933.0
276.148712	2495.0
277.006378	1250.0
277.145111	14294.0
278.131775	3170.0
279.141663	13801.0
280.153412	3266.0
281.132263	9708.0
282.136292	2691.0
282.867371	1529.0
283.010468	1363.0
283.136932	9800.0
284.116852	3021.0
284.331146	3252.0
285.111908	5349.0
286.063965	2469.0
287.020508	1255.0
287.147034	4523.0
288.027466	1142.0
288.164368	1655.0
288.86203	1161.0
289.133636	8244.0
289.235016	1179.0
290.122284	2341.0
291.015778	1114.0
291.153564	11134.0
292.169434	2629.0
293.152039	14931.0
294.144531	2961.0
295.0242	1056.0
295.153351	14487.0
296.150421	2802.0
296.969208	1476.0
297.138733	6695.0
298.153778	1722.0
298.83905	2560.0
298.97583	1264.0
299.129059	4710.0
300.122101	1531.0
300.870544	1260.0
301.016846	1700.0
301.152405	3786.0
302.059845	2950.0
303.157654	6591.0
304.082245	1290.0
304.213409	1044.0
304.841339	1138.0
305.02356	1083.0
305.171295	11243.0
306.177948	2628.0
307.159393	13612.0
308.151062	3123.0
309.161224	12089.0
310.168243	2777.0
311.155823	7788.0
312.072662	3076.0
312.198029	1096.0
313.017212	1107.0
313.153656	4734.0
314.131073	1825.0
314.813904	1732.0
314.988159	1552.0
315.176758	4172.0
316.007874	1081.0
316.176758	1718.0
316.829407	1030.0
317.005615	1270.0
317.187836	7335.0
318.162384	2920.0
319.064178	1212.0
319.185608	9861.0
320.183685	2892.0
320.830017	1626.0
321.169128	10483.0
322.171265	2724.0
323.16806	11243.0
324.186951	2882.0
325.16452	8105.0
326.172607	1846.0
327.110962	5978.0
327.233765	3423.0
328.062012	2082.0
328.211914	1415.0
328.905487	1137.0
329.171783	4511.0
330.081146	5485.0
331.047455	1170.0
331.185974	7543.0
332.060089	3414.0
332.203186	1545.0
333.197174	10542.0
334.041565	1960.0
334.199829	3249.0
335.032349	1230.0
335.191162	11016.0
336.192535	2561.0
337.179901	8908.0
338.188232	2066.0
338.840637	1199.0
339.181519	6426.0
340.160919	1825.0
341.200348	6111.0
342.20636	1457.0
343.174377	4545.0
344.199127	1160.0
345.191223	6436.0
346.051636	14116.0
346.223511	1697.0
347.042542	2353.0
347.204773	10350.0
348.070709	2162.0
348.223389	1930.0
349.049866	1035.0
349.199493	14505.0
350.017792	1524.0
350.207062	3406.0
351.019165	1215.0
351.187317	10611.0
352.043243	1630.0
352.177216	3599.0
353.174896	5951.0
354.197174	2056.0
355.171051	4049.0
355.288544	1042.0
356.201111	1068.0
357.139282	1384.0
357.256378	9703.0
358.253906	2405.0
359.203247	7631.0
360.197418	1890.0
361.127869	1553.0
361.235352	10135.0
362.019165	1128.0
362.241302	3617.0
363.046783	1257.0
363.21759	11894.0
364.226532	3051.0
365.143311	11559.0
365.251587	3774.0
366.182343	4070.0
367.193085	5803.0
368.034485	6189.0
368.208221	1562.0
369.044922	1714.0
369.191101	4151.0
370.041626	1143.0
370.212769	1031.0
371.158783	1384.0
371.263031	6298.0
372.260162	1457.0
373.214233	6816.0
374.047791	6926.0
374.229919	1750.0
375.074554	1673.0
375.225708	11081.0
376.054596	1012.0
376.227203	2476.0
377.223175	14629.0
378.21698	3031.0
379.213654	11283.0
380.227753	2860.0
381.083374	3019.0
381.208496	7612.0
382.189789	2639.0
383.209869	4739.0
384.009308	2408.0
384.237305	1803.0
385.213531	3905.0
386.011414	1029.0
386.227966	1328.0
387.235016	6774.0
388.236816	1705.0
389.127106	1188.0
389.237091	13068.0
390.023956	5085.0
390.238708	3118.0
391.041687	1706.0
391.225647	14088.0
392.025024	1086.0
392.225311	3703.0
393.222565	17274.0
394.215729	3505.0
395.212097	11929.0
396.212708	2410.0
397.214539	6467.0
398.209869	1838.0
399.221252	4229.0
400.225708	1566.0
401.162567	1298.0
401.284637	18122.0
402.283325	4691.0
403.238342	9337.0
404.237213	2306.0
405.231293	13702.0
405.993652	4221.0
406.23349	4265.0
407.221375	14396.0
408.000305	1185.0
408.23114	4203.0
409.176605	108160.0
409.310516	2192.0
410.178925	23479.0
411.209412	10843.0
412.227325	3243.0
413.216492	5057.0
414.201233	1339.0
415.224457	5155.0
416.229675	1669.0
417.224609	6625.0
418.256073	1965.0
418.750977	1295.0
419.184845	4083.0
END IONS

BEGIN IONS
PEPMASS=251.052
CHARGE=1
MSLEVEL=2
SOURCE_INSTRUMENT=LC-ESI-qTof
FILENAME=DMIM_centroided_library_abundance_filtered.mgf
SEQ=*..*
IONMODE=Positive
ORGANISM=DMIM-DRUG-METABOLITE-LIBRARY
NAME=DIFLUNISAL [M+H]+
PI=Libin Xu
DATACOLLECTOR=Dylan H. Ross
SMILES=C1=CC(=C(C=C1C2=C(C=C(C=C2)F)F)C(=O)O)O
INCHI=N/A
INCHIAUX=N/A
PUBMED=N/A
SUBMITUSER=jzemlin
LIBRARYQUALITY=3
SPECTRUMID=CCMSLIB00012466615
USI=mzspec:GNPS:DMIM-DRUG-METABOLITE-LIBRARY:accession:CCMSLIB00012466615
SCANS=1593
55.037251	1255.0
56.020737	2005.0
56.994072	1705.0
59.001633	3391.0
67.046005	1874.0
69.038101	1886.0
70.058403	3061.0
71.004875	1408.0
72.079025	1254.0
76.025169	3614.0
77.039452	4027.0
79.038864	4391.0
80.047577	2677.0
81.046776	4333.0
83.043335	5591.0
84.054375	11679.0
84.980408	6381.0
86.055748	3737.0
86.99501	1750.0
88.025154	1642.0
89.017853	1112.0
91.051903	5908.0
93.063713	3502.0
94.060402	1044.0
95.014473	12619.0
96.043633	2315.0
97.02903	7445.0
98.024376	3051.0
98.998718	5290.0
100.026443	1220.0
102.015366	1388.0
102.989227	3125.0
104.06604	1063.0
105.061142	5054.0
106.050667	1505.0
107.066513	4584.0
108.059288	3516.0
109.065849	6488.0
110.047653	4534.0
111.01944	5873.0
112.015945	12684.0
113.009193	4390.0
114.043137	2126.0
115.044914	3380.0
116.036423	7520.0
117.05307	2545.0
118.926437	25523.0
119.077744	5077.0
120.076378	3097.0
120.981911	6308.0
121.090317	4301.0
122.070511	2454.0
122.953835	1731.0
123.058876	14183.0
124.029274	3919.0
125.014297	5500.0
126.024979	1513.0
127.029922	2855.0
128.015747	6904.0
128.970627	1783.0
129.08461	4258.0
130.051193	4865.0
131.071365	3367.0
132.040024	3273.0
132.968018	1302.0
133.081116	3074.0
134.081879	1429.0
134.91272	2713.0
135.057999	5169.0
136.064636	8035.0
136.937622	45114.0
137.078064	4241.0
138.072296	1100.0
139.017609	9721.0
140.01004	1704.0
140.955933	4340.0
141.063309	3348.0
142.037827	11212.0
143.065781	4619.0
144.047195	3584.0
145.067642	3851.0
146.051468	2149.0
147.058853	5115.0
148.062561	1686.0
149.072464	4745.0
149.996063	1461.0
151.042618	4444.0
151.921844	1230.0
152.058823	3692.0
152.916504	6694.0
153.052734	4275.0
154.056427	2128.0
155.020248	5523.0
156.084671	1781.0
157.077393	2861.0
158.08934	2054.0
158.935745	5158.0
159.093781	3916.0
160.044998	6212.0
161.061798	6226.0
162.036667	3614.0
162.925507	1143.0
163.067856	3870.0
164.079163	1851.0
164.95874	3745.0
165.077545	2995.0
166.062241	1850.0
167.046234	3769.0
168.056427	1223.0
169.073059	3011.0
170.044037	3014.0
171.047928	4241.0
172.065063	1489.0
173.070435	3269.0
174.085312	1377.0
174.889786	3313.0
175.075485	3529.0
176.021484	3217.0
177.043106	5990.0
178.062912	2753.0
179.071442	4019.0
180.059586	1622.0
180.929474	5526.0
181.073059	3366.0
182.072906	1600.0
182.920624	1548.0
183.056427	3151.0
184.080048	1117.0
185.062088	2173.0
186.064896	1250.0
186.925079	1837.0
187.079681	3161.0
188.075485	1836.0
189.064026	3330.0
190.048767	1092.0
190.895065	2274.0
191.063919	3743.0
192.052155	2261.0
193.053116	4721.0
195.077759	3202.0
196.056046	1635.0
196.895035	1969.0
197.083801	2203.0
198.06633	1471.0
198.970627	2617.0
200.039688	1115.0
200.905731	1507.0
201.052338	6473.0
202.074738	1826.0
202.907288	2017.0
203.093552	2307.0
204.082703	1183.0
205.076599	2926.0
206.097015	1136.0
207.078445	3458.0
208.090881	1139.0
208.932404	1825.0
209.089081	2267.0
210.090744	1023.0
211.086044	1918.0
212.890671	1252.0
214.865784	1584.0
215.076385	1780.0
217.055542	1504.0
218.918671	1192.0
219.10466	1936.0
220.935303	1283.0
221.104324	2144.0
223.103027	1730.0
225.095917	1496.0
227.081558	1295.0
231.057541	1139.0
233.09584	3158.0
235.098053	2459.0
237.109497	1596.0
239.095459	1150.0
241.000412	1052.0
245.081879	1458.0
249.11618	1573.0
251.103928	2305.0
END IONS

BEGIN IONS
PEPMASS=332.223
CHARGE=1
MSLEVEL=2
SOURCE_INSTRUMENT=LC-ESI-qTof
FILENAME=DMIM_centroided_library_abundance_filtered.mgf
SEQ=*..*
IONMODE=Positive
ORGANISM=DMIM-DRUG-METABOLITE-LIBRARY
NAME=IPRATROPIUM [M]+
PI=Libin Xu
DATACOLLECTOR=Dylan H. Ross
SMILES=CC(C)[N+]1([C@@H]2CC[C@H]1CC(C2)OC(=O)C(CO)C3=CC=CC=C3)C
INCHI=N/A
INCHIAUX=N/A
PUBMED=N/A
SUBMITUSER=jzemlin
LIBRARYQUALITY=3
SPECTRUMID=CCMSLIB00012466639
USI=mzspec:GNPS:DMIM-DRUG-METABOLITE-LIBRARY:accession:CCMSLIB00012466639
SCANS=1617
55.047932	2546.0
56.050278	1497.0
57.043781	2055.0
58.064865	1471.0
59.01894	1369.0
67.056389	14145.0
68.052963	2698.0
69.062706	4560.0
70.066551	8835.0
71.057457	1591.0
72.083405	17323.0
73.070068	1472.0
74.095703	6054.0
76.024185	2583.0
77.041496	17057.0
78.043587	1036.0
79.054649	5406.0
80.047523	2267.0
81.060852	6717.0
82.067497	11825.0
83.068687	9181.0
84.059227	16220.0
85.026474	5090.0
86.089966	4876.0
87.040443	2244.0
88.06057	1715.0
89.056458	2887.0
91.057373	38388.0
92.061256	2071.0
93.072792	156782.0
94.073456	12147.0
95.082695	27396.0
96.083382	83357.0
97.043282	38403.0
98.061348	5236.0
99.038536	7029.0
100.083992	1454.0
101.056946	1985.0
102.060448	1070.0
103.052864	10887.0
104.058311	2100.0
105.060829	5716.0
106.077835	1499.0
107.07267	6850.0
108.066887	2201.0
109.081055	13749.0
110.078445	4834.0
111.049858	10307.0
112.042595	4924.0
113.037865	7726.0
114.04557	2258.0
115.06855	2809.0
116.040321	3672.0
117.048225	2112.0
118.034477	1066.0
118.9347	1539.0
119.059349	6408.0
120.070808	4455.0
120.961021	2300.0
121.066566	32816.0
122.07476	7183.0
123.05687	50045.0
124.1157	401772.0
124.243813	5204.0
124.414513	2694.0
124.977577	5536.0
125.108772	46152.0
126.08828	5880.0
127.060516	3983.0
128.059021	1508.0
129.097092	7608.0
130.05867	7394.0
131.065308	3961.0
132.058502	1205.0
133.054123	8024.0
134.064728	2543.0
135.065948	7961.0
136.066788	9256.0
136.933975	11154.0
137.068298	19268.0
138.105484	6717.0
139.042313	19607.0
140.10498	14503.0
140.963669	1355.0
141.08548	3640.0
142.058441	19907.0
142.973602	6290.0
143.097763	2374.0
144.04274	3403.0
145.080475	3395.0
146.059235	1151.0
147.066345	7419.0
148.063171	2334.0
149.070663	7222.0
150.061432	1895.0
151.068695	8598.0
152.134399	15473.0
153.066299	13748.0
154.08432	10088.0
155.060974	7944.0
156.064896	2303.0
157.083374	3520.0
158.068863	1362.0
158.932999	2534.0
159.091858	4350.0
160.039566	6786.0
161.081177	5649.0
162.048553	3469.0
163.079575	12147.0
164.078766	3969.0
164.94931	8691.0
165.073807	10633.0
166.045135	3318.0
166.164261	363240.0
166.321045	7383.0
166.503326	3483.0
167.037018	6079.0
167.161041	51547.0
168.036072	1686.0
168.156036	3995.0
169.06041	6402.0
170.044113	3267.0
171.07991	8509.0
172.084137	1834.0
173.0	1623.0
173.103561	5095.0
174.087616	1465.0
174.913879	5632.0
175.083527	6707.0
176.064285	2769.0
176.921509	1103.0
177.081696	10762.0
178.085022	2748.0
178.96167	1152.0
179.086197	15956.0
180.064148	5228.0
180.909882	5966.0
181.077957	16122.0
182.085953	3272.0
183.066284	12606.0
184.116791	5684.0
185.061142	4442.0
185.166061	1080.0
186.114853	2323.0
186.937897	1309.0
187.092194	4067.0
188.065369	2618.0
189.067963	5270.0
190.073196	1943.0
191.073074	10412.0
192.069199	3206.0
192.952271	2496.0
193.081436	19846.0
194.078781	3515.0
195.082947	11739.0
196.08812	2540.0
196.896149	5625.0
197.08577	26550.0
198.09166	3367.0
198.897079	1708.0
199.065536	6004.0
200.092346	3265.0
200.941101	23241.0
201.104126	3097.0
202.070908	1814.0
202.921906	1187.0
203.08992	6531.0
204.07634	1791.0
205.087646	7904.0
206.080139	2378.0
207.095856	12003.0
208.096909	2019.0
209.084595	26434.0
210.086288	4486.0
211.089218	8786.0
212.109177	2380.0
212.863251	2388.0
212.996262	1002.0
213.097565	5435.0
214.154251	2032.0
214.868942	1046.0
215.03685	6141.0
215.152771	1115.0
216.095306	1744.0
216.927734	10182.0
217.092331	5805.0
218.955673	1114.0
219.100418	6268.0
220.085678	2378.0
220.934296	1726.0
221.105728	10629.0
222.090317	2842.0
222.928848	2469.0
223.095459	18908.0
224.09877	2997.0
225.087357	9790.0
226.119537	2748.0
227.073303	6709.0
228.096985	2813.0
229.105743	3943.0
230.092361	1730.0
230.946518	1616.0
231.10054	5120.0
232.106812	1362.0
232.882431	3870.0
233.100525	9609.0
234.113159	2200.0
234.995087	3320.0
235.115311	10649.0
236.12001	2495.0
236.981689	1036.0
237.113144	14755.0
238.105713	3128.0
238.934677	1634.0
239.095367	9953.0
240.060699	3081.0
240.215836	2771.0
241.102554	3804.0
242.061005	1364.0
242.222061	1855.0
243.013214	1156.0
243.120956	2909.0
244.016495	1087.0
244.141113	1233.0
245.085953	5758.0
246.089813	1094.0
246.944702	1670.0
247.114288	5216.0
248.139603	1826.0
248.928864	1202.0
249.092346	15861.0
250.10318	2518.0
251.113617	16520.0
252.117004	3901.0
253.120193	11045.0
254.135376	2284.0
254.85788	1585.0
255.121231	7458.0
256.125061	1924.0
257.002502	2992.0
257.140411	2332.0
258.014343	8012.0
259.005005	1474.0
259.129059	4203.0
260.167603	4933.0
260.878754	1763.0
261.019043	1194.0
261.142181	8126.0
262.140106	2040.0
263.13089	7096.0
264.135986	1848.0
264.944275	1519.0
265.128387	9444.0
266.107758	2163.0
267.118622	12684.0
268.12384	2772.0
269.132568	6911.0
270.135498	1256.0
270.316193	1053.0
270.991089	1130.0
271.12149	3310.0
272.145203	1773.0
272.998871	1262.0
273.142883	3883.0
274.008087	1218.0
274.152222	1149.0
275.153015	6223.0
276.13382	1798.0
277.145996	10236.0
278.140198	2231.0
278.898773	1019.0
279.139618	9343.0
280.139801	2299.0
281.127075	6418.0
282.151642	1637.0
282.870697	1635.0
283.125122	5707.0
284.105072	1475.0
285.131256	2781.0
286.056091	2368.0
287.133606	3971.0
288.160431	2136.0
288.882233	1437.0
289.148865	7033.0
289.989227	1100.0
290.183502	160545.0
290.353088	1722.0
291.180634	37152.0
292.187408	4673.0
293.152954	10673.0
294.15744	2473.0
295.150696	7775.0
296.171692	1561.0
296.958588	1189.0
297.136963	3669.0
298.147095	1312.0
298.856049	2399.0
298.965973	1482.0
299.149902	2993.0
300.874664	1109.0
301.145721	3531.0
302.053101	1400.0
302.205994	2815.0
303.164032	6288.0
304.162689	2098.0
305.167358	9319.0
306.154083	2154.0
307.159943	11329.0
308.142303	3517.0
309.161194	7175.0
310.172211	1399.0
311.162628	4525.0
312.075287	1355.0
312.203583	1202.0
312.920898	1086.0
313.0383	1120.0
313.18573	3024.0
314.993378	1414.0
315.182007	2737.0
316.17392	1159.0
316.850311	1056.0
317.18457	6571.0
318.179138	2096.0
319.183319	10687.0
320.190704	2183.0
321.168732	9911.0
322.178101	2238.0
323.183502	8082.0
324.201324	1653.0
325.16687	4365.0
327.095184	7334.0
327.236328	1750.0
328.085083	2332.0
328.895447	1547.0
329.037231	2729.0
329.17804	3272.0
330.085114	2284.0
331.190247	6290.0
332.060638	2279.0
332.2323	305671.0
332.43631	10474.0
332.577393	4941.0
332.716583	5145.0
333.098022	1388.0
333.231689	91958.0
333.539581	2339.0
333.684357	5752.0
333.830505	2716.0
334.186737	1980.0
END IONS

BEGIN IONS
PEPMASS=290.212
CHARGE=1
MSLEVEL=2
SOURCE_INSTRUMENT=LC-ESI-qTof
FILENAME=DMIM_centroided_library_abundance_filtered.mgf
SEQ=*..*
IONMODE=Positive
ORGANISM=DMIM-DRUG-METABOLITE-LIBRARY
NAME=DYCLONINE [M+H]+
PI=Libin Xu
DATACOLLECTOR=Dylan H. Ross
SMILES=CCCCOC1=CC=C(C=C1)C(=O)CCN2CCCCC2
INCHI=N/A
INCHIAUX=N/A
PUBMED=N/A
SUBMITUSER=jzemlin
LIBRARYQUALITY=3
SPECTRUMID=CCMSLIB00012466764
USI=mzspec:GNPS:DMIM-DRUG-METABOLITE-LIBRARY:accession:CCMSLIB00012466764
SCANS=1742
55.055893	6625.0
56.049259	1716.0
57.061863	1592.0
59.028	1207.0
67.053566	2853.0
69.065514	6774.0
70.06797	26935.0
71.054581	3117.0
72.078903	2537.0
76.026169	3755.0
77.036484	2596.0
79.051361	2230.0
80.045013	1635.0
81.06485	5359.0
82.066643	1190.0
83.06147	4992.0
84.055489	17006.0
85.035698	4306.0
86.09211	5473.0
87.051201	2049.0
88.054077	2342.0
89.056137	2852.0
91.056061	3767.0
93.06559	4349.0
95.071594	9538.0
96.075867	5530.0
96.283554	1244.0
97.035179	42651.0
98.101776	1113180.0
98.235779	6761.0
98.338928	16147.0
98.915573	8018.0
99.100113	72759.0
100.09465	3166.0
101.061241	2223.0
102.058395	1556.0
103.037582	2018.0
105.058655	4496.0
107.078484	6519.0
108.068047	1924.0
109.080215	12064.0
110.071442	3812.0
111.052368	8567.0
112.030594	4305.0
113.038719	7936.0
114.058617	2486.0
115.065781	2712.0
116.040482	3984.0
117.03994	1890.0
119.033707	7193.0
120.071846	3860.0
121.044662	24760.0
122.069283	4573.0
123.057556	40797.0
124.057045	5283.0
125.019966	12398.0
126.069946	4053.0
127.049255	4001.0
128.038986	1014.0
129.099014	7612.0
130.063858	8264.0
131.065536	3740.0
132.079803	1199.0
133.061646	7230.0
134.07959	2870.0
135.070465	8291.0
136.066803	7639.0
136.945694	11405.0
137.074997	17060.0
138.070816	3691.0
139.040573	18494.0
140.050751	2797.0
141.059906	4088.0
142.037796	15418.0
142.977356	6681.0
143.097076	1977.0
144.047256	3581.0
145.07486	4161.0
146.069595	1238.0
147.065979	5936.0
148.066055	2453.0
149.068649	9679.0
150.069992	1843.0
151.065323	7322.0
152.066071	4058.0
153.054977	10046.0
154.084595	8890.0
155.064011	6244.0
156.070786	1493.0
157.0811	2989.0
158.077286	1871.0
158.939423	2720.0
159.093948	4034.0
160.038864	4789.0
161.084076	6629.0
162.041489	3534.0
163.077148	10558.0
164.069336	3485.0
164.933945	4740.0
165.06395	11153.0
166.065369	5020.0
167.056091	8356.0
168.058319	1999.0
169.062057	6032.0
170.043213	3230.0
171.077972	10136.0
172.079163	2128.0
173.074646	4960.0
174.093597	1638.0
174.92363	7117.0
175.089478	4799.0
176.067749	1936.0
176.924698	1491.0
177.082474	9748.0
178.092453	2142.0
178.960754	1231.0
179.083313	15273.0
180.068497	5728.0
180.912369	5740.0
181.077057	15283.0
182.072327	2327.0
183.068939	10444.0
184.0737	4232.0
185.065567	4683.0
186.080582	1884.0
186.93541	1352.0
187.095047	3655.0
188.059402	2088.0
189.073227	5323.0
190.079453	1360.0
191.075668	9120.0
192.075073	2401.0
192.9617	2542.0
193.079666	16451.0
194.085403	2873.0
195.087418	11251.0
196.082458	2414.0
196.898758	5435.0
197.087036	25023.0
198.087051	3511.0
198.90065	1503.0
199.0569	5080.0
200.109497	2263.0
200.93988	28169.0
201.108765	3326.0
202.066147	1628.0
202.921555	1097.0
203.081482	9799.0
204.095169	2191.0
205.098282	8679.0
206.075623	3338.0
207.097412	10427.0
208.083633	2742.0
209.085114	23952.0
210.084961	3737.0
211.091553	8480.0
212.083542	2152.0
212.862915	3108.0
213.097122	4491.0
214.12056	1738.0
214.869446	1067.0
215.03183	5172.0
216.08374	1812.0
216.92778	8908.0
217.08873	5124.0
218.023804	1141.0
218.952545	1288.0
219.10141	5728.0
220.087952	2048.0
220.929016	1723.0
221.107147	9727.0
222.108749	2340.0
222.921875	2900.0
223.096786	15597.0
224.095764	2987.0
225.091263	8763.0
226.105209	2535.0
227.074249	6435.0
228.102448	1891.0
229.092087	3883.0
231.073853	5367.0
232.105255	1789.0
232.880157	4630.0
233.102753	8034.0
234.100967	2439.0
235.001389	3377.0
235.114624	10362.0
236.117584	1953.0
237.112808	12923.0
238.121185	2308.0
238.922302	1908.0
239.099838	8487.0
240.084045	1871.0
240.222366	2354.0
240.937164	1045.0
241.094635	3536.0
242.049088	1015.0
242.21933	1687.0
243.108612	2577.0
244.122391	1162.0
244.910934	1059.0
245.091293	4020.0
246.103836	1286.0
246.951859	1002.0
247.120712	5078.0
248.140244	1205.0
248.919373	1231.0
249.092697	17143.0
250.096863	3305.0
251.113846	15172.0
252.119904	3301.0
253.126053	7716.0
254.128448	1649.0
254.871826	1213.0
255.118317	6715.0
256.114319	1800.0
257.003357	2415.0
257.140717	1698.0
258.017029	5919.0
258.983795	1409.0
259.134766	3820.0
260.143494	1830.0
260.891296	1632.0
261.136536	5692.0
262.135223	1920.0
263.138519	6898.0
264.13446	1690.0
264.940247	1521.0
265.123962	9063.0
266.141571	2034.0
267.115265	10042.0
268.130066	2141.0
269.130035	5577.0
270.128326	1721.0
270.313477	1248.0
270.933746	1057.0
271.111176	2459.0
272.018494	1035.0
273.140869	3188.0
274.008453	1266.0
274.26535	1084.0
275.154022	5740.0
276.144073	1809.0
277.15155	8375.0
278.133911	2402.0
279.141876	8495.0
280.147736	2148.0
281.131409	6146.0
282.144562	1600.0
282.862061	1790.0
283.127625	4444.0
284.14389	1735.0
285.090179	2830.0
286.033386	2469.0
287.134247	2940.0
288.886505	1032.0
289.149536	5216.0
290.152771	1205.0
290.974915	1067.0
291.156677	9894.0
292.149078	1654.0
END IONS

BEGIN IONS
PEPMASS=371.161
CHARGE=1
MSLEVEL=2
SOURCE_INSTRUMENT=LC-ESI-qTof
FILENAME=DMIM_centroided_library_abundance_filtered.mgf
SEQ=*..*
IONMODE=Positive
ORGANISM=DMIM-DRUG-METABOLITE-LIBRARY
NAME=THIORIDAZINE [M+H]+
PI=Libin Xu
DATACOLLECTOR=Dylan H. Ross
SMILES=CN1C(CCN2C(C=C3SC)=C(C=C3)SC4=CC=CC=C24)CCCC1
INCHI=N/A
INCHIAUX=N/A
PUBMED=N/A
SUBMITUSER=jzemlin
LIBRARYQUALITY=3
SPECTRUMID=CCMSLIB00012466865
USI=mzspec:GNPS:DMIM-DRUG-METABOLITE-LIBRARY:accession:CCMSLIB00012466865
SCANS=1843
55.053574	3049.0
56.054958	1362.0
57.065464	1344.0
58.06818	20285.0
59.054276	1465.0
62.983559	1052.0
67.053902	3071.0
68.055634	1028.0
69.063484	2944.0
70.067871	18116.0
71.057526	1667.0
72.082436	2768.0
76.02681	2280.0
77.037819	1760.0
79.043365	2062.0
80.038216	1375.0
81.06356	6024.0
82.058685	1138.0
83.068565	4240.0
84.075317	16212.0
85.038979	3597.0
86.096611	6168.0
87.049942	2698.0
88.063965	1864.0
89.06015	4124.0
91.056076	5319.0
93.06852	3771.0
94.066711	1168.0
95.076851	13238.0
96.074646	4761.0
97.053993	10684.0
98.101334	650897.0
98.226494	1921.0
98.356827	3584.0
98.967468	2686.0
99.099472	39000.0
100.09243	2139.0
101.06472	2376.0
102.057823	1471.0
103.040695	1835.0
104.069969	1808.0
105.072166	32853.0
106.077065	3100.0
107.076614	5694.0
108.06356	2066.0
109.083023	10690.0
110.081154	6638.0
111.068047	9945.0
112.002769	1169.0
112.106857	8977.0
113.052055	5530.0
115.07415	2825.0
116.038551	3397.0
117.046104	1465.0
118.938332	1238.0
119.069839	5716.0
120.078377	4471.0
121.074364	17204.0
122.075356	6785.0
123.057053	54021.0
124.092247	13824.0
125.046654	13633.0
126.13279	543631.0
126.264557	7207.0
126.433876	4018.0
126.99855	2118.0
127.132408	50333.0
128.125885	2095.0
129.09964	9048.0
130.069321	5215.0
131.067108	2534.0
132.076736	1061.0
133.061783	6991.0
134.064957	2426.0
135.078491	7217.0
136.068192	17917.0
136.93512	7895.0
137.069214	22594.0
138.073776	4475.0
139.043121	19050.0
140.065765	2894.0
141.063309	3106.0
142.072449	9803.0
142.967087	5712.0
143.107544	2791.0
144.049667	2846.0
145.072174	3307.0
147.067795	5026.0
148.063126	1374.0
149.072128	7027.0
150.064423	2225.0
151.078842	7098.0
152.072861	3461.0
153.056015	11548.0
154.086685	10931.0
155.068237	7914.0
156.06955	2129.0
157.083771	3760.0
158.090103	1814.0
158.937744	3603.0
159.09758	4492.0
160.047012	5438.0
161.08284	4760.0
162.041733	5289.0
163.084564	12101.0
164.077377	4539.0
164.948746	9880.0
165.075287	11118.0
166.072693	3580.0
167.071075	9573.0
168.056961	2722.0
169.062759	7075.0
170.060532	1842.0
171.084122	4242.0
172.07576	1334.0
173.075684	7181.0
174.072983	2063.0
174.914154	4904.0
175.084518	5280.0
176.117691	1454.0
176.937469	1098.0
177.084656	11551.0
178.086533	2828.0
179.086029	21968.0
180.067993	5936.0
180.912567	5139.0
181.081558	19131.0
182.076813	3077.0
183.072052	12639.0
184.072586	2530.0
185.064789	5030.0
186.090057	1879.0
186.944412	1439.0
187.094299	4602.0
188.085083	1792.0
189.073654	5503.0
190.067184	1726.0
191.083206	11002.0
192.082413	3365.0
192.95697	2373.0
193.086136	20717.0
194.079651	3716.0
195.089706	15238.0
196.093582	3104.0
196.898834	6020.0
197.086655	32575.0
198.074753	5991.0
198.894897	1580.0
199.065186	7896.0
199.996994	1992.0
200.115601	2671.0
200.962021	3612.0
201.107132	4425.0
202.087494	1293.0
203.088287	8414.0
204.100647	2122.0
205.090607	8850.0
206.080261	2833.0
207.093826	13088.0
208.1008	3239.0
209.088104	28325.0
210.070541	6705.0
211.065857	24852.0
212.067413	8224.0
212.873032	2911.0
213.077942	7454.0
214.058228	2071.0
214.898224	1136.0
215.064911	6149.0
216.113632	1213.0
216.934433	8573.0
217.109024	4853.0
218.085815	1450.0
218.955276	1137.0
219.107574	8091.0
220.089417	2455.0
220.953827	1474.0
221.108093	12665.0
222.108093	2555.0
222.930054	1086.0
223.096207	18898.0
224.09581	4042.0
225.085953	15141.0
226.080475	30816.0
227.074738	11707.0
228.083923	4220.0
229.071701	5451.0
230.046112	2265.0
230.954514	1220.0
231.09201	6315.0
232.087021	1760.0
232.925583	2716.0
233.1035	11130.0
234.104767	2984.0
234.996689	1432.0
235.118271	12757.0
236.097931	3731.0
236.993469	1084.0
237.11525	15676.0
238.089752	4317.0
238.916443	2784.0
239.102814	12367.0
240.084579	3049.0
240.218948	2303.0
241.093399	5309.0
242.067444	3118.0
242.234741	1094.0
243.032959	12279.0
243.151688	1550.0
244.035172	40577.0
244.172607	1044.0
245.045792	35634.0
245.183884	1113.0
246.041748	7678.0
247.065506	6410.0
247.168182	2204.0
248.109955	2131.0
248.940598	1451.0
249.119278	12721.0
250.115799	3236.0
250.994873	1039.0
251.117538	18125.0
252.118546	3628.0
253.122818	13729.0
254.138855	3114.0
254.870804	2189.0
255.126266	10598.0
256.076111	2369.0
256.939087	1603.0
257.110443	4154.0
258.049744	89523.0
259.046722	28034.0
260.045624	15649.0
260.877777	1354.0
261.021515	4279.0
261.131104	9770.0
262.05188	7505.0
262.173431	1165.0
263.018005	1899.0
263.137085	9241.0
264.128571	2686.0
265.124847	11764.0
266.11554	2252.0
267.12558	15883.0
268.111786	4747.0
269.005585	1328.0
269.13446	10702.0
270.137848	1949.0
270.998352	1435.0
271.114471	5122.0
272.071533	1704.0
273.138062	4256.0
274.050201	6966.0
274.992035	1004.0
275.131714	7702.0
276.129089	2373.0
277.149109	11339.0
278.137268	2722.0
279.143524	11481.0
280.151062	2453.0
281.132172	9548.0
282.133209	2451.0
282.871307	1413.0
283.12912	8899.0
284.072052	3607.0
284.329315	1477.0
285.123474	4974.0
286.067352	2507.0
286.987183	1442.0
287.138702	3834.0
288.057556	1397.0
288.982117	1740.0
289.151459	6801.0
290.0578	2368.0
290.185883	1326.0
291.158936	9975.0
292.141327	3181.0
293.150879	13481.0
294.154266	3292.0
295.152252	10779.0
296.138428	2575.0
297.13974	4091.0
298.143372	1647.0
298.855469	1883.0
298.975861	1484.0
299.145416	3448.0
300.8638	1117.0
301.080811	5032.0
301.196106	1441.0
302.052368	3018.0
303.170502	5593.0
304.15448	1851.0
305.174164	9803.0
306.196686	2375.0
307.165802	10667.0
308.159119	2780.0
309.164795	8295.0
310.146088	2690.0
311.158661	5944.0
312.071869	2904.0
312.936279	1112.0
313.151672	3664.0
314.813202	1022.0
314.985565	1363.0
315.176788	3424.0
316.003235	1157.0
316.860962	1201.0
317.046234	1188.0
317.192444	5856.0
318.177216	1900.0
319.066101	1037.0
319.189117	9614.0
320.19516	2485.0
320.910187	1255.0
321.167236	8937.0
322.178894	2370.0
323.170258	10776.0
324.171143	6556.0
325.161713	6975.0
326.173615	1756.0
327.105133	8652.0
327.250397	2774.0
328.070282	2623.0
328.908569	1060.0
329.041595	1032.0
329.176147	3772.0
330.079712	3564.0
331.188446	6906.0
332.062103	2611.0
332.216675	1592.0
333.186646	9544.0
334.047119	1482.0
334.197815	2225.0
335.035065	1314.0
335.187805	11054.0
336.207855	3066.0
337.175995	7636.0
338.197571	2135.0
339.183807	5464.0
340.152832	2769.0
341.164734	3493.0
342.190369	1166.0
343.201172	3822.0
345.188385	5797.0
346.054169	9121.0
346.207977	1716.0
347.045898	2859.0
347.202362	10094.0
348.048523	1035.0
348.21167	2820.0
349.199799	13356.0
350.029816	1065.0
350.204437	3415.0
351.202057	8648.0
352.069153	2095.0
352.2052	1473.0
353.186279	4976.0
354.171112	2124.0
355.211182	3970.0
356.147003	4192.0
357.136292	2652.0
357.257507	8658.0
358.25769	1902.0
359.212799	5177.0
360.230042	1912.0
361.226562	11505.0
362.038818	1325.0
362.240295	3263.0
363.219299	11903.0
364.211731	2391.0
365.183014	15224.0
366.19339	3135.0
366.993683	1020.0
367.202606	6920.0
368.038727	4405.0
368.213928	1680.0
369.048859	1113.0
369.203705	4379.0
370.171173	3568.0
371.176361	51976.0
371.307434	1374.0
372.157837	28192.0
373.141846	4076.0
END IONS

BEGIN IONS
PEPMASS=304.155
CHARGE=1
MSLEVEL=2
SOURCE_INSTRUMENT=LC-ESI-qTof
FILENAME=DMIM_centroided_library_abundance_filtered.mgf
SEQ=*..*
IONMODE=Positive
ORGANISM=DMIM-DRUG-METABOLITE-LIBRARY
NAME=FENOTEROL [M+H]+
PI=Libin Xu
DATACOLLECTOR=Dylan H. Ross
SMILES=CC(Cc1ccc(cc1)O)NCC(c2cc(cc(c2)O)O)O
INCHI=N/A
INCHIAUX=N/A
PUBMED=N/A
SUBMITUSER=jzemlin
LIBRARYQUALITY=3
SPECTRUMID=CCMSLIB00012466907
USI=mzspec:GNPS:DMIM-DRUG-METABOLITE-LIBRARY:accession:CCMSLIB00012466907
SCANS=1885
55.049019	2176.0
56.048153	3068.0
57.035496	1858.0
58.999355	19794.0
67.05201	2614.0
69.051361	3430.0
70.064537	4268.0
71.047798	1278.0
72.083618	1407.0
73.044205	2037.0
76.025391	122547.0
77.038162	13782.0
78.023422	5554.0
79.052299	6380.0
80.048149	6582.0
81.06308	5925.0
82.063286	1178.0
83.053131	4462.0
84.049042	128849.0
85.033272	10146.0
86.083305	4257.0
87.005257	6066.0
88.027229	4976.0
89.043304	2835.0
91.055244	5653.0
93.06871	5100.0
95.059608	11835.0
96.056053	2143.0
97.035843	35559.0
98.026314	4236.0
99.011703	5099.0
100.067581	1268.0
101.057312	1705.0
102.057617	3660.0
103.024788	1784.0
105.060066	5214.0
106.064331	1280.0
107.054306	438297.0
107.177917	5706.0
107.328346	3009.0
108.057281	31545.0
109.074249	14044.0
110.064568	5958.0
111.047821	8309.0
112.024849	7317.0
113.028603	6758.0
114.04213	5158.0
115.058601	4530.0
116.022278	37879.0
117.04464	4049.0
118.030075	2790.0
118.93058	1222.0
119.056038	8460.0
120.057785	8056.0
121.0485	18411.0
122.0644	3997.0
123.056831	34525.0
124.048271	5336.0
124.941132	1618.0
125.048386	15310.0
126.049713	2326.0
127.040039	3807.0
128.038742	1869.0
129.092636	7821.0
130.055496	28665.0
131.064667	4237.0
132.037643	1293.0
133.056534	7903.0
134.081131	3132.0
135.083939	121107.0
136.082443	16510.0
136.954788	12027.0
137.07782	14729.0
138.068604	3080.0
139.036392	16886.0
140.033737	1973.0
141.051453	6086.0
142.036926	43964.0
143.021927	11052.0
144.024704	15909.0
145.058044	6140.0
146.052643	3083.0
147.072784	7072.0
148.073059	2311.0
149.069504	7717.0
150.064102	2744.0
151.066299	8800.0
152.070663	30599.0
153.06308	17379.0
154.060745	3446.0
155.06102	5938.0
156.077652	2115.0
157.058533	4048.0
158.079102	2238.0
158.942047	1911.0
159.093002	4606.0
160.04393	8484.0
161.065292	7236.0
162.040085	32678.0
163.07019	11153.0
164.075455	27149.0
164.956329	8896.0
165.077896	11112.0
166.059235	4050.0
167.05365	6876.0
168.051895	4450.0
169.055817	6246.0
170.042023	6173.0
171.082993	9360.0
172.07814	2182.0
173.064377	6825.0
174.059982	2836.0
174.909149	7664.0
175.086105	7465.0
176.054245	2364.0
176.919632	1389.0
177.068878	8403.0
178.082016	2388.0
179.064285	14059.0
180.06781	6395.0
180.910568	8585.0
181.077591	14597.0
182.07666	3151.0
183.071045	10117.0
184.066376	3128.0
185.058884	7742.0
186.059631	1911.0
186.919571	1471.0
187.075546	8434.0
188.053238	2660.0
189.050323	5233.0
190.094681	1273.0
191.073624	9185.0
192.057297	2766.0
192.952301	1702.0
193.08017	12752.0
194.083054	2583.0
195.0811	7070.0
196.058182	3793.0
196.889435	9315.0
197.087814	18902.0
198.082108	2900.0
198.889969	1796.0
199.061371	5209.0
199.999115	1838.0
200.124954	1025.0
200.94751	19654.0
201.099915	3065.0
202.068848	2267.0
202.902954	1478.0
203.066406	22347.0
204.066025	2700.0
205.087799	6899.0
206.014435	4487.0
207.085724	6901.0
208.08522	1955.0
208.930817	1112.0
209.083023	18862.0
210.089737	3156.0
211.092285	7642.0
212.090866	1269.0
212.862244	5775.0
213.070847	5635.0
214.058105	1463.0
214.865967	1807.0
215.042374	10850.0
216.050751	3292.0
217.015671	5171.0
217.131683	2133.0
218.101089	1727.0
218.919052	1555.0
219.102783	5993.0
220.099945	1671.0
220.938644	1753.0
221.10611	7754.0
222.092529	2414.0
222.94136	1795.0
223.088089	12138.0
224.077377	2672.0
225.088089	6397.0
226.115707	2751.0
227.065994	6248.0
228.098938	4433.0
229.08873	4395.0
230.110321	1180.0
231.093826	3507.0
232.102615	1337.0
232.894836	1075.0
233.084366	10703.0
234.116531	1932.0
234.996826	2364.0
235.121155	7033.0
236.107361	2175.0
237.104111	8502.0
238.114716	2106.0
238.930618	2003.0
239.092712	5895.0
240.041504	1870.0
240.209473	1452.0
241.010727	2277.0
241.13829	1604.0
242.047699	1212.0
243.063568	2268.0
244.086029	1580.0
245.083176	5219.0
246.108124	1457.0
247.12648	4118.0
248.142227	1506.0
249.097702	12367.0
250.116455	2239.0
251.08609	14676.0
252.096405	3028.0
253.113235	6659.0
254.139023	1878.0
255.113205	4451.0
256.040771	1741.0
256.937622	1761.0
257.093719	2178.0
258.015045	8611.0
259.006256	1256.0
259.138763	2558.0
260.87616	1296.0
261.136353	6374.0
262.109344	1977.0
263.13797	5658.0
264.132019	1384.0
264.985931	1077.0
265.135681	6771.0
266.127686	1837.0
267.112732	5851.0
268.134705	1595.0
269.134003	3597.0
270.152588	1160.0
271.053375	1712.0
271.174255	1050.0
273.02359	1847.0
273.134247	3146.0
274.007294	1404.0
275.145355	6732.0
276.137634	1092.0
276.859772	1183.0
277.147247	8200.0
278.036377	1686.0
278.172638	1020.0
279.146301	6859.0
280.146149	1715.0
281.13147	4580.0
282.123718	1510.0
282.859558	1328.0
283.148041	2775.0
285.071533	5126.0
286.071503	2224.0
287.140259	2371.0
288.873566	1218.0
289.148071	4673.0
290.117676	1320.0
291.150543	7764.0
292.145386	2254.0
293.152588	7687.0
294.171295	1787.0
295.160797	6229.0
296.165833	1613.0
297.1492	2165.0
298.152161	1547.0
298.85907	1282.0
299.153778	1848.0
301.077789	2620.0
303.154541	4817.0
304.152771	1324.0
304.847687	1185.0
305.164978	7233.0
END IONS

BEGIN IONS
PEPMASS=375.007
CHARGE=1
MSLEVEL=2
SOURCE_INSTRUMENT=LC-ESI-qTof
FILENAME=DMIM_centroided_library_abundance_filtered.mgf
SEQ=*..*
IONMODE=Positive
ORGANISM=DMIM-DRUG-METABOLITE-LIBRARY
NAME=BROMHEXINE [M+H]+
PI=Libin Xu
DATACOLLECTOR=Dylan H. Ross
SMILES=CN(CC1=C(C(=CC(=C1)Br)Br)N)C2CCCCC2
INCHI=N/A
INCHIAUX=N/A
PUBMED=N/A
SUBMITUSER=jzemlin
LIBRARYQUALITY=3
SPECTRUMID=CCMSLIB00012467724
USI=mzspec:GNPS:DMIM-DRUG-METABOLITE-LIBRARY:accession:CCMSLIB00012467724
SCANS=2702
55.050663	4393.0
56.05143	3618.0
57.031021	2063.0
58.072048	1999.0
58.999466	6137.0
60.040909	2006.0
60.22538	1242.0
61.00489	1192.0
62.985714	1615.0
64.985657	2233.0
67.050758	2763.0
68.050819	1359.0
69.041824	12221.0
70.067268	33640.0
71.065643	3069.0
72.084221	11574.0
73.05468	1353.0
74.053406	2738.0
76.026123	22207.0
77.039467	2273.0
78.02533	2190.0
79.05085	4766.0
80.056122	4823.0
80.936729	1272.0
81.070824	16894.0
82.066353	2833.0
83.077911	5097.0
84.067093	86433.0
85.042862	8258.0
86.097656	21170.0
87.050186	3882.0
88.029251	5020.0
89.010933	1861.0
91.04747	5906.0
93.064064	2872.0
94.061852	1258.0
94.935326	1651.0
95.080658	5632.0
96.057762	4105.0
96.916489	1338.0
97.033638	188625.0
98.039368	13265.0
99.006355	8679.0
100.072975	2596.0
101.077507	2273.0
102.05909	3127.0
103.056091	1750.0
104.063255	3757.0
105.060631	3040.0
106.054741	1231.0
107.090996	2806.0
108.055641	3368.0
109.082703	4020.0
110.075859	24265.0
111.061378	5963.0
112.109474	26258.0
112.904198	44878.0
113.048218	21334.0
114.063896	6451.0
114.900085	19081.0
115.078186	5358.0
116.038147	13208.0
116.89817	2101.0
117.057945	4834.0
118.035812	2288.0
118.998589	11152.0
120.071732	24195.0
120.985481	8790.0
121.097542	3423.0
122.055229	3090.0
122.925011	1824.0
123.061501	33836.0
124.047142	6377.0
124.96405	8199.0
125.089767	2548.0
126.130447	27676.0
126.998238	2683.0
127.107079	6267.0
128.102219	5501.0
129.106674	56978.0
129.981186	1040.0
130.107071	65967.0
131.101837	7497.0
132.053406	4585.0
133.050583	5648.0
134.047531	1704.0
135.038528	6147.0
136.069733	77129.0
136.941483	37264.0
137.07637	10584.0
138.07402	5086.0
139.038376	8133.0
140.073929	4659.0
140.942749	1565.0
141.086273	6690.0
142.039871	22691.0
142.96817	16436.0
143.109833	6129.0
144.043686	6884.0
145.054367	6581.0
146.072586	3341.0
146.986938	1372.0
147.097488	6387.0
148.060638	4125.0
148.95491	1007.0
149.060852	5134.0
150.065765	4046.0
151.050461	5068.0
151.938156	1025.0
152.062408	6450.0
152.915863	1371.0
153.062271	7259.0
154.058472	3962.0
155.087158	11980.0
155.961716	1172.0
156.074951	4976.0
156.898941	7214.0
157.093231	9277.0
158.080307	5962.0
158.934799	27406.0
159.095383	10293.0
160.069168	2566.0
160.957977	3471.0
161.073822	3774.0
162.039001	9932.0
162.938309	1158.0
163.069153	6167.0
164.075409	3610.0
164.939484	71303.0
165.080643	7257.0
166.068649	12218.0
166.926041	1142.0
167.066772	12824.0
168.048889	5311.0
168.962753	1406.0
169.094208	10663.0
170.060638	5751.0
170.952637	1119.0
171.087967	13116.0
171.623703	1230.0
172.07724	4472.0
173.006302	3728.0
173.10759	11476.0
174.038086	4817.0
174.149872	1357.0
174.760422	1194.0
174.90509	1043216.0
175.080185	16649.0
175.265015	2176.0
175.922546	4166.0
176.10849	3868.0
176.905441	159962.0
177.055969	13311.0
177.914276	1235.0
178.074722	5085.0
178.965836	18818.0
179.094971	4404.0
180.067719	3862.0
180.913055	163168.0
181.076462	11266.0
181.949371	1176.0
182.088196	3196.0
182.943283	20669.0
183.127579	9641.0
183.96019	1245.0
184.081451	9283.0
185.011246	13030.0
185.12532	8471.0
185.982025	1857.0
186.118256	7638.0
186.923096	46686.0
187.097504	11967.0
188.063232	6183.0
189.054794	9650.0
190.018677	3498.0
190.930328	4742.0
191.071579	7227.0
192.080856	3172.0
192.949371	3336.0
193.072464	9252.0
194.080292	5989.0
194.99678	13044.0
195.107605	6923.0
196.017822	8534.0
196.133667	1522.0
196.893143	346815.0
197.016953	9638.0
197.138107	6207.0
197.984375	6775.0
198.127396	2819.0
198.89592	57956.0
199.013367	20914.0
199.140793	5195.0
199.985977	5528.0
200.135818	5624.0
200.944962	61255.0
201.116089	11215.0
201.940048	1078.0
202.099792	4873.0
202.897842	52143.0
203.067902	24822.0
204.089233	5514.0
204.911957	7410.0
205.082504	5106.0
206.010406	9351.0
206.122147	1157.0
207.05278	9351.0
207.985382	1467.0
208.097122	3953.0
208.950287	1322.0
209.089508	12714.0
210.095322	5475.0
211.001648	3645.0
211.118179	6133.0
212.000839	3893.0
212.13472	4446.0
212.862488	440571.0
213.054199	10675.0
213.159882	2795.0
213.868912	1421.0
214.088287	7287.0
214.863205	97778.0
215.008926	6590.0
215.122711	5717.0
216.014771	1933.0
216.1203	4978.0
216.917831	22113.0
217.079147	8825.0
218.097656	3360.0
218.872391	62273.0
219.018448	4878.0
219.121338	3034.0
219.897537	1213.0
220.073471	3551.0
220.915695	35687.0
221.098526	6009.0
221.968124	1506.0
222.106415	4135.0
222.94429	12790.0
223.108139	8532.0
224.107285	4527.0
225.047775	7753.0
225.158249	2998.0
225.995651	1359.0
226.143417	9973.0
226.912811	3734.0
227.076111	18030.0
227.999207	4125.0
228.14743	4702.0
228.931992	4188.0
229.110031	6637.0
230.12056	4064.0
230.903732	1338.0
231.065338	11318.0
231.884415	2981.0
232.087418	7618.0
232.892197	5952.0
233.0755	9126.0
233.948044	1114.0
234.109222	3787.0
234.864578	52387.0
235.022736	10962.0
235.135483	4258.0
236.112213	3680.0
236.849457	10343.0
236.990387	1706.0
237.1073	7869.0
237.947128	1824.0
238.104996	4288.0
238.939423	8687.0
239.110184	8021.0
240.006409	1778.0
240.144073	9112.0
241.003799	3042.0
241.114212	5623.0
242.104782	4438.0
242.206802	1404.0
242.896988	2000.0
243.015472	2245.0
243.132172	6343.0
243.977203	1094.0
244.140198	5993.0
244.910858	6588.0
245.083481	8910.0
246.107224	2605.0
246.888321	1647.0
247.024078	6983.0
247.151566	2444.0
247.908951	1062.0
248.103317	2471.0
248.898727	6774.0
249.062836	23909.0
249.179047	1003.0
249.888535	7037.0
250.090363	7725.0
250.833282	8642.0
251.110107	9375.0
252.135834	3612.0
252.844467	3028.0
253.042328	7048.0
253.165848	3584.0
254.014954	1692.0
254.154907	6272.0
254.879745	22495.0
255.008713	4962.0
255.143845	4083.0
255.922211	1028.0
256.11145	4834.0
256.86499	1484.0
257.001923	8648.0
257.167542	4228.0
258.009979	2294.0
258.139526	4070.0
258.858429	2194.0
258.961914	1728.0
259.101868	5202.0
260.006134	1720.0
260.145233	2934.0
260.880707	10545.0
261.063721	6123.0
261.172577	1240.0
261.900818	36033.0
262.1409	3395.0
262.910156	6128.0
263.107239	5688.0
263.897858	110441.0
264.101349	2726.0
264.905029	13194.0
265.062927	6061.0
265.165009	2209.0
265.895813	66062.0
266.042816	1368.0
266.147736	2624.0
266.89801	20911.0
267.085754	8696.0
268.026764	2846.0
268.166626	4018.0
268.878387	1288.0
269.011108	2532.0
269.145355	5247.0
269.843262	2110.0
270.009949	1086.0
270.147461	4422.0
270.885803	10227.0
271.048096	2974.0
271.196381	4109.0
271.874512	1247.0
272.147919	3543.0
272.893646	4059.0
273.067047	5264.0
273.191589	1196.0
273.965088	1717.0
274.126984	3331.0
274.846252	1940.0
274.996765	2748.0
275.15271	4134.0
275.910309	10825.0
276.159027	3290.0
276.868164	11003.0
277.020477	2161.0
277.143188	4612.0
277.913086	79021.0
278.053467	2855.0
278.171478	1844.0
278.909637	16677.0
279.126831	5168.0
279.911011	56425.0
280.139557	3513.0
280.911804	8478.0
281.138702	3371.0
281.937103	1381.0
282.141876	3584.0
282.867065	55086.0
283.027161	2223.0
283.154999	3939.0
283.875214	1542.0
284.089569	4571.0
284.194275	1139.0
284.889526	10474.0
285.053436	1863.0
285.156311	4734.0
286.064484	6507.0
286.199341	1938.0
286.876862	5410.0
287.043762	2589.0
287.173523	3306.0
287.860687	1310.0
288.096161	3699.0
288.876038	48318.0
289.060455	5373.0
289.181152	1662.0
289.889923	1716.0
290.067139	2990.0
290.907227	16316.0
291.11676	6649.0
291.91568	4656.0
292.122559	2522.0
292.875122	18258.0
293.150543	4716.0
293.888397	2818.0
294.153473	4300.0
294.866882	11908.0
295.113861	5000.0
295.215576	1342.0
295.835602	1034.0
296.096588	3964.0
296.209717	1003.0
296.833496	1975.0
296.937378	6608.0
297.148804	4858.0
297.854034	1338.0
298.148285	3704.0
298.844696	64456.0
298.973511	4572.0
299.152985	4363.0
299.875183	1220.0
300.151764	3093.0
300.874268	32624.0
301.066528	5780.0
301.200836	1868.0
302.067688	4671.0
302.868164	4118.0
303.010498	1236.0
303.161224	3680.0
303.852844	1052.0
304.049805	4266.0
304.181213	1599.0
304.849579	89641.0
305.003632	1486.0
305.156586	3715.0
305.875916	2233.0
306.087921	3043.0
306.879272	16128.0
307.054993	6911.0
307.187775	4046.0
307.886292	1740.0
308.108826	7158.0
308.929382	5576.0
309.144257	5440.0
309.860687	1719.0
310.022766	1542.0
310.166901	4026.0
310.846863	15319.0
311.03299	2804.0
311.185364	2298.0
311.847321	1116.0
312.068176	15504.0
312.199432	1607.0
312.872406	7320.0
313.076294	4636.0
313.208527	2401.0
314.088745	2964.0
314.20575	1777.0
314.816925	36878.0
314.981262	4388.0
315.156799	4416.0
315.824493	1119.0
316.162628	2695.0
316.840576	20569.0
317.001587	1968.0
317.16098	3649.0
318.139496	2379.0
318.894653	10416.0
319.192596	4131.0
320.146851	2605.0
320.82431	164468.0
321.003967	2217.0
321.178223	4270.0
321.852142	1138.0
322.042725	1271.0
322.18161	2732.0
322.838959	40557.0
322.987823	2614.0
323.182953	4362.0
323.997314	1552.0
324.181488	2828.0
324.840607	4003.0
325.187256	4009.0
326.030029	1785.0
326.193359	2920.0
326.855133	1758.0
327.082977	2153.0
327.204529	3206.0
327.894897	1165.0
328.059784	3282.0
328.206573	2088.0
328.875366	17297.0
329.035278	6805.0
329.18573	3107.0
329.868469	1524.0
330.087341	20415.0
330.221497	1315.0
330.791962	9550.0
330.943604	1902.0
331.096893	5253.0
331.208832	1669.0
332.070251	4529.0
332.204071	1784.0
332.820251	10735.0
333.010193	1793.0
333.172699	4656.0
333.837402	1075.0
334.052948	4551.0
334.187164	1712.0
334.841949	4975.0
335.052216	4257.0
335.188812	3130.0
336.175842	2670.0
336.799103	149095.0
336.967926	3053.0
337.187012	4345.0
337.821869	1602.0
338.181	3227.0
338.813568	55024.0
339.002289	1869.0
339.202972	5169.0
339.834625	1314.0
340.070343	4009.0
340.205139	2163.0
340.831482	8485.0
340.958588	1199.0
341.089722	1136.0
341.208435	4189.0
342.201569	2723.0
342.849915	2363.0
343.073578	1210.0
343.197205	3803.0
344.010406	3052.0
344.197906	1953.0
344.843933	19419.0
345.018066	1522.0
345.177979	3175.0
345.891144	1108.0
346.062439	106598.0
346.211487	1485.0
346.857513	2861.0
347.048065	44548.0
347.196198	2402.0
347.869598	1199.0
348.05661	18378.0
348.214417	2316.0
348.807587	3942.0
348.964325	1485.0
349.12738	8945.0
349.758698	1667.0
350.046478	4553.0
350.198883	2379.0
350.844025	10200.0
351.026031	5014.0
351.177734	3684.0
351.848694	1485.0
352.058563	4526.0
352.212067	1818.0
352.775055	56475.0
352.965118	2296.0
353.179138	4788.0
353.857391	1508.0
354.05658	1190.0
354.195435	2716.0
354.79129	30590.0
354.911072	1732.0
355.076263	1641.0
355.199066	3736.0
355.835876	1128.0
356.058533	3199.0
356.220764	2498.0
356.821625	8431.0
357.020935	1822.0
357.196838	3856.0
358.013794	1439.0
358.200745	2172.0
358.814117	1548.0
358.95401	2845.0
359.187225	2634.0
359.805328	1536.0
359.979004	1256.0
360.192719	2036.0
360.818207	19723.0
360.987152	1463.0
361.181305	2568.0
362.033051	1598.0
362.214783	2535.0
362.822662	6777.0
363.001038	1696.0
363.185883	3889.0
364.221649	1914.0
364.86795	1504.0
365.130768	16336.0
365.827515	1287.0
366.00116	1449.0
366.139008	3211.0
366.827057	5610.0
366.993713	2329.0
367.19101	4091.0
367.813934	3265.0
368.041626	9925.0
368.218811	2680.0
368.797485	12547.0
369.036774	6913.0
369.197784	3526.0
369.825287	1371.0
370.053223	2812.0
370.209442	2053.0
370.785492	9433.0
370.902588	1249.0
371.076385	1651.0
371.199554	2642.0
371.833344	1634.0
372.039856	1771.0
372.209656	2720.0
372.799591	4428.0
373.003937	1389.0
373.200439	3523.0
374.054077	24795.0
374.223846	2375.0
374.838593	2368.0
375.059204	5374.0
375.212067	2020.0
375.793793	1245.0
376.055603	3632.0
376.212433	2072.0
376.794037	15034.0
END IONS

BEGIN IONS
PEPMASS=147.161
CHARGE=1
MSLEVEL=2
SOURCE_INSTRUMENT=LC-ESI-qTof
FILENAME=DMIM_centroided_library_abundance_filtered.mgf
SEQ=*..*
IONMODE=Positive
ORGANISM=DMIM-DRUG-METABOLITE-LIBRARY
NAME=TRIENTINE [M+H]+
PI=Libin Xu
DATACOLLECTOR=Dylan H. Ross
SMILES=C(CNCCNCCN)N
INCHI=N/A
INCHIAUX=N/A
PUBMED=N/A
SUBMITUSER=jzemlin
LIBRARYQUALITY=3
SPECTRUMID=CCMSLIB00012467798
USI=mzspec:GNPS:DMIM-DRUG-METABOLITE-LIBRARY:accession:CCMSLIB00012467798
SCANS=2776
51.847633	1710.0
54.834782	1181.0
59.646595	1450.0
76.637665	1234.0
76.783066	1465.0
78.165428	1315.0
94.93824	1035.0
118.901604	1358.0
134.87709	1216.0
END IONS

BEGIN IONS
PEPMASS=180.139
CHARGE=1
MSLEVEL=2
SOURCE_INSTRUMENT=LC-ESI-qTof
FILENAME=DMIM_centroided_library_abundance_filtered.mgf
SEQ=*..*
IONMODE=Positive
ORGANISM=DMIM-DRUG-METABOLITE-LIBRARY
NAME=MEXILETINE [M+H]+
PI=Libin Xu
DATACOLLECTOR=Dylan H. Ross
SMILES=CC1=C(C(=CC=C1)C)OCC(C)N
INCHI=N/A
INCHIAUX=N/A
PUBMED=N/A
SUBMITUSER=jzemlin
LIBRARYQUALITY=3
SPECTRUMID=CCMSLIB00012467877
USI=mzspec:GNPS:DMIM-DRUG-METABOLITE-LIBRARY:accession:CCMSLIB00012467877
SCANS=2855
70.065689	1563.0
81.042717	1424.0
84.068466	4021.0
84.992264	1010.0
91.051735	1959.0
94.954575	1610.0
97.03299	4086.0
98.988731	2140.0
105.073639	4465.0
108.040466	1948.0
109.053162	1026.0
110.064659	1131.0
112.905518	8053.0
113.04438	1874.0
114.900948	3349.0
118.926918	10606.0
119.065697	1765.0
121.074066	1636.0
122.051735	1106.0
123.060394	6063.0
124.054428	1392.0
124.989021	2531.0
129.093674	1864.0
130.068817	1317.0
134.90596	1162.0
136.069427	16601.0
136.940536	10647.0
137.07637	1722.0
139.021667	1930.0
141.008408	1739.0
142.043045	1270.0
142.963226	1660.0
144.049469	1270.0
150.057312	2245.0
151.921692	1562.0
152.923004	2629.0
153.058884	1274.0
154.946564	1022.0
156.915054	1497.0
158.942215	1946.0
160.968948	1130.0
163.049713	1097.0
164.939087	12306.0
165.072861	2998.0
166.054611	1120.0
167.068146	1689.0
169.913361	1127.0
174.904526	76351.0
175.095276	1095.0
176.910751	13823.0
177.054657	1929.0
178.074509	1067.0
178.936203	1319.0
179.073883	1078.0
180.913223	19749.0
END IONS

BEGIN IONS
PEPMASS=191.998
CHARGE=1
MSLEVEL=2
SOURCE_INSTRUMENT=LC-ESI-qTof
FILENAME=DMIM_centroided_library_abundance_filtered.mgf
SEQ=*..*
IONMODE=Positive
ORGANISM=DMIM-DRUG-METABOLITE-LIBRARY
NAME=CLOPIDOL [M+H]+
PI=Libin Xu
DATACOLLECTOR=Dylan H. Ross
SMILES=CC1=C(C(=O)C(=C(N1)C)Cl)Cl
INCHI=N/A
INCHIAUX=N/A
PUBMED=N/A
SUBMITUSER=jzemlin
LIBRARYQUALITY=3
SPECTRUMID=CCMSLIB00012467937
USI=mzspec:GNPS:DMIM-DRUG-METABOLITE-LIBRARY:accession:CCMSLIB00012467937
SCANS=2915
56.196682	1736.0
78.70652	1617.0
94.939697	1700.0
105.066597	1159.0
118.930237	2324.0
136.947388	1453.0
148.792282	1302.0
152.924652	1021.0
164.947159	1826.0
174.901093	1423.0
180.919846	1512.0
186.91713	1179.0
END IONS

BEGIN IONS
PEPMASS=101.017
CHARGE=1
MSLEVEL=2
SOURCE_INSTRUMENT=LC-ESI-qTof
FILENAME=DMIM_centroided_library_abundance_filtered.mgf
SEQ=*..*
IONMODE=Positive
ORGANISM=DMIM-DRUG-METABOLITE-LIBRARY
NAME=AMINOTHIAZOLE [M+H]+
PI=Libin Xu
DATACOLLECTOR=Dylan H. Ross
SMILES=C1=CSC(=N1)N
INCHI=N/A
INCHIAUX=N/A
PUBMED=N/A
SUBMITUSER=jzemlin
LIBRARYQUALITY=3
SPECTRUMID=CCMSLIB00012468191
USI=mzspec:GNPS:DMIM-DRUG-METABOLITE-LIBRARY:accession:CCMSLIB00012468191
SCANS=3169
52.860535	1192.0
57.5951	1001.0
59.017628	1140.0
59.233826	1104.0
60.990997	1009.0
61.902828	1201.0
62.087364	1288.0
62.984669	1617.0
65.033539	2287.0
66.851669	1134.0
67.041946	1817.0
77.041832	10441.0
78.041733	2310.0
79.050369	5491.0
80.051529	3095.0
81.015404	3069.0
82.0411	1135.0
89.016785	1335.0
90.192848	1027.0
91.055878	7556.0
92.043358	1982.0
93.054214	1714.0
95.064598	1512.0
96.819221	1244.0
97.027916	1496.0
98.996262	1306.0
102.048943	1032.0
END IONS

BEGIN IONS
PEPMASS=294.132
CHARGE=1
MSLEVEL=2
SOURCE_INSTRUMENT=LC-ESI-qTof
FILENAME=DMIM_centroided_library_abundance_filtered.mgf
SEQ=*..*
IONMODE=Positive
ORGANISM=DMIM-DRUG-METABOLITE-LIBRARY
NAME=PIMETHIXENE [M+H]+
PI=Libin Xu
DATACOLLECTOR=Dylan H. Ross
SMILES=CN1CCC(=C2C3=CC=CC=C3SC4=CC=CC=C42)CC1
INCHI=N/A
INCHIAUX=N/A
PUBMED=N/A
SUBMITUSER=jzemlin
LIBRARYQUALITY=3
SPECTRUMID=CCMSLIB00012468238
USI=mzspec:GNPS:DMIM-DRUG-METABOLITE-LIBRARY:accession:CCMSLIB00012468238
SCANS=3216
53.038002	1127.0
54.035759	1660.0
55.046886	8935.0
56.051834	20959.0
57.061375	4886.0
58.062618	10736.0
58.998734	164314.0
60.019867	4691.0
61.005508	10970.0
62.987564	3180.0
65.034012	3487.0
67.051895	18423.0
68.052643	21956.0
69.049431	17120.0
70.066299	52845.0
71.055489	5204.0
72.082497	9827.0
73.025108	8629.0
74.05072	4046.0
75.034126	1264.0
76.025185	521049.0
76.258118	1202.0
77.037331	42212.0
78.022476	22348.0
79.052879	20756.0
80.052689	57005.0
81.062576	33773.0
82.069275	593645.0
82.307976	2996.0
82.782478	1544.0
83.06572	36861.0
84.049797	665209.0
84.794289	1287.0
85.038597	44241.0
86.083351	19402.0
86.999474	14300.0
87.120323	1112.0
88.025841	45203.0
89.0326	4876.0
90.026474	2044.0
91.057518	56138.0
92.056778	4914.0
93.068146	12730.0
94.067345	38792.0
94.278793	1295.0
95.054184	34328.0
96.085541	974285.0
96.213264	9416.0
96.347046	8400.0
96.838417	2396.0
96.944778	2688.0
97.076118	466758.0
97.353943	1507.0
98.06118	49296.0
99.022125	18274.0
100.039124	5577.0
101.053284	3322.0
102.072159	8898.0
103.04718	6515.0
104.056068	2618.0
105.066353	16936.0
106.06678	4116.0
107.078606	17370.0
108.055206	13653.0
109.076782	31528.0
110.062279	21344.0
111.052505	19579.0
112.032135	18099.0
113.036133	20811.0
114.037712	19714.0
115.060593	18508.0
116.023209	139586.0
117.059471	23859.0
118.034172	10327.0
118.926888	10460.0
119.063339	22182.0
120.062897	24255.0
121.039803	43426.0
122.05986	13095.0
123.062195	75051.0
124.033684	27144.0
124.9692	28658.0
125.082794	8852.0
126.047966	6795.0
127.030128	16647.0
128.054245	10392.0
129.094925	46797.0
130.057236	137525.0
131.06456	20347.0
132.060181	7925.0
133.062363	22891.0
134.060577	9951.0
135.055893	29263.0
136.06749	56550.0
136.9496	61326.0
137.082199	30773.0
138.067154	12253.0
139.038666	38493.0
140.037262	10413.0
140.927567	4433.0
141.063232	35906.0
142.041855	282743.0
142.986969	51681.0
143.088211	14268.0
144.028748	59816.0
144.174088	1780.0
144.954773	1520.0
145.072388	18714.0
146.051926	11959.0
147.057022	32550.0
148.058075	11167.0
148.960297	1993.0
149.077576	20712.0
150.064896	9530.0
151.061157	26602.0
152.064789	54841.0
152.922684	2744.0
153.065247	63663.0
154.067886	15267.0
155.06488	20333.0
156.046722	13627.0
156.883286	1223.0
157.062302	18289.0
157.960419	1325.0
158.10585	11257.0
158.934616	11730.0
159.091354	20904.0
160.04454	26602.0
160.93837	3117.0
161.08226	20738.0
162.030823	98025.0
162.143524	1648.0
162.942261	2518.0
163.069885	34254.0
164.055542	16813.0
164.935287	36452.0
165.073822	108507.0
166.068985	29682.0
166.939056	2077.0
167.065399	29902.0
168.05307	18523.0
169.066788	22473.0
170.043777	31819.0
171.078033	55023.0
171.943726	1033.0
172.076355	13186.0
173.062363	29935.0
173.164368	1379.0
174.056854	12406.0
174.919403	26038.0
175.090515	21209.0
176.046906	9506.0
176.14798	1934.0
176.901489	2585.0
177.054214	34755.0
177.155243	1737.0
177.925613	1073.0
178.082809	70590.0
178.943909	7346.0
179.078934	68281.0
179.958618	1283.0
180.081573	16602.0
180.914093	35180.0
181.073746	48826.0
181.951965	1863.0
182.079514	10784.0
182.921295	4058.0
183.0755	31081.0
184.068924	19992.0
184.212326	2936.0
184.912735	1730.0
185.06279	35548.0
185.175049	2605.0
186.068466	9804.0
186.221008	32181.0
186.919357	14752.0
187.071671	36773.0
187.221405	3986.0
188.05426	15321.0
188.175903	1014.0
188.906952	1124.0
189.066177	25060.0
189.960739	1708.0
190.072586	11149.0
190.923187	3623.0
191.072678	29474.0
191.926529	4126.0
192.077988	10727.0
192.948013	7369.0
193.076416	42680.0
193.325012	1869.0
194.082703	10815.0
194.954056	3545.0
195.088364	31763.0
196.03157	15213.0
196.140701	3570.0
196.889618	22856.0
197.051926	1563575.0
197.208954	60999.0
197.337845	38878.0
197.444199	16735.0
197.882309	1104.0
198.054855	340309.0
198.218323	32056.0
198.327408	8172.0
198.453293	1124.0
198.893677	10273.0
199.050659	155143.0
199.20462	15442.0
199.319611	1121.0
200.049179	38223.0
200.184723	4494.0
200.942078	140076.0
201.094971	21496.0
201.943222	2642.0
202.081345	30411.0
202.906082	9935.0
203.072418	136828.0
203.921173	2285.0
204.0896	35147.0
204.916321	9763.0
205.090286	23083.0
206.012482	17939.0
206.120163	5011.0
206.957504	4395.0
207.08783	23938.0
208.051987	19409.0
208.932083	3832.0
209.075287	78941.0
210.059341	159989.0
210.182144	1140.0
210.906555	1642.0
211.069794	75238.0
212.072067	19827.0
212.188843	2316.0
212.873047	11305.0
213.064255	28915.0
213.171387	1986.0
213.942184	1636.0
214.077881	16048.0
214.871017	4363.0
215.044952	64173.0
215.155518	3820.0
215.939972	3002.0
216.078705	21397.0
216.946579	29594.0
217.100662	51292.0
217.978714	2475.0
218.115402	46350.0
218.936569	9127.0
219.109131	23480.0
219.974457	1103.0
220.10817	7096.0
220.912994	15699.0
221.055725	156900.0
221.168823	1390.0
222.058716	106382.0
222.19873	1050.0
222.918884	25209.0
223.067627	199795.0
224.068039	35312.0
224.193069	1058.0
224.904907	2187.0
225.078094	31509.0
225.1819	1843.0
225.959763	1923.0
226.112793	10847.0
226.903503	2877.0
227.068512	34149.0
227.960724	2500.0
228.092682	17605.0
228.257217	1032.0
228.946121	2420.0
229.091583	19115.0
229.946457	1476.0
230.109329	7708.0
230.925659	5105.0
231.094147	17336.0
231.906326	2212.0
232.093597	9907.0
232.884827	11110.0
233.073318	38409.0
233.180573	1965.0
233.908936	1666.0
234.061111	105684.0
234.893814	4376.0
235.066559	105877.0
235.181442	1948.0
235.902359	1222.0
236.073593	40233.0
236.917175	4025.0
237.088913	64890.0
237.93689	1626.0
238.08905	15917.0
238.919891	17465.0
239.090912	23803.0
240.054138	12237.0
240.205338	6152.0
240.863312	2608.0
240.992859	8393.0
241.122849	5803.0
241.249222	1031.0
242.04628	4392.0
242.162674	1762.0
242.28511	4834.0
242.89122	4047.0
243.06221	8729.0
243.165756	3271.0
243.973679	2957.0
244.124817	7892.0
244.900177	4706.0
245.078064	28287.0
245.196625	1059.0
245.904968	1585.0
246.075836	9600.0
246.917969	3308.0
247.078125	30713.0
247.188385	2276.0
247.933212	2683.0
248.079849	17772.0
248.924881	5004.0
249.081482	111872.0
249.203827	2080.0
249.917358	1933.0
250.082458	28725.0
250.951355	2377.0
251.092529	110899.0
251.939209	1714.0
252.099197	22678.0
252.890121	1071.0
253.009171	6070.0
253.127213	23716.0
253.956375	1770.0
254.120255	8101.0
254.860199	21115.0
254.988815	1976.0
255.115936	13328.0
256.065155	7687.0
256.169556	1566.0
256.290192	3367.0
256.862457	1721.0
256.984314	20870.0
257.146912	5903.0
258.019562	24164.0
258.175201	4057.0
258.881409	6619.0
259.008972	4451.0
259.125397	11891.0
259.909241	1336.0
260.088379	8161.0
260.218658	1318.0
260.879333	14097.0
261.10733	22835.0
261.946716	1467.0
262.104401	8709.0
262.90332	3755.0
263.121948	24181.0
263.939819	2692.0
264.103058	9338.0
264.881409	2837.0
264.998077	5760.0
265.119568	26648.0
265.974152	1509.0
266.11264	8271.0
266.89444	5019.0
267.098785	28543.0
267.989594	2711.0
268.115417	7962.0
268.878723	2119.0
268.993774	2852.0
269.129242	9605.0
269.966187	2583.0
270.139587	4898.0
270.325989	35352.0
270.843231	6403.0
271.010498	3708.0
271.13385	6409.0
271.323944	7607.0
272.023407	3395.0
272.16156	2188.0
272.887482	4852.0
273.068604	14785.0
273.179626	3128.0
274.01004	4357.0
274.144806	4009.0
274.840607	1143.0
274.958191	3514.0
275.141541	17235.0
275.982056	2528.0
276.151031	5807.0
276.868805	7379.0
277.014954	3614.0
277.145844	24252.0
277.96109	2535.0
278.109253	11581.0
278.88681	7760.0
279.127533	37813.0
279.993134	2388.0
280.128357	10643.0
280.915802	4056.0
281.13562	16033.0
281.987671	3421.0
282.146729	4077.0
282.867249	12698.0
283.010162	2491.0
283.14502	9925.0
284.073059	5700.0
284.215454	1664.0
284.877563	3081.0
285.071289	14770.0
285.195404	2636.0
286.029877	10187.0
286.168976	3066.0
286.859802	2008.0
286.973785	4196.0
287.130859	7424.0
288.083862	4501.0
288.223938	1365.0
288.872009	15820.0
289.027252	4285.0
289.152893	12627.0
289.975159	1373.0
290.122437	7119.0
290.917358	3205.0
291.126526	38424.0
291.955292	1533.0
292.127319	15007.0
292.846649	1805.0
292.980316	2339.0
293.141022	28913.0
293.988007	1781.0
294.14386	154169.0
294.31546	1992.0
294.605072	1272.0
294.871399	3749.0
295.000458	1477.0
295.148956	51358.0
295.617523	1011.0
295.958923	1765.0
296.096863	3626.0
END IONS

BEGIN IONS
PEPMASS=416.082
CHARGE=1
MSLEVEL=2
SOURCE_INSTRUMENT=LC-ESI-qTof
FILENAME=DMIM_centroided_library_abundance_filtered.mgf
SEQ=*..*
IONMODE=Positive
ORGANISM=DMIM-DRUG-METABOLITE-LIBRARY
NAME=CYPERMETHRIN [M+H]+
PI=Libin Xu
DATACOLLECTOR=Dylan H. Ross
SMILES=CC1(C(C1C(=O)OC(C#N)C2=CC(=CC=C2)OC3=CC=CC=C3)C=C(Cl)Cl)C
INCHI=N/A
INCHIAUX=N/A
PUBMED=N/A
SUBMITUSER=jzemlin
LIBRARYQUALITY=3
SPECTRUMID=CCMSLIB00012468311
USI=mzspec:GNPS:DMIM-DRUG-METABOLITE-LIBRARY:accession:CCMSLIB00012468311
SCANS=3289
55.052505	7249.0
56.049644	3908.0
57.063477	3870.0
58.069603	4273.0
59.018467	5901.0
60.066147	2486.0
61.020245	1213.0
62.984047	2854.0
65.01857	1550.0
67.055489	8669.0
68.05809	2178.0
69.056885	11474.0
70.066521	32354.0
71.057137	3876.0
72.083031	14136.0
73.054405	3907.0
74.0662	3068.0
75.023468	1050.0
76.02681	16904.0
77.032852	6970.0
78.031731	1359.0
79.052979	9541.0
80.053322	7789.0
80.94799	1364.0
81.069099	15810.0
82.064865	3763.0
83.064484	9588.0
84.06498	71124.0
85.039398	13782.0
86.097466	23766.0
87.049934	6102.0
88.053261	7732.0
89.05751	4871.0
91.057373	24529.0
92.060822	2076.0
93.069298	11265.0
94.067215	2619.0
94.977432	1684.0
95.079933	27038.0
96.067932	4399.0
97.03936	79050.0
98.051338	9203.0
99.02964	15095.0
100.081589	6054.0
101.072182	4079.0
102.107597	8209.0
103.034782	4003.0
104.066582	3175.0
105.073654	82777.0
106.074944	8440.0
107.081802	16813.0
108.067619	9133.0
109.087547	34498.0
110.074677	28353.0
111.061859	24238.0
112.053436	10758.0
112.897881	1115.0
113.041771	17353.0
114.055382	7128.0
115.071526	7598.0
116.036217	14652.0
117.058556	4785.0
118.049553	2619.0
118.932236	3441.0
119.071381	20843.0
120.080322	24373.0
120.971672	6522.0
121.086601	32363.0
122.072784	13682.0
123.062775	116945.0
124.062569	15054.0
124.976433	22503.0
125.080879	13738.0
126.089661	31373.0
126.961769	1119.0
127.067528	13074.0
128.072647	3986.0
129.102524	55901.0
130.066544	34083.0
131.075363	10556.0
132.082657	4183.0
133.061203	24684.0
134.064789	6434.0
135.084366	23171.0
136.068237	280111.0
136.936325	28487.0
137.070465	74320.0
138.071762	13690.0
139.052475	52094.0
140.063904	9711.0
140.950867	5454.0
141.081406	11775.0
142.040283	56383.0
142.9702	30090.0
143.104767	11082.0
144.056412	17035.0
144.97168	1335.0
145.081573	12788.0
146.068085	5523.0
147.083603	21317.0
148.069366	7424.0
148.975632	2140.0
149.087418	26105.0
150.060486	11692.0
151.076935	24806.0
152.072052	13238.0
152.920639	1038.0
153.063629	36782.0
154.090378	90151.0
155.084412	37077.0
156.087662	12025.0
156.908157	5173.0
157.085449	16396.0
157.972443	1011.0
158.095612	9255.0
158.940659	17059.0
159.097595	24329.0
160.050049	14786.0
160.946182	2117.0
161.08934	21705.0
162.046417	27665.0
162.945755	1816.0
163.080872	44779.0
164.081345	13823.0
164.941879	52437.0
165.077423	41302.0
166.071289	12779.0
166.947357	1103.0
167.071945	29791.0
168.063766	11183.0
169.077393	29740.0
170.054047	13667.0
171.086334	25553.0
172.09111	8413.0
173.078186	30329.0
174.080032	8874.0
174.911011	21189.0
175.093536	24441.0
176.08699	8161.0
176.942764	5346.0
177.075912	50423.0
177.96196	1002.0
178.088837	13513.0
178.953857	3720.0
179.085388	81774.0
180.080399	21022.0
180.916061	32152.0
181.082199	84970.0
181.952957	1015.0
182.083008	15800.0
182.918503	3602.0
183.07663	53950.0
183.18187	1199.0
184.065994	9259.0
184.194992	10073.0
185.069489	24435.0
185.179352	4736.0
185.982803	1274.0
186.100647	8676.0
186.227829	75875.0
186.933136	9490.0
187.083145	15990.0
187.20462	15637.0
188.063187	12035.0
188.179733	1464.0
188.955597	1741.0
189.087997	19549.0
189.976303	1382.0
190.089951	6902.0
190.941925	3321.0
191.08194	41711.0
191.193497	1270.0
191.929672	1270.0
192.0867	11014.0
192.951965	5973.0
193.087952	77899.0
194.089157	14894.0
194.959564	3048.0
195.094177	60762.0
195.988159	1878.0
196.094315	12456.0
196.907822	31546.0
197.090958	129727.0
197.4505	1902.0
197.950806	1106.0
198.098923	18350.0
198.91716	14440.0
199.083481	24496.0
199.196838	2047.0
199.974319	7019.0
200.107315	20807.0
200.948181	36073.0
201.11499	20439.0
201.972885	2817.0
202.10321	6804.0
202.915527	4148.0
203.093079	34677.0
203.983597	1448.0
204.100784	9196.0
204.919586	3995.0
205.091644	36663.0
205.980469	1557.0
206.091507	9868.0
206.968964	4196.0
207.097702	51051.0
207.980057	1499.0
208.100616	13355.0
208.941605	2554.0
209.088882	117836.0
210.092606	17485.0
210.96904	2499.0
211.096405	42173.0
211.96933	1047.0
212.109268	11799.0
212.246414	1449.0
212.874512	13502.0
212.989792	2134.0
213.104523	30516.0
214.09642	12978.0
214.226257	1054.0
214.959915	16092.0
215.109573	17180.0
216.05603	10676.0
216.159988	2112.0
216.918854	71767.0
217.090652	23848.0
217.967667	2981.0
218.101852	7488.0
218.93959	6653.0
219.110321	28813.0
219.957565	1599.0
220.104858	9346.0
220.931717	11184.0
221.112091	47521.0
222.100861	14233.0
222.932999	10260.0
223.102051	74290.0
223.970016	1260.0
224.105606	13451.0
224.965958	3294.0
225.100464	48637.0
225.966415	1677.0
226.131607	17047.0
226.899384	3948.0
227.066071	30140.0
227.184937	2878.0
227.995331	2317.0
228.131226	9347.0
228.958847	3444.0
229.102127	18765.0
229.972122	1665.0
230.111115	7516.0
230.899948	3230.0
231.069168	30750.0
231.174637	1775.0
231.923798	1395.0
232.094818	11234.0
232.890045	10404.0
233.093918	52185.0
233.961029	3913.0
234.113403	10044.0
234.870941	1409.0
234.990158	7092.0
235.122299	52158.0
235.953506	1281.0
236.112457	11411.0
236.877686	1363.0
236.99173	4760.0
237.12149	72921.0
237.97612	2821.0
238.117737	15851.0
238.913254	18001.0
239.106155	51451.0
239.996536	3139.0
240.098465	11115.0
240.218994	15914.0
240.9133	5001.0
241.092285	22214.0
241.241135	2671.0
242.090714	9764.0
242.226883	7417.0
242.916473	5461.0
243.10939	17626.0
243.97702	2826.0
244.11731	10395.0
244.9048	8100.0
245.084366	28240.0
245.201569	2069.0
245.928802	1258.0
246.089203	7481.0
246.194733	1254.0
246.960709	7362.0
247.122543	22471.0
247.960724	3596.0
248.131531	6658.0
248.945786	7499.0
249.115433	52272.0
249.929764	2458.0
250.119034	13175.0
250.879852	1223.0
250.990662	4419.0
251.121124	77720.0
251.971878	1922.0
252.118713	16588.0
252.998215	5732.0
253.130432	48155.0
253.996933	2689.0
254.138474	14427.0
254.868668	13910.0
254.990479	3012.0
255.124893	41081.0
255.985992	2123.0
256.126526	10264.0
256.27536	1535.0
256.850952	1419.0
256.995972	19308.0
257.148438	11748.0
258.028564	10718.0
258.154327	5361.0
258.860687	1825.0
258.983704	7573.0
259.128998	15925.0
260.045105	5816.0
260.16745	2850.0
260.890625	12529.0
261.023773	4893.0
261.138641	28448.0
262.002045	2207.0
262.142242	6804.0
262.923706	6536.0
263.137054	34114.0
263.968597	3040.0
264.14209	10300.0
264.94519	6610.0
265.125397	45491.0
265.267029	1048.0
265.956055	2224.0
266.123383	13368.0
266.909485	10015.0
267.016785	1699.0
267.126526	71240.0
268.001465	2475.0
268.123444	17173.0
268.282196	3276.0
268.894653	1656.0
268.99585	4726.0
269.137848	41180.0
269.9758	4103.0
270.146027	9881.0
270.3284	128278.0
270.510681	2049.0
270.819977	3785.0
270.956848	4489.0
271.111603	21517.0
271.220428	1217.0
271.329376	29432.0
271.556061	1094.0
271.729279	1243.0
271.897339	1279.0
272.006836	3558.0
272.138672	7572.0
272.327698	2368.0
272.883453	5891.0
273.021423	3767.0
273.139771	16879.0
273.97049	2227.0
274.118561	5947.0
274.282654	1434.0
274.953796	4750.0
275.143494	24984.0
275.273071	1044.0
275.932281	2069.0
276.05069	1855.0
276.16449	7018.0
276.869873	6369.0
277.003571	4533.0
277.150024	44942.0
277.966522	3558.0
278.136871	12454.0
278.896454	6259.0
279.032959	4062.0
279.146545	43287.0
280.00174	2739.0
280.149292	9700.0
280.915436	5698.0
281.024445	1490.0
281.136536	40283.0
281.988434	4173.0
282.142273	11359.0
282.29422	1440.0
282.869751	10784.0
283.003693	3154.0
283.129333	36429.0
283.990906	3910.0
284.135895	12229.0
284.331451	8689.0
284.913422	5241.0
285.02359	1450.0
285.130829	19703.0
285.329742	2118.0
285.929016	1273.0
286.068146	16240.0
286.185608	1942.0
286.890289	3749.0
287.016113	5087.0
287.148438	16395.0
287.992615	3702.0
288.149323	6924.0
288.885651	13636.0
289.016876	3364.0
289.15274	26353.0
289.284363	1057.0
289.868591	1111.0
290.008545	1856.0
290.148529	7431.0
290.914856	2559.0
291.03894	5527.0
291.158051	38616.0
291.947571	2947.0
292.156097	8772.0
292.812622	1716.0
292.958923	4963.0
293.155945	50211.0
293.907867	1188.0
294.019775	2900.0
294.162811	9650.0
294.881165	6151.0
295.007294	3353.0
295.154602	45001.0
295.976532	4957.0
296.156494	11794.0
296.835175	1821.0
296.957245	9734.0
297.14743	23084.0
297.999817	3312.0
298.154327	7916.0
298.352936	5101.0
298.829987	4437.0
298.938354	15948.0
299.137268	16085.0
299.353912	1063.0
299.985199	3816.0
300.154968	7396.0
300.33313	1305.0
300.903076	9954.0
301.027618	2807.0
301.14624	15344.0
301.914886	1481.0
302.059204	12539.0
302.209595	1934.0
302.32193	1185.0
302.861115	2166.0
302.98349	5004.0
303.165344	20788.0
304.005981	3927.0
304.153656	7761.0
304.858276	8240.0
305.015686	2795.0
305.169342	35681.0
305.961456	2698.0
306.161163	8860.0
306.889618	5480.0
307.029724	2403.0
307.168457	46080.0
308.000946	4223.0
308.158081	12406.0
308.842712	1139.0
308.976074	5581.0
309.166138	40584.0
309.984833	3054.0
310.166656	10021.0
310.846527	4634.0
310.989227	3805.0
311.16449	28901.0
311.276733	1061.0
311.926758	1665.0
312.068726	21907.0
312.20047	5234.0
312.942871	9554.0
313.043854	1144.0
313.150391	20100.0
313.907257	1318.0
314.037445	3325.0
314.175201	5833.0
314.822418	4513.0
314.975342	14516.0
315.176697	15119.0
315.993896	3838.0
316.168579	5875.0
316.852844	6638.0
316.979126	3942.0
317.084351	3900.0
317.192474	21411.0
317.915588	1124.0
318.024445	1908.0
318.183411	6888.0
318.82785	1078.0
318.93988	7565.0
319.072479	2071.0
319.188049	33514.0
319.975861	4177.0
320.170654	8300.0
320.813965	4108.0
320.92392	9596.0
321.056702	1119.0
321.178528	34856.0
321.909363	1532.0
322.016968	2469.0
322.178711	8549.0
322.869751	7906.0
323.04306	3966.0
323.175201	36926.0
323.970306	4101.0
324.174835	8806.0
324.888428	3503.0
325.034485	1678.0
325.169006	31186.0
325.996765	3801.0
326.183533	8010.0
326.823975	2279.0
326.940277	2487.0
327.108124	24228.0
327.2276	7256.0
327.892334	1347.0
328.063416	10256.0
328.201904	5510.0
328.888489	6910.0
329.019196	9117.0
329.177551	14819.0
329.896667	2352.0
330.07962	22523.0
330.219574	3164.0
330.785675	1855.0
330.928711	3248.0
331.030853	4009.0
331.178192	27515.0
331.29422	1077.0
331.933411	1221.0
332.068909	16842.0
332.21817	5771.0
332.831085	3844.0
332.941925	1300.0
333.063446	4385.0
333.198273	36386.0
333.901703	2228.0
334.048615	11486.0
334.212494	9143.0
334.858307	4221.0
335.030762	5346.0
335.189209	38381.0
335.888977	1908.0
336.031525	2580.0
336.199463	10245.0
336.81366	4925.0
336.967194	5851.0
337.180664	30978.0
337.291138	1230.0
337.999786	3566.0
338.185669	9093.0
338.845337	7684.0
339.023743	2844.0
339.182739	24093.0
339.913757	2035.0
340.041443	2581.0
340.181824	6901.0
340.868256	5014.0
341.019073	2593.0
341.183319	14906.0
341.974854	2823.0
342.184174	5502.0
342.872375	3338.0
343.034515	2260.0
343.19516	16144.0
344.003326	4166.0
344.194183	5563.0
344.909119	6118.0
345.19165	21705.0
345.891632	1230.0
346.054443	34544.0
346.2099	6064.0
346.872101	2578.0
347.040649	17315.0
347.201691	34734.0
347.889679	1328.0
348.041443	5582.0
348.202271	10907.0
348.890991	3376.0
349.052216	2535.0
349.200409	44869.0
349.89325	1012.0
350.017487	5855.0
350.201019	10777.0
350.837494	4083.0
351.005859	11408.0
351.194305	37726.0
351.901886	1939.0
352.073456	11348.0
352.216125	7294.0
352.750824	1216.0
352.883392	4933.0
353.064728	3847.0
353.196106	22668.0
354.045593	3011.0
354.200623	5975.0
354.769531	1097.0
354.894165	4270.0
355.056946	1263.0
355.186707	15139.0
355.923706	2477.0
356.030365	1011.0
356.171326	7050.0
356.300995	1637.0
356.865051	5237.0
357.014008	2161.0
357.1427	5242.0
357.250671	22816.0
357.908508	2112.0
358.131195	1758.0
358.249176	6739.0
358.812317	1670.0
358.935822	6795.0
359.099762	1944.0
359.216278	23682.0
359.913239	1353.0
360.023987	1324.0
360.193787	7822.0
360.844696	2713.0
360.969666	1260.0
361.070374	1986.0
361.217407	36659.0
361.876984	1114.0
362.025269	5156.0
362.223267	11245.0
362.826996	3895.0
363.012726	4111.0
363.206299	45700.0
363.320343	1207.0
363.839844	1081.0
363.971008	1445.0
364.081146	1241.0
364.213287	9786.0
364.867828	2882.0
365.179504	60660.0
365.970825	2113.0
366.186249	11732.0
366.292328	1104.0
366.854706	2495.0
366.978485	4395.0
367.201996	30847.0
367.879272	1462.0
368.038177	17844.0
368.217102	9156.0
368.841156	3184.0
369.03186	11948.0
369.209473	16836.0
369.873016	1145.0
370.029968	4234.0
370.206238	6364.0
370.851776	2852.0
371.020416	2567.0
371.218353	17341.0
371.830017	1026.0
371.996643	2257.0
372.215576	6267.0
372.832397	3366.0
372.996918	3532.0
373.214813	22605.0
373.856415	1499.0
374.050995	25518.0
374.220398	6960.0
374.785034	1124.0
374.896088	2815.0
375.057892	4989.0
375.221161	35330.0
375.907654	1002.0
376.054657	3088.0
376.221832	9006.0
376.810669	2792.0
376.973694	3527.0
377.223969	47042.0
377.33548	1234.0
378.017365	2001.0
378.21994	11187.0
378.815582	3233.0
378.966339	2792.0
379.089935	1715.0
379.217346	46495.0
379.931793	1422.0
380.216736	10453.0
380.83786	3110.0
380.950226	1293.0
381.066803	2225.0
381.205933	38653.0
381.321899	1372.0
381.955017	2152.0
382.215607	9846.0
382.817535	2417.0
382.947876	2777.0
383.095245	1844.0
383.216614	24847.0
384.011566	7772.0
384.221649	7619.0
384.806	3981.0
385.000275	6130.0
385.211639	19395.0
385.865906	1034.0
386.013153	3004.0
386.221283	6120.0
386.823364	3700.0
386.969543	1706.0
387.093506	1723.0
387.231354	24093.0
387.930511	2325.0
388.223511	6937.0
388.732239	1073.0
388.895264	3995.0
389.141022	5169.0
389.242065	51276.0
390.025024	10436.0
390.242493	11343.0
390.827026	3118.0
391.038849	4687.0
391.228912	51772.0
392.024353	2839.0
392.2276	13340.0
392.877808	3146.0
393.060577	1683.0
393.223297	71694.0
393.34375	1009.0
393.950256	1896.0
394.224945	16863.0
394.775665	2380.0
394.944946	4756.0
395.214844	46249.0
396.060791	1185.0
396.219238	12073.0
396.809967	3436.0
396.955505	1305.0
397.10141	1981.0
397.220306	29220.0
397.941589	1758.0
398.232941	8462.0
398.806396	3043.0
398.953766	1185.0
399.097321	1531.0
399.226959	18287.0
399.967407	2190.0
400.219269	5879.0
400.807068	4792.0
400.971466	2579.0
401.1716	6402.0
401.283234	32429.0
401.976868	1889.0
402.170349	2334.0
402.280396	6969.0
402.831665	3251.0
403.055481	2445.0
403.231171	30381.0
403.946198	1940.0
404.2276	8098.0
404.790375	2753.0
404.958405	2641.0
405.109528	1014.0
405.233215	47622.0
405.996857	9212.0
406.235718	11052.0
406.802216	3266.0
406.998688	2439.0
407.228943	59231.0
407.989563	3093.0
408.231323	12511.0
408.843475	2657.0
409.013733	1667.0
409.188263	216313.0
409.316681	5766.0
409.442352	1188.0
409.554871	1119.0
409.726227	2267.0
409.901398	1047.0
410.03537	7656.0
410.191162	51872.0
410.311584	1228.0
410.763397	3201.0
411.022308	3972.0
411.215668	43107.0
411.900543	1004.0
412.040375	1220.0
412.232178	11310.0
412.775909	1827.0
412.947205	1806.0
413.108185	1264.0
413.229156	20033.0
413.92981	1639.0
414.221161	6209.0
414.907867	1934.0
415.09552	1753.0
415.229614	13533.0
415.976013	1260.0
416.228943	4907.0
416.769318	3581.0
416.940521	2395.0
417.098602	1385.0
417.234528	20296.0
417.791138	1619.0
417.967651	1630.0
END IONS

BEGIN IONS
PEPMASS=219.006
CHARGE=1
MSLEVEL=2
SOURCE_INSTRUMENT=LC-ESI-qTof
FILENAME=DMIM_centroided_library_abundance_filtered.mgf
SEQ=*..*
IONMODE=Positive
ORGANISM=DMIM-DRUG-METABOLITE-LIBRARY
NAME=FOSFOSAL [M+H]+
PI=Libin Xu
DATACOLLECTOR=Dylan H. Ross
SMILES=C1=CC=C(C(=C1)C(=O)O)OP(=O)(O)O
INCHI=N/A
INCHIAUX=N/A
PUBMED=N/A
SUBMITUSER=jzemlin
LIBRARYQUALITY=3
SPECTRUMID=CCMSLIB00012468443
USI=mzspec:GNPS:DMIM-DRUG-METABOLITE-LIBRARY:accession:CCMSLIB00012468443
SCANS=3421
55.039555	2274.0
56.045105	4368.0
56.996113	3489.0
58.055859	1076.0
59.001617	10349.0
61.005989	1948.0
62.061234	1146.0
62.994663	1149.0
65.034554	4004.0
66.033951	1205.0
67.048683	5529.0
68.048645	2790.0
69.027626	4248.0
70.060265	6012.0
71.014664	2966.0
72.073387	1767.0
72.997421	2480.0
74.036247	1525.0
76.025314	5878.0
77.04274	16047.0
78.031357	3436.0
79.05217	13266.0
80.052559	17810.0
81.056396	7696.0
82.053841	4379.0
83.055679	20251.0
84.055107	21474.0
84.984024	15228.0
86.022118	6381.0
86.998634	1496.0
88.026604	2403.0
89.029594	1925.0
91.056717	25556.0
92.052208	4014.0
93.060631	9399.0
94.057198	3153.0
95.027084	16528.0
96.051216	4682.0
97.030243	10460.0
98.02449	7219.0
99.009857	6530.0
100.030098	5492.0
101.023865	2396.0
102.014732	3033.0
102.955818	15090.0
103.062279	4729.0
103.94886	1348.0
104.059784	2993.0
104.944763	2256.0
105.068222	19759.0
106.064453	4544.0
107.063591	14334.0
108.061966	11192.0
109.064888	13197.0
110.047401	6813.0
111.022736	5976.0
112.032997	7504.0
112.771965	1462.0
113.022354	5304.0
114.040916	4383.0
114.926849	1035.0
115.056831	14123.0
116.059174	7471.0
117.065254	8697.0
117.313713	1481.0
118.063072	4161.0
118.927147	79451.0
119.083107	15449.0
120.07827	5581.0
120.912537	1367.0
121.031647	32907.0
121.95031	1816.0
122.06826	8689.0
122.942688	9145.0
123.052803	25483.0
124.03363	13828.0
125.018158	9720.0
126.018875	4288.0
126.919731	1472.0
127.040466	8020.0
128.055511	16484.0
129.072388	18278.0
130.0625	9801.0
130.920837	1872.0
131.074219	11620.0
132.057114	7330.0
132.930832	2880.0
133.079956	10658.0
133.936157	1026.0
134.082367	4945.0
134.90741	21340.0
135.075302	16500.0
135.91658	1204.0
136.071609	35789.0
136.940338	55746.0
137.082367	10206.0
138.048691	4588.0
139.02095	15023.0
140.027283	5442.0
140.928879	6022.0
141.040817	27859.0
142.052399	25710.0
142.94458	5341.0
143.066132	17010.0
144.077835	8709.0
144.939682	1890.0
145.076447	12634.0
146.075302	6473.0
146.929398	1829.0
147.075607	11679.0
147.932312	1133.0
148.078064	4715.0
148.941345	2904.0
149.085922	10808.0
149.96286	1338.0
150.081177	4094.0
150.938889	3091.0
151.058914	8846.0
151.904755	3502.0
152.060822	9648.0
152.915253	21478.0
153.067383	11041.0
153.918289	1711.0
154.072311	6703.0
154.944443	4082.0
155.076248	10448.0
155.93869	1178.0
156.082489	5651.0
156.920792	1422.0
157.085632	9736.0
158.076004	7728.0
158.925766	3787.0
159.086624	11009.0
159.926453	1080.0
160.075607	7872.0
160.934021	3420.0
161.080032	9443.0
162.073929	7358.0
162.932922	5454.0
163.088684	5701.0
164.065506	3850.0
164.931549	7871.0
165.069351	10876.0
165.943207	5548.0
166.082703	4078.0
166.940155	4401.0
167.073868	7891.0
167.924347	1268.0
168.064102	6464.0
168.930801	3398.0
169.082962	7375.0
169.915039	1770.0
170.046616	11237.0
170.927399	1225.0
171.07196	5949.0
172.09903	4706.0
172.942917	1260.0
173.096405	7176.0
174.096893	4054.0
174.888611	15470.0
175.085846	7250.0
176.075775	4330.0
177.016968	10178.0
177.124374	2282.0
178.076599	5098.0
178.912689	5077.0
179.076645	8928.0
180.088104	3235.0
180.926819	18652.0
181.081757	6316.0
181.953079	2285.0
182.087631	3049.0
182.935547	7383.0
183.087357	4368.0
183.961319	2404.0
184.106369	1931.0
184.915283	13547.0
185.066391	8430.0
186.090759	3417.0
186.916855	6374.0
187.069672	10006.0
188.073685	3811.0
188.899643	1973.0
189.070206	5968.0
189.925751	1415.0
190.082352	3716.0
190.882095	5988.0
191.058853	6714.0
192.082214	2961.0
192.93158	3490.0
193.082687	6692.0
194.091476	3276.0
194.916809	2068.0
195.087646	5226.0
195.932388	1007.0
196.10376	2365.0
196.904388	4112.0
197.088654	3014.0
197.907776	1592.0
198.090439	1995.0
198.916306	8540.0
199.090332	3101.0
199.910934	1059.0
200.07373	1575.0
200.228256	1460.0
200.939926	7157.0
201.078949	3096.0
202.088623	3802.0
202.918259	20177.0
203.091782	3590.0
204.092789	3162.0
204.923981	4486.0
205.091751	3438.0
206.093216	1363.0
206.876755	1923.0
207.045242	3770.0
208.095078	1531.0
208.942627	3048.0
209.098724	3294.0
209.88176	1023.0
210.094604	2103.0
210.916763	1083.0
211.078247	3856.0
212.097778	2017.0
212.892578	3732.0
213.079819	1644.0
213.881607	1164.0
214.091064	1800.0
214.870865	8913.0
215.065262	4733.0
215.872589	1556.0
216.067291	2395.0
216.911697	3697.0
217.098862	2113.0
218.071609	1131.0
218.982666	2726.0
219.119705	1098.0
220.092941	1319.0
220.9263	5339.0
END IONS

BEGIN IONS
PEPMASS=264.175
CHARGE=1
MSLEVEL=2
SOURCE_INSTRUMENT=LC-ESI-qTof
FILENAME=DMIM_centroided_library_abundance_filtered.mgf
SEQ=*..*
IONMODE=Positive
ORGANISM=DMIM-DRUG-METABOLITE-LIBRARY
NAME=PROTRYPTYLINE [M+H]+
PI=Libin Xu
DATACOLLECTOR=Dylan H. Ross
SMILES=CNCCCC1C2=CC=CC=C2C=CC3=CC=CC=C13
INCHI=N/A
INCHIAUX=N/A
PUBMED=N/A
SUBMITUSER=jzemlin
LIBRARYQUALITY=3
SPECTRUMID=CCMSLIB00012468533
USI=mzspec:GNPS:DMIM-DRUG-METABOLITE-LIBRARY:accession:CCMSLIB00012468533
SCANS=3511
55.046047	4420.0
56.052685	20675.0
57.034477	4222.0
58.046093	2197.0
58.999058	180433.0
60.008121	3346.0
61.00486	10150.0
62.989399	2548.0
65.034058	4406.0
66.05069	1268.0
67.05278	8531.0
68.048119	3763.0
69.052933	6605.0
70.064789	18691.0
71.044106	3691.0
72.081413	4564.0
73.019569	8193.0
74.041191	2682.0
75.022324	1343.0
76.026138	571188.0
77.038528	43377.0
78.024605	22250.0
79.051178	18909.0
80.053589	39297.0
81.063324	15859.0
82.059952	5078.0
83.053299	14893.0
84.050095	612403.0
85.034988	37876.0
86.067978	14305.0
87.000084	17174.0
88.026192	44559.0
89.03093	4286.0
90.024841	2498.0
91.059029	251995.0
92.061958	14780.0
93.068436	10079.0
94.05645	2719.0
95.045891	25246.0
96.05719	7086.0
97.035309	39997.0
98.017403	16998.0
99.016304	14169.0
100.0354	4741.0
101.056419	2477.0
102.06221	7310.0
102.933327	1325.0
103.055801	21630.0
104.073914	3557.0
105.074448	116537.0
106.07383	9410.0
107.07972	15269.0
108.06057	12932.0
109.075836	22400.0
110.059219	14049.0
111.047493	14284.0
112.027985	13323.0
113.027153	14165.0
114.038765	18351.0
114.92202	2222.0
115.060059	98938.0
116.025711	170199.0
116.151169	3875.0
117.074615	307110.0
117.198746	1278.0
118.066551	35681.0
118.939201	18870.0
119.080643	15875.0
120.055908	15348.0
120.976196	7165.0
121.083344	20952.0
122.051147	10470.0
122.959229	1893.0
123.064911	49065.0
124.031967	27983.0
125.015167	22681.0
126.04364	5823.0
126.944946	1263.0
127.054047	44713.0
128.065216	43268.0
129.078903	153227.0
130.059128	133969.0
130.917221	1763.0
131.072098	22408.0
132.061401	7313.0
133.060745	17983.0
133.969391	1061.0
134.084778	4841.0
134.920822	1347.0
135.073059	17795.0
136.069977	35945.0
136.947266	60161.0
137.08522	20577.0
138.067337	7213.0
139.033539	31549.0
140.024445	7742.0
140.933182	7880.0
141.067581	57179.0
142.040878	254189.0
142.178375	1287.0
143.029373	37410.0
144.025497	75939.0
144.176743	1059.0
144.950226	2588.0
145.071503	20156.0
146.043671	11844.0
147.070618	17229.0
148.064835	6945.0
148.973068	1950.0
149.082169	15394.0
150.056717	8091.0
150.920685	1041.0
151.056564	21911.0
151.934616	1060.0
152.064819	45634.0
152.916275	4988.0
153.07283	116718.0
153.936783	1049.0
154.081451	50973.0
154.965836	3123.0
155.093201	465472.0
155.240387	7082.0
155.425156	3239.0
155.980042	3503.0
156.095291	70512.0
156.938736	2593.0
157.083588	17385.0
157.95932	1504.0
158.101639	8956.0
158.935471	8837.0
159.09462	17226.0
160.050995	21250.0
160.948792	3072.0
161.082687	18075.0
162.031631	139974.0
162.145645	1200.0
162.913879	1577.0
163.063416	29511.0
164.046341	14400.0
164.936829	19049.0
165.076111	132227.0
166.075516	27715.0
166.948578	2757.0
167.079056	30246.0
168.064041	19548.0
168.959763	2365.0
169.076767	15536.0
170.042923	28396.0
170.938828	1443.0
171.074371	18014.0
171.976974	1625.0
172.091766	6976.0
173.068573	24866.0
174.063217	10570.0
174.894272	27841.0
175.076157	20703.0
176.069916	11635.0
176.902481	2648.0
177.054459	28762.0
178.08667	284099.0
178.222702	1170.0
178.933243	4303.0
179.086182	152979.0
179.959076	1786.0
180.0905	21060.0
180.917694	25569.0
181.075027	36450.0
181.942932	1365.0
182.077667	8379.0
182.920853	3440.0
183.069962	23779.0
184.067947	9357.0
184.917297	1959.0
185.061768	21057.0
185.17215	1119.0
185.993698	2321.0
186.127197	8589.0
186.920578	10611.0
187.06749	46152.0
187.195648	1157.0
187.520905	1668.0
188.056793	15358.0
188.922012	2438.0
189.078598	135470.0
189.221283	1235.0
189.966827	1775.0
190.086456	162464.0
190.242767	1660.0
190.846832	1828.0
190.957535	4166.0
191.096848	1213569.0
191.253403	49104.0
191.378342	28947.0
191.483612	12784.0
191.928665	3751.0
192.100891	370592.0
192.261337	23874.0
192.363495	4033.0
192.945953	6193.0
193.100647	81438.0
193.248444	5713.0
193.96579	1148.0
194.098846	15755.0
194.956985	3757.0
195.089966	20061.0
196.019852	10098.0
196.132263	2877.0
196.903763	19998.0
197.085068	27415.0
197.962997	1517.0
198.08313	7189.0
198.914276	16548.0
199.071045	20049.0
199.998093	9125.0
200.114243	2488.0
200.236252	5044.0
200.929352	15436.0
201.054718	62144.0
201.208923	1249.0
201.944733	1758.0
202.085419	64806.0
202.915054	9463.0
203.09024	273487.0
203.238251	1043.0
203.92601	2236.0
204.101242	163198.0
204.932724	6733.0
205.109787	229406.0
205.260361	1631.0
205.990677	10880.0
206.110901	40344.0
206.953857	4137.0
207.091934	20573.0
207.985336	1784.0
208.102386	5501.0
208.928375	3368.0
209.083633	32595.0
210.0896	8961.0
210.971069	1888.0
211.09053	14443.0
211.968918	1328.0
212.105942	7091.0
212.870056	7873.0
213.055267	13777.0
213.164932	1784.0
213.918701	1469.0
214.084244	9439.0
214.897018	8463.0
215.068329	65009.0
215.937073	2220.0
216.09169	36138.0
216.924255	17365.0
217.108734	86015.0
217.974716	2193.0
218.11972	144745.0
218.942154	8957.0
219.119598	31153.0
219.95697	1657.0
220.115173	6580.0
220.927231	17473.0
221.108582	13101.0
221.977295	1916.0
222.10321	5090.0
222.902756	3502.0
223.046524	23934.0
223.155533	2665.0
224.044495	5523.0
224.154007	1557.0
224.894623	1809.0
225.05864	12210.0
225.158813	2200.0
226.067856	5945.0
226.178818	1471.0
226.902222	2401.0
227.063766	19671.0
227.188614	1207.0
227.965225	2204.0
228.100067	13588.0
228.932343	2498.0
229.090042	14438.0
229.937775	1124.0
230.109528	4801.0
230.875748	5692.0
230.981583	2288.0
231.120605	34731.0
231.948776	2855.0
232.120514	11324.0
232.891922	10865.0
233.02388	4727.0
233.128464	90294.0
233.882385	1337.0
234.006546	2291.0
234.138977	16828.0
234.85878	2620.0
234.981842	5727.0
235.119293	16761.0
235.997498	1890.0
236.124176	3924.0
236.881332	3231.0
236.995102	2370.0
237.10701	16980.0
237.969452	1413.0
238.103546	5274.0
238.898712	9098.0
239.082809	14797.0
240.054657	7039.0
240.220139	4231.0
240.886932	4726.0
241.019043	4185.0
241.138901	3764.0
242.057495	4081.0
242.288162	4467.0
242.88826	3089.0
243.061676	6597.0
243.177994	1383.0
243.966537	1935.0
244.114914	4549.0
244.901764	3045.0
245.076447	21852.0
245.912155	1459.0
246.091141	4131.0
246.955399	4792.0
247.121368	9041.0
247.957382	2517.0
248.130768	2463.0
248.938919	4797.0
249.11351	17946.0
249.983673	1317.0
250.121765	5693.0
250.886047	2365.0
251.087646	35474.0
252.088547	6574.0
252.877319	1229.0
253.007965	5425.0
253.136841	10726.0
254.003098	1551.0
254.140213	4306.0
254.862656	15627.0
255.066406	10676.0
255.184113	1992.0
256.061615	6142.0
256.170807	1082.0
256.294098	1865.0
256.862457	2015.0
257.003235	8859.0
257.155121	3626.0
258.026123	10983.0
258.160614	1744.0
258.885498	6512.0
259.005951	3543.0
259.130005	7231.0
259.899109	1584.0
260.071625	3667.0
260.87851	10009.0
261.109039	13664.0
261.978363	1225.0
262.130798	3769.0
262.930634	4652.0
263.13855	10339.0
263.995483	2946.0
264.186676	35160.0
264.904266	3327.0
265.03952	3586.0
265.161469	17185.0
265.997009	1188.0
266.11676	3490.0
END IONS

BEGIN IONS
PEPMASS=250.181
CHARGE=1
MSLEVEL=2
SOURCE_INSTRUMENT=LC-ESI-qTof
FILENAME=DMIM_centroided_library_abundance_filtered.mgf
SEQ=*..*
IONMODE=Positive
ORGANISM=DMIM-DRUG-METABOLITE-LIBRARY
NAME=ALPRENOLOL [M+H]+
PI=Libin Xu
DATACOLLECTOR=Dylan H. Ross
SMILES=CC(C)NCC(COC1=CC=CC=C1CC=C)O
INCHI=N/A
INCHIAUX=N/A
PUBMED=N/A
SUBMITUSER=jzemlin
LIBRARYQUALITY=3
SPECTRUMID=CCMSLIB00012468724
USI=mzspec:GNPS:DMIM-DRUG-METABOLITE-LIBRARY:accession:CCMSLIB00012468724
SCANS=3702
53.045506	1165.0
55.046749	4325.0
56.052975	59111.0
57.035767	5966.0
58.063675	11530.0
58.99921	164507.0
60.018585	4176.0
61.005894	8709.0
62.988689	1977.0
65.03479	3900.0
67.053215	8662.0
68.047836	4304.0
69.047745	6889.0
70.065529	16162.0
71.039177	3637.0
72.083519	31712.0
73.027374	8325.0
74.063812	54125.0
75.052055	2026.0
76.026138	494609.0
77.039078	40677.0
78.026421	19738.0
79.052208	22409.0
80.053635	40213.0
81.064629	14643.0
82.052071	5389.0
83.054314	16518.0
84.050514	541791.0
85.033951	33080.0
86.072556	15319.0
86.99894	16197.0
88.026367	36677.0
89.018356	3374.0
90.019081	1617.0
91.059372	294945.0
92.061356	18728.0
93.068474	13549.0
94.061218	3043.0
95.042717	28377.0
96.05336	6665.0
97.033569	23184.0
98.073143	50946.0
99.022247	15886.0
100.093704	17029.0
101.064156	2909.0
102.059944	6725.0
102.93557	1996.0
103.055946	12282.0
104.079697	10940.0
105.072227	36154.0
106.064781	5703.0
107.056992	127768.0
108.058517	20319.0
109.072762	22212.0
110.059349	13037.0
111.047546	13309.0
112.028625	16037.0
113.010933	10815.0
114.043877	18351.0
114.922607	1364.0
115.060707	34946.0
116.056618	241433.0
117.072594	74113.0
118.054466	14589.0
118.926949	30486.0
119.076134	64218.0
120.064934	17073.0
120.952095	2359.0
121.069733	31269.0
122.060745	10882.0
122.951828	2308.0
123.064949	49254.0
124.034035	28153.0
125.018867	20058.0
126.036552	5508.0
126.952286	1245.0
127.052597	29164.0
128.061661	28209.0
129.082718	43114.0
130.060028	122462.0
131.059708	88684.0
132.062866	72636.0
133.069229	34762.0
134.075592	8236.0
134.932877	2038.0
135.074341	24856.0
136.070251	36407.0
136.944336	88326.0
137.084946	19867.0
138.056091	6598.0
139.029404	27807.0
139.131775	1158.0
140.023361	7624.0
140.926193	5475.0
141.053986	31347.0
142.040237	235931.0
142.922272	1207.0
143.038757	38321.0
144.0298	83669.0
144.933075	1313.0
145.077698	63166.0
146.059082	18500.0
146.947357	1016.0
147.082321	71541.0
148.074768	15711.0
148.95723	1723.0
149.078735	19154.0
150.062119	8195.0
151.060074	16997.0
152.060028	28802.0
152.918976	7379.0
153.062149	35081.0
153.933014	1022.0
154.070969	10656.0
154.963074	2478.0
155.075684	18135.0
155.981659	3085.0
156.085815	7351.0
156.955154	2801.0
157.080994	14132.0
158.082352	27620.0
158.926575	7466.0
159.085968	20559.0
160.052765	19786.0
160.939789	4123.0
161.082352	24019.0
162.032516	127581.0
162.943649	2635.0
163.066284	28771.0
164.043732	13744.0
164.954712	18797.0
165.078812	13585.0
165.932892	1054.0
166.060333	9589.0
166.942291	1798.0
167.063873	14790.0
168.053848	10772.0
168.971466	2792.0
169.079834	15451.0
170.043839	25408.0
171.068863	18582.0
171.971939	1442.0
172.083649	7733.0
172.96344	1487.0
173.087326	51432.0
173.970764	1166.0
174.081345	13860.0
174.892761	22039.0
175.081131	18910.0
176.064194	10005.0
177.02861	20029.0
177.128937	5166.0
178.079453	7369.0
178.907089	2733.0
179.063644	36093.0
180.069748	8771.0
180.92308	21056.0
181.074326	30586.0
181.961258	1457.0
182.080231	6608.0
182.922974	4057.0
183.069733	19112.0
184.02742	8314.0
184.134491	2491.0
184.910416	2140.0
185.069946	15688.0
185.981934	1909.0
186.1203	7209.0
186.922089	11976.0
187.066971	42598.0
188.059631	14895.0
188.912064	1305.0
189.069595	17245.0
189.992111	2729.0
190.10321	5781.0
190.906845	5817.0
191.069931	18313.0
191.914246	2868.0
192.074875	6686.0
192.942352	5111.0
193.076553	24951.0
193.932526	1004.0
194.081299	7287.0
194.959793	3184.0
195.090683	15403.0
196.025406	7789.0
196.131943	2133.0
196.906769	13312.0
197.080109	19616.0
197.981201	2093.0
198.095596	5467.0
198.91214	15947.0
199.070023	16116.0
200.003326	8559.0
200.113083	2097.0
200.240753	11430.0
200.925339	8458.0
201.055527	77118.0
201.224747	3314.0
201.914642	1140.0
202.0625	14131.0
202.913284	11668.0
203.071152	34271.0
204.085785	9031.0
204.923584	5457.0
205.091278	12802.0
206.012451	12295.0
206.136826	2525.0
206.944199	3797.0
207.087173	14039.0
207.992157	2629.0
208.117752	6463.0
208.934174	3923.0
209.08252	26642.0
210.090347	8973.0
210.987991	2664.0
211.093384	11948.0
211.983322	1087.0
212.103897	5637.0
212.876648	4807.0
213.047821	12823.0
213.151443	1873.0
213.901505	1011.0
214.088745	8532.0
214.873718	8316.0
215.038025	35300.0
215.156525	2290.0
215.888992	1041.0
216.046417	10837.0
216.925278	18452.0
217.098038	8996.0
218.080856	4112.0
218.968185	9304.0
219.123703	7785.0
220.076141	4750.0
220.933121	16183.0
221.113815	10987.0
221.985336	1865.0
222.112442	5307.0
222.900772	3516.0
223.044785	22239.0
223.149246	2650.0
223.986053	1456.0
224.103607	5263.0
224.899612	1647.0
225.061157	12446.0
225.172852	1278.0
225.999054	1673.0
226.119583	5233.0
226.909195	1662.0
227.061523	17355.0
227.186569	1129.0
227.944458	2621.0
228.093185	9342.0
228.927902	2473.0
229.088654	10047.0
230.064224	3194.0
230.899567	6864.0
231.0923	8446.0
231.896515	1604.0
232.104462	6652.0
232.887848	11204.0
233.075378	27991.0
233.181915	1426.0
233.899902	1167.0
234.079971	5644.0
234.874496	1835.0
234.976212	4919.0
235.124084	11510.0
235.985229	1422.0
236.117798	3360.0
236.865051	1996.0
236.982239	3193.0
237.10968	15475.0
237.968201	1252.0
238.107361	4819.0
238.892593	8241.0
239.077698	13646.0
240.062485	5534.0
240.203598	2601.0
240.887299	5294.0
241.030716	4720.0
241.147324	3548.0
242.067917	3772.0
242.269897	2412.0
242.890091	3465.0
243.063934	6554.0
243.183197	1300.0
243.942535	1458.0
244.092804	3694.0
244.903778	3126.0
245.076584	21100.0
245.911667	2168.0
246.093231	4388.0
246.942429	4818.0
247.124664	7610.0
247.94635	1734.0
248.153336	7373.0
248.935654	4750.0
249.117538	14338.0
250.022888	2444.0
250.187256	22606.0
250.885986	2070.0
251.08606	27616.0
251.192291	5116.0
252.080643	6166.0
END IONS

BEGIN IONS
PEPMASS=180.114
CHARGE=1
MSLEVEL=2
SOURCE_INSTRUMENT=LC-ESI-qTof
FILENAME=DMIM_centroided_library_abundance_filtered.mgf
SEQ=*..*
IONMODE=Positive
ORGANISM=DMIM-DRUG-METABOLITE-LIBRARY
NAME=IPRONIAZID [M+H]+
PI=Libin Xu
DATACOLLECTOR=Dylan H. Ross
SMILES=CC(C)NNC(=O)C1=CC=NC=C1
INCHI=N/A
INCHIAUX=N/A
PUBMED=N/A
SUBMITUSER=jzemlin
LIBRARYQUALITY=3
SPECTRUMID=CCMSLIB00012468830
USI=mzspec:GNPS:DMIM-DRUG-METABOLITE-LIBRARY:accession:CCMSLIB00012468830
SCANS=3808
55.040657	2354.0
56.038452	3625.0
56.982922	2622.0
59.002064	6702.0
61.006687	1622.0
65.036942	2409.0
66.037537	3818.0
67.046715	5023.0
68.047546	1877.0
69.035706	3133.0
70.06353	5015.0
71.000648	2637.0
72.072716	1300.0
72.956947	1444.0
74.002586	1439.0
76.02533	5692.0
77.04248	12421.0
78.038544	7372.0
79.046738	96592.0
80.053238	24427.0
81.060936	7199.0
82.051201	3329.0
83.055367	15782.0
84.054634	18375.0
84.984238	13262.0
86.035355	5166.0
87.002815	1382.0
88.027077	2013.0
89.013306	1480.0
91.056778	22543.0
92.055092	4551.0
93.054672	18312.0
94.057617	3480.0
95.026604	17016.0
96.052979	3758.0
97.028252	9820.0
98.023163	5435.0
99.010475	6993.0
100.032097	4000.0
101.003654	2266.0
102.027542	2400.0
102.96067	11667.0
103.062126	3510.0
103.971001	1603.0
104.07988	1525.0
104.949249	1452.0
105.067398	19919.0
106.060043	5437.0
107.061531	13694.0
108.057663	13009.0
109.064217	16851.0
110.050941	5921.0
111.013969	7267.0
112.029381	9200.0
113.014099	5044.0
114.037659	3909.0
115.05732	11135.0
116.073296	8293.0
117.066231	8276.0
118.059669	2748.0
118.92807	90226.0
119.076973	16152.0
120.071213	6062.0
120.93087	1898.0
121.044418	122518.0
122.054222	15966.0
122.938927	6706.0
123.057053	28460.0
124.03701	14147.0
125.009598	8673.0
126.026314	3914.0
127.046875	7188.0
128.042358	14786.0
128.947128	1226.0
129.071106	13046.0
130.068863	8825.0
130.930328	1388.0
131.079086	11145.0
132.067413	4759.0
132.931641	2862.0
133.085022	10642.0
133.923904	1753.0
134.08432	4223.0
134.908371	17850.0
135.07515	14386.0
135.892624	1061.0
136.070038	38685.0
136.940506	80761.0
137.071899	26705.0
138.066025	9483.0
139.023254	12317.0
140.02092	3880.0
140.93129	4991.0
141.043701	22148.0
142.053879	23337.0
142.943909	3724.0
143.065598	11699.0
144.072433	7235.0
144.93129	1614.0
145.076767	12078.0
146.081223	6011.0
146.937485	1721.0
147.074173	11297.0
147.923477	1045.0
148.080368	4898.0
148.93924	2415.0
149.082687	10108.0
149.964355	1506.0
150.087891	4195.0
150.93367	2900.0
151.054779	8807.0
151.916779	3041.0
152.062714	8180.0
152.91568	24390.0
153.065628	11448.0
153.92009	2020.0
154.068985	5114.0
154.951294	3629.0
155.075958	10658.0
156.092163	5946.0
156.922485	1858.0
157.088257	9243.0
157.947052	1136.0
158.09819	6146.0
158.929016	4794.0
159.090408	11665.0
159.89621	1367.0
160.070251	7476.0
160.931931	2927.0
161.079849	9415.0
162.081329	6372.0
162.932251	4789.0
163.08493	7035.0
164.069885	4153.0
164.931015	5705.0
165.070084	11275.0
165.950928	4359.0
166.086929	3876.0
166.937408	2943.0
167.069244	7196.0
167.936127	1407.0
168.067322	5484.0
168.934128	2471.0
169.080826	7639.0
169.916336	1586.0
170.047623	11529.0
170.962585	1562.0
171.094315	5810.0
171.952484	1012.0
172.087158	4653.0
172.930939	1424.0
173.094925	7708.0
174.09848	3491.0
174.892014	13066.0
175.08017	7815.0
176.062546	5083.0
177.018143	9807.0
177.126175	2475.0
178.074631	5623.0
178.913818	4739.0
179.077805	7492.0
180.088242	3758.0
180.930344	15286.0
181.080231	7186.0
181.942276	1994.0
182.067902	2265.0
END IONS

BEGIN IONS
PEPMASS=163.124
CHARGE=1
MSLEVEL=2
SOURCE_INSTRUMENT=LC-ESI-qTof
FILENAME=DMIM_centroided_library_abundance_filtered.mgf
SEQ=*..*
IONMODE=Positive
ORGANISM=DMIM-DRUG-METABOLITE-LIBRARY
NAME=ANABASINE [M+H]+
PI=Libin Xu
DATACOLLECTOR=Dylan H. Ross
SMILES=C1CCNC(C1)C2=CN=CC=C2
INCHI=N/A
INCHIAUX=N/A
PUBMED=N/A
SUBMITUSER=jzemlin
LIBRARYQUALITY=3
SPECTRUMID=CCMSLIB00012469424
USI=mzspec:GNPS:DMIM-DRUG-METABOLITE-LIBRARY:accession:CCMSLIB00012469424
SCANS=4402
56.043793	1728.0
56.987301	1215.0
58.998657	5751.0
61.006111	1186.0
62.987785	1065.0
65.038101	4591.0
66.048386	1151.0
67.048828	2384.0
68.050049	2035.0
69.027779	1628.0
70.061241	3129.0
72.96492	1046.0
76.023972	4824.0
77.038376	5120.0
78.034203	2124.0
79.045685	7366.0
80.051064	16984.0
81.040955	3775.0
82.05658	2540.0
83.057747	10549.0
84.057297	17337.0
84.992081	11131.0
86.025848	4416.0
86.998627	1486.0
88.023186	1604.0
89.011833	1905.0
90.033379	1138.0
91.055412	15033.0
92.052299	22716.0
93.058464	26868.0
94.064308	14921.0
95.035149	5230.0
96.048103	3201.0
97.021187	5236.0
98.019653	3919.0
99.016945	3180.0
100.027229	4649.0
100.989662	1792.0
102.949974	18215.0
103.05928	1891.0
104.00753	4471.0
104.943207	1976.0
105.059425	5995.0
106.066345	14068.0
107.062614	8372.0
108.058273	6420.0
109.063416	4623.0
110.051292	3861.0
111.027946	2297.0
112.038673	3366.0
113.028069	2729.0
114.035217	3856.0
115.05365	6499.0
116.03968	3602.0
117.058754	22233.0
118.067482	40876.0
118.923035	98632.0
119.071976	10257.0
120.076935	10363.0
120.959129	12325.0
121.08831	3801.0
122.024971	4930.0
122.936348	5699.0
123.050163	11776.0
124.026016	10648.0
124.972435	4734.0
126.02285	2407.0
127.03125	3454.0
128.020981	7330.0
129.072418	6614.0
130.065872	25205.0
131.071777	11182.0
132.072357	10176.0
132.922867	2504.0
133.078094	4186.0
133.91687	1138.0
134.086227	5476.0
134.906219	16997.0
135.066101	6392.0
135.912231	1044.0
136.063721	23609.0
136.934601	49467.0
137.070862	4702.0
138.044403	1394.0
139.019806	6371.0
140.029221	2877.0
140.92305	2698.0
141.032593	13223.0
142.042496	16173.0
143.009491	15814.0
144.071136	7312.0
144.932114	1192.0
145.072556	5160.0
146.08757	7846.0
147.06543	4690.0
148.067368	2500.0
148.937622	1867.0
149.071701	3245.0
150.081421	1487.0
150.948227	3808.0
151.066269	2781.0
151.904877	1980.0
152.049728	4108.0
152.912338	16180.0
153.067215	4822.0
153.91066	1121.0
154.063232	3388.0
154.929932	2343.0
155.066818	3794.0
156.066879	3640.0
156.921494	1086.0
157.072998	3411.0
158.062317	1863.0
158.917389	3090.0
159.078323	3671.0
160.078644	2561.0
160.921295	1683.0
161.074295	3353.0
162.046555	2896.0
162.932556	2815.0
163.102615	6192.0
164.098938	1538.0
164.933228	13785.0
165.072708	3780.0
END IONS

BEGIN IONS
PEPMASS=123.053
CHARGE=1
MSLEVEL=2
SOURCE_INSTRUMENT=LC-ESI-qTof
FILENAME=DMIM_centroided_library_abundance_filtered.mgf
SEQ=*..*
IONMODE=Positive
ORGANISM=DMIM-DRUG-METABOLITE-LIBRARY
NAME=GYROMITRIN [M+Na]+
PI=Libin Xu
DATACOLLECTOR=Dylan H. Ross
SMILES=C/C=N/N(C)C=O
INCHI=N/A
INCHIAUX=N/A
PUBMED=N/A
SUBMITUSER=jzemlin
LIBRARYQUALITY=3
SPECTRUMID=CCMSLIB00012470398
USI=mzspec:GNPS:DMIM-DRUG-METABOLITE-LIBRARY:accession:CCMSLIB00012470398
SCANS=5376
49.957821	1245.0
72.451225	1466.0
77.042633	1384.0
91.051125	1666.0
107.006165	1486.0
115.052406	1860.0
116.548943	1026.0
118.925171	2494.0
121.072739	1003.0
122.082191	1498.0
122.959625	2814.0
123.076515	1677.0
124.954811	1809.0
END IONS

BEGIN IONS
PEPMASS=439.187
CHARGE=1
MSLEVEL=2
SOURCE_INSTRUMENT=LC-ESI-qTof
FILENAME=DMIM_centroided_library_abundance_filtered.mgf
SEQ=*..*
IONMODE=Positive
ORGANISM=DMIM-DRUG-METABOLITE-LIBRARY
NAME=SUXIBUZONE [M+H]+
PI=Libin Xu
DATACOLLECTOR=Dylan H. Ross
SMILES=CCCCC1(C(=O)N(N(C1=O)C2=CC=CC=C2)C3=CC=CC=C3)COC(=O)CCC(=O)O
INCHI=N/A
INCHIAUX=N/A
PUBMED=N/A
SUBMITUSER=jzemlin
LIBRARYQUALITY=3
SPECTRUMID=CCMSLIB00012470773
USI=mzspec:GNPS:DMIM-DRUG-METABOLITE-LIBRARY:accession:CCMSLIB00012470773
SCANS=5751
55.04435	1140.0
58.068878	2836.0
65.010612	1027.0
67.05571	1182.0
69.067451	1068.0
70.068527	6800.0
72.084816	3157.0
73.045006	1170.0
76.025101	1515.0
77.040001	1104.0
81.071777	2825.0
84.067619	8098.0
85.042137	2086.0
86.098572	5441.0
91.050423	2882.0
93.068031	1123.0
94.071167	1285.0
95.082718	3860.0
97.045212	4529.0
99.008675	1863.0
101.041267	2104.0
104.060623	2351.0
105.072754	12022.0
106.071701	2672.0
107.078346	1218.0
108.0504	1952.0
109.094254	3153.0
110.077766	3607.0
111.076874	1857.0
112.085808	1887.0
113.062073	1031.0
115.068932	1384.0
116.053703	1574.0
118.067207	2808.0
119.066689	2101.0
120.078949	6590.0
121.051102	5106.0
122.082336	2251.0
123.0616	12898.0
124.060959	1522.0
124.979004	2052.0
125.088982	1045.0
126.096428	1747.0
127.057404	1095.0
128.070053	1385.0
129.104813	11869.0
130.066711	8622.0
131.06427	3967.0
132.054306	2829.0
133.045792	3382.0
134.064987	1417.0
135.084457	2754.0
136.068634	37841.0
136.935043	2170.0
137.068481	10110.0
138.074936	2297.0
139.056885	5208.0
140.061539	1101.0
141.079941	1762.0
142.046158	2829.0
142.959671	5747.0
143.107162	2134.0
144.055939	2201.0
145.080338	2951.0
146.063858	5475.0
146.990112	1563.0
147.095734	3245.0
148.072647	2240.0
149.081924	3499.0
150.075989	1446.0
151.074051	2681.0
152.073563	1632.0
153.067657	3430.0
154.07341	1244.0
155.091629	9299.0
156.097961	2156.0
157.10257	2670.0
158.092209	1868.0
158.937729	2735.0
159.091263	5349.0
160.117096	53281.0
161.112259	8975.0
162.095001	12014.0
163.081619	6266.0
164.072128	2884.0
164.937927	14399.0
165.075302	6163.0
166.074707	2326.0
167.078583	3653.0
168.056625	2529.0
169.101089	5454.0
170.076111	1705.0
171.097183	4204.0
172.107803	2369.0
173.002701	1238.0
173.111908	5222.0
174.078934	4052.0
174.9189	5774.0
175.101624	3564.0
176.086975	1326.0
177.0522	16962.0
178.067307	1907.0
179.076172	14105.0
180.081177	3129.0
180.913574	5380.0
181.084946	15979.0
182.08812	2733.0
183.107101	12226.0
184.084442	4781.0
185.096573	5638.0
186.105881	2932.0
186.926773	2825.0
187.099426	4005.0
188.106155	3070.0
189.080338	3507.0
190.120972	2900.0
191.082214	5636.0
192.09436	1834.0
192.961716	1036.0
193.089935	10480.0
194.087418	2394.0
195.069992	15376.0
196.08165	2705.0
196.9133	4587.0
197.093643	23062.0
197.200241	1457.0
198.09285	3212.0
198.905746	1009.0
199.073364	5914.0
200.115768	3914.0
200.944885	22653.0
201.12236	4377.0
202.121597	5292.0
202.920624	1204.0
203.104141	4897.0
204.111923	1594.0
204.915878	1399.0
205.095566	5059.0
206.083008	2462.0
207.101212	7205.0
208.100082	4004.0
209.08963	16909.0
210.098373	2430.0
211.098419	11819.0
212.095551	2749.0
212.866928	2525.0
213.10173	6055.0
214.111053	3701.0
215.01796	2637.0
215.165161	3969.0
216.106339	2626.0
216.974396	7678.0
217.132843	2557.0
218.115616	1218.0
219.109756	4912.0
220.108444	1527.0
220.953979	1407.0
221.108383	8542.0
222.119232	2439.0
222.923508	6077.0
223.10025	12269.0
224.115463	2024.0
225.122894	21499.0
226.13237	5916.0
226.975479	3747.0
227.107239	5579.0
228.111252	3672.0
229.106354	3950.0
230.114563	1712.0
231.061279	14713.0
232.090973	10335.0
233.099899	9009.0
234.105972	1884.0
235.019928	5520.0
235.12001	10035.0
236.105545	2481.0
236.981094	1799.0
237.122131	13555.0
238.117279	2517.0
238.933746	3178.0
239.11499	9640.0
240.116653	2420.0
240.236069	9313.0
241.102432	4012.0
241.240448	1367.0
242.14798	2684.0
242.94487	1556.0
243.116776	3364.0
244.118866	2190.0
244.905426	2034.0
245.099136	4703.0
246.13121	1470.0
247.116776	4495.0
248.127487	1358.0
249.074081	13356.0
249.179901	1636.0
250.095963	12804.0
250.96225	1139.0
251.128967	15418.0
252.126266	2867.0
253.126297	9875.0
254.157928	15179.0
254.90538	3259.0
255.132309	8414.0
256.125153	3291.0
257.015259	4360.0
257.146881	2269.0
258.139038	1650.0
259.124115	3347.0
260.128204	1330.0
260.895142	1197.0
261.138184	4526.0
262.138519	2271.0
262.943115	1013.0
263.135986	6377.0
264.136169	1485.0
265.121857	9414.0
266.136841	2939.0
266.909882	1554.0
267.126404	17394.0
268.130371	3498.0
268.274536	1343.0
269.136749	7020.0
270.150238	2219.0
270.905212	1106.0
271.085175	2927.0
271.237122	58328.0
272.235718	10093.0
272.895233	1786.0
273.160797	3206.0
274.151367	1331.0
275.154327	4523.0
276.153595	2065.0
277.148651	6986.0
278.138916	1676.0
278.911743	1745.0
279.149994	9117.0
280.162018	2169.0
281.139099	7742.0
282.181366	6209.0
282.874023	1308.0
283.150848	6430.0
284.132019	2448.0
284.911926	1726.0
285.138855	5860.0
286.035248	1952.0
286.163849	1892.0
287.137299	2634.0
288.110016	1837.0
288.88797	2536.0
289.126343	3913.0
290.142273	1404.0
291.157562	5731.0
292.17215	1573.0
293.165161	10698.0
294.167572	2286.0
294.873383	1666.0
295.161682	8972.0
296.157654	2289.0
296.960358	7776.0
297.154022	4374.0
298.173859	2363.0
298.855652	1654.0
298.996613	1325.0
299.158203	3985.0
300.167755	2038.0
300.898315	1941.0
301.152252	3161.0
302.149017	3510.0
303.162842	3427.0
304.172089	1958.0
305.157501	4036.0
306.135925	1432.0
306.897003	1637.0
307.162659	7376.0
308.106934	5662.0
309.172302	64540.0
310.181	23455.0
310.89032	1359.0
311.18576	9555.0
312.074677	3964.0
312.198669	2275.0
312.928925	1778.0
313.175415	3866.0
314.164825	1700.0
314.977753	4192.0
315.168396	3296.0
316.148773	1785.0
317.00293	1538.0
317.187622	3248.0
318.161194	1202.0
318.932739	2654.0
319.102844	1382.0
319.206146	4890.0
320.210297	1314.0
321.174103	7400.0
322.177917	2201.0
322.895508	2766.0
323.170013	7740.0
324.165955	1842.0
325.172516	8961.0
326.176025	2404.0
326.993896	1088.0
327.180573	4831.0
328.063477	1387.0
328.200287	1330.0
328.877533	1919.0
329.030487	11526.0
329.187469	2790.0
330.083282	10142.0
330.20108	1221.0
330.966675	1608.0
331.15213	12349.0
332.090607	4506.0
332.193573	1173.0
332.982819	1144.0
333.180054	4087.0
334.04071	2274.0
334.199432	1233.0
334.91983	1897.0
335.189575	6166.0
336.19165	1702.0
336.951385	3154.0
337.180176	5520.0
338.187988	1944.0
338.869904	2112.0
339.202484	9679.0
340.201172	2230.0
340.921783	1010.0
341.182617	5222.0
342.190643	1884.0
343.188995	4084.0
344.189697	1917.0
344.87735	1025.0
345.190765	2513.0
346.058258	19213.0
347.044373	20960.0
347.208557	3457.0
348.058807	4312.0
348.21579	1022.0
349.03833	1203.0
349.199982	5527.0
350.03421	2059.0
350.198761	1708.0
350.859314	1335.0
351.006195	7739.0
351.191345	5800.0
352.072662	2753.0
352.857239	1716.0
353.142792	42174.0
354.146057	8219.0
354.879211	1381.0
355.109253	4704.0
355.218384	1757.0
356.124359	1720.0
356.867462	1632.0
357.169342	4836.0
358.182526	1582.0
358.916779	2363.0
359.20401	4296.0
360.177826	1130.0
360.881165	1070.0
361.180267	8879.0
362.185059	2725.0
363.009674	1423.0
363.200104	5257.0
364.215088	1530.0
365.164368	9498.0
366.214783	1539.0
366.961334	1537.0
367.206299	6241.0
368.037384	5655.0
368.209625	1621.0
368.832947	1244.0
369.044861	8046.0
369.176422	5121.0
370.043274	2023.0
370.215881	2160.0
370.858582	2503.0
371.152435	2177.0
371.269623	5890.0
372.274139	1535.0
373.200439	6213.0
374.052185	8270.0
374.205597	1367.0
374.860687	1202.0
375.039154	1890.0
375.220184	4886.0
376.052612	1171.0
376.244598	1769.0
376.876312	1020.0
377.215759	5102.0
378.209106	1257.0
379.213959	5078.0
380.213928	1046.0
381.088959	3062.0
381.218201	10610.0
382.219025	2757.0
383.205627	3958.0
384.009521	4875.0
384.225891	2482.0
385.010529	1430.0
385.213196	3497.0
386.009216	1091.0
386.236542	1397.0
386.724152	1247.0
387.21637	3526.0
388.216156	1330.0
389.187469	4237.0
389.291443	1670.0
390.02597	7366.0
390.24411	1489.0
390.832642	1624.0
391.025238	1427.0
391.206665	23366.0
392.019653	1284.0
392.207825	4131.0
392.896332	1047.0
393.20752	4144.0
393.728119	1114.0
394.228607	1945.0
394.93515	1301.0
395.185516	7739.0
396.22998	2320.0
396.868927	1176.0
397.21283	3527.0
398.25592	9538.0
399.246033	5168.0
400.24527	1225.0
400.808533	1008.0
401.151001	1227.0
401.295349	12976.0
402.297668	2771.0
403.248901	5290.0
404.243835	1899.0
405.257568	5012.0
405.99704	7192.0
406.262238	2123.0
406.979889	1336.0
407.234619	3975.0
408.002808	1587.0
408.23877	2074.0
408.845734	1252.0
409.184296	17387.0
410.030823	2899.0
410.192169	5074.0
411.230194	3276.0
412.262482	2307.0
412.836151	1282.0
413.251099	3042.0
414.24176	1553.0
414.823456	1207.0
415.172852	1109.0
415.305298	11446.0
416.306366	2845.0
417.261292	3715.0
418.234314	1143.0
418.815552	1356.0
419.15094	1368.0
419.274933	5221.0
420.213745	1871.0
420.856018	1055.0
421.24469	5235.0
421.974091	2163.0
422.254974	1937.0
423.252991	3858.0
424.265686	2160.0
425.155853	1505.0
425.265442	3751.0
426.274506	1255.0
427.008362	37589.0
427.233765	3262.0
428.032196	6560.0
428.246338	1718.0
429.011322	1519.0
429.269836	3252.0
429.990234	1530.0
430.234161	3408.0
430.963379	1543.0
431.162109	1470.0
431.298859	6614.0
432.295563	2045.0
433.261719	5654.0
434.267883	2654.0
434.779968	1412.0
435.265289	5232.0
436.250305	2518.0
436.794098	1692.0
437.245697	5699.0
438.250244	1846.0
439.249634	3290.0
440.249695	2022.0
END IONS

BEGIN IONS
PEPMASS=233.104
CHARGE=1
MSLEVEL=2
SOURCE_INSTRUMENT=LC-ESI-qTof
FILENAME=DMIM_centroided_library_abundance_filtered.mgf
SEQ=*..*
IONMODE=Positive
ORGANISM=DMIM-DRUG-METABOLITE-LIBRARY
NAME=TODRALAZINE [M+H]+
PI=Libin Xu
DATACOLLECTOR=Dylan H. Ross
SMILES=CCOC(=O)NNC1=NN=CC2=CC=CC=C21
INCHI=N/A
INCHIAUX=N/A
PUBMED=N/A
SUBMITUSER=jzemlin
LIBRARYQUALITY=3
SPECTRUMID=CCMSLIB00012470788
USI=mzspec:GNPS:DMIM-DRUG-METABOLITE-LIBRARY:accession:CCMSLIB00012470788
SCANS=5766
56.051449	1771.0
58.999695	6992.0
63.017742	2110.0
70.065369	2669.0
76.027069	12409.0
77.043259	11487.0
78.042503	2305.0
79.072906	2588.0
80.053391	6504.0
81.0578	1830.0
82.045082	1424.0
83.059258	6646.0
84.053253	29469.0
85.010422	6853.0
86.050247	2913.0
86.999474	1306.0
88.027664	2725.0
89.04277	417813.0
89.28775	1212.0
90.047668	63365.0
91.050957	8136.0
93.061783	2038.0
95.02327	4242.0
96.054543	1527.0
97.029907	4222.0
98.023201	3432.0
99.017822	3083.0
100.030388	1354.0
102.040993	3492.0
102.934639	1344.0
103.045456	90457.0
104.053566	70400.0
105.058929	9975.0
106.044518	2310.0
107.066574	2725.0
108.055542	4197.0
109.069183	2992.0
110.064156	2453.0
111.028374	1986.0
112.042572	3199.0
113.012741	2152.0
114.0467	3422.0
115.049156	4685.0
116.052391	47286.0
117.06144	160584.0
118.060966	18735.0
118.925751	57758.0
119.06559	3841.0
120.07222	2088.0
120.965965	4444.0
121.090965	2380.0
122.02932	1619.0
122.932404	2052.0
123.058121	17442.0
124.03685	6310.0
125.009918	2892.0
127.030685	1596.0
128.051849	2775.0
129.062225	12868.0
130.057678	52846.0
131.065277	105831.0
132.072144	112577.0
133.071396	11184.0
134.079346	1365.0
134.906784	3521.0
135.069901	2543.0
136.067505	37693.0
136.937469	59009.0
137.073959	4313.0
138.059937	1242.0
139.036362	3455.0
140.03125	2161.0
140.929871	1694.0
141.04834	5890.0
142.037384	22460.0
143.033096	6172.0
144.058075	33759.0
145.069748	254423.0
145.1987	1658.0
146.07135	24538.0
147.064011	4167.0
148.07399	1718.0
149.069519	2509.0
150.067307	1813.0
151.034134	2767.0
152.063248	2439.0
152.914856	5693.0
153.065094	3362.0
154.067215	2469.0
155.06868	3294.0
156.071594	2208.0
157.081421	2291.0
158.071152	5020.0
158.912674	2833.0
159.072906	149019.0
160.075836	28078.0
161.088547	184941.0
161.228012	1821.0
162.078018	25844.0
162.935852	1964.0
163.069794	2919.0
164.031509	1160.0
164.940384	11181.0
165.077454	2631.0
165.945908	1887.0
166.07193	1064.0
166.957397	1965.0
167.088608	1538.0
168.058136	1597.0
169.06604	2723.0
170.03981	4527.0
171.051437	3029.0
172.080017	1811.0
173.075607	5207.0
174.070038	1518.0
174.886993	13147.0
175.080353	2708.0
176.075653	1730.0
177.038788	6523.0
178.069199	2091.0
178.903183	2165.0
179.061722	4825.0
180.08168	1712.0
180.921234	20264.0
181.072968	3334.0
181.995209	1606.0
182.925049	4325.0
183.066635	2700.0
183.946396	1083.0
184.085022	1196.0
184.906113	1683.0
185.048294	5061.0
186.076111	1930.0
186.919296	40988.0
187.068481	80884.0
188.070511	10432.0
188.92424	1528.0
189.076614	2432.0
190.052048	1228.0
190.867813	3662.0
191.062836	2971.0
192.05957	1319.0
192.909988	1378.0
193.081223	2640.0
194.088745	1568.0
195.078018	2027.0
196.901642	4630.0
197.085709	2001.0
198.913986	5907.0
199.071594	3049.0
200.040482	1174.0
200.242477	3351.0
200.920013	3446.0
201.051682	23220.0
202.056442	3181.0
202.904968	13685.0
203.088287	2085.0
204.083496	1485.0
204.906082	4721.0
205.079575	13485.0
206.078812	1910.0
206.898956	1392.0
207.089157	1768.0
208.906311	1013.0
209.07489	2334.0
211.083359	2750.0
212.101242	1047.0
212.89592	2573.0
213.093826	1492.0
214.07695	1167.0
214.887375	4059.0
215.057343	2630.0
216.077591	1023.0
216.912552	2863.0
217.080994	1177.0
218.908356	3667.0
219.106064	1304.0
220.92392	6664.0
221.111038	1646.0
222.926163	2148.0
223.107376	1344.0
225.026947	1786.0
226.111649	1009.0
226.920105	1157.0
227.08934	1872.0
228.090958	1208.0
228.973312	1458.0
230.89032	1255.0
231.057495	4427.0
231.874207	1875.0
232.086731	1786.0
232.8853	2763.0
233.098389	4931.0
234.8806	1362.0
235.036377	2017.0
END IONS

BEGIN IONS
PEPMASS=228.115
CHARGE=1
MSLEVEL=2
SOURCE_INSTRUMENT=LC-ESI-qTof
FILENAME=DMIM_centroided_library_abundance_filtered.mgf
SEQ=*..*
IONMODE=Positive
ORGANISM=DMIM-DRUG-METABOLITE-LIBRARY
NAME=TULOBUTEROL [M+H]+
PI=Libin Xu
DATACOLLECTOR=Dylan H. Ross
SMILES=CC(C)(NCC(O)C1=CC=CC=C1Cl)C
INCHI=N/A
INCHIAUX=N/A
PUBMED=N/A
SUBMITUSER=jzemlin
LIBRARYQUALITY=3
SPECTRUMID=CCMSLIB00012471367
USI=mzspec:GNPS:DMIM-DRUG-METABOLITE-LIBRARY:accession:CCMSLIB00012471367
SCANS=6345
56.051826	1603.0
57.028461	1038.0
58.99868	12172.0
70.0653	3721.0
76.025162	28035.0
77.038361	2639.0
78.031586	1312.0
79.04364	1586.0
80.05162	5944.0
81.053856	1687.0
83.056465	4152.0
84.052094	39648.0
85.019012	5182.0
86.060104	3833.0
86.996758	1582.0
88.025024	3078.0
91.057121	18672.0
92.05999	1745.0
93.064453	1576.0
95.026787	3171.0
96.047241	1077.0
97.032669	4945.0
98.02198	2801.0
99.010117	2123.0
101.043259	1043.0
102.048996	2021.0
102.956184	1568.0
104.063118	1366.0
105.067291	2954.0
106.042435	1623.0
107.066162	2832.0
108.055168	3235.0
109.073219	3489.0
110.068596	3126.0
111.03231	1619.0
112.048538	2242.0
113.033958	1633.0
114.048767	2653.0
115.058868	1705.0
116.024139	13907.0
116.14682	1224.0
117.060936	5928.0
118.069336	54472.0
118.92482	40211.0
119.076775	68529.0
120.077019	7711.0
120.973022	2245.0
121.087173	2199.0
122.057877	1576.0
123.057869	22174.0
124.038963	6035.0
125.020782	2973.0
126.046158	1029.0
127.042992	1558.0
128.053558	1748.0
129.094055	5913.0
130.058502	10503.0
131.058136	2658.0
132.060532	5219.0
133.0495	3116.0
134.065842	1591.0
134.917389	1900.0
135.069336	2755.0
136.066681	42302.0
136.939896	51372.0
137.073212	4350.0
138.062759	1329.0
139.021683	3705.0
140.030945	1293.0
140.927582	1181.0
141.04837	6181.0
142.039124	28421.0
143.041977	5270.0
144.029099	7280.0
145.075104	2292.0
146.050629	1869.0
147.07164	2378.0
148.067093	1439.0
149.077469	2085.0
150.05661	1605.0
151.042542	2309.0
152.060745	2916.0
152.920959	4491.0
153.064285	3181.0
154.048309	41784.0
155.059586	6077.0
156.048859	14844.0
157.063385	3164.0
158.097687	1688.0
158.929184	2591.0
159.08165	2602.0
160.06279	3792.0
161.055008	2839.0
162.029266	12060.0
163.048355	2955.0
164.055511	1542.0
164.939545	9918.0
165.0784	1883.0
166.059219	1575.0
166.935822	1012.0
167.069305	2486.0
168.066574	1598.0
169.073212	2459.0
170.038544	4802.0
171.05899	3033.0
172.061661	1352.0
173.069778	4528.0
174.072495	1866.0
174.886017	10900.0
175.083206	2727.0
176.058502	1542.0
177.019653	6617.0
178.060547	1532.0
178.9086	1473.0
179.058823	5050.0
180.917755	12830.0
181.071701	3326.0
182.074615	1455.0
182.926498	2790.0
183.073853	2589.0
183.950684	1091.0
184.086823	1002.0
184.906693	1116.0
185.052551	2972.0
186.084442	1868.0
186.918823	39239.0
187.06691	5560.0
188.051758	2467.0
189.037933	2509.0
190.064545	1377.0
190.873184	2868.0
191.05249	2630.0
192.061905	1569.0
192.905777	1320.0
193.080109	2518.0
194.081421	1021.0
195.095169	2391.0
196.10257	1121.0
196.90329	4573.0
197.099869	2383.0
198.078003	1205.0
198.911942	5454.0
199.067017	2727.0
200.063721	1245.0
200.238876	3389.0
200.917725	3084.0
201.051712	26332.0
202.056671	3906.0
202.905396	10568.0
203.087799	1782.0
204.077835	1685.0
204.903763	5076.0
205.084015	1915.0
207.087646	1974.0
208.092468	1006.0
209.087479	1890.0
210.09613	1087.0
211.095612	1556.0
212.884628	2113.0
213.057388	1565.0
214.082611	1684.0
214.887833	3882.0
215.059448	2974.0
216.053513	1269.0
216.907059	3333.0
217.090881	1675.0
218.912872	3337.0
219.101303	1176.0
220.923141	5993.0
221.105515	2071.0
222.92012	2221.0
223.093216	1280.0
225.103165	1208.0
227.060959	1866.0
229.093536	1116.0
END IONS

BEGIN IONS
PEPMASS=258.125
CHARGE=1
MSLEVEL=2
SOURCE_INSTRUMENT=LC-ESI-qTof
FILENAME=DMIM_centroided_library_abundance_filtered.mgf
SEQ=*..*
IONMODE=Positive
ORGANISM=DMIM-DRUG-METABOLITE-LIBRARY
NAME=CARMOFUR [M+H]+
PI=Libin Xu
DATACOLLECTOR=Dylan H. Ross
SMILES=CCCCCCNC(=O)N1C=C(C(=O)NC1=O)F
INCHI=N/A
INCHIAUX=N/A
PUBMED=N/A
SUBMITUSER=jzemlin
LIBRARYQUALITY=3
SPECTRUMID=CCMSLIB00012471443
USI=mzspec:GNPS:DMIM-DRUG-METABOLITE-LIBRARY:accession:CCMSLIB00012471443
SCANS=6421
56.050716	3176.0
58.998524	30562.0
61.010029	1201.0
69.053383	1146.0
70.066315	5116.0
72.082497	1764.0
73.020294	1443.0
76.025154	103793.0
77.035095	3514.0
78.02449	2599.0
79.040367	1864.0
80.052628	8973.0
81.05648	2244.0
82.052483	1055.0
83.056885	4333.0
84.050636	121159.0
85.030838	7241.0
86.069626	4261.0
87.000175	3438.0
88.02494	7115.0
88.993378	1708.0
91.050262	2719.0
93.06414	1941.0
95.045639	3349.0
96.053947	1560.0
97.031357	5011.0
98.021812	4490.0
99.009995	3284.0
100.053635	1324.0
102.064377	1332.0
102.955971	1141.0
105.064415	2560.0
107.070068	2593.0
108.05452	4342.0
109.072929	3620.0
110.067909	4452.0
111.052132	2228.0
112.049973	3407.0
113.02182	2237.0
114.046455	4409.0
115.065514	1813.0
116.02343	37063.0
116.148392	1003.0
117.035515	3195.0
118.030037	1659.0
118.927223	22982.0
119.072784	2899.0
120.066383	3815.0
120.978745	3373.0
121.089508	2246.0
122.039398	1968.0
123.060463	15437.0
124.039719	7036.0
125.02034	3365.0
126.061005	1440.0
127.042122	1840.0
128.063553	1638.0
129.097183	8935.0
130.057861	28596.0
131.062271	3995.0
132.060776	4981.0
133.054321	3767.0
134.080276	1307.0
135.068893	3478.0
136.06813	23416.0
136.939636	50969.0
137.076843	4106.0
138.07048	1485.0
139.019775	3972.0
140.037018	2021.0
141.054291	8058.0
142.039307	60465.0
143.035568	7708.0
144.022736	17120.0
145.046738	4338.0
146.038879	2389.0
147.068253	4254.0
148.062256	1894.0
149.076859	3204.0
150.068985	1744.0
151.044876	3246.0
152.060394	3912.0
152.915771	1322.0
153.061798	4273.0
154.076385	2670.0
155.078003	3857.0
156.076218	1686.0
157.086853	1891.0
158.097855	2721.0
158.944931	2538.0
159.087387	3636.0
160.069061	3547.0
161.074051	3591.0
162.030533	33016.0
163.051544	5417.0
164.046341	2410.0
164.939499	17855.0
165.077927	2732.0
165.961151	1757.0
166.089798	1405.0
167.068481	3018.0
168.071854	2127.0
169.068237	3867.0
170.042572	7029.0
171.063965	3858.0
172.074234	1830.0
173.065506	5576.0
174.064957	2720.0
174.888458	15044.0
175.082245	3611.0
176.068253	1938.0
177.021896	6904.0
178.071014	1809.0
178.903214	1074.0
179.060745	9864.0
180.07605	2033.0
180.925522	18084.0
181.072433	5104.0
181.981949	1584.0
182.098434	1159.0
182.930466	3388.0
183.076172	3720.0
184.109467	1661.0
185.061218	3988.0
186.089294	2483.0
186.920715	44769.0
187.068359	10753.0
188.059845	4512.0
189.049393	4185.0
190.061371	1943.0
190.871399	2395.0
191.066849	3871.0
192.069122	1802.0
192.904892	1682.0
193.073975	3949.0
194.102722	1314.0
195.086014	3702.0
196.081909	2013.0
196.895309	6997.0
197.090942	3237.0
198.077026	1777.0
198.917587	7355.0
199.064163	5375.0
200.042328	1884.0
200.240021	2252.0
200.925903	4278.0
201.054031	27432.0
202.058701	4075.0
202.904236	12653.0
203.082474	4849.0
204.082001	1829.0
204.906082	4784.0
205.093674	2634.0
206.00267	3361.0
207.088882	3766.0
208.11142	1594.0
209.081604	3838.0
210.063644	1454.0
211.091721	3516.0
212.106064	1192.0
212.872986	1782.0
213.050797	2725.0
214.086212	2704.0
214.8927	2508.0
215.054108	5438.0
216.065567	2145.0
216.914062	4515.0
217.07782	2239.0
218.905197	4165.0
219.103424	2104.0
220.920441	6888.0
221.103683	2858.0
222.121292	1053.0
222.893066	1540.0
223.039093	4998.0
224.117767	1170.0
225.051178	1891.0
225.165222	1016.0
226.131912	1605.0
226.903671	1491.0
227.063278	3927.0
228.059357	1730.0
228.922272	1326.0
229.094437	1554.0
230.88385	1070.0
231.061523	3573.0
231.869476	1136.0
232.086975	1948.0
232.890625	2567.0
233.078247	5606.0
234.079926	1241.0
234.91246	2773.0
235.10701	4670.0
236.126526	1390.0
236.878006	1175.0
237.1026	4396.0
238.103378	1257.0
238.881622	2622.0
239.080734	2674.0
240.13652	1193.0
240.878265	2524.0
241.12532	1336.0
242.143005	1522.0
242.882767	1391.0
243.077972	1394.0
244.891571	1456.0
245.074615	5549.0
246.893463	1092.0
247.108414	1553.0
248.897583	2754.0
249.11377	2531.0
250.08934	1220.0
250.894302	1400.0
251.103729	4500.0
252.106522	1380.0
253.122894	3080.0
254.147507	1656.0
254.859161	10855.0
255.063644	2047.0
256.053192	1585.0
257.09079	2186.0
258.037537	1125.0
258.872711	2350.0
259.121063	1403.0
END IONS

BEGIN IONS
PEPMASS=392.186
CHARGE=1
MSLEVEL=2
SOURCE_INSTRUMENT=ESI-Orbitrap
FILENAME=gnps_msn_lib_pos.mgf
SEQ=*..*
IONMODE=Positive
ORGANISM=MSNLIB-POSITIVE
NAME=flavoxate [M+H]+
PI=Tomas Pluskal
DATACOLLECTOR=Corinna Brungs
SMILES=Cc1c(-c2ccccc2)oc2c(cccc2C(=O)OCCN2CCCCC2)c1=O
INCHI=InChI=1S/C24H25NO4/c1-17-21(26)19-11-8-12-20(23(19)29-22(17)18-9-4-2-5-10-18)24(27)28-16-15-25-13-6-3-7-14-25/h2,4-5,8-12H,3,6-7,13-16H2,1H3
INCHIAUX=SPIUTQOUKAMGCX-UHFFFAOYSA-N
PUBMED=N/A
SUBMITUSER=jzemlin
LIBRARYQUALITY=1
SPECTRUMID=CCMSLIB00012277771
USI=mzspec:GNPS:MSNLIB-POSITIVE:accession:CCMSLIB00012277771
SCANS=3470
41.026051	0.293
41.038651	1.88
41.255188	0.117
42.033871	0.22
43.57478	0.393
43.577255	0.393
44.049526	2.418
51.022907	0.43
53.002197	0.193
53.038574	0.159
54.010014	0.078
54.033787	0.144
55.054218	3.255
56.049461	10.419
58.065121	1.807
62.014996	0.221
63.022835	1.444
65.038483	0.349
66.041847	0.113
67.054184	0.414
69.069794	5.56
70.065056	0.255
82.065094	0.219
83.085403	0.12
84.080719	3.498
84.083	0.052
91.017746	3.601
93.033356	0.055
95.049026	0.279
97.088669	0.194
105.033463	1.271
105.044647	0.054
107.012657	0.093
110.096413	0.582
112.106613	0.159
112.109444	0.265
112.111931	100.0
112.114197	0.808
112.116486	0.629
112.119614	1.568
112.126015	0.969
112.130165	0.915
112.135422	0.384
119.012688	5.514
121.028275	0.109
121.039497	0.07
128.10701	0.106
146.993866	0.114
146.997574	0.125
147.007828	7.641
149.023163	0.632
150.026382	0.258
152.062057	0.052
164.985687	0.363
164.992294	0.284
165.00209	0.107
165.018341	47.578999
165.021301	0.193
165.024536	0.14
165.044556	0.267
165.050858	0.303
178.077698	0.09
179.085632	0.114
183.028992	2.225
191.034042	3.184
195.08078	0.165
209.044571	0.633
263.070435	14.095
307.096649	9.527
392.185944	20.561001
END IONS

BEGIN IONS
PEPMASS=355.227
CHARGE=1
MSLEVEL=2
SOURCE_INSTRUMENT=ESI-Orbitrap
FILENAME=gnps_msn_lib_pos.mgf
SEQ=*..*
IONMODE=Positive
ORGANISM=MSNLIB-POSITIVE
NAME=etretinate [M+H]+
PI=Tomas Pluskal
DATACOLLECTOR=Corinna Brungs
SMILES=CCOC(=O)/C=C(C)/C=C/C=C(C)/C=C/c1c(C)c(C)c(OC)cc1C
INCHI=InChI=1S/C23H30O3/c1-8-26-23(24)14-17(3)11-9-10-16(2)12-13-21-18(4)15-22(25-7)20(6)19(21)5/h9-15H,8H2,1-7H3/b11-9+,13-12+,16-10+,17-14+
INCHIAUX=HQMNCQVAMBCHCO-DJRRULDNSA-N
PUBMED=N/A
SUBMITUSER=jzemlin
LIBRARYQUALITY=1
SPECTRUMID=CCMSLIB00012281226
USI=mzspec:GNPS:MSNLIB-POSITIVE:accession:CCMSLIB00012281226
SCANS=6925
51.02293	1.486
53.038589	1.817
63.022873	2.994
65.038544	19.766001
74.015091	1.333
77.03849	2.78
79.054131	1.135
89.038513	4.545
91.054146	88.192001
93.06974	2.389
95.049103	2.486
98.015114	1.146
103.054146	2.029
105.069725	3.533
107.085281	2.937
115.054169	50.375
116.061974	34.502998
117.069649	2.862
121.064476	3.563
126.04628	1.338
128.061996	4.44
129.069794	11.102
131.085464	100.0
131.096939	2.265
133.101135	3.543
135.080414	9.303
139.054214	1.838
141.069809	20.285
143.085419	3.543
144.056931	17.716
149.09613	6.038
152.061951	1.563
156.093384	3.223
158.072662	1.528
158.109039	1.557
159.080429	86.598999
163.054169	4.341
163.111771	8.559
164.062073	2.541
165.069931	15.048
171.080399	2.698
171.116974	1.704
173.096283	2.669
177.091187	2.621
179.08548	2.085
186.104111	5.318
189.069977	2.364
190.077774	2.27
191.085526	1.499
193.101288	1.524
194.108826	1.088
197.015869	2.478
200.06218	1.182
201.069885	1.142
201.127487	16.336
202.077759	5.948
203.085846	1.987
205.101349	3.736
205.122604	49.910999
206.109131	3.207
207.116974	1.088
209.096146	2.371
209.132416	1.157
215.085907	1.379
220.124878	1.623
221.132462	1.961
222.104187	3.62
223.111923	2.257
224.119431	1.102
236.119507	1.083
237.127808	8.482
251.143112	1.971
252.15094	4.339
267.175201	11.742
276.973511	2.816
281.191101	9.317
294.161926	2.19
309.185913	21.405001
355.227386	4.336
END IONS

BEGIN IONS
PEPMASS=371.015
CHARGE=1
MSLEVEL=2
SOURCE_INSTRUMENT=ESI-Orbitrap
FILENAME=gnps_msn_lib_pos.mgf
SEQ=*..*
IONMODE=Positive
ORGANISM=MSNLIB-POSITIVE
NAME=azosemide [M+H]+
PI=Tomas Pluskal
DATACOLLECTOR=Corinna Brungs
SMILES=NS(=O)(=O)c1c(Cl)cc(NCc2cccs2)c(-c2n[nH]nn2)c1
INCHI=InChI=1S/C12H11ClN6O2S2/c13-9-5-10(15-6-7-2-1-3-22-7)8(12-16-18-19-17-12)4-11(9)23(14,20)21/h1-5,15H,6H2,(H2,14,20,21)(H,16,17,18,19)
INCHIAUX=HMEDEBAJARCKCT-UHFFFAOYSA-N
PUBMED=N/A
SUBMITUSER=jzemlin
LIBRARYQUALITY=1
SPECTRUMID=CCMSLIB00012285591
USI=mzspec:GNPS:MSNLIB-POSITIVE:accession:CCMSLIB00012285591
SCANS=11290
44.979385	12.13
53.038589	34.085999
68.979317	2.795
97.010536	100.0
129.138718	2.861
134.978668	4.232
152.989197	4.592
226.123352	2.757
232.947006	5.176
250.956039	3.111
END IONS

BEGIN IONS
PEPMASS=349.212
CHARGE=1
MSLEVEL=2
SOURCE_INSTRUMENT=ESI-Orbitrap
FILENAME=gnps_msn_lib_pos.mgf
SEQ=*..*
IONMODE=Positive
ORGANISM=MSNLIB-POSITIVE
NAME=ROXATIDINE ACETATE [M+H]+
PI=Tomas Pluskal
DATACOLLECTOR=Corinna Brungs
SMILES=CC(=O)OCC(=O)NCCCOc1cccc(CN2CCCCC2)c1
INCHI=InChI=1S/C19H28N2O4/c1-16(22)25-15-19(23)20-9-6-12-24-18-8-5-7-17(13-18)14-21-10-3-2-4-11-21/h5,7-8,13H,2-4,6,9-12,14-15H2,1H3,(H,20,23)
INCHIAUX=SMTZFNFIKUPEJC-UHFFFAOYSA-N
PUBMED=N/A
SUBMITUSER=jzemlin
LIBRARYQUALITY=1
SPECTRUMID=CCMSLIB00012316346
USI=mzspec:GNPS:MSNLIB-POSITIVE:accession:CCMSLIB00012316346
SCANS=24490
41.038666	3.189
42.033909	1.047
43.017921	22.950001
43.041725	1.533
44.049545	0.689
50.015167	1.169
51.022987	31.406
52.030834	0.195
53.002274	0.214
53.013489	0.124
53.038635	6.163
55.017891	12.644
56.049442	10.621
56.052559	0.295
58.028751	3.453
58.065121	29.089001
58.068119	0.342
59.049156	4.153
60.044437	0.278
61.028423	0.253
62.015114	0.203
63.022945	3.218
65.038582	16.391001
65.040611	0.205
67.017868	0.21
67.05423	0.338
68.049469	0.199
69.033539	0.183
73.028442	0.15
75.022896	0.216
76.030746	0.149
77.038582	33.953999
77.041191	0.366
78.04641	2.423
79.017929	0.229
79.054214	15.809
79.056259	0.169
81.033493	1.271
84.080666	9.601
86.023636	20.48
86.026016	0.258
86.060028	0.401
87.022911	0.135
88.039291	6.137
89.038574	1.894
90.046364	0.132
91.05423	38.735001
91.056839	0.609
93.069901	1.606
94.041328	0.158
95.049149	33.198002
95.052414	0.336
101.023331	3.748
102.046448	0.513
103.054237	4.632
104.06205	4.176
105.044746	6.0
105.069878	2.162
107.044891	0.517
107.049126	100.0
107.052864	0.923
107.056511	0.789
107.062294	0.633
107.065804	0.435
109.064774	1.435
114.054962	55.731998
114.05719	0.993
114.059669	0.533
114.063011	0.467
115.054245	7.491
116.062088	0.382
116.065712	0.131
116.070602	38.167
116.072701	0.556
116.075424	0.357
116.078499	0.338
117.057312	0.169
117.069893	10.923
117.071968	0.178
118.065117	0.157
119.049202	0.15
119.060402	0.171
119.080597	0.131
119.085548	25.825001
119.087669	0.384
119.095619	0.26
121.064751	0.998
126.046494	0.139
127.05426	0.199
128.062073	1.323
129.069901	2.031
130.050034	0.271
130.065201	0.201
131.049179	2.948
131.060349	0.133
131.073105	0.163
132.057037	3.93
136.075714	0.33
137.059784	0.164
142.065125	0.126
143.073044	0.773
145.064804	0.478
146.06015	0.269
146.096542	0.251
147.073563	0.432
147.080505	65.168999
147.087357	0.46
155.060272	0.126
157.064911	0.223
158.081268	36.533001
158.088913	0.231
158.096375	1.349
164.107132	4.256
176.107254	1.286
187.075455	0.126
192.138596	1.965
204.102234	0.579
205.086212	0.162
222.099625	0.273
222.112869	40.049999
349.21225	45.598999
END IONS

BEGIN IONS
PEPMASS=334.062
CHARGE=1
MSLEVEL=2
SOURCE_INSTRUMENT=ESI-Orbitrap
FILENAME=gnps_msn_lib_pos.mgf
SEQ=*..*
IONMODE=Positive
ORGANISM=MSNLIB-POSITIVE
NAME=Robenidine [M+H]+
PI=Tomas Pluskal
DATACOLLECTOR=Corinna Brungs
SMILES=N/C(=N\N=C\c1ccc(Cl)cc1)N/N=C/c1ccc(Cl)cc1
INCHI=InChI=1S/C15H13Cl2N5/c16-13-5-1-11(2-6-13)9-19-21-15(18)22-20-10-12-3-7-14(17)8-4-12/h1-10H,(H3,18,21,22)/b19-9+,20-10+
INCHIAUX=MOOFYEJFXBSZGE-LQGKIZFRSA-N
PUBMED=N/A
SUBMITUSER=jzemlin
LIBRARYQUALITY=1
SPECTRUMID=CCMSLIB00012327346
USI=mzspec:GNPS:MSNLIB-POSITIVE:accession:CCMSLIB00012327346
SCANS=29823
42.033878	0.537
43.029106	20.174999
46.968391	0.488
48.98402	2.791
50.01516	3.058
51.022968	4.107
53.002243	3.265
53.038658	0.764
58.039867	1.245
59.047726	3.428
61.979248	0.636
62.015121	0.902
63.022945	7.73
64.018219	1.879
64.030731	0.45
65.026085	0.375
65.038597	4.581
66.04641	2.016
72.983955	6.553
73.97921	0.294
74.015091	10.46
74.999611	1.284
75.022926	62.747002
75.02549	0.731
76.030754	1.546
77.038536	1.369
79.01783	0.299
79.020927	0.684
84.983955	5.01
85.050781	10.066
86.999573	1.579
87.022949	0.398
88.018196	1.835
89.026031	1.047
89.038567	16.959999
90.03376	1.314
90.046402	6.551
91.054207	7.034
92.049492	0.362
93.033463	3.424
93.05732	2.672
94.041321	7.532
95.049141	10.027
96.983994	2.049
97.979225	0.981
98.999619	8.86
100.018219	12.939
102.033806	0.415
104.049507	0.645
105.044762	1.163
105.057434	0.279
106.028732	1.971
108.9841	0.585
110.999626	5.425
111.04406	4.844
112.007439	0.303
113.015259	7.347
113.038483	0.277
115.029114	4.116
115.054237	0.547
116.036942	10.411
116.050087	0.591
116.05751	0.303
117.057259	1.106
118.028801	2.949
118.052361	0.797
119.06044	1.072
120.044403	0.973
120.068253	1.014
121.039719	0.539
122.999634	0.326
123.994904	24.412001
124.007271	1.865
124.039299	0.292
125.015297	66.693001
125.01754	0.375
125.02063	0.532
126.01046	1.1
126.023163	0.596
128.026215	0.471
129.010193	37.396999
129.015793	0.388
130.04007	1.327
131.007324	0.372
131.06044	0.449
132.068192	0.728
133.039581	0.37
135.994965	1.672
137.002777	1.28
138.010574	77.449997
138.013809	0.327
138.016922	0.559
139.005814	30.747999
139.018219	4.029
139.054306	0.293
140.007675	0.863
140.026245	66.139
140.032608	0.576
140.057678	0.347
141.002701	0.36
142.005539	0.697
142.040039	1.794
143.047897	16.037001
150.010727	0.6
151.005875	17.688
151.018723	2.122
152.013733	0.35
153.021576	4.207
154.005508	1.506
155.029419	0.595
155.037125	100.0
155.044464	0.536
160.050598	0.533
162.046494	0.485
163.005737	0.606
163.050293	0.276
163.054382	1.792
164.001205	4.425
164.057755	1.046
164.062164	0.842
165.061142	0.958
165.065643	0.431
165.070038	2.705
166.075165	0.964
167.080765	1.694
168.084793	1.058
169.016556	4.647
170.046555	0.383
178.00769	0.554
178.016891	91.171997
178.026001	0.664
179.024887	4.319
180.032684	18.723
188.049728	0.332
194.035385	0.913
195.022842	0.599
195.043564	14.704
196.032486	0.741
196.051453	6.402
197.040771	2.364
203.044174	1.14
204.047394	2.903
205.050735	2.168
256.263855	0.61
262.020172	0.578
263.026794	3.376
277.030212	1.599
288.022247	2.026
317.036194	6.419
334.062592	77.736
334.157318	0.702
END IONS

BEGIN IONS
PEPMASS=216.101
CHARGE=1
MSLEVEL=2
SOURCE_INSTRUMENT=ESI-Orbitrap
FILENAME=gnps_msn_lib_pos.mgf
SEQ=*..*
IONMODE=Positive
ORGANISM=MSNLIB-POSITIVE
NAME=atrazine [M+H]+
PI=Tomas Pluskal
DATACOLLECTOR=Corinna Brungs
SMILES=CCNc1nc(NC(C)C)nc(Cl)n1
INCHI=InChI=1S/C8H14ClN5/c1-4-10-7-12-6(9)13-8(14-7)11-5(2)3/h5H,4H2,1-3H3,(H2,10,11,12,13,14)
INCHIAUX=MXWJVTOOROXGIU-UHFFFAOYSA-N
PUBMED=N/A
SUBMITUSER=jzemlin
LIBRARYQUALITY=1
SPECTRUMID=CCMSLIB00012335910
USI=mzspec:GNPS:MSNLIB-POSITIVE:accession:CCMSLIB00012335910
SCANS=34067
41.038471	1.944
42.021336	0.919
43.029129	21.687
43.03117	0.504
43.054142	1.702
43.51368	0.238
51.939747	0.3
59.929916	0.277
61.979218	38.603001
68.024277	56.321999
68.027283	0.811
68.030533	0.56
69.032127	0.4
71.060234	9.276
79.00563	18.531
79.007843	0.263
90.010376	0.78
96.055504	26.805
96.06308	0.351
104.000977	41.776001
104.005074	0.375
104.00811	0.354
110.046059	2.656
128.056747	0.261
132.032288	15.353
138.077362	4.538
138.102798	1.298
146.016006	0.264
146.022827	37.764999
146.029572	0.27
146.048233	0.926
174.045242	0.624
174.054306	100.0
174.063126	0.537
174.072327	0.372
192.96199	0.403
216.052246	0.58
216.063766	0.469
216.101547	97.425003
216.149826	0.671
END IONS

BEGIN IONS
PEPMASS=241.096
CHARGE=1
MSLEVEL=2
SOURCE_INSTRUMENT=ESI-Orbitrap
FILENAME=gnps_msn_lib_pos.mgf
SEQ=*..*
IONMODE=Positive
ORGANISM=MSNLIB-POSITIVE
NAME=CYANAZINE [M+H]+
PI=Tomas Pluskal
DATACOLLECTOR=Corinna Brungs
SMILES=CCNc1nc(NC(C)(C)C#N)nc(Cl)n1
INCHI=InChI=1S/C9H13ClN6/c1-4-12-7-13-6(10)14-8(15-7)16-9(2,3)5-11/h4H2,1-3H3,(H2,12,13,14,15,16)
INCHIAUX=MZZBPDKVEFVLFF-UHFFFAOYSA-N
PUBMED=N/A
SUBMITUSER=jzemlin
LIBRARYQUALITY=1
SPECTRUMID=CCMSLIB00012339955
USI=mzspec:GNPS:MSNLIB-POSITIVE:accession:CCMSLIB00012339955
SCANS=36087
41.038628	0.274
42.021324	0.27
42.033871	1.413
43.029114	24.614
43.03186	0.163
46.994785	0.232
53.520771	0.198
55.029106	0.504
56.049511	0.825
56.964577	1.147
58.065098	2.591
61.010548	0.386
61.979183	11.726
62.018345	0.532
62.986969	0.06
63.997559	0.496
66.033836	0.062
67.028999	1.001
68.024223	13.028
68.028282	0.331
68.030487	0.24
68.049393	1.494
69.032104	0.112
69.044685	0.287
70.065125	0.239
71.060272	27.386999
71.062614	0.255
71.064789	0.214
71.067108	0.224
77.015228	0.064
78.010483	0.244
79.005569	2.912
79.021126	2.576
81.017029	0.11
83.060272	12.776
83.062622	0.231
84.959518	4.245
84.965828	0.113
85.075821	0.234
90.010422	1.965
92.0261	0.059
93.019554	0.103
93.044731	0.121
95.060303	0.63
96.055534	10.728
96.063049	0.143
102.010506	0.164
102.9701	0.777
103.005646	0.456
104.000916	18.457001
104.00441	0.246
104.006241	0.072
104.008247	0.24
104.013268	0.225
107.037231	0.059
108.05555	1.97
110.045998	0.547
110.071228	4.192
111.079025	1.016
111.091667	0.188
119.03701	5.802
119.039131	0.098
120.980675	0.181
128.996246	0.063
132.032272	14.751
132.034653	0.157
132.038132	0.1
134.978546	0.108
135.066483	0.233
136.074783	0.146
136.086929	6.539
136.08934	0.074
138.077332	0.392
144.032272	1.369
145.02771	0.208
146.022705	0.988
150.077454	0.513
157.027679	0.124
162.951309	0.238
162.973862	1.376
163.097977	1.181
171.043259	0.403
173.058975	3.886
174.05423	9.135
177.08844	1.822
178.108856	1.042
180.124786	0.115
180.984436	2.799
181.000336	0.166
186.054276	0.362
197.058914	0.316
198.994888	0.469
205.119812	3.6
213.06575	0.083
214.037491	0.306
214.047134	0.239
214.062836	0.124
214.069763	0.287
214.073486	0.496
214.076065	0.525
214.085587	100.0
214.095245	0.42
214.097794	0.717
214.101135	0.177
214.104721	0.194
214.111465	0.091
214.124344	0.226
214.134003	0.329
241.039841	0.16
241.096603	23.966
END IONS

BEGIN IONS
PEPMASS=281.117
CHARGE=1
MSLEVEL=2
SOURCE_INSTRUMENT=ESI-Orbitrap
FILENAME=gnps_msn_lib_pos.mgf
SEQ=*..*
IONMODE=Positive
ORGANISM=MSNLIB-POSITIVE
NAME=PHENPROCOUMON [M+H]+
PI=Tomas Pluskal
DATACOLLECTOR=Corinna Brungs
SMILES=CCC(c1ccccc1)c1c(O)c2ccccc2oc1=O
INCHI=InChI=1S/C18H16O3/c1-2-13(12-8-4-3-5-9-12)16-17(19)14-10-6-7-11-15(14)21-18(16)20/h3-11,13,19H,2H2,1H3
INCHIAUX=DQDAYGNAKTZFIW-UHFFFAOYSA-N
PUBMED=N/A
SUBMITUSER=jzemlin
LIBRARYQUALITY=1
SPECTRUMID=CCMSLIB00012346063
USI=mzspec:GNPS:MSNLIB-POSITIVE:accession:CCMSLIB00012346063
SCANS=39144
41.038673	0.462
43.017933	0.29
43.759884	0.126
50.015163	0.195
50.767811	0.179
51.022964	4.755
53.002274	0.318
53.038609	2.204
55.017879	0.859
55.054249	6.324
65.038574	14.395
65.040604	0.17
67.017815	0.615
69.033485	0.338
77.038574	16.177
77.041176	0.185
79.054214	21.021
79.056313	0.436
81.033424	0.633
83.049126	10.733
89.038551	0.14
91.05423	4.49
93.033516	2.807
95.049133	18.021999
95.052734	0.187
102.04644	0.252
103.054245	1.949
105.033501	0.263
105.044746	2.861
105.070007	0.157
107.049149	19.386999
107.052773	0.266
107.08564	0.419
109.028442	1.377
111.044075	1.695
115.054283	2.055
116.062035	0.317
119.049301	0.144
119.08567	0.14
121.028427	24.768999
121.031097	0.235
121.033524	0.186
121.039566	1.464
127.039024	0.118
128.062088	1.015
129.069885	0.376
131.049271	0.358
132.057053	0.183
135.080383	0.698
139.039124	0.222
141.070068	0.22
144.057114	0.171
145.064911	0.185
147.044174	0.387
147.080521	0.229
163.039001	0.166
175.027725	0.138
175.030258	0.335
175.039185	54.129002
175.046036	0.115
175.048187	0.469
203.025742	0.32
203.055847	0.176
203.059265	0.602
203.061508	0.388
203.070511	100.0
203.079117	0.479
203.081833	0.674
203.084854	0.294
203.115128	0.285
281.11792	3.477
END IONS

BEGIN IONS
PEPMASS=227.998
CHARGE=1
MSLEVEL=2
SOURCE_INSTRUMENT=ESI-Orbitrap
FILENAME=gnps_msn_lib_pos.mgf
SEQ=*..*
IONMODE=Positive
ORGANISM=MSNLIB-POSITIVE
NAME=Chlorquinaldol [M+H]+
PI=Tomas Pluskal
DATACOLLECTOR=Corinna Brungs
SMILES=Cc1nc2c(cc1)c(Cl)cc(Cl)c2O
INCHI=InChI=1S/C10H7Cl2NO/c1-5-2-3-6-7(11)4-8(12)10(14)9(6)13-5/h2-4,14H,1H3
INCHIAUX=GPTXWRGISTZRIO-UHFFFAOYSA-N
PUBMED=N/A
SUBMITUSER=jzemlin
LIBRARYQUALITY=1
SPECTRUMID=CCMSLIB00012346605
USI=mzspec:GNPS:MSNLIB-POSITIVE:accession:CCMSLIB00012346605
SCANS=39412
41.258625	0.196
48.257366	0.19
50.015156	7.787
51.022984	8.92
52.030807	2.27
53.038635	0.719
55.05431	0.302
61.010571	0.619
61.979198	0.215
62.015156	0.277
62.018368	1.029
63.022942	1.827
66.046402	0.531
72.983948	0.434
74.015091	4.837
75.022934	12.418
76.018181	0.591
76.030746	8.696
77.038574	8.06
78.033836	2.657
78.046394	5.004
79.041634	1.825
87.022911	0.348
89.038582	2.697
91.054214	1.893
95.049149	9.197
96.044395	2.958
96.983917	0.326
101.038605	2.094
102.033875	0.757
102.04641	33.942001
102.049599	0.316
103.041656	3.043
103.05423	18.362
104.049438	0.665
105.044746	1.43
111.994835	0.202
113.015564	0.31
114.033875	1.567
115.041702	0.302
119.049164	3.244
120.044441	0.543
120.940704	0.312
122.999634	0.665
124.007591	0.365
125.002762	0.599
127.041626	0.384
128.046722	0.252
128.0495	25.377001
129.044815	2.955
129.057312	39.240002
129.059448	0.438
130.005478	0.201
130.040024	0.583
130.06517	32.396
130.06752	0.273
130.070831	0.263
137.015305	3.604
138.010544	0.414
140.026062	0.531
140.0495	0.493
146.06012	1.412
148.075729	2.525
149.002823	0.993
150.01062	1.858
150.951263	0.405
157.052322	0.37
158.06015	2.929
162.951096	0.576
163.018478	0.419
164.018143	0.409
164.026276	63.714001
164.03038	0.211
164.034286	0.466
165.017822	0.412
165.025864	0.429
165.034119	83.237
165.042313	0.462
165.050308	0.379
167.013382	0.433
168.021423	0.21
174.010727	0.568
175.018417	0.691
175.063324	0.4
179.013412	3.938
180.021255	0.94
182.03717	0.586
182.976028	0.351
183.97171	0.793
192.021225	3.056
192.962189	0.625
193.029053	89.667999
193.039413	0.584
198.995255	0.841
212.974701	0.885
226.990479	0.915
227.998108	100.0
228.024536	0.37
228.050949	0.729
END IONS

BEGIN IONS
PEPMASS=311.158
CHARGE=1
MSLEVEL=2
SOURCE_INSTRUMENT=ESI-Orbitrap
FILENAME=gnps_msn_lib_pos.mgf
SEQ=*..*
IONMODE=Positive
ORGANISM=MSNLIB-POSITIVE
NAME=Pecazine [M+H]+
PI=Tomas Pluskal
DATACOLLECTOR=Corinna Brungs
SMILES=CN1CCCC(CN2c3ccccc3Sc3ccccc32)C1
INCHI=InChI=1S/C19H22N2S/c1-20-12-6-7-15(13-20)14-21-16-8-2-4-10-18(16)22-19-11-5-3-9-17(19)21/h2-5,8-11,15H,6-7,12-14H2,1H3
INCHIAUX=CBHCDHNUZWWAPP-UHFFFAOYSA-N
PUBMED=N/A
SUBMITUSER=jzemlin
LIBRARYQUALITY=1
SPECTRUMID=CCMSLIB00012347199
USI=mzspec:GNPS:MSNLIB-POSITIVE:accession:CCMSLIB00012347199
SCANS=39704
41.038654	5.05
42.033901	6.792
43.041721	0.499
44.049549	4.932
51.023018	0.088
53.038605	0.41
55.054256	8.352
56.049503	0.918
57.057335	1.289
58.065128	53.779999
58.067654	0.231
63.022881	0.109
65.038567	0.195
67.041641	0.187
67.054207	0.248
68.049454	1.25
69.057297	0.146
69.069847	3.579
70.065086	7.869
71.072861	0.143
74.015076	0.124
74.930916	0.244
76.927818	0.404
77.038574	0.277
79.054199	0.326
80.049461	0.122
81.057289	0.13
81.069855	0.521
82.065102	3.278
83.072929	2.608
83.085503	0.332
84.080734	6.727
95.049133	0.224
96.080757	0.962
97.088593	0.754
98.014969	0.11
98.096413	2.916
109.010651	0.473
110.096352	0.307
112.103592	0.104
112.106804	0.266
112.109512	0.198
112.112015	100.0
112.11412	1.191
112.116455	1.036
112.119858	0.666
112.125755	0.545
112.129951	0.379
113.119644	1.587
115.054153	0.11
121.010612	0.204
122.015007	0.1
126.046349	0.146
127.054359	0.103
136.021606	0.151
139.054291	0.174
140.049576	0.166
141.069931	0.152
145.064804	0.333
146.006271	0.085
150.046448	0.356
151.054276	1.04
152.062057	9.82
153.057312	0.786
153.06987	2.398
155.060425	0.284
163.054337	0.467
164.04953	0.2
165.069977	0.186
167.073227	0.526
168.080887	0.269
169.064911	1.713
170.060165	0.246
171.026413	0.422
172.034439	0.097
172.952332	0.405
176.062164	0.162
177.057449	0.416
178.065308	2.37
179.060562	0.396
179.07312	6.183
180.062378	0.248
180.067551	0.244
180.071533	0.138
180.080948	22.51
180.090195	0.136
180.099258	0.211
184.034241	0.71
185.042053	0.28
186.046494	0.114
187.054398	0.299
188.049637	0.222
188.06221	0.121
189.057159	0.125
189.069962	0.342
190.065186	0.619
191.072937	0.608
195.02655	0.27
196.02182	0.104
196.075714	0.348
199.045212	1.919
203.073166	0.415
204.080963	3.885
205.088608	0.202
208.034393	0.227
210.037567	0.169
211.045242	0.139
212.041122	0.184
212.053131	20.462999
212.064972	0.106
214.065582	0.127
214.069397	0.238
216.081085	0.471
217.088898	0.57
218.096802	0.411
222.037476	1.432
223.045334	2.825
224.053131	2.05
225.060959	0.117
235.045395	0.483
236.053116	9.429
237.060944	8.004
238.068771	1.185
248.143707	0.219
250.068741	0.586
251.076492	0.487
280.115784	11.353
311.157928	20.23
END IONS

BEGIN IONS
PEPMASS=292.227
CHARGE=1
MSLEVEL=2
SOURCE_INSTRUMENT=ESI-Orbitrap
FILENAME=gnps_msn_lib_pos.mgf
SEQ=*..*
IONMODE=Positive
ORGANISM=MSNLIB-POSITIVE
NAME=(+)-Penbutolol [M+H]+
PI=Tomas Pluskal
DATACOLLECTOR=Corinna Brungs
SMILES=CC(C)(C)NC[C@@H](O)COc1ccccc1C1CCCC1
INCHI=InChI=1S/C18H29NO2/c1-18(2,3)19-12-15(20)13-21-17-11-7-6-10-16(17)14-8-4-5-9-14/h6-7,10-11,14-15,19-20H,4-5,8-9,12-13H2,1-3H3/t15-/m1/s1
INCHIAUX=KQXKVJAGOJTNJS-OAHLLOKOSA-N
PUBMED=N/A
SUBMITUSER=jzemlin
LIBRARYQUALITY=1
SPECTRUMID=CCMSLIB00012351304
USI=mzspec:GNPS:MSNLIB-POSITIVE:accession:CCMSLIB00012351304
SCANS=41725
41.038601	1.925
44.049435	0.764
51.022984	2.512
53.038639	0.548
55.017864	0.336
56.049412	25.582001
56.054325	0.535
57.033501	0.389
57.069778	16.552
57.072987	0.379
58.065056	1.544
61.010567	0.837
62.018322	0.391
63.022961	0.23
65.038544	0.424
67.054123	2.086
69.069794	6.376
74.059952	29.332001
74.064629	0.612
74.067154	0.517
77.038574	4.772
79.054199	5.837
89.038597	0.243
90.947533	0.462
91.054192	3.348
93.069733	1.091
95.049133	7.853
103.05423	5.171
104.062126	0.252
105.044754	1.346
105.06987	17.531
107.049088	5.101
109.064697	1.203
115.054237	1.053
116.062019	0.359
117.069832	1.205
118.924629	0.478
119.04911	0.392
119.085526	2.985
121.064743	9.31
128.062103	0.669
129.069809	0.95
131.049164	0.343
131.085724	0.242
133.064819	19.308001
133.06723	0.24
133.074692	0.343
133.076843	0.363
133.948318	1.247
135.080566	1.755
139.923828	0.369
141.069931	0.379
142.077728	0.282
144.057053	0.792
145.064941	0.565
145.101334	0.216
147.080536	1.308
150.091537	2.392
151.075439	0.478
151.959	1.292
152.061996	0.204
155.060379	0.207
157.065002	0.214
157.101227	0.543
159.080597	2.737
160.088333	0.31
168.102112	16.750999
172.088425	0.324
172.914017	0.957
173.096649	0.367
175.112091	1.748
189.127655	1.972
190.924744	0.969
201.105743	0.376
201.127716	21.483999
213.915405	1.385
218.154419	0.422
236.108566	0.638
236.12175	0.623
236.143967	1.229
236.165039	100.0
236.178848	0.32
292.197174	0.379
292.228363	32.331001
END IONS

BEGIN IONS
PEPMASS=586.293
CHARGE=1
MSLEVEL=2
SOURCE_INSTRUMENT=ESI-Orbitrap
FILENAME=gnps_msn_lib_pos.mgf
SEQ=*..*
IONMODE=Positive
ORGANISM=MSNLIB-POSITIVE
NAME=amikacin [M+H]+
PI=Tomas Pluskal
DATACOLLECTOR=Corinna Brungs
SMILES=NCC[C@H](O)C(=O)N[C@@H]1C[C@H](N)[C@@H](O[C@H]2O[C@H](CN)[C@@H](O)[C@H](O)[C@H]2O)[C@H](O)[C@H]1O[C@H]1O[C@H](CO)[C@@H](O)[C@H](N)[C@H]1O
INCHI=InChI=1S/C22H43N5O13/c23-2-1-8(29)20(36)27-7-3-6(25)18(39-22-16(34)15(33)13(31)9(4-24)37-22)17(35)19(7)40-21-14(32)11(26)12(30)10(5-28)38-21/h6-19,21-22,28-35H,1-5,23-26H2,(H,27,36)/t6-,7+,8-,9+,10+,11-,12+,13+,14+,15-,16+,17-,18+,19-,21+,22+/m0/s1
INCHIAUX=LKCWBDHBTVXHDL-RMDFUYIESA-N
PUBMED=N/A
SUBMITUSER=jzemlin
LIBRARYQUALITY=1
SPECTRUMID=CCMSLIB00012360849
USI=mzspec:GNPS:MSNLIB-POSITIVE:accession:CCMSLIB00012360849
SCANS=46474
41.038662	3.053
42.033905	2.306
44.049557	1.57
45.033524	0.873
53.038609	0.845
55.054253	2.243
56.0495	8.779
57.033512	9.664
57.044785	0.785
59.049202	0.843
60.044392	9.308
65.038559	3.206
67.041626	3.08
67.054214	0.994
68.049438	26.952
69.033463	5.31
72.044365	1.721
73.028389	0.921
74.060081	0.8
80.049454	2.928
82.065094	9.015
83.049156	2.346
84.044365	26.142
85.028381	11.701
86.060013	1.185
92.049469	2.537
95.060356	1.119
98.060028	0.659
101.070839	0.865
102.054901	25.132
109.076027	2.067
110.060028	7.581
111.043991	0.859
115.038925	2.187
128.070587	3.825
143.081604	0.689
144.065475	4.442
145.097153	18.804001
146.081192	3.649
162.076187	7.992
163.107834	100.0
173.092178	9.209
187.107758	1.494
204.087143	1.941
205.118942	4.641
229.118637	1.037
246.145096	4.825
247.129059	10.479
264.156036	30.934999
306.166321	2.95
324.177673	2.083
425.226105	2.85
END IONS

BEGIN IONS
PEPMASS=180.059
CHARGE=1
MSLEVEL=2
SOURCE_INSTRUMENT=ESI-Orbitrap
FILENAME=gnps_msn_lib_pos_second_batch.mgf
SEQ=*..*
IONMODE=Positive
ORGANISM=MSNLIB-POSITIVE
NAME=Besthorn's hydrazone [M+H]+
PI=Tomas Pluskal
DATACOLLECTOR=Corinna Brungs
SMILES=Cn1/c(=N/N)sc2ccccc21
INCHI=InChI=1S/C8H9N3S/c1-11-6-4-2-3-5-7(6)12-8(11)10-9/h2-5H,9H2,1H3/b10-8-
INCHIAUX=PHOLIFLKGONSGY-NTMALXAHSA-N
PUBMED=N/A
SUBMITUSER=jzemlin
LIBRARYQUALITY=1
SPECTRUMID=CCMSLIB00012873798
USI=mzspec:GNPS:MSNLIB-POSITIVE:accession:CCMSLIB00012873798
SCANS=73216
41.010223	0.199
44.979374	0.198
45.015629	0.189
50.013924	0.369
51.022945	1.87
52.030762	0.355
53.038582	0.444
55.029064	0.202
59.990227	0.636
60.998051	2.116
65.002304	0.763
65.038544	16.712999
66.008644	0.216
66.04187	0.176
66.046349	0.208
67.016556	0.08
68.979317	2.294
69.987061	0.112
71.005142	0.357
75.022934	0.346
76.030792	0.111
77.038551	2.247
78.046349	5.735
80.010597	0.206
80.0494	6.69
80.051498	0.135
81.033417	0.397
81.987167	0.113
82.994972	0.149
85.058807	0.228
90.038872	0.107
91.041672	0.2
92.049446	0.4
93.057281	0.379
93.997665	0.158
94.064934	0.181
95.004639	1.341
95.020424	0.276
95.049149	4.633
96.002785	0.243
96.011642	1.536
96.02758	0.465
97.010674	0.298
102.033875	0.433
102.969925	0.115
103.041679	0.273
104.010025	0.523
104.025787	4.23
104.049423	6.879
104.528198	0.185
105.016975	2.675
105.032867	9.584
105.044754	0.737
105.049011	1.393
105.057289	0.563
105.517273	0.24
105.533508	0.487
108.002838	0.785
108.036118	0.219
109.010681	22.101
109.013802	0.355
111.006317	0.206
113.031158	0.293
113.550987	0.74
114.038284	1.466
114.054108	18.756001
114.063652	0.182
114.554741	1.294
116.540939	0.112
119.060349	0.682
120.002769	0.115
120.044441	0.868
120.980362	0.179
121.005798	0.123
121.008461	0.133
121.010658	16.719999
121.013611	0.24
121.076096	0.557
122.005966	0.252
122.018486	14.237
122.020866	0.118
122.023628	0.148
123.05941	0.427
124.021568	7.231
124.032051	0.179
125.562134	0.264
129.044754	1.381
129.048355	0.241
130.040039	1.164
131.060425	4.426
132.068222	1.216
135.013824	1.063
136.010178	0.081
136.013245	0.185
136.016129	0.726
136.01889	1.396
136.021606	93.490997
136.024109	1.427
136.026825	0.992
136.030533	0.697
136.034607	0.084
136.046036	0.395
137.029449	4.336
137.550247	0.426
138.053467	8.436
138.553894	0.667
146.005966	1.115
146.571487	0.584
147.013687	0.089
147.055344	0.572
147.07457	9.842
147.574875	0.652
148.021637	0.12
149.561615	0.24
150.037308	0.875
158.036407	0.088
158.582474	0.393
163.032562	19.436001
163.040405	0.098
163.048386	0.179
163.998215	0.19
164.007919	0.467
164.015381	0.44
164.027618	0.136
164.029968	0.082
164.03212	0.55
164.040375	100.0
164.048386	0.785
164.050919	0.229
164.053207	0.104
164.066467	0.304
164.072678	0.451
165.035706	0.163
173.541977	0.281
180.021194	0.359
180.059021	61.144001
180.073105	1.061
180.087631	0.4
180.096451	0.423
END IONS

BEGIN IONS
PEPMASS=533.08
CHARGE=1
MSLEVEL=2
SOURCE_INSTRUMENT=ESI-Orbitrap
FILENAME=gnps_msn_lib_pos_second_batch.mgf
SEQ=*..*
IONMODE=Positive
ORGANISM=MSNLIB-POSITIVE
NAME=SPBio_002628 [M]+
PI=Tomas Pluskal
DATACOLLECTOR=Corinna Brungs
SMILES=NC(=O)c1cc[n+](CC2=C(C(=O)O)N3C(=O)[C@@H](NC(=O)[C@@H](c4ccccc4)S(=O)(=O)O)[C@H]3SC2)cc1
INCHI=InChI=1S/C22H20N4O8S2/c23-18(27)13-6-8-25(9-7-13)10-14-11-35-21-15(20(29)26(21)16(14)22(30)31)24-19(28)17(36(32,33)34)12-4-2-1-3-5-12/h1-9,15,17,21H,10-11H2,(H4-,23,24,27,28,30,31,32,33,34)/p+1/t15-,17-,21-/m1/s1
INCHIAUX=SYLKGLMBLAAGSC-QLVMHMETSA-O
PUBMED=N/A
SUBMITUSER=jzemlin
LIBRARYQUALITY=1
SPECTRUMID=CCMSLIB00013030587
USI=mzspec:GNPS:MSNLIB-POSITIVE:accession:CCMSLIB00013030587
SCANS=98191
42.033798	1.279
44.049435	3.992
44.979324	3.581
51.022839	0.715
53.038509	8.344
56.049397	0.821
58.064968	10.82
65.038506	1.561
67.041512	0.568
70.064949	0.801
70.994896	0.804
73.010483	5.16
78.033722	1.583
79.041496	1.663
80.049324	22.829
91.053978	9.402
95.049232	1.241
95.060226	4.996
96.044273	2.101
99.091553	2.064
100.021278	10.231
101.005424	0.56
101.107231	27.156
108.067513	1.639
112.021149	2.243
117.057259	2.589
118.064735	8.538
119.048767	1.772
120.08065	1.039
123.055115	46.667999
128.016052	4.377
128.049362	2.09
128.999695	1.259
139.031906	2.823
139.054062	0.881
140.049286	0.66
141.047913	1.447
145.064682	0.887
146.059708	3.229
149.038589	1.157
150.046356	6.669
151.054062	8.413
152.061798	2.447
153.057098	1.294
153.069656	0.558
154.065018	0.717
156.011246	20.280001
161.028885	1.748
161.03833	0.846
163.054001	0.574
164.049164	0.75
166.064957	1.016
167.027267	1.443
167.072769	0.896
169.064697	11.772
169.088181	1.316
170.05986	1.278
173.547287	1.639
174.046509	4.124
174.054886	17.898001
175.041702	1.852
175.054138	1.727
176.061996	15.618
177.05719	7.391
177.069733	6.3
178.065002	13.881
179.060226	4.219
185.038071	5.493
188.049301	4.389
189.057083	1.263
190.064972	0.822
194.060165	0.65
200.052353	2.067
201.057251	0.506
202.06488	3.149
203.060226	3.581
203.072708	12.994
204.067963	4.05
204.08049	11.925
205.075714	13.249
206.071259	2.832
214.052567	1.11
215.06012	4.752
216.068024	1.779
217.063324	0.789
220.075562	0.901
228.047531	3.726
230.07103	6.46
231.078812	17.306
232.062668	0.713
232.086609	8.291
246.057938	3.779
250.096985	3.013
255.058105	2.488
256.027649	8.112
260.081329	100.0
274.053406	3.979
287.083679	1.275
331.075073	1.367
433.128998	2.565
533.231018	4.637
END IONS

BEGIN IONS
PEPMASS=127.039
CHARGE=1
MSLEVEL=2
SOURCE_INSTRUMENT=ESI-Orbitrap
FILENAME=gnps_msn_lib_pos_second_batch.mgf
SEQ=*..*
IONMODE=Positive
ORGANISM=MSNLIB-POSITIVE
NAME=MALTOL [M+H]+
PI=Tomas Pluskal
DATACOLLECTOR=Corinna Brungs
SMILES=Cc1c(O)c(=O)cco1
INCHI=InChI=1S/C6H6O3/c1-4-6(8)5(7)2-3-9-4/h2-3,8H,1H3
INCHIAUX=XPCTZQVDEJYUGT-UHFFFAOYSA-N
PUBMED=N/A
SUBMITUSER=jzemlin
LIBRARYQUALITY=1
SPECTRUMID=CCMSLIB00013032365
USI=mzspec:GNPS:MSNLIB-POSITIVE:accession:CCMSLIB00013032365
SCANS=98610
43.017807	16.749001
44.979225	3.358
46.994972	1.706
50.013813	2.595
53.038467	13.104
55.017696	3.124
62.018127	1.614
67.016464	7.192
68.015755	1.593
68.019814	2.441
68.996948	1.435
71.012688	1.278
72.937012	0.662
81.033043	1.541
85.058441	9.79
86.05748	2.698
86.06192	6.456
90.947701	1.006
109.028229	9.459
127.038498	100.0
127.048874	1.998
134.920166	0.923
END IONS

BEGIN IONS
PEPMASS=520.142
CHARGE=1
MSLEVEL=2
SOURCE_INSTRUMENT=ESI-Orbitrap
FILENAME=gnps_msn_lib_pos_second_batch.mgf
SEQ=*..*
IONMODE=Positive
ORGANISM=MSNLIB-POSITIVE
NAME=ESTRAMUSTINE PHOSPHATE [M+H]+
PI=Tomas Pluskal
DATACOLLECTOR=Corinna Brungs
SMILES=C[C@]12CC[C@@H]3c4c(cc(OC(=O)N(CCCl)CCCl)cc4)CC[C@H]3[C@@H]1CC[C@@H]2OP(=O)(O)O
INCHI=InChI=1S/C23H32Cl2NO6P/c1-23-9-8-18-17-5-3-16(31-22(27)26(12-10-24)13-11-25)14-15(17)2-4-19(18)20(23)6-7-21(23)32-33(28,29)30/h3,5,14,18-21H,2,4,6-13H2,1H3,(H2,28,29,30)/t18-,19-,20+,21+,23+/m1/s1
INCHIAUX=ADFOJJHRTBFFOF-RBRWEJTLSA-N
PUBMED=N/A
SUBMITUSER=jzemlin
LIBRARYQUALITY=1
SPECTRUMID=CCMSLIB00013033686
USI=mzspec:GNPS:MSNLIB-POSITIVE:accession:CCMSLIB00013033686
SCANS=98908
41.038544	0.963
55.054134	1.591
62.99939	100.0
67.054062	1.913
70.028526	3.367
77.038406	2.66
79.054047	5.06
81.069687	2.171
91.054047	2.234
93.069695	4.578
95.048965	2.861
107.08532	3.158
128.052567	3.49
135.116714	14.285
147.116745	3.427
167.997894	48.599998
174.058426	2.302
300.05658	5.053
314.071442	2.123
326.07193	4.715
389.085114	3.127
422.166748	8.727
END IONS

BEGIN IONS
PEPMASS=332.087
CHARGE=1
MSLEVEL=2
SOURCE_INSTRUMENT=ESI-Orbitrap
FILENAME=gnps_msn_lib_pos_second_batch.mgf
SEQ=*..*
IONMODE=Positive
ORGANISM=MSNLIB-POSITIVE
NAME=zotepine [M+H]+
PI=Tomas Pluskal
DATACOLLECTOR=Corinna Brungs
SMILES=CN(C)CCOC1=Cc2ccccc2Sc2c1cc(Cl)cc2
INCHI=InChI=1S/C18H18ClNOS/c1-20(2)9-10-21-16-11-13-5-3-4-6-17(13)22-18-8-7-14(19)12-15(16)18/h3-8,11-12H,9-10H2,1-2H3
INCHIAUX=HDOZVRUNCMBHFH-UHFFFAOYSA-N
PUBMED=N/A
SUBMITUSER=jzemlin
LIBRARYQUALITY=1
SPECTRUMID=CCMSLIB00013051457
USI=mzspec:GNPS:MSNLIB-POSITIVE:accession:CCMSLIB00013051457
SCANS=103044
42.03376	3.062
42.035858	0.096
44.049377	6.812
44.051643	0.218
45.057186	0.088
56.049305	1.459
57.057114	2.072
70.064888	6.767
70.069298	0.137
70.071571	0.134
71.072678	0.155
72.071526	0.292
72.075615	0.489
72.080467	100.0
72.085022	2.543
72.087463	1.924
72.089699	1.0
72.092522	0.47
72.0952	0.212
72.097885	0.121
72.100609	0.095
95.060349	0.216
121.039993	0.121
136.075577	0.171
137.078903	0.091
137.083435	0.14
138.086716	0.07
166.122345	0.137
167.125763	0.148
173.545258	0.18
332.087097	2.821
END IONS

BEGIN IONS
PEPMASS=495.158
CHARGE=1
MSLEVEL=2
SOURCE_INSTRUMENT=ESI-Orbitrap
FILENAME=gnps_msn_lib_pos_second_batch.mgf
SEQ=*..*
IONMODE=Positive
ORGANISM=MSNLIB-POSITIVE
NAME=Carindacillin [M+H]+
PI=Tomas Pluskal
DATACOLLECTOR=Corinna Brungs
SMILES=CC1(C)S[C@@H]2[C@H](NC(=O)C(C(=O)Oc3cc4c(cc3)CCC4)c3ccccc3)C(=O)N2[C@H]1C(=O)O
INCHI=InChI=1S/C26H26N2O6S/c1-26(2)20(24(31)32)28-22(30)19(23(28)35-26)27-21(29)18(15-7-4-3-5-8-15)25(33)34-17-12-11-14-9-6-10-16(14)13-17/h3-5,7-8,11-13,18-20,23H,6,9-10H2,1-2H3,(H,27,29)(H,31,32)/t18?,19-,20+,23-/m1/s1
INCHIAUX=JIRBAUWICKGBFE-MNRDOXJOSA-N
PUBMED=N/A
SUBMITUSER=jzemlin
LIBRARYQUALITY=1
SPECTRUMID=CCMSLIB00013059323
USI=mzspec:GNPS:MSNLIB-POSITIVE:accession:CCMSLIB00013059323
SCANS=104921
41.038567	1.029
42.033817	0.563
43.017818	1.733
43.054214	1.219
44.979305	6.722
46.994953	4.688
50.015022	0.54
51.022865	3.165
52.018127	0.461
53.038486	8.047
54.033665	5.168
55.054115	1.831
57.987076	4.161
58.982319	0.627
58.9949	34.967999
59.049007	0.947
63.022739	0.586
65.038445	3.77
67.041481	0.802
67.054146	0.961
69.044434	0.953
70.064934	6.291
74.005692	1.27
75.022797	5.19
75.026253	0.799
76.030571	0.641
77.038429	4.742
78.04628	0.758
79.05407	1.338
80.04937	4.198
82.064911	2.455
84.997963	1.147
85.010475	0.74
86.005692	5.274
87.026108	16.722
89.038422	2.594
90.046272	0.94
91.054062	23.841
94.065033	14.207
95.049019	4.381
95.07283	10.256
96.044228	0.551
98.023438	2.328
98.059868	0.44
99.025948	1.412
100.039131	14.748
101.038506	1.231
101.041779	0.935
102.037041	3.312
102.046265	3.326
103.041595	0.448
103.05407	19.287001
104.049324	0.878
105.033424	1.598
105.044594	0.793
105.06971	1.799
107.048752	1.726
111.026054	2.659
112.0214	12.217
113.029259	15.278
114.000732	0.859
114.027931	0.892
114.033699	0.433
114.037033	38.620998
115.021179	2.303
115.041489	1.675
115.0541	2.733
116.049324	2.88
117.057137	5.331
117.069672	0.701
118.064941	16.273001
119.048981	3.494
126.037071	4.03
128.049423	7.854
128.052673	67.396004
128.056992	0.7
128.06189	0.884
129.044586	1.66
129.057159	3.86
129.069656	0.559
130.064987	18.083
133.052017	0.47
134.059891	0.418
135.080276	5.398
142.031906	1.436
143.060394	1.603
144.028824	1.111
145.028366	3.292
145.076126	1.421
146.060165	8.682
146.063126	0.711
148.021561	1.269
150.046173	0.575
152.06189	0.958
154.031845	1.669
155.060242	5.957
156.044312	4.186
156.068024	22.257999
157.060684	0.997
157.068283	0.768
157.075882	100.0
158.060013	0.78
159.09166	0.453
160.0215	0.81
160.042526	37.469002
161.059586	5.784
162.037109	1.399
163.054108	0.997
165.069763	2.464
167.07283	0.512
167.085464	1.776
168.068115	0.589
169.075974	3.563
171.092041	1.298
172.042633	2.627
173.029251	1.429
173.059464	1.173
173.543762	3.088
173.548401	1.036
174.037125	4.756
174.055283	34.719002
174.058228	2.525
175.06282	1.536
176.061966	1.375
178.077515	1.873
183.055405	4.265
185.070709	2.279
187.032486	5.396
188.040222	3.308
189.04805	6.752
192.047043	0.925
195.117371	1.432
197.071121	0.897
200.037247	3.142
200.058426	1.631
201.065811	10.528
202.049713	8.874
207.116852	0.936
213.066544	1.198
214.073639	2.276
223.111588	4.087
233.03804	1.748
235.11084	1.396
241.078568	0.994
243.095078	2.732
246.127762	1.364
262.122314	1.517
263.106201	0.899
279.100952	1.915
287.084778	7.367
289.100281	1.474
290.116669	2.321
315.078064	1.672
319.143616	2.892
333.089996	14.19
336.122986	9.525
361.084991	4.567
495.158508	37.154999
END IONS

BEGIN IONS
PEPMASS=528.139
CHARGE=1
MSLEVEL=2
SOURCE_INSTRUMENT=ESI-Orbitrap
FILENAME=gnps_msn_lib_pos_second_batch.mgf
SEQ=*..*
IONMODE=Positive
ORGANISM=MSNLIB-POSITIVE
NAME=cefuroxime axetil [M+NH4]+
PI=Tomas Pluskal
DATACOLLECTOR=Corinna Brungs
SMILES=CO/N=C(\C(=O)N[C@@H]1C(=O)N2C(C(=O)OC(C)OC(C)=O)=C(COC(N)=O)CS[C@H]12)c1ccco1
INCHI=InChI=1S/C20H22N4O10S/c1-9(25)33-10(2)34-19(28)15-11(7-32-20(21)29)8-35-18-14(17(27)24(15)18)22-16(26)13(23-30-3)12-5-4-6-31-12/h4-6,10,14,18H,7-8H2,1-3H3,(H2,21,29)(H,22,26)/b23-13-/t10?,14-,18-/m1/s1
INCHIAUX=KEJCWVGMRLCZQQ-YJBYXUATSA-N
PUBMED=N/A
SUBMITUSER=jzemlin
LIBRARYQUALITY=1
SPECTRUMID=CCMSLIB00013060223
USI=mzspec:GNPS:MSNLIB-POSITIVE:accession:CCMSLIB00013060223
SCANS=105141
40.45005	2.438
41.038544	1.254
44.979298	2.317
45.033443	4.734
53.038467	1.994
55.017784	1.473
56.012905	8.46
56.049358	2.788
58.994904	1.496
66.033684	7.03
67.041496	2.038
68.025421	3.163
68.049232	6.163
70.994904	1.517
72.99794	2.94
73.010475	1.787
78.033585	10.571
79.04155	1.265
80.049171	5.245
81.008095	4.147
84.007835	2.071
84.044258	2.222
85.010399	4.687
85.969398	1.263
89.005371	1.893
93.020699	39.320999
93.044563	3.225
94.028496	60.639
95.060043	5.547
96.044067	9.337
97.010452	8.463
97.039398	1.498
98.005768	2.68
98.977158	4.511
99.984924	1.45
100.021233	6.878
105.044418	14.617
106.028427	7.094
106.052353	2.463
107.060242	1.309
109.015549	22.530001
110.005585	15.257
112.021111	8.576
112.038971	8.231
119.023888	1.465
120.031441	3.098
121.039291	15.224
122.005569	7.709
122.023499	4.69
123.055168	2.938
124.021255	10.471
124.038986	19.921
126.000702	2.351
128.016022	3.752
137.016464	26.572001
138.000549	1.567
139.032135	11.117
140.016098	7.732
140.034073	3.733
140.039978	1.203
147.018723	4.01
149.034332	11.215
150.041855	7.067
151.04985	10.433
152.034027	2.84
155.026886	1.351
156.010941	9.98
158.026917	2.487
159.054932	4.291
160.05014	1.212
163.050079	1.307
165.011368	18.271
166.019363	2.554
167.027039	7.969
168.011078	4.553
170.026978	2.527
170.044678	2.769
173.542557	10.857
177.029312	35.693001
179.044937	19.216999
180.052872	5.136
181.060654	5.634
183.021896	4.692
193.006058	3.269
194.01442	1.453
200.037048	1.241
209.055527	100.0
211.016937	7.904
244.01712	1.501
251.065811	3.509
253.026871	3.506
259.0401	1.239
261.056641	2.692
290.058807	1.518
292.075165	5.366
318.05426	6.921
336.064667	32.812
364.006134	2.733
364.058899	94.351997
364.113403	2.516
406.070496	6.943
END IONS

BEGIN IONS
PEPMASS=454.063
CHARGE=1
MSLEVEL=2
SOURCE_INSTRUMENT=ESI-Orbitrap
FILENAME=gnps_msn_lib_pos_second_batch.mgf
SEQ=*..*
IONMODE=Positive
ORGANISM=MSNLIB-POSITIVE
NAME=Flucloxacillin [M+H]+
PI=Tomas Pluskal
DATACOLLECTOR=Corinna Brungs
SMILES=Cc1c(C(=O)N[C@@H]2C(=O)N3[C@@H]2SC(C)(C)[C@@H]3C(=O)O)c(-c2c(F)cccc2Cl)no1
INCHI=InChI=1S/C19H17ClFN3O5S/c1-7-10(12(23-29-7)11-8(20)5-4-6-9(11)21)15(25)22-13-16(26)24-14(18(27)28)19(2,3)30-17(13)24/h4-6,13-14,17H,1-3H3,(H,22,25)(H,27,28)/t13-,14+,17-/m1/s1
INCHIAUX=UIOFUWFRIANQPC-JKIFEVAISA-N
PUBMED=N/A
SUBMITUSER=jzemlin
LIBRARYQUALITY=1
SPECTRUMID=CCMSLIB00013062330
USI=mzspec:GNPS:MSNLIB-POSITIVE:accession:CCMSLIB00013062330
SCANS=105635
43.017899	4.103
43.054298	3.266
44.979401	14.145
46.995029	6.197
53.038593	17.771
55.054211	2.015
58.994995	5.615
70.065125	16.533001
87.026306	44.370998
114.037292	100.0
142.032227	5.156
156.001114	4.165
156.996384	2.677
160.04274	84.302002
170.01712	3.397
180.001251	10.064
182.017075	26.966999
194.016678	2.317
195.996277	6.702
198.011581	4.641
240.022156	2.437
295.029724	22.809
END IONS

BEGIN IONS
PEPMASS=272.141
CHARGE=1
MSLEVEL=2
SOURCE_INSTRUMENT=ESI-Orbitrap
FILENAME=gnps_msn_lib_pos_second_batch.mgf
SEQ=*..*
IONMODE=Positive
ORGANISM=MSNLIB-POSITIVE
NAME=BUPRANOLOL [M+H]+
PI=Tomas Pluskal
DATACOLLECTOR=Corinna Brungs
SMILES=Cc1cc(OCC(O)CNC(C)(C)C)c(Cl)cc1
INCHI=InChI=1S/C14H22ClNO2/c1-10-5-6-12(15)13(7-10)18-9-11(17)8-16-14(2,3)4/h5-7,11,16-17H,8-9H2,1-4H3
INCHIAUX=HQIRNZOQPUAHHV-UHFFFAOYSA-N
PUBMED=N/A
SUBMITUSER=jzemlin
LIBRARYQUALITY=1
SPECTRUMID=CCMSLIB00013064690
USI=mzspec:GNPS:MSNLIB-POSITIVE:accession:CCMSLIB00013064690
SCANS=106217
41.038483	1.256
43.017818	0.111
44.049393	0.556
48.983955	0.135
50.015057	0.145
51.022858	0.774
53.038506	0.175
54.01902	0.099
55.017769	0.186
56.049335	30.431
56.052254	0.732
56.055634	0.288
57.033321	0.634
57.057243	0.12
57.069649	13.622
57.073032	0.314
58.065048	0.242
62.01498	0.183
63.022804	5.092
65.038445	9.534
72.983818	0.485
74.014946	0.182
74.05983	18.243
74.064117	0.19
74.93055	0.747
74.999474	0.285
75.022797	0.668
75.043541	0.286
76.030609	0.207
77.038414	0.731
78.046249	0.159
79.054062	1.114
87.022789	0.574
88.978745	0.224
89.038422	8.214
89.040779	0.097
90.04628	1.591
91.054085	19.624001
91.056641	0.33
92.061905	0.757
94.041313	0.147
95.048988	0.911
98.999466	2.685
100.075317	0.24
101.038536	0.123
101.078629	0.192
102.046272	0.655
103.054092	1.178
104.062027	0.111
105.044556	0.218
105.06971	4.407
106.077545	0.265
107.048943	0.704
108.05677	0.263
109.064613	1.397
112.007263	0.099
113.015205	0.141
114.046181	0.164
115.051437	0.091
115.05407	36.174999
115.05703	0.456
115.060188	0.133
116.061913	1.574
117.069725	11.631
117.071823	0.132
118.077576	0.994
119.048981	1.521
119.060219	0.458
120.056824	2.004
123.08033	0.49
125.015076	10.758
125.017403	0.106
126.046188	0.4
127.030724	4.01
127.054047	0.101
128.061935	0.615
129.044647	0.152
131.049042	3.299
133.064682	1.442
133.07579	0.154
134.072479	1.074
137.01503	0.369
138.023071	0.139
139.030731	0.144
141.010101	0.148
141.046417	2.495
142.017929	0.292
143.025742	0.513
145.064651	3.47
146.072433	5.029
151.030807	0.523
153.021225	0.824
153.046326	10.281
155.018173	0.112
155.02562	17.705
155.060135	0.105
163.030701	0.445
165.010132	0.148
166.01799	0.124
169.041367	5.601
170.954895	0.327
173.542725	0.47
181.031815	0.115
181.04126	20.724001
181.0448	0.329
198.067764	6.406
199.051834	0.147
216.029007	0.541
216.038895	0.394
216.066284	0.389
216.068649	0.364
216.078262	100.0
216.088181	0.144
216.090866	0.434
216.09671	1.892
216.115906	0.596
216.127213	0.809
216.141571	0.303
272.140564	32.640999
272.208771	0.186
END IONS

BEGIN IONS
PEPMASS=211.061
CHARGE=1
MSLEVEL=2
SOURCE_INSTRUMENT=ESI-Orbitrap
FILENAME=gnps_msn_lib_neg.mgf
SEQ=*..*
IONMODE=Negative
ORGANISM=MSNLIB-NEGATIVE
NAME=propyl gallate [M-H]-
PI=Tomas Pluskal
DATACOLLECTOR=Corinna Brungs
SMILES=CCCOC(=O)c1cc(O)c(O)c(O)c1
INCHI=InChI=1S/C10H12O5/c1-2-3-15-10(14)6-4-7(11)9(13)8(12)5-6/h4-5,11-13H,2-3H2,1H3
INCHIAUX=ZTHYODDOHIVTJV-UHFFFAOYSA-N
PUBMED=N/A
SUBMITUSER=jzemlin
LIBRARYQUALITY=1
SPECTRUMID=CCMSLIB00012331804
USI=mzspec:GNPS:MSNLIB-NEGATIVE:accession:CCMSLIB00012331804
SCANS=25476
41.003033	2.068
43.018711	0.108
44.997795	0.309
49.008114	0.883
51.023758	1.225
52.763798	0.098
52.766895	0.178
53.002888	0.443
55.018585	0.289
57.034107	0.516
65.003067	1.977
67.018677	0.928
68.997993	1.17
69.034317	2.446
70.005722	0.143
71.013412	0.319
72.992653	0.184
78.010818	7.931
78.012978	0.128
78.015961	0.165
78.018547	0.172
79.018723	2.488
80.026695	0.065
80.916374	1.346
81.034332	0.89
82.005615	0.966
83.013565	0.597
86.000526	0.625
87.008301	0.182
95.013626	1.4
96.02166	0.062
96.99279	0.131
97.029236	1.078
99.0084	0.19
106.00573	2.565
107.013657	0.341
108.021599	0.147
108.992966	0.074
110.000542	0.636
111.008568	4.629
111.011047	0.056
112.016563	0.055
123.008499	2.097
124.016266	41.407001
124.021194	0.219
124.025032	0.454
124.0326	0.368
124.037041	0.31
124.988258	0.115
125.015694	0.05
125.018684	0.168
125.024117	33.471001
125.028648	0.299
125.03231	0.201
125.045418	0.135
127.003288	1.572
136.975754	0.101
136.987778	2.609
139.003494	7.394
139.006317	0.132
140.011292	15.547
140.014114	0.167
140.017609	0.129
140.020645	0.115
140.0242	0.125
151.00354	0.245
154.998276	0.581
168.005936	5.059
168.023087	0.118
169.01384	10.369
169.025635	0.169
210.783081	0.583
211.012344	0.554
211.060257	100.0
211.107056	0.768
211.121353	0.264
211.133881	0.127
END IONS

BEGIN IONS
PEPMASS=286.969
CHARGE=1
MSLEVEL=2
SOURCE_INSTRUMENT=ESI-Orbitrap
FILENAME=gnps_msn_lib_neg.mgf
SEQ=*..*
IONMODE=Negative
ORGANISM=MSNLIB-NEGATIVE
NAME=1,5-NAPHTHALENEDISULFONIC ACID [M-H]-
PI=Tomas Pluskal
DATACOLLECTOR=Corinna Brungs
SMILES=O=S(=O)(O)c1cccc2c(S(=O)(=O)O)cccc12
INCHI=InChI=1S/C10H8O6S2/c11-17(12,13)9-5-1-3-7-8(9)4-2-6-10(7)18(14,15)16/h1-6H,(H,11,12,13)(H,14,15,16)
INCHIAUX=XTEGVFVZDVNBPF-UHFFFAOYSA-N
PUBMED=N/A
SUBMITUSER=jzemlin
LIBRARYQUALITY=1
SPECTRUMID=CCMSLIB00012346465
USI=mzspec:GNPS:MSNLIB-NEGATIVE:accession:CCMSLIB00012346465
SCANS=32822
41.003052	1.796
51.753456	0.159
79.9571	46.754002
79.959259	0.695
79.962303	0.479
79.964966	0.399
80.964989	0.291
114.047447	0.135
115.055145	2.754
143.046463	0.162
143.050003	47.040001
143.052856	0.581
143.055588	0.493
143.061127	0.442
206.996567	0.281
206.999786	0.638
207.002441	0.412
207.01149	100.0
207.020645	0.472
207.022919	0.627
207.057068	0.233
223.006378	2.753
286.967743	46.110001
END IONS

BEGIN IONS
PEPMASS=289.032
CHARGE=1
MSLEVEL=2
SOURCE_INSTRUMENT=ESI-Orbitrap
FILENAME=gnps_msn_lib_neg.mgf
SEQ=*..*
IONMODE=Negative
ORGANISM=MSNLIB-NEGATIVE
NAME=sultiame [M-H]-
PI=Tomas Pluskal
DATACOLLECTOR=Corinna Brungs
SMILES=NS(=O)(=O)c1ccc(N2CCCCS2(=O)=O)cc1
INCHI=InChI=1S/C10H14N2O4S2/c11-18(15,16)10-5-3-9(4-6-10)12-7-1-2-8-17(12,13)14/h3-6H,1-2,7-8H2,(H2,11,15,16)
INCHIAUX=HMHVCUVYZFYAJI-UHFFFAOYSA-N
PUBMED=N/A
SUBMITUSER=jzemlin
LIBRARYQUALITY=1
SPECTRUMID=CCMSLIB00012349101
USI=mzspec:GNPS:MSNLIB-NEGATIVE:accession:CCMSLIB00012349101
SCANS=34163
56.268166	0.209
61.970284	7.58
63.962097	6.283
77.96521	3.559
78.973068	12.567
78.97525	0.238
79.980858	17.974001
79.98304	0.225
79.98613	0.475
92.05043	2.077
93.0345	0.161
93.960091	0.663
106.05336	2.08
116.050385	0.223
117.045685	1.044
119.06131	10.049
131.037491	0.312
131.061157	0.656
132.045273	0.873
132.069046	24.541
133.053055	1.435
133.076797	0.541
155.004456	0.619
161.108185	10.56
162.0923	1.405
170.015213	1.522
174.956314	0.325
183.022995	8.908
184.030792	0.254
195.022781	1.615
196.03093	0.175
197.038437	1.257
225.056442	0.597
225.059555	0.384
225.069626	93.820999
225.079971	0.494
225.082642	0.603
289.030975	100.0
289.105438	0.59
END IONS

BEGIN IONS
PEPMASS=165.056
CHARGE=-1
MSLEVEL=2
SOURCE_INSTRUMENT=ESI-Orbitrap
FILENAME=gnps_msn_lib_neg_second_batch.mgf
SEQ=*..*
IONMODE=Negative
ORGANISM=MSNLIB-NEGATIVE
NAME=Ethylparaben [M-H]-
PI=Tomas Pluskal
DATACOLLECTOR=Corinna Brungs
SMILES=CCOC(=O)c1ccc(O)cc1
INCHI=InChI=1S/C9H10O3/c1-2-12-9(11)7-3-5-8(10)6-4-7/h3-6,10H,2H2,1H3
INCHIAUX=NUVBSKCKDOMJSU-UHFFFAOYSA-N
PUBMED=N/A
SUBMITUSER=jzemlin
LIBRARYQUALITY=1
SPECTRUMID=CCMSLIB00012855429
USI=mzspec:GNPS:MSNLIB-NEGATIVE:accession:CCMSLIB00012855429
SCANS=62258
41.003033	1.849
65.039398	8.007
75.023758	1.235
79.957092	5.677
92.026421	45.049
92.029091	0.857
93.034286	100.0
93.037041	1.696
95.013306	3.436
96.95977	12.724
108.021111	4.188
108.937195	1.292
136.015961	14.19
136.931931	1.888
137.023865	34.173
164.835693	6.386
165.05513	56.842999
END IONS

BEGIN IONS
PEPMASS=108.081
CHARGE=1
MSLEVEL=2
SOURCE_INSTRUMENT=ESI-Orbitrap
FILENAME=federicopg/WFSR/ECRFS_DB/01_240326_mixof140standardsEFSA_POS_IL1.mzML
SEQ=*..*
IONMODE=Positive
ORGANISM=ECRFS_DB
NAME=o-Toluidine M+H
PI=Federico Padilla
DATACOLLECTOR="Sjors Rasker, Wout Bergkamp"
SMILES=Cc1ccccc1N
INCHI=RNVCVTLRINQCPJ-UHFFFAOYSA-N
INCHIAUX=N/A
PUBMED=N/A
SUBMITUSER=jzemlin
LIBRARYQUALITY=1
SPECTRUMID=CCMSLIB00012728767
USI=mzspec:GNPS:ECRFS_DB:accession:CCMSLIB00012728767
SCANS=374
46.595081	8501.711914
49.609673	8235.360352
53.283195	8130.27002
53.727085	8910.791016
65.038261	76016.257812
73.884041	9342.638672
80.04911	35241.402344
91.053909	1447582.875
91.060333	25764.248047
91.063919	24622.324219
93.056992	823548.6875
93.063766	19639.242188
106.064865	18053.136719
108.044365	10789.489258
108.080498	1026509.3125
108.088264	8958.500977
108.089943	14094.496094
109.064522	93707.859375
111.903831	8340.673828
114.486954	10291.202148
END IONS

BEGIN IONS
PEPMASS=212.118
CHARGE=1
MSLEVEL=2
SOURCE_INSTRUMENT=ESI-Orbitrap
FILENAME=federicopg/WFSR/ECRFS_DB/240613_PMT_Serena_POS_IL2.mzML
SEQ=*..*
IONMODE=Positive
ORGANISM=ECRFS_DB
NAME="1,3-Diphenylguanidine" M+H
PI=Federico Padilla
DATACOLLECTOR="Sjors Rasker, Wout Bergkamp"
SMILES=c1ccc(cc1)NC(=N)Nc2ccccc2
INCHI=OWRCNXZUPFZXOS-UHFFFAOYSA-N
INCHIAUX=N/A
PUBMED=N/A
SUBMITUSER=jzemlin
LIBRARYQUALITY=1
SPECTRUMID=CCMSLIB00012728813
USI=mzspec:GNPS:ECRFS_DB:accession:CCMSLIB00012728813
SCANS=1071
40.688271	16370.820312
41.002934	12835.936523
41.175484	15799.834961
48.771484	32188.578125
48.773933	36701.632812
50.015259	51708.46875
51.01078	17191.019531
51.02317	68265.476562
52.91634	22167.787109
52.919552	15761.699219
53.027912	30736.488281
53.030853	46098.8125
57.127678	15018.3125
62.273773	18832.210938
65.03862	30899.613281
77.03434	13665.482422
77.038597	526226.0
77.043709	21153.929688
92.049171	1165089.875
93.057777	42008.414062
93.838783	25758.40625
94.064789	28054310.0
94.071579	643859.75
94.075439	539548.5625
94.078743	235828.21875
94.082832	107552.179688
94.29039	25683.583984
95.048744	743832.8125
105.044434	209463.84375
117.044052	44835.75
118.051796	39330.875
118.738663	41003.8125
119.048958	108427.476562
119.060051	40535100.0
119.06958	790990.1875
119.075157	621678.6875
119.079689	338083.28125
119.085892	164324.84375
119.091591	54966.601562
119.38298	29309.048828
154.674911	27761.681641
168.080963	51074.832031
170.095993	32416.935547
195.038666	25144.888672
195.091446	11575198.0
195.108612	111762.5625
195.1241	116936.484375
195.132874	88629.039062
212.118118	15732762.0
212.155212	181926.453125
212.16507	117538.859375
212.178635	47799.019531
213.119858	23084.802734
END IONS

BEGIN IONS
PEPMASS=332.97
CHARGE=1
MSLEVEL=2
SOURCE_INSTRUMENT=ESI-Orbitrap
FILENAME=federicopg/WFSR/ECRFS_DB/35_240606_2059-Biocides(POS)_IL6.mzML
SEQ=*..*
IONMODE=Positive
ORGANISM=ECRFS_DB
NAME=Dichlofluanid M+H
PI=Federico Padilla
DATACOLLECTOR="Sjors Rasker, Wout Bergkamp"
SMILES=CN(C)S(=O)(=O)N(c1ccccc1)SC(F)(Cl)Cl
INCHI=WURGXGVFSMYFCG-UHFFFAOYSA-N
INCHIAUX=N/A
PUBMED=N/A
SUBMITUSER=jzemlin
LIBRARYQUALITY=1
SPECTRUMID=CCMSLIB00012728818
USI=mzspec:GNPS:ECRFS_DB:accession:CCMSLIB00012728818
SCANS=3103
40.937744	8486.916992
43.550304	7512.946289
44.049366	11848.746094
51.02306	10362.770508
52.917442	16016.387695
52.919899	18916.880859
56.543869	8976.158203
70.039604	782208.5
70.046249	14811.017578
71.036758	43180.011719
71.042892	104712.289062
75.022926	16951.320312
87.204765	7634.57959
90.181068	9625.841797
91.053726	10871.046875
93.027199	10526.345703
93.464912	8736.12793
95.029243	15161.71582
96.032738	9686.297852
98.984207	12275.277344
101.038338	14595.175781
101.735649	10094.93457
103.733948	9205.262695
109.044853	22592.458984
110.017029	17694.285156
110.047791	12870.733398
115.01178	33375.125
119.049736	13536.15625
120.716354	12019.311523
121.044571	7673616.0
121.053619	99655.28125
121.060326	100607.765625
121.064713	71976.023438
121.088295	50591.394531
122.047874	4602608.5
122.057251	69466.054688
122.063782	49734.335938
122.06839	44853.792969
123.01342	2102774.25
123.023766	2101329.75
123.034416	65224.574219
123.045891	24563.466797
123.051376	83684.28125
124.027138	1037600.4375
124.03672	8953.022461
124.038795	16291.498047
124.054764	12376.092773
125.029694	11512.706055
125.986992	21271.4375
129.044495	61455.476562
130.048035	23952.091797
135.116394	18325.693359
140.991318	111370.460938
141.010483	10862.711914
141.994629	59178.253906
142.014023	12213.303711
143.00705	862862.125
143.017746	16164.37793
143.997452	15468.210938
144.010422	410836.0
154.667862	22335.486328
163.111603	17843.240234
188.980804	13104.355469
190.077545	15581.669922
191.081482	10998.34668
223.925064	11313.003906
223.949997	410451.96875
297.212463	9173.754883
332.081085	10264.999023
333.080963	42251.4375
END IONS

BEGIN IONS
PEPMASS=445.18
CHARGE=1
MSLEVEL=2
SOURCE_INSTRUMENT=ESI-Orbitrap
FILENAME=federicopg/WFSR/ECRFS_DB/35_240606_2059-Biocides(POS)_IL6.mzML
SEQ=*..*
IONMODE=Positive
ORGANISM=ECRFS_DB
NAME=Difenacoum M+H
PI=Federico Padilla
DATACOLLECTOR="Sjors Rasker, Wout Bergkamp"
SMILES=C1C(CC2=CC=CC=C2C1C3=C(C4=CC=CC=C4OC3=O)O)C5=CC=C(C=C5)C6=CC=CC=C6
INCHI=FVQITOLOYMWVFU-UHFFFAOYSA-N
INCHIAUX=N/A
PUBMED=N/A
SUBMITUSER=jzemlin
LIBRARYQUALITY=1
SPECTRUMID=CCMSLIB00012728819
USI=mzspec:GNPS:ECRFS_DB:accession:CCMSLIB00012728819
SCANS=4272
41.683357	23040.103516
42.768867	24512.960938
43.758919	27368.742188
44.770256	50337.574219
44.772545	51864.507812
44.802078	26307.271484
47.832447	24119.443359
52.918457	43275.917969
64.281227	70683.421875
64.285179	42643.261719
91.054329	767053.375
105.070015	102679.984375
107.049416	26978.451172
117.069977	588506.375
121.028778	93794.65625
129.070023	754057.8125
143.085495	44534.777344
154.674149	58327.507812
160.194824	24599.806641
163.023651	54511.785156
163.039169	1227748.875
163.052902	38624.433594
165.070114	1734176.25
167.085709	913174.875
171.080734	256252.890625
175.039215	8478012.0
178.078842	183396.09375
178.497528	28648.904297
179.028259	36754.394531
179.048904	148018.046875
179.05603	105538.773438
179.085739	23274160.0
179.114975	137639.78125
179.122849	186223.5
180.0896	45596.195312
187.039413	189684.859375
189.054932	4775248.0
193.101166	55896.042969
205.101471	96759.453125
251.071884	38825.261719
255.709137	28366.722656
256.124512	40889.324219
257.069031	150042.484375
257.132874	25873796.0
257.18222	143906.71875
257.196869	180491.890625
258.136932	98446.507812
271.147919	93450.96875
273.091858	101932.046875
283.148254	144847.125
291.102112	3234201.25
341.117676	226092.4375
353.117859	67186.734375
445.180573	335466.53125
END IONS

BEGIN IONS
PEPMASS=372.943
CHARGE=1
MSLEVEL=2
SOURCE_INSTRUMENT=ESI-Orbitrap
FILENAME=federicopg/WFSR/ECRFS_DB/04_240506_LC-1-C_POS_IL1.mzML
SEQ=*..*
IONMODE=Positive
ORGANISM=ECRFS_DB
NAME=Profenofos M+H
PI=Federico Padilla
DATACOLLECTOR="Sjors Rasker, Wout Bergkamp"
SMILES=CCCSP(=O)(OCC)Oc1ccc(cc1Cl)Br
INCHI=QYMMJNLHFKGANY-UHFFFAOYSA-N
INCHIAUX=N/A
PUBMED=N/A
SUBMITUSER=jzemlin
LIBRARYQUALITY=1
SPECTRUMID=CCMSLIB00012728844
USI=mzspec:GNPS:ECRFS_DB:accession:CCMSLIB00012728844
SCANS=4109
41.038422	14832.352539
42.001163	8403.269531
43.053997	40227.269531
50.928314	8695.330078
52.91943	9711.455078
54.275074	10102.657227
58.810089	12611.488281
64.681335	10059.896484
80.512215	8595.356445
96.950554	42274.15625
101.059402	13064.017578
103.573944	8297.005859
111.043518	26050.808594
114.952225	17726.232422
114.960945	425703.875
128.002167	75696.578125
129.054367	23284.951172
141.017349	8318.176758
143.96759	12055.362305
143.979141	180098.8125
149.027252	8082.253418
154.669983	23930.251953
186.938828	22144.804688
187.968857	156487.21875
187.986038	17885.509766
188.97496	9667.845703
205.934967	25635.175781
206.920471	270911.9375
220.88208	86021.023438
222.876144	7449.839355
222.897659	225844.3125
222.938019	68866.460938
223.945358	42912.125
266.887054	28502.707031
284.854645	10972.635742
286.887177	90654.007812
302.864197	1454993.0
303.866974	79087.546875
330.897278	15522.628906
344.91156	18874.896484
END IONS

BEGIN IONS
PEPMASS=163.036
CHARGE=1
MSLEVEL=2
SOURCE_INSTRUMENT=ESI-Orbitrap
FILENAME=federicopg/WFSR/ECRFS_DB/19_240506_LC-2_POS_IL2.mzML
SEQ=*..*
IONMODE=Positive
ORGANISM=ECRFS_DB
NAME=Dazomet M+H
PI=Federico Padilla
DATACOLLECTOR="Sjors Rasker, Wout Bergkamp"
SMILES=CN1CN(C(=S)SC1)C
INCHI=QAYICIQNSGETAS-UHFFFAOYSA-N
INCHIAUX=N/A
PUBMED=N/A
SUBMITUSER=jzemlin
LIBRARYQUALITY=1
SPECTRUMID=CCMSLIB00012728846
USI=mzspec:GNPS:ECRFS_DB:accession:CCMSLIB00012728846
SCANS=787
41.848373	8479.87793
42.033634	28135.742188
42.526924	9715.348633
43.041458	8607.499023
44.04929	3158477.5
44.051441	103259.703125
44.052731	69867.1875
45.033192	10918.008789
45.052662	10116.40625
46.994789	50349.867188
53.353828	9394.897461
54.559593	9306.743164
55.934341	18224.089844
60.664078	9163.220703
61.23481	8888.719727
65.932526	8112.162598
74.005638	35450.015625
76.951172	39173.828125
77.685226	10396.240234
80.817078	9316.369141
90.036949	440844.40625
119.993408	744737.0
120.001289	11568.186523
129.075638	10948.145508
154.667343	10497.945312
END IONS

BEGIN IONS
PEPMASS=125.025
CHARGE=1
MSLEVEL=2
SOURCE_INSTRUMENT=ESI-qTof
FILENAME=QTOF_Neg_Merged_ID144.mgf
SEQ=*..*
IONMODE=Negative
ORGANISM=WINE-DB-QTOF
NAME=Pyrogallol M-H
PI=Axel_Marchal
DATACOLLECTOR=TE_MLS
SMILES=OC1=CC=CC(O)=C1O
INCHI=InChI=1S/C6H6O3/c7-4-2-1-3-5(8)6(4)9/h1-3,7-9H
INCHIAUX=N/A
PUBMED=N/A
SUBMITUSER=jzemlin
LIBRARYQUALITY=1
SPECTRUMID=CCMSLIB00013639705
USI=mzspec:GNPS:WINE-DB-QTOF:accession:CCMSLIB00013639705
SCANS=1
79.019096	326000.0
81.034897	45000.0
95.014099	40000.0
97.0298	40000.0
107.013901	15000.0
123.009399	14000.0
124.016899	150000.0
END IONS

BEGIN IONS
PEPMASS=291.17
CHARGE=1
MSLEVEL=2
SOURCE_INSTRUMENT=ESI-Orbitrap
FILENAME=output_folder/converted_library.mgf
SEQ=*..*
IONMODE=Positive
ORGANISM=WFSR-LIBRARY
NAME=Procaterol_CE15 M+H
PI=Federico Padilla-Gonzalez
DATACOLLECTOR="Sjors Rasker, Wout Bergkamp"
SMILES=CC[C@@H](NC(C)C)[C@@H](O)C1=CC=C(O)C2=C1C=CC(=O)N2
INCHI=N/A
INCHIAUX=N/A
PUBMED=N/A
SUBMITUSER=jzemlin
LIBRARYQUALITY=1
SPECTRUMID=CCMSLIB00013933831
USI=mzspec:GNPS:WFSR-LIBRARY:accession:CCMSLIB00013933831
SCANS=50
52.917	2155.199951
52.917599	4667.169922
52.918201	5944.850098
52.9189	5706.189941
52.919399	3441.070068
52.919899	2942.580078
58.064899	3127.110107
60.080601	5186.509766
70.064903	456.839996
88.0755	3392.350098
100.111801	22478.240234
130.111603	232.449997
130.122406	55332.339844
154.663101	606.159973
154.678894	452.420013
162.054794	4306.220215
174.054901	2747.169922
176.070404	3673.139893
192.065399	2124.669922
214.086304	1409.079956
216.101807	13952.519531
231.112701	49781.96875
232.096695	43799.28125
244.121002	1997.089966
273.126099	440.609985
273.159698	701648.9375
273.191986	355.059998
291.17041	92108.171875
END IONS

BEGIN IONS
PEPMASS=311.113
CHARGE=1
MSLEVEL=2
SOURCE_INSTRUMENT=ESI-Orbitrap
FILENAME=output_folder/converted_library.mgf
SEQ=*..*
IONMODE=Positive
ORGANISM=WFSR-LIBRARY
NAME=Mabuterol_CE15 M+H
PI=Federico Padilla-Gonzalez
DATACOLLECTOR="Sjors Rasker, Wout Bergkamp"
SMILES=CC(C)(C)NCC(O)C1=CC(Cl)=C(N)C(=C1)C(F)(F)F
INCHI="InChI=1S/C13H18ClF3N2O/c1-12(2,3)19-6-10(20)7-4-8(13(15,16)17)11(18)9(14)5-7/h4-5,10,19-20H,6,18H2,1-3H3"
INCHIAUX=N/A
PUBMED=N/A
SUBMITUSER=jzemlin
LIBRARYQUALITY=1
SPECTRUMID=CCMSLIB00013933880
USI=mzspec:GNPS:WFSR-LIBRARY:accession:CCMSLIB00013933880
SCANS=99
52.916	572.440002
52.917599	6833.620117
52.9184	11150.120117
52.919102	4504.470215
52.919998	3582.969971
57.069801	7441.549805
154.664001	1461.160034
154.676895	933.650024
217.033905	13735.709961
237.039993	903694.0
237.067596	1222.0
255.049698	1138.689941
293.1026	339864.5625
311.072388	583.679993
311.11319	160552.125
END IONS

BEGIN IONS
PEPMASS=279.027
CHARGE=1
MSLEVEL=2
SOURCE_INSTRUMENT=ESI-Orbitrap
FILENAME=output_folder/converted_library.mgf
SEQ=*..*
IONMODE=Positive
ORGANISM=WFSR-LIBRARY
NAME=Fenthion_CE15 M+H
PI=Federico Padilla-Gonzalez
DATACOLLECTOR="Sjors Rasker, Wout Bergkamp"
SMILES=COP(=S)(OC)OC1=CC(C)=C(SC)C=C1
INCHI="InChI=1S/C10H15O3PS2/c1-8-7-9(5-6-10(8)16-4)13-14(15,11-2)12-3/h5-7H,1-4H3"
INCHIAUX=N/A
PUBMED=N/A
SUBMITUSER=jzemlin
LIBRARYQUALITY=1
SPECTRUMID=CCMSLIB00013937748
USI=mzspec:GNPS:WFSR-LIBRARY:accession:CCMSLIB00013937748
SCANS=3967
52.916901	6356.180176
52.9175	6457.740234
52.919399	13740.200195
52.9202	6712.75
105.070099	38926.359375
127.0158	18703.779297
137.042297	22602.369141
138.050201	39162.039062
142.992798	26508.839844
169.014603	161505.671875
185.045593	9623.339844
247.002304	147321.40625
279.028809	86579.289062
279.094513	13114.860352
END IONS

BEGIN IONS
PEPMASS=263.017
CHARGE=1
MSLEVEL=2
SOURCE_INSTRUMENT=ESI-Orbitrap
FILENAME=output_folder/converted_library.mgf
SEQ=*..*
IONMODE=Positive
ORGANISM=WFSR-LIBRARY
NAME=Demeton-S-methyl-sulfone_CE15 M+H
PI=Federico Padilla-Gonzalez
DATACOLLECTOR="Sjors Rasker, Wout Bergkamp"
SMILES=CCS(=O)(=O)CCSP(=O)(OC)OC
INCHI="InChI=1S/C6H15O5PS2/c1-4-14(8,9)6-5-13-12(7,10-2)11-3/h4-6H2,1-3H3"
INCHIAUX=N/A
PUBMED=N/A
SUBMITUSER=jzemlin
LIBRARYQUALITY=1
SPECTRUMID=CCMSLIB00013937776
USI=mzspec:GNPS:WFSR-LIBRARY:accession:CCMSLIB00013937776
SCANS=3995
52.917801	8682.030273
52.918598	9808.620117
52.9193	1826.280029
52.920399	2317.030029
77.005798	2997.879883
93.000397	12457.160156
108.9776	8184.169922
109.005402	5996.140137
121.0317	823707.125
127.015404	186878.515625
128.977005	10013.269531
137.008896	50101.230469
142.992599	412990.15625
152.976898	11025.299805
154.992599	22141.070312
168.991592	2041.390015
169.008194	1766451.375
170.987503	33324.070312
184.948898	6450.350098
186.963806	2912.399902
202.959793	5907.060059
230.990799	286026.78125
263.01709	991958.3125
END IONS

BEGIN IONS
PEPMASS=274.965
CHARGE=1
MSLEVEL=2
SOURCE_INSTRUMENT=ESI-Orbitrap
FILENAME=output_folder/converted_library.mgf
SEQ=*..*
IONMODE=Positive
ORGANISM=WFSR-LIBRARY
NAME=Anilazine_CE15 M+H
PI=Federico Padilla-Gonzalez
DATACOLLECTOR="Sjors Rasker, Wout Bergkamp"
SMILES=ClC1=CC=CC=C1NC1=NC(Cl)=NC(Cl)=N1
INCHI="InChI=1S/C9H5Cl3N4/c10-5-3-1-2-4-6(5)13-9-15-7(11)14-8(12)16-9/h1-4H,(H,13,14,15,16)"
INCHIAUX=N/A
PUBMED=N/A
SUBMITUSER=jzemlin
LIBRARYQUALITY=1
SPECTRUMID=CCMSLIB00013938133
USI=mzspec:GNPS:WFSR-LIBRARY:accession:CCMSLIB00013938133
SCANS=4352
52.9174	6955.439941
52.917999	2334.139893
52.918598	4827.22998
52.9193	6488.850098
52.9198	5748.790039
153.021805	5249.310059
178.015701	2324.590088
274.96579	187057.734375
END IONS

BEGIN IONS
PEPMASS=155.074
CHARGE=1
MSLEVEL=2
SOURCE_INSTRUMENT=ESI-Orbitrap
FILENAME=output_folder/converted_library.mgf
SEQ=*..*
IONMODE=Positive
ORGANISM=WFSR-LIBRARY
NAME=Dimefox_CE15 M+H
PI=Federico Padilla-Gonzalez
DATACOLLECTOR="Sjors Rasker, Wout Bergkamp"
SMILES=CN(C)P(F)(=O)N(C)C
INCHI="InChI=1S/C4H12FN2OP/c1-6(2)9(5,8)7(3)4/h1-4H3"
INCHIAUX=N/A
PUBMED=N/A
SUBMITUSER=jzemlin
LIBRARYQUALITY=1
SPECTRUMID=CCMSLIB00013938497
USI=mzspec:GNPS:WFSR-LIBRARY:accession:CCMSLIB00013938497
SCANS=4716
42.033798	4503.330078
44.049301	165176.09375
44.051498	5145.939941
52.483501	802.900024
52.9165	1161.76001
52.9175	4736.319824
52.918701	12172.290039
52.919498	1318.969971
58.064899	2870.649902
67.065102	674.72998
95.012398	3332.469971
102.776604	866.72998
110.017097	10054.150391
111.062798	1928.089966
112.032204	4931.160156
112.497704	801.799988
126.031898	1433.579956
128.026993	1254026.0
129.029907	1206.329956
135.0681	307437.3125
135.078598	3000.290039
135.085403	645.099976
146.037796	9209.990234
153.058807	82636.953125
153.078796	93033.648438
154.590698	855.669983
154.596802	4876.75
155.074402	6314552.5
155.554596	4879.629883
155.559998	830.169983
156.077393	34579.738281
END IONS

BEGIN IONS
PEPMASS=270.149
CHARGE=1
MSLEVEL=2
SOURCE_INSTRUMENT=ESI-Orbitrap
FILENAME=output_folder/converted_library.mgf
SEQ=*..*
IONMODE=Positive
ORGANISM=WFSR-LIBRARY
NAME=Mepronil_CE15 M+H
PI=Federico Padilla-Gonzalez
DATACOLLECTOR="Sjors Rasker, Wout Bergkamp"
SMILES=CC(C)OC1=CC=CC(NC(=O)C2=C(C)C=CC=C2)=C1
INCHI="InChI=1S/C17H19NO2/c1-12(2)20-15-9-6-8-14(11-15)18-17(19)16-10-5-4-7-13(16)3/h4-12H,1-3H3,(H,18,19)"
INCHIAUX=N/A
PUBMED=N/A
SUBMITUSER=jzemlin
LIBRARYQUALITY=1
SPECTRUMID=CCMSLIB00013938551
USI=mzspec:GNPS:WFSR-LIBRARY:accession:CCMSLIB00013938551
SCANS=4770
52.916801	1527.069946
52.9174	10907.209961
52.917999	2929.199951
52.918499	1534.680054
52.919201	4700.25
52.919701	5736.939941
91.054604	3309.820068
93.069603	40390.308594
111.0438	9405.540039
119.048897	591757.25
120.052299	16937.269531
136.039093	76131.820312
178.085999	7060.069824
195.996094	1402.530029
228.101807	1149407.25
229.105103	75554.851562
253.017303	11981.69043
270.148712	206242.203125
271.1521	15691.879883
END IONS

BEGIN IONS
PEPMASS=229.074
CHARGE=1
MSLEVEL=2
SOURCE_INSTRUMENT=ESI-Orbitrap
FILENAME=output_folder/converted_library.mgf
SEQ=*..*
IONMODE=Positive
ORGANISM=WFSR-LIBRARY
NAME=Metoxuron_CE15 M+H
PI=Federico Padilla-Gonzalez
DATACOLLECTOR="Sjors Rasker, Wout Bergkamp"
SMILES=COC1=C(Cl)C=C(NC(=O)N(C)C)C=C1
INCHI="InChI=1S/C10H13ClN2O2/c1-13(2)10(14)12-7-4-5-9(15-3)8(11)6-7/h4-6H,1-3H3,(H,12,14)"
INCHIAUX=N/A
PUBMED=N/A
SUBMITUSER=jzemlin
LIBRARYQUALITY=1
SPECTRUMID=CCMSLIB00013938635
USI=mzspec:GNPS:WFSR-LIBRARY:accession:CCMSLIB00013938635
SCANS=4854
44.049301	3710.120117
46.064899	1511832.125
46.067299	71739.578125
46.068401	26059.609375
47.068298	11545.889648
52.917301	8879.830078
52.9184	16659.199219
52.919399	5081.290039
72.043999	3893172.5
73.047401	43703.019531
116.070503	3023.590088
122.059601	7383.839844
140.016403	26288.570312
149.046997	5131.660156
156.020798	93532.867188
184.015793	44661.71875
194.104706	9955.780273
229.073807	2176067.25
230.076904	85824.601562
END IONS

BEGIN IONS
PEPMASS=202.085
CHARGE=1
MSLEVEL=2
SOURCE_INSTRUMENT=ESI-Orbitrap
FILENAME=output_folder/converted_library.mgf
SEQ=*..*
IONMODE=Positive
ORGANISM=WFSR-LIBRARY
NAME=Simazine_CE15 M+H
PI=Federico Padilla-Gonzalez
DATACOLLECTOR="Sjors Rasker, Wout Bergkamp"
SMILES=CCNC1=NC(NCC)=NC(Cl)=N1
INCHI="InChI=1S/C7H12ClN5/c1-3-9-6-11-5(8)12-7(13-6)10-4-2/h3-4H2,1-2H3,(H2,9,10,11,12,13)"
INCHIAUX=N/A
PUBMED=N/A
SUBMITUSER=jzemlin
LIBRARYQUALITY=1
SPECTRUMID=CCMSLIB00013938684
USI=mzspec:GNPS:WFSR-LIBRARY:accession:CCMSLIB00013938684
SCANS=4903
42.834301	588.109985
43.029202	2757.51001
50.233799	552.640015
52.916698	772.780029
52.917301	9333.830078
52.917702	708.909973
52.918499	7346.589844
52.919102	2662.51001
52.919701	4821.859863
55.399399	554.130005
61.979401	2016.300049
67.630798	706.590027
68.0243	14899.610352
71.060204	43195.011719
79.005501	8660.339844
85.3395	658.52002
90.0103	8263.379883
96.049103	1210.76001
96.055397	93833.171875
101.650299	653.630005
102.200302	515.02002
104.000801	68545.421875
104.4384	823.929993
107.036797	5257.620117
114.409401	609.320007
123.176498	757.570007
124.0867	765219.3125
125.090202	12526.820312
132.032196	695407.3125
132.042999	1169.180054
133.035599	6787.25
138.077606	10649.139648
146.022797	4145.669922
163.857895	749.580017
165.978195	552.02002
166.108704	102927.320312
166.124405	2035.209961
171.332901	515.909973
174.054092	203729.265625
174.071106	2821.179932
192.206299	902.539978
193.951599	517.820007
199.028503	532.669983
200.069107	522.440002
201.069107	714.299988
201.371994	3704.52002
202.077499	1149093.5
202.085007	5124298.0
202.802704	3896.040039
203.061905	591.440002
203.085007	233443.46875
END IONS

BEGIN IONS
PEPMASS=341.072
CHARGE=1
MSLEVEL=2
SOURCE_INSTRUMENT=ESI-Orbitrap
FILENAME=output_folder/converted_library.mgf
SEQ=*..*
IONMODE=Positive
ORGANISM=WFSR-LIBRARY
NAME=Pyridaphenthion_CE15 M+H
PI=Federico Padilla-Gonzalez
DATACOLLECTOR="Sjors Rasker, Wout Bergkamp"
SMILES=CCOP(=S)(OCC)OC1=NN(C(=O)C=C1)C1=CC=CC=C1
INCHI="InChI=1S/C14H17N2O4PS/c1-3-18-21(22,19-4-2)20-13-10-11-14(17)16(15-13)12-8-6-5-7-9-12/h5-11H,3-4H2,1-2H3"
INCHIAUX=N/A
PUBMED=N/A
SUBMITUSER=jzemlin
LIBRARYQUALITY=1
SPECTRUMID=CCMSLIB00013938789
USI=mzspec:GNPS:WFSR-LIBRARY:accession:CCMSLIB00013938789
SCANS=5008
52.9175	11530.30957
52.918999	13975.669922
114.961098	4052.110107
189.065796	243932.296875
190.069305	10556.089844
205.042999	86252.789062
233.0746	5542.910156
285.009705	11696.219727
313.041199	26286.730469
341.072388	91746.070312
342.074493	6957.169922
END IONS

BEGIN IONS
PEPMASS=270.126
CHARGE=1
MSLEVEL=2
SOURCE_INSTRUMENT=ESI-Orbitrap
FILENAME=output_folder/converted_library.mgf
SEQ=*..*
IONMODE=Positive
ORGANISM=WFSR-LIBRARY
NAME=Acetochlor_CE15 M+H
PI=Federico Padilla-Gonzalez
DATACOLLECTOR="Sjors Rasker, Wout Bergkamp"
SMILES=CCOCN(C(=O)CCl)C1=C(CC)C=CC=C1C
INCHI="InChI=1S/C14H20ClNO2/c1-4-12-8-6-7-11(3)14(12)16(10-18-5-2)13(17)9-15/h6-8H,4-5,9-10H2,1-3H3"
INCHIAUX=N/A
PUBMED=N/A
SUBMITUSER=jzemlin
LIBRARYQUALITY=1
SPECTRUMID=CCMSLIB00013939179
USI=mzspec:GNPS:WFSR-LIBRARY:accession:CCMSLIB00013939179
SCANS=5398
41.0383	3621.169922
52.916901	3402.580078
52.917599	9184.299805
52.918201	1018.559998
52.918999	6958.919922
52.9198	3142.399902
59.048801	295012.0625
90.010101	74036.117188
120.080704	5719.720215
131.085098	62449.078125
132.080597	6282.299805
133.088303	6327.509766
135.002594	2607.610107
146.095993	17023.130859
147.103806	7505.600098
148.111694	1158326.625
149.095703	45368.410156
149.115097	25330.669922
158.0961	6028.700195
160.111893	2520.949951
171.103302	1275.400024
188.1064	8583.019531
192.057098	7602.390137
194.072693	42334.421875
206.0728	46144.789062
210.067703	36110.589844
224.083405	1262128.375
225.086807	39293.550781
240.114899	7493.790039
270.125488	17757.349609
END IONS

BEGIN IONS
PEPMASS=298.31
CHARGE=1
MSLEVEL=2
SOURCE_INSTRUMENT=ESI-Orbitrap
FILENAME=output_folder/converted_library.mgf
SEQ=*..*
IONMODE=Positive
ORGANISM=WFSR-LIBRARY
NAME=Tridemorph_CE15 M+H
PI=Federico Padilla-Gonzalez
DATACOLLECTOR="Sjors Rasker, Wout Bergkamp"
SMILES=CCCCCCCCCCCCCN1CC(C)OC(C)C1
INCHI="InChI=1S/C19H39NO/c1-4-5-6-7-8-9-10-11-12-13-14-15-20-16-18(2)21-19(3)17-20/h18-19H,4-17H2,1-3H3"
INCHIAUX=N/A
PUBMED=N/A
SUBMITUSER=jzemlin
LIBRARYQUALITY=1
SPECTRUMID=CCMSLIB00013939361
USI=mzspec:GNPS:WFSR-LIBRARY:accession:CCMSLIB00013939361
SCANS=5580
45.033298	2710.909912
52.9175	6022.759766
52.918201	7249.910156
52.918701	4160.819824
52.919201	3101.419922
52.919899	4448.109863
57.069599	3435.449951
59.048901	1226.810059
71.085197	3057.790039
73.0644	3922.280029
85.1008	1761.619995
87.080002	1170.47998
103.074898	1607.689941
131.085098	54489.339844
132.088501	4076.169922
150.048996	1918.579956
176.106705	1376.25
197.992294	1390.98999
220.169296	1949.219971
239.237	2956.060059
240.003998	1638.300049
252.096405	69775.59375
253.099304	6385.100098
280.235291	3659.050049
298.138489	22052.800781
298.276611	1690.109985
298.310394	513676.5625
298.347198	2445.48999
299.14389	4465.919922
299.313385	2257.409912
END IONS

BEGIN IONS
PEPMASS=417.06
CHARGE=1
MSLEVEL=2
SOURCE_INSTRUMENT=ESI-Orbitrap
FILENAME=output_folder/converted_library.mgf
SEQ=*..*
IONMODE=Positive
ORGANISM=WFSR-LIBRARY
NAME=Flubenzimine; Cropotex_CE15 M+H
PI=Federico Padilla-Gonzalez
DATACOLLECTOR="Sjors Rasker, Wout Bergkamp"
SMILES=FC(F)(F)N=C1SC(=NC2=CC=CC=C2)N(C1=NC(F)(F)F)C1=CC=CC=C1
INCHI="InChI=1S/C17H10F6N4S/c18-16(19,20)25-13-14(26-17(21,22)23)28-15(24-11-7-3-1-4-8-11)27(13)12-9-5-2-6-10-12/h1-10H"
INCHIAUX=N/A
PUBMED=N/A
SUBMITUSER=jzemlin
LIBRARYQUALITY=1
SPECTRUMID=CCMSLIB00013939382
USI=mzspec:GNPS:WFSR-LIBRARY:accession:CCMSLIB00013939382
SCANS=5601
52.917301	11557.509766
52.9184	8131.859863
52.919701	10356.450195
154.677597	2743.110107
167.041107	97733.617188
187.047394	16502.789062
262.039307	15279.089844
397.054108	131526.140625
417.060303	105837.929688
418.06189	4141.189941
END IONS

BEGIN IONS
PEPMASS=240.934
CHARGE=1
MSLEVEL=2
SOURCE_INSTRUMENT=ESI-Orbitrap
FILENAME=output_folder/converted_library.mgf
SEQ=*..*
IONMODE=Positive
ORGANISM=WFSR-LIBRARY
NAME=Picloram_CE15 M+H
PI=Federico Padilla-Gonzalez
DATACOLLECTOR="Sjors Rasker, Wout Bergkamp"
SMILES=NC1=C(Cl)C(Cl)=NC(C(O)=O)=C1Cl
INCHI="InChI=1S/C6H3Cl3N2O2/c7-1-3(10)2(8)5(9)11-4(1)6(12)13/h(H2,10,11)(H,12,13)"
INCHIAUX=N/A
PUBMED=N/A
SUBMITUSER=jzemlin
LIBRARYQUALITY=1
SPECTRUMID=CCMSLIB00013939494
USI=mzspec:GNPS:WFSR-LIBRARY:accession:CCMSLIB00013939494
SCANS=5713
52.9175	9405.05957
52.918301	3040.159912
52.918999	3489.560059
52.9198	6440.660156
212.938095	33030.25
240.933304	579261.125
241.1026	2969.060059
END IONS

BEGIN IONS
PEPMASS=226.087
CHARGE=1
MSLEVEL=2
SOURCE_INSTRUMENT=ESI-Orbitrap
FILENAME=output_folder/converted_library.mgf
SEQ=*..*
IONMODE=Positive
ORGANISM=WFSR-LIBRARY
NAME=Aziprotryn_CE15 M+H
PI=Federico Padilla-Gonzalez
DATACOLLECTOR="Sjors Rasker, Wout Bergkamp"
SMILES=CSC1=NC(NC(C)C)=NC(N=[N+]=[N-])=N1
INCHI="InChI=1S/C7H11N7S/c1-4(2)9-5-10-6(13-14-8)12-7(11-5)15-3/h4H,1-3H3,(H,9,10,11,12)"
INCHIAUX=N/A
PUBMED=N/A
SUBMITUSER=jzemlin
LIBRARYQUALITY=1
SPECTRUMID=CCMSLIB00013939571
USI=mzspec:GNPS:WFSR-LIBRARY:accession:CCMSLIB00013939571
SCANS=5790
52.918301	9685.25
58.0648	94842.3125
68.024002	21732.539062
83.059998	99945.6875
89.016403	23419.490234
90.976303	18662.220703
99.0009	11077.929688
114.011703	18510.919922
116.027496	12502.320312
125.081902	297793.40625
141.022598	28944.189453
150.077194	44702.140625
152.093002	9173.709961
156.0336	332017.71875
194.115097	17620.869141
198.080704	162362.3125
226.087097	157549.921875
226.179596	15416.349609
END IONS

BEGIN IONS
PEPMASS=311.033
CHARGE=1
MSLEVEL=2
SOURCE_INSTRUMENT=ESI-Orbitrap
FILENAME=output_folder/converted_library.mgf
SEQ=*..*
IONMODE=Positive
ORGANISM=WFSR-LIBRARY
NAME=Edifenphos_CE15 M+H
PI=Federico Padilla-Gonzalez
DATACOLLECTOR="Sjors Rasker, Wout Bergkamp"
SMILES=CCOP(=O)(SC1=CC=CC=C1)SC1=CC=CC=C1
INCHI="InChI=1S/C14H15O2PS2/c1-2-16-17(15,18-13-9-5-3-6-10-13)19-14-11-7-4-8-12-14/h3-12H,2H2,1H3"
INCHIAUX=N/A
PUBMED=N/A
SUBMITUSER=jzemlin
LIBRARYQUALITY=1
SPECTRUMID=CCMSLIB00013939578
USI=mzspec:GNPS:WFSR-LIBRARY:accession:CCMSLIB00013939578
SCANS=5797
52.919399	11603.969727
57.069599	14301.150391
111.025803	97633.710938
140.9823	12037.80957
172.9814	8539.200195
190.992294	97159.632812
219.023804	34491.28125
223.074997	8931.599609
237.090805	10512.519531
251.070007	41664.511719
265.086212	24575.910156
283.00119	265140.03125
311.032593	66372.6875
END IONS

BEGIN IONS
PEPMASS=292.087
CHARGE=1
MSLEVEL=2
SOURCE_INSTRUMENT=ESI-Orbitrap
FILENAME=output_folder/converted_library.mgf
SEQ=*..*
IONMODE=Positive
ORGANISM=WFSR-LIBRARY
NAME=Crufomate_CE15 M+H
PI=Federico Padilla-Gonzalez
DATACOLLECTOR="Sjors Rasker, Wout Bergkamp"
SMILES=CNP(=O)(OC)OC1=CC=C(C=C1Cl)C(C)(C)C
INCHI="InChI=1S/C12H19ClNO3P/c1-12(2,3)9-6-7-11(10(13)8-9)17-18(15,14-4)16-5/h6-8H,1-5H3,(H,14,15)"
INCHIAUX=N/A
PUBMED=N/A
SUBMITUSER=jzemlin
LIBRARYQUALITY=1
SPECTRUMID=CCMSLIB00013939669
USI=mzspec:GNPS:WFSR-LIBRARY:accession:CCMSLIB00013939669
SCANS=5888
52.917198	4228.299805
52.9179	7315.790039
52.918301	2201.110107
52.918999	6171.740234
52.919601	4513.52002
52.920101	1352.339966
57.069599	44657.890625
126.031197	56499.699219
222.007095	1315.650024
236.023697	549815.0625
236.128296	1133.780029
278.071198	7847.209961
290.861786	1691.310059
292.086304	2542177.5
292.193298	2848.879883
293.0896	12134.330078
END IONS

BEGIN IONS
PEPMASS=236.998
CHARGE=1
MSLEVEL=2
SOURCE_INSTRUMENT=ESI-Orbitrap
FILENAME=output_folder/converted_library.mgf
SEQ=*..*
IONMODE=Positive
ORGANISM=WFSR-LIBRARY
NAME=Fenpiclonil_CE15 M+H
PI=Federico Padilla-Gonzalez
DATACOLLECTOR="Sjors Rasker, Wout Bergkamp"
SMILES=ClC1=CC=CC(C2=CNC=C2C#N)=C1Cl
INCHI="InChI=1S/C11H6Cl2N2/c12-10-3-1-2-8(11(10)13)9-6-15-5-7(9)4-14/h1-3,5-6,15H"
INCHIAUX=N/A
PUBMED=N/A
SUBMITUSER=jzemlin
LIBRARYQUALITY=1
SPECTRUMID=CCMSLIB00013939676
USI=mzspec:GNPS:WFSR-LIBRARY:accession:CCMSLIB00013939676
SCANS=5895
59.048901	14358.639648
179.106201	25423.330078
202.029099	59293.359375
236.998306	523230.75
237.075897	71502.5625
237.147797	15976.639648
237.185394	16360.679688
END IONS

BEGIN IONS
PEPMASS=224.092
CHARGE=1
MSLEVEL=2
SOURCE_INSTRUMENT=ESI-Orbitrap
FILENAME=output_folder/converted_library.mgf
SEQ=*..*
IONMODE=Positive
ORGANISM=WFSR-LIBRARY
NAME=Bendiocarb_CE15 M+H
PI=Federico Padilla-Gonzalez
DATACOLLECTOR="Sjors Rasker, Wout Bergkamp"
SMILES=CNC(=O)OC1=CC=CC2=C1OC(C)(C)O2
INCHI="InChI=1S/C11H13NO4/c1-11(2)15-8-6-4-5-7(9(8)16-11)14-10(13)12-3/h4-6H,1-3H3,(H,12,13)"
INCHIAUX=N/A
PUBMED=N/A
SUBMITUSER=jzemlin
LIBRARYQUALITY=1
SPECTRUMID=CCMSLIB00013939732
USI=mzspec:GNPS:WFSR-LIBRARY:accession:CCMSLIB00013939732
SCANS=5951
52.917599	9059.870117
59.048801	360702.90625
81.033302	59648.910156
109.028198	3967005.25
127.038803	40850.980469
167.070297	4831647.0
224.092102	14881.639648
224.126694	15514.519531
END IONS

BEGIN IONS
PEPMASS=543.178
CHARGE=1
MSLEVEL=2
SOURCE_INSTRUMENT=ESI-Orbitrap
FILENAME=output_folder/converted_library.mgf
SEQ=*..*
IONMODE=Positive
ORGANISM=WFSR-LIBRARY
NAME=Flocoumafen_CE15 M+H
PI=Federico Padilla-Gonzalez
DATACOLLECTOR="Sjors Rasker, Wout Bergkamp"
SMILES=OC1=C(C2CC(CC3=CC=CC=C23)C2=CC=C(OCC3=CC=C(C=C3)C(F)(F)F)C=C2)C(=O)OC2=CC=CC=C12
INCHI="InChI=1S/C33H25F3O4/c34-33(35,36)24-13-9-20(10-14-24)19-39-25-15-11-21(12-16-25)23-17-22-5-1-2-6-26(22)28(18-23)30-31(37)27-7-3-4-8-29(27)40-32(30)38/h1-16,23,28,37H,17-19H2"
INCHIAUX=N/A
PUBMED=N/A
SUBMITUSER=jzemlin
LIBRARYQUALITY=1
SPECTRUMID=CCMSLIB00013939767
USI=mzspec:GNPS:WFSR-LIBRARY:accession:CCMSLIB00013939767
SCANS=5986
52.917	4715.830078
52.9179	14683.44043
52.919899	14339.790039
154.678207	4804.049805
163.038605	37269.769531
291.102203	13361.509766
355.130798	23951.960938
543.178284	13664.330078
END IONS

BEGIN IONS
PEPMASS=523.091
CHARGE=1
MSLEVEL=2
SOURCE_INSTRUMENT=ESI-Orbitrap
FILENAME=output_folder/converted_library.mgf
SEQ=*..*
IONMODE=Positive
ORGANISM=WFSR-LIBRARY
NAME=Brodifacoum_CE15 M+H
PI=Federico Padilla-Gonzalez
DATACOLLECTOR="Sjors Rasker, Wout Bergkamp"
SMILES=OC1=C(C2CC(CC3=CC=CC=C23)C2=CC=C(C=C2)C2=CC=C(Br)C=C2)C(=O)OC2=CC=CC=C12
INCHI="InChI=1S/C31H23BrO3/c32-24-15-13-20(14-16-24)19-9-11-21(12-10-19)23-17-22-5-1-2-6-25(22)27(18-23)29-30(33)26-7-3-4-8-28(26)35-31(29)34/h1-16,23,27,33H,17-18H2"
INCHIAUX=N/A
PUBMED=N/A
SUBMITUSER=jzemlin
LIBRARYQUALITY=1
SPECTRUMID=CCMSLIB00013939802
USI=mzspec:GNPS:WFSR-LIBRARY:accession:CCMSLIB00013939802
SCANS=6021
52.9179	22759.740234
52.919399	5642.330078
73.0644	111058.476562
145.121994	55502.828125
335.042786	8624.660156
523.086182	7824.069824
END IONS

BEGIN IONS
PEPMASS=311.258
CHARGE=1
MSLEVEL=2
SOURCE_INSTRUMENT=ESI-Orbitrap
FILENAME=output_folder/converted_library.mgf
SEQ=*..*
IONMODE=Positive
ORGANISM=WFSR-LIBRARY
NAME=Methoprene_CE15 M+H
PI=Federico Padilla-Gonzalez
DATACOLLECTOR="Sjors Rasker, Wout Bergkamp"
SMILES=COC(C)(C)CCCC(C)C\C=C\C(\C)=C\C(=O)OC(C)C
INCHI="InChI=1S/C19H34O3/c1-15(2)22-18(20)14-17(4)11-8-10-16(3)12-9-13-19(5,6)21-7/h8,11,14-16H,9-10,12-13H2,1-7H3/b11-8+,17-14+"
INCHIAUX=N/A
PUBMED=N/A
SUBMITUSER=jzemlin
LIBRARYQUALITY=1
SPECTRUMID=CCMSLIB00013939900
USI=mzspec:GNPS:WFSR-LIBRARY:accession:CCMSLIB00013939900
SCANS=6119
52.918098	9892.230469
69.069603	9474.040039
83.085098	13430.830078
95.085197	17563.869141
97.100899	15192.969727
109.100998	17505.789062
111.116501	12712.580078
121.100899	14143.209961
123.116501	13039.5
135.043793	19342.849609
135.116592	8987.040039
151.147903	7663.580078
161.095795	12645.040039
181.085495	52703.859375
182.088898	61832.558594
255.971603	10131.099609
266.963989	19124.5
311.16449	20888.060547
311.218811	8672.330078
311.256592	168566.6875
311.294708	9942.879883
END IONS

BEGIN IONS
PEPMASS=366.066
CHARGE=1
MSLEVEL=2
SOURCE_INSTRUMENT=ESI-Orbitrap
FILENAME=output_folder/converted_library.mgf
SEQ=*..*
IONMODE=Positive
ORGANISM=WFSR-LIBRARY
NAME=Benzoylprop ethyl_CE15 M+H
PI=Federico Padilla-Gonzalez
DATACOLLECTOR="Sjors Rasker, Wout Bergkamp"
SMILES=CCOC(=O)C(C)N(C(=O)C1=CC=CC=C1)C1=CC(Cl)=C(Cl)C=C1
INCHI="InChI=1S/C18H17Cl2NO3/c1-3-24-18(23)12(2)21(14-9-10-15(19)16(20)11-14)17(22)13-7-5-4-6-8-13/h4-12H,3H2,1-2H3"
INCHIAUX=N/A
PUBMED=N/A
SUBMITUSER=jzemlin
LIBRARYQUALITY=1
SPECTRUMID=CCMSLIB00013939977
USI=mzspec:GNPS:WFSR-LIBRARY:accession:CCMSLIB00013939977
SCANS=6196
52.917198	8748.5
52.9179	10998.790039
52.919102	17590.019531
77.038498	23472.029297
95.048698	83965.632812
104.766197	9657.799805
105.032997	8704983.0
105.301201	11079.410156
106.0364	70040.9375
126.0522	12978.370117
262.213806	10326.30957
292.0289	49729.089844
320.023804	88316.609375
365.277496	48401.679688
366.062714	26455.890625
366.281006	28589.490234
END IONS

BEGIN IONS
PEPMASS=270.126
CHARGE=1
MSLEVEL=2
SOURCE_INSTRUMENT=ESI-Orbitrap
FILENAME=output_folder/converted_library.mgf
SEQ=*..*
IONMODE=Positive
ORGANISM=WFSR-LIBRARY
NAME=Alachlor_CE15 M+H
PI=Federico Padilla-Gonzalez
DATACOLLECTOR="Sjors Rasker, Wout Bergkamp"
SMILES=CCC1=CC=CC(CC)=C1N(COC)C(=O)CCl
INCHI="InChI=1S/C14H20ClNO2/c1-4-11-7-6-8-12(5-2)14(11)16(10-18-3)13(17)9-15/h6-8H,4-5,9-10H2,1-3H3"
INCHIAUX=N/A
PUBMED=N/A
SUBMITUSER=jzemlin
LIBRARYQUALITY=1
SPECTRUMID=CCMSLIB00013940061
USI=mzspec:GNPS:WFSR-LIBRARY:accession:CCMSLIB00013940061
SCANS=6280
45.033401	134129.6875
162.127594	585144.8125
208.088699	108500.070312
220.088806	71284.671875
224.083694	112911.1875
238.099304	2257165.25
270.125702	156577.703125
270.315491	3979756.0
END IONS

BEGIN IONS
PEPMASS=293.118
CHARGE=1
MSLEVEL=2
SOURCE_INSTRUMENT=ESI-Orbitrap
FILENAME=output_folder/converted_library.mgf
SEQ=*..*
IONMODE=Positive
ORGANISM=WFSR-LIBRARY
NAME=Coumatetralyl_CE15 M+H
PI=Federico Padilla-Gonzalez
DATACOLLECTOR="Sjors Rasker, Wout Bergkamp"
SMILES=OC1=C(C2CCCC3=C2C=CC=C3)C(=O)OC2=C1C=CC=C2
INCHI="InChI=1S/C19H16O3/c20-18-15-9-3-4-11-16(15)22-19(21)17(18)14-10-5-7-12-6-1-2-8-13(12)14/h1-4,6,8-9,11,14,20H,5,7,10H2"
INCHIAUX=N/A
PUBMED=N/A
SUBMITUSER=jzemlin
LIBRARYQUALITY=1
SPECTRUMID=CCMSLIB00013940075
USI=mzspec:GNPS:WFSR-LIBRARY:accession:CCMSLIB00013940075
SCANS=6294
52.917301	9766.179688
52.918499	21103.890625
52.919701	10172.110352
70.039597	156451.40625
71.036598	8775.740234
71.0429	17812.560547
91.048103	4920.450195
91.054199	156079.140625
101.059303	8159.330078
105.069901	13469.919922
119.085403	15487.969727
121.028702	9046.509766
125.0149	12333.400391
126.018303	8069.350098
129.070007	6680.790039
131.085403	156551.625
147.044006	10419.55957
163.038803	131262.5625
175.038895	789804.75
187.076004	5290.310059
189.054398	30199.400391
215.070099	29414.740234
291.880615	2675.330078
293.117188	5987799.5
293.209503	4218.680176
294.119904	36318.0
294.361694	5373.049805
END IONS

BEGIN IONS
PEPMASS=303.195
CHARGE=1
MSLEVEL=2
SOURCE_INSTRUMENT=ESI-Orbitrap
FILENAME=output_folder/converted_library.mgf
SEQ=*..*
IONMODE=Positive
ORGANISM=WFSR-LIBRARY
NAME=Allethrin_CE15 M+H
PI=Federico Padilla-Gonzalez
DATACOLLECTOR="Sjors Rasker, Wout Bergkamp"
SMILES=CC(C)=CC1C(C(=O)OC2CC(=O)C(CC=C)=C2C)C1(C)C
INCHI="InChI=1S/C19H26O3/c1-7-8-13-12(4)16(10-15(13)20)22-18(21)17-14(9-11(2)3)19(17,5)6/h7,9,14,16-17H,1,8,10H2,2-6H3"
INCHIAUX=N/A
PUBMED=N/A
SUBMITUSER=jzemlin
LIBRARYQUALITY=1
SPECTRUMID=CCMSLIB00013940243
USI=mzspec:GNPS:WFSR-LIBRARY:accession:CCMSLIB00013940243
SCANS=6462
57.069698	97801.78125
69.069702	42648.53125
71.085297	63419.441406
79.0541	119763.773438
81.069702	131071.070312
85.100899	46370.75
93.069702	452692.71875
95.085403	126946.148438
105.069801	41685.28125
107.085403	339955.0625
109.064697	81995.75
109.101097	107473.523438
119.085503	55357.609375
121.064697	70923.921875
121.101097	1048845.125
123.116699	721506.0625
125.059601	57428.75
133.101105	57955.898438
135.080399	787260.0625
135.116806	39075.710938
137.095993	357763.96875
139.111694	213446.015625
143.085495	63436.988281
145.101105	52093.058594
147.116806	57614.03125
149.095993	724580.25
151.111694	99046.179688
157.101105	116490.039062
159.116806	96951.421875
161.0961	42364.230469
161.132507	66656.242188
163.111694	100465.703125
167.106705	348552.46875
169.122299	40323.480469
171.116806	40995.960938
173.132507	68984.507812
175.111694	41092.96875
183.116898	38201.25
185.132401	66140.320312
187.111694	36197.230469
189.127396	39364.628906
197.132507	37502.558594
199.148102	76809.757812
201.127396	126553.890625
203.143097	152988.453125
215.143097	74612.679688
215.179504	48712.988281
217.158707	31854.589844
239.179398	50906.738281
257.190002	176196.1875
285.185089	71343.328125
303.195496	172978.703125
END IONS

BEGIN IONS
PEPMASS=323.03
CHARGE=1
MSLEVEL=2
SOURCE_INSTRUMENT=ESI-Orbitrap
FILENAME=output_folder/converted_library.mgf
SEQ=*..*
IONMODE=Positive
ORGANISM=WFSR-LIBRARY
NAME=Sulfotep_CE15 M+H
PI=Federico Padilla-Gonzalez
DATACOLLECTOR="Sjors Rasker, Wout Bergkamp"
SMILES=CCOP(=S)(OCC)OP(=S)(OCC)OCC
INCHI="InChI=1S/C8H20O5P2S2/c1-5-9-14(16,10-6-2)13-15(17,11-7-3)12-8-4/h5-8H2,1-4H3"
INCHIAUX=N/A
PUBMED=N/A
SUBMITUSER=jzemlin
LIBRARYQUALITY=1
SPECTRUMID=CCMSLIB00013940306
USI=mzspec:GNPS:WFSR-LIBRARY:accession:CCMSLIB00013940306
SCANS=6525
98.9842	30088.949219
114.961304	1309616.875
124.982101	23258.449219
127.015503	69217.882812
132.971893	23793.970703
142.992706	966638.75
155.046799	78329.226562
171.024002	2318847.75
187.096603	30650.849609
192.894394	18472.480469
199.055298	74462.523438
210.904907	32968.71875
220.925705	38724.511719
238.936295	98524.867188
248.957108	40572.0
266.967712	131670.234375
276.988312	20530.839844
294.998993	79862.351562
323.03009	17169.980469
END IONS

BEGIN IONS
PEPMASS=350.175
CHARGE=1
MSLEVEL=2
SOURCE_INSTRUMENT=ESI-Orbitrap
FILENAME=output_folder/converted_library.mgf
SEQ=*..*
IONMODE=Positive
ORGANISM=WFSR-LIBRARY
NAME=Fenpropathrin_CE15 M+H
PI=Federico Padilla-Gonzalez
DATACOLLECTOR="Sjors Rasker, Wout Bergkamp"
SMILES=CC1(C)C(C(=O)OC(C#N)C2=CC=CC(OC3=CC=CC=C3)=C2)C1(C)C
INCHI="InChI=1S/C22H23NO3/c1-21(2)19(22(21,3)4)20(24)26-18(14-23)15-9-8-12-17(13-15)25-16-10-6-5-7-11-16/h5-13,18-19H,1-4H3"
INCHIAUX=N/A
PUBMED=N/A
SUBMITUSER=jzemlin
LIBRARYQUALITY=1
SPECTRUMID=CCMSLIB00013940320
USI=mzspec:GNPS:WFSR-LIBRARY:accession:CCMSLIB00013940320
SCANS=6539
52.9174	24546.259766
52.9198	15728.370117
55.0541	15077.620117
97.100998	51801.0
125.096001	2815555.75
199.0755	13752.0
227.200897	59644.691406
350.342712	146811.8125
351.194	40406.558594
END IONS

BEGIN IONS
PEPMASS=199.123
CHARGE=1
MSLEVEL=2
SOURCE_INSTRUMENT=ESI-Orbitrap
FILENAME=output_folder/converted_library.mgf
SEQ=*..*
IONMODE=Positive
ORGANISM=WFSR-LIBRARY
NAME="4,4'-Diaminodiphenylmethane; 4,4'-Methylenedianiline_CE15" M+H
PI=Federico Padilla-Gonzalez
DATACOLLECTOR="Sjors Rasker, Wout Bergkamp"
SMILES=NC1=CC=C(CC2=CC=C(N)C=C2)C=C1
INCHI="InChI=1S/C13H14N2/c14-12-5-1-10(2-6-12)9-11-3-7-13(15)8-4-11/h1-8H,9,14-15H2"
INCHIAUX=N/A
PUBMED=N/A
SUBMITUSER=jzemlin
LIBRARYQUALITY=1
SPECTRUMID=CCMSLIB00013940467
USI=mzspec:GNPS:WFSR-LIBRARY:accession:CCMSLIB00013940467
SCANS=6686
106.064903	90318.609375
182.096405	76037.546875
184.095001	34273.699219
199.123001	2356886.0
200.126099	21758.560547
END IONS

BEGIN IONS
PEPMASS=274.02
CHARGE=1
MSLEVEL=2
SOURCE_INSTRUMENT=LC-ESI-Orbitrap
FILENAME=reframe_drugs_pos_P1_F7_id.mzML
SEQ=*..*
IONMODE=Positive
ORGANISM=REFRAME-POSITIVE-LIBRARY
NAME=Stepronin [M+H]+
PI=Pieter Dorrestein
DATACOLLECTOR=Nina Zhao
SMILES=CC(SC(=O)c1cccs1)C(=O)NCC(=O)O
INCHI="InChI=1S/C10H11NO4S2/c1-6(9(14)11-5-8(12)13)17-10(15)7-3-2-4-16-7/h2-4,6H,5H2,1H3,(H,11,14)(H,12,13)"
INCHIAUX=
PUBMED=N/A
SUBMITUSER=jzemlin
LIBRARYQUALITY=1
SPECTRUMID=CCMSLIB00016142704
USI=mzspec:GNPS:REFRAME-POSITIVE-LIBRARY:accession:CCMSLIB00016142704
SCANS=1384
54.611866	1299.388672
58.430538	1213.299805
58.896507	1211.314331
61.010986	3797.244141
64.839035	1304.373047
70.801804	1326.34729
80.778702	1321.909424
90.03717	8389.708984
90.976555	2705.976074
94.27832	1664.765259
107.534142	1308.524902
110.989853	603369.625
118.032013	48720.097656
123.682892	1323.912598
128.729828	1544.032349
141.573608	1381.454468
146.027039	53714.457031
160.567596	1395.294922
170.993271	11056.109375
198.988007	69120.554688
292.128265	1573.679688
END IONS

BEGIN IONS
PEPMASS=271.1
CHARGE=1
MSLEVEL=2
SOURCE_INSTRUMENT=LC-ESI-Orbitrap
FILENAME=reframe_drugs_pos_P2_A8_id.mzML
SEQ=*..*
IONMODE=Positive
ORGANISM=REFRAME-POSITIVE-LIBRARY
NAME=medazepam [M+H]+
PI=Pieter Dorrestein
DATACOLLECTOR=Nina Zhao
SMILES=CN1CCN=C(c2ccccc2)c2c1ccc(Cl)c2
INCHI="InChI=1S/C16H15ClN2/c1-19-10-9-18-16(12-5-3-2-4-6-12)14-11-13(17)7-8-15(14)19/h2-8,11H,9-10H2,1H3"
INCHIAUX=
PUBMED=N/A
SUBMITUSER=jzemlin
LIBRARYQUALITY=1
SPECTRUMID=CCMSLIB00016143780
USI=mzspec:GNPS:REFRAME-POSITIVE-LIBRARY:accession:CCMSLIB00016143780
SCANS=1424
50.259754	93747.898438
52.40181	119016.296875
65.038933	176123.859375
70.116158	59983.59375
79.0541	122140.734375
91.054176	10724942.0
94.178421	65683.96875
106.06498	310388.46875
113.166672	65967.9375
117.057167	803918.8125
118.064949	113585.398438
120.080948	83611.867188
125.014893	189085.359375
130.065002	222420.296875
131.072723	529405.0625
133.511841	75109.890625
140.026123	122274.351562
152.026199	519727.875
153.034546	104042.539062
154.042267	135914.15625
164.026199	263355.21875
165.021332	2842763.75
165.03537	163244.625
165.069519	114450.25
166.041672	358684.3125
166.8927	161153.578125
167.605423	80316.75
178.077927	201230.84375
179.036545	344703.75
180.044754	4318918.0
193.051514	100604.414062
193.088211	998141.1875
194.096313	319110.5
195.104919	85750.59375
196.671173	70174.898438
204.081146	124906.992188
206.09668	736413.0625
207.104141	6116826.5
214.042557	235593.765625
218.096069	439519.5
219.103729	658346.25
221.106873	121821.90625
227.049911	583364.8125
228.057373	1691316.0
230.07341	909845.8125
235.123108	108476.804688
236.131393	99439.054688
241.053131	127901.84375
242.073013	4817558.0
244.088989	216028.734375
254.07309	1419425.0
255.067215	104671.023438
256.07547	109837.070312
271.099548	64894572.0
END IONS

BEGIN IONS
PEPMASS=285.079
CHARGE=1
MSLEVEL=2
SOURCE_INSTRUMENT=LC-ESI-Orbitrap
FILENAME=reframe_drugs_pos_P2_C3_id.mzML
SEQ=*..*
IONMODE=Positive
ORGANISM=REFRAME-POSITIVE-LIBRARY
NAME=mazindol [M+H]+
PI=Pieter Dorrestein
DATACOLLECTOR=Nina Zhao
SMILES=OC1(c2ccc(Cl)cc2)c2ccccc2C2=NCCN21
INCHI="InChI=1S/C16H13ClN2O/c17-12-7-5-11(6-8-12)16(20)14-4-2-1-3-13(14)15-18-9-10-19(15)16/h1-8,20H,9-10H2"
INCHIAUX=
PUBMED=N/A
SUBMITUSER=jzemlin
LIBRARYQUALITY=1
SPECTRUMID=CCMSLIB00016143933
USI=mzspec:GNPS:REFRAME-POSITIVE-LIBRARY:accession:CCMSLIB00016143933
SCANS=1323
55.084969	1425.032104
74.803757	1122.984253
80.947929	2051.188232
88.049156	1484.598145
90.416527	1580.435669
112.870712	1331.006836
116.835487	1375.257568
130.028702	89985.585938
151.07756	1446.916016
156.898056	1439.680908
163.989746	14739.897461
203.072998	3052.883301
232.076004	4132.51123
233.083557	38587.542969
238.042343	7649.843262
240.05809	1812.876343
240.086258	2153.174561
240.230698	2701.163574
242.036713	364223.75
256.052277	46504.683594
267.067596	8262.914062
268.052155	14778.167969
285.078857	95500.1875
285.289307	2469.340576
END IONS

BEGIN IONS
PEPMASS=332.186
CHARGE=1
MSLEVEL=2
SOURCE_INSTRUMENT=LC-ESI-Orbitrap
FILENAME=reframe_drugs_pos_P1_A3_id.mzML
SEQ=*..*
IONMODE=Positive
ORGANISM=REFRAME-POSITIVE-LIBRARY
NAME=Oxitropium [M+H]+
PI=Pieter Dorrestein
DATACOLLECTOR=Nina Zhao
SMILES=CC[N+]1(C)C2CC(OC(=O)C(CO)c3ccccc3)CC1C1OC12
INCHI="InChI=1S/C19H26NO4/c1-3-20(2)15-9-13(10-16(20)18-17(15)24-18)23-19(22)14(11-21)12-7-5-4-6-8-12/h4-8,13-18,21H,3,9-11H2,1-2H3/q+1"
INCHIAUX=
PUBMED=N/A
SUBMITUSER=jzemlin
LIBRARYQUALITY=1
SPECTRUMID=CCMSLIB00016144011
USI=mzspec:GNPS:REFRAME-POSITIVE-LIBRARY:accession:CCMSLIB00016144011
SCANS=1046
50.006161	20710.169922
50.128796	20133.066406
52.269802	21441.521484
53.038883	30236.070312
53.809937	19722.693359
56.049988	28803.400391
56.998459	51953.042969
57.00087	27628.642578
57.03389	84022.523438
58.063416	19622.050781
58.065624	241261.375
59.04953	37242.496094
67.054459	81151.765625
68.049797	35927.789062
70.065269	79521.148438
72.044731	30567.263672
72.08107	52336.429688
76.585533	19647.994141
77.038773	26879.064453
79.054405	565142.375
80.049461	47144.007812
81.033607	199698.421875
81.070015	217114.640625
82.06517	134097.078125
84.080666	60811.980469
85.064926	27986.552734
91.054245	290496.40625
93.069862	127115.882812
94.065094	643995.1875
95.048927	73400.046875
96.044487	42979.523438
96.080589	152069.296875
97.052017	22988.783203
97.064781	67062.15625
98.060028	369071.0
98.096443	336620.78125
100.075798	42004.054688
103.054161	1154990.125
107.048752	56215.265625
107.07238	27208.230469
108.080727	286486.53125
110.059959	100381.75
110.096275	311327.625
120.080795	279232.75
121.064758	806815.3125
121.073578	49810.101562
121.089264	23679.09375
122.09623	172801.90625
126.091309	223522.90625
132.079285	24340.123047
136.075882	24533.734375
136.111984	99254.570312
138.091354	589642.875
138.127426	58063.242188
140.106857	37203.734375
156.101883	164371.578125
166.12262	5303998.0
184.132965	229738.3125
199.985443	23511.832031
265.971832	28447.597656
302.177094	27981.757812
308.143585	24364.941406
332.185608	13511835.0
339.934448	23850.998047
353.872772	25025.738281
END IONS

BEGIN IONS
PEPMASS=269.081
CHARGE=1
MSLEVEL=2
SOURCE_INSTRUMENT=LC-ESI-Orbitrap
FILENAME=reframe_drugs_pos_P1_H2_id.mzML
SEQ=*..*
IONMODE=Positive
ORGANISM=REFRAME-POSITIVE-LIBRARY
NAME=Oxepinac [M+H]+
PI=Pieter Dorrestein
DATACOLLECTOR=Nina Zhao
SMILES=O=C(O)Cc1cc2c(cc1)C(=O)c1ccccc1CO2
INCHI="InChI=1S/C16H12O4/c17-15(18)8-10-5-6-13-14(7-10)20-9-11-3-1-2-4-12(11)16(13)19/h1-7H,8-9H2,(H,17,18)"
INCHIAUX=
PUBMED=N/A
SUBMITUSER=jzemlin
LIBRARYQUALITY=1
SPECTRUMID=CCMSLIB00016144191
USI=mzspec:GNPS:REFRAME-POSITIVE-LIBRARY:accession:CCMSLIB00016144191
SCANS=1756
54.53849	1148.536621
55.10458	1310.35144
79.054344	4225.974609
91.054192	14503.555664
97.140884	1272.863525
118.147202	1411.45813
118.887878	1337.70105
152.061569	2177.855469
153.535797	1482.096802
167.085663	5392.399414
177.06929	3691.886719
179.08551	1927.822632
181.064865	2951.971191
194.072922	2909.654541
195.08049	11716.708984
210.067993	6621.930664
223.075409	47566.597656
236.884537	1669.002197
246.908096	1518.21521
251.070618	2710.170898
269.081055	55048.597656
269.268036	2267.828613
END IONS

BEGIN IONS
PEPMASS=180.138
CHARGE=1
MSLEVEL=2
SOURCE_INSTRUMENT=LC-ESI-Orbitrap
FILENAME=reframe_drugs_pos_P3_B4_id.mzML
SEQ=*..*
IONMODE=Positive
ORGANISM=REFRAME-POSITIVE-LIBRARY
NAME=METHOXYPHENAMINE [M+H]+
PI=Pieter Dorrestein
DATACOLLECTOR=Nina Zhao
SMILES=CNC(C)Cc1ccccc1OC
INCHI="InChI=1S/C11H17NO/c1-9(12-2)8-10-6-4-5-7-11(10)13-3/h4-7,9,12H,8H2,1-3H3"
INCHIAUX=
PUBMED=N/A
SUBMITUSER=jzemlin
LIBRARYQUALITY=1
SPECTRUMID=CCMSLIB00016144633
USI=mzspec:GNPS:REFRAME-POSITIVE-LIBRARY:accession:CCMSLIB00016144633
SCANS=1045
50.208736	872.777649
60.030308	1078.682251
60.050014	1058.240356
63.560627	975.180298
69.956177	1096.22229
80.481438	1051.489258
82.404366	1147.140137
91.054321	5639.647949
93.069946	2920.222656
95.04837	1060.508667
104.163719	1103.207031
104.612625	1023.662964
109.064911	5673.230957
121.06472	75108.625
149.096054	61163.222656
156.892792	1210.154053
174.984863	3680.31958
175.362549	1178.960815
180.080658	2248.770264
180.138168	11008.291992
END IONS

BEGIN IONS
PEPMASS=270.056
CHARGE=1
MSLEVEL=2
SOURCE_INSTRUMENT=LC-ESI-Orbitrap
FILENAME=reframe_drugs_pos_P2_H5_id.mzML
SEQ=*..*
IONMODE=Positive
ORGANISM=REFRAME-POSITIVE-LIBRARY
NAME=Alinidine [M+H]+
PI=Pieter Dorrestein
DATACOLLECTOR=Nina Zhao
SMILES=C=CCN(C1=NCCN1)c1c(Cl)cccc1Cl
INCHI="InChI=1S/C12H13Cl2N3/c1-2-8-17(12-15-6-7-16-12)11-9(13)4-3-5-10(11)14/h2-5H,1,6-8H2,(H,15,16)"
INCHIAUX=
PUBMED=N/A
SUBMITUSER=jzemlin
LIBRARYQUALITY=1
SPECTRUMID=CCMSLIB00016144802
USI=mzspec:GNPS:REFRAME-POSITIVE-LIBRARY:accession:CCMSLIB00016144802
SCANS=1190
51.794559	34096.957031
55.03484	30740.236328
56.839207	42811.851562
60.336258	33710.179688
60.650021	33350.648438
62.06562	51619.296875
62.857189	28850.144531
69.045219	41820.460938
84.080826	331910.15625
116.851295	38344.582031
149.072357	34253.375
153.020859	68119.460938
159.078659	67878.335938
165.021484	66516.632812
167.036774	35393.261719
171.971436	516265.625
173.986618	49999.90625
193.039993	190556.25
194.047913	3110417.0
199.989929	591573.3125
200.117996	115898.414062
220.064713	54405.300781
228.007645	275230.34375
229.0168	6405165.5
234.079895	128906.546875
235.087234	298419.3125
270.055939	17914454.0
END IONS

BEGIN IONS
PEPMASS=240.134
CHARGE=1
MSLEVEL=2
SOURCE_INSTRUMENT=LC-ESI-Orbitrap
FILENAME=reframe_drugs_pos_P2_H1_id.mzML
SEQ=*..*
IONMODE=Positive
ORGANISM=REFRAME-POSITIVE-LIBRARY
NAME=emorfazone [M+H]+
PI=Pieter Dorrestein
DATACOLLECTOR=Nina Zhao
SMILES=CCOc1c(N2CCOCC2)cnn(C)c1=O
INCHI="InChI=1S/C11H17N3O3/c1-3-17-10-9(8-12-13(2)11(10)15)14-4-6-16-7-5-14/h8H,3-7H2,1-2H3"
INCHIAUX=
PUBMED=N/A
SUBMITUSER=jzemlin
LIBRARYQUALITY=1
SPECTRUMID=CCMSLIB00016144823
USI=mzspec:GNPS:REFRAME-POSITIVE-LIBRARY:accession:CCMSLIB00016144823
SCANS=1105
52.86636	50751.765625
56.049789	138149.234375
57.045067	42622.015625
58.029148	96272.203125
63.248062	45924.714844
64.069908	58735.863281
68.049789	244844.015625
68.762619	58535.246094
69.033867	57356.730469
69.044975	74164.828125
70.02887	103225.5625
73.728622	66176.132812
80.049431	165586.53125
81.044762	108263.125
82.028854	96256.71875
84.044479	81509.960938
86.060013	917497.6875
93.044914	321737.21875
95.060143	80717.085938
97.039536	367321.25
99.055222	198406.046875
100.679749	56433.898438
107.060318	497586.78125
108.06813	48953.992188
109.039398	208754.171875
111.05529	61333.023438
112.050499	267992.5
113.070747	92244.5625
115.809975	51468.109375
122.034431	77448.554688
123.055275	168439.5625
125.034294	175722.234375
125.058006	114382.375
125.070686	208786.765625
126.042313	2718870.0
127.049919	80325.421875
135.055038	165251.984375
137.057648	71029.007812
137.07074	57703.558594
138.078308	162100.625
139.049988	150154.125
140.045319	515157.0625
140.0578	680473.3125
140.081497	76243.226562
141.029343	2809933.25
141.053101	1448977.875
141.063812	64083.679688
142.060989	1412374.25
148.063187	168995.0
150.065842	332706.0
150.076813	61948.898438
151.050217	483064.65625
152.045425	2072060.375
152.057037	85457.390625
153.052734	206079.3125
153.066055	291581.65625
154.06105	666700.3125
164.058075	72178.164062
164.081665	161858.546875
165.052979	174832.421875
165.089493	62446.160156
166.061234	716218.875
166.07402	98841.0625
167.068817	970678.1875
168.076675	10015390.0
176.057816	386568.59375
176.081818	242781.90625
178.060913	701074.125
180.076584	610461.75
181.083908	271693.375
182.056213	74741.84375
182.092209	79419.625
183.063629	77964.398438
184.083389	117201.9375
184.107956	502381.9375
192.07666	2014621.875
193.084442	4955937.5
196.070877	71281.84375
210.087326	316711.84375
211.095078	4853273.5
212.102875	10779021.0
240.134247	40754472.0
END IONS

BEGIN IONS
PEPMASS=232.131
CHARGE=1
MSLEVEL=2
SOURCE_INSTRUMENT=LC-ESI-Orbitrap
FILENAME=reframe_drugs_pos_P3_A7_id.mzML
SEQ=*..*
IONMODE=Positive
ORGANISM=REFRAME-POSITIVE-LIBRARY
NAME=Levofenfluramine [M+H]+
PI=Pieter Dorrestein
DATACOLLECTOR=Nina Zhao
SMILES=CCNC(C)Cc1cc(C(F)(F)F)ccc1
INCHI="InChI=1S/C12H16F3N/c1-3-16-9(2)7-10-5-4-6-11(8-10)12(13,14)15/h4-6,8-9,16H,3,7H2,1-2H3"
INCHIAUX=
PUBMED=N/A
SUBMITUSER=jzemlin
LIBRARYQUALITY=1
SPECTRUMID=CCMSLIB00016146448
USI=mzspec:GNPS:REFRAME-POSITIVE-LIBRARY:accession:CCMSLIB00016146448
SCANS=1297
55.249264	47201.648438
72.080986	82757.015625
83.784561	63932.007812
84.86261	64383.460938
87.419807	66929.40625
109.0448	446520.03125
115.730667	114226.578125
123.801392	57259.4375
139.035919	61119.539062
159.041565	29400270.0
187.072754	5516831.5
212.126205	70452.304688
232.130722	20378466.0
249.526688	55090.699219
END IONS

BEGIN IONS
PEPMASS=212.118
CHARGE=1
MSLEVEL=2
SOURCE_INSTRUMENT=LC-ESI-Orbitrap
FILENAME=reframe_drugs_pos_P3_C8_id.mzML
SEQ=*..*
IONMODE=Positive
ORGANISM=REFRAME-POSITIVE-LIBRARY
NAME=MEFENOREX [M+H]+
PI=Pieter Dorrestein
DATACOLLECTOR=Nina Zhao
SMILES=CC(Cc1ccccc1)NCCCCl
INCHI="InChI=1S/C12H18ClN/c1-11(14-9-5-8-13)10-12-6-3-2-4-7-12/h2-4,6-7,11,14H,5,8-10H2,1H3"
INCHIAUX=
PUBMED=N/A
SUBMITUSER=jzemlin
LIBRARYQUALITY=1
SPECTRUMID=CCMSLIB00016146882
USI=mzspec:GNPS:REFRAME-POSITIVE-LIBRARY:accession:CCMSLIB00016146882
SCANS=3570
50.602852	1351.996582
53.039062	3464.710938
55.05471	2152.706299
55.688236	1378.037476
57.341259	1070.422607
62.896255	1699.527466
64.292442	1589.624023
65.038986	3866.672363
69.070343	1739.526123
73.348991	1156.494019
77.039062	6538.640625
83.085594	1820.577637
89.059654	4110.074219
91.054184	3483.499268
92.049416	43400.464844
93.414978	1427.740356
94.065102	233728.78125
95.049103	43980.835938
100.214462	1579.005859
105.044594	6001.632324
105.062546	1487.599609
107.084915	1733.105835
117.044571	1620.312134
119.060333	350517.21875
133.085388	2503.031738
135.116882	2347.840088
153.163773	2691.273926
168.080811	2828.214355
170.19072	3522.318359
195.091553	87149.6875
195.121033	4166.235352
212.118134	719651.6875
212.201004	8651.214844
227.302216	1479.526367
232.942474	1675.46582
END IONS

BEGIN IONS
PEPMASS=250.159
CHARGE=1
MSLEVEL=2
SOURCE_INSTRUMENT=LC-ESI-Orbitrap
FILENAME=reframe_drugs_pos_P2_F1_id.mzML
SEQ=*..*
IONMODE=Positive
ORGANISM=REFRAME-POSITIVE-LIBRARY
NAME=BENZOCTAMINE [M+H]+
PI=Pieter Dorrestein
DATACOLLECTOR=Nina Zhao
SMILES=CNCC12CCC(c3ccccc31)c1ccccc12
INCHI="InChI=1S/C18H19N/c1-19-12-18-11-10-13(14-6-2-4-8-16(14)18)15-7-3-5-9-17(15)18/h2-9,13,19H,10-12H2,1H3"
INCHIAUX=
PUBMED=N/A
SUBMITUSER=jzemlin
LIBRARYQUALITY=1
SPECTRUMID=CCMSLIB00016146914
USI=mzspec:GNPS:REFRAME-POSITIVE-LIBRARY:accession:CCMSLIB00016146914
SCANS=1367
54.410339	161528.484375
54.412708	97959.695312
69.26387	60337.222656
72.634064	94951.90625
91.05423	783217.25
94.091866	53165.941406
95.979866	51939.789062
97.7686	54461.421875
98.035278	57163.988281
109.694199	63782.414062
113.621681	62851.976562
121.901001	110174.617188
141.069504	127204.703125
178.078064	174477.234375
189.069305	143375.359375
190.077408	250129.4375
190.213837	55228.886719
191.085419	35220508.0
204.093124	416354.875
219.116638	548807.8125
221.165787	60644.058594
247.950119	88397.4375
250.158997	29752058.0
END IONS

BEGIN IONS
PEPMASS=263.049
CHARGE=1
MSLEVEL=2
SOURCE_INSTRUMENT=LC-ESI-Orbitrap
FILENAME=reframe_drugs_pos_P2_A3_id.mzML
SEQ=*..*
IONMODE=Positive
ORGANISM=REFRAME-POSITIVE-LIBRARY
NAME=TIACRILAST [M+H]+
PI=Pieter Dorrestein
DATACOLLECTOR=Nina Zhao
SMILES=CSc1cc2c(cc1)ncn(C=CC(=O)O)c2=O
INCHI="InChI=1S/C12H10N2O3S/c1-18-8-2-3-10-9(6-8)12(17)14(7-13-10)5-4-11(15)16/h2-7H,1H3,(H,15,16)"
INCHIAUX=
PUBMED=N/A
SUBMITUSER=jzemlin
LIBRARYQUALITY=1
SPECTRUMID=CCMSLIB00016148098
USI=mzspec:GNPS:REFRAME-POSITIVE-LIBRARY:accession:CCMSLIB00016148098
SCANS=1542
50.217113	1222.591064
52.508392	1176.225586
52.903934	1225.358765
53.002716	7004.496582
53.00494	1489.294312
57.907864	1306.421021
63.978638	1596.710083
68.538391	1421.22229
70.028999	27831.474609
71.013092	3139.31958
73.065071	7303.833984
75.977539	1837.597656
80.947845	2128.07666
82.60125	1483.960815
91.041588	4537.249512
93.458839	1458.526367
94.0653	8137.073242
94.07019	1236.359741
98.023041	1540.599731
104.049225	6095.024414
111.026031	3110.531494
119.02903	1486.149658
119.036301	6972.719727
121.010132	4765.556641
123.013412	3039.64917
138.037003	36790.359375
148.551041	1419.554077
150.00058	8329.50293
150.036942	6924.322266
151.008438	12234.396484
160.009079	3504.400635
162.024445	5728.873535
166.032043	14675.459961
175.032211	33963.28125
176.016129	7120.147461
176.052765	1617.589111
177.024719	8140.103516
177.047775	21741.681641
178.019394	20932.433594
179.003296	6403.705566
192.047806	11631.407227
193.042892	77045.78125
194.026932	34232.488281
202.018997	10544.838867
203.027374	2266.961914
217.043228	10404.016602
227.227859	1422.83667
229.005234	1553.297241
230.01358	4185.226562
245.038193	12612.820312
248.024826	31658.587891
263.048431	650170.3125
END IONS

BEGIN IONS
PEPMASS=795.453
CHARGE=1
MSLEVEL=2
SOURCE_INSTRUMENT=LC-ESI-Orbitrap
FILENAME=reframe_drugs_pos_P3_A12_id.mzML
SEQ=*..*
IONMODE=Positive
ORGANISM=REFRAME-POSITIVE-LIBRARY
NAME=metildigoxin [M+H]+
PI=Pieter Dorrestein
DATACOLLECTOR=Nina Zhao
SMILES=COC1C(O)CC(OC2C(O)CC(OC3C(O)CC(OC4CCC5(C)C(CCC6C5CC(O)C5(C)C(C7=CC(=O)OC7)CCC65O)C4)OC3C)OC2C)OC1C
INCHI="InChI=1S/C42H66O14/c1-20-37(49-6)29(43)16-35(51-20)55-39-22(3)53-36(18-31(39)45)56-38-21(2)52-34(17-30(38)44)54-25-9-11-40(4)24(14-25)7-8-27-28(40)15-32(46)41(5)26(10-12-42(27,41)48)23-13-33(47)50-19-23/h13,20-22,24-32,34-39,43-46,48H,7-12,14-19H2,1-6H3"
INCHIAUX=
PUBMED=N/A
SUBMITUSER=jzemlin
LIBRARYQUALITY=1
SPECTRUMID=CCMSLIB00016148965
USI=mzspec:GNPS:REFRAME-POSITIVE-LIBRARY:accession:CCMSLIB00016148965
SCANS=1700
55.018414	4837.20752
59.049583	125501.984375
59.613533	2067.900879
65.039185	4811.805664
67.054535	31983.865234
67.05748	2934.736572
69.033669	17565.142578
69.070419	11531.142578
71.049576	4938.061523
77.106667	2638.425781
79.054443	28088.234375
79.057922	2313.586182
80.686333	2127.005615
85.0653	7204.166016
91.054283	3166.019531
95.049179	56488.175781
97.064819	333484.1875
113.059738	22680.128906
123.110573	2573.463379
127.075294	132058.21875
129.207245	2645.074463
131.062256	2701.19458
131.070801	11832.521484
143.070557	4300.903809
158.892349	2974.648926
161.081772	6013.445801
222.428406	3232.894531
284.110809	2858.261475
315.822937	2788.78125
337.218048	7999.438477
355.227448	6467.619141
373.238495	6140.057129
391.255768	3771.468506
END IONS

BEGIN IONS
PEPMASS=316.008
CHARGE=1
MSLEVEL=2
SOURCE_INSTRUMENT=LC-ESI-Orbitrap
FILENAME=reframe_drugs_pos_P2_H11_id.mzML
SEQ=*..*
IONMODE=Positive
ORGANISM=REFRAME-POSITIVE-LIBRARY
NAME=bromazepam [M+H]+
PI=Pieter Dorrestein
DATACOLLECTOR=Nina Zhao
SMILES=O=C1CN=C(c2ccccn2)c2c(ccc(Br)c2)N1
INCHI="InChI=1S/C14H10BrN3O/c15-9-4-5-11-10(7-9)14(17-8-13(19)18-11)12-3-1-2-6-16-12/h1-7H,8H2,(H,18,19)"
INCHIAUX=
PUBMED=N/A
SUBMITUSER=jzemlin
LIBRARYQUALITY=1
SPECTRUMID=CCMSLIB00016149434
USI=mzspec:GNPS:REFRAME-POSITIVE-LIBRARY:accession:CCMSLIB00016149434
SCANS=1366
58.842297	5958.378906
58.844795	3727.586914
62.403099	2837.815186
62.828392	3266.848389
80.049553	93903.375
84.886993	3060.514893
87.651985	2862.134521
96.044266	36165.054688
104.049316	10792.085938
105.044525	9432.277344
105.05706	22050.875
106.469505	3127.828369
107.060074	7037.157227
110.060364	3390.723389
115.270378	3377.979248
124.039246	14870.097656
131.060211	16399.408203
133.052094	13227.240234
155.073563	4559.759766
181.075378	48027.15625
182.083618	507533.25
183.975403	124954.289062
192.068161	12379.657227
193.075897	8661.513672
207.080048	5086.625977
208.065933	6719.758301
208.086685	173514.921875
208.971283	35869.753906
209.094559	299770.875
210.078369	12023.282227
211.971115	6566.844727
236.082001	5586.554199
237.089905	8717.936523
244.983124	6377.57666
258.98587	39492.957031
259.993988	116829.289062
261.001923	131992.640625
270.985718	5165.793945
286.977173	5499.025391
287.005829	6240.574219
288.012756	241258.703125
297.99646	5207.840332
316.007721	2119644.25
END IONS

BEGIN IONS
PEPMASS=269.081
CHARGE=1
MSLEVEL=2
SOURCE_INSTRUMENT=LC-ESI-Orbitrap
FILENAME=reframe_drugs_pos_P2_D5_id.mzML
SEQ=*..*
IONMODE=Positive
ORGANISM=REFRAME-POSITIVE-LIBRARY
NAME=Isoxepac [M+H]+
PI=Pieter Dorrestein
DATACOLLECTOR=Nina Zhao
SMILES=O=C(O)Cc1cc2c(cc1)OCc1ccccc1C2=O
INCHI="InChI=1S/C16H12O4/c17-15(18)8-10-5-6-14-13(7-10)16(19)12-4-2-1-3-11(12)9-20-14/h1-7H,8-9H2,(H,17,18)"
INCHIAUX=
PUBMED=N/A
SUBMITUSER=jzemlin
LIBRARYQUALITY=1
SPECTRUMID=CCMSLIB00016150520
USI=mzspec:GNPS:REFRAME-POSITIVE-LIBRARY:accession:CCMSLIB00016150520
SCANS=1754
53.241024	1189.891357
55.018341	10998.835938
61.11396	2011.07019
66.04657	2478.310547
79.054436	20587.306641
89.038452	5946.458496
90.046402	8943.948242
91.054214	43292.113281
95.049469	7028.434082
105.045067	1795.594604
106.330246	1466.784912
107.04895	4051.37915
118.041183	23483.15625
118.502899	1737.248413
121.028358	1929.179932
122.134331	1496.204834
143.085785	2393.627197
151.221542	1680.156128
152.06163	18628.292969
153.069534	8670.533203
165.069717	16555.923828
166.077774	5467.447266
167.085449	55536.847656
171.080154	2122.829346
172.793152	1468.458374
177.069611	16851.240234
178.077377	6951.931152
179.085312	9559.981445
181.064407	13223.819336
182.072021	1491.275391
187.928848	2700.440186
194.072037	12920.706055
195.080368	54579.769531
198.376877	1540.110229
199.074997	2703.226074
205.064926	6187.243164
206.072449	9965.388672
209.058868	4033.983154
210.06543	1790.768433
221.059326	1789.978027
222.06723	16812.058594
223.075333	664402.9375
227.070267	57864.574219
227.087723	1420.242798
251.069641	2440.182861
262.381439	1661.41748
269.080719	256908.46875
END IONS

BEGIN IONS
PEPMASS=249.16
CHARGE=1
MSLEVEL=2
SOURCE_INSTRUMENT=LC-ESI-Orbitrap
FILENAME=reframe_drugs_pos_P3_A8_id.mzML
SEQ=*..*
IONMODE=Positive
ORGANISM=REFRAME-POSITIVE-LIBRARY
NAME=Bunitrolol [M+H]+
PI=Pieter Dorrestein
DATACOLLECTOR=Nina Zhao
SMILES=CC(C)(C)NCC(O)COc1ccccc1C#N
INCHI="InChI=1S/C14H20N2O2/c1-14(2,3)16-9-12(17)10-18-13-7-5-4-6-11(13)8-15/h4-7,12,16-17H,9-10H2,1-3H3"
INCHIAUX=
PUBMED=N/A
SUBMITUSER=jzemlin
LIBRARYQUALITY=1
SPECTRUMID=CCMSLIB00016150647
USI=mzspec:GNPS:REFRAME-POSITIVE-LIBRARY:accession:CCMSLIB00016150647
SCANS=1071
54.578117	41583.980469
56.049942	6637225.5
57.057674	53429.527344
57.070328	2361715.5
65.005157	45246.003906
66.98642	44093.953125
67.422279	42899.945312
68.976387	44643.398438
74.060196	409930.59375
78.155235	47355.109375
88.162399	50942.765625
92.049461	143996.828125
100.238495	66254.3125
102.067307	48182.828125
104.049438	111235.554688
105.034203	75008.710938
118.878922	55474.214844
120.044342	5709450.5
121.028259	726261.4375
130.064758	117801.09375
131.049408	65438.9375
132.044083	113937.828125
134.060196	81664.429688
138.055252	121565.03125
141.265808	50870.40625
146.059982	210750.015625
147.044113	150385.1875
148.075333	208201.453125
150.054352	65671.179688
158.060272	89464.625
175.086517	2691814.75
176.070526	172429.640625
193.097046	38278376.0
203.724991	47265.691406
248.190674	54555.566406
249.159668	12165666.0
263.47052	94831.703125
END IONS

BEGIN IONS
PEPMASS=246.185
CHARGE=1
MSLEVEL=2
SOURCE_INSTRUMENT=LC-ESI-Orbitrap
FILENAME=reframe_drugs_pos_P2_C5_id.mzML
SEQ=*..*
IONMODE=Positive
ORGANISM=REFRAME-POSITIVE-LIBRARY
NAME=PYROVALERONE [M+H]+
PI=Pieter Dorrestein
DATACOLLECTOR=Nina Zhao
SMILES=CCCC(C(=O)c1ccc(C)cc1)N1CCCC1
INCHI="InChI=1S/C16H23NO/c1-3-6-15(17-11-4-5-12-17)16(18)14-9-7-13(2)8-10-14/h7-10,15H,3-6,11-12H2,1-2H3"
INCHIAUX=
PUBMED=N/A
SUBMITUSER=jzemlin
LIBRARYQUALITY=1
SPECTRUMID=CCMSLIB00016151217
USI=mzspec:GNPS:REFRAME-POSITIVE-LIBRARY:accession:CCMSLIB00016151217
SCANS=1345
54.816044	61325.851562
55.054783	91462.898438
65.038918	123620.375
66.95285	71343.59375
70.065369	1868706.25
72.081017	1822578.625
84.080826	1749945.125
91.054031	513477.28125
91.758842	67154.023438
93.069267	69992.859375
95.906822	66014.578125
98.059982	66763.210938
105.069824	18145892.0
109.064957	376070.65625
119.049065	5507923.5
126.127594	5970841.5
133.064713	954153.375
140.254852	104829.359375
147.116669	216408.296875
157.101212	204591.859375
158.503403	81394.523438
175.111618	9602937.0
203.12973	428756.21875
246.18515	44857160.0
END IONS

BEGIN IONS
PEPMASS=248.165
CHARGE=1
MSLEVEL=2
SOURCE_INSTRUMENT=LC-ESI-Orbitrap
FILENAME=reframe_drugs_pos_P1_H4_id.mzML
SEQ=*..*
IONMODE=Positive
ORGANISM=REFRAME-POSITIVE-LIBRARY
NAME=meperidine [M+H]+
PI=Pieter Dorrestein
DATACOLLECTOR=Nina Zhao
SMILES=CCOC(=O)C1(c2ccccc2)CCN(C)CC1
INCHI="InChI=1S/C15H21NO2/c1-3-18-14(17)15(9-11-16(2)12-10-15)13-7-5-4-6-8-13/h4-8H,3,9-12H2,1-2H3"
INCHIAUX=
PUBMED=N/A
SUBMITUSER=jzemlin
LIBRARYQUALITY=1
SPECTRUMID=CCMSLIB00016153057
USI=mzspec:GNPS:REFRAME-POSITIVE-LIBRARY:accession:CCMSLIB00016153057
SCANS=1206
55.054806	13931.551758
58.349228	11029.40625
64.820564	13161.387695
66.057564	24285.638672
70.065414	1794030.5
76.069237	22925.667969
82.065178	30441.136719
83.073044	28377.75
87.395821	12666.242188
91.054207	141936.875
96.08049	67946.945312
97.088791	29001.498047
98.096397	139418.4375
99.043922	65689.5625
103.054077	154096.125
105.06987	39311.640625
111.162773	12567.404297
116.061882	23674.806641
117.069725	134190.25
127.075027	12962.525391
129.069504	31087.695312
130.077621	14977.578125
131.085434	401866.09375
142.663254	13773.895508
143.085144	36206.03125
144.077011	14012.860352
145.065369	26720.664062
145.101166	51809.082031
151.180817	13355.432617
159.102539	15774.916016
172.112534	31089.970703
174.12764	2859606.0
175.136475	22744.185547
176.143494	175089.609375
184.112076	51077.648438
202.122452	335259.3125
218.118729	17989.419922
220.133179	2552319.5
221.629028	16394.152344
248.164429	15634619.0
266.002411	13985.876953
END IONS

BEGIN IONS
PEPMASS=343.155
CHARGE=-1
MSLEVEL=2
SOURCE_INSTRUMENT=LC-ESI-Orbitrap
FILENAME=reframe_drugs_neg_P2_A12_id.mzML
SEQ=*..*
IONMODE=Negative
ORGANISM=REFRAME-NEGATIVE-LIBRARY
NAME=Terbufibrol [M-H]-
PI=Pieter Dorrestein
DATACOLLECTOR=Nina Zhao
SMILES=CC(C)(C)c1ccc(OCC(O)COc2ccc(C(=O)O)cc2)cc1
INCHI="InChI=1S/C20H24O5/c1-20(2,3)15-6-10-18(11-7-15)25-13-16(21)12-24-17-8-4-14(5-9-17)19(22)23/h4-11,16,21H,12-13H2,1-3H3,(H,22,23)"
INCHIAUX=
PUBMED=N/A
SUBMITUSER=jzemlin
LIBRARYQUALITY=1
SPECTRUMID=CCMSLIB00016152450
USI=mzspec:GNPS:REFRAME-NEGATIVE-LIBRARY:accession:CCMSLIB00016152450
SCANS=1637
54.836735	1253.690796
56.644745	1294.543335
57.645893	1307.856934
70.747925	1403.823242
70.828209	1198.041016
92.026321	7269.04248
93.034195	138685.671875
95.01371	7919.862793
105.850128	1520.282593
106.986168	1839.605591
107.654724	1628.027588
108.021629	9072.224609
108.604965	1728.188599
133.066162	13540.941406
136.016495	7341.779297
137.008453	1853.827271
137.024353	66129.210938
149.097107	90173.90625
171.574768	1609.775024
178.711945	1750.893433
183.253464	1694.485107
193.050873	2721.610596
224.033371	1733.744995
282.812836	1876.274292
312.002289	1496.881958
343.155243	223539.1875
END IONS

BEGIN IONS
PEPMASS=231.078
CHARGE=-1
MSLEVEL=2
SOURCE_INSTRUMENT=LC-ESI-Orbitrap
FILENAME=reframe_drugs_neg_P2_C2_id.mzML
SEQ=*..*
IONMODE=Negative
ORGANISM=REFRAME-NEGATIVE-LIBRARY
NAME=phenobarbital [M-H]-
PI=Pieter Dorrestein
DATACOLLECTOR=Nina Zhao
SMILES=CCC1(c2ccccc2)C(=O)NC(=O)NC1=O
INCHI="InChI=1S/C12H12N2O3/c1-2-12(8-6-4-3-5-7-8)9(15)13-11(17)14-10(12)16/h3-7H,2H2,1H3,(H2,13,14,15,16,17)"
INCHIAUX=
PUBMED=N/A
SUBMITUSER=jzemlin
LIBRARYQUALITY=1
SPECTRUMID=CCMSLIB00016155375
USI=mzspec:GNPS:REFRAME-NEGATIVE-LIBRARY:accession:CCMSLIB00016155375
SCANS=1232
61.847473	3627.805176
68.779884	3349.453857
78.567856	3817.817383
85.004173	115871.328125
92.98317	3879.195068
112.911339	3939.995605
122.969658	6172.740234
144.082031	13239.254883
148.78389	4099.398438
183.424927	4127.250488
188.071854	188661.765625
231.077652	857347.75
END IONS

BEGIN IONS
PEPMASS=400.02
CHARGE=-1
MSLEVEL=2
SOURCE_INSTRUMENT=LC-ESI-Orbitrap
FILENAME=reframe_drugs_neg_P3_B5_id.mzML
SEQ=*..*
IONMODE=Negative
ORGANISM=REFRAME-NEGATIVE-LIBRARY
NAME=Bemetizide [M-H]-
PI=Pieter Dorrestein
DATACOLLECTOR=Nina Zhao
SMILES=CC(c1ccccc1)C1Nc2cc(Cl)c(S(N)(=O)=O)cc2S(=O)(=O)N1
INCHI="InChI=1S/C15H16ClN3O4S2/c1-9(10-5-3-2-4-6-10)15-18-12-7-11(16)13(24(17,20)21)8-14(12)25(22,23)19-15/h2-9,15,18-19H,1H3,(H2,17,20,21)"
INCHIAUX=
PUBMED=N/A
SUBMITUSER=jzemlin
LIBRARYQUALITY=1
SPECTRUMID=CCMSLIB00016155637
USI=mzspec:GNPS:REFRAME-NEGATIVE-LIBRARY:accession:CCMSLIB00016155637
SCANS=1656
51.648788	2714.087158
58.630405	3161.739502
61.969883	9596.336914
62.215065	3610.273438
63.961887	26721.84375
65.998093	5198.807129
76.018562	8744.46582
77.965057	283386.5625
78.698463	3883.651855
78.972755	23090.996094
79.956886	6337.819824
79.980675	36039.03125
81.517433	4172.065918
85.220963	11211.977539
87.011139	17748.248047
90.741028	3748.589355
92.013977	15847.603516
99.276741	3596.23999
104.037872	15302.185547
115.029633	4748.336914
118.01712	8244.652344
119.002907	4096.557129
119.025169	13293.064453
120.008949	6990.377441
121.040459	18637.353516
123.995972	74173.945312
126.01162	54448.84375
130.066315	5562.508789
131.039688	6737.146484
131.048828	65593.085938
136.027893	6509.092773
141.416519	4204.457031
146.035965	13018.147461
149.999054	7156.578125
151.006943	59480.527344
155.001907	34388.519531
155.986206	9461.113281
168.000351	7263.443359
169.008331	5704.246094
178.991974	12032.288086
181.980942	4337.083008
182.986786	9514.957031
192.994354	5076.146484
194.003479	13897.176758
195.010773	175295.390625
202.968903	130544.445312
203.97673	132321.046875
204.984344	162146.1875
211.005753	34256.367188
213.960907	83289.585938
214.968933	74067.320312
219.971725	68299.570312
229.979752	107692.554688
249.931564	4070.49292
251.943848	13507.943359
267.938477	11518.769531
268.946503	186191.734375
276.939178	29123.0625
278.929321	13951.448242
293.941772	1001267.125
294.302734	4139.72998
294.949463	57572.386719
309.047729	7184.555176
321.047485	6599.688965
336.059906	3982.324219
364.041412	5643.03418
400.019867	1840174.0
END IONS

BEGIN IONS
PEPMASS=161.987
CHARGE=1
MSLEVEL=2
SOURCE_INSTRUMENT=LC-ESI-Orbitrap
FILENAME=ms2_all_part1.mgf
SEQ=*..*
IONMODE=Positive
ORGANISM=MULTIPLEX-SYNTHESIS-LIBRARY-ALL-PARTITION-1
NAME=3,4-dichloroaniline (known isomers: 0; isobaric peaks: 0) M+H
PI=Pieter Dorrestein
DATACOLLECTOR=Abubaker patan
SMILES=NC1=CC=C(Cl)C(Cl)=C1
INCHI=InChI=1S/C6H5Cl2N/c7-5-2-1-4(9)3-6(5)8/h1-3H,9H2
INCHIAUX=N/A
PUBMED=AP_649.mzML:scan:1518
SUBMITUSER=jzemlin
LIBRARYQUALITY=1
SPECTRUMID=CCMSLIB00014903705
USI=mzspec:GNPS:MULTIPLEX-SYNTHESIS-LIBRARY-ALL-PARTITION-1:accession:CCMSLIB00014903705
SCANS=1710
52.257278	838.630005
63.761139	941.059998
75.888878	999.090027
84.960258	1686.52002
92.550987	1745.280029
96.780373	1006.289978
117.555283	1076.329956
127.018501	128676.859375
127.025673	2628.100098
139.029282	1358.569946
161.987152	257992.3125
162.970963	2172.449951
172.966599	2240.030029
179.107285	1158.099976
180.247803	1143.880005
END IONS

BEGIN IONS
PEPMASS=246.149
CHARGE=1
MSLEVEL=2
SOURCE_INSTRUMENT=LC-ESI-Orbitrap
FILENAME=ms2_all_part2.mgf
SEQ=*..*
IONMODE=Positive
ORGANISM=MULTIPLEX-SYNTHESIS-LIBRARY-ALL-PARTITION-2
NAME=bisphenol A (known isomers: 0; isobaric peaks: 0) M+NH4
PI=Pieter Dorrestein
DATACOLLECTOR=Abubaker patan
SMILES=OC1=CC=C(C=C1)C(C)(C)C2=CC=C(C=C2)O
INCHI=InChI=1S/C15H16O2/c1-15(2,11-3-7-13(16)8-4-11)12-5-9-14(17)10-6-12/h3-10,16-17H,1-2H3
INCHIAUX=N/A
PUBMED=AP_751.mzML:scan:989
SUBMITUSER=jzemlin
LIBRARYQUALITY=1
SPECTRUMID=CCMSLIB00014912607
USI=mzspec:GNPS:MULTIPLEX-SYNTHESIS-LIBRARY-ALL-PARTITION-2:accession:CCMSLIB00014912607
SCANS=1329
54.25079	1099.439941
63.124481	1138.150024
71.727173	1078.910034
92.026367	1708.849976
92.549744	2337.98999
95.049599	8086.339844
105.045502	2321.290039
135.044083	228575.109375
136.047867	1510.72998
173.293045	1170.640015
204.516647	1347.73999
END IONS

BEGIN IONS
PEPMASS=168.102
CHARGE=1
MSLEVEL=2
SOURCE_INSTRUMENT=LC-ESI-Orbitrap
FILENAME=ms2_all_part2.mgf
SEQ=*..*
IONMODE=Positive
ORGANISM=MULTIPLEX-SYNTHESIS-LIBRARY-ALL-PARTITION-2
NAME=acetyl chloride_benzyl alcohol (known isomers: 1; isobaric peaks: 1) M+NH4
PI=Pieter Dorrestein
DATACOLLECTOR=Abubaker patan
SMILES=CC(=O)OCc1ccccc1
INCHI=InChI=1S/C9H10O2/c1-8(10)11-7-9-5-3-2-4-6-9/h2-6H,7H2,1H3
INCHIAUX=N/A
PUBMED=AP_813.mzML:scan:975
SUBMITUSER=jzemlin
LIBRARYQUALITY=1
SPECTRUMID=CCMSLIB00015060634
USI=mzspec:GNPS:MULTIPLEX-SYNTHESIS-LIBRARY-ALL-PARTITION-2:accession:CCMSLIB00015060634
SCANS=39338
62.493778	905.419983
63.570621	957.039978
84.960152	7471.27002
85.9636	1463.530029
92.550003	2167.969971
94.029213	9700.759766
102.970337	3995.76001
112.03952	29478.990234
113.690079	1117.219971
120.98085	4618.419922
140.070404	38836.421875
168.080032	1536.72998
168.101593	87655.179688
168.116531	1582.880005
168.138901	2179.27002
END IONS

BEGIN IONS
PEPMASS=74.0606
CHARGE=1
MSLEVEL=2
SOURCE_INSTRUMENT=ESI-LC-ESI-QTOF
FILENAME=Massbank_ESI_positive_8_1_2014_peaks.mgf
SEQ=*..*
IONMODE=Positive
ORGANISM=MASSBANK
NAME=Massbank:PR100423 N,N-Dimethylformamide|DMF|DMFA|N,N-Dimethylmethanamide|Formyldimethylamine|Formic acid dimethylamide|N,N-Dimethylformamide(DMF) [M+H]+
PI=Putative Massbank Match
DATACOLLECTOR=Massbank
SMILES=[H]C(=O)N(C)C
INCHI=1S/C3H7NO/c1-4(2)3-5/h3H,1-2H3
INCHIAUX=N/A
PUBMED=N/A
SUBMITUSER=mwang87
LIBRARYQUALITY=3
SPECTRUMID=CCMSLIB00000223247
USI=mzspec:GNPS:MASSBANK:accession:CCMSLIB00000223247
SCANS=11379
74.0606	116.1
90.5199	2.641
99.5101	3.762
END IONS

BEGIN IONS
PEPMASS=214.063
CHARGE=1
MSLEVEL=2
SOURCE_INSTRUMENT=ESI-qTof
FILENAME=massbank-gnps.mgf
SEQ=*..*
IONMODE=Positive
ORGANISM=MASSBANK
NAME=Massbank:AU262306 Chlorpropham|propan-2-yl N-(3-chlorophenyl)carbamate M+H
PI=Massbank
DATACOLLECTOR=Massbank
SMILES=CC(C)OC(=O)NC1=CC(Cl)=CC=C1
INCHI=1S/C10H12ClNO2/c1-7(2)14-10(13)12-9-5-3-4-8(11)6-9/h3-7H,1-2H3,(H,12,13)
INCHIAUX=N/A
PUBMED=N/A
SUBMITUSER=mwang87
LIBRARYQUALITY=3
SPECTRUMID=CCMSLIB00005772309
USI=mzspec:GNPS:MASSBANK:accession:CCMSLIB00005772309
SCANS=46758
116.026299	328.0
124.0858	1280.0
126.009697	10008.0
127.013603	380.0
128.006699	2600.0
128.025894	792.0
129.008499	512.0
130.022293	324.0
139.005295	808.0
144.057205	956.0
154.004196	31068.0
155.007294	1208.0
156.001205	6100.0
157.004501	648.0
172.014694	24832.0
173.018997	1888.0
174.011597	5060.0
175.014999	344.0
END IONS

BEGIN IONS
PEPMASS=216.114
CHARGE=1
MSLEVEL=2
SOURCE_INSTRUMENT=ESI-qTof
FILENAME=massbank-gnps.mgf
SEQ=*..*
IONMODE=Positive
ORGANISM=MASSBANK
NAME=Massbank:AU242304 Quaternium-15 (free base)|Chloroallyl methenamine|1-[(Z)-3-chloroprop-2-enyl]-3,5,7-triaza-1-azoniatricyclo[3.3.1.1^{3,7}]decane M+H
PI=Massbank
DATACOLLECTOR=Massbank
SMILES=Cl\C=C/C[N+]12CN3CN(CN(C3)C1)C2
INCHI=1S/C9H16ClN4/c10-2-1-3-14-7-11-4-12(8-14)6-13(5-11)9-14/h1-2H,3-9H2/q+1/b2-1-
INCHIAUX=N/A
PUBMED=N/A
SUBMITUSER=mwang87
LIBRARYQUALITY=3
SPECTRUMID=CCMSLIB00005772318
USI=mzspec:GNPS:MASSBANK:accession:CCMSLIB00005772318
SCANS=46767
199.082596	332.0
END IONS

BEGIN IONS
PEPMASS=358.202
CHARGE=1
MSLEVEL=2
SOURCE_INSTRUMENT=ESI-qTof
FILENAME=massbank-gnps.mgf
SEQ=*..*
IONMODE=Positive
ORGANISM=MASSBANK
NAME=Massbank:AU581049 Bisphenol A diglycidyl ether|2-[[4-[2-[4-(oxiran-2-ylmethoxy)phenyl]propan-2-yl]phenoxy]methyl]oxirane M+NH4
PI=Massbank
DATACOLLECTOR=Massbank
SMILES=CC(C)(C1=CC=C(C=C1)OCC2CO2)C3=CC=C(C=C3)OCC4CO4
INCHI=1S/C21H24O4/c1-21(2,15-3-7-17(8-4-15)22-11-19-13-24-19)16-5-9-18(10-6-16)23-12-20-14-25-20/h3-10,19-20H,11-14H2,1-2H3
INCHIAUX=N/A
PUBMED=N/A
SUBMITUSER=mwang87
LIBRARYQUALITY=3
SPECTRUMID=CCMSLIB00005772424
USI=mzspec:GNPS:MASSBANK:accession:CCMSLIB00005772424
SCANS=46873
161.094803	27360.0
191.105896	325704.0
358.201813	1213132.0
END IONS

BEGIN IONS
PEPMASS=435.36
CHARGE=1
MSLEVEL=2
SOURCE_INSTRUMENT=ESI-qTof
FILENAME=massbank-gnps.mgf
SEQ=*..*
IONMODE=Positive
ORGANISM=MASSBANK
NAME=Massbank:AU247501 Tris(2-ethylhexl)phosphate|tris(2-ethylhexyl) phosphate M+H
PI=Massbank
DATACOLLECTOR=Massbank
SMILES=CCCCC(CC)COP(=O)(OCC(CC)CCCC)OCC(CC)CCCC
INCHI=1S/C24H51O4P/c1-7-13-16-22(10-4)19-26-29(25,27-20-23(11-5)17-14-8-2)28-21-24(12-6)18-15-9-3/h22-24H,7-21H2,1-6H3
INCHIAUX=N/A
PUBMED=N/A
SUBMITUSER=mwang87
LIBRARYQUALITY=3
SPECTRUMID=CCMSLIB00005772949
USI=mzspec:GNPS:MASSBANK:accession:CCMSLIB00005772949
SCANS=47398
149.022797	2380.0
211.108704	20920.0
212.1129	1988.0
229.121506	600.0
237.079193	5532.0
238.079407	1436.0
275.163086	5416.0
276.166107	968.0
293.174713	1312.0
294.177887	376.0
323.234314	21432.0
324.237	5036.0
325.237091	588.0
376.296997	644.0
386.116211	612.0
387.119812	392.0
433.335114	952.0
435.35849	14968.0
436.363312	4340.0
437.365112	788.0
END IONS

BEGIN IONS
PEPMASS=264.009
CHARGE=1
MSLEVEL=2
SOURCE_INSTRUMENT=ESI-qTof
FILENAME=massbank-gnps.mgf
SEQ=*..*
IONMODE=Positive
ORGANISM=MASSBANK
NAME=Massbank:AU261605 Parathion-methyl|Methyl parathion|dimethoxy-(4-nitrophenoxy)-sulfanylidene-lambda5-phosphane M+H
PI=Massbank
DATACOLLECTOR=Massbank
SMILES=COP(=S)(OC)OC1=CC=C(C=C1)[N+]([O-])=O
INCHI=1S/C8H10NO5PS/c1-12-15(16,13-2)14-8-5-3-7(4-6-8)9(10)11/h3-6H,1-2H3
INCHIAUX=N/A
PUBMED=N/A
SUBMITUSER=mwang87
LIBRARYQUALITY=3
SPECTRUMID=CCMSLIB00005773621
USI=mzspec:GNPS:MASSBANK:accession:CCMSLIB00005773621
SCANS=48070
124.981598	432.0
153.960495	548.0
154.969101	1052.0
185.9534	308.0
END IONS

BEGIN IONS
PEPMASS=95.0604
CHARGE=1
MSLEVEL=2
SOURCE_INSTRUMENT=ESI-qTof
FILENAME=massbank-gnps.mgf
SEQ=*..*
IONMODE=Positive
ORGANISM=MASSBANK
NAME=Massbank:AU243806 2-Aminopyridine|pyridin-2-amine M+H
PI=Massbank
DATACOLLECTOR=Massbank
SMILES=NC1=NC=CC=C1
INCHI=1S/C5H6N2/c6-5-3-1-2-4-7-5/h1-4H,(H2,6,7)
INCHIAUX=N/A
PUBMED=N/A
SUBMITUSER=mwang87
LIBRARYQUALITY=3
SPECTRUMID=CCMSLIB00005776058
USI=mzspec:GNPS:MASSBANK:accession:CCMSLIB00005776058
SCANS=50507
95.062103	656.0
END IONS

BEGIN IONS
PEPMASS=72.0444
CHARGE=1
MSLEVEL=2
SOURCE_INSTRUMENT=ESI-Orbitrap
FILENAME=library_mgf.mgf
SEQ=*..*
IONMODE=positive
ORGANISM=MONA
NAME=ACRYLAMIDE M+H
PI=MoNA
DATACOLLECTOR=MoNA:MoNA038752
SMILES=C=CC(=N)O
INCHI="InChI=1S/C3H5NO/c1-2-3(4)5/h2H,1H2,(H2,4,5)"
INCHIAUX=N/A
PUBMED=N/A
SUBMITUSER=mpanitchpakdi
LIBRARYQUALITY=3
SPECTRUMID=CCMSLIB00006678429
USI=mzspec:GNPS:MONA:accession:CCMSLIB00006678429
SCANS=159
54.034081	2.5
55.018139	100.0
55.054581	1.4
56.021519	1.2
72.044571	29.700001
END IONS
