BEGIN IONS
PEPMASS=139.04
CHARGE=1
MSLEVEL=2
SOURCE_INSTRUMENT=DI-ESI-qTof
FILENAME=f.rsilva/salicylic_acid_pos_MSMS_139.mgf;
SEQ=*..*
IONMODE=Positive
ORGANISM=GNPS-LIBRARY
NAME=Salicylic acid M+H
PI=Norberto Lopes
DATACOLLECTOR=Denise Silva
SMILES=O=C(C1=CC=CC=C1O)O
INCHI=InChI=1S/C7H6O3/c8-6-4-2-1-3-5(6)7(9)10/h1-4,8H,(H,9,10)
INCHIAUX= 
PUBMED= 
SUBMITUSER=rsilva
LIBRARYQUALITY=3
SPECTRUMID=CCMSLIB00000078854
USI=mzspec:GNPS:GNPS-LIBRARY:accession:CCMSLIB00000078854
SCANS=1
121.028969	6182.0
122.031898	183.0
124.74807	188.0
END IONS

BEGIN IONS
PEPMASS=276.164
CHARGE=1
MSLEVEL=2
SOURCE_INSTRUMENT=DI-ESI-qTof
FILENAME=f.rsilva/q_tof_25_05/gnps_Physostigmine_pos_MplusH.mgf;
SEQ=*..*
IONMODE=Positive
ORGANISM=GNPS-LIBRARY
NAME=Physostigmine M+H
PI=Norberto Lopes
DATACOLLECTOR=M??nica Pupo
SMILES=CN1C2=CC=C(OC(NC)=O)C=C2C3(C)C1N(C)CC3
INCHI=InChI=1S/C15H21N3O2/c1-15-7-8-17(3)13(15)18(4)12-6-5-10(9-11(12)15)20-14(19)16-2/h5-6,9,13H,7-8H2,1-4H3,(H,16,19)
INCHIAUX= 
PUBMED= 
SUBMITUSER=rsilva
LIBRARYQUALITY=3
SPECTRUMID=CCMSLIB00000081265
USI=mzspec:GNPS:GNPS-LIBRARY:accession:CCMSLIB00000081265
SCANS=1
147.060684	18510.0
162.086853	1133563.0
163.088913	84119.0
176.100327	301301.0
177.10466	19677.0
188.102295	81625.0
189.104797	6523.0
219.107895	820175.0
220.109207	65152.0
233.124207	160615.0
245.123215	52940.0
276.164001	7480.0
END IONS

BEGIN IONS
PEPMASS=166.123
CHARGE=1
MSLEVEL=2
SOURCE_INSTRUMENT=DI-ESI-qTof
FILENAME=gnps_Pseudoephedrine_pos_MplusH.mgf
SEQ=*..*
IONMODE=Positive
ORGANISM=GNPS-LIBRARY
NAME=Pseudoephedrine M+H
PI=Norberto Lopes
DATACOLLECTOR=Norberto Lopes
SMILES=O[C@@H]([C@@H](NC)C)C1=CC=CC=C1
INCHI=InChI=1S/C10H15NO/c1-8(11-2)10(12)9-6-4-3-5-7-9/h3-8,10-12H,1-2H3/t8-,10-/m0/s1
INCHIAUX=N/A
PUBMED=N/A
SUBMITUSER=rsilva
LIBRARYQUALITY=3
SPECTRUMID=CCMSLIB00000081578
USI=mzspec:GNPS:GNPS-LIBRARY:accession:CCMSLIB00000081578
SCANS=1
115.047081	37285.0
116.052788	4863.0
117.061867	38384.0
118.060631	4198.0
119.076317	348.0
130.058731	1943.0
131.069443	668.0
132.071747	26154.0
133.080429	105736.0
134.083786	5331.0
146.08815	595.0
148.102386	244594.0
149.107086	12939.0
166.113449	321.0
END IONS

BEGIN IONS
PEPMASS=307.169
CHARGE=1
MSLEVEL=2
SOURCE_INSTRUMENT=DI-ESI-qTof
FILENAME=gnps_Propentofylline_pos_MplusH.mgf
SEQ=*..*
IONMODE=Positive
ORGANISM=GNPS-LIBRARY
NAME=Propentofylline M+H
PI=Norberto Lopes
DATACOLLECTOR=Norberto Lopes
SMILES=CCCN1C=NC2=C1C(N(CCCCC(C)=O)C(N2C)=O)=O
INCHI=InChI=1S/C15H22N4O3/c1-4-8-18-10-16-13-12(18)14(21)19(15(22)17(13)3)9-6-5-7-11(2)20/h10H,4-9H2,1-3H3
INCHIAUX=N/A
PUBMED=N/A
SUBMITUSER=rsilva
LIBRARYQUALITY=3
SPECTRUMID=CCMSLIB00000081603
USI=mzspec:GNPS:GNPS-LIBRARY:accession:CCMSLIB00000081603
SCANS=1
124.048141	745.0
138.100494	727.0
166.092773	1185.0
167.051727	4971.0
168.054794	243.0
184.103653	671.0
209.096954	5790.0
210.099472	429.0
265.125641	121.0
307.168671	230.0
END IONS

BEGIN IONS
PEPMASS=584.279
CHARGE=1
MSLEVEL=2
SOURCE_INSTRUMENT=DI-ESI-qTof
FILENAME=gnps_Dihydroergotamine_pos_MplusH.mgf
SEQ=*..*
IONMODE=Positive
ORGANISM=GNPS-LIBRARY
NAME=Dihydroergotamine M+H
PI=Norberto Lopes
DATACOLLECTOR=Denise Silva
SMILES=[H][C@@]1([C@@](O[C@](NC([C@@H]2C[C@@](C3=C4C(C5)=CNC4=CC=C3)([H])[C@]5([H])N(C)C2)=O)(C)C6=O)(O)N6[C@H]7CC8=CC=CC=C8)CCCN1C7=O
INCHI=InChI=1S/C33H37N5O5/c1-32(35-29(39)21-15-23-22-10-6-11-24-28(22)20(17-34-24)16-25(23)36(2)18-21)31(41)38-26(14-19-8-4-3-5-9-19)30(40)37-13-7-12-27(37)33(38,42)43-32/h3-6,8-11,17,21,23,25-27,34,42H,7,12-16,18H2,1-2H3,(H,35,39)/t21-,23-,25-,26+,27+,32-,33+/m1/s1
INCHIAUX=N/A
PUBMED=N/A
SUBMITUSER=rsilva
LIBRARYQUALITY=3
SPECTRUMID=CCMSLIB00000081715
USI=mzspec:GNPS:GNPS-LIBRARY:accession:CCMSLIB00000081715
SCANS=1
154.061523	19349.0
155.067474	9249.0
168.077133	62893.0
180.075287	7770.0
182.091995	14117.0
194.09169	38493.0
195.100433	16199.0
196.105988	14388.0
197.104187	19808.0
208.073105	11867.0
210.087692	135684.0
211.092026	14050.0
222.092422	15009.0
223.115952	9345.0
225.133057	335395.0
226.136597	40388.0
227.112717	14728.0
238.106384	13230.0
241.12941	7971.0
251.114044	8538.0
253.130264	1051371.0
270.159912	1272525.0
271.158325	445786.0
286.147736	9014.0
294.156708	164814.0
297.119629	107407.0
312.166595	11108.0
322.148285	176702.0
538.271851	127813.0
566.267944	64576.0
584.278503	204400.0
END IONS

BEGIN IONS
PEPMASS=340.154
CHARGE=1
MSLEVEL=2
SOURCE_INSTRUMENT=LC-ESI-qTof
FILENAME=f.10mauriz/18_br_pos_H_25eV.mgf;
SEQ=*..*
IONMODE=Positive
ORGANISM=GNPS-LIBRARY
NAME=Papaverine M+H
PI=Norberto Lopes
DATACOLLECTOR=Lucas Marques
SMILES=COC1=C(OC)C=C2C(C(CC3=CC=C(OC)C(OC)=C3)=NC=C2)=C1
INCHI=InChI=1S/C20H21NO4/c1-22-17-6-5-13(10-18(17)23-2)9-16-15-12-20(25-4)19(24-3)11-14(15)7-8-21-16/h5-8,10-12H,9H2,1-4H3
INCHIAUX= 
PUBMED= 
SUBMITUSER=10mauriz
LIBRARYQUALITY=3
SPECTRUMID=CCMSLIB00000424788
USI=mzspec:GNPS:GNPS-LIBRARY:accession:CCMSLIB00000424788
SCANS=1
128.051285	357.0
156.046616	230.0
158.06044	243.0
171.066193	2646.0
172.070877	480.0
187.063339	419.0
188.06813	271.0
202.086182	37131.0
203.090698	3361.0
243.115204	221.0
295.117188	482.0
296.126984	2341.0
301.328461	368.0
301.905884	422.0
308.11615	238.0
310.10611	1116.0
324.120728	13881.0
325.12854	5799.0
326.133759	337.0
329.657715	241.0
329.743896	511.0
330.10611	236.0
331.210571	215.0
338.450012	225.0
340.012115	487.0
340.153778	206616.0
340.394867	538.0
340.565857	453.0
340.78125	347.0
340.878571	303.0
341.155945	19019.0
346.719116	330.0
346.80896	257.0
347.325806	301.0
765.732605	364.0
END IONS

BEGIN IONS
PEPMASS=325.19
CHARGE=1
MSLEVEL=2
SOURCE_INSTRUMENT=DI-ESI-qTof
FILENAME=f.10mauriz/19_br_pos_25eV.mgf;
SEQ=*..*
IONMODE=Positive
ORGANISM=GNPS-LIBRARY
NAME=Quinidine M+H
PI=Norberto Lopes
DATACOLLECTOR=Lucas Marques
SMILES=COC1=CC=C(N=CC=C2[C@@](O)([H])C3N4CC(C=C)C(CC4)C3)C2=C1
INCHI=InChI=1S/C20H24N2O2/c1-3-13-12-22-9-7-14(13)10-19(22)20(23)16-6-8-21-18-5-4-15(24-2)11-17(16)18/h3-6,8,11,13-14,19-20,23H,1,7,9-10,12H2,2H3/t13?,14?,19?,20-/m0/s1
INCHIAUX= 
PUBMED= 
SUBMITUSER=10mauriz
LIBRARYQUALITY=3
SPECTRUMID=CCMSLIB00000424789
USI=mzspec:GNPS:GNPS-LIBRARY:accession:CCMSLIB00000424789
SCANS=1
160.073349	521.0
166.119553	226.0
172.074692	257.0
184.075607	610.0
186.091843	127.0
198.091644	148.0
199.09346	200.0
227.114899	114.0
239.114304	119.0
253.126221	312.0
264.139465	192.0
279.142059	172.0
307.179169	1028.0
325.190338	7498.0
326.191589	776.0
330.719849	103.0
331.214111	251.0
765.730042	411.0
END IONS

BEGIN IONS
PEPMASS=403.214
CHARGE=1
MSLEVEL=2
SOURCE_INSTRUMENT=LC-ESI-qToF
FILENAME=P2_C9_conc_GE9_01_2428.mzXML
SEQ=*..*
IONMODE=Positive
ORGANISM=GNPS-LIBRARY
NAME=_130029 M+H
PI=Cichewicz
DATACOLLECTOR=Luzzatto
SMILES=O=C1C=C(OC)C(C)=C(/C=C/C=C/C=C/C(C)=C\[C@]2(C)O[C@H](C)[C@@](O)(C)[C@H]2O)O1
INCHI=N/A
INCHIAUX=N/A
PUBMED=
SUBMITUSER=tal_lk
LIBRARYQUALITY=2
SPECTRUMID=CCMSLIB00000478462
USI=mzspec:GNPS:GNPS-LIBRARY:accession:CCMSLIB00000478462
SCANS=1488
91.057396	2024.0
92.060875	256.0
94.721947	264.0
95.014076	400.0
95.088409	1756.0
96.059959	384.0
96.092598	444.0
97.02964	472.0
97.067841	1740.0
98.070129	268.0
99.079918	664.0
101.059547	252.0
103.056801	904.0
104.062134	552.0
105.035637	1428.0
105.071922	4444.0
106.078537	684.0
107.051758	1148.0
107.087547	4892.0
108.059593	720.0
108.091309	628.0
109.029854	988.0
109.066895	8136.0
109.103363	968.0
110.037193	412.0
110.070908	416.0
111.047607	1748.0
111.081429	780.0
112.051231	272.0
112.08905	492.0
113.064545	900.0
115.055725	3540.0
116.063721	1132.0
117.070938	5128.0
118.080063	1128.0
119.05085	2604.0
119.086967	6004.0
120.055565	648.0
120.09288	404.0
121.029152	340.0
121.067062	1204.0
121.104095	516.0
122.072487	632.0
122.105743	488.0
123.046936	908.0
123.082458	4408.0
124.085609	256.0
125.061188	2856.0
125.0961	464.0
126.03717	252.0
126.066833	336.0
127.043182	524.0
127.082214	380.0
128.064285	8916.0
129.071716	7964.0
130.077667	1020.0
131.050522	1872.0
131.087494	7924.0
132.056503	560.0
132.092453	1128.0
133.066498	3612.0
133.10289	3876.0
134.072281	636.0
134.106995	932.0
135.045609	1332.0
135.081985	4908.0
136.052383	316.0
136.08667	980.0
137.061295	1264.0
137.097458	6232.0
138.068481	856.0
138.09993	512.0
138.217957	264.0
139.041199	64020.0
139.076584	2860.0
140.044464	3876.0
141.067688	1836.0
142.0793	3208.0
143.049255	620.0
143.087402	19948.0
144.058029	872.0
144.091934	3680.0
145.066467	4600.0
145.099106	2208.0
146.072372	2024.0
146.106293	424.0
147.045975	1160.0
147.081146	3628.0
147.118225	1200.0
148.054504	632.0
148.086594	1092.0
149.062271	876.0
149.098053	2316.0
150.072708	648.0
151.076385	12668.0
152.081375	1884.0
153.062958	644.0
154.065414	1692.0
155.070648	3456.0
156.063644	1084.0
156.093887	1124.0
157.067413	1540.0
157.102798	5788.0
158.071854	1292.0
158.107437	1228.0
159.045303	1172.0
159.081879	3292.0
159.118088	740.0
160.087936	1476.0
161.061844	3460.0
161.097397	8052.0
162.066437	412.0
162.101395	1084.0
163.03801	676.0
163.07637	3588.0
163.111771	532.0
164.081604	684.0
165.057251	4528.0
165.091446	5520.0
166.077972	1448.0
167.071671	18752.0
168.075485	2768.0
169.061249	324.0
169.10257	2120.0
170.07135	800.0
170.110825	1096.0
171.082062	828.0
171.117111	1324.0
172.086578	488.0
172.12381	332.0
173.060028	1116.0
173.096878	3280.0
174.068954	4092.0
174.09967	568.0
175.037018	256.0
175.07576	4720.0
175.113464	2408.0
176.046906	940.0
176.084961	1008.0
177.055328	2856.0
177.092438	4440.0
177.127991	292.0
178.065308	1768.0
178.097198	908.0
178.943024	252.0
179.072708	8836.0
180.092026	2704.0
181.064362	348.0
181.098785	5024.0
182.076141	484.0
182.110138	968.0
183.080917	1924.0
183.119202	1284.0
184.091125	336.0
184.126526	544.0
185.059753	752.0
185.096268	6904.0
186.102142	1080.0
186.13237	348.0
187.076233	1128.0
187.112762	1552.0
188.082932	656.0
188.122437	524.0
189.059509	568.0
189.091263	1448.0
189.123184	468.0
190.0625	420.0
190.094452	948.0
191.072342	11656.0
192.078308	1320.0
193.087494	16932.0
194.108627	3472.0
195.084824	892.0
195.116821	4588.0
196.089584	1460.0
196.12352	1676.0
197.095337	1596.0
197.131058	868.0
198.067215	372.0
198.104111	996.0
199.074722	888.0
199.113831	1252.0
200.077438	368.0
200.120682	480.0
201.089355	1292.0
201.129807	704.0
202.092926	336.0
203.075333	1212.0
203.106628	2856.0
204.093292	1792.0
205.087387	10480.0
206.098572	3160.0
207.115738	3000.0
208.089432	712.0
208.123535	1292.0
209.087128	2136.0
209.13324	3796.0
210.104874	1368.0
210.136734	1224.0
211.080933	780.0
211.113068	3212.0
211.14975	492.0
212.079941	1048.0
212.120544	964.0
212.151978	268.0
213.091309	832.0
213.127808	1044.0
214.100754	496.0
214.135864	584.0
215.106674	720.0
215.142014	344.0
217.087234	5548.0
217.123474	468.0
218.09288	1136.0
219.071106	356.0
219.105515	3980.0
220.082764	372.0
220.124817	1452.0
221.081451	9840.0
221.132828	3224.0
222.103714	2740.0
222.141205	316.0
223.112823	5456.0
224.08429	528.0
224.116165	1648.0
225.091873	996.0
225.128723	2124.0
226.067307	304.0
226.101776	1048.0
226.134949	2364.0
227.070801	356.0
227.108078	984.0
227.143326	688.0
228.08078	368.0
228.112976	816.0
228.149338	384.0
229.085587	592.0
229.123871	920.0
229.154938	404.0
230.098694	780.0
230.124649	684.0
231.10437	1988.0
232.091095	760.0
233.112701	656.0
234.103745	484.0
235.106674	832.0
236.078156	612.0
236.120026	2768.0
237.127441	4156.0
237.165039	380.0
238.040268	264.0
238.134995	2740.0
239.108353	2096.0
239.143234	1684.0
240.07782	520.0
240.113297	1772.0
240.149292	628.0
241.087006	992.0
241.121948	484.0
241.160278	1024.0
242.097702	600.0
242.129776	412.0
242.162552	804.0
243.101166	1388.0
243.137543	732.0
243.181305	388.0
244.106812	764.0
245.065826	256.0
245.119202	1752.0
246.113144	644.0
247.110733	2264.0
248.120117	1172.0
249.091141	1652.0
250.10144	848.0
251.107452	440.0
251.141006	2516.0
252.116089	808.0
252.147552	804.0
253.083298	336.0
253.120926	1472.0
253.157135	2224.0
254.130066	1060.0
254.162811	508.0
255.100067	2268.0
255.137833	956.0
256.109528	420.0
257.117218	3224.0
257.154602	608.0
258.124969	588.0
259.133484	10028.0
260.137329	2056.0
261.126251	732.0
261.14621	716.0
263.10498	320.0
263.144775	372.0
264.111877	1592.0
265.084442	420.0
265.122559	4272.0
265.166687	284.0
266.123322	1244.0
267.104034	996.0
267.137787	992.0
268.107147	360.0
269.114258	444.0
269.153839	2428.0
270.121704	472.0
270.160645	728.0
271.136353	1744.0
272.13443	492.0
273.110229	744.0
273.152069	960.0
276.130463	356.0
279.138153	1908.0
280.137512	640.0
280.176941	276.0
281.11731	596.0
282.125122	1044.0
283.135864	1004.0
284.135864	392.0
285.14917	28420.0
286.152161	6088.0
287.164246	4900.0
288.167938	1116.0
295.130554	620.0
297.097992	284.0
297.149902	57928.0
297.260345	296.0
298.153046	10136.0
299.156189	1892.0
300.124634	356.0
300.162598	424.0
301.146606	448.0
302.149902	352.0
311.124207	400.0
313.142242	1920.0
314.149017	1048.0
315.086029	280.0
315.160767	87696.0
316.163727	13732.0
317.166107	2752.0
317.274933	308.0
317.747131	328.0
318.125305	364.0
323.162994	1008.0
325.179291	1888.0
326.184418	580.0
340.168884	460.0
341.174805	4076.0
342.175873	692.0
343.188477	516.0
344.190887	308.0
349.179199	644.0
359.206635	604.0
360.190765	288.0
367.190491	1548.0
383.135468	392.0
385.205719	816.0
386.210297	268.0
401.99707	284.0
402.189423	280.0
402.464752	328.0
403.02594	380.0
403.083099	368.0
403.214294	219344.0
403.474884	260.0
403.547668	256.0
403.590363	364.0
403.720245	312.0
403.871582	1812.0
403.920776	428.0
404.215637	62840.0
404.482605	340.0
404.883209	336.0
405.117096	340.0
405.21875	8372.0
406.033844	372.0
406.220276	1024.0
406.404572	368.0
406.788483	284.0
407.828583	296.0
1278.841797	412.0
END IONS

BEGIN IONS
PEPMASS=272.202
CHARGE=0
MSLEVEL=2
SOURCE_INSTRUMENT=LC-ESI-qTof
FILENAME=f.alan_jarmusch/GNPS_library_additions/Dextromethorphan.mzXML;
SEQ=*..*
IONMODE=Positive
ORGANISM=GNPS-LIBRARY
NAME=Dextromethorphan M+H
PI=Pieter Dorrestein
DATACOLLECTOR=alan jarmusch
SMILES=CN1CCC23CCCCC2C1CC4=C3C=C(C=C4)OC
INCHI=InChI=1S/C18H25NO/c1-19-10-9-18-8-4-3-5-15(18)17(19)11-13-6-7-14(20-2)12-16(13)18/h6-7,12,15,17H,3-5,8-11H2,1-2H3/t15-,17+,18+/m1/s1
INCHIAUX= 
PUBMED= 
SUBMITUSER=alan_jarmusch
LIBRARYQUALITY=3
SPECTRUMID=CCMSLIB00004679246
USI=mzspec:GNPS:GNPS-LIBRARY:accession:CCMSLIB00004679246
SCANS=1201
95.084061	22.0
102.045013	28.0
102.399208	17.0
103.116669	27.0
107.083504	25.0
108.734322	19.0
115.051682	270.0
116.835388	18.0
117.06871	82.0
119.044472	28.0
121.062149	1022.0
122.0672	131.0
123.04557	25.0
123.067535	27.0
127.050446	61.0
128.060898	265.0
129.060135	28.0
131.048645	67.0
131.082657	21.0
132.056152	160.0
133.097977	51.0
134.108673	34.0
135.078812	345.0
136.079117	35.0
136.114136	26.0
138.055008	18.0
138.128128	17.0
141.068008	153.0
141.540756	18.0
142.074936	27.0
142.616135	19.0
144.053329	213.0
145.062134	245.0
146.070389	77.0
146.937653	35.0
147.079117	5801.0
147.117477	26.0
147.714844	19.0
148.083038	593.0
148.234055	29.0
149.090363	19.0
149.8013	28.0
150.525528	17.0
150.578339	31.0
150.777863	19.0
150.935333	19.0
151.051682	28.0
153.068588	37.0
154.077515	27.0
155.059082	58.0
156.05748	100.0
156.091614	37.0
157.062561	107.0
157.099838	24.0
158.07196	350.0
159.079239	2378.0
160.082642	420.0
161.093307	282.0
162.098755	50.0
163.05751	43.0
164.125137	20.0
164.548492	25.0
165.068939	166.0
165.090668	62.0
166.046524	27.0
166.077148	96.0
167.086945	75.0
167.438736	19.0
168.053177	18.0
169.067581	72.0
169.097473	18.0
169.752533	22.0
170.069	195.0
170.102661	21.0
170.61705	16.0
170.7211	23.0
171.079697	9091.0
171.13205	24.0
172.05423	47.0
172.082916	1085.0
173.094772	3954.0
173.447678	18.0
173.508163	22.0
174.099442	575.0
174.515762	18.0
176.058075	21.0
177.861298	21.0
178.083511	21.0
179.083145	78.0
180.091324	40.0
180.286545	18.0
181.067276	77.0
181.100937	109.0
182.059097	26.0
182.107864	133.0
183.077499	111.0
183.124481	32.0
183.654022	19.0
184.086365	182.0
185.092758	431.0
185.220917	24.0
185.649551	20.0
186.101456	133.0
187.112305	253.0
188.113571	20.0
191.206711	16.0
195.116699	31.0
195.769089	25.0
196.287537	17.0
197.096985	139.0
198.103348	1968.0
198.149094	30.0
199.048157	17.0
199.109955	1408.0
200.118622	235.0
201.118027	21.0
201.581955	16.0
202.672745	26.0
202.89653	16.0
203.678909	24.0
206.07988	19.0
208.767365	20.0
209.10733	18.0
209.131577	50.0
210.114044	30.0
211.111496	143.0
211.971329	18.0
212.091263	23.0
212.117432	72.0
212.405396	17.0
212.759811	17.0
212.781754	16.0
212.965485	28.0
213.026093	18.0
213.127747	23022.0
213.199127	28.0
213.271149	16.0
213.327728	17.0
213.6371	34.0
213.709732	26.0
213.754364	16.0
213.997406	26.0
214.047623	33.0
214.087082	26.0
214.130325	3807.0
214.226562	45.0
214.274918	21.0
214.503372	24.0
214.537552	19.0
214.709656	30.0
214.811127	30.0
214.930344	45.0
214.957108	19.0
215.036057	32.0
215.143143	33358.0
215.241547	51.0
215.422714	18.0
215.450729	39.0
215.560822	37.0
215.640045	36.0
215.661835	27.0
215.735352	16.0
215.889465	27.0
215.911179	26.0
215.950256	20.0
216.107407	78.0
216.146805	4753.0
216.657043	24.0
216.902283	21.0
216.97612	20.0
217.067154	18.0
217.151093	351.0
217.510757	17.0
217.647812	30.0
217.797562	19.0
217.843628	20.0
218.288757	19.0
220.272324	36.0
224.714539	17.0
226.137817	27.0
227.218018	16.0
227.601959	27.0
228.321579	20.0
229.158615	149.0
230.171097	21.0
230.292282	16.0
230.75235	16.0
232.346039	20.0
233.281113	61.0
235.057999	32.0
238.016861	30.0
238.275436	35.0
239.032959	27.0
239.683929	22.0
239.988022	27.0
240.15274	17.0
240.684586	17.0
241.159454	1559.0
241.202316	30.0
241.449432	19.0
241.49469	33.0
241.939484	17.0
242.163361	324.0
243.161407	38.0
243.743835	32.0
244.159637	20.0
244.967987	21.0
245.781967	20.0
248.149109	16.0
248.387177	39.0
249.952881	25.0
250.769516	27.0
250.927521	34.0
251.159119	23.0
252.138611	22.0
252.21077	16.0
252.82756	32.0
254.661148	16.0
255.352753	19.0
255.707123	22.0
256.379395	21.0
256.663147	34.0
257.333771	19.0
257.546539	16.0
257.610016	35.0
258.137238	17.0
258.208893	20.0
258.457275	20.0
259.125214	28.0
260.182251	21.0
264.009003	29.0
265.184845	23.0
267.665649	37.0
267.698151	39.0
267.901978	22.0
268.212616	23.0
268.307312	20.0
268.470215	17.0
268.682373	24.0
268.709991	21.0
268.73407	23.0
269.25473	19.0
269.281464	41.0
269.395294	19.0
269.538757	29.0
269.643097	28.0
269.736389	41.0
269.893066	18.0
269.931213	22.0
270.126862	63.0
270.182495	75.0
270.252167	18.0
270.310486	46.0
270.369476	30.0
270.411469	30.0
270.433502	26.0
270.464813	38.0
270.517151	18.0
270.629822	18.0
270.680054	16.0
270.761261	29.0
270.797516	55.0
270.832275	35.0
270.866425	21.0
270.899536	49.0
270.970062	107.0
271.05426	84.0
271.1315	82.0
271.18573	53.0
271.215271	79.0
271.256927	77.0
271.302063	35.0
271.331726	46.0
271.354156	64.0
271.417816	57.0
271.474579	68.0
271.506744	42.0
271.546509	96.0
271.594452	55.0
271.640137	42.0
271.67865	84.0
271.716888	87.0
271.7547	55.0
271.80661	76.0
271.829407	53.0
271.895355	140.0
271.927856	152.0
272.00415	108.0
272.049957	252.0
272.088837	243.0
272.201721	449710.0
272.319977	46.0
272.354095	17.0
272.420532	3989.0
272.481232	1521.0
272.523926	47.0
272.55542	61.0
272.670563	3763.0
272.76004	56.0
272.784454	41.0
272.820526	90.0
272.86322	1851.0
272.923187	21.0
272.973389	45.0
273.018066	109.0
273.058777	270.0
273.101135	98.0
273.204956	117746.0
273.423584	350.0
273.476593	61.0
273.640228	58.0
273.756561	29.0
273.781189	33.0
273.839233	46.0
273.901001	31.0
274.034149	56.0
274.064697	48.0
274.134186	27.0
274.209351	8848.0
274.33316	31.0
274.386993	17.0
274.417694	36.0
274.526672	22.0
274.567657	36.0
274.652405	37.0
274.692139	41.0
274.72464	22.0
274.828766	92.0
274.86615	60.0
274.930969	38.0
274.963501	18.0
275.040009	151.0
275.128357	50.0
275.22052	12955.0
275.284729	68.0
275.326385	59.0
275.376587	37.0
275.397583	26.0
275.424225	42.0
275.525269	20.0
275.561188	32.0
275.689087	29.0
275.76004	26.0
276.023224	21.0
276.061035	29.0
276.091675	22.0
276.15271	16.0
276.180939	22.0
276.221436	85.0
276.274475	38.0
276.297729	43.0
276.351349	28.0
276.408478	36.0
276.520782	19.0
276.641327	17.0
276.82016	22.0
276.911957	17.0
277.035858	31.0
277.386261	18.0
277.907318	16.0
283.384674	22.0
283.88858	20.0
284.105988	17.0
284.187317	26.0
285.018646	33.0
285.184143	16.0
285.873932	21.0
286.171814	26.0
287.14267	18.0
288.92691	29.0
289.418854	52.0
289.461487	16.0
289.659821	17.0
289.74942	18.0
289.964996	23.0
291.574677	19.0
292.528564	17.0
295.399231	20.0
302.393463	20.0
304.186462	17.0
304.630371	32.0
313.213257	27.0
318.170502	23.0
320.158295	18.0
326.607941	17.0
339.214844	18.0
358.079041	32.0
377.043701	21.0
440.311615	17.0
558.878052	16.0
580.391846	17.0
658.335266	19.0
718.57373	19.0
812.024719	21.0
968.068054	28.0
1004.641907	17.0
1394.080933	21.0
1455.877808	18.0
1475.3927	16.0
END IONS

BEGIN IONS
PEPMASS=258.186
CHARGE=0
MSLEVEL=2
SOURCE_INSTRUMENT=LC-ESI-qTof
FILENAME=f.alan_jarmusch/GNPS_library_additions/dextrorphan.mzXML;
SEQ=*..*
IONMODE=Positive
ORGANISM=GNPS-LIBRARY
NAME=Dextrorphan M+H
PI=Pieter Dorrestein
DATACOLLECTOR=alan jarmusch
SMILES=CN1CCC23CCCCC2C1CC4=C3C=C(C=C4)O
INCHI=InChI=1S/C17H23NO/c1-18-9-8-17-7-3-2-4-14(17)16(18)10-12-5-6-13(19)11-15(12)17/h5-6,11,14,16,19H,2-4,7-10H2,1H3/t14-,16+,17+/m1/s1
INCHIAUX= 
PUBMED= 
SUBMITUSER=alan_jarmusch
LIBRARYQUALITY=3
SPECTRUMID=CCMSLIB00004679248
USI=mzspec:GNPS:GNPS-LIBRARY:accession:CCMSLIB00004679248
SCANS=1003
83.081764	20.0
105.067375	29.0
107.046753	167.0
108.798256	17.0
115.049492	40.0
116.053474	51.0
116.072845	26.0
117.065697	44.0
118.853683	29.0
121.062309	60.0
121.102539	17.0
122.062325	31.0
127.041725	41.0
128.058563	147.0
129.065536	74.0
130.070389	20.0
131.047012	112.0
131.081146	112.0
132.051697	63.0
132.086151	35.0
133.014282	32.0
133.06311	3029.0
134.068268	247.0
135.058685	27.0
135.084946	20.0
136.017365	16.0
138.266769	17.0
141.065018	49.0
144.062042	32.0
145.062973	1287.0
146.066345	187.0
147.078827	89.0
147.106781	19.0
148.981735	21.0
152.057358	26.0
153.061401	29.0
155.033188	32.0
155.061386	20.0
157.064011	3187.0
157.104156	64.0
158.06636	357.0
159.03421	22.0
159.079147	1729.0
160.082352	146.0
165.066559	55.0
166.057343	17.0
166.07579	20.0
168.529984	17.0
169.040436	23.0
169.060165	27.0
169.07869	20.0
170.071045	97.0
171.077011	171.0
171.114288	300.0
172.085861	34.0
172.106873	31.0
174.081604	22.0
177.033142	21.0
178.208694	36.0
178.707016	43.0
178.997116	25.0
179.087021	41.0
179.70668	16.0
181.097076	48.0
181.704712	38.0
182.254669	74.0
182.972656	33.0
183.076599	39.0
183.117294	17.0
183.447815	25.0
184.083466	60.0
185.049866	22.0
185.096405	745.0
186.100937	217.0
186.396317	17.0
187.108627	36.0
188.033188	18.0
189.203186	22.0
195.043427	18.0
197.099869	17.0
197.565414	22.0
198.104004	58.0
198.134125	25.0
198.492325	31.0
198.655762	18.0
199.02034	44.0
199.11142	16580.0
199.43634	16.0
199.748993	21.0
199.93103	24.0
200.114502	2469.0
200.764145	26.0
200.993164	17.0
201.126984	16024.0
201.33316	47.0
201.421066	20.0
201.587418	16.0
201.606873	17.0
201.936615	17.0
202.085541	21.0
202.129807	1958.0
202.547226	17.0
202.788971	17.0
203.133011	123.0
203.514404	16.0
203.602753	16.0
203.71492	21.0
203.760849	25.0
203.868652	18.0
204.826767	21.0
207.84288	16.0
208.304153	18.0
209.107971	63.0
210.109543	52.0
210.313721	25.0
215.142929	65.0
218.147415	23.0
218.891663	18.0
221.689819	32.0
224.581223	21.0
224.758255	30.0
227.090027	22.0
227.142532	1050.0
227.277359	26.0
228.148392	172.0
228.806885	21.0
229.149872	20.0
229.184418	16.0
232.333908	26.0
234.943329	22.0
235.57164	18.0
235.850769	26.0
236.944763	23.0
239.817291	30.0
243.174225	27.0
251.577774	34.0
254.440903	22.0
254.626816	20.0
254.703613	27.0
255.546875	32.0
255.588226	20.0
255.682053	26.0
255.876846	33.0
255.968475	16.0
256.027557	24.0
256.208984	23.0
256.245819	60.0
256.308167	20.0
256.3526	31.0
256.37439	35.0
256.431061	46.0
256.53537	24.0
256.585632	33.0
256.635376	23.0
256.670685	27.0
256.701538	32.0
256.754242	17.0
256.788513	26.0
256.869171	23.0
256.89032	26.0
256.943237	31.0
257.030487	37.0
257.066193	63.0
257.13089	40.0
257.178314	89.0
257.192749	103.0
257.221222	71.0
257.246735	89.0
257.310181	51.0
257.343048	55.0
257.379486	47.0
257.404297	24.0
257.432465	18.0
257.457947	18.0
257.493195	57.0
257.521851	20.0
257.604736	16.0
257.632599	45.0
257.66626	32.0
257.711151	27.0
257.739532	31.0
257.786621	94.0
257.81427	53.0
257.864563	49.0
257.895081	110.0
257.946289	91.0
258.004303	111.0
258.03476	160.0
258.074463	135.0
258.185791	386723.0
258.279205	46.0
258.398987	1609.0
258.456909	483.0
258.508179	38.0
258.535522	39.0
258.573639	136.0
258.598267	139.0
258.641418	1812.0
258.720825	42.0
258.761108	18.0
258.82959	688.0
258.914642	40.0
258.968353	53.0
259.003998	54.0
259.053101	67.0
259.188934	84905.0
259.263733	42.0
259.29657	24.0
259.402924	58.0
259.415192	69.0
259.45636	27.0
259.539703	18.0
259.565918	17.0
259.604401	91.0
259.658295	25.0
259.683685	27.0
259.799927	58.0
259.878265	23.0
259.981964	21.0
260.024231	50.0
260.11087	40.0
260.193481	6969.0
260.249542	21.0
260.353912	39.0
260.4758	36.0
260.546722	35.0
260.575378	46.0
260.626648	42.0
260.689301	29.0
260.714966	18.0
260.757233	54.0
260.792175	62.0
260.846893	24.0
260.880096	41.0
260.930878	64.0
260.960968	48.0
260.996796	118.0
261.020935	90.0
261.061249	64.0
261.204041	7767.0
261.272705	35.0
261.29953	36.0
261.369385	78.0
261.492004	21.0
261.607635	17.0
261.658356	17.0
261.839569	34.0
261.977478	33.0
262.010193	25.0
262.095825	46.0
262.151764	40.0
262.206512	104.0
262.258087	16.0
262.310852	32.0
262.454529	23.0
262.485016	26.0
262.630768	18.0
262.679596	27.0
263.009766	18.0
267.067993	16.0
268.358948	18.0
270.069946	16.0
271.169769	22.0
274.847595	25.0
275.38446	24.0
277.995148	24.0
278.922424	17.0
287.62851	29.0
297.041168	17.0
299.122009	16.0
299.212799	27.0
300.211761	16.0
317.320496	24.0
326.925934	29.0
340.302643	21.0
349.844879	17.0
360.227142	21.0
367.273987	17.0
438.856506	29.0
449.495667	19.0
471.782196	17.0
538.060791	18.0
542.964294	17.0
626.83136	16.0
651.935364	23.0
676.340942	25.0
682.003906	19.0
698.938477	22.0
705.543945	17.0
777.187195	20.0
981.574097	16.0
1051.608398	23.0
1102.97644	20.0
END IONS

BEGIN IONS
PEPMASS=136.112
CHARGE=1
MSLEVEL=2
SOURCE_INSTRUMENT=LC-ESI-Orbitrap
FILENAME=f.Francesca90/drug_RIS 2/180523_MIX60_INCLUSION (1).mzXML;
SEQ=*..*
IONMODE=Positive
ORGANISM=GNPS-LIBRARY
NAME=Amphetamine M+H
PI=Manuel Sergi
DATACOLLECTOR=23.05.2018
SMILES=CC(CC1=CC=CC=C1)N
INCHI= 
INCHIAUX= 
PUBMED= 
SUBMITUSER=Francesca90
LIBRARYQUALITY=3
SPECTRUMID=CCMSLIB00004679311
USI=mzspec:GNPS:GNPS-LIBRARY:accession:CCMSLIB00004679311
SCANS=321
51.023281	499.733887
51.023624	810.96106
51.023972	887.906982
51.024319	693.93689
51.024662	383.2995
51.165298	309.276062
51.165646	694.114929
51.165993	919.506836
51.16634	839.634277
51.166687	533.274841
52.233833	255.182648
52.234192	617.287109
52.23455	905.005981
52.234909	917.394653
52.235268	659.290833
52.235626	313.652252
52.633537	274.685425
52.6339	627.99353
52.634262	856.554565
52.634624	812.769226
52.634983	546.010071
52.635345	240.554901
53.038578	314.167053
53.038944	672.196655
53.03931	909.483826
53.039677	851.785767
53.040043	539.121216
67.053528	276.766479
67.054047	732.669373
67.054565	1111.542969
67.055092	1118.429565
67.055611	736.499023
67.056129	260.030121
77.326103	358.268402
77.326752	688.738037
77.327393	821.145752
77.328041	646.35498
77.328682	295.564697
79.052498	501.933258
79.053169	2118.51416
79.053833	3930.872559
79.054497	5721.620117
79.055168	5340.322266
79.055832	3244.199951
79.056496	1289.9375
80.056557	343.88681
80.057236	732.162415
80.057915	966.833618
80.058594	852.028198
80.059273	470.623077
81.068092	312.650513
81.068779	1457.385742
81.069473	3421.198486
81.070168	5549.464844
81.070854	5770.244141
81.071548	3692.267334
81.072243	1694.21936
81.072937	297.583038
90.887993	382.927094
90.888817	764.677307
90.889641	1010.252625
90.890457	938.282471
90.891281	597.701355
91.047585	969.890625
91.048409	3489.0271
91.049232	6525.994629
91.050056	9761.254883
91.05088	10296.430664
91.051704	31284.230469
91.052528	117083.09375
91.053352	264966.4375
91.054176	424997.625
91.055	458685.6875
91.055824	309862.0
91.056648	160401.59375
91.057472	48486.191406
91.058296	16093.334961
91.05912	11038.944336
91.059944	7290.77832
91.060768	2409.87085
91.061592	1152.36853
92.053734	220.397629
92.054573	743.483032
92.055412	3040.638428
92.056252	10022.404297
92.057091	18334.482422
92.057922	25750.769531
92.058762	22071.097656
92.059601	13342.079102
92.06044	5238.758789
92.061279	1334.762329
92.062111	367.584412
93.068031	232.207855
93.068886	684.051208
93.069733	1109.943848
93.070587	1199.091431
93.071434	896.44635
93.072289	430.709534
95.046486	188.826645
95.047363	683.035278
95.048248	1549.80249
95.049126	3208.294678
95.050003	3277.342041
95.05088	1701.993774
95.051758	827.075623
95.052643	279.429291
95.083412	618.703796
95.08429	1355.973145
95.085167	2797.330322
95.086044	3692.669678
95.086929	2015.142944
95.087807	1181.259644
95.088684	445.971893
105.030197	394.421448
105.031212	1028.443237
105.032234	2271.843262
105.033257	3697.541504
105.034279	3665.032959
105.035301	2289.690918
105.036316	837.305908
105.037338	250.132553
105.067978	537.019531
105.069	1196.233765
105.070023	1700.05542
105.071037	1682.025391
105.07206	1168.58667
105.073082	538.517517
107.04641	664.514526
107.047462	2220.80957
107.048515	3833.012695
107.049561	4745.160645
107.050613	3477.325195
107.051666	1871.056274
107.052711	582.96936
107.083183	537.18634
107.084236	1219.691406
107.085289	1831.270874
107.086342	1953.494263
107.087387	1492.724854
107.08844	774.199524
107.089493	235.130295
108.079025	514.833008
108.080093	997.835571
108.081154	1247.323853
108.082222	1068.488403
108.08329	597.95343
109.061813	505.480255
109.062889	1626.463013
109.063972	3255.176758
109.065056	4697.106445
109.066132	4065.17334
109.067215	2425.213623
109.068291	871.787048
109.069374	303.504364
109.098549	400.358215
109.099632	866.431824
109.100708	1190.319458
109.101791	1125.879761
109.102875	717.959229
109.103951	254.843704
118.062927	656.801208
118.064148	1267.737061
118.065361	1683.765137
118.066582	1604.560669
118.067795	1095.513794
118.069016	498.434174
119.076797	370.049713
119.078033	1234.226318
119.079262	1816.125244
119.080498	3322.902832
119.081726	12840.03418
119.082962	44124.925781
119.08419	83472.953125
119.085426	121002.070312
119.086655	108464.570312
119.087891	66939.570312
119.089119	28743.001953
119.090355	8077.928223
119.091591	2756.078613
119.092819	2151.513428
119.094055	980.393799
119.095284	949.741882
119.096519	378.370026
120.084747	453.447968
120.085999	2471.495605
120.087242	5034.687988
120.088493	7501.473145
120.089737	6654.690918
120.090988	3991.936768
120.092239	1573.289429
120.093483	382.559387
121.083473	393.994385
121.08474	1510.378418
121.085999	5188.743652
121.087265	9790.362305
121.088531	14007.93457
121.08979	12337.40332
121.091057	7512.219727
121.092323	3024.019043
121.093582	731.360596
121.094849	158.951584
123.859833	436.931854
123.861137	757.014465
123.86245	908.505737
123.863754	784.067627
123.865067	457.659119
135.03685	634.509705
135.03833	2321.637451
135.039825	9528.897461
135.041306	27021.513672
135.042801	45773.257812
135.044281	56725.265625
135.045776	42252.207031
135.047272	24038.505859
135.048752	7716.606934
135.050247	2276.22583
135.051727	1255.340088
135.053253	1342.824951
135.054733	1119.667969
135.056229	468.325592
135.075485	657.821533
135.076965	2814.563232
135.078461	5588.112793
135.079941	8307.019531
135.081436	7689.188965
135.082916	4768.880371
135.084412	2067.552246
135.085907	422.39621
135.114304	569.260315
135.115784	930.450562
135.117279	1023.262512
135.118774	769.481079
135.120255	353.306763
136.01091	226.70018
136.012421	1041.317993
136.013916	1148.29834
136.015427	2932.25293
136.016937	12034.058594
136.018433	39510.777344
136.019943	70577.484375
136.021439	96213.8125
136.022949	79332.507812
136.02446	47399.308594
136.025955	17970.574219
136.027466	4965.061523
136.028961	1488.162842
136.030472	894.113159
136.042694	1558.886963
136.044189	3904.208984
136.0457	7008.899902
136.047195	10281.94043
136.048706	9790.852539
136.050217	6073.842773
136.051712	2490.215088
136.053223	336.097351
136.056122	108.055527
136.057632	1236.71582
136.059128	3531.460693
136.060638	5620.581543
136.062149	6041.476074
136.063644	4397.734375
136.065155	1967.615234
136.06665	315.954437
136.070892	1080.095093
136.072403	4998.375
136.073914	9448.235352
136.075409	13064.542969
136.07692	10623.785156
136.07843	6274.360352
136.079926	2209.730957
136.081436	840.140991
136.083221	874.948364
136.084717	1141.781616
136.086227	674.545288
136.104218	12.41349
136.105728	777.600708
136.107239	4223.740723
136.108734	14831.692383
136.110245	27848.853516
136.111755	39977.046875
136.113251	35276.8125
136.114761	21656.269531
136.116272	9190.688477
136.117767	2626.296631
136.119278	806.870667
136.120789	382.545288
136.857376	334.398743
136.858887	691.177734
136.860413	936.785583
136.861923	909.960632
136.863449	626.431213
137.018463	216.787628
137.019989	686.190613
137.021515	2418.935547
137.023041	4303.770508
137.024551	5953.919922
137.026077	5176.932129
137.027603	3135.937988
137.029114	1171.672241
137.03064	68.792938
137.051865	214.653748
137.053391	1405.001587
137.054901	4068.076172
137.056427	6819.765625
137.057953	9007.539062
137.059479	7541.416504
137.060989	4591.788086
137.062515	1905.294189
137.064041	341.490967
137.067154	748.462708
137.06868	863.322449
137.070206	834.068909
137.071732	642.890076
137.091507	444.20108
137.093033	2089.998779
137.094559	4037.403564
137.096085	5635.128906
137.09761	4621.309082
137.099121	2730.573975
137.100647	841.649963
137.102173	226.445557
137.103699	857.246338
137.105209	1289.330078
137.106735	1338.362915
137.108261	909.6026
137.109787	351.55188
137.112823	318.923065
137.114349	735.337646
137.115875	938.62677
137.117401	749.23291
137.118927	353.806976
END IONS

BEGIN IONS
PEPMASS=300.159
CHARGE=1
MSLEVEL=2
SOURCE_INSTRUMENT=LC-ESI-Orbitrap
FILENAME=f.Francesca90/drug_RIS 2/180523_MIX60.mzXML;
SEQ=*..*
IONMODE=Positive
ORGANISM=GNPS-LIBRARY
NAME=Codeine M+H
PI=Manuel Sergi
DATACOLLECTOR=23.05.2018
SMILES=CN1CCC23C4C1CC5=C2C(=C(C=C5)OC)OC3C(C=C4)O
INCHI= 
INCHIAUX= 
PUBMED= 
SUBMITUSER=Francesca90
LIBRARYQUALITY=3
SPECTRUMID=CCMSLIB00004679363
USI=mzspec:GNPS:GNPS-LIBRARY:accession:CCMSLIB00004679363
SCANS=279
50.488258	749.618347
50.488598	1135.176147
50.488937	1167.42688
50.489277	827.030151
50.489616	350.886322
56.049194	611.103699
56.049591	1057.417236
56.049992	1273.127686
56.050388	1080.581665
56.050785	594.62616
58.062691	255.08345
58.06311	2010.846558
58.06353	1806.320679
58.064144	3313.541504
58.064564	7329.07959
58.064983	19435.777344
58.065403	34291.378906
58.065823	47116.585938
58.066242	39366.4375
58.066662	22981.583984
58.067081	7427.108398
64.402374	524.234436
64.402863	960.4552
64.403358	1173.065674
64.403847	995.949097
64.404335	546.922241
89.057976	542.402649
89.058769	1247.63562
89.05957	1788.852783
89.060364	1750.986694
89.061157	1154.353516
89.061958	446.940643
93.068825	821.066284
93.069672	1339.704102
93.070526	1462.237183
93.071381	1056.000366
93.072227	440.520966
121.060661	701.522217
121.061928	1795.008057
121.063194	4170.495605
121.064453	5719.065918
121.06572	4662.67334
121.066978	1985.264771
121.068245	794.534058
137.054901	961.180969
137.056412	2925.914795
137.057938	5450.696777
137.059464	7550.036621
137.060989	6319.54248
137.0625	3777.81665
137.064026	1190.81311
137.065552	346.635895
144.053421	660.260132
144.055054	1255.255981
144.056702	1685.614136
144.058334	1631.416016
144.059982	1060.824097
153.065979	652.566956
153.06778	1417.127441
153.06958	1892.540894
153.071381	1752.39856
153.073166	1150.009644
153.074966	488.936829
155.079254	751.38916
155.081085	1532.196777
155.082916	3910.0354
155.084747	6524.830078
155.086578	6484.006348
155.088409	3924.348145
155.09024	1673.115112
155.092072	683.50946
158.068909	684.811157
158.070801	1177.546265
158.072678	1456.322632
158.07457	1293.16272
158.076447	787.856262
159.074524	602.173035
159.076431	1614.71521
159.078339	2945.418213
159.080231	5620.647949
159.082138	4568.098633
159.084045	2216.81543
159.085953	957.172607
161.052536	656.129639
161.054474	3393.26709
161.056412	7676.882812
161.05835	12181.370117
161.060287	12602.629883
161.062225	8251.969727
161.064163	3968.989014
161.066101	990.334656
162.08699	625.134094
162.088943	1271.173462
162.090897	1664.026733
162.092865	1494.827393
162.094818	895.302124
164.912399	426.377563
164.914413	1153.85437
164.916412	3452.940186
164.918427	5915.779785
164.920441	7608.358887
164.92244	5849.70166
164.924454	3257.207764
164.926468	712.262817
165.062561	404.655457
165.064575	3087.611572
165.066574	6737.664062
165.068588	10328.245117
165.070602	9471.512695
165.072617	5782.982422
165.074631	2416.698486
165.076645	589.131775
168.053757	881.892578
168.055817	1326.257324
168.057892	1492.918335
168.059952	1294.906372
168.062027	808.557312
171.073318	388.733093
171.075439	1133.83313
171.07756	2146.341797
171.079681	2754.469971
171.081802	2559.249512
171.083923	1731.320068
171.086044	812.648987
174.061752	798.546997
174.063934	1398.833862
174.066116	1821.32019
174.068298	1816.047363
174.070465	1338.702393
174.072647	661.82428
175.067291	400.330475
175.069489	2941.059814
175.071686	6387.807617
175.073883	10116.942383
175.07608	9995.737305
175.078278	6378.077637
175.080475	3054.722412
175.082672	992.144348
177.238724	702.510254
177.240967	1265.217041
177.24321	1505.64856
177.245438	1328.223755
177.247681	926.515564
178.080933	429.677368
178.083191	1097.74707
178.085434	1519.736328
178.087692	1376.031982
178.089951	833.708984
180.097061	895.925293
180.099365	1771.889282
180.101654	2251.853027
180.103943	1909.626221
180.106232	995.155212
181.056747	247.667297
181.059067	2313.47583
181.061371	5401.860352
181.06369	8684.529297
181.065994	9101.526367
181.068314	6074.34082
181.070618	3126.563477
181.072922	719.443665
181.096039	1068.210815
181.098358	1832.024048
181.100662	2141.073975
181.102982	1849.088135
181.105286	1226.180542
181.10759	605.48938
183.062759	960.693298
183.065109	2585.459473
183.067459	1371.27002
183.069809	1156.000732
183.072159	2964.1875
183.074509	10805.588867
183.076859	23001.421875
183.079208	35999.121094
183.081558	36813.789062
183.083908	23922.902344
183.086258	11603.969727
183.088608	3022.076416
183.090958	814.775757
184.079437	829.425842
184.081802	1464.832642
184.084183	1814.464966
184.086548	1585.785645
184.088913	945.46637
186.061325	647.320557
186.063721	1384.509888
186.066132	1944.974121
186.068542	1988.808838
186.070953	1475.744019
186.073349	718.531616
187.06456	688.272705
187.066986	1767.845215
187.069412	6251.072266
187.071838	13625.624023
187.074265	21689.248047
187.076691	22580.160156
187.079117	14616.621094
187.081543	6893.844238
187.083969	1602.964966
187.086395	348.623474
187.103119	754.514954
187.105545	2063.166992
187.107971	4308.978516
187.110397	6697.571289
187.112823	6693.229492
187.11525	4339.67334
187.117676	2046.891968
187.120102	663.941162
191.078156	462.069702
191.080658	1358.734741
191.08316	2308.284668
191.085678	2652.129639
191.088181	2186.688477
191.090683	1270.365845
191.093185	449.13916
192.094238	862.012512
192.096756	3280.987549
192.099289	5853.360352
192.101807	7560.412109
192.10434	5740.466309
192.106857	3250.018799
192.10939	806.771973
193.054611	446.828979
193.057159	3190.156494
193.059708	9146.243164
193.062256	15592.370117
193.064789	18675.083984
193.067337	13473.162109
193.069885	7451.585938
193.072433	2260.589844
193.074966	521.876526
194.066299	965.472351
194.068863	1987.036377
194.071426	2774.230713
194.07399	2743.091064
194.076553	1930.638672
194.079117	939.518921
195.075317	872.840332
195.077911	1536.997192
195.08049	1817.408325
195.083069	1453.028076
195.085663	711.782288
197.088257	550.69928
197.090881	1530.246826
197.093506	2542.173096
197.09613	2869.90918
197.098755	2294.460938
197.101379	1270.90979
197.104004	433.364594
199.063095	355.742706
199.06575	2767.262451
199.06842	11546.628906
199.071091	25157.150391
199.073746	39769.785156
199.076416	41596.113281
199.079071	27667.677734
199.081741	14103.80957
199.084396	3885.216797
199.087067	713.949097
200.073944	761.727356
200.07663	1779.233521
200.079315	2761.270264
200.082001	3264.303467
200.084686	3054.398193
200.087372	2220.791504
200.090057	1200.16333
200.092743	517.150208
201.084274	1122.424316
201.086975	2197.689697
201.089676	2875.029053
201.092392	2581.720947
201.095093	1555.270508
201.097794	587.944763
207.072525	775.003967
207.075348	1808.296387
207.078186	2928.143555
207.081009	3454.493164
207.083832	2947.716797
207.086655	1734.780518
207.089478	681.728821
208.079437	653.275696
208.082291	1181.614868
208.085144	1396.642822
208.087982	1208.941406
208.090836	805.062439
209.050339	1299.245117
209.053207	4842.927734
209.056076	8478.970703
209.058945	11292.509766
209.061813	9262.75293
209.064682	5506.692871
209.067551	1876.226929
209.070404	150.531021
209.087982	753.175232
209.090851	1820.466675
209.093719	3032.331543
209.096588	5748.068848
209.099457	4715.184082
209.102325	2163.172852
209.105194	954.291565
211.066116	1010.502991
211.069016	3756.667725
211.07193	6973.465332
211.074844	9650.448242
211.077744	7709.986328
211.080658	4377.23584
211.083572	1309.17395
211.086472	106.904495
212.075974	943.783691
212.078903	1813.016357
212.081833	2306.881592
212.084763	2112.442139
212.087692	1455.952637
212.090622	750.478027
213.066544	776.663269
213.069489	1260.021606
213.072449	1397.346313
213.075394	1149.125244
213.080231	981.550964
213.083176	4276.831055
213.086136	8068.868652
213.089081	11522.62207
213.092026	9732.647461
213.094986	5749.192871
213.097931	2261.323975
213.100876	732.485229
215.089676	1057.043945
215.092667	2008.533447
215.095657	7831.425293
215.098648	28872.699219
215.101639	66767.9375
215.10463	107974.984375
215.10762	119538.234375
215.110611	82170.703125
215.113602	43183.433594
215.116608	12446.185547
215.119598	3220.702393
215.122589	1894.55481
215.12558	1342.766968
215.12851	2839.562744
216.099396	779.186951
216.102417	2892.107178
216.105423	5965.178711
216.108444	9313.736328
216.11145	9781.333984
216.114471	6387.146484
216.117477	3065.060547
216.120483	462.726166
219.072296	1412.036987
219.075378	4241.708496
219.078445	7298.809082
219.081528	8072.034668
219.084595	5482.40918
219.087677	2879.369385
219.090759	676.286926
221.084991	650.91217
221.088104	2783.794434
221.091217	5776.354492
221.094345	9015.693359
221.097458	8961.429688
221.100571	5588.73877
221.103699	2341.062988
221.106812	303.218475
223.065491	815.998779
223.068649	3539.790039
223.071808	6579.666016
223.074966	9097.269531
223.078125	7755.766602
223.081284	4699.49707
223.084442	1726.07312
223.087616	248.403275
224.076874	594.205261
224.080048	1166.362793
224.083237	1518.103027
224.086411	1299.89978
224.0896	667.446228
225.079071	3541.709717
225.082275	13306.496094
225.085464	31517.304688
225.088669	51238.578125
225.091873	57155.886719
225.095078	39261.144531
225.098282	20430.363281
225.101486	5968.356445
225.104691	1804.995361
225.107895	1071.816406
226.0849	402.692413
226.088135	1138.503296
226.091354	2145.338623
226.094574	2811.55957
226.097809	2566.190918
226.101028	1569.033936
226.104248	568.803894
236.073273	508.312408
236.076706	1260.886963
236.080139	1949.785889
236.083588	2078.805664
236.087021	1537.422241
236.090469	724.617004
237.080994	560.311646
237.084457	1243.654419
237.087921	1725.348267
237.091385	1704.793701
237.094833	1198.351318
237.098297	506.650085
241.070114	376.583435
241.073654	1496.635132
241.077209	6113.521973
241.080765	12079.734375
241.084305	17711.025391
241.08786	15966.948242
241.091415	9792.839844
241.094955	4120.632812
241.098511	863.848267
243.078171	450.476685
243.081772	1496.310059
243.085373	2348.093262
243.088959	7877.414062
243.09256	27983.775391
243.096146	57959.425781
243.099747	89835.578125
243.103333	90024.757812
243.106934	58281.726562
243.110535	28329.609375
243.11412	7946.002441
243.117722	2469.021973
243.121323	2076.276855
243.124908	1533.020264
243.128464	1558.337524
243.132065	0.546349
244.094925	1083.949585
244.098541	2876.788086
244.102158	5285.176758
244.105774	6649.078613
244.10939	4537.648438
244.113007	2177.86377
244.116623	763.509583
251.092499	322.566864
251.096283	1839.542358
251.100052	5243.447266
251.103821	8752.998047
251.107605	10466.924805
251.111374	7627.822754
251.115143	4033.9021
251.118927	1107.468994
253.109787	690.654236
253.113602	3121.62085
253.117432	6445.353516
253.121246	9921.594727
253.125061	10389.272461
253.128891	6938.416992
253.132706	3487.49585
253.13652	640.739502
266.107391	868.291565
266.111511	1882.397095
266.115631	2682.766357
266.119751	2731.53125
266.123871	1979.746704
266.127991	932.467468
267.110657	942.20105
267.114807	2908.87915
267.118958	5729.775879
267.123077	8509.805664
267.127228	8015.268066
267.131378	4963.622559
267.135498	2067.506836
267.139648	134.7939
282.128143	828.964539
282.13266	3785.898438
282.137146	14508.253906
282.141632	31941.392578
282.146118	50933.558594
282.150635	53490.355469
282.155121	35285.660156
282.159607	17653.0625
282.164124	5027.547852
282.16861	1414.581421
282.173096	658.337158
283.137726	878.84137
283.142242	2344.419922
283.146759	4352.06543
283.151276	5810.620117
283.155792	4567.614746
283.160309	1888.592041
283.164825	634.448425
285.122711	589.534973
285.127258	1377.233398
285.131836	2320.033447
285.136414	2882.161377
285.140961	2618.395508
285.145538	1681.184692
285.150116	715.635254
300.103699	21168.578125
300.118561	8585.131836
300.123505	20405.316406
300.128448	53633.511719
300.133362	72702.664062
300.138306	106489.953125
300.143219	342334.3125
300.148163	1146496.25
300.153107	2190713.75
300.15802	3207917.75
300.162964	2922711.0
300.167877	1813433.625
300.172821	790913.75
300.177765	219823.8125
300.182678	77180.070312
300.187622	66612.046875
300.192566	38485.757812
300.197479	18891.111328
300.202423	5890.543945
300.706146	642.822571
300.71109	1408.271973
300.716034	1915.576782
300.720978	1820.928223
300.725922	1272.143555
300.730896	620.662231
301.126984	1181.079468
301.131958	4412.871094
301.136902	5887.258301
301.141846	11337.760742
301.14682	40590.152344
301.151764	132373.890625
301.156738	243107.515625
301.161682	343402.875
301.166656	297791.125
301.1716	181336.328125
301.176544	74084.585938
301.181519	20432.072266
301.186462	6668.605469
301.191437	5142.424316
301.196381	1512.888062
301.201324	1623.250488
END IONS

BEGIN IONS
PEPMASS=304.154
CHARGE=1
MSLEVEL=2
SOURCE_INSTRUMENT=LC-ESI-Orbitrap
FILENAME=f.Francesca90/drug_RIS 2/180523_MIX60_INCLUSION (1).mzXML;
SEQ=*..*
IONMODE=Positive
ORGANISM=GNPS-LIBRARY
NAME=Cocaine M+H
PI=Manuel Sergi
DATACOLLECTOR=23.05.2018
SMILES=CN1C2CCC1C(C(C2)OC(=O)C3=CC=CC=C3)C(=O)OC
INCHI= 
INCHIAUX= 
PUBMED= 
SUBMITUSER=Francesca90
LIBRARYQUALITY=3
SPECTRUMID=CCMSLIB00004679364
USI=mzspec:GNPS:GNPS-LIBRARY:accession:CCMSLIB00004679364
SCANS=1163
56.757923	344.32489
56.758327	731.691467
56.758732	872.745117
56.75914	642.415283
56.759544	242.418701
73.848198	454.885559
73.848801	733.968262
73.849403	883.814819
73.850006	825.936584
73.850609	589.469788
80.859444	556.76886
80.860138	913.762878
80.860825	1123.1073
80.861511	1040.225098
80.862206	688.970398
82.063103	601.194458
82.063805	2289.409668
82.064514	4907.696289
82.065216	7752.552246
82.065918	7881.063965
82.066628	4993.093262
82.067329	2275.903076
82.068039	327.111145
90.974365	622.414246
90.975189	2554.890381
90.976013	4917.365234
90.976837	7030.329102
90.977654	5997.11377
90.978477	3564.51001
90.979301	1364.101685
90.980125	441.707184
96.148384	437.248535
96.149284	911.104858
96.150177	1116.098267
96.15107	880.829773
96.151962	407.679016
105.031242	728.778687
105.032257	1783.866089
105.033279	3873.121826
105.034302	4281.675293
105.035324	2784.373779
105.036346	1205.304077
105.037369	439.935181
106.948814	600.323547
106.949867	1168.111206
106.950912	1363.085815
106.951965	1026.778687
106.953011	446.744781
107.551361	509.536591
107.552422	956.189331
107.553482	1229.380249
107.554535	1125.749878
107.555595	704.391418
108.079048	488.249329
108.080116	982.933411
108.081184	1231.759033
108.082245	1054.961914
108.083313	602.016968
113.057144	657.470886
113.058281	1254.870483
113.059425	1627.207642
113.060562	1510.473633
113.061699	981.854797
113.062843	394.234131
113.421715	479.507874
113.422867	892.546448
113.424011	1156.511719
113.425156	1103.425171
113.4263	766.925476
119.046043	605.347595
119.047272	1294.143066
119.048508	1821.611328
119.049736	1810.389648
119.050964	1265.897217
119.0522	573.310669
124.146675	432.857483
124.147987	907.369385
124.1493	1184.631714
124.150612	1087.099121
124.151924	699.692017
131.078049	647.676086
131.079483	1124.479248
131.080902	1311.238037
131.082321	1049.021362
131.083755	525.113464
140.008453	381.566986
140.010025	834.652588
140.011597	1085.422485
140.013168	940.25354
140.01474	530.379578
150.0858	209.986526
150.08754	843.239563
150.089279	1665.686157
150.091034	2147.618652
150.092773	1923.792236
150.094513	1176.533569
150.096268	450.242432
182.105881	719.425232
182.1082	3075.196045
182.110535	12392.610352
182.112869	38496.074219
182.115204	66435.132812
182.117523	86947.796875
182.119858	68216.773438
182.122192	40020.015625
182.124527	13581.19043
182.126862	3368.806396
182.129181	695.232178
183.112259	304.061127
183.114609	920.989624
183.116959	1901.105347
183.119308	3923.64209
183.121674	4235.297363
183.124023	2141.176758
183.126373	1101.296509
183.128723	367.891327
216.711487	785.645508
216.714523	1127.070312
216.717545	1264.422485
216.720566	1105.073608
216.723587	717.182739
251.617889	714.492188
251.621674	1214.279663
251.625458	1446.818604
251.629242	1246.048462
251.633026	742.26947
266.26001	477.342499
266.26413	863.000366
266.26825	1030.553101
266.272369	864.606262
266.276489	494.162994
304.128052	686.553528
304.133087	1468.211792
304.138123	6152.890625
304.143127	21473.609375
304.148163	40426.824219
304.153198	58121.773438
304.158234	51062.902344
304.163269	31134.601562
304.168304	12745.259766
304.173309	3443.025879
304.178345	1391.719116
304.183319	1471.339233
304.188354	953.412537
304.19339	457.484436
305.136536	302.719574
305.141602	912.678223
305.146637	2874.847656
305.151703	5122.646973
305.156769	6968.773438
305.161804	5735.67334
305.16687	3385.566895
305.171936	1221.134888
305.176971	518.16095
313.451782	756.891968
313.457031	1119.92041
313.462311	1185.607056
313.46756	921.277832
313.472839	504.378113
END IONS

BEGIN IONS
PEPMASS=150.277
CHARGE=1
MSLEVEL=2
SOURCE_INSTRUMENT=LC-ESI-Orbitrap
FILENAME=f.Francesca90/rette droga triplicata/file convertiti/180813_MIX60-100PPB.mzXML;
SEQ=*..*
IONMODE=Positive
ORGANISM=GNPS-LIBRARY
NAME=Methamphetamine M+H
PI=Manuel Sergi
DATACOLLECTOR= 
SMILES=CC(CC1=CC=CC=C1)NC
INCHI= 
INCHIAUX= 
PUBMED= 
SUBMITUSER=Francesca90
LIBRARYQUALITY=3
SPECTRUMID=CCMSLIB00004722181
USI=mzspec:GNPS:GNPS-LIBRARY:accession:CCMSLIB00004722181
SCANS=67
50.015751	10973.793945
50.99334	5241.273926
51.021328	5807.335938
51.023746	35039.894531
52.031544	5849.785645
57.070404	5141.273926
58.065842	96149.414062
59.464088	5343.697266
59.781525	5561.769531
63.023735	11676.470703
65.039055	91666.335938
67.054794	29902.509766
69.033775	10674.737305
69.070786	11033.178711
70.065742	33386.648438
71.16996	6023.976074
71.871529	12351.764648
76.152046	8097.652344
77.039581	38573.542969
78.046593	6284.961426
78.452301	6902.416504
79.054817	32410.951172
81.070587	59435.140625
88.075836	13968.155273
89.038506	14626.337891
89.060188	78391.421875
90.047028	9081.487305
90.959953	49254.851562
91.032402	9675.462891
91.054665	28577170.0
91.146187	60631.78125
92.057495	1296078.25
92.064186	12511.133789
93.034424	7818.708984
93.070107	103098.054688
95.049583	26869.943359
95.085716	72508.796875
104.062553	9172.192383
105.069389	56745.71875
106.086067	10024.580078
107.049088	44748.167969
107.086082	105188.84375
109.010582	12101.390625
109.027855	15090.317383
109.064705	97839.742188
109.101212	73459.234375
111.044228	10823.654297
112.007103	7253.565918
114.053925	7107.302734
114.090897	9930.632812
118.94577	13081.651367
119.071358	66795.757812
119.086166	12613283.0
119.22184	24377.365234
120.088318	802027.0
120.098297	12628.180664
121.028427	86235.359375
121.065262	44085.382812
121.102036	61019.859375
122.032448	15015.514648
123.079948	140467.171875
123.117439	40274.632812
131.084564	14664.02832
132.101196	62042.789062
133.065353	32249.068359
133.100296	16689.466797
135.043716	1211958.125
136.047897	67049.648438
149.023544	512303.25
149.035614	14740.297852
149.059128	47510.652344
149.096222	105417.21875
149.132294	11384.085938
150.025833	106376.546875
150.067703	1733621.375
150.09314	74312.8125
150.127014	4431019.0
151.040039	13943.628906
151.074524	187646.90625
151.113113	119608.109375
151.13176	328698.21875
164.143204	9270.899414
169.049301	12831.026367
END IONS

BEGIN IONS
PEPMASS=293.097
CHARGE=1
MSLEVEL=2
SOURCE_INSTRUMENT=LC-ESI-qTof
FILENAME=f.MSV000082630/ccms_peak/raw_files/samples/Subject_32/18NAVY32_6_plasma.mzML;
SEQ=*..*
IONMODE=Positive
ORGANISM=GNPS-LIBRARY
NAME=Ethylenediaminetetraacetic acid EDTA M+H
PI=Dorrestein
DATACOLLECTOR=lfnothias
SMILES=C(CN(CC(=O)O)CC(=O)O)N(CC(=O)O)CC(=O)O
INCHI=InChI=1S/C10H16N2O8/c13-7(14)3-11(4-8(15)16)1-2-12(5-9(17)18)6-10(19)20/h1-6H2,(H,13,14)(H,15,16)(H,17,18)(H,19,20)
INCHIAUX= 
PUBMED= 
SUBMITUSER=lfnothias
LIBRARYQUALITY=3
SPECTRUMID=CCMSLIB00005435779
USI=mzspec:GNPS:GNPS-LIBRARY:accession:CCMSLIB00005435779
SCANS=209
51.100048	22982.816406
51.739052	29397.318359
53.916683	26109.833984
56.049885	596145.625
56.698219	24871.173828
57.285809	24781.386719
60.044781	730482.5625
66.929565	26315.923828
70.065292	33711.535156
74.060188	1354050.625
76.249931	27207.294922
83.045372	34803.257812
86.060013	2753904.5
87.063126	36267.859375
88.039238	2313402.0
90.807091	29346.978516
101.046936	124093.84375
102.05484	1264755.125
104.070602	417975.8125
110.822685	61136.671875
114.05481	2929424.75
116.070526	66284.34375
132.065323	25285256.0
133.068924	499495.40625
134.044373	240188.453125
160.060272	37332936.0
161.063797	1097205.25
238.470108	38956.492188
247.091782	853226.625
248.097321	38364.105469
293.097229	2811490.75
294.099854	164294.828125
END IONS

BEGIN IONS
PEPMASS=175.058
CHARGE=1
MSLEVEL=2
SOURCE_INSTRUMENT=ESI-Orbitrap
FILENAME=GNPS00001_F9_p.mzXML
SEQ=*..*
IONMODE=Positive
ORGANISM=GNPS-LIBRARY
NAME=RIBITOL M+Na
PI=Dorrestein
DATACOLLECTOR=Fernando Vargas
SMILES=OC[C@H](O)[C@H](O)[C@H](O)CO
INCHI="InChI=1S/C5H12O5/c6-1-3(8)5(10)4(9)2-7/h3-10H,1-2H2/t3-,4+,5-"
INCHIAUX=N/A
PUBMED=na
SUBMITUSER=mpanitchpakdi
LIBRARYQUALITY=1
SPECTRUMID=CCMSLIB00005436148
USI=mzspec:GNPS:GNPS-LIBRARY:accession:CCMSLIB00005436148
SCANS=26
51.379513	1597.897339
52.315639	1725.028442
52.627575	1508.185059
56.965298	5620.893066
60.05603	2438.071533
67.301193	1904.415527
70.065475	3237.817871
71.724579	1913.505249
72.081451	1714.355347
76.221291	2140.704102
83.198067	1878.664062
84.959908	42920.730469
85.798988	1906.016724
88.363029	1892.520386
92.119499	1911.404053
92.498886	1933.751465
96.249359	2132.129883
98.975327	2814.441406
100.991005	4777.35498
102.970428	7596.276855
108.295799	2297.747559
109.757378	2039.71936
111.473686	2037.003662
114.054993	2885.039795
117.979774	2912.709473
118.963341	5958.623047
119.001717	4032.756348
120.019684	2153.338379
129.020096	2879.060547
132.978989	6240.956543
133.101562	3761.893311
146.655823	2093.232666
146.994659	2411.644287
147.08493	2293.170166
147.116806	2556.156006
158.994522	2479.5
159.666428	2748.083008
161.010284	29180.199219
161.017441	3874.125732
175.057983	761158.5625
175.112167	3022.480225
175.119797	3701.243164
175.148621	3563.192383
184.658966	2023.920898
END IONS

BEGIN IONS
PEPMASS=203.053
CHARGE=1
MSLEVEL=2
SOURCE_INSTRUMENT=ESI-Orbitrap
FILENAME=GNPS00001_G10_p.mzXML
SEQ=*..*
IONMODE=Positive
ORGANISM=GNPS-LIBRARY
NAME=TAGATOSE M+Na
PI=Dorrestein
DATACOLLECTOR=Fernando Vargas
SMILES=OC[C@@H](O)[C@H](O)[C@H](O)C(=O)CO
INCHI="InChI=1S/C6H12O6/c7-1-3(9)5(11)6(12)4(10)2-8/h3,5-9,11-12H,1-2H2/t3-,5+,6-/m1/s1"
INCHIAUX=N/A
PUBMED=na
SUBMITUSER=mpanitchpakdi
LIBRARYQUALITY=1
SPECTRUMID=CCMSLIB00005436150
USI=mzspec:GNPS:GNPS-LIBRARY:accession:CCMSLIB00005436150
SCANS=18
51.840725	1717.147217
55.830204	2229.354736
62.060471	6238.09082
84.959801	3186.688721
88.38903	1863.614624
92.372299	2038.145386
99.190506	2161.747803
102.091469	20871.763672
103.094841	4717.07373
112.112175	9142.356445
116.985817	2345.933105
119.919579	2511.490967
129.138565	10409.553711
130.221771	1956.436035
135.980896	2229.932373
147.144073	2046.772583
153.286514	2290.034668
157.018066	2768.958496
162.986588	1935.658569
167.530151	2022.563599
170.964218	2258.814209
175.027878	7487.916992
185.096252	2371.210205
189.016922	2253.67041
202.107956	2640.206299
202.180252	48034.550781
203.05278	123419.476562
203.062241	4189.899902
203.106796	5283.109863
203.183746	10955.576172
END IONS

BEGIN IONS
PEPMASS=179.056
CHARGE=-1
MSLEVEL=2
SOURCE_INSTRUMENT=ESI-Orbitrap
FILENAME=GNPS00001_H2_n.mzXML
SEQ=*..*
IONMODE=Negative
ORGANISM=GNPS-LIBRARY
NAME=PSICOSE M-H
PI=Dorrestein
DATACOLLECTOR=Fernando Vargas
SMILES=C1C(C(C(C(O1)(CO)O)O)O)O
INCHI="InChI=1S/C6H12O6/c7-2-6(11)5(10)4(9)3(8)1-12-6/h3-5,7-11H,1-2H2"
INCHIAUX=N/A
PUBMED=na
SUBMITUSER=mpanitchpakdi
LIBRARYQUALITY=1
SPECTRUMID=CCMSLIB00005436164
USI=mzspec:GNPS:GNPS-LIBRARY:accession:CCMSLIB00005436164
SCANS=23
50.752808	1545.243286
59.012474	19256.941406
60.720825	2136.356934
61.612026	1596.15271
71.012405	15034.151367
76.279961	1849.901611
79.870834	1799.16272
89.023018	10720.604492
90.996696	14408.519531
91.915749	1874.651733
92.994606	2727.983643
93.787796	1993.916138
102.502869	2168.821777
110.237366	1885.488647
113.023308	2582.52124
122.958046	7717.575684
134.966919	4371.566406
134.986786	32977.765625
139.372147	2003.396973
140.994339	2101.980225
143.275223	2098.721191
149.183472	2278.868652
150.952957	36120.242188
151.434525	1920.847046
158.950302	7290.147461
178.956345	3667.172363
178.977158	5032.843262
197.86763	2062.096924
198.909378	1795.668457
199.788757	2060.966553
END IONS

BEGIN IONS
PEPMASS=168.066
CHARGE=1
MSLEVEL=2
SOURCE_INSTRUMENT=ESI-Orbitrap
FILENAME=GNPS00001_D10_p.mzXML
SEQ=*..*
IONMODE=Positive
ORGANISM=GNPS-LIBRARY
NAME=PYRIDOXAL M+H
PI=Dorrestein
DATACOLLECTOR=Fernando Vargas
SMILES=CC1=C(O)C(C=O)=C(CO)C=N1
INCHI="InChI=1S/C8H9NO3/c1-5-8(12)7(4-11)6(3-10)2-9-5/h2,4,10,12H,3H2,1H3"
INCHIAUX=N/A
PUBMED=na
SUBMITUSER=mpanitchpakdi
LIBRARYQUALITY=1
SPECTRUMID=CCMSLIB00005436172
USI=mzspec:GNPS:GNPS-LIBRARY:accession:CCMSLIB00005436172
SCANS=20
53.039005	4934.985352
58.61549	2196.93335
60.323864	2373.59668
60.574955	2746.579346
65.039017	10036.420898
67.054626	63467.585938
67.056335	4762.340332
71.289291	2543.833008
71.92112	2202.326904
72.367897	2342.75293
72.808632	2251.47998
77.038841	3122.748291
79.054504	8952.810547
81.03405	2527.151123
84.959808	2881.400391
94.065239	291125.875
95.049179	8719.710938
95.068153	2926.49292
101.653015	2673.818359
105.96315	6828.270996
106.065224	110929.171875
109.977776	2846.480713
110.060081	2751.442627
122.060158	320866.59375
123.06781	5277.466309
124.075615	5105.224609
130.98201	3399.029785
138.055725	4125.975098
148.039429	3613.388672
150.055161	8688926.0
150.104584	12050.989258
151.057816	14818.808594
167.057983	4206.924805
168.065735	1144841.375
168.102005	11405.760742
END IONS

BEGIN IONS
PEPMASS=201.113
CHARGE=-1
MSLEVEL=2
SOURCE_INSTRUMENT=ESI-Orbitrap
FILENAME=GNPS00001_D12_n.mzXML
SEQ=*..*
IONMODE=Negative
ORGANISM=GNPS-LIBRARY
NAME=SEBACATE M-H
PI=Dorrestein
DATACOLLECTOR=Fernando Vargas
SMILES=C(CCCCC(=O)O)CCCC(=O)O
INCHI="InChI=1S/C10H18O4/c11-9(12)7-5-3-1-2-4-6-8-10(13)14/h1-8H2,(H,11,12)(H,13,14)"
INCHIAUX=N/A
PUBMED=na
SUBMITUSER=mpanitchpakdi
LIBRARYQUALITY=1
SPECTRUMID=CCMSLIB00005436182
USI=mzspec:GNPS:GNPS-LIBRARY:accession:CCMSLIB00005436182
SCANS=19
52.460018	2035.913086
52.920822	2384.673828
57.033184	113394.5625
57.034595	5998.774414
58.036552	4605.722656
59.012398	4751.013184
59.038071	2799.775146
61.423161	2449.214355
62.634174	2238.200439
63.729042	2118.297363
64.818321	2730.235107
69.033119	6498.312988
71.048798	7487.641113
74.475311	2954.373047
75.803993	2368.043701
79.027473	2568.871338
83.048836	4116.012207
83.861565	2710.359619
87.007355	2353.582031
93.033203	5710.603516
94.775345	2842.366699
97.26873	2537.817383
97.498138	2674.788086
101.918541	4374.45459
110.621933	2423.644531
111.080231	102416.664062
123.080246	2852.175049
128.630875	3364.792969
137.096008	20215.160156
139.066269	4432.703125
139.111679	2892634.5
139.154312	8148.617188
140.11499	194847.15625
142.92984	3496.714111
150.930008	2608.79126
156.240738	2676.110352
157.122421	39848.941406
158.126053	3186.479736
165.418732	2751.926025
167.974243	2496.66626
170.749039	2755.65918
183.101852	814999.4375
184.105225	62042.597656
200.985779	26465.425781
201.033844	4049.32373
201.112595	2157049.75
201.187164	7664.329102
202.115936	192651.9375
203.705673	3042.720459
221.919601	3552.832031
END IONS

BEGIN IONS
PEPMASS=365.105
CHARGE=1
MSLEVEL=2
SOURCE_INSTRUMENT=ESI-Orbitrap
FILENAME=GNPS00001_H1_p.mzXML
SEQ=*..*
IONMODE=Positive
ORGANISM=GNPS-LIBRARY
NAME=CELLOBIOSE M+Na
PI=Dorrestein
DATACOLLECTOR=Fernando Vargas
SMILES=OC[C@H]1O[C@@H](O[C@H]2[C@H](O)[C@@H](O)[C@H](O)O[C@@H]2CO)[C@H](O)[C@@H](O)[C@@H]1O
INCHI="InChI=1S/C12H22O11/c13-1-3-5(15)6(16)9(19)12(22-3)23-10-4(2-14)21-11(20)8(18)7(10)17/h3-20H,1-2H2/t3-,4-,5-,6+,7-,8-,9-,10-,11-,12+/m1/s1"
INCHIAUX=N/A
PUBMED=na
SUBMITUSER=mpanitchpakdi
LIBRARYQUALITY=1
SPECTRUMID=CCMSLIB00005436183
USI=mzspec:GNPS:GNPS-LIBRARY:accession:CCMSLIB00005436183
SCANS=22
53.481735	2385.519043
59.952374	2210.780518
61.741821	2452.581543
70.022758	2439.846191
70.295784	2411.314941
83.180786	2273.050537
85.394974	2742.89624
91.878387	2402.76001
110.146843	2585.884277
115.93071	2551.432617
119.313057	2829.00415
128.612503	3534.396729
146.611313	2613.149658
149.001892	2714.354248
150.908386	3240.428467
156.570724	2809.746338
181.898514	2570.523438
203.052887	7114.975098
235.006195	2743.582031
245.520828	2776.55957
305.084503	13417.148438
347.095764	9892.396484
351.898041	2943.621338
361.912445	3016.762451
365.106018	1133429.875
366.109436	16024.047852
END IONS

BEGIN IONS
PEPMASS=290.174
CHARGE=1
MSLEVEL=2
SOURCE_INSTRUMENT=LC-ESI-qTof
FILENAME=f.pilepoga/Alkalo ANGERS/Atropine.mgf;
SEQ=*..*
IONMODE=Positive
ORGANISM=GNPS-LIBRARY
NAME=Atropine M+H
PI=Le Pogam
DATACOLLECTOR=Le Pogam
SMILES=CN1[C@@H]2CC[C@H]1CC(C2)OC(=O)C(CO)C3=CC=CC=C3
INCHI=InChI=1S/C17H23NO3/c1-18-13-7-8-14(18)10-15(9-13)21-17(20)16(11-19)12-5-3-2-4-6-12/h2-6,13-16,19H,7-11H2,1H3/t13-,14+,15?,16?
INCHIAUX= 
PUBMED= 
SUBMITUSER=pilepoga
LIBRARYQUALITY=3
SPECTRUMID=CCMSLIB00005720151
USI=mzspec:GNPS:GNPS-LIBRARY:accession:CCMSLIB00005720151
SCANS=1
103.053085	7309.788086
108.079262	726.182922
121.063591	1047.139038
124.110825	24379.859375
124.211372	595.65802
125.117775	542.718018
142.12175	1866.359009
290.173615	2580.437012
END IONS

BEGIN IONS
PEPMASS=163.122
CHARGE=1
MSLEVEL=2
SOURCE_INSTRUMENT=LC-ESI-qTof
FILENAME=f.pilepoga/Alkalo ANGERS/Nicotine.mgf;
SEQ=*..*
IONMODE=Positive
ORGANISM=GNPS-LIBRARY
NAME=Nicotine M+H
PI=Le Pogam
DATACOLLECTOR=Le Pogam
SMILES=CN1CCC[C@H]1C2=CN=CC=C2
INCHI=1S/C10H14N2/c1-12-7-3-5-10(12)9-4-2-6-11-8-9/h2,4,6,8,10H,3,5,7H2,1H3/t10-/m0/s1
INCHIAUX= 
PUBMED= 
SUBMITUSER=pilepoga
LIBRARYQUALITY=3
SPECTRUMID=CCMSLIB00005720169
USI=mzspec:GNPS:GNPS-LIBRARY:accession:CCMSLIB00005720169
SCANS=1
101.034744	3743.977051
102.042191	8459.956055
103.050362	56574.058594
104.046539	4399.521973
105.058006	1112.146973
106.061012	13819.719727
115.048973	7127.066895
116.045258	16088.740234
117.053177	157009.0
118.060608	10696.290039
128.0448	7801.100098
130.060883	84801.273438
131.066299	1923.097046
END IONS

BEGIN IONS
PEPMASS=277.107
CHARGE=1
MSLEVEL=2
SOURCE_INSTRUMENT=LC-ESI-qTof
FILENAME=f.ZipperDown/Standards/AustroB/1 - Tutin - FO5-115-1.mgf;
SEQ=*..*
IONMODE=Positive
ORGANISM=GNPS-LIBRARY
NAME=Tutin M+H
PI=Marc Litaudon
DATACOLLECTOR=Florent Olivon
SMILES=O=C1[C@H]2[C@H](C(C)=C)[C@@H](O1)[C@@H](O)[C@]3(C)[C@@]2(O)[C@@H](O4)[C@@H]4[C@]35CO5
INCHI=InChI=1S/C15H18O6/c1-5(2)6-7-12(17)20-8(6)9(16)13(3)14(4-19-14)10-11(21-10)15(7,13)18/h6-11,16,18H,1,4H2,2-3H3/t6-,7+,8+,9+,10+,11-,13-,14+,15-/m0/s1
INCHIAUX= 
PUBMED= 
SUBMITUSER=ZipperDown
LIBRARYQUALITY=3
SPECTRUMID=CCMSLIB00005723341
USI=mzspec:GNPS:GNPS-LIBRARY:accession:CCMSLIB00005723341
SCANS=1
51.023182	270.330597
53.037262	284.376495
55.017563	792.78363
55.054295	679.639282
55.24313	89.031715
57.033504	391.852081
57.064342	5.0
65.038429	684.868774
65.074265	12.053572
65.347908	109.601471
66.631668	9.680555
67.053795	1618.536499
67.086823	12.0
69.033241	1372.336426
71.012009	180.054138
77.0383	1537.660034
77.065269	20.595589
77.074936	9.240385
77.375053	13.163462
78.04435	61.039558
78.85939	18.004629
79.020485	255.128036
79.054306	3068.523193
79.821243	17.322369
80.055481	209.252411
81.033005	234.077591
81.069695	145.473831
81.51165	28.49128
83.050262	212.452194
85.026566	232.4944
91.053886	3521.942139
91.095367	24.728449
93.068535	367.240173
93.228722	48.905823
94.905891	42.349998
95.048485	940.173889
95.069061	20.307692
95.086105	276.468842
97.028572	45.173912
97.065575	590.670044
97.100365	10.006579
99.043381	196.618149
99.063995	9.086538
101.038353	187.616028
102.929428	15.347222
103.035294	322.407654
103.053307	513.010437
103.335953	26.680555
104.061523	99.1073
104.099808	7.0
104.999092	194.694153
105.069923	3425.659912
105.11554	39.173912
107.048996	1230.564575
107.086281	97.0121
109.065216	75.515244
111.043243	1190.645996
111.071838	19.007353
111.665489	22.0
115.053772	2342.783936
115.114532	13.25
116.061356	502.250916
117.069214	1265.478027
117.101776	8.347222
117.25312	23.557692
117.480072	26.666666
117.553391	13.28125
117.833374	9.333333
118.077393	39.016666
118.405838	70.471695
118.818047	29.01087
119.049141	130.059906
119.086166	1063.636108
119.193069	32.0
119.321083	34.556034
120.123688	34.009998
121.064644	1085.014526
121.096199	24.007353
121.113152	9.680555
123.042221	154.291672
123.079582	212.219299
123.287865	23.047619
124.049545	22.6875
126.046738	70.402779
127.053864	1258.213745
127.100212	13.066176
127.653252	28.571428
128.06192	1693.323364
128.095535	12.142858
128.343262	19.560184
128.490402	16.0
128.658478	15.625
129.033508	148.368423
129.069168	1906.078613
129.231186	113.569
129.917679	20.0
129.951324	8.75
130.077148	472.114136
130.559662	88.079727
131.048813	1227.18689
131.085663	573.921631
131.117706	11.0
132.035812	57.135868
132.055908	288.193542
133.064301	679.576477
133.100433	131.678223
135.04483	226.440475
135.080093	519.993103
135.114868	273.858887
135.150269	25.235294
136.952774	142.012985
137.058304	9.102273
139.053726	163.396576
140.333923	10.0
141.070007	2613.022461
141.141327	14.13587
141.376572	18.025
142.077744	3151.280762
142.112411	43.18182
142.130493	21.003204
142.261261	29.0
142.3237	64.980003
143.049545	143.000732
143.085251	713.468201
143.335815	61.674999
144.002182	36.190475
144.056381	396.036102
144.093475	173.555618
144.129303	25.875
144.381561	74.07206
144.995667	199.008774
145.063553	460.875427
145.100647	596.505249
145.502014	13.048913
145.56105	58.281666
146.071686	66.739754
146.366135	24.157051
147.044189	251.648895
147.079285	822.876648
147.118301	130.404541
149.05864	27.326612
149.177399	22.027439
151.007355	36.222561
151.051559	154.878601
151.075485	104.53846
151.47641	46.148148
152.061676	673.21814
153.069061	623.150024
153.121979	10.066176
153.311096	16.076923
154.078018	477.611603
154.129105	5.0
155.049347	403.659576
155.083359	109.338188
155.641403	23.291666
157.064819	954.744019
157.101151	477.334198
157.135452	22.049999
157.279144	38.004032
158.069885	195.852081
159.082962	115.029205
159.854568	41.90369
160.085159	81.401665
161.059586	269.602081
161.095322	525.076355
162.068344	140.014282
163.157883	49.449074
163.759186	11.111111
165.295822	44.0
168.05687	379.481628
168.115814	5.0625
169.098816	25.003048
169.962372	17.107759
170.072449	179.5625
171.082672	263.02533
172.08876	326.12088
173.05986	138.800674
173.094101	194.611649
175.111786	37.370613
175.931107	54.219204
181.065109	85.484848
185.095154	312.664764
185.122742	18.625
188.081467	160.934479
190.096924	174.179932
193.095612	39.836956
197.058411	129.017853
197.997055	95.0
201.09201	460.248718
213.091415	80.865387
255.067307	139.000702
284.468567	61.760059
306.952301	22.0
348.943268	49.275002
415.56427	40.612499
448.261322	16.05921
587.337341	15.041667
736.214966	28.040001
END IONS

BEGIN IONS
PEPMASS=384.201
CHARGE=1
MSLEVEL=2
SOURCE_INSTRUMENT=LC-ESI-Orbitrap
FILENAME=DAS_MS2.mzXML
SEQ=*..*
IONMODE=Positive
ORGANISM=GNPS-LIBRARY
NAME=Diacetoxyscirpenol M+NH3
PI=D Overy
DATACOLLECTOR=T Witte
SMILES=CC1=CC2C(CC1)(C3(C(C(C(C34CO4)O2)O)OC(=O)C)C)COC(=O)C
INCHI="InChI=1S/C19H26O7/c1-10-5-6-18(8-23-11(2)20)13(7-10)26-16-14(22)15(25-12(3)21)17(18,4)19(16)9-24-19/h7,13-16,22H,5-6,8-9H2,1-4H3/t13-,14-,15-,16-,17-,18-,19-/m1/s1"
INCHIAUX=N/A
PUBMED=N/A
SUBMITUSER=mpanitchpakdi
LIBRARYQUALITY=1
SPECTRUMID=CCMSLIB00005723555
USI=mzspec:GNPS:GNPS-LIBRARY:accession:CCMSLIB00005723555
SCANS=420
97.906555	38573.113281
101.416405	41360.988281
102.406807	44695.75
105.069603	129621.765625
107.939026	42764.429688
108.099686	42040.890625
108.965431	38133.800781
109.064766	59207.289062
112.134468	43067.503906
113.059441	139799.3125
115.098671	43091.871094
115.959518	43730.902344
118.690018	42515.535156
119.085442	50264.332031
120.54435	39822.015625
120.761635	45953.542969
121.064598	109768.59375
123.080383	78581.929688
125.059494	335096.34375
127.075165	60714.707031
128.335175	38459.324219
128.49295	38560.921875
128.700684	44964.984375
130.306854	39134.765625
131.085373	147168.015625
132.605515	42461.726562
133.064484	51707.519531
133.100815	56299.9375
134.743561	44963.613281
135.080322	65599.046875
137.059601	69662.835938
139.454895	38316.917969
140.110718	37729.039062
141.054443	618976.125
143.070084	118379.265625
143.085403	255439.484375
145.064682	47561.082031
145.100983	344541.125
147.023819	47208.621094
147.080246	121346.492188
149.216797	45550.917969
151.075104	96903.851562
155.066605	42058.8125
155.070053	147355.140625
155.085358	92411.992188
155.719498	36960.050781
157.100952	1641832.125
158.689575	39112.09375
159.0802	139248.078125
159.116638	507203.3125
161.095993	207224.234375
162.176239	38628.324219
163.111374	308084.09375
163.304398	48170.296875
163.736176	42784.65625
165.502487	44629.054688
166.258804	39604.886719
167.069916	179946.765625
169.100876	778189.8125
170.10881	108178.625
170.217133	45468.25
171.080154	62351.046875
171.116577	800891.0625
173.095795	404308.125
173.132233	643013.75
175.111542	337360.28125
175.311417	43576.300781
177.039978	46526.234375
181.100891	610398.625
182.30217	44511.980469
183.064896	151499.84375
183.116608	1831386.875
185.080521	272380.25
185.09581	197355.09375
185.132111	226950.515625
187.075348	66660.28125
187.111465	1014147.9375
187.904846	41182.960938
187.913712	37650.71875
187.927933	75197.125
187.933884	70490.703125
187.945236	113088.296875
187.949478	109303.0
187.958176	116487.429688
187.966721	111376.757812
187.973511	88958.867188
187.976791	88364.992188
187.984818	66254.476562
187.987396	67861.226562
187.997849	55883.828125
188.038574	46478.179688
188.051239	45564.75
189.09111	56237.777344
189.127228	107120.617188
190.298737	42343.839844
191.106491	131469.9375
191.722412	42286.476562
193.100906	445831.875
193.121902	97228.523438
197.517334	36302.554688
199.111526	5133514.0
199.916122	43164.722656
201.075516	320936.875
201.127151	5423745.0
203.10643	203238.6875
203.142776	88805.734375
204.625046	42084.804688
205.122055	770250.375
207.567627	42015.914062
208.783035	53882.960938
211.111481	3382691.25
213.07547	144426.390625
215.143005	50597.140625
215.447083	43714.082031
215.685867	44608.175781
217.12204	2217254.0
219.137711	893107.5
223.605911	37283.285156
225.127167	70957.96875
229.122055	11183850.0
229.39418	44494.398438
233.382233	39868.886719
235.132233	123470.09375
239.091263	73880.851562
241.121887	116332.296875
243.138077	94704.5625
247.095779	71453.421875
247.101746	95099.726562
247.104523	108153.023438
247.110413	123964.007812
247.113205	112247.953125
247.116531	166841.4375
247.122208	181737.625
247.132538	20694858.0
247.145737	228390.5
247.151459	146221.25
247.153549	75144.578125
247.156799	53959.824219
247.16037	124732.515625
253.121796	309781.53125
258.225586	40533.359375
259.132568	648877.875
261.148346	125671.132812
265.143036	1650148.375
269.529602	49653.234375
271.132446	807437.5
273.483307	43109.441406
276.55423	44219.777344
277.142975	622104.1875
277.68277	67829.179688
277.708832	44368.007812
277.908234	53298.132812
277.925415	55475.007812
278.209473	64373.777344
278.231415	39998.792969
278.312988	54153.589844
278.37619	43033.269531
278.444183	55853.355469
279.158844	67271.289062
282.72113	39178.636719
283.7995	140606.625
289.143036	9595656.0
289.163818	51825.691406
289.166992	72758.398438
307.049744	96094.476562
307.082153	116628.15625
307.086029	121003.34375
307.090424	152042.078125
307.094208	118620.828125
307.102661	194125.953125
307.106293	157032.8125
307.11087	218842.234375
307.114441	186736.59375
307.118652	260498.609375
307.122955	286756.46875
307.126923	251452.75
307.131165	402066.5
307.134094	256945.109375
307.139313	445710.0625
307.153534	49637928.0
307.166229	229854.859375
307.171844	526525.125
307.174805	255230.859375
307.179718	354299.90625
307.183746	262694.3125
307.187653	161245.171875
307.192108	303522.25
307.195587	170050.78125
307.200195	213475.640625
307.203918	136824.234375
307.212402	158466.453125
307.216034	97681.15625
307.224548	91559.882812
307.228607	150936.953125
307.232605	110555.078125
307.23645	75438.15625
307.253174	118025.75
307.256561	54587.859375
308.816833	66595.976562
309.485748	59621.25
319.153198	296170.03125
319.413757	39404.105469
320.056671	46760.800781
325.164062	914017.0
331.153534	169291.109375
337.164154	174010.59375
349.077728	149841.484375
349.082397	105895.890625
349.112518	236148.9375
349.116547	117725.59375
349.12204	281823.21875
349.127167	247178.5625
349.131927	267855.96875
349.137054	371353.5
349.141266	214368.265625
349.146851	407201.71875
349.164093	45908328.0
349.180603	189914.25
349.186279	485434.53125
349.190765	244607.3125
349.195984	332680.4375
349.200836	237253.296875
349.206024	172151.28125
349.210846	258888.734375
349.215576	169304.859375
349.250488	99933.265625
349.255188	127144.625
349.259888	98854.859375
367.174652	4287352.0
374.663422	44869.632812
379.082001	53381.746094
386.096008	48876.75
391.771881	53572.34375
END IONS

BEGIN IONS
PEPMASS=320.189
CHARGE=1
MSLEVEL=2
SOURCE_INSTRUMENT=LC-ESI-qTof
FILENAME=f.amaraljg/standard/Cloroquina_1-13_01_11672.mzXML;
SEQ=*..*
IONMODE=Positive
ORGANISM=GNPS-LIBRARY
NAME=Chloroquine M+H
PI=Norberto Peporine Lopes
DATACOLLECTOR=Amaraljg
SMILES=CC(CCCN(CC)CC)NC1=CC=NC2=CC(Cl)=CC=C12
INCHI=InChI=1S/C18H26ClN3/c1-4-22(5-2)12-6-7-14(3)21-17-10-11-20-18-13-15(19)8-9-16(17)18/h8-11,13-14H,4-7,12H2,1-3H3,(H,20,21)
INCHIAUX= 
PUBMED= 
SUBMITUSER=amaraljg
LIBRARYQUALITY=3
SPECTRUMID=CCMSLIB00005723985
USI=mzspec:GNPS:GNPS-LIBRARY:accession:CCMSLIB00005723985
SCANS=367
86.105461	54.0
98.091202	156.0
98.643127	12.0
100.109886	43.0
105.304474	16.0
107.061874	39.0
108.038437	39.0
112.139786	62.0
142.159729	133.0
142.601883	19.0
144.071213	35.0
145.547943	31.0
149.92923	27.0
175.314926	21.0
179.032501	72.0
191.037338	41.0
247.107574	151.0
247.544144	22.0
248.10582	58.0
248.907715	7.0
249.092041	51.0
266.78009	28.0
275.165009	39.0
283.577087	45.0
304.847076	18.0
316.483948	21.0
318.240479	51.0
318.844757	6.0
319.132568	9.0
319.610474	19.0
319.818054	20.0
320.018555	51.0
320.187012	3588.0
320.710236	37.0
320.862976	24.0
321.033356	19.0
321.189575	728.0
321.466431	9.0
321.780182	16.0
321.965881	17.0
322.187134	1075.0
322.774414	9.0
323.035889	9.0
323.362946	14.0
323.591827	7.0
325.439789	10.0
325.60141	14.0
325.929688	10.0
326.01004	9.0
331.123657	12.0
343.10611	11.0
344.06427	19.0
372.139282	35.0
441.89447	50.0
541.611267	39.0
635.319336	23.0
END IONS

BEGIN IONS
PEPMASS=308.114
CHARGE=1
MSLEVEL=2
SOURCE_INSTRUMENT=LC-ESI-qTof
FILENAME=t.26a548a5e13c475598f60fbc49510d9f/spectra/specs_ms.mgf;
SEQ=*..*
IONMODE=Positive
ORGANISM=GNPS-LIBRARY
NAME=Reduced Glutathione + H+ M+H
PI=Aldo Moreno Ulloa
DATACOLLECTOR=Rommel A. Carballo-Castaneda
SMILES=C(CC(=O)N[C@@H](CS)C(=O)NCC(=O)O)[C@@H](C(=O)O)N
INCHI=1S/C10H17N3O6S/c11-5(10(18)19)1-2-7(14)13-6(4-20)9(17)12-3-8(15)16/h5-6,20H,1-4,11H2,(H,12,17)(H,13,14)(H,15,16)(H,18,19)/t5-,6-/m0/s1
INCHIAUX= 
PUBMED= 
SUBMITUSER=Rommelio_coli
LIBRARYQUALITY=3
SPECTRUMID=CCMSLIB00005724009
USI=mzspec:GNPS:GNPS-LIBRARY:accession:CCMSLIB00005724009
SCANS=892
56.049999	11.0
56.0532	13.0
57.989899	10.0
58.9977	64.0
59.000999	45.0
59.0042	21.0
59.006401	11.0
76.022499	880.0
76.033501	17.0
76.040901	17.0
80.050201	10.0
84.045998	210.0
86.989197	11.0
86.993202	11.0
102.054298	10.0
116.0159	190.0
116.025002	11.0
130.048798	390.0
141.046799	11.0
141.048401	11.0
142.030304	210.0
142.038803	30.0
144.009399	470.0
145.059402	14.0
145.062805	10.0
146.026093	39.0
146.029495	19.0
151.052002	26.0
151.055405	13.0
161.0345	16.0
162.004501	14.0
162.008102	28.0
162.020706	2400.0
164.924805	27.0
164.928497	34.0
164.932098	19.0
170.025894	180.0
178.478607	11.0
179.027496	16.0
179.048203	1900.0
187.0513	96.0
188.034805	18.0
188.036697	18.0
191.039505	10.0
192.0392	10.0
199.052505	34.0
205.064697	32.0
214.007095	120.0
215.048599	190.0
216.030304	58.0
227.047699	55.0
233.034805	10.0
233.039093	13.0
233.045593	46.0
233.058502	840.0
233.075699	20.0
233.082199	10.0
245.059402	260.0
245.074799	11.0
271.962189	27.0
271.964508	27.0
272.071594	11.0
273.052185	45.0
273.059113	18.0
290.073792	39.0
290.078613	58.0
291.050201	16.0
291.064606	170.0
308.090302	200.0
308.110199	11.0
308.122498	10.0
END IONS

BEGIN IONS
PEPMASS=503.224
CHARGE=1
MSLEVEL=2
SOURCE_INSTRUMENT=LC-ESI-qTof
FILENAME=f.amoreno/MGF_Commercial_STDs/Verrucarin_A_STD_MS2_GNPS.mgf;
SEQ=*..*
IONMODE=Positive
ORGANISM=GNPS-LIBRARY
NAME=Verrucarin A M+H
PI=Aldo Moreno Ulloa
DATACOLLECTOR=Aldo Moreno Ulloa
SMILES=C[C@@H]1CCOC(=O)/C=C/C=C\C(=O)O[C@@H]2C[C@@H]3[C@]4([C@]2([C@]5(CCC(=C[C@H]5O3)C)COC(=O)[C@H]1O)C)CO4
INCHI=InChI=1S/C27H34O9/c1-16-8-10-26-14-33-24(31)23(30)17(2)9-11-32-21(28)6-4-5-7-22(29)36-18-13-20(35-19(26)12-16)27(15-34-27)25(18,26)3/h4-7,12,17-20,23,30H,8-11,13-15H2,1-3H3/b6-4+,7-5-/t17-,18-,19-,20-,23+,25-,26-,27+/m1/s1
INCHIAUX= 
PUBMED= 
SUBMITUSER=amoreno
LIBRARYQUALITY=3
SPECTRUMID=CCMSLIB00005725545
USI=mzspec:GNPS:GNPS-LIBRARY:accession:CCMSLIB00005725545
SCANS=424
67.051804	220.0
67.093903	15.0
68.0634	17.0
71.048698	100.0
79.052002	100.0
81.068703	840.0
81.121498	23.0
81.157799	21.0
81.216499	72.0
81.266403	10.0
81.435898	38.0
81.541298	13.0
82.069603	110.0
82.101501	17.0
83.050003	51.0
84.757103	14.0
84.8395	25.0
85.064598	1400.0
85.146301	27.0
85.190102	10.0
85.246902	71.0
85.415398	11.0
85.526398	17.0
85.616302	10.0
85.9282	12.0
86.066597	53.0
86.776703	15.0
91.051201	53.0
93.068001	210.0
93.203796	19.0
94.203903	13.0
95.075996	350.0
95.272202	16.0
96.088799	110.0
97.030701	390.0
97.117599	13.0
97.246101	10.0
98.031403	90.0
105.067497	490.0
105.173698	15.0
105.275002	32.0
105.326401	16.0
105.388603	20.0
105.487801	10.0
105.556999	19.0
105.600304	33.0
106.074699	63.0
107.041496	97.0
107.084297	660.0
107.138702	17.0
107.181099	16.0
107.953903	15.0
108.087898	100.0
108.179802	24.0
109.0634	600.0
109.134499	18.0
109.182701	12.0
109.380798	24.0
109.5625	28.0
109.646797	15.0
110.061996	56.0
111.081398	21.0
112.085098	150.0
112.134399	12.0
113.055298	130.0
117.066399	41.0
119.053497	38.0
119.087196	160.0
119.682701	12.0
119.989799	21.0
120.093498	15.0
121.062698	120.0
121.102898	12.0
121.266899	12.0
121.483902	42.0
122.100304	130.0
123.076797	400.0
123.133797	17.0
123.1875	13.0
124.078003	80.0
124.148598	11.0
124.373398	13.0
124.476303	17.0
125.017303	180.0
125.055	360.0
125.089699	77.0
125.132797	12.0
125.177902	11.0
125.380798	27.0
125.870399	16.0
127.070099	140.0
129.067505	66.0
129.187195	22.0
131.070496	170.0
131.1315	16.0
132.083603	52.0
133.057602	66.0
133.101501	110.0
135.075806	200.0
135.110703	110.0
136.842194	16.0
137.052094	44.0
137.096497	100.0
139.071793	220.0
139.1427	12.0
139.774307	25.0
141.088303	150.0
141.230194	10.0
142.092697	43.0
142.117996	12.0
142.458694	34.0
143.083496	130.0
144.702606	35.0
145.098206	270.0
146.098495	73.0
147.073303	200.0
147.114395	290.0
147.188904	13.0
147.561996	31.0
149.0849	36.0
150.097794	71.0
150.145599	10.0
150.194397	27.0
152.162094	10.0
156.089905	110.0
156.2061	10.0
157.098404	190.0
157.396194	29.0
158.094193	19.0
159.113602	160.0
159.594498	20.0
160.115204	130.0
160.184296	10.0
161.094101	280.0
161.198807	17.0
161.301498	30.0
161.719406	10.0
162.098907	140.0
162.531799	18.0
162.828094	10.0
163.110794	110.0
163.150208	12.0
163.815704	13.0
164.053604	13.0
164.112701	220.0
164.2043	13.0
164.445999	34.0
164.490799	25.0
165.070801	120.0
167.083099	32.0
168.079102	22.0
169.100098	170.0
170.105301	180.0
171.1064	370.0
171.118103	91.0
171.242203	17.0
172.079895	52.0
172.115601	15.0
173.129898	250.0
174.051102	10.0
175.107895	290.0
175.215393	20.0
175.533203	12.0
175.640396	43.0
175.925507	74.0
176.106293	97.0
176.139893	52.0
177.005295	20.0
177.129593	160.0
179.111206	65.0
179.945297	24.0
183.076904	91.0
183.111298	100.0
183.377502	40.0
184.824402	60.0
185.130798	930.0
185.252197	21.0
185.306396	12.0
185.375	17.0
185.442001	43.0
185.537903	25.0
185.621796	13.0
185.656494	23.0
185.901398	24.0
186.132706	240.0
186.314896	14.0
186.461395	13.0
186.5755	15.0
187.109207	280.0
188.110596	76.0
188.436295	14.0
188.553406	12.0
189.052902	23.0
189.122101	220.0
190.123093	79.0
191.135406	220.0
192.564896	44.0
193.120605	1400.0
193.247894	25.0
193.293503	19.0
193.348999	60.0
193.435699	35.0
193.517502	18.0
193.567703	22.0
193.6828	28.0
193.813293	32.0
194.122803	280.0
194.254196	14.0
194.714905	14.0
195.114197	440.0
195.246002	11.0
195.402893	50.0
196.113297	19.0
196.206604	10.0
199.006393	10.0
199.110001	260.0
199.242203	11.0
201.124207	460.0
202.128601	360.0
203.141205	460.0
203.217697	21.0
203.307098	16.0
203.547302	33.0
203.6008	15.0
203.653793	41.0
203.789795	18.0
204.146698	140.0
205.054001	36.0
205.420898	16.0
206.061203	48.0
207.138199	27.0
209.078796	55.0
210.506195	14.0
212.019897	11.0
212.439804	42.0
213.123901	600.0
213.301498	10.0
213.399506	60.0
213.481705	20.0
213.889496	16.0
213.996094	20.0
214.128601	350.0
215.128693	62.0
215.7715	14.0
219.136002	270.0
219.192703	23.0
219.7603	12.0
220.139893	95.0
229.116302	41.0
229.948196	66.0
231.135406	3500.0
231.236801	38.0
231.273499	98.0
231.319504	29.0
231.423904	21.0
231.506805	42.0
231.599792	38.0
231.684601	47.0
231.772903	27.0
231.974304	22.0
231.992905	27.0
232.140396	560.0
232.225006	20.0
232.275894	16.0
232.337906	35.0
232.556702	11.0
232.8582	39.0
232.987595	29.0
233.146698	68.0
233.412994	17.0
236.088806	16.0
236.184601	18.0
237.158905	55.0
240.244995	13.0
245.2202	38.0
247.299393	23.0
248.125	12.0
248.288803	10.0
248.685806	19.0
249.059494	17.0
249.145706	2600.0
249.281998	54.0
249.328094	35.0
249.418503	33.0
249.461807	39.0
249.498001	53.0
249.562698	96.0
249.619995	72.0
249.669601	61.0
249.967697	22.0
250.151398	780.0
250.299103	12.0
250.373993	16.0
250.388306	12.0
250.460999	18.0
250.5159	11.0
250.570694	15.0
250.682602	22.0
250.822205	66.0
251.150803	82.0
251.228607	14.0
251.278595	28.0
251.557907	10.0
251.751907	15.0
264.225403	18.0
264.507599	27.0
268.088715	22.0
268.119385	10.0
287.11441	55.0
297.177704	14.0
309.140411	11.0
315.185486	49.0
315.806488	19.0
333.193298	170.0
333.358093	10.0
334.714203	16.0
335.023102	14.0
351.710205	15.0
356.14151	110.0
368.846191	11.0
373.097504	26.0
373.158813	450.0
373.321686	11.0
373.6315	22.0
374.161011	120.0
374.225006	16.0
374.411987	36.0
375.163208	62.0
375.92569	37.0
391.174194	38.0
440.218414	100.0
442.738708	17.0
457.21051	59.0
458.212799	71.0
459.068604	29.0
459.526886	11.0
460.859802	38.0
461.512299	28.0
510.935089	15.0
663.442993	16.0
743.921814	19.0
1214.88916	19.0
1243.342041	14.0
1503.116821	28.0
1539.688477	10.0
1567.251343	17.0
1609.462402	16.0
END IONS

BEGIN IONS
PEPMASS=138.091
CHARGE=1
MSLEVEL=2
SOURCE_INSTRUMENT=ESI-Orbitrap
FILENAME=madeleine.mgf
SEQ=*..*
IONMODE=Positive
ORGANISM=GNPS-LIBRARY
NAME=TYRAMINE - 20.0 eV M+H
PI=Madeleine Ernst
DATACOLLECTOR=Anna Abrahamsson
SMILES=NCCC1=CC=C(O)C=C1
INCHI=N/A
INCHIAUX=N/A
PUBMED=N/A
SUBMITUSER=mwang87
LIBRARYQUALITY=1
SPECTRUMID=CCMSLIB00005883154
USI=mzspec:GNPS:GNPS-LIBRARY:accession:CCMSLIB00005883154
SCANS=1
50.100498	71.18
50.226002	52.07
50.560001	65.339996
50.613899	52.220001
51.159	47.189999
51.178299	48.630001
51.5686	71.940002
51.665901	49.700001
52.245602	50.630001
53.0084	57.220001
53.038799	83.919998
53.059601	127.730003
53.4249	58.02
53.566601	138.809998
53.9772	53.68
54.707401	147.940002
54.834702	136.339996
55.303398	122.239998
55.304901	53.709999
55.407501	64.300003
55.507801	64.589996
55.723701	86.040001
55.796001	88.190002
56.942402	95.169998
57.032902	237.160004
57.208	57.490002
57.374401	151.970001
57.396801	136.919998
58.7859	100.120003
59.0951	74.059998
59.4645	237.179993
59.817902	55.110001
60.107498	72.209999
60.269402	55.470001
61.051201	65.529999
61.405201	52.91
61.650799	55.459999
62.917599	68.150002
64.6492	267.910004
65.038696	254.759995
65.187897	77.470001
66.493896	111.650002
66.964699	97.589996
67.835503	69.449997
68.787498	87.400002
69.069901	80.989998
69.232903	265.040009
69.616699	144.820007
69.720901	57.759998
69.7425	146.630005
69.746902	60.189999
69.801697	160.339996
69.972099	61.049999
70.226501	56.259998
70.2631	73.650002
70.542503	100.790001
72.016296	242.75
72.030701	70.879997
72.410004	95.099998
72.528198	143.800003
72.807899	65.129997
72.937202	140.339996
73.441002	300.320007
74.095901	71.0
74.401199	64.620003
75.154503	60.849998
75.3964	290.070007
75.7481	85.730003
75.945602	65.900002
76.965302	57.040001
77.038597	1086.23999
77.370102	55.41
78.394699	81.050003
79.018204	83.410004
79.210503	86.940002
80.761703	71.870003
81.069901	62.73
81.611	90.43
83.049103	151.960007
83.220299	60.099998
83.847397	69.82
84.5952	64.860001
86.012604	55.380001
86.367599	63.669998
87.388298	276.679993
89.060898	66.07
89.072197	256.420013
90.111603	79.419998
90.198402	68.43
90.4823	297.329987
90.645897	83.110001
90.9478	222.669998
91.054298	11904.580078
91.9161	64.260002
92.057602	1017.22998
92.2332	63.23
93.07	34616.78125
93.510498	97.779999
93.937897	95.489998
94.073303	3948.790039
94.097397	146.119995
95.049202	10115.799805
95.085602	234.380005
96.052498	367.559998
96.127098	73.169998
96.752098	192.259995
97.064796	115.480003
98.1745	60.07
98.8162	79.559998
98.935501	148.470001
98.9618	67.849998
100.281097	159.429993
101.865799	76.419998
102.160698	70.07
103.054298	17571.710938
104.035698	84.440002
104.057602	1986.189941
104.214996	76.889999
105.044899	3731.98999
105.634697	82.379997
105.690002	60.68
105.840599	63.77
106.0448	78.400002
106.048203	134.320007
108.334198	77.089996
110.865799	61.23
111.0233	1103.869995
112.688599	65.940002
112.902199	78.290001
113.963699	2444.449951
116.972	1761.869995
117.173897	59.779999
118.029099	80.970001
119.551399	71.849998
120.0569	93.599998
120.166397	66.089996
120.5933	127.059998
120.924004	61.130001
121.028603	6470.859863
121.032097	380.359985
121.064796	767247.0625
121.079201	139.0
121.099701	1399.25
122.031502	150.300003
122.047203	78.610001
122.068199	159067.53125
122.1036	176.089996
122.394203	57.459999
123.858002	55.220001
124.015099	303.829987
125.775299	79.919998
131.974304	990.280029
133.1492	71.25
134.367493	173.220001
135.729599	56.669998
135.774704	56.93
136.142502	89.669998
138.055496	79.529999
138.0914	3122.790039
139.039093	818.909973
139.0504	110.089996
139.075302	1399.26001
139.094696	488.059998
139.111801	2243.52002
140.488907	71.889999
141.252701	78.559998
143.426697	61.400002
144.451599	67.959999
144.792007	64.019997
146.2173	121.489998
147.849197	64.459999
147.996399	201.369995
149.754593	83.059998
149.955902	69.5
151.273102	78.870003
154.322296	79.300003
154.668396	72.720001
154.895493	193.220001
155.058395	66.980003
155.974792	159.789993
157.763107	113.830002
158.201706	83.970001
159.040207	186.869995
END IONS

BEGIN IONS
PEPMASS=138.055
CHARGE=1
MSLEVEL=2
SOURCE_INSTRUMENT=ESI-Orbitrap
FILENAME=madeleine.mgf
SEQ=*..*
IONMODE=Positive
ORGANISM=GNPS-LIBRARY
NAME=4-AMINOBENZOATE - 20.0 eV M+H
PI=Madeleine Ernst
DATACOLLECTOR=Anna Abrahamsson
SMILES=NC1=CC=C(C=C1)C(O)=O
INCHI=N/A
INCHIAUX=N/A
PUBMED=N/A
SUBMITUSER=mwang87
LIBRARYQUALITY=1
SPECTRUMID=CCMSLIB00005883526
USI=mzspec:GNPS:GNPS-LIBRARY:accession:CCMSLIB00005883526
SCANS=373
50.014301	58.029999
50.014599	64.339996
50.015202	474.540009
50.0424	372.880005
50.102299	50.240002
50.453899	404.029999
50.477402	37.0
50.946899	26.25
51.023201	882.669983
51.2752	24.9
51.484798	25.5
51.590401	26.719999
51.610699	35.189999
51.685902	28.52
51.745098	25.17
51.9403	30.559999
51.970402	25.940001
51.973099	31.08
52.018299	68.489998
52.0951	73.739998
52.134102	33.959999
52.388199	30.0
52.5238	27.73
52.645302	62.060001
52.6614	258.839996
52.9063	107.370003
53.002201	71.419998
53.027401	54.610001
53.039001	662.219971
53.1427	34.82
53.1604	24.360001
53.358101	60.669998
53.402599	429.059998
53.415699	29.07
53.7896	24.52
53.797298	24.379999
53.805401	26.07
54.4487	28.17
54.454899	40.34
54.492599	45.799999
54.600899	26.09
54.6423	109.519997
54.7159	39.389999
55.086102	136.919998
55.1297	46.450001
55.387901	46.66
55.469299	60.110001
55.7733	26.08
55.898998	155.490005
55.9347	3141.179932
55.9604	498.48999
56.082199	28.91
56.2262	30.23
56.408901	25.23
56.425499	24.209999
56.564499	27.879999
56.652802	57.16
56.670101	171.889999
56.794601	51.529999
56.8377	137.949997
56.935101	32.34
56.936199	459.410004
56.942501	1060.089966
56.965099	9241.870117
56.9827	29.030001
57.1399	31.18
57.2728	89.589996
57.633701	28.17
57.935101	855.969971
57.936401	73.709999
58.4949	97.620003
58.533798	39.759998
58.770599	54.68
58.787102	218.669998
58.789398	53.389999
58.824799	60.150002
58.887501	27.15
58.967701	28.049999
58.971001	26.9
58.992901	48.41
59.0107	57.990002
59.434601	36.98
59.467499	30.91
59.490799	63.810001
59.6646	49.77
59.914101	61.5
59.9711	27.889999
60.207901	440.25
60.305801	55.740002
60.307201	128.399994
60.358299	61.240002
60.359798	101.900002
60.3615	90.940002
60.751999	27.059999
60.962601	44.189999
61.013401	29.48
61.104	32.630001
61.150002	39.0
61.163101	28.66
61.528099	28.450001
61.988998	205.020004
62.014999	81.300003
62.244701	30.120001
62.410599	54.07
62.430199	27.08
62.520599	30.66
62.5793	26.440001
62.648201	32.84
62.9151	148.300003
63.022999	44.84
63.083698	70.459999
63.178299	42.580002
63.256901	27.059999
63.5098	32.279999
63.7201	114.120003
63.739601	26.610001
64.018097	67.419998
64.4664	135.919998
64.7127	30.15
64.727699	32.189999
64.8955	423.369995
65.038696	36194.699219
65.389	27.959999
65.633499	55.060001
65.637703	40.689999
65.720703	200.850006
65.980301	29.26
66.041901	1316.949951
66.046501	112.339996
66.147598	30.879999
66.207298	45.66
66.281601	29.110001
66.286697	29.9
66.302299	63.34
66.327904	45.43
66.403	422.170013
66.485298	335.5
66.606003	49.669998
66.659897	30.139999
67.042503	189.899994
67.054298	6340.180176
67.107498	62.610001
67.405098	47.470001
67.413002	28.07
67.661499	30.950001
68.003098	31.66
68.0495	232.860001
68.057602	298.980011
68.500702	48.5
68.534203	30.91
68.586899	29.299999
68.717697	27.17
69.031197	504.339996
69.210403	30.309999
69.692497	27.389999
69.757401	144.539993
69.959	33.139999
70.080399	27.469999
70.177597	30.98
70.193802	110.970001
70.319801	28.610001
70.508102	29.969999
70.655701	42.18
70.733803	44.110001
70.779999	35.130001
70.917999	32.77
71.394402	50.740002
71.6408	63.279999
71.670601	49.48
71.953903	59.900002
72.063797	99.620003
72.648804	28.07
72.7136	59.939999
72.937202	3871.219971
72.940903	76.169998
74.0149	236.270004
74.021202	39.610001
74.043098	126.900002
74.096298	287.970001
74.120399	30.99
74.164703	29.309999
74.3592	56.630001
74.975403	38.25
74.995598	31.639999
75.022797	1424.410034
75.106903	52.029999
75.267097	156.220001
76.026604	101.169998
76.030602	575.219971
76.818802	615.890015
77.024498	31.799999
77.036201	167.419998
77.038498	14802.94043
77.740799	71.110001
78.041901	1354.880005
78.0812	29.030001
78.3778	36.330002
79.017799	156.229996
79.054298	30.950001
79.145599	30.23
79.875099	476.709991
80.264999	68.720001
80.655701	31.6
81.033401	1342.540039
81.227699	34.32
81.568802	28.969999
81.601501	56.790001
82.027	31.790001
82.0467	33.82
82.2603	34.23
82.953796	36.779999
83.384598	43.27
83.431396	34.650002
83.735497	243.020004
83.986	57.689999
84.052101	31.120001
84.116402	30.93
84.503899	32.459999
84.988197	45.470001
85.705803	40.380001
85.803001	139.300003
86.820297	106.910004
86.966599	45.279999
88.023201	51.91
88.093498	35.529999
88.121803	34.5
88.193497	33.220001
88.361	127.540001
88.458504	53.990002
88.968399	498.359985
89.211403	32.869999
89.716003	37.389999
90.5783	35.369999
90.730904	29.620001
90.947701	2330.48999
90.951897	55.75
91.138298	32.330002
91.230103	45.380001
91.737801	221.820007
92.0495	54703.171875
93.0336	1199.47998
93.052902	2718.76001
93.057297	48131.589844
93.07	112.0
93.208801	32.060001
93.264099	46.119999
93.582802	45.790001
93.904198	32.630001
94.041	1189.579956
94.061699	1143.290039
94.065102	584688.75
94.088303	956.719971
94.090698	291.399994
94.124702	328.559998
94.5513	113.82
94.631203	32.060001
94.803902	34.630001
95.0243	188.039993
95.049103	130604.75
95.062202	2920.02002
95.068398	65060.859375
95.896004	153.770004
96.044403	1166.359985
96.049202	113.790001
96.052299	10716.0
96.585999	37.27
96.856796	61.59
96.9375	67.279999
97.007599	224.460007
97.064598	82.589996
97.908401	363.790009
97.969002	72.519997
97.991402	954.880005
98.054199	35.779999
98.084999	103.349998
98.961304	126.300003
98.978401	31.08
99.758003	32.060001
99.986504	28.93
100.862	164.029999
101.363403	32.619999
101.489197	548.780029
102.047897	60.029999
102.4049	56.330002
102.5718	33.900002
102.916801	31.200001
102.948097	76.650002
103.0177	340.73999
103.354797	32.990002
105.044701	52847.488281
105.609497	157.410004
106.042198	120.510002
106.048103	4410.370117
106.147202	37.650002
106.5214	45.200001
106.566704	31.59
107.065903	38.049999
107.178299	31.290001
107.180702	342.209991
107.767502	29.200001
108.036903	34.330002
108.338203	34.939999
108.958298	230.419998
109.010803	471.119995
109.051498	97.57
109.366302	32.759998
110.059998	5428.700195
110.202103	500.209991
110.211502	32.43
111.0233	393.929993
111.044197	1317.329956
111.063301	68.110001
111.080399	31.92
112.266602	33.290001
112.323898	33.18
113.018997	63.259998
113.218002	109.279999
113.233002	40.07
113.963799	16189.849609
114.115196	36.439999
114.288803	34.990002
114.971603	1682.109985
115.014603	2391.850098
115.964104	4576.060059
115.999901	301.049988
116.001999	516.659973
116.677498	62.09
116.817299	28.43
116.972	20536.830078
117.165298	519.469971
117.833603	151.0
118.007103	32.990002
118.500198	29.73
119.994102	29.74
120.008797	2357.110107
120.037804	415.119995
120.044403	1235657.75
120.055801	236.220001
120.0616	53.400002
120.078697	2712.159912
120.927902	61.5
121.028397	8198.0
121.041298	6639.399902
121.047699	162539.953125
121.084	91.989998
121.101196	41.599998
121.127899	31.620001
122.019203	138.979996
122.031799	341.279999
122.525902	34.790001
122.629501	36.509998
122.698402	34.330002
124.015099	6886.589844
125.039101	35.84
125.472198	62.970001
126.256401	34.869999
126.475197	158.550003
127.012001	35.77
127.548798	31.65
128.287704	31.52
128.528107	86.620003
128.950806	12426.799805
129.951004	102.669998
129.954498	108.779999
130.204407	332.299988
131.1707	31.940001
131.974304	6993.339844
132.702301	31.68
132.766907	58.439999
132.958801	81.540001
133.025299	293.850006
133.901001	54.990002
134.012604	51.880001
134.328201	57.259998
136.035095	204.729996
136.110504	65.790001
137.047501	678.849976
137.124207	30.780001
137.300903	30.620001
137.916702	164.5
138.011993	6473.240234
138.0215	107.830002
138.036804	205.449997
138.046097	5428.689941
138.054901	2952139.0
138.075302	713.599976
138.0914	158.559998
138.097595	4381.779785
138.101196	1583.430054
138.128799	310.350006
138.184006	148.860001
138.271194	107.43
139.013901	619.940002
139.039597	1550.619995
139.052399	11461.709961
139.058105	375764.375
139.0755	589.809998
139.100403	562.960022
139.111893	586.119995
139.558395	167.479996
140.826096	49.09
141.480606	330.730011
141.927902	33.779999
142.025696	615.880005
142.211899	36.849998
143.510498	60.189999
144.838898	357.309998
144.909393	33.139999
144.968201	32.669998
145.903397	38.959999
146.417801	57.380001
146.721497	36.68
146.961304	8274.740234
147.949005	165.919998
147.964005	142.850006
148.321899	35.630001
148.391205	540.940002
148.961594	120.889999
149.0345	13427.19043
149.841507	71.830002
150.037506	1108.780029
150.210907	31.370001
151.460495	109.160004
151.698593	32.34
152.070496	90.459999
154.150604	107.410004
155.758606	62.82
155.823196	31.93
156.065704	976.890015
156.756805	30.700001
157.512894	37.150002
158.210495	37.099998
158.319	128.729996
158.394806	554.75
158.666504	36.59
159.534393	56.5
END IONS

BEGIN IONS
PEPMASS=126.022
CHARGE=1
MSLEVEL=2
SOURCE_INSTRUMENT=ESI-Orbitrap
FILENAME=madeleine.mgf
SEQ=*..*
IONMODE=Positive
ORGANISM=GNPS-LIBRARY
NAME=TAURINE - 20.0 eV M+H
PI=Madeleine Ernst
DATACOLLECTOR=Anna Abrahamsson
SMILES=NCCS(O)(=O)=O
INCHI=N/A
INCHIAUX=N/A
PUBMED=N/A
SUBMITUSER=mwang87
LIBRARYQUALITY=1
SPECTRUMID=CCMSLIB00005883652
USI=mzspec:GNPS:GNPS-LIBRARY:accession:CCMSLIB00005883652
SCANS=499
50.945099	218.389999
51.741299	224.169998
52.967499	183.259995
54.122799	199.240005
54.429401	201.279999
55.934799	10749.820312
56.965099	2915.909912
57.268902	235.350006
57.935001	213.539993
60.728401	227.009995
61.670799	247.729996
64.8274	209.75
64.938499	235.75
64.963997	206.220001
65.357399	250.669998
67.143997	216.279999
67.934998	1179.02002
69.660896	210.520004
70.304901	214.949997
71.049301	261.529999
71.6642	202.690002
72.337997	216.710007
74.2995	212.009995
74.969101	209.929993
81.069901	1250.280029
81.686699	213.300003
82.277496	243.279999
83.007202	254.479996
83.9814	267.410004
84.959801	54561.839844
85.028397	274.859985
85.945503	448.98999
85.963097	2601.189941
87.026703	272.179993
87.119301	209.729996
88.968498	2560.719971
89.334801	236.339996
89.855301	213.789993
91.261002	230.449997
91.715797	224.960007
92.012497	888.590027
94.776497	211.119995
97.007797	511.480011
98.975197	412.179993
99.003403	3646.600098
99.080902	233.149994
102.948303	319.459991
102.970299	17079.400391
102.973602	310.200012
103.948502	350.209991
103.9561	1308.369995
103.973801	640.280029
104.012497	3284.169922
105.002098	329.350006
106.457397	221.089996
106.979103	572.580017
108.011398	30089.910156
108.995399	1280.349976
109.0112	395.619995
109.0149	1445.22998
109.064796	533.559998
109.101402	1194.140015
109.959297	218.139999
113.017799	5037.379883
114.007599	376.269989
114.639099	249.669998
114.971703	1704.380005
116.972	826.23999
116.985901	1282.98999
118.3358	246.809998
120.958801	310.540009
120.980904	8439.320312
121.966599	557.51001
122.023102	1302.540039
122.699898	271.019989
122.765602	248.710007
124.209297	213.479996
126.022003	69221.960938
126.781998	306.100006
126.955704	277.559998
126.972	763.51001
127.015297	816.820007
127.021202	1023.51001
127.025299	2772.169922
127.034698	385.73999
127.039001	1293.439941
127.0756	364.029999
128.946396	696.849976
128.950806	22837.109375
134.996506	559.690002
136.083694	245.539993
138.991501	391.23999
140.951706	428.700012
142.902802	243.050003
143.000702	289.609985
144.966095	270.420013
END IONS

BEGIN IONS
PEPMASS=198.076
CHARGE=1
MSLEVEL=2
SOURCE_INSTRUMENT=ESI-Orbitrap
FILENAME=madeleine.mgf
SEQ=*..*
IONMODE=Positive
ORGANISM=GNPS-LIBRARY
NAME=3,4-DIHYDROXY-L-PHENYLALANINE - 20.0 eV M+H
PI=Madeleine Ernst
DATACOLLECTOR=Anna Abrahamsson
SMILES=N[C@@H](CC1=CC(O)=C(O)C=C1)C(O)=O
INCHI=N/A
INCHIAUX=N/A
PUBMED=N/A
SUBMITUSER=mwang87
LIBRARYQUALITY=1
SPECTRUMID=CCMSLIB00005883814
USI=mzspec:GNPS:GNPS-LIBRARY:accession:CCMSLIB00005883814
SCANS=661
50.3419	121.610001
51.226299	288.279999
51.530201	266.579987
51.7435	282.519989
51.7911	115.75
51.941601	310.649994
52.177502	263.309998
52.5033	102.580002
53.628601	103.690002
53.821899	115.860001
54.3647	313.859985
54.423302	113.900002
55.019402	128.839996
55.309799	142.979996
58.260201	115.860001
59.561798	148.550003
59.598202	294.640015
59.697498	145.139999
59.901798	106.110001
60.027901	276.079987
65.038803	1553.319946
65.801201	128.160004
68.700798	120.309998
69.403702	302.920013
70.0961	120.440002
70.319603	273.200012
72.557999	128.130005
72.9142	284.690002
73.920303	138.949997
74.078499	111.949997
74.096497	474.829987
75.822601	161.020004
77.038696	336.940002
77.5895	127.889999
78.513199	154.350006
78.5438	309.350006
79.054298	332.910004
79.432999	128.779999
81.092903	325.359985
81.595398	126.480003
83.306801	125.949997
85.618698	301.01001
89.038498	360.76001
90.438202	132.410004
91.054298	1273.819946
91.595299	165.570007
92.975403	339.799988
93.033699	514.52002
93.469002	126.739998
94.809303	279.600006
95.987701	146.25
96.231499	308.429993
96.4133	343.609985
99.311096	142.509995
102.5466	130.080002
106.065201	2915.840088
106.514503	155.759995
107.049202	12030.549805
108.855103	348.440002
109.229599	146.289993
109.536797	125.309998
111.044197	9971.429688
116.322601	122.32
116.888603	315.070007
119.049202	536.799988
121.374298	369.959991
122.677399	143.270004
123.043999	402.029999
123.389297	371.160004
124.142197	143.660004
130.045197	317.51001
134.060104	3071.330078
135.044205	105865.046875
136.047501	9732.030273
136.975906	137.889999
137.059906	5613.029785
138.700104	140.669998
138.997498	327.649994
139.039093	197964.484375
139.082901	431.540009
140.042496	15268.290039
142.133804	295.859985
143.452301	138.850006
144.518295	364.049988
144.699707	360.059998
144.949493	148.240005
145.158295	393.920013
148.505493	139.039993
152.018295	900.48999
152.070801	664802.875
152.120697	1802.77002
152.426895	336.899994
153.068298	2768.850098
153.074097	68741.726562
153.782501	162.809998
153.980301	160.059998
159.192093	134.220001
161.324097	333.359985
161.426102	139.0
162.270401	147.470001
163.039093	41198.03125
164.042404	4405.180176
168.976105	124.589996
173.223999	363.070007
174.985306	578.059998
175.427704	339.119995
175.975403	147.300003
176.647293	169.990005
181.049698	370782.53125
181.114594	529.549988
182.053101	43616.78125
184.269608	129.830002
184.779694	183.360001
184.969604	957.159973
191.767807	141.110001
198.001099	992.72998
198.076202	142591.625
198.985001	3619.189941
199.079697	16750.859375
199.181	1237.619995
202.520905	306.450012
202.973007	373.769989
211.478302	135.960007
214.436295	165.190002
END IONS

BEGIN IONS
PEPMASS=442.147
CHARGE=1
MSLEVEL=2
SOURCE_INSTRUMENT=ESI-Orbitrap
FILENAME=madeleine.mgf
SEQ=*..*
IONMODE=Positive
ORGANISM=GNPS-LIBRARY
NAME=FOLIC ACID - 20.0 eV M+H
PI=Madeleine Ernst
DATACOLLECTOR=Anna Abrahamsson
SMILES=NC1=NC(=O)C2=NC(CNC3=CC=C(C=C3)C(=O)N[C@@H](CCC(O)=O)C(O)=O)=CN=C2N1
INCHI=N/A
INCHIAUX=N/A
PUBMED=N/A
SUBMITUSER=mwang87
LIBRARYQUALITY=1
SPECTRUMID=CCMSLIB00005883886
USI=mzspec:GNPS:GNPS-LIBRARY:accession:CCMSLIB00005883886
SCANS=733
50.141899	77.910004
50.298801	86.970001
50.386101	82.199997
50.5019	93.120003
50.818199	89.239998
50.943001	91.029999
51.483398	93.610001
51.588902	76.940002
51.665501	97.730003
51.915798	89.910004
53.116901	89.449997
53.354	86.629997
54.132401	85.040001
54.573502	90.410004
54.624699	83.199997
54.862499	92.919998
54.876099	90.339996
55.321499	89.080002
55.506802	86.160004
57.362701	93.809998
57.474701	83.379997
57.5765	99.580002
58.0312	93.330002
59.811699	89.629997
60.393002	85.25
60.5224	98.839996
60.5923	83.209999
60.7136	96.339996
60.966	85.660004
61.425499	96.059998
62.029202	85.309998
62.752399	91.790001
62.803001	99.709999
63.069099	105.800003
63.226501	86.339996
63.597801	87.199997
63.706402	82.860001
63.808399	96.120003
64.219498	85.0
64.661201	90.32
64.891296	97.339996
65.630203	91.150002
66.393898	98.629997
66.9048	85.080002
67.016899	106.400002
67.43	113.169998
67.514503	97.029999
67.668701	95.43
67.864197	97.190002
68.084099	101.25
68.572304	100.970001
69.185204	88.120003
69.343201	94.989998
69.451401	90.800003
69.631798	108.610001
69.669701	93.809998
69.690498	96.75
69.979897	88.959999
70.217903	91.57
70.8666	95.260002
71.095901	95.190002
71.183296	103.870003
71.209297	95.839996
71.317398	90.260002
72.312401	96.720001
72.760902	91.949997
72.929901	103.620003
73.042099	109.830002
73.139702	89.900002
73.282204	116.040001
73.327698	96.410004
73.499397	88.059998
74.030098	85.300003
75.385399	105.580002
76.021599	95.480003
76.603104	96.860001
77.613197	110.349998
78.7929	86.300003
78.931503	96.190002
79.366699	115.129997
79.8647	101.709999
79.898499	90.620003
79.936798	98.440002
80.270798	87.860001
81.096397	99.559998
81.320999	105.57
81.558899	101.18
82.793701	92.739998
84.1194	98.800003
84.4244	103.589996
85.0243	92.059998
85.445702	97.919998
85.657204	111.639999
85.781601	104.489998
86.082298	93.410004
86.106201	102.540001
86.7173	98.120003
87.249603	106.470001
87.762398	100.300003
88.388	89.43
88.545197	101.809998
89.903	87.510002
92.163696	153.979996
92.167	112.459999
92.216599	118.800003
93.773598	109.279999
93.840202	130.449997
95.006798	100.25
96.788696	111.010002
98.701599	101.620003
100.976501	105.760002
101.217003	94.559998
101.694504	102.669998
101.6987	128.25
103.236099	107.650002
104.197098	112.059998
105.883102	100.860001
106.584503	91.43
107.383797	124.269997
108.603401	108.790001
111.1772	95.919998
112.537102	107.18
115.550102	107.419998
117.494598	95.589996
117.649101	107.830002
117.748901	126.610001
118.724503	116.239998
119.742302	100.050003
122.380096	99.730003
122.726601	148.169998
123.951698	95.580002
127.545403	113.800003
138.296799	104.309998
138.352203	108.300003
138.482895	104.059998
145.889496	112.669998
149.418793	122.230003
149.667206	119.720001
151.665695	122.809998
152.829407	122.480003
153.109299	118.150002
155.769104	100.540001
157.098007	103.669998
157.108505	108.379997
158.411606	98.690002
159.710297	109.5
160.191895	106.739998
166.733795	104.660004
169.037598	98.32
170.624695	109.169998
172.6586	102.650002
173.032501	95.080002
176.502701	101.449997
181.300797	99.860001
181.559692	114.639999
184.389297	109.010002
193.826508	104.629997
200.1474	109.220001
203.897995	112.169998
206.032501	100.629997
208.698303	115.839996
211.422806	117.559998
212.385605	109.449997
213.890594	111.870003
214.503204	116.290001
215.204102	119.459999
215.940704	119.059998
216.100693	107.690002
224.844696	98.190002
227.179901	109.589996
227.462494	105.040001
238.431595	108.309998
242.636993	100.989998
244.159698	120.360001
246.506393	99.269997
246.957596	117.949997
251.478302	112.160004
253.146194	116.169998
254.963699	95.120003
255.5168	103.529999
262.678894	110.339996
270.783813	123.989998
275.87149	122.410004
287.817505	122.400002
291.519989	128.399994
292.254395	119.309998
294.255707	110.839996
295.094086	9432.679688
296.097198	686.530029
296.326904	129.279999
300.0867	111.099998
307.777802	141.369995
307.993408	104.389999
310.146606	129.550003
313.105103	215.419998
326.653809	127.010002
333.133087	110.790001
340.446289	107.309998
354.285187	122.239998
359.842804	148.190002
359.898987	115.139999
369.304993	129.220001
377.661987	122.489998
389.080811	112.440002
390.892212	128.679993
391.803101	127.519997
400.438995	122.809998
404.738586	109.029999
421.325195	136.520004
423.43631	104.93
425.283203	126.57
429.756012	119.839996
437.466888	110.900002
438.445312	128.179993
449.41861	118.879997
466.426605	121.349998
466.50351	119.919998
468.775909	110.480003
END IONS

BEGIN IONS
PEPMASS=154.086
CHARGE=1
MSLEVEL=2
SOURCE_INSTRUMENT=ESI-Orbitrap
FILENAME=madeleine.mgf
SEQ=*..*
IONMODE=Positive
ORGANISM=GNPS-LIBRARY
NAME=DOPAMINE - 20.0 eV M+H
PI=Madeleine Ernst
DATACOLLECTOR=Anna Abrahamsson
SMILES=NCCC1=CC=C(O)C(O)=C1
INCHI=N/A
INCHIAUX=N/A
PUBMED=N/A
SUBMITUSER=mwang87
LIBRARYQUALITY=1
SPECTRUMID=CCMSLIB00005884059
USI=mzspec:GNPS:GNPS-LIBRARY:accession:CCMSLIB00005884059
SCANS=906
50.138401	59.369999
50.313499	73.699997
50.509399	63.209999
50.5728	63.279999
50.730701	55.700001
50.940102	72.279999
51.0233	81.870003
51.121899	72.290001
51.277802	64.959999
51.441799	71.800003
51.566601	65.269997
51.8232	53.720001
51.987701	66.669998
52.473202	84.459999
52.590199	79.779999
52.765301	70.209999
52.8363	62.75
53.156799	70.959999
53.246601	69.639999
53.303398	66.489998
53.315601	60.439999
53.551899	87.629997
53.590801	67.160004
53.711201	86.669998
53.9436	58.59
53.9599	68.800003
54.353699	93.129997
54.366402	61.32
54.4398	64.190002
55.0051	89.650002
55.662498	65.93
55.6674	67.150002
55.909302	75.339996
55.958099	73.589996
56.2369	65.029999
56.27	74.910004
56.419201	93.0
56.5765	63.060001
56.965199	80.769997
58.640999	61.040001
58.769699	63.66
59.381699	79.510002
59.5098	63.16
59.610802	81.75
59.614799	64.25
60.056702	58.75
60.576	56.84
61.1451	60.349998
61.9566	67.269997
62.098999	80.32
62.758499	92.760002
63.0229	92.57
63.3218	62.540001
63.932701	83.559998
64.077698	65.959999
64.199203	96.68
64.977501	58.450001
65.038696	2888.280029
65.230301	76.790001
65.531998	66.589996
65.693604	72.760002
65.740303	63.610001
65.750999	65.190002
65.771103	84.790001
65.948898	68.349998
66.796799	64.220001
66.939301	71.010002
67.054298	109.139999
67.127899	71.959999
67.305496	83.5
67.82	69.550003
67.9813	86.169998
68.261002	97.279999
68.291801	66.089996
69.632301	63.029999
69.942703	62.48
69.998802	63.720001
70.8918	92.300003
71.2939	71.709999
71.480499	62.119999
72.143097	68.370003
72.297096	79.279999
72.3992	114.300003
72.937202	964.72998
73.392303	87.730003
73.512901	67.410004
73.571297	100.18
74.425697	69.75
74.635002	88.889999
74.939301	64.839996
75.571503	81.379997
79.784103	73.93
80.134804	75.790001
80.402496	67.43
80.751503	73.879997
81.069901	1189.859985
82.349098	78.980003
83.888603	92.110001
84.373199	77.690002
85.375198	67.410004
85.529198	76.529999
85.945396	74.169998
86.022903	66.790001
86.117897	69.220001
87.585899	66.650002
87.619797	78.800003
87.746696	68.010002
88.368599	82.32
88.897102	91.709999
89.1045	73.82
90.947701	905.76001
91.032303	76.809998
91.054298	63370.910156
91.224297	85.57
92.057602	5083.72998
93.8965	75.209999
94.188499	71.669998
94.630096	63.919998
95.085503	200.179993
96.340401	90.190002
96.992599	91.919998
98.1465	97.550003
98.266403	98.82
100.976501	111.260002
101.561302	69.629997
102.436798	67.07
102.467796	112.040001
102.948402	412.540009
102.9673	87.57
103.9561	228.050003
104.575897	64.809998
104.786301	84.029999
104.814697	70.5
105.736801	81.370003
105.951202	87.160004
106.289398	75.239998
107.0186	79.589996
108.958397	254.570007
109.064903	6671.299805
109.101303	359.410004
109.564102	76.849998
110.068298	244.960007
111.792702	102.669998
112.525398	76.739998
113.963799	9422.80957
114.590103	121.339996
115.477997	73.080002
118.9431	186.649994
119.049202	50774.738281
119.321098	101.199997
119.498901	92.269997
119.951103	579.710022
120.052498	5755.529785
122.655403	75.730003
126.972099	81.910004
130.860596	114.440002
130.953995	79.150002
130.981903	302.910004
131.951004	498.380005
131.974396	6232.990234
137.0168	2753.840088
137.051102	1184.400024
137.059799	1019743.3125
137.100098	1668.670044
137.104904	900.179993
138.020401	243.149994
138.063095	135465.765625
138.363907	95.660004
140.801895	67.230003
142.930496	83.150002
144.782501	79.900002
144.997894	90.389999
146.052795	105.739998
149.961594	3294.97998
153.261902	80.709999
154.086304	14607.299805
154.907501	3158.820068
155.070099	661.469971
155.0896	1605.77002
155.106796	105.940002
157.550095	80.650002
158.043594	80.099998
159.786804	106.989998
160.120102	83.580002
161.225296	76.849998
162.078995	80.419998
164.923004	72.089996
166.847198	73.32
167.972	576.859985
169.075302	71.279999
172.943497	122.779999
172.952393	820.900024
END IONS

BEGIN IONS
PEPMASS=162.112
CHARGE=1
MSLEVEL=2
SOURCE_INSTRUMENT=ESI-Orbitrap
FILENAME=madeleine.mgf
SEQ=*..*
IONMODE=Positive
ORGANISM=GNPS-LIBRARY
NAME=L-CARNITINE - 20.0 eV M+H
PI=Madeleine Ernst
DATACOLLECTOR=Anna Abrahamsson
SMILES=C[N+](C)(C)C[C@H](O)CC([O-])=O
INCHI=N/A
INCHIAUX=N/A
PUBMED=N/A
SUBMITUSER=mwang87
LIBRARYQUALITY=1
SPECTRUMID=CCMSLIB00005884287
USI=mzspec:GNPS:GNPS-LIBRARY:accession:CCMSLIB00005884287
SCANS=1134
50.852901	140.759995
52.5742	144.460007
52.6688	6155.299805
53.2318	6380.560059
53.2351	146.5
53.864899	149.490005
55.016602	138.210007
55.646999	8056.279785
55.919998	6512.72998
57.599899	158.550003
58.0653	23370.109375
58.497299	3430.98999
58.923199	159.490005
59.0732	12651.110352
59.267502	3443.179932
59.495098	7644.799805
60.0811	583750.4375
60.082699	8369.830078
60.5616	164.25
61.0499	3647.590088
61.0844	16390.980469
61.847401	163.449997
66.533401	3515.550049
68.390099	3366.100098
68.421501	183.800003
70.116699	7999.339844
70.486801	3851.830078
70.613297	169.699997
71.0578	6628.660156
72.433899	3852.51001
75.935501	268.799988
77.627098	222.880005
77.715698	3747.51001
83.540199	185.399994
84.314301	4182.310059
84.9599	831.830017
85.028503	187420.75
85.611801	163.660004
85.970703	8740.419922
89.098503	4043.219971
89.183701	4783.609863
92.948303	170.669998
93.866203	173.910004
93.946404	205.889999
94.062401	168.779999
94.3283	8023.52002
94.705704	184.800003
95.892097	8209.169922
100.9674	4773.040039
102.055199	321.619995
102.091499	260748.65625
102.514503	3662.850098
102.970596	209.259995
103.039101	1130626.25
103.058701	240.380005
103.304901	199.860001
104.042397	69443.421875
115.954399	799.51001
116.7528	4482.029785
116.962303	739.109985
116.972099	1084.530029
117.975899	211.860001
117.979797	3015.22998
118.977798	306.26001
118.983398	498.089996
127.493896	7515.700195
128.951004	700.880005
129.891205	3829.060059
132.576202	192.179993
132.957199	1527.27002
132.966705	200.949997
133.964905	1592.410034
134.972702	475.709991
135.716003	8781.450195
139.738693	183.259995
146.961502	512.900024
150.967697	719.309998
151.9151	4149.22998
151.975693	236.410004
152.013794	191.190002
156.977295	4930.279785
158.2323	190.559998
162.054001	14051.330078
162.059799	17272.470703
162.101593	40265.261719
162.112701	9989296.0
162.167694	16678.449219
162.967697	1066.73999
163.003006	238.279999
163.0392	773.299988
163.050095	241.419998
163.109894	48925.75
163.115997	1024723.125
176.700104	247.330002
END IONS

BEGIN IONS
PEPMASS=169.097
CHARGE=1
MSLEVEL=2
SOURCE_INSTRUMENT=ESI-Orbitrap
FILENAME=madeleine.mgf
SEQ=*..*
IONMODE=Positive
ORGANISM=GNPS-LIBRARY
NAME=PYRIDOXAMINE - 20.0 eV M+H
PI=Madeleine Ernst
DATACOLLECTOR=Anna Abrahamsson
SMILES=CC1=C(O)C(CN)=C(CO)C=N1
INCHI=N/A
INCHIAUX=N/A
PUBMED=N/A
SUBMITUSER=mwang87
LIBRARYQUALITY=1
SPECTRUMID=CCMSLIB00005884353
USI=mzspec:GNPS:GNPS-LIBRARY:accession:CCMSLIB00005884353
SCANS=1200
50.832401	135.759995
52.3955	115.57
55.419601	132.649994
55.482399	124.809998
59.8941	121.68
62.1758	138.020004
64.487198	138.289993
65.502998	137.759995
66.001404	143.660004
66.939102	147.259995
67.697998	161.169998
68.419098	139.990005
68.634697	152.970001
70.129204	143.880005
70.374901	159.639999
70.761703	136.720001
71.164101	137.649994
72.687103	121.360001
72.995796	153.929993
78.155602	133.259995
79.054199	1507.47998
84.044601	369.390015
84.134804	149.240005
84.799301	162.449997
86.222198	160.899994
86.947197	145.779999
88.653099	139.410004
90.176697	155.039993
91.682404	125.849998
91.782402	146.740005
92.049797	331.690002
92.070702	154.720001
92.297997	156.270004
93.057602	339.709991
93.232597	168.339996
96.080803	1133.369995
97.307297	144.740005
104.9804	166.75
106.0653	11636.19043
107.377098	211.800003
107.959999	4119.100098
107.963501	221.369995
108.0811	691.76001
111.7257	159.009995
112.444298	168.070007
116.965797	171.259995
119.402802	154.339996
120.441803	1097.189941
120.608398	1073.98999
121.5802	183.330002
124.076202	11775.719727
132.777405	1224.030029
133.926895	239.789993
134.060303	97995.429688
134.582108	157.399994
135.063599	7127.27002
141.784607	169.229996
144.548798	162.899994
145.017593	400.450012
146.993896	920.659973
149.251801	173.130005
149.378006	1124.910034
150.678101	166.289993
151.086899	140042.109375
151.937698	822.109985
152.002106	176.449997
152.019104	1673.680054
152.060806	3208.100098
152.070908	1192126.25
152.090103	16420.919922
152.119904	3949.290039
153.0681	305.920013
153.074203	155639.671875
163.045197	167.679993
164.8004	161.100006
165.737503	139.039993
167.014496	1077.030029
169.097397	169828.828125
169.9487	290.160004
169.960602	149.059998
170.012802	2918.889893
170.096893	20606.810547
170.100906	23561.210938
171.650497	150.020004
172.011398	151.910004
173.028107	156.610001
185.182693	173.979996
188.023407	4140.709961
END IONS

BEGIN IONS
PEPMASS=112.087
CHARGE=1
MSLEVEL=2
SOURCE_INSTRUMENT=ESI-Orbitrap
FILENAME=madeleine.mgf
SEQ=*..*
IONMODE=Positive
ORGANISM=GNPS-LIBRARY
NAME=HISTAMINE - 20.0 eV M+H
PI=Madeleine Ernst
DATACOLLECTOR=Anna Abrahamsson
SMILES=NCCC1=CNC=N1
INCHI=N/A
INCHIAUX=N/A
PUBMED=N/A
SUBMITUSER=mwang87
LIBRARYQUALITY=1
SPECTRUMID=CCMSLIB00005884473
USI=mzspec:GNPS:GNPS-LIBRARY:accession:CCMSLIB00005884473
SCANS=1320
50.261501	354.160004
50.325699	1329.449951
50.361801	83.690002
50.907398	77.559998
51.091301	76.849998
51.751499	77.860001
53.169601	72.550003
53.939499	861.849976
54.277401	79.449997
55.359501	1565.76001
55.861099	1474.300049
56.471199	354.079987
56.672798	413.119995
57.206699	1520.780029
57.283798	341.119995
57.748901	408.119995
58.795502	1319.47998
59.201698	78.220001
59.332699	1675.119995
59.397999	88.629997
61.238602	370.75
62.029999	358.660004
62.1558	80.339996
62.9715	460.809998
63.3839	75.68
63.426399	92.110001
63.563599	92.779999
63.609501	77.239998
64.727402	99.93
65.320801	79.139999
65.580704	77.650002
65.778397	75.440002
66.024803	90.510002
66.049004	79.25
66.089897	82.389999
66.2145	86.410004
67.041801	601.789978
67.054497	323.820007
67.488403	1509.209961
67.823502	84.5
68.034302	398.790009
68.049698	53121.308594
68.269203	385.359985
68.8853	77.220001
68.901703	387.130005
69.053001	741.929993
69.454597	91.440002
70.028801	87.25
70.035103	86.660004
70.065498	84.160004
70.287399	93.870003
70.522003	81.82
70.556099	428.720001
70.942001	1808.530029
71.049301	291.790009
71.295303	84.849998
71.568199	77.279999
71.929497	1464.280029
71.940399	5672.899902
71.942101	84.809998
72.369003	430.440002
73.451103	91.57
73.7286	98.949997
74.042503	89.699997
74.556999	394.170013
74.603798	381.079987
78.375999	118.32
79.457199	1681.98999
79.790199	92.059998
79.845299	85.260002
80.992897	96.660004
82.052696	4558.660156
82.6959	92.589996
83.060501	201320.296875
84.057503	618.369995
84.063904	10793.389648
84.959999	87.059998
85.064903	131.679993
85.128197	389.869995
85.137901	95.970001
85.468597	96.400002
86.139	98.75
86.320999	90.980003
86.973198	100.559998
87.004303	221.580002
88.952599	1894.959961
89.951103	1477.540039
90.000801	110.709999
90.585899	111.889999
91.088303	92.18
91.430298	403.529999
91.701401	100.660004
94.650101	85.650002
95.035202	10283.299805
95.049301	237.039993
95.060501	2809462.5
95.084396	7903.899902
96.009598	127.07
96.044403	457.320007
96.057602	29330.869141
96.060898	4216.47998
96.063904	221898.859375
96.0811	424.519989
96.258301	97.830002
96.542198	443.200012
96.846497	88.470001
97.007797	2209.25
97.276901	96.580002
97.4515	94.510002
98.007301	202.559998
99.003502	7193.790039
101.436203	497.429993
102.022102	91.25
106.873199	1798.069946
106.963303	142.330002
107.1194	100.269997
107.780998	437.470001
109.438202	97.809998
111.023499	1581.589966
111.769402	100.540001
112.054604	1845.73999
112.087097	1193311.5
112.117401	2004.76001
112.967003	261.429993
113.0	486.940002
113.019096	12655.019531
113.023003	718.559998
113.034798	1011.599976
113.059998	1200.380005
113.084198	19308.529297
113.090401	98056.453125
113.107498	231.729996
114.717796	432.929993
117.428802	86.330002
122.056	435.529999
123.1399	94.980003
125.766602	96.650002
126.4011	95.169998
126.424698	98.300003
126.955803	843.26001
127.124802	90.959999
130.977295	97.769997
132.697006	1921.880005
133.996307	1948.280029
END IONS

BEGIN IONS
PEPMASS=184.097
CHARGE=1
MSLEVEL=2
SOURCE_INSTRUMENT=ESI-Orbitrap
FILENAME=madeleine.mgf
SEQ=*..*
IONMODE=Positive
ORGANISM=GNPS-LIBRARY
NAME=EPINEPHRINE - 20.0 eV M+H
PI=Madeleine Ernst
DATACOLLECTOR=Anna Abrahamsson
SMILES=CNC[C@H](O)C1=CC=C(O)C(O)=C1
INCHI=N/A
INCHIAUX=N/A
PUBMED=N/A
SUBMITUSER=mwang87
LIBRARYQUALITY=1
SPECTRUMID=CCMSLIB00005884771
USI=mzspec:GNPS:GNPS-LIBRARY:accession:CCMSLIB00005884771
SCANS=1618
50.1856	97.93
50.271801	76.779999
50.463699	95.809998
50.989899	84.459999
51.398499	83.449997
51.629299	93.419998
51.975498	97.449997
52.164101	105.849998
53.767101	99.449997
54.095402	95.269997
54.151699	97.169998
54.330601	102.059998
54.583698	88.239998
54.708	92.349998
54.7285	89.690002
54.738201	87.720001
54.846401	101.639999
54.914001	105.019997
55.564899	96.540001
56.6609	103.459999
57.1059	103.110001
57.629101	116.25
59.9268	92.110001
60.301102	89.099998
60.397701	106.809998
61.360298	107.5
63.312401	88.900002
63.566399	92.089996
64.018097	110.169998
65.780998	91.220001
66.1828	117.720001
66.482697	90.730003
66.796402	99.970001
67.267998	112.860001
68.920197	126.099998
70.7901	113.43
70.9711	104.370003
71.013199	98.489998
72.315697	101.269997
73.322304	111.099998
73.470497	101.940002
75.424599	102.860001
77.459	105.919998
77.563499	105.720001
77.947899	97.349998
81.114197	123.639999
81.762398	109.419998
83.486702	103.639999
83.733002	101.610001
83.903999	110.449997
84.504898	111.779999
86.061501	112.449997
87.1278	100.209999
87.448601	105.32
87.453201	101.480003
87.482803	138.199997
89.576897	112.580002
91.980499	102.160004
92.428001	101.860001
94.505203	104.959999
95.049599	111.790001
95.6847	124.68
96.504097	116.940002
97.7276	106.650002
98.925797	111.959999
99.9692	140.199997
102.871101	118.220001
102.9804	104.480003
103.0439	109.5
104.7201	103.440002
106.536697	118.839996
106.895798	108.730003
109.681099	121.269997
109.710098	103.209999
112.809502	106.160004
113.831902	110.480003
113.964104	544.359985
114.956497	3153.290039
114.964104	119.860001
115.429901	123.040001
115.964401	504.73999
116.972298	3286.949951
117.979897	19525.380859
118.4403	103.269997
124.228401	92.540001
125.879501	127.660004
128.720398	123.620003
130.757996	113.709999
131.974792	146.539993
132.9673	1246.25
133.975204	139.630005
135.218094	101.360001
135.886505	106.279999
135.990494	136.809998
137.227005	107.919998
138.055603	533.320007
138.253098	115.989998
139.908005	134.800003
139.988297	961.219971
141.181198	118.980003
141.864807	114.830002
142.086807	187.929993
143.959198	906.97998
149.6642	121.419998
149.788193	137.619995
150.275604	120.970001
151.479294	150.119995
154.570801	115.550003
154.9375	518.73999
157.973495	297.320007
161.945297	132.729996
161.969894	7468.290039
164.985107	1111.579956
165.078598	127.57
166.0867	3091.830078
166.795105	124.660004
167.090103	195.429993
171.795502	108.400002
174.985306	1716.689941
175.563797	128.550003
178.258698	113.790001
178.752396	133.309998
179.955505	175.699997
184.074203	579.690002
184.947998	1197.849976
184.961899	177.979996
184.969696	22475.839844
185.115295	913.340027
190.408005	127.75
190.906296	130.779999
199.3172	111.510002
202.980194	297.859985
END IONS

BEGIN IONS
PEPMASS=282.134
CHARGE=1
MSLEVEL=2
SOURCE_INSTRUMENT=LC-ESI-qTof
FILENAME=f.trevorclark/IMS_PAPER/EV_pure_compounds_mgf/MSMS_PROCESSING_TEST_1/MSMS_PROCESSING_TEST_1/20180306_STD_CYCH_MSMS_30V [116] [77].mgf;
SEQ=*..*
IONMODE=Positive
ORGANISM=GNPS-LIBRARY
NAME=Cycloheximide M+H
PI=Roger Linington
DATACOLLECTOR=Trevor Clark
SMILES=C[C@H]1C[C@@H](C(=O)[C@H](C1)[C@@H](CC2CC(=O)NC(=O)C2)O)C
INCHI= 
INCHIAUX= 
PUBMED= 
SUBMITUSER=trevorclark
LIBRARYQUALITY=1
SPECTRUMID=CCMSLIB00006718022
USI=mzspec:GNPS:GNPS-LIBRARY:accession:CCMSLIB00006718022
SCANS=1
178.9673	291.170013
180.946503	116.25
201.047302	115.0
203.058304	241.880005
207.001205	228.889999
222.940598	705.840027
224.923904	262.75
250.971207	2119.310059
252.949097	191.050003
270.11441	150.800003
END IONS

BEGIN IONS
PEPMASS=149.107
CHARGE=1
MSLEVEL=2
SOURCE_INSTRUMENT=LC-ESI-qTof
FILENAME=t.cf822b6c7c914206941bb0b6007e7eb0/spectra/specs_ms.mgf;
SEQ=*..*
IONMODE=Positive
ORGANISM=GNPS-LIBRARY
NAME=Nornicotine M+H
PI=Emmanuel Gaquereel
DATACOLLECTOR=David Elser
SMILES=C1CC(NC1)C2=CN=CC=C2
INCHI=InChI=1S/C9H12N2/c1-3-8(7-10-5-1)9-4-2-6-11-9/h1,3,5,7,9,11H,2,4,6H2
INCHIAUX= 
PUBMED= 
SUBMITUSER=delser292
LIBRARYQUALITY=3
SPECTRUMID=CCMSLIB00009919280
USI=mzspec:GNPS:GNPS-LIBRARY:accession:CCMSLIB00009919280
SCANS=57496
80.049698	1800.0
89.038498	18000.0
90.046204	18000.0
91.053596	5900.0
92.049599	17000.0
93.0569	6500.0
94.064796	830.0
98.974403	680.0
102.046997	700.0
103.054199	18000.0
104.0532	1000.0
105.07	6300.0
106.065201	36000.0
107.068497	3700.0
110.059898	820.0
115.054298	33000.0
116.051102	5800.0
117.057297	530000.0
117.1381	1500.0
117.1912	680.0
117.407097	510.0
118.0625	62000.0
119.069504	4900.0
120.080803	14000.0
121.083603	1300.0
128.049393	4600.0
129.053406	690.0
130.065002	430000.0
130.150696	760.0
131.069397	49000.0
132.080597	160000.0
133.084	18000.0
134.087296	650.0
146.059494	1100.0
149.107101	15000.0
150.077805	850.0
150.110306	1900.0
END IONS

BEGIN IONS
PEPMASS=374.146
CHARGE=1
MSLEVEL=2
SOURCE_INSTRUMENT=LC-ESI-Orbitrap
FILENAME=f.zhaohaoq/20220613_DrugExtract_pos/samples/No5.mzML;
SEQ=*..*
IONMODE=Positive
ORGANISM=GNPS-LIBRARY
NAME=prochlorperazine M+H
PI=Pieter C. Dorrestein
DATACOLLECTOR=Haoqi Nina Zhao
SMILES=Clc2cc1N(c3c(Sc1cc2)cccc3)CCCN4CCN(C)CC4
INCHI=WIKYUJGCLQQFNW-UHFFFAOYSA-N
INCHIAUX= 
PUBMED= 
SUBMITUSER=zhaohaoq
LIBRARYQUALITY=3
SPECTRUMID=CCMSLIB00010011917
USI=mzspec:GNPS:GNPS-LIBRARY:accession:CCMSLIB00010011917
SCANS=1286
53.656086	35439.730469
53.78418	43546.285156
55.110214	32945.308594
57.530655	29629.958984
58.065586	77080.585938
58.641628	34174.984375
59.795715	33116.226562
62.003445	36089.164062
62.487865	54565.289062
62.489258	56378.933594
62.96875	73487.6875
66.117584	31217.355469
70.065399	9121434.0
70.214279	35061.8125
71.068726	275575.53125
71.285423	34165.28125
72.080963	57100.933594
72.472633	36258.398438
73.805901	32959.753906
74.600067	34384.960938
77.967491	41987.75
79.516029	37285.691406
83.060318	43684.304688
84.080811	197313.4375
86.09655	245771.828125
87.542976	33523.734375
87.87339	36361.378906
91.171951	44114.0
92.668365	44417.171875
98.083923	714221.625
98.087013	51969.277344
98.096474	695911.8125
101.107422	99211.15625
106.591469	36733.359375
107.468544	35773.679688
113.10743	26965382.0
114.104469	135715.15625
114.110817	1297244.5
115.114548	46648.488281
117.069969	54812.394531
127.123299	53007.746094
141.138901	41470472.0
142.136063	328886.4375
142.142059	2835210.5
161.460922	37051.695312
214.041748	235771.09375
220.159363	42736.007812
231.511063	40224.28125
233.006439	105770.046875
238.068283	46065.242188
239.076263	1188584.5
240.079208	123266.898438
241.064865	89866.125
246.01384	1665251.0
247.017105	232610.5625
248.011139	326818.5625
263.946716	65729.039062
269.760834	41078.808594
274.045166	640007.625
275.048187	97924.59375
276.041473	79382.195312
282.188751	45392.246094
296.842194	38410.425781
374.145203	17724890.0
375.148468	4341396.0
376.141754	3340661.25
END IONS

BEGIN IONS
PEPMASS=234.149
CHARGE=1
MSLEVEL=2
SOURCE_INSTRUMENT=LC-ESI-Orbitrap
FILENAME=f.zhaohaoq/20220613_DrugExtract_pos/samples/No63.mzML;
SEQ=*..*
IONMODE=Positive
ORGANISM=GNPS-LIBRARY
NAME=methylphenidate M+H
PI=Pieter C. Dorrestein
DATACOLLECTOR=Haoqi Nina Zhao
SMILES=COC(=O)C(c1ccccc1)C1CCCCN1
INCHI=DUGOZIWVEXMGBE-UHFFFAOYSA-N
INCHIAUX= 
PUBMED= 
SUBMITUSER=zhaohaoq
LIBRARYQUALITY=3
SPECTRUMID=CCMSLIB00010011922
USI=mzspec:GNPS:GNPS-LIBRARY:accession:CCMSLIB00010011922
SCANS=855
55.054714	462096.90625
55.818447	409334.9375
56.049915	7981540.0
60.020107	469164.0
60.463287	502172.28125
63.36578	412020.46875
64.266006	454702.0625
67.054535	788624.75
70.065315	819864.6875
72.943863	423664.0625
74.840767	572243.9375
84.0597	1536815.0
84.080849	1070934144.0
85.07798	3221857.25
85.084167	57902340.0
91.054161	2010535.25
93.021988	499135.25
109.293533	446363.875
123.316994	448682.9375
129.070068	1422540.5
135.022461	538042.875
150.43219	492502.375
157.101044	815858.8125
158.961487	527352.375
164.812607	601785.4375
170.482452	529915.75
174.127762	7880952.0
175.13092	868823.4375
175.35405	608653.25
176.711182	509285.96875
191.002487	497391.71875
202.12294	761318.8125
234.148758	335309568.0
235.152176	55980232.0
END IONS

BEGIN IONS
PEPMASS=310.275
CHARGE=1
MSLEVEL=2
SOURCE_INSTRUMENT=LC-ESI-Orbitrap
FILENAME=f.zhaohaoq/20220613_DrugExtract_pos/samples/No92.mzML;
SEQ=*..*
IONMODE=Positive
ORGANISM=GNPS-LIBRARY
NAME=dicyclomine M+H
PI=Pieter C. Dorrestein
DATACOLLECTOR=Haoqi Nina Zhao
SMILES=O=C(OCCN(CC)CC)C1(CCCCC1)C2CCCCC2
INCHI=CURUTKGFNZGFSE-UHFFFAOYSA-N
INCHIAUX= 
PUBMED= 
SUBMITUSER=zhaohaoq
LIBRARYQUALITY=3
SPECTRUMID=CCMSLIB00010011924
USI=mzspec:GNPS:GNPS-LIBRARY:accession:CCMSLIB00010011924
SCANS=1417
55.054642	16518298.0
57.856152	1005561.0625
65.038681	729486.0625
65.183044	679366.875
65.467102	872267.75
66.671234	776895.0
67.054482	22313046.0
68.057762	1236207.875
68.92569	812823.8125
69.070107	8156960.5
69.12117	737030.1875
70.590797	902555.9375
72.08094	9581946.0
73.028557	8608953.0
80.227898	753296.5625
81.069954	60356396.0
82.073326	4808613.5
83.085571	239878896.0
84.088913	12951043.0
89.15287	729453.125
93.069847	1420424.625
95.085487	190293296.0
96.088791	12086660.0
96.544197	842848.5625
97.101173	40181776.0
98.10453	3320986.25
100.112038	281841248.0
101.115425	13366395.0
105.354538	817491.875
109.101257	440201536.0
110.104591	35937752.0
110.107506	601107.9375
112.133003	802011.875
116.037628	876113.5625
116.107239	1018327.25
118.122665	31251358.0
119.126198	2504164.25
123.116928	28020544.0
124.120331	3181689.75
144.485428	855857.3125
153.09108	1921859.25
155.106598	80446504.0
156.109894	6918209.0
165.163757	484107296.0
166.167068	64393716.0
175.147781	5777821.0
176.151581	1571062.875
177.837799	810438.6875
227.426193	856666.9375
237.184723	286016864.0
238.18808	47448152.0
241.075531	844397.8125
249.636597	972126.3125
257.87439	961299.375
310.273773	955283200.0
311.277191	229612368.0
END IONS

BEGIN IONS
PEPMASS=149.01
CHARGE=1
MSLEVEL=2
SOURCE_INSTRUMENT=LC-ESI-qTof
FILENAME=f.stephane/Standards/Tartaric acid_87-69-4_NEG_MS2_20-40eV.mgf;
SEQ=*..*
IONMODE=Negative
ORGANISM=GNPS-LIBRARY
NAME=(+)-Tartaric acid M-H
PI=Stephane GREFF
DATACOLLECTOR=Stephane GREFF
SMILES=[C@@H]([C@H](C(=O)O)O)(C(=O)O)O
INCHI=1S/C4H6O6/c5-1(3(7)8)2(6)4(9)10/h1-2,5-6H,(H,7,8)(H,9,10)/t1-,2-/m1/s1
INCHIAUX=FEWJPZIEWOKRBE-JCYAYHJZSA-N
PUBMED=444305
SUBMITUSER=stephane
LIBRARYQUALITY=3
SPECTRUMID=CCMSLIB00010012170
USI=mzspec:GNPS:GNPS-LIBRARY:accession:CCMSLIB00010012170
SCANS=1
44.981949	130.0
44.991829	174.0
44.99913	34216.0
45.02383	294.0
45.033249	102.0
45.03973	142.0
45.059738	128.0
45.11335	120.0
45.12442	140.0
45.133862	104.0
45.18343	120.0
45.220188	116.0
45.254871	112.0
45.362888	124.0
45.470798	100.0
46.0023	350.0
47.01453	256.0
56.999062	404.0
58.006008	1008.0
59.014179	22980.0
59.19355	110.0
59.985828	674.0
60.994389	116.0
68.99855	1604.0
72.993156	78000.0
73.075432	114.0
73.087372	128.0
73.143448	100.0
73.159019	180.0
73.170601	108.0
73.176399	132.0
73.191353	108.0
73.19619	208.0
73.212448	102.0
73.291946	100.0
73.317612	138.0
73.345901	124.0
73.418533	112.0
73.818741	112.0
75.00882	2454.0
84.992722	266.0
86.000488	224.0
86.996048	118.0
87.008774	80070.0
87.019997	376.0
87.350403	124.0
87.389053	102.0
103.003754	5160.0
104.007858	136.0
105.01931	9150.0
130.998108	1438.0
149.009201	24376.0
END IONS

BEGIN IONS
PEPMASS=277.087
CHARGE=1
MSLEVEL=2
SOURCE_INSTRUMENT=LC-ESI-qTof
FILENAME=f.fronkey/MJH/WUXI20230418/C/C_19.mzXML;
SEQ=*..*
IONMODE=Positive
ORGANISM=GNPS-LIBRARY
NAME=Clenbuterol M+H
PI=Xiang-Rong Cheng
DATACOLLECTOR=Xiang-Rong Cheng
SMILES=CC(C)(C)NCC(C1=CC(=C(C(=C1)Cl)N)Cl)O
INCHI=1S/C12H18Cl2N2O/c1-12(2,3)16-6-10(17)7-4-8(13)11(15)9(14)5-7/h4-5,10,16-17H,6,15H2,1-3H3
INCHIAUX= 
PUBMED=2783
SUBMITUSER=fronkey
LIBRARYQUALITY=3
SPECTRUMID=CCMSLIB00011427530
USI=mzspec:GNPS:GNPS-LIBRARY:accession:CCMSLIB00011427530
SCANS=616083
51.022079	477.227234
51.07893	27.066177
52.027443	93.440475
54.042854	23.125
55.025143	31.901316
55.05426	167.504807
56.797249	34.005001
57.070408	43929.113281
57.246994	42.53125
57.28521	24.560715
57.310589	37.69384
57.335754	69.66008
57.366913	49.079903
57.384289	47.333332
57.416172	43.523674
57.443897	62.022728
57.48085	43.303032
57.53109	35.625
57.561161	32.599998
57.58197	27.133118
57.647476	36.896259
57.669319	22.831633
57.696762	42.415817
57.822269	24.408175
57.941555	67.008331
57.991131	66.480263
58.074009	2197.992676
58.146484	54.08654
58.314335	34.605
58.351051	23.25
58.440834	51.107758
58.514881	27.857063
58.541878	80.612289
58.616951	50.25
58.656071	54.782406
58.672173	27.778847
59.00367	41.892857
59.126057	34.326614
59.551472	41.160713
59.749176	36.640625
60.04594	623.885376
60.327896	23.022728
62.015446	100.284485
63.024616	382.502991
64.017258	55.575001
65.038322	316.989716
66.032028	25.692308
67.054253	365.363647
69.073135	37.961956
72.982277	67.367424
74.98214	30.446428
75.023781	248.367569
76.028893	78.48214
77.03891	4724.641113
77.120735	41.017857
77.368637	34.017857
77.616241	26.818182
77.957558	34.0
77.985535	29.375
78.041061	1534.098267
78.130585	26.01923
79.047981	892.479492
79.126175	32.349998
79.465752	59.698277
79.602104	23.778847
80.049393	848.482056
80.095909	42.375
80.588631	24.045
81.056702	312.142609
81.107292	34.164474
82.264343	55.165321
82.948067	31.008333
83.991516	57.799999
88.034927	31.11574
89.037704	631.013611
89.271011	24.038794
89.341408	28.03125
90.038406	455.769958
91.042503	414.895477
92.049088	783.25
92.098137	22.446428
92.313797	70.778061
93.056641	987.920166
93.558128	25.163462
94.056801	38.363636
95.081985	62.515244
96.086029	41.160713
97.992424	28.049999
98.999359	78.449997
100.007797	108.0
100.999352	37.0
101.302376	78.160713
102.036018	583.545471
103.03611	69.469444
103.072052	26.920454
104.049377	21896.466797
104.143112	152.419006
104.170189	101.209167
104.199242	34.990791
104.238037	24.943323
104.282341	26.584999
104.314079	41.193001
104.354218	32.333
104.421486	69.199997
104.546509	38.519444
104.569244	39.733334
104.623474	64.777779
104.719147	50.157051
104.830475	22.03125
104.931076	46.041668
104.997185	36.235683
105.056496	15034.754883
105.152382	176.190094
105.178909	91.559052
105.223434	60.882011
105.256035	38.336285
105.279167	32.319553
105.349968	45.100807
105.379326	22.367126
105.439125	29.005434
105.47834	39.6875
105.568512	27.0625
105.598869	25.817533
105.65519	53.455936
105.786499	22.461409
105.890442	58.432144
106.064301	12612.481445
106.159698	168.553436
106.199211	90.665779
106.220551	48.377411
106.262878	26.732059
106.306023	78.920761
106.375702	34.150002
106.44799	30.796053
106.52903	45.284092
106.570969	27.25
106.685509	23.125
106.738503	32.0
106.771622	65.520836
106.797943	30.13587
106.898857	32.307693
106.946114	89.136108
106.975601	49.307693
107.067719	1133.444702
107.119041	39.08654
107.164215	41.89352
107.188744	46.720238
107.336723	28.03125
107.943291	35.266304
107.973427	31.266304
109.990082	48.482143
110.99604	418.384094
111.912277	27.1875
112.004082	30.066177
113.015984	1870.835815
113.11541	42.014706
114.019875	292.657623
114.928665	25.375
115.010742	595.711182
115.039948	983.168274
115.264206	23.13587
115.672729	22.025
116.048744	4305.73584
116.176392	35.400002
116.591461	26.107759
116.696236	24.532894
116.966316	84.008331
117.055885	3026.993652
117.12207	79.041664
117.386681	49.113636
117.564697	36.066666
117.657623	30.005953
118.051399	372.20224
118.810074	22.005953
119.058167	134.346268
119.08432	82.125
120.044891	38.102272
120.240509	26.568182
120.969612	48.133064
121.026337	151.363205
121.074669	55.01923
122.049423	34.480263
122.997566	492.644653
123.636505	22.0
124.007027	337.76593
124.195358	33.224998
125.001427	136.453766
125.038849	30.450001
126.008232	777.600952
127.018913	893.934814
127.11937	40.01923
127.460358	28.148809
127.537827	59.680557
127.652458	30.025
127.815773	25.266304
128.014908	186.133331
128.056458	56.003788
128.091003	24.28409
129.017059	596.742249
129.256577	50.111843
130.02504	39.291668
130.137344	23.125
130.904419	45.025002
130.988892	65.125
131.059845	50607.925781
131.414383	77.009209
131.484161	35.263157
131.530792	126.579269
131.56665	41.635765
131.658264	38.432144
131.785553	61.475563
131.820969	64.506508
131.861374	63.657894
131.907532	38.608082
131.969345	100.763695
132.067673	223774.984375
132.70192	75.747177
132.744629	104.86235
132.77536	95.956947
132.815033	107.11232
132.85228	176.594345
132.901443	115.378517
132.974045	113.469116
133.073898	57803.335938
133.428711	115.23214
133.456223	63.609028
133.508881	48.984203
133.537445	84.638466
133.59549	101.465912
133.676727	109.71814
133.706024	61.18182
133.747147	62.674244
133.793091	109.981224
133.874481	72.007111
133.922272	57.714287
133.938034	64.530403
133.978027	99.103043
134.077805	4848.184082
134.183533	102.269051
134.23085	121.531593
134.273163	58.315716
134.332474	43.35989
134.365814	75.798134
134.405716	71.245537
134.454315	46.382275
134.482254	35.46154
134.504684	38.82143
134.538635	67.217857
134.580307	27.733475
134.650284	51.999161
134.672165	22.9715
134.72876	81.704575
134.812683	79.754585
134.865479	37.230316
134.930984	51.037128
134.961945	81.093147
135.0289	32.323685
135.084488	286.395355
135.140869	66.471535
135.226334	28.039604
135.263916	38.171139
135.439606	41.610985
135.465485	34.910599
135.513687	43.655521
135.557373	28.020079
135.683289	46.017857
135.820831	35.753483
135.880142	60.444767
135.955978	68.625
136.001129	39.041527
136.018829	24.818325
136.078827	39.266666
136.135406	55.367424
136.24968	55.5625
136.281143	30.007353
136.456909	24.1
136.536255	35.173077
136.600571	47.816666
136.701004	61.564026
136.772324	32.015625
136.88797	39.728447
137.016296	70.967102
137.048691	23.0
137.120544	48.232143
137.2388	35.56818
137.359085	25.004999
137.45311	33.135868
137.649918	23.011364
138.012573	359.929871
138.096207	24.111111
138.252533	25.183823
138.419205	34.222828
138.50293	23.183823
138.583817	22.245001
138.612152	41.592106
138.992477	59.094696
139.016815	104.905823
139.569397	35.03125
139.728012	30.961956
139.819519	33.041668
139.853729	30.142857
140.025558	62378.695312
140.436508	53.701542
140.50325	25.552382
140.545181	61.612839
140.635956	82.426575
140.710068	137.345734
140.767548	30.770605
140.82457	50.659763
140.875259	39.516609
140.936951	33.39835
141.031021	9310.981445
141.142517	112.199326
141.19783	73.888161
141.227264	70.513733
141.28035	68.780533
141.357712	29.645338
141.447037	27.962288
141.50705	44.267776
141.636551	35.829449
141.7509	54.557693
141.792191	77.999557
141.842056	40.982143
141.885498	30.787878
141.969421	45.592106
142.022964	24525.416016
142.13002	395.314117
142.166229	138.484787
142.196777	95.974419
142.244904	84.653435
142.277527	58.546558
142.326859	38.720238
142.376419	51.125
142.427704	52.91811
142.497559	32.212273
142.53035	41.098984
142.568695	24.757193
142.620834	32.806263
142.644363	33.713665
142.678223	36.920719
142.735229	30.582005
142.776794	26.508209
142.812912	86.056816
142.840958	29.529354
142.892853	55.555557
142.93158	34.906059
142.977631	29.645924
143.028046	2722.101318
143.185272	59.002659
143.245453	47.165321
143.357239	36.011364
143.712479	38.022728
143.897125	38.799999
143.992966	30.211206
144.03595	103.605003
144.523865	35.03125
144.914551	37.0625
144.962418	48.200001
145.26506	31.125
145.323135	39.036289
145.385925	28.025
145.481354	46.094696
145.922318	51.326614
145.966782	294.390259
146.049667	26.674999
146.54245	23.125
146.792175	30.01923
146.975479	58.390625
147.129791	22.333334
147.962677	369.234985
148.030151	38.0
148.080643	22.5
148.767029	23.0
148.970001	55.022728
149.023941	206.422363
149.136734	28.471153
149.95459	38.900002
150.008179	889.347412
150.109024	34.799999
150.365005	22.083334
150.483429	23.285715
150.700897	25.205
150.887085	37.674999
151.01712	20321.976562
151.129578	231.012344
151.161469	167.497177
151.200363	65.900864
151.281479	33.55682
151.327835	27.208334
151.366379	25.625
151.479797	35.6875
151.591949	40.289288
151.645462	27.78125
151.712906	35.28125
151.780533	48.816666
151.818939	48.164474
151.863602	37.017857
151.917236	24.076923
151.955795	53.191177
152.023834	7385.861328
152.12413	137.049606
152.169998	51.400002
152.215942	56.014706
152.305161	64.89286
152.341995	25.0625
152.428726	34.173077
152.458237	41.640152
152.483566	26.347221
152.734863	43.0
152.827591	23.225
152.950241	39.360294
153.017426	11969.612305
153.127289	199.330643
153.164291	84.449074
153.238678	53.083332
153.293121	38.625
153.415543	47.53125
153.486923	38.75
153.513992	46.245689
153.56189	27.053572
153.947296	29.1
154.0224	2422.447021
154.184479	24.102272
154.255035	29.11574
154.289856	26.720238
154.40448	29.444445
154.665833	48.960526
154.744247	49.450001
155.016846	1803.023926
155.084198	109.125
155.123932	39.450001
155.165024	22.020834
155.202484	29.166666
155.251999	42.08654
155.319336	38.680557
155.470688	29.266666
155.677444	59.894737
155.811981	27.225
155.877441	31.818182
155.900101	25.125
156.016861	136.360855
156.54982	26.041666
157.005508	34.44643
158.97467	187.740936
159.09523	27.570652
160.97879	1741.875732
161.093765	23.25
161.306885	25.066177
161.769348	24.595589
161.924454	30.307692
161.984985	242.655579
162.298691	36.197582
162.549698	33.605
162.692368	23.163462
162.977356	1888.686401
163.086624	29.160715
163.125656	27.25
163.319809	25.125
163.911179	40.599998
163.977188	244.094696
164.093094	22.408333
164.971619	134.149994
166.02887	533.041931
166.743835	30.920454
166.837906	25.9
167.035919	50366.398438
167.376083	74.989288
167.410965	85.432182
167.485504	82.784615
167.533157	50.649193
167.586792	59.347221
167.738113	67.157051
167.852051	45.920303
167.88945	54.208488
167.955002	46.861073
168.043884	114453.367188
168.691956	75.353828
168.738846	112.366417
168.798584	98.834846
168.841476	31.1203
168.88739	81.935738
168.944473	95.978951
169.040268	23951.59375
169.202911	199.131577
169.276611	71.080971
169.331024	88.472664
169.418411	90.217049
169.464951	60.325413
169.506119	42.386364
169.573166	41.093185
169.599213	57.884109
169.647415	44.178085
169.716415	30.34651
169.755753	52.903706
169.797836	65.363838
169.863342	82.995773
169.892792	51.365433
169.970856	29.147728
170.041336	42755.789062
170.360748	81.25
170.392258	47.753761
170.421188	55.8125
170.536972	90.194031
170.579178	30.646767
170.634842	57.676617
170.684113	34.68148
170.74704	39.295189
170.843781	114.010788
170.877106	67.412086
171.044189	3680.137207
171.11409	102.644234
171.166275	125.606651
171.26445	32.040012
171.330582	46.62719
171.367752	29.384737
171.409439	29.308397
171.450943	75.46772
171.493927	53.775002
171.531265	35.721283
171.606262	65.295799
171.665207	41.998158
171.732117	34.459461
171.766998	31.97072
171.807358	72.704781
171.861481	72.841217
171.896301	85.003052
171.96138	51.720238
171.994675	60.362499
172.050369	84.92308
172.206894	75.058823
172.261169	42.495811
172.342468	45.0
172.508347	30.204546
172.63002	26.635376
172.667786	22.625811
172.69072	40.328949
172.794601	28.656281
172.950012	80.49128
173.031616	37.979546
173.0961	36.309231
173.330551	47.981632
173.417511	27.013889
173.821365	29.183823
173.865814	22.204546
173.984756	3241.770508
174.085358	76.022728
174.192657	24.889706
174.236862	38.969826
174.816666	28.0
174.87558	24.102272
174.951263	111.0
174.989166	354.961609
175.049637	46.017857
175.090958	30.084459
175.138519	46.388889
175.180161	52.011906
175.463669	28.0625
175.510651	25.111111
175.880417	36.272728
175.982651	2710.191406
176.105057	58.160713
176.137115	52.4375
176.210297	34.875
176.532227	32.016666
176.716644	34.91848
176.808456	27.557692
176.98645	355.429413
177.233368	53.400002
177.902283	23.008333
177.981598	302.667725
178.062119	29.720238
178.913071	25.0
179.364349	33.444443
180.034958	43.076923
180.500137	53.487904
185.985596	467.306152
186.996689	156.484848
187.984177	632.481689
188.989212	213.938889
189.97998	948.412842
190.096725	28.322369
190.446762	27.208334
190.623322	22.796053
190.988663	752.906616
191.112259	23.005953
191.981812	867.940857
192.574966	37.164474
192.618225	22.571428
192.98468	621.381348
193.376938	24.892857
193.992828	193.541672
194.890717	50.016666
194.998917	159.61731
195.438187	22.007353
196.906708	25.020834
197.246796	46.058823
202.001221	34.942307
203.013687	264.81131
204.00705	215.0
205.00943	201.056244
206.01828	66.0
206.997314	81.786766
207.281708	23.01923
208.981247	31.75
209.017624	22.142857
221.019806	79.387817
223.013321	45.160713
228.369125	23.005953
250.510483	22.799999
251.445206	22.005953
261.380493	50.55682
276.643585	45.942307
282.879822	28.333334
323.774628	22.892857
370.944702	25.480263
403.214111	23.694445
405.825134	26.041666
416.693665	31.245001
485.514618	27.03125
497.091919	23.242647
501.689209	24.408333
531.921021	37.272728
638.304199	37.640152
646.509949	22.041666
655.554077	23.285715
685.318359	23.520834
734.660645	22.086538
770.945374	58.041668
800.837708	24.444445
838.232056	25.086538
884.502136	30.148809
910.923645	24.796053
918.963745	30.446428
928.094543	25.222826
928.888916	31.349138
949.002075	81.125
967.352905	22.556818
1014.668396	22.048914
1046.253906	48.920456
1047.555176	45.058823
1095.639282	22.09091
1099.092285	25.05921
1179.796997	22.048914
1231.604492	28.444445
1259.879761	46.222221
1376.603882	27.075001
1392.304932	54.44643
1485.630249	24.071428
1572.013794	24.285715
1581.722656	36.0
END IONS

BEGIN IONS
PEPMASS=279.091
CHARGE=1
MSLEVEL=2
SOURCE_INSTRUMENT=LC-ESI-qTof
FILENAME=f.fronkey/MJH/WUXI20230418/C/C_6.mzXML;
SEQ=*..*
IONMODE=Positive
ORGANISM=GNPS-LIBRARY
NAME=Sulfamethazine M+H
PI=Xiang-Rong Cheng
DATACOLLECTOR=Xiang-Rong Cheng
SMILES=CC1=CC(=NC(=N1)NS(=O)(=O)C2=CC=C(C=C2)N)C
INCHI=1S/C12H14N4O2S/c1-8-7-9(2)15-12(14-8)16-19(17,18)11-5-3-10(13)4-6-11/h3-7H,13H2,1-2H3,(H,14,15,16)
INCHIAUX= 
PUBMED=5327
SUBMITUSER=fronkey
LIBRARYQUALITY=3
SPECTRUMID=CCMSLIB00011427534
USI=mzspec:GNPS:GNPS-LIBRARY:accession:CCMSLIB00011427534
SCANS=612650
51.022942	255.496582
51.165253	19.240385
52.018208	40.034092
52.332512	9.375
53.012817	61.531864
53.039177	1644.890381
53.099117	32.041668
53.125107	15.048913
53.146011	12.013889
53.16433	14.556818
53.238754	13.102273
53.404316	12.375
53.706112	15.0
54.034309	2868.919922
54.076805	86.125
54.102562	31.222826
54.120632	19.160715
54.171497	10.011364
54.192699	14.0
54.230873	10.0
54.471031	29.0
54.532837	11.125
54.587791	14.035714
54.958714	10.009615
55.053421	1059.718994
55.106941	27.480263
55.12114	27.326612
55.172405	33.005001
55.262486	12.166667
55.439182	28.595589
55.539551	11.333333
55.641411	27.961956
55.932495	51.004032
56.036308	84.008064
56.055965	110.6875
56.123215	20.375
56.658966	11.471154
57.06192	177.141891
57.625168	11.166667
57.642738	9.009615
58.063583	90.009613
58.089748	12.009615
58.128857	18.017857
58.994404	28.9
59.048359	48.57143
59.164513	19.778847
61.358128	13.666667
62.526218	11.025
62.541538	13.347222
64.54715	32.005436
64.628105	10.0
64.730629	27.242647
64.920715	30.520834
64.980217	25.901316
65.03878	63305.015625
65.323471	52.808983
65.395599	54.984745
65.444313	70.632652
65.47348	52.422245
65.49614	30.860893
65.518272	27.924541
65.540085	55.594131
65.5588	39.637794
65.587257	44.99818
65.600655	43.477165
65.64138	70.052429
65.695114	21.913857
65.714195	49.00209
65.733719	22.165775
65.8097	34.18504
65.842857	25.405512
65.871506	15.208661
65.928955	9.041667
65.992615	22.013889
66.039307	6882.544922
66.106339	122.242645
66.13932	66.004311
66.162621	49.42857
66.22361	24.025
66.272125	15.05
66.355293	11.0
66.423355	18.0
66.449181	10.086538
66.477966	13.2
66.497864	19.125
66.540543	33.654411
66.579628	13.778846
66.604935	28.041666
66.636749	21.041666
66.667572	48.142242
66.688293	28.793167
66.703789	16.428335
66.7425	16.920454
66.776436	12.25
66.867767	27.01923
66.88649	14.649886
66.912544	13.163462
66.989937	29.560184
67.031097	3719.003418
67.123672	55.526661
67.164574	34.05357
67.324753	37.164474
67.370079	63.003571
67.446899	33.57143
67.461784	31.086538
67.486	10.347222
67.524147	15.066176
67.54306	18.363636
67.571487	11.0
67.61837	16.5
67.684113	32.23077
67.705086	21.125
67.732536	20.066177
67.821144	14.595589
67.924324	17.875
67.944336	17.200001
67.989799	17.674999
68.049522	2647.580566
68.094734	57.625
68.145691	28.487904
68.164795	12.05
68.218437	27.0
68.334351	18.25
68.440826	17.333334
68.477692	16.008333
68.506958	9.556818
68.533012	22.450001
68.583878	11.03125
68.598389	26.405001
68.632339	42.125
68.67421	20.321428
68.793076	26.625
68.896057	57.111488
68.982544	31.777779
69.068909	701.042114
69.128815	17.027779
69.291702	24.006578
69.320152	11.284091
69.442886	12.0
69.699783	9.0625
69.715164	16.674999
69.743233	11.142858
69.849472	25.363636
69.988808	10.041667
70.040314	50.91848
70.0765	16.28409
70.292755	27.041666
70.435844	15.446428
70.655296	9.2
72.589104	37.805
72.644867	12.008333
72.660805	10.347222
72.769691	20.163462
74.146828	21.556818
76.031418	83.26667
76.157455	9.125
76.198685	11.083333
76.37571	11.5
77.038918	229.422363
77.086143	13.041667
78.03508	886.092468
78.102562	30.0625
78.135941	14.035714
79.054947	186.507019
79.641029	10.083333
79.687431	66.368904
79.729553	30.720238
79.774864	11.556818
79.979286	12.284091
80.049553	19961.716797
80.133362	259.970703
80.155144	167.003204
80.182411	43.666668
80.241699	35.125
80.26342	22.0
80.286453	60.0625
80.336685	18.083334
80.367813	37.28125
80.427437	42.375
80.470352	52.058823
80.500984	17.035715
80.531395	24.360294
80.552696	20.0
80.590599	12.446428
80.616364	22.25
80.639366	27.321428
80.765312	81.08654
80.811409	9.013889
80.82888	17.408333
80.872887	10.45
80.982819	60.198528
81.00766	17.166666
81.049622	3986.140625
81.144402	29.520834
81.190964	36.657608
81.235489	37.482143
81.276917	19.375
81.304131	14.4
81.401527	27.595589
81.486618	9.347222
81.522667	22.28125
81.54129	14.446428
81.636574	16.013889
81.726418	11.347222
81.838417	9.680555
81.860855	9.086538
81.888405	16.778847
81.93718	11.5625
81.981712	17.125
82.065315	6156.135742
82.14315	88.061272
82.168968	51.06649
82.234398	74.25
82.278183	32.007355
82.314659	26.440218
82.354691	47.5
82.482262	11.011364
82.531258	46.125
82.568695	15.875
82.597404	9.05
82.640205	17.111841
82.665459	28.107759
82.911453	12.009615
82.930183	21.75
82.996613	10.556818
83.062584	1400.843506
83.141579	30.445
83.167412	22.778847
83.19017	18.208334
83.224495	17.666666
83.28466	11.066176
83.311295	24.164474
83.348625	11.142858
83.401566	35.361111
83.459702	32.671295
83.477554	10.225
83.529297	20.625
83.642532	9.035714
83.881058	13.347222
84.055298	143.625
84.09655	27.333334
84.383255	17.25
84.863968	14.0
85.06382	24.778847
86.547554	9.680555
87.021255	9.017858
87.069809	13.066176
87.758774	11.2
87.921341	9.284091
90.034393	40.059212
91.048988	148.108109
91.093483	9.125
91.522415	10.166667
91.543327	21.408333
91.787025	28.004999
91.819305	20.595589
91.928055	72.926285
91.988457	24.035715
92.0494	84886.671875
92.447685	32.0
92.493683	45.789288
92.53392	28.015804
92.564911	23.747223
92.592438	72.496429
92.623367	60.111843
92.682892	41.227184
92.71479	55.796051
92.755089	46.450001
92.809792	54.23819
92.847237	25.780027
92.940781	36.843887
92.963318	49.139336
92.985283	38.883598
93.054443	12264.736328
93.139076	179.201035
93.166168	158.862549
93.211128	63.951454
93.26046	40.518497
93.279556	37.892426
93.312904	59.389755
93.338852	32.004631
93.374664	50.222221
93.415161	92.598106
93.45591	72.210159
93.484344	28.237373
93.524323	51.265625
93.56382	11.058221
93.58947	24.947851
93.621132	59.32135
93.643211	28.166719
93.675835	44.048794
93.724167	46.117123
93.767288	12.743731
93.816017	29.242647
93.878204	35.102272
93.93251	18.625
93.963043	25.463495
94.007202	28.661283
94.062286	833.408325
94.136864	50.255844
94.192818	25.477407
94.225136	29.661539
94.259338	28.032
94.287369	16.153181
94.309486	16.298794
94.338966	32.444443
94.376991	19.266304
94.429024	26.9
94.492371	40.450001
94.608475	12.8
94.684937	19.048914
94.736145	29.125
94.768936	19.066177
94.858543	13.595589
94.90451	20.0625
94.938927	9.5625
94.999496	12.0
95.021561	11.011364
95.060371	9889.621094
95.149689	153.580261
95.173775	84.657608
95.20488	31.556818
95.244072	35.041668
95.313782	14.111111
95.348091	33.266304
95.414795	20.0
95.468025	22.680555
95.490456	23.285715
95.556183	20.444445
95.584785	14.2
95.628708	34.048912
95.66449	23.375
95.707375	23.075001
95.735039	11.666667
95.783325	31.480263
95.860229	17.035715
95.899597	17.28125
95.928238	12.2
95.955994	9.102273
95.995506	18.09091
96.06749	3619.124756
96.158546	69.432434
96.181419	55.173912
96.227547	37.135868
96.250168	24.086538
96.312431	14.0625
96.396652	12.011364
96.430779	23.225
96.500763	18.041666
96.548225	14.778846
96.577721	21.0
96.608551	16.920454
96.662254	15.102273
96.676018	25.361111
96.738388	25.778847
96.781158	15.05
97.071541	664.37677
97.166801	13.375
97.184242	21.520834
97.398071	18.408333
97.435753	11.025
97.525368	9.017858
97.622887	15.595589
97.718933	10.013889
97.776711	9.25
97.833923	46.349136
97.878548	13.041667
97.926712	42.148811
98.037613	15.166667
98.31781	10.0
98.689438	12.035714
98.712318	11.142858
98.779808	23.408333
98.840736	26.285715
98.91275	9.011364
98.9758	14.075
99.457771	9.0
99.52298	11.333333
99.951294	23.285715
100.505905	9.017858
101.380051	13.075
101.409554	16.013889
101.678116	22.799999
102.02903	48.265625
102.051079	9.75
103.912964	10.009615
104.04937	75.809998
105.044846	649.148804
105.067055	474.388885
105.138245	21.183823
106.050781	155.125
106.090988	16.0
106.377594	20.375
106.657974	19.285715
107.059792	17401.679688
107.181938	118.188683
107.20993	88.190475
107.281364	69.010872
107.299622	33.041668
107.32843	25.017857
107.367386	18.920454
107.401588	21.083334
107.437492	42.875
107.478767	71.181816
107.597565	68.240387
107.657623	22.017857
107.710373	32.183823
107.773178	43.0
107.829559	18.025
107.900002	24.920454
107.940315	14.284091
108.044319	54952.703125
108.334923	23.960295
108.358711	34.666306
108.38768	36.387501
108.421875	55.726189
108.45813	56.47261
108.53064	91.578697
108.566612	64.565002
108.592491	42.311363
108.658218	81.374657
108.701729	59.107857
108.736656	33.807999
108.779533	105.635002
108.840897	53.89352
108.89846	33.412701
108.946663	135.005951
108.999886	22.39893
109.047981	6432.861816
109.143768	144.625916
109.175606	81.394577
109.223015	26.758215
109.269585	34.531292
109.327545	41.5
109.388786	25.075001
109.428551	12.909262
109.481659	34.588734
109.514366	40.416145
109.571968	31.936979
109.624947	63.636364
109.675362	25.830032
109.704872	18.946211
109.73468	30.931341
109.805939	10.680555
109.837959	14.053572
109.910416	12.0
109.942764	15.892326
110.004166	12.5
110.046387	340.539032
110.121994	31.122061
110.177963	15.666667
110.315399	15.013889
110.342834	11.910147
110.408112	23.821045
110.431755	13.160714
110.484909	10.931648
110.599983	14.020833
110.636017	10.284091
110.815582	43.961956
110.908844	24.066177
110.929283	21.347221
110.974945	29.102272
111.016937	21.680555
111.215256	22.53125
111.333397	9.25
111.34819	18.125
111.662994	19.125
111.70034	114.81636
111.881325	18.049999
111.909416	16.225
112.132103	9.284091
112.315117	12.05
112.437973	9.25
112.485435	19.208334
112.50412	18.011364
112.553223	10.009615
112.593834	23.666666
112.65834	11.347222
112.706932	18.240385
112.797607	30.285715
112.921677	13.45
113.178276	11.347222
113.336853	18.053572
113.459534	12.03125
113.555077	26.654411
113.656303	10.284091
113.772675	9.041667
114.295395	12.408334
114.32637	9.086538
114.405426	10.347222
115.712303	26.889706
116.046692	41.245689
116.386658	10.027778
116.598053	10.0
116.940475	10.013889
117.038864	47.333332
117.073586	98.793106
117.114914	14.0
117.138344	9.125
117.785652	24.041666
117.92675	9.086538
118.050789	21.166666
118.072632	9.333333
118.227211	9.0
119.055946	72.076218
119.085663	113.986938
119.166702	9.5625
120.054436	73.0
120.906174	9.8
120.97213	25.0
121.020012	15.892858
121.061523	67.432144
121.326553	15.5625
121.926216	10.011364
122.071579	1303.461792
122.130241	42.044998
122.155228	25.007353
122.379143	9.25
122.655632	12.125
122.754539	10.007353
123.079453	1292.620605
123.182343	22.360294
123.207512	21.9
123.326447	32.961956
123.361626	9.0
124.086388	50407.777344
124.384094	91.723404
124.441589	19.801485
124.49411	31.4758
124.550224	81.241562
124.593307	45.775509
124.615021	71.133064
124.671501	121.111839
124.708557	55.034092
124.767441	32.148811
124.798233	20.557291
124.840523	43.078125
124.871498	40.328125
124.900291	30.337994
124.973625	72.222221
125.025116	102.829132
125.089127	5865.478516
125.161865	118.385109
125.194778	82.514915
125.260391	23.330528
125.302475	43.084461
125.368347	23.739584
125.388741	16.622768
125.453934	41.046875
125.514145	51.934895
125.579208	13.832792
125.632263	23.060606
125.673744	35.355518
125.709671	49.169422
125.7463	33.090908
125.849281	37.191177
125.889015	20.066177
125.921104	28.025
125.974861	11.133562
126.056725	29.027779
126.097153	117.100807
126.13604	22.767124
126.171654	66.094696
126.205879	24.005953
126.265953	30.375
126.31707	19.78125
126.464851	10.075
126.495453	15.45
126.530235	19.086538
126.586906	10.45
126.691689	12.125
126.737701	12.166667
126.789093	17.009615
126.925301	22.148809
127.04464	63.625
127.079628	12.556818
127.134842	10.125
127.159088	15.360294
127.289856	23.720238
127.314316	20.208334
127.347206	9.125
127.444954	14.059211
127.479385	20.083334
127.55619	19.041666
127.945488	24.183823
128.051865	38.322369
128.100616	9.5625
128.197189	23.125
128.220795	17.5
128.28421	29.657608
128.776749	14.666667
128.939423	27.086538
129.056946	57.022728
129.122986	11.083333
129.34343	19.595589
129.422775	22.291666
129.527405	11.2
129.593018	12.017858
130.069214	99.5
130.105637	19.011364
130.628769	33.901318
130.950409	15.408334
131.099609	11.008333
131.694839	27.568182
131.87738	15.556818
131.918777	9.0
132.070328	69.0625
133.064178	127.5
133.14566	13.027778
133.172241	15.13587
134.070709	65.076218
135.061584	17.571428
135.168152	21.360294
138.226013	9.25
139.181686	27.107759
139.97113	9.009615
140.011322	89.240082
140.046524	19.017857
140.141586	9.075
140.872223	10.035714
141.460846	11.009615
142.007751	49.799999
142.048355	84.01667
142.758698	10.102273
143.080078	87.333336
144.065048	94.555855
144.097473	18.208334
144.512894	15.796053
145.071365	144.758621
145.096558	94.888885
145.546036	10.0
146.071335	166.962372
146.107529	45.349136
146.269821	10.321428
146.318466	9.102273
146.576416	11.28125
147.384949	19.889706
147.890518	9.007353
148.074066	304.363403
148.117218	30.450001
148.187424	12.333333
149.033829	14.025
149.095016	64.520836
149.163239	33.785713
149.338272	19.5
149.64003	9.013889
150.415268	9.45
151.650131	33.08654
152.434341	9.8
153.469528	10.03125
154.063797	409.613647
154.155396	10.142858
154.703033	10.75
154.864288	9.0
155.071457	634.045288
155.141052	18.446428
156.010162	355.81189
156.0728	267.013245
156.158524	12.2
156.442856	12.5625
156.61026	9.45
156.863693	13.360294
157.064514	174.206894
157.672409	56.045456
158.021912	56.605
158.069046	178.846649
158.148621	14.347222
158.193268	12.471154
158.803192	20.022728
158.993103	19.595589
159.089584	104.125
159.574158	12.017858
160.087494	68.769234
160.127151	14.0
160.294846	9.009615
163.125092	12.8
163.439194	9.375
168.06868	21.28409
169.075867	152.390244
169.278809	10.0
170.088715	29.03125
170.475708	16.225
171.080872	171.097595
171.123154	30.008333
172.086319	273.128571
172.406235	18.680555
173.090515	52.692307
173.239441	11.0
173.582733	15.333333
174.133041	37.173077
175.076294	16.291666
177.995026	42.005951
178.064651	34.961956
178.18158	17.163462
180.059372	10.347222
181.079147	90.173912
181.113998	20.125
182.406281	17.200001
183.080231	282.704224
183.202057	13.102273
184.085693	43.244999
184.200958	12.571428
186.032135	673.594177
186.105072	145.0
186.207687	14.05
187.104843	39.111111
188.01825	23.892857
188.060699	11.05
191.936768	10.347222
193.711029	9.284091
194.06897	19.041666
195.079544	68.695511
195.116776	26.006578
195.237717	13.086538
195.466827	10.75
196.02002	17.049999
196.085724	1383.595459
196.247833	11.8
196.357941	16.075001
196.648254	17.013889
196.699509	15.556818
196.89119	9.007353
196.947464	28.008333
196.97728	24.480263
197.045212	14.166667
197.086639	487.003571
197.20163	14.446428
197.27977	32.44643
197.327927	17.0
197.360291	21.0
197.620483	18.408333
198.002487	16.556818
198.087494	961.601685
198.21907	12.0
198.292068	11.0
198.63559	10.225
198.786209	17.408333
198.828888	13.125
198.928177	13.041667
199.096329	232.609756
199.228378	9.333333
199.386337	16.556818
199.413101	9.05
199.534012	9.25
199.662354	13.8
200.015518	11.008333
205.651718	9.166667
207.859985	63.280174
208.068466	28.339285
211.091095	45.266666
211.14856	21.5625
212.106384	247.355774
212.538788	16.375
213.112701	1223.140747
213.214447	14.25
213.284256	11.920455
213.321335	14.163462
213.442413	20.208334
213.573502	41.111111
213.966278	12.875
214.111816	342.497101
214.185425	20.0
214.248688	29.160715
214.450348	15.321428
215.10788	97.903687
215.17038	14.166667
217.643311	18.066177
229.093002	10.0
237.539886	15.204545
242.16983	26.008333
246.133972	13.8
254.414337	12.086538
256.346863	9.083333
256.595398	9.160714
266.999115	25.041666
270.809814	10.0
277.270782	9.284091
285.358093	11.375
285.80484	18.183823
287.715668	14.284091
290.145538	11.008333
290.567627	9.035714
296.160675	14.0625
310.812805	18.0
313.014923	28.041666
314.391846	9.625
321.668701	27.796053
321.846985	9.035714
324.594879	21.008333
325.474243	9.009615
328.755859	9.2
333.536346	19.027779
335.265106	9.025
340.174316	29.844999
357.259613	17.674999
379.927032	9.102273
381.354462	10.240385
396.298401	51.337963
398.70282	15.1
403.309052	9.8
409.096741	11.45
409.18866	9.680555
413.011383	27.083334
413.550262	11.086538
424.208557	9.284091
428.251801	9.009615
431.805145	60.840908
432.297516	23.408333
436.30014	21.1
445.831238	12.083333
457.661255	28.375
457.703735	10.680555
459.819275	10.2
461.633789	9.5625
472.868134	91.153847
474.712433	9.009615
479.392944	11.027778
480.21521	10.45
493.111176	9.125
493.7258	9.011364
504.951019	34.160713
514.531311	11.680555
521.3396	43.015625
533.786011	10.225
536.175415	9.041667
543.321289	17.041666
550.584595	25.291666
552.391235	15.041667
554.184998	9.0
580.347229	15.011364
608.73291	10.321428
610.453308	36.25
618.966064	15.164474
628.477356	17.102272
634.582275	10.45
648.358765	22.041666
658.66571	9.011364
660.426208	10.142858
673.174133	17.225
676.00238	15.142858
676.136658	10.0
721.527344	21.25
728.456421	11.25
745.484985	32.375
754.576477	9.0
759.712952	35.160713
764.70105	9.5625
781.50769	10.075
812.175903	14.102273
819.831787	10.920455
841.216797	13.625
843.297729	14.011364
844.410889	10.625
848.593018	9.284091
849.549377	14.009615
856.969971	10.006579
857.987183	9.8
874.404663	13.225
884.565002	21.53125
889.719238	9.25
904.766174	28.657608
913.226868	10.086538
949.827026	11.083333
971.793823	27.204546
990.268372	9.0
991.46521	9.041667
1007.854858	26.125
1022.00293	11.083333
1031.031494	9.0
1045.118408	10.075
1057.539429	9.166667
1073.503784	10.240385
1074.328369	37.113636
1094.327393	9.009615
1101.303711	19.0
1112.48645	10.0
1116.12085	9.05
1141.482422	42.816666
1197.656006	28.0
1220.13147	9.556818
1220.329346	12.007353
1272.065552	50.852272
1287.175293	23.25
1317.714722	19.333334
1318.153809	10.625
1385.047974	47.333332
1386.069092	9.011364
1395.241211	9.017858
1418.140869	13.375
1456.207153	10.035714
1474.708862	10.125
1477.896118	9.009615
1496.021484	9.2
1513.495972	9.017858
1514.232666	10.45
1530.504395	35.942307
1545.95166	29.625
1567.473633	24.799999
1570.956055	9.284091
1574.542603	17.075001
1583.9823	63.111488
1584.527344	23.625
1593.307251	18.875
1624.697754	11.008333
1633.044312	9.240385
1654.475464	13.225
1688.759277	15.25
END IONS

BEGIN IONS
PEPMASS=317.118
CHARGE=1
MSLEVEL=2
SOURCE_INSTRUMENT=LC-ESI-Orbitrap
FILENAME=f.ikoester/ParticulateMetabolites/20230522_ETNP_OMZ_Particulates/mzML/Sulfadimethoxin-d6_1mgml.mzML;
SEQ=*..*
IONMODE=Positive
ORGANISM=GNPS-LIBRARY
NAME=Sulfadimethoxine-d6 M+H
PI=Lihini Aluwihare
DATACOLLECTOR=Irina Koester
SMILES=COC1=NC(=NC(=C1)NS(=O)(=O)C2=CC=C(C=C2)N)OC
INCHI=InChI=1S/C12H14N4O4S/c1-19-11-7-10(14-12(15-11)20-2)16-21(17,18)9-5-3-8(13)4-6-9/h3-7H,13H2,1-2H3,(H,14,15,16)/i1D3,2D3
INCHIAUX= 
PUBMED=71312411
SUBMITUSER=ikoester
LIBRARYQUALITY=3
SPECTRUMID=CCMSLIB00011428615
USI=mzspec:GNPS:GNPS-LIBRARY:accession:CCMSLIB00011428615
SCANS=1433
78.034325	136218.203125
79.018333	158029.890625
80.04985	340808.96875
81.471176	85784.640625
85.048103	81506.164062
92.049835	10294684.0
93.057793	598310.125
95.283836	69552.65625
96.044518	161153.359375
96.507629	65524.675781
98.178284	65079.476562
100.488182	69157.507812
102.074188	184148.171875
108.044594	18347802.0
110.060181	1459457.625
120.055397	140314.859375
121.955666	77750.492188
124.021156	123413.601562
127.069069	112886.015625
129.083618	253355.484375
131.097641	173813.09375
133.087753	1153407.0
143.06427	85172.507812
144.072144	191093.1875
156.011124	39604592.0
158.070969	103594.617188
159.092407	1046276.125
160.098221	430510.71875
161.073441	117173.742188
161.1064	3361702.75
162.114136	43008212.0
173.057938	1777624.75
173.080872	93552.273438
176.093002	260593.90625
208.065613	79037.742188
224.060272	6941548.0
233.098145	1809242.375
242.070053	416085.59375
251.140427	12676581.0
253.156097	290852.375
275.944733	73136.65625
299.108002	178501.75
300.611084	92371.703125
313.855255	79735.507812
317.11795	74811480.0
END IONS

BEGIN IONS
PEPMASS=379.077
CHARGE=1
MSLEVEL=2
SOURCE_INSTRUMENT=LC-ESI-qTof
FILENAME=f.sh1646/metamycin_C_MS2.mgf;
SEQ=*..*
IONMODE=Positive
ORGANISM=GNPS-LIBRARY
NAME=Metamycin C M+H
PI=Mohamed Donia
DATACOLLECTOR=Sunghoon Hwang
SMILES=O=C(C1=C2C(O)=C3C(C(OC4CC(N)C(O)C(C)O4)CC(C(CO)=O)(O)C3)=C1O)C5=C(OC)C=CC=C5C2=O
INCHI=InChI=1S/C27H29NO11/c1-10-22(31)13(28)6-17(38-10)39-15-8-27(36,16(30)9-29)7-12-19(15)26(35)21-20(24(12)33)23(32)11-4-3-5-14(37-2)18(11)25(21)34/h3-5,10,13,15,17,22,29,31,33,35-36H,6-9,28H2,1-2H3
INCHIAUX= 
PUBMED= 
SUBMITUSER=sh1646
LIBRARYQUALITY=1
SPECTRUMID=CCMSLIB00012060241
USI=mzspec:GNPS:GNPS-LIBRARY:accession:CCMSLIB00012060241
SCANS=1
120.53669	15.125
153.649246	47.125
190.15451	75.25
197.056549	85.413239
211.038528	57.805
211.065491	9.041667
233.885788	25.11574
234.063416	90.380211
237.050598	143.686432
239.030472	191.040405
248.202866	49.207142
253.049133	86.840912
259.070679	105.592392
259.101654	21.045
263.784271	42.003204
267.026428	415.053894
267.918976	21.004999
279.060028	75.013885
286.057373	105.391029
287.067535	46.002193
292.878296	110.191406
294.958862	64.260414
295.022064	113.603569
295.094788	79.0
295.74823	31.907259
295.848999	101.61161
296.805756	23.07622
301.926086	10.0
305.035065	90.190315
305.077454	902.201904
305.131073	19.125
305.410553	19.11574
305.477905	11.2
308.069092	107.875
309.034546	1789.018555
309.104675	24.009615
309.324677	8.035714
315.063416	1043.842285
315.130768	39.81686
315.189117	15.482142
315.285797	17.020834
315.492676	8.875
315.693451	12.086538
315.915375	19.086538
316.825043	18.009615
318.15741	6.013889
319.054138	308.224365
319.131561	12.006579
319.850983	145.570648
321.036316	264.000763
321.06723	240.418823
321.921234	31.13611
322.039948	39.349491
322.070801	15.360294
323.014038	31.003788
323.050446	635.911316
323.162048	22.25
323.75824	37.260418
332.058868	81.188774
332.81897	43.020832
332.863068	5.0
333.034058	141.31601
333.071655	6167.282227
333.148712	134.002655
333.269562	84.851418
333.320038	13.111111
333.364471	71.26786
333.427979	9.008333
333.485138	64.053574
333.535889	74.061867
333.608643	32.164474
333.841339	31.592106
334.164978	15.363636
334.673706	19.204546
334.915527	36.010868
335.049255	66.290909
336.054932	173.705536
337.066132	112.195389
338.058502	26.225
343.056061	2165.56958
343.130463	33.11842
343.201324	11.0
343.307098	62.756149
343.48111	24.39674
343.709473	25.125
346.048309	133.001266
346.145355	45.063774
346.324127	91.25798
348.756683	63.490002
349.066315	313.894287
351.043304	64.763885
351.082001	8683.509766
351.228058	47.112499
351.301178	68.00676
351.433136	11.666667
351.490662	13.086538
351.567505	11.160714
351.614563	42.202274
351.710327	26.471153
351.756104	71.680084
351.817719	5.225
351.928192	55.031715
359.114319	132.035812
359.153595	23.48077
360.987244	31.266304
361.066315	6850.327637
361.1409	76.005432
361.186157	22.521551
361.25882	49.037037
361.302765	50.462837
361.338318	23.0
361.404663	261.000488
361.457153	21.045
361.528412	48.047619
362.067352	85.102272
362.785156	19.778847
364.053558	578.328186
371.019867	12.025
377.809784	12.066176
378.384552	61.667931
379.076996	18218.232422
379.161469	291.560181
379.24585	97.0
379.275665	79.100807
379.337708	67.481667
379.366486	52.530659
379.420532	50.471153
379.494812	42.573978
379.515076	30.0
379.585114	173.875
379.651154	48.055557
379.700287	74.457146
379.759003	102.625
379.833527	29.13611
379.861115	77.045288
379.994507	7.446429
380.033051	28.645
380.072266	65.25
380.13858	44.048077
380.158936	52.007576
380.260651	12.053572
380.464111	33.136112
380.565887	42.862068
381.210602	5.013889
381.414337	8.009615
381.726837	14.035714
415.135315	14.360294
533.576233	10.75
613.860779	9.007353
617.076111	47.5625
666.726074	43.422413
764.328796	46.449074
793.526978	44.25
887.26532	38.820454
2036.376587	34.416668
2994.874268	11.066176
END IONS

BEGIN IONS
PEPMASS=344.233
CHARGE=1
MSLEVEL=2
SOURCE_INSTRUMENT=LC-ESI-qTof
FILENAME=f.fronkey/SUZHOU2023/WX20240119nozib/F_simple/F_2.mzXML;
SEQ=*..*
IONMODE=Positive
ORGANISM=GNPS-LIBRARY
NAME=Dibucaine M+H
PI=Xiang-Rong Cheng
DATACOLLECTOR=Xiang-Rong Cheng
SMILES=CCCCOC1=NC2=CC=CC=C2C(=C1)C(=O)NCCN(CC)CC
INCHI=1S/C20H29N3O2/c1-4-7-14-25-19-15-17(16-10-8-9-11-18(16)22-19)20(24)21-12-13-23(5-2)6-3/h8-11,15H,4-7,12-14H2,1-3H3,(H,21,24)
INCHIAUX= 
PUBMED=3025
SUBMITUSER=fronkey
LIBRARYQUALITY=3
SPECTRUMID=CCMSLIB00012176187
USI=mzspec:GNPS:GNPS-LIBRARY:accession:CCMSLIB00012176187
SCANS=856674
50.127129	41.89352
51.024269	159.818542
53.743992	31.266304
54.032967	52.065788
55.054863	1042.781372
55.094349	30.471153
55.125465	42.439999
56.021965	131.784637
56.049637	78.285378
56.609234	42.76923
57.070522	36790.007812
57.140533	680.545593
57.216354	55.513111
57.258678	75.940216
57.316067	51.690971
57.419968	73.749046
57.447407	64.047623
57.4897	39.547775
57.523369	50.942131
57.563168	36.300411
57.643517	40.416668
57.700287	36.059212
57.792805	67.969826
57.830017	74.822968
57.848167	54.222221
57.917801	31.321428
58.073853	2604.711914
58.133305	41.102272
58.181202	38.142857
58.514755	33.041668
58.59935	39.942307
59.149826	41.778225
62.014351	115.030487
62.650166	105.001984
63.022598	940.259705
64.027756	44.625
69.032799	108.556816
70.029869	2579.406494
70.064514	970.431213
70.10881	72.371948
71.031494	44.720238
71.047989	65.173912
72.04541	103.347824
72.081406	12496.12207
72.158989	210.391205
72.18045	97.25
72.225525	45.5625
72.380089	31.007353
72.448349	38.1875
72.465637	31.0625
72.576317	32.020832
72.9263	35.333332
73.084419	660.791199
73.130859	38.942307
74.015717	67.328949
74.097015	9785.601562
74.175163	123.255211
74.199188	75.653229
74.239914	54.069443
74.390968	105.695511
74.5168	41.482143
74.563026	35.090908
75.023567	134.445129
75.055939	34.036289
75.102165	525.020996
75.149422	40.625
75.895538	42.367424
76.626396	30.681452
77.039543	129.482147
79.053101	72.802635
81.071114	391.111786
83.049652	340.077576
85.063728	151.888885
85.083878	166.532898
86.096748	2349.252686
86.172325	32.654411
86.206764	32.149391
87.096893	91.175003
89.038895	8381.387695
89.125496	114.254906
89.150299	39.78125
89.263092	37.266666
89.328499	30.5625
89.381691	49.032143
89.497559	42.0
89.548607	41.102272
90.042061	466.020844
90.493462	34.720238
91.05246	160.399994
93.058807	255.779327
98.106277	33.1875
99.09417	140.617645
100.112511	15860.285156
100.229782	95.23214
100.263077	46.5
100.319481	72.003784
100.362282	41.07143
100.386139	60.404999
100.566483	59.889286
100.852989	41.055557
101.038483	430.161438
101.116661	1349.807495
101.206261	35.014706
101.647163	39.003788
102.117599	107.33654
102.485229	36.003048
103.054703	256.580505
104.052094	104.440788
105.068672	219.224579
106.061844	112.016792
107.730309	72.656815
114.974907	36.111111
115.053673	559.5625
115.168182	42.125
115.306129	40.5
115.445305	64.4879
115.765961	40.048912
115.842056	58.5625
115.874718	55.148811
115.910393	51.599998
115.941513	78.32692
115.988945	138.086533
116.04985	303306.28125
116.618973	166.684784
116.653084	151.276917
116.700516	155.067261
116.744896	110.377632
116.776115	104.703125
116.821854	107.044357
116.888748	106.245842
116.96653	120.69883
117.05307	34185.019531
117.153412	597.494446
117.218307	202.119156
117.296669	97.509399
117.3647	233.924515
117.446999	138.46666
117.508224	126.995613
117.554222	93.199829
117.610168	54.892448
117.634232	99.866371
117.69989	62.738453
117.75695	85.016045
117.783577	52.908833
117.869164	117.566467
117.896164	67.50325
117.946991	68.199997
117.976585	49.307453
118.062691	2421.768066
118.154404	74.231071
118.190773	58.79414
118.239983	81.444794
118.328041	40.784374
118.38372	67.900299
118.41375	36.809837
118.470284	35.907669
118.495422	52.274307
118.550484	37.720924
118.592094	71.15374
118.631737	48.360664
118.655518	44.836468
118.684143	85.86261
118.712112	40.407249
118.771103	39.25528
118.832489	81.620506
118.898964	57.568119
118.942093	31.936924
119.074791	122.011902
119.128128	45.570652
119.17749	48.599998
119.262085	52.005001
119.327759	35.694443
119.43248	36.090908
119.46035	61.920456
119.494225	65.907257
119.545555	62.260418
119.636246	49.920456
119.888405	36.005951
119.961792	32.520832
120.045219	71.211205
120.082932	66.148811
120.109711	50.083332
120.186409	63.440475
120.328911	43.132355
120.353256	36.244999
120.419868	33.008335
120.648911	34.674999
120.7229	50.307693
120.90435	42.004311
121.263359	36.889706
121.424042	33.00658
121.520096	43.125
121.587502	44.75
121.720993	31.007353
121.87529	33.005001
121.90004	37.0
121.938927	35.094696
122.225243	30.045
122.282654	36.012501
122.716202	30.0
122.798798	31.1875
126.033943	338.053375
126.214188	42.23077
126.666443	83.222221
127.052704	451.972656
128.011337	31.020834
128.049927	5108.50293
128.151917	92.371948
128.221008	49.487904
128.554443	54.852272
128.755066	52.014706
129.056122	1202.420166
129.121841	83.111488
129.23526	30.892857
129.908783	59.0625
130.026199	144.043472
130.064682	5274.383301
130.145874	72.245003
130.198456	41.375
130.476028	53.094696
130.498627	33.532894
130.751816	54.941177
131.071869	1247.930054
132.044891	2553.047363
132.076614	976.381287
132.151047	66.210526
133.050476	424.040863
133.078033	325.010529
133.125168	39.009617
135.576416	48.035713
136.6203	39.083332
137.049347	38.80357
138.021866	47.142441
140.052994	308.475006
141.061737	215.633774
141.145432	36.004631
142.067871	1484.8125
142.17395	40.032143
142.511917	36.692307
143.06456	3673.5896
143.16954	64.489868
143.421738	31.113636
143.617294	48.785713
143.958313	66.011902
144.044525	217266.40625
144.643967	151.175735
144.67157	58.813644
144.721786	167.596634
144.859711	128.476196
144.918442	154.854172
145.04863	32255.785156
145.30159	179.717392
145.374054	83.034317
145.427963	101.907539
145.542252	103.759148
145.600494	74.393997
145.642883	93.11692
145.689056	45.255001
145.722946	117.942818
145.76123	55.651333
145.806519	73.254906
145.850372	93.159325
145.960251	84.07917
146.058609	12854.331055
146.167557	192.543472
146.201233	139.129791
146.231171	68.883682
146.295029	82.14785
146.334488	39.781273
146.381454	31.329552
146.452026	105.440605
146.507996	68.322334
146.542725	105.405708
146.574829	79.731674
146.63501	32.286289
146.724533	67.535103
146.765686	33.569893
146.853271	32.106251
146.930176	31.591518
147.007828	51.49128
147.063934	1482.031372
147.168304	69.441841
147.208206	63.23024
147.288193	36.674652
147.318878	38.427761
147.609421	58.0625
147.699081	67.778229
147.849365	39.020832
147.954254	51.25
148.066391	120.4375
148.174774	60.165321
148.338409	32.009617
148.576035	55.002777
148.67569	33.032143
148.819046	37.570652
148.965012	46.349136
148.999741	42.326614
149.643311	38.53125
150.23761	38.142857
150.33107	38.005436
150.516907	33.111843
151.654465	36.005436
152.050949	724.988831
152.129425	48.041668
152.599411	32.076923
153.044067	11948.162109
153.157639	133.136108
153.191116	87.002052
153.224228	38.240383
153.268997	45.149391
153.306931	49.191177
153.336487	40.765625
153.484482	47.760136
153.868866	32.032143
153.985855	49.778225
154.053909	1458.740479
154.129105	40.041668
154.307297	31.446428
154.393784	55.288265
154.892731	33.416668
155.074188	395.555725
155.282867	64.894737
155.850662	63.979652
156.046158	1369.864258
156.079147	1166.787842
156.165146	65.489998
157.08815	1848.294556
157.190338	33.450001
157.233246	36.113636
157.403778	44.048912
157.698441	50.889706
158.062103	6989.013672
158.172211	98.025002
158.212112	58.1875
158.288849	40.224998
158.339874	60.532608
158.664337	44.089287
158.70311	37.785713
158.910034	36.845001
159.068619	2135.496826
159.358841	33.16346
159.41272	45.005951
159.764709	41.671295
159.907974	38.0625
160.075333	3308.636719
160.192123	47.0
160.220657	52.094696
160.987167	41.083332
161.070892	290.597687
162.052368	312.933899
162.131042	70.346153
162.5578	62.370369
163.223541	36.440216
164.020096	41.570946
165.074966	142.25
166.032318	35.224998
167.000626	40.066177
167.071136	1458.590332
167.916916	34.044998
168.075516	561.111267
168.339783	31.666666
169.075424	2012.236328
169.173233	31.006578
170.063293	3933.358154
170.184525	69.580643
170.210434	36.778225
170.646225	40.48077
170.885788	31.0
170.946426	34.007355
171.055283	41424.910156
171.403488	97.338539
171.456207	41.869148
171.497192	50.105171
171.594788	96.255882
171.632675	105.331253
171.798218	43.686741
171.916077	35.723038
172.03981	134890.015625
172.685226	47.98679
172.714951	119.555557
172.769318	66.583336
172.821335	66.844604
172.919159	88.025513
173.042969	21255.177734
173.161118	399.720215
173.220108	135.240158
173.243576	129.430878
173.324448	109.551102
173.445755	76.582146
173.523285	37.360626
173.580368	99.344231
173.615417	73.805542
173.652145	54.318226
173.723465	78.782944
173.749512	75.198334
173.783371	50.147984
173.828598	68.283333
173.891754	90.502274
173.962555	32.672001
174.046509	1476.218872
174.122757	129.926285
174.197784	36.38451
174.261597	78.799377
174.309647	82.467201
174.346863	59.147419
174.379852	49.699554
174.433456	32.312691
174.469238	54.113636
174.581772	48.083332
174.611252	65.6875
174.742264	37.81818
174.806976	67.004311
174.8815	87.552017
174.949905	50.05027
175.047379	108.125
175.122742	43.069576
175.201797	29.535847
175.23558	40.028847
175.29805	64.052635
175.324509	55.370045
175.384674	49.78125
175.428619	34.471153
175.479889	94.014999
175.630478	31.303024
175.678162	32.96946
175.738907	64.040001
175.769882	54.002907
175.995346	59.142242
176.57222	44.0625
176.618561	31.235294
177.177933	44.173912
177.585098	45.048912
177.694534	45.890625
178.024857	41.625
178.069382	47.197582
178.326797	38.326923
178.541275	40.920456
178.661453	31.333334
179.632339	32.0
180.076599	134.125
181.084808	200.266312
181.15509	34.020832
182.095871	2875.676758
182.223541	58.160713
182.384872	35.291668
182.554276	52.0625
183.101959	2765.603271
183.19635	56.333332
183.222824	50.605
183.57785	43.094696
183.906525	65.025002
183.935806	41.083332
184.076736	873.025452
184.103836	694.111206
184.450439	34.059212
185.073792	1413.233154
186.074387	1304.951294
186.173538	41.78125
187.086411	10657.474609
187.207855	143.148804
187.318848	30.444445
187.439896	51.125
187.621185	38.113636
187.782806	45.038792
188.088638	2119.172852
188.157959	70.025002
188.242874	79.4879
188.483505	37.007355
189.091553	246.540466
189.18161	42.066177
189.500122	43.003204
190.103119	31.211206
191.618057	31.889706
191.746979	37.0
192.078094	215.1875
194.075546	47.272728
195.088593	92.669441
196.112091	93.571426
196.658691	49.695515
197.072296	2525.010742
197.111069	871.43103
197.201065	45.25
197.250916	31.918478
197.562454	30.066177
197.99202	36.075001
198.083267	688.656372
198.126678	757.267578
199.118774	1803.000122
199.210861	70.969826
199.247482	36.444443
199.422028	31.625
200.107224	5177.757324
200.235489	82.390625
200.28624	94.556816
200.554977	34.333332
200.859558	57.347221
200.949661	33.55682
201.111511	759.025574
202.046799	41.224998
202.119385	1548.717285
202.380493	31.285715
202.574753	51.512501
203.073196	32.150002
203.127396	191.726654
203.189621	80.368904
204.133224	153.091217
207.08017	38.183823
209.107971	246.346268
209.154388	34.148811
210.110992	257.011597
210.27005	41.367645
210.732712	50.125
211.086914	129.972824
212.093704	30.778847
213.09938	164.007568
213.132126	122.884804
213.893433	48.011906
214.544113	47.012501
214.850403	52.148811
215.081451	141091.515625
215.807297	92.180435
215.879303	69.263779
215.926865	50.867096
215.985031	54.756554
216.022522	88.010231
216.084763	28230.013672
216.218826	430.477478
216.27153	237.014938
216.423325	44.063053
216.48204	83.138275
216.52092	55.470272
216.594559	47.145786
216.670242	76.371475
216.764206	108.990623
216.79541	72.483238
216.878799	91.027115
217.024719	161.842728
217.086868	2172.681396
217.24382	59.849056
217.287277	38.3522
217.375153	60.275681
217.468399	109.040092
217.531509	57.134155
217.602249	66.485291
217.645493	31.617647
217.702621	115.612297
217.778183	39.271008
217.851181	59.463234
217.964859	56.927372
218.039169	66.387154
218.094986	190.232697
218.332962	32.491158
218.404785	34.950993
218.46254	50.18306
218.681427	31.408333
218.801483	39.32143
218.940979	33.5625
219.276276	35.041668
219.481491	37.038792
219.702423	33.333332
220.663773	50.020832
221.228729	38.333332
222.083694	42.120098
222.196045	45.090908
223.088577	30.1
223.119278	101.820457
223.184494	39.390625
223.70079	44.032143
224.087357	79.30867
224.124512	117.555771
224.880188	30.5
225.134415	1264.580322
225.578445	47.25
226.140182	438.35202
227.117371	3998.19751
227.256104	51.049999
227.559036	35.244999
227.833832	38.961956
228.027847	30.568182
228.103867	6299.743164
228.236267	60.222828
228.285126	40.041668
228.436646	61.49128
228.515945	39.048912
228.550247	45.148811
229.011673	56.367645
229.10524	1915.921875
229.291153	52.328949
229.705292	36.55682
230.112289	147.314102
230.26619	54.28125
230.761398	49.612499
231.110825	61.025002
237.101868	309.983398
237.175797	33.164474
237.891083	54.165321
238.100403	116.183441
241.087524	90.240082
243.148254	1962.534302
243.211487	192.041672
243.283279	37.160713
244.155396	609.071838
244.774246	57.204544
245.149063	105.98349
253.130569	698.963135
254.141983	300.449829
254.190964	60.408333
256.37149	44.680557
260.353882	38.642857
271.144348	12135.139648
271.289185	138.482147
271.336243	109.20755
271.440155	52.102272
271.507141	40.049999
271.617188	36.242645
271.832367	43.367424
272.147949	3313.580322
272.288025	51.942307
272.462158	32.57143
272.941193	38.0
273.14798	328.782898
273.903168	53.097828
274.148071	113.347221
280.804962	53.512501
291.234131	39.058823
301.095795	52.416668
321.772614	33.0
323.383698	43.845001
339.532043	33.041668
396.276306	37.00658
401.888855	38.785713
418.907715	37.307693
443.400513	30.045
448.339722	32.048912
478.783844	30.038794
494.965179	56.0625
501.664612	32.375
511.35321	37.0625
528.125977	91.960526
565.658752	33.005951
588.201782	39.148811
717.234497	45.720238
769.451782	39.140625
810.417053	90.448273
842.852661	44.761906
875.764709	53.06649
885.742371	50.245689
921.715515	31.05921
988.024109	30.5
1052.600464	34.75
1287.321655	33.222828
1399.106689	36.845001
1485.664551	58.090908
1503.500732	30.100807
1573.060669	48.005951
1588.031372	30.78125
1617.952393	99.040001
1624.080688	42.605
1684.287231	60.0625
END IONS

BEGIN IONS
PEPMASS=289.227
CHARGE=1
MSLEVEL=2
SOURCE_INSTRUMENT=LC-ESI-qTof
FILENAME=f.fronkey/SUZHOU2023/WX20240119nozib/F_simple/F_3.mzXML;
SEQ=*..*
IONMODE=Positive
ORGANISM=GNPS-LIBRARY
NAME=Bupivacaine M+H
PI=Xiang-Rong Cheng
DATACOLLECTOR=Xiang-Rong Cheng
SMILES=CCCCN1CCCCC1C(=O)NC2=C(C=CC=C2C)C
INCHI=1S/C18H28N2O/c1-4-5-12-20-13-7-6-11-16(20)18(21)19-17-14(2)9-8-10-15(17)3/h8-10,16H,4-7,11-13H2,1-3H3,(H,19,21)
INCHIAUX= 
PUBMED=2474
SUBMITUSER=fronkey
LIBRARYQUALITY=3
SPECTRUMID=CCMSLIB00012176188
USI=mzspec:GNPS:GNPS-LIBRARY:accession:CCMSLIB00012176188
SCANS=712296
51.024132	70.003571
54.03701	46.204544
55.05476	8157.710449
55.123695	170.014282
55.14172	66.5
55.261322	45.44643
55.28809	51.025002
56.050083	63101.105469
56.304104	58.60516
56.336765	72.651665
56.425919	65.291664
56.505775	97.72998
56.543003	92.80278
56.66325	50.761326
56.848423	75.13636
56.881485	44.49559
56.977692	50.562881
57.025547	56.997856
57.070469	41397.386719
57.140682	906.676086
57.229649	40.372726
57.279751	56.659164
57.396053	88.400002
57.452461	50.5
57.516483	81.0
57.611977	40.005207
57.664021	90.009613
57.9701	54.028847
58.050144	135.002274
58.074116	2457.110107
58.146141	50.631893
58.542015	47.78125
59.041721	50.173077
59.160965	43.642857
59.874168	42.349998
65.040741	162.348831
67.054695	4828.731934
67.130539	89.682693
67.1511	41.022961
67.846085	54.226852
68.05011	595.343262
69.068695	515.01709
70.065643	20227.613281
70.142868	307.334808
70.163361	194.622849
70.216682	47.347221
70.243996	66.449997
70.281715	68.670456
70.423958	47.266304
70.462654	42.048912
70.653786	74.013885
70.695732	95.344513
71.069725	1011.112915
71.135269	60.08654
71.301361	57.032143
72.082642	41.48077
74.930359	103.931335
77.040077	49.022728
79.05394	178.758621
80.048523	412.736328
81.11496	110.963234
82.065163	3398.059082
82.138824	46.0
83.072189	642.639709
83.968025	47.890625
84.010071	136.322586
84.081276	268685.84375
84.601936	79.859375
84.636108	53.441559
84.687325	73.291664
84.753746	57.791668
84.815643	86.771431
84.874298	53.441277
84.914009	63.054752
84.952461	49.799629
84.974434	70.394264
84.997459	83.892303
85.024452	82.103004
85.084229	20701.470703
85.167679	353.12796
85.198982	121.552139
85.239922	74.001404
85.264671	74.492935
85.286743	60.329956
85.336555	88.583107
85.356079	44.072483
85.382805	52.740158
85.437378	134.53334
85.459717	113.631577
85.480164	106.852867
85.536171	80.657898
85.559296	92.10141
85.595062	107.724747
85.662025	50.812248
85.761192	50.1745
85.841393	40.168308
85.868523	41.67984
85.964294	72.320107
85.995071	57.022346
86.017754	53.406391
86.093376	186.036758
86.127892	46.742657
86.170647	44.343384
86.246834	54.746178
86.273376	71.323326
86.3022	61.344131
86.416306	68.517326
86.449478	50.91127
86.590111	47.060425
86.634216	56.680611
86.733742	44.133064
86.753616	40.150002
86.85527	46.0
86.99144	55.909092
87.028229	47.80357
87.520638	48.148811
88.15181	62.041668
88.867661	83.330643
90.044289	97.909088
91.049484	126.014999
94.650391	64.644737
95.084747	157.125
96.080795	1067.878052
97.090538	110.53186
97.599373	62.041668
97.734848	57.065788
98.096703	139276.015625
98.687225	77.701614
98.769714	89.69841
98.847366	127.098404
98.930878	67.196426
98.960243	46.541668
99.030586	109.836784
99.099785	13773.139648
99.191307	235.835159
99.226936	92.391457
99.26664	68.32
99.299408	91.977295
99.326393	52.517551
99.374634	44.988998
99.406288	60.68969
99.430923	40.845188
99.465393	79.722145
99.482201	45.362617
99.528183	55.984318
99.561134	63.326721
99.651657	45.769737
99.692741	55.243244
99.714417	46.15625
99.7714	40.125
99.805214	53.095238
99.877823	50.584217
99.971497	47.075001
100.058434	44.016666
100.104973	555.592773
100.222458	58.708332
100.241821	46.310917
100.268608	47.640152
100.350319	50.041668
100.43956	46.408436
100.478477	48.285713
100.609612	48.200001
100.779785	54.289288
103.054367	127.840912
105.069717	1163.366943
106.068588	419.007965
106.148552	47.222828
106.803154	68.041664
107.07354	1729.361816
108.072823	326.003571
111.776993	69.0
112.112106	15397.567383
112.210121	227.457947
112.237572	88.601669
112.273819	43.322369
112.341431	45.0
112.38456	53.222828
112.431694	41.076923
112.649315	65.574997
113.115227	1826.66394
113.212387	64.45153
113.239861	40.521553
113.812401	44.083332
114.116074	114.33654
115.957932	76.640152
116.045364	44.013157
117.058189	411.047485
118.061157	54.125
119.086975	71.002548
121.877647	66.227272
122.097015	596.450012
123.078033	352.665619
123.702812	47.165321
124.087212	63.694443
124.918228	52.625
125.946815	52.032143
128.66066	43.25
132.080048	687.094421
133.048798	64.574997
133.082993	85.388885
138.128815	1080.595215
138.397888	41.25
138.877533	69.049416
139.131561	174.507812
139.768356	65.315216
139.939331	73.446426
139.990677	56.066666
140.143326	400720.25
140.756775	132.495056
140.801376	95.042656
140.832504	79.270279
140.886169	95.28437
140.913452	64.910149
140.99028	95.065933
141.048462	89.046875
141.08461	60.492218
141.146469	59636.0
141.492905	95.241829
141.529266	99.121109
141.610428	165.510117
141.654922	122.270676
141.700165	123.777504
141.79631	47.384617
141.843491	140.171234
141.955902	109.967308
142.018967	105.690826
142.073517	97.364502
142.149094	2597.08667
142.23024	89.891495
142.262436	96.858696
142.294556	63.952568
142.331192	50.211956
142.373581	54.272728
142.440811	53.009998
142.488922	59.271969
142.569382	102.449707
142.649933	84.474174
142.722061	81.486191
142.788666	56.283211
142.819946	41.059258
142.864639	57.111111
143.06633	70.074867
143.087097	59.955555
143.114548	52.557541
143.162811	82.587959
143.327011	60.319443
143.396271	55.509384
143.503418	43.851505
143.606979	62.071224
143.632172	42.841503
143.675415	82.002274
143.796677	42.573433
143.885498	75.596397
143.995224	66.565681
144.040634	60.986382
144.118027	56.735722
144.180084	44.246952
144.214188	47.53125
144.318512	51.049999
144.401657	56.022728
144.439743	65.816666
144.566376	47.520832
144.67717	68.59259
144.818192	52.570946
144.9254	49.347221
144.943588	46.680557
145.240936	49.235294
145.268143	43.089287
146.954498	57.799999
149.185883	50.449074
150.091629	883.222778
151.092712	131.880951
176.341949	49.204544
176.442505	42.032143
225.11261	41.6875
286.708069	44.852272
340.735199	45.375
350.833771	65.640625
372.786926	40.57143
450.894714	41.575001
510.559601	56.939518
717.517456	61.063774
754.501282	44.444443
764.050171	66.236702
798.496704	56.583332
817.368408	55.841217
843.153198	40.090908
1189.897217	63.235466
1201.471436	41.07143
1422.451294	76.118423
1540.538208	59.308674
1596.02063	62.964287
END IONS

BEGIN IONS
PEPMASS=221.164
CHARGE=1
MSLEVEL=2
SOURCE_INSTRUMENT=LC-ESI-qTof
FILENAME=f.fronkey/SUZHOU2023/WX20240119nozib/F_simple/F_6.mzXML;
SEQ=*..*
IONMODE=Positive
ORGANISM=GNPS-LIBRARY
NAME=Prilocaine M+H
PI=Xiang-Rong Cheng
DATACOLLECTOR=Xiang-Rong Cheng
SMILES=CCCNC(C)C(=O)NC1=CC=CC=C1C
INCHI=1S/C13H20N2O/c1-4-9-14-11(3)13(16)15-12-8-6-5-7-10(12)2/h5-8,11,14H,4,9H2,1-3H3,(H,15,16)
INCHIAUX= 
PUBMED=4906
SUBMITUSER=fronkey
LIBRARYQUALITY=3
SPECTRUMID=CCMSLIB00012176190
USI=mzspec:GNPS:GNPS-LIBRARY:accession:CCMSLIB00012176190
SCANS=567668
50.108517	10.142858
50.222515	27.405001
50.463921	7.017857
50.530155	57.473682
50.585686	7.225
50.722046	5.017857
51.023464	144.574463
51.063145	19.05921
51.080193	9.160714
51.112114	8.160714
51.170197	5.083333
51.195625	5.225
51.326927	9.240385
51.397141	15.183824
51.447422	7.25
51.537624	9.035714
51.583229	40.0625
51.802639	6.011364
51.839088	12.778846
51.994793	5.5
52.018459	6.0
52.40974	5.017857
52.52187	9.556818
52.847855	5.333333
53.091702	7.017857
53.226105	7.0625
53.393639	5.125
53.545998	7.041667
53.579727	8.009615
53.828861	5.160714
53.888016	5.025
54.037697	72.009613
54.188644	5.017857
54.349903	7.0
54.877785	6.05
54.916225	5.083333
55.017479	39.5
55.038837	9.125
55.081314	5.0
55.133537	7.0625
55.181061	6.160714
55.259178	6.225
55.288494	14.5
55.378208	5.013889
55.605644	6.017857
55.68729	9.035714
55.807995	7.25
55.846485	5.083333
56.273457	5.0
56.45076	7.017857
56.550362	5.0
56.563503	6.083333
56.710758	8.0
56.728111	8.013889
56.836666	5.025
56.921963	12.5625
56.942104	536.0
56.976063	16.017857
57.010155	13.017858
57.049717	5.083333
57.064274	16.163462
57.14534	8.125
57.180534	6.0625
57.241463	10.375
57.406979	6.013889
57.564213	6.0625
57.656033	7.0
57.936337	5.160714
57.958241	9.041667
58.043064	6.625
58.065552	1471.835205
58.155445	11.571428
58.181267	6.0
58.207775	11.8
58.293324	16.008333
58.307415	19.5
58.393188	15.035714
58.544624	27.008333
58.618004	8.017858
58.728241	7.0625
58.79007	5.0
58.871811	6.375
59.072945	31.007353
59.12542	5.125
59.265606	6.125
59.476685	6.017857
59.521118	7.011364
59.574429	15.009615
59.630054	7.75
59.932072	19.008333
59.988689	7.2
60.082169	10.2
60.093578	6.625
60.243271	7.013889
60.3372	9.035714
60.413292	6.0
60.456818	8.5625
60.668022	5.041667
60.695705	17.007353
60.721062	5.160714
60.736069	5.025
60.98671	71.803574
61.006329	23.086538
61.074295	90.043106
61.14082	6.0
61.280533	5.017857
61.294098	5.025
61.388821	7.0625
61.436222	5.25
61.687054	9.013889
61.769714	5.083333
62.082325	6.125
62.195549	5.333333
62.620331	9.0
62.800488	5.025
62.827938	5.160714
62.908966	7.333333
63.047279	5.017857
63.312851	6.125
63.459614	6.0
63.605518	6.125
63.643307	11.041667
63.758274	5.083333
63.891243	6.025
63.915714	6.333333
64.071693	7.025
64.242065	7.0
64.300537	5.013889
64.417709	7.013889
64.436523	6.017857
64.627563	5.017857
64.713951	5.0625
64.941185	5.083333
65.038101	889.445007
65.114357	16.666666
65.143143	6.083333
65.170135	22.78125
65.350372	5.013889
65.392296	6.05
65.407265	6.333333
65.560104	7.011364
65.602089	6.0625
65.676758	5.0
65.775131	7.25
66.045715	476.198364
66.069687	74.022728
66.125618	15.532895
66.135674	9.45
66.158485	7.05
66.178024	6.041667
66.360123	6.125
66.407089	5.025
66.482185	5.0
66.754761	6.25
67.013206	5.041667
67.047409	82.769234
67.074409	12.083333
67.273621	5.013889
67.3256	8.05
67.879761	5.017857
67.961243	5.225
68.174034	7.25
68.317101	5.0
68.487831	5.225
69.315849	5.017857
69.827339	6.125
70.075691	6.017857
70.849052	7.25
71.077301	6.160714
71.364273	6.125
71.598083	5.083333
71.690697	12.0
71.871277	5.013889
71.934776	6.013889
72.04409	167.710785
72.158493	7.5625
72.581146	7.011364
72.792465	6.25
72.841583	5.083333
72.940018	52.014706
73.027267	38.845001
73.072723	12.041667
73.279709	6.0625
73.378372	5.0625
73.570793	6.160714
73.668533	6.446429
74.110474	5.083333
74.208633	6.225
74.373535	5.025
74.622139	5.025
74.694344	5.5
74.741653	10.142858
74.92189	5.125
75.758362	43.515625
76.323677	7.0
76.54023	7.013889
76.98098	6.5
77.006966	139.777939
77.038368	1837.378052
77.120903	37.027439
77.182289	7.2
77.263947	46.692307
77.286194	11.680555
77.417366	44.777779
77.486282	5.225
77.7715	11.225
77.927521	6.083333
78.044792	30.035715
78.130898	8.102273
78.156357	7.013889
78.217979	8.347222
78.426582	5.017857
78.988647	5.160714
79.054344	205.722656
79.124405	6.375
79.171005	11.086538
79.512238	32.099998
79.671066	6.017857
79.784225	8.011364
79.856277	5.0
80.043335	38.671295
80.063309	16.083334
80.165443	6.125
80.526886	6.0
80.567451	5.041667
81.008354	14.0
81.066437	62.654068
81.101707	8.102273
81.631721	5.017857
83.386223	19.008333
83.779587	6.0
84.582054	5.125
84.756989	6.125
84.922363	5.013889
85.166733	10.011364
85.263039	9.025
85.443398	30.0
85.725906	13.0
85.823586	28.674999
85.875252	6.05
86.096848	38693.765625
86.183128	573.291504
86.305206	64.259262
86.325554	29.68224
86.38958	74.1875
86.447906	35.988636
86.484596	42.174999
86.537315	55.098682
86.566139	36.805866
86.623428	45.603573
86.652992	48.602966
86.68766	24.544491
86.715012	55.276211
86.749191	60.737289
86.775703	15.496726
86.799934	10.160714
86.847412	19.333334
86.88826	12.892858
86.913628	13.434091
86.932579	11.686363
86.967545	14.623967
86.990593	54.728447
87.011368	14.375
87.03756	6.013889
87.099594	4243.275879
87.208549	15.083333
87.2827	24.901316
87.32338	30.086538
87.370636	23.25
87.398186	10.0625
87.431076	53.328949
87.482819	14.601352
87.50544	35.173077
87.537849	20.51968
87.554253	14.007353
87.585754	6.25
87.603661	20.796053
87.624847	12.675
87.676399	43.016666
87.748367	5.025
87.769989	11.0
87.815613	37.125
87.852112	47.408333
87.96434	10.013889
88.012077	30.482143
88.056252	6.333333
88.103165	142.635208
88.136658	25.005953
88.183151	15.0
88.300278	40.487904
88.322479	6.333333
88.348396	5.0
88.427933	20.347221
88.461914	26.027779
88.494492	8.160714
88.532593	15.066176
88.565117	7.011364
88.5868	6.125
88.68985	5.0
88.744102	6.013889
88.794815	11.680555
88.836205	6.083333
88.988472	5.0
89.011124	5.041667
89.042648	46.007355
89.156303	13.2
89.254051	5.225
89.399223	5.5
89.619949	11.0
89.685364	5.025
89.89286	15.482142
90.04747	96.036018
90.078621	10.086538
90.155266	11.240385
90.171211	14.166667
90.330292	7.013889
90.396797	9.083333
90.42308	10.125
90.494621	11.035714
90.519035	6.013889
90.55658	8.225
90.604362	16.0
90.746872	7.011364
90.7798	6.125
90.896637	15.25
90.938652	18.041666
91.053871	6816.671875
91.142395	135.105774
91.184288	31.041666
91.241852	19.041666
91.277191	14.0
91.294312	9.25
91.324104	5.025
91.351509	6.225
91.392311	15.920455
91.478081	11.05
91.489586	11.125
91.544312	9.041667
91.588409	5.0
91.637199	24.083334
91.673225	14.680555
91.759201	9.0625
91.847702	6.013889
91.875313	5.25
91.953194	12.375
92.057175	498.34375
92.162552	11.102273
92.189224	22.125
92.206902	10.008333
92.240097	10.03125
92.301025	13.041667
92.421242	15.556818
92.461533	7.041667
92.500305	8.013889
92.579948	12.25
92.622238	7.0
92.644417	6.0625
92.97171	5.025
93.057861	7097.867188
93.126442	95.390625
93.146362	69.778061
93.190804	44.242645
93.205933	22.375
93.233078	14.111111
93.275978	25.0
93.318993	8.083333
93.356438	9.041667
93.381592	19.892857
93.400017	14.0
93.422287	13.041667
93.450134	6.083333
93.472404	6.0
93.489403	13.166667
93.544823	7.0
93.598862	9.8
93.643677	30.557692
93.739136	9.083333
93.806496	19.013889
93.850266	12.25
93.879379	7.125
93.896156	5.017857
93.962448	17.166666
93.996696	5.083333
94.060532	1045.47998
94.14193	20.0
94.218178	5.125
94.258095	6.125
94.361259	6.225
94.495712	5.125
94.810585	5.125
94.856018	12.5
94.907356	13.225
94.999031	9.0
95.065506	67.347221
95.113205	8.5
95.139442	11.086538
95.262741	17.086538
95.296844	29.004629
95.600311	18.208334
95.623276	7.0
95.865654	5.0
95.893845	7.0625
95.907959	18.25
95.940636	8.225
96.029396	5.083333
96.176117	5.013889
96.22171	7.025
96.311752	8.05
96.682396	5.5
96.855232	6.0
96.947205	6.225
96.996933	5.017857
97.804344	29.01923
97.884277	6.083333
98.163559	7.2
98.80632	27.654411
98.854401	5.125
98.967476	45.666668
99.205231	9.2
99.239449	7.05
99.312988	8.041667
99.677055	5.041667
99.779572	8.2
100.205902	7.0
100.569519	6.0625
101.038925	67.489998
101.06691	10.013889
101.094986	5.125
101.188782	6.160714
101.616631	6.333333
101.926819	5.225
101.947433	5.375
102.031227	52.115742
102.105247	5.125
102.510254	36.674999
102.545692	6.025
102.649277	5.041667
102.98233	21.321428
103.053978	85.010414
103.502747	8.347222
103.625473	6.083333
104.049637	59.084461
104.144897	9.875
104.296089	23.694445
104.830894	5.017857
104.954788	6.013889
105.050751	21.889706
105.14077	5.375
105.267822	7.0625
105.480682	6.0625
105.735237	5.017857
105.901161	7.0
106.003189	6.446429
106.067108	164.520264
106.144348	7.0
107.066444	224.905823
107.154869	10.025
107.203392	6.05
107.334694	5.025
107.358521	5.0625
107.842529	5.0625
108.029037	72.739754
108.080147	929.256531
108.149918	12.446428
108.213562	15.360294
108.423393	9.2
109.023834	48.0625
109.065079	309.925323
109.121445	6.333333
109.156616	17.008333
109.609268	22.444445
109.650681	7.0
110.472183	7.160714
110.690315	10.125
111.127457	7.0
111.206413	16.0
111.242691	9.284091
111.404671	14.8
111.632088	5.160714
112.154327	9.041667
112.687531	5.025
112.865463	8.45
113.055687	5.333333
113.655731	5.0625
114.462708	5.041667
114.943939	5.125
115.055199	493.21582
115.128357	13.102273
115.264259	5.0
115.456062	8.011364
115.604874	20.009615
116.053322	52.578949
116.156563	6.0
116.904396	7.225
116.934074	21.0
116.952118	18.142857
117.066566	367.103973
117.124405	37.041668
117.165565	10.083333
117.251831	5.0
117.302391	28.520834
117.326508	17.009615
117.488983	6.0625
118.064713	712.677795
118.124107	24.654411
118.170059	10.375
118.20192	10.102273
118.278915	17.778847
118.320076	13.2
118.407776	17.778847
119.072014	576.839478
119.149498	10.102273
119.174606	8.008333
119.281532	5.017857
119.325409	9.375
119.504143	14.041667
119.943031	7.125
120.079735	157.764709
120.155067	20.041666
120.203812	18.778847
120.410355	6.0625
120.493614	5.125
121.449242	5.0
122.003174	5.333333
122.702072	5.333333
122.722221	5.017857
123.169334	8.086538
123.418884	5.013889
123.797661	5.333333
124.740578	5.083333
125.062309	6.083333
126.963654	7.011364
127.503403	7.160714
127.592979	5.225
127.86097	9.035714
127.886978	5.025
128.047928	63.289288
128.239044	8.008333
128.520905	26.360294
128.68956	5.017857
128.781052	30.016666
128.852997	7.017857
129.054733	19.321428
129.710892	5.0
129.986694	7.041667
130.061523	17.285715
130.420563	7.013889
130.465988	15.166667
130.526154	10.284091
131.151779	6.013889
131.315445	76.612503
131.402588	7.013889
131.513779	5.225
131.944611	5.017857
132.081268	202.199997
132.245499	6.125
132.539719	5.225
132.587219	7.125
133.081787	50.242645
133.145004	5.013889
133.371094	6.013889
133.643997	5.0
134.015411	60.845001
134.094803	486.790863
134.209259	6.446429
134.294693	8.009615
134.805252	8.011364
135.098236	74.721153
135.152527	17.025
135.36113	6.25
135.495026	21.005434
136.02002	6.225
136.077911	111.157051
136.130539	8.333333
136.160767	5.225
136.32753	33.076923
136.758575	5.0
136.85289	6.125
137.079056	71.013885
137.116074	9.017858
137.190155	5.160714
137.767548	5.5
138.488617	5.083333
139.208084	5.017857
139.371475	21.03125
139.500458	5.083333
140.041916	14.25
140.633377	5.125
140.693695	7.041667
140.995728	5.125
142.062286	41.48077
142.221542	5.0
142.978241	6.011364
143.136703	10.011364
143.226318	6.013889
144.213867	5.017857
144.428391	5.017857
144.705444	6.017857
144.788696	5.0625
145.190918	5.013889
145.308945	7.013889
145.336823	5.017857
145.475616	5.160714
146.066818	10.142858
146.519714	5.0625
146.701065	9.009615
147.128922	8.680555
148.17012	23.148809
148.317169	5.025
148.35231	7.125
148.731384	5.083333
148.949188	5.013889
150.182159	6.0
150.217224	6.083333
150.394058	5.160714
151.78894	5.017857
152.520828	6.0
153.090485	7.0625
153.381027	6.225
153.889832	5.0
154.878693	5.333333
155.063782	6.083333
155.343903	5.0
155.552673	7.160714
155.807343	5.375
156.048431	5.017857
158.019028	5.017857
158.294357	24.125
158.430756	5.125
158.736694	5.160714
159.397827	5.025
159.765106	6.083333
160.082031	12.240385
160.98732	6.013889
161.213974	5.017857
162.694824	7.0
163.135986	7.011364
163.319092	8.333333
163.719345	6.333333
164.936203	10.0
165.24707	5.0
165.714172	6.083333
166.07486	12.920455
166.329987	5.017857
167.960892	5.013889
168.185043	5.017857
169.187607	6.125
169.352264	6.160714
169.607422	5.083333
170.275818	11.007353
171.107468	85.839996
171.295898	5.625
171.34491	6.0
171.39003	5.017857
171.427856	6.0625
171.608917	6.0625
172.153931	5.225
173.333801	5.017857
173.901428	18.78125
173.986649	5.0
175.581314	5.625
175.808899	6.041667
177.922394	7.083333
178.430557	10.666667
179.23822	5.0
180.830475	6.0625
180.969879	5.083333
181.000931	5.0
181.233505	5.0
181.807846	13.0
182.262512	6.5
182.383087	15.111111
182.554276	7.011364
184.054901	5.333333
184.630341	11.013889
186.277908	5.0625
187.230453	6.0
187.861313	6.083333
188.840607	5.225
189.858459	21.111841
191.399567	5.160714
191.503143	5.017857
191.997711	7.0
192.213409	5.013889
193.39711	6.0
193.597672	12.408334
193.845871	5.017857
193.86554	5.125
194.480118	8.0
194.512253	7.013889
195.018738	5.013889
195.123383	5.083333
195.541992	5.0
195.630615	6.0
197.051254	6.0625
197.86882	6.013889
198.485153	7.05
199.134903	5.160714
200.12793	6.0
200.683243	8.160714
200.86203	5.0
201.450302	7.0625
205.179382	8.009615
206.187302	5.0
206.741943	5.025
206.90065	5.225
209.783157	5.225
210.913742	5.333333
214.086578	7.0
214.879669	5.333333
216.186295	23.5
216.245422	6.625
217.836838	5.0
218.423889	6.013889
219.68573	7.05
220.129898	5.083333
220.241135	5.025
220.30098	5.025
220.367142	7.333333
221.465225	10.166667
221.945618	6.0
223.019669	6.0
223.925415	7.25
224.834229	5.5
225.244705	9.008333
225.408997	6.0
225.863281	5.5
226.370026	5.017857
228.084656	6.011364
228.829422	5.025
230.173309	8.2
230.724228	8.0625
230.776855	5.0
231.293457	6.013889
232.161606	6.0
232.838196	6.25
233.444855	5.0625
233.805862	5.017857
234.563995	6.013889
235.880524	21.148809
236.110504	9.009615
236.384979	7.0
237.129532	5.0625
237.271484	5.0
238.852127	5.225
239.094025	6.013889
241.317108	5.0625
241.88121	6.017857
243.639893	10.125
243.892227	5.0
245.141998	14.556818
245.911591	7.125
246.1465	7.0
247.250076	6.160714
247.912033	6.0
248.180984	5.0
248.455048	5.225
249.884171	7.0
250.476425	6.011364
251.096786	7.0625
251.379822	6.0625
254.366119	6.017857
254.909912	33.363636
256.520538	9.05
256.695801	5.160714
261.881104	5.083333
261.99295	9.142858
264.488403	8.05
265.495605	5.333333
265.839203	5.013889
266.903137	5.225
268.843811	5.0
269.136688	6.0625
269.287933	7.011364
270.073364	6.25
271.050568	5.333333
271.171753	7.25
271.210327	8.05
271.352631	9.013889
271.722778	5.025
272.23587	6.05
274.769989	5.0
277.545837	9.2
278.227814	8.125
283.130615	5.0625
283.2276	5.160714
284.946106	7.2
285.18927	8.0
285.753815	7.05
287.362762	8.041667
287.494629	5.5
289.113464	5.160714
289.320343	13.471154
290.083191	30.05921
291.488647	5.0
294.011841	5.013889
294.44873	6.333333
295.228302	6.25
295.418701	7.225
296.902832	6.083333
297.633392	6.25
297.867126	6.025
299.301819	5.041667
299.589569	6.025
299.84845	10.166667
300.078003	11.28125
300.667023	7.017857
301.686737	6.013889
304.123016	6.0
304.655701	5.017857
305.621246	38.107758
305.863373	5.083333
307.217865	16.450001
307.581604	9.680555
310.109436	5.013889
311.256805	11.0
312.080566	7.011364
313.751862	8.125
314.992706	8.625
315.60141	5.025
315.918671	7.102273
316.692566	10.375
316.748566	9.035714
317.795105	5.083333
318.635223	7.446429
319.0802	5.025
320.767273	7.333333
320.99707	11.408334
323.448273	7.25
324.256226	5.017857
326.250916	5.017857
328.065674	5.041667
329.168976	5.125
330.049255	5.083333
333.185913	8.05
334.038147	5.017857
336.91333	6.75
337.351959	6.160714
339.928284	5.160714
340.257507	5.160714
340.33194	6.0
345.944794	5.017857
347.210236	6.017857
348.520721	9.375
348.854401	5.083333
350.168427	5.025
350.579132	8.45
351.538757	5.160714
352.82135	5.017857
352.890106	6.125
355.44931	6.0625
355.765381	5.225
356.415833	5.0625
357.929016	5.083333
358.637848	6.0625
360.420105	5.125
360.53006	6.125
362.906891	5.041667
364.938263	5.083333
365.422119	6.25
366.504242	5.041667
369.563477	5.025
369.906921	7.011364
372.615204	6.017857
372.693054	8.013889
373.872742	5.160714
374.85672	8.680555
375.09906	8.102273
376.528473	6.0
377.009277	6.125
380.585754	6.0625
381.665375	6.0
382.54364	5.083333
385.297791	9.166667
385.478699	5.0
386.769135	5.0
387.62674	11.8
389.845398	7.017857
390.397217	6.625
391.678711	11.008333
392.773956	8.009615
396.057343	6.013889
396.183441	5.0
398.228912	5.225
404.551514	5.0
405.362976	8.0
410.237305	5.0
412.962067	5.333333
413.723389	5.041667
414.366119	7.05
415.386932	5.0625
416.044647	6.0
416.631531	7.25
416.679596	11.166667
417.361755	5.160714
417.703461	6.025
419.046265	6.017857
419.565277	5.0
419.942963	19.0
422.662476	9.013889
423.444458	5.0625
425.01062	7.0
431.076904	5.0
432.022278	16.0
432.06723	10.225
432.343719	5.333333
434.72049	13.027778
434.7565	5.017857
435.500336	12.471154
436.734589	6.75
437.005585	5.025
438.451782	7.041667
438.620667	5.017857
440.096924	7.225
440.710449	11.408334
442.677277	7.0625
442.792755	6.0
443.259583	7.75
443.520355	6.0625
443.920715	10.013889
444.333557	6.0
444.722198	8.041667
444.819397	5.0625
445.137207	28.4
446.594971	5.017857
447.532837	5.0
449.057861	6.025
449.964661	6.225
453.794037	7.102273
454.334137	7.0
455.929016	12.25
456.352692	6.333333
456.436218	7.05
458.444458	5.017857
458.863922	6.125
459.221924	32.038792
459.267426	9.5625
459.750732	5.041667
461.535431	11.778846
462.16452	7.0
462.883087	6.011364
463.639404	7.05
464.151031	6.446429
465.054504	8.009615
469.737152	6.017857
471.643097	10.5
471.698364	25.035715
471.872681	14.471154
471.962128	6.0
472.763397	10.142858
473.176422	6.160714
474.531006	5.083333
475.63797	5.333333
476.305206	7.5625
476.724396	21.285715
476.868011	5.017857
477.30838	5.017857
479.853973	8.013889
480.121521	7.025
481.710754	5.017857
482.22934	5.025
482.305145	5.017857
482.710052	6.0
483.013947	5.083333
483.320984	7.333333
487.531433	19.0
488.727783	8.0
489.55545	6.025
493.284698	5.0625
496.73233	5.0
498.917114	5.013889
499.095306	5.041667
502.552399	5.0
504.142059	6.0625
504.35025	8.025
505.151031	6.160714
506.745544	6.25
507.32251	5.25
507.692139	5.025
509.55127	8.45
510.642914	7.013889
513.860352	6.225
514.048828	12.778846
517.185364	6.125
518.588074	7.011364
519.807068	22.125
521.517578	7.0
521.601318	14.041667
521.728088	9.0
525.385742	5.5
525.986694	7.0
527.0177	8.102273
527.454224	5.160714
527.705566	6.125
528.698486	5.017857
529.427246	10.008333
531.194336	6.446429
534.009949	7.011364
534.239136	6.333333
537.088623	17.28125
537.129456	5.0625
538.398499	5.017857
540.365173	5.0
540.5224	7.225
540.820557	5.0
542.577026	5.025
543.476257	6.017857
543.777466	8.017858
544.13739	6.333333
544.954529	5.017857
545.398376	5.5
546.098145	6.011364
549.009705	6.125
549.60376	5.017857
553.540649	5.0
554.39447	6.25
555.086792	6.0
558.022217	6.013889
559.048035	5.017857
563.246155	7.011364
565.326111	10.007353
565.476379	6.160714
568.330017	6.160714
568.714294	5.160714
571.506348	6.017857
571.921875	5.041667
573.050659	7.160714
573.504883	7.0625
573.891235	5.0
574.388123	6.0
575.893494	6.083333
576.281128	8.05
577.383484	19.450001
580.242859	7.009615
581.378967	5.225
581.728577	11.086538
582.353943	5.017857
584.148621	7.013889
587.415955	5.017857
587.69043	5.083333
589.983276	6.025
592.57428	5.0
594.129272	10.160714
596.605469	7.013889
596.729797	5.225
597.562683	8.013889
601.215332	5.017857
601.342407	5.083333
602.147949	9.009615
606.391418	10.680555
606.651489	5.160714
609.606201	5.017857
609.766235	7.446429
610.772827	8.125
611.755615	5.083333
614.85144	8.009615
615.62323	5.013889
616.252319	5.083333
616.838501	6.0
617.811707	5.017857
618.327759	6.160714
619.244385	5.0
621.574646	6.160714
623.146545	6.333333
624.127808	6.0
627.153625	9.011364
629.449524	28.01923
631.144531	6.446429
632.05365	5.160714
633.154724	7.011364
634.706604	6.0
635.040466	6.0
635.984375	8.011364
636.073608	40.68145
636.638306	5.017857
637.801514	5.160714
638.486206	10.471154
640.065796	9.0
641.254333	8.125
644.491516	11.446428
645.623169	5.013889
646.099915	58.882355
646.355103	5.025
651.491211	5.0625
652.286377	7.160714
654.450134	11.321428
655.245605	5.025
657.612427	5.025
657.906616	7.333333
658.124451	5.0625
659.640137	5.25
660.920471	5.0625
661.750061	5.0
668.297913	6.225
669.463257	6.017857
671.865051	8.011364
672.462463	6.0625
673.837463	5.0
673.973083	6.013889
674.046692	5.025
674.540466	6.017857
679.02124	6.0625
679.41156	5.017857
679.606812	5.0
679.864563	5.225
680.493103	5.017857
680.615845	5.125
681.248413	16.471153
682.643616	7.013889
684.134399	7.041667
685.001099	6.5
686.348389	31.322369
687.966858	7.05
688.795166	11.25
689.009827	6.0
691.35553	6.0
692.567749	5.0
692.99231	6.05
694.782837	9.013889
698.081665	10.03125
701.281555	5.013889
701.436462	5.333333
701.602112	5.0625
702.747009	5.160714
703.131653	17.78125
703.282776	8.45
707.366089	5.0625
708.579956	11.25
709.769592	7.333333
713.415344	9.041667
714.569702	5.025
716.477051	6.125
717.189941	5.0625
717.560303	7.2
719.598572	8.0
720.216797	6.0
720.449707	7.25
723.823364	6.0
727.784912	22.674999
732.512634	6.013889
733.94751	5.0625
736.840698	6.041667
737.385132	5.083333
739.22876	10.025
739.285889	5.041667
740.908813	6.017857
741.332214	11.025
744.613892	7.0
745.604614	10.102273
746.689819	6.25
747.767761	8.5
747.839783	6.0625
748.186523	8.284091
752.125366	21.778847
754.882385	5.160714
756.077576	5.25
756.228027	6.013889
759.97113	5.0
760.733582	8.013889
761.210327	8.041667
761.750793	5.017857
764.835632	5.041667
768.69873	5.013889
777.104797	26.291666
779.034424	5.0
780.015564	5.083333
780.578125	6.025
780.783813	7.333333
781.752869	7.083333
782.076172	5.0
783.332642	6.083333
783.635498	7.446429
783.768555	9.102273
784.926147	7.5625
785.51239	7.025
785.995667	5.0
788.67926	20.066177
790.038452	5.025
797.959473	6.05
800.905518	17.5
802.472778	21.03125
806.198181	6.0
812.716003	16.225
813.16333	6.0
814.662598	5.333333
817.4823	10.5
818.083496	5.017857
819.171143	5.025
823.562744	6.013889
824.355164	19.041666
824.687256	5.625
825.183716	5.160714
826.839233	5.0
828.115173	5.0625
830.420959	6.0625
831.815918	6.011364
841.192261	6.225
843.851685	5.225
846.869324	5.160714
849.45282	7.0625
849.637451	6.013889
850.897278	8.011364
854.193909	5.0625
855.996338	6.017857
857.530701	9.0
859.606812	15.03125
861.941711	30.245689
862.479919	6.25
864.09198	6.225
864.782715	5.013889
864.969055	6.0
867.56311	6.125
872.85199	27.086538
873.51178	5.0
873.801758	6.160714
874.799255	8.25
875.078796	9.009615
876.47937	5.333333
881.651672	5.0
882.211487	5.0
883.825317	6.125
887.184082	10.125
887.390991	6.013889
888.299194	11.25
888.850159	5.017857
891.281799	6.75
892.167847	6.013889
894.733398	7.0625
895.299438	5.225
895.983093	7.75
896.198669	8.041667
896.594788	6.160714
896.801086	6.0
897.457947	5.0
898.856323	5.017857
899.927429	5.013889
903.055786	13.471154
904.58197	6.013889
906.124573	8.05
907.078552	7.009615
907.119263	5.083333
908.45105	6.25
908.796692	8.0625
909.42218	5.017857
910.603882	7.017857
911.125916	6.25
915.059326	7.0
916.026733	6.625
917.046936	6.013889
918.041504	5.0
919.211304	5.0
919.543152	5.013889
919.912964	5.041667
920.90332	5.225
921.185791	5.160714
921.884766	6.025
922.728455	16.083334
924.720886	10.102273
926.315735	5.017857
927.069763	5.0
928.128662	5.017857
934.486206	7.013889
936.151062	7.75
937.535156	7.041667
939.167358	5.5
939.299744	5.0
943.94873	30.017857
945.807983	8.102273
946.639709	7.347222
952.125305	8.0
952.872009	6.0
953.716797	5.375
954.232788	36.75
964.159485	8.45
966.237122	6.011364
969.444946	24.125
972.008484	5.125
974.350464	5.333333
974.437561	5.0
978.688965	5.125
981.427063	5.017857
982.262512	8.446428
982.519165	13.5
984.190186	5.083333
984.352722	5.013889
984.623962	5.083333
985.889526	5.0
990.467957	5.225
992.320984	8.0
992.883728	5.160714
993.174072	5.0625
994.717834	5.160714
995.012451	6.225
997.080933	5.160714
997.37207	7.013889
1000.175049	6.083333
1000.376038	8.041667
1000.539917	5.083333
1001.961487	11.166667
1003.621765	5.0
1003.789001	5.333333
1005.411011	6.0625
1007.421814	9.125
1008.079529	8.086538
1010.129028	5.0
1010.293823	6.0625
1011.740784	6.0625
1011.850769	5.013889
1015.653259	19.778847
1016.415527	5.333333
1016.473633	5.0
1019.248779	11.066176
1020.870117	100.346313
1021.113525	11.041667
1023.391296	46.028847
1027.301392	5.017857
1027.692017	5.333333
1028.973022	5.625
1029.407349	5.160714
1030.109741	5.0
1035.752319	6.225
1036.015381	6.083333
1036.275513	5.017857
1040.526489	8.035714
1042.924805	5.0625
1047.412354	9.0625
1048.270752	6.017857
1050.453491	6.160714
1050.659424	5.0
1051.555908	11.0
1053.761353	10.075
1059.206787	5.225
1059.697388	6.0625
1060.316162	5.025
1065.650146	7.125
1066.026367	5.083333
1066.709839	22.125
1067.813721	5.160714
1070.016968	11.166667
1070.504028	26.208334
1070.619019	7.083333
1074.00647	8.375
1077.511108	5.0625
1079.819458	8.284091
1084.234375	6.0625
1084.63269	5.0
1092.253662	6.013889
1094.020752	8.05
1097.613037	5.225
1099.821655	5.333333
1101.293091	5.225
1102.424438	7.102273
1103.84021	7.041667
1108.860352	10.321428
1110.011597	7.2
1111.717285	5.333333
1113.43042	7.125
1116.142334	8.166667
1116.450195	8.0
1121.730347	7.0
1125.862915	8.041667
1130.216309	5.0625
1143.384399	7.011364
1143.497925	5.041667
1145.908203	10.875
1146.776123	5.017857
1149.391602	5.0
1150.033691	9.45
1150.58313	5.025
1151.205444	5.225
1152.929199	7.05
1153.752808	6.025
1154.41626	6.0625
1159.020264	5.0
1160.51123	7.0
1160.805542	5.0
1164.616089	5.160714
1166.047729	6.446429
1168.334717	5.017857
1169.220947	5.0625
1170.83728	6.160714
1177.706543	17.075001
1179.762939	6.0
1181.246826	6.160714
1184.099487	6.160714
1186.539429	10.008333
1189.103271	9.25
1191.823486	5.017857
1195.744385	14.009615
1196.900024	7.0
1198.813965	6.125
1199.631958	7.05
1200.48999	6.013889
1202.127197	5.0
1207.023804	26.520834
1207.145508	6.017857
1207.365845	5.083333
1208.94751	6.125
1210.770874	5.017857
1210.969604	15.017858
1213.819458	5.0
1221.803467	5.225
1222.135376	5.013889
1222.666138	15.007353
1223.230225	6.0625
1223.814697	5.025
1224.943359	5.0
1227.242798	8.086538
1228.423584	5.5
1232.576294	5.083333
1233.041992	12.013889
1234.276855	7.25
1242.143921	30.482143
1242.587036	6.013889
1243.521362	6.0
1243.765137	10.03125
1245.146973	5.0625
1246.204224	5.0625
1251.048706	6.013889
1251.884521	8.284091
1254.882202	7.011364
1259.907104	10.142858
1260.663818	5.017857
1263.426514	6.013889
1264.270996	6.041667
1271.178101	7.011364
1271.516968	5.5
1271.93811	5.0625
1273.530762	12.0
1275.912231	8.333333
1276.79126	6.017857
1277.182373	7.0
1277.491333	22.053572
1279.469727	6.125
1279.664185	5.5
1280.334106	7.125
1283.179932	5.160714
1288.178589	5.013889
1289.973022	6.446429
1293.216187	8.125
1295.120483	9.5625
1298.453979	5.017857
1300.572021	8.05
1300.792603	7.225
1302.524902	9.2
1307.45752	5.0
1314.287964	10.125
1315.969604	7.0
1317.202759	19.148809
1319.649414	6.160714
1323.167969	10.0
1325.159424	5.0625
1329.160522	5.160714
1330.004395	5.225
1331.058472	5.0
1331.534546	5.0625
1331.683716	7.446429
1331.783569	5.375
1332.151611	8.0
1337.412964	6.017857
1338.739868	37.041668
1339.207886	5.041667
1339.414551	6.25
1339.85791	8.102273
1341.017822	13.006579
1342.653198	5.5
1343.634766	10.05
1344.64856	7.0
1345.071167	5.017857
1347.396118	5.0
1348.851929	5.041667
1349.701904	6.0
1351.24707	5.160714
1353.578247	6.025
1354.889526	20.360294
1355.867432	8.035714
1356.354492	6.025
1358.328979	8.041667
1359.046753	11.160714
1359.178223	5.083333
1362.535767	15.075
1364.648804	6.5
1366.00415	9.013889
1367.026245	9.009615
1372.761597	7.013889
1375.901123	5.0625
1378.466431	5.017857
1379.599243	6.160714
1381.483398	6.0
1382.317749	6.025
1384.675415	7.013889
1386.880859	5.333333
1387.136597	13.666667
1389.030151	5.025
1389.481201	7.013889
1391.071045	39.132355
1391.564209	6.160714
1392.192017	16.78125
1395.134277	5.017857
1398.665161	9.009615
1403.343994	13.009615
1405.826904	5.160714
1409.349609	8.102273
1412.728882	5.125
1423.256592	18.375
1426.747559	6.083333
1433.408081	6.333333
1433.696289	9.0
1437.559326	5.0625
1438.477051	7.0
1439.788208	5.0625
1440.573608	6.0
1441.165649	6.0
1444.338379	7.102273
1445.03894	7.0
1446.988525	6.011364
1447.163818	7.011364
1447.733765	10.240385
1450.803833	7.0
1451.814819	7.160714
1455.744629	5.025
1457.565918	5.125
1462.628296	5.041667
1464.617188	7.25
1464.924438	6.0
1466.380005	5.017857
1468.236938	5.333333
1469.82312	8.009615
1471.436157	5.013889
1476.766113	5.160714
1477.119995	5.025
1477.917358	6.0625
1478.161011	8.009615
1485.056885	6.0
1485.301025	9.009615
1491.612793	5.013889
1494.283691	5.0
1504.100586	9.347222
1504.455078	5.0
1508.27832	8.009615
1508.522583	11.284091
1510.292969	6.25
1514.862793	6.0
1518.384766	5.083333
1524.207397	5.125
1532.175903	5.017857
1534.521851	6.0625
1534.634644	5.0
1540.631958	5.625
1544.21814	5.160714
1546.802979	5.333333
1546.911011	11.375
1547.524536	5.0625
1550.362061	5.333333
1553.172241	16.007353
1559.433594	6.25
1560.26355	6.013889
1561.878662	6.025
1572.209473	5.013889
1572.94043	6.0
1576.117798	7.017857
1576.803711	5.025
1580.254028	27.694445
1581.290527	5.0
1581.611084	5.083333
1583.05481	6.017857
1586.976562	6.017857
1588.055298	7.05
1589.915283	5.0
1595.15625	5.160714
1597.089844	5.160714
1598.241089	7.0625
1600.360352	5.160714
1600.433472	5.125
1603.011841	5.083333
1604.488159	5.013889
1605.226562	5.013889
1607.096558	5.017857
1607.396851	6.05
1608.847046	6.225
1609.060303	5.083333
1613.083496	5.025
1613.777466	5.013889
1614.518066	8.102273
1616.138672	12.025
1616.555664	7.0625
1616.812622	8.347222
1617.481445	6.25
1617.66748	5.017857
1622.527588	15.8
1622.818848	5.333333
1624.370361	5.160714
1624.486328	7.011364
1625.448975	7.160714
1627.277588	5.125
1628.342773	5.0
1629.691284	5.0
1630.400635	13.75
1630.528564	9.009615
1634.465942	5.041667
1635.556763	5.0625
1636.442017	5.083333
1638.447021	5.083333
1640.464478	6.625
1645.734497	27.532894
1647.717041	5.025
1649.447754	11.0
1650.219849	5.0
1652.143188	5.225
1659.828247	8.086538
1661.166382	5.025
1663.162476	5.017857
1663.561768	7.0625
1667.676147	7.013889
1677.594604	7.011364
1680.734131	5.0625
1682.411255	7.013889
1684.265015	28.39674
1688.560181	6.017857
1688.749878	5.160714
1689.170654	6.333333
1694.174927	7.05
1696.240845	12.284091
1696.926514	8.013889
END IONS

BEGIN IONS
PEPMASS=236.175
CHARGE=1
MSLEVEL=2
SOURCE_INSTRUMENT=LC-ESI-qTof
FILENAME=f.fronkey/SUZHOU2023/WX20240119nozib/F_simple/F_7.mzXML;
SEQ=*..*
IONMODE=Positive
ORGANISM=GNPS-LIBRARY
NAME=Procainamide M+H
PI=Xiang-Rong Cheng
DATACOLLECTOR=Xiang-Rong Cheng
SMILES=CCN(CC)CCNC(=O)C1=CC=C(C=C1)N
INCHI=1S/C13H21N3O/c1-3-16(4-2)10-9-15-13(17)11-5-7-12(14)8-6-11/h5-8H,3-4,9-10,14H2,1-2H3,(H,15,17)
INCHIAUX= 
PUBMED=4913
SUBMITUSER=fronkey
LIBRARYQUALITY=3
SPECTRUMID=CCMSLIB00012176191
USI=mzspec:GNPS:GNPS-LIBRARY:accession:CCMSLIB00012176191
SCANS=242912
51.022015	32.25
52.01963	27.375
55.052593	45.044998
57.068993	65.666664
58.06562	101.121216
64.68058	33.482143
64.885536	27.005434
65.011795	86.387817
65.039108	65992.554688
65.354301	45.979168
65.397118	75.263885
65.475258	27.007273
65.499504	38.959999
65.515732	39.193001
65.535233	25.738636
65.597565	53.963234
65.634789	26.812317
65.712257	49.251076
65.755295	80.71627
65.782677	48.106453
65.810478	54.471775
65.823601	44.55682
65.866882	38.148811
65.889359	25.189259
65.969482	36.805
66.008408	45.988377
66.04084	5018.740234
66.097855	92.408447
66.135994	44.949997
66.233139	31.28125
66.423111	49.720238
66.476784	45.0
66.528053	72.75
66.616302	27.431938
66.708328	29.111111
66.793251	38.164474
67.039215	303.506836
67.073494	51.454544
67.157906	29.5
67.382225	32.044998
67.847755	28.408333
70.063095	261.06897
70.978149	31.777779
71.639099	32.900002
72.081474	1497.151978
73.082832	97.001923
74.097397	320.321838
77.039886	129.072586
77.063637	28.450001
79.05246	197.491226
82.875038	64.010414
84.011436	31.09091
86.097427	158.786392
87.098328	261.130402
88.235954	50.736111
89.644188	85.820457
90.03376	394.032745
90.075844	25.875
91.053612	34.125
91.080902	40.208332
91.295448	25.142857
92.049782	179068.515625
92.518822	97.991074
92.576714	69.570656
92.604378	70.442444
92.639809	62.411125
92.711746	82.931763
92.768707	52.9375
92.809669	78.578125
92.840485	86.708336
92.879509	71.274193
92.924324	96.370003
92.951385	33.791668
93.052658	16989.728516
93.141403	251.460709
93.187485	159.703705
93.225311	97.08828
93.259766	61.146507
93.305603	74.518272
93.348305	93.629631
93.369781	66.614037
93.404312	64.34375
93.445129	48.277779
93.470345	34.487179
93.501572	30.139492
93.657082	37.180557
93.726013	34.011364
93.77504	64.030403
93.852615	35.696171
93.901405	42.482292
93.943886	31.836021
93.992943	33.449032
94.05838	313.975891
94.100975	60.817741
94.127831	35.711105
94.182655	104.952705
94.218987	36.476559
94.242943	26.743956
94.287292	43.107143
94.331787	34.090908
94.412994	29.57704
94.532242	33.75
94.589928	30.697533
94.624168	55.347221
94.749107	36.76923
94.789192	37.25
95.021172	27.844999
95.13916	63.041668
95.336166	44.142441
95.488312	45.030407
96.087158	26.796053
96.651146	27.13587
96.713905	36.326614
96.906311	29.015625
97.538223	27.694445
97.607239	31.449074
98.096077	99.102272
98.95945	30.183823
99.987282	67.061272
100.112106	1695.929199
100.181801	35.657608
100.205963	35.010418
101.11779	240.934998
101.322411	50.235466
103.052673	59.570946
103.072556	28.142857
103.858429	50.191177
106.041969	112.778847
110.061272	44.003571
115.054985	224.152542
116.052147	69.764832
118.754776	44.211208
119.078941	56.680557
119.224449	36.090908
119.727875	28.183823
119.841499	61.173077
119.896049	51.375
119.977325	84.272728
120.044464	247809.59375
120.637085	84.949005
120.681053	76.909088
120.719368	131.943451
120.766853	64.782898
120.814407	201.241226
120.897018	237.623306
120.963242	63.501743
121.047356	30065.535156
121.147675	419.622803
121.177376	239.260834
121.230293	111.04866
121.25901	81.175377
121.282211	44.862644
121.336533	121.343674
121.41774	70.113274
121.43988	35.542301
121.474426	25.925926
121.500023	34.201782
121.54097	56.445625
121.595779	44.901455
121.667801	70.03524
121.701805	45.854149
121.721855	83.215279
121.76693	39.43066
121.818169	57.254013
121.881699	54.256054
121.910759	26.346859
122.048889	1442.874023
122.125809	48.247856
122.194679	51.172958
122.238533	35.839684
122.278709	41.59745
122.315193	39.900002
122.356773	72.160103
122.457809	58.061577
122.47934	37.231709
122.537903	26.55592
122.564049	33.175564
122.599487	72.752251
122.668083	43.051395
122.708336	49.085102
122.749138	84.013885
122.786331	46.978657
122.847977	57.721603
122.984138	48.040001
123.01268	37.103283
123.064552	75.625748
123.124962	34.375
123.155319	71.094696
123.212502	44.56818
123.234779	44.408333
123.300056	59.285713
123.345963	48.337963
123.404457	30.25
123.462288	61.603573
123.495384	83.10714
123.599617	34.81818
123.635422	67.003204
123.728592	30.480263
123.85453	33.326614
123.946861	39.361111
124.036041	56.695515
124.085342	35.450001
124.148605	45.148811
124.218445	55.852272
124.311646	29.9
124.347534	28.200001
124.613663	34.020832
124.6492	26.005953
124.669899	32.005436
125.018623	61.06649
125.165718	26.15
125.351532	60.0
126.096222	37.244999
126.126678	41.094696
126.322044	28.076923
126.549805	25.444445
127.999458	27.113636
128.599228	53.654068
128.840088	31.071428
131.047836	238.530701
131.137146	30.625
132.05069	58.778847
132.901733	27.008333
133.903748	86.019066
142.373001	25.245001
154.905548	51.185608
159.348557	39.265625
163.085815	8423.34082
163.204391	111.972824
163.327545	26.004032
163.42337	35.654411
163.497101	32.140625
163.673355	50.034092
163.754807	26.0
163.986053	26.361111
164.089401	1165.124634
164.209854	43.125
164.27124	25.041666
164.549072	30.361111
164.68129	63.0
165.112595	31.041666
165.136917	25.125
165.191391	38.272728
187.103134	33.041668
190.651733	29.053572
215.257034	27.666666
243.919037	34.285713
278.074158	36.025002
294.498779	26.222826
296.852112	47.5625
305.894196	36.0
337.719299	28.008333
341.332703	40.347221
372.136963	30.035715
412.95932	36.642857
450.52066	32.450001
451.004333	84.654068
466.005432	26.654411
482.255554	35.013157
506.669556	33.035713
521.715393	27.009615
532.16217	29.11574
553.898621	51.367424
588.571716	28.0
618.815796	40.0
630.607605	25.0
687.5625	26.183823
764.278687	64.881096
783.980042	28.004629
795.825867	28.889706
823.186646	57.449467
837.641846	27.03125
1100.809448	31.961956
1101.160034	37.408333
1191.225708	29.444445
1207.028687	25.083334
1332.055054	27.796053
1335.313599	27.568182
1409.942261	25.5
1422.256958	39.222828
1553.427124	41.066666
1622.899048	26.53125
1637.363647	55.909092
1654.673218	27.045
1688.472046	52.284092
END IONS

BEGIN IONS
PEPMASS=489.115
CHARGE=1
MSLEVEL=2
SOURCE_INSTRUMENT=ESI-Orbitrap
FILENAME=SP2_E_1_3.mzML
SEQ=*..*
IONMODE=Positive
ORGANISM=GNPS-LIBRARY
NAME=CITICOLINE M+H
PI=Aron
DATACOLLECTOR=David Hattan
SMILES=C[N+](C)(C)CCOP([O-])(=O)OP(O)(=O)OC[C@H]1O[C@H]([C@H](O)[C@@H]1O)N1C=CC(N)=NC1=O
INCHI=InChI=1S/C14H26N4O11P2/c1-18(2,3)6-7-26-30(22,23)29-31(24,25)27-8-9-11(19)12(20)13(28-9)17-5-4-10(15)16-14(17)21/h4-5,9,11-13,19-20H,6-8H2,1-3H3,(H3-,15,16,21,22,23,24,25)/t9-,11-,12-,13-/m1/s1
INCHIAUX=N/A
PUBMED=N/A
SUBMITUSER=jzemlin
LIBRARYQUALITY=1
SPECTRUMID=CCMSLIB00013583217
USI=mzspec:GNPS:GNPS-LIBRARY:accession:CCMSLIB00013583217
SCANS=1789
54.66869	106390.890625
60.081432	265072.3125
71.073494	90424.78125
71.704765	42750.183594
72.324577	44792.753906
86.096954	1683980.125
97.028809	454173.125
104.107262	791116.25
109.534012	48635.039062
112.050804	1093175.25
116.582382	41871.058594
124.999771	634556.125
130.2332	44085.734375
134.787827	51893.226562
166.061539	508743.09375
184.073074	27819624.0
226.081589	823857.9375
231.349701	89339.007812
231.374725	63234.992188
246.028381	555561.875
264.039124	15495757.0
280.093781	788571.0625
360.059509	1367032.375
378.070404	212179.296875
END IONS

BEGIN IONS
PEPMASS=425.044
CHARGE=1
MSLEVEL=2
SOURCE_INSTRUMENT=ESI-Orbitrap
FILENAME=SP4_B_1_3.mzML
SEQ=*..*
IONMODE=Positive
ORGANISM=GNPS-LIBRARY
NAME=THIAMINE PYROPHOSPHATE M+H
PI=Aron
DATACOLLECTOR=David Hattan
SMILES=CC1=C(SC=[N+]1CC2=CN=C(N=C2N)C)CCO[P@@](O)(OP([O-])(O)=O)=O
INCHI=InChI=1S/C12H18N4O7P2S/c1-8-11(3-4-22-25(20,21)23-24(17,18)19)26-7-16(8)6-10-5-14-9(2)15-12(10)13/h5,7H,3-4,6H2,1-2H3,(H4-,13,14,15,17,18,19,20,21)
INCHIAUX=N/A
PUBMED=N/A
SUBMITUSER=jzemlin
LIBRARYQUALITY=1
SPECTRUMID=CCMSLIB00013583349
USI=mzspec:GNPS:GNPS-LIBRARY:accession:CCMSLIB00013583349
SCANS=1957
54.034721	3954.316895
61.374271	1803.156982
61.962208	1970.898438
63.313641	1685.039062
65.039391	3266.962891
68.050323	4692.941406
70.657967	1689.334839
79.15593	2206.755859
79.450462	2118.749756
80.050179	6348.987793
81.045273	146440.640625
85.011345	3294.666504
88.524895	2275.207275
95.060783	2091.017578
98.006287	8165.349609
99.026848	5258.355957
107.560074	1560.924561
113.901855	1571.180054
121.997833	18541.708984
122.071312	2165148.75
122.139252	13085.012695
122.15007	4054.028076
122.947372	2215.429199
125.961067	2646.343506
126.037201	395568.34375
126.109833	2871.803711
127.040718	4344.77002
127.619186	1801.309937
167.128418	2562.797852
195.159988	3135.957275
202.036819	23837.052734
220.047989	31177.3125
224.013794	128945.054688
235.71843	1926.434692
247.099762	5400.568848
303.979889	116127.796875
345.076111	8937.078125
365.237701	1704.956665
END IONS

BEGIN IONS
PEPMASS=296.024
CHARGE=1
MSLEVEL=2
SOURCE_INSTRUMENT=LC-ESI-Orbitrap
FILENAME=all_ms2.mgf
SEQ=*..*
IONMODE=Positive
ORGANISM=GNPS-LIBRARY
NAME=Diclofenac [M+H]+
PI=Pieter Dorrestein
DATACOLLECTOR=Minions
SMILES=O=C(O)Cc1ccccc1Nc1c(Cl)cccc1Cl
INCHI="InChI=1S/C14H11Cl2NO2/c15-10-5-3-6-11(16)14(10)17-12-7-2-1-4-9(12)8-13(18)19/h1-7,17H,8H2,(H,18,19)"
INCHIAUX=
PUBMED=drug_mix_all_combined.mzML:scan:3116
SUBMITUSER=jzemlin
LIBRARYQUALITY=1
SPECTRUMID=CCMSLIB00015625747
USI=mzspec:GNPS:GNPS-LIBRARY:accession:CCMSLIB00015625747
SCANS=41
54.478241	995.191772
56.945541	1136.712524
57.070702	1318.82666
57.289249	1324.821777
58.065861	4411.277344
58.663689	1224.214233
62.597309	1310.058472
65.87558	1258.497192
70.344704	1578.22583
71.047188	1328.780518
83.086067	1979.072998
84.536133	1517.68689
92.551376	5905.169922
120.044609	3461.126465
157.088638	3189.504883
167.53125	1755.191406
176.107285	26118.640625
179.072815	1935.97583
180.08049	8153.388672
203.320587	2215.898193
214.041779	354264.125
215.049576	409469.96875
243.038177	1946.364746
250.018433	158707.65625
251.084015	2573.489746
254.283463	2408.550293
278.013245	20094.1875
296.024109	6199.04834
296.074219	3240.463379
296.141235	3538.681396
296.29425	6152.947266
END IONS

BEGIN IONS
PEPMASS=309.112
CHARGE=1
MSLEVEL=2
SOURCE_INSTRUMENT=LC-ESI-Orbitrap
FILENAME=all_ms2.mgf
SEQ=*..*
IONMODE=Positive
ORGANISM=GNPS-LIBRARY
NAME=Warfarin [M+H]+
PI=Pieter Dorrestein
DATACOLLECTOR=Minions
SMILES=CC(=O)CC(c1ccccc1)c1c(O)c2ccccc2oc1=O
INCHI="InChI=1S/C19H16O4/c1-12(20)11-15(13-7-3-2-4-8-13)17-18(21)14-9-5-6-10-16(14)23-19(17)22/h2-10,15,21H,11H2,1H3"
INCHIAUX=
PUBMED=drug_mix_all_combined.mzML:scan:3046
SUBMITUSER=jzemlin
LIBRARYQUALITY=1
SPECTRUMID=CCMSLIB00015625754
USI=mzspec:GNPS:GNPS-LIBRARY:accession:CCMSLIB00015625754
SCANS=60
55.091572	205172.28125
59.272221	206064.375
62.766499	380884.90625
68.997833	399557.8125
77.039558	392497.8125
82.072121	219328.84375
91.054817	1137859.25
92.552643	1136084.875
95.049767	1719606.0
103.054733	777891.75
105.045036	361029.34375
105.070099	325070.28125
121.028641	11488084.0
121.037308	509258.71875
128.061981	411898.21875
129.033646	323240.125
129.069916	4201317.0
131.049301	4043058.5
141.069077	238605.890625
147.080475	29463038.0
153.070358	304201.75
155.085571	8675399.0
157.028137	842607.0
163.010971	995549.9375
163.038956	167019264.0
163.060745	814134.0625
163.067459	1252072.25
165.07016	1006093.5
167.085526	2060252.625
171.079575	1572597.125
173.023514	1226728.5
175.038742	981638.75
177.069962	281118.21875
178.07814	1448028.125
179.08522	752570.0
181.064178	371715.90625
183.080368	12333812.0
189.054962	1882025.125
191.016068	631986.25
191.033875	23521344.0
195.080536	1238941.625
205.065338	1656056.5
207.080002	595785.5625
223.075287	6108886.5
233.060059	2462307.25
243.197968	309707.71875
249.054611	590798.625
251.070145	136731264.0
251.123505	865026.0625
291.101044	3288839.5
309.076538	525267.0625
309.111938	8442696.0
END IONS

BEGIN IONS
PEPMASS=365.117
CHARGE=1
MSLEVEL=2
SOURCE_INSTRUMENT=LC-ESI-Orbitrap
FILENAME=all_ms2.mgf
SEQ=*..*
IONMODE=Positive
ORGANISM=GNPS-LIBRARY
NAME=Bumetanide [M+H]+
PI=Pieter Dorrestein
DATACOLLECTOR=Minions
SMILES=CCCCNc1cc(C(=O)O)cc(S(N)(=O)=O)c1Oc1ccccc1
INCHI="InChI=1S/C17H20N2O5S/c1-2-3-9-19-14-10-12(17(20)21)11-15(25(18,22)23)16(14)24-13-7-5-4-6-8-13/h4-8,10-11,19H,2-3,9H2,1H3,(H,20,21)(H2,18,22,23)"
INCHIAUX=
PUBMED=drug_mix_all_combined.mzML:scan:3015
SUBMITUSER=jzemlin
LIBRARYQUALITY=1
SPECTRUMID=CCMSLIB00015625758
USI=mzspec:GNPS:GNPS-LIBRARY:accession:CCMSLIB00015625758
SCANS=158
52.330238	10018.082031
55.055111	10539.546875
57.070789	60047.183594
60.475712	8048.206543
72.526253	9802.423828
85.847603	9481.087891
91.054749	16013.389648
92.549507	49517.902344
108.044693	115568.5625
115.05481	22181.376953
122.589218	9830.861328
124.039558	24575.525391
128.061874	49290.5
129.069992	137170.84375
130.065475	9420.681641
135.093811	10026.555664
139.053986	50488.441406
141.05986	20520.976562
141.069977	231869.640625
152.034286	150175.328125
152.061523	30590.417969
153.06987	104854.523438
154.06485	24664.617188
155.048813	16762.589844
155.072723	22428.671875
156.080795	1608808.125
162.478973	10592.739258
164.034592	11734.952148
164.106125	14667.522461
166.064957	95903.164062
167.047836	11027.581055
167.072739	40328.929688
168.057297	81470.125
168.08049	40726.320312
169.064728	227176.359375
170.096329	155072.09375
171.080444	44750.296875
180.081161	29586.896484
181.051453	14741.073242
181.064957	85701.554688
182.059723	84807.09375
183.067886	915505.0625
183.085175	17936.714844
184.006973	14252.807617
184.075699	2788550.25
184.109222	19475.111328
185.083572	28020.279297
186.091415	21917.757812
194.072159	14699.140625
194.09642	12431.070312
195.068176	107579.085938
196.075729	1052447.75
197.059021	15046.518555
197.084518	53379.480469
198.091339	216552.953125
200.070099	24559.392578
208.075531	27336.761719
208.096329	22995.050781
209.083374	42414.675781
210.054321	50031.980469
210.091339	36726.136719
212.112106	13208.286133
212.122406	13259.581055
212.143341	654691.3125
212.164597	13782.325195
224.070419	29558.802734
225.054199	50407.808594
227.057556	105207.359375
228.064621	15026.125977
229.027054	18658.804688
229.073349	38200.027344
238.122223	217406.5
239.13028	112728.257812
240.046036	8827.072266
240.06572	395077.375
240.085358	23289.433594
240.138138	3239061.25
242.080856	378205.875
248.037552	41735.175781
248.107208	20353.193359
254.101944	13966.191406
255.108658	15351.717773
256.13327	111532.632812
263.695953	12056.510742
266.117493	371547.96875
283.120361	172511.109375
284.095184	18750.732422
284.12793	890418.375
284.159821	26959.03125
291.994751	12182.005859
292.027374	251980.515625
348.089783	101736.304688
365.116821	237797.4375
END IONS

BEGIN IONS
PEPMASS=278.19
CHARGE=1
MSLEVEL=2
SOURCE_INSTRUMENT=LC-ESI-Orbitrap
FILENAME=all_ms2.mgf
SEQ=*..*
IONMODE=Positive
ORGANISM=GNPS-LIBRARY
NAME=Amitriptyline [M+H]+
PI=Pieter Dorrestein
DATACOLLECTOR=Minions
SMILES=CN(C)CCC=C1c2ccccc2CCc2ccccc21
INCHI="InChI=1S/C20H23N/c1-21(2)15-7-12-20-18-10-5-3-8-16(18)13-14-17-9-4-6-11-19(17)20/h3-6,8-12H,7,13-15H2,1-2H3"
INCHIAUX=
PUBMED=drug_mix_all_combined.mzML:scan:2552
SUBMITUSER=jzemlin
LIBRARYQUALITY=1
SPECTRUMID=CCMSLIB00015625783
USI=mzspec:GNPS:GNPS-LIBRARY:accession:CCMSLIB00015625783
SCANS=62
52.804871	290567.46875
58.06601	3807537.0
58.282001	405791.90625
69.546532	477499.71875
69.696312	320014.75
70.066017	936095.875
79.054916	1137633.375
84.081429	16152054.0
84.085289	317032.59375
85.089203	854778.75
85.16584	341522.625
91.054817	77835352.0
92.550346	1860114.5
95.049751	434844.71875
103.054764	1953774.75
105.07029	77568896.0
106.585114	393529.125
115.054413	5333884.0
117.070152	84451104.0
128.062225	725183.5625
129.060272	690404.75
129.070023	17446686.0
131.765991	399471.15625
141.069839	5922080.5
142.077789	522376.375
153.069824	2877184.25
154.077728	1180590.25
155.060287	415349.875
155.085449	31066286.0
165.070572	860191.5625
167.085342	522398.78125
170.939987	371922.96875
178.065643	438923.09375
178.077621	18443960.0
179.085449	19279446.0
189.069839	929236.0625
190.077454	3167982.5
191.085495	72670480.0
192.093048	6215895.5
193.101273	8121817.0
202.077835	1052159.25
203.085434	16354839.0
204.093246	16635380.0
204.112839	621885.25
205.101151	33633048.0
207.116989	3864318.25
215.083969	749164.4375
216.093582	1214980.75
217.10112	5738712.5
218.108932	41243440.0
231.11615	3053251.5
232.124939	658949.6875
233.083237	1047335.4375
233.132324	124561696.0
233.180511	863702.1875
278.127014	1905539.875
278.139221	1288471.375
278.190155	259429280.0
278.240173	1758703.25
278.25296	1926125.375
END IONS

BEGIN IONS
PEPMASS=781.437
CHARGE=1
MSLEVEL=2
SOURCE_INSTRUMENT=LC-ESI-Orbitrap
FILENAME=all_ms2.mgf
SEQ=*..*
IONMODE=Positive
ORGANISM=GNPS-LIBRARY
NAME=Digoxin [M+H]+
PI=Pieter Dorrestein
DATACOLLECTOR=Minions
SMILES=C[C@H]1O[C@@H](O[C@H]2[C@@H](O)C[C@H](O[C@H]3[C@@H](O)C[C@H](O[C@H]4CC[C@@]5(C)[C@H](CC[C@@H]6[C@@H]5C[C@@H](O)[C@]5(C)[C@@H](C7=CC(=O)OC7)CC[C@]65O)C4)O[C@@H]3C)O[C@@H]2C)C[C@H](O)[C@@H]1O
INCHI="InChI=1S/C41H64O14/c1-19-36(47)28(42)15-34(50-19)54-38-21(3)52-35(17-30(38)44)55-37-20(2)51-33(16-29(37)43)53-24-8-10-39(4)23(13-24)6-7-26-27(39)14-31(45)40(5)25(9-11-41(26,40)48)22-12-32(46)49-18-22/h12,19-21,23-31,33-38,42-45,47-48H,6-11,13-18H2,1-5H3/t19-,20-,21-,23-,24+,25-,26-,27+,28+,29+,30+,31-,33+,34+,35+,36-,37-,38-,39+,40+,41+/m1/s1"
INCHIAUX=
PUBMED=drug_mix_all_combined.mzML:scan:2490
SUBMITUSER=jzemlin
LIBRARYQUALITY=1
SPECTRUMID=CCMSLIB00015625789
USI=mzspec:GNPS:GNPS-LIBRARY:accession:CCMSLIB00015625789
SCANS=169
55.0186	3360.974609
56.349171	2179.404053
57.034309	4129.320312
61.478168	2076.661621
64.914642	2165.298828
67.055168	27168.328125
67.335953	2625.717041
69.030724	5050.796387
69.03434	78862.25
69.070847	15396.262695
71.049896	8656.108398
73.029282	3191.833252
74.615623	2342.332031
79.055031	44371.949219
81.03418	2596.094238
81.070396	2602.350098
83.049797	7643.764648
85.065453	10582.827148
87.044662	4410.680664
91.054901	4220.02832
92.550346	38956.640625
93.07048	3475.937988
95.043633	5828.548828
95.049751	110422.96875
96.730667	2188.343018
97.065353	618380.875
97.078362	3668.875977
100.076233	5920.579102
100.922813	2887.762207
103.341133	2357.523438
105.070107	6622.3125
107.085861	3332.365234
111.044456	12733.230469
113.06012	181831.09375
115.075844	3000.834473
119.086258	3641.50293
122.771446	2627.951416
125.060211	8058.806152
128.854813	2589.011963
129.05513	5661.418457
131.070419	121803.234375
131.086227	6022.963379
133.102203	2788.731445
143.085846	3497.771729
145.101196	6407.879883
147.065277	25850.380859
147.117401	2765.636475
153.054825	7466.635742
155.070374	10207.108398
157.101257	2841.884277
159.117126	4095.410156
159.651611	2436.613037
161.132355	6703.969238
163.075378	5104.455566
166.07814	9296.844727
169.101685	3176.688232
189.090652	3273.238281
189.163635	2986.278809
194.096924	2845.773682
197.134476	2708.41333
199.148315	4586.025391
201.046555	34368.90625
201.164078	4126.436035
222.091064	3914.618408
224.129486	4028.393066
286.027924	3796.726074
291.212555	3558.90332
337.215912	30287.011719
355.227509	42277.496094
373.237976	26273.179688
375.18103	3172.963135
391.248474	9860.989258
407.195923	29862.248047
408.800781	3022.236816
467.277618	2862.978516
485.28772	3849.233887
720.744507	3596.005859
END IONS

BEGIN IONS
PEPMASS=376.15
CHARGE=1
MSLEVEL=2
SOURCE_INSTRUMENT=LC-ESI-Orbitrap
FILENAME=all_ms2.mgf
SEQ=*..*
IONMODE=Positive
ORGANISM=GNPS-LIBRARY
NAME=Haloperidol [M+H]+
PI=Pieter Dorrestein
DATACOLLECTOR=Minions
SMILES=O=C(CCCN1CCC(O)(c2ccc(Cl)cc2)CC1)c1ccc(F)cc1
INCHI="InChI=1S/C21H23ClFNO2/c22-18-7-5-17(6-8-18)21(26)11-14-24(15-12-21)13-1-2-20(25)16-3-9-19(23)10-4-16/h3-10,26H,1-2,11-15H2"
INCHIAUX=
PUBMED=drug_mix_all_combined.mzML:scan:2421
SUBMITUSER=jzemlin
LIBRARYQUALITY=1
SPECTRUMID=CCMSLIB00015625797
USI=mzspec:GNPS:GNPS-LIBRARY:accession:CCMSLIB00015625797
SCANS=191
50.26088	32922.527344
50.38493	10639.316406
50.38744	22118.623047
50.511669	45981.492188
51.023979	7812.09375
53.074139	3977.22876
60.546822	3634.344727
63.021191	8099.85498
63.024231	13137.941406
64.027229	5439.114746
65.039703	5992.866211
68.050056	13684.583008
75.024147	4647.67627
77.039391	5493.862305
83.061089	40456.570312
84.064499	9610.858398
84.068916	61020.382812
85.072113	14226.53125
85.076668	5702.87793
87.023933	5438.202148
87.044151	7177.369629
87.092194	16606.048828
88.095207	7836.148926
89.039337	9623.300781
89.350777	4812.96582
90.042961	8963.693359
92.549568	19769.335938
99.000687	13386.083984
99.092209	5736.162598
100.003448	4746.849609
101.927719	4358.175293
111.091988	101436.320312
112.095413	31522.121094
115.054909	20714.023438
116.058342	14012.827148
123.015282	6430.937988
123.024307	182700.890625
126.046852	8569.612305
138.043579	5007.265625
139.054642	17432.882812
140.05751	14972.946289
141.069824	20486.658203
142.07338	13151.794922
149.015045	6192.659668
152.06076	5211.419434
153.065353	7387.728027
163.054016	23885.445312
164.060486	13753.807617
165.041046	26013.423828
165.04776	12508.318359
165.070068	3499921.25
165.098648	23770.703125
166.014969	11948.080078
166.030304	10034.365234
166.038544	15567.537109
166.046692	57923.800781
166.076279	12005887.0
166.099976	38053.949219
166.106033	60232.847656
166.113953	28136.423828
166.121506	14010.454102
166.130646	15179.50293
167.018875	12529.137695
167.024002	4456.693359
167.042953	24029.28125
167.051605	95788.1875
167.057281	53300.636719
167.081146	12981494.0
167.10434	89870.914062
167.110565	98346.617188
167.11908	37922.605469
167.126877	19147.673828
167.135925	18892.306641
169.062973	7744.89502
170.067703	6263.35498
173.128448	454362.59375
174.132172	250321.546875
183.080536	524310.0625
184.083862	741141.1875
193.076202	281477.375
194.079544	382775.03125
199.031174	70669.5625
200.034653	108988.664062
200.963455	23139.175781
200.973572	5474.389648
200.985428	18972.363281
200.996521	44130.027344
201.007553	141938.828125
201.015472	72364.867188
201.046646	20624854.0
201.077515	140583.5
201.08548	141474.59375
201.096786	57595.273438
201.107254	27160.220703
201.118835	25802.460938
201.150421	7806.45459
201.965897	32936.582031
201.976562	7156.34668
201.988007	33200.238281
201.999161	62028.683594
202.010742	226391.9375
202.018387	152316.734375
202.049911	30234364.0
202.080795	181683.203125
202.089127	222998.15625
202.100357	80367.515625
202.111145	41972.824219
202.122681	40097.625
202.144104	12211.161133
202.155075	7944.296875
203.044403	30002.226562
206.097061	19934.210938
207.101639	5511.600586
261.405731	5666.969727
274.136078	9367.535156
275.137939	13864.418945
340.209961	13105.689453
358.136688	18698.021484
376.145752	46953.070312
376.186737	252975.46875
END IONS

BEGIN IONS
PEPMASS=285.142
CHARGE=1
MSLEVEL=2
SOURCE_INSTRUMENT=LC-ESI-Orbitrap
FILENAME=all_ms2.mgf
SEQ=*..*
IONMODE=Positive
ORGANISM=GNPS-LIBRARY
NAME=Promethazine [M+H]+
PI=Pieter Dorrestein
DATACOLLECTOR=Minions
SMILES=CC(CN1c2ccccc2Sc2ccccc21)N(C)C
INCHI="InChI=1S/C17H20N2S/c1-13(18(2)3)12-19-14-8-4-6-10-16(14)20-17-11-7-5-9-15(17)19/h4-11,13H,12H2,1-3H3"
INCHIAUX=
PUBMED=drug_mix_all_combined.mzML:scan:2332
SUBMITUSER=jzemlin
LIBRARYQUALITY=1
SPECTRUMID=CCMSLIB00015625804
USI=mzspec:GNPS:GNPS-LIBRARY:accession:CCMSLIB00015625804
SCANS=155
50.384289	317575.9375
56.05043	2639450.5
56.313461	314337.15625
58.066002	1283400.0
60.372581	345526.90625
62.433609	302363.6875
63.920551	438550.6875
69.217857	356700.78125
69.943619	326457.625
70.065826	1081531.5
71.073769	18495070.0
84.081413	3791751.0
86.083183	814812.75
86.086433	2345354.0
86.097122	333380064.0
86.108139	2362096.25
86.328979	349775.5625
92.548592	782535.8125
92.553879	564505.0625
105.070663	2433281.5
106.066162	447804.5625
109.011307	813024.5625
130.065353	432196.0625
136.021469	982018.6875
154.065765	1187927.625
162.037064	6555992.0
168.656601	379706.25
171.026794	482467.1875
197.028671	514456.96875
198.023315	3000196.0
198.037262	176109664.0
198.075424	1019838.8125
206.096588	1712776.25
207.103851	3650630.25
208.111267	713126.625
224.052521	1508656.625
225.060745	5580708.5
239.077225	672057.1875
240.084045	45471608.0
278.677673	376474.25
285.141998	30089992.0
END IONS

BEGIN IONS
PEPMASS=300.148
CHARGE=1
MSLEVEL=2
SOURCE_INSTRUMENT=LC-ESI-Orbitrap
FILENAME=all_ms2.mgf
SEQ=*..*
IONMODE=Positive
ORGANISM=GNPS-LIBRARY
NAME=Metoclopramide [M+H]+
PI=Pieter Dorrestein
DATACOLLECTOR=Minions
SMILES=CCN(CC)CCNC(=O)c1cc(Cl)c(N)cc1OC
INCHI="InChI=1S/C14H22ClN3O2/c1-4-18(5-2)7-6-17-14(19)10-8-11(15)12(16)9-13(10)20-3/h8-9H,4-7,16H2,1-3H3,(H,17,19)"
INCHIAUX=
PUBMED=drug_mix_all_combined.mzML:scan:1459
SUBMITUSER=jzemlin
LIBRARYQUALITY=1
SPECTRUMID=CCMSLIB00015625850
USI=mzspec:GNPS:GNPS-LIBRARY:accession:CCMSLIB00015625850
SCANS=178
56.763512	1018157.5
61.541321	256765.71875
62.655491	269880.5625
63.91407	244452.9375
67.696548	270184.625
71.744637	268683.34375
76.796753	301682.21875
78.034752	325679.90625
90.034317	422077.6875
92.547897	634851.6875
92.553963	533141.4375
93.057823	596588.3125
96.298973	293907.875
100.112549	3494444.75
103.478638	322991.59375
113.00338	387374.1875
117.138557	315492.875
120.044647	902099.0625
126.010742	839669.5
128.026352	906226.6875
140.997406	3416135.0
143.118057	464855.5
144.021591	1981713.25
147.055008	751442.6875
148.063309	3241322.5
154.005219	880684.5
156.021011	6918133.0
168.008255	4792900.0
168.993256	1555142.625
170.000702	1143566.125
182.023849	903819.0
183.032043	44638864.0
183.982346	1289432.625
184.016006	171447072.0
184.043213	828244.125
184.05011	1270457.75
187.003174	2110971.0
200.827316	348228.59375
204.769684	343383.34375
211.027008	482504.75
212.034668	39068792.0
226.985214	598335.5
226.998322	1188287.0
227.011612	3234588.0
227.021088	3019590.25
227.058075	439285600.0
227.095596	2193652.25
227.104813	3116207.25
227.11792	1025011.5
227.145508	442765.96875
300.147125	69136064.0
300.240967	353507.75
END IONS

BEGIN IONS
PEPMASS=267.171
CHARGE=1
MSLEVEL=2
SOURCE_INSTRUMENT=LC-ESI-Orbitrap
FILENAME=all_ms2.mgf
SEQ=*..*
IONMODE=Positive
ORGANISM=GNPS-LIBRARY
NAME=Atenolol [M+H]+
PI=Pieter Dorrestein
DATACOLLECTOR=Minions
SMILES=CC(C)NCC(O)COc1ccc(CC(N)=O)cc1
INCHI="InChI=1S/C14H22N2O3/c1-10(2)16-8-12(17)9-19-13-5-3-11(4-6-13)7-14(15)18/h3-6,10,12,16-17H,7-9H2,1-2H3,(H2,15,18)"
INCHIAUX=
PUBMED=drug_mix_all_combined.mzML:scan:558
SUBMITUSER=jzemlin
LIBRARYQUALITY=1
SPECTRUMID=CCMSLIB00015625874
USI=mzspec:GNPS:GNPS-LIBRARY:accession:CCMSLIB00015625874
SCANS=49
55.621639	29554.947266
56.047951	52966.867188
56.050449	778025.3125
58.065979	134934.046875
66.791687	39802.730469
72.081596	1388736.625
74.060867	2271558.25
77.850357	40264.347656
84.081306	44995.863281
90.39753	30220.841797
90.765518	38830.769531
91.054893	134568.421875
92.549469	81824.476562
93.070427	116910.382812
98.090462	59899.621094
98.097008	1526685.0
100.112633	67938.3125
106.066002	44010.183594
107.04966	222769.828125
115.05481	88449.0625
116.09893	76926.507812
116.107353	2414274.5
116.115761	56081.671875
117.070419	229695.96875
119.049438	312429.25
121.06498	460273.25
122.060532	88109.351562
130.018585	47127.304688
131.049515	60194.746094
133.064972	1258187.5
133.205536	43560.566406
134.060272	136856.3125
137.059875	40068.808594
142.067581	35613.941406
145.064911	6466232.0
147.043915	372210.25
147.080414	63469.1875
152.070847	127298.140625
161.059769	93042.609375
162.066528	139307.84375
162.091446	916710.3125
163.075241	179439.234375
164.070724	682577.875
173.059814	642674.875
178.070419	48991.160156
178.074677	30147.324219
178.086334	1440754.125
178.102356	42544.320312
180.10202	1001748.625
182.081207	272729.625
183.558914	37413.4375
187.111755	52009.964844
190.086349	5663133.5
204.13826	108245.890625
207.113342	109691.914062
208.076385	49470.4375
208.096878	1858334.625
222.150299	44064.527344
225.10054	80163.945312
225.123367	2676318.0
232.133759	67881.4375
248.673355	42536.644531
249.159668	348364.84375
250.14357	165825.3125
258.682831	45078.476562
267.094574	53922.074219
267.111389	189351.53125
267.17038	25374786.0
267.217865	109060.742188
267.230042	182597.609375
END IONS

BEGIN IONS
PEPMASS=281.071
CHARGE=1
MSLEVEL=2
SOURCE_INSTRUMENT=LC-ESI-qTof
FILENAME=Sulfameter.mgf
SEQ=*..*
IONMODE=Positive
ORGANISM=GNPS-SELLECKCHEM-FDA-PART1
NAME=Sulfameter M+H
PI=Sirenas
DATACOLLECTOR=Ed Esquenazi 
SMILES=COC1=CN=C(N=C1)NS(=O)(=O)C2=CC=C(C=C2)N
INCHI=InChI=1S/C11H12N4O3S/c1-18-9-6-13-11(14-7-9)15-19(16,17)10-4-2-8(12)3-5-10/h2-7H,12H2,1H3,(H,13,14,15)
INCHIAUX=N/A
PUBMED=N/A
SUBMITUSER=mwang87
LIBRARYQUALITY=3
SPECTRUMID=CCMSLIB00000004311
USI=mzspec:GNPS:GNPS-SELLECKCHEM-FDA-PART1:accession:CCMSLIB00000004311
SCANS=1
108.043983	2805.253906
111.043098	81.183861
124.0504	279.655914
125.057838	276.723785
126.066261	4185.421875
156.011337	14870.25
172.071869	84.403297
188.012375	5425.542969
190.095245	79.498962
215.092361	4441.321777
217.107651	588.679504
263.060516	310.812012
279.32486	82.689934
279.359619	70.675522
279.46106	108.648201
279.504578	95.254303
279.543671	78.757347
279.595032	110.703598
281.013092	120.614304
281.070557	70093.953125
281.704926	92.813141
281.730377	74.017387
281.775513	91.50415
281.900574	85.08876
END IONS

BEGIN IONS
PEPMASS=666.313
CHARGE=1
MSLEVEL=2
SOURCE_INSTRUMENT=LC-ESI-qTof
FILENAME=Natamycin.mgf
SEQ=*..*
IONMODE=Positive
ORGANISM=GNPS-SELLECKCHEM-FDA-PART1
NAME=Natamycin M+H
PI=Sirenas
DATACOLLECTOR=Ed Esquenazi 
SMILES=C[C@@H]1C/C=C/C=C/C=C/C=C/[C@@H](C[C@H]2[C@@H]([C@H](C[C@](O2)(C[C@H](C[C@@H]3[C@H](O3)/C=C/C(=O)O1)O)O)O)C(=O)O)O[C@H]4[C@H]([C@H]([C@@H]([C@H](O4)C)O)N)O
INCHI=InChI=1S/C33H47NO13/c1-18-10-8-6-4-3-5-7-9-11-21(45-32-30(39)28(34)29(38)19(2)44-32)15-25-27(31(40)41)22(36)17-33(42,47-25)16-20(35)14-24-23(46-24)12-13-26(37)43-18/h3-9,11-13,18-25,27-30,32,35-36,38-39,42H,10,14-17,34H2,1-2H3,(H,40,41)/b4-3+,7-5+,8-6+,11-9+,13-12+/t18-,19-,20+,21+,22+,23-,24-,25+,27-,28+,29-,30+,32+,33-/m1/s1
INCHIAUX=N/A
PUBMED=N/A
SUBMITUSER=mwang87
LIBRARYQUALITY=3
SPECTRUMID=CCMSLIB00000004692
USI=mzspec:GNPS:GNPS-SELLECKCHEM-FDA-PART1:accession:CCMSLIB00000004692
SCANS=1
105.066742	26.504169
119.083008	46.955681
135.044434	3.007813
157.098907	20.981939
163.520325	4.004167
167.084457	36.481129
181.083389	25.01042
182.202362	8.822322
183.114853	15.48532
185.131271	10.16736
203.142685	109.573799
205.714294	3.264803
215.334854	1.836806
231.065933	22.698891
231.093384	25.452829
243.132584	10.61343
243.172379	14.12247
245.092087	6.28125
259.135803	14.36736
271.172028	8.264706
273.06604	6.025
277.063568	35.027889
323.822052	5.104167
329.916626	7.052802
339.157257	24.759701
343.164917	28.52857
345.175842	29.82008
355.113037	6.3375
367.113495	22.32143
386.48349	10.14349
392.146393	1.760417
401.174286	3.75
405.071075	2.25625
405.205322	14.53846
406.354218	4.322917
423.316284	8.05
423.574402	9.184028
423.616943	6.03125
431.198914	34.419079
441.226807	92.101707
443.565674	1.765625
449.190674	49.976662
449.208313	37.396969
449.79303	6.84375
450.000183	3.398897
465.330719	3.55625
467.204712	268.719086
467.291443	1.502841
468.006134	13.53204
468.533112	6.420139
468.630798	13.27889
468.962433	6.002976
482.201141	1.520833
482.384247	5.572321
483.210052	3.060096
484.817139	14.75231
484.947296	9.674569
485.21875	307.509308
485.573456	9.974457
485.646881	2.53125
485.744324	4.322917
485.862152	9.541881
485.97467	6.793478
486.182007	12.66716
486.965363	6.389009
487.335022	4.620066
488.039764	5.195602
500.094696	4.27694
500.872986	3.005682
503.22702	390.672211
503.492432	4.755208
503.556122	23.12326
503.913727	5.65125
504.344086	12.53561
546.901672	29.32654
567.000244	26.972321
604.530029	5.3125
604.863647	7.253472
605.248779	8.521739
630.277832	54.779499
639.252747	5.05
647.9422	17.29495
648.30304	250.741501
648.632019	8.250947
648.887024	5.266667
649.32135	10.29002
649.68927	1.375
664.066467	4.620066
666.311584	85.594437
666.372437	3.291118
666.651917	14.1509
667.064087	9.863426
668.034851	3.25
668.510864	3.560096
670.121948	11.9712
847.304077	3.142857
1462.457397	1.265625
END IONS

BEGIN IONS
PEPMASS=352.997
CHARGE=1
MSLEVEL=2
SOURCE_INSTRUMENT=LC-ESI-qTof
FILENAME=Furosemide.mgf
SEQ=*..*
IONMODE=Positive
ORGANISM=GNPS-SELLECKCHEM-FDA-PART1
NAME=Furosemide M+H
PI=Sirenas
DATACOLLECTOR=Ed Esquenazi 
SMILES=C1=COC(=C1)CNC2=CC(=C(C=C2C(=O)O)S(=O)(=O)N)Cl
INCHI=InChI=1S/C12H11ClN2O5S/c13-9-5-10(15-6-7-2-1-3-20-7)8(12(16)17)4-11(9)21(14,18)19/h1-5,15H,6H2,(H,16,17)(H2,14,18,19)
INCHIAUX=N/A
PUBMED=N/A
SUBMITUSER=mwang87
LIBRARYQUALITY=3
SPECTRUMID=CCMSLIB00000005254
USI=mzspec:GNPS:GNPS-SELLECKCHEM-FDA-PART1:accession:CCMSLIB00000005254
SCANS=1
273.0065	131.353607
274.138763	15.5503
276.038239	52.882351
309.004395	121.148003
309.111786	20.63158
350.854065	12.62348
352.996826	623.115601
353.23822	23.120001
353.389069	10.92045
353.554291	31.00128
353.609344	15.025
370.970673	24.962959
END IONS

BEGIN IONS
PEPMASS=589.193
CHARGE=1
MSLEVEL=2
SOURCE_INSTRUMENT=LC-ESI-qTof
FILENAME=Etoposide.mgf
SEQ=*..*
IONMODE=Positive
ORGANISM=GNPS-SELLECKCHEM-FDA-PART1
NAME=Etoposide M+H
PI=Sirenas
DATACOLLECTOR=Ed Esquenazi 
SMILES=C[C@@H]1OC[C@@H]2[C@@H](O1)[C@@H]([C@H]([C@@H](O2)O[C@H]3[C@H]4COC(=O)[C@@H]4[C@@H](C5=CC6=C(C=C35)OCO6)C7=CC(=C(C(=C7)OC)O)OC)O)O
INCHI=InChI=1S/C29H32O13/c1-11-36-9-20-27(40-11)24(31)25(32)29(41-20)42-26-14-7-17-16(38-10-39-17)6-13(14)21(22-15(26)8-37-28(22)33)12-4-18(34-2)23(30)19(5-12)35-3/h4-7,11,15,20-22,24-27,29-32H,8-10H2,1-3H3/t11-,15+,20-,21-,22+,24-,25-,26-,27-,29+/m1/s1
INCHIAUX=N/A
PUBMED=N/A
SUBMITUSER=mwang87
LIBRARYQUALITY=3
SPECTRUMID=CCMSLIB00000005536
USI=mzspec:GNPS:GNPS-SELLECKCHEM-FDA-PART1:accession:CCMSLIB00000005536
SCANS=1
127.03759	182.331696
127.245224	32.530411
127.284416	12.0875
128.059204	85.82
128.157715	32.719509
129.054962	87.000458
144.240036	11.00833
145.048264	405.004486
145.097122	3.0625
155.281799	27.510229
155.508057	5.889423
168.07338	52.612068
170.25296	18.54044
171.063004	204.478394
171.617386	6.524457
171.681198	6.502976
173.061646	162.726196
173.129211	3.520833
174.087219	14.25
175.057739	54.40625
183.940155	30.30969
183.992035	21.031891
184.162094	43.56377
184.360352	54.210361
184.880844	6.890625
184.998932	51.183708
185.059235	2889.750977
185.117447	33.713131
185.135773	3.025
185.235428	30.36574
185.373001	13.8
185.40094	17.548611
185.432449	10.94643
185.459854	13.88461
185.480515	9.0625
185.516205	21.280519
185.547897	48.24194
185.576797	9.002976
185.675781	8.653846
185.704086	64.034477
185.757477	26.455641
186.302048	21.390631
187.424362	9.506945
189.009018	23.328409
189.075897	565.963074
189.116135	10.76563
189.128708	6.4375
189.281631	6.513889
189.328827	11.95924
189.70343	16.121321
190.535324	14.6875
199.039154	60.167992
199.161682	6.125
201.071014	47.018379
207.082199	41.440971
217.046967	244.142899
217.110275	2.5
217.407898	18.533331
227.593643	21.032141
227.666031	65.022346
227.71962	13.55921
227.746017	28.504471
227.762451	7.944853
227.808868	21.509529
227.828796	21.694441
227.863342	76.964973
227.905243	26.254801
227.940338	12.16667
228.039963	23.59111
228.069656	27.11731
228.103012	20.65765
228.234558	28.62398
228.350159	17.075001
228.45575	19.5322
228.491989	14.56618
228.507767	8.0
228.770782	30.0
228.814911	30.10417
228.888184	30.14271
228.999146	276.821686
229.049393	28491.859375
229.134491	120.764999
229.167755	26.26042
229.193802	17.174999
229.214874	48.072529
229.239532	83.762619
229.256836	28.2435
229.283203	56.313801
229.314224	77.717743
229.335266	106.730499
229.365936	57.613392
229.399872	40.943829
229.413177	14.51136
229.439499	47.003681
229.466202	97.626488
229.486954	24.191669
229.527969	105.405197
229.55899	27.891199
229.584122	32.269989
229.665573	30.520361
229.684952	17.202499
229.771194	37.325539
229.791031	34.444439
229.904236	28.692051
229.921616	50.946461
230.106918	7.9
230.192917	20.96023
230.257156	21.254471
230.282806	53.054241
230.558044	12.51197
230.574982	12.89286
230.590118	29.065161
230.797012	23.55769
230.954422	3.6
231.155334	16.214279
231.213516	20.538111
231.414154	29.16667
231.499268	4.571429
231.949738	3.625
232.060684	5.503676
232.087173	14.01923
232.139694	9.604167
235.744003	8.446428
238.603622	37.815788
244.464172	10.52632
245.771362	19.34914
245.811905	15.00893
245.854706	4.28125
246.240219	5.735577
247.059937	2782.250977
247.125809	2.580357
247.158524	12.09375
247.185852	23.023809
247.224228	11.11765
247.269119	19.566669
247.31723	11.06618
247.353378	17.754049
247.434586	8.125
247.46109	39.81591
247.514221	20.52273
247.919403	8.010417
248.001587	20.50099
248.76918	11.51815
267.063782	18.0152
298.075531	33.520828
299.001404	60.0
299.092651	272.176514
303.276062	5.0125
339.118286	56.51796
365.103821	53.511909
381.225555	14.32721
381.24295	5.520833
381.392883	55.797791
383.113007	1433.479004
383.331146	7.011364
383.405426	11.66118
383.474213	14.0504
383.597839	21.63908
383.635071	16.724541
383.871887	33.450958
384.014648	4.9
384.038361	9.3375
384.081573	30.582769
384.203491	17.08696
386.115173	19.27574
387.526031	26.5625
401.122406	36.837502
407.107422	48.66605
417.113007	10.01136
432.369568	17.714279
432.565704	12.9225
433.100464	7.0
433.165649	9.5
433.390137	4.551136
433.965302	33.04438
434.216125	8.533334
434.498901	11.28125
435.128693	2225.900879
435.289856	52.033588
435.350464	10.22321
435.421173	20.336281
435.44989	31.203211
435.500122	25.03064
435.609222	21.58737
435.667206	16.58882
435.696442	6.6875
435.73468	21.71875
435.834229	3.505682
435.968597	9.75
436.018311	21.235291
436.880646	8.645833
437.677277	16.9375
439.741943	9.847222
440.481049	5.0125
443.128296	36.01717
585.223083	10.00893
585.506226	3.5
585.549133	6.285714
586.39093	8.909091
587.680115	16.112499
588.447632	42.565109
589.139404	15.01563
589.187927	1308.689941
589.279297	6.5625
589.308899	8.086538
589.368896	13.07143
589.503113	9.5025
589.536987	22.9025
589.596008	10.05
589.747742	26.797791
589.779236	34.843449
589.934021	11.00735
589.959351	14.53325
590.302734	9.1875
590.526855	53.289982
590.728699	28.01786
591.337463	11.5875
592.736267	7.5625
599.997864	22.59766
1434.689575	11.34028
END IONS

BEGIN IONS
PEPMASS=366.068
CHARGE=1
MSLEVEL=2
SOURCE_INSTRUMENT=LC-ESI-qTof
FILENAME=Indapamide.mgf
SEQ=*..*
IONMODE=Positive
ORGANISM=GNPS-SELLECKCHEM-FDA-PART1
NAME=Indapamide M+H
PI=Sirenas
DATACOLLECTOR=Ed Esquenazi 
SMILES=CC1CC2=CC=CC=C2N1NC(=O)C3=CC(=C(C=C3)Cl)S(=O)(=O)N
INCHI=InChI=1S/C16H16ClN3O3S/c1-10-8-11-4-2-3-5-14(11)20(10)19-16(21)12-6-7-13(17)15(9-12)24(18,22)23/h2-7,9-10H,8H2,1H3,(H,19,21)(H2,18,22,23)
INCHIAUX=N/A
PUBMED=N/A
SUBMITUSER=mwang87
LIBRARYQUALITY=3
SPECTRUMID=CCMSLIB00000005620
USI=mzspec:GNPS:GNPS-SELLECKCHEM-FDA-PART1:accession:CCMSLIB00000005620
SCANS=1
106.06501	118.827904
117.056602	310.895599
118.063705	92.94561
131.419098	61.252529
131.470062	40.49506
131.493576	82.217278
132.080933	40391.101562
132.447754	68.830353
132.578369	86.16626
132.642731	48.672329
217.966873	195.145004
234.99353	519.224426
348.056549	92.613632
366.066406	2735.074951
END IONS

BEGIN IONS
PEPMASS=309.16
CHARGE=1
MSLEVEL=2
SOURCE_INSTRUMENT=LC-ESI-qTof
FILENAME=Phenylbutazone.mgf
SEQ=*..*
IONMODE=Positive
ORGANISM=GNPS-SELLECKCHEM-FDA-PART1
NAME=Phenylbutazone M+H
PI=Sirenas
DATACOLLECTOR=Ed Esquenazi 
SMILES=CCCCC1C(=O)N(N(C1=O)C2=CC=CC=C2)C3=CC=CC=C3
INCHI=InChI=1S/C19H20N2O2/c1-2-3-14-17-18(22)20(15-10-6-4-7-11-15)21(19(17)23)16-12-8-5-9-13-16/h4-13,17H,2-3,14H2,1H3
INCHIAUX=N/A
PUBMED=N/A
SUBMITUSER=mwang87
LIBRARYQUALITY=3
SPECTRUMID=CCMSLIB00000006293
USI=mzspec:GNPS:GNPS-SELLECKCHEM-FDA-PART1:accession:CCMSLIB00000006293
SCANS=1
101.001984	45.761909
104.048424	41.440479
120.043655	692.418274
125.060616	27.17391
132.045258	60.010071
133.049469	30.215
134.061676	14.72727
145.058411	48.98148
146.057602	50.50005
148.111038	50.385761
160.110703	93.453484
162.126663	94.411011
163.136917	38.477509
168.98735	78.918419
174.058228	22.70709
187.164398	12.52365
188.105667	580.720581
189.370056	15.42857
190.120834	561.831726
190.192444	18.310829
190.328201	13.42014
190.406525	40.646259
190.463028	12.30682
191.041748	15.92157
200.105881	15.55254
211.086609	285.016815
216.100922	164.598602
230.95697	61.53487
231.103821	65.096733
253.092148	114.641098
260.102142	10.75788
263.149811	17.52355
265.167206	58.506721
272.87793	16.471149
281.159973	21.760559
291.146881	27.798401
307.229919	14.96333
309.130463	14.99322
309.158539	3769.616943
309.239685	23.27648
309.274628	41.994061
309.373108	15.81944
309.429443	16.800871
309.527405	25.440861
309.57486	35.929871
309.61142	21.91468
309.642029	11.9616
309.69101	10.71204
309.755798	28.36006
309.802826	13.27083
309.830109	17.40909
309.853363	16.45833
309.892273	13.0997
309.935944	23.05426
309.973602	12.0375
310.110504	19.12855
310.328033	26.110661
310.665283	21.04623
310.910797	11.5126
311.395294	10.33772
END IONS

BEGIN IONS
PEPMASS=609.282
CHARGE=1
MSLEVEL=2
SOURCE_INSTRUMENT=LC-ESI-qTof
FILENAME=Reserpine.mgf
SEQ=*..*
IONMODE=Positive
ORGANISM=GNPS-SELLECKCHEM-FDA-PART1
NAME=Reserpine M+H
PI=Sirenas
DATACOLLECTOR=Ed Esquenazi 
SMILES=CO[C@H]1[C@@H](C[C@@H]2CN3CCC4=C([C@H]3C[C@@H]2[C@@H]1C(=O)OC)NC5=C4C=CC(=C5)OC)OC(=O)C6=CC(=C(C(=C6)OC)OC)OC
INCHI=InChI=1S/C33H40N2O9/c1-38-19-7-8-20-21-9-10-35-16-18-13-27(44-32(36)17-11-25(39-2)30(41-4)26(12-17)40-3)31(42-5)28(33(37)43-6)22(18)15-24(35)29(21)34-23(20)14-19/h7-8,11-12,14,18,22,24,27-28,31,34H,9-10,13,15-16H2,1-6H3/t18-,22+,24-,27-,28+,31+/m1/s1
INCHIAUX=N/A
PUBMED=N/A
SUBMITUSER=mwang87
LIBRARYQUALITY=3
SPECTRUMID=CCMSLIB00000006371
USI=mzspec:GNPS:GNPS-SELLECKCHEM-FDA-PART1:accession:CCMSLIB00000006371
SCANS=1
131.070435	59.40023
167.065704	73.989616
174.090912	325.680115
195.062454	635.582703
198.099899	36.421829
214.105118	38.306999
224.135086	34.679489
236.126053	43.832142
265.121582	88.807518
274.117004	32.08482
368.149109	57.008438
397.212433	454.460999
448.194733	50.41053
579.415649	30.412451
604.751648	77.757263
605.192444	73.64325
605.305359	38.05555
605.40686	46.236401
605.455383	74.844437
605.593994	66.549858
605.651672	40.317902
606.833984	27.05336
608.137695	110.203003
608.259155	41.21505
609.000549	30.9543
609.198547	254.173599
609.279663	24126.460938
609.386292	33.81897
609.445801	119.522003
609.528381	169.231201
609.598999	58.624409
609.639954	196.836807
609.724915	112.777496
609.778992	142.997299
609.852234	126.559601
609.897705	164.527802
609.920837	127.355202
610.007019	34.757671
610.074707	130.335205
610.51062	99.263496
613.294006	33.4506
616.035034	24.215879
END IONS

BEGIN IONS
PEPMASS=319.104
CHARGE=1
MSLEVEL=2
SOURCE_INSTRUMENT=LC-ESI-qTof
FILENAME=Chlorpromazine.mgf
SEQ=*..*
IONMODE=Positive
ORGANISM=GNPS-SELLECKCHEM-FDA-PART1
NAME=Chlorpromazine M+H
PI=Sirenas
DATACOLLECTOR=Ed Esquenazi 
SMILES=CN(C)CCCN1C2=CC=CC=C2SC3=C1C=C(C=C3)Cl
INCHI=InChI=1S/C17H19ClN2S/c1-19(2)10-5-11-20-14-6-3-4-7-16(14)21-17-9-8-13(18)12-15(17)20/h3-4,6-9,12H,5,10-11H2,1-2H3
INCHIAUX=N/A
PUBMED=N/A
SUBMITUSER=mwang87
LIBRARYQUALITY=3
SPECTRUMID=CCMSLIB00000006517
USI=mzspec:GNPS:GNPS-SELLECKCHEM-FDA-PART1:accession:CCMSLIB00000006517
SCANS=1
124.785179	12.00095
130.059265	19.10619
136.614349	10.77799
137.039124	8.735
152.057007	9.459239
162.03923	3.066667
162.972504	76.781189
167.450851	12.64198
171.02565	24.448771
179.072464	24.211069
198.03894	20.82354
200.265091	13.45043
200.381638	23.50308
204.081497	13.55172
206.095795	51.451771
211.043091	62.5518
213.012329	14.92596
213.03241	20.75379
214.043594	168.450699
215.487625	16.26573
231.997131	14.94934
233.004776	118.611
238.068634	75.175278
239.075439	1405.415039
239.346603	14.2717
240.053345	20.70417
240.98558	196.471893
241.039093	2.501602
241.27507	3.408334
241.92189	2.75947
242.071075	19.615709
245.959793	10.5125
246.013855	2095.256104
246.275925	18.391159
246.315292	18.50104
246.339249	11.8779
246.575104	13.94712
259.02533	31.235689
268.102875	34.078072
272.023071	10.54757
272.481903	17.697281
272.502289	19.970831
273.911713	12.47917
273.96582	19.656481
274.005157	31.345751
274.0448	2063.198975
274.269714	14.55388
274.356964	19.555559
274.488037	15.21109
274.748718	13.21105
275.080566	8.316886
275.338135	33.701389
276.977997	15.46032
289.655731	19.5
295.35672	13.28656
302.176758	5.884804
304.077087	16.561769
316.064392	12.35417
316.957886	43.83025
316.990997	45.785999
317.022491	91.672997
317.069763	191.203705
317.120605	307.974213
317.141235	4.51796
317.16156	161.371704
317.186798	300.693512
317.222168	242.466904
317.24469	97.371597
317.270996	362.810211
317.31189	178.371506
317.332123	125.808502
317.359863	147.9776
317.388855	124.681099
317.43158	235.767502
317.502716	214.076508
317.540375	162.618195
317.585449	79.271103
317.662994	221.619904
317.706421	19.36694
317.785675	23.919359
317.917816	40.79361
317.957123	21.5
317.978149	89.098129
318.126862	41.009258
318.392975	80.525879
318.465576	71.966476
318.602386	34.406712
318.622589	49.277401
318.644257	35.918499
318.707886	55.865021
318.737885	39.16272
318.78067	45.898869
318.851105	32.527569
318.923767	118.771301
318.944916	32.896118
319.002991	195.118301
319.024872	167.145798
319.104828	322500.40625
319.369934	1.701389
319.529999	2.380682
319.703644	212.856796
319.731384	76.019478
319.763123	118.469101
319.812683	273.260712
319.845795	219.892197
319.877289	172.666901
319.910187	295.382599
319.95813	212.342499
320.045166	208.381897
320.084656	7.681667
320.183075	301.540985
320.215637	50.255409
320.248993	14.81481
320.291016	28.351391
320.393616	45.32349
320.435638	54.86879
320.47879	122.758301
320.577179	54.267979
320.627625	23.83
320.645996	40.346161
320.795868	27.85532
321.090179	107.640297
321.121521	33.54113
321.154327	12.38978
321.202484	13.69764
321.238556	10.11989
321.271515	18.826771
321.349823	28.965521
321.38501	37.75695
321.423309	10.14881
321.452484	48.66412
321.51001	31.744921
321.549591	15.53762
321.607727	32.807171
321.86969	14.50521
321.983643	27.19891
322.030609	32.304668
322.152283	21.583509
322.180206	21.465281
322.220306	18.225849
322.321533	12.38736
322.419128	12.1875
322.462189	6.160088
322.66806	22.87578
322.919495	15.75444
323.072876	13.34099
323.398468	9.004167
323.48288	13.54955
324.81369	7.674603
325.937286	8.755208
326.471863	14.09524
332.768127	13.51412
336.153778	8.970052
343.224976	7.401389
528.163818	1.6875
1336.96814	20.36223
END IONS

BEGIN IONS
PEPMASS=256.17
CHARGE=1
MSLEVEL=2
SOURCE_INSTRUMENT=LC-ESI-qTof
FILENAME=Diphenylhydramine.mgf
SEQ=*..*
IONMODE=Positive
ORGANISM=GNPS-SELLECKCHEM-FDA-PART1
NAME=Diphenylhydramine M+H
PI=Sirenas
DATACOLLECTOR=Ed Esquenazi 
SMILES=CN(C)CCOC(C1=CC=CC=C1)C2=CC=CC=C2
INCHI=InChI=1S/C17H21NO/c1-18(2)13-14-19-17(15-9-5-3-6-10-15)16-11-7-4-8-12-16/h3-12,17H,13-14H2,1-2H3
INCHIAUX=N/A
PUBMED=N/A
SUBMITUSER=mwang87
LIBRARYQUALITY=3
SPECTRUMID=CCMSLIB00000006568
USI=mzspec:GNPS:GNPS-SELLECKCHEM-FDA-PART1:accession:CCMSLIB00000006568
SCANS=1
100.999283	31.52371
101.92038	56.4767
113.367065	84.561829
115.056763	79.322762
128.059677	40.105919
134.952316	25.000879
141.070404	173.019897
150.041504	42.8064
151.053146	286.692688
152.061172	1956.753052
152.739227	39.00066
155.988358	113.719101
164.168503	57.889832
165.036087	44.220242
165.069504	2154.041016
165.099854	2.5
165.133438	109.863602
165.250595	42.24004
165.601196	52.708328
165.975098	51.290321
166.077057	810.8797
166.111053	259.0513
166.13768	333.47879
166.167923	490.733795
166.227188	381.820709
166.253128	202.252808
166.273819	381.537994
166.337311	450.229797
166.358932	314.244995
166.396286	204.565704
166.410858	155.295105
166.450516	85.615387
166.49324	79.520416
166.547104	75.840279
166.59314	61.951611
166.803406	67.617729
166.933395	68.855072
166.963577	57.368061
166.993546	60.420609
167.086197	392689.8125
167.241653	18.04167
167.329041	21.33333
167.486786	51.864639
167.523193	246.631195
167.568817	174.719604
167.597275	151.565598
167.63945	235.916107
167.648163	16.595591
167.671112	243.925903
167.73204	316.268402
167.781967	127.822098
167.822372	107.857201
167.87384	69.356323
167.929871	64.533577
167.99559	136.144394
168.045914	136.746094
168.205231	73.780838
168.29483	124.879799
168.422302	127.347298
168.468903	47.43578
168.545105	97.043213
168.605728	72.586433
168.701965	45.796799
168.74176	43.169701
168.791748	87.406578
168.823914	52.512798
169.066376	69.530937
169.452942	39.050301
169.551025	43.75
169.899994	62.776409
170.271652	49.743919
170.529404	51.180481
178.945984	148.027496
179.038559	8.640625
256.169739	2695.955078
256.258026	58.851849
256.395935	44.07692
715.434021	50.65094
END IONS

BEGIN IONS
PEPMASS=361.139
CHARGE=1
MSLEVEL=2
SOURCE_INSTRUMENT=LC-ESI-qTof
FILENAME=Plate7_61_80_GD5_01_15771.mzXML
SEQ=*..*
IONMODE=Positive
ORGANISM=GNPS-SELLECKCHEM-FDA-PART2
NAME=Nitrendipine [M+H]
PI=Dorrestein
DATACOLLECTOR=Garg_Neha
SMILES=C1=CC(=CC(=C1)[N+]([O-])=O)C2C(=C(NC(=C2C(=O)OC)C)C)C(=O)OCC
INCHI=N/A
INCHIAUX=N/A
PUBMED=N/A
SUBMITUSER=negarg
LIBRARYQUALITY=1
SPECTRUMID=CCMSLIB00000078489
USI=mzspec:GNPS:GNPS-SELLECKCHEM-FDA-PART2:accession:CCMSLIB00000078489
SCANS=1932
45.421131	200.0
48.186886	164.0
48.709179	212.0
51.312962	164.0
51.46706	152.0
52.323051	148.0
54.289143	148.0
55.851822	168.0
58.307304	140.0
61.591045	172.0
62.971737	188.0
64.085396	144.0
64.471573	164.0
65.178627	240.0
65.829079	152.0
66.577278	152.0
67.475128	148.0
68.360893	180.0
68.999245	148.0
69.650528	156.0
71.560425	144.0
71.573891	144.0
71.958328	176.0
73.574661	188.0
75.198586	180.0
75.31427	188.0
75.462891	156.0
76.216896	192.0
76.272507	204.0
83.913788	152.0
84.94342	160.0
85.161858	188.0
85.494637	248.0
87.04567	144.0
87.512398	180.0
87.849731	180.0
88.432747	156.0
89.874176	140.0
90.858047	148.0
90.987099	168.0
91.761452	200.0
94.535255	220.0
94.957603	144.0
95.072067	144.0
96.773849	200.0
100.869339	148.0
101.089348	152.0
106.064789	180.0
110.617325	184.0
111.118202	148.0
111.279816	140.0
111.893745	196.0
113.103394	184.0
113.442329	224.0
113.788139	196.0
114.517548	164.0
115.057053	172.0
115.277061	192.0
115.743393	140.0
115.979057	144.0
116.631599	148.0
116.949944	176.0
117.158821	156.0
118.470169	180.0
119.288307	164.0
120.061272	172.0
120.644279	180.0
121.025787	208.0
121.099426	204.0
124.949432	172.0
125.950378	232.0
126.053383	348.0
126.455711	160.0
126.558685	232.0
128.058838	164.0
128.629318	216.0
129.033707	176.0
130.039505	436.0
130.075363	160.0
131.069702	236.0
131.434555	208.0
131.455093	180.0
132.97702	148.0
133.535324	144.0
134.05629	132.0
135.664352	220.0
135.743195	176.0
136.08197	168.0
138.233459	248.0
138.252182	164.0
139.051376	204.0
140.067947	316.0
140.39003	240.0
141.093689	140.0
141.488785	176.0
142.078918	164.0
143.255707	196.0
144.07724	120.0
145.095703	196.0
147.044373	148.0
148.038025	164.0
148.134903	144.0
148.251205	196.0
150.018021	440.0
150.051788	256.0
151.064514	204.0
151.325348	156.0
151.467392	192.0
152.059662	276.0
153.065613	168.0
153.973785	164.0
154.065186	148.0
154.084152	124.0
155.048172	276.0
155.067352	296.0
156.052612	176.0
156.080246	156.0
158.067276	188.0
159.028214	148.0
159.470276	144.0
162.183685	168.0
163.351761	148.0
163.713196	172.0
164.049515	172.0
164.541901	160.0
164.766647	144.0
165.068634	168.0
165.741486	196.0
165.777359	192.0
165.96962	180.0
166.057831	152.0
166.075775	184.0
166.783463	144.0
167.014877	152.0
167.075043	196.0
167.993744	204.0
168.054611	328.0
168.0793	1828.0
168.112442	188.0
169.079788	516.0
169.335312	168.0
170.057938	448.0
170.999588	176.0
171.05101	284.0
171.103073	308.0
171.259964	152.0
172.07428	120.0
172.104919	472.0
172.128418	156.0
172.76355	268.0
173.083145	268.0
174.066498	324.0
174.083328	364.0
175.579407	176.0
175.880203	220.0
176.035675	808.0
176.871445	140.0
177.036423	256.0
177.594818	144.0
178.04805	292.0
179.095215	168.0
180.035446	156.0
180.079987	664.0
181.040985	172.0
181.088791	368.0
181.378586	128.0
182.060074	168.0
182.094299	812.0
182.154083	168.0
182.751358	176.0
182.799362	172.0
182.947403	172.0
183.065872	156.0
183.103271	1144.0
184.070557	328.0
184.107437	144.0
184.831329	160.0
185.073685	440.0
186.023849	144.0
186.055557	328.0
186.082657	128.0
186.801056	180.0
187.0625	160.0
187.098373	200.0
187.893494	172.0
188.065414	160.0
189.064362	476.0
190.046936	140.0
191.071609	204.0
191.682877	200.0
191.892365	144.0
192.064911	148.0
192.085419	164.0
192.692764	140.0
193.074234	380.0
194.057632	128.0
194.086121	192.0
194.270828	164.0
195.061371	288.0
196.073959	1096.0
196.107834	136.0
197.060135	300.0
197.080719	524.0
197.11232	332.0
198.056015	268.0
198.087936	468.0
198.467834	196.0
198.936951	200.0
199.064697	160.0
199.094467	536.0
200.033096	612.0
200.074524	156.0
200.094528	144.0
201.034882	308.0
201.887054	148.0
202.048279	168.0
202.085052	196.0
203.090912	276.0
204.08606	196.0
205.585938	140.0
206.039948	140.0
207.066055	152.0
208.074585	1304.0
208.179626	140.0
208.809021	240.0
209.08194	2252.0
210.089203	4864.0
211.095032	1976.0
211.883316	172.0
212.070877	1124.0
212.104233	696.0
213.078186	100.0
213.102631	360.0
213.290787	152.0
214.047989	488.0
214.084595	436.0
214.115707	140.0
214.542542	180.0
215.057266	364.0
215.08989	528.0
215.68396	172.0
216.034866	140.0
216.06543	340.0
217.059845	920.0
218.05217	136.0
219.258957	168.0
219.713058	192.0
220.053726	156.0
222.053513	136.0
223.055969	132.0
223.085632	144.0
223.460968	140.0
224.075302	300.0
225.031708	148.0
225.072845	512.0
226.045868	152.0
226.084717	10496.0
227.084885	1568.0
227.138565	144.0
228.067642	544.0
228.089645	616.0
229.073166	120.0
229.102798	348.0
229.994202	176.0
230.063232	152.0
230.105896	208.0
230.296143	196.0
230.891556	140.0
231.080978	232.0
233.068161	140.0
235.063721	744.0
236.069473	884.0
236.379745	228.0
237.072128	452.0
238.070221	1352.0
238.106689	796.0
238.243942	152.0
239.081268	648.0
239.535995	152.0
239.579132	152.0
240.066849	552.0
240.095947	1012.0
240.556717	164.0
241.07135	880.0
241.10405	604.0
241.148026	140.0
242.045792	264.0
242.077682	1172.0
243.08577	2168.0
243.132156	184.0
243.649292	100.0
244.059341	136.0
244.0923	336.0
244.486984	156.0
245.045868	128.0
245.100067	132.0
246.929855	212.0
248.605972	156.0
249.067871	184.0
250.098877	116.0
250.55864	160.0
251.0466	124.0
251.874146	144.0
252.060669	156.0
252.635986	156.0
253.073303	1952.0
253.376801	144.0
254.079987	9748.0
254.143845	104.0
254.420212	196.0
254.70285	228.0
255.08371	5652.0
255.712967	140.0
255.995468	144.0
256.08902	1612.0
256.136414	116.0
256.800446	144.0
257.088654	776.0
258.071259	252.0
259.080933	156.0
262.212616	224.0
263.012512	176.0
263.939758	176.0
265.064209	128.0
266.067993	500.0
266.344513	208.0
267.084259	1288.0
267.928772	160.0
268.050232	160.0
268.095306	5228.0
268.1521	180.0
268.976715	172.0
269.066559	992.0
269.102295	4968.0
269.321716	148.0
269.66806	180.0
270.068268	864.0
270.104156	1052.0
271.039276	148.0
271.06897	376.0
271.102295	120.0
272.056519	140.0
272.093292	172.0
272.528992	220.0
272.880676	172.0
273.0914	336.0
273.216125	220.0
275.064697	140.0
276.943054	176.0
279.735687	196.0
280.086945	296.0
281.055481	152.0
281.091278	604.0
282.110931	488.0
282.940582	164.0
283.070007	5016.0
283.11853	768.0
283.188385	232.0
283.939148	200.0
284.076813	3512.0
284.966339	204.0
285.063141	2836.0
285.774902	144.0
286.066193	404.0
286.09491	500.0
287.077606	4532.0
288.078857	652.0
288.838928	128.0
289.087494	148.0
289.384827	220.0
290.269196	188.0
295.107849	140.0
296.199585	168.0
296.477112	140.0
297.086792	444.0
298.092743	3256.0
299.078247	2280.0
299.225128	176.0
299.934784	164.0
300.078217	856.0
300.338226	140.0
301.084717	8224.0
302.087952	2004.0
303.091309	320.0
303.424377	132.0
304.061157	148.0
304.111328	124.0
310.463165	216.0
311.315948	140.0
312.107971	896.0
312.662598	148.0
313.083588	576.0
313.338501	240.0
313.997681	260.0
314.089844	156.0
314.128754	176.0
314.265808	128.0
314.526947	140.0
314.562256	180.0
314.872986	168.0
314.972107	120.0
315.022736	176.0
315.097198	84776.0
315.359741	164.0
315.81424	208.0
315.956451	140.0
316.042969	292.0
316.099976	13660.0
316.17926	100.0
316.212952	140.0
316.275085	176.0
316.419891	104.0
316.613922	144.0
316.767548	108.0
316.822021	204.0
316.995636	140.0
317.103088	2388.0
317.83844	140.0
317.968719	104.0
317.998108	108.0
318.098694	548.0
318.131989	128.0
318.313232	140.0
318.360443	100.0
318.426544	156.0
319.13327	180.0
319.246307	148.0
327.684906	108.0
327.870819	148.0
328.659485	160.0
328.965363	204.0
329.113098	58676.0
329.384338	200.0
329.479065	120.0
330.06012	96.0
330.115051	9624.0
330.180023	204.0
331.117249	952.0
331.863983	100.0
332.039368	268.0
332.107971	136.0
332.217102	172.0
332.269257	128.0
332.347717	148.0
332.452393	128.0
332.601746	184.0
333.186432	140.0
339.658997	140.0
357.765503	188.0
359.121124	884.0
360.128723	452.0
361.137878	940.0
362.134064	176.0
362.265289	136.0
365.342102	140.0
365.500427	96.0
427.956085	144.0
1294.244385	148.0
1691.278809	152.0
1709.458008	192.0
1709.778931	208.0
1784.954102	140.0
1807.434448	160.0
1872.221436	168.0
1893.181396	160.0
1902.728271	184.0
1922.29541	188.0
1953.900879	192.0
END IONS

BEGIN IONS
PEPMASS=232.144
CHARGE=1
MSLEVEL=2
SOURCE_INSTRUMENT=LC-ESI-qTof
FILENAME=Plate9_81_88_Plate8_81_88_GC8_01_15759.mzXML
SEQ=*..*
IONMODE=Positive
ORGANISM=GNPS-SELLECKCHEM-FDA-PART2
NAME=Amidopyrine [M+H]
PI=Dorrestein
DATACOLLECTOR=Garg_Neha
SMILES=N1(N(C(C(=C1C)N(C)C)=O)C2C=CC=CC=2)C
INCHI=N/A
INCHIAUX=N/A
PUBMED=N/A
SUBMITUSER=negarg
LIBRARYQUALITY=1
SPECTRUMID=CCMSLIB00000078610
USI=mzspec:GNPS:GNPS-SELLECKCHEM-FDA-PART2:accession:CCMSLIB00000078610
SCANS=944
45.186512	152.0
48.479519	252.0
49.286625	188.0
49.364906	188.0
49.495045	172.0
52.567245	160.0
55.457401	196.0
63.878826	180.0
66.611732	196.0
81.228127	204.0
82.859642	144.0
84.965408	212.0
86.524582	144.0
91.778427	224.0
92.263382	144.0
97.075562	912.0
98.083931	1336.0
98.247589	176.0
99.090118	148.0
99.44812	164.0
105.028801	140.0
106.064796	220.0
106.599121	172.0
106.874657	148.0
107.777786	176.0
111.091682	2108.0
111.987854	168.0
112.095383	196.0
113.106903	5724.0
114.108025	444.0
114.817329	140.0
114.956001	184.0
117.926224	192.0
118.06562	384.0
120.071312	176.0
120.086578	232.0
121.333008	172.0
127.087791	164.0
128.95282	188.0
133.074524	176.0
134.061325	196.0
136.066757	148.0
139.085098	612.0
140.09166	180.0
146.062164	168.0
147.08989	124.0
149.106888	228.0
150.089767	152.0
150.11171	148.0
157.017242	152.0
159.089828	532.0
160.062073	148.0
171.8573	172.0
172.060883	156.0
174.11116	184.0
175.085968	476.0
175.107925	176.0
177.100739	532.0
177.619064	156.0
178.10733	148.0
187.086334	904.0
188.091263	128.0
188.980896	148.0
189.098572	140.0
197.043549	212.0
198.987244	172.0
199.926086	144.0
201.107849	180.0
204.145889	252.0
206.946182	164.0
214.140015	128.0
216.107376	180.0
222.221207	144.0
229.932877	196.0
230.01738	144.0
231.014587	176.0
231.132812	272.0
231.166031	152.0
232.14386	8820.0
233.147476	780.0
233.687393	140.0
234.163513	128.0
395.470703	152.0
511.46347	160.0
1338.757568	188.0
1456.253296	188.0
1468.247925	140.0
1531.988037	176.0
1556.80603	148.0
1663.62854	172.0
1740.563843	184.0
1833.400146	196.0
1865.153687	256.0
1889.143555	160.0
1926.96167	212.0
1944.659424	208.0
END IONS

BEGIN IONS
PEPMASS=286.111
CHARGE=1
MSLEVEL=2
SOURCE_INSTRUMENT=LC-ESI-qTof
FILENAME=Plate10_1_20_GC1_01_15743.mzXML
SEQ=*..*
IONMODE=Positive
ORGANISM=GNPS-SELLECKCHEM-FDA-PART2
NAME=Probenecid (Benemid) [M+H]
PI=Dorrestein
DATACOLLECTOR=Garg_Neha
SMILES=C1=C(C=CC(=C1)C(=O)O)S(N(CCC)CCC)(=O)=O
INCHI=N/A
INCHIAUX=N/A
PUBMED=N/A
SUBMITUSER=negarg
LIBRARYQUALITY=1
SPECTRUMID=CCMSLIB00000078627
USI=mzspec:GNPS:GNPS-SELLECKCHEM-FDA-PART2:accession:CCMSLIB00000078627
SCANS=1537
49.186695	204.0
50.318207	172.0
50.827751	200.0
55.198933	172.0
61.021717	184.0
75.142365	196.0
76.861862	140.0
82.337387	152.0
84.363396	160.0
89.810371	236.0
90.592949	204.0
91.761742	200.0
92.172112	160.0
93.035904	172.0
96.5783	228.0
98.9021	172.0
100.111244	1216.0
101.823097	180.0
105.0326	300.0
107.019119	240.0
118.556328	208.0
121.026237	872.0
123.095726	216.0
125.46093	224.0
127.48658	168.0
139.038681	548.0
139.104172	176.0
139.882248	176.0
142.780716	152.0
145.901154	144.0
147.081894	188.0
147.390656	172.0
149.034866	1360.0
150.037659	188.0
151.174423	204.0
155.08049	176.0
160.543381	156.0
162.092987	144.0
166.624542	244.0
184.989716	4400.0
185.993866	668.0
186.989349	196.0
187.989532	132.0
197.711548	192.0
198.843781	140.0
200.700424	176.0
201.903381	168.0
202.01651	12340.0
203.020187	1120.0
203.510071	172.0
204.014511	548.0
205.867798	152.0
216.071808	144.0
217.440231	188.0
220.023331	168.0
221.390732	152.0
225.104965	164.0
229.920212	152.0
230.575577	168.0
236.567749	152.0
242.39505	160.0
242.422928	220.0
242.754623	156.0
243.949982	156.0
243.999542	136.0
244.064514	22160.0
245.066528	2492.0
246.012222	152.0
246.061264	1576.0
246.683029	156.0
246.868896	132.0
247.072159	168.0
249.030777	144.0
253.960922	156.0
263.494263	160.0
263.895508	108.0
284.152069	188.0
285.009979	204.0
285.134308	164.0
285.276794	152.0
285.359528	144.0
286.068573	292.0
286.111328	14288.0
286.2276	204.0
287.11377	2172.0
287.169006	160.0
288.107117	732.0
289.117218	340.0
378.036102	180.0
402.884521	144.0
430.342712	148.0
1414.831787	180.0
1793.7052	184.0
1847.314331	208.0
1916.601074	188.0
END IONS

BEGIN IONS
PEPMASS=312.16
CHARGE=1
MSLEVEL=2
SOURCE_INSTRUMENT=LC-ESI-qTOF
FILENAME=p1-G03_GG3_01_17947.mzXML
SEQ=*..*
IONMODE=Positive
ORGANISM=GNPS-PRESTWICKPHYTOCHEM
NAME=NCGC00160239-01!THEBAINE M+H
PI=Dorrestein
DATACOLLECTOR=VVP/LMS
SMILES=CN4[C@H]2C1=CC=C(OC)[C@H](O3)[C@@](CC4)1C(C3=C5OC)=C(C=C5)C2
INCHI=N/A
INCHIAUX=N/A
PUBMED=N/A
SUBMITUSER=vphelan
LIBRARYQUALITY=1
SPECTRUMID=CCMSLIB00000078773
USI=mzspec:GNPS:GNPS-PRESTWICKPHYTOCHEM:accession:CCMSLIB00000078773
SCANS=1471
95.052635	176.0
95.633713	60.0
95.883011	252.0
95.906395	164.0
96.275139	116.0
96.662193	148.0
97.081406	156.0
97.230499	112.0
97.542801	148.0
97.942245	272.0
98.153114	208.0
98.516266	32.0
98.53405	216.0
98.66053	264.0
98.919678	176.0
99.333832	100.0
100.011414	196.0
100.116928	136.0
100.24044	176.0
100.775192	184.0
100.873116	88.0
101.387512	184.0
101.918205	172.0
102.220901	108.0
102.333618	96.0
102.359795	120.0
102.748795	148.0
103.472321	196.0
103.599907	64.0
104.119164	144.0
104.277634	188.0
104.778206	52.0
104.8536	36.0
105.028946	336.0
105.512917	116.0
105.825951	32.0
106.041039	176.0
107.041512	200.0
107.060051	200.0
107.084763	152.0
107.567253	132.0
107.691139	132.0
109.033691	112.0
109.455986	204.0
109.480972	196.0
110.748711	112.0
111.006485	72.0
112.460228	120.0
112.694633	132.0
112.724213	124.0
113.798119	156.0
114.316765	176.0
114.591438	124.0
114.610619	236.0
115.052109	136.0
115.278511	172.0
115.308426	56.0
115.443115	164.0
115.554344	168.0
116.057671	168.0
116.171341	136.0
116.506233	136.0
117.45771	124.0
117.524132	188.0
117.541847	156.0
117.660561	168.0
117.984619	112.0
118.045158	64.0
118.356758	128.0
118.807564	76.0
118.913887	144.0
119.046318	172.0
119.124512	64.0
119.330963	152.0
119.746597	148.0
120.027718	168.0
120.162949	92.0
120.210953	184.0
120.252419	124.0
120.778984	200.0
121.072266	204.0
121.326439	172.0
121.767487	128.0
122.042175	48.0
122.656395	148.0
123.044655	220.0
123.102058	216.0
123.285416	68.0
123.420258	84.0
123.670242	144.0
125.133141	48.0
125.543137	204.0
127.073128	48.0
127.18084	140.0
127.70845	220.0
128.840454	100.0
128.957962	160.0
129.064209	152.0
129.480591	48.0
129.815994	200.0
129.861343	132.0
129.906708	104.0
129.970245	148.0
131.086716	144.0
131.189285	168.0
133.064346	160.0
133.094498	152.0
133.207642	144.0
133.36618	152.0
133.49263	132.0
134.32869	88.0
134.882874	52.0
135.292328	184.0
135.681534	136.0
135.980759	116.0
136.140945	192.0
136.594177	216.0
136.899063	132.0
137.062119	152.0
137.104065	108.0
137.684967	224.0
138.023819	156.0
138.292847	100.0
138.618378	200.0
138.845764	156.0
139.051193	188.0
139.254135	152.0
139.573746	168.0
139.738388	124.0
139.96199	132.0
140.494644	100.0
140.673996	116.0
141.067825	308.0
141.44223	184.0
141.577194	40.0
141.700363	164.0
141.949234	108.0
142.006165	168.0
142.072571	204.0
142.298035	164.0
142.343155	100.0
142.39064	128.0
142.431015	140.0
142.8703	172.0
143.140381	252.0
143.196899	132.0
143.511459	216.0
143.613998	196.0
143.747604	152.0
144.175064	192.0
144.888107	124.0
145.063034	184.0
145.266876	152.0
145.487656	208.0
145.576492	92.0
145.821533	212.0
145.960968	140.0
146.329102	212.0
146.548264	140.0
147.296143	204.0
147.702225	116.0
147.736099	188.0
147.861908	100.0
147.968414	164.0
149.030746	164.0
149.658264	60.0
149.797089	64.0
150.130997	272.0
151.058212	400.0
151.103165	256.0
151.164337	144.0
151.695801	116.0
151.995026	132.0
152.060486	1040.0
152.132462	136.0
152.714828	144.0
153.065033	356.0
154.018707	104.0
154.075531	364.0
154.166946	216.0
154.238617	104.0
154.330093	124.0
154.510635	128.0
154.703674	168.0
154.951324	128.0
155.052917	88.0
155.080185	168.0
155.238846	188.0
155.263641	184.0
155.44722	152.0
156.045837	140.0
156.06572	204.0
156.331879	224.0
156.884827	116.0
157.376312	152.0
157.491196	236.0
157.533661	188.0
158.071198	120.0
158.251419	88.0
158.476837	160.0
158.65979	76.0
158.915604	136.0
159.390167	40.0
159.553543	172.0
160.036591	220.0
160.152435	152.0
160.570831	192.0
160.917587	180.0
161.097534	148.0
161.424408	68.0
161.457275	184.0
161.477509	232.0
161.976135	124.0
162.896942	44.0
163.145981	200.0
163.212616	96.0
163.303635	132.0
163.540253	72.0
163.573349	140.0
164.072647	80.0
164.756607	160.0
165.069168	1428.0
165.974884	140.0
166.075348	1268.0
166.097214	160.0
166.822128	100.0
167.045761	124.0
167.081894	916.0
167.128174	52.0
167.547836	172.0
167.888077	212.0
168.050995	152.0
168.085052	112.0
168.63678	152.0
169.062363	328.0
169.45192	188.0
170.068466	288.0
170.328751	188.0
170.703003	208.0
170.757614	132.0
171.072464	204.0
171.155777	120.0
171.358932	124.0
171.491837	108.0
171.929993	192.0
173.533463	160.0
174.092606	188.0
174.554871	168.0
174.94426	120.0
175.086456	284.0
175.581909	196.0
176.059952	416.0
176.49295	72.0
176.68074	136.0
176.754822	188.0
176.820984	176.0
177.06752	2228.0
177.363953	256.0
177.382507	156.0
177.902435	120.0
177.982086	140.0
178.024567	88.0
178.076355	2812.0
178.109558	48.0
178.346039	72.0
178.37262	68.0
178.760925	144.0
179.051102	156.0
179.082672	1000.0
179.24823	236.0
179.290863	40.0
179.432144	108.0
179.56813	156.0
179.634827	40.0
179.658829	184.0
179.693512	40.0
179.885666	200.0
180.055878	1476.0
180.091995	508.0
180.203461	104.0
180.23819	44.0
180.347763	136.0
180.93895	112.0
181.063995	1368.0
181.102539	132.0
181.196045	108.0
181.230881	52.0
181.259064	100.0
181.402405	200.0
181.498917	40.0
181.633011	224.0
181.665207	168.0
181.734955	196.0
182.068192	836.0
182.116165	140.0
182.218231	52.0
182.355286	76.0
182.398285	132.0
182.487	136.0
182.594559	68.0
182.820999	144.0
182.995514	84.0
183.035248	176.0
183.083405	360.0
183.283707	140.0
183.582932	108.0
183.895874	56.0
183.930969	116.0
184.047058	192.0
184.083344	392.0
184.603699	44.0
184.641556	144.0
184.830917	116.0
185.061081	132.0
185.087723	224.0
185.169312	176.0
185.80632	152.0
186.088577	148.0
186.197189	216.0
186.438538	172.0
186.4879	128.0
186.732605	108.0
187.015564	208.0
187.078171	160.0
187.266052	232.0
188.193222	192.0
188.288803	60.0
188.8573	108.0
189.06842	2324.0
189.226715	184.0
189.90358	128.0
190.07547	2724.0
191.081223	1056.0
191.781494	144.0
191.833862	32.0
191.930359	224.0
192.052399	624.0
192.080826	180.0
192.288986	92.0
192.313828	68.0
192.355225	100.0
192.490509	68.0
192.53746	128.0
192.927048	64.0
193.061401	556.0
193.104889	372.0
193.162109	68.0
193.544022	140.0
194.028885	140.0
194.0728	1660.0
194.184174	168.0
194.270157	184.0
194.52269	44.0
194.675385	52.0
194.828156	148.0
195.078842	2340.0
195.331314	108.0
195.801697	136.0
195.940964	184.0
196.047623	300.0
196.084335	808.0
196.216873	84.0
196.426025	40.0
196.652039	108.0
196.711472	96.0
197.058929	948.0
197.088425	1036.0
197.59935	120.0
197.674896	56.0
197.904419	224.0
198.061401	180.0
198.097656	116.0
198.128479	184.0
198.63588	188.0
198.832275	56.0
199.020355	96.0
199.07933	236.0
199.110764	144.0
199.666687	160.0
199.849518	168.0
200.060608	132.0
200.51973	88.0
200.660675	104.0
201.044296	60.0
201.065765	296.0
201.075897	180.0
202.075684	392.0
202.576752	48.0
202.718414	196.0
202.925339	116.0
203.082321	556.0
203.524002	88.0
203.62056	28.0
204.055328	140.0
204.085785	328.0
204.23732	104.0
204.493393	204.0
204.533249	100.0
205.063629	2736.0
205.262573	140.0
205.296799	80.0
205.761902	32.0
206.036057	184.0
206.069504	1852.0
206.25325	92.0
206.459091	120.0
206.507721	176.0
206.773788	100.0
206.942688	160.0
207.0186	148.0
207.079788	1528.0
207.274948	64.0
207.346588	68.0
207.621811	176.0
207.670563	48.0
207.779572	60.0
208.05217	332.0
208.082306	452.0
208.109634	80.0
209.060654	1016.0
209.093185	588.0
209.161819	116.0
209.818619	84.0
210.064911	1196.0
210.097397	128.0
210.21666	80.0
210.277267	60.0
210.389832	140.0
210.502441	52.0
210.629517	128.0
210.762405	56.0
210.970505	76.0
211.034103	124.0
211.072006	908.0
211.334915	56.0
211.618561	64.0
211.873428	152.0
212.018295	68.0
212.082306	788.0
212.311096	64.0
212.345901	68.0
212.444519	224.0
212.554779	80.0
212.580887	80.0
212.609909	108.0
212.740524	40.0
212.876984	72.0
212.9496	172.0
213.081635	196.0
213.557053	96.0
214.040131	176.0
214.067413	152.0
214.127502	108.0
214.316849	164.0
214.567505	128.0
214.853302	76.0
215.647568	168.0
216.052048	312.0
216.578003	104.0
216.657089	212.0
216.721542	216.0
217.062424	1424.0
217.572083	196.0
218.072647	2324.0
218.948181	180.0
219.036545	244.0
219.078903	820.0
219.528748	132.0
219.929977	120.0
220.048676	352.0
220.07135	192.0
220.093719	276.0
220.189804	88.0
220.432037	132.0
221.054749	772.0
221.09288	2160.0
221.168442	40.0
221.260208	116.0
221.443802	44.0
221.588959	36.0
221.751938	68.0
221.998001	172.0
222.066025	404.0
222.097427	656.0
222.173004	104.0
222.346191	184.0
222.621185	224.0
222.769699	100.0
222.870712	156.0
222.947968	44.0
223.016327	108.0
223.073578	1504.0
223.115219	208.0
223.334473	84.0
223.646881	120.0
223.783829	36.0
223.846359	196.0
223.891022	156.0
224.039429	184.0
224.07634	692.0
224.5616	124.0
224.627136	144.0
225.053375	692.0
225.088074	596.0
225.239136	60.0
225.337723	152.0
225.537949	100.0
225.615662	112.0
225.639587	92.0
226.060913	172.0
226.101013	184.0
226.126175	288.0
226.893997	56.0
227.097488	440.0
227.124908	112.0
227.1819	84.0
227.205902	76.0
227.469986	188.0
228.095779	156.0
229.081787	108.0
229.117935	172.0
230.06488	204.0
230.093582	156.0
230.614655	168.0
231.034958	32.0
231.077316	148.0
231.458694	176.0
231.88887	132.0
232.081009	180.0
233.058044	1184.0
233.090683	200.0
234.021378	108.0
234.068604	1408.0
234.146225	60.0
234.237595	36.0
234.258926	76.0
234.283295	216.0
234.335083	180.0
234.505737	164.0
234.633759	200.0
234.728271	104.0
235.074066	1140.0
235.11911	168.0
235.246948	88.0
235.329376	96.0
235.567581	164.0
235.949585	64.0
236.045395	3588.0
236.148346	44.0
236.279877	56.0
236.423691	68.0
236.64299	56.0
236.941162	104.0
237.047836	856.0
237.090668	1148.0
237.250702	48.0
237.606445	176.0
238.048508	304.0
238.097748	320.0
238.208298	168.0
238.374054	52.0
238.653763	104.0
238.715271	92.0
238.84137	112.0
238.958267	60.0
239.073242	1560.0
239.136734	160.0
239.715714	96.0
239.999298	72.0
240.033218	36.0
240.074631	940.0
240.116486	188.0
240.234116	228.0
241.014801	72.0
241.080139	220.0
241.252777	36.0
241.50325	52.0
241.899307	52.0
242.097473	136.0
242.177994	64.0
243.499252	104.0
244.500336	104.0
244.565689	248.0
244.631058	196.0
245.316391	168.0
246.086365	304.0
246.199387	148.0
246.618042	160.0
247.065201	204.0
247.108994	224.0
247.443878	216.0
248.042221	172.0
248.069305	44.0
248.104187	164.0
248.434204	184.0
248.942673	52.0
249.090622	1536.0
249.29451	128.0
249.388794	88.0
249.818375	32.0
250.099136	812.0
250.175186	172.0
250.369003	144.0
250.805191	68.0
250.937592	128.0
250.983856	136.0
251.02272	148.0
251.069427	5420.0
251.218277	72.0
251.300293	116.0
251.417053	44.0
251.489639	48.0
251.688522	60.0
251.912766	112.0
251.960144	56.0
251.991745	132.0
252.026489	168.0
252.071396	1108.0
252.114914	664.0
252.184509	104.0
252.424774	56.0
252.968964	88.0
253.010117	208.0
253.083237	428.0
253.113144	204.0
253.501053	116.0
253.564438	108.0
253.799011	80.0
254.092392	636.0
254.122879	368.0
254.849625	96.0
254.932236	112.0
255.049835	28.0
255.098145	952.0
255.151566	100.0
255.507751	64.0
255.720947	48.0
255.997925	92.0
256.102722	316.0
256.485382	108.0
256.896729	52.0
257.113708	120.0
257.85144	52.0
258.609436	160.0
258.859161	116.0
259.019287	156.0
260.106323	80.0
260.215485	68.0
261.59787	184.0
262.116394	172.0
262.274292	124.0
263.083984	116.0
264.096802	248.0
264.132446	160.0
264.959686	160.0
265.095917	612.0
266.090912	1872.0
266.149994	48.0
266.240906	36.0
266.354584	128.0
267.043671	76.0
267.098633	504.0
268.091064	168.0
268.137085	224.0
269.11972	348.0
270.120697	156.0
271.436127	20.0
271.734589	64.0
274.009705	68.0
277.625854	80.0
278.120209	128.0
278.296143	100.0
279.126831	176.0
279.828888	76.0
280.097748	180.0
280.139191	180.0
280.771912	160.0
281.072144	124.0
281.116821	796.0
281.215637	60.0
281.49939	40.0
281.973785	152.0
282.120697	324.0
283.030884	120.0
283.067719	108.0
283.131348	120.0
283.570221	72.0
284.845245	96.0
293.131104	56.0
295.151855	152.0
295.914886	128.0
296.111389	316.0
296.1315	144.0
297.138763	284.0
307.328064	88.0
312.098663	124.0
312.157166	1032.0
313.145721	180.0
314.162506	148.0
315.143982	120.0
316.020844	68.0
325.37674	84.0
338.872772	64.0
346.428986	72.0
355.12915	60.0
355.69574	32.0
359.248047	152.0
385.084747	76.0
393.898956	96.0
394.954346	84.0
404.960846	64.0
407.544312	68.0
409.837769	92.0
424.676483	44.0
425.780518	76.0
467.000519	100.0
468.313263	84.0
549.997192	44.0
640.135925	68.0
657.49408	60.0
722.583191	96.0
736.041931	44.0
759.421814	84.0
787.260864	140.0
823.309692	160.0
860.953674	80.0
875.886353	48.0
919.305176	72.0
932.987854	88.0
966.055542	188.0
982.424805	76.0
988.103638	52.0
990.062805	192.0
993.033508	96.0
1026.316895	192.0
1027.503174	132.0
1028.664673	56.0
1033.668945	68.0
1050.418335	196.0
1068.02417	92.0
1109.46814	140.0
1127.232544	80.0
1136.922607	160.0
1141.914307	160.0
1168.737183	88.0
1173.35498	156.0
1174.357422	132.0
1184.494019	188.0
1189.568359	132.0
1191.27832	112.0
1199.632446	72.0
1200.852905	160.0
1212.523315	168.0
1215.664917	196.0
1237.804565	204.0
1263.976196	140.0
1270.359741	100.0
1300.996094	216.0
1304.53772	172.0
1314.700562	168.0
1317.364868	60.0
1338.907104	196.0
1360.381958	164.0
1362.305908	128.0
1388.427734	184.0
1388.479614	76.0
1389.317749	172.0
1390.594116	140.0
1399.000977	60.0
1401.779053	60.0
1412.98645	244.0
1425.77124	44.0
1431.842407	128.0
1441.543945	96.0
1452.916504	32.0
1471.753662	196.0
1473.731934	124.0
1474.068115	164.0
1476.927368	168.0
1492.641479	168.0
END IONS

BEGIN IONS
PEPMASS=415.139
CHARGE=1
MSLEVEL=2
SOURCE_INSTRUMENT=LC-ESI-qTOF
FILENAME=p1-C04_GC4_01_17900.mzXML
SEQ=*..*
IONMODE=Positive
ORGANISM=GNPS-PRESTWICKPHYTOCHEM
NAME=NCGC00022001-07!PODOPHYLLOTOXIN M+H
PI=Dorrestein
DATACOLLECTOR=VVP/LMS
SMILES=COC1=C(OC)C(=CC(=C1)[C@H]2[C@@H]3[C@H](COC3=O)[C@@H](O)C4=CC5=C(OCO5)C=C24)OC
INCHI=N/A
INCHIAUX=N/A
PUBMED=N/A
SUBMITUSER=vphelan
LIBRARYQUALITY=3
SPECTRUMID=CCMSLIB00000078798
USI=mzspec:GNPS:GNPS-PRESTWICKPHYTOCHEM:accession:CCMSLIB00000078798
SCANS=1941
95.176842	72.0
96.048698	200.0
96.396202	188.0
97.442505	184.0
97.55452	200.0
98.160919	220.0
98.933434	148.0
99.087906	196.0
99.373398	88.0
100.70713	220.0
101.503624	192.0
101.627983	124.0
102.869698	148.0
103.056084	68.0
103.194946	56.0
103.549072	212.0
104.246933	132.0
104.281479	148.0
104.75354	188.0
105.034836	168.0
105.071945	208.0
105.240952	120.0
106.862167	192.0
107.18219	168.0
107.490601	176.0
107.536003	228.0
107.849945	88.0
109.309952	268.0
109.395279	188.0
109.526466	236.0
109.720261	176.0
109.995621	168.0
111.062752	140.0
111.928581	184.0
112.552719	140.0
114.512184	136.0
114.932137	128.0
115.017494	88.0
115.053116	872.0
115.971443	180.0
116.058479	428.0
116.492851	164.0
116.724968	120.0
116.866928	184.0
116.953011	136.0
117.070129	1980.0
117.975449	184.0
118.072754	308.0
118.852585	108.0
118.932884	160.0
119.047943	120.0
119.0895	180.0
119.800491	96.0
120.058502	232.0
120.090393	228.0
121.026604	164.0
121.683441	160.0
121.718567	188.0
121.888069	120.0
122.0382	700.0
122.409019	156.0
122.788055	164.0
122.836578	104.0
123.036964	164.0
123.051155	172.0
123.853363	180.0
124.032837	168.0
125.378693	44.0
125.665123	156.0
125.988838	108.0
127.050224	308.0
127.285622	128.0
127.638397	68.0
128.060043	408.0
128.774185	196.0
128.844208	176.0
128.923279	132.0
129.071838	168.0
129.629013	148.0
130.571411	76.0
130.70108	172.0
131.050201	640.0
131.918945	116.0
132.010391	236.0
132.312424	68.0
132.887665	112.0
132.914825	124.0
132.988632	192.0
133.066681	316.0
133.170013	144.0
133.638962	172.0
133.89447	232.0
134.323166	192.0
134.680939	108.0
135.045395	1180.0
135.448868	164.0
135.578613	72.0
136.038467	152.0
136.079636	188.0
136.935364	148.0
137.049515	148.0
138.266113	200.0
138.715805	48.0
139.074677	164.0
139.438721	212.0
140.623367	124.0
140.876022	76.0
140.989426	180.0
141.034332	56.0
141.079239	208.0
142.522568	152.0
143.047653	312.0
144.049118	256.0
145.035507	164.0
145.06366	4000.0
145.236923	96.0
145.299286	212.0
146.069321	732.0
146.715775	196.0
146.858047	200.0
146.98349	132.0
147.043274	144.0
147.142776	56.0
147.241791	240.0
148.050644	196.0
148.706512	148.0
149.065933	244.0
149.428207	136.0
149.479309	152.0
150.068756	160.0
150.886627	144.0
151.039703	348.0
151.082275	144.0
152.806946	180.0
153.0186	132.0
153.075241	156.0
154.057968	144.0
154.091431	204.0
154.353821	124.0
155.055771	504.0
155.11348	164.0
155.326721	180.0
155.761108	192.0
156.051865	160.0
157.067902	196.0
157.939621	120.0
158.289993	44.0
159.04213	324.0
161.059296	1140.0
161.602417	136.0
161.723892	172.0
161.861038	204.0
162.063416	192.0
162.091095	176.0
162.402908	96.0
163.040161	200.0
165.090424	448.0
166.060379	160.0
166.166229	152.0
167.033844	148.0
168.100449	84.0
168.308105	152.0
170.087463	172.0
171.043686	284.0
171.622955	64.0
171.75856	164.0
171.883789	60.0
172.052353	188.0
172.197052	168.0
172.217941	156.0
173.060562	1408.0
173.151642	76.0
173.893585	44.0
174.062408	416.0
175.039642	176.0
175.075348	1372.0
176.043777	292.0
176.086685	152.0
176.218765	132.0
176.684067	48.0
177.053238	152.0
177.075821	180.0
177.958847	64.0
178.023422	188.0
178.05867	164.0
179.464767	180.0
181.057373	88.0
181.08429	372.0
181.671158	64.0
181.829468	188.0
181.96904	264.0
185.004669	172.0
185.059174	3984.0
185.242966	168.0
185.3134	160.0
185.427216	48.0
185.478699	36.0
185.595276	64.0
185.627823	176.0
185.968475	56.0
186.05925	348.0
186.719498	64.0
186.912628	124.0
187.040207	176.0
187.357941	200.0
187.489929	132.0
187.56897	72.0
187.986557	176.0
188.013535	152.0
188.048004	652.0
188.764755	68.0
189.055267	1548.0
189.476395	48.0
189.585983	148.0
190.055573	192.0
190.139954	64.0
191.070114	372.0
191.498108	72.0
192.075073	192.0
192.101746	48.0
193.087799	144.0
194.303787	148.0
194.7146	204.0
195.066666	272.0
195.10083	156.0
195.16478	160.0
195.952423	116.0
196.069458	208.0
196.225555	120.0
197.060043	172.0
199.057114	188.0
199.082382	132.0
199.756927	176.0
200.043304	124.0
201.054489	1176.0
202.07019	208.0
202.531616	96.0
203.03894	164.0
203.069839	772.0
203.649124	40.0
204.073441	176.0
204.952011	40.0
205.080261	180.0
205.710632	136.0
207.002914	144.0
207.078964	172.0
208.09906	340.0
208.379669	200.0
208.589462	200.0
209.055435	284.0
210.407181	116.0
211.073471	204.0
212.024078	68.0
212.050171	136.0
212.076248	100.0
215.039993	156.0
217.043854	72.0
217.272614	68.0
219.065659	1356.0
219.732101	64.0
220.064194	204.0
221.096237	148.0
221.251129	68.0
221.535416	128.0
221.994827	68.0
223.03392	152.0
224.048874	208.0
225.059677	152.0
225.101471	180.0
226.066803	172.0
226.093948	248.0
226.243591	44.0
226.926666	104.0
228.031311	180.0
228.927811	164.0
229.049637	900.0
229.515396	76.0
229.642059	84.0
230.052429	112.0
231.057556	252.0
231.104141	72.0
231.173737	52.0
231.636948	112.0
232.081192	204.0
233.059784	188.0
233.087128	144.0
233.147903	52.0
234.015167	208.0
234.093979	144.0
235.072296	332.0
236.074432	176.0
236.1203	128.0
236.358917	164.0
237.054184	136.0
237.151733	180.0
237.823761	44.0
238.05983	304.0
238.86232	200.0
239.069687	512.0
239.752106	108.0
240.094299	116.0
240.739258	84.0
243.039139	132.0
245.063568	148.0
245.546402	100.0
246.067505	172.0
246.523529	160.0
246.807983	40.0
247.061462	564.0
247.250687	76.0
247.399292	44.0
247.596542	68.0
247.912949	52.0
248.068085	420.0
248.279724	56.0
248.809998	56.0
249.058075	152.0
249.092621	76.0
250.064194	124.0
250.832718	204.0
250.876846	20.0
251.033218	148.0
251.2742	68.0
251.744507	104.0
252.079346	128.0
253.059875	128.0
253.084259	388.0
253.912262	20.0
254.056046	304.0
254.09465	116.0
255.068207	556.0
255.10611	148.0
256.063843	164.0
259.069092	208.0
260.072327	92.0
261.084351	180.0
262.066193	216.0
262.084106	240.0
262.621429	204.0
263.073792	148.0
264.074829	144.0
264.136292	76.0
265.042755	136.0
266.041687	132.0
266.076813	112.0
267.062347	284.0
267.651001	188.0
267.745453	48.0
268.071411	344.0
269.0784	420.0
269.232544	220.0
270.072449	160.0
272.955109	96.0
273.088593	156.0
275.086212	316.0
275.202271	72.0
276.071289	48.0
277.087402	128.0
278.06134	148.0
278.086853	320.0
278.906158	56.0
279.065491	208.0
279.102081	160.0
279.690918	76.0
280.307617	88.0
281.083954	120.0
281.765076	224.0
282.089539	2632.0
282.253021	144.0
282.467072	68.0
282.500519	84.0
282.868622	68.0
283.059937	656.0
283.087158	864.0
283.511658	136.0
283.608856	44.0
284.063782	160.0
285.014984	232.0
285.082855	180.0
285.117645	116.0
286.165253	124.0
288.074066	176.0
288.766968	120.0
289.03421	112.0
289.08429	320.0
290.051483	260.0
290.091522	316.0
291.061646	364.0
291.098022	512.0
292.061829	184.0
292.101318	156.0
293.07428	284.0
293.116058	132.0
293.490601	64.0
293.992035	80.0
294.25827	112.0
294.336792	128.0
295.085052	172.0
296.095215	184.0
296.594696	36.0
296.759247	44.0
297.080566	744.0
298.083221	768.0
298.875	196.0
299.082123	192.0
303.063202	84.0
304.071045	200.0
305.081238	668.0
306.090576	1080.0
306.123383	128.0
307.046875	232.0
307.097626	420.0
308.092804	128.0
308.219788	64.0
309.078552	376.0
309.10614	168.0
311.896027	124.0
312.040161	56.0
312.099548	528.0
312.627563	124.0
312.726105	48.0
313.107788	372.0
313.395172	136.0
314.110809	160.0
314.234283	76.0
314.707245	100.0
314.753143	44.0
315.071014	284.0
316.082184	156.0
317.05246	164.0
317.077271	104.0
318.049042	160.0
318.090424	288.0
318.610107	68.0
319.093231	136.0
320.104584	816.0
320.880676	32.0
321.073975	140.0
321.107788	748.0
321.843994	108.0
322.08136	164.0
322.118317	420.0
322.622833	52.0
322.944641	68.0
323.078217	364.0
323.102112	180.0
323.678284	64.0
325.094177	104.0
326.088959	88.0
326.114136	60.0
330.749298	212.0
332.056915	104.0
333.070374	120.0
333.505554	120.0
333.996399	36.0
334.060791	108.0
334.070496	76.0
334.392975	64.0
335.089539	140.0
336.108582	132.0
336.441498	56.0
337.073364	164.0
337.102509	168.0
338.071625	84.0
338.114899	268.0
341.082703	136.0
341.244446	88.0
344.206818	116.0
345.703918	56.0
346.075226	76.0
347.085083	172.0
348.101135	300.0
348.994049	164.0
349.092712	300.0
350.065674	152.0
350.110352	140.0
351.114868	308.0
352.08316	92.0
352.135834	156.0
353.095917	160.0
353.122101	204.0
354.110138	136.0
354.164093	640.0
354.192566	208.0
356.120453	196.0
364.095306	180.0
365.104065	68.0
365.252808	184.0
366.112946	300.0
367.080444	264.0
367.106628	156.0
367.252045	112.0
369.142456	180.0
379.114441	184.0
380.109375	164.0
382.118134	160.0
397.122742	348.0
397.727539	88.0
399.133881	132.0
413.135498	108.0
415.112	60.0
429.343353	108.0
458.329651	56.0
476.59552	100.0
482.592926	76.0
498.025818	108.0
532.541931	76.0
559.848206	64.0
608.759827	68.0
632.138367	92.0
670.086121	52.0
696.487549	44.0
704.642151	52.0
720.58606	108.0
722.660522	112.0
725.300598	40.0
777.691895	168.0
780.897705	64.0
814.573181	164.0
933.551453	148.0
933.879883	140.0
953.634583	140.0
957.024109	76.0
977.91687	36.0
1018.733215	92.0
1031.311523	156.0
1051.181641	68.0
1063.224609	52.0
1065.133423	96.0
1069.424805	116.0
1090.28125	136.0
1098.597168	152.0
1107.043945	72.0
1112.361206	20.0
1128.068481	108.0
1132.015869	192.0
1146.681152	200.0
1161.623901	164.0
1162.920532	200.0
1163.557983	180.0
1172.931885	156.0
1180.24353	200.0
1186.103638	116.0
1199.417847	212.0
1214.539673	128.0
1222.605835	180.0
1234.450928	184.0
1236.528687	188.0
1237.410645	248.0
1248.602539	176.0
1271.66272	204.0
1272.209351	88.0
1272.862549	152.0
1274.105469	224.0
1278.293213	196.0
1285.019409	208.0
1314.372437	220.0
1315.714844	132.0
1316.43689	168.0
1333.832031	156.0
1337.308716	132.0
1346.44397	96.0
1356.951538	236.0
1363.770996	196.0
1368.088745	132.0
1369.244751	168.0
1377.74939	176.0
1405.270752	52.0
1409.041016	148.0
1411.529907	168.0
1415.69043	204.0
1431.151123	160.0
1437.067749	204.0
1443.29895	156.0
1449.84668	136.0
1458.384766	112.0
1469.998657	116.0
1474.198608	160.0
1481.038208	152.0
1484.709229	184.0
1488.000977	216.0
1499.23877	220.0
1503.950928	184.0
END IONS

BEGIN IONS
PEPMASS=282.087
CHARGE=1
MSLEVEL=2
SOURCE_INSTRUMENT=LC-ESI-qTof
FILENAME=NCP003272_C2_D11_BC1_01_15714.mzXML
SEQ=*..*
IONMODE=Positive
ORGANISM=GNPS-NIH-CLINICALCOLLECTION1
NAME="7-nitro-5-phenyl-1,3-dihydro-1,4-benzodiazepin-2-one" [M+H]
PI=Dorrestein
DATACOLLECTOR=Garg_Neha
SMILES=[O-][N+](=O)c1ccc2NC(=O)CN=C(c3ccccc3)c2c1
INCHI=N/A
INCHIAUX=N/A
PUBMED=N/A
SUBMITUSER=negarg
LIBRARYQUALITY=1
SPECTRUMID=CCMSLIB00000078921
USI=mzspec:GNPS:GNPS-NIH-CLINICALCOLLECTION1:accession:CCMSLIB00000078921
SCANS=1250
45.092739	168.0
45.413177	156.0
45.519199	144.0
45.63628	180.0
45.963413	196.0
46.028847	160.0
46.230972	212.0
46.684074	180.0
46.850132	140.0
46.97282	140.0
47.304878	168.0
47.775581	156.0
47.910496	148.0
48.012497	204.0
48.531055	140.0
49.228195	172.0
49.29385	168.0
49.363747	172.0
49.397312	160.0
49.426693	160.0
49.661896	144.0
51.927261	148.0
51.965992	164.0
52.794258	168.0
53.074184	296.0
53.237709	188.0
53.371395	180.0
53.551849	176.0
53.627613	160.0
54.384167	176.0
54.506973	156.0
55.191109	140.0
55.761845	152.0
56.016281	140.0
56.292202	152.0
56.305641	200.0
56.493977	148.0
56.714096	152.0
56.726089	176.0
56.755669	148.0
56.882095	280.0
56.903111	244.0
57.781456	188.0
58.676327	148.0
58.711395	168.0
59.229523	160.0
59.854588	172.0
60.002502	220.0
60.121273	148.0
60.655685	160.0
60.983932	156.0
61.050785	152.0
61.066338	232.0
61.228199	176.0
61.283279	200.0
61.448544	168.0
61.901272	164.0
62.371937	180.0
62.73872	152.0
63.554821	168.0
63.662762	156.0
64.907463	176.0
64.931519	140.0
65.333084	144.0
65.817322	212.0
65.942604	276.0
66.577682	140.0
66.792229	160.0
66.845482	120.0
67.296532	176.0
67.392159	160.0
67.784866	196.0
67.804527	196.0
67.868462	148.0
68.055511	180.0
68.514374	156.0
68.958466	188.0
69.067383	160.0
69.226265	140.0
69.459908	148.0
70.101715	168.0
70.206741	172.0
70.463791	192.0
70.554039	160.0
70.823456	152.0
70.84523	168.0
70.979118	172.0
71.155487	184.0
71.35878	180.0
71.612885	184.0
71.75106	160.0
71.853745	104.0
71.901184	160.0
72.720337	144.0
73.232109	168.0
73.310478	228.0
73.568489	148.0
74.110176	200.0
74.14959	188.0
74.375992	140.0
74.544296	140.0
74.556328	152.0
74.594139	164.0
74.864838	168.0
75.064163	156.0
75.397339	152.0
76.114517	140.0
76.737419	156.0
76.899651	164.0
77.079529	168.0
77.389122	148.0
77.871368	164.0
77.883667	148.0
78.112175	200.0
78.492592	168.0
78.603722	152.0
78.709625	220.0
78.799706	152.0
78.859787	164.0
78.916359	152.0
78.978256	152.0
79.256195	156.0
79.295181	148.0
79.447678	140.0
79.678467	160.0
80.16243	216.0
80.456291	180.0
80.756935	172.0
81.054108	176.0
81.132973	196.0
81.41288	144.0
82.242859	184.0
82.259109	220.0
82.510216	152.0
82.727303	188.0
82.76265	268.0
82.783432	184.0
83.374832	140.0
83.393005	280.0
83.420273	156.0
83.704094	148.0
84.077797	140.0
84.225685	144.0
84.728752	164.0
85.064346	140.0
85.148804	148.0
86.006798	140.0
86.387451	308.0
86.807884	152.0
87.173584	292.0
87.317398	188.0
87.780434	148.0
87.868095	164.0
88.250008	108.0
88.43618	156.0
88.767776	172.0
88.891579	280.0
89.303009	156.0
89.647537	156.0
89.830421	220.0
89.917213	244.0
90.049377	168.0
90.624451	156.0
90.643394	196.0
91.055748	336.0
91.074821	180.0
91.188049	192.0
91.642853	164.0
91.955597	176.0
92.054863	352.0
92.20961	144.0
93.063972	160.0
93.29229	124.0
93.744904	152.0
94.33744	160.0
94.565689	212.0
94.794212	164.0
94.943481	176.0
94.982269	152.0
95.075401	168.0
95.18605	180.0
95.226837	180.0
95.302597	144.0
95.395882	156.0
95.436707	180.0
95.49894	200.0
95.808395	168.0
95.861046	208.0
95.992393	244.0
96.059914	180.0
96.24337	228.0
96.691025	152.0
96.816322	192.0
96.957375	176.0
98.095406	224.0
98.939316	168.0
99.291641	144.0
99.305519	172.0
99.394798	200.0
99.800476	164.0
100.180122	232.0
100.272682	184.0
100.343544	152.0
100.415329	160.0
100.782639	180.0
100.874573	256.0
100.93055	224.0
101.010544	168.0
101.078568	168.0
101.2267	156.0
101.749771	164.0
103.0382	196.0
103.089478	152.0
103.251205	152.0
103.392288	184.0
103.477837	168.0
104.021141	160.0
104.049431	1244.0
104.18969	152.0
104.289261	176.0
104.861183	160.0
105.034142	364.0
105.046272	608.0
105.796715	160.0
106.033775	196.0
106.063011	148.0
106.134766	172.0
106.153221	168.0
106.175781	156.0
106.194237	160.0
106.325539	236.0
106.438148	164.0
106.493896	156.0
106.707611	152.0
106.923592	144.0
106.942116	144.0
107.053291	168.0
107.17688	168.0
107.542999	160.0
107.588264	156.0
108.410515	164.0
108.425026	152.0
108.707062	216.0
109.05294	344.0
109.724167	204.0
109.738762	140.0
109.776299	156.0
110.239723	196.0
110.400688	140.0
110.471802	164.0
110.777435	176.0
110.974434	140.0
111.028252	120.0
111.284958	184.0
111.503426	240.0
111.665909	140.0
112.021027	140.0
112.153778	204.0
112.527168	140.0
112.552505	144.0
112.877914	152.0
113.002708	228.0
113.102165	204.0
113.138153	176.0
113.174149	148.0
113.241913	196.0
114.207642	176.0
114.876488	224.0
114.961838	152.0
115.045074	172.0
115.109131	160.0
115.374062	172.0
115.431793	152.0
115.673553	156.0
115.776329	168.0
115.857719	180.0
116.051315	888.0
116.22744	144.0
116.636681	192.0
116.716225	144.0
117.056206	156.0
117.073433	172.0
117.407463	176.0
117.593002	168.0
117.692307	156.0
117.754929	308.0
118.056305	216.0
118.221901	144.0
118.535896	188.0
118.804749	160.0
119.056908	320.0
119.439049	180.0
119.774254	168.0
120.020523	144.0
120.057587	148.0
120.592476	228.0
121.455154	148.0
121.821732	164.0
122.532318	208.0
122.833038	164.0
122.969772	156.0
123.017487	152.0
123.183105	172.0
123.390839	180.0
123.953033	156.0
124.085861	172.0
124.341881	196.0
124.458763	156.0
124.903236	192.0
125.222778	128.0
125.356667	224.0
125.542442	212.0
125.729836	160.0
125.872711	176.0
126.069283	152.0
126.374794	140.0
126.624107	144.0
126.863853	212.0
126.966995	240.0
127.249733	168.0
127.602463	200.0
127.867897	152.0
128.061523	356.0
128.53569	168.0
128.74939	140.0
129.04361	576.0
129.077057	200.0
129.131332	152.0
129.173569	148.0
129.199188	168.0
129.538757	168.0
129.652054	248.0
129.866333	208.0
129.933212	152.0
130.012634	144.0
130.051666	1644.0
130.096619	140.0
130.132614	220.0
130.176086	152.0
130.294189	272.0
130.537262	144.0
130.632919	152.0
130.754913	136.0
130.97435	172.0
131.055466	320.0
131.491928	160.0
131.521591	144.0
132.523239	192.0
132.692841	156.0
133.0186	160.0
133.050873	468.0
133.087479	216.0
133.310287	200.0
133.820923	160.0
133.963715	212.0
134.009796	172.0
134.025925	208.0
134.053024	232.0
134.431763	256.0
134.577408	120.0
135.013916	148.0
135.03241	156.0
135.067108	152.0
135.208237	168.0
135.353348	176.0
135.942871	140.0
136.123825	176.0
136.302795	144.0
136.399185	144.0
136.663193	180.0
136.679489	180.0
136.700424	148.0
136.877335	152.0
137.047318	124.0
137.154572	204.0
137.545593	160.0
137.747253	224.0
137.784637	156.0
138.004333	216.0
138.514511	208.0
138.931778	160.0
139.185242	140.0
139.314423	172.0
139.457764	184.0
139.998199	184.0
140.060104	168.0
140.149628	160.0
140.623627	144.0
140.663757	148.0
140.932983	176.0
141.060242	156.0
141.193008	152.0
141.576385	184.0
141.82753	152.0
142.075027	160.0
142.102615	144.0
142.119217	160.0
142.855713	148.0
143.033463	204.0
143.072266	136.0
143.102219	172.0
143.205612	144.0
144.116882	160.0
144.32962	216.0
144.506607	176.0
144.532928	176.0
144.71962	140.0
144.880081	148.0
145.040558	112.0
145.110992	172.0
145.137024	156.0
145.647705	192.0
145.767822	140.0
146.005814	160.0
146.183838	304.0
146.470337	180.0
147.056244	152.0
147.145569	244.0
147.319443	156.0
147.367767	152.0
147.491013	148.0
147.58287	164.0
148.057159	168.0
148.299042	196.0
149.569763	192.0
150.043732	132.0
150.410706	168.0
150.496155	172.0
151.050125	684.0
151.596664	132.0
151.714539	160.0
151.780731	164.0
151.925446	144.0
152.061371	564.0
152.36734	192.0
152.406647	168.0
152.445953	180.0
152.647537	172.0
152.777893	152.0
153.070053	472.0
153.688217	136.0
153.988174	224.0
154.039017	272.0
154.072388	376.0
154.697815	168.0
154.81868	132.0
154.843903	176.0
154.868668	172.0
154.920105	172.0
155.039612	140.0
155.099106	184.0
155.200745	160.0
155.218109	156.0
155.508362	192.0
155.555511	144.0
155.741745	152.0
156.025024	180.0
156.080246	556.0
156.446884	188.0
156.532593	140.0
156.62973	148.0
156.76918	136.0
157.040924	308.0
157.090469	196.0
158.047577	3064.0
158.642471	164.0
158.954819	172.0
159.049728	556.0
159.107925	200.0
159.178223	148.0
159.195801	160.0
159.467133	244.0
159.76178	236.0
160.035645	180.0
160.057602	280.0
160.257294	184.0
160.411026	168.0
160.559784	172.0
160.665726	152.0
160.877701	188.0
161.110046	160.0
161.299561	180.0
161.375412	176.0
161.764999	176.0
161.909332	180.0
162.037781	468.0
162.16774	160.0
162.720749	160.0
164.0616	768.0
164.229767	192.0
164.648331	228.0
165.041275	652.0
165.069702	816.0
165.156937	296.0
165.202988	164.0
165.481934	164.0
165.971313	144.0
166.07756	296.0
166.916245	192.0
167.019119	140.0
167.074936	448.0
167.405167	140.0
168.064056	268.0
168.080627	1260.0
168.235382	168.0
168.496216	180.0
168.661606	168.0
168.783112	164.0
168.871033	144.0
169.069626	184.0
169.143982	140.0
169.916672	152.0
170.016296	144.0
170.104401	164.0
170.20047	192.0
170.288757	160.0
170.73317	184.0
171.458878	132.0
171.516861	192.0
171.673279	192.0
171.715012	148.0
171.935165	176.0
172.077728	148.0
173.946915	152.0
174.038788	176.0
174.202667	140.0
174.577469	148.0
175.024811	172.0
175.044617	160.0
175.533371	184.0
175.594711	184.0
176.046387	3064.0
176.157379	148.0
176.569412	148.0
177.042664	632.0
177.087296	156.0
177.413589	172.0
177.641281	188.0
178.062622	424.0
178.116425	140.0
178.270523	188.0
178.394531	164.0
178.755508	148.0
179.040543	176.0
179.072739	3468.0
179.636368	144.0
179.847168	172.0
179.977982	140.0
180.081161	44416.0
180.143509	116.0
180.274277	152.0
180.624725	140.0
181.085327	6848.0
181.809891	152.0
181.900208	208.0
182.061813	192.0
182.087555	432.0
182.137375	152.0
182.286957	176.0
182.362213	152.0
182.625702	248.0
183.066986	120.0
183.091309	616.0
183.570984	168.0
183.605392	148.0
183.770599	164.0
184.076233	668.0
184.087311	284.0
184.095673	448.0
184.302505	240.0
184.372757	160.0
184.423157	136.0
184.529541	148.0
184.705322	180.0
185.068085	156.0
185.103149	156.0
185.452637	144.0
185.64241	148.0
186.055527	184.0
186.345428	148.0
186.910965	200.0
187.036011	1480.0
187.076996	144.0
187.283936	180.0
188.039719	224.0
188.101089	152.0
188.295807	140.0
188.552612	156.0
188.637344	160.0
189.012039	152.0
190.009354	160.0
190.038437	160.0
190.066132	2528.0
190.691177	172.0
191.072235	1628.0
191.149612	240.0
191.177124	152.0
191.796875	160.0
192.039444	176.0
192.081467	1600.0
192.14151	156.0
192.456146	152.0
192.521805	144.0
192.657761	144.0
193.08728	1208.0
193.282593	160.0
194.092575	1392.0
194.281616	104.0
194.754684	172.0
194.843567	184.0
194.999176	156.0
195.06958	748.0
195.090881	1756.0
195.544296	160.0
195.611099	208.0
196.014938	140.0
196.077286	3244.0
196.541946	144.0
197.076797	728.0
197.102173	276.0
197.149017	132.0
197.268082	144.0
197.460587	108.0
198.081833	304.0
198.122375	244.0
198.15802	168.0
198.336899	120.0
198.43396	140.0
198.546539	140.0
198.618484	172.0
198.822998	132.0
199.086472	140.0
199.173538	256.0
199.392685	192.0
199.765167	160.0
199.831345	212.0
199.870743	152.0
199.90451	220.0
200.639648	176.0
201.08815	168.0
201.531494	160.0
202.439484	160.0
202.484436	136.0
203.329651	140.0
203.542557	156.0
204.040115	508.0
204.41806	148.0
204.662857	140.0
204.751144	148.0
204.976181	160.0
205.038879	148.0
205.075684	344.0
205.132935	164.0
205.608124	100.0
205.960434	188.0
206.059677	608.0
206.082565	1636.0
206.582504	168.0
206.682175	132.0
206.778168	188.0
206.882629	208.0
206.928162	208.0
207.033386	160.0
207.09259	43000.0
207.13913	156.0
207.203232	208.0
207.255203	116.0
207.333755	172.0
207.394196	104.0
207.744949	128.0
207.781067	192.0
208.033615	164.0
208.098022	15856.0
208.37146	136.0
209.101227	1920.0
209.152313	228.0
209.330292	268.0
209.527267	156.0
209.56813	120.0
209.886429	148.0
210.076279	684.0
210.094757	420.0
210.104126	416.0
210.567474	168.0
210.602036	120.0
210.94577	160.0
210.983566	156.0
211.087906	4004.0
211.333511	152.0
211.402802	144.0
212.056564	168.0
212.091919	1312.0
212.138626	208.0
212.477921	212.0
212.794266	172.0
213.09584	244.0
213.142807	160.0
213.416031	156.0
213.583817	168.0
214.402847	152.0
215.01236	144.0
215.066391	140.0
215.117432	164.0
215.66951	160.0
215.91217	156.0
216.077347	188.0
216.851959	188.0
217.077011	504.0
217.522186	128.0
217.571472	168.0
217.646957	164.0
217.770294	204.0
217.905426	184.0
217.987701	164.0
218.085449	416.0
218.216965	260.0
218.258118	152.0
218.397598	132.0
218.540497	184.0
219.043915	196.0
219.067429	752.0
219.090469	400.0
219.534561	268.0
220.053284	176.0
220.086365	168.0
221.070557	412.0
221.26857	184.0
221.765259	152.0
222.076279	144.0
222.313919	172.0
222.471222	140.0
222.690948	168.0
222.857315	212.0
223.086563	2000.0
223.214096	120.0
223.413269	172.0
223.505493	188.0
223.955017	184.0
224.093857	1032.0
224.613754	160.0
225.090546	516.0
225.931122	236.0
226.068756	148.0
226.092697	156.0
228.354813	140.0
228.974792	140.0
229.026001	160.0
229.384567	140.0
229.492676	144.0
230.812592	200.0
231.511597	140.0
231.650925	168.0
232.096436	172.0
233.034317	140.0
233.660522	124.0
233.831024	200.0
233.934509	164.0
234.076569	424.0
234.226837	236.0
234.5224	160.0
234.744858	128.0
234.950928	112.0
235.049988	140.0
235.086929	13148.0
235.316681	200.0
235.419342	152.0
235.470245	148.0
235.682053	176.0
235.787354	164.0
235.837906	188.0
235.883743	160.0
235.944687	124.0
236.007721	240.0
236.094894	77228.0
236.144653	424.0
236.178513	172.0
236.300049	372.0
236.367157	108.0
236.512375	100.0
236.548401	128.0
236.986694	120.0
237.098312	9776.0
237.155106	136.0
237.410019	192.0
237.724457	220.0
237.770493	156.0
238.097748	1196.0
238.297943	168.0
238.399338	156.0
238.481903	236.0
238.570236	248.0
238.740463	180.0
238.878525	220.0
239.02121	152.0
239.081879	4372.0
239.46759	108.0
239.4953	164.0
239.606201	184.0
239.652008	212.0
239.963028	148.0
240.088577	7820.0
240.269028	144.0
240.362259	112.0
241.090042	1336.0
241.699539	148.0
242.094894	412.0
242.281616	176.0
242.360214	152.0
242.49852	156.0
243.705658	156.0
244.815567	172.0
244.962524	180.0
245.0186	180.0
245.538193	196.0
246.272598	272.0
246.531906	172.0
246.591278	144.0
247.154175	152.0
247.539185	156.0
248.517151	196.0
248.777634	156.0
249.311584	184.0
249.641663	380.0
249.726578	152.0
250.071396	256.0
250.667877	156.0
250.970474	260.0
251.081787	4216.0
251.964661	164.0
252.087524	2516.0
252.186523	172.0
252.472412	180.0
252.54631	140.0
253.084	840.0
253.296463	212.0
253.746475	244.0
253.869232	160.0
253.927216	176.0
254.092972	2780.0
254.234955	192.0
254.510635	188.0
254.536514	168.0
255.095505	496.0
255.253769	144.0
255.689194	120.0
255.859177	156.0
256.233582	216.0
256.678009	140.0
256.872559	152.0
257.466217	196.0
258.050964	148.0
258.538849	168.0
258.629974	212.0
258.758026	304.0
259.562256	168.0
259.911896	148.0
259.992096	184.0
260.018158	148.0
260.070343	180.0
260.149384	184.0
261.000763	196.0
261.065094	160.0
261.335266	156.0
261.557343	180.0
262.457581	180.0
262.698029	228.0
263.10788	196.0
263.246735	140.0
263.556824	160.0
263.608521	164.0
263.726105	172.0
263.947937	180.0
264.077148	184.0
264.442902	200.0
264.581146	192.0
264.607971	172.0
264.658295	236.0
265.083069	504.0
265.417999	192.0
266.219482	184.0
266.903656	124.0
267.113281	176.0
267.162079	196.0
267.329987	144.0
267.417786	116.0
267.469788	148.0
267.585571	120.0
267.675171	124.0
267.735291	320.0
267.780518	196.0
267.899384	172.0
267.92337	188.0
267.985504	224.0
268.085419	132188.0
268.300354	176.0
268.347443	136.0
268.35965	160.0
268.393494	156.0
268.427216	116.0
268.578644	116.0
268.666962	224.0
268.74057	188.0
268.807098	200.0
268.880859	260.0
268.969818	152.0
269.041748	232.0
269.087555	19172.0
269.182404	156.0
269.263214	140.0
269.536255	140.0
269.668579	116.0
269.797089	220.0
270.088898	2296.0
270.150726	108.0
270.387939	116.0
270.474579	116.0
270.55722	96.0
270.668823	176.0
270.716095	100.0
270.750793	112.0
270.867157	112.0
270.930084	168.0
270.956909	328.0
271.032288	108.0
271.075653	144.0
271.101044	364.0
271.178406	152.0
271.307556	104.0
271.457916	164.0
271.655334	124.0
272.985931	104.0
273.405121	140.0
273.576263	172.0
273.717834	204.0
273.958282	164.0
274.643921	144.0
275.148804	148.0
275.241241	152.0
277.414917	164.0
277.51767	264.0
278.855469	184.0
279.09671	252.0
279.154663	188.0
279.468811	220.0
279.528931	180.0
279.930023	144.0
280.072388	192.0
280.151001	128.0
280.329773	204.0
280.399384	180.0
280.463531	140.0
280.485809	248.0
280.555237	160.0
280.703094	152.0
280.840698	356.0
280.947876	220.0
281.032684	152.0
281.060364	156.0
281.091705	248.0
281.210114	224.0
281.26593	224.0
281.289429	212.0
281.329681	188.0
281.39563	364.0
281.480469	224.0
281.512299	252.0
281.547852	336.0
281.621796	272.0
281.656372	172.0
281.680756	224.0
281.73999	336.0
281.771942	320.0
281.810028	236.0
281.832367	364.0
281.859161	172.0
281.897797	392.0
281.925415	324.0
281.949982	508.0
282.004395	340.0
282.012939	316.0
282.048889	668.0
282.090332	232012.0
282.210297	96.0
282.326813	284.0
282.39975	692.0
282.45929	220.0
282.566345	236.0
282.601562	704.0
282.640533	12948.0
282.716797	196.0
282.741913	212.0
282.820679	152.0
282.866211	196.0
282.902771	160.0
282.947144	328.0
282.986633	288.0
283.027557	236.0
283.091675	98116.0
283.218811	144.0
283.287964	132.0
283.324982	140.0
283.375	216.0
283.419678	140.0
283.474396	288.0
283.535553	268.0
283.569244	152.0
283.603271	172.0
283.645935	264.0
283.712616	160.0
283.764893	184.0
283.877655	96.0
283.937408	204.0
283.982758	156.0
284.007019	172.0
284.092957	10364.0
284.188751	316.0
284.289459	172.0
284.335144	144.0
284.400604	124.0
284.429321	284.0
284.474487	164.0
284.586456	176.0
284.635284	100.0
284.68045	236.0
284.709351	192.0
284.791473	284.0
284.815247	296.0
284.864777	240.0
284.889374	176.0
284.929047	276.0
284.995056	260.0
285.032104	248.0
285.058197	392.0
285.093262	1136.0
285.159607	312.0
285.195221	160.0
285.246338	200.0
285.284576	256.0
285.318878	104.0
285.371429	96.0
285.406982	180.0
285.431549	164.0
285.751953	96.0
286.17749	100.0
286.450714	96.0
287.108246	176.0
287.288513	144.0
288.638885	104.0
289.004852	104.0
289.330048	148.0
292.723511	140.0
292.935944	128.0
293.536713	140.0
296.312317	108.0
299.15686	288.0
300.650696	108.0
308.124756	120.0
413.605347	96.0
462.277191	168.0
465.127289	172.0
474.978485	152.0
482.897034	156.0
771.501038	168.0
1054.514282	156.0
1338.886353	164.0
1434.178711	140.0
1467.887451	128.0
1489.706055	224.0
1541.361206	164.0
1588.363281	160.0
1639.156006	156.0
1673.483521	192.0
1680.28894	196.0
1689.839722	184.0
1731.782227	160.0
1764.059204	192.0
1780.842773	164.0
1789.420044	244.0
1793.295044	176.0
1797.233154	184.0
1802.51062	176.0
1812.164917	196.0
1836.451904	172.0
1851.331177	184.0
1853.130005	180.0
1855.829834	144.0
1865.44519	152.0
1867.07019	192.0
1877.111206	168.0
1880.812378	228.0
1899.624146	140.0
1911.283325	180.0
1921.896118	188.0
1922.306274	140.0
1933.649658	160.0
1949.110107	164.0
1957.11438	148.0
1966.45874	140.0
1972.783081	152.0
1983.706909	160.0
1984.371826	176.0
1992.7323	244.0
1998.609497	216.0
END IONS

BEGIN IONS
PEPMASS=294.112
CHARGE=1
MSLEVEL=2
SOURCE_INSTRUMENT=LC-ESI-qTof
FILENAME=NCP003272_E2_F11_BC2_01_15715.mzXML
SEQ=*..*
IONMODE=Positive
ORGANISM=GNPS-NIH-CLINICALCOLLECTION1
NAME=OXAPROZIN [M+H]
PI=Dorrestein
DATACOLLECTOR=Garg_Neha
SMILES=OC(=O)CCc1nc(c(o1)c2ccccc2)c3ccccc3
INCHI=N/A
INCHIAUX=N/A
PUBMED=N/A
SUBMITUSER=negarg
LIBRARYQUALITY=1
SPECTRUMID=CCMSLIB00000078946
USI=mzspec:GNPS:GNPS-NIH-CLINICALCOLLECTION1:accession:CCMSLIB00000078946
SCANS=1662
45.089108	168.0
45.137234	184.0
45.303196	152.0
45.426746	196.0
45.503021	144.0
45.517792	152.0
45.657551	140.0
45.820423	168.0
45.86417	164.0
46.545403	212.0
46.582069	160.0
46.689449	140.0
46.882763	168.0
47.386982	160.0
47.511742	252.0
47.818169	168.0
47.914558	164.0
47.983471	208.0
48.15596	144.0
48.655853	140.0
48.740578	196.0
48.950733	152.0
49.261646	140.0
49.33012	188.0
49.400784	128.0
49.753189	204.0
49.795315	188.0
49.831837	220.0
49.843079	184.0
49.914768	168.0
50.168198	264.0
50.279629	208.0
50.436405	172.0
50.491547	204.0
50.592007	244.0
50.642986	144.0
50.984909	156.0
51.011913	228.0
51.091553	176.0
51.636166	184.0
51.662193	152.0
51.676498	144.0
51.748062	176.0
51.778133	208.0
52.02763	188.0
52.083633	160.0
52.184231	148.0
52.622231	176.0
52.640999	140.0
52.665554	172.0
52.677109	208.0
52.733459	176.0
52.869408	240.0
53.154888	152.0
53.412041	188.0
53.487514	212.0
53.707729	184.0
53.839085	204.0
53.936916	204.0
54.537945	268.0
54.634998	164.0
55.025547	184.0
55.321224	156.0
55.589493	168.0
55.708305	172.0
55.752846	184.0
55.911972	168.0
56.404171	156.0
56.510349	160.0
56.948082	148.0
57.169083	184.0
57.282005	180.0
57.533844	216.0
57.606331	152.0
57.79834	144.0
57.975513	148.0
58.078609	192.0
58.22382	148.0
58.270664	148.0
58.52845	172.0
59.003193	232.0
59.035065	160.0
59.093189	188.0
59.11002	156.0
59.283062	164.0
59.692932	176.0
59.78677	244.0
59.96542	156.0
60.269428	172.0
60.304974	144.0
60.858013	160.0
60.913921	156.0
61.116028	228.0
61.429176	176.0
61.504078	152.0
61.871433	144.0
62.237568	236.0
62.55904	148.0
62.696072	172.0
62.795395	144.0
62.826942	188.0
63.545593	164.0
63.853188	200.0
64.093758	200.0
64.526024	140.0
65.05658	144.0
65.724495	144.0
65.810043	176.0
66.107468	176.0
66.128502	176.0
66.504532	140.0
66.533752	172.0
66.608452	144.0
66.647438	148.0
66.691315	228.0
67.111115	156.0
67.223877	152.0
67.776794	148.0
68.035713	228.0
68.142464	160.0
68.458275	176.0
68.849113	156.0
69.054047	156.0
69.148354	148.0
69.259285	148.0
69.527878	144.0
69.727173	160.0
70.154953	224.0
70.32843	172.0
70.732933	188.0
70.927238	144.0
71.042946	176.0
71.36306	184.0
71.518486	196.0
71.594254	196.0
71.618225	188.0
71.980423	168.0
72.264389	192.0
72.543274	260.0
72.927444	260.0
73.299782	176.0
73.595238	156.0
73.70797	180.0
74.307243	184.0
74.570831	148.0
74.71785	168.0
74.877937	152.0
75.038193	172.0
75.184807	216.0
75.262489	148.0
75.4076	140.0
75.874969	144.0
75.93219	220.0
75.977295	180.0
76.020668	144.0
76.157822	148.0
76.220886	172.0
76.425537	148.0
76.869347	120.0
76.953659	148.0
77.239143	140.0
77.278748	192.0
77.797508	152.0
78.024132	208.0
78.172478	232.0
78.620186	172.0
78.73954	188.0
79.186996	160.0
79.305702	156.0
79.418449	184.0
79.43869	204.0
79.483047	224.0
79.561142	160.0
79.671242	228.0
79.969978	156.0
80.535187	160.0
80.585205	152.0
80.678139	184.0
80.697807	200.0
80.73893	184.0
80.813164	132.0
81.0522	224.0
81.439606	216.0
81.606827	148.0
82.00106	156.0
82.080376	160.0
82.13707	220.0
82.473938	156.0
82.696411	164.0
82.988068	224.0
83.051537	212.0
83.081825	184.0
83.343819	160.0
83.52198	196.0
83.607491	144.0
83.666046	188.0
83.858826	140.0
83.91169	168.0
84.097755	160.0
84.748779	184.0
84.829422	148.0
84.87159	164.0
84.897255	148.0
84.959618	168.0
85.121727	124.0
85.146843	172.0
85.319572	156.0
85.818504	368.0
85.862762	176.0
86.147011	140.0
86.185806	172.0
86.346634	156.0
86.526123	208.0
86.598343	176.0
87.284988	196.0
87.497101	220.0
87.664734	180.0
88.020142	136.0
88.073318	168.0
88.452896	152.0
88.54464	152.0
88.831413	172.0
89.714592	236.0
90.440628	184.0
90.552338	144.0
90.588326	220.0
90.60537	192.0
90.647057	172.0
90.903053	168.0
91.075821	144.0
91.532249	152.0
92.061157	176.0
92.469582	164.0
92.885361	148.0
92.946754	140.0
93.581047	140.0
94.180786	188.0
94.31411	176.0
94.503632	164.0
94.639114	176.0
94.732079	148.0
94.784569	168.0
95.102432	140.0
95.364647	172.0
95.512413	160.0
95.79467	152.0
95.896294	156.0
95.933022	164.0
96.133095	152.0
96.215897	156.0
96.403404	184.0
96.559807	148.0
96.986633	188.0
97.165077	224.0
97.434044	140.0
97.4478	160.0
98.030228	164.0
98.661827	164.0
98.855865	120.0
98.87941	176.0
98.934837	152.0
99.027901	156.0
99.19236	196.0
99.845589	204.0
100.092346	168.0
100.323463	220.0
100.403221	208.0
100.421165	188.0
100.62471	200.0
100.818459	196.0
100.874428	156.0
100.988396	192.0
101.025017	324.0
101.042412	168.0
101.094627	164.0
101.156479	148.0
101.280624	188.0
101.356758	156.0
101.551208	184.0
101.729858	124.0
102.047516	480.0
102.125198	108.0
102.572647	168.0
102.590347	128.0
102.643211	168.0
102.717834	172.0
102.821632	184.0
102.857063	164.0
102.897438	148.0
102.928482	168.0
102.966888	344.0
103.020561	112.0
103.055077	85340.0
103.106125	96.0
103.175369	112.0
103.191582	204.0
103.328552	228.0
103.386917	424.0
103.421173	96.0
103.700516	144.0
103.780159	152.0
103.876915	148.0
104.057411	7216.0
104.409065	212.0
104.595123	208.0
104.654053	144.0
104.7836	156.0
105.032959	324.0
105.055733	140.0
105.397743	168.0
105.44883	176.0
106.055122	196.0
106.832909	152.0
106.937843	216.0
107.310699	140.0
108.012848	172.0
108.226006	140.0
108.511932	164.0
108.800308	176.0
108.966454	144.0
109.059959	156.0
109.586456	144.0
110.197777	212.0
110.440269	208.0
110.844322	216.0
110.986855	172.0
111.774536	140.0
112.079857	140.0
112.147293	168.0
113.081245	104.0
113.176102	180.0
113.303177	192.0
113.832672	112.0
114.082016	152.0
114.47776	188.0
114.518227	164.0
114.895523	140.0
115.054489	2376.0
115.098282	152.0
115.151672	220.0
115.194603	200.0
115.504341	196.0
115.885902	188.0
116.056335	240.0
116.245628	212.0
116.352951	184.0
116.539803	148.0
116.602821	108.0
116.673058	164.0
117.021584	140.0
117.069984	6480.0
117.592834	156.0
118.073898	816.0
118.622421	172.0
119.143234	152.0
119.451927	156.0
119.927513	96.0
119.985466	180.0
120.321434	172.0
120.421883	168.0
120.955391	148.0
121.279564	164.0
122.1073	204.0
122.179886	156.0
122.512314	176.0
123.614052	196.0
123.826576	192.0
124.594063	228.0
125.899323	284.0
125.99984	148.0
126.20993	184.0
126.45153	164.0
126.514206	184.0
126.886093	168.0
127.321136	152.0
127.363258	132.0
127.548325	260.0
127.969009	148.0
128.050705	260.0
128.18074	164.0
128.462555	168.0
128.688232	180.0
129.031662	192.0
129.056625	144.0
129.106277	156.0
129.189957	208.0
129.280457	144.0
129.309891	144.0
129.985214	168.0
130.051025	176.0
130.92215	176.0
131.04689	200.0
131.163284	152.0
131.202042	188.0
131.233963	148.0
131.26886	212.0
131.40448	168.0
131.46434	180.0
131.635559	176.0
131.795441	168.0
132.021744	144.0
132.049393	136.0
132.597885	140.0
133.406631	176.0
133.565292	140.0
134.609314	220.0
134.887268	208.0
134.990585	144.0
135.055344	180.0
135.175644	164.0
135.328415	156.0
135.743179	144.0
135.894836	208.0
136.003006	168.0
136.542038	184.0
137.191666	144.0
137.798462	140.0
138.312927	228.0
138.432343	188.0
138.657227	152.0
139.093491	196.0
139.702103	188.0
139.904495	156.0
140.253113	144.0
140.602188	208.0
141.460175	164.0
142.065018	280.0
142.301773	200.0
142.702759	160.0
142.82695	176.0
143.072052	212.0
143.543808	352.0
144.080841	144.0
145.066803	180.0
145.661911	184.0
146.058517	288.0
146.969162	172.0
147.075348	140.0
147.471466	180.0
147.856003	140.0
147.909256	184.0
147.969772	148.0
148.672714	148.0
148.69455	156.0
148.966492	172.0
149.05397	160.0
149.681534	176.0
149.715622	208.0
150.039703	180.0
150.15918	144.0
150.193329	152.0
150.383636	148.0
150.747528	168.0
151.05069	180.0
151.217072	176.0
151.605759	192.0
151.85408	180.0
151.993912	160.0
152.06282	968.0
152.585846	172.0
152.649765	220.0
152.92038	164.0
153.070969	360.0
153.634964	176.0
153.869415	148.0
153.911392	160.0
154.076874	212.0
154.43187	156.0
154.568893	156.0
155.198044	140.0
155.503174	144.0
155.614868	180.0
155.670593	132.0
155.937805	180.0
156.04538	596.0
156.124268	148.0
156.141678	152.0
156.676834	200.0
156.985901	172.0
157.048325	124.0
157.315247	148.0
157.547485	140.0
157.573135	120.0
157.594727	128.0
158.061279	148.0
158.362946	372.0
158.438095	188.0
158.510757	172.0
158.804062	160.0
158.869278	156.0
159.947311	148.0
160.131104	340.0
160.243622	144.0
160.3629	144.0
160.428436	140.0
160.747025	140.0
160.84584	156.0
160.888107	168.0
161.16539	176.0
161.653412	224.0
162.023071	180.0
162.357651	176.0
162.410919	164.0
162.730667	172.0
163.119354	148.0
164.049728	196.0
164.229538	140.0
165.071136	856.0
165.238556	192.0
165.3358	172.0
165.37674	156.0
165.886871	224.0
165.986465	156.0
166.078125	996.0
166.422668	160.0
166.7155	168.0
166.946869	176.0
167.031738	200.0
167.086288	2828.0
167.337982	252.0
168.088333	816.0
168.242889	140.0
168.560883	168.0
169.064835	176.0
169.397293	128.0
169.665756	160.0
170.059402	936.0
170.304092	204.0
170.387222	172.0
170.566605	128.0
170.862976	232.0
170.899414	184.0
171.065384	320.0
171.167511	180.0
171.313354	148.0
171.931305	152.0
172.649719	164.0
173.071014	160.0
173.20459	148.0
173.24649	152.0
173.443024	176.0
173.699997	144.0
173.881042	140.0
174.05809	292.0
174.32486	188.0
174.603516	188.0
175.124634	144.0
175.168655	140.0
175.2827	160.0
176.031845	160.0
176.063797	280.0
176.44931	140.0
176.584167	160.0
177.070084	800.0
177.569412	144.0
177.877197	148.0
178.077347	1292.0
178.46431	204.0
178.897964	164.0
179.025772	148.0
179.085983	292.0
180.05751	160.0
180.405197	180.0
181.033951	184.0
181.064438	208.0
181.360809	140.0
181.47876	236.0
182.488297	224.0
182.743805	176.0
183.576126	152.0
184.005142	192.0
184.907974	144.0
185.086639	144.0
185.425262	140.0
186.23378	144.0
186.437546	208.0
186.58519	152.0
187.276291	124.0
187.65155	140.0
187.913956	152.0
187.970673	168.0
188.074249	172.0
188.306458	140.0
188.451248	176.0
189.073654	208.0
189.468994	180.0
189.935013	152.0
190.195679	164.0
190.610382	148.0
190.764282	204.0
191.075867	160.0
191.278687	196.0
191.556808	140.0
191.589859	152.0
191.895767	144.0
191.941788	192.0
192.077789	296.0
192.815765	168.0
193.052322	252.0
193.091843	632.0
193.525894	148.0
193.78624	144.0
193.908554	128.0
193.930344	192.0
194.032166	148.0
194.074112	552.0
194.095749	1856.0
194.127182	192.0
194.349091	160.0
194.790512	192.0
195.048935	172.0
195.081039	996.0
195.360367	196.0
195.496155	160.0
196.082031	136.0
196.296188	156.0
196.365906	220.0
197.217484	160.0
197.337677	156.0
197.494278	176.0
198.056885	140.0
198.093292	164.0
198.253006	172.0
199.34462	172.0
199.423309	140.0
199.757919	192.0
200.03392	148.0
200.230774	148.0
200.769653	208.0
201.423859	252.0
201.819504	200.0
201.904343	184.0
202.546814	156.0
202.818832	144.0
202.852844	140.0
203.079514	340.0
204.087158	264.0
204.486069	148.0
204.782166	176.0
205.0755	716.0
205.098083	384.0
205.686035	148.0
205.908737	140.0
206.055573	196.0
206.096268	14292.0
206.160141	172.0
206.265884	140.0
206.296997	124.0
206.383102	172.0
206.986847	252.0
207.09906	1924.0
208.100113	356.0
208.45163	136.0
208.883896	220.0
209.232101	284.0
209.488403	168.0
209.518799	112.0
209.593765	168.0
210.085129	140.0
210.155396	220.0
211.094299	108.0
211.304276	160.0
212.4254	168.0
213.971436	120.0
214.137421	176.0
215.526001	152.0
216.002533	140.0
216.076981	116.0
216.523514	148.0
216.655319	192.0
216.827057	204.0
216.904404	156.0
216.930786	140.0
217.094009	444.0
217.235764	164.0
217.321426	160.0
217.658386	164.0
217.737396	128.0
217.793488	148.0
217.822861	212.0
218.063782	160.0
218.092712	136.0
218.352386	172.0
218.56665	140.0
218.590195	164.0
218.860992	156.0
219.106873	300.0
219.420792	160.0
219.889816	152.0
220.112457	720.0
220.143692	164.0
220.226395	200.0
220.290344	188.0
220.341599	164.0
220.391815	148.0
220.749481	160.0
221.270248	156.0
222.092331	332.0
222.626495	128.0
222.696579	152.0
223.177994	140.0
224.661163	140.0
225.243927	196.0
225.368729	176.0
226.047485	140.0
226.434555	148.0
226.517532	196.0
226.952438	168.0
227.162018	160.0
227.480103	184.0
227.702301	164.0
228.62825	168.0
228.712524	140.0
228.953384	208.0
229.088928	144.0
229.924133	188.0
229.995682	136.0
230.094772	712.0
230.367981	216.0
230.565598	148.0
230.795959	144.0
230.913239	112.0
231.093445	132.0
231.138931	148.0
231.220642	228.0
231.393173	188.0
231.614243	200.0
232.026367	152.0
232.081512	192.0
232.326904	120.0
232.414581	220.0
232.444931	252.0
232.611847	176.0
233.088943	476.0
233.307495	252.0
233.337906	172.0
233.392624	172.0
233.974609	244.0
234.051208	160.0
234.091736	25112.0
234.141327	188.0
234.213715	184.0
234.633316	160.0
235.095108	5316.0
235.153412	160.0
235.266342	152.0
235.489365	208.0
235.590057	208.0
235.702271	148.0
235.812302	196.0
236.097687	428.0
236.466904	260.0
236.6819	140.0
236.80719	132.0
236.897781	140.0
237.981949	204.0
238.01265	140.0
238.242996	152.0
239.116257	164.0
239.654114	148.0
240.339645	144.0
240.4384	176.0
240.559921	136.0
240.650909	128.0
240.799606	184.0
241.389877	212.0
241.631134	196.0
241.82608	148.0
241.923004	128.0
241.971558	244.0
242.179047	148.0
242.408295	280.0
243.028442	160.0
244.028549	180.0
244.06897	152.0
244.488922	160.0
244.750397	172.0
244.893646	188.0
245.363007	148.0
245.425964	152.0
245.969376	244.0
246.225388	216.0
247.084991	160.0
247.883408	196.0
248.104996	1056.0
248.142059	176.0
248.16864	236.0
248.576401	156.0
249.114075	368.0
250.075455	172.0
250.302124	196.0
250.333618	144.0
250.468491	160.0
251.105713	152.0
252.897141	152.0
253.007935	156.0
253.796829	156.0
253.993454	140.0
254.596481	168.0
254.682236	144.0
255.063721	132.0
255.661469	148.0
255.696472	208.0
255.791962	148.0
256.074158	140.0
256.401886	184.0
256.766937	196.0
257.431793	196.0
258.101746	148.0
258.719238	144.0
258.882538	144.0
259.020264	152.0
260.450836	164.0
260.547211	168.0
260.704163	132.0
260.846069	156.0
261.048615	152.0
261.141876	224.0
261.209442	148.0
261.457184	192.0
261.569824	208.0
261.717926	156.0
261.866058	244.0
262.210785	180.0
262.346344	136.0
263.459503	156.0
263.789124	156.0
263.893585	156.0
264.166016	132.0
265.009216	152.0
265.229584	148.0
265.488953	148.0
265.672729	144.0
266.014557	152.0
266.445801	172.0
266.820221	148.0
267.581512	156.0
268.26889	172.0
268.836426	184.0
268.865784	144.0
269.35553	160.0
269.656128	192.0
270.022247	192.0
270.665894	112.0
270.978149	156.0
271.571472	160.0
272.139191	156.0
272.421295	116.0
273.69931	196.0
273.784821	132.0
273.95459	192.0
274.25116	180.0
274.42453	140.0
274.574249	164.0
274.655792	100.0
274.755676	160.0
274.953644	140.0
275.018402	104.0
275.074402	116.0
275.16037	172.0
275.326447	100.0
275.417236	184.0
275.457611	144.0
275.584229	100.0
275.623413	132.0
275.685364	168.0
275.769714	216.0
275.807983	192.0
275.836914	384.0
275.886658	132.0
275.915527	208.0
275.947998	252.0
276.003815	176.0
276.103851	149520.0
276.170502	120.0
276.221924	400.0
276.259308	176.0
276.356384	148.0
276.388184	112.0
276.424103	108.0
276.501038	176.0
276.529694	116.0
276.555969	224.0
276.647308	2200.0
276.694397	180.0
276.736786	124.0
276.830933	100.0
276.914948	124.0
276.949677	172.0
277.033997	184.0
277.106049	40332.0
277.218567	112.0
277.302704	192.0
277.454193	124.0
277.653595	156.0
277.744751	120.0
277.801697	140.0
277.830597	160.0
277.895111	120.0
277.969635	112.0
278.053467	132.0
278.108948	2932.0
278.168762	160.0
278.305725	108.0
278.338196	96.0
278.387421	168.0
278.447418	112.0
278.5177	120.0
278.647217	148.0
278.67865	132.0
278.804932	144.0
278.880676	148.0
278.954163	140.0
279.023499	96.0
279.057434	168.0
279.108124	256.0
279.141937	152.0
279.207886	132.0
279.237366	292.0
279.446259	148.0
279.496338	144.0
279.759155	120.0
280.086639	108.0
280.143951	160.0
281.128021	120.0
281.713989	204.0
281.977936	140.0
282.001343	160.0
282.265442	148.0
282.33902	200.0
282.470795	140.0
282.546387	180.0
283.256073	156.0
284.194763	144.0
284.396118	260.0
285.050995	188.0
285.857819	120.0
286.645203	132.0
287.357452	172.0
287.622559	144.0
287.782715	240.0
288.077942	124.0
288.133972	140.0
288.903809	128.0
289.029938	152.0
290.401947	144.0
290.464966	104.0
290.746002	196.0
290.919464	108.0
290.984802	116.0
291.050201	184.0
291.410156	148.0
291.508698	240.0
291.671173	212.0
291.990417	188.0
292.023285	108.0
292.093079	160.0
292.201172	120.0
292.27298	200.0
292.374725	156.0
292.445404	120.0
292.687958	108.0
292.864471	276.0
292.888916	128.0
292.953979	124.0
293.00885	124.0
293.050446	212.0
293.109406	124.0
293.135498	208.0
293.202576	112.0
293.22879	152.0
293.310455	296.0
293.382965	280.0
293.42392	368.0
293.473541	288.0
293.503235	268.0
293.613373	164.0
293.656006	392.0
293.718353	292.0
293.743774	136.0
293.788544	184.0
293.814758	340.0
293.872131	492.0
293.904907	204.0
293.930786	288.0
294.052216	712.0
294.115173	219560.0
294.221161	168.0
294.282715	128.0
294.345184	340.0
294.43161	1040.0
294.489319	464.0
294.534119	884.0
294.636353	1272.0
294.681213	10252.0
294.714508	484.0
294.745575	208.0
294.805054	180.0
294.834534	156.0
294.891327	148.0
294.93985	360.0
294.94519	436.0
295.021667	280.0
295.117371	104344.0
295.211731	336.0
295.284363	112.0
295.314514	208.0
295.349792	128.0
295.469696	124.0
295.546356	224.0
295.62442	144.0
295.809753	160.0
295.842529	112.0
295.873077	216.0
295.947754	128.0
296.062012	272.0
296.119141	11004.0
296.247925	132.0
296.287903	104.0
296.346344	164.0
296.377869	96.0
296.552063	124.0
296.616089	136.0
296.713684	136.0
296.7742	176.0
296.807922	348.0
296.852173	180.0
296.89389	204.0
296.92981	176.0
296.970367	168.0
297.00235	296.0
297.038605	172.0
297.1203	788.0
297.169861	188.0
297.207275	304.0
297.235168	248.0
297.307831	244.0
297.423187	136.0
297.480957	128.0
297.516022	184.0
297.572327	128.0
297.666168	112.0
297.718689	96.0
298.092926	216.0
298.227631	140.0
298.292694	132.0
298.326996	108.0
298.601013	104.0
298.671326	176.0
298.841553	128.0
298.95871	104.0
299.172333	104.0
301.570831	96.0
301.738312	120.0
303.182587	104.0
306.690552	140.0
307.857422	96.0
309.723877	100.0
323.305511	140.0
323.767334	148.0
329.612976	180.0
333.999695	172.0
338.009125	140.0
358.241852	144.0
392.080109	140.0
404.76059	144.0
458.671906	148.0
487.879028	100.0
519.487793	108.0
522.292175	144.0
581.094421	148.0
908.854492	164.0
945.921936	144.0
1134.81665	140.0
1169.15918	200.0
1207.739014	244.0
1261.528687	164.0
1271.828003	176.0
1279.142334	160.0
1350.803345	164.0
1352.171631	140.0
1360.226807	160.0
1367.12085	176.0
1368.438354	180.0
1369.277832	176.0
1376.60083	148.0
1378.97229	220.0
1416.848267	192.0
1428.559326	144.0
1432.127197	160.0
1436.831055	160.0
1463.517334	188.0
1480.415649	164.0
1481.020752	188.0
1486.364136	204.0
1490.341553	156.0
1493.85498	184.0
1494.531982	200.0
1497.118408	212.0
1503.210938	132.0
1518.712158	140.0
1520.690674	188.0
1525.661987	188.0
1528.158447	144.0
1529.193359	232.0
1529.839478	176.0
1530.143066	192.0
1530.633545	160.0
1532.328857	148.0
1533.227661	172.0
1538.882935	176.0
1542.40625	152.0
1543.391235	188.0
1546.786621	164.0
1558.56604	184.0
1561.411743	148.0
1567.02417	192.0
1571.612061	164.0
1580.691895	148.0
1584.555786	204.0
1588.55127	144.0
1596.374512	192.0
1598.641724	304.0
1601.842407	168.0
1608.57251	160.0
1615.436768	232.0
1617.069092	248.0
1619.150635	160.0
1620.696655	144.0
1623.406006	184.0
1624.208008	200.0
1630.301758	208.0
1630.896484	180.0
1640.322144	188.0
1641.071899	188.0
1653.706177	224.0
1655.114868	164.0
1655.851685	212.0
1658.241821	176.0
1661.436646	148.0
1668.94104	164.0
1687.547241	204.0
1701.097534	228.0
1713.32373	220.0
1714.949341	156.0
1729.511108	168.0
1734.729614	152.0
1745.705688	192.0
1746.254517	192.0
1749.890991	160.0
1761.700073	148.0
1762.134521	140.0
1775.804321	140.0
1777.440186	176.0
1790.604736	168.0
1792.77832	140.0
1794.059448	200.0
1796.494873	192.0
1798.555542	192.0
1800.159668	140.0
1804.418213	160.0
1806.329346	140.0
1809.155762	148.0
1810.341064	148.0
1818.013062	140.0
1824.043213	148.0
1824.765869	172.0
1825.165527	160.0
1837.182861	164.0
1839.324707	148.0
1840.793091	148.0
1844.637817	244.0
1845.039551	192.0
1851.182861	164.0
1853.812744	172.0
1863.835327	252.0
1868.417969	196.0
1870.345581	148.0
1872.265503	204.0
1883.892334	160.0
1884.488525	208.0
1887.556885	148.0
1900.541016	172.0
1909.592896	180.0
1917.350098	164.0
1921.614136	188.0
1927.717529	164.0
1930.777222	180.0
1932.929199	236.0
1936.194458	140.0
1937.306885	196.0
1939.252075	192.0
1946.595093	248.0
1946.735596	212.0
1951.902588	188.0
1953.028198	236.0
1953.387817	160.0
1953.503174	140.0
1959.383911	172.0
1967.250244	184.0
1968.907227	152.0
1969.819946	232.0
1969.996704	184.0
1973.469849	224.0
1975.079346	184.0
1976.645264	180.0
1979.291992	152.0
1982.666992	180.0
1986.089355	148.0
1988.804443	144.0
1994.409058	228.0
1994.649048	184.0
END IONS

BEGIN IONS
PEPMASS=296.186
CHARGE=1
MSLEVEL=2
SOURCE_INSTRUMENT=LC-ESI-qTof
FILENAME=NCP003272_E2_F11_BC2_01_15715.mzXML
SEQ=*..*
IONMODE=Positive
ORGANISM=GNPS-NIH-CLINICALCOLLECTION1
NAME=ESMOLOL HYDROCHLORIDE [M+H]
PI=Dorrestein
DATACOLLECTOR=Garg_Neha
SMILES=COC(=O)CCc1ccc(OCC(O)CNC(C)C)cc1
INCHI=N/A
INCHIAUX=N/A
PUBMED=N/A
SUBMITUSER=negarg
LIBRARYQUALITY=1
SPECTRUMID=CCMSLIB00000078947
USI=mzspec:GNPS:GNPS-NIH-CLINICALCOLLECTION1:accession:CCMSLIB00000078947
SCANS=1069
44.964935	212.0
45.078449	216.0
45.360851	156.0
45.465473	184.0
45.548714	216.0
45.667	204.0
46.097065	224.0
46.267487	152.0
47.024635	164.0
47.226852	196.0
47.295265	140.0
47.378796	144.0
47.591236	188.0
48.229225	168.0
48.355091	208.0
48.557369	176.0
48.71772	260.0
48.897015	232.0
49.387486	184.0
49.489647	148.0
49.92746	148.0
50.030178	256.0
50.289547	164.0
51.111507	152.0
51.537846	140.0
51.977436	164.0
52.092293	188.0
52.133961	164.0
52.250427	160.0
52.537121	172.0
52.889709	140.0
53.287056	164.0
53.423717	144.0
53.563465	184.0
53.682976	156.0
54.367252	120.0
54.490959	180.0
55.106819	156.0
55.120117	160.0
55.497566	176.0
55.593987	216.0
55.638515	164.0
56.251095	180.0
56.724548	172.0
56.927227	208.0
57.354374	148.0
57.413177	168.0
57.545963	168.0
57.749973	152.0
58.206131	232.0
58.558987	164.0
58.801365	196.0
59.087112	152.0
59.107006	200.0
59.238674	156.0
59.286171	180.0
59.385822	152.0
59.445656	168.0
59.46714	160.0
59.515869	216.0
59.871487	236.0
59.988586	152.0
60.189152	232.0
60.318928	204.0
60.35294	152.0
60.655102	160.0
61.401146	144.0
61.491634	172.0
61.708767	188.0
62.00462	144.0
62.076736	156.0
62.19754	248.0
62.496937	172.0
62.565384	172.0
62.625221	164.0
62.79071	144.0
62.957996	276.0
63.237831	172.0
63.378773	148.0
63.440586	152.0
63.521458	192.0
63.791412	148.0
64.0476	180.0
64.104958	156.0
64.120895	160.0
64.1464	168.0
64.254837	148.0
64.416916	152.0
64.617508	208.0
64.759979	244.0
64.824059	180.0
64.892982	216.0
65.238304	216.0
65.67292	176.0
65.751976	156.0
65.861771	364.0
66.212746	180.0
66.423447	148.0
66.489975	164.0
66.540291	144.0
66.788925	140.0
67.9086	168.0
67.953705	180.0
68.57962	120.0
68.712166	148.0
68.806236	160.0
69.250832	148.0
69.640831	164.0
70.316795	156.0
70.343506	208.0
70.530586	220.0
70.5774	144.0
70.900475	236.0
70.913887	204.0
71.198395	160.0
71.457962	168.0
71.644836	172.0
71.744263	152.0
72.710098	168.0
73.016563	196.0
73.226944	188.0
73.523598	156.0
73.550903	144.0
73.884132	156.0
74.199249	196.0
74.231827	164.0
74.250687	188.0
74.42057	180.0
74.439461	224.0
74.460564	168.0
74.607841	144.0
74.703499	128.0
74.896935	148.0
75.195221	180.0
75.397285	220.0
75.469887	188.0
75.98082	156.0
76.110992	184.0
76.248222	188.0
76.402977	172.0
76.423859	176.0
76.474327	176.0
76.702499	144.0
76.791428	172.0
77.04628	184.0
77.116173	152.0
77.389069	196.0
77.736137	228.0
77.792297	204.0
77.833603	144.0
78.134193	168.0
78.418495	180.0
78.704277	172.0
78.741364	140.0
79.428108	176.0
79.534569	212.0
79.653358	196.0
79.667747	140.0
79.774376	160.0
79.930885	160.0
80.18084	120.0
80.563828	192.0
80.671616	188.0
80.948364	156.0
81.086311	176.0
81.150841	180.0
81.554756	152.0
81.793983	168.0
81.912827	148.0
82.136345	192.0
82.443275	168.0
82.549934	140.0
83.233078	164.0
83.349335	232.0
83.525681	156.0
83.809685	144.0
84.086868	168.0
85.161606	176.0
85.240601	176.0
85.422615	180.0
85.485168	160.0
86.372597	172.0
86.961807	196.0
87.23114	148.0
87.361313	188.0
87.608902	160.0
87.642441	176.0
87.730034	168.0
87.763588	144.0
88.095795	180.0
88.269615	208.0
88.336945	152.0
89.261574	160.0
89.4403	192.0
89.504311	164.0
89.613556	140.0
89.858658	172.0
90.040703	172.0
90.378242	208.0
90.815849	140.0
91.030121	124.0
91.05407	540.0
91.233604	172.0
91.387657	152.0
91.694244	192.0
91.995613	148.0
92.327545	144.0
92.967934	180.0
93.39225	196.0
93.513741	168.0
93.70092	176.0
93.752548	208.0
94.090096	144.0
94.909821	172.0
95.010185	160.0
95.428864	156.0
95.600037	156.0
95.759682	204.0
95.884369	164.0
96.706612	148.0
96.904396	188.0
97.016106	192.0
97.055763	124.0
97.465553	144.0
97.628708	184.0
98.023331	164.0
98.096626	3328.0
98.215622	160.0
98.642136	148.0
99.097816	296.0
99.115143	140.0
99.523743	156.0
99.556595	192.0
99.613113	196.0
99.784019	172.0
99.861572	144.0
99.903343	144.0
100.045448	148.0
100.062553	152.0
100.112221	696.0
100.157387	116.0
100.229866	200.0
100.467117	144.0
100.664719	152.0
101.116524	332.0
101.362839	172.0
101.45504	216.0
101.922676	164.0
101.939728	132.0
102.349098	144.0
102.663452	140.0
103.012627	144.0
103.053871	436.0
103.095467	160.0
103.327995	240.0
103.595222	144.0
103.694511	208.0
104.059341	392.0
104.504753	160.0
104.549515	236.0
104.685913	172.0
104.75312	152.0
105.000343	96.0
105.034424	168.0
105.069199	2144.0
105.154808	180.0
105.708626	144.0
105.923599	208.0
106.083656	184.0
106.231087	152.0
106.272118	140.0
106.43837	180.0
106.598366	176.0
106.698654	220.0
107.049362	2912.0
107.092552	200.0
107.288101	168.0
107.337975	148.0
107.486099	196.0
107.535629	148.0
107.566589	152.0
107.67189	176.0
107.864044	156.0
108.053276	300.0
108.228157	212.0
108.404228	172.0
108.690384	160.0
109.055885	144.0
109.191025	164.0
109.255508	148.0
109.594872	140.0
110.08506	144.0
110.423622	172.0
110.498924	232.0
110.635132	120.0
110.651451	200.0
110.838112	188.0
112.147377	180.0
112.238029	152.0
112.381454	140.0
112.454582	212.0
112.493309	240.0
113.699776	144.0
113.820778	164.0
114.405457	144.0
114.442307	252.0
114.665321	188.0
114.693718	236.0
114.801758	140.0
114.991631	156.0
115.008705	152.0
115.055222	980.0
115.081291	144.0
115.196617	196.0
115.536514	152.0
116.061615	116.0
116.107071	8852.0
116.159897	172.0
116.400276	140.0
116.427002	188.0
116.567825	176.0
117.069244	1180.0
117.109604	628.0
117.558388	160.0
117.98822	208.0
118.070984	272.0
118.161232	148.0
118.210999	220.0
118.286751	152.0
118.364685	184.0
119.008675	148.0
119.050064	13504.0
119.083519	612.0
119.206337	176.0
119.458138	172.0
119.480293	196.0
119.536011	132.0
119.789421	144.0
119.896187	168.0
119.939774	152.0
120.053146	968.0
120.079315	172.0
120.421974	172.0
120.966423	140.0
121.012398	172.0
121.065422	1744.0
121.240204	144.0
121.531853	196.0
121.637192	156.0
121.771126	200.0
122.068474	172.0
122.433105	168.0
122.847481	152.0
122.968842	188.0
123.603081	188.0
124.090363	172.0
124.374321	196.0
124.576385	200.0
124.705261	184.0
125.364021	248.0
125.781082	148.0
125.863686	156.0
126.193245	172.0
126.303955	168.0
126.870491	144.0
126.966911	188.0
127.000549	156.0
127.325989	216.0
127.465263	160.0
127.550667	156.0
127.591194	152.0
127.908318	172.0
128.061432	144.0
128.261963	176.0
128.320572	144.0
128.557419	140.0
128.871277	172.0
129.07312	316.0
129.215302	148.0
129.51149	148.0
129.747162	148.0
129.787964	160.0
130.005737	144.0
130.287277	160.0
130.319183	196.0
130.362259	140.0
130.723831	204.0
130.992493	148.0
131.04715	604.0
131.085464	712.0
131.44162	140.0
132.0914	400.0
132.487106	148.0
132.646896	148.0
132.83493	184.0
132.870483	144.0
132.949646	156.0
133.002441	192.0
133.065323	16836.0
133.120255	164.0
133.268829	176.0
133.335464	176.0
133.687332	156.0
133.796829	196.0
133.885315	160.0
134.0681	2032.0
134.330139	180.0
134.376282	144.0
134.407883	156.0
134.46167	152.0
135.042435	280.0
135.07962	412.0
135.261383	156.0
135.446625	152.0
135.759506	260.0
136.051529	400.0
136.086227	272.0
136.1819	228.0
136.253906	148.0
136.291077	196.0
137.060837	920.0
137.149811	220.0
137.712128	172.0
138.067368	224.0
139.05838	228.0
139.079514	140.0
139.389511	164.0
139.888412	140.0
140.682541	168.0
140.963593	172.0
140.989594	140.0
141.075027	188.0
141.140884	140.0
141.377426	184.0
141.432449	196.0
141.547867	144.0
141.614182	168.0
141.635498	160.0
141.699463	144.0
141.765808	156.0
142.394485	232.0
142.70816	160.0
142.808029	156.0
143.078629	156.0
143.100739	156.0
143.207886	184.0
143.520081	180.0
143.541534	160.0
143.569427	144.0
143.642578	212.0
143.78009	216.0
144.057419	1028.0
144.146454	124.0
144.420395	172.0
144.508896	144.0
144.583084	140.0
144.629456	192.0
144.912369	272.0
144.955582	160.0
145.011612	340.0
145.065689	87968.0
145.180267	140.0
145.20784	328.0
145.269348	100.0
145.41301	176.0
145.492401	144.0
145.628387	148.0
145.734879	140.0
145.792831	160.0
145.930542	124.0
146.018768	140.0
146.069092	7732.0
146.29599	168.0
146.561783	148.0
146.647858	184.0
146.770447	148.0
146.802826	208.0
146.904495	108.0
147.038788	144.0
147.077133	732.0
147.114639	272.0
147.399078	144.0
147.45134	184.0
147.544083	172.0
147.926315	156.0
148.049774	308.0
148.081833	152.0
148.467697	208.0
149.058594	376.0
149.747406	184.0
149.776871	124.0
149.874069	180.0
149.942307	172.0
150.840515	148.0
151.07576	2804.0
151.449783	176.0
151.691406	168.0
151.731598	188.0
151.827225	168.0
151.885956	160.0
152.079285	684.0
152.10585	128.0
152.418823	156.0
152.61792	232.0
152.664642	152.0
153.049377	124.0
153.074707	132.0
153.162521	136.0
153.575882	160.0
154.677902	156.0
154.866089	144.0
155.621506	128.0
156.236313	168.0
156.33194	120.0
156.368179	180.0
156.75914	140.0
156.981033	168.0
157.044312	148.0
157.602448	164.0
158.220337	144.0
158.363068	180.0
158.661255	152.0
158.711395	168.0
159.050079	140.0
159.080505	4028.0
159.127899	196.0
159.439377	148.0
159.731033	140.0
160.083954	240.0
160.395782	148.0
160.496811	168.0
160.559677	156.0
160.777832	116.0
160.859924	188.0
161.013947	188.0
161.059708	4068.0
161.094574	808.0
161.200882	184.0
162.063507	796.0
162.092194	6684.0
162.334961	176.0
162.724472	140.0
162.801285	220.0
162.959579	260.0
163.075821	9072.0
163.270126	120.0
163.506088	152.0
163.81926	188.0
164.078522	1560.0
164.533844	116.0
164.836273	176.0
165.085693	196.0
165.105682	172.0
165.359512	164.0
165.761017	184.0
165.954941	152.0
166.086609	188.0
166.975281	152.0
167.132202	192.0
167.353546	160.0
167.448822	140.0
167.990112	172.0
169.096008	204.0
169.590912	148.0
169.720322	156.0
170.078323	196.0
170.75386	220.0
171.339539	140.0
171.51413	208.0
172.325729	176.0
173.401215	160.0
173.479858	152.0
174.908859	140.0
174.990463	144.0
175.074356	812.0
175.111237	464.0
175.99501	184.0
176.061768	164.0
176.079514	208.0
177.091782	1316.0
177.370682	212.0
177.413101	188.0
178.089706	140.0
178.286057	188.0
178.323547	144.0
178.352783	140.0
179.108459	148.0
179.649582	152.0
180.103226	740.0
180.322464	164.0
180.587158	168.0
180.710205	224.0
181.026062	144.0
181.101364	168.0
181.177567	120.0
181.473526	236.0
182.558334	196.0
182.628265	168.0
182.90271	176.0
183.905396	140.0
183.946045	140.0
184.378036	148.0
184.902695	160.0
185.056992	144.0
185.608536	132.0
186.489319	148.0
187.075882	3224.0
187.110458	1336.0
187.324661	208.0
188.078583	468.0
188.180984	156.0
188.273315	128.0
188.872375	188.0
188.981812	140.0
189.2117	156.0
189.921432	148.0
189.948868	172.0
190.426468	184.0
190.489639	212.0
190.564667	192.0
190.657242	148.0
191.082275	3372.0
191.152222	180.0
191.397217	148.0
191.719498	160.0
191.779877	168.0
192.086044	448.0
192.301422	184.0
192.665909	156.0
192.881454	152.0
193.05011	192.0
193.086105	5592.0
193.132965	340.0
193.327621	100.0
193.620193	152.0
193.710205	144.0
194.087952	972.0
194.124557	180.0
194.263229	228.0
194.765656	180.0
195.093323	472.0
195.210327	176.0
195.385559	172.0
195.441193	160.0
195.775238	164.0
196.06218	160.0
196.24057	212.0
196.513901	148.0
196.589249	200.0
197.385361	176.0
197.511215	148.0
197.617523	216.0
197.9142	192.0
199.763687	192.0
199.98317	152.0
201.124863	212.0
201.514404	192.0
202.017624	216.0
202.136993	104.0
202.360062	144.0
203.602051	204.0
203.962875	156.0
204.105865	512.0
204.138794	1880.0
204.601028	180.0
204.976044	208.0
205.082687	376.0
205.106781	300.0
205.139359	464.0
205.746124	140.0
205.866043	228.0
205.966003	140.0
206.497803	132.0
206.757553	108.0
207.104019	796.0
207.235794	124.0
207.769455	152.0
208.073654	200.0
208.110977	248.0
208.521774	172.0
208.886932	248.0
208.912811	192.0
209.112411	196.0
209.932419	164.0
210.648193	152.0
210.705978	160.0
211.058578	156.0
211.095459	744.0
211.154007	148.0
211.19162	172.0
211.423065	156.0
211.973282	180.0
212.095001	236.0
212.199356	148.0
213.070023	180.0
213.856918	212.0
214.009445	244.0
214.096802	192.0
214.644638	144.0
214.682556	152.0
214.735046	140.0
215.134796	176.0
215.470642	160.0
216.980789	148.0
217.121536	164.0
217.737839	188.0
218.090408	184.0
218.15213	156.0
218.811111	144.0
218.833054	120.0
218.96051	168.0
219.028839	128.0
219.062256	156.0
219.102142	32472.0
219.178391	204.0
219.410568	136.0
219.514465	196.0
219.888504	164.0
220.062286	120.0
220.104355	3268.0
220.275085	148.0
221.105942	340.0
221.573761	168.0
221.75325	304.0
221.941315	136.0
222.114883	140.0
222.138702	228.0
222.488876	172.0
222.572006	192.0
222.908218	108.0
223.038025	144.0
223.113937	260.0
223.617905	136.0
223.654144	204.0
224.208115	140.0
224.452545	168.0
224.5271	172.0
224.589737	196.0
224.90004	192.0
224.986618	156.0
225.055283	200.0
225.079163	164.0
225.103058	204.0
225.802353	180.0
225.892929	160.0
226.166901	128.0
226.257172	184.0
226.575623	168.0
227.177185	140.0
227.5103	184.0
227.711472	168.0
227.813477	208.0
228.059998	208.0
228.23436	228.0
228.632797	164.0
229.125702	156.0
229.634674	140.0
230.199005	140.0
230.289612	204.0
230.389297	156.0
230.606857	204.0
232.496689	156.0
232.569443	148.0
233.051132	252.0
233.435379	144.0
233.812592	140.0
234.304001	172.0
234.433853	164.0
234.665512	156.0
234.946091	168.0
235.127747	148.0
235.373383	220.0
235.727722	184.0
236.126465	844.0
236.621613	208.0
236.685135	228.0
236.865829	148.0
236.988373	224.0
237.0466	184.0
237.113205	160.0
237.598099	124.0
237.708939	140.0
237.837845	216.0
238.694977	152.0
238.837555	156.0
239.883392	184.0
240.565125	152.0
241.328217	152.0
241.727219	224.0
242.398666	168.0
242.865417	164.0
242.988297	208.0
243.809219	188.0
243.895065	140.0
244.21553	112.0
244.255753	272.0
244.504654	156.0
244.669632	160.0
245.598236	156.0
245.754211	152.0
245.92897	184.0
245.974854	132.0
246.151779	164.0
247.188431	200.0
247.720673	200.0
248.099854	192.0
248.447952	164.0
249.144882	296.0
249.345978	164.0
250.047318	196.0
250.299164	168.0
250.784317	164.0
251.219452	232.0
251.70549	140.0
252.457581	148.0
252.558777	148.0
252.644196	256.0
252.891006	220.0
253.980316	100.0
254.138626	15072.0
254.225143	164.0
254.433121	108.0
254.503845	156.0
254.629593	164.0
255.14299	1724.0
255.221649	148.0
256.141418	416.0
256.677826	144.0
256.948944	140.0
257.119904	120.0
257.172302	152.0
257.938904	152.0
258.044403	148.0
258.607391	152.0
258.793793	192.0
259.558868	216.0
259.725616	152.0
259.966248	152.0
261.003815	176.0
261.14856	484.0
262.151154	132.0
262.188416	172.0
262.881775	216.0
263.175507	188.0
263.272369	192.0
264.086792	152.0
264.164825	504.0
264.310028	168.0
264.368256	164.0
265.086639	176.0
265.622131	212.0
266.037476	160.0
267.458008	144.0
267.760803	168.0
267.913879	152.0
268.174561	200.0
268.34082	172.0
268.454926	172.0
268.859467	192.0
269.715149	208.0
270.04541	160.0
271.178223	172.0
271.84726	240.0
272.710968	152.0
272.885193	164.0
272.941101	184.0
272.97583	132.0
274.145874	148.0
275.442505	140.0
276.285461	148.0
276.589142	140.0
277.334747	224.0
277.575958	164.0
278.137848	192.0
278.174194	7000.0
278.299347	172.0
278.424774	192.0
278.858612	148.0
279.176819	948.0
279.696777	196.0
280.18103	132.0
281.181366	132.0
281.978149	140.0
282.561188	180.0
282.68045	152.0
283.092194	140.0
283.407043	184.0
283.681854	204.0
284.54068	164.0
284.621277	172.0
285.215912	148.0
285.8078	180.0
286.656342	140.0
286.710266	160.0
286.76416	160.0
287.384644	256.0
287.94165	144.0
288.215271	216.0
288.489014	176.0
288.644531	148.0
288.823517	104.0
289.043701	140.0
289.280609	164.0
289.659851	212.0
290.07666	200.0
290.134277	148.0
290.205475	204.0
290.978516	160.0
291.173462	164.0
291.250702	180.0
291.304199	132.0
291.478333	184.0
292.141296	208.0
292.212738	140.0
292.411957	132.0
292.662811	168.0
292.849304	212.0
292.889343	96.0
293.046112	104.0
293.313324	184.0
293.369904	200.0
293.416351	176.0
293.591858	100.0
293.638977	116.0
293.711548	136.0
293.867554	188.0
293.91745	160.0
293.954468	232.0
294.163544	112.0
294.205505	176.0
294.217621	112.0
294.270416	136.0
294.336273	136.0
294.364746	244.0
294.449585	132.0
294.494965	324.0
294.548553	196.0
294.606598	140.0
294.670898	212.0
294.736603	124.0
294.812561	192.0
294.915802	180.0
294.999664	260.0
295.059113	176.0
295.13739	104.0
295.182648	176.0
295.230957	320.0
295.270599	128.0
295.300781	184.0
295.348175	148.0
295.38681	288.0
295.423187	200.0
295.458435	540.0
295.52948	116.0
295.562469	156.0
295.601593	208.0
295.622009	100.0
295.655609	348.0
295.682434	220.0
295.711395	268.0
295.768555	168.0
295.800507	152.0
295.835358	292.0
295.871735	172.0
295.957001	224.0
296.008881	248.0
296.03476	232.0
296.076324	556.0
296.103424	264.0
296.146362	848.0
296.18927	239088.0
296.31488	188.0
296.41156	324.0
296.424408	352.0
296.51532	524.0
296.562286	404.0
296.598633	416.0
296.651031	196.0
296.712921	1336.0
296.751862	16520.0
296.786865	320.0
296.836029	348.0
296.874786	164.0
296.909424	284.0
296.983521	308.0
297.015472	296.0
297.069824	384.0
297.114838	536.0
297.190369	121444.0
297.280396	96.0
297.315491	232.0
297.354034	208.0
297.392487	316.0
297.441193	160.0
297.502289	96.0
297.530548	160.0
297.565613	372.0
297.601135	312.0
297.639801	164.0
297.683502	312.0
297.756561	100.0
297.792084	308.0
297.824066	132.0
297.916962	180.0
297.94989	244.0
298.005524	148.0
298.099213	164.0
298.124817	248.0
298.191803	13936.0
298.275055	184.0
298.369354	148.0
298.429779	112.0
298.509979	488.0
298.581635	152.0
298.612091	120.0
298.651276	220.0
298.701569	264.0
298.804535	244.0
298.886719	252.0
298.963318	188.0
298.990906	372.0
299.049713	228.0
299.118439	328.0
299.19635	912.0
299.245941	236.0
299.269775	328.0
299.336151	232.0
299.37381	368.0
299.425995	284.0
299.464111	188.0
299.634766	220.0
299.659973	108.0
299.778046	116.0
300.033722	168.0
300.105896	132.0
300.13443	196.0
300.346313	100.0
300.4216	116.0
300.497253	160.0
300.67868	208.0
301.297241	120.0
301.556274	108.0
301.990601	120.0
302.538208	144.0
308.631805	140.0
309.455109	144.0
310.235291	144.0
310.447937	104.0
312.139709	132.0
313.055084	116.0
315.369385	112.0
322.518921	180.0
326.791595	152.0
327.283081	140.0
338.366974	120.0
365.591309	184.0
370.501587	148.0
395.500732	144.0
407.707031	112.0
417.260925	148.0
569.319031	188.0
714.562195	140.0
750.238342	140.0
759.869141	140.0
1083.463989	168.0
1121.341064	160.0
1145.630981	176.0
1270.282104	192.0
1289.113892	192.0
1305.098755	256.0
1341.435547	272.0
1349.809692	208.0
1350.584961	168.0
1356.2229	196.0
1368.917969	140.0
1369.463013	236.0
1379.431641	216.0
1384.018555	196.0
1385.521973	144.0
1388.064209	152.0
1391.351074	156.0
1407.276245	164.0
1407.709351	144.0
1409.120972	180.0
1410.0177	164.0
1410.369019	156.0
1436.017456	164.0
1436.975464	188.0
1440.319702	176.0
1446.262817	168.0
1447.23938	208.0
1449.049561	160.0
1460.071289	160.0
1465.742554	152.0
1473.425781	156.0
1481.190308	228.0
1485.37561	152.0
1498.544556	180.0
1504.151001	140.0
1512.940308	208.0
1522.236694	152.0
1529.0	160.0
1531.686157	188.0
1537.705444	168.0
1540.203857	148.0
1543.134399	144.0
1548.85498	160.0
1552.805176	248.0
1562.852417	168.0
1567.070923	176.0
1596.405762	164.0
1613.9104	196.0
1614.310181	164.0
1614.398193	148.0
1621.900024	156.0
1622.717651	164.0
1631.798096	156.0
1631.991089	144.0
1635.844604	236.0
1639.323975	156.0
1648.418457	168.0
1654.128296	156.0
1659.6698	220.0
1661.048462	144.0
1675.339233	148.0
1675.730347	164.0
1676.292603	156.0
1678.093872	144.0
1678.411865	196.0
1682.107666	180.0
1684.516602	168.0
1689.396851	140.0
1694.636475	140.0
1699.342651	184.0
1705.690674	172.0
1709.218872	176.0
1713.154297	152.0
1716.574707	176.0
1721.154297	156.0
1723.128296	196.0
1726.649658	156.0
1730.224243	260.0
1731.590576	180.0
1732.313843	144.0
1735.477051	272.0
1743.271362	152.0
1748.427246	196.0
1754.082642	240.0
1755.925293	196.0
1760.206421	164.0
1766.591797	172.0
1768.650269	184.0
1771.413452	160.0
1778.666748	180.0
1779.388794	140.0
1783.353638	180.0
1785.304199	180.0
1794.726807	156.0
1805.02832	252.0
1807.599731	168.0
1808.683105	196.0
1810.494873	220.0
1811.274048	148.0
1820.544189	160.0
1826.272339	220.0
1836.928223	208.0
1837.892334	168.0
1842.61377	188.0
1844.169067	228.0
1845.451294	232.0
1846.888062	152.0
1852.349121	220.0
1854.962646	140.0
1859.122437	144.0
1864.369507	160.0
1865.959717	240.0
1866.312134	188.0
1868.015015	304.0
1878.541626	188.0
1882.183716	148.0
1885.302124	172.0
1896.102661	180.0
1896.38855	180.0
1897.541504	148.0
1898.209106	172.0
1902.71228	144.0
1912.657104	184.0
1915.034058	200.0
1915.879028	236.0
1916.419189	264.0
1930.210327	328.0
1930.734985	200.0
1932.545654	184.0
1933.613281	160.0
1933.709473	232.0
1934.654907	192.0
1935.346558	192.0
1937.606201	164.0
1943.076782	160.0
1947.044434	188.0
1947.22583	164.0
1948.783691	172.0
1949.337158	172.0
1955.176392	176.0
1955.378784	272.0
1956.840088	256.0
1958.275391	164.0
1959.358887	200.0
1961.25354	140.0
1965.29248	176.0
1966.077881	180.0
1966.439697	148.0
1968.514282	164.0
1969.494629	144.0
1969.706665	208.0
1970.853271	240.0
1971.084839	176.0
1971.247559	300.0
1972.932007	144.0
1975.125122	156.0
1979.072021	148.0
1980.249878	152.0
1984.698486	168.0
1987.350464	152.0
1987.46582	172.0
1989.240845	160.0
1989.80896	140.0
1991.780396	208.0
1993.992798	212.0
1997.504883	204.0
1998.349976	176.0
1999.853882	180.0
2001.563232	156.0
2002.542847	168.0
END IONS

BEGIN IONS
PEPMASS=342.148
CHARGE=1
MSLEVEL=2
SOURCE_INSTRUMENT=LC-ESI-qTof
FILENAME=NCP003352_A2_B11_BC4_01_15718.mzXML
SEQ=*..*
IONMODE=Positive
ORGANISM=GNPS-NIH-CLINICALCOLLECTION1
NAME=LEVOSULPIRIDE [M+H]
PI=Dorrestein
DATACOLLECTOR=Garg_Neha
SMILES=CCN1CCC[C@H]1CNC(=O)c2cc(ccc2OC)S(=O)(=O)N
INCHI=N/A
INCHIAUX=N/A
PUBMED=N/A
SUBMITUSER=negarg
LIBRARYQUALITY=1
SPECTRUMID=CCMSLIB00000078968
USI=mzspec:GNPS:GNPS-NIH-CLINICALCOLLECTION1:accession:CCMSLIB00000078968
SCANS=981
46.010506	140.0
46.038864	156.0
48.079945	152.0
48.288563	148.0
48.654381	236.0
50.155426	140.0
50.361431	176.0
50.405228	160.0
50.90527	168.0
51.043106	144.0
51.439178	156.0
51.473446	164.0
53.352329	240.0
55.047604	140.0
56.692936	156.0
57.003571	144.0
57.307518	160.0
58.992813	176.0
59.725128	196.0
60.185917	224.0
60.457981	224.0
60.488937	152.0
60.681034	196.0
61.002396	148.0
61.47744	196.0
62.167568	172.0
63.413483	188.0
63.46104	176.0
64.131897	168.0
64.846336	180.0
65.394028	220.0
66.089554	148.0
66.433022	144.0
67.909248	156.0
68.17028	156.0
68.561943	156.0
69.995102	152.0
70.231537	212.0
70.493652	308.0
70.964821	172.0
70.997536	168.0
71.272835	208.0
72.691254	148.0
72.725197	152.0
73.139931	212.0
73.421059	184.0
75.76046	188.0
76.30217	168.0
77.171928	140.0
77.408142	156.0
77.46244	160.0
79.259491	168.0
79.720863	180.0
80.388657	196.0
80.742371	168.0
81.898216	164.0
81.976486	136.0
82.017143	156.0
82.473801	168.0
82.57505	168.0
82.676361	152.0
83.085861	144.0
84.479515	168.0
85.405853	172.0
85.532814	152.0
86.967163	152.0
87.013573	164.0
88.078537	140.0
88.175926	164.0
88.95887	160.0
88.988907	204.0
89.159843	180.0
89.441963	212.0
89.632179	152.0
89.649139	160.0
92.140526	160.0
92.218872	152.0
93.839058	140.0
94.186424	172.0
94.455101	164.0
95.395584	208.0
95.794502	152.0
97.006569	172.0
97.657974	144.0
97.705185	156.0
98.096001	1864.0
98.223274	156.0
98.237083	140.0
98.262726	184.0
99.011894	152.0
99.099495	260.0
99.30323	156.0
99.893158	164.0
99.940903	204.0
100.880249	184.0
101.03624	160.0
101.520958	156.0
102.131508	144.0
102.802399	188.0
103.234703	148.0
103.524078	200.0
104.500427	224.0
104.549263	224.0
105.759537	176.0
106.17955	140.0
106.280067	140.0
106.902679	184.0
107.053947	224.0
107.616867	192.0
108.60714	176.0
110.09729	572.0
110.435898	156.0
110.607475	148.0
111.0961	156.0
111.337105	172.0
111.374908	176.0
111.833275	160.0
112.01857	168.0
112.112663	33212.0
112.217155	156.0
112.805672	180.0
113.087379	180.0
113.114967	2004.0
113.152618	208.0
113.994682	144.0
114.021103	100.0
114.115837	308.0
116.221832	160.0
116.586884	164.0
116.881485	160.0
117.776161	160.0
117.89283	172.0
118.197731	184.0
118.819557	144.0
120.04631	168.0
120.212097	148.0
121.051514	180.0
121.869682	204.0
124.052376	228.0
124.429512	144.0
126.017502	144.0
126.520454	180.0
127.116905	180.0
127.530128	144.0
128.130951	296.0
129.796722	188.0
130.122528	276.0
130.209732	144.0
130.286972	180.0
132.286942	144.0
133.027359	148.0
133.590363	192.0
133.707718	168.0
134.030106	164.0
134.216812	160.0
135.0345	136.0
138.984375	404.0
139.847763	152.0
141.758347	168.0
143.119431	152.0
143.140671	228.0
144.726349	156.0
146.065491	168.0
146.363907	168.0
148.395935	176.0
150.056503	140.0
150.586029	176.0
151.039963	388.0
152.094604	148.0
152.29071	160.0
154.363327	152.0
154.77655	148.0
155.587296	140.0
155.865479	176.0
156.290665	160.0
156.352875	164.0
156.69899	144.0
158.094803	160.0
158.768692	156.0
159.152618	200.0
160.395401	184.0
160.455902	168.0
161.099426	156.0
162.433472	148.0
163.442062	156.0
163.620224	148.0
164.247116	204.0
164.397644	160.0
164.492065	156.0
164.867523	204.0
165.642761	144.0
166.0289	364.0
166.836014	152.0
166.861725	176.0
167.022079	180.0
168.28392	156.0
169.152542	164.0
169.351929	176.0
169.725098	176.0
169.98967	144.0
170.563644	148.0
170.634201	140.0
170.997406	300.0
171.037048	152.0
171.255768	176.0
173.518753	144.0
174.08551	168.0
175.02359	156.0
175.772858	144.0
176.015701	156.0
176.578583	160.0
176.803467	196.0
177.139725	144.0
177.470993	224.0
177.688477	172.0
178.583679	172.0
179.337173	156.0
180.118958	176.0
180.215134	152.0
180.549271	164.0
180.795395	160.0
180.820511	156.0
181.12738	204.0
181.475769	256.0
183.004562	236.0
183.446396	188.0
184.020844	296.0
185.018646	140.0
186.130264	216.0
187.340546	172.0
187.828964	164.0
188.076797	180.0
188.368973	148.0
189.203033	216.0
189.444397	144.0
189.474152	148.0
190.170654	144.0
191.256561	148.0
192.292679	160.0
193.044098	224.0
194.124084	152.0
194.276627	188.0
195.668945	156.0
195.710709	156.0
196.234512	144.0
196.991425	148.0
197.069031	152.0
197.264664	148.0
197.76535	140.0
199.001801	508.0
199.574783	176.0
199.856049	164.0
200.038147	400.0
200.067123	172.0
201.048004	140.0
201.197601	160.0
201.609985	196.0
201.64389	188.0
202.03862	148.0
202.628632	188.0
203.493652	156.0
204.09494	160.0
204.423111	140.0
204.585358	144.0
205.785599	180.0
205.839844	236.0
206.176941	144.0
207.166931	180.0
208.202454	128.0
208.371841	152.0
208.785751	216.0
209.107971	168.0
210.618805	156.0
211.214233	176.0
211.614822	180.0
212.172745	152.0
212.863297	152.0
213.02504	156.0
213.517151	148.0
213.905579	136.0
213.956635	188.0
213.979889	148.0
214.017731	72484.0
214.134827	188.0
214.246109	100.0
214.299774	124.0
214.407516	136.0
214.524933	136.0
214.918304	140.0
215.020416	4052.0
215.439072	128.0
216.015137	2560.0
216.17186	188.0
216.407104	140.0
216.691711	176.0
216.715714	112.0
216.827835	140.0
217.009583	176.0
218.192764	160.0
218.639862	212.0
220.147217	152.0
220.654495	224.0
221.397186	168.0
223.008163	140.0
223.469101	228.0
225.900497	180.0
226.045547	148.0
226.196747	224.0
229.314529	224.0
229.625061	196.0
230.019165	136.0
230.07164	188.0
230.391754	140.0
230.950974	164.0
231.040451	576.0
231.074997	216.0
231.844101	172.0
232.049332	204.0
233.641632	180.0
233.903336	140.0
234.234833	152.0
234.48204	164.0
234.518616	140.0
234.649689	184.0
234.860107	188.0
234.924667	144.0
234.975266	112.0
235.082809	164.0
235.34993	148.0
237.80658	168.0
240.262115	164.0
240.79921	188.0
241.596695	176.0
243.433167	124.0
244.452209	180.0
245.656906	224.0
246.406143	220.0
246.943451	140.0
247.009491	172.0
248.692108	160.0
249.181976	152.0
249.254242	156.0
249.48053	168.0
250.389877	184.0
250.588333	196.0
251.01384	248.0
252.25145	144.0
253.4319	156.0
255.365158	152.0
255.641937	196.0
255.922043	148.0
256.10675	156.0
256.756927	164.0
257.008942	156.0
259.282532	156.0
261.427765	144.0
261.720703	140.0
262.113678	304.0
262.63916	184.0
262.935974	228.0
263.830719	240.0
265.417145	144.0
266.390808	140.0
267.828552	168.0
268.376678	204.0
269.093811	156.0
269.466156	192.0
269.917206	152.0
270.643585	156.0
271.669403	192.0
273.578308	164.0
274.616669	148.0
274.837677	140.0
276.155792	208.0
276.636017	152.0
277.175415	236.0
277.712463	168.0
278.037598	188.0
278.701752	224.0
279.384399	180.0
280.062347	160.0
280.325562	140.0
280.482178	168.0
280.805603	176.0
283.915894	152.0
284.003082	140.0
285.090027	428.0
287.37384	168.0
287.576324	212.0
288.045654	144.0
288.126709	196.0
288.606659	172.0
289.852264	184.0
290.337006	172.0
291.029266	140.0
291.684937	188.0
292.410461	104.0
294.46524	140.0
294.623657	188.0
296.751099	148.0
296.905396	148.0
297.088318	536.0
298.124084	152.0
299.097992	144.0
299.255768	192.0
299.438293	152.0
300.865814	212.0
301.228394	236.0
302.802185	168.0
303.707153	192.0
303.991272	172.0
304.758636	156.0
305.036682	144.0
305.412201	168.0
306.439148	172.0
308.484222	172.0
309.428772	204.0
309.950623	196.0
310.455414	184.0
311.002716	176.0
311.652405	180.0
311.951111	148.0
312.179657	192.0
312.731995	196.0
312.823517	160.0
314.11322	276.0
314.240234	156.0
314.504883	192.0
314.804993	172.0
314.90387	152.0
315.632843	128.0
316.732483	144.0
317.77713	100.0
317.888275	152.0
319.846527	152.0
319.966797	112.0
320.430542	168.0
320.462616	160.0
320.712067	208.0
321.154205	152.0
322.689728	160.0
322.811279	144.0
323.534027	232.0
324.138977	160.0
324.286255	160.0
324.669861	188.0
325.150604	148.0
325.574219	188.0
326.159851	200.0
326.526581	184.0
327.818542	156.0
328.013611	168.0
329.680511	132.0
331.070221	148.0
331.186127	144.0
332.12851	164.0
334.58136	156.0
334.821686	164.0
335.048492	132.0
335.49942	236.0
338.048828	144.0
338.167603	128.0
338.303284	136.0
338.370911	156.0
338.42218	152.0
338.640411	136.0
338.729248	128.0
339.799957	144.0
339.856201	284.0
339.923523	132.0
340.131104	448.0
340.207489	112.0
340.262054	384.0
340.334503	120.0
340.366364	168.0
340.414795	100.0
340.490814	184.0
340.730194	120.0
340.765656	116.0
340.863831	208.0
340.919312	152.0
340.950867	248.0
341.042511	164.0
341.106232	328.0
341.18335	276.0
341.25589	216.0
341.311981	128.0
341.382355	104.0
341.418762	132.0
341.457489	356.0
341.51123	192.0
341.566589	132.0
341.643555	344.0
341.675751	168.0
341.750732	204.0
341.805695	224.0
341.869324	320.0
341.917542	408.0
341.952637	112.0
341.981934	268.0
342.039612	260.0
342.073975	1020.0
342.150482	225632.0
342.243927	112.0
342.270844	168.0
342.378998	108.0
342.429169	280.0
342.49823	396.0
342.575653	380.0
342.629913	184.0
342.678284	184.0
342.709595	204.0
342.756622	8908.0
342.797211	536.0
342.82782	272.0
342.880585	364.0
342.9375	300.0
343.015045	328.0
343.078308	188.0
343.152039	78312.0
343.27124	168.0
343.334381	116.0
343.384033	136.0
343.415863	252.0
343.493622	256.0
343.548065	152.0
343.609344	168.0
343.689148	228.0
343.746063	268.0
343.860229	124.0
343.900879	160.0
343.952271	164.0
343.996155	412.0
344.039978	284.0
344.147675	21212.0
344.233917	136.0
344.322968	108.0
344.400391	164.0
344.564667	192.0
344.605957	188.0
344.638916	168.0
344.67395	176.0
344.838501	200.0
344.910187	288.0
344.990173	164.0
345.042725	284.0
345.069977	200.0
345.082764	156.0
345.148041	2888.0
345.248108	148.0
345.317902	188.0
345.34848	248.0
345.394775	192.0
345.415527	240.0
345.460327	192.0
345.49527	364.0
345.52597	276.0
345.598083	360.0
345.63031	200.0
345.770142	108.0
345.838715	112.0
345.944672	160.0
345.983154	192.0
346.100403	148.0
346.145569	284.0
346.214874	116.0
346.397308	124.0
346.428131	132.0
346.465759	148.0
346.703735	204.0
346.737549	120.0
347.160553	112.0
347.414886	264.0
347.748108	120.0
347.894165	132.0
348.857788	124.0
356.350006	96.0
356.394775	96.0
356.538422	112.0
357.50885	116.0
358.227814	132.0
360.935974	140.0
424.94223	148.0
488.013	148.0
577.103821	140.0
793.052246	152.0
875.26825	156.0
909.921326	152.0
1254.798706	148.0
1336.974854	160.0
1408.012085	208.0
1442.45459	164.0
1505.452148	196.0
1513.974243	212.0
1514.268433	140.0
1534.79187	140.0
1536.078735	164.0
1563.053223	192.0
1567.273682	184.0
1588.612061	156.0
1605.434204	204.0
1612.099976	148.0
1614.322266	176.0
1631.142944	152.0
1641.488403	232.0
1652.44104	152.0
1662.496704	184.0
1678.432251	164.0
1707.758545	156.0
1740.451172	152.0
1747.058472	152.0
1754.211792	224.0
1764.262695	156.0
1769.550049	148.0
1770.496216	148.0
1787.453369	140.0
1796.839478	164.0
1802.530273	212.0
1804.44043	172.0
1812.794678	152.0
1818.230591	152.0
1829.893066	200.0
1844.224365	200.0
1863.076172	196.0
1885.453125	140.0
1886.109985	160.0
1914.95105	140.0
1927.670654	164.0
1938.206055	180.0
1943.054565	144.0
1945.05542	264.0
1962.615234	176.0
1975.863403	168.0
1984.294678	140.0
1994.796753	148.0
END IONS

BEGIN IONS
PEPMASS=275.131
CHARGE=1
MSLEVEL=2
SOURCE_INSTRUMENT=LC-ESI-qTof
FILENAME=NCP003432_C2_D11_BD1_01_15723.mzXML
SEQ=*..*
IONMODE=Positive
ORGANISM=GNPS-NIH-CLINICALCOLLECTION1
NAME=DEXCHLORPHENIRAMINE MALEATE [M+H]
PI=Dorrestein
DATACOLLECTOR=Garg_Neha
SMILES=CN(C)CC[C@@H](c1ccc(Cl)cc1)c2ccccn2
INCHI=N/A
INCHIAUX=N/A
PUBMED=N/A
SUBMITUSER=negarg
LIBRARYQUALITY=1
SPECTRUMID=CCMSLIB00000079061
USI=mzspec:GNPS:GNPS-NIH-CLINICALCOLLECTION1:accession:CCMSLIB00000079061
SCANS=1061
45.053082	196.0
45.965816	140.0
46.058971	172.0
46.329521	160.0
46.693298	172.0
47.055767	228.0
47.074883	180.0
47.2006	156.0
47.691853	144.0
47.922588	276.0
48.826527	144.0
49.261402	244.0
49.738907	152.0
49.886402	152.0
50.015816	200.0
50.338673	192.0
50.646984	180.0
50.798656	188.0
50.997448	232.0
51.0425	180.0
51.363384	144.0
51.797932	140.0
51.883911	148.0
52.023067	152.0
52.034554	148.0
52.532494	212.0
52.578667	232.0
52.940083	160.0
53.034252	184.0
53.312908	188.0
53.433598	152.0
53.510487	164.0
54.194786	184.0
54.238243	140.0
54.351166	216.0
54.650162	180.0
55.243999	196.0
55.306149	164.0
55.586807	212.0
56.16946	160.0
56.303528	160.0
56.433792	176.0
56.522041	192.0
56.766209	152.0
56.980846	140.0
56.992867	144.0
57.216969	152.0
58.758877	236.0
59.235271	176.0
59.881927	176.0
59.934303	156.0
59.945091	152.0
60.17337	244.0
60.375793	144.0
61.406208	196.0
61.495968	176.0
61.933765	200.0
61.998001	148.0
62.187332	172.0
62.657948	192.0
63.578075	136.0
64.894379	120.0
65.194389	144.0
66.244759	212.0
66.471741	208.0
66.695862	176.0
67.200699	236.0
67.741837	160.0
68.281845	212.0
68.640846	156.0
68.685379	144.0
69.061981	148.0
69.124847	140.0
69.432976	260.0
69.650398	152.0
69.848206	148.0
69.973015	140.0
70.156273	160.0
70.582016	140.0
70.766068	204.0
70.84478	168.0
71.097961	184.0
71.333107	164.0
71.721947	152.0
73.262299	148.0
74.131981	216.0
74.275993	140.0
74.368652	148.0
74.655563	192.0
75.093002	148.0
75.143028	204.0
75.476379	168.0
75.911011	220.0
76.153976	148.0
76.330193	180.0
76.383408	196.0
76.616676	200.0
76.651527	172.0
76.689865	188.0
76.770058	172.0
77.108742	140.0
77.406143	148.0
77.474449	152.0
77.900734	164.0
78.938843	140.0
79.401047	200.0
79.619339	152.0
79.70816	160.0
79.759705	336.0
79.976891	224.0
80.227867	152.0
80.709923	216.0
80.758209	244.0
80.777878	180.0
80.895988	164.0
81.252609	208.0
81.37645	172.0
81.883545	204.0
81.966415	140.0
82.105217	168.0
82.208046	164.0
82.545845	212.0
82.592873	232.0
83.218079	160.0
83.296173	192.0
83.596161	168.0
83.863876	140.0
84.285439	140.0
84.603676	144.0
84.847336	148.0
84.946144	172.0
85.657745	204.0
85.941658	152.0
86.592361	172.0
87.033714	204.0
87.068993	156.0
87.487358	200.0
87.815308	168.0
88.250412	148.0
88.287811	152.0
88.403267	156.0
88.819725	140.0
88.947319	292.0
89.138885	148.0
89.501427	184.0
89.594208	192.0
89.631889	168.0
90.356918	180.0
90.470467	272.0
90.536736	168.0
90.667458	152.0
91.052574	228.0
91.119057	188.0
91.560364	184.0
92.050461	208.0
92.955887	140.0
93.230499	156.0
93.504387	144.0
93.85611	192.0
94.064468	184.0
94.365837	148.0
94.630905	156.0
95.782509	140.0
95.827316	188.0
96.106125	196.0
96.229088	172.0
96.948914	156.0
96.99791	192.0
97.307869	144.0
97.549507	248.0
97.649788	220.0
97.954872	140.0
98.118439	164.0
98.193069	160.0
98.726593	140.0
99.223587	292.0
99.429878	176.0
99.680099	148.0
99.769539	196.0
100.129692	216.0
100.155579	232.0
100.22332	168.0
100.257195	144.0
100.404716	180.0
100.726059	240.0
101.697174	168.0
101.807594	224.0
102.249878	148.0
102.324356	208.0
102.909325	144.0
103.338181	136.0
103.479202	152.0
103.529823	252.0
103.758781	172.0
104.144341	168.0
104.323151	152.0
104.45533	156.0
104.65477	184.0
104.897209	144.0
104.968567	160.0
106.439819	156.0
106.616486	148.0
106.708984	168.0
106.936905	160.0
106.994957	204.0
107.176201	292.0
107.287491	168.0
108.086792	168.0
108.1707	176.0
108.436768	156.0
108.978378	148.0
109.061501	204.0
110.05938	192.0
110.630142	176.0
111.651978	156.0
111.959236	188.0
112.08773	160.0
112.399498	136.0
112.499001	204.0
112.65316	144.0
112.678513	180.0
112.766762	156.0
112.900452	196.0
112.963905	140.0
113.493362	148.0
114.933525	156.0
115.364777	164.0
115.468437	152.0
116.049866	264.0
116.315414	128.0
116.339493	140.0
116.508636	140.0
116.769241	140.0
116.917686	204.0
117.058228	932.0
117.540459	188.0
117.939987	164.0
117.968094	160.0
118.065666	3340.0
118.220993	172.0
118.648758	148.0
118.896408	100.0
119.072121	832.0
119.103546	140.0
120.521774	192.0
121.498253	208.0
121.517998	164.0
122.62188	144.0
122.787231	200.0
122.804871	168.0
122.848991	152.0
122.882355	128.0
122.970345	152.0
123.376785	168.0
123.498405	140.0
123.848114	152.0
124.045326	168.0
124.31591	216.0
124.349197	256.0
124.553345	220.0
124.915787	196.0
125.015411	1444.0
125.087128	168.0
125.141426	164.0
125.711182	176.0
126.017235	168.0
126.180244	164.0
126.221176	168.0
126.45314	192.0
126.5494	180.0
127.013161	604.0
127.732079	176.0
127.799568	156.0
127.916595	196.0
128.022415	180.0
128.062958	176.0
129.569656	168.0
129.594574	140.0
129.716949	168.0
130.509277	172.0
130.748123	188.0
130.941635	148.0
131.037308	192.0
131.101105	180.0
131.155151	152.0
131.347336	176.0
132.037109	164.0
133.575104	116.0
133.599136	140.0
133.654358	140.0
133.870728	180.0
134.274033	216.0
134.320374	128.0
134.375458	144.0
135.050049	180.0
135.089371	224.0
135.980942	164.0
136.967285	156.0
137.016205	384.0
137.149033	200.0
137.275803	212.0
137.517563	164.0
137.877228	140.0
138.612015	172.0
139.053696	276.0
139.644958	196.0
139.681305	184.0
139.837891	168.0
140.057755	156.0
140.365585	160.0
140.464645	172.0
140.83522	208.0
140.870651	144.0
140.932083	252.0
141.047882	184.0
141.168457	148.0
141.961761	144.0
142.719238	188.0
142.821487	184.0
143.235657	152.0
143.526413	148.0
143.58461	108.0
143.733932	164.0
143.955933	176.0
144.0849	176.0
144.335861	148.0
144.402832	196.0
144.575073	188.0
144.809692	164.0
145.688232	172.0
145.759689	152.0
145.915924	172.0
146.108322	176.0
146.156433	148.0
146.257507	228.0
146.623093	172.0
146.647705	224.0
147.033585	196.0
147.134964	260.0
147.388565	140.0
147.685928	192.0
147.705902	184.0
147.843185	172.0
147.990829	208.0
148.051376	192.0
148.662277	140.0
148.990051	176.0
149.109116	248.0
149.184464	196.0
150.051147	220.0
150.273087	208.0
150.512283	140.0
151.052399	152.0
151.573868	140.0
151.819	184.0
152.0177	172.0
152.056976	184.0
152.184616	152.0
152.239517	112.0
152.495361	192.0
152.5728	152.0
153.21019	188.0
153.303818	172.0
153.358032	204.0
154.459274	176.0
154.587921	160.0
155.222076	148.0
155.738266	164.0
156.529114	184.0
156.658615	144.0
158.062027	180.0
158.214432	144.0
158.337112	160.0
158.949005	140.0
159.08432	176.0
159.486221	152.0
160.939804	196.0
160.987778	144.0
161.376907	204.0
161.521057	152.0
162.192062	200.0
163.029968	156.0
163.088043	172.0
163.296539	172.0
164.034927	140.0
164.734863	220.0
164.98201	204.0
165.094513	156.0
165.437363	152.0
166.029236	188.0
166.066727	624.0
166.147232	196.0
166.555389	184.0
166.619614	152.0
167.025772	248.0
167.073883	64740.0
167.547241	160.0
167.919525	164.0
168.07637	6768.0
168.268677	156.0
168.642441	240.0
168.775986	100.0
168.926865	140.0
168.994125	196.0
169.084152	480.0
169.111191	144.0
169.142715	116.0
169.208054	116.0
169.324966	224.0
169.38385	192.0
169.660324	224.0
170.087753	176.0
170.221771	212.0
170.422531	208.0
170.857544	188.0
171.007858	172.0
171.054718	140.0
171.260406	184.0
171.337677	188.0
171.47673	148.0
172.05835	156.0
172.876465	180.0
173.093735	176.0
173.153961	152.0
174.195251	156.0
174.776276	140.0
175.028961	140.0
175.163269	168.0
175.547165	200.0
175.803955	144.0
177.06073	160.0
177.162979	180.0
177.772812	228.0
177.820572	140.0
177.878967	176.0
178.077087	212.0
178.462402	144.0
179.229996	148.0
179.984848	156.0
180.081329	7844.0
181.083801	868.0
181.282196	200.0
181.306641	164.0
181.630722	176.0
181.82933	196.0
182.533096	140.0
182.559998	176.0
183.127838	260.0
183.705307	120.0
183.754669	164.0
184.309433	148.0
185.072189	164.0
186.379562	196.0
186.414886	148.0
187.694244	160.0
187.896088	156.0
187.964294	152.0
188.890457	144.0
189.063034	156.0
189.432449	140.0
189.917618	140.0
190.183762	196.0
190.255142	104.0
190.667145	152.0
191.991333	164.0
192.08078	408.0
192.272736	156.0
192.722839	148.0
192.774048	172.0
193.087708	896.0
193.206665	144.0
193.267532	192.0
193.480637	164.0
193.740967	236.0
194.096375	5820.0
194.67012	180.0
194.742325	176.0
195.103897	2676.0
195.21756	164.0
195.470703	148.0
195.760193	180.0
195.914124	120.0
196.109467	172.0
196.70256	168.0
197.106934	172.0
197.165039	144.0
197.482117	160.0
197.578796	192.0
198.274445	180.0
198.367111	128.0
198.487854	152.0
198.723099	204.0
199.067734	204.0
199.515091	204.0
199.588196	140.0
199.782242	200.0
199.869461	236.0
200.117157	144.0
200.182678	148.0
200.212891	340.0
200.474884	144.0
200.494614	160.0
200.601715	168.0
201.034821	9832.0
201.103851	184.0
201.168716	184.0
201.295761	176.0
201.414383	168.0
201.490311	144.0
201.934448	152.0
202.002335	156.0
202.042099	20972.0
202.194733	140.0
202.249557	108.0
202.330597	148.0
202.384399	156.0
202.574142	140.0
202.631821	112.0
202.815002	148.0
202.917587	128.0
202.985291	176.0
203.038742	2040.0
203.103607	168.0
203.177963	144.0
203.21347	140.0
203.462753	256.0
203.76564	192.0
203.884979	196.0
204.039429	4692.0
204.567383	100.0
204.752686	244.0
205.040848	248.0
206.040329	216.0
206.911789	120.0
207.172592	152.0
207.553162	188.0
207.719498	152.0
207.988586	196.0
208.305084	176.0
208.578064	144.0
208.891495	200.0
209.920395	116.0
210.27742	192.0
210.309158	212.0
210.519913	144.0
210.592117	148.0
210.797241	156.0
211.430084	152.0
212.790009	152.0
213.025238	172.0
214.042374	384.0
214.381073	200.0
214.555954	144.0
215.048676	272.0
215.944702	208.0
216.031921	164.0
216.66304	200.0
217.037262	200.0
218.486145	148.0
218.877594	188.0
219.060181	192.0
219.199463	160.0
219.935944	152.0
221.944672	148.0
222.939087	204.0
223.239334	148.0
223.75235	172.0
223.932755	252.0
225.19136	168.0
225.708359	196.0
226.516418	140.0
226.947968	160.0
227.406937	172.0
227.602066	144.0
227.793076	180.0
228.05751	1248.0
228.308243	180.0
228.348145	164.0
228.559677	116.0
228.68129	204.0
228.744293	112.0
228.933456	148.0
229.019394	136.0
229.06424	592.0
229.197754	104.0
229.235428	160.0
229.317947	208.0
229.360565	160.0
229.399902	112.0
229.436798	172.0
229.563293	172.0
229.607803	236.0
229.703568	160.0
229.73291	248.0
229.79451	420.0
229.817627	196.0
229.851257	188.0
229.92131	280.0
229.943771	180.0
229.979431	412.0
230.025024	684.0
230.075104	358240.0
230.17009	188.0
230.209183	188.0
230.245163	208.0
230.265442	244.0
230.302612	248.0
230.333191	224.0
230.362381	276.0
230.407135	204.0
230.469742	192.0
230.498688	140.0
230.532623	188.0
230.570953	3784.0
230.606918	168.0
230.632156	268.0
230.684708	168.0
230.768707	184.0
230.824417	100.0
230.857834	208.0
230.884094	460.0
230.927612	112.0
230.993408	132.0
231.077118	66120.0
231.248856	248.0
231.323776	152.0
231.383713	364.0
231.450912	152.0
231.55246	152.0
231.641418	160.0
231.696274	252.0
231.757584	360.0
231.815872	212.0
231.863281	160.0
231.893341	336.0
231.948761	212.0
232.035492	488.0
232.071304	127772.0
232.180099	252.0
232.219376	104.0
232.272263	112.0
232.313873	276.0
232.375412	136.0
232.41246	132.0
232.444046	184.0
232.526749	368.0
232.570786	272.0
232.595337	312.0
232.645187	272.0
232.674911	152.0
232.710999	108.0
232.747879	276.0
232.78418	260.0
232.807587	372.0
232.845825	316.0
232.891785	136.0
232.927765	148.0
233.021851	124.0
233.07373	8172.0
233.193542	196.0
233.244705	116.0
233.350616	128.0
233.386292	108.0
233.435974	152.0
233.663635	100.0
233.735504	176.0
233.766708	168.0
233.865692	148.0
233.978531	240.0
234.096298	108.0
234.178604	144.0
234.267654	108.0
234.559616	132.0
234.623215	120.0
234.671051	128.0
234.742081	216.0
235.014923	152.0
235.754242	168.0
237.121857	168.0
239.479141	192.0
246.313995	148.0
252.96553	176.0
257.445404	148.0
261.610382	172.0
264.998169	140.0
268.548004	140.0
270.227051	188.0
272.653564	184.0
273.09082	148.0
273.166779	356.0
273.72406	184.0
274.180573	188.0
274.208374	284.0
274.665955	128.0
274.822723	180.0
275.063507	136.0
275.132172	47776.0
275.429077	196.0
275.497101	200.0
275.601624	112.0
275.767761	144.0
276.134583	5236.0
276.19574	124.0
276.255707	160.0
276.651215	140.0
276.793579	168.0
277.128021	13932.0
277.569763	116.0
277.724823	140.0
278.130402	1492.0
279.054871	116.0
279.50882	160.0
283.911621	156.0
287.312164	160.0
317.7453	144.0
343.1091	140.0
380.196991	172.0
428.171753	140.0
515.570435	148.0
882.599792	180.0
976.391785	148.0
1092.569946	164.0
1291.601807	164.0
1371.223389	148.0
1466.625854	140.0
1493.762939	220.0
1518.60376	236.0
1561.734375	152.0
1569.467651	148.0
1571.818237	164.0
1571.897217	196.0
1594.784668	184.0
1608.604492	236.0
1616.412842	232.0
1678.826416	144.0
1702.846313	172.0
1709.834473	220.0
1711.052734	172.0
1713.366943	188.0
1723.416016	172.0
1746.104614	184.0
1759.478394	196.0
1771.369873	156.0
1772.484131	184.0
1797.500122	276.0
1801.958252	180.0
1812.068604	176.0
1814.746826	192.0
1825.103271	152.0
1834.854126	180.0
1839.469238	168.0
1844.611572	168.0
1846.099243	148.0
1849.461548	156.0
1852.256104	184.0
1875.331909	220.0
1882.932983	180.0
1883.097046	188.0
1898.536621	204.0
1902.727539	160.0
1932.394653	176.0
1933.57605	176.0
1967.231812	152.0
1979.946289	172.0
1982.524292	152.0
1990.87207	144.0
1991.920166	204.0
1992.266602	168.0
1997.449097	200.0
1997.867188	176.0
END IONS

BEGIN IONS
PEPMASS=271.18
CHARGE=1
MSLEVEL=2
SOURCE_INSTRUMENT=LC-ESI-qTof
FILENAME=NCP003512_C2_D11_BD5_01_15729.mzXML
SEQ=*..*
IONMODE=Positive
ORGANISM=GNPS-NIH-CLINICALCOLLECTION1
NAME=Doxylamine  M+H
PI=Dorrestein
DATACOLLECTOR=Garg_Neha
SMILES=CN(C)CCOC(C)(c1ccccc1)c2ccccn2
INCHI=N/A
INCHIAUX=N/A
PUBMED=N/A
SUBMITUSER=negarg
LIBRARYQUALITY=1
SPECTRUMID=CCMSLIB00000079106
USI=mzspec:GNPS:GNPS-NIH-CLINICALCOLLECTION1:accession:CCMSLIB00000079106
SCANS=993
45.131477	176.0
45.266624	144.0
45.442055	168.0
45.767483	168.0
45.864479	200.0
45.946739	212.0
46.260265	144.0
46.327976	140.0
46.374046	200.0
46.494755	256.0
46.528687	172.0
46.752968	156.0
46.872803	220.0
47.103371	160.0
47.158028	152.0
48.322792	184.0
48.781612	176.0
48.947395	168.0
49.125793	148.0
49.208134	164.0
49.398193	164.0
49.511566	144.0
49.532578	168.0
49.685379	152.0
49.860897	148.0
50.077564	184.0
50.649609	164.0
50.78001	156.0
51.690342	148.0
52.005047	216.0
52.209644	156.0
52.4818	172.0
52.734428	160.0
52.886299	152.0
52.897877	180.0
53.047081	284.0
53.176178	160.0
53.228989	200.0
53.34903	148.0
53.498211	156.0
53.710163	144.0
53.945259	184.0
54.739006	180.0
54.765514	168.0
54.889309	180.0
55.224545	192.0
55.38588	140.0
55.975483	192.0
56.596653	188.0
56.688026	176.0
56.723995	176.0
56.770473	160.0
56.873993	140.0
57.258896	144.0
57.688923	164.0
57.931049	140.0
58.156982	208.0
58.188862	156.0
58.207081	140.0
58.226112	188.0
58.354469	156.0
58.825214	220.0
58.904621	152.0
59.443581	152.0
60.054302	200.0
60.528748	168.0
60.666637	164.0
60.728661	196.0
60.935123	184.0
61.173061	168.0
61.333504	168.0
61.545673	176.0
62.156128	168.0
62.815334	160.0
63.430454	180.0
63.48119	172.0
63.620811	176.0
63.639866	176.0
64.219116	232.0
64.281334	156.0
64.493744	144.0
64.51133	160.0
64.781769	172.0
65.00116	196.0
65.060806	156.0
65.533646	176.0
65.75618	216.0
65.796532	164.0
65.886971	228.0
66.10363	148.0
66.775261	204.0
66.902184	196.0
67.008041	140.0
67.365311	184.0
67.928429	232.0
67.948845	208.0
68.255257	140.0
68.647087	164.0
68.888138	184.0
68.91787	200.0
68.960838	248.0
69.329903	180.0
69.560448	212.0
69.8396	160.0
69.977722	172.0
70.045998	188.0
70.075989	204.0
70.267723	216.0
70.331131	204.0
70.3703	188.0
70.610153	184.0
70.789223	200.0
71.598656	160.0
71.821136	160.0
71.890305	168.0
72.521133	224.0
72.768799	172.0
73.090042	212.0
73.706581	152.0
74.008347	144.0
74.84626	140.0
74.937553	140.0
75.377541	212.0
76.205772	200.0
76.35527	156.0
76.457916	164.0
76.557144	148.0
76.956451	212.0
77.451363	184.0
77.752922	196.0
77.870552	184.0
78.157097	184.0
78.869568	160.0
80.200806	208.0
80.423759	176.0
80.593407	144.0
80.800804	180.0
81.225372	232.0
81.358162	148.0
81.40844	148.0
81.566544	204.0
81.907364	196.0
81.930046	140.0
81.976891	136.0
82.056198	144.0
82.929306	180.0
83.130615	164.0
83.288567	156.0
83.381226	172.0
84.020355	144.0
84.153587	152.0
84.297882	176.0
84.37648	176.0
84.700386	144.0
85.068962	144.0
85.151588	148.0
85.686874	220.0
86.197968	204.0
86.734673	144.0
86.881165	260.0
87.38092	224.0
87.645309	140.0
87.958618	144.0
88.025833	212.0
88.188362	156.0
88.513878	156.0
88.654373	164.0
88.744347	144.0
88.779976	204.0
88.984917	180.0
89.601379	148.0
89.774788	164.0
89.933258	148.0
90.091042	760.0
90.71447	152.0
91.092773	168.0
91.335396	148.0
91.519997	168.0
91.987076	152.0
92.346298	156.0
92.526169	144.0
92.614258	180.0
92.727303	152.0
93.099007	160.0
93.264709	188.0
93.670715	196.0
93.832588	172.0
94.179939	148.0
94.205048	240.0
95.070526	152.0
95.295769	140.0
95.739265	148.0
95.998451	232.0
96.349785	212.0
97.121048	148.0
97.24073	144.0
97.266251	180.0
97.621857	176.0
97.840256	148.0
97.950531	168.0
98.003723	168.0
98.37252	184.0
99.157768	208.0
99.918289	140.0
100.20697	144.0
100.905502	200.0
101.067505	196.0
101.14756	144.0
101.636559	140.0
101.893555	248.0
102.146851	204.0
102.650352	144.0
103.387688	152.0
104.054909	164.0
104.911049	204.0
105.013	144.0
105.368187	148.0
105.464226	148.0
105.560318	188.0
105.846794	204.0
106.172615	220.0
107.2314	176.0
108.944695	144.0
109.094315	156.0
109.321022	140.0
109.485481	216.0
109.835632	176.0
109.952469	172.0
109.987953	172.0
110.805603	148.0
111.204025	152.0
111.218712	276.0
111.661781	132.0
112.013535	152.0
112.393021	164.0
113.4823	160.0
113.766586	152.0
113.915237	168.0
114.178795	164.0
114.444786	156.0
114.736671	232.0
115.212578	192.0
116.19738	172.0
116.233856	176.0
116.902145	180.0
117.6371	164.0
117.843956	132.0
118.415504	176.0
118.760117	184.0
118.842552	176.0
120.26796	168.0
120.296341	144.0
120.501617	152.0
120.71801	188.0
120.9543	156.0
121.237419	164.0
121.326698	156.0
121.377121	140.0
122.705139	156.0
123.31218	152.0
124.69738	144.0
124.835213	164.0
126.121605	244.0
126.674294	180.0
126.918579	208.0
127.089043	140.0
127.537315	196.0
127.598465	196.0
127.787796	140.0
128.143524	184.0
128.632904	188.0
128.799988	184.0
128.935547	168.0
129.272507	156.0
129.44455	148.0
129.736816	180.0
130.165634	224.0
130.308731	148.0
130.806763	276.0
131.485977	164.0
131.547607	156.0
132.707504	176.0
132.792343	140.0
133.380142	160.0
133.775787	176.0
134.061615	464.0
134.866837	204.0
135.220718	196.0
135.310989	504.0
135.758179	140.0
135.867203	140.0
136.885223	148.0
137.752823	152.0
137.779999	164.0
138.672394	180.0
138.942047	144.0
138.96785	180.0
139.058395	928.0
139.210907	160.0
139.639694	148.0
140.05571	712.0
140.138733	160.0
140.482941	144.0
140.558441	160.0
140.685883	140.0
141.009491	192.0
141.579636	176.0
141.818924	216.0
142.058426	148.0
142.148575	176.0
142.255371	160.0
142.507111	140.0
143.013641	156.0
143.096954	176.0
144.311554	156.0
144.821075	184.0
146.7146	164.0
147.223709	168.0
147.65387	172.0
147.678055	144.0
147.870331	256.0
147.980545	172.0
149.240967	172.0
149.339478	172.0
149.5755	148.0
149.989594	236.0
150.306625	160.0
150.482361	140.0
150.582489	212.0
150.773041	140.0
150.914825	144.0
150.997971	144.0
151.051773	172.0
151.9263	160.0
152.061264	156.0
152.289597	176.0
152.306778	196.0
152.343628	172.0
152.419479	96.0
152.557419	140.0
152.914078	140.0
153.061783	164.0
153.278549	196.0
153.751831	160.0
153.786575	144.0
153.816193	140.0
154.184204	160.0
154.494507	216.0
154.562546	228.0
154.775421	172.0
154.849716	144.0
154.953461	172.0
155.109879	144.0
155.305756	208.0
155.866821	188.0
156.167618	148.0
156.26712	220.0
156.471207	160.0
157.146622	296.0
157.291367	140.0
157.591034	160.0
157.740982	212.0
158.271362	176.0
158.53688	140.0
158.592026	156.0
158.664719	168.0
159.24939	172.0
159.465454	156.0
159.580917	168.0
160.132187	140.0
160.30098	188.0
160.369019	224.0
160.797775	144.0
162.186325	240.0
162.40184	160.0
163.400162	164.0
163.512115	156.0
163.583389	144.0
163.65976	208.0
163.850784	232.0
163.884155	164.0
164.161743	208.0
164.306915	148.0
164.603195	180.0
165.070816	180.0
165.188675	148.0
165.21405	188.0
165.665955	176.0
165.779892	156.0
165.992661	180.0
166.034119	144.0
166.06517	1792.0
166.177444	196.0
166.213257	260.0
166.624069	164.0
166.869446	168.0
166.919647	108.0
166.967789	276.0
166.978012	200.0
167.049759	576.0
167.074554	178776.0
167.135437	180.0
167.171936	400.0
167.195404	232.0
167.281235	184.0
167.334229	124.0
167.407669	128.0
167.498611	160.0
167.6315	132.0
167.971634	220.0
168.007935	108.0
168.076294	23764.0
168.153229	128.0
168.176834	140.0
168.578857	104.0
168.646927	180.0
168.925903	188.0
169.032181	144.0
169.07962	1436.0
169.149918	124.0
169.221283	128.0
169.244141	112.0
169.263962	104.0
169.314606	152.0
169.33374	232.0
169.517654	96.0
169.617554	152.0
169.761749	104.0
170.087051	172.0
170.113007	156.0
172.039383	176.0
172.42334	160.0
172.894073	160.0
173.70105	168.0
173.931961	156.0
174.173538	140.0
174.754517	200.0
175.262665	140.0
175.776093	140.0
175.808517	168.0
176.035538	148.0
177.276749	96.0
177.55455	192.0
177.915405	152.0
178.276627	312.0
179.24791	196.0
179.802582	164.0
180.082047	1036.0
180.117645	220.0
180.256561	128.0
180.866333	160.0
181.063446	160.0
181.089447	1624.0
181.336441	292.0
181.412781	160.0
181.453537	176.0
181.536118	156.0
181.645386	200.0
181.751999	172.0
181.79332	168.0
181.842331	220.0
181.863419	144.0
181.904739	176.0
181.954681	168.0
181.97551	140.0
182.021637	208.0
182.041	192.0
182.097778	252356.0
182.16713	268.0
182.199799	212.0
182.24472	172.0
182.302246	172.0
182.324753	236.0
182.370285	160.0
182.408905	204.0
182.497284	144.0
182.538681	1044.0
182.569839	340.0
182.617035	144.0
182.745056	100.0
182.989761	188.0
183.046997	196.0
183.10022	36848.0
183.167252	148.0
183.246201	208.0
183.329575	100.0
183.393219	120.0
183.416748	104.0
183.464264	132.0
183.662567	120.0
183.936829	136.0
184.004028	168.0
184.071259	228.0
184.102081	2524.0
184.288925	180.0
184.34111	184.0
184.401306	164.0
184.424881	104.0
184.502304	116.0
184.534409	184.0
184.577744	132.0
184.67804	316.0
185.109177	220.0
185.41275	160.0
185.493881	128.0
185.700134	148.0
190.944031	152.0
191.440689	120.0
194.7332	148.0
195.030487	140.0
211.101303	476.0
212.10611	176.0
215.795868	140.0
216.181976	140.0
226.123047	1220.0
227.126572	360.0
233.287155	144.0
235.209274	144.0
248.979126	156.0
252.104218	256.0
258.822571	176.0
269.131042	184.0
271.091248	196.0
271.182068	21664.0
272.045685	132.0
272.125977	180.0
272.182983	3244.0
273.187286	920.0
274.385681	100.0
275.819794	188.0
305.354309	172.0
557.451538	140.0
1304.38147	172.0
1320.973755	172.0
1357.822632	200.0
1368.183105	200.0
1378.686401	172.0
1393.580444	176.0
1396.174683	172.0
1412.269287	152.0
1429.66748	144.0
1438.817993	236.0
1455.079956	176.0
1456.970947	164.0
1473.930908	164.0
1474.6875	140.0
1477.412231	176.0
1498.398926	148.0
1516.116699	164.0
1519.706909	144.0
1522.004395	204.0
1526.005859	212.0
1550.132446	196.0
1552.782227	188.0
1560.996582	164.0
1563.915283	144.0
1576.91333	172.0
1579.736206	140.0
1580.946655	248.0
1614.894287	164.0
1636.480713	148.0
1659.158936	140.0
1685.063843	144.0
1696.037598	140.0
1699.161865	156.0
1706.170898	180.0
1709.259766	144.0
1716.895996	144.0
1720.25415	196.0
1723.425415	220.0
1727.823853	200.0
1728.775391	192.0
1731.22583	200.0
1731.697876	160.0
1744.559204	172.0
1751.032715	176.0
1754.990967	216.0
1755.733032	148.0
1757.985474	188.0
1761.734375	164.0
1764.032349	192.0
1766.892334	164.0
1776.979492	172.0
1781.134888	188.0
1783.05896	176.0
1786.758667	196.0
1807.091431	168.0
1811.510498	148.0
1815.952026	164.0
1831.242065	168.0
1831.68811	136.0
1831.932007	192.0
1838.719116	152.0
1843.040039	252.0
1843.253662	184.0
1846.425293	168.0
1848.22168	172.0
1848.683716	164.0
1856.170532	140.0
1857.268311	184.0
1869.924194	144.0
1888.17981	148.0
1888.586304	200.0
1889.235107	220.0
1895.633423	180.0
1895.746094	156.0
1906.567627	200.0
1909.384399	164.0
1912.272827	160.0
1917.646606	176.0
1922.696289	184.0
1924.197632	184.0
1925.48999	144.0
1926.43335	208.0
1927.114746	168.0
1929.789185	140.0
1936.711304	184.0
1945.47998	180.0
1945.614746	148.0
1946.884888	216.0
1948.738281	208.0
1949.089722	192.0
1949.968506	148.0
1950.30249	140.0
1952.606079	180.0
1979.592896	160.0
1986.115723	164.0
1988.706543	200.0
1990.144653	200.0
1992.862549	172.0
1994.657715	160.0
2000.688965	152.0
2001.917603	164.0
2003.378296	172.0
END IONS

BEGIN IONS
PEPMASS=230.025
CHARGE=1
MSLEVEL=2
SOURCE_INSTRUMENT=LC-ESI-qTof
FILENAME=NCP003512_E2_F11_BD6_01_15730.mzXML
SEQ=*..*
IONMODE=Positive
ORGANISM=GNPS-NIH-CLINICALCOLLECTION1
NAME="1H-Imidazol-2-amine, N-(2,6-dichlorophenyl)-4,5-dihydro- [CAS]" [M+H]
PI=Dorrestein
DATACOLLECTOR=Garg_Neha
SMILES=Clc1cccc(Cl)c1NC2=NCCN2
INCHI=N/A
INCHIAUX=N/A
PUBMED=N/A
SUBMITUSER=negarg
LIBRARYQUALITY=1
SPECTRUMID=CCMSLIB00000079123
USI=mzspec:GNPS:GNPS-NIH-CLINICALCOLLECTION1:accession:CCMSLIB00000079123
SCANS=967
46.76791	156.0
46.837353	140.0
46.879589	184.0
46.980484	220.0
47.307095	168.0
47.674683	160.0
50.734604	172.0
53.373714	196.0
55.807308	228.0
56.9911	176.0
63.272003	144.0
63.81142	144.0
64.586449	192.0
64.618439	148.0
65.144279	172.0
67.069923	160.0
69.300041	208.0
69.601913	140.0
70.760712	156.0
72.163902	188.0
74.366585	172.0
75.604034	140.0
75.858643	208.0
76.08242	164.0
78.255615	160.0
78.278511	176.0
79.175606	144.0
80.266716	204.0
80.67379	156.0
81.087265	196.0
81.494606	160.0
81.695969	192.0
83.432076	164.0
84.630745	144.0
84.878105	188.0
85.89698	172.0
87.939903	180.0
88.055656	184.0
88.73867	256.0
88.976936	152.0
90.023827	140.0
91.746666	140.0
92.353897	160.0
92.417023	160.0
92.683174	144.0
93.990692	184.0
96.148605	156.0
96.601906	148.0
98.569969	236.0
100.388298	160.0
100.777527	236.0
100.829483	176.0
100.969429	176.0
101.075455	144.0
101.431938	144.0
101.92765	152.0
103.967224	160.0
104.637993	140.0
105.051697	192.0
105.343613	144.0
105.936844	140.0
108.722466	188.0
109.589569	200.0
111.168282	156.0
111.361427	204.0
113.987404	164.0
117.057068	176.0
117.518333	152.0
118.067001	152.0
118.27903	144.0
118.918434	212.0
119.013954	212.0
119.903664	160.0
120.529953	168.0
121.61618	168.0
121.903877	200.0
122.198517	144.0
123.020546	212.0
125.992905	288.0
126.15506	228.0
127.365097	184.0
127.717987	268.0
128.317001	156.0
129.043976	156.0
129.686874	176.0
129.968079	156.0
130.040695	204.0
130.310928	148.0
132.96492	176.0
133.453629	152.0
133.702057	244.0
134.631104	152.0
134.954071	156.0
136.113144	164.0
136.610504	212.0
138.379486	176.0
138.512985	160.0
138.648865	152.0
140.199921	152.0
141.025955	232.0
142.051224	144.0
144.965881	228.0
145.965729	156.0
149.008804	160.0
149.514572	164.0
151.019089	636.0
151.291504	180.0
151.460464	148.0
152.014496	292.0
152.471313	204.0
153.018356	172.0
153.300644	168.0
154.013641	140.0
155.018082	172.0
155.464447	144.0
155.86673	196.0
156.49353	204.0
156.540833	148.0
157.101624	180.0
157.481033	232.0
157.743393	176.0
158.069839	136.0
158.975647	140.0
159.078537	772.0
159.972198	572.0
160.08519	280.0
160.313477	200.0
160.983261	196.0
161.0914	148.0
161.970535	332.0
163.939697	124.0
163.980637	576.0
163.99855	152.0
164.475449	180.0
164.986343	144.0
165.020798	124.0
165.626083	144.0
166.01442	176.0
166.36972	144.0
166.518646	152.0
167.027557	176.0
167.624847	200.0
169.31691	140.0
169.441238	168.0
170.96022	140.0
171.972275	1368.0
172.967194	140.0
173.967972	588.0
174.186569	152.0
175.115051	176.0
175.615814	180.0
176.085617	172.0
176.690933	160.0
177.02179	156.0
178.515778	196.0
178.877609	176.0
178.962799	208.0
179.20517	176.0
180.903702	204.0
181.053635	140.0
181.947067	140.0
182.952164	160.0
184.854782	172.0
184.900787	140.0
184.964417	288.0
185.985153	240.0
186.256439	152.0
186.680405	192.0
186.925232	172.0
186.983398	1144.0
187.456223	260.0
187.938858	160.0
187.98378	140.0
188.564209	184.0
188.791107	224.0
188.97879	724.0
189.974335	148.0
190.965927	184.0
192.034561	144.0
192.343597	140.0
194.047348	844.0
194.078186	184.0
194.21962	188.0
195.055435	148.0
196.038681	160.0
196.656982	160.0
197.060562	244.0
197.53714	168.0
197.920563	152.0
198.854065	176.0
200.989975	176.0
203.009674	188.0
203.679474	188.0
204.07164	180.0
205.5271	148.0
207.254105	196.0
208.439148	208.0
208.625961	144.0
210.29953	208.0
210.518936	144.0
212.492981	164.0
212.998428	2312.0
213.509644	144.0
214.003235	284.0
214.931198	152.0
214.995224	2348.0
216.015076	156.0
216.386734	144.0
219.504196	192.0
220.779892	140.0
220.995834	184.0
223.2948	156.0
223.503036	284.0
224.814148	196.0
225.599686	164.0
228.000534	196.0
228.075668	144.0
228.12677	184.0
228.680222	232.0
229.229889	300.0
229.376007	204.0
229.644821	128.0
229.882614	164.0
229.906128	196.0
229.937515	144.0
229.9758	260.0
230.026321	124412.0
230.089066	140.0
230.187576	144.0
230.289032	296.0
230.354233	264.0
230.38765	196.0
230.523041	400.0
230.650314	144.0
230.756775	192.0
230.862961	152.0
230.92215	104.0
230.982925	144.0
231.027725	9536.0
231.082962	124.0
231.200256	168.0
231.294083	120.0
231.420151	112.0
231.572647	140.0
231.660278	228.0
231.680435	248.0
231.767593	136.0
231.826508	156.0
231.931183	120.0
231.951706	196.0
232.022659	60376.0
232.083176	128.0
232.128128	160.0
232.296478	176.0
232.321884	224.0
232.401642	132.0
232.453781	256.0
232.51709	428.0
232.656754	144.0
232.686554	304.0
232.741501	164.0
232.862106	152.0
232.901001	104.0
233.02507	3312.0
234.034058	208.0
234.702286	168.0
240.468277	96.0
241.981628	148.0
242.638428	156.0
243.033005	108.0
244.39035	100.0
580.31189	152.0
1329.406494	168.0
1516.418091	168.0
1570.256836	168.0
1707.506592	192.0
1765.042969	184.0
1945.364746	156.0
1949.668579	168.0
END IONS

BEGIN IONS
PEPMASS=328.191
CHARGE=1
MSLEVEL=2
SOURCE_INSTRUMENT=LC-ESI-qTof
FILENAME=NCP003512_E2_F11_BD6_01_15730.mzXML
SEQ=*..*
IONMODE=Positive
ORGANISM=GNPS-NIH-CLINICALCOLLECTION1
NAME=BENACTYZINE HYDROCHLORIDE [M+H]
PI=Dorrestein
DATACOLLECTOR=Garg_Neha
SMILES=CCN(CC)CCOC(=O)C(O)(c1ccccc1)c2ccccc2
INCHI=N/A
INCHIAUX=N/A
PUBMED=N/A
SUBMITUSER=negarg
LIBRARYQUALITY=1
SPECTRUMID=CCMSLIB00000079124
USI=mzspec:GNPS:GNPS-NIH-CLINICALCOLLECTION1:accession:CCMSLIB00000079124
SCANS=1100
45.051254	156.0
45.383167	160.0
45.513317	152.0
46.266998	144.0
46.543003	148.0
46.789684	148.0
46.86459	292.0
47.581268	172.0
47.736534	204.0
48.027126	160.0
48.216278	148.0
50.0564	168.0
51.101009	176.0
51.978325	156.0
52.17078	180.0
52.24844	228.0
52.393845	220.0
52.837059	184.0
53.734921	140.0
53.949604	164.0
54.255569	168.0
54.411079	200.0
54.681549	180.0
54.733074	148.0
54.850933	204.0
55.354736	204.0
55.554825	184.0
56.191563	204.0
56.794426	196.0
56.929501	216.0
57.112858	244.0
57.594475	128.0
57.711559	160.0
58.034061	164.0
58.071972	144.0
58.088657	148.0
58.411156	192.0
58.730564	148.0
59.107914	156.0
59.656986	168.0
59.667747	156.0
59.801575	164.0
61.497231	172.0
62.322521	172.0
62.457718	160.0
62.715946	208.0
63.118519	180.0
63.28149	152.0
63.476383	168.0
66.499008	244.0
68.046539	184.0
68.368713	200.0
68.805511	144.0
68.826973	224.0
68.975662	140.0
69.142715	184.0
69.545456	160.0
69.961021	160.0
71.753624	140.0
71.8312	140.0
71.878441	188.0
73.309654	176.0
73.941528	144.0
74.512535	164.0
74.932327	144.0
75.488113	212.0
77.237755	144.0
77.572205	192.0
77.835373	160.0
78.802361	168.0
79.773537	152.0
80.496895	172.0
80.543327	168.0
80.611221	176.0
80.820427	204.0
80.83474	244.0
82.359299	204.0
82.65036	164.0
82.724564	200.0
82.755341	164.0
83.668564	140.0
84.027588	192.0
84.491631	184.0
85.078072	176.0
85.160706	144.0
85.313217	144.0
85.561577	144.0
86.818039	196.0
86.936768	204.0
87.109436	204.0
87.336205	140.0
88.847427	192.0
89.03701	204.0
90.684074	172.0
90.886986	164.0
91.712334	184.0
92.302246	156.0
92.84034	152.0
92.936249	152.0
93.162796	156.0
93.345383	180.0
93.695686	152.0
94.054359	140.0
95.778145	140.0
96.721252	232.0
96.875954	184.0
97.275986	224.0
97.448807	188.0
97.582458	160.0
97.777191	172.0
98.097076	488.0
98.78347	176.0
99.389709	144.0
99.921432	116.0
100.039604	144.0
100.112732	24996.0
100.19767	108.0
100.333733	112.0
100.486572	124.0
100.503967	148.0
100.709595	152.0
101.11541	1324.0
101.797066	144.0
102.068336	156.0
102.1166	152.0
102.410454	164.0
102.726913	176.0
103.055984	144.0
103.128738	156.0
103.177361	144.0
104.713318	156.0
104.823326	180.0
104.952499	312.0
105.000687	160.0
105.034332	13656.0
105.556145	260.0
105.693192	160.0
105.715706	160.0
106.037842	1492.0
106.200195	148.0
106.486542	176.0
106.502968	164.0
107.038139	156.0
107.181862	228.0
107.991104	156.0
109.22316	172.0
109.852234	172.0
110.372269	164.0
112.591362	228.0
113.420738	188.0
113.56916	144.0
114.263794	180.0
114.3255	156.0
115.06086	156.0
115.103569	140.0
115.178314	180.0
115.537437	156.0
115.86499	164.0
116.107819	2624.0
116.697708	144.0
117.109604	156.0
117.485954	156.0
117.596001	228.0
117.861618	168.0
117.995621	184.0
118.071304	152.0
118.123611	25236.0
118.239281	116.0
118.580078	184.0
118.628525	148.0
118.790398	144.0
119.126564	1524.0
119.202911	156.0
119.298195	120.0
119.735886	200.0
119.900269	120.0
120.003914	176.0
120.127571	272.0
121.618355	160.0
122.044533	280.0
122.586021	144.0
123.936127	156.0
124.011475	140.0
124.892944	216.0
125.384987	144.0
125.603485	200.0
125.967331	140.0
125.991905	148.0
126.04776	176.0
126.680916	192.0
127.250549	144.0
127.486397	180.0
127.623512	172.0
128.060089	144.0
128.204269	156.0
129.012314	148.0
129.062042	144.0
130.585953	144.0
130.601883	148.0
132.558411	180.0
132.987274	140.0
133.031738	288.0
136.364014	140.0
136.408173	164.0
136.698898	240.0
136.910736	192.0
137.98642	224.0
138.749634	176.0
140.225815	168.0
140.371979	148.0
140.449814	172.0
140.86998	196.0
141.612686	176.0
141.6577	140.0
143.26355	212.0
143.998215	144.0
144.545654	180.0
144.617462	156.0
144.9767	200.0
145.187653	172.0
145.429977	168.0
145.758987	176.0
146.859161	184.0
147.34436	164.0
147.3806	196.0
148.026443	156.0
148.246872	168.0
149.058823	192.0
151.717743	144.0
152.061447	988.0
153.06958	188.0
153.08876	184.0
153.202057	152.0
156.38147	200.0
156.685272	156.0
157.930893	164.0
158.594406	252.0
158.617981	128.0
158.667099	196.0
159.442719	188.0
160.111908	160.0
160.152206	152.0
161.062515	168.0
161.388763	148.0
161.565796	176.0
162.23436	176.0
162.807785	144.0
163.03389	168.0
163.433105	252.0
163.764053	164.0
165.070801	2196.0
166.076599	844.0
166.215698	192.0
166.427155	136.0
166.505783	148.0
167.030106	176.0
167.086136	19936.0
167.154373	132.0
167.283173	112.0
167.317032	144.0
167.595459	132.0
168.088577	2936.0
168.633865	144.0
169.093384	300.0
169.682236	248.0
170.195953	144.0
170.666245	144.0
171.49147	216.0
174.157639	164.0
175.911316	148.0
177.056061	380.0
177.933853	200.0
182.15596	148.0
182.213028	164.0
182.771606	172.0
182.943863	220.0
183.080734	19840.0
183.434128	156.0
184.085175	3168.0
184.3815	192.0
185.084457	344.0
185.153793	140.0
185.363831	168.0
185.545425	176.0
186.47377	184.0
186.930634	208.0
187.881531	160.0
189.70282	184.0
191.841522	144.0
192.166946	188.0
194.075378	152.0
195.122086	148.0
196.891464	160.0
197.352524	168.0
198.817535	144.0
199.025269	168.0
199.547852	140.0
201.625305	164.0
202.007019	160.0
203.040833	152.0
203.094711	140.0
203.415359	168.0
205.219009	148.0
205.41864	176.0
206.541229	160.0
206.755814	188.0
207.042084	248.0
207.99971	200.0
208.637421	144.0
208.6978	148.0
209.059052	104.0
211.080338	464.0
212.957397	200.0
214.686127	152.0
215.407028	144.0
217.110458	176.0
217.306976	144.0
220.330582	164.0
220.584717	156.0
222.613235	148.0
225.366531	208.0
227.1418	212.0
228.370285	224.0
228.619995	140.0
229.885666	156.0
231.760422	164.0
232.463898	208.0
235.273209	156.0
238.295975	168.0
238.670944	148.0
239.107574	10120.0
239.186935	172.0
240.110077	2448.0
240.497772	196.0
240.76329	184.0
241.115067	256.0
241.446259	148.0
241.883682	128.0
242.229324	196.0
244.961441	248.0
247.768188	172.0
249.5634	140.0
250.331161	216.0
252.625717	144.0
253.081451	188.0
255.102158	836.0
256.028229	144.0
256.098297	264.0
256.193878	216.0
256.585846	144.0
258.424408	168.0
259.235596	180.0
260.634613	156.0
265.039001	172.0
265.969757	168.0
266.150208	96.0
267.151764	196.0
267.399841	184.0
268.334747	184.0
268.670654	216.0
270.733093	140.0
270.785492	192.0
271.936279	220.0
273.030304	144.0
273.395477	204.0
274.129822	152.0
275.965057	196.0
276.646576	156.0
277.551025	180.0
279.613953	148.0
280.07489	180.0
280.946777	140.0
281.016815	152.0
281.901672	148.0
284.420197	168.0
285.653381	160.0
286.461273	184.0
289.890594	148.0
290.222778	160.0
290.86734	152.0
291.016724	152.0
292.91095	184.0
297.223602	112.0
298.854095	184.0
299.597748	140.0
300.777069	140.0
302.526184	176.0
304.065155	140.0
304.48175	168.0
304.721436	152.0
306.074432	164.0
307.214111	156.0
308.14621	152.0
308.941528	172.0
309.229767	116.0
309.300232	148.0
309.673248	224.0
309.755432	156.0
310.0112	252.0
310.055573	200.0
310.090302	144.0
310.12207	176.0
310.181183	74204.0
310.288116	216.0
310.328156	140.0
310.445892	108.0
310.893585	104.0
310.918243	152.0
310.982666	212.0
311.183868	13016.0
311.299774	96.0
311.841766	164.0
312.186523	1452.0
312.876892	164.0
312.982239	140.0
313.014221	172.0
313.193207	316.0
313.345795	104.0
313.808533	124.0
313.9328	212.0
316.028992	164.0
316.549316	160.0
317.584137	152.0
317.946014	268.0
318.180298	164.0
318.411102	176.0
318.631317	224.0
321.094543	160.0
321.222931	148.0
322.654938	232.0
322.805115	156.0
323.932495	152.0
324.351746	140.0
325.44339	136.0
325.571594	140.0
325.628174	132.0
325.921967	112.0
326.065704	236.0
326.183746	96.0
326.235504	124.0
326.321289	144.0
326.437653	176.0
326.544342	132.0
326.686859	304.0
326.731232	160.0
326.768555	140.0
326.811584	104.0
326.864166	124.0
326.92688	156.0
327.040894	112.0
327.109039	196.0
327.17511	176.0
327.226807	216.0
327.282043	156.0
327.425079	132.0
327.617523	260.0
327.689209	140.0
327.758514	184.0
327.949158	224.0
328.006836	172.0
328.051483	252.0
328.0896	236.0
328.149139	656.0
328.193085	214464.0
328.298218	248.0
328.431641	124.0
328.51413	272.0
328.557709	224.0
328.648804	164.0
328.719299	228.0
328.784485	2396.0
328.834717	312.0
328.878967	120.0
329.079681	240.0
329.137268	260.0
329.195465	48236.0
329.335632	268.0
329.383911	104.0
329.416321	116.0
329.497223	104.0
329.53894	160.0
329.571533	280.0
329.679565	176.0
329.755219	264.0
329.857147	224.0
329.955627	124.0
330.081268	156.0
330.198303	6932.0
330.249878	144.0
330.309509	108.0
330.413239	120.0
330.528839	132.0
330.577362	152.0
330.653778	284.0
330.752563	272.0
330.806427	184.0
330.848022	116.0
330.895172	160.0
331.161377	136.0
331.202454	648.0
331.384491	124.0
331.502991	260.0
331.551971	188.0
331.595612	96.0
331.664459	136.0
331.746246	144.0
331.910828	100.0
332.046021	180.0
332.328827	120.0
338.983521	164.0
340.239288	96.0
345.722382	96.0
345.85022	120.0
380.940613	144.0
385.022522	156.0
391.343628	172.0
564.772766	164.0
674.666992	148.0
708.910461	140.0
1200.799683	152.0
1264.39502	148.0
1267.617188	152.0
1282.855347	180.0
1302.461914	184.0
1320.560547	228.0
1342.653687	196.0
1377.872559	180.0
1388.487183	144.0
1401.607666	140.0
1423.532227	140.0
1438.537598	168.0
1478.311401	164.0
1486.43396	140.0
1496.449219	168.0
1507.510254	200.0
1516.495361	160.0
1537.915527	148.0
1552.694824	160.0
1565.898193	236.0
1567.087646	168.0
1571.021729	188.0
1572.655029	152.0
1579.244507	248.0
1580.898071	164.0
1587.75061	184.0
1592.361572	164.0
1593.147949	160.0
1609.21936	144.0
1620.744873	180.0
1622.68457	164.0
1632.086426	224.0
1636.515625	104.0
1636.970703	160.0
1639.040894	168.0
1640.693115	176.0
1647.189209	232.0
1650.252075	172.0
1670.917358	164.0
1671.869385	176.0
1674.344238	208.0
1699.661133	236.0
1707.755005	164.0
1722.46582	188.0
1740.586548	192.0
1747.368774	152.0
1748.800049	156.0
1759.553345	140.0
1762.008667	172.0
1762.459839	188.0
1764.164795	152.0
1766.004395	232.0
1770.959229	232.0
1776.94458	140.0
1777.92627	204.0
1794.134644	176.0
1795.652466	196.0
1795.964478	144.0
1805.102295	172.0
1813.169922	184.0
1813.593628	264.0
1814.178467	168.0
1815.212891	160.0
1828.499268	144.0
1834.623535	164.0
1834.74292	228.0
1853.803223	140.0
1860.270142	160.0
1865.561768	232.0
1872.901733	184.0
1876.167603	168.0
1877.875	184.0
1884.47876	164.0
1895.606079	228.0
1896.722412	192.0
1896.966675	184.0
1902.362427	172.0
1905.002319	172.0
1907.65271	148.0
1907.826538	152.0
1909.600342	204.0
1909.696045	188.0
1910.974854	144.0
1911.087891	192.0
1914.134399	160.0
1915.083618	164.0
1917.802002	220.0
1921.342407	160.0
1928.633789	152.0
1928.808594	168.0
1932.954102	152.0
1935.221069	176.0
1935.326172	140.0
1943.907471	164.0
1949.756104	176.0
1950.749268	188.0
1953.959106	160.0
1958.28125	208.0
1964.671875	152.0
1965.395386	188.0
1971.090576	220.0
1972.504639	160.0
1976.068604	152.0
1988.190308	188.0
2000.945557	160.0
END IONS

BEGIN IONS
PEPMASS=280.17
CHARGE=1
MSLEVEL=2
SOURCE_INSTRUMENT=LC-ESI-qTof
FILENAME=NCP003592_A2_B11_BD8_01_15734.mzXML
SEQ=*..*
IONMODE=Positive
ORGANISM=GNPS-NIH-CLINICALCOLLECTION1
NAME=Doxepin [M+H]
PI=Dorrestein
DATACOLLECTOR=Garg_Neha
SMILES=CN(C)CC/C=C\1/c2ccccc2COc3ccccc13
INCHI=N/A
INCHIAUX=N/A
PUBMED=N/A
SUBMITUSER=negarg
LIBRARYQUALITY=1
SPECTRUMID=CCMSLIB00000079162
USI=mzspec:GNPS:GNPS-NIH-CLINICALCOLLECTION1:accession:CCMSLIB00000079162
SCANS=1138
45.270813	180.0
45.300282	176.0
45.8377	188.0
46.031948	144.0
46.348476	172.0
46.467793	180.0
47.010708	192.0
47.459377	184.0
47.526585	160.0
48.383869	148.0
48.498844	152.0
48.649853	144.0
48.976826	148.0
49.664524	180.0
51.289223	148.0
51.373352	164.0
52.206963	180.0
53.414669	180.0
53.688488	188.0
53.799381	148.0
53.971779	192.0
53.999565	176.0
54.961792	188.0
55.096149	172.0
55.30761	144.0
55.965271	156.0
56.112061	136.0
56.397896	140.0
56.49659	180.0
56.608845	228.0
56.763191	280.0
57.634438	204.0
57.675537	164.0
58.854443	248.0
58.924702	128.0
59.514374	216.0
59.871128	140.0
60.334026	176.0
60.42218	148.0
60.47015	152.0
60.564594	144.0
61.802242	156.0
62.286671	180.0
62.541397	264.0
62.561859	188.0
62.956043	164.0
63.087185	160.0
63.163086	140.0
63.18998	168.0
63.451302	172.0
63.55122	184.0
63.899174	164.0
64.450836	164.0
64.740372	208.0
64.754784	224.0
65.63044	204.0
66.299828	180.0
69.537476	176.0
70.171257	140.0
70.662277	180.0
71.123116	252.0
71.437347	180.0
72.113503	208.0
72.302925	148.0
73.008667	180.0
74.426994	200.0
74.750153	164.0
75.910988	208.0
76.086403	160.0
76.587044	172.0
77.61113	216.0
79.078575	196.0
79.613991	204.0
79.740128	192.0
79.850357	172.0
80.124481	204.0
80.47583	168.0
80.692017	140.0
80.73851	204.0
81.310005	172.0
81.969994	232.0
82.982193	204.0
84.078369	148.0
84.126518	260.0
84.300034	200.0
84.737343	164.0
84.961014	176.0
85.494873	192.0
86.196442	152.0
86.329536	176.0
86.655312	144.0
87.154419	208.0
87.245491	156.0
87.435211	148.0
87.832069	160.0
88.467407	160.0
88.71656	220.0
89.82605	336.0
90.631424	168.0
90.692062	192.0
91.054405	812.0
91.084702	164.0
91.886284	172.0
92.210899	180.0
92.499718	196.0
92.687805	136.0
92.800491	148.0
93.52858	156.0
94.15519	156.0
94.209267	212.0
94.735451	172.0
94.942848	152.0
95.123291	144.0
95.261162	164.0
95.889641	228.0
98.835358	252.0
99.739693	180.0
99.847054	140.0
100.205353	252.0
100.540344	240.0
100.568428	168.0
100.666115	140.0
100.690079	140.0
101.486511	164.0
102.076843	236.0
102.348488	200.0
103.059334	264.0
104.817688	204.0
105.069496	108.0
106.041809	204.0
106.185326	172.0
106.433632	160.0
106.577408	164.0
106.628876	440.0
106.796616	184.0
106.903717	180.0
107.049538	16764.0
107.082886	408.0
107.100891	104.0
107.196999	140.0
107.266846	144.0
107.735283	172.0
108.053116	1124.0
108.213013	140.0
109.053535	152.0
109.304794	160.0
109.694252	152.0
109.725525	140.0
109.958061	208.0
111.212837	224.0
111.826569	184.0
111.86235	172.0
112.028709	152.0
113.260216	180.0
113.868942	156.0
114.08992	140.0
114.449478	152.0
114.845863	160.0
115.05497	3264.0
116.056793	572.0
116.433937	216.0
116.84449	180.0
117.069847	5972.0
117.232063	176.0
118.072418	732.0
119.051147	704.0
119.284767	116.0
119.454491	172.0
119.969574	200.0
120.57637	204.0
121.375389	160.0
121.63427	168.0
122.990173	192.0
123.374535	168.0
123.551453	160.0
123.613403	184.0
123.896812	168.0
124.352219	144.0
125.19619	232.0
125.514847	148.0
125.724533	184.0
126.950455	144.0
127.055023	332.0
127.819786	260.0
128.061707	1456.0
128.653702	156.0
128.814026	228.0
129.070023	2748.0
130.072342	308.0
130.556992	220.0
130.648438	172.0
130.908737	140.0
131.049454	1576.0
131.902176	144.0
132.048187	400.0
133.065918	164.0
133.687805	152.0
133.826935	148.0
134.654785	184.0
135.177261	152.0
136.404144	176.0
136.974243	148.0
137.842972	144.0
138.16011	220.0
139.332291	164.0
139.477982	184.0
140.45517	224.0
141.070557	7132.0
141.639389	144.0
142.077545	4056.0
142.873779	152.0
143.082291	1128.0
144.058578	208.0
144.077698	164.0
145.065186	180.0
145.109192	156.0
146.135422	140.0
146.33931	172.0
147.019058	148.0
147.091476	184.0
147.847977	192.0
148.858856	192.0
150.034027	176.0
150.090851	608.0
150.204727	152.0
151.081696	172.0
152.062897	540.0
153.064804	360.0
154.077194	176.0
154.36525	180.0
154.521072	160.0
155.06102	148.0
155.574341	188.0
156.718369	140.0
156.915268	156.0
157.064835	824.0
157.104797	156.0
157.451752	168.0
158.075165	116.0
158.102036	324.0
159.081757	204.0
159.104355	160.0
159.385651	192.0
159.621933	156.0
159.795486	168.0
159.98674	164.0
160.077393	184.0
160.112976	164.0
162.567368	144.0
163.237991	172.0
164.075668	176.0
164.35878	152.0
164.388214	104.0
164.464508	176.0
164.522125	156.0
165.070129	3980.0
165.099808	180.0
165.608704	176.0
166.077179	3240.0
166.439774	156.0
166.709488	240.0
167.086334	4988.0
167.259872	144.0
167.697739	272.0
168.08902	844.0
168.177475	156.0
169.070404	268.0
169.491211	220.0
170.095291	112.0
170.713837	172.0
170.98439	184.0
171.103699	452.0
171.792114	152.0
172.07135	188.0
172.113129	556.0
172.152298	156.0
172.212372	176.0
172.429214	156.0
173.119705	1172.0
173.693848	176.0
174.126541	176.0
174.161057	180.0
174.295044	148.0
176.061234	176.0
176.108109	176.0
176.490692	224.0
176.822342	184.0
176.890182	140.0
177.007767	212.0
177.068436	596.0
178.077667	3768.0
178.111588	300.0
179.01593	372.0
179.085617	5136.0
180.088699	1252.0
180.856308	188.0
181.066666	736.0
181.101105	1308.0
181.535385	112.0
182.105713	156.0
183.079315	160.0
183.521225	196.0
184.517487	172.0
184.536407	156.0
185.004456	184.0
185.175034	180.0
186.132828	360.0
186.556152	192.0
187.135635	300.0
188.759125	160.0
189.07135	324.0
189.920303	180.0
190.077225	316.0
190.909012	168.0
191.086533	3340.0
191.173538	208.0
192.093124	6032.0
193.065475	420.0
193.097534	1380.0
193.646729	188.0
194.073013	9292.0
195.07962	4120.0
195.768494	176.0
195.9189	204.0
196.084122	928.0
196.617264	104.0
197.107452	180.0
197.138199	184.0
197.415558	180.0
198.198715	168.0
199.203094	204.0
199.675308	176.0
201.066956	268.0
201.290054	204.0
201.711014	168.0
202.044708	172.0
202.077652	9248.0
202.191223	164.0
203.083328	2268.0
203.606506	148.0
203.634109	172.0
203.893448	152.0
204.087814	364.0
204.452972	220.0
204.718445	140.0
205.064926	708.0
205.100845	720.0
206.071976	512.0
206.105286	176.0
206.200378	104.0
206.367722	168.0
207.081161	5436.0
207.117554	3808.0
207.17897	136.0
207.455627	180.0
208.085495	1340.0
208.116959	384.0
209.096832	1800.0
209.150406	172.0
209.317856	148.0
209.779633	144.0
210.091934	368.0
210.236954	176.0
212.322769	152.0
212.627396	140.0
213.062943	160.0
215.085663	2648.0
215.162704	196.0
215.893188	148.0
216.093201	2180.0
216.361343	224.0
217.101608	5060.0
217.298492	156.0
217.566727	192.0
217.604401	216.0
217.660187	140.0
217.707169	148.0
218.069504	156.0
218.105316	812.0
219.001205	224.0
219.04834	188.0
219.080322	2924.0
219.111053	288.0
219.345947	196.0
219.440292	148.0
219.604874	172.0
219.950638	160.0
220.05307	132.0
220.08844	10688.0
221.09201	2220.0
221.313492	160.0
221.402328	144.0
222.087341	152.0
223.35228	152.0
223.38797	176.0
226.163025	144.0
226.213913	176.0
226.759048	184.0
226.818985	184.0
228.001526	200.0
228.251038	172.0
228.91304	196.0
229.651398	192.0
230.040634	148.0
230.493668	180.0
231.172684	224.0
232.079727	148.0
233.095276	732.0
233.129562	172.0
234.05777	172.0
234.103119	708.0
234.691544	176.0
235.051468	152.0
235.112976	23888.0
235.842438	180.0
235.90358	156.0
236.116043	3568.0
236.212418	196.0
236.493927	144.0
236.937943	160.0
237.117081	480.0
237.561829	132.0
237.932449	100.0
238.126083	168.0
239.191956	140.0
240.329132	160.0
240.795258	148.0
242.265839	116.0
243.222687	144.0
243.499008	160.0
244.089462	152.0
244.97023	156.0
246.462967	224.0
250.209412	144.0
251.091782	168.0
253.335953	152.0
255.351532	216.0
257.094177	172.0
261.661804	172.0
263.574432	160.0
265.246399	116.0
265.672424	160.0
266.500305	204.0
266.711548	140.0
266.773315	156.0
268.756683	184.0
269.239807	140.0
269.435791	140.0
273.340759	176.0
275.219604	200.0
276.194489	164.0
276.680939	188.0
277.012817	108.0
278.069794	144.0
278.153107	1092.0
278.303833	104.0
278.760559	184.0
279.084229	160.0
279.144684	160.0
279.164581	428.0
279.204529	152.0
279.266968	208.0
279.295349	112.0
279.513123	176.0
279.558655	244.0
279.618469	152.0
279.736053	268.0
279.798309	184.0
279.841583	172.0
279.895142	264.0
279.944122	220.0
279.972626	244.0
280.04657	216.0
280.089172	184.0
280.172089	207160.0
280.295959	124.0
280.355469	228.0
280.444	240.0
280.524841	276.0
280.546844	320.0
280.575378	228.0
280.625305	212.0
280.658051	144.0
280.719635	2508.0
280.776093	140.0
280.801086	140.0
280.950897	128.0
280.973358	284.0
281.027924	140.0
281.174408	44072.0
281.285095	184.0
281.448578	96.0
281.540863	268.0
281.643616	180.0
281.676544	132.0
281.955536	132.0
282.051544	152.0
282.106842	140.0
282.131622	172.0
282.176788	5772.0
282.244446	148.0
282.358002	220.0
282.511475	148.0
282.601166	152.0
282.685211	168.0
282.759644	216.0
282.858948	432.0
282.896027	148.0
282.920898	116.0
282.972809	160.0
283.005981	268.0
283.058594	184.0
283.093414	176.0
283.145203	116.0
283.183624	316.0
283.22525	184.0
283.280701	104.0
283.361816	200.0
283.467865	264.0
283.53476	136.0
283.598053	112.0
283.86087	148.0
284.101776	188.0
284.163086	148.0
284.743286	128.0
314.969849	156.0
351.685425	144.0
392.267242	172.0
414.615967	144.0
596.987976	164.0
601.559937	108.0
1282.697144	164.0
1312.168335	172.0
1317.552246	148.0
1342.018066	184.0
1397.198975	180.0
1409.755127	172.0
1410.293213	140.0
1491.309692	188.0
1514.340576	140.0
1522.04126	176.0
1523.276001	248.0
1538.85144	152.0
1544.266846	160.0
1547.678833	204.0
1578.476685	164.0
1588.273315	168.0
1615.852295	180.0
1618.309326	160.0
1631.338135	188.0
1647.002808	208.0
1649.531982	180.0
1663.464722	172.0
1666.762085	164.0
1674.433228	180.0
1677.668091	196.0
1686.132446	212.0
1701.482666	216.0
1710.755859	208.0
1712.130859	144.0
1725.630493	220.0
1730.760376	164.0
1747.019043	148.0
1747.67627	156.0
1766.012451	156.0
1766.865601	208.0
1767.727417	212.0
1779.940674	148.0
1797.626221	236.0
1802.971802	176.0
1804.171997	204.0
1811.441162	160.0
1819.709717	208.0
1820.728638	204.0
1831.172363	160.0
1831.453491	168.0
1833.787964	168.0
1843.602539	152.0
1848.288574	172.0
1851.721313	156.0
1854.103027	188.0
1857.99585	144.0
1861.69519	148.0
1868.588867	188.0
1872.832764	176.0
1879.272339	152.0
1886.198364	200.0
1893.864624	144.0
1896.22998	152.0
1905.949219	160.0
1914.221436	160.0
1914.299805	196.0
1916.825928	164.0
1919.135864	164.0
1920.094971	184.0
1927.4104	148.0
1942.266968	204.0
1943.214355	160.0
1946.119507	184.0
1949.914307	172.0
1950.238647	180.0
1952.481445	140.0
1973.362305	192.0
1975.130981	184.0
1988.048462	160.0
END IONS

BEGIN IONS
PEPMASS=408.172
CHARGE=1
MSLEVEL=2
SOURCE_INSTRUMENT=LC-ESI-qTof
FILENAME=NCP003592_C2_D11_BE1_01_15735.mzXML
SEQ=*..*
IONMODE=Positive
ORGANISM=GNPS-NIH-CLINICALCOLLECTION1
NAME=Trifluoperazine aka 10-[3-(4-methylpiperazin-1-yl)propyl]-2-(trifluoromethyl)phenothiazine M+H
PI=Dorrestein
DATACOLLECTOR=Garg_Neha
SMILES=CN1CCN(CCCN2c3ccccc3Sc4ccc(cc24)C(F)(F)F)CC1
INCHI=N/A
INCHIAUX=N/A
PUBMED=N/A
SUBMITUSER=negarg
LIBRARYQUALITY=1
SPECTRUMID=CCMSLIB00000079172
USI=mzspec:GNPS:GNPS-NIH-CLINICALCOLLECTION1:accession:CCMSLIB00000079172
SCANS=1256
47.864735	140.0
50.917881	156.0
52.149467	168.0
52.69418	152.0
53.257698	156.0
57.71637	152.0
60.863918	200.0
61.988594	152.0
65.503296	172.0
71.666328	176.0
71.958107	192.0
72.740234	144.0
72.935577	228.0
81.017754	160.0
83.356117	184.0
84.482887	156.0
84.546928	172.0
88.679092	192.0
88.789703	176.0
90.544304	184.0
92.683594	168.0
93.705765	144.0
93.99498	160.0
94.474136	168.0
95.187378	156.0
96.082703	156.0
97.075203	328.0
98.082527	512.0
98.615868	168.0
98.867043	140.0
99.090004	332.0
100.478508	156.0
104.432945	168.0
108.2938	204.0
109.076042	256.0
110.013443	184.0
111.092384	976.0
112.953316	192.0
113.107506	6248.0
113.436111	208.0
114.110374	556.0
114.949356	104.0
117.072678	136.0
118.540428	144.0
119.525299	208.0
120.509346	140.0
120.565468	152.0
121.09053	188.0
122.410378	160.0
123.688683	180.0
126.429848	112.0
126.966179	168.0
127.693832	160.0
130.823227	196.0
131.065903	176.0
135.503754	152.0
135.754089	232.0
138.111374	156.0
139.124481	612.0
141.076233	172.0
141.109329	260.0
141.139038	10572.0
141.194138	212.0
141.220474	224.0
142.142563	1752.0
143.147522	176.0
148.747208	148.0
151.953888	144.0
156.563965	160.0
156.857956	192.0
162.950806	148.0
167.072052	204.0
171.416718	160.0
172.973282	172.0
176.895508	180.0
179.168701	188.0
179.800644	148.0
181.708511	148.0
186.526291	144.0
192.523941	188.0
196.663467	172.0
206.090515	292.0
206.567947	144.0
206.765381	144.0
217.014725	216.0
218.280243	152.0
219.729355	168.0
221.689728	180.0
223.805084	148.0
226.228928	156.0
226.39061	144.0
231.213425	144.0
231.910004	176.0
232.886993	168.0
234.697693	148.0
235.524719	144.0
239.076523	292.0
241.085709	140.0
242.156143	196.0
243.03653	152.0
247.741165	208.0
248.067719	2216.0
249.070328	780.0
250.067978	180.0
254.385651	200.0
256.054932	156.0
257.110199	204.0
258.257172	144.0
260.02829	228.0
260.667999	156.0
262.049133	436.0
263.056091	136.0
264.060944	160.0
267.032806	520.0
268.031311	152.0
270.014404	172.0
270.079803	168.0
270.999695	168.0
272.246185	184.0
274.076935	160.0
275.090302	516.0
276.09491	156.0
277.099396	168.0
279.891571	164.0
280.041779	6844.0
281.043335	904.0
281.078217	196.0
281.776031	160.0
282.03952	312.0
282.40448	148.0
288.056793	136.0
292.156616	144.0
293.045197	216.0
293.77475	144.0
294.467682	168.0
297.92038	144.0
298.497803	172.0
299.475159	144.0
303.391693	108.0
305.100677	188.0
307.115662	160.0
308.072357	1288.0
308.822357	196.0
309.065918	96.0
310.069672	108.0
311.563507	172.0
313.040771	188.0
321.452789	152.0
323.010498	300.0
324.887573	156.0
325.196167	144.0
329.857056	148.0
331.253845	156.0
333.252777	168.0
336.304443	184.0
339.468994	152.0
339.916534	168.0
342.276398	152.0
344.29718	188.0
345.254333	144.0
346.020294	228.0
348.147491	340.0
350.127075	168.0
351.103485	160.0
352.118591	140.0
352.226929	156.0
353.14267	176.0
356.68219	152.0
356.738586	180.0
364.045807	144.0
367.353271	200.0
367.444824	180.0
368.157715	592.0
369.164276	144.0
370.154724	144.0
371.055145	168.0
371.635559	96.0
374.040009	156.0
380.99292	176.0
384.122742	164.0
384.505096	224.0
388.16098	732.0
388.303955	184.0
389.162537	292.0
389.194763	144.0
390.149475	212.0
392.39743	152.0
398.468597	152.0
398.858063	196.0
399.502228	184.0
405.697235	96.0
405.848419	144.0
405.943268	128.0
406.132477	192.0
406.244476	136.0
406.33847	128.0
406.412079	152.0
406.475128	256.0
406.833038	144.0
407.142944	164.0
407.18689	308.0
407.334808	128.0
407.42569	96.0
407.503387	160.0
407.54599	128.0
407.664215	164.0
407.742767	216.0
407.871765	232.0
407.912781	152.0
407.969482	276.0
408.010223	184.0
408.086639	484.0
408.17334	130796.0
408.313049	132.0
408.385437	148.0
408.417389	264.0
408.626129	204.0
408.721466	152.0
408.776642	120.0
408.833771	496.0
408.928833	148.0
409.085938	156.0
409.174957	24632.0
409.277893	212.0
409.31308	168.0
409.364471	156.0
409.428802	236.0
409.48764	104.0
409.590912	112.0
409.812531	136.0
410.173187	5848.0
410.546478	104.0
410.754944	240.0
410.895325	116.0
410.944427	156.0
411.068695	136.0
411.170563	1380.0
411.470093	128.0
411.528198	104.0
411.563538	132.0
411.608002	148.0
411.649811	100.0
411.788269	200.0
411.838348	244.0
411.940857	200.0
412.194	116.0
412.577515	132.0
413.243347	152.0
414.384125	116.0
415.50296	104.0
424.949005	156.0
426.690399	140.0
482.50473	152.0
1327.903564	184.0
1505.439331	172.0
1555.165771	160.0
1578.959473	184.0
1589.630249	172.0
1602.670776	180.0
1714.248413	192.0
1748.866577	172.0
1806.404907	152.0
1822.334473	148.0
1840.748413	132.0
1842.722778	148.0
1890.376099	204.0
1893.665771	160.0
1904.359863	184.0
1959.374023	160.0
1963.075928	140.0
1979.848755	168.0
1988.137695	176.0
1998.712158	148.0
END IONS

BEGIN IONS
PEPMASS=372.159
CHARGE=1
MSLEVEL=2
SOURCE_INSTRUMENT=LC-ESI-qTof
FILENAME=NCP003592_C2_D11_BE1_01_15735.mzXML
SEQ=*..*
IONMODE=Positive
ORGANISM=GNPS-NIH-CLINICALCOLLECTION1
NAME=Trazodone hydrochloride 25332-39-2 [M+H]
PI=Dorrestein
DATACOLLECTOR=Garg_Neha
SMILES=Clc1cccc(c1)N2CCN(CCCn3nc4ccccn4c3=O)CC2
INCHI=N/A
INCHIAUX=N/A
PUBMED=N/A
SUBMITUSER=negarg
LIBRARYQUALITY=1
SPECTRUMID=CCMSLIB00000079178
USI=mzspec:GNPS:GNPS-NIH-CLINICALCOLLECTION1:accession:CCMSLIB00000079178
SCANS=1102
45.222645	140.0
45.320404	184.0
45.378036	208.0
45.449123	184.0
45.695004	160.0
46.123848	200.0
46.195515	148.0
46.376965	148.0
46.917645	384.0
46.953438	140.0
47.304592	208.0
47.948788	180.0
49.046528	180.0
49.059071	148.0
49.419476	144.0
50.00695	116.0
50.215908	204.0
50.398014	256.0
50.754707	160.0
50.902279	156.0
51.972851	200.0
52.084831	140.0
52.163864	148.0
52.580124	156.0
52.63065	184.0
53.558807	152.0
53.602512	168.0
53.634575	176.0
53.700188	168.0
54.043484	140.0
54.103489	160.0
54.978058	208.0
55.555111	256.0
55.61298	180.0
55.841789	148.0
55.953396	160.0
56.074051	156.0
56.203789	204.0
56.22916	204.0
56.244083	180.0
57.119171	156.0
57.426441	240.0
57.772354	140.0
57.926762	148.0
58.295444	168.0
58.57996	192.0
58.642433	152.0
59.219975	188.0
59.657291	140.0
59.963604	148.0
61.1604	156.0
61.427334	180.0
61.827705	212.0
61.885239	184.0
62.209766	220.0
62.222324	152.0
62.788799	168.0
63.024006	184.0
63.915123	160.0
64.25489	160.0
64.380592	204.0
64.537193	144.0
64.884621	156.0
64.90226	144.0
65.078102	216.0
65.260315	156.0
65.36808	220.0
65.69838	140.0
65.774223	168.0
65.901802	152.0
66.026276	232.0
66.491241	176.0
66.861786	144.0
67.922165	244.0
69.134796	200.0
69.678665	140.0
70.476738	192.0
71.138268	168.0
71.23735	180.0
71.27095	152.0
72.231911	220.0
72.394386	144.0
72.429955	140.0
72.882919	156.0
73.06144	224.0
73.132912	200.0
73.507843	148.0
74.089165	160.0
74.591972	196.0
74.674507	160.0
75.137878	184.0
75.36232	140.0
75.775833	164.0
75.963066	144.0
76.103638	232.0
76.213058	156.0
77.037132	180.0
77.474693	192.0
77.490242	144.0
77.644493	156.0
77.798904	180.0
79.176003	140.0
79.317741	148.0
79.507523	228.0
79.978508	168.0
80.638443	172.0
80.996887	132.0
81.398018	156.0
81.932205	156.0
82.007889	176.0
83.081993	176.0
83.454308	144.0
84.170387	140.0
84.446342	152.0
84.675117	184.0
85.626465	160.0
85.641197	176.0
85.864212	160.0
86.772133	208.0
86.936813	148.0
87.269714	156.0
87.320602	152.0
87.457314	232.0
87.560005	144.0
88.158852	164.0
88.921066	148.0
89.347618	204.0
89.637573	164.0
89.939323	260.0
90.060165	140.0
90.383438	172.0
90.572754	164.0
90.993744	164.0
91.693748	176.0
92.040421	220.0
92.932892	144.0
93.090294	204.0
93.142151	172.0
93.626823	148.0
93.694244	240.0
94.714203	164.0
94.871162	196.0
94.909943	152.0
95.059303	144.0
95.199066	176.0
95.221222	140.0
95.821503	148.0
96.166656	148.0
96.254501	152.0
96.299416	192.0
96.467461	236.0
96.915634	180.0
97.331467	148.0
97.435562	168.0
98.081017	196.0
98.880936	208.0
99.045273	224.0
99.308891	176.0
99.483505	140.0
99.622971	140.0
99.775536	152.0
100.354897	156.0
100.556023	160.0
101.177864	144.0
101.31221	244.0
101.560768	144.0
101.679146	204.0
102.334457	156.0
102.876778	232.0
103.216202	144.0
103.576439	212.0
103.606827	140.0
104.113907	216.0
104.420784	152.0
104.938011	172.0
105.045227	696.0
105.207314	268.0
105.370689	176.0
105.857498	184.0
106.050903	148.0
106.064125	412.0
106.097221	156.0
107.060677	180.0
107.193825	156.0
107.992027	248.0
108.438873	204.0
108.636024	148.0
108.745834	148.0
108.766541	176.0
109.003349	164.0
109.334984	160.0
110.007225	248.0
110.425117	152.0
110.770477	164.0
110.919258	152.0
111.091209	172.0
111.319977	148.0
111.723618	188.0
112.340767	212.0
112.5476	192.0
112.696892	176.0
113.114182	144.0
113.196754	204.0
113.525208	156.0
113.677948	208.0
114.002853	156.0
114.362274	216.0
114.901398	192.0
115.033707	140.0
115.919151	208.0
116.049995	456.0
116.380325	196.0
116.434006	144.0
116.745621	180.0
116.91127	160.0
116.932785	168.0
117.053604	196.0
117.079369	140.0
117.10527	180.0
117.245064	144.0
117.44342	192.0
117.672157	152.0
117.704544	176.0
117.80822	160.0
118.049423	168.0
118.067429	356.0
118.242828	172.0
118.392204	144.0
118.966782	140.0
119.058716	556.0
119.229599	192.0
119.349159	208.0
119.453552	196.0
119.499237	236.0
119.566689	152.0
120.035423	404.0
120.058281	404.0
120.083031	156.0
120.742599	184.0
120.779785	156.0
120.943886	204.0
121.040405	612.0
121.075737	888.0
121.658493	216.0
121.83857	140.0
122.047363	200.0
122.140984	176.0
122.77404	216.0
122.811531	144.0
123.005707	148.0
123.602417	140.0
123.967789	180.0
123.985519	172.0
124.083054	164.0
124.460236	192.0
124.522408	176.0
124.70237	236.0
124.726822	200.0
125.013725	256.0
125.277618	172.0
125.433937	148.0
125.876411	192.0
126.341988	164.0
126.453186	184.0
126.605423	140.0
126.703979	240.0
127.206306	156.0
127.417404	160.0
128.211685	200.0
128.626694	140.0
128.656036	184.0
129.232346	156.0
130.377472	160.0
130.793686	220.0
131.0616	424.0
131.130203	176.0
131.28566	128.0
132.001404	220.0
132.041718	176.0
132.067566	420.0
132.255157	196.0
132.41478	172.0
132.524734	144.0
133.03157	164.0
133.076035	5016.0
133.449692	148.0
134.078629	632.0
134.983032	144.0
135.043335	936.0
135.170395	160.0
135.624115	156.0
136.050613	1284.0
136.299652	164.0
136.488312	120.0
136.566986	152.0
137.055862	176.0
137.31929	216.0
137.470932	196.0
137.50145	264.0
137.678696	156.0
138.011093	224.0
138.590973	148.0
139.142151	212.0
139.99707	228.0
140.028641	180.0
140.111084	176.0
140.615692	188.0
140.754974	168.0
141.354507	260.0
141.833771	192.0
141.997375	144.0
142.286865	212.0
142.745438	240.0
143.671951	144.0
143.726822	144.0
143.86525	148.0
143.969101	160.0
144.049118	256.0
144.276138	164.0
144.749878	220.0
145.553162	156.0
145.704468	152.0
145.918365	172.0
146.035812	272.0
146.182953	176.0
146.447769	184.0
146.573044	272.0
147.059372	212.0
147.511871	200.0
147.785156	248.0
147.808243	128.0
147.884369	168.0
148.051437	110232.0
148.087357	17952.0
148.363297	168.0
148.544037	144.0
148.599228	172.0
148.717468	320.0
149.054504	7136.0
149.090286	2200.0
149.251343	140.0
149.334549	168.0
149.355103	184.0
149.468948	148.0
149.758774	144.0
150.058289	316.0
150.098022	216.0
150.121353	176.0
150.212631	180.0
150.251846	132.0
150.32103	108.0
150.369522	152.0
150.390274	140.0
151.184555	156.0
151.21637	224.0
151.605774	176.0
151.936783	148.0
152.157654	168.0
152.354126	196.0
152.523682	224.0
152.681915	112.0
153.370407	160.0
153.390137	148.0
153.923035	144.0
153.955139	168.0
154.041428	1080.0
154.578079	288.0
154.630051	220.0
154.662231	204.0
154.81572	200.0
155.934601	172.0
156.036942	188.0
156.225525	156.0
156.245422	200.0
156.676117	220.0
156.72345	144.0
156.8936	176.0
157.143723	176.0
158.034286	212.0
159.059265	160.0
160.045059	200.0
160.241211	140.0
161.409821	172.0
162.068771	96.0
162.36705	168.0
162.861969	168.0
162.950882	180.0
163.066849	188.0
163.093948	132.0
163.212662	164.0
163.300278	124.0
163.920303	144.0
164.044449	140.0
164.619247	148.0
165.529587	176.0
165.796005	156.0
166.044052	792.0
166.545166	148.0
166.5914	148.0
166.611954	172.0
167.049026	204.0
167.384872	132.0
167.731354	192.0
168.041611	180.0
168.309235	176.0
168.890717	180.0
169.296616	124.0
169.358871	156.0
169.532776	144.0
169.68959	168.0
170.503174	160.0
170.568344	156.0
170.91684	152.0
170.937653	160.0
171.073242	168.0
171.466629	188.0
171.960953	180.0
172.04274	204.0
172.458069	208.0
173.084183	144.0
173.214264	176.0
173.995728	164.0
174.031631	148.0
174.058746	176.0
174.140152	160.0
174.402893	180.0
174.563263	176.0
174.751602	144.0
175.071152	160.0
175.104111	132.0
175.442657	160.0
175.515244	128.0
175.594299	140.0
175.756516	340.0
175.788177	156.0
175.831635	156.0
175.905304	176.0
175.974976	152.0
176.048203	164.0
176.082809	153120.0
176.149261	236.0
176.211517	136.0
176.243561	128.0
176.295532	156.0
176.516083	160.0
176.557938	164.0
176.588577	148.0
176.715042	164.0
176.814804	108.0
177.038101	96.0
177.085083	10064.0
177.613678	176.0
177.926437	132.0
178.051651	256.0
178.085373	604.0
178.121002	156.0
178.163864	152.0
178.300385	180.0
178.394363	144.0
178.437683	268.0
178.479446	316.0
178.500885	124.0
179.051575	160.0
179.088852	168.0
179.366364	108.0
179.401367	144.0
179.507263	148.0
180.032974	104.0
180.057007	144.0
181.043839	172.0
181.065262	196.0
181.348404	112.0
182.320786	240.0
182.41217	148.0
182.987885	168.0
183.173691	152.0
184.463531	156.0
184.655518	152.0
185.437958	156.0
186.343124	128.0
186.765656	156.0
188.37114	192.0
188.488632	180.0
190.669952	156.0
190.788147	160.0
191.032898	164.0
191.065903	144.0
192.339035	176.0
192.996536	180.0
193.057495	148.0
193.480698	168.0
193.737686	280.0
194.059937	324.0
194.520264	180.0
195.06604	108.0
195.431808	148.0
195.451279	180.0
195.863556	208.0
196.062057	164.0
196.245102	140.0
197.051697	168.0
197.086716	560.0
197.4328	224.0
198.080124	180.0
198.835403	152.0
199.077744	484.0
199.147049	176.0
199.189178	140.0
199.804825	232.0
199.838577	152.0
199.920181	164.0
200.083435	168.0
200.903519	212.0
200.926086	184.0
201.450027	136.0
201.535919	196.0
203.143997	140.0
203.441956	156.0
204.835342	144.0
205.770721	156.0
206.762604	140.0
207.063202	160.0
208.075409	168.0
209.085617	2432.0
209.282959	164.0
209.323273	208.0
209.507599	176.0
209.651672	160.0
210.087509	316.0
210.540207	152.0
211.080429	1004.0
211.159866	148.0
211.552185	188.0
212.080902	324.0
212.662354	204.0
212.909134	140.0
213.685226	176.0
214.043243	148.0
214.337433	148.0
216.013229	156.0
216.540085	176.0
216.947372	172.0
217.783661	144.0
218.048096	144.0
218.468567	164.0
218.52066	152.0
218.912994	180.0
219.12709	432.0
219.28714	176.0
219.856339	148.0
220.429214	172.0
220.59314	224.0
220.973267	188.0
221.500214	164.0
221.675003	156.0
223.590439	140.0
223.795837	144.0
223.908997	156.0
226.09433	172.0
226.915863	120.0
227.060959	220.0
227.117905	224.0
227.947586	148.0
228.17601	140.0
228.392532	140.0
228.771667	212.0
229.069794	144.0
229.154144	168.0
229.446487	196.0
229.62439	148.0
230.270264	144.0
231.397034	172.0
231.940414	144.0
232.210266	196.0
233.376358	140.0
233.765182	144.0
234.051834	188.0
234.71608	156.0
234.969238	148.0
235.102081	388.0
236.057358	160.0
236.097534	136.0
236.858643	124.0
237.115494	2000.0
238.116745	456.0
239.111984	344.0
239.293686	148.0
239.510345	136.0
239.561615	144.0
240.113358	280.0
240.185028	128.0
240.491028	108.0
241.144531	148.0
241.608353	144.0
241.66095	140.0
243.834702	224.0
243.93782	156.0
244.416214	272.0
245.010895	176.0
245.101242	148.0
245.250824	148.0
245.812195	140.0
246.140106	148.0
246.302338	156.0
246.721069	140.0
247.080719	172.0
247.262207	200.0
247.935532	192.0
248.029556	168.0
248.264709	152.0
248.405838	208.0
248.62233	148.0
248.67569	164.0
248.801239	152.0
249.564697	140.0
250.198242	108.0
250.631699	164.0
250.890137	200.0
251.17395	196.0
251.695892	188.0
252.49733	156.0
253.570587	152.0
253.70372	176.0
253.970078	216.0
255.26265	164.0
255.921295	148.0
256.301483	156.0
256.774475	136.0
257.001801	192.0
257.285858	188.0
257.459167	128.0
258.183899	132.0
258.321228	152.0
259.147217	140.0
260.619904	200.0
262.747711	112.0
262.8255	196.0
262.909393	172.0
263.946747	152.0
264.302124	192.0
264.564301	164.0
265.098724	156.0
265.192688	188.0
265.468262	192.0
265.740723	148.0
265.84549	152.0
265.997101	148.0
266.484222	184.0
266.623962	152.0
267.889648	188.0
267.954803	140.0
268.010193	156.0
268.235046	152.0
268.410736	144.0
268.822113	152.0
269.345764	164.0
269.432678	148.0
269.717224	112.0
269.900055	148.0
270.001434	180.0
270.135529	144.0
270.973602	160.0
272.246002	136.0
272.58136	168.0
272.608887	96.0
273.80838	180.0
273.897308	188.0
274.02536	152.0
274.198364	184.0
275.110809	160.0
276.724152	180.0
277.456329	168.0
277.559113	148.0
277.618805	140.0
278.167786	136.0
278.455109	152.0
278.548096	148.0
278.624512	156.0
278.715363	116.0
279.525543	176.0
279.795135	176.0
281.255219	176.0
281.36203	160.0
281.57016	196.0
282.307617	144.0
282.779327	184.0
283.003601	148.0
283.191132	200.0
283.361969	156.0
283.715546	104.0
284.241333	164.0
284.284058	224.0
284.824585	144.0
284.962341	168.0
286.604248	160.0
287.005371	144.0
287.326385	220.0
287.973877	216.0
288.101562	140.0
288.453674	264.0
288.856079	148.0
288.889893	160.0
288.920349	172.0
290.641479	152.0
290.678802	156.0
290.797577	164.0
290.969208	100.0
291.84082	172.0
291.871063	164.0
291.94928	168.0
292.092102	140.0
292.200958	232.0
292.354095	176.0
293.045319	196.0
293.607758	164.0
294.129761	144.0
294.389252	160.0
295.759033	188.0
295.959564	204.0
296.208771	152.0
297.0383	176.0
297.076019	148.0
297.580505	148.0
297.710999	176.0
298.109497	212.0
299.339813	164.0
299.406616	136.0
299.799133	172.0
300.540497	148.0
301.438263	164.0
301.465912	144.0
301.835785	140.0
302.493134	212.0
302.586609	144.0
302.998718	160.0
303.093964	156.0
303.359131	184.0
303.553284	176.0
304.875885	148.0
304.907166	276.0
304.983643	152.0
305.863647	144.0
306.278015	164.0
306.365082	180.0
306.391754	160.0
307.20282	140.0
307.753143	180.0
307.882355	224.0
308.08493	148.0
308.315552	164.0
308.343506	160.0
308.860962	168.0
308.961884	132.0
309.809601	196.0
310.010956	124.0
311.416107	172.0
311.549591	180.0
315.092957	152.0
315.288025	168.0
315.489502	156.0
315.977539	192.0
316.18277	180.0
316.887421	192.0
317.929932	172.0
318.41629	288.0
318.497986	152.0
319.151886	180.0
319.569641	184.0
321.005157	152.0
321.039124	184.0
322.469482	156.0
322.8461	164.0
323.633331	144.0
324.550598	180.0
324.9487	144.0
325.001343	108.0
325.336304	232.0
325.619965	228.0
325.746979	164.0
326.090607	140.0
326.270325	140.0
326.486084	168.0
326.755859	176.0
327.691925	192.0
328.077545	152.0
328.578827	168.0
328.74118	140.0
328.892761	168.0
328.983002	180.0
329.575317	188.0
330.739777	164.0
330.913544	148.0
332.099945	184.0
332.503998	116.0
333.798126	144.0
333.889038	180.0
334.387451	152.0
334.791565	152.0
335.352631	156.0
336.213318	152.0
336.512634	164.0
337.827881	108.0
337.860657	184.0
338.593292	164.0
338.981598	152.0
340.808929	144.0
341.636139	196.0
343.10553	144.0
344.999359	172.0
347.014191	140.0
347.925995	164.0
348.126495	152.0
349.133575	164.0
349.178802	152.0
349.207977	176.0
349.885193	156.0
350.745697	144.0
350.797272	168.0
350.943298	164.0
351.155853	144.0
351.342346	180.0
352.290558	196.0
353.352295	152.0
354.162994	176.0
354.411865	148.0
354.655457	188.0
355.326691	220.0
355.703796	188.0
356.381683	192.0
356.438049	212.0
356.697357	160.0
357.126984	124.0
357.411926	144.0
358.306915	164.0
359.646698	200.0
360.031769	192.0
360.541779	156.0
361.354126	160.0
361.441986	152.0
361.490967	152.0
361.63858	140.0
361.748322	248.0
362.079468	136.0
362.119415	196.0
362.44519	164.0
362.511169	232.0
363.506927	140.0
363.537262	152.0
363.842224	152.0
363.939636	160.0
364.615784	152.0
365.395294	148.0
366.570679	112.0
366.773834	144.0
367.158905	168.0
367.529297	208.0
367.983124	184.0
368.14212	116.0
368.368835	176.0
368.930573	140.0
369.059662	180.0
369.140839	180.0
369.39978	188.0
369.549896	228.0
369.602722	128.0
369.846619	160.0
370.141907	148.0
370.258667	116.0
370.298492	160.0
370.390686	108.0
370.436035	220.0
370.479645	200.0
370.567993	124.0
370.647766	184.0
370.690826	268.0
370.743195	160.0
370.784454	124.0
370.840637	184.0
370.945831	236.0
371.007782	136.0
371.128998	132.0
371.165344	324.0
371.230072	200.0
371.310059	136.0
371.403992	332.0
371.441376	260.0
371.514587	316.0
371.566071	440.0
371.624451	116.0
371.634338	268.0
371.659637	264.0
371.702362	108.0
371.759155	372.0
371.802765	380.0
371.819489	404.0
371.866882	336.0
371.901184	228.0
371.929871	216.0
371.997742	192.0
372.051666	368.0
372.09848	564.0
372.16153	219524.0
372.293121	132.0
372.417542	136.0
372.458954	104.0
372.519592	960.0
372.570038	308.0
372.622589	300.0
372.743347	252.0
372.795166	8692.0
372.852875	664.0
372.892181	492.0
372.96637	124.0
372.994049	184.0
373.072723	212.0
373.16333	101136.0
373.267365	288.0
373.359009	196.0
373.391418	176.0
373.41684	256.0
373.467346	208.0
373.50827	160.0
373.591858	168.0
373.647034	120.0
373.693451	232.0
373.721283	316.0
373.795715	752.0
373.829285	276.0
373.906952	136.0
373.95517	204.0
374.03067	248.0
374.086029	376.0
374.099823	544.0
374.158142	139244.0
374.270966	280.0
374.350739	184.0
374.439087	152.0
374.494232	172.0
374.650391	156.0
374.71109	204.0
374.745636	184.0
374.789612	468.0
374.851196	148.0
374.927338	180.0
374.99411	300.0
375.079071	320.0
375.159119	24864.0
375.235474	184.0
375.318146	128.0
375.387817	224.0
375.457947	120.0
375.501953	116.0
375.567108	180.0
375.6409	248.0
375.68396	124.0
375.699554	248.0
375.785461	388.0
375.830719	284.0
375.856293	320.0
375.909851	104.0
375.98053	116.0
376.038666	124.0
376.092163	112.0
376.160126	416.0
376.257904	128.0
376.297211	132.0
376.347717	112.0
376.457184	168.0
376.524475	128.0
376.614838	128.0
376.695862	144.0
376.773865	112.0
376.946411	124.0
376.990936	96.0
377.230255	180.0
377.31189	100.0
377.393951	208.0
377.477631	132.0
377.608673	244.0
377.666443	360.0
377.737061	164.0
377.807007	204.0
378.083008	104.0
378.227173	116.0
378.819916	104.0
379.011353	132.0
379.678558	168.0
381.283936	108.0
381.769653	96.0
385.19635	152.0
386.380859	140.0
386.689819	96.0
389.146149	104.0
389.359833	160.0
390.603271	100.0
392.614471	144.0
393.573364	140.0
395.907928	124.0
407.861023	96.0
419.391754	160.0
449.479462	148.0
582.051697	140.0
613.449463	144.0
966.30603	144.0
1066.66748	148.0
1180.524902	120.0
1231.497437	184.0
1315.740356	224.0
1324.72937	156.0
1336.257812	164.0
1337.44397	164.0
1379.919556	188.0
1412.058594	208.0
1421.15271	180.0
1422.360962	148.0
1428.793457	204.0
1444.068481	188.0
1448.428223	208.0
1448.769043	172.0
1467.869019	164.0
1471.386353	168.0
1475.381958	144.0
1478.165894	232.0
1507.463989	164.0
1523.921753	148.0
1529.279785	140.0
1537.868896	168.0
1546.302002	260.0
1574.937134	156.0
1578.09021	144.0
1600.481079	256.0
1602.002197	220.0
1610.002197	160.0
1617.5979	140.0
1626.005737	216.0
1634.580322	220.0
1640.84668	204.0
1644.573486	200.0
1653.81189	188.0
1660.374512	156.0
1667.689575	244.0
1686.591187	172.0
1698.381958	148.0
1704.86792	164.0
1705.739136	172.0
1705.80481	196.0
1706.98877	196.0
1709.538818	172.0
1712.86499	156.0
1714.537598	200.0
1714.875488	176.0
1718.528564	204.0
1728.783081	208.0
1745.730957	156.0
1748.617676	248.0
1751.373535	152.0
1753.206421	180.0
1760.564453	188.0
1761.149048	160.0
1783.722412	184.0
1785.151611	140.0
1788.264404	148.0
1788.67688	156.0
1788.862061	160.0
1791.893799	180.0
1796.328003	176.0
1796.429321	172.0
1797.326538	168.0
1799.898071	184.0
1801.30835	172.0
1806.346436	148.0
1809.7146	208.0
1815.739624	224.0
1820.568359	176.0
1823.99231	148.0
1843.150757	216.0
1844.894287	204.0
1845.749268	244.0
1846.715576	208.0
1848.323975	184.0
1850.746216	168.0
1854.824097	244.0
1855.552856	184.0
1856.959106	212.0
1857.062012	152.0
1858.202881	212.0
1868.022217	140.0
1871.550781	180.0
1875.858398	220.0
1877.875977	180.0
1880.636963	228.0
1880.956299	208.0
1883.961426	192.0
1884.12561	156.0
1885.577271	184.0
1885.983398	148.0
1886.657715	200.0
1889.260742	144.0
1895.459839	208.0
1896.361084	168.0
1902.250732	244.0
1908.218872	184.0
1909.940796	176.0
1914.997681	164.0
1915.259033	176.0
1918.273926	180.0
1923.053833	156.0
1923.682373	160.0
1925.201538	160.0
1933.62915	176.0
1936.334473	144.0
1937.333008	188.0
1940.268799	156.0
1941.776978	152.0
1942.505005	188.0
1943.803467	140.0
1947.385254	192.0
1947.464355	196.0
1947.727783	148.0
1948.99292	164.0
1950.548462	188.0
1951.506592	156.0
1952.605835	196.0
1954.734741	164.0
1957.983154	192.0
1959.81543	140.0
1964.637939	280.0
1967.241211	140.0
1970.738525	168.0
1971.710571	188.0
1979.132324	144.0
1985.787476	144.0
1998.988892	184.0
END IONS

BEGIN IONS
PEPMASS=256.181
CHARGE=1
MSLEVEL=2
SOURCE_INSTRUMENT=LC-ESI-qTof
FILENAME=NCP003592_G2_H11_BE3_01_15737.mzXML
SEQ=*..*
IONMODE=Positive
ORGANISM=GNPS-NIH-CLINICALCOLLECTION1
NAME="N'-benzyl-N,N-dimethyl-N'-pyridin-2-ylethane-1,2-diamine" [M+H]
PI=Dorrestein
DATACOLLECTOR=Garg_Neha
SMILES=CN(C)CCN(Cc1ccccc1)c2ccccn2
INCHI=N/A
INCHIAUX=N/A
PUBMED=N/A
SUBMITUSER=negarg
LIBRARYQUALITY=1
SPECTRUMID=CCMSLIB00000079210
USI=mzspec:GNPS:GNPS-NIH-CLINICALCOLLECTION1:accession:CCMSLIB00000079210
SCANS=1068
44.887539	156.0
44.966251	172.0
45.168007	216.0
45.692535	168.0
45.882431	180.0
45.922886	196.0
46.144524	156.0
46.690819	168.0
46.852798	160.0
47.530964	148.0
48.038647	172.0
48.13802	148.0
48.256851	176.0
48.439529	192.0
48.778114	172.0
49.066284	180.0
49.405647	180.0
50.604763	168.0
50.779163	112.0
50.830135	200.0
50.845745	204.0
51.931503	192.0
52.089394	192.0
52.305088	144.0
52.32571	172.0
52.385727	168.0
52.541477	104.0
52.821678	228.0
52.87521	148.0
53.726707	152.0
54.182838	160.0
54.383736	148.0
54.430714	156.0
54.626186	176.0
54.796959	196.0
54.925213	160.0
54.960621	152.0
56.237713	136.0
56.98415	200.0
57.37093	200.0
57.521782	156.0
57.536877	176.0
57.958858	180.0
58.093792	192.0
58.300289	148.0
58.55283	156.0
58.909748	188.0
59.022846	152.0
59.143707	156.0
59.154423	196.0
59.639137	148.0
60.233913	204.0
60.412079	172.0
60.605209	192.0
60.993187	164.0
61.067822	172.0
61.102043	148.0
61.946617	184.0
61.960716	140.0
62.726227	164.0
62.798569	192.0
63.087532	164.0
63.123898	152.0
63.553158	144.0
63.715103	148.0
63.969547	148.0
64.136803	184.0
64.593483	180.0
64.71991	156.0
64.828835	152.0
64.982773	164.0
65.558426	200.0
65.598717	184.0
65.676117	192.0
65.842354	176.0
66.024979	180.0
66.076736	144.0
66.473709	152.0
66.606842	144.0
66.631523	144.0
66.847466	224.0
67.007034	196.0
67.210838	244.0
67.35614	188.0
67.517944	172.0
67.897316	180.0
68.244385	188.0
68.608231	168.0
68.621422	228.0
68.799599	156.0
69.411774	188.0
69.649101	144.0
69.925102	208.0
70.048317	192.0
70.111633	148.0
70.13163	156.0
70.186646	164.0
70.330116	184.0
70.488777	152.0
70.686089	164.0
70.972527	200.0
71.084908	208.0
71.133583	224.0
71.419235	200.0
71.446152	144.0
71.855537	152.0
72.274559	144.0
72.978462	196.0
73.180931	164.0
73.598671	172.0
73.689194	224.0
73.743874	140.0
73.819099	140.0
74.367325	148.0
74.442863	168.0
74.465187	160.0
74.724754	152.0
75.115814	244.0
75.134789	228.0
75.793739	148.0
75.838585	152.0
75.901001	192.0
75.921806	196.0
76.324677	232.0
76.382072	140.0
76.837135	152.0
76.89782	168.0
77.382034	164.0
77.608047	144.0
77.623833	192.0
78.340927	156.0
78.497787	164.0
78.515762	144.0
78.533058	140.0
78.563049	172.0
79.256104	144.0
79.268509	176.0
79.705025	140.0
80.003822	168.0
80.303177	196.0
80.426292	220.0
80.63504	140.0
80.724648	164.0
81.961433	152.0
82.010094	196.0
82.41613	152.0
82.560745	200.0
83.449265	148.0
83.665764	156.0
84.046677	148.0
84.101425	196.0
84.249336	160.0
84.302322	144.0
84.80378	160.0
85.159729	216.0
85.49617	184.0
85.577164	164.0
86.165512	144.0
86.198769	192.0
86.31707	188.0
86.631706	168.0
86.991463	144.0
87.09359	160.0
87.36499	140.0
87.498985	188.0
88.187317	176.0
88.913994	196.0
89.334885	156.0
89.540047	184.0
89.561058	156.0
89.792137	148.0
89.847298	188.0
90.032272	160.0
90.113495	152.0
90.561829	200.0
90.597816	148.0
90.935341	184.0
91.055229	8640.0
91.543701	140.0
91.612267	208.0
91.944038	168.0
92.056778	588.0
92.073792	232.0
92.61129	216.0
92.693665	140.0
92.931427	140.0
93.057625	316.0
93.779488	152.0
94.068871	156.0
94.136398	216.0
94.318001	188.0
94.372131	208.0
94.631393	156.0
94.646889	156.0
94.673996	148.0
94.881325	184.0
95.071411	176.0
96.07151	152.0
96.233498	236.0
96.626335	184.0
97.25341	140.0
97.502846	160.0
98.111061	168.0
98.8834	160.0
99.232033	140.0
99.267723	148.0
100.090385	148.0
100.399254	160.0
100.612755	160.0
100.686249	144.0
100.734573	228.0
101.088455	192.0
101.412895	200.0
101.553246	168.0
101.578026	180.0
102.011055	148.0
102.087463	196.0
102.141762	172.0
102.177971	144.0
102.441696	228.0
102.459824	152.0
102.500122	184.0
103.698517	200.0
103.889114	192.0
104.09005	180.0
104.134727	180.0
104.70826	196.0
104.74826	144.0
104.832535	152.0
104.996857	128.0
105.071091	300.0
105.105782	176.0
105.320137	176.0
105.563339	152.0
105.649246	200.0
105.97477	200.0
106.33773	208.0
106.401367	168.0
106.495827	164.0
106.541016	188.0
106.580055	176.0
106.979042	180.0
107.395279	196.0
107.438599	152.0
108.238457	188.0
109.059021	128.0
109.19722	212.0
109.471924	172.0
109.609406	164.0
109.655251	180.0
109.807449	160.0
110.403679	180.0
110.521889	164.0
110.703239	176.0
111.583168	160.0
111.991409	152.0
112.079887	144.0
112.788986	192.0
113.085106	184.0
113.26931	148.0
113.710335	168.0
114.703629	184.0
114.767586	140.0
115.183746	208.0
115.395432	140.0
115.564278	140.0
115.994728	140.0
116.12767	140.0
116.445312	176.0
116.974258	244.0
117.172379	156.0
118.288857	160.0
118.537926	160.0
118.553093	176.0
118.603348	128.0
118.698952	140.0
118.795929	156.0
118.848	208.0
119.061081	37352.0
119.153893	160.0
119.213867	124.0
119.256523	100.0
119.409378	132.0
119.537247	120.0
119.852547	232.0
120.01384	140.0
120.06826	20552.0
120.138062	128.0
120.290245	176.0
120.358589	232.0
120.430656	184.0
120.533333	184.0
120.63446	172.0
120.806625	168.0
120.868835	156.0
120.904449	152.0
121.07032	1400.0
121.117455	156.0
121.205086	152.0
121.433434	148.0
121.819397	224.0
122.07325	264.0
122.589035	208.0
123.760178	152.0
124.218933	188.0
124.283272	204.0
126.451561	140.0
126.69339	184.0
127.146324	172.0
127.516098	180.0
128.451309	148.0
128.715363	164.0
128.810226	156.0
129.502365	148.0
129.617905	216.0
129.821915	188.0
129.951218	204.0
130.616837	160.0
131.222595	148.0
132.001205	184.0
132.187393	104.0
132.532242	144.0
133.074875	144.0
133.326218	200.0
133.576828	204.0
134.028061	140.0
134.602417	164.0
134.849609	160.0
134.997559	184.0
135.488251	168.0
136.33284	152.0
137.014603	144.0
137.905991	196.0
138.158524	164.0
138.476868	160.0
138.788544	172.0
139.250839	192.0
139.318954	164.0
140.201309	144.0
140.425278	220.0
140.871384	152.0
141.382095	144.0
141.488617	176.0
142.790009	124.0
142.876953	188.0
143.243561	160.0
144.152557	160.0
144.594971	168.0
145.05246	240.0
145.121979	160.0
145.148346	168.0
145.525055	176.0
145.77594	152.0
145.938324	160.0
146.337723	184.0
146.479797	224.0
147.087448	152.0
147.614136	144.0
148.750427	168.0
149.058868	160.0
149.084396	204.0
149.666962	196.0
151.375946	164.0
151.586914	244.0
151.650635	168.0
152.812149	236.0
152.868744	184.0
153.452515	180.0
153.568405	164.0
154.333954	168.0
155.322083	140.0
155.34317	160.0
155.567749	176.0
155.714508	152.0
156.228775	188.0
156.383041	156.0
157.330261	140.0
158.779022	164.0
159.324402	204.0
160.272232	156.0
160.345306	176.0
161.294327	184.0
162.296844	164.0
162.322205	152.0
162.707855	204.0
162.8526	156.0
163.40596	164.0
164.99054	140.0
165.074905	188.0
165.236801	220.0
165.389587	140.0
166.440689	144.0
166.533142	164.0
167.665161	196.0
167.794037	164.0
167.969406	204.0
168.090927	156.0
168.261002	224.0
168.441772	140.0
168.692429	172.0
168.72345	220.0
169.033829	140.0
169.062286	172.0
169.380753	144.0
170.496399	140.0
171.170151	176.0
171.342056	140.0
171.451492	148.0
171.772186	192.0
173.48764	176.0
173.705292	184.0
173.996582	176.0
174.561493	208.0
174.874557	164.0
174.96669	140.0
175.282745	264.0
175.382889	156.0
175.493607	180.0
175.886688	228.0
177.084442	208.0
177.503159	204.0
177.521713	140.0
177.633118	140.0
180.397217	144.0
181.141144	172.0
181.234909	144.0
182.450699	140.0
183.088394	152.0
183.368591	248.0
184.075546	144.0
184.834961	212.0
185.138138	148.0
185.260025	192.0
186.114334	216.0
186.551743	148.0
186.712173	156.0
188.798447	156.0
189.995407	148.0
190.168289	144.0
191.611954	148.0
191.689102	188.0
191.950974	176.0
192.563614	172.0
192.931122	160.0
194.071777	192.0
194.224304	192.0
194.501785	152.0
196.215393	140.0
196.909271	120.0
197.393661	204.0
197.869308	172.0
198.395996	168.0
198.515182	140.0
198.558624	180.0
198.951462	196.0
199.133972	140.0
199.38121	176.0
199.513321	160.0
200.456207	144.0
200.912964	144.0
201.406952	148.0
201.910049	140.0
202.646027	168.0
202.834213	104.0
202.983322	156.0
203.059891	216.0
203.8349	148.0
204.608521	204.0
205.041489	152.0
205.808838	272.0
206.302979	180.0
206.391724	200.0
207.664352	152.0
207.798035	220.0
207.858292	144.0
207.918564	180.0
208.217133	160.0
208.475693	188.0
208.685516	164.0
209.384766	168.0
209.490997	164.0
209.767883	116.0
209.935211	156.0
210.018845	168.0
210.075653	184.0
210.121078	308.0
210.157318	176.0
210.247177	140.0
210.334457	208.0
210.367889	116.0
210.406586	120.0
210.447998	140.0
210.456573	228.0
210.494553	96.0
210.567902	260.0
210.592178	128.0
210.648911	184.0
210.735794	244.0
210.771332	140.0
210.825378	244.0
210.864105	156.0
210.918808	220.0
210.944885	136.0
210.982986	176.0
211.033234	332.0
211.125061	276312.0
211.228775	128.0
211.276291	196.0
211.332306	324.0
211.39035	424.0
211.430908	184.0
211.480209	212.0
211.512695	156.0
211.559769	152.0
211.599838	7128.0
211.640015	196.0
211.688599	272.0
211.750793	172.0
211.81398	208.0
211.867508	148.0
211.917297	192.0
211.969833	364.0
212.041763	108.0
212.068283	140.0
212.127106	60008.0
212.217102	104.0
212.251251	116.0
212.397278	112.0
212.434875	248.0
212.486862	96.0
212.595184	172.0
212.746384	136.0
212.824371	152.0
212.917511	228.0
212.9729	196.0
213.037537	96.0
213.129227	3944.0
213.276245	112.0
213.337112	96.0
213.418869	148.0
213.443832	104.0
213.491119	236.0
213.514313	284.0
213.536942	208.0
213.572449	224.0
213.629669	184.0
213.673141	276.0
213.725769	372.0
213.771606	284.0
213.80629	268.0
213.829712	272.0
213.895401	204.0
214.12973	316.0
214.280212	328.0
214.449326	104.0
214.561325	200.0
214.844162	172.0
215.716934	120.0
222.984833	144.0
223.053192	144.0
233.873352	160.0
236.097504	176.0
239.541229	144.0
241.773529	160.0
246.231705	168.0
246.978699	140.0
252.349945	148.0
254.153824	192.0
254.641022	164.0
255.082672	156.0
255.15712	184.0
255.235275	164.0
255.553345	156.0
255.819641	148.0
255.872864	132.0
256.026001	180.0
256.181793	46900.0
256.508575	156.0
256.720032	148.0
256.986206	244.0
257.183533	6016.0
257.265442	204.0
257.509033	160.0
258.015167	120.0
258.055267	100.0
258.185883	856.0
258.249878	136.0
259.114838	172.0
259.196533	348.0
274.09964	184.0
329.894958	144.0
365.104187	208.0
1016.395447	148.0
1112.566895	188.0
1122.427124	164.0
1213.60498	152.0
1227.253662	216.0
1277.463257	180.0
1298.814331	192.0
1300.622559	196.0
1313.149048	164.0
1323.707397	176.0
1324.743042	156.0
1332.99231	220.0
1338.74646	240.0
1361.857178	176.0
1399.096924	172.0
1403.395752	140.0
1406.439453	200.0
1437.170898	172.0
1449.170166	160.0
1457.523926	160.0
1467.571777	228.0
1476.604858	160.0
1494.593994	228.0
1508.468262	140.0
1515.689087	176.0
1522.437866	148.0
1525.996704	140.0
1539.281616	204.0
1549.825684	148.0
1560.075439	192.0
1582.077393	168.0
1590.456177	168.0
1593.545288	156.0
1603.651489	176.0
1605.533081	144.0
1619.647583	192.0
1623.366333	232.0
1626.013794	164.0
1646.107422	188.0
1646.745361	196.0
1661.964355	212.0
1675.020752	148.0
1676.185791	204.0
1693.365967	244.0
1699.046509	176.0
1700.113159	172.0
1707.284912	176.0
1708.699707	188.0
1721.359985	184.0
1725.565552	188.0
1728.369507	196.0
1730.935425	152.0
1733.130493	140.0
1734.008911	184.0
1736.139526	216.0
1737.574463	160.0
1738.503784	172.0
1740.375244	268.0
1743.968628	160.0
1754.206909	248.0
1762.243652	188.0
1762.828491	160.0
1762.970581	188.0
1763.338257	144.0
1764.859741	208.0
1765.210938	152.0
1766.214478	160.0
1767.343872	160.0
1772.845337	236.0
1774.697876	156.0
1777.566528	160.0
1781.033813	144.0
1783.865601	168.0
1783.941284	144.0
1795.425903	156.0
1798.944336	188.0
1801.148315	148.0
1801.908569	220.0
1807.72583	172.0
1808.07959	136.0
1808.927734	148.0
1810.477173	168.0
1817.843872	160.0
1818.709473	232.0
1821.808838	216.0
1830.254272	148.0
1830.535278	148.0
1831.012207	156.0
1836.859131	144.0
1838.4375	180.0
1849.727905	216.0
1852.425293	232.0
1856.290649	160.0
1857.276978	164.0
1858.134766	152.0
1860.941284	180.0
1861.044312	212.0
1862.341064	140.0
1865.546143	196.0
1866.440308	184.0
1866.845825	124.0
1870.526855	188.0
1871.439331	208.0
1875.134888	184.0
1875.376221	216.0
1875.557251	176.0
1879.757202	192.0
1881.164062	140.0
1882.631836	196.0
1888.87207	196.0
1894.602661	172.0
1898.060913	144.0
1898.442383	196.0
1907.584961	140.0
1930.445435	160.0
1942.242554	140.0
1947.807617	220.0
1965.220947	168.0
1965.918091	144.0
1966.853638	168.0
1970.924805	144.0
1975.018066	196.0
1978.74353	164.0
1985.052246	140.0
1990.145386	240.0
1990.811401	208.0
1993.289795	168.0
1993.902954	164.0
2000.128906	144.0
2000.565063	144.0
2001.25061	168.0
END IONS

BEGIN IONS
PEPMASS=237.161
CHARGE=1
MSLEVEL=2
SOURCE_INSTRUMENT=LC-ESI-qTof
FILENAME=NCP003017_A2_B11_BA6_01_15701.mzXML
SEQ=*..*
IONMODE=Positive
ORGANISM=GNPS-NIH-CLINICALCOLLECTION2
NAME=Procaine (Novocaine) aka 2-(diethylamino)ethyl 4-aminobenzoate M+H
PI=Dorrestein
DATACOLLECTOR=Garg_Neha
SMILES=CCN(CC)CCOC(=O)c1ccc(N)cc1
INCHI= 
INCHIAUX=N/A
PUBMED=N/A
SUBMITUSER=negarg
LIBRARYQUALITY=1
SPECTRUMID=CCMSLIB00000077021
USI=mzspec:GNPS:GNPS-NIH-CLINICALCOLLECTION2:accession:CCMSLIB00000077021
SCANS=992
45.134243	148.0
45.249313	156.0
45.335041	228.0
45.375252	228.0
45.925262	224.0
46.094021	196.0
46.63884	184.0
46.911087	184.0
46.97245	144.0
47.169086	232.0
47.636372	152.0
47.688587	168.0
47.973526	224.0
48.613926	188.0
48.790329	200.0
48.833435	184.0
49.008842	148.0
49.402557	156.0
49.921524	160.0
50.362659	248.0
50.458752	152.0
50.608727	212.0
51.215935	248.0
51.396187	164.0
51.454708	228.0
51.723465	204.0
51.938404	144.0
52.034554	240.0
52.057526	140.0
52.38546	180.0
52.486347	252.0
53.054562	188.0
53.103863	156.0
53.821953	148.0
53.960125	140.0
54.046421	152.0
54.815128	188.0
54.989891	160.0
55.255878	220.0
55.497299	144.0
55.577396	208.0
55.629341	184.0
55.844799	176.0
55.905579	136.0
55.972935	180.0
56.045895	152.0
56.380039	256.0
56.57053	372.0
57.403877	184.0
57.518539	228.0
57.645409	232.0
57.914707	192.0
57.993496	140.0
58.216518	148.0
58.269684	164.0
58.47345	156.0
58.680618	156.0
58.796551	164.0
58.973717	144.0
60.17812	164.0
60.267704	184.0
60.434692	180.0
61.646034	168.0
61.725758	168.0
62.009113	152.0
62.486488	152.0
62.547863	228.0
63.802349	168.0
63.94392	140.0
64.524559	232.0
65.001877	228.0
65.111038	144.0
65.471283	220.0
65.596962	200.0
65.827682	228.0
66.423782	168.0
66.528763	200.0
67.455688	144.0
67.511284	144.0
67.823997	208.0
67.904335	140.0
68.293602	156.0
68.431831	248.0
68.669128	184.0
68.877098	208.0
68.92997	180.0
69.047585	136.0
69.330711	124.0
69.682373	180.0
70.365082	184.0
70.563896	164.0
70.592323	180.0
71.906082	376.0
72.019203	172.0
72.18483	192.0
72.42556	116.0
72.796921	196.0
73.223442	188.0
73.247284	152.0
73.475723	172.0
73.95591	148.0
74.072342	244.0
74.576813	144.0
75.73632	152.0
75.946053	144.0
76.310738	164.0
76.331604	176.0
76.460335	156.0
76.542152	164.0
76.564796	140.0
76.624016	172.0
77.208778	164.0
77.222771	228.0
77.469582	188.0
77.60453	160.0
79.07901	176.0
79.125038	228.0
79.160454	156.0
79.241928	140.0
79.440491	220.0
79.632195	160.0
79.82235	196.0
80.294273	152.0
80.444153	188.0
80.599442	152.0
80.725685	224.0
81.019997	152.0
81.308685	148.0
81.355354	156.0
81.432564	180.0
81.903816	204.0
82.040771	160.0
82.42926	212.0
82.767075	164.0
83.102402	172.0
83.24398	168.0
83.942764	188.0
84.507179	164.0
84.763527	172.0
84.937698	152.0
84.968887	216.0
85.2976	220.0
86.311607	256.0
86.489212	156.0
86.52253	164.0
87.432068	216.0
87.532593	208.0
87.834518	152.0
88.151909	160.0
88.546646	200.0
88.612206	200.0
89.14698	160.0
90.032402	160.0
90.062614	164.0
90.730614	180.0
90.897522	152.0
91.18428	248.0
91.907928	140.0
92.048645	852.0
92.255524	184.0
92.828011	148.0
93.042908	168.0
94.844887	180.0
95.110413	156.0
95.816322	148.0
96.114632	156.0
97.328224	144.0
97.524681	216.0
97.681984	212.0
98.097488	140.0
98.117203	228.0
98.239471	196.0
98.644295	156.0
98.909653	136.0
99.089577	156.0
99.46637	168.0
99.818291	148.0
99.900162	188.0
99.961243	148.0
99.991096	228.0
100.033257	132.0
100.11277	49316.0
100.188591	240.0
100.254181	220.0
100.314056	112.0
100.437645	168.0
100.780777	168.0
100.858002	100.0
100.888702	180.0
100.939621	168.0
100.986687	176.0
101.114937	2360.0
101.616371	96.0
101.66185	180.0
101.705185	176.0
102.043495	188.0
102.659653	160.0
102.772614	208.0
103.64814	152.0
104.957184	164.0
105.471657	144.0
106.325745	232.0
107.074097	172.0
108.040115	288.0
108.182907	148.0
108.247093	120.0
108.263657	168.0
108.657494	152.0
108.813148	188.0
109.137276	188.0
109.297432	160.0
109.345299	168.0
109.955956	172.0
110.065216	164.0
110.838448	188.0
111.083748	192.0
111.220139	188.0
111.509987	168.0
112.143509	164.0
112.185669	180.0
113.022026	144.0
113.736229	140.0
116.460808	184.0
116.772461	184.0
116.976875	152.0
118.123199	820.0
118.232155	152.0
119.024307	220.0
119.328499	228.0
119.44593	176.0
119.599106	208.0
119.885345	156.0
119.913673	200.0
119.96579	248.0
120.008987	284.0
120.045013	89384.0
120.161598	156.0
120.199951	136.0
120.285225	124.0
120.304352	248.0
120.561234	112.0
120.686852	176.0
120.894043	156.0
120.982399	232.0
121.048157	3640.0
121.778763	140.0
121.884239	180.0
121.942474	212.0
122.047997	540.0
122.104225	152.0
123.05542	156.0
123.114227	164.0
123.375763	176.0
127.162636	184.0
128.174622	184.0
128.278305	164.0
128.898956	220.0
129.47583	192.0
129.546036	156.0
129.706924	228.0
130.072128	144.0
130.299225	140.0
130.522934	168.0
131.321304	196.0
131.570038	164.0
131.720749	140.0
131.860138	144.0
133.101776	152.0
134.483078	204.0
136.140747	144.0
136.712631	148.0
138.510422	248.0
139.228119	188.0
139.738205	216.0
140.492111	204.0
140.659653	144.0
142.026031	168.0
142.409485	224.0
144.967026	144.0
145.487503	200.0
145.617172	188.0
146.273575	140.0
147.69928	124.0
148.392273	168.0
149.777466	148.0
150.540848	168.0
155.380127	228.0
155.951279	148.0
156.088013	160.0
157.690994	224.0
158.093643	212.0
159.10878	164.0
161.232208	176.0
161.707687	288.0
161.844391	252.0
162.303009	140.0
163.036636	268.0
163.056961	188.0
163.089035	320.0
163.163727	156.0
163.214569	180.0
163.316986	184.0
163.802475	204.0
163.922226	168.0
163.950089	196.0
163.991653	180.0
164.012222	448.0
164.041397	168.0
164.071121	74368.0
164.817871	160.0
164.90657	136.0
165.073181	5948.0
166.075592	752.0
166.508316	136.0
166.595947	152.0
167.233643	196.0
173.680328	148.0
177.910416	260.0
183.917526	208.0
186.953033	160.0
190.227448	148.0
192.918854	168.0
194.967194	160.0
195.9505	188.0
197.977341	204.0
200.742584	156.0
201.925873	164.0
203.169388	188.0
204.496399	168.0
208.420013	144.0
209.418259	184.0
209.545013	184.0
209.859161	168.0
210.439102	164.0
211.245407	152.0
213.91806	200.0
213.953629	128.0
217.833496	136.0
222.113907	144.0
224.705032	144.0
227.30217	148.0
228.137131	204.0
228.979645	164.0
230.454758	156.0
234.948181	140.0
235.167892	156.0
236.173218	256.0
236.264893	144.0
236.650528	180.0
236.94516	144.0
237.065155	484.0
237.099823	128.0
237.161041	113452.0
237.243515	188.0
237.425217	196.0
237.454178	100.0
237.478348	144.0
237.664505	680.0
238.162994	12936.0
238.285263	172.0
238.42543	108.0
239.166153	1668.0
239.207855	152.0
239.435699	152.0
239.860565	188.0
239.929688	140.0
239.987503	124.0
240.017441	108.0
240.194763	220.0
240.693893	148.0
242.131866	160.0
426.032318	204.0
1135.700684	156.0
1137.666748	200.0
1216.893066	164.0
1219.074219	208.0
1245.174683	216.0
1249.856567	152.0
1262.582397	216.0
1273.838013	220.0
1280.944336	164.0
1309.560303	176.0
1313.53186	140.0
1324.722046	256.0
1332.862305	252.0
1343.733032	144.0
1356.677734	184.0
1384.26355	180.0
1404.545776	196.0
1411.244629	156.0
1425.058228	152.0
1438.674805	276.0
1438.969238	216.0
1440.321045	180.0
1442.368774	140.0
1443.84314	164.0
1444.349854	200.0
1450.422607	212.0
1451.173218	168.0
1451.901123	160.0
1456.477783	176.0
1464.464355	144.0
1470.937866	224.0
1479.262451	164.0
1483.284058	168.0
1490.774902	200.0
1500.326782	232.0
1501.498901	140.0
1505.24939	172.0
1510.968994	144.0
1517.079346	164.0
1525.401123	148.0
1528.34082	168.0
1536.381348	164.0
1537.668823	196.0
1542.660034	172.0
1543.96582	164.0
1549.546875	176.0
1549.77417	228.0
1558.734985	184.0
1559.693726	156.0
1567.201538	148.0
1574.687866	168.0
1579.920654	160.0
1580.427002	172.0
1582.112793	164.0
1582.381958	152.0
1593.978271	176.0
1604.36499	208.0
1605.792236	168.0
1616.769531	192.0
1621.045898	168.0
1622.288208	144.0
1623.234253	140.0
1623.32251	172.0
1629.254028	188.0
1631.72937	160.0
1631.954468	164.0
1635.123901	192.0
1639.343872	220.0
1639.537231	184.0
1640.077271	204.0
1656.520996	176.0
1660.452148	148.0
1665.492432	156.0
1665.622437	140.0
1666.8573	180.0
1671.118042	176.0
1675.31897	204.0
1676.834595	208.0
1679.639404	200.0
1683.86731	152.0
1684.300293	156.0
1684.765869	204.0
1688.525879	144.0
1690.301147	192.0
1692.273682	168.0
1693.39563	212.0
1696.845459	232.0
1700.815918	176.0
1707.512207	196.0
1711.091797	180.0
1718.014404	220.0
1721.167236	192.0
1723.744507	232.0
1727.547729	148.0
1727.663574	152.0
1731.611938	144.0
1732.854492	152.0
1733.368164	152.0
1737.281616	160.0
1737.546997	144.0
1738.625732	168.0
1739.646606	168.0
1741.614624	160.0
1745.612183	148.0
1746.717163	144.0
1759.994507	168.0
1762.62561	164.0
1767.391846	148.0
1770.927612	200.0
1775.341309	160.0
1776.708496	152.0
1778.932373	172.0
1782.149048	184.0
1783.863525	196.0
1784.863892	188.0
1786.268433	144.0
1795.255249	200.0
1799.955566	144.0
1801.078735	196.0
1806.361816	164.0
1811.051147	212.0
1811.610229	196.0
1818.716187	140.0
1819.599121	164.0
1826.082764	232.0
1828.575562	144.0
1830.601807	148.0
1831.725952	148.0
1831.862305	220.0
1835.723267	164.0
1836.047363	256.0
1836.32019	168.0
1836.814941	180.0
1853.1521	236.0
1860.527954	204.0
1863.946289	160.0
1864.831421	168.0
1868.959351	168.0
1882.18689	184.0
1885.715088	148.0
1887.011719	256.0
1887.452637	180.0
1890.333252	144.0
1891.172729	232.0
1896.53418	172.0
1896.880859	248.0
1903.066528	144.0
1907.219116	160.0
1909.227417	180.0
1911.671997	152.0
1914.666748	220.0
1915.023804	152.0
1915.833862	184.0
1916.042969	196.0
1916.208496	216.0
1917.472046	160.0
1919.869507	188.0
1925.961426	148.0
1927.263184	164.0
1929.867798	284.0
1931.608154	148.0
1941.917603	224.0
1943.707275	148.0
1945.74353	192.0
1947.842407	156.0
1949.300781	144.0
1950.689453	172.0
1955.307251	184.0
1965.079712	196.0
1965.141479	148.0
1966.041504	152.0
1970.968994	140.0
1974.018555	180.0
1975.911499	176.0
1977.017456	216.0
1978.531128	152.0
1978.911743	164.0
1981.68396	188.0
1981.763794	148.0
1992.53479	200.0
1999.025513	232.0
1999.630737	192.0
2001.651611	148.0
2003.42395	184.0
END IONS

BEGIN IONS
PEPMASS=329.188
CHARGE=1
MSLEVEL=2
SOURCE_INSTRUMENT=LC-ESI-qTof
FILENAME=NCP003017_E2_F11_BA8_01_15703.mzXML
SEQ=*..*
IONMODE=Positive
ORGANISM=GNPS-NIH-CLINICALCOLLECTION2
NAME=Labetalol  M+H
PI=Dorrestein
DATACOLLECTOR=Garg_Neha
SMILES=CC(NCC(O)C1=CC(C(N)=O)=C(O)C=C1)CCC2=CC=CC=C2
INCHI=CC(CCc1ccccc1)NCC(O)c2ccc(O)c(c2)C(=O)N
INCHIAUX=N/A
PUBMED=N/A
SUBMITUSER=negarg
LIBRARYQUALITY=1
SPECTRUMID=CCMSLIB00000077054
USI=mzspec:GNPS:GNPS-NIH-CLINICALCOLLECTION2:accession:CCMSLIB00000077054
SCANS=1087
45.481033	188.0
46.020878	152.0
46.234459	148.0
46.354984	240.0
46.429546	176.0
46.746078	184.0
47.24683	272.0
48.165131	160.0
48.372967	172.0
48.477814	156.0
49.699364	180.0
51.06081	148.0
51.078262	180.0
51.091064	184.0
51.929573	288.0
52.396755	144.0
52.705524	176.0
54.954235	148.0
55.764271	204.0
56.967148	232.0
57.198727	196.0
57.527348	168.0
57.670849	168.0
58.138844	168.0
59.451305	196.0
59.66481	212.0
60.672947	156.0
61.503643	188.0
61.833431	248.0
62.799698	220.0
62.944889	140.0
64.602646	184.0
68.815697	220.0
69.326828	164.0
70.581985	220.0
70.911774	172.0
71.279305	152.0
71.354942	236.0
72.218338	188.0
73.29126	176.0
73.419113	140.0
73.979553	168.0
75.172379	172.0
75.407249	168.0
75.716942	156.0
77.238174	184.0
77.841072	140.0
78.202126	224.0
78.305344	156.0
78.772774	144.0
78.979584	148.0
79.076897	188.0
79.369202	176.0
79.930511	168.0
81.198891	144.0
81.227592	152.0
81.516647	172.0
81.622704	148.0
82.128769	152.0
82.422386	188.0
83.603561	168.0
84.545242	208.0
84.75766	152.0
86.085793	140.0
86.187386	180.0
86.226196	168.0
86.435165	212.0
86.770409	172.0
87.893837	196.0
88.602455	196.0
88.86306	228.0
88.919357	192.0
89.120285	216.0
89.643394	140.0
89.656586	188.0
89.901749	160.0
90.011238	144.0
90.041451	220.0
91.054024	5028.0
91.44445	148.0
91.659645	188.0
92.056526	332.0
92.17485	156.0
92.923515	140.0
93.063622	156.0
93.153885	144.0
93.717583	216.0
94.006821	148.0
94.020332	200.0
94.067024	288.0
94.120712	140.0
94.155472	228.0
94.654404	156.0
94.933449	236.0
94.958656	180.0
96.016914	164.0
96.276237	144.0
96.313347	152.0
96.876709	220.0
97.251236	164.0
97.329765	180.0
98.308105	196.0
98.720978	160.0
98.804054	208.0
99.418297	140.0
100.536728	144.0
100.644516	156.0
100.776344	176.0
100.876274	260.0
101.146317	140.0
101.314529	156.0
101.926476	144.0
102.171768	140.0
103.49173	164.0
105.033234	168.0
105.091347	188.0
105.115837	184.0
105.512085	144.0
105.771889	168.0
105.91317	148.0
105.993073	168.0
106.065163	988.0
106.179619	188.0
106.471046	232.0
106.74025	152.0
107.049416	1028.0
107.958977	156.0
108.052956	120.0
108.58857	200.0
110.691338	172.0
111.280533	156.0
111.477982	164.0
112.351784	172.0
115.615578	152.0
116.049423	688.0
117.004349	148.0
117.033127	372.0
117.13356	188.0
117.381409	152.0
118.066551	164.0
118.117882	200.0
118.308311	196.0
118.798073	216.0
119.048347	256.0
119.16497	140.0
119.695694	152.0
120.045189	560.0
120.081421	140.0
120.266884	156.0
120.310539	176.0
122.038216	236.0
122.982033	164.0
124.854187	140.0
125.506653	204.0
125.890465	160.0
127.119446	160.0
129.861267	228.0
129.989868	180.0
130.271393	160.0
130.644211	160.0
130.72612	172.0
131.08136	144.0
131.124664	176.0
131.364075	140.0
131.884705	156.0
132.081345	216.0
132.507141	160.0
132.587341	184.0
132.993301	172.0
133.051941	576.0
133.105804	248.0
134.060074	7300.0
134.101852	208.0
134.404022	208.0
134.944504	152.0
135.043716	1132.0
135.065353	520.0
135.219772	144.0
136.047287	156.0
136.075577	532.0
138.054184	332.0
138.123596	160.0
139.932953	140.0
140.312256	144.0
140.368851	160.0
142.86763	144.0
143.828827	132.0
144.044495	2228.0
144.071259	140.0
144.107376	168.0
144.241196	160.0
144.554504	148.0
145.029449	328.0
146.03714	184.0
146.057495	164.0
147.043488	4928.0
147.226898	176.0
147.317093	168.0
147.943436	152.0
148.047745	824.0
148.077911	188.0
148.109085	184.0
148.551697	176.0
149.723236	144.0
149.881577	144.0
150.055634	160.0
150.128922	216.0
150.603699	156.0
151.259003	236.0
151.37204	168.0
151.518585	180.0
151.670517	148.0
152.578796	140.0
152.972412	272.0
154.265045	152.0
157.275696	144.0
158.068207	108.0
158.839584	184.0
159.045334	160.0
159.076797	376.0
159.628204	144.0
159.650833	144.0
160.090393	168.0
160.928391	152.0
161.050339	292.0
161.405945	160.0
161.960464	144.0
161.98439	184.0
162.020737	140.0
162.055664	93428.0
162.116379	156.0
162.434189	216.0
162.467682	96.0
162.517212	140.0
162.555206	120.0
162.797989	148.0
162.870773	200.0
163.057159	7568.0
163.53949	200.0
163.788376	124.0
163.849152	100.0
163.957214	196.0
164.069717	3540.0
164.136017	168.0
164.20314	160.0
164.245285	144.0
164.537888	100.0
164.842712	140.0
165.013962	140.0
165.054703	2000.0
165.407928	176.0
166.057434	296.0
167.920837	140.0
168.207245	140.0
168.341507	160.0
170.086502	168.0
170.951981	152.0
172.072174	520.0
172.172028	228.0
172.208588	156.0
174.438431	180.0
176.073853	192.0
177.016129	160.0
177.766327	180.0
177.922928	148.0
178.293457	100.0
178.675034	156.0
179.081711	9280.0
179.58873	140.0
179.635864	224.0
180.065872	1160.0
180.084259	932.0
180.229431	216.0
181.06778	196.0
181.086868	192.0
182.220169	300.0
183.336853	176.0
183.368958	220.0
183.932922	232.0
185.02504	156.0
186.089066	156.0
186.367584	192.0
186.454544	188.0
186.579575	156.0
188.151535	152.0
188.799118	156.0
189.464249	148.0
189.985123	140.0
190.08577	5176.0
190.971252	160.0
190.996017	156.0
191.089966	268.0
191.117065	196.0
191.545776	160.0
192.140884	236.0
193.147537	212.0
193.559891	148.0
195.394547	144.0
196.115784	168.0
196.693176	164.0
199.581573	168.0
200.042984	148.0
201.11412	140.0
202.510864	164.0
203.256454	188.0
204.259338	148.0
205.03949	196.0
205.105438	144.0
207.112747	12548.0
207.288544	208.0
207.441879	120.0
208.11499	1492.0
208.78418	224.0
209.056808	140.0
209.109268	172.0
209.14093	160.0
209.982254	148.0
210.319824	184.0
210.461288	224.0
211.279205	140.0
211.3255	156.0
213.797791	160.0
216.53334	156.0
216.829239	236.0
219.50737	140.0
223.987015	144.0
224.107758	184.0
226.28421	136.0
227.130188	168.0
230.713684	264.0
231.21579	188.0
232.006363	164.0
233.93541	204.0
235.070877	156.0
240.631088	144.0
242.40654	164.0
242.449921	156.0
243.107361	208.0
243.964615	156.0
246.00737	180.0
247.869141	212.0
248.87915	164.0
250.029678	152.0
250.130402	152.0
252.098328	264.0
253.106369	164.0
253.921982	160.0
254.318573	156.0
256.369934	148.0
256.653625	164.0
256.790771	160.0
259.598694	176.0
261.980377	148.0
262.46109	152.0
263.329102	148.0
263.693756	144.0
264.369659	148.0
264.593018	196.0
264.706329	180.0
265.036743	156.0
265.227936	148.0
268.10614	128.0
268.130035	144.0
268.169495	140.0
268.208618	172.0
268.782593	176.0
269.127289	244.0
270.144989	196.0
270.21698	212.0
271.241974	164.0
272.314941	144.0
277.214081	160.0
278.152679	228.0
280.314484	200.0
280.454468	164.0
281.618927	172.0
282.143555	144.0
282.745636	160.0
283.502502	152.0
284.471832	200.0
285.610962	148.0
285.99118	192.0
287.548309	144.0
287.595551	172.0
290.047852	160.0
290.519196	176.0
293.229218	144.0
294.148499	17512.0
294.361847	140.0
295.152222	3896.0
295.32901	168.0
296.15509	512.0
299.155029	208.0
301.305695	172.0
301.794312	268.0
303.204834	236.0
303.740601	196.0
305.727966	144.0
306.058655	140.0
306.257141	176.0
307.665924	172.0
308.814911	168.0
309.470703	132.0
309.647461	128.0
309.832397	240.0
310.03598	112.0
310.087402	124.0
310.145935	264.0
310.316284	224.0
310.358948	288.0
310.489685	236.0
310.627411	188.0
310.819366	236.0
310.855743	196.0
310.955658	288.0
311.021912	188.0
311.067047	280.0
311.109039	216.0
311.132385	508.0
311.177032	173508.0
311.273224	172.0
311.315918	116.0
311.403992	280.0
311.440491	296.0
311.493439	124.0
311.571808	252.0
311.642365	132.0
311.688202	184.0
311.753906	1700.0
311.802612	100.0
311.880798	348.0
311.92572	252.0
311.971558	148.0
312.021027	196.0
312.087067	156.0
312.121246	124.0
312.179352	32112.0
312.277344	96.0
312.581848	136.0
312.641541	116.0
312.690277	168.0
312.878571	172.0
312.943146	140.0
313.079041	104.0
313.182495	3556.0
313.589264	132.0
313.640839	128.0
313.754303	128.0
313.837372	164.0
313.896118	140.0
313.975159	164.0
314.071198	224.0
314.185883	308.0
314.213684	132.0
314.23941	452.0
314.268097	120.0
314.31427	212.0
314.351624	208.0
314.403229	180.0
314.469788	148.0
314.604034	112.0
314.636139	140.0
314.709991	176.0
315.039581	144.0
315.247314	132.0
315.282349	104.0
315.384186	204.0
315.471527	156.0
315.503815	192.0
316.133392	164.0
316.29715	136.0
318.185669	140.0
326.436005	176.0
328.155975	296.0
328.539459	168.0
328.680176	160.0
328.784821	160.0
329.102051	180.0
329.186951	58956.0
329.377777	120.0
329.527679	132.0
329.58432	108.0
329.620361	112.0
329.709351	120.0
329.748322	96.0
330.103394	140.0
330.18869	7476.0
331.127533	156.0
331.190186	2008.0
331.229065	128.0
332.179688	136.0
332.21524	176.0
332.265533	148.0
332.397736	108.0
332.446228	124.0
332.539764	108.0
332.806213	136.0
399.802032	144.0
435.452545	152.0
494.746521	176.0
502.787415	140.0
679.139282	144.0
766.789062	192.0
1016.014038	164.0
1186.256226	164.0
1210.709473	212.0
1211.367554	160.0
1310.440674	148.0
1310.65686	168.0
1316.615356	168.0
1343.304077	176.0
1417.076538	180.0
1431.30249	196.0
1455.324707	232.0
1466.301758	148.0
1473.275879	220.0
1474.941772	180.0
1484.16687	164.0
1490.653076	144.0
1497.184326	160.0
1500.220093	252.0
1501.160767	152.0
1502.988892	176.0
1536.889648	192.0
1553.263916	156.0
1556.010498	188.0
1577.146118	188.0
1579.913818	160.0
1610.726074	208.0
1636.026367	140.0
1637.701172	144.0
1646.387451	164.0
1648.600952	148.0
1651.196045	156.0
1654.772705	272.0
1657.810181	164.0
1658.499023	180.0
1664.689331	172.0
1679.607666	144.0
1680.186768	164.0
1702.434204	156.0
1712.830078	184.0
1716.637817	180.0
1721.457031	176.0
1723.439453	140.0
1737.722046	248.0
1739.058105	152.0
1748.657715	172.0
1751.963501	152.0
1756.239746	204.0
1766.999268	184.0
1773.086792	196.0
1775.031738	152.0
1777.481079	168.0
1793.948975	144.0
1808.884155	168.0
1814.314209	144.0
1828.950684	152.0
1850.523193	140.0
1876.76355	156.0
1887.193726	184.0
1890.645142	160.0
1896.647217	160.0
1901.825562	224.0
1918.631714	168.0
1931.162476	160.0
1973.108154	176.0
1974.991699	156.0
1979.159912	184.0
1981.312134	280.0
1988.361572	152.0
END IONS

BEGIN IONS
PEPMASS=353.186
CHARGE=1
MSLEVEL=2
SOURCE_INSTRUMENT=LC-ESI-qTof
FILENAME=p1-A06_GA6_01_17879.mzXML
SEQ=*..*
IONMODE=Positive
ORGANISM=GNPS-NIH-NATURALPRODUCTSLIBRARY
NAME=MLS000111555-01! M+H
PI=Dorrestein
DATACOLLECTOR=VVP/LMS
SMILES=COC(=O)C1=COC(C)C2CN3CCc4c([nH]c5ccccc45)C3CC21
INCHI=N/A
INCHIAUX=N/A
PUBMED=N/A
SUBMITUSER=vphelan
LIBRARYQUALITY=1
SPECTRUMID=CCMSLIB00000079416
USI=mzspec:GNPS:GNPS-NIH-NATURALPRODUCTSLIBRARY:accession:CCMSLIB00000079416
SCANS=1645
95.010468	160.0
95.048492	320.0
95.080315	172.0
95.1269	248.0
95.158958	124.0
95.218155	128.0
95.256683	172.0
95.404686	172.0
95.445511	52.0
95.503853	172.0
95.570641	332.0
95.634209	180.0
95.760765	148.0
95.805565	136.0
95.860115	132.0
95.877655	188.0
95.89325	140.0
95.947823	140.0
95.96891	216.0
95.992668	128.0
96.047714	160.0
96.068733	140.0
96.08239	496.0
96.10054	132.0
96.193863	160.0
96.209236	176.0
96.231697	184.0
96.263908	148.0
96.279526	128.0
96.400642	200.0
96.447548	132.0
96.492508	120.0
96.519882	136.0
96.570724	176.0
96.590286	76.0
96.609634	148.0
96.647018	128.0
96.664627	152.0
96.701813	132.0
96.766403	220.0
96.8134	184.0
96.918907	264.0
96.974045	184.0
97.011284	176.0
97.061508	180.0
97.138748	156.0
97.241653	64.0
97.308632	116.0
97.384094	124.0
97.462677	48.0
97.492149	224.0
97.596329	96.0
97.692696	132.0
97.749748	180.0
97.7892	168.0
97.824539	120.0
97.859978	176.0
97.901321	56.0
97.924957	84.0
97.991928	128.0
98.017548	108.0
98.056961	176.0
98.110176	176.0
98.194962	40.0
98.210739	160.0
98.236382	244.0
98.267944	132.0
98.321228	148.0
98.352806	176.0
98.370567	148.0
98.461388	220.0
98.536453	144.0
98.601074	216.0
98.631302	136.0
98.708221	128.0
98.755867	144.0
98.858742	152.0
98.892387	128.0
99.043625	184.0
99.066628	236.0
99.114182	172.0
99.15976	156.0
99.254906	140.0
99.284294	144.0
99.320351	176.0
99.408592	192.0
99.423805	168.0
99.520782	112.0
99.608162	156.0
99.639946	268.0
99.699554	156.0
99.722977	148.0
99.757195	144.0
99.796959	208.0
99.908325	112.0
99.950005	152.0
99.973984	104.0
100.00782	184.0
100.039711	192.0
100.109352	188.0
100.181053	264.0
100.268723	140.0
100.302605	144.0
100.367043	176.0
100.478088	180.0
100.523979	112.0
100.54792	128.0
100.561897	44.0
100.617783	224.0
100.653725	352.0
100.697655	144.0
100.733612	128.0
100.771568	152.0
100.851494	36.0
100.897476	112.0
100.949455	132.0
100.981453	164.0
101.00042	108.0
101.017456	208.0
101.042351	160.0
101.1175	116.0
101.135963	160.0
101.18956	148.0
101.223351	160.0
101.273666	172.0
101.297699	180.0
101.41993	224.0
101.468033	176.0
101.503326	220.0
101.548248	176.0
101.56945	224.0
101.606415	92.0
101.658585	168.0
101.708206	264.0
101.779022	228.0
101.829224	224.0
101.893501	32.0
101.938477	208.0
101.969856	136.0
101.995987	120.0
102.04512	180.0
102.074387	140.0
102.096512	156.0
102.124664	308.0
102.148987	220.0
102.237328	188.0
102.265503	196.0
102.291672	96.0
102.313812	228.0
102.35408	112.0
102.414162	240.0
102.435188	176.0
102.468224	196.0
102.501122	152.0
102.527321	92.0
102.556023	180.0
102.573669	144.0
102.600677	212.0
102.641884	120.0
102.644798	100.0
102.65583	148.0
102.736839	188.0
102.759201	212.0
102.83992	148.0
102.868172	168.0
102.940857	164.0
102.987305	148.0
103.003464	216.0
103.054382	1924.0
103.132782	168.0
103.152992	96.0
103.175995	180.0
103.209602	136.0
103.231842	112.0
103.253593	196.0
103.278358	92.0
103.351181	152.0
103.37104	228.0
103.397728	208.0
103.487839	240.0
103.545296	368.0
103.598404	200.0
103.61116	224.0
103.658958	152.0
103.727859	40.0
103.753006	224.0
103.768143	176.0
103.79071	128.0
103.849518	228.0
103.871834	164.0
103.916458	364.0
104.036194	228.0
104.056984	460.0
104.087349	164.0
104.103195	92.0
104.188499	96.0
104.218979	160.0
104.237267	148.0
104.255013	136.0
104.340919	160.0
104.354538	232.0
104.387688	128.0
104.458961	168.0
104.511765	160.0
104.566704	140.0
104.599274	132.0
104.644058	184.0
104.699036	56.0
104.827095	148.0
104.875702	168.0
104.992493	180.0
105.025757	372.0
105.067818	1072.0
105.097885	96.0
105.212852	76.0
105.274658	192.0
105.294525	208.0
105.319534	148.0
105.335373	104.0
105.384125	144.0
105.391655	124.0
105.42527	148.0
105.460968	172.0
105.521339	176.0
105.562233	208.0
105.619987	232.0
105.644043	64.0
105.708199	168.0
105.728821	92.0
105.791382	96.0
105.829185	136.0
105.89785	48.0
105.918335	116.0
105.955208	332.0
105.981842	132.0
106.008476	148.0
106.035118	184.0
106.065063	528.0
106.234009	160.0
106.25042	184.0
106.315849	216.0
106.37117	228.0
106.412552	120.0
106.585075	164.0
106.640564	148.0
106.712509	160.0
106.790649	228.0
106.815331	184.0
106.893509	308.0
106.937576	228.0
106.97789	52.0
106.992302	88.0
107.011948	372.0
107.048264	532.0
107.070564	384.0
107.148163	164.0
107.229179	152.0
107.262154	172.0
107.286888	100.0
107.406494	136.0
107.433304	76.0
107.487526	128.0
107.509644	168.0
107.526154	168.0
107.540604	48.0
107.602531	240.0
107.658279	212.0
107.689255	156.0
107.702698	156.0
107.724373	220.0
107.755791	152.0
107.848351	180.0
107.871086	116.0
107.97551	268.0
108.007469	184.0
108.046127	136.0
108.081406	3528.0
108.127556	128.0
108.146179	148.0
108.200005	204.0
108.224846	156.0
108.272476	140.0
108.28904	88.0
108.429924	176.0
108.48381	144.0
108.527344	128.0
108.562599	192.0
108.578926	204.0
108.643486	144.0
108.701881	220.0
108.752754	164.0
108.826118	160.0
108.86557	88.0
108.907104	220.0
108.956757	164.0
108.975655	116.0
109.028954	808.0
109.06588	648.0
109.087875	108.0
109.102432	172.0
109.135696	188.0
109.241867	148.0
109.259033	132.0
109.362946	132.0
109.396599	136.0
109.445709	204.0
109.520676	160.0
109.583839	188.0
109.604012	192.0
109.620682	144.0
109.6436	108.0
109.664444	116.0
109.693626	296.0
109.788879	232.0
109.810387	256.0
109.82885	248.0
109.912605	68.0
109.927208	212.0
109.960602	120.0
110.03157	152.0
110.057823	228.0
110.081139	124.0
110.177757	172.0
110.232079	212.0
110.26342	180.0
110.288506	160.0
110.309402	176.0
110.332397	136.0
110.3554	156.0
110.393036	100.0
110.426498	100.0
110.46833	124.0
110.487152	244.0
110.575035	92.0
110.598061	228.0
110.633942	140.0
110.660858	172.0
110.722534	196.0
110.851463	208.0
110.870392	368.0
110.910141	236.0
111.021263	252.0
111.035942	72.0
111.113548	128.0
111.130333	132.0
111.154922	156.0
111.180695	168.0
111.221375	220.0
111.338142	192.0
111.352844	188.0
111.375946	148.0
111.445267	176.0
111.546143	184.0
111.599556	204.0
111.624428	168.0
111.729095	124.0
111.752235	124.0
111.770317	296.0
111.791389	196.0
111.860451	176.0
111.943779	92.0
112.03434	100.0
112.076477	168.0
112.133369	192.0
112.238777	248.0
112.273262	208.0
112.318642	124.0
112.354774	208.0
112.403297	64.0
112.483498	72.0
112.527824	80.0
112.555275	68.0
112.579201	204.0
112.622856	144.0
112.667213	136.0
112.690453	60.0
112.717918	252.0
112.734825	32.0
112.828407	160.0
112.875542	212.0
112.895485	172.0
112.980087	188.0
113.008049	128.0
113.026634	164.0
113.058372	204.0
113.109169	176.0
113.181145	292.0
113.249603	184.0
113.329407	160.0
113.344238	156.0
113.405167	224.0
113.541382	72.0
113.57003	140.0
113.619865	112.0
113.704735	124.0
113.791763	160.0
113.831818	172.0
113.902191	140.0
113.942551	184.0
113.963799	176.0
114.055176	276.0
114.111595	192.0
114.161476	160.0
114.210388	196.0
114.269951	140.0
114.38723	296.0
114.446609	204.0
114.53392	132.0
114.559479	116.0
114.617004	248.0
114.638741	236.0
114.685196	108.0
114.719299	192.0
114.766006	132.0
114.91098	200.0
114.9347	212.0
114.97525	196.0
115.032593	152.0
115.054436	6892.0
115.083046	160.0
115.103699	116.0
115.137497	116.0
115.167908	152.0
115.207977	120.0
115.254982	64.0
115.356873	148.0
115.385353	44.0
115.419563	200.0
115.46447	204.0
115.499878	216.0
115.537193	128.0
115.588768	336.0
115.642044	156.0
115.659164	88.0
115.759789	208.0
115.819748	96.0
115.834747	248.0
115.959015	164.0
116.006172	128.0
116.054771	1252.0
116.081207	196.0
116.096222	328.0
116.186302	52.0
116.242088	204.0
116.269051	184.0
116.346451	64.0
116.420258	160.0
116.463211	52.0
116.516212	168.0
116.549141	100.0
116.587814	92.0
116.609306	92.0
116.70475	160.0
116.719772	104.0
116.772705	196.0
116.794212	68.0
116.826477	104.0
116.860901	324.0
116.920609	128.0
117.069809	15216.0
117.110603	60.0
117.125679	72.0
117.155228	184.0
117.172699	232.0
117.20108	52.0
117.230423	156.0
117.263351	172.0
117.308838	312.0
117.357002	152.0
117.395081	124.0
117.41449	168.0
117.431229	204.0
117.459778	112.0
117.489983	44.0
117.518028	112.0
117.56118	32.0
117.647514	48.0
117.708603	68.0
117.740356	148.0
117.757637	80.0
117.820274	148.0
117.842598	152.0
117.911835	220.0
117.94561	152.0
117.988838	80.0
118.014786	64.0
118.040092	148.0
118.069321	1516.0
118.096626	156.0
118.128029	220.0
118.198631	260.0
118.224525	228.0
118.249664	72.0
118.274376	44.0
118.309013	176.0
118.327011	140.0
118.425941	232.0
118.460594	152.0
118.482262	160.0
118.571098	168.0
118.627449	164.0
118.646965	52.0
118.66864	76.0
118.694817	108.0
118.712006	152.0
118.768394	144.0
118.791954	172.0
118.822624	216.0
118.848663	112.0
118.879036	120.0
118.8964	80.0
118.915932	56.0
118.981049	152.0
119.022301	212.0
119.049408	172.0
119.072586	676.0
119.189552	200.0
119.235184	80.0
119.272476	176.0
119.309082	148.0
119.335175	356.0
119.35257	220.0
119.448257	36.0
119.493942	136.0
119.54834	224.0
119.564362	132.0
119.577835	108.0
119.598389	124.0
119.617981	200.0
119.6614	244.0
119.708572	216.0
119.757332	152.0
119.809608	48.0
119.830597	120.0
119.888046	56.0
119.942535	132.0
120.048721	68.0
120.08149	376.0
120.110428	116.0
120.138786	152.0
120.194351	140.0
120.256615	156.0
120.333015	76.0
120.36795	80.0
120.387505	92.0
120.418175	156.0
120.433464	128.0
120.449226	216.0
120.508575	156.0
120.568916	124.0
120.608261	172.0
120.649788	96.0
120.673843	112.0
120.770805	176.0
120.826927	140.0
120.849709	184.0
120.938019	224.0
120.960419	120.0
120.986687	60.0
121.017143	136.0
121.03019	156.0
121.064552	868.0
121.08522	180.0
121.137787	84.0
121.177216	184.0
121.223045	192.0
121.36351	188.0
121.409561	148.0
121.430244	316.0
121.468781	188.0
121.484131	208.0
121.538979	176.0
121.600426	236.0
121.819992	140.0
121.846352	188.0
121.932274	176.0
121.947433	196.0
121.973808	112.0
121.993591	204.0
122.022217	404.0
122.062546	144.0
122.068054	92.0
122.095947	556.0
122.128517	332.0
122.154114	56.0
122.261818	160.0
122.311874	144.0
122.320908	100.0
122.361572	88.0
122.41555	132.0
122.52697	200.0
122.587837	140.0
122.612076	184.0
122.642937	164.0
122.687019	356.0
122.713478	160.0
122.735527	176.0
122.77742	184.0
122.795067	156.0
122.872269	204.0
122.892616	196.0
122.91198	180.0
122.990692	200.0
123.043152	316.0
123.073425	196.0
123.095184	132.0
123.150398	136.0
123.240967	348.0
123.291794	188.0
123.380203	152.0
123.559334	88.0
123.616859	132.0
123.694321	212.0
123.787804	196.0
123.824951	196.0
123.853745	128.0
123.920204	248.0
123.935715	140.0
123.969872	144.0
124.040054	3080.0
124.077553	160.0
124.117462	212.0
124.147156	184.0
124.186211	76.0
124.300972	120.0
124.354828	188.0
124.370361	180.0
124.428726	224.0
124.475502	100.0
124.512459	176.0
124.547989	144.0
124.652138	164.0
124.695557	96.0
124.715065	184.0
124.925873	64.0
124.957756	180.0
125.021545	232.0
125.042091	256.0
125.055939	176.0
125.073685	176.0
125.097214	204.0
125.201859	132.0
125.246407	180.0
125.315796	180.0
125.346657	128.0
125.403267	168.0
125.446945	212.0
125.487076	28.0
125.527206	176.0
125.544304	192.0
125.582962	124.0
125.609726	168.0
125.687141	228.0
125.71682	132.0
125.738518	248.0
125.837349	124.0
125.915504	124.0
125.933372	136.0
126.031876	168.0
126.04879	316.0
126.109871	224.0
126.152344	172.0
126.228355	188.0
126.387169	76.0
126.422974	212.0
126.452065	108.0
126.485634	140.0
126.561752	176.0
126.631874	140.0
126.723015	148.0
126.771912	228.0
126.846268	168.0
126.861961	188.0
126.888863	136.0
126.904556	128.0
127.000977	136.0
127.021164	212.0
127.055069	3352.0
127.099686	184.0
127.150421	164.0
127.171501	192.0
127.243332	76.0
127.277008	52.0
127.366837	164.0
127.393791	88.0
127.431984	92.0
127.508385	192.0
127.562325	200.0
127.607285	68.0
127.638763	148.0
127.719719	144.0
127.756287	164.0
127.792671	240.0
127.811958	168.0
127.850212	128.0
127.888077	184.0
127.929245	248.0
127.984962	176.0
128.013596	124.0
128.056091	1500.0
128.133911	92.0
128.167709	232.0
128.217453	320.0
128.237564	184.0
128.386368	156.0
128.422455	228.0
128.456284	168.0
128.527222	252.0
128.668411	112.0
128.69165	244.0
128.790344	72.0
128.986923	108.0
129.027618	156.0
129.069534	1696.0
129.120316	64.0
129.142456	180.0
129.19722	116.0
129.335251	164.0
129.369202	188.0
129.389587	168.0
129.405426	104.0
129.425812	136.0
129.446793	256.0
129.48262	232.0
129.6138	272.0
129.727127	84.0
129.89946	236.0
129.91423	100.0
129.975616	120.0
130.026337	152.0
130.033752	108.0
130.064896	5584.0
130.105957	212.0
130.129135	172.0
130.145157	132.0
130.160446	152.0
130.194519	148.0
130.214951	176.0
130.264923	44.0
130.30127	172.0
130.333069	196.0
130.348984	104.0
130.371704	108.0
130.396698	104.0
130.412613	136.0
130.428528	140.0
130.46489	40.0
130.485352	100.0
130.569489	156.0
130.608154	116.0
130.636551	132.0
130.75148	236.0
130.772812	300.0
130.799286	352.0
130.849365	168.0
130.874405	212.0
130.946335	356.0
131.032242	240.0
131.072006	1320.0
131.111938	160.0
131.138657	32.0
131.211594	208.0
131.286835	156.0
131.309647	92.0
131.339813	316.0
131.424911	144.0
131.626846	112.0
131.645111	40.0
131.663376	132.0
131.690781	72.0
131.757034	76.0
131.855286	200.0
131.871277	96.0
131.955856	112.0
131.97644	212.0
132.046661	548.0
132.081009	840.0
132.249222	192.0
132.385208	228.0
132.440979	100.0
132.460541	200.0
132.500534	172.0
132.523453	96.0
132.562927	228.0
132.596069	192.0
132.727448	80.0
132.775604	96.0
132.798538	104.0
132.839813	160.0
132.933884	180.0
132.949951	180.0
132.970596	80.0
133.011688	160.0
133.064224	620.0
133.08812	104.0
133.108337	108.0
133.135895	128.0
133.259933	140.0
133.280609	56.0
133.301407	236.0
133.345718	168.0
133.374832	172.0
133.397812	44.0
133.425919	160.0
133.519669	188.0
133.602478	224.0
133.64389	148.0
133.745148	148.0
133.837234	44.0
133.913223	140.0
133.947464	180.0
133.984634	184.0
134.005356	240.0
134.021484	120.0
134.062576	304.0
134.095566	1008.0
134.118271	80.0
134.171295	64.0
134.191635	160.0
134.226624	84.0
134.254303	212.0
134.288895	164.0
134.515549	156.0
134.538101	208.0
134.588882	136.0
134.608932	200.0
134.653549	116.0
134.708405	100.0
134.722839	172.0
134.84993	176.0
134.873032	148.0
134.902451	220.0
134.933136	168.0
135.040314	652.0
135.081253	136.0
135.102402	328.0
135.152863	156.0
135.171371	136.0
135.29866	172.0
135.400543	88.0
135.432968	164.0
135.578918	120.0
135.627594	212.0
135.66626	212.0
135.745834	140.0
135.765045	28.0
135.803802	108.0
135.845551	56.0
135.861801	152.0
135.90123	244.0
135.984772	128.0
136.048553	228.0
136.07399	600.0
136.114777	124.0
136.170502	104.0
136.205353	152.0
136.27504	236.0
136.300598	160.0
136.332153	220.0
136.405182	180.0
136.436493	220.0
136.510391	156.0
136.533401	240.0
136.572586	44.0
136.663315	104.0
136.86348	116.0
136.909271	216.0
137.021851	160.0
137.057541	452.0
137.081299	208.0
137.103409	196.0
137.149307	184.0
137.177994	72.0
137.236267	156.0
137.26236	168.0
137.296906	168.0
137.317886	96.0
137.413528	196.0
137.455521	96.0
137.495468	168.0
137.60257	176.0
137.644592	208.0
137.663269	208.0
137.71933	52.0
137.775391	148.0
137.817444	288.0
137.84314	68.0
137.941299	144.0
137.988358	120.0
138.021423	280.0
138.076904	468.0
138.097961	112.0
138.123688	88.0
138.172806	128.0
138.221939	180.0
138.261719	184.0
138.28746	132.0
138.324921	36.0
138.343643	156.0
138.45134	168.0
138.516922	224.0
138.573151	112.0
138.601257	140.0
138.622345	176.0
138.668335	180.0
138.699692	196.0
138.866165	168.0
138.895126	184.0
138.936523	160.0
138.990173	208.0
139.036667	360.0
139.069839	128.0
139.130615	148.0
139.152908	100.0
139.180618	64.0
139.290985	152.0
139.394363	132.0
139.488373	144.0
139.528503	172.0
139.718826	112.0
139.765869	128.0
139.831818	192.0
139.861328	160.0
139.878845	216.0
139.894455	212.0
139.923569	64.0
139.944748	44.0
139.980072	60.0
140.010681	176.0
140.046539	160.0
140.069565	388.0
140.133179	204.0
140.187363	124.0
140.208572	180.0
140.255707	128.0
140.356979	96.0
140.360977	92.0
140.369843	156.0
140.482086	28.0
140.552856	112.0
140.576447	184.0
140.616577	184.0
140.703903	164.0
140.736954	120.0
140.857407	172.0
140.918823	108.0
140.98262	72.0
141.015701	184.0
141.062668	420.0
141.110565	220.0
141.171738	168.0
141.233231	168.0
141.266342	132.0
141.301971	172.0
141.350342	248.0
141.441437	200.0
141.476944	176.0
141.493515	64.0
141.552704	184.0
141.633224	168.0
141.661652	96.0
141.687714	132.0
141.720276	156.0
141.728394	116.0
141.735901	176.0
141.77301	140.0
141.82515	136.0
141.853592	252.0
141.877701	164.0
141.917603	196.0
142.013336	204.0
142.064194	2044.0
142.13974	208.0
142.148514	136.0
142.155914	256.0
142.178528	84.0
142.299591	208.0
142.392197	212.0
142.408813	132.0
142.427826	208.0
142.449203	48.0
142.482635	156.0
142.556229	160.0
142.585754	188.0
142.620285	100.0
142.67157	120.0
142.73439	68.0
142.787628	144.0
142.834274	200.0
142.858185	156.0
142.935364	204.0
142.953232	208.0
142.986542	176.0
143.003204	36.0
143.073334	24588.0
143.125366	176.0
143.146042	228.0
143.165085	80.0
143.185059	52.0
143.207169	120.0
143.248444	168.0
143.287918	136.0
143.314682	224.0
143.359619	200.0
143.443756	224.0
143.447693	104.0
143.495682	300.0
143.534317	156.0
143.570206	168.0
143.591797	160.0
143.632339	400.0
143.660797	232.0
143.66629	324.0
143.684692	72.0
143.731644	176.0
143.76091	268.0
143.7789	284.0
143.795792	136.0
143.81633	316.0
143.842194	112.0
143.868607	508.0
143.883865	300.0
143.906326	356.0
143.946045	188.0
143.958084	180.0
143.981506	532.0
144.012985	600.0
144.046997	660.0
144.081345	308280.0
144.141327	296.0
144.171204	316.0
144.198074	128.0
144.239288	296.0
144.276657	360.0
144.299332	340.0
144.362381	144.0
144.442093	244.0
144.474136	1724.0
144.498245	180.0
144.527344	52.0
144.591873	208.0
144.624222	248.0
144.678131	92.0
144.711166	64.0
144.743179	180.0
144.792923	292.0
144.852036	352.0
144.877304	208.0
144.895813	236.0
144.959366	160.0
144.989319	212.0
145.024796	132.0
145.083954	25568.0
145.131531	216.0
145.147446	48.0
145.15451	56.0
145.204453	56.0
145.222382	48.0
145.263336	80.0
145.286865	128.0
145.305664	152.0
145.330902	108.0
145.349762	68.0
145.384186	188.0
145.408157	228.0
145.438721	72.0
145.484329	96.0
145.502029	60.0
145.53363	60.0
145.568359	36.0
145.611237	84.0
145.661087	92.0
145.704636	124.0
145.725662	164.0
145.760223	64.0
145.768143	116.0
145.784561	48.0
145.836319	52.0
145.871841	212.0
145.908142	208.0
145.929581	156.0
145.964844	96.0
145.99353	148.0
146.037476	332.0
146.059357	460.0
146.090485	1092.0
146.144104	128.0
146.174866	132.0
146.228531	104.0
146.23494	240.0
146.264053	344.0
146.304016	84.0
146.333725	224.0
146.370224	224.0
146.405197	76.0
146.488403	124.0
146.506027	204.0
146.555801	92.0
146.585861	128.0
146.622009	56.0
146.719879	60.0
146.807632	48.0
146.872757	60.0
146.891159	108.0
146.916168	112.0
146.964432	108.0
147.050034	192.0
147.141327	40.0
147.158936	108.0
147.192398	148.0
147.216858	304.0
147.256516	104.0
147.311569	96.0
147.329483	96.0
147.356964	68.0
147.38353	124.0
147.402542	108.0
147.423203	56.0
147.447372	40.0
147.473953	56.0
147.534393	140.0
147.677048	180.0
147.744781	168.0
147.836716	104.0
147.95047	120.0
147.989212	216.0
148.008575	64.0
148.040054	236.0
148.077011	420.0
148.110291	64.0
148.328369	128.0
148.359879	152.0
148.45871	252.0
148.551453	124.0
148.643646	92.0
148.745575	112.0
148.762573	272.0
148.822525	156.0
148.876678	56.0
148.917969	96.0
148.961685	176.0
148.978683	140.0
149.059418	412.0
149.1026	180.0
149.147217	256.0
149.173096	60.0
149.214417	164.0
149.263046	108.0
149.334946	100.0
149.413834	60.0
149.4552	88.0
149.498993	152.0
149.547668	100.0
149.584183	128.0
149.634155	152.0
149.852066	48.0
149.888611	96.0
149.995834	196.0
150.060455	508.0
150.086823	636.0
150.198227	192.0
150.214142	120.0
150.378769	180.0
150.44223	72.0
150.574081	56.0
150.608276	80.0
150.688889	88.0
150.767075	40.0
150.818405	164.0
150.943085	32.0
151.007324	164.0
151.062927	152.0
151.185257	116.0
151.339462	144.0
151.359055	180.0
151.383545	232.0
151.422714	196.0
151.552551	136.0
151.662827	60.0
151.809921	156.0
151.974258	92.0
152.047882	168.0
152.070496	596.0
152.123962	156.0
152.190247	188.0
152.237534	140.0
152.402832	116.0
152.467819	248.0
152.531723	48.0
152.577438	108.0
152.615311	180.0
152.632523	140.0
152.725967	188.0
152.804688	76.0
152.846512	124.0
152.873581	144.0
152.974487	128.0
152.99559	116.0
153.021271	100.0
153.070267	752.0
153.09021	120.0
153.12468	56.0
153.141922	124.0
153.159164	32.0
153.196121	88.0
153.228149	84.0
153.287277	124.0
153.33287	120.0
153.356277	88.0
153.431931	156.0
153.457352	144.0
153.536255	200.0
153.557373	84.0
153.590515	32.0
153.637375	80.0
153.694763	216.0
153.741013	80.0
153.768158	76.0
153.833008	72.0
154.06485	2584.0
154.094101	48.0
154.147217	100.0
154.264618	52.0
154.289337	140.0
154.350906	188.0
154.558914	92.0
154.579834	124.0
154.680176	44.0
154.708572	200.0
154.747025	64.0
154.848541	140.0
154.873306	40.0
154.90799	48.0
154.971344	252.0
155.069244	2844.0
155.160751	44.0
155.205383	96.0
155.222748	164.0
155.252502	88.0
155.378998	144.0
155.403809	68.0
155.465836	192.0
155.540298	36.0
155.617249	68.0
155.73645	128.0
155.945145	72.0
156.032501	112.0
156.080658	11224.0
156.157471	132.0
156.218658	144.0
156.24353	96.0
156.370438	128.0
156.437637	72.0
156.525238	140.0
156.619415	116.0
156.716568	76.0
156.806274	188.0
156.848312	60.0
156.886978	96.0
156.910248	124.0
157.087173	2184.0
157.125961	212.0
157.157883	144.0
157.307617	296.0
157.332581	244.0
157.351196	96.0
157.412476	152.0
157.46463	72.0
157.534851	52.0
157.567322	116.0
157.618057	144.0
157.844757	84.0
157.872269	152.0
157.897278	120.0
157.986893	232.0
158.004822	160.0
158.059616	552.0
158.095795	6804.0
158.257599	44.0
158.35025	112.0
158.392838	152.0
158.47551	136.0
158.51059	152.0
158.643417	128.0
158.924301	228.0
158.99205	156.0
159.014633	92.0
159.058563	304.0
159.099274	636.0
159.125092	48.0
159.175293	56.0
159.245621	156.0
159.353622	36.0
159.491837	160.0
159.602448	152.0
159.687958	88.0
159.708069	104.0
160.013046	188.0
160.073868	464.0
160.151047	152.0
160.21402	84.0
160.347565	56.0
160.42067	96.0
160.574463	100.0
160.672836	76.0
160.776291	132.0
161.053772	316.0
161.08432	92.0
161.113129	184.0
161.137375	104.0
161.294037	204.0
161.478622	136.0
161.503189	128.0
161.640518	64.0
161.863266	112.0
161.924042	156.0
162.035492	248.0
162.065903	160.0
162.089523	1076.0
162.202744	104.0
162.395447	132.0
162.570496	152.0
162.674545	144.0
162.722778	160.0
162.763412	72.0
162.798965	120.0
162.875153	84.0
162.974228	172.0
163.03775	212.0
163.065414	172.0
163.073074	80.0
163.093567	168.0
163.13179	168.0
163.396271	204.0
163.449692	144.0
163.480225	64.0
163.696609	96.0
163.956436	56.0
164.069	1392.0
164.111923	220.0
164.208832	84.0
164.366989	176.0
164.522675	168.0
164.801056	240.0
164.946716	124.0
165.073395	288.0
165.153824	116.0
165.204987	192.0
165.322678	44.0
165.750305	184.0
165.81694	80.0
165.84256	112.0
166.068588	372.0
166.086258	192.0
166.152832	176.0
166.175934	76.0
166.363266	128.0
166.558426	104.0
166.740845	208.0
166.797379	160.0
166.815384	188.0
166.859085	188.0
166.89386	204.0
166.967529	180.0
167.000504	184.0
167.071442	5480.0
167.121414	204.0
167.149719	76.0
167.167725	196.0
167.59259	48.0
167.644119	136.0
167.711121	148.0
167.78331	140.0
167.803925	104.0
168.043777	160.0
168.080338	6360.0
168.130859	240.0
168.369431	252.0
168.423248	40.0
168.457306	176.0
168.487839	168.0
168.73851	204.0
168.841949	60.0
168.979034	64.0
169.051483	148.0
169.085236	2968.0
169.227493	244.0
169.250793	184.0
169.287048	104.0
169.352524	144.0
169.401001	140.0
169.468369	136.0
169.566833	104.0
169.58757	148.0
169.650925	144.0
169.709396	120.0
169.833878	152.0
169.98175	124.0
170.013596	132.0
170.059036	352.0
170.095947	16756.0
170.2202	176.0
170.324432	208.0
170.347809	104.0
170.371201	68.0
170.391983	80.0
170.438751	104.0
170.537491	104.0
170.571289	64.0
170.651962	112.0
170.696075	40.0
170.831314	132.0
170.85733	124.0
171.03688	156.0
171.099075	1592.0
171.375412	164.0
171.417114	196.0
171.482254	48.0
171.547424	40.0
171.604767	64.0
171.67778	100.0
171.750809	52.0
171.784714	140.0
171.88385	84.0
171.980591	176.0
172.039688	180.0
172.075485	620.0
172.108963	320.0
172.291046	96.0
172.359818	156.0
172.453156	148.0
172.521118	136.0
172.573395	76.0
172.787857	280.0
173.002457	100.0
173.057434	280.0
173.083618	164.0
173.111771	328.0
173.23027	36.0
173.589325	228.0
173.76506	136.0
174.045898	92.0
174.090958	368.0
174.192963	168.0
174.219238	124.0
174.274399	180.0
174.708191	156.0
174.939758	56.0
174.992416	148.0
175.0634	208.0
175.097748	328.0
175.171494	152.0
175.403366	108.0
175.609024	196.0
175.764679	180.0
175.880798	172.0
176.071625	280.0
176.263718	288.0
176.282211	116.0
176.652359	80.0
176.678818	96.0
176.816864	228.0
177.047882	236.0
177.074493	180.0
177.163254	132.0
177.208298	124.0
177.282486	144.0
177.701431	124.0
177.804916	144.0
177.844727	40.0
177.873917	72.0
178.009323	168.0
178.038528	136.0
178.085739	13924.0
178.163361	40.0
178.197906	80.0
178.221817	52.0
178.335342	72.0
178.426468	68.0
178.527496	220.0
178.562073	200.0
178.628571	232.0
178.700394	208.0
178.798843	140.0
178.958557	116.0
178.998489	84.0
179.085007	1432.0
179.134323	60.0
179.190262	128.0
179.211578	108.0
179.457336	96.0
179.595444	88.0
179.632797	144.0
179.66481	60.0
179.741425	128.0
179.795547	48.0
179.899643	164.0
180.030472	128.0
180.080414	3152.0
180.228134	44.0
180.2789	64.0
180.360901	200.0
180.425903	60.0
180.51413	176.0
180.572968	156.0
180.70137	132.0
180.990417	168.0
181.046494	132.0
181.087143	2764.0
181.188614	56.0
181.311874	52.0
181.424667	96.0
181.486099	84.0
181.61412	76.0
181.65506	68.0
181.745514	140.0
181.853622	68.0
181.923401	176.0
181.944885	216.0
182.060654	680.0
182.095596	8208.0
182.178513	48.0
182.214905	168.0
182.302109	112.0
182.357788	72.0
182.506393	36.0
182.764603	56.0
182.915298	108.0
182.947601	48.0
183.063034	368.0
183.098938	1232.0
183.133392	44.0
183.189957	40.0
183.216904	40.0
183.273483	44.0
183.323425	112.0
183.521439	140.0
183.799255	40.0
183.90451	216.0
184.042175	92.0
184.076889	664.0
184.104782	668.0
184.161453	72.0
184.320389	132.0
184.344696	44.0
184.431183	52.0
184.847656	156.0
185.031448	168.0
185.075439	132.0
185.10849	1224.0
185.161682	68.0
185.714569	144.0
186.018463	40.0
186.055359	176.0
186.083618	160.0
186.116364	192.0
186.159637	220.0
186.234009	156.0
186.409546	160.0
186.515549	76.0
186.564468	136.0
186.700424	104.0
186.784729	100.0
187.02417	128.0
187.071274	184.0
187.124969	152.0
187.214752	108.0
187.419037	204.0
187.492615	92.0
187.555298	104.0
187.868881	244.0
187.986206	136.0
188.070312	252.0
188.10083	132.0
188.38208	116.0
188.428528	196.0
188.674484	160.0
189.065613	100.0
189.531128	104.0
189.88475	148.0
190.083481	832.0
190.257919	172.0
190.414429	44.0
190.568253	104.0
190.686417	144.0
190.716644	96.0
191.005341	68.0
191.077744	324.0
191.38237	224.0
191.542099	120.0
192.08226	1136.0
192.132004	72.0
192.178909	92.0
192.289276	128.0
192.474243	156.0
192.512894	136.0
192.7173	112.0
192.758743	216.0
192.789139	96.0
193.088715	780.0
193.143021	188.0
193.201111	52.0
193.275803	72.0
193.312698	132.0
193.505524	68.0
193.686203	180.0
193.790802	100.0
193.943207	32.0
193.98201	176.0
194.045639	232.0
194.094162	2404.0
194.153915	140.0
194.381378	172.0
194.434113	100.0
194.656189	96.0
194.964539	76.0
195.034012	200.0
195.068512	184.0
195.100204	892.0
195.264771	176.0
195.392731	120.0
195.946747	52.0
196.076691	908.0
196.106384	1048.0
196.164108	36.0
196.272842	36.0
196.409485	68.0
196.761093	140.0
196.962143	84.0
197.083084	180.0
197.113953	588.0
197.138153	164.0
197.255539	156.0
197.658264	404.0
197.991379	172.0
198.091492	328.0
198.123566	344.0
198.31076	228.0
198.407745	108.0
198.515411	136.0
198.537842	200.0
198.868896	140.0
198.939056	56.0
199.003632	56.0
199.065018	144.0
199.083481	220.0
199.122696	880.0
199.219879	104.0
199.388458	40.0
199.478409	168.0
199.517761	112.0
199.765228	44.0
200.120026	144.0
200.187393	124.0
200.601547	216.0
200.948425	128.0
201.058182	120.0
201.117737	104.0
201.36055	124.0
201.710892	124.0
201.795197	112.0
201.948395	40.0
202.03215	236.0
202.058716	168.0
202.087845	232.0
202.120972	184.0
202.302094	96.0
202.361542	96.0
202.466309	76.0
202.6306	48.0
202.656097	144.0
202.738266	192.0
203.091248	184.0
203.393417	164.0
203.510757	60.0
203.643265	96.0
203.810883	152.0
204.081451	1092.0
204.132065	176.0
204.154816	172.0
204.289978	172.0
204.667007	32.0
204.815094	60.0
204.93576	168.0
205.086411	1004.0
205.163055	72.0
205.191238	56.0
205.256821	116.0
205.644791	96.0
206.06015	140.0
206.095032	2768.0
206.193146	116.0
206.344635	72.0
206.370361	120.0
206.736496	88.0
206.762253	120.0
206.78801	52.0
206.974075	184.0
207.066513	436.0
207.103485	916.0
207.223267	72.0
207.443924	92.0
207.466858	52.0
207.521332	208.0
207.544266	40.0
207.608551	144.0
207.633163	96.0
207.656097	100.0
207.74852	128.0
207.988922	132.0
208.105331	2620.0
208.14682	148.0
208.201263	200.0
208.322006	60.0
208.344986	32.0
208.434052	60.0
208.454178	148.0
208.500153	32.0
208.675491	168.0
208.859528	108.0
208.96022	148.0
208.99762	52.0
209.082382	632.0
209.114761	604.0
209.31424	44.0
209.366074	92.0
209.531158	88.0
209.657028	80.0
209.682968	104.0
209.809784	256.0
209.871216	100.0
209.920532	136.0
210.052017	188.0
210.111603	10200.0
210.216461	60.0
210.285721	68.0
210.317474	48.0
210.409851	52.0
210.430054	60.0
210.541702	88.0
210.684204	68.0
210.707306	80.0
210.799759	128.0
211.054123	108.0
211.115921	1472.0
211.305756	52.0
211.490952	116.0
211.577789	56.0
211.644379	64.0
211.68782	68.0
211.731247	180.0
211.768906	116.0
212.029648	124.0
212.086319	100.0
212.125	280.0
212.374649	188.0
212.5168	200.0
212.569031	140.0
212.972549	132.0
213.106186	156.0
213.140289	348.0
213.216599	116.0
213.501495	128.0
213.573288	152.0
213.708023	116.0
213.795319	320.0
215.08197	144.0
215.11853	156.0
215.27327	60.0
215.731979	60.0
216.065353	136.0
216.407776	108.0
216.439987	132.0
216.46048	124.0
216.574692	160.0
216.791489	136.0
217.014252	136.0
217.088684	1928.0
217.269409	80.0
217.774292	176.0
217.903534	96.0
218.094147	2196.0
218.140015	76.0
218.220947	108.0
218.332687	44.0
218.66217	44.0
219.102371	1464.0
219.204025	32.0
220.075134	1504.0
220.110092	1652.0
220.165695	192.0
220.443375	160.0
220.948959	160.0
220.981506	172.0
221.002213	132.0
221.083527	968.0
221.115707	1176.0
221.145294	80.0
221.298187	168.0
221.597321	72.0
221.81662	56.0
221.97374	108.0
222.044373	152.0
222.114075	3720.0
222.176346	116.0
222.218811	160.0
222.347519	80.0
222.380173	184.0
222.403915	104.0
222.513748	72.0
222.682999	148.0
222.81073	200.0
222.870148	72.0
222.893921	124.0
222.983063	72.0
223.131561	1080.0
223.301178	76.0
223.426117	68.0
223.634399	148.0
223.717743	104.0
223.744537	100.0
223.780258	112.0
223.872574	152.0
223.99765	160.0
224.018509	108.0
224.072784	520.0
224.107697	2324.0
224.139359	600.0
224.30159	108.0
224.555023	160.0
224.704163	160.0
224.835449	108.0
224.86232	72.0
224.975739	76.0
225.008575	108.0
225.038437	168.0
225.068771	148.0
225.107101	360.0
225.137314	940.0
225.175797	28.0
225.749573	88.0
225.958939	28.0
226.087692	180.0
226.116211	136.0
226.20433	44.0
226.39296	112.0
226.422897	192.0
226.461838	64.0
227.078506	276.0
227.145142	156.0
228.080414	236.0
228.118118	144.0
228.370697	52.0
228.427139	120.0
228.797974	136.0
228.942505	116.0
229.084061	164.0
229.316071	68.0
230.094696	1120.0
230.175827	76.0
230.402344	76.0
230.494553	100.0
230.668274	196.0
230.786163	108.0
230.980179	132.0
231.066437	180.0
231.099777	1424.0
231.13855	76.0
231.362991	152.0
231.527527	104.0
232.071335	464.0
232.109451	2096.0
232.464233	84.0
232.5401	60.0
232.594742	72.0
232.615982	104.0
232.773849	76.0
233.082947	500.0
233.113022	616.0
233.46669	188.0
234.052078	148.0
234.090988	2060.0
234.126785	1612.0
234.194061	44.0
234.248886	64.0
234.306763	48.0
234.419495	120.0
234.657242	160.0
234.776154	60.0
235.064713	128.0
235.097977	1456.0
235.12793	484.0
235.282654	216.0
235.386459	104.0
235.960876	68.0
236.071686	312.0
236.107208	560.0
236.141617	1048.0
236.269745	136.0
236.361542	44.0
236.59108	36.0
236.769928	92.0
236.891174	52.0
236.934067	36.0
237.07515	648.0
237.104156	452.0
237.140579	340.0
237.196609	196.0
237.541031	48.0
237.654541	80.0
238.084274	976.0
238.118378	324.0
238.253204	48.0
238.360748	188.0
238.400696	172.0
238.422211	84.0
238.477524	108.0
238.65274	52.0
238.692719	100.0
238.748062	136.0
238.781891	124.0
238.85878	88.0
239.015686	164.0
239.089081	460.0
239.194183	148.0
239.242157	56.0
239.289612	80.0
239.320404	136.0
239.523651	52.0
239.779373	124.0
239.971771	192.0
239.985291	140.0
240.053299	140.0
240.101776	540.0
241.086182	132.0
241.180588	60.0
241.316605	188.0
241.384613	140.0
241.406265	32.0
241.65062	112.0
242.098816	80.0
242.347244	36.0
242.604462	64.0
242.843216	92.0
243.095459	388.0
243.117691	176.0
243.743484	60.0
244.04187	140.0
244.082291	292.0
244.112381	400.0
244.617401	76.0
245.091827	224.0
245.111938	508.0
245.26329	144.0
245.867218	124.0
246.087051	484.0
246.13089	704.0
246.410522	132.0
246.451828	92.0
246.694916	108.0
246.854355	76.0
247.097	796.0
247.129288	536.0
247.179672	80.0
247.228073	60.0
247.458237	144.0
247.805878	44.0
248.069366	292.0
248.10762	1040.0
248.14212	452.0
248.555237	40.0
248.605453	152.0
248.687042	80.0
248.737259	76.0
248.803177	224.0
249.078857	532.0
249.109619	856.0
249.183182	132.0
249.431442	124.0
249.654663	52.0
249.720703	88.0
249.903152	72.0
250.044754	140.0
250.086441	852.0
250.120529	2920.0
250.729584	132.0
250.810089	72.0
250.842178	92.0
251.056015	148.0
251.090652	372.0
251.123505	652.0
251.151978	1408.0
251.213715	92.0
251.330444	32.0
251.361984	80.0
251.440887	164.0
251.522949	144.0
251.784988	212.0
251.819733	132.0
251.889221	120.0
251.961884	140.0
252.101028	7080.0
252.137009	508.0
252.164902	588.0
252.205185	176.0
252.300018	88.0
252.35376	40.0
252.401199	60.0
252.473923	116.0
252.663696	88.0
252.692169	104.0
252.770065	124.0
252.882034	124.0
252.970657	88.0
253.10524	948.0
253.16861	784.0
253.207352	112.0
253.236633	52.0
253.337997	116.0
254.01001	120.0
254.115341	1432.0
254.178146	356.0
254.200363	92.0
254.228928	92.0
254.257492	80.0
254.473328	44.0
254.535141	180.0
254.574936	88.0
254.863998	76.0
255.103439	304.0
255.125763	224.0
255.286743	100.0
255.366257	144.0
255.830811	176.0
256.108826	144.0
256.135254	212.0
256.209778	40.0
256.404144	60.0
256.735687	36.0
257.079071	248.0
257.125336	140.0
257.520752	44.0
257.654907	152.0
257.894592	132.0
258.114655	152.0
258.135834	264.0
258.895935	76.0
258.937592	136.0
259.099915	772.0
259.436218	116.0
260.059692	184.0
260.106598	1644.0
260.165619	116.0
260.438568	60.0
260.724518	88.0
260.898071	96.0
261.023468	148.0
261.111908	496.0
261.138397	200.0
261.769989	52.0
262.086243	624.0
262.123199	652.0
262.166199	40.0
262.788513	60.0
262.814331	80.0
263.087006	708.0
263.118561	216.0
263.146759	344.0
263.353424	56.0
263.560181	64.0
263.980377	48.0
264.099152	176.0
264.13739	1124.0
264.452698	132.0
264.517456	56.0
265.096893	1168.0
265.133881	312.0
265.175385	408.0
265.301361	60.0
265.522644	80.0
266.107513	320.0
266.352722	56.0
266.44043	88.0
266.495667	68.0
266.788147	116.0
267.028748	96.0
267.106049	368.0
267.171875	100.0
267.66333	136.0
268.018372	108.0
268.121735	120.0
268.354065	68.0
268.735657	88.0
268.970612	56.0
269.106567	124.0
269.636902	120.0
270.084839	96.0
270.114258	132.0
270.438202	128.0
270.673889	112.0
271.106293	116.0
272.102753	304.0
272.310272	72.0
273.110107	456.0
273.137695	144.0
273.819855	68.0
273.964783	64.0
274.116302	824.0
275.114471	232.0
275.152985	488.0
275.396332	176.0
276.047363	76.0
276.109863	356.0
276.137299	676.0
276.315277	52.0
276.556854	56.0
276.917725	92.0
277.134979	1008.0
277.161957	160.0
277.229126	60.0
277.374969	124.0
277.461151	124.0
277.991821	68.0
278.116119	3296.0
278.220856	56.0
278.642609	80.0
278.911774	56.0
279.008179	68.0
279.119476	668.0
279.144989	432.0
279.310791	96.0
279.463806	44.0
280.12561	268.0
280.266205	44.0
280.382843	44.0
280.987518	128.0
281.029755	112.0
281.08313	148.0
281.136505	124.0
281.179901	132.0
281.25	200.0
281.330109	48.0
281.510406	152.0
281.650665	164.0
281.941315	192.0
282.044922	92.0
282.115387	320.0
282.146942	240.0
282.416077	80.0
282.603394	52.0
282.871124	100.0
283.113678	296.0
283.91983	56.0
284.124969	3268.0
284.446564	48.0
284.664795	236.0
284.91333	76.0
285.084686	60.0
285.129639	840.0
285.955688	40.0
286.129211	564.0
286.28656	72.0
286.332764	96.0
286.662903	80.0
286.686493	124.0
286.828033	108.0
287.113434	332.0
287.144989	80.0
288.036011	88.0
288.105042	156.0
288.132263	308.0
288.2117	48.0
288.498962	48.0
289.116852	128.0
289.122375	88.0
289.136322	156.0
289.337921	124.0
289.503845	60.0
290.113739	548.0
290.141144	204.0
290.184906	48.0
290.228973	56.0
290.269653	168.0
290.327301	52.0
290.391754	88.0
291.080109	152.0
291.123718	140.0
291.140472	128.0
291.906342	136.0
292.004974	168.0
292.1297	1856.0
292.18866	28.0
292.226074	48.0
292.297516	184.0
292.328156	116.0
292.556183	68.0
292.627686	40.0
292.763885	132.0
292.86441	144.0
293.161346	1016.0
293.261261	56.0
294.149017	148.0
294.16037	188.0
294.173798	300.0
295.073853	152.0
295.131958	188.0
295.159332	188.0
295.186676	68.0
296.045593	44.0
296.162018	168.0
296.624603	48.0
296.984619	148.0
297.173279	120.0
298.402832	160.0
299.218201	148.0
300.593414	104.0
300.797028	92.0
300.879883	148.0
301.129425	136.0
301.715912	56.0
301.902618	116.0
302.110138	176.0
302.142761	144.0
302.338501	60.0
303.144775	948.0
303.183472	220.0
304.136108	1280.0
304.206635	180.0
305.138428	144.0
306.139252	248.0
306.742493	72.0
307.139984	152.0
308.163696	440.0
308.466858	156.0
309.152344	112.0
309.439362	84.0
309.716003	128.0
309.863129	92.0
310.140686	192.0
311.155579	176.0
311.188843	140.0
314.056793	80.0
314.279053	88.0
315.582336	80.0
315.610626	104.0
316.555359	104.0
317.373871	164.0
318.104706	152.0
318.145355	100.0
318.250244	68.0
318.541473	140.0
319.133667	404.0
319.529724	48.0
320.152618	128.0
320.238068	92.0
320.872345	68.0
320.997162	152.0
321.075592	156.0
321.15741	4764.0
321.282471	60.0
321.343109	56.0
321.375244	36.0
321.492981	104.0
321.716003	172.0
321.824951	92.0
322.117798	108.0
322.159943	768.0
322.228516	56.0
322.568024	72.0
323.165985	336.0
323.315521	60.0
323.447662	52.0
323.677063	64.0
324.158142	556.0
325.163696	500.0
325.775146	88.0
325.969147	124.0
326.17041	108.0
327.476471	64.0
329.20755	52.0
329.659088	132.0
331.743805	80.0
332.723267	80.0
332.941132	72.0
334.369843	180.0
335.174713	784.0
335.571899	84.0
335.900116	196.0
336.016846	92.0
336.071564	172.0
336.15741	472.0
337.157318	116.0
337.180511	128.0
338.161804	176.0
339.161682	104.0
339.366974	52.0
339.429291	64.0
342.089233	84.0
344.042969	60.0
344.722565	92.0
346.591187	96.0
346.754242	152.0
348.364532	220.0
348.721252	72.0
350.637909	140.0
351.168274	284.0
351.323975	88.0
351.368744	40.0
351.921112	60.0
351.962189	108.0
352.172791	160.0
352.201202	88.0
352.37381	56.0
352.415863	136.0
352.515015	140.0
352.585999	68.0
352.638336	136.0
352.754211	52.0
352.925293	148.0
353.045837	140.0
353.079498	120.0
353.183685	11304.0
353.250183	56.0
353.606995	48.0
353.75296	72.0
353.864166	96.0
353.926208	172.0
353.973846	148.0
354.056244	144.0
354.123657	176.0
354.185699	2488.0
354.520752	48.0
354.636932	52.0
354.704407	80.0
354.771881	76.0
354.839355	56.0
354.970581	40.0
355.189636	304.0
355.251862	32.0
355.431213	20.0
355.488251	68.0
355.743439	112.0
355.957458	100.0
356.194061	92.0
356.261658	128.0
356.295471	92.0
356.498596	144.0
356.750183	124.0
356.851685	52.0
357.092346	40.0
357.163818	44.0
357.239044	44.0
357.634125	64.0
358.918732	48.0
365.383911	92.0
367.570892	52.0
368.85791	52.0
369.9328	60.0
370.836731	64.0
372.613373	92.0
372.8862	120.0
373.870697	48.0
374.140137	76.0
374.640747	44.0
376.967255	100.0
378.18161	60.0
378.378998	124.0
379.273834	60.0
382.065796	72.0
384.169403	108.0
386.740509	92.0
389.465485	132.0
394.374817	88.0
397.674042	84.0
397.947937	52.0
400.13855	128.0
402.163544	32.0
405.455048	76.0
405.7677	88.0
407.847076	76.0
414.036041	56.0
416.798492	68.0
420.381805	44.0
421.014526	104.0
432.207886	48.0
432.592773	92.0
443.476868	128.0
444.932434	72.0
448.43631	132.0
455.608521	132.0
456.505341	44.0
458.859894	88.0
469.963989	96.0
473.491272	120.0
474.245117	64.0
475.19046	80.0
482.030701	40.0
482.590149	92.0
484.134766	56.0
488.24231	96.0
493.277405	152.0
498.827148	96.0
502.220062	52.0
505.852722	68.0
506.27359	96.0
506.381073	100.0
507.344452	72.0
508.726105	148.0
510.105164	48.0
512.715637	104.0
512.751709	44.0
512.837341	20.0
513.594788	112.0
524.116821	52.0
529.47052	100.0
531.514954	88.0
534.68573	44.0
535.058533	80.0
535.288025	104.0
541.203613	84.0
544.115173	64.0
548.4599	100.0
564.0625	48.0
568.476501	136.0
568.970093	116.0
572.264771	48.0
578.940125	104.0
586.78656	76.0
587.548584	84.0
588.214478	112.0
589.445984	76.0
593.827087	68.0
595.997009	44.0
613.9375	108.0
615.363464	88.0
615.97583	108.0
625.361938	36.0
626.128601	44.0
635.556335	40.0
639.682312	184.0
640.518188	56.0
641.490723	76.0
643.397522	144.0
644.771423	188.0
672.690796	64.0
680.300293	52.0
684.329285	100.0
691.192871	48.0
691.701294	108.0
693.329346	52.0
700.41687	48.0
702.773315	144.0
708.456543	60.0
711.006897	76.0
717.661377	120.0
719.672852	152.0
722.286072	92.0
730.971802	164.0
734.150024	120.0
734.230896	140.0
738.75708	180.0
738.881531	44.0
739.893555	212.0
740.14801	72.0
740.272522	144.0
749.076355	52.0
753.948547	152.0
755.370056	60.0
757.247437	112.0
757.49939	104.0
757.80072	100.0
764.92334	156.0
773.60083	132.0
774.259705	156.0
777.131042	64.0
782.588928	212.0
786.267883	96.0
787.713989	96.0
790.352722	136.0
792.480347	160.0
795.867981	176.0
796.570007	184.0
801.109497	168.0
802.416931	112.0
802.681946	208.0
809.066284	40.0
815.316833	72.0
818.166443	68.0
818.866821	64.0
818.946533	48.0
819.550354	176.0
820.177246	56.0
821.500122	196.0
821.551453	156.0
823.429321	100.0
824.229065	156.0
827.494934	240.0
828.691956	224.0
831.013916	104.0
832.316833	256.0
833.551758	68.0
834.511658	148.0
836.605713	136.0
838.264465	236.0
838.466125	96.0
839.094421	168.0
839.544189	176.0
842.141174	164.0
842.5802	192.0
848.74408	180.0
855.512451	120.0
856.31012	164.0
857.189819	196.0
858.51886	120.0
861.875244	188.0
862.062256	76.0
864.091125	56.0
865.923279	128.0
867.024658	88.0
867.212219	224.0
868.038818	220.0
869.1474	156.0
870.403503	80.0
873.735962	56.0
875.330994	176.0
878.784973	164.0
878.920654	140.0
879.168518	160.0
879.457703	180.0
880.236938	172.0
881.501038	84.0
883.588135	60.0
883.694641	140.0
884.221252	60.0
884.452087	44.0
886.536804	148.0
886.673096	140.0
890.226562	172.0
897.307068	136.0
898.213501	208.0
898.255249	168.0
899.45459	176.0
899.926208	148.0
901.025085	192.0
901.682373	224.0
902.70459	116.0
903.649658	164.0
904.367737	160.0
906.173584	160.0
906.274292	64.0
908.208313	192.0
908.832214	208.0
909.55835	52.0
910.404846	184.0
910.777222	140.0
913.103149	192.0
918.053406	148.0
918.547974	44.0
918.662537	176.0
919.0849	180.0
920.575806	156.0
921.421387	212.0
921.596619	44.0
922.049805	156.0
923.567322	60.0
924.922668	164.0
925.752075	268.0
931.562378	128.0
936.525818	160.0
936.745117	240.0
936.866943	180.0
937.189819	124.0
938.933167	132.0
940.403503	128.0
941.532959	192.0
942.626404	152.0
942.742493	160.0
949.4151	244.0
950.666565	204.0
951.624084	204.0
952.932251	140.0
954.671753	176.0
955.305237	200.0
958.673035	128.0
959.25238	212.0
960.097046	192.0
960.559631	220.0
961.744324	124.0
962.108521	104.0
962.157898	160.0
962.324585	184.0
964.505249	200.0
964.792664	152.0
965.735657	132.0
966.645081	180.0
967.183472	160.0
967.635376	172.0
967.72821	136.0
970.175354	144.0
970.98761	120.0
971.254333	236.0
971.682312	128.0
972.02356	124.0
973.77417	176.0
975.731506	124.0
976.371948	156.0
976.825989	132.0
979.172485	180.0
979.832703	172.0
979.901245	44.0
980.698853	124.0
981.31604	176.0
982.617676	152.0
983.355774	180.0
984.516968	200.0
984.66687	156.0
985.703857	272.0
986.197571	188.0
986.628845	184.0
988.799316	172.0
989.600525	180.0
989.805908	180.0
991.561157	212.0
998.328613	144.0
998.492126	164.0
1001.009277	136.0
1001.909912	48.0
1002.861389	120.0
1004.324158	160.0
1004.63324	148.0
1005.327271	120.0
1005.933167	152.0
1007.461365	92.0
1010.147949	104.0
1010.970398	28.0
1011.350159	48.0
1011.578003	44.0
1012.546753	232.0
1013.015442	140.0
1014.688416	108.0
1015.620605	92.0
1018.05127	124.0
1018.55304	180.0
1022.424927	208.0
1022.959595	64.0
1023.487976	128.0
1025.059937	188.0
1025.998169	180.0
1026.910034	152.0
1026.954712	232.0
1027.235352	96.0
1027.34375	124.0
1027.739258	196.0
1028.837036	120.0
1030.625244	172.0
1030.708374	52.0
1030.983154	124.0
1031.225952	180.0
1032.127319	152.0
1032.312744	288.0
1034.673706	184.0
1035.141113	172.0
1035.589355	208.0
1037.139893	196.0
1037.620728	268.0
1037.806641	128.0
1038.043823	124.0
1038.973877	96.0
1041.310303	184.0
1041.535034	172.0
1042.106812	232.0
1042.569458	176.0
1042.633667	128.0
1043.045044	136.0
1043.192871	196.0
1044.446777	72.0
1046.35791	168.0
1046.641235	160.0
1046.744263	220.0
1046.84729	160.0
1047.207886	228.0
1047.858521	224.0
1048.103394	204.0
1048.40625	256.0
1048.547974	32.0
1048.960449	116.0
1049.179688	112.0
1049.4375	60.0
1049.766357	128.0
1050.024292	108.0
1050.333862	64.0
1050.4823	188.0
1050.69519	132.0
1051.37915	180.0
1052.147217	76.0
1052.521606	184.0
1052.602417	112.0
1052.741211	148.0
1052.915527	52.0
1053.096436	148.0
1054.537109	140.0
1056.45752	208.0
1057.654663	208.0
1057.945923	76.0
1059.64917	196.0
1060.128662	172.0
1060.478638	176.0
1060.737793	124.0
1060.786743	192.0
1061.074951	80.0
1061.535278	168.0
1062.190308	116.0
1063.156982	88.0
1063.520508	212.0
1064.189087	160.0
1065.358032	44.0
1065.462036	148.0
1066.007812	116.0
1066.391235	156.0
1066.547241	224.0
1067.060669	200.0
1067.164795	100.0
1068.036133	140.0
1068.289795	152.0
1068.992432	124.0
1069.923218	192.0
1071.01062	160.0
1071.466675	264.0
1071.668579	180.0
1071.779419	112.0
1072.041992	212.0
1072.219604	176.0
1073.13501	160.0
1073.539307	176.0
1073.682861	212.0
1073.898071	160.0
1074.31543	172.0
1075.555298	132.0
1077.057007	184.0
1077.827881	124.0
1078.304932	160.0
1078.474854	156.0
1078.651367	168.0
1078.729858	84.0
1079.017456	228.0
1079.448975	136.0
1080.312256	52.0
1080.508545	204.0
1081.077759	132.0
1082.05957	148.0
1082.629272	168.0
1083.565918	196.0
1083.762451	220.0
1084.515991	36.0
1084.666748	140.0
1084.83728	20.0
1085.71582	188.0
1088.563843	124.0
1089.397949	208.0
1092.724365	112.0
1092.836182	120.0
1094.845825	188.0
1095.561768	168.0
1095.930664	228.0
1096.121704	168.0
1096.800537	148.0
1097.716919	184.0
1098.14563	180.0
1098.21814	164.0
1098.488525	120.0
1098.890991	188.0
1099.702637	124.0
1100.633423	104.0
1101.05603	112.0
1101.498535	164.0
1101.729736	144.0
1102.099731	172.0
1102.549072	124.0
1102.641602	156.0
1102.767212	216.0
1102.899414	196.0
1103.560425	196.0
1103.633179	140.0
1104.148438	160.0
1104.552368	180.0
1104.949341	224.0
1105.266846	128.0
1105.822754	172.0
1106.266235	56.0
1106.961426	260.0
1107.093872	180.0
1109.439331	132.0
1110.407349	196.0
1110.719116	208.0
1112.304932	196.0
1112.537231	168.0
1113.028564	112.0
1113.805542	144.0
1113.978271	216.0
1114.257324	84.0
1114.435425	104.0
1114.667114	176.0
1114.882935	124.0
1115.134399	160.0
1115.220825	184.0
1115.28064	180.0
1115.865601	196.0
1116.773804	216.0
1117.455078	156.0
1118.375488	208.0
1118.652954	128.0
1118.739502	112.0
1119.418579	248.0
1119.558472	168.0
1120.830811	216.0
1121.290527	204.0
1121.563843	188.0
1121.917114	104.0
1123.246338	224.0
1123.597656	132.0
1124.231567	60.0
1125.559814	160.0
1126.027344	252.0
1126.628418	196.0
1127.112671	188.0
1127.396851	156.0
1127.523804	100.0
1128.245728	256.0
1128.3927	144.0
1129.703491	100.0
1129.95105	136.0
1130.29895	168.0
1133.003784	116.0
1133.98877	148.0
1134.377563	164.0
1134.484741	120.0
1135.208862	188.0
1135.483887	180.0
1135.550903	44.0
1135.745361	108.0
1136.409546	148.0
1137.020142	80.0
1137.214844	200.0
1137.322144	60.0
1137.557129	68.0
1137.993408	136.0
1138.597778	144.0
1139.363525	76.0
1139.544922	160.0
1140.431885	152.0
1140.598267	180.0
1142.153198	168.0
1142.792236	144.0
1143.370972	148.0
1144.421021	204.0
1144.488403	148.0
1145.040527	136.0
1145.565918	420.0
1146.044189	240.0
1146.125122	208.0
1147.459595	212.0
1147.715698	144.0
1147.837158	40.0
1148.585693	184.0
1148.720581	116.0
1148.767822	188.0
1149.806885	56.0
1150.637085	164.0
1150.805908	180.0
1151.947266	144.0
1152.163452	80.0
1152.805298	120.0
1153.014771	160.0
1155.212158	156.0
1155.347412	160.0
1155.868408	176.0
1156.003784	184.0
1156.606079	132.0
1156.714355	64.0
1156.870117	144.0
1156.982422	128.0
1157.215332	56.0
1157.371094	224.0
1157.973755	172.0
1158.353027	148.0
1158.407227	176.0
1158.529175	192.0
1159.403198	200.0
1159.613281	136.0
1160.074219	208.0
1160.203003	216.0
1160.555542	188.0
1160.860718	120.0
1161.694946	108.0
1162.339355	64.0
1162.468384	176.0
1163.703613	88.0
1164.185791	136.0
1164.287598	68.0
1165.154541	172.0
1166.339478	80.0
1166.754028	176.0
1166.862061	140.0
1166.998779	144.0
1167.257202	88.0
1167.487427	236.0
1167.608643	172.0
1168.032471	60.0
1168.134521	172.0
1168.678833	204.0
1168.753662	40.0
1169.182251	228.0
1169.78125	196.0
1170.285034	196.0
1171.493286	212.0
1171.810669	236.0
1172.430664	152.0
1172.894165	40.0
1173.234985	196.0
1173.330444	184.0
1173.77356	80.0
1174.012207	160.0
1174.196411	184.0
1174.319092	220.0
1174.537354	132.0
1175.185425	200.0
1175.567627	188.0
1175.867798	240.0
1176.762085	80.0
1177.30835	156.0
1177.786377	52.0
1177.841064	128.0
1178.025391	164.0
1178.394287	220.0
1179.733765	152.0
1179.877319	124.0
1180.01416	180.0
1180.08252	208.0
1181.197144	216.0
1181.792358	172.0
1182.401367	192.0
1182.483398	212.0
1182.606689	124.0
1182.74353	96.0
1182.921509	244.0
1183.400757	60.0
1184.181396	176.0
1184.326782	184.0
1184.407349	52.0
1184.558105	128.0
1185.030762	216.0
1185.702271	112.0
1186.847046	240.0
1187.436768	196.0
1190.620972	156.0
1190.827148	144.0
1191.184326	44.0
1191.575928	128.0
1191.919434	108.0
1192.015625	120.0
1192.922852	144.0
1193.500366	180.0
1193.651611	44.0
1194.855225	156.0
1195.412476	148.0
1195.529541	184.0
1195.715332	148.0
1195.852905	156.0
1196.093872	276.0
1196.341675	192.0
1196.809814	136.0
1197.345093	200.0
1197.753296	108.0
1197.870361	244.0
1198.579956	172.0
1199.110596	148.0
1199.372437	148.0
1200.01355	228.0
1200.765259	168.0
1203.256226	180.0
1204.810059	180.0
1205.542358	100.0
1205.881348	228.0
1206.219727	208.0
1206.689819	180.0
1208.737061	160.0
1208.83252	60.0
1209.789062	204.0
1210.502197	128.0
1211.409424	124.0
1211.783569	88.0
1211.887451	52.0
1212.434937	204.0
1212.850708	152.0
1213.252808	112.0
1213.474609	212.0
1215.04895	232.0
1215.201538	188.0
1215.277832	168.0
1216.332642	216.0
1216.658936	132.0
1216.811646	164.0
1217.235229	176.0
1217.353271	160.0
1218.675049	212.0
1218.773926	228.0
1218.937012	116.0
1219.284424	152.0
1219.92395	140.0
1220.268311	220.0
1220.480103	80.0
1221.168579	148.0
1221.481567	48.0
1222.09021	168.0
1222.831299	176.0
1223.061035	148.0
1223.276855	132.0
1223.94519	200.0
1224.808716	204.0
1225.122192	192.0
1225.456543	176.0
1225.679565	172.0
1225.770142	192.0
1226.04187	152.0
1227.09436	88.0
1228.600708	152.0
1229.124023	192.0
1229.458984	188.0
1229.759033	176.0
1229.968384	160.0
1232.233887	196.0
1232.789917	108.0
1233.363037	196.0
1233.699585	196.0
1233.880371	152.0
1234.198364	212.0
1235.048096	208.0
1235.341919	184.0
1235.870972	160.0
1236.181396	72.0
1236.265381	152.0
1236.643311	224.0
1236.768555	196.0
1236.832275	224.0
1236.930298	176.0
1237.252319	140.0
1237.651367	84.0
1239.465454	152.0
1239.598633	204.0
1240.054077	200.0
1240.271362	48.0
1241.25293	164.0
1241.386108	220.0
1241.484253	224.0
1241.666626	116.0
1242.03833	180.0
1243.125732	88.0
1243.918823	68.0
1244.417236	236.0
1244.641968	208.0
1244.754272	132.0
1245.449585	204.0
1245.758667	180.0
1246.47522	180.0
1246.580688	136.0
1246.686035	124.0
1246.939087	172.0
1246.995239	48.0
1247.192017	140.0
1247.276367	168.0
1247.641968	188.0
1247.719238	124.0
1248.654419	168.0
1248.714722	120.0
1248.830322	164.0
1249.097534	132.0
1249.34375	128.0
1249.470337	72.0
1249.822144	128.0
1250.539917	220.0
1251.455078	148.0
1252.67334	184.0
1252.912842	160.0
1253.244019	140.0
1253.511719	60.0
1253.673828	56.0
1253.864502	144.0
1254.145996	264.0
1254.294067	108.0
1255.372681	168.0
1255.478516	196.0
1256.169678	152.0
1256.303711	176.0
1256.981079	148.0
1257.594971	160.0
1258.004395	152.0
1258.216187	40.0
1258.295776	216.0
1258.583252	192.0
1259.289429	128.0
1259.458984	196.0
1259.925171	228.0
1260.073486	108.0
1260.285522	268.0
1260.41272	168.0
1260.617554	284.0
1261.189209	200.0
1261.578857	120.0
1261.755493	144.0
1261.988892	144.0
1262.137939	212.0
1262.398926	148.0
1263.028442	196.0
1263.17688	148.0
1263.55188	184.0
1264.061279	156.0
1264.181519	160.0
1264.418823	160.0
1264.584961	140.0
1264.825562	180.0
1265.214966	160.0
1265.370728	156.0
1265.469849	220.0
1266.524902	88.0
1267.226196	188.0
1267.40332	104.0
1267.502563	172.0
1269.012207	168.0
1269.62207	120.0
1269.721313	124.0
1269.856079	364.0
1271.165161	88.0
1271.40979	188.0
1273.02832	256.0
1273.454468	108.0
1273.66748	152.0
1274.655029	116.0
1275.657104	40.0
1275.848999	180.0
1276.567139	160.0
1276.659546	148.0
1277.491699	164.0
1278.110596	152.0
1278.423706	156.0
1279.171021	72.0
1279.427368	108.0
1280.808716	68.0
1280.894287	116.0
1281.257568	160.0
1281.414307	188.0
1281.5354	200.0
1281.606689	152.0
1281.813232	200.0
1282.155273	196.0
1282.44751	204.0
1282.946533	140.0
1284.144409	116.0
1284.479614	200.0
1284.525879	180.0
1284.643677	100.0
1284.814819	140.0
1285.197266	196.0
1285.285767	152.0
1286.27771	124.0
1286.370483	196.0
1286.656128	160.0
1286.713135	68.0
1286.827393	80.0
1286.963135	68.0
1287.798584	284.0
1288.671021	160.0
1288.841553	136.0
1290.378174	188.0
1290.800049	176.0
1291.508057	172.0
1291.844238	180.0
1291.901489	128.0
1292.65979	80.0
1292.774292	156.0
1295.036621	264.0
1295.194214	60.0
1295.287231	128.0
1295.337402	228.0
1295.595337	84.0
1295.674072	328.0
1295.90332	172.0
1296.128418	156.0
1296.148804	208.0
1296.870728	152.0
1297.222046	168.0
1298.082275	160.0
1298.399536	204.0
1298.835327	100.0
1298.993164	68.0
1299.61731	164.0
1300.033447	156.0
1300.105225	228.0
1300.198486	156.0
1300.320557	80.0
1300.37793	188.0
1301.842407	116.0
1302.057861	184.0
1302.201538	164.0
1302.388306	200.0
1302.467285	188.0
1302.761841	96.0
1302.848022	136.0
1303.013184	184.0
1303.516113	160.0
1303.868286	280.0
1304.119873	112.0
1304.206055	136.0
1304.364258	172.0
1304.464844	124.0
1304.730835	216.0
1304.850098	236.0
1306.010742	108.0
1306.140259	192.0
1306.255371	216.0
1306.61499	168.0
1306.665405	168.0
1307.220215	160.0
1307.449707	144.0
1307.513916	300.0
1307.859863	152.0
1308.262939	76.0
1308.428589	208.0
1308.550903	144.0
1309.213379	192.0
1309.35022	196.0
1310.35144	108.0
1310.999878	168.0
1311.48999	68.0
1311.670166	100.0
1312.03064	228.0
1312.996826	136.0
1313.25647	208.0
1314.165405	176.0
1314.882446	32.0
1315.175659	108.0
1315.255005	112.0
1315.334473	136.0
1315.904785	120.0
1316.085205	196.0
1316.251343	224.0
1316.374023	260.0
1316.496826	180.0
1316.605103	168.0
1316.662964	84.0
1316.879517	176.0
1317.334595	116.0
1317.66687	160.0
1317.861938	220.0
1318.28833	144.0
1318.468994	168.0
1318.591797	52.0
1318.743652	176.0
1318.849487	164.0
1319.003784	140.0
1319.090576	136.0
1319.733887	172.0
1320.081055	152.0
1320.688477	204.0
1321.006714	252.0
1321.809814	188.0
1322.22229	160.0
1322.306519	156.0
1322.786865	164.0
1323.293579	136.0
1323.539795	180.0
1323.778687	160.0
1324.061157	196.0
1324.336304	140.0
1324.521118	184.0
1324.60437	152.0
1325.123413	200.0
1325.799805	36.0
1326.075195	100.0
1326.176636	168.0
1326.299927	156.0
1326.930542	236.0
1327.017578	168.0
1327.256836	128.0
1327.68457	156.0
1327.880493	132.0
1328.257568	176.0
1328.467896	148.0
1328.649292	56.0
1329.244263	196.0
1329.469238	96.0
1330.753906	240.0
1330.979004	124.0
1331.138794	128.0
1332.082886	232.0
1333.114624	240.0
1334.052246	164.0
1334.442017	416.0
1335.44104	208.0
1335.586426	172.0
1335.67395	176.0
1336.204712	176.0
1337.398193	148.0
1337.536499	180.0
1337.805786	88.0
1338.02417	144.0
1339.597168	208.0
1339.771973	56.0
1340.369385	212.0
1340.551514	232.0
1340.791992	168.0
1341.017944	196.0
1341.119995	184.0
1341.192871	176.0
1341.630249	160.0
1341.801147	160.0
1342.032593	192.0
1342.19165	168.0
1342.366699	152.0
1342.570801	168.0
1342.621826	204.0
1342.709351	180.0
1342.8479	152.0
1343.081299	208.0
1343.331177	144.0
1343.781616	144.0
1343.869141	184.0
1344.613525	164.0
1344.708374	176.0
1345.022217	156.0
1345.117065	100.0
1345.788696	120.0
1346.048218	204.0
1346.241455	124.0
1346.570068	164.0
1346.716187	136.0
1347.315063	136.0
1347.987305	176.0
1348.16272	152.0
1348.513428	220.0
1348.725464	232.0
1349.039673	160.0
1349.697754	164.0
1349.807373	84.0
1349.917114	104.0
1350.034058	124.0
1350.12915	220.0
1350.224243	320.0
1350.385132	28.0
1351.01416	48.0
1351.467773	140.0
1353.429321	136.0
1353.663574	140.0
1354.198242	140.0
1354.410645	92.0
1354.78418	76.0
1355.370361	108.0
1355.426636	176.0
1355.73999	204.0
1355.853882	160.0
1355.927246	120.0
1356.105713	172.0
1356.249756	144.0
1356.301025	52.0
1356.470825	164.0
1356.726196	88.0
1356.828857	80.0
1357.114746	116.0
1357.320068	160.0
1357.598633	136.0
1358.075317	188.0
1358.830933	120.0
1359.175781	192.0
1359.366577	144.0
1359.660034	200.0
1360.041748	184.0
1360.210571	176.0
1360.269287	168.0
1360.416016	240.0
1360.526245	216.0
1360.584961	192.0
1360.893311	224.0
1361.041016	152.0
1361.245728	212.0
1361.950684	192.0
1362.266602	96.0
1362.450195	148.0
1363.023315	116.0
1363.41272	140.0
1363.464233	160.0
1363.655273	124.0
1364.61084	96.0
1364.912354	144.0
1365.647705	148.0
1365.728638	132.0
1365.858276	340.0
1365.919922	132.0
1366.037598	152.0
1366.331787	216.0
1366.589355	184.0
1366.729126	112.0
1367.744629	148.0
1368.80481	188.0
1369.055176	172.0
1369.106689	56.0
1369.187378	192.0
1369.865356	164.0
1369.91687	136.0
1370.248413	164.0
1370.373657	200.0
1370.557861	208.0
1371.05896	128.0
1372.09082	128.0
1372.260376	124.0
1372.420776	180.0
1372.599609	212.0
1372.85022	196.0
1372.939697	132.0
1373.21814	172.0
1374.03772	140.0
1374.155762	112.0
1374.56897	44.0
1374.650146	172.0
1374.819092	104.0
1375.609619	212.0
1375.771973	192.0
1376.015625	156.0
1376.200195	152.0
1377.056763	44.0
1377.270996	176.0
1377.529541	184.0
1377.655151	152.0
1377.743774	148.0
1377.921021	132.0
1378.113159	216.0
1378.512085	80.0
1378.977661	176.0
1379.110718	112.0
1379.391602	100.0
1379.620728	100.0
1379.694702	68.0
1379.812988	168.0
1380.169067	128.0
1380.32312	156.0
1380.522827	136.0
1381.114502	204.0
1381.639648	208.0
1382.144775	196.0
1382.238892	172.0
1382.460938	164.0
1382.549683	176.0
1382.756958	44.0
1383.205933	140.0
1383.519287	192.0
1384.230103	148.0
1384.504028	236.0
1384.675659	224.0
1385.410522	228.0
1385.474365	168.0
1385.533691	128.0
1385.660889	208.0
1385.87439	200.0
1385.993042	116.0
1386.548706	92.0
1387.082397	156.0
1387.675415	184.0
1387.977783	184.0
1388.505981	168.0
1389.307007	128.0
1389.83374	116.0
1389.900513	188.0
1390.204712	132.0
1390.724243	180.0
1390.798462	136.0
1391.414551	164.0
1391.585327	208.0
1391.919434	212.0
1391.995361	168.0
1392.617554	172.0
1393.789551	124.0
1394.482422	120.0
1394.913452	60.0
1395.047241	140.0
1395.16626	236.0
1395.686646	152.0
1395.820435	132.0
1396.43457	180.0
1397.099731	36.0
1397.583374	228.0
1397.836304	40.0
1397.910645	208.0
1398.133911	88.0
1398.208374	60.0
1398.775879	232.0
1399.161133	172.0
1399.220703	192.0
1400.067871	132.0
1400.359985	244.0
1400.443481	164.0
1400.508911	104.0
1401.887085	104.0
1401.976562	136.0
1402.453491	204.0
1402.565308	172.0
1403.087158	160.0
1403.754883	152.0
1403.847656	128.0
1404.69043	152.0
1404.869507	88.0
1405.35437	140.0
1405.973755	144.0
1407.265015	104.0
1407.421875	228.0
1407.58728	208.0
1408.14624	164.0
1409.460938	132.0
1410.038696	124.0
1410.282959	128.0
1410.365234	120.0
1410.851074	176.0
1410.918335	144.0
1411.008057	136.0
1411.695923	212.0
1411.748291	224.0
1411.980103	200.0
1412.054932	52.0
1412.443848	136.0
1412.660767	112.0
1412.818604	160.0
1412.907593	244.0
1413.326538	52.0
1414.037476	136.0
1414.24707	176.0
1414.306885	132.0
1415.025513	120.0
1415.100464	224.0
1415.197754	132.0
1415.901611	176.0
1416.00647	416.0
1416.33606	160.0
1416.682129	188.0
1417.279907	132.0
1417.564697	160.0
1417.991821	280.0
1419.086182	160.0
1419.213623	176.0
1419.408569	176.0
1419.587646	196.0
1419.75354	176.0
1420.21106	196.0
1420.466064	240.0
1420.601074	164.0
1420.788696	72.0
1421.126221	188.0
1421.313843	180.0
1421.373901	168.0
1421.426392	124.0
1421.478882	148.0
1422.101807	124.0
1422.304443	160.0
1422.559692	260.0
1422.799805	148.0
1423.047607	136.0
1423.137695	128.0
1423.407959	144.0
1423.52063	92.0
1423.595703	176.0
1424.038818	308.0
1424.557129	224.0
1424.609619	156.0
1425.067993	88.0
1425.623901	168.0
1425.849365	120.0
1426.292847	144.0
1426.365723	220.0
1426.743896	80.0
1426.961914	92.0
1427.337769	132.0
1427.570923	140.0
1428.608887	100.0
1428.879639	168.0
1429.346191	172.0
1429.76001	140.0
1429.880371	132.0
1430.249268	116.0
1430.317017	176.0
1430.933838	256.0
1431.182739	176.0
1431.265503	184.0
1431.679688	224.0
1431.755005	180.0
1432.063721	192.0
1432.161621	152.0
1432.229492	168.0
1432.417725	124.0
1432.591064	224.0
1432.726562	176.0
1432.779297	128.0
1433.193726	96.0
1433.321777	76.0
1433.509277	176.0
1434.082886	144.0
1434.588013	132.0
1434.821655	164.0
1435.002563	120.0
1435.281616	180.0
1435.424805	220.0
1436.035645	168.0
1436.691895	144.0
1436.841675	184.0
1437.170166	232.0
1437.328979	248.0
1437.582153	164.0
1437.702881	144.0
1438.035034	56.0
1438.336914	164.0
1438.504639	152.0
1438.647095	176.0
1438.767212	104.0
1439.476929	156.0
1439.597656	252.0
1439.869629	160.0
1439.945068	156.0
1440.05835	200.0
1441.486206	220.0
1441.758179	120.0
1442.097656	132.0
1442.291138	208.0
1442.525635	172.0
1442.854248	156.0
1443.734253	184.0
1444.457397	224.0
1444.585938	144.0
1444.729614	124.0
1444.986938	124.0
1445.244141	156.0
1445.947876	168.0
1446.371704	128.0
1446.939453	108.0
1447.015137	64.0
1447.252441	128.0
1448.022217	200.0
1448.681152	160.0
1449.181274	104.0
1449.321289	156.0
1449.416138	216.0
1449.484253	168.0
1450.613525	228.0
1451.144165	40.0
1451.364014	36.0
1451.621826	140.0
1452.023804	144.0
1452.304443	188.0
1452.638184	180.0
1453.783813	108.0
1454.072144	124.0
1455.250977	176.0
1455.317017	176.0
1455.45459	172.0
1455.575195	160.0
1455.878906	144.0
1456.220703	148.0
1456.380249	136.0
1456.722046	160.0
1456.790405	176.0
1457.443726	172.0
1457.664062	104.0
1457.899658	244.0
1458.036499	168.0
1458.37085	220.0
1458.667236	108.0
1459.625244	124.0
1460.279175	280.0
1460.454102	156.0
1460.606201	136.0
1460.727905	120.0
1460.902954	148.0
1461.481079	160.0
1461.998535	200.0
1462.203979	180.0
1462.569336	116.0
1462.767212	36.0
1462.972778	176.0
1463.193481	112.0
1463.360962	88.0
1464.236694	188.0
1464.358521	96.0
1464.480469	164.0
1464.65564	164.0
1464.746948	204.0
1464.983154	48.0
1465.348755	160.0
1465.949097	204.0
1466.19458	164.0
1466.293701	176.0
1466.522339	144.0
1466.758545	236.0
1467.002563	188.0
1467.109253	136.0
1467.383667	136.0
1467.551392	116.0
1467.742065	168.0
1468.161377	208.0
1468.535156	48.0
1468.588501	80.0
1468.702881	188.0
1468.794434	152.0
1468.863037	196.0
1469.229248	168.0
1469.412354	132.0
1469.740479	180.0
1469.84729	172.0
1470.467773	136.0
1470.572266	172.0
1471.34314	156.0
1471.938721	144.0
1472.794067	48.0
1473.221802	244.0
1473.42041	120.0
1473.550293	120.0
1473.61145	132.0
1474.184448	164.0
1474.237915	180.0
1474.413696	136.0
1474.664307	172.0
1474.811157	124.0
1475.346191	192.0
1475.751343	60.0
1476.087769	32.0
1476.430908	156.0
1476.577271	176.0
1476.730225	156.0
1476.852539	188.0
1476.913696	168.0
1476.994141	148.0
1477.12793	92.0
1477.181519	144.0
1477.257935	144.0
1477.571655	140.0
1478.047119	168.0
1478.137817	148.0
1478.214355	208.0
1478.352051	116.0
1478.589233	180.0
1478.79834	236.0
1478.964355	120.0
1479.312988	172.0
1479.519165	256.0
1480.042358	184.0
1480.304077	48.0
1480.549072	216.0
1480.916748	104.0
1481.008667	148.0
1481.077515	188.0
1481.314941	68.0
1481.531982	224.0
1481.735107	232.0
1482.603638	140.0
1483.18457	80.0
1483.391602	120.0
1483.531738	224.0
1483.629272	172.0
1483.744263	132.0
1484.119873	220.0
1484.219604	208.0
1484.342285	172.0
1484.487915	180.0
1485.369873	172.0
1485.577026	124.0
1485.638428	152.0
1485.699707	48.0
1486.014282	56.0
1486.367188	140.0
1486.474609	272.0
1486.643433	252.0
1486.704834	176.0
1486.827637	216.0
1486.9198	168.0
1487.272827	104.0
1487.633545	168.0
1487.787109	132.0
1487.979004	96.0
1488.232422	220.0
1488.924683	196.0
1489.361206	120.0
1489.553223	156.0
1489.706909	152.0
1489.806763	96.0
1490.183228	176.0
1490.598145	172.0
1491.228271	80.0
1491.358887	148.0
1491.535767	120.0
1491.904663	68.0
1492.058472	40.0
1492.230957	224.0
1492.42749	184.0
1492.512085	156.0
1492.696533	180.0
1492.924683	200.0
1493.365601	140.0
1493.427124	192.0
1494.111816	128.0
1494.588745	176.0
1494.896606	160.0
1495.058105	164.0
1495.281372	168.0
1495.727783	104.0
1495.81189	56.0
1496.297363	156.0
1496.728516	108.0
1497.437012	184.0
1497.498657	156.0
1497.752808	180.0
1497.875977	184.0
1498.176392	140.0
1498.523071	164.0
1498.715698	164.0
1498.777344	188.0
1498.931519	140.0
1499.193481	196.0
1499.762939	188.0
1500.272583	140.0
1501.598022	164.0
1502.200317	136.0
1502.30835	152.0
1502.647827	104.0
1502.740356	128.0
1502.794434	232.0
1502.933228	244.0
1503.125977	172.0
1503.35437	196.0
1503.427124	168.0
1503.57373	204.0
1504.152588	160.0
END IONS

BEGIN IONS
PEPMASS=255.15
CHARGE=1
MSLEVEL=2
SOURCE_INSTRUMENT=LC-ESI-qTof
FILENAME=p1-D06_GD6_01_17914.mzXML
SEQ=*..*
IONMODE=Positive
ORGANISM=GNPS-NIH-NATURALPRODUCTSLIBRARY
NAME="MLS001049075-01![(6aR,9R)-7-methyl-6,6a,8,9-tetrahydro-4H-indolo[4,3-fg]quinoline-9-yl]methanol" M+H
PI=Dorrestein
DATACOLLECTOR=VVP/LMS
SMILES=CN1C[C@H](CO)C=C2[C@H]1Cc3c[nH]c4cccc2c34
INCHI=N/A
INCHIAUX=N/A
PUBMED=N/A
SUBMITUSER=vphelan
LIBRARYQUALITY=1
SPECTRUMID=CCMSLIB00000079444
USI=mzspec:GNPS:GNPS-NIH-NATURALPRODUCTSLIBRARY:accession:CCMSLIB00000079444
SCANS=1327
94.945404	208.0
95.01329	104.0
95.925323	176.0
96.077431	132.0
96.194519	124.0
96.512962	152.0
96.85347	96.0
97.304497	52.0
97.577576	52.0
97.634598	128.0
97.701477	44.0
98.130806	156.0
98.237297	148.0
98.671761	128.0
98.828003	168.0
98.915077	104.0
98.946754	240.0
99.006149	200.0
99.212219	120.0
99.418495	124.0
100.181618	108.0
100.375305	172.0
100.467056	84.0
100.508949	144.0
100.568817	108.0
100.686615	176.0
100.944397	192.0
100.990395	180.0
101.08242	148.0
101.27861	232.0
101.302895	164.0
101.376785	172.0
101.400833	196.0
101.432899	140.0
101.491035	228.0
101.685616	152.0
101.757881	104.0
101.87838	240.0
102.049202	164.0
102.596802	72.0
102.673424	148.0
103.040787	176.0
103.056229	288.0
103.119591	56.0
103.311684	132.0
103.603195	172.0
103.820068	184.0
103.935692	168.0
103.998596	108.0
104.022957	172.0
104.368324	152.0
104.382561	128.0
104.626709	88.0
105.0261	116.0
106.645668	152.0
106.806046	180.0
107.353867	148.0
107.620049	180.0
107.762558	156.0
107.969269	204.0
108.114075	180.0
108.190659	156.0
108.253372	180.0
108.359848	132.0
108.433006	144.0
108.659019	84.0
108.81675	164.0
109.076424	228.0
109.257339	160.0
109.70507	140.0
109.834351	224.0
109.855209	236.0
110.182961	72.0
110.362701	120.0
110.379425	152.0
110.772881	176.0
111.076828	156.0
111.664925	188.0
111.814301	156.0
112.193436	180.0
112.284103	112.0
112.519623	188.0
112.638687	128.0
112.776031	204.0
112.989601	92.0
113.057312	72.0
113.334122	160.0
113.60183	76.0
113.811935	220.0
114.239105	132.0
114.867508	120.0
115.012604	264.0
115.053818	152.0
115.155655	52.0
115.209053	80.0
115.499763	128.0
115.97081	236.0
115.999886	128.0
116.223862	132.0
116.316139	116.0
116.782394	124.0
117.066696	152.0
117.085854	228.0
117.100929	124.0
117.121552	184.0
117.206482	212.0
117.616234	128.0
117.87323	160.0
117.892677	144.0
118.468201	208.0
118.523819	196.0
118.936569	180.0
119.047295	176.0
119.158073	184.0
119.292809	104.0
119.477646	180.0
119.673523	172.0
119.71489	200.0
119.78894	128.0
120.100639	192.0
120.220634	116.0
121.114815	172.0
121.209023	68.0
121.276955	44.0
121.318604	184.0
121.439201	168.0
121.500618	176.0
121.735474	180.0
121.757431	200.0
122.584572	176.0
122.732254	156.0
122.966087	128.0
123.350403	164.0
123.547211	156.0
124.054329	152.0
124.380402	144.0
124.751358	192.0
124.940384	164.0
125.07811	164.0
125.782715	172.0
125.840752	196.0
126.044006	116.0
126.652512	112.0
126.876587	156.0
126.937126	192.0
127.031326	208.0
127.053177	164.0
127.251251	116.0
127.669182	144.0
127.822151	160.0
127.934685	220.0
127.984215	172.0
128.061432	608.0
128.471008	224.0
128.820908	144.0
128.863831	136.0
128.911285	136.0
129.070328	1336.0
129.119263	72.0
129.293457	104.0
129.361359	80.0
129.547043	40.0
129.692062	68.0
129.719269	144.0
129.832626	124.0
130.065796	296.0
130.345657	172.0
130.377472	120.0
131.007721	148.0
131.069931	132.0
131.282898	76.0
131.358765	192.0
131.72171	152.0
131.813095	196.0
131.950226	172.0
132.041687	136.0
132.059982	116.0
132.080566	180.0
132.284225	52.0
132.366638	140.0
132.747025	176.0
132.781418	140.0
133.389862	124.0
133.456528	172.0
134.080353	140.0
134.467789	152.0
134.486252	188.0
134.978333	200.0
135.091644	84.0
135.777237	124.0
135.891586	232.0
136.871735	212.0
136.915985	140.0
137.468475	152.0
137.578171	128.0
137.82106	144.0
137.98233	176.0
138.279388	220.0
138.401123	124.0
139.057892	140.0
139.315781	96.0
139.616638	204.0
139.698944	156.0
139.828369	184.0
139.866013	160.0
139.898972	184.0
140.059586	136.0
140.332458	80.0
140.499908	128.0
140.65329	172.0
140.776047	168.0
140.809113	108.0
140.927231	48.0
141.069412	160.0
141.326797	196.0
141.876251	136.0
141.980576	100.0
142.039871	124.0
142.064697	576.0
142.327026	204.0
142.428619	160.0
142.754745	164.0
142.911728	208.0
142.937897	168.0
143.072617	332.0
143.275986	180.0
143.445175	212.0
143.936646	56.0
144.080399	480.0
144.742447	96.0
144.998764	76.0
145.058685	132.0
145.099442	184.0
145.336884	152.0
145.487564	92.0
145.656174	212.0
145.682602	132.0
145.944565	176.0
145.985443	136.0
146.057587	164.0
146.331924	88.0
146.457138	120.0
146.563141	112.0
146.608917	224.0
146.719788	192.0
146.924774	164.0
147.014053	172.0
147.259598	208.0
147.29895	192.0
147.550262	156.0
147.734055	116.0
148.03418	220.0
148.181931	176.0
148.751816	160.0
149.575836	124.0
149.743835	152.0
149.926559	108.0
150.250854	92.0
150.314285	184.0
150.428986	116.0
150.704956	128.0
150.88092	160.0
150.944489	196.0
151.025192	180.0
151.054031	268.0
151.240509	112.0
151.331085	156.0
151.48291	168.0
151.703461	144.0
151.725525	160.0
151.987946	112.0
152.063065	1136.0
152.120468	40.0
152.294815	68.0
152.513489	144.0
153.03244	192.0
153.066727	2292.0
153.133499	108.0
153.22464	188.0
153.786865	132.0
153.804138	208.0
153.828827	152.0
153.915237	128.0
153.999191	160.0
154.065781	5184.0
154.137543	28.0
154.204254	68.0
154.233917	100.0
154.251221	204.0
154.268524	80.0
154.300659	64.0
154.335281	116.0
154.379791	76.0
154.431717	184.0
155.069885	928.0
155.179565	144.0
155.239075	84.0
155.345718	152.0
155.368042	84.0
155.519409	60.0
155.54422	44.0
155.727966	152.0
155.772675	96.0
155.817383	128.0
156.079712	1080.0
156.463989	96.0
156.605927	52.0
156.88501	80.0
157.087112	180.0
157.359009	192.0
157.528824	224.0
158.06134	144.0
158.096375	140.0
158.17897	244.0
158.47197	156.0
158.657425	72.0
159.057846	212.0
159.106476	140.0
159.350098	128.0
159.54361	160.0
160.049301	124.0
160.07196	120.0
160.150024	240.0
160.331421	52.0
160.490234	52.0
160.533096	184.0
160.608749	160.0
160.866135	80.0
161.042877	176.0
161.09845	172.0
161.242477	108.0
161.366333	176.0
161.442184	56.0
161.859711	132.0
162.168777	180.0
162.278107	152.0
162.341156	128.0
162.402023	64.0
162.45784	152.0
162.787781	152.0
163.053558	296.0
163.34436	100.0
163.581009	232.0
163.601379	84.0
163.891708	108.0
164.062988	184.0
164.506348	72.0
164.70311	192.0
165.070206	3368.0
165.146835	36.0
165.184814	132.0
165.221878	68.0
165.552048	168.0
165.726227	52.0
165.88768	136.0
166.072922	1188.0
166.10051	216.0
166.257019	36.0
166.321182	132.0
166.850357	120.0
166.981491	192.0
167.009781	180.0
167.073395	4368.0
167.140976	44.0
167.164139	64.0
167.264511	96.0
167.287674	40.0
167.496246	80.0
167.599304	224.0
167.625061	120.0
167.661148	32.0
167.79776	176.0
168.016968	124.0
168.079941	5376.0
168.223419	48.0
168.37059	80.0
168.543655	48.0
168.753021	148.0
169.055222	124.0
169.061737	136.0
169.082825	1396.0
169.125519	64.0
169.174698	132.0
169.191406	68.0
169.519165	64.0
169.586548	60.0
169.713577	56.0
169.747284	72.0
169.985931	152.0
170.065506	120.0
170.09697	580.0
170.297455	92.0
170.354599	184.0
170.752274	88.0
170.799088	136.0
170.936981	32.0
171.074646	196.0
171.103546	136.0
171.58812	116.0
172.138657	92.0
172.52533	132.0
172.695297	80.0
173.079987	148.0
173.499176	192.0
173.766678	164.0
174.433594	92.0
175.090164	216.0
175.246887	148.0
175.539459	120.0
175.753113	108.0
176.064163	144.0
176.42659	48.0
177.071121	200.0
177.525711	64.0
178.078033	832.0
178.319138	96.0
178.502579	156.0
178.922958	188.0
179.086227	1164.0
179.402283	56.0
179.466461	160.0
179.533112	56.0
179.93602	156.0
180.018799	124.0
180.055817	184.0
180.080643	5180.0
180.114944	152.0
180.133636	128.0
180.43222	120.0
180.547913	68.0
180.630814	40.0
181.021561	208.0
181.079041	1400.0
181.126007	176.0
181.17691	168.0
181.211731	44.0
181.23317	64.0
181.493164	128.0
181.68895	240.0
181.833832	92.0
181.886139	156.0
182.083633	7508.0
182.178513	108.0
182.215134	152.0
182.277863	116.0
182.333359	60.0
182.400558	132.0
182.508087	272.0
182.558868	176.0
182.596832	64.0
182.814743	132.0
183.032776	60.0
183.090027	1084.0
183.221298	68.0
183.318298	32.0
183.36142	76.0
183.720032	168.0
183.773987	60.0
183.919708	116.0
183.954803	200.0
184.104111	344.0
184.543732	212.0
184.705994	164.0
184.757385	136.0
185.014481	172.0
185.046722	852.0
185.113998	148.0
185.578003	68.0
186.041916	44.0
186.226547	196.0
186.83815	136.0
187.020477	160.0
187.44577	120.0
187.521606	92.0
188.293701	236.0
188.35379	140.0
188.42482	180.0
188.990753	180.0
189.070114	104.0
189.105698	176.0
189.628799	172.0
189.74942	96.0
189.796021	136.0
189.820694	116.0
190.026413	132.0
190.265182	144.0
190.303619	144.0
190.33107	244.0
190.435425	184.0
190.528824	144.0
190.586517	184.0
191.071701	1748.0
191.278793	164.0
191.585205	36.0
191.612747	180.0
191.858017	100.0
191.960037	236.0
191.97934	48.0
192.080475	12400.0
192.136551	156.0
192.238647	28.0
192.293839	56.0
192.434616	80.0
192.506409	52.0
192.7108	68.0
192.915314	100.0
192.962311	136.0
193.086655	4144.0
193.162552	88.0
193.191849	56.0
193.29422	68.0
193.402145	44.0
193.625214	112.0
193.690109	224.0
193.775986	280.0
193.990753	56.0
194.095535	4680.0
194.1474	44.0
194.229691	48.0
194.24794	80.0
194.305511	172.0
194.344345	116.0
194.459854	96.0
194.509415	92.0
194.535568	40.0
194.863541	140.0
194.997787	64.0
195.05806	48.0
195.09787	1364.0
195.429169	108.0
195.486374	76.0
195.569855	124.0
195.68956	52.0
196.101715	948.0
196.136032	204.0
196.302551	44.0
196.402954	192.0
196.489426	76.0
196.508957	104.0
196.587082	160.0
196.886765	124.0
196.952805	172.0
196.972656	192.0
197.003082	156.0
197.107635	10824.0
197.181915	40.0
197.221039	120.0
197.240601	108.0
197.296509	32.0
197.458694	140.0
197.564972	40.0
197.70488	156.0
198.04364	44.0
198.068848	240.0
198.11084	1064.0
198.175293	52.0
198.747269	40.0
198.920837	184.0
198.963379	120.0
199.123108	176.0
199.47464	100.0
199.598343	160.0
199.800842	64.0
200.121689	132.0
200.583694	196.0
200.981323	180.0
201.283356	156.0
201.82869	48.0
202.16246	104.0
202.802505	196.0
203.213684	80.0
204.081573	772.0
204.159561	40.0
204.219284	120.0
204.335922	56.0
204.483887	260.0
204.686005	88.0
204.762894	44.0
204.99649	224.0
205.08606	460.0
205.224518	144.0
205.444122	264.0
205.501175	44.0
206.09314	1624.0
206.129333	120.0
206.240799	84.0
207.092361	1688.0
207.248108	124.0
207.393188	128.0
207.463058	36.0
207.497467	184.0
207.577744	136.0
208.099991	1920.0
208.160248	52.0
208.349808	120.0
208.683182	144.0
208.893127	68.0
208.962158	148.0
209.057114	152.0
209.10788	2412.0
209.281631	260.0
209.379532	36.0
209.399704	68.0
210.109634	504.0
210.665939	52.0
211.09079	108.0
211.126297	164.0
211.475555	120.0
211.657928	68.0
211.704269	68.0
212.004883	88.0
212.105438	316.0
212.646454	44.0
213.035538	128.0
213.076218	148.0
213.115173	228.0
214.065125	72.0
214.630417	192.0
215.637527	140.0
216.058594	180.0
216.770065	148.0
216.931259	132.0
217.368256	36.0
217.9702	120.0
218.031921	72.0
218.258255	128.0
218.970398	152.0
219.088211	128.0
219.23848	160.0
219.276794	52.0
219.548019	40.0
219.851868	96.0
219.925659	36.0
220.103806	184.0
220.495667	128.0
220.516357	40.0
221.107285	1920.0
221.238083	44.0
221.315063	136.0
221.637909	176.0
221.999542	160.0
222.114014	908.0
222.177505	156.0
222.403015	124.0
222.836578	48.0
222.934631	132.0
222.960815	192.0
223.122864	6720.0
223.208099	120.0
223.258652	92.0
223.333008	68.0
223.444778	92.0
223.49176	120.0
223.54126	148.0
223.812119	48.0
223.94017	100.0
224.060455	116.0
224.10881	5044.0
224.208298	140.0
224.366272	108.0
224.575012	56.0
224.631683	100.0
224.792786	160.0
224.903214	56.0
225.013657	80.0
225.108902	844.0
225.13562	148.0
225.397614	116.0
225.443771	80.0
225.605499	108.0
225.733734	92.0
225.934128	76.0
226.13414	232.0
226.293259	80.0
226.505875	144.0
226.670654	68.0
226.733582	80.0
226.784531	92.0
227.15033	164.0
227.324341	80.0
227.636536	64.0
228.036087	128.0
228.135269	148.0
229.09523	152.0
229.137405	192.0
230.374283	48.0
232.542267	76.0
234.363785	180.0
234.949158	128.0
235.124878	284.0
235.813293	36.0
235.953903	100.0
236.124451	160.0
236.532059	196.0
236.945465	188.0
237.137115	856.0
237.227402	84.0
237.294846	196.0
237.463501	44.0
238.061935	112.0
238.141907	188.0
238.249283	92.0
238.897919	200.0
239.076385	64.0
239.117462	3076.0
239.171783	68.0
239.224121	40.0
239.273376	44.0
239.482758	112.0
239.608719	252.0
239.766205	80.0
239.827179	72.0
240.079742	96.0
240.126282	7108.0
240.308899	40.0
240.353409	92.0
240.37532	84.0
240.546524	44.0
240.571228	56.0
240.685455	120.0
241.127838	1748.0
241.331207	76.0
241.495102	76.0
241.563156	144.0
241.711655	40.0
241.795212	44.0
242.130829	196.0
242.361893	64.0
242.476547	52.0
242.585022	48.0
242.857895	68.0
243.664978	88.0
245.357971	112.0
247.069351	36.0
251.096191	96.0
252.194901	68.0
252.94136	112.0
253.090164	196.0
253.134491	316.0
254.143845	136.0
254.202728	152.0
254.510635	136.0
254.952164	196.0
255.082474	84.0
255.148834	4056.0
255.203278	216.0
255.250549	152.0
255.379929	80.0
255.429062	40.0
255.562683	124.0
255.649124	72.0
255.944626	72.0
255.970093	48.0
256.151947	956.0
256.518066	56.0
256.540405	56.0
256.585022	40.0
257.146423	156.0
257.778748	52.0
257.967316	128.0
258.367035	60.0
260.546997	136.0
261.115936	60.0
261.489136	48.0
265.761108	116.0
266.027222	80.0
268.255524	60.0
276.466766	88.0
289.343994	48.0
309.592804	80.0
321.592346	104.0
340.221283	92.0
360.360107	88.0
361.664764	56.0
378.061279	76.0
401.672546	76.0
414.181641	120.0
414.647583	68.0
429.80304	48.0
442.668274	92.0
489.289703	144.0
497.286072	36.0
513.292908	44.0
518.559448	64.0
521.173279	92.0
541.986755	124.0
544.259521	112.0
560.523438	76.0
572.617737	44.0
581.078491	32.0
622.846924	48.0
624.676147	112.0
628.951416	60.0
633.276306	116.0
686.19043	92.0
701.477234	64.0
706.737244	68.0
727.243652	20.0
747.716736	144.0
816.182739	164.0
836.245117	96.0
838.814026	60.0
881.467896	76.0
895.634949	124.0
913.262024	112.0
919.938354	40.0
975.4422	216.0
1018.975403	144.0
1019.915894	132.0
1044.302124	112.0
1066.674072	180.0
1069.093506	148.0
1071.834961	76.0
1082.80957	164.0
1084.145996	112.0
1084.853882	132.0
1105.998535	56.0
1113.052246	184.0
1151.620239	164.0
1151.735107	204.0
1178.535156	248.0
1191.394653	96.0
1200.693604	124.0
1203.115479	164.0
1208.852173	76.0
1210.229614	52.0
1210.818115	56.0
1212.404663	100.0
1214.810547	136.0
1218.969238	200.0
1221.061646	136.0
1240.317993	160.0
1250.319336	136.0
1268.861084	60.0
1279.873535	68.0
1282.573486	96.0
1285.240601	224.0
1285.804443	212.0
1288.724976	36.0
1291.177612	176.0
1295.256348	196.0
1297.083496	184.0
1309.614502	48.0
1316.891846	176.0
1326.98645	240.0
1329.808228	128.0
1332.640259	148.0
1339.908325	120.0
1346.838257	188.0
1347.298462	116.0
1349.066895	144.0
1351.926636	204.0
1356.027832	100.0
1361.008789	120.0
1366.182739	196.0
1368.110718	180.0
1380.409912	172.0
1384.909546	104.0
1385.835449	172.0
1387.910767	228.0
1388.021973	116.0
1389.772461	160.0
1389.876343	228.0
1390.180664	212.0
1394.687744	164.0
1396.004517	152.0
1397.44751	136.0
1403.629517	176.0
1409.361938	192.0
1409.548828	136.0
1412.741211	144.0
1416.206909	188.0
1419.879272	180.0
1421.544678	208.0
1422.753052	212.0
1427.020264	96.0
1427.118042	136.0
1427.208252	196.0
1427.33606	32.0
1432.544067	196.0
1435.137451	180.0
1439.490356	128.0
1440.585449	144.0
1440.812012	180.0
1442.504761	76.0
1444.53894	212.0
1447.513184	104.0
1452.084106	160.0
1454.867554	68.0
1456.606445	136.0
1459.615967	132.0
1461.053467	176.0
1462.072998	172.0
1466.360718	232.0
1470.295898	132.0
1478.564819	168.0
1485.399048	64.0
1487.839355	60.0
1489.528809	192.0
1491.403564	348.0
1491.741821	104.0
1494.041016	80.0
1496.080322	56.0
1501.119141	168.0
1503.772949	180.0
END IONS

BEGIN IONS
PEPMASS=585.291
CHARGE=1
MSLEVEL=2
SOURCE_INSTRUMENT=LC-ESI-qTof
FILENAME=p1-H07_GH7_01_17963.mzXML
SEQ=*..*
IONMODE=Positive
ORGANISM=GNPS-NIH-NATURALPRODUCTSLIBRARY
NAME=MLS002702983-01! M+H
PI=Dorrestein
DATACOLLECTOR=VVP/LMS
SMILES=CC1OC(OC2CC(O)C3(CO)C4C(O)CC5(C)C(CCC5(O)C4CCC3(O)C2)C6=CC(=O)OC6)C(O)C(O)C1O
INCHI=N/A
INCHIAUX=N/A
PUBMED=N/A
SUBMITUSER=vphelan
LIBRARYQUALITY=1
SPECTRUMID=CCMSLIB00000079543
USI=mzspec:GNPS:GNPS-NIH-NATURALPRODUCTSLIBRARY:accession:CCMSLIB00000079543
SCANS=1322
94.988625	148.0
95.056526	228.0
95.083694	200.0
95.66877	148.0
95.818726	144.0
97.06575	140.0
97.259094	160.0
97.45047	156.0
97.69622	104.0
98.336632	188.0
99.528381	136.0
100.081154	164.0
100.891182	172.0
100.959167	168.0
101.057182	132.0
101.311447	176.0
101.519897	48.0
101.608116	188.0
101.971611	144.0
102.767052	152.0
103.056007	212.0
103.467201	160.0
104.036018	164.0
104.186302	128.0
104.837418	208.0
105.066643	220.0
105.280106	224.0
105.308693	76.0
105.402672	116.0
106.981941	184.0
107.084076	156.0
107.559135	212.0
107.585976	156.0
107.959961	184.0
109.050476	240.0
109.064583	516.0
109.41243	240.0
110.100525	200.0
110.144386	36.0
110.644859	200.0
110.702812	180.0
110.791718	332.0
111.042526	492.0
111.080078	156.0
111.283646	80.0
111.661896	120.0
112.125076	144.0
112.627228	148.0
113.454636	116.0
113.518448	208.0
113.683708	136.0
114.49794	92.0
114.61084	48.0
115.051369	184.0
115.169785	168.0
115.404854	136.0
115.7258	104.0
115.777191	172.0
116.51722	176.0
117.068962	628.0
118.075554	176.0
118.333206	268.0
119.044418	176.0
119.08606	348.0
119.400826	160.0
119.535706	228.0
119.616234	248.0
119.825294	116.0
120.09343	176.0
120.554085	156.0
120.809906	172.0
121.059662	440.0
121.101036	148.0
121.33989	212.0
121.688736	68.0
121.728264	88.0
123.697128	152.0
124.084816	216.0
124.617485	124.0
124.659706	188.0
124.824203	188.0
124.875351	64.0
124.937637	152.0
125.060318	184.0
125.699638	148.0
126.237999	176.0
127.659752	124.0
127.86673	108.0
128.056808	196.0
128.211304	148.0
128.660172	116.0
128.74115	204.0
129.069107	1568.0
129.093994	104.0
129.112091	92.0
129.521759	196.0
129.743835	88.0
129.80278	164.0
130.07193	584.0
131.083801	1420.0
131.604935	48.0
131.986511	40.0
132.804092	92.0
133.018097	196.0
133.054214	228.0
133.079468	132.0
133.101715	504.0
133.681717	112.0
133.994858	104.0
134.100906	200.0
134.156189	196.0
134.68924	148.0
134.978134	136.0
135.042877	200.0
135.07991	376.0
135.116898	128.0
135.693588	144.0
135.872177	144.0
136.26918	240.0
136.783142	192.0
136.801758	140.0
137.056992	216.0
137.09523	188.0
137.256073	116.0
138.197403	48.0
139.073853	108.0
139.10907	196.0
139.156021	192.0
140.165085	64.0
140.389023	128.0
140.71701	128.0
140.91304	228.0
140.976837	144.0
141.069351	1260.0
141.97113	208.0
142.070755	164.0
142.089905	236.0
142.343704	120.0
142.367447	72.0
142.802368	60.0
143.084641	1528.0
143.230804	36.0
143.276062	44.0
143.836472	208.0
144.103943	164.0
144.831192	128.0
145.063965	188.0
145.099808	1004.0
145.17392	168.0
145.269852	36.0
145.633072	64.0
146.057755	124.0
146.098862	184.0
146.792328	152.0
147.00943	100.0
147.077118	496.0
147.118515	380.0
147.270172	184.0
148.07074	184.0
148.090118	136.0
148.264557	68.0
148.924484	116.0
149.058502	120.0
149.095749	180.0
149.639435	196.0
150.182861	80.0
151.030426	152.0
151.079346	132.0
151.196808	104.0
152.236252	176.0
152.393463	152.0
153.053833	444.0
153.284195	172.0
153.372925	36.0
153.821854	180.0
154.039169	108.0
154.076218	220.0
154.400024	144.0
154.954514	208.0
155.084427	836.0
155.14534	52.0
156.071411	176.0
156.087875	236.0
156.434647	160.0
156.686188	96.0
157.062897	200.0
157.100662	4820.0
157.234604	64.0
158.101837	764.0
158.174561	220.0
158.252167	92.0
158.994156	128.0
159.079147	916.0
159.117477	1104.0
159.20755	72.0
159.58699	32.0
159.639786	120.0
160.083755	304.0
160.120621	176.0
160.269089	124.0
161.05368	348.0
161.097733	200.0
161.604782	72.0
162.382477	116.0
163.075134	340.0
163.106003	176.0
163.744766	172.0
164.076019	188.0
164.4944	48.0
164.747208	128.0
165.043686	176.0
165.0905	408.0
165.168991	128.0
166.068054	172.0
166.365707	276.0
167.080399	700.0
167.226822	164.0
167.273148	68.0
167.878632	156.0
168.089767	180.0
168.410294	184.0
168.971237	148.0
169.002289	76.0
169.056625	160.0
169.100433	788.0
170.069992	176.0
170.102707	172.0
170.904205	56.0
171.07605	264.0
171.117188	312.0
171.750885	72.0
172.087524	108.0
173.031372	152.0
173.057556	132.0
173.094513	208.0
173.130875	172.0
173.57637	60.0
173.812439	100.0
174.098572	184.0
174.340271	56.0
175.075378	308.0
175.110733	308.0
176.523026	100.0
177.052292	224.0
177.092102	388.0
177.558487	84.0
178.092056	152.0
178.190262	96.0
178.31781	72.0
179.085327	364.0
179.21994	76.0
179.323868	104.0
179.9561	52.0
180.075073	352.0
180.428986	92.0
180.629562	188.0
180.854324	68.0
181.09642	268.0
182.106476	280.0
183.080048	212.0
183.115509	508.0
184.242599	188.0
184.73732	96.0
184.799545	104.0
184.8293	148.0
185.094925	184.0
185.127228	368.0
185.753159	128.0
186.095108	148.0
186.141266	152.0
186.807159	168.0
186.981293	160.0
187.077499	220.0
187.110886	884.0
187.269897	60.0
188.110916	176.0
188.131577	208.0
188.153412	176.0
188.54129	40.0
189.019852	228.0
189.090698	360.0
190.387772	88.0
191.08049	216.0
191.10556	304.0
191.281357	84.0
191.421768	92.0
191.711014	108.0
192.092926	160.0
192.251526	108.0
192.433716	112.0
192.513794	108.0
193.093613	308.0
194.041183	280.0
194.108002	180.0
194.565536	128.0
195.113846	300.0
195.215729	144.0
196.119659	348.0
196.170731	160.0
196.69516	160.0
197.095062	216.0
197.131073	276.0
197.421585	172.0
197.457947	112.0
198.10112	220.0
198.142014	168.0
199.115417	324.0
199.150818	112.0
200.149185	128.0
200.921448	44.0
201.093582	128.0
201.118988	328.0
201.794144	120.0
202.640411	164.0
203.042938	124.0
203.109955	224.0
204.031082	124.0
205.099991	484.0
205.120636	120.0
205.386581	168.0
205.614838	96.0
205.843216	132.0
206.10054	192.0
206.200317	56.0
207.104385	768.0
207.150269	224.0
207.241959	136.0
207.59166	32.0
207.829742	48.0
208.08519	128.0
208.108932	200.0
209.094528	148.0
209.130646	520.0
209.474228	44.0
210.140671	212.0
211.111984	320.0
211.14299	260.0
212.113861	128.0
212.173386	136.0
212.196579	64.0
212.42569	40.0
212.704254	76.0
213.081787	208.0
213.123199	140.0
214.872314	188.0
215.10083	300.0
215.137878	188.0
215.704605	148.0
216.485794	160.0
216.825638	168.0
217.094086	400.0
218.099442	104.0
218.590591	168.0
219.116226	276.0
219.813492	72.0
220.120499	160.0
220.888916	120.0
221.076218	584.0
221.128189	508.0
221.164108	176.0
221.19371	116.0
222.082901	168.0
222.106369	96.0
222.76535	172.0
223.102646	188.0
223.151703	132.0
224.101166	208.0
225.087326	188.0
225.12294	264.0
225.15715	56.0
225.707001	128.0
226.131805	28.0
226.239563	152.0
226.512085	192.0
227.10321	152.0
227.141281	152.0
227.168564	184.0
228.102478	196.0
228.13855	156.0
228.201675	156.0
228.52652	156.0
228.905777	196.0
229.017212	152.0
229.119247	156.0
229.130051	288.0
229.152771	184.0
230.105835	168.0
230.749374	168.0
230.891495	128.0
231.11232	320.0
232.117416	244.0
232.142227	68.0
232.221069	148.0
232.384888	84.0
232.515366	224.0
232.551788	108.0
232.837189	168.0
233.084961	192.0
233.125107	616.0
233.183533	36.0
233.514938	48.0
233.670074	84.0
233.740051	176.0
233.90744	148.0
234.099258	264.0
234.138733	232.0
234.684311	64.0
235.107727	184.0
235.140015	652.0
236.124466	132.0
236.149109	556.0
236.909271	172.0
237.093384	176.0
237.123428	440.0
237.157486	144.0
238.093246	92.0
238.176178	120.0
238.243759	192.0
238.670975	104.0
239.080093	164.0
239.110306	300.0
239.137665	412.0
240.031982	56.0
240.099823	72.0
240.121414	104.0
240.14418	148.0
240.383652	216.0
241.116089	328.0
241.879517	212.0
242.117767	160.0
243.119675	160.0
244.11824	324.0
245.125076	144.0
246.135803	564.0
246.241913	116.0
246.320007	204.0
247.147644	148.0
248.106888	132.0
248.157043	220.0
248.715454	240.0
248.762543	160.0
248.822189	192.0
249.107224	152.0
249.160324	444.0
250.022934	152.0
250.167725	108.0
251.108887	128.0
252.104355	136.0
252.145432	128.0
253.113586	192.0
253.153442	128.0
253.328827	68.0
254.105545	116.0
254.156311	52.0
254.197571	76.0
254.238815	52.0
254.619781	120.0
254.775436	56.0
255.126785	136.0
255.487549	88.0
256.098724	188.0
256.121033	132.0
257.108124	168.0
257.120178	168.0
257.129364	220.0
257.176422	200.0
258.133148	112.0
258.499542	172.0
259.148773	500.0
259.40274	72.0
259.793976	60.0
260.146179	144.0
261.084503	128.0
261.123779	136.0
261.164276	448.0
261.917419	148.0
262.126099	248.0
262.869904	32.0
263.095825	300.0
263.140411	128.0
263.171112	188.0
264.11673	164.0
264.129333	152.0
264.139343	148.0
264.181671	128.0
265.016968	52.0
265.11142	156.0
265.166016	128.0
266.009369	72.0
266.126251	128.0
267.147552	48.0
267.169525	124.0
267.465637	52.0
267.856384	112.0
268.123566	92.0
268.29306	52.0
268.834503	216.0
269.148438	120.0
269.869995	120.0
270.130859	96.0
270.153534	276.0
271.139984	124.0
271.799255	220.0
272.148712	152.0
273.106781	152.0
273.128235	140.0
273.160065	932.0
273.244934	36.0
273.788055	68.0
273.985687	60.0
274.162964	284.0
275.083862	152.0
275.106964	108.0
275.166382	124.0
275.285248	108.0
276.144531	164.0
276.174286	192.0
276.395935	92.0
276.925629	256.0
277.11322	152.0
277.157593	360.0
277.555298	136.0
277.707825	60.0
278.03299	44.0
278.166656	160.0
278.621277	140.0
279.136871	276.0
279.173798	236.0
280.183014	212.0
281.149933	436.0
281.98291	108.0
282.150055	204.0
282.200195	132.0
282.4711	108.0
282.819092	80.0
283.136292	232.0
283.144226	276.0
283.156403	196.0
283.168976	312.0
283.492279	84.0
283.871063	232.0
285.118713	192.0
285.158539	120.0
285.193848	184.0
285.745361	188.0
286.085266	168.0
286.137451	172.0
286.168671	264.0
287.092712	148.0
287.126434	124.0
287.173645	184.0
288.141632	176.0
288.182434	116.0
288.872681	148.0
289.150635	124.0
289.851166	152.0
290.135864	184.0
290.671753	88.0
291.045135	124.0
291.113068	200.0
291.141907	344.0
291.173096	672.0
291.204742	168.0
292.180328	188.0
292.784912	144.0
293.116669	120.0
293.149536	316.0
293.184265	248.0
293.859985	104.0
294.145874	136.0
295.116913	152.0
295.165649	208.0
295.205811	120.0
295.308411	160.0
296.165009	120.0
296.873535	148.0
297.127014	120.0
297.138306	108.0
297.148743	140.0
297.185699	132.0
297.752106	196.0
298.11969	168.0
298.938141	124.0
299.881775	60.0
301.157227	796.0
301.220581	96.0
301.313843	48.0
301.365662	76.0
301.448608	60.0
301.49353	84.0
301.649078	128.0
302.162506	192.0
303.172577	404.0
303.359131	40.0
304.073669	44.0
304.171509	148.0
304.858551	132.0
305.154297	212.0
305.867188	88.0
306.062134	136.0
306.149323	120.0
306.173584	140.0
307.128571	124.0
307.160522	244.0
307.460022	76.0
307.711334	152.0
308.130432	152.0
308.158386	128.0
308.207306	96.0
308.465942	84.0
308.62326	224.0
309.146545	264.0
309.183563	228.0
309.470001	72.0
309.697632	80.0
310.142609	112.0
310.191681	280.0
310.615997	32.0
311.19928	220.0
311.915222	180.0
312.003113	120.0
312.03476	36.0
312.171906	124.0
313.15921	508.0
313.678802	112.0
314.159058	228.0
315.171661	124.0
316.162964	148.0
317.142853	136.0
318.015411	128.0
318.16095	156.0
318.910461	148.0
318.985107	72.0
319.088196	140.0
319.167175	1800.0
319.974091	36.0
320.172852	380.0
320.315979	84.0
320.832703	48.0
320.996704	144.0
321.185944	2148.0
321.332001	88.0
322.189209	300.0
322.23526	144.0
322.288879	152.0
322.342468	136.0
322.58194	40.0
323.159729	400.0
323.202454	256.0
323.708954	100.0
324.106567	76.0
324.173584	424.0
324.300079	112.0
324.859467	156.0
325.1716	196.0
326.195312	136.0
327.152222	156.0
327.191803	156.0
329.348267	128.0
329.684265	96.0
330.64624	120.0
331.166595	1180.0
332.164215	228.0
332.886658	80.0
333.173615	112.0
334.184326	160.0
334.224335	156.0
335.1492	112.0
335.659515	36.0
335.838226	80.0
336.133728	120.0
336.838348	96.0
337.105072	184.0
337.176788	2888.0
337.225677	120.0
338.182098	656.0
338.224213	212.0
338.901733	160.0
339.190857	628.0
339.258759	72.0
339.46933	108.0
340.192169	316.0
340.313843	116.0
340.40564	48.0
341.175415	260.0
341.611176	96.0
342.176544	160.0
342.553558	52.0
343.519379	72.0
344.205872	120.0
347.574341	136.0
348.933746	68.0
349.179413	2620.0
349.633057	36.0
350.180115	684.0
350.595642	76.0
350.959198	60.0
351.190247	432.0
352.213135	132.0
352.493347	108.0
353.113922	36.0
353.626495	116.0
354.083282	120.0
355.187836	3792.0
355.258636	112.0
355.410309	40.0
356.146149	156.0
356.195648	684.0
356.890228	44.0
356.957916	52.0
357.161011	144.0
357.202759	304.0
357.578644	40.0
358.222534	120.0
358.365692	128.0
358.716156	64.0
359.185242	152.0
359.825287	40.0
360.195374	184.0
361.187103	144.0
362.908875	112.0
363.003662	116.0
364.009277	192.0
365.164581	116.0
366.066528	96.0
366.542694	152.0
366.683685	156.0
366.779663	132.0
367.064911	64.0
367.188019	2576.0
367.331879	48.0
367.644043	84.0
367.820312	48.0
367.889038	112.0
368.037933	32.0
368.191345	508.0
368.324371	40.0
368.385468	120.0
368.839966	120.0
368.882263	44.0
368.95108	56.0
368.981659	40.0
369.193146	392.0
369.551544	88.0
370.195282	160.0
371.601349	28.0
373.199585	884.0
373.545288	124.0
374.206909	132.0
374.249573	44.0
374.715607	60.0
375.058594	148.0
376.200378	120.0
381.527161	72.0
384.909088	208.0
384.995026	88.0
385.197723	1200.0
385.327026	108.0
385.706085	84.0
385.999329	60.0
386.151825	68.0
386.201355	484.0
387.203003	284.0
387.22937	168.0
387.279053	76.0
388.019714	112.0
388.721802	112.0
388.800293	120.0
391.186127	124.0
394.626312	140.0
396.2966	116.0
397.20047	136.0
403.06488	212.0
403.164795	144.0
403.207733	1436.0
404.084473	124.0
404.214905	308.0
405.201508	140.0
405.229553	136.0
406.195709	40.0
406.552795	64.0
439.233154	180.0
452.259308	116.0
456.803894	64.0
476.594452	88.0
480.273132	36.0
483.287476	180.0
484.228668	112.0
495.222198	128.0
498.669647	56.0
585.303955	160.0
586.305969	188.0
630.207153	48.0
646.09491	84.0
681.406494	44.0
686.220825	112.0
691.083435	68.0
695.753235	36.0
707.89624	56.0
714.876953	96.0
737.802246	96.0
888.460449	56.0
914.340088	60.0
922.682373	88.0
948.825378	32.0
973.059937	84.0
1034.573486	92.0
1101.648804	192.0
1108.112305	92.0
1109.656616	160.0
1178.532227	116.0
1179.632446	116.0
1184.436157	40.0
1185.258301	184.0
1219.273315	192.0
1227.704102	140.0
1228.729492	108.0
1247.329468	92.0
1259.533936	108.0
1261.958008	88.0
1262.325684	136.0
1262.57312	56.0
1295.1427	128.0
1297.378418	36.0
1330.608765	156.0
1331.29126	76.0
1333.463501	200.0
1350.195679	164.0
1366.965942	236.0
1386.750977	188.0
1389.101562	152.0
1389.902832	184.0
1391.468872	164.0
1400.772217	216.0
1434.614624	56.0
1438.36377	40.0
1444.575195	136.0
1453.667114	188.0
1467.81604	108.0
1468.609131	176.0
1471.623535	208.0
1496.126831	112.0
1503.001709	132.0
END IONS

BEGIN IONS
PEPMASS=355.202
CHARGE=1
MSLEVEL=2
SOURCE_INSTRUMENT=LC-ESI-qTof
FILENAME=p1-F10_GF10_01_17942.mzXML
SEQ=*..*
IONMODE=Positive
ORGANISM=GNPS-NIH-NATURALPRODUCTSLIBRARY
NAME=MLS000738212-01! M+H
PI=Dorrestein
DATACOLLECTOR=VVP/LMS
SMILES=CCC1(CCCN2CCc3c4C21)CC(O)(C(=O)OC)n4c5ccccc35
INCHI=N/A
INCHIAUX=N/A
PUBMED=N/A
SUBMITUSER=vphelan
LIBRARYQUALITY=1
SPECTRUMID=CCMSLIB00000079756
USI=mzspec:GNPS:GNPS-NIH-NATURALPRODUCTSLIBRARY:accession:CCMSLIB00000079756
SCANS=1514
94.949486	148.0
95.030869	184.0
95.035675	176.0
95.049126	328.0
95.06562	652.0
95.127991	180.0
95.145462	164.0
95.166817	208.0
95.207596	216.0
95.228958	180.0
95.307205	220.0
95.326096	136.0
95.341644	136.0
95.374687	172.0
95.419395	196.0
95.465202	156.0
95.501068	104.0
95.524406	76.0
95.594452	136.0
95.65284	72.0
95.7463	240.0
95.763885	140.0
95.814468	104.0
95.82811	80.0
95.854904	176.0
95.862709	132.0
95.866623	188.0
95.968636	200.0
96.024994	200.0
96.045921	200.0
96.07766	304.0
96.095215	56.0
96.128853	236.0
96.147903	212.0
96.270889	188.0
96.296074	112.0
96.350975	128.0
96.3881	96.0
96.474655	180.0
96.501892	184.0
96.548393	196.0
96.58947	232.0
96.603157	176.0
96.70295	144.0
96.72644	128.0
96.751839	160.0
96.809364	204.0
96.823685	156.0
96.865471	152.0
97.020279	144.0
97.039131	184.0
97.096756	172.0
97.116364	48.0
97.1968	132.0
97.261566	100.0
97.275299	108.0
97.318497	172.0
97.351875	124.0
97.393333	168.0
97.432404	56.0
97.48024	196.0
97.518723	164.0
97.554245	88.0
97.599464	116.0
97.638794	124.0
97.678131	44.0
97.786354	152.0
97.809967	200.0
97.867905	84.0
97.896599	204.0
97.933342	168.0
98.012817	212.0
98.113678	132.0
98.251389	156.0
98.279007	40.0
98.310211	216.0
98.340179	276.0
98.409271	288.0
98.436325	132.0
98.464561	236.0
98.484314	152.0
98.513947	216.0
98.531723	200.0
98.549187	148.0
98.575195	100.0
98.591003	176.0
98.610764	116.0
98.630531	180.0
98.725433	200.0
98.749168	132.0
98.794662	176.0
98.830269	144.0
98.907455	156.0
98.92527	312.0
99.024239	168.0
99.042328	136.0
99.061905	160.0
99.095589	204.0
99.16098	168.0
99.186745	180.0
99.239487	164.0
99.303314	152.0
99.314728	264.0
99.418793	108.0
99.460472	244.0
99.474373	164.0
99.529961	156.0
99.545845	204.0
99.573647	212.0
99.593407	152.0
99.621315	140.0
99.653107	136.0
99.696823	128.0
99.751526	352.0
99.819099	188.0
99.939194	180.0
99.956421	176.0
100.017029	48.0
100.059166	240.0
100.098656	148.0
100.122551	184.0
100.160393	188.0
100.185333	300.0
100.262009	352.0
100.277954	132.0
100.300774	196.0
100.369652	156.0
100.383614	168.0
100.411644	72.0
100.436363	160.0
100.469376	108.0
100.497307	88.0
100.513268	176.0
100.601089	180.0
100.653	176.0
100.748611	208.0
100.791214	144.0
100.810501	112.0
100.842781	72.0
100.858772	112.0
100.947876	204.0
100.954117	116.0
100.961357	168.0
100.988739	48.0
101.006737	180.0
101.035744	136.0
101.086761	180.0
101.118134	160.0
101.20887	236.0
101.228889	108.0
101.400253	136.0
101.417213	212.0
101.45134	164.0
101.607719	88.0
101.62751	148.0
101.653862	144.0
101.687057	184.0
101.724113	72.0
101.782333	236.0
101.838776	192.0
101.943031	248.0
101.963127	120.0
101.98262	276.0
102.005341	232.0
102.027451	204.0
102.044006	172.0
102.121964	164.0
102.137527	168.0
102.162193	148.0
102.26976	228.0
102.36145	176.0
102.405754	196.0
102.421867	160.0
102.446892	284.0
102.533707	204.0
102.568275	212.0
102.574196	140.0
102.591362	184.0
102.641541	36.0
102.689934	212.0
102.732292	216.0
102.782738	256.0
102.844727	128.0
102.875572	72.0
102.891724	96.0
102.930084	164.0
102.978554	148.0
103.009262	176.0
103.05378	2704.0
103.080811	136.0
103.126045	140.0
103.14222	168.0
103.164452	140.0
103.245773	156.0
103.308029	136.0
103.326241	164.0
103.400452	184.0
103.479057	128.0
103.500298	176.0
103.514473	132.0
103.528648	116.0
103.559029	264.0
103.60157	208.0
103.621826	176.0
103.656273	204.0
103.773834	92.0
103.800194	156.0
103.917839	84.0
103.961082	128.0
104.043671	156.0
104.058899	840.0
104.148041	180.0
104.180222	264.0
104.21833	200.0
104.236618	140.0
104.273201	140.0
104.306435	160.0
104.376877	140.0
104.401276	152.0
104.419579	116.0
104.439919	108.0
104.474503	56.0
104.492813	128.0
104.511124	124.0
104.577843	188.0
104.597809	168.0
104.621025	184.0
104.649529	112.0
104.676003	196.0
104.722679	252.0
104.752632	160.0
104.779984	148.0
104.806366	128.0
104.824699	132.0
104.84304	120.0
104.89196	180.0
104.924576	120.0
104.995941	164.0
105.022453	236.0
105.039795	352.0
105.068825	996.0
105.100014	208.0
105.155075	180.0
105.197517	212.0
105.218353	56.0
105.30616	164.0
105.365402	56.0
105.467575	160.0
105.560867	152.0
105.582069	140.0
105.598427	64.0
105.614792	56.0
105.643433	128.0
105.69458	132.0
105.852196	124.0
105.882965	156.0
105.913155	188.0
105.968941	40.0
105.983284	240.0
105.997627	160.0
106.015373	364.0
106.065491	3072.0
106.157524	120.0
106.199501	256.0
106.288559	136.0
106.329849	76.0
106.354477	124.0
106.368843	216.0
106.385269	168.0
106.420166	112.0
106.492043	168.0
106.52285	132.0
106.55983	200.0
106.615311	40.0
106.654358	168.0
106.674767	108.0
106.701645	80.0
106.802406	44.0
106.827087	144.0
106.863091	192.0
106.919952	152.0
106.950554	192.0
107.045685	320.0
107.072174	780.0
107.079407	464.0
107.084663	844.0
107.101372	160.0
107.124657	232.0
107.145393	248.0
107.230667	44.0
107.249214	188.0
107.266205	176.0
107.291069	136.0
107.320107	124.0
107.379105	160.0
107.420357	224.0
107.438927	156.0
107.492569	164.0
107.527649	56.0
107.566872	100.0
107.627281	124.0
107.670105	188.0
107.736206	192.0
107.758926	244.0
107.777527	164.0
107.823586	208.0
107.866394	204.0
107.887062	188.0
107.928413	160.0
107.96785	172.0
108.013374	100.0
108.052567	292.0
108.082397	400.0
108.148758	188.0
108.178749	220.0
108.248726	220.0
108.284348	116.0
108.365135	180.0
108.39489	156.0
108.487411	152.0
108.568275	136.0
108.599388	144.0
108.631821	88.0
108.665764	128.0
108.684441	208.0
108.738396	188.0
108.761673	276.0
108.77491	148.0
108.790283	136.0
108.811676	92.0
108.85318	192.0
108.885803	192.0
108.939301	116.0
108.945	160.0
108.979279	132.0
109.014664	140.0
109.039543	184.0
109.062386	280.0
109.081841	352.0
109.101379	168.0
109.114372	384.0
109.158035	132.0
109.197548	44.0
109.239021	192.0
109.303558	204.0
109.341103	168.0
109.355675	144.0
109.413956	140.0
109.428528	152.0
109.534737	168.0
109.588905	160.0
109.620163	132.0
109.873039	212.0
109.991394	192.0
110.010185	204.0
110.027496	232.0
110.06002	264.0
110.100525	268.0
110.144363	172.0
110.265007	144.0
110.288002	176.0
110.311424	116.0
110.340912	192.0
110.428085	172.0
110.467827	176.0
110.547333	128.0
110.585617	232.0
110.622681	192.0
110.639427	112.0
110.721092	156.0
110.78183	156.0
110.854095	184.0
110.884506	316.0
110.899178	112.0
111.031258	144.0
111.045944	184.0
111.082489	416.0
111.103401	180.0
111.148735	140.0
111.264175	120.0
111.305855	216.0
111.404991	148.0
111.442696	192.0
111.488373	292.0
111.550705	216.0
111.568123	212.0
111.591919	176.0
111.607567	380.0
111.655006	192.0
111.671829	172.0
111.72583	196.0
111.77623	192.0
111.831734	64.0
111.857719	148.0
111.920151	128.0
112.050735	132.0
112.073624	240.0
112.16996	180.0
112.204582	52.0
112.34166	148.0
112.35643	160.0
112.377525	148.0
112.413399	160.0
112.48938	324.0
112.547104	176.0
112.586502	172.0
112.616074	140.0
112.666763	72.0
112.68367	164.0
112.728043	228.0
112.785103	144.0
112.85881	148.0
112.91243	108.0
112.966957	308.0
113.00927	244.0
113.026192	148.0
113.056038	344.0
113.076981	172.0
113.126663	180.0
113.162682	228.0
113.208237	176.0
113.237015	116.0
113.254074	164.0
113.284485	56.0
113.362885	144.0
113.407234	164.0
113.428253	152.0
113.464622	388.0
113.509148	196.0
113.532471	192.0
113.634537	184.0
113.689461	132.0
113.729782	144.0
113.745522	184.0
113.77861	200.0
113.808334	56.0
113.840187	136.0
113.86142	152.0
113.88266	32.0
113.906021	140.0
113.92514	116.0
113.947601	252.0
114.001396	144.0
114.048271	148.0
114.093025	188.0
114.131294	204.0
114.144409	192.0
114.186584	148.0
114.209984	148.0
114.233383	152.0
114.292953	136.0
114.31636	128.0
114.484535	56.0
114.566414	408.0
114.608078	204.0
114.646439	148.0
114.669212	208.0
114.776405	260.0
114.889786	152.0
114.912979	32.0
114.930046	192.0
114.9487	108.0
114.958107	188.0
114.97699	184.0
115.013275	172.0
115.053764	7016.0
115.124298	144.0
115.147835	168.0
115.173653	184.0
115.196915	84.0
115.224686	76.0
115.248184	128.0
115.282379	152.0
115.323593	308.0
115.363594	56.0
115.384972	104.0
115.409782	212.0
115.472572	112.0
115.498055	164.0
115.53212	196.0
115.548813	236.0
115.586464	136.0
115.622406	56.0
115.64167	124.0
115.684479	164.0
115.729439	172.0
115.787033	192.0
115.834373	136.0
115.873596	168.0
115.882828	52.0
115.887184	148.0
115.997231	184.0
116.016525	32.0
116.058235	1920.0
116.095856	196.0
116.128029	256.0
116.201935	88.0
116.238152	180.0
116.25338	156.0
116.31041	92.0
116.364075	164.0
116.419907	148.0
116.43708	212.0
116.514412	168.0
116.557381	148.0
116.583168	48.0
116.602509	264.0
116.634644	164.0
116.643242	156.0
116.650871	312.0
116.671295	216.0
116.699394	172.0
116.719833	60.0
116.746552	136.0
116.761604	184.0
116.783546	256.0
116.820488	172.0
116.838448	136.0
116.858406	48.0
116.931252	192.0
116.946159	128.0
116.96563	160.0
117.001945	288.0
117.007492	132.0
117.014053	388.0
117.069672	22324.0
117.138268	28.0
117.156837	136.0
117.178337	120.0
117.196442	116.0
117.215828	164.0
117.253769	132.0
117.273911	160.0
117.320663	100.0
117.344109	204.0
117.373184	132.0
117.411194	180.0
117.428444	180.0
117.475433	236.0
117.484161	44.0
117.491272	156.0
117.526329	36.0
117.578117	176.0
117.601501	72.0
117.630341	216.0
117.689835	80.0
117.720604	64.0
117.773277	100.0
117.789711	224.0
117.804832	44.0
117.822121	156.0
117.861008	148.0
117.935539	184.0
117.996704	148.0
118.012306	108.0
118.070305	2228.0
118.113953	164.0
118.158119	124.0
118.256126	180.0
118.275269	152.0
118.31794	136.0
118.338409	100.0
118.354042	136.0
118.40831	184.0
118.471123	116.0
118.497124	136.0
118.524277	180.0
118.582832	152.0
118.60981	116.0
118.644493	112.0
118.659668	180.0
118.679184	184.0
118.707375	124.0
118.7369	104.0
118.76593	152.0
118.83255	116.0
118.859215	148.0
118.885254	148.0
118.921539	228.0
118.987747	184.0
119.048698	764.0
119.08268	692.0
119.14798	92.0
119.180573	64.0
119.19796	312.0
119.214584	184.0
119.265327	48.0
119.290871	160.0
119.313148	140.0
119.332718	204.0
119.367508	128.0
119.413177	124.0
119.513245	76.0
119.531914	160.0
119.560059	172.0
119.576355	100.0
119.604645	44.0
119.628593	44.0
119.784775	144.0
119.831131	140.0
119.94445	204.0
120.006485	148.0
120.048431	152.0
120.081673	1116.0
120.124748	148.0
120.176956	156.0
120.216965	164.0
120.420921	224.0
120.439766	176.0
120.494835	152.0
120.534729	268.0
120.583969	176.0
120.616753	164.0
120.695457	144.0
120.723885	104.0
120.758873	164.0
120.833252	144.0
120.855125	120.0
120.903267	192.0
121.064537	616.0
121.087677	312.0
121.10907	120.0
121.140427	204.0
121.16259	200.0
121.184006	176.0
121.212036	160.0
121.277786	164.0
121.418106	108.0
121.433456	96.0
121.490486	152.0
121.581245	352.0
121.611176	296.0
121.681419	196.0
121.716545	112.0
121.792633	160.0
121.854927	160.0
121.8703	108.0
121.90107	188.0
121.942818	136.0
122.006569	112.0
122.061668	196.0
122.097816	168.0
122.195702	172.0
122.230911	144.0
122.252914	152.0
122.27932	68.0
122.30835	128.0
122.365173	164.0
122.380585	148.0
122.395996	240.0
122.435631	152.0
122.466469	184.0
122.517136	128.0
122.547974	128.0
122.5634	80.0
122.626205	148.0
122.66037	36.0
122.686821	168.0
122.702255	152.0
122.818939	184.0
122.861046	208.0
122.930962	180.0
122.955925	164.0
123.012749	156.0
123.038788	192.0
123.080086	164.0
123.103836	180.0
123.126801	220.0
123.185555	156.0
123.221657	256.0
123.301094	164.0
123.345909	148.0
123.37822	152.0
123.399918	196.0
123.503853	152.0
123.605621	352.0
123.658737	212.0
123.694786	236.0
123.722931	100.0
123.767212	252.0
123.858009	192.0
123.962135	220.0
124.010941	184.0
124.035271	204.0
124.074097	556.0
124.112869	148.0
124.128387	176.0
124.180832	216.0
124.214882	52.0
124.275719	236.0
124.294754	156.0
124.344032	136.0
124.405724	148.0
124.441246	384.0
124.461716	92.0
124.532295	196.0
124.607819	164.0
124.687813	152.0
124.720612	180.0
124.752274	172.0
124.784203	184.0
124.805634	76.0
124.832314	172.0
124.868164	168.0
124.931503	208.0
124.971779	200.0
125.02256	200.0
125.029709	104.0
125.037865	172.0
125.077049	124.0
125.136078	248.0
125.195045	144.0
125.248497	168.0
125.273003	120.0
125.308647	56.0
125.326469	176.0
125.395554	100.0
125.413383	64.0
125.460197	148.0
125.544922	176.0
125.640831	132.0
125.663147	204.0
125.689919	132.0
125.750175	160.0
125.805977	128.0
125.890823	180.0
125.913155	148.0
125.935486	176.0
125.955589	48.0
126.045715	180.0
126.112	168.0
126.239433	148.0
126.277451	252.0
126.342316	120.0
126.382469	228.0
126.490013	76.0
126.525833	144.0
126.568367	180.0
126.633316	208.0
126.65123	68.0
126.691551	124.0
126.747566	80.0
126.765488	176.0
126.790138	160.0
126.837212	176.0
126.882042	56.0
126.911194	200.0
126.946167	260.0
127.030052	112.0
127.054161	5144.0
127.101845	204.0
127.133263	60.0
127.155701	164.0
127.198349	88.0
127.254471	64.0
127.289192	164.0
127.330818	104.0
127.348289	108.0
127.386978	80.0
127.413933	168.0
127.452126	56.0
127.467857	76.0
127.49482	48.0
127.591476	132.0
127.649933	228.0
127.672424	180.0
127.710655	272.0
127.733421	528.0
127.766891	156.0
127.823143	132.0
127.845642	188.0
127.866791	196.0
127.91317	84.0
127.931747	188.0
127.981728	132.0
128.009552	204.0
128.053879	1876.0
128.100067	124.0
128.147797	108.0
128.179993	236.0
128.210464	192.0
128.275833	52.0
128.404144	216.0
128.453445	152.0
128.481049	164.0
128.535202	164.0
128.555511	148.0
128.625473	224.0
128.679657	100.0
128.709	52.0
128.781265	176.0
128.837387	152.0
128.861923	228.0
128.912308	68.0
128.939423	208.0
128.971069	160.0
128.986893	184.0
129.015747	196.0
129.054016	1436.0
129.122543	228.0
129.171524	160.0
129.332962	60.0
129.36615	212.0
129.489197	136.0
129.550354	168.0
129.6931	132.0
129.73204	180.0
129.75885	148.0
129.808731	152.0
129.833679	164.0
129.860886	164.0
129.956161	152.0
129.983398	172.0
130.01062	112.0
130.026505	160.0
130.064835	5996.0
130.0914	184.0
130.115646	164.0
130.171799	136.0
130.192245	148.0
130.20813	208.0
130.244476	36.0
130.264923	204.0
130.353531	128.0
130.387619	180.0
130.430496	176.0
130.573303	196.0
130.641388	184.0
130.684937	224.0
130.705978	128.0
130.75676	232.0
130.776535	196.0
130.806122	192.0
130.824326	196.0
130.888077	152.0
130.913132	88.0
130.944031	252.0
130.969437	304.0
131.013351	128.0
131.049637	608.0
131.070541	1552.0
131.14212	156.0
131.149155	80.0
131.156021	204.0
131.179703	164.0
131.197937	156.0
131.252655	192.0
131.291428	148.0
131.327911	176.0
131.357574	128.0
131.403198	216.0
131.457962	152.0
131.480774	96.0
131.49675	148.0
131.530991	164.0
131.599472	176.0
131.709091	176.0
131.745636	160.0
131.791336	148.0
131.846451	168.0
131.901031	128.0
131.951324	240.0
132.026428	180.0
132.080856	1404.0
132.191498	148.0
132.244125	108.0
132.264725	64.0
132.292191	168.0
132.319672	152.0
132.363174	116.0
132.4021	124.0
132.438751	176.0
132.516632	168.0
132.555649	164.0
132.626724	108.0
132.679352	160.0
132.743561	172.0
132.798599	148.0
132.81694	172.0
132.853653	140.0
132.871994	152.0
132.916672	196.0
132.94313	184.0
132.989029	92.0
133.016571	68.0
133.065933	796.0
133.123337	120.0
133.176224	152.0
133.310562	136.0
133.347336	192.0
133.363419	196.0
133.430084	188.0
133.56427	160.0
133.618668	132.0
133.686539	184.0
133.708923	208.0
133.772919	164.0
133.82811	136.0
133.911011	32.0
133.967239	156.0
134.000854	148.0
134.023895	128.0
134.060608	468.0
134.096313	10716.0
134.165176	80.0
134.189835	188.0
134.204651	104.0
134.229034	52.0
134.258362	128.0
134.266342	156.0
134.328217	120.0
134.353592	144.0
134.480499	104.0
134.565918	52.0
134.621323	172.0
134.636642	108.0
134.658279	72.0
134.674438	172.0
134.785782	144.0
134.819992	48.0
134.845413	148.0
134.89859	64.0
134.988754	204.0
135.04425	136.0
135.078293	916.0
135.098175	1180.0
135.13678	176.0
135.157608	144.0
135.17601	168.0
135.208527	184.0
135.246445	52.0
135.303635	136.0
135.336258	176.0
135.405304	188.0
135.45163	256.0
135.472473	168.0
135.500275	68.0
135.52034	232.0
135.591766	208.0
135.670532	60.0
135.717361	116.0
135.762207	44.0
135.792358	132.0
135.82019	172.0
135.838303	168.0
135.875854	160.0
135.91803	184.0
135.942825	196.0
136.010452	172.0
136.026703	100.0
136.047592	96.0
136.076263	536.0
136.111343	736.0
136.146164	160.0
136.219437	112.0
136.247314	160.0
136.277527	140.0
136.296112	212.0
136.430908	160.0
136.521591	148.0
136.577408	132.0
136.635559	60.0
136.691406	196.0
136.712341	52.0
136.777512	144.0
136.842697	136.0
136.868317	36.0
137.008057	152.0
137.033676	164.0
137.056915	284.0
137.079636	144.0
137.209686	224.0
137.264435	104.0
137.290085	196.0
137.306412	48.0
137.346054	136.0
137.469269	212.0
137.528061	236.0
137.693832	108.0
137.729874	212.0
137.87793	204.0
137.905441	224.0
137.939163	52.0
138.002289	256.0
138.025665	104.0
138.065414	68.0
138.090637	1332.0
138.116867	268.0
138.149628	304.0
138.190094	228.0
138.313431	152.0
138.364929	160.0
138.404724	168.0
138.433945	100.0
138.459534	200.0
138.549377	152.0
138.596802	128.0
138.65802	192.0
138.798386	172.0
138.845276	232.0
138.948486	116.0
139.018143	156.0
139.075546	248.0
139.101181	188.0
139.180847	200.0
139.241898	172.0
139.312363	140.0
139.331161	172.0
139.465103	256.0
139.488495	168.0
139.497665	160.0
139.506378	144.0
139.515549	96.0
139.561493	248.0
139.592056	160.0
139.695541	200.0
139.72377	96.0
139.848495	148.0
139.914398	124.0
139.935593	152.0
139.989746	68.0
140.013306	148.0
140.037231	148.0
140.053345	200.0
140.07077	140.0
140.093384	136.0
140.114578	76.0
140.145218	176.0
140.195526	136.0
140.234756	84.0
140.279663	164.0
140.336136	136.0
140.444611	180.0
140.496506	128.0
140.522461	188.0
140.555481	88.0
140.600327	168.0
140.664413	208.0
140.692383	156.0
140.843506	84.0
140.90419	140.0
141.057007	372.0
141.070679	412.0
141.183121	184.0
141.250076	180.0
141.304489	120.0
141.335236	120.0
141.392029	140.0
141.477249	196.0
141.515121	288.0
141.60025	128.0
141.683273	144.0
141.730667	184.0
141.761475	116.0
141.962097	120.0
142.010406	192.0
142.063889	1512.0
142.150375	144.0
142.166977	172.0
142.193085	128.0
142.240921	184.0
142.266663	132.0
142.323654	48.0
142.347397	240.0
142.386719	244.0
142.454269	152.0
142.475647	132.0
142.524628	176.0
142.575455	164.0
142.683548	100.0
142.701431	136.0
142.739471	116.0
142.787033	40.0
142.80368	140.0
142.839371	216.0
142.903595	176.0
142.936905	140.0
142.959183	136.0
143.002792	176.0
143.045181	232.0
143.072617	27232.0
143.134476	32.0
143.171249	100.0
143.210297	124.0
143.234497	164.0
143.251175	128.0
143.27887	32.0
143.311584	136.0
143.344589	96.0
143.360153	184.0
143.382065	232.0
143.38858	216.0
143.423294	316.0
143.454529	72.0
143.503204	240.0
143.528305	192.0
143.600449	124.0
143.637726	200.0
143.653259	160.0
143.701752	308.0
143.730103	172.0
143.753357	312.0
143.773178	120.0
143.794403	232.0
143.852493	136.0
143.872574	424.0
143.910446	228.0
143.944382	308.0
143.965637	296.0
143.979797	328.0
143.998627	272.0
144.022675	200.0
144.081421	236208.0
144.167923	160.0
144.232193	140.0
144.256653	172.0
144.280853	408.0
144.310806	212.0
144.350586	88.0
144.382858	208.0
144.39917	176.0
144.417313	52.0
144.445679	168.0
144.474136	3536.0
144.501419	352.0
144.523041	136.0
144.561279	112.0
144.617401	48.0
144.625229	92.0
144.653488	128.0
144.683075	120.0
144.714355	92.0
144.759796	68.0
144.791412	204.0
144.808456	108.0
144.843246	180.0
144.878891	76.0
144.905823	280.0
144.950714	276.0
144.9888	172.0
145.009857	208.0
145.027191	228.0
145.083817	35536.0
145.128372	164.0
145.137863	208.0
145.161087	108.0
145.210968	132.0
145.239334	76.0
145.258835	60.0
145.291199	72.0
145.309647	52.0
145.337219	204.0
145.382065	108.0
145.412918	48.0
145.43779	80.0
145.457947	148.0
145.478241	116.0
145.501541	100.0
145.527573	104.0
145.562698	152.0
145.601959	296.0
145.618423	160.0
145.639832	196.0
145.666672	68.0
145.691269	44.0
145.711487	48.0
145.734131	76.0
145.766739	96.0
145.785477	96.0
145.8022	236.0
145.83255	84.0
145.860962	316.0
145.879852	92.0
145.910828	232.0
145.927856	272.0
145.952682	316.0
145.991547	172.0
146.014877	88.0
146.041489	232.0
146.08905	2140.0
146.140396	216.0
146.2117	260.0
146.240021	76.0
146.262711	84.0
146.268066	88.0
146.299545	212.0
146.318268	128.0
146.345428	176.0
146.362289	156.0
146.389465	112.0
146.411652	40.0
146.438416	124.0
146.518845	96.0
146.629684	104.0
146.669037	172.0
146.697983	124.0
146.730927	92.0
146.788788	92.0
146.80954	152.0
146.843536	132.0
146.888153	176.0
146.912018	44.0
146.945572	44.0
146.97345	108.0
146.994949	156.0
147.054153	240.0
147.096436	456.0
147.188141	32.0
147.204285	108.0
147.227341	104.0
147.290787	32.0
147.31604	120.0
147.355286	148.0
147.382278	188.0
147.407394	180.0
147.476837	60.0
147.61705	52.0
147.679932	72.0
147.706543	44.0
147.896347	108.0
147.943695	192.0
148.013901	240.0
148.03569	60.0
148.076736	532.0
148.113342	132.0
148.222214	48.0
148.418549	104.0
148.453354	136.0
148.542236	168.0
148.68782	132.0
148.767914	44.0
148.878723	188.0
149.052017	296.0
149.094742	160.0
149.115372	324.0
149.180893	72.0
149.251404	140.0
149.439438	64.0
149.565231	76.0
149.633392	240.0
149.662613	180.0
149.742966	84.0
149.940308	156.0
150.020752	72.0
150.089859	440.0
150.203644	192.0
150.296341	148.0
150.352142	152.0
150.489166	148.0
150.530212	128.0
150.557541	164.0
150.64856	60.0
150.801849	152.0
150.831177	136.0
150.875183	156.0
151.071671	208.0
151.112411	128.0
151.295959	132.0
151.486984	56.0
151.530228	128.0
151.572723	44.0
151.690369	156.0
151.776169	208.0
151.972397	60.0
152.031403	176.0
152.070297	296.0
152.10582	892.0
152.18103	64.0
152.269424	112.0
152.362762	84.0
152.552002	88.0
152.643509	200.0
152.67247	192.0
152.738876	104.0
152.761017	84.0
152.849594	112.0
152.90126	140.0
152.99234	80.0
153.072891	292.0
153.092117	212.0
153.125305	48.0
153.204132	144.0
153.241089	40.0
153.276566	200.0
153.462906	84.0
153.564011	132.0
153.670944	184.0
153.714493	88.0
153.867523	156.0
153.887283	96.0
153.911728	84.0
153.958893	92.0
154.062729	296.0
154.082108	284.0
154.154053	76.0
154.282578	84.0
154.304825	64.0
154.341904	132.0
154.443298	212.0
154.599167	116.0
154.616486	68.0
154.646194	96.0
154.69075	124.0
154.893799	192.0
154.91362	48.0
154.953247	140.0
155.015198	52.0
155.06012	4436.0
155.134171	172.0
155.16832	144.0
155.295334	52.0
155.516159	140.0
155.575729	112.0
155.617935	36.0
155.647736	72.0
155.71727	124.0
155.826569	52.0
155.856873	164.0
155.8862	136.0
155.923477	56.0
155.953308	140.0
156.006683	76.0
156.08168	1860.0
156.149719	96.0
156.236786	60.0
156.259171	140.0
156.286423	80.0
156.500595	48.0
156.532959	64.0
156.577789	88.0
156.617645	192.0
156.660812	60.0
156.699844	104.0
156.737228	40.0
156.787064	32.0
156.819458	108.0
156.891754	44.0
156.988419	176.0
156.994705	136.0
157.038864	152.0
157.068207	296.0
157.087784	1728.0
157.219833	180.0
157.228073	96.0
157.237	164.0
157.313339	36.0
157.443176	60.0
157.503128	208.0
157.538101	104.0
157.625534	156.0
157.733002	56.0
157.865509	124.0
157.90303	80.0
157.931854	84.0
158.038116	216.0
158.061584	456.0
158.095627	5296.0
158.143219	340.0
158.2108	160.0
158.248352	44.0
158.356033	36.0
158.481293	164.0
158.58905	188.0
158.634171	92.0
158.672287	156.0
158.726929	80.0
158.824738	148.0
158.862366	84.0
158.915054	132.0
158.93512	36.0
159.06813	176.0
159.097748	1016.0
159.153488	40.0
159.173584	168.0
159.21376	68.0
159.301666	188.0
159.344376	184.0
159.520294	184.0
159.541718	92.0
159.683731	124.0
159.832153	104.0
160.008331	52.0
160.076279	424.0
160.112091	208.0
160.300507	140.0
160.389908	220.0
160.59227	148.0
160.671158	100.0
160.807419	44.0
160.991714	40.0
161.054703	112.0
161.082474	184.0
161.375793	156.0
161.51741	152.0
161.641373	124.0
161.694519	176.0
161.765396	100.0
161.836288	52.0
162.008499	308.0
162.090469	8092.0
162.206161	84.0
162.238586	76.0
162.292358	76.0
162.312637	68.0
162.48764	124.0
162.566299	124.0
162.726212	116.0
162.776993	180.0
162.931931	104.0
163.07399	432.0
163.093155	1104.0
163.236938	140.0
163.70517	40.0
163.738266	28.0
163.763733	168.0
163.840164	120.0
163.891113	104.0
164.078568	292.0
164.108551	344.0
164.262253	152.0
164.291397	72.0
164.385788	100.0
164.501862	184.0
164.745804	116.0
165.042267	188.0
165.088364	352.0
165.205948	192.0
165.249435	192.0
165.277588	200.0
165.328766	204.0
165.702606	160.0
165.741043	128.0
166.010193	60.0
166.083084	464.0
166.124222	640.0
166.144638	172.0
166.178345	72.0
166.241913	184.0
166.290146	160.0
166.415619	184.0
166.487518	132.0
166.615112	108.0
166.759842	96.0
166.79068	176.0
166.947525	100.0
167.001526	92.0
167.07457	740.0
167.119858	124.0
167.194489	192.0
167.32576	152.0
167.990646	40.0
168.080276	2112.0
168.282272	140.0
168.305511	40.0
168.468231	112.0
168.566406	48.0
168.641357	144.0
168.664612	80.0
168.731827	180.0
168.876633	84.0
169.021515	240.0
169.087662	1236.0
169.213043	76.0
169.282959	44.0
169.430588	108.0
169.700134	68.0
169.827194	148.0
169.905014	108.0
170.013992	136.0
170.053284	212.0
170.095612	988.0
170.132462	212.0
170.245041	188.0
170.283997	84.0
170.520416	124.0
170.559402	156.0
170.608795	148.0
170.788223	200.0
171.094955	560.0
171.204651	56.0
171.373962	76.0
171.483414	184.0
171.74675	256.0
171.921555	148.0
171.973755	60.0
172.072174	568.0
172.112473	380.0
172.527527	124.0
172.681793	144.0
172.930359	136.0
173.040298	164.0
173.129318	172.0
173.328415	180.0
173.35939	112.0
173.716431	176.0
173.740051	164.0
173.758408	124.0
174.026108	152.0
174.091873	836.0
174.349213	80.0
174.430695	132.0
174.58844	80.0
175.08136	148.0
175.259689	80.0
175.399368	116.0
175.481094	100.0
175.507462	140.0
175.557556	120.0
175.916382	176.0
175.963913	80.0
176.105576	240.0
176.595474	144.0
176.67482	152.0
177.087891	400.0
177.183121	92.0
177.305008	116.0
177.660309	128.0
177.710724	112.0
177.779709	128.0
178.086426	272.0
178.132843	80.0
178.177994	48.0
178.273026	168.0
178.398575	92.0
178.491623	136.0
178.515564	152.0
178.807526	120.0
178.936478	208.0
179.024933	96.0
179.08403	260.0
179.311554	136.0
179.492828	124.0
179.692871	80.0
179.860992	132.0
179.895706	188.0
180.101288	5744.0
180.148499	108.0
180.20549	28.0
180.331085	64.0
180.507538	132.0
180.833908	160.0
180.912476	184.0
181.092422	1064.0
181.096451	1180.0
181.216843	116.0
181.275787	164.0
181.372284	36.0
181.879227	108.0
181.970505	196.0
182.060074	332.0
182.094864	1492.0
182.155807	92.0
182.314331	204.0
182.820038	156.0
183.100006	728.0
183.214584	240.0
183.514862	200.0
183.692856	124.0
183.738724	128.0
183.976212	212.0
184.049103	256.0
184.078354	224.0
184.104675	344.0
184.513824	60.0
184.643616	100.0
184.981827	224.0
185.083588	204.0
185.109177	112.0
185.342026	192.0
185.672745	168.0
185.756836	160.0
186.043457	132.0
186.113281	260.0
186.272583	196.0
186.454636	56.0
186.786331	176.0
187.010971	160.0
187.093842	140.0
187.374344	52.0
188.004211	96.0
188.064255	176.0
188.107925	164.0
188.189835	148.0
188.244446	196.0
188.70076	184.0
188.804657	132.0
189.101349	160.0
189.122025	276.0
189.152145	164.0
189.242477	120.0
189.269867	36.0
189.627609	196.0
189.88446	88.0
190.05928	128.0
190.119644	164.0
190.347488	104.0
190.374954	48.0
190.405151	96.0
190.58371	48.0
191.051102	196.0
191.133636	120.0
191.472229	124.0
191.5466	40.0
191.775299	172.0
191.813889	164.0
191.849731	104.0
192.020676	200.0
192.100388	1532.0
192.235184	180.0
192.790924	96.0
193.089951	548.0
193.128235	232.0
193.20845	56.0
193.374466	48.0
193.662415	64.0
193.914551	160.0
193.964447	184.0
193.994934	88.0
194.030975	144.0
194.067017	220.0
194.116333	8100.0
194.164062	60.0
194.186264	96.0
194.231674	96.0
194.263916	108.0
194.310791	76.0
194.441498	72.0
194.530319	132.0
194.606842	100.0
194.658035	40.0
194.758011	116.0
194.916367	84.0
194.960831	172.0
194.989548	96.0
195.060181	204.0
195.11174	1088.0
195.191559	64.0
195.227707	44.0
195.285233	176.0
195.46138	44.0
195.505905	116.0
195.547653	176.0
195.634903	196.0
195.663742	68.0
195.817703	52.0
196.018295	84.0
196.082062	140.0
196.109894	904.0
196.242371	172.0
196.379181	112.0
196.509033	32.0
196.693222	276.0
196.768585	48.0
197.105087	252.0
197.132767	188.0
197.249084	60.0
197.31897	160.0
197.534302	32.0
197.65181	168.0
197.828125	140.0
197.920517	176.0
198.11232	584.0
198.143768	164.0
198.326736	172.0
198.368774	188.0
198.612732	112.0
198.927017	168.0
199.118576	232.0
199.158905	96.0
199.320206	188.0
199.575989	44.0
199.637848	88.0
199.83757	72.0
199.983902	164.0
200.11058	120.0
200.209122	64.0
200.620499	132.0
200.786865	80.0
201.012543	164.0
201.131073	168.0
201.472763	68.0
201.896744	136.0
202.111465	84.0
202.258896	108.0
202.86792	136.0
203.018188	116.0
203.084732	148.0
203.185547	56.0
203.219589	112.0
203.250793	124.0
203.432877	128.0
203.662445	152.0
203.733459	196.0
203.878372	204.0
204.080231	564.0
204.239441	180.0
204.354797	196.0
204.780228	188.0
205.083618	272.0
205.15921	40.0
205.261856	148.0
205.712631	108.0
205.788498	196.0
206.097702	1636.0
206.117722	1260.0
206.155334	128.0
206.178207	80.0
206.232513	124.0
206.361145	184.0
206.444077	68.0
206.870377	68.0
207.100311	600.0
207.147064	148.0
207.681305	100.0
207.810394	48.0
207.945267	128.0
208.008408	192.0
208.067368	112.0
208.110947	1528.0
208.149933	196.0
208.200775	152.0
208.399567	100.0
208.42485	40.0
208.493805	144.0
208.689285	56.0
208.798553	88.0
208.876205	180.0
209.002792	180.0
209.083374	256.0
209.118805	1100.0
209.186981	224.0
209.362625	92.0
209.405823	192.0
209.4375	168.0
209.466309	44.0
209.601715	128.0
209.96936	60.0
210.119446	852.0
210.169754	88.0
210.299606	40.0
210.391983	108.0
210.519028	144.0
210.585449	60.0
210.608551	140.0
210.854141	92.0
210.917725	116.0
211.021805	132.0
211.091095	124.0
211.126236	376.0
211.195312	192.0
211.236633	236.0
211.276245	188.0
211.400711	120.0
211.455704	28.0
211.559906	108.0
211.65036	112.0
211.678619	48.0
211.704681	172.0
211.739136	80.0
211.768387	52.0
211.811844	160.0
211.843704	96.0
211.866882	180.0
211.965393	164.0
211.995758	216.0
212.020233	220.0
212.068542	232.0
212.127716	46336.0
212.203735	52.0
212.229843	68.0
212.263962	44.0
212.301651	76.0
212.32486	44.0
212.378677	164.0
212.398743	92.0
212.432327	140.0
212.451065	148.0
212.523453	156.0
212.554031	120.0
212.597549	68.0
212.623672	60.0
212.664749	116.0
212.710739	40.0
212.745575	180.0
212.864624	56.0
212.884949	56.0
212.908188	60.0
212.931412	88.0
212.990234	96.0
213.04216	96.0
213.130081	3848.0
213.188126	188.0
213.221939	96.0
213.248703	76.0
213.274261	44.0
213.407974	44.0
213.448685	60.0
213.501038	64.0
213.559204	72.0
213.771576	136.0
213.797775	64.0
213.893814	140.0
213.989883	48.0
214.03064	68.0
214.132858	752.0
214.339401	108.0
214.515686	148.0
214.554108	144.0
214.567719	120.0
214.610474	56.0
214.647293	64.0
214.808792	144.0
214.855469	60.0
215.088913	88.0
215.126862	100.0
215.275772	80.0
215.402573	116.0
215.503616	160.0
215.57666	120.0
215.804657	156.0
216.021072	92.0
216.492294	112.0
217.089813	480.0
217.371735	116.0
217.615356	76.0
217.765121	76.0
218.093552	1532.0
218.235306	128.0
218.452927	72.0
218.479401	128.0
218.50589	112.0
218.626526	68.0
218.729538	144.0
218.86496	48.0
218.885574	228.0
218.959198	72.0
219.101257	1280.0
219.188965	124.0
219.259689	88.0
219.604645	60.0
219.628235	136.0
219.65184	140.0
219.881973	180.0
220.069397	204.0
220.108719	1768.0
220.209702	36.0
220.230362	92.0
220.256958	56.0
220.351486	128.0
220.741638	40.0
220.806702	56.0
220.879517	52.0
220.942764	84.0
221.061127	52.0
221.116501	1084.0
221.206146	168.0
221.434143	196.0
221.493378	72.0
221.626694	64.0
221.863785	100.0
222.087357	324.0
222.125626	824.0
222.172211	148.0
222.299805	68.0
222.424454	140.0
222.648468	136.0
222.697617	56.0
222.869919	112.0
223.094345	284.0
223.125549	336.0
223.280151	68.0
223.538956	40.0
223.681824	192.0
223.794937	224.0
223.887253	96.0
224.012344	224.0
224.039154	52.0
224.077896	124.0
224.127701	9312.0
224.238007	60.0
224.369965	52.0
224.647308	116.0
224.888992	128.0
225.077896	116.0
225.129593	1748.0
225.223404	52.0
225.321991	32.0
225.468399	48.0
226.084686	56.0
226.143967	532.0
226.329926	68.0
226.352432	132.0
226.712891	108.0
226.893204	104.0
226.971161	72.0
227.085114	116.0
227.148132	204.0
227.169098	180.0
227.466171	92.0
227.493195	164.0
228.087967	120.0
228.112015	136.0
228.623322	56.0
228.689529	148.0
228.846069	140.0
229.093033	108.0
229.123154	76.0
229.59639	120.0
229.68988	56.0
229.876938	252.0
230.094116	608.0
230.285065	108.0
230.719635	192.0
231.031128	176.0
231.100616	1472.0
231.18425	68.0
231.342819	48.0
232.110321	1376.0
232.546188	84.0
233.047256	76.0
233.08931	400.0
233.118362	1292.0
234.125778	1844.0
234.370819	184.0
234.522598	84.0
235.041626	132.0
235.129349	552.0
235.578522	136.0
235.658401	76.0
236.113525	264.0
236.136398	492.0
236.836182	64.0
237.089783	160.0
237.146423	156.0
237.179352	192.0
237.561844	132.0
237.682312	32.0
238.081375	180.0
238.116455	104.0
238.15181	248.0
238.465408	128.0
238.797455	88.0
239.119431	172.0
239.146881	148.0
239.323685	52.0
239.924469	192.0
240.115631	116.0
240.168076	96.0
240.294556	124.0
240.439575	132.0
240.553772	120.0
240.612427	212.0
241.162292	48.0
241.38179	164.0
241.700394	216.0
241.759186	200.0
242.098999	104.0
242.118607	116.0
242.654358	180.0
243.02655	36.0
243.120895	148.0
244.112335	472.0
244.347	160.0
244.427887	148.0
244.496353	72.0
244.561707	180.0
244.711136	64.0
245.117035	788.0
246.094254	316.0
246.125778	1080.0
246.179779	56.0
246.315903	144.0
246.473404	116.0
246.529648	64.0
246.554657	96.0
246.842255	92.0
246.864151	52.0
246.982986	80.0
247.051804	36.0
247.133286	404.0
247.402313	96.0
247.582291	124.0
247.674744	116.0
247.715454	116.0
247.759323	72.0
247.859573	108.0
247.915985	200.0
248.029602	80.0
248.105301	288.0
248.141052	1980.0
248.33609	36.0
248.417648	156.0
248.499207	76.0
248.521179	72.0
248.659241	112.0
248.838165	76.0
248.93277	140.0
249.110611	380.0
249.147018	1144.0
249.189926	104.0
249.312485	100.0
249.664581	68.0
249.840714	80.0
249.872177	60.0
249.922516	48.0
250.064133	148.0
250.123184	436.0
250.155304	368.0
250.240417	108.0
250.946167	128.0
251.11525	312.0
251.147186	220.0
251.488754	112.0
252.139114	312.0
252.904755	128.0
253.069366	76.0
253.107361	120.0
253.132706	108.0
253.433609	236.0
253.503326	52.0
254.080399	200.0
254.115982	112.0
254.801071	96.0
255.020325	92.0
255.105209	216.0
255.233322	64.0
256.119659	156.0
256.175385	104.0
257.112793	120.0
257.610901	56.0
257.834564	72.0
257.987976	52.0
258.089935	292.0
258.128387	156.0
258.560516	132.0
258.919098	68.0
258.983154	124.0
259.106262	380.0
259.595276	156.0
259.885284	68.0
260.142456	2148.0
260.439331	88.0
260.490723	80.0
260.551758	48.0
261.142731	488.0
261.32016	56.0
261.62912	80.0
262.120056	512.0
262.149719	264.0
262.344299	156.0
262.421661	68.0
262.637726	184.0
262.876465	84.0
263.034607	116.0
263.121429	268.0
263.130127	136.0
263.153198	232.0
263.399506	80.0
264.137634	428.0
264.460052	44.0
264.683441	188.0
264.897186	132.0
265.062439	104.0
265.11142	176.0
265.138153	248.0
265.337463	140.0
265.681702	44.0
266.118317	324.0
266.152954	496.0
266.353668	68.0
266.733826	120.0
267.114288	168.0
267.163788	148.0
267.33551	164.0
267.379211	76.0
267.501526	48.0
267.631744	80.0
267.924866	100.0
268.134399	220.0
268.166656	176.0
268.501801	128.0
268.655121	152.0
268.958588	80.0
269.098969	144.0
270.08493	168.0
270.124298	272.0
270.426147	64.0
270.498169	164.0
270.625824	48.0
270.825592	128.0
271.041809	176.0
271.661469	80.0
272.114349	36.0
272.916046	184.0
273.054138	156.0
273.116089	180.0
273.725494	76.0
273.876984	124.0
273.939575	136.0
274.121033	492.0
274.371277	192.0
274.480072	72.0
274.720825	152.0
275.070618	240.0
275.125763	180.0
275.688263	64.0
275.767578	64.0
275.846893	68.0
276.065125	176.0
276.13559	928.0
276.253632	148.0
276.786499	120.0
277.106415	184.0
277.112946	128.0
277.143005	748.0
277.162872	516.0
277.523224	128.0
278.117096	120.0
278.147949	792.0
278.401428	64.0
279.065979	124.0
279.149261	384.0
279.22229	204.0
279.35199	96.0
279.576843	76.0
279.941101	128.0
280.041016	68.0
280.128143	708.0
280.276001	84.0
280.420837	216.0
280.724213	116.0
281.097839	36.0
281.142914	280.0
281.157532	144.0
281.163666	164.0
282.147095	324.0
283.049988	124.0
283.137054	132.0
283.34137	80.0
283.502197	176.0
283.572571	120.0
285.328156	40.0
285.388672	60.0
285.469391	56.0
285.862976	88.0
286.144012	112.0
286.175995	44.0
286.253448	112.0
286.320801	176.0
286.694733	68.0
287.139771	164.0
287.547974	88.0
287.986908	68.0
288.137299	544.0
288.263916	172.0
288.487	84.0
288.88266	84.0
289.131256	152.0
289.674774	100.0
290.117828	232.0
290.569763	164.0
291.072083	96.0
291.122955	444.0
291.3302	84.0
292.133698	208.0
292.190308	224.0
292.615723	140.0
293.140289	360.0
293.21524	176.0
293.477722	172.0
293.518646	56.0
293.979156	64.0
294.095215	88.0
294.145508	1436.0
294.238586	52.0
294.279541	100.0
294.662079	184.0
294.788483	236.0
295.031342	148.0
295.160675	304.0
295.513397	48.0
295.622894	84.0
295.882019	108.0
296.033661	92.0
296.151062	72.0
296.203094	168.0
296.904114	160.0
297.765533	120.0
298.012878	68.0
298.164062	136.0
298.339355	88.0
298.648834	96.0
298.86557	68.0
299.1409	132.0
299.209747	108.0
299.44046	164.0
300.181396	120.0
300.246918	132.0
300.284851	184.0
300.498718	128.0
300.729919	136.0
301.016479	148.0
301.223694	204.0
303.019135	252.0
303.158783	180.0
303.435028	80.0
304.128845	136.0
304.263489	132.0
304.656647	100.0
305.163361	208.0
305.317047	124.0
305.344879	172.0
305.417908	104.0
305.477051	44.0
305.744965	48.0
305.937378	152.0
306.148346	684.0
306.343842	60.0
306.58078	116.0
307.146027	340.0
307.292084	176.0
307.861053	88.0
308.007751	116.0
308.118958	200.0
308.161591	836.0
308.280273	64.0
308.427063	28.0
308.916595	92.0
309.162811	364.0
309.991455	44.0
310.142151	172.0
310.174255	76.0
310.601501	68.0
311.161926	328.0
311.440399	164.0
311.900696	188.0
312.156982	292.0
312.526672	64.0
312.590027	140.0
312.646332	84.0
313.168579	196.0
313.561981	80.0
314.161407	172.0
315.238281	136.0
315.779175	148.0
317.472046	84.0
317.720306	56.0
318.15329	160.0
318.202972	104.0
319.229858	108.0
319.297424	36.0
319.856049	140.0
320.166412	1072.0
320.561218	40.0
320.628937	144.0
321.160187	712.0
321.791779	52.0
321.916779	128.0
322.163452	180.0
323.003265	52.0
323.114166	132.0
323.176758	432.0
323.908875	84.0
324.109497	80.0
324.158936	628.0
324.744019	44.0
324.79425	108.0
325.170593	220.0
325.443817	164.0
325.745483	176.0
326.173981	1284.0
327.176025	540.0
327.313538	124.0
327.709747	192.0
327.835876	104.0
327.922363	60.0
327.962006	124.0
328.073761	116.0
328.179962	104.0
328.549805	92.0
328.972015	60.0
329.029785	92.0
329.195374	144.0
330.334351	144.0
331.601654	128.0
332.007721	100.0
332.247101	144.0
333.583496	48.0
334.008942	104.0
334.132629	156.0
334.605743	160.0
335.090118	92.0
335.181213	188.0
335.246826	192.0
336.184021	108.0
337.186066	396.0
337.261414	36.0
337.305298	56.0
337.393005	52.0
337.506348	60.0
337.937958	116.0
338.172028	1716.0
339.173035	516.0
339.414062	176.0
339.832184	28.0
339.993652	100.0
340.125763	228.0
340.184875	120.0
340.313019	48.0
341.172699	68.0
341.249908	72.0
341.327118	72.0
341.356537	80.0
341.672852	92.0
342.062927	84.0
342.239655	28.0
342.431152	88.0
342.751648	76.0
343.049286	64.0
343.116516	60.0
343.197632	156.0
343.348816	68.0
343.488983	40.0
343.909637	196.0
344.533691	72.0
346.031494	140.0
346.07962	196.0
347.747803	116.0
348.523956	188.0
348.557373	144.0
349.498108	160.0
349.624634	112.0
349.885193	180.0
350.384247	216.0
350.678619	68.0
352.335419	56.0
352.692291	152.0
353.082977	92.0
353.188934	244.0
353.247559	108.0
353.629211	168.0
353.67038	60.0
353.812653	100.0
353.958649	184.0
354.072784	92.0
354.100952	172.0
354.165985	180.0
354.214111	232.0
354.400665	120.0
354.453094	100.0
354.661346	120.0
354.816681	56.0
354.879486	112.0
354.912048	112.0
354.955414	188.0
355.037903	144.0
355.077362	108.0
355.104736	156.0
355.200378	31164.0
355.265747	188.0
355.304199	60.0
355.351654	136.0
355.394257	64.0
355.465546	36.0
355.495575	92.0
355.556854	60.0
355.584534	68.0
355.634705	56.0
355.698608	96.0
355.739532	64.0
355.779297	44.0
355.837311	88.0
355.930206	76.0
355.959473	48.0
355.98642	232.0
356.088745	244.0
356.118774	124.0
356.203094	6988.0
356.284058	52.0
356.312622	100.0
356.406586	52.0
356.494476	56.0
356.55722	92.0
356.584656	120.0
356.64856	40.0
356.723724	68.0
356.787659	80.0
356.844849	56.0
356.911713	52.0
357.035828	24.0
357.118561	120.0
357.206848	988.0
357.333832	120.0
357.479706	44.0
357.803406	52.0
357.946503	84.0
358.041046	72.0
358.136383	160.0
358.191284	52.0
358.227234	184.0
358.266632	108.0
358.315613	64.0
358.366425	124.0
358.515472	152.0
358.549225	108.0
358.615967	96.0
358.647217	108.0
358.703766	148.0
358.752777	56.0
358.782928	64.0
358.955048	92.0
359.108276	72.0
359.556183	36.0
359.590149	28.0
359.782654	152.0
359.982758	52.0
360.111176	72.0
361.226227	68.0
361.275391	112.0
361.366211	80.0
362.210419	132.0
362.945618	52.0
363.973907	104.0
364.927612	100.0
365.049286	120.0
366.625305	44.0
366.89975	48.0
368.838989	48.0
369.324585	52.0
369.550293	76.0
369.707184	32.0
370.078491	72.0
370.377197	136.0
370.434631	104.0
370.61087	104.0
370.867645	48.0
371.036285	88.0
373.040222	44.0
374.406128	84.0
374.710449	152.0
374.99173	60.0
375.161346	64.0
375.72052	64.0
376.006073	88.0
376.442291	44.0
377.184082	68.0
377.489502	100.0
378.209106	76.0
379.592194	72.0
381.125458	20.0
382.140259	80.0
382.525513	64.0
382.953827	96.0
384.049072	112.0
385.153687	92.0
389.191315	116.0
394.348022	68.0
395.566284	88.0
396.917267	84.0
397.143311	80.0
399.697784	64.0
404.042755	88.0
407.998474	56.0
410.91687	72.0
411.215485	48.0
412.196808	52.0
413.264282	116.0
413.422089	44.0
419.449402	72.0
428.71225	104.0
431.151184	76.0
431.217316	56.0
443.982208	72.0
446.115173	60.0
452.510895	84.0
462.711975	32.0
463.65863	64.0
464.764984	56.0
466.431274	56.0
472.113831	84.0
479.629333	100.0
486.290802	116.0
487.445801	52.0
489.812744	72.0
492.781708	52.0
497.129913	60.0
498.826569	88.0
502.585358	136.0
506.497131	68.0
513.603577	36.0
514.217224	108.0
515.924683	32.0
526.813232	108.0
532.32312	80.0
533.448792	68.0
533.595886	80.0
534.787292	116.0
537.330994	104.0
539.224243	108.0
539.876099	36.0
545.2724	88.0
556.187866	96.0
556.63855	108.0
560.905701	84.0
561.01886	48.0
561.896057	44.0
564.214905	40.0
568.027039	60.0
568.885925	52.0
573.952881	40.0
574.582458	100.0
579.176331	52.0
581.290588	52.0
582.952087	40.0
598.075562	80.0
599.780396	100.0
600.40448	56.0
601.009338	64.0
609.347534	48.0
615.400635	76.0
615.440125	56.0
617.876709	76.0
618.430969	116.0
628.015442	68.0
628.604126	56.0
644.011902	64.0
648.256531	84.0
650.772461	116.0
651.199036	144.0
653.216919	100.0
657.251892	48.0
660.224915	68.0
669.38501	136.0
671.436035	68.0
675.185425	76.0
680.922607	52.0
682.949585	88.0
684.521301	112.0
685.302612	96.0
712.695618	92.0
715.163147	200.0
715.881836	232.0
720.54364	128.0
727.452026	68.0
731.209167	84.0
731.704407	132.0
738.276489	44.0
741.660278	68.0
743.607422	156.0
746.954468	72.0
747.264526	108.0
747.683533	100.0
757.19397	132.0
758.794006	68.0
759.633057	84.0
761.136841	188.0
764.335938	80.0
767.850586	152.0
785.873779	52.0
793.373657	112.0
795.797302	172.0
800.323486	160.0
801.635925	156.0
804.80603	116.0
805.263428	164.0
805.828369	216.0
806.105225	160.0
808.463318	60.0
811.32373	148.0
812.985596	168.0
816.132568	132.0
822.313416	192.0
826.622375	156.0
829.296875	160.0
830.013489	144.0
846.67334	188.0
849.780273	136.0
850.244507	40.0
853.177795	172.0
858.779541	104.0
859.648804	144.0
861.09082	152.0
862.171631	80.0
862.341125	188.0
864.095398	144.0
865.201477	52.0
865.863159	120.0
867.515503	200.0
868.524536	156.0
872.911194	108.0
875.011719	172.0
878.53595	116.0
879.362	172.0
881.210327	108.0
881.700745	232.0
883.131531	180.0
884.220154	160.0
884.362244	80.0
884.516113	56.0
888.047546	164.0
888.409363	20.0
896.424133	164.0
897.49707	124.0
899.883667	164.0
901.867004	116.0
901.914795	40.0
902.016418	176.0
903.140564	180.0
910.038147	196.0
910.314331	172.0
912.838196	56.0
913.024658	100.0
915.323425	52.0
916.781189	84.0
921.735474	256.0
924.141968	152.0
926.400146	84.0
930.020203	208.0
930.378357	136.0
930.779053	112.0
934.687561	168.0
936.81842	156.0
937.951843	112.0
938.153015	48.0
938.463928	148.0
938.799316	176.0
940.812805	232.0
940.971558	140.0
943.109619	72.0
943.830994	132.0
944.399719	156.0
945.819275	156.0
945.984558	132.0
949.900269	48.0
956.665955	124.0
957.096924	76.0
957.207764	84.0
958.230225	160.0
961.905701	96.0
964.982239	216.0
968.03894	144.0
968.441467	172.0
969.699219	156.0
971.90625	192.0
974.980713	128.0
975.832275	144.0
977.269043	148.0
978.656982	172.0
978.918518	140.0
980.301453	220.0
980.800049	196.0
981.853699	140.0
982.271606	76.0
983.20752	100.0
984.131348	120.0
986.249146	168.0
986.324158	120.0
987.843628	136.0
988.394165	200.0
988.844788	148.0
991.312195	124.0
991.356079	192.0
996.400818	196.0
997.670288	240.0
997.789734	184.0
1000.986084	232.0
1001.237976	164.0
1001.634766	164.0
1002.939087	96.0
1003.052551	112.0
1004.080261	168.0
1004.458679	280.0
1005.531311	152.0
1006.181519	164.0
1006.295166	220.0
1006.427734	128.0
1006.876099	140.0
1008.103943	100.0
1008.606323	160.0
1009.185608	156.0
1009.650452	168.0
1013.41687	116.0
1013.670288	196.0
1015.217041	160.0
1016.27002	168.0
1016.77771	184.0
1016.866577	68.0
1017.329895	52.0
1017.971191	128.0
1018.269653	140.0
1020.188599	160.0
1020.748108	180.0
1022.663025	172.0
1025.190186	148.0
1025.8479	240.0
1026.855347	148.0
1027.799438	120.0
1028.348267	104.0
1029.267578	188.0
1029.478271	184.0
1033.614136	200.0
1034.695801	40.0
1035.489868	224.0
1036.598145	160.0
1037.412109	152.0
1038.264893	160.0
1038.944824	140.0
1041.114258	204.0
1041.165649	164.0
1041.647339	136.0
1041.711548	132.0
1041.936401	112.0
1042.199829	160.0
1042.354004	160.0
1043.126221	132.0
1043.716797	196.0
1044.17334	80.0
1044.630005	216.0
1045.588745	220.0
1046.554321	160.0
1046.695923	164.0
1048.609253	152.0
1049.363525	188.0
1050.272705	124.0
1051.227539	188.0
1052.402344	56.0
1053.429199	128.0
1053.681152	100.0
1053.73645	204.0
1054.172241	196.0
1055.284058	176.0
1056.674561	160.0
1057.515747	188.0
1057.839478	248.0
1058.318481	180.0
1059.17334	192.0
1060.534058	144.0
1061.811279	136.0
1061.876099	160.0
1062.32373	128.0
1063.089355	100.0
1064.036987	152.0
1064.21875	60.0
1064.316162	200.0
1064.465454	180.0
1064.738281	116.0
1065.894531	172.0
1066.785034	144.0
1067.357056	228.0
1067.636719	132.0
1067.909912	168.0
1069.250122	160.0
1069.386841	176.0
1070.317749	232.0
1070.955933	192.0
1071.705078	152.0
1072.135254	72.0
1072.252441	148.0
1073.791138	140.0
1074.404297	140.0
1075.219971	128.0
1075.369995	140.0
1076.852051	372.0
1077.100342	148.0
1077.825439	148.0
1078.289429	124.0
1078.511719	164.0
1078.936523	104.0
1079.041138	88.0
1079.394287	204.0
1080.735107	184.0
1081.173584	140.0
1081.880493	164.0
1082.253662	132.0
1083.452148	248.0
1083.648804	188.0
1085.228271	68.0
1085.647949	216.0
1086.172729	132.0
1086.605591	44.0
1086.658081	172.0
1087.261841	44.0
1087.563721	64.0
1088.482788	104.0
1089.041016	168.0
1089.113281	200.0
1089.244629	168.0
1089.934448	224.0
1091.012329	96.0
1091.354248	204.0
1092.071045	132.0
1092.623535	220.0
1092.992065	184.0
1093.354004	76.0
1094.084595	164.0
1095.810059	148.0
1096.376831	168.0
1096.594238	84.0
1098.137085	148.0
1098.89563	148.0
1099.529175	172.0
1099.812988	152.0
1100.400513	244.0
1101.668457	124.0
1101.846191	184.0
1102.798462	196.0
1104.525146	140.0
1105.999756	152.0
1106.674927	120.0
1107.098755	192.0
1107.489502	236.0
1107.575562	196.0
1109.086304	300.0
1109.875244	156.0
1110.039429	172.0
1110.127197	48.0
1110.458862	212.0
1110.684326	152.0
1110.8302	160.0
1112.130737	208.0
1112.695068	220.0
1113.305908	80.0
1113.93689	164.0
1115.445312	36.0
1116.010376	160.0
1117.393799	136.0
1117.486938	260.0
1119.590332	44.0
1119.770142	180.0
1120.056641	232.0
1120.136475	200.0
1121.609131	144.0
1121.769165	120.0
1122.809326	236.0
1123.103394	184.0
1123.196167	52.0
1125.044556	36.0
1125.498535	40.0
1125.558594	268.0
1125.779053	188.0
1126.547119	208.0
1126.847778	68.0
1126.994751	188.0
1127.776611	104.0
1128.041138	204.0
1128.157593	196.0
1129.941772	164.0
1132.393188	80.0
1132.594116	120.0
1133.136719	36.0
1133.217163	152.0
1133.532104	168.0
1133.612427	212.0
1133.981079	80.0
1134.289429	36.0
1134.541016	204.0
1134.973267	148.0
1136.254272	168.0
1137.468872	108.0
1137.623291	116.0
1138.093262	100.0
1139.033447	212.0
1139.759033	144.0
1139.826294	176.0
1139.960693	244.0
1140.666382	120.0
1141.210938	188.0
1141.661377	156.0
1141.742065	56.0
1141.863159	100.0
1142.414673	120.0
1144.224976	96.0
1144.878174	168.0
1145.565186	60.0
1145.645996	172.0
1145.721558	244.0
1145.857788	84.0
1146.616333	144.0
1146.966797	84.0
1147.5802	112.0
1147.924072	152.0
1148.446899	220.0
1149.401367	144.0
1149.556641	208.0
1149.880493	44.0
1150.481323	180.0
1152.068237	212.0
1152.588501	236.0
1153.575195	148.0
1154.258057	104.0
1155.069702	128.0
1155.516113	208.0
1155.665039	188.0
1156.625977	168.0
1156.978027	136.0
1157.573853	64.0
1157.716064	80.0
1158.989502	148.0
1159.619751	116.0
1159.951904	136.0
1160.731567	88.0
1160.901001	148.0
1161.328247	136.0
1161.613159	76.0
1162.040527	212.0
1162.094849	176.0
1162.495239	88.0
1162.848145	152.0
1164.932617	144.0
1165.245117	56.0
1165.578125	164.0
1166.794678	92.0
1166.978271	140.0
1167.637817	180.0
1168.59021	104.0
1169.134521	188.0
1169.379517	180.0
1169.713135	184.0
1169.937744	128.0
1170.148804	92.0
1170.754761	68.0
1171.388184	108.0
1171.871948	100.0
1173.343994	152.0
1176.83728	164.0
1177.055786	136.0
1177.547485	136.0
1179.522095	104.0
1180.315186	272.0
1180.588623	164.0
1180.752808	176.0
1182.07312	152.0
1182.120972	116.0
1183.517334	200.0
1183.565308	168.0
1183.989868	100.0
1184.496704	200.0
1184.859741	132.0
1185.935669	164.0
1186.127563	116.0
1187.101074	184.0
1187.409668	236.0
1187.780151	176.0
1188.260254	204.0
1189.10437	60.0
1189.385742	96.0
1190.085938	156.0
1190.800171	160.0
1191.246582	176.0
1191.885498	248.0
1192.084839	120.0
1192.531494	104.0
1194.711304	212.0
1194.835083	212.0
1195.110352	64.0
1196.424927	152.0
1196.583252	96.0
1198.043213	180.0
1198.601318	196.0
1199.317993	172.0
1199.407593	120.0
1200.02124	204.0
1200.103882	200.0
1200.324585	140.0
1200.503906	136.0
1201.296143	144.0
1201.469482	128.0
1204.023438	212.0
1204.348022	176.0
1204.893799	136.0
1205.228394	168.0
1206.084961	32.0
1206.158325	172.0
1206.483276	164.0
1206.683716	124.0
1207.22998	120.0
1207.354492	184.0
1207.990845	112.0
1208.475098	176.0
1208.553345	160.0
1208.862549	212.0
1209.450806	168.0
1209.727661	140.0
1210.260864	84.0
1210.503174	56.0
1211.652954	152.0
1211.895386	88.0
1211.97168	176.0
1212.747803	144.0
1213.080566	108.0
1214.148315	196.0
1214.300903	100.0
1214.529785	128.0
1215.383057	168.0
1215.632812	156.0
1216.090942	152.0
1216.569824	136.0
1216.625366	208.0
1216.810791	216.0
1216.896118	72.0
1217.18689	160.0
1217.368286	208.0
1218.01416	116.0
1218.27124	224.0
1218.806152	208.0
1219.035522	224.0
1219.195557	156.0
1219.376099	76.0
1219.855591	132.0
1220.377075	84.0
1220.724731	168.0
1220.877686	132.0
1221.3927	164.0
1221.656738	152.0
1222.067139	104.0
1222.338501	160.0
1222.543457	128.0
1223.187622	176.0
1223.26416	120.0
1223.840454	200.0
1224.315552	244.0
1224.977173	196.0
1225.625122	216.0
1226.308105	148.0
1226.391724	180.0
1226.621704	136.0
1226.670532	112.0
1226.887207	224.0
1227.067871	164.0
1227.12085	140.0
1227.374756	176.0
1227.535034	48.0
1227.800049	224.0
1228.399902	56.0
1228.769653	112.0
1229.851318	116.0
1230.172363	140.0
1230.270142	164.0
1230.472534	196.0
1231.087036	152.0
1231.345459	148.0
1231.994995	112.0
1232.099854	112.0
1232.588867	152.0
1232.707642	160.0
1232.844849	172.0
1234.329468	56.0
1234.791016	172.0
1235.210571	160.0
1235.37854	204.0
1235.672363	120.0
1235.987183	160.0
1236.225098	172.0
1236.274048	108.0
1238.185303	228.0
1238.514526	144.0
1239.320068	164.0
1239.97876	176.0
1240.315308	188.0
1240.918091	140.0
1241.689453	108.0
1241.829712	156.0
1242.229614	196.0
1242.440063	304.0
1243.015381	156.0
1243.331177	96.0
1243.731201	160.0
1243.850464	104.0
1245.19165	132.0
1245.247803	48.0
1245.514648	236.0
1245.830811	136.0
1246.020508	180.0
1246.427979	76.0
1246.984863	132.0
1247.165894	136.0
1247.396118	188.0
1248.832275	192.0
1249.029175	148.0
1249.725708	204.0
1250.037231	220.0
1250.422363	160.0
1250.682739	236.0
1250.957275	144.0
1253.239136	140.0
1253.838135	120.0
1254.598755	204.0
1254.916626	164.0
1254.980103	204.0
1255.642944	196.0
1255.953247	188.0
1256.616333	192.0
1258.161987	200.0
1258.296143	104.0
1258.486694	128.0
1259.212769	172.0
1259.708496	52.0
1259.821533	44.0
1260.217163	100.0
1260.542236	140.0
1260.888428	232.0
1262.585205	216.0
1262.719604	160.0
1263.61084	128.0
1264.474121	152.0
1265.026245	192.0
1265.151978	136.0
1265.351929	144.0
1265.45105	144.0
1265.50769	160.0
1265.656372	168.0
1265.840454	128.0
1265.918335	112.0
1266.031006	164.0
1266.284546	144.0
1266.442383	188.0
1267.172119	132.0
1267.523193	216.0
1267.753052	136.0
1267.845215	136.0
1268.398071	204.0
1268.561157	124.0
1268.610718	188.0
1269.00061	108.0
1269.114136	144.0
1269.241699	124.0
1269.454468	140.0
1269.908325	172.0
1271.093018	172.0
1271.391113	108.0
1271.540161	136.0
1272.711426	152.0
1273.038086	156.0
1273.819336	180.0
1273.977661	152.0
1274.082153	100.0
1274.146118	140.0
1274.302368	200.0
1274.409058	188.0
1275.069824	148.0
1275.148071	164.0
1275.53186	92.0
1276.065063	48.0
1276.319214	160.0
1276.825928	140.0
1276.889893	176.0
1278.697021	144.0
1278.89624	140.0
1279.828857	136.0
1280.028198	212.0
1280.263184	200.0
1280.747559	180.0
1281.132202	152.0
1282.322144	192.0
1282.714233	156.0
1283.391479	64.0
1283.762207	152.0
1285.588501	196.0
1285.738281	144.0
1285.859619	208.0
1285.916748	172.0
1286.380737	172.0
1286.437866	160.0
1286.587769	108.0
1287.244629	200.0
1287.365967	196.0
1287.915894	204.0
1288.180176	164.0
1289.073242	124.0
1289.888306	140.0
1290.359863	116.0
1291.282349	208.0
1291.976196	176.0
1292.663086	44.0
1293.006592	172.0
1293.521851	128.0
1294.660278	60.0
1294.824951	132.0
1295.097168	132.0
1295.240356	108.0
1295.677368	336.0
1296.458374	228.0
1296.637573	140.0
1296.80957	152.0
1296.918701	128.0
1297.375854	80.0
1297.727173	144.0
1297.834717	184.0
1298.372559	140.0
1298.979004	224.0
1299.182983	72.0
1299.993774	84.0
1300.697144	168.0
1300.768921	168.0
1300.92688	112.0
1301.249878	120.0
1301.587402	112.0
1301.817139	124.0
1302.520996	200.0
1303.217896	148.0
1303.268188	44.0
1303.908813	188.0
1303.977417	132.0
1304.209595	272.0
1304.38208	184.0
1304.748779	128.0
1304.971558	40.0
1305.395874	144.0
1305.467773	132.0
1306.927979	212.0
1307.719604	68.0
1307.921143	168.0
1308.29541	200.0
1308.986572	128.0
1309.231445	168.0
1309.44751	128.0
1309.915649	140.0
1310.982056	204.0
1311.187134	184.0
1311.392822	76.0
1311.522583	144.0
1311.702759	176.0
1311.789185	108.0
1312.05603	128.0
1312.2146	168.0
1312.841919	120.0
1313.274658	84.0
1313.454956	184.0
1313.56311	120.0
1314.212402	136.0
1314.407227	148.0
1314.623779	60.0
1314.739258	144.0
1315.713623	260.0
1315.814697	128.0
1316.479004	176.0
1316.876221	140.0
1317.338501	152.0
1317.613037	196.0
1318.039307	160.0
1318.118774	84.0
1318.227173	108.0
1318.660767	124.0
1318.718628	120.0
1318.776367	176.0
1319.14502	128.0
1319.571655	116.0
1319.665649	160.0
1319.889771	180.0
1320.157349	96.0
1320.663574	116.0
1320.837158	144.0
1321.104736	132.0
1321.329102	36.0
1321.625732	164.0
1322.052612	152.0
1322.226318	144.0
1322.406494	204.0
1322.863281	208.0
1323.304932	176.0
1323.384521	132.0
1323.471436	184.0
1324.043457	220.0
1324.195557	128.0
1324.717041	132.0
1325.108276	192.0
1325.245972	168.0
1325.361938	200.0
1325.702515	140.0
1326.253296	172.0
1327.014404	156.0
1327.24646	192.0
1327.297241	84.0
1327.946411	136.0
1328.073242	176.0
1328.225464	108.0
1328.414062	44.0
1329.937866	164.0
1330.097534	68.0
1330.257324	148.0
1330.4823	224.0
1331.506104	192.0
1331.644165	148.0
1332.130859	40.0
1332.610352	184.0
1332.726562	176.0
1333.03894	172.0
1333.344238	56.0
1333.431396	96.0
1333.664062	52.0
1333.918457	152.0
1334.318237	108.0
1334.550903	208.0
1334.681763	192.0
1335.605347	120.0
1335.738525	328.0
1336.325562	176.0
1336.602051	176.0
1336.747559	124.0
1336.958618	184.0
1337.038696	168.0
1337.220581	156.0
1337.293457	160.0
1338.057739	148.0
1338.516479	140.0
1338.669434	156.0
1338.866699	192.0
1339.081909	224.0
1339.266602	92.0
1339.638062	52.0
1340.02417	132.0
1340.135986	280.0
1340.559937	168.0
1340.806641	172.0
1341.102661	228.0
1341.164551	172.0
1341.496338	200.0
1341.656738	52.0
1341.809814	48.0
1342.043091	92.0
1342.130615	48.0
1342.23999	156.0
1342.356689	152.0
1342.59729	84.0
1342.885254	180.0
1343.355835	232.0
1343.800903	160.0
1344.005127	160.0
1344.537842	136.0
1345.289673	160.0
1345.530518	144.0
1345.844482	60.0
1346.304565	132.0
1346.428711	80.0
1346.819458	204.0
1347.356323	136.0
1347.44397	68.0
1347.590088	152.0
1347.984741	120.0
1348.313599	160.0
1348.591309	64.0
1348.876343	204.0
1348.934814	156.0
1349.344238	176.0
1349.753662	220.0
1349.856079	144.0
1349.987671	108.0
1350.338745	240.0
1350.594727	140.0
1351.2677	136.0
1351.362793	200.0
1351.611572	228.0
1351.860352	128.0
1352.101929	172.0
1352.226318	224.0
1352.284912	264.0
1352.394653	288.0
1352.599609	140.0
1352.870483	112.0
1352.943604	192.0
1353.112061	56.0
1353.500122	160.0
1354.100586	204.0
1354.152832	156.0
1354.364258	136.0
1354.605957	148.0
1354.799683	188.0
1355.865356	104.0
1356.144775	164.0
1356.250488	232.0
1356.599243	112.0
1356.83374	176.0
1356.894897	152.0
1357.486328	60.0
1357.581665	156.0
1357.831055	144.0
1357.948364	124.0
1358.821289	192.0
1359.173462	144.0
1359.334961	144.0
1359.635742	188.0
1359.900024	152.0
1360.795532	168.0
1361.104004	160.0
1361.192017	204.0
1361.427002	44.0
1361.493164	200.0
1361.830933	144.0
1362.43335	176.0
1362.543579	128.0
1362.734497	164.0
1363.035767	184.0
1363.124023	124.0
1363.175415	172.0
1363.373779	144.0
1363.513428	204.0
1363.645752	176.0
1364.02063	184.0
1364.326294	204.0
1364.645264	228.0
1364.785156	100.0
1364.910156	152.0
1365.123413	64.0
1365.373413	32.0
1365.579346	100.0
1365.714844	200.0
1365.807373	116.0
1365.903076	88.0
1366.292969	204.0
1366.668091	200.0
1366.727051	200.0
1366.89624	208.0
1367.293579	64.0
1367.771118	160.0
1368.257935	140.0
1368.802734	172.0
1368.982056	240.0
1369.074585	144.0
1369.583374	176.0
1369.767578	160.0
1369.966431	144.0
1370.032959	148.0
1370.224243	140.0
1370.592651	184.0
1370.819336	180.0
1370.924316	124.0
1371.145386	160.0
1371.32959	200.0
1371.381226	144.0
1371.528564	132.0
1371.587524	28.0
1371.693726	192.0
1371.779297	132.0
1371.926636	36.0
1372.162598	88.0
1372.609253	180.0
1373.615356	208.0
1374.323608	188.0
1374.559692	80.0
1374.91394	152.0
1375.201782	200.0
1375.293091	116.0
1375.386353	120.0
1375.570801	124.0
1375.795532	200.0
1375.858765	148.0
1376.050659	148.0
1376.257446	148.0
1376.353394	168.0
1376.688232	172.0
1377.380005	176.0
1378.236938	176.0
1378.510376	232.0
1378.584229	116.0
1378.761597	184.0
1378.850342	188.0
1378.990723	136.0
1379.13855	136.0
1379.293701	156.0
1379.692993	184.0
1379.907349	228.0
1379.966431	144.0
1380.299194	160.0
1380.631958	104.0
1380.816895	152.0
1381.149658	128.0
1381.445557	212.0
1381.674927	168.0
1381.859863	132.0
1382.437012	200.0
1382.503662	168.0
1382.651611	104.0
1383.383545	144.0
1383.939697	112.0
1384.095215	112.0
1384.213623	140.0
1384.435791	152.0
1384.509888	96.0
1384.85791	132.0
1384.917236	220.0
1385.650513	224.0
1386.258179	200.0
1386.999268	192.0
1387.77771	216.0
1388.163208	152.0
1388.593384	124.0
1388.660156	128.0
1389.045776	172.0
1389.579956	256.0
1389.668945	204.0
1389.780273	204.0
1389.943481	52.0
1390.03125	180.0
1390.143921	164.0
1390.397705	192.0
1390.967651	200.0
1391.019653	80.0
1391.220093	164.0
1391.53186	192.0
1392.556641	140.0
1392.623535	188.0
1392.772095	176.0
1392.950317	92.0
1393.128662	172.0
1393.254883	76.0
1393.33667	88.0
1394.161377	136.0
1394.25061	44.0
1394.339722	164.0
1394.728394	156.0
1395.261475	152.0
1395.387817	160.0
1395.588623	188.0
1395.863281	152.0
1396.577637	156.0
1396.718994	188.0
1397.165283	220.0
1397.485229	156.0
1397.641479	156.0
1397.790283	136.0
1398.13269	120.0
1398.847168	116.0
1399.010986	140.0
1399.21936	172.0
1399.815063	96.0
1399.934204	180.0
1400.098022	184.0
1400.18396	156.0
1400.425659	48.0
1400.952271	164.0
1401.304688	44.0
1401.490967	180.0
1401.606445	180.0
1401.818115	200.0
1402.265991	168.0
1402.429932	164.0
1402.705811	176.0
1402.877197	140.0
1402.93689	88.0
1403.056152	140.0
1403.302002	140.0
1403.660034	112.0
1404.390869	196.0
1404.681885	68.0
1404.741455	64.0
1404.797241	196.0
1405.029297	220.0
1405.107056	100.0
1405.733765	160.0
1405.905396	112.0
1406.644409	108.0
1406.898193	184.0
1407.033081	160.0
1407.592529	172.0
1407.816528	184.0
1407.906128	196.0
1408.80249	144.0
1408.93689	184.0
1409.531494	176.0
1409.945679	44.0
1410.37915	124.0
1410.678101	108.0
1410.985718	172.0
1411.291138	132.0
1411.395874	148.0
1411.777222	180.0
1411.994141	188.0
1412.487793	112.0
1413.084595	208.0
1413.467773	140.0
1413.587524	216.0
1413.767212	136.0
1414.231201	72.0
1414.298584	96.0
1414.350952	80.0
1414.800049	216.0
1415.818359	144.0
1416.02063	88.0
1416.327637	156.0
1416.402588	124.0
1416.885132	180.0
1417.001831	76.0
1417.212769	168.0
1417.871094	116.0
1418.036011	168.0
1418.485718	156.0
1418.658081	172.0
1418.71814	152.0
1418.860596	180.0
1418.942993	180.0
1419.415405	192.0
1419.550293	148.0
1419.872803	140.0
1420.116821	192.0
1420.302002	232.0
1420.457153	204.0
1420.486816	184.0
1420.780396	148.0
1420.8479	120.0
1421.77832	204.0
1421.943481	140.0
1422.138672	108.0
1422.197754	96.0
1422.821655	180.0
1423.016968	168.0
1423.103394	176.0
1423.610107	156.0
1423.722778	92.0
1423.775269	112.0
1423.86145	196.0
1424.098267	96.0
1424.331055	172.0
1424.939575	116.0
1425.032593	84.0
1425.127441	72.0
1425.300293	156.0
1425.480591	132.0
1426.244873	168.0
1426.870239	204.0
1427.00647	184.0
1427.152344	208.0
1427.329712	152.0
1427.856934	156.0
1427.968994	144.0
1428.074219	180.0
1428.613281	128.0
1428.811401	232.0
1429.518677	48.0
1429.593994	48.0
1429.646606	124.0
1429.744507	60.0
1430.196045	156.0
1430.790771	152.0
1431.137085	176.0
1431.385498	124.0
1431.64917	164.0
1431.85022	184.0
1432.01062	204.0
1432.364624	184.0
1432.839233	68.0
1433.208374	136.0
1433.547485	128.0
1433.826294	200.0
1433.954468	168.0
1434.350586	228.0
1434.451904	228.0
1434.542358	192.0
1434.670532	172.0
1434.919312	184.0
1435.703491	96.0
1436.744385	212.0
1436.880249	88.0
1437.114136	52.0
1437.785645	200.0
1437.838501	92.0
1438.140381	140.0
1438.430664	256.0
1438.748413	168.0
1439.189697	48.0
1439.589966	180.0
1439.959961	144.0
1440.095947	156.0
1440.160156	204.0
1440.40564	188.0
1441.115723	96.0
1441.327271	164.0
1441.57666	148.0
1441.690063	248.0
1442.067871	64.0
1442.128418	236.0
1442.196411	136.0
1442.264404	88.0
1442.324951	116.0
1442.608154	324.0
1442.733154	216.0
1443.610107	164.0
1443.920288	220.0
1444.253052	152.0
1444.427002	40.0
1444.737183	152.0
1445.100342	176.0
1445.56189	100.0
1445.849121	176.0
1446.129395	144.0
1446.398682	188.0
1446.454956	52.0
1446.71228	120.0
1447.022705	148.0
1447.272583	72.0
1447.476929	132.0
1447.71936	128.0
1448.037354	208.0
1448.154175	48.0
1448.287354	76.0
1448.605469	132.0
1449.340332	116.0
1449.469116	152.0
1449.590454	168.0
1449.885986	216.0
1450.014771	136.0
1450.12085	124.0
1450.401611	240.0
1450.575684	164.0
1450.810669	40.0
1451.675049	144.0
1452.001099	148.0
1452.349976	156.0
1452.403076	184.0
1452.539673	164.0
1452.60791	176.0
1452.84314	144.0
1453.060669	216.0
1453.260376	192.0
1453.457642	132.0
1453.571411	124.0
1453.745972	200.0
1453.912964	124.0
1453.966064	160.0
1454.079956	152.0
1454.224121	188.0
1454.451782	112.0
1454.907227	168.0
1455.522217	144.0
1455.590576	168.0
1455.931885	140.0
1456.008301	68.0
1457.124878	152.0
1457.37561	132.0
1458.021484	184.0
1458.264771	172.0
1458.348267	104.0
1458.485107	96.0
1458.568726	160.0
1458.659912	44.0
1458.81958	176.0
1458.89563	152.0
1458.97168	256.0
1459.876465	188.0
1459.929688	124.0
1460.408813	160.0
1460.50769	108.0
1461.253174	116.0
1461.656494	180.0
1461.953247	152.0
1462.00647	228.0
1462.10144	160.0
1462.409912	60.0
1462.752441	192.0
1462.851318	128.0
1462.92749	156.0
1463.072144	60.0
1463.243408	152.0
1463.264526	208.0
1463.407104	148.0
1463.605103	160.0
1464.016235	144.0
1464.171509	180.0
1464.244751	104.0
1464.298096	32.0
1464.640747	188.0
1465.333984	132.0
1465.433105	224.0
1465.532104	168.0
1465.745728	128.0
1465.821045	164.0
1465.943604	184.0
1466.621826	128.0
1466.751465	184.0
1467.094482	192.0
1467.262207	44.0
1467.330811	188.0
1467.684082	176.0
1467.798462	184.0
1468.207764	208.0
1468.337402	128.0
1468.444092	188.0
1468.600464	160.0
1468.749268	156.0
1468.848389	192.0
1468.970459	176.0
1469.153564	152.0
1469.2146	136.0
1469.313721	132.0
1469.687622	100.0
1470.572754	56.0
1470.893433	192.0
1470.984985	116.0
1471.06311	244.0
1471.19873	180.0
1471.95459	156.0
1472.290527	200.0
1472.500122	164.0
1472.932129	68.0
1473.191895	140.0
1473.321777	96.0
1473.375244	132.0
1473.752563	144.0
1474.124023	184.0
1474.215698	224.0
1474.353271	188.0
1474.804199	40.0
1474.949463	148.0
1475.400391	144.0
1476.4021	212.0
1477.021606	160.0
1477.526489	188.0
1477.946899	148.0
1478.398804	136.0
1479.194702	152.0
1479.401367	120.0
1479.493286	120.0
1480.197632	188.0
1480.496338	180.0
1480.603516	216.0
1480.894531	168.0
1481.039429	216.0
1481.423096	128.0
1481.599243	168.0
1481.683594	48.0
1481.867432	152.0
1482.016846	136.0
1482.078125	204.0
1482.143311	52.0
1482.365479	120.0
1482.58728	136.0
1483.139526	144.0
1483.276367	392.0
1483.758301	216.0
1484.494019	244.0
1484.626953	120.0
1485.002686	156.0
1485.094727	192.0
1485.485962	132.0
1485.593384	172.0
1485.877197	172.0
1486.0	176.0
1486.268555	56.0
1486.951416	96.0
1487.005249	160.0
1487.10498	184.0
1487.642334	120.0
1487.911011	120.0
1488.064575	168.0
1488.333252	184.0
1488.546021	204.0
1488.66687	144.0
1488.970581	40.0
1489.046021	160.0
1489.446777	156.0
1489.892334	212.0
1489.961548	152.0
1490.347534	268.0
1490.776001	120.0
1491.213989	128.0
1491.393311	216.0
1491.606079	224.0
1491.751709	144.0
1491.825928	368.0
1492.107178	192.0
1492.513184	216.0
1492.774658	140.0
1492.843872	112.0
1492.897705	136.0
1493.443726	108.0
1493.505249	168.0
1493.605225	76.0
1493.659058	160.0
1493.866821	208.0
1493.968262	236.0
1494.357666	148.0
1494.697754	144.0
1495.0979	384.0
1495.536499	200.0
1495.659668	40.0
1495.756836	128.0
1496.08313	60.0
1496.340698	184.0
1496.483398	212.0
1496.660522	52.0
1496.902588	200.0
1496.959229	192.0
1497.529907	120.0
1497.985229	136.0
1498.408936	144.0
1498.609253	148.0
1498.871216	156.0
1499.47998	224.0
1499.672607	96.0
1499.911621	180.0
1500.104248	144.0
1500.219971	160.0
1500.304688	156.0
1500.578247	184.0
1500.659424	204.0
1501.206787	176.0
1501.345703	108.0
1501.437256	156.0
1501.785278	160.0
1502.001221	176.0
1502.217163	172.0
1502.425537	172.0
1502.734131	132.0
1502.849854	104.0
1502.965576	204.0
1503.17395	176.0
1503.235596	140.0
1503.467163	172.0
1503.829834	120.0
1504.21582	176.0
END IONS

BEGIN IONS
PEPMASS=282.161
CHARGE=1
MSLEVEL=2
SOURCE_INSTRUMENT=LC-ESI-qTof
FILENAME=p3-D04_GD4_01_18261.mzXML
SEQ=*..*
IONMODE=Positive
ORGANISM=GNPS-NIH-SMALLMOLECULEPHARMACOLOGICALLYACTIVE
NAME=MLS001201741-01!Phentolamine M+H
PI=Dorrestein
DATACOLLECTOR=VP/LMS
SMILES=Cc1ccc(cc1)N(CC2=NCCN2)c3cccc(O)c3
INCHI=N/A
INCHIAUX=N/A
PUBMED=N/A
SUBMITUSER=vphelan
LIBRARYQUALITY=1
SPECTRUMID=CCMSLIB00000084971
USI=mzspec:GNPS:GNPS-NIH-SMALLMOLECULEPHARMACOLOGICALLYACTIVE:accession:CCMSLIB00000084971
SCANS=1531
44.902859	36.0
44.948219	168.0
44.99894	64.0
45.125874	136.0
45.149944	176.0
45.222195	96.0
45.234241	232.0
45.27441	148.0
45.392342	132.0
45.423191	136.0
45.527931	124.0
45.694572	188.0
45.729561	60.0
45.743023	164.0
45.791496	108.0
45.835957	224.0
45.926422	160.0
45.937077	64.0
45.993755	104.0
46.026157	152.0
46.14912	140.0
46.218105	180.0
46.249233	28.0
46.482346	164.0
46.518993	136.0
46.554298	100.0
46.676601	156.0
46.737816	160.0
46.774563	96.0
46.871613	188.0
46.974884	228.0
47.022087	176.0
47.276855	216.0
47.322029	136.0
47.354893	184.0
47.382294	128.0
47.513912	144.0
47.553707	132.0
47.69244	112.0
47.704811	84.0
47.736435	184.0
47.752937	180.0
47.82724	152.0
47.843761	240.0
47.879562	180.0
47.91951	184.0
48.017387	76.0
48.171986	232.0
48.307465	176.0
48.382198	176.0
48.470844	192.0
48.496761	120.0
48.578991	72.0
48.607971	176.0
48.671982	196.0
48.681705	128.0
48.813725	140.0
48.833195	152.0
48.938961	180.0
48.993282	168.0
49.028679	172.0
49.106194	220.0
49.12991	208.0
49.201084	136.0
49.265327	176.0
49.296066	132.0
49.349186	112.0
49.480709	156.0
49.676426	184.0
50.002914	156.0
50.072945	168.0
50.12262	240.0
50.265045	156.0
50.291862	128.0
50.359638	188.0
50.407673	168.0
50.525032	196.0
50.561825	148.0
50.575977	116.0
50.587303	128.0
50.613388	136.0
50.697784	88.0
50.709122	92.0
50.768669	124.0
50.780014	240.0
50.903488	132.0
50.947521	136.0
50.971676	60.0
50.984463	136.0
51.044174	160.0
51.081154	124.0
51.147228	204.0
51.187901	64.0
51.234905	148.0
51.247726	208.0
51.264828	60.0
51.274803	152.0
51.327553	124.0
51.340385	240.0
51.41029	200.0
51.433052	224.0
51.530239	176.0
51.551674	84.0
51.610283	140.0
51.644608	72.0
51.663738	172.0
51.674648	176.0
51.690392	100.0
51.820694	180.0
51.876591	76.0
52.070305	204.0
52.097595	252.0
52.126335	164.0
52.155079	136.0
52.178082	148.0
52.238483	340.0
52.267258	116.0
52.288845	176.0
52.319073	168.0
52.370914	140.0
52.561222	156.0
52.600189	216.0
52.727299	148.0
52.761181	164.0
52.792358	128.0
52.821018	152.0
52.871929	48.0
52.974735	152.0
53.035595	156.0
53.132759	108.0
53.205326	228.0
53.302643	124.0
53.375324	112.0
53.434963	148.0
53.494633	168.0
53.549965	212.0
53.561619	224.0
53.573273	116.0
53.710304	88.0
54.145878	108.0
54.239651	156.0
54.404655	140.0
54.421574	188.0
54.445068	168.0
54.481792	180.0
54.677361	224.0
54.690609	96.0
54.789272	116.0
55.076939	52.0
55.164127	160.0
55.180389	172.0
55.340187	160.0
55.370586	212.0
55.394985	168.0
55.55806	72.0
55.660473	88.0
55.71246	88.0
55.734745	204.0
55.75555	152.0
55.834347	164.0
55.86261	116.0
56.113319	188.0
56.130703	156.0
56.143879	168.0
56.194843	52.0
56.245586	160.0
56.29187	136.0
56.345642	156.0
56.394958	192.0
56.430836	112.0
56.466728	192.0
56.575962	212.0
56.658337	124.0
56.67931	156.0
56.803753	84.0
56.853268	212.0
56.886292	240.0
57.069584	204.0
57.128242	176.0
57.331516	168.0
57.455162	196.0
57.542698	176.0
57.569336	156.0
57.637859	152.0
57.783855	140.0
57.913204	204.0
57.985935	156.0
58.020798	96.0
58.052643	52.0
58.069324	168.0
58.120907	184.0
58.145344	156.0
58.366985	192.0
58.439999	168.0
58.590733	152.0
58.810326	176.0
58.875977	192.0
59.022682	92.0
59.070095	140.0
59.134361	72.0
59.201729	156.0
59.263	156.0
59.278324	192.0
59.341171	128.0
59.404327	224.0
59.602112	136.0
59.638996	128.0
59.67128	140.0
59.74445	168.0
59.763565	176.0
59.788189	192.0
59.832829	216.0
59.993053	220.0
60.011555	208.0
60.022346	88.0
60.113361	180.0
60.213711	176.0
60.340427	212.0
60.535393	164.0
60.554413	152.0
60.58186	152.0
60.628345	120.0
60.653145	188.0
60.668648	208.0
60.696556	140.0
60.716717	136.0
60.79739	84.0
60.813908	212.0
60.839302	160.0
60.91695	112.0
60.966671	180.0
61.058399	160.0
61.091064	184.0
61.176659	180.0
61.22176	216.0
61.412151	160.0
61.556458	232.0
61.603962	80.0
61.713364	224.0
61.835384	168.0
61.8573	92.0
61.902702	180.0
62.106449	200.0
62.162933	184.0
62.191181	144.0
62.266548	128.0
62.376537	180.0
62.503933	100.0
62.609409	40.0
62.666119	124.0
62.942154	144.0
62.965843	356.0
62.997437	136.0
63.043259	180.0
63.18557	48.0
63.264702	140.0
63.416771	36.0
63.51841	164.0
63.563862	172.0
63.629345	236.0
63.642048	148.0
63.775494	112.0
63.851814	148.0
63.955235	128.0
63.977524	160.0
64.014145	204.0
64.095383	48.0
64.368164	168.0
64.433647	164.0
64.595116	64.0
64.625519	116.0
64.735855	172.0
64.7705	228.0
64.84491	44.0
65.038994	228.0
65.069496	192.0
65.117668	176.0
65.170685	128.0
65.284813	140.0
65.376518	120.0
65.500488	140.0
65.590729	124.0
65.655228	204.0
65.668129	200.0
65.702003	144.0
65.761711	220.0
65.819832	372.0
65.96524	156.0
65.989494	144.0
66.18042	140.0
66.227386	240.0
66.334335	60.0
66.374863	124.0
66.522507	100.0
66.589088	116.0
66.663818	188.0
66.729149	208.0
66.748352	236.0
66.810158	176.0
66.867111	132.0
66.891525	80.0
67.008781	76.0
67.090271	44.0
67.138	192.0
67.264229	208.0
67.418365	204.0
67.521362	160.0
67.5868	192.0
67.614616	92.0
67.66864	148.0
67.704666	180.0
67.732506	204.0
67.75708	84.0
67.801323	120.0
67.817711	152.0
67.848862	40.0
67.99321	140.0
68.024399	188.0
68.09008	192.0
68.104858	156.0
68.191948	248.0
68.321854	164.0
68.362991	124.0
68.386032	84.0
68.417305	120.0
68.473289	56.0
68.672722	148.0
68.715614	176.0
68.74202	220.0
68.808968	236.0
68.846024	40.0
68.870796	140.0
69.067497	132.0
69.380486	156.0
69.400383	56.0
69.42691	140.0
69.483307	108.0
69.533089	72.0
69.655968	148.0
69.682549	168.0
69.84214	152.0
69.877075	160.0
69.943642	116.0
70.030228	128.0
70.240257	240.0
70.4673	260.0
70.584305	156.0
70.666267	196.0
70.899033	164.0
71.028137	64.0
71.078468	48.0
71.30014	128.0
71.338799	216.0
71.584457	184.0
71.702385	160.0
71.832489	172.0
71.859215	76.0
72.029724	136.0
72.058037	284.0
72.153091	104.0
72.176758	168.0
72.202126	232.0
72.235954	148.0
72.388283	148.0
72.456039	116.0
72.501793	204.0
72.532295	192.0
72.622169	92.0
72.805466	148.0
72.851334	156.0
72.964752	184.0
73.004303	180.0
73.179573	116.0
73.338005	76.0
73.419846	216.0
73.433495	140.0
73.559761	264.0
73.602448	132.0
73.64856	92.0
73.660515	172.0
73.71006	88.0
73.867355	144.0
74.000847	136.0
74.201309	208.0
74.326523	112.0
74.505089	156.0
74.530861	208.0
74.687309	156.0
74.738922	152.0
74.799156	124.0
74.905922	180.0
74.955055	200.0
75.093803	100.0
75.214592	100.0
75.247391	176.0
75.584229	196.0
75.664062	116.0
75.700424	216.0
75.717743	180.0
76.160034	172.0
76.394707	196.0
76.420799	120.0
76.886078	180.0
76.936699	176.0
77.326508	108.0
77.387779	176.0
77.435059	128.0
77.45433	68.0
77.470093	256.0
77.506889	228.0
77.560356	132.0
77.575241	144.0
77.640114	116.0
77.664673	252.0
77.712036	64.0
77.89814	100.0
77.931519	156.0
77.947334	104.0
78.015884	168.0
78.047531	60.0
78.13723	208.0
78.235786	44.0
78.349533	164.0
78.570641	120.0
78.913277	116.0
79.019402	44.0
79.065407	164.0
79.107887	40.0
79.122055	200.0
79.176949	136.0
79.320465	180.0
79.405579	184.0
79.417992	128.0
79.451645	144.0
79.512032	124.0
79.57061	184.0
79.732254	180.0
79.816147	188.0
79.853157	156.0
80.011528	212.0
80.114822	136.0
80.182533	76.0
80.223534	136.0
80.297081	212.0
80.316261	136.0
80.330536	100.0
80.467949	160.0
80.501694	156.0
80.516167	188.0
80.539383	192.0
80.571587	156.0
80.66983	60.0
80.7342	128.0
81.136307	124.0
81.185501	156.0
81.285698	192.0
81.620079	96.0
81.641663	112.0
81.657845	124.0
81.740601	148.0
81.798195	140.0
81.834206	156.0
81.863014	180.0
81.888229	204.0
82.016159	120.0
82.144188	212.0
82.218163	164.0
82.302826	156.0
82.368027	164.0
82.386093	196.0
82.405968	180.0
82.466805	156.0
82.528877	208.0
82.662727	164.0
82.724266	128.0
82.758667	148.0
82.80394	132.0
82.903587	124.0
82.928955	44.0
82.957962	104.0
83.028679	268.0
83.110313	136.0
83.12664	180.0
83.360901	172.0
83.373627	148.0
83.551819	152.0
83.804901	228.0
83.830406	60.0
83.87233	172.0
83.89238	136.0
84.067482	192.0
84.094856	108.0
84.259209	144.0
84.310371	84.0
84.555443	132.0
84.603035	124.0
84.630501	232.0
84.903809	224.0
84.954903	160.0
85.01178	236.0
85.051308	112.0
85.197235	164.0
85.368172	148.0
85.388405	132.0
85.557693	64.0
85.594521	148.0
85.823013	140.0
86.11644	144.0
86.134911	148.0
86.260567	196.0
86.280899	204.0
86.597336	180.0
86.639755	160.0
86.783417	252.0
86.82901	100.0
86.932907	32.0
87.048004	40.0
87.127869	180.0
87.23008	128.0
87.310036	68.0
87.412354	192.0
87.424538	160.0
87.51757	168.0
87.570595	216.0
87.62648	208.0
87.704758	108.0
87.814156	196.0
88.083549	164.0
88.104103	156.0
88.156418	248.0
88.317207	144.0
88.362106	192.0
88.444443	148.0
88.568031	116.0
88.654213	132.0
88.674828	224.0
88.693573	60.0
88.909271	64.0
88.931793	172.0
89.045479	192.0
89.221085	96.0
89.301941	160.0
89.386597	72.0
89.40918	60.0
89.439301	160.0
89.569862	224.0
89.605019	140.0
89.71244	96.0
90.023773	204.0
90.070992	100.0
90.174911	184.0
90.348885	132.0
90.39521	132.0
90.485146	120.0
90.640465	108.0
90.730446	264.0
90.905945	232.0
90.964783	180.0
91.054291	6244.0
91.082985	196.0
91.133812	56.0
91.166115	124.0
91.211731	120.0
91.291588	36.0
91.327728	144.0
91.518036	120.0
91.575165	216.0
91.67614	168.0
91.773361	180.0
91.843918	196.0
92.01368	180.0
92.057892	500.0
92.091118	248.0
92.118797	240.0
92.311844	136.0
92.496902	160.0
92.662125	180.0
92.917122	176.0
93.003479	164.0
93.033112	2900.0
93.061859	156.0
93.067528	132.0
93.111	52.0
93.143654	104.0
93.164787	120.0
93.187836	204.0
93.247414	164.0
93.399307	220.0
93.491425	96.0
93.713112	76.0
93.749725	88.0
93.861534	156.0
93.984985	196.0
94.036484	268.0
94.071831	188.0
94.458321	180.0
94.541519	176.0
94.586037	144.0
94.626694	164.0
94.653801	104.0
95.052071	376.0
95.124931	40.0
95.164734	88.0
95.190948	124.0
95.206482	140.0
95.297783	140.0
95.330818	268.0
95.344421	140.0
95.587509	164.0
95.616699	148.0
95.690674	88.0
95.730446	252.0
95.908859	96.0
95.932251	132.0
95.949799	184.0
96.055923	124.0
96.144859	96.0
96.183899	236.0
96.232704	84.0
96.3284	208.0
96.416321	172.0
96.840889	128.0
96.891823	108.0
96.93689	196.0
96.971344	172.0
97.025093	172.0
97.160416	88.0
97.195732	168.0
97.276199	168.0
97.323318	140.0
97.568916	172.0
97.602341	136.0
97.705109	192.0
97.810883	128.0
97.856163	64.0
98.003883	132.0
98.113014	120.0
98.181305	192.0
98.404282	200.0
98.461548	184.0
98.478447	160.0
98.514702	132.0
98.799561	68.0
98.841202	176.0
98.955917	196.0
99.021263	164.0
99.043053	176.0
99.104469	136.0
99.150047	68.0
99.334442	120.0
99.934433	168.0
99.982185	144.0
100.029961	156.0
100.416519	112.0
100.584389	92.0
100.606087	148.0
100.646019	136.0
100.723907	156.0
100.755867	132.0
100.831802	208.0
100.927757	112.0
101.368141	148.0
101.404213	40.0
101.522499	68.0
101.538544	112.0
101.608757	152.0
101.831573	200.0
101.851875	264.0
102.121002	204.0
102.151176	188.0
102.231659	280.0
102.512024	164.0
102.684959	172.0
102.797935	264.0
102.828163	200.0
102.929008	176.0
103.027107	144.0
103.048454	184.0
103.17363	116.0
103.240356	172.0
103.652351	92.0
103.874313	168.0
103.888519	116.0
103.93924	204.0
104.050873	324.0
104.103668	160.0
104.445114	96.0
104.489876	80.0
104.51413	156.0
104.656769	252.0
104.689354	240.0
104.772865	152.0
104.980774	76.0
105.035843	112.0
105.070488	584.0
105.111328	120.0
105.170517	132.0
105.219505	160.0
105.250137	172.0
105.319572	52.0
105.415596	192.0
105.507576	112.0
105.656868	168.0
105.676704	100.0
105.703934	132.0
105.865654	124.0
106.043892	112.0
106.068489	160.0
106.160759	48.0
106.213654	96.0
106.324875	168.0
106.390564	100.0
106.431625	84.0
106.456268	132.0
106.521996	168.0
106.554863	292.0
106.581573	156.0
106.676117	184.0
106.719292	132.0
106.799538	176.0
106.955879	140.0
107.047485	860.0
107.273109	188.0
107.293724	108.0
107.370018	184.0
107.673401	220.0
107.745697	212.0
107.791161	188.0
107.824219	132.0
107.993759	260.0
108.020653	188.0
108.068237	216.0
108.088928	140.0
108.175858	172.0
108.457573	136.0
108.530136	136.0
108.565384	132.0
108.601189	228.0
108.68985	48.0
108.708527	128.0
108.745888	164.0
108.795708	68.0
108.835152	160.0
108.884995	160.0
109.032349	164.0
109.067833	228.0
109.267479	192.0
109.354874	112.0
109.415245	36.0
109.543953	184.0
109.738182	264.0
109.779884	36.0
109.948868	168.0
110.074127	224.0
110.187935	180.0
110.226616	92.0
110.435684	172.0
110.85231	204.0
111.04187	228.0
111.184647	196.0
111.294914	116.0
111.502884	104.0
111.561737	192.0
111.757332	156.0
111.940338	132.0
112.041573	156.0
112.08371	144.0
112.197525	164.0
112.305069	144.0
112.334602	148.0
112.528763	172.0
112.64492	68.0
112.733658	112.0
112.775925	60.0
112.816093	196.0
112.983162	196.0
113.080505	168.0
113.252007	136.0
113.300728	60.0
113.334625	100.0
113.601768	168.0
113.79702	104.0
113.835236	76.0
113.862846	60.0
113.884087	244.0
114.007317	136.0
114.034943	80.0
114.04982	164.0
114.296524	68.0
114.317802	188.0
114.430618	68.0
114.526443	108.0
114.569054	108.0
114.642166	216.0
114.777924	148.0
114.835503	124.0
114.857887	168.0
114.890968	188.0
115.01474	176.0
115.051834	500.0
115.089462	136.0
115.228294	124.0
115.380035	148.0
115.44632	140.0
115.544716	180.0
115.60891	172.0
115.664558	80.0
115.775894	132.0
115.810158	116.0
115.869286	248.0
115.895851	164.0
116.050179	100.0
116.217484	212.0
116.258255	236.0
116.318352	88.0
116.50518	224.0
116.58683	248.0
116.793236	168.0
116.939545	160.0
116.956764	60.0
116.984749	140.0
117.029961	180.0
117.057625	416.0
117.124718	184.0
117.314354	212.0
117.328812	192.0
117.361786	168.0
117.389816	144.0
117.436035	204.0
117.583977	160.0
117.601135	160.0
117.637939	144.0
117.696236	208.0
117.942612	204.0
117.979271	180.0
117.996567	156.0
118.011703	168.0
118.038223	240.0
118.064835	23424.0
118.134979	148.0
118.159332	344.0
118.183487	76.0
118.258751	200.0
118.276398	188.0
118.297279	140.0
118.341263	76.0
118.407715	48.0
118.423645	144.0
118.440201	68.0
118.490028	44.0
118.516029	84.0
118.53553	76.0
118.567879	112.0
118.573326	200.0
118.717628	44.0
118.739311	80.0
118.758835	184.0
118.803223	228.0
118.82608	64.0
118.854286	120.0
118.928078	236.0
118.973663	208.0
119.067604	2236.0
119.189552	200.0
119.212585	188.0
119.271271	160.0
119.382156	180.0
119.452759	104.0
119.471336	168.0
119.48526	80.0
119.527901	72.0
119.59008	232.0
119.61496	152.0
119.630196	156.0
119.656326	212.0
119.691162	32.0
119.778275	68.0
119.797882	188.0
119.821564	152.0
119.866608	288.0
119.904648	152.0
119.976585	212.0
120.001602	160.0
120.011353	76.0
120.016945	156.0
120.044624	31812.0
120.077461	152.0
120.105247	40.0
120.140144	52.0
120.187599	224.0
120.221657	224.0
120.244148	140.0
120.264267	212.0
120.32505	72.0
120.401772	196.0
120.465424	96.0
120.718964	44.0
120.74958	72.0
120.802078	56.0
120.926804	176.0
120.948692	56.0
120.996849	76.0
121.045715	2856.0
121.12825	56.0
121.19178	36.0
121.222458	192.0
121.321091	104.0
121.43512	104.0
121.459244	108.0
121.494347	208.0
121.610649	56.0
121.676498	48.0
121.72261	192.0
121.767906	80.0
121.801674	80.0
121.85321	52.0
121.915932	128.0
121.973076	104.0
121.995056	72.0
122.023636	104.0
122.059166	364.0
122.080811	160.0
122.237	136.0
122.453186	192.0
122.842896	124.0
122.86937	128.0
122.946602	136.0
123.063591	164.0
123.193901	168.0
123.346375	136.0
123.392799	128.0
123.503372	240.0
123.536552	128.0
123.675957	128.0
123.737946	160.0
123.786659	84.0
123.842026	148.0
124.332008	140.0
124.423019	256.0
124.454102	184.0
124.765152	56.0
124.831856	120.0
124.92305	180.0
125.214645	160.0
125.432999	220.0
125.557861	104.0
125.582397	188.0
125.635933	192.0
125.693947	120.0
125.903786	156.0
126.013245	48.0
126.299454	152.0
126.320389	124.0
126.592583	220.0
126.61274	152.0
126.636299	216.0
126.655296	64.0
126.74939	60.0
127.056564	184.0
127.23835	160.0
127.319191	212.0
127.339401	32.0
127.368599	156.0
127.462959	156.0
127.609062	68.0
127.669777	180.0
127.780045	204.0
127.802498	116.0
127.856506	88.0
128.060516	460.0
128.39946	140.0
129.00235	84.0
129.043045	160.0
129.070267	332.0
129.257919	160.0
129.334869	148.0
129.559052	188.0
129.579453	176.0
129.629288	60.0
129.726761	80.0
129.826523	48.0
130.001862	136.0
130.064774	360.0
130.241867	160.0
130.387283	188.0
130.537323	156.0
130.63739	216.0
130.908249	108.0
131.042648	160.0
131.081497	160.0
131.147476	88.0
131.224976	156.0
131.300232	120.0
131.398315	300.0
131.762131	160.0
132.040207	124.0
132.220947	208.0
132.236969	100.0
132.417618	200.0
132.445328	172.0
132.468231	152.0
133.048325	168.0
133.071259	136.0
133.195694	164.0
133.312576	228.0
133.457397	128.0
133.76799	236.0
133.857788	120.0
134.055893	160.0
134.120422	188.0
134.165558	172.0
134.332306	172.0
134.436401	108.0
134.471024	136.0
135.113358	160.0
135.130157	204.0
135.171265	144.0
135.273102	168.0
135.312454	140.0
135.355804	200.0
135.45372	136.0
135.518707	156.0
135.555664	208.0
135.657639	192.0
135.743439	88.0
136.075241	176.0
136.288925	212.0
136.316818	196.0
136.400482	136.0
136.598145	104.0
136.74939	136.0
136.958939	184.0
137.184967	108.0
137.43219	120.0
137.46019	216.0
137.509201	128.0
137.551224	128.0
137.71701	176.0
137.733353	144.0
137.756714	176.0
137.793167	212.0
137.922623	212.0
138.004456	156.0
138.121384	116.0
138.18689	32.0
138.273468	188.0
138.5896	176.0
138.648193	64.0
138.739609	180.0
138.831055	112.0
139.018723	132.0
139.089142	180.0
139.126694	112.0
139.284042	124.0
139.308395	152.0
139.366257	160.0
139.615433	108.0
139.728348	180.0
139.80835	72.0
140.213425	176.0
140.357224	216.0
140.463364	136.0
140.488785	200.0
140.578964	172.0
140.654495	92.0
140.911911	204.0
140.961533	156.0
141.071823	192.0
141.093887	116.0
141.26062	144.0
141.318573	116.0
141.633438	100.0
141.792191	200.0
141.90834	208.0
141.955444	212.0
142.01268	164.0
142.074402	356.0
142.166901	144.0
142.311691	228.0
142.439941	44.0
142.525467	52.0
142.54686	136.0
142.62291	160.0
142.670456	180.0
143.00824	144.0
143.058228	180.0
143.079498	168.0
143.127274	52.0
143.403625	156.0
143.580048	40.0
143.622986	184.0
143.878311	120.0
144.04335	152.0
144.079651	324.0
144.100433	160.0
144.176895	84.0
144.212753	116.0
144.413589	32.0
144.624146	144.0
144.734283	40.0
144.901932	164.0
144.995392	232.0
145.063995	320.0
145.082642	168.0
145.104141	208.0
145.460709	120.0
145.751328	92.0
146.043915	124.0
146.067627	284.0
146.18898	132.0
146.213043	136.0
146.299698	80.0
146.408051	156.0
146.711655	148.0
146.943176	140.0
146.960068	200.0
147.020386	128.0
147.050476	292.0
147.084793	176.0
147.203857	92.0
147.23526	168.0
147.276321	156.0
147.467819	188.0
147.551804	236.0
147.764633	164.0
147.793671	140.0
147.863846	196.0
147.914673	84.0
148.072067	80.0
148.110825	108.0
148.156845	208.0
148.207718	80.0
148.326843	132.0
148.428299	168.0
148.593246	48.0
148.73642	60.0
148.899094	156.0
148.937958	180.0
148.97197	272.0
149.011185	208.0
149.042419	240.0
149.315659	176.0
149.533661	184.0
149.63591	120.0
149.799072	112.0
149.828308	52.0
149.867294	208.0
149.9599	96.0
150.137863	224.0
150.575668	176.0
150.86795	168.0
150.968201	184.0
151.052109	168.0
151.173691	52.0
151.281387	224.0
151.443008	220.0
151.543442	224.0
151.602249	188.0
152.061539	1376.0
152.109955	168.0
152.407135	124.0
152.530014	120.0
152.576721	92.0
152.613602	172.0
152.906342	132.0
152.992493	188.0
153.064896	232.0
153.677643	88.0
153.894852	64.0
154.064713	648.0
154.342087	132.0
154.369293	80.0
154.445953	152.0
154.55481	128.0
155.078354	388.0
155.223618	140.0
155.302979	136.0
155.424545	228.0
155.73735	136.0
155.789505	100.0
155.938599	232.0
156.085754	248.0
156.381332	180.0
156.627823	120.0
156.661591	260.0
156.737457	160.0
156.766846	176.0
156.874527	72.0
157.059448	152.0
157.089447	568.0
157.311096	216.0
157.40596	160.0
157.555832	152.0
157.658279	116.0
157.703262	176.0
157.743256	168.0
157.812973	188.0
158.061005	164.0
158.453995	112.0
158.712158	80.0
158.735962	176.0
158.887726	88.0
159.157471	136.0
159.254227	252.0
159.291901	224.0
159.324554	120.0
159.357224	192.0
159.48288	136.0
159.585953	320.0
159.837479	160.0
159.934402	140.0
159.973389	120.0
160.078629	296.0
160.134537	104.0
160.263016	112.0
160.492386	132.0
160.555435	264.0
160.591782	176.0
160.636154	72.0
160.785019	188.0
160.838013	68.0
160.931427	184.0
160.972214	160.0
161.110748	112.0
161.168854	148.0
161.338196	112.0
161.423737	144.0
161.444397	168.0
161.694855	128.0
161.826492	184.0
162.074707	176.0
162.145676	184.0
162.163406	108.0
162.320587	176.0
162.404282	120.0
162.482925	140.0
162.597107	200.0
162.800217	132.0
163.077133	168.0
163.094925	96.0
163.138138	60.0
163.194077	184.0
163.326324	136.0
163.377197	152.0
163.491699	140.0
163.550232	132.0
163.596054	40.0
163.624054	136.0
163.708084	204.0
163.776855	176.0
164.036758	192.0
164.064804	160.0
164.097946	172.0
164.125992	228.0
164.202499	112.0
164.327499	184.0
164.386185	176.0
164.764084	128.0
165.067413	740.0
165.098923	108.0
165.139847	172.0
165.29335	204.0
165.370117	124.0
165.444351	156.0
165.777328	40.0
165.885864	164.0
165.908051	144.0
165.990097	156.0
166.077957	384.0
166.120911	204.0
166.143997	156.0
166.557297	164.0
166.845108	216.0
166.883682	176.0
166.937683	196.0
166.991684	232.0
167.081116	1136.0
167.228394	160.0
167.248993	168.0
167.346817	168.0
167.472992	156.0
168.006592	180.0
168.07782	616.0
168.590149	72.0
168.771088	140.0
168.827988	132.0
168.990952	160.0
169.066803	392.0
169.086914	1068.0
169.231659	204.0
169.365204	188.0
169.418274	76.0
169.537323	160.0
169.69545	212.0
169.967789	180.0
170.022293	116.0
170.075623	316.0
170.09967	304.0
170.161545	148.0
170.276718	192.0
170.453369	152.0
170.575531	100.0
170.661316	32.0
170.903214	192.0
171.071671	180.0
171.101425	180.0
171.129227	192.0
171.223404	48.0
171.41098	168.0
171.889069	184.0
172.062119	236.0
172.070618	152.0
172.079056	148.0
172.73468	156.0
172.875961	176.0
172.985886	208.0
173.004211	164.0
173.080139	184.0
173.108948	204.0
173.667175	48.0
173.803604	88.0
173.841187	148.0
173.942703	108.0
173.976822	48.0
173.995209	76.0
174.047714	60.0
174.131744	156.0
174.189529	144.0
174.223694	56.0
174.349808	128.0
174.36821	220.0
174.69426	104.0
174.733719	136.0
175.023254	256.0
175.164871	160.0
175.268219	128.0
175.399994	216.0
175.518631	168.0
175.560822	120.0
175.729645	184.0
175.795609	176.0
176.061798	144.0
176.149399	28.0
176.241867	148.0
176.302658	180.0
176.440094	160.0
176.529633	144.0
176.577606	52.0
176.632095	212.0
176.881882	76.0
176.905716	40.0
177.06839	460.0
177.189087	176.0
177.361328	132.0
177.515106	112.0
177.804276	148.0
177.838776	128.0
177.860016	116.0
178.073441	160.0
178.162735	68.0
178.229156	136.0
178.290283	44.0
178.407242	180.0
178.460403	132.0
178.580078	68.0
178.614655	176.0
178.670517	84.0
178.851471	184.0
178.910049	140.0
178.934006	180.0
179.074356	536.0
179.397552	156.0
179.437546	128.0
179.637573	152.0
179.693588	216.0
179.877731	168.0
180.055466	436.0
180.081039	800.0
180.126068	124.0
180.391434	252.0
180.403564	76.0
180.411163	240.0
180.485306	144.0
180.612564	32.0
180.655365	72.0
180.898895	200.0
181.027405	172.0
181.077682	392.0
181.113113	52.0
181.544617	220.0
181.595581	84.0
181.678726	84.0
181.740433	148.0
181.871933	188.0
181.939041	104.0
182.000793	144.0
182.052612	204.0
182.095535	428.0
182.264038	180.0
182.376907	204.0
182.41185	176.0
182.497879	160.0
182.583939	164.0
182.608139	172.0
183.06958	1000.0
183.275772	180.0
183.456345	92.0
183.510269	128.0
183.527115	120.0
183.569595	144.0
183.58847	148.0
183.750305	156.0
183.820984	164.0
183.863647	188.0
184.039108	128.0
184.087036	2680.0
184.176392	168.0
184.255188	172.0
184.365967	52.0
184.419861	136.0
184.678864	180.0
184.736389	84.0
184.885208	164.0
184.939346	88.0
185.092926	952.0
185.340149	188.0
185.359116	144.0
185.394348	184.0
185.478363	152.0
185.546143	212.0
185.730545	128.0
185.757996	168.0
185.99646	144.0
186.091476	196.0
186.118637	128.0
186.482666	140.0
186.550613	144.0
186.847046	44.0
186.86882	168.0
187.037537	108.0
187.064758	48.0
187.259171	152.0
187.345261	112.0
187.364334	72.0
187.595978	148.0
187.655945	112.0
187.71312	124.0
187.795029	204.0
187.83049	160.0
187.983276	156.0
188.207108	112.0
188.256683	208.0
188.455673	136.0
188.491196	116.0
188.719864	176.0
188.83371	192.0
189.536484	208.0
189.700928	100.0
190.180954	116.0
190.211151	164.0
190.268799	208.0
190.403351	228.0
190.56395	172.0
190.895279	144.0
190.983276	116.0
191.074066	144.0
191.269455	228.0
191.29422	140.0
191.750198	164.0
191.792801	160.0
191.828644	144.0
191.919617	168.0
192.085098	96.0
192.115448	208.0
192.41626	84.0
192.706268	148.0
192.800217	152.0
192.841675	96.0
192.947464	248.0
193.086823	228.0
193.167953	108.0
193.256485	116.0
193.286926	280.0
193.408691	76.0
193.508347	184.0
193.552658	268.0
193.787582	132.0
193.887848	128.0
193.907257	152.0
193.995956	204.0
194.095703	1608.0
194.148453	88.0
194.244949	152.0
194.278809	60.0
194.706284	180.0
194.753494	176.0
194.834045	224.0
194.917404	64.0
194.936859	176.0
195.050415	220.0
195.079468	760.0
195.171997	216.0
195.248215	208.0
195.303848	148.0
195.368866	140.0
195.442947	168.0
195.506943	116.0
195.732437	152.0
195.763062	140.0
195.792267	156.0
195.994446	136.0
196.074738	5668.0
196.125992	152.0
196.147552	84.0
196.236771	44.0
196.259064	36.0
196.288849	112.0
196.462677	100.0
196.507309	60.0
196.544724	68.0
196.596603	64.0
196.632889	64.0
196.658005	144.0
196.766052	96.0
196.791992	28.0
196.839462	64.0
196.951187	64.0
197.040573	176.0
197.082169	2524.0
197.172745	120.0
197.636108	128.0
197.669693	188.0
198.086731	1268.0
198.124557	44.0
198.165298	72.0
198.26619	148.0
198.319595	68.0
198.347458	64.0
198.414749	156.0
198.456802	112.0
198.501663	168.0
198.552139	32.0
198.650314	124.0
198.762543	168.0
198.855148	88.0
198.937881	144.0
199.0961	1272.0
199.259521	140.0
199.655869	148.0
199.757111	240.0
199.855591	116.0
200.113647	152.0
200.118256	224.0
200.153961	176.0
200.210281	36.0
200.286316	52.0
200.328568	228.0
200.398331	200.0
200.458176	60.0
200.630112	128.0
200.745712	176.0
200.776733	160.0
200.869812	108.0
201.033463	132.0
201.132248	96.0
201.301636	84.0
201.369415	180.0
201.496536	132.0
201.801788	188.0
201.889435	128.0
202.178009	84.0
202.684891	168.0
202.922989	152.0
203.076126	168.0
203.297409	68.0
203.757416	160.0
203.856857	168.0
203.905167	188.0
203.953491	128.0
204.081421	120.0
204.112701	176.0
204.44838	192.0
204.721664	124.0
204.906815	172.0
205.079422	200.0
205.34137	172.0
205.374649	144.0
205.693924	100.0
205.753876	144.0
205.93663	84.0
205.996613	196.0
206.048035	208.0
206.207321	108.0
206.350983	80.0
206.465363	228.0
206.582642	224.0
207.565033	160.0
207.892044	172.0
208.072876	180.0
208.10733	152.0
208.294235	148.0
208.426163	116.0
208.454895	148.0
208.621613	36.0
208.664734	308.0
208.828644	192.0
208.886169	88.0
209.085449	296.0
209.10939	180.0
209.194077	120.0
209.49646	164.0
209.559845	108.0
209.67511	132.0
209.715454	44.0
209.75293	132.0
209.891312	268.0
209.924316	108.0
210.037476	164.0
210.090027	3480.0
210.221313	80.0
210.395874	148.0
210.482849	36.0
210.563705	288.0
210.627258	108.0
210.656143	48.0
210.728363	136.0
210.786148	100.0
210.890198	104.0
210.98848	204.0
211.031845	164.0
211.096893	652.0
211.130173	116.0
211.280579	216.0
211.326874	60.0
211.365555	172.0
211.389282	148.0
211.448853	232.0
211.479279	124.0
211.546326	280.0
211.56041	92.0
211.571823	252.0
211.614243	84.0
211.647858	200.0
211.660706	84.0
211.669632	144.0
211.693527	84.0
211.731323	216.0
211.75119	76.0
211.756363	120.0
211.781372	152.0
211.805374	168.0
211.857697	204.0
211.886551	104.0
211.892609	144.0
211.944901	372.0
211.965393	368.0
212.041336	188.0
212.107132	156112.0
212.163467	84.0
212.182495	208.0
212.218643	68.0
212.254913	92.0
212.27771	184.0
212.305695	72.0
212.343048	76.0
212.38295	108.0
212.429047	128.0
212.461197	216.0
212.5056	72.0
212.523514	184.0
212.544479	80.0
212.557693	104.0
212.583664	816.0
212.657059	184.0
212.716431	136.0
212.742905	92.0
212.790543	64.0
212.846497	132.0
212.891113	88.0
212.922287	152.0
212.946655	132.0
212.985611	160.0
213.008102	136.0
213.050797	56.0
213.109528	22572.0
213.161011	76.0
213.190109	72.0
213.199539	40.0
213.225174	120.0
213.269867	72.0
213.332169	140.0
213.452423	124.0
213.46286	104.0
213.474442	164.0
213.500702	92.0
213.55191	68.0
213.587875	76.0
213.645691	80.0
213.698349	224.0
213.722336	48.0
213.752213	160.0
213.799042	72.0
213.867828	144.0
213.890488	56.0
213.98259	72.0
214.039429	92.0
214.112183	2240.0
214.175369	80.0
214.239517	64.0
214.272385	116.0
214.320923	236.0
214.348969	56.0
214.379807	120.0
214.408325	264.0
214.430054	72.0
214.493866	268.0
214.545502	112.0
214.573929	204.0
214.596954	152.0
214.638062	116.0
214.676239	220.0
214.706711	80.0
214.729233	112.0
214.755219	120.0
214.78801	96.0
214.813171	40.0
214.839294	96.0
214.861679	76.0
214.873978	52.0
214.93483	40.0
214.977951	92.0
215.107895	52.0
215.221756	44.0
215.247665	92.0
215.287247	132.0
215.323196	60.0
215.57959	128.0
215.608749	152.0
215.692215	128.0
215.794434	60.0
215.817825	84.0
215.852921	64.0
215.892105	120.0
216.051804	52.0
216.148361	108.0
216.177628	44.0
216.265427	48.0
216.394241	56.0
216.467987	64.0
216.827774	64.0
217.245758	84.0
217.675598	48.0
218.101593	84.0
218.16626	120.0
218.369156	60.0
218.604523	40.0
218.654556	64.0
218.766403	120.0
219.043213	52.0
219.078568	116.0
219.099182	340.0
220.072464	336.0
220.11676	128.0
220.252625	76.0
220.311691	96.0
221.078598	344.0
221.571991	32.0
222.085999	608.0
222.126358	160.0
222.366699	128.0
222.598267	84.0
223.096954	728.0
223.472168	52.0
223.620956	124.0
223.695374	116.0
223.984207	84.0
224.093887	444.0
224.132721	232.0
224.508789	92.0
224.574402	48.0
224.651947	76.0
224.953354	48.0
225.068604	128.0
225.107483	180.0
226.580231	80.0
226.851349	96.0
227.062836	144.0
227.089828	92.0
227.134827	48.0
229.22435	52.0
229.269547	100.0
229.993408	60.0
230.975449	32.0
231.998993	108.0
232.444839	72.0
233.08252	324.0
233.517258	108.0
234.09549	164.0
234.512878	68.0
235.009949	192.0
235.080139	88.0
235.110657	52.0
236.109772	552.0
236.884048	148.0
237.103531	312.0
238.109985	576.0
239.07016	116.0
239.115143	572.0
239.208664	40.0
239.331818	44.0
239.766174	32.0
240.124588	128.0
240.787369	100.0
242.693619	112.0
248.106216	192.0
250.107254	72.0
251.389999	52.0
252.87854	100.0
253.765533	44.0
256.002533	72.0
259.132904	64.0
261.68631	100.0
262.946747	104.0
263.208221	128.0
265.13205	256.0
266.134003	148.0
271.01825	84.0
272.143311	100.0
281.227539	112.0
281.421661	108.0
282.148376	140.0
282.170532	256.0
283.163422	132.0
283.367737	44.0
285.200043	132.0
299.24057	84.0
300.760834	64.0
302.935883	112.0
313.717133	128.0
314.433197	56.0
315.482269	44.0
317.199158	100.0
319.856201	96.0
322.90332	112.0
323.189514	76.0
324.633118	112.0
328.748566	48.0
329.329834	72.0
335.167084	52.0
339.066284	60.0
349.703461	56.0
352.642548	88.0
353.143555	68.0
355.676514	76.0
355.886749	52.0
356.720764	140.0
360.153564	88.0
364.795502	48.0
368.19809	88.0
371.865906	132.0
375.578918	124.0
377.401733	64.0
380.575104	72.0
380.835297	84.0
381.425934	124.0
384.354645	104.0
388.827606	92.0
395.338196	112.0
398.085419	168.0
398.26416	44.0
399.21402	92.0
404.740814	84.0
405.001129	68.0
405.722443	84.0
408.1073	100.0
414.780731	92.0
416.099182	124.0
419.422791	140.0
423.742371	116.0
425.050323	60.0
436.630005	112.0
442.279358	44.0
444.760803	48.0
452.886108	52.0
453.725159	60.0
464.497498	68.0
466.085999	32.0
474.689117	40.0
482.548584	92.0
483.874268	36.0
494.390198	64.0
497.621643	64.0
501.585449	68.0
504.625641	36.0
505.12207	72.0
507.845459	44.0
517.996582	48.0
540.708496	68.0
544.812195	64.0
548.269409	80.0
557.64386	56.0
560.029358	56.0
562.556824	92.0
576.153442	40.0
595.567322	108.0
595.902527	72.0
601.005188	68.0
602.240356	76.0
607.74292	32.0
637.25293	76.0
680.332886	108.0
691.362305	36.0
699.181946	28.0
717.147461	100.0
718.112549	112.0
731.847656	124.0
747.333435	68.0
753.674805	56.0
764.334412	172.0
771.935791	180.0
776.293945	52.0
777.242493	132.0
778.335999	88.0
786.6651	116.0
793.776367	156.0
793.854858	36.0
793.899719	128.0
797.436707	48.0
815.245178	264.0
820.920898	196.0
825.872498	68.0
829.181885	80.0
831.579285	152.0
834.917297	180.0
835.826233	92.0
839.870544	232.0
872.170898	212.0
883.877686	72.0
890.87384	36.0
905.368164	192.0
909.685181	124.0
911.234619	136.0
915.192322	148.0
920.10614	156.0
921.05426	212.0
923.62323	108.0
924.924194	92.0
927.371277	168.0
935.261414	196.0
936.52179	84.0
940.949036	184.0
943.239929	144.0
943.955261	224.0
944.456787	68.0
944.805481	36.0
948.96405	148.0
951.098938	132.0
952.621765	188.0
962.79718	164.0
965.640198	188.0
967.626526	136.0
969.844299	208.0
971.630249	144.0
975.866028	144.0
978.311096	180.0
980.123474	52.0
980.260559	48.0
985.995789	152.0
988.497253	148.0
989.761719	164.0
993.8172	212.0
995.292236	48.0
996.749512	204.0
1015.493347	164.0
1016.578186	236.0
1020.650024	60.0
1021.1651	152.0
1024.449707	208.0
1025.061279	152.0
1026.616821	108.0
1027.044067	160.0
1036.358643	144.0
1038.018799	196.0
1040.296509	68.0
1042.120483	164.0
1045.477173	160.0
1049.735352	220.0
1052.258301	188.0
1056.103271	164.0
1058.782837	156.0
1058.931763	224.0
1065.580933	216.0
1066.471191	196.0
1068.630249	104.0
1069.241943	120.0
1072.048828	68.0
1072.153076	212.0
1079.922485	144.0
1080.570068	108.0
1080.799072	164.0
1081.813599	76.0
1081.964111	228.0
1086.682983	116.0
1087.011108	140.0
1087.654297	196.0
1088.895264	232.0
1090.255127	200.0
1090.827026	180.0
1092.536865	176.0
1094.899902	128.0
1096.039551	204.0
1101.925049	168.0
1103.174194	172.0
1104.265137	168.0
1105.594971	180.0
1110.829346	148.0
1111.486206	256.0
1113.96936	104.0
1114.44104	184.0
1116.016235	40.0
1117.386475	192.0
1118.098389	160.0
1118.810669	192.0
1118.970459	108.0
1119.256714	52.0
1120.555542	108.0
1134.496826	200.0
1135.85144	228.0
1137.059204	192.0
1141.883179	228.0
1142.206055	228.0
1146.360107	136.0
1146.467896	192.0
1146.622925	132.0
1148.038696	172.0
1151.541382	200.0
1153.284668	140.0
1153.372559	180.0
1154.352783	204.0
1154.57605	44.0
1155.949341	132.0
1156.368896	176.0
1161.125122	248.0
1161.68811	124.0
1163.289551	228.0
1164.097534	188.0
1169.76123	116.0
1170.271729	76.0
1174.026489	164.0
1176.387207	168.0
1177.302124	76.0
1179.433838	72.0
1181.396484	176.0
1182.901978	92.0
1183.37439	244.0
1183.771484	196.0
1187.088257	152.0
1187.143066	100.0
1187.314575	100.0
1188.165039	128.0
1190.643066	172.0
1191.673462	176.0
1193.763062	172.0
1195.090698	208.0
1196.205566	160.0
1197.885864	220.0
1201.415405	188.0
1204.860474	144.0
1210.137573	132.0
1211.931396	156.0
1213.241333	192.0
1214.41333	208.0
1214.461792	156.0
1214.982056	128.0
1219.315063	84.0
1220.295166	192.0
1220.976685	136.0
1222.018921	164.0
1222.228882	80.0
1225.724365	208.0
1228.485352	60.0
1228.987671	108.0
1229.155151	152.0
1231.032959	196.0
1231.116821	192.0
1232.744507	72.0
1235.842163	140.0
1237.725098	116.0
1237.837158	116.0
1237.977173	128.0
1240.807983	196.0
1241.474121	184.0
1242.385986	156.0
1242.498291	60.0
1246.163208	208.0
1249.080688	172.0
1249.369141	180.0
1249.678711	184.0
1250.319092	144.0
1252.163696	144.0
1253.925049	156.0
1257.225586	200.0
1257.493774	172.0
1257.606812	160.0
1257.776123	164.0
1259.689819	136.0
1261.209106	212.0
1261.640259	252.0
1261.845337	124.0
1262.886597	156.0
1263.302124	132.0
1263.358765	48.0
1263.514404	168.0
1264.016724	164.0
1265.998901	184.0
1267.018921	48.0
1268.421997	140.0
1269.116821	176.0
1270.953979	216.0
1272.30249	196.0
1272.57605	156.0
1272.707153	116.0
1276.956787	72.0
1278.956177	172.0
1279.17688	40.0
1280.422852	72.0
1280.707764	172.0
1281.155762	180.0
1282.211182	48.0
1285.827148	164.0
1289.533936	256.0
1290.477539	84.0
1294.792603	48.0
1295.773926	104.0
1297.422241	128.0
1300.391968	176.0
1303.573486	180.0
1305.557617	160.0
1306.11145	88.0
1306.514282	168.0
1306.737305	172.0
1307.053955	208.0
1307.514526	188.0
1308.975952	108.0
1311.468628	108.0
1313.285645	108.0
1313.422729	164.0
1313.682373	164.0
1315.789673	56.0
1315.912476	104.0
1317.111206	192.0
1317.840942	164.0
1321.658691	168.0
1322.5271	204.0
1323.634766	144.0
1324.779175	132.0
1325.39502	96.0
1328.106323	220.0
1329.107544	128.0
1329.317993	144.0
1330.501099	216.0
1330.726196	180.0
1331.081909	216.0
1331.692017	192.0
1334.053589	172.0
1335.798828	180.0
1337.734619	256.0
1339.686279	180.0
1340.349243	228.0
1340.582397	152.0
1340.8302	136.0
1341.216553	184.0
1341.974731	108.0
1342.208008	204.0
1346.835083	168.0
1349.612183	240.0
1350.42395	124.0
1351.682251	52.0
1353.402344	68.0
1354.405762	196.0
1356.45752	136.0
1357.300659	100.0
1358.342041	200.0
1358.906982	132.0
1359.134399	148.0
1359.919678	108.0
1361.600952	128.0
1363.819824	184.0
1364.724121	216.0
1365.407959	264.0
1365.790527	144.0
1366.334839	164.0
1366.923462	160.0
1367.291382	176.0
1367.40918	236.0
1368.329346	148.0
1368.432373	148.0
1371.445435	264.0
1371.79187	136.0
1372.241577	184.0
1372.477539	160.0
1372.639771	68.0
1373.642822	172.0
1374.063354	124.0
1375.487671	176.0
1376.986572	156.0
1377.237671	172.0
1378.042847	164.0
1380.097656	144.0
1380.718872	136.0
1383.589844	52.0
1384.234009	176.0
1384.819092	224.0
1385.94519	156.0
1386.657715	156.0
1388.977417	120.0
1389.667358	200.0
1390.260986	64.0
1391.545166	44.0
1391.828735	144.0
1394.055786	140.0
1394.330811	168.0
1395.631714	56.0
1396.918335	224.0
1397.253174	124.0
1397.327515	172.0
1398.421387	200.0
1399.299805	104.0
1399.798706	160.0
1400.580688	124.0
1401.27356	144.0
1401.795166	212.0
1403.025024	80.0
1403.338135	184.0
1404.57605	136.0
1405.419067	88.0
1405.553467	156.0
1405.702637	160.0
1406.008667	100.0
1406.508667	136.0
1406.807251	28.0
1406.889404	124.0
1407.643555	124.0
1408.412842	80.0
1409.652954	180.0
1410.721802	280.0
1411.327393	120.0
1411.820923	44.0
1412.172485	136.0
1412.247314	124.0
1412.576416	140.0
1412.77832	176.0
1414.26001	264.0
1414.776489	164.0
1415.84729	116.0
1416.064453	172.0
1417.742676	76.0
1418.657104	56.0
1419.121948	28.0
1419.211914	196.0
1420.081909	240.0
1422.783325	164.0
1423.346436	188.0
1424.337769	132.0
1425.179199	184.0
1425.577515	208.0
1427.719971	188.0
1429.013794	112.0
1429.194458	112.0
1430.49646	148.0
1431.204102	140.0
1432.326294	144.0
1432.454346	140.0
1432.936523	160.0
1433.607178	192.0
1433.999023	48.0
1434.654785	196.0
1434.790527	200.0
1436.638184	148.0
1437.407837	244.0
1438.924683	192.0
1440.050171	236.0
1440.722412	124.0
1444.751953	132.0
1445.266357	176.0
1448.468872	160.0
1448.999146	80.0
1449.423462	180.0
1451.485229	200.0
1451.993408	208.0
1452.258789	160.0
1452.789795	64.0
1454.292236	184.0
1456.061401	144.0
1457.109619	68.0
1458.158325	200.0
1459.123657	148.0
1460.568604	172.0
1461.53479	92.0
1461.869629	184.0
1461.93811	132.0
1462.021729	100.0
1462.181641	164.0
1462.760132	136.0
1464.496216	168.0
1465.31897	120.0
1466.53064	156.0
1469.161377	204.0
1471.344116	56.0
1471.443359	176.0
1472.18396	160.0
1472.83313	284.0
1473.788086	140.0
1474.850464	180.0
1476.968506	120.0
1479.930176	140.0
1480.213501	192.0
1480.359009	156.0
1480.466187	224.0
1480.987061	160.0
1482.30481	208.0
1482.465698	160.0
1482.956177	128.0
1485.21814	176.0
1485.501953	120.0
1485.900879	164.0
1486.292236	164.0
1488.387695	88.0
1489.002075	108.0
1489.086548	168.0
1489.263184	104.0
1489.478271	320.0
1492.570435	256.0
1493.113892	48.0
1493.359985	232.0
1493.62146	168.0
1494.660156	228.0
1495.529785	132.0
1496.28418	204.0
1496.630615	228.0
1496.915527	128.0
1497.215942	184.0
1498.186401	148.0
1498.40979	184.0
1498.687256	120.0
1498.856689	84.0
1500.282593	116.0
1501.169312	124.0
1502.015991	88.0
1502.202881	88.0
1502.426514	84.0
1502.627197	228.0
1503.233887	232.0
1503.861816	224.0
END IONS

BEGIN IONS
PEPMASS=404.234
CHARGE=1
MSLEVEL=2
SOURCE_INSTRUMENT=LC-ESI-qTof
FILENAME=p3-D08_GD8_01_18265.mzXML
SEQ=*..*
IONMODE=Positive
ORGANISM=GNPS-NIH-SMALLMOLECULEPHARMACOLOGICALLYACTIVE
NAME=MLS001148102-01! M+H
PI=Dorrestein
DATACOLLECTOR=VP/LMS
SMILES=CN1C[C@H](CNC(=O)OCc2ccccc2)C[C@H]3[C@H]1Cc4cn(C)c5cccc3c45
INCHI=N/A
INCHIAUX=N/A
PUBMED=N/A
SUBMITUSER=vphelan
LIBRARYQUALITY=1
SPECTRUMID=CCMSLIB00000085003
USI=mzspec:GNPS:GNPS-NIH-SMALLMOLECULEPHARMACOLOGICALLYACTIVE:accession:CCMSLIB00000085003
SCANS=1828
44.899277	156.0
44.924622	104.0
44.937965	172.0
45.006939	184.0
45.020443	148.0
45.032749	124.0
45.052982	192.0
45.064812	152.0
45.07951	168.0
45.09494	176.0
45.131092	280.0
45.183811	48.0
45.21994	216.0
45.233326	148.0
45.268139	184.0
45.292248	224.0
45.339043	160.0
45.369972	128.0
45.484005	148.0
45.513542	152.0
45.547119	120.0
45.635818	100.0
45.672131	136.0
45.69231	132.0
45.703075	168.0
45.72057	164.0
45.736721	180.0
45.795967	144.0
45.867458	148.0
45.897045	172.0
45.91053	136.0
45.940208	168.0
45.992836	196.0
46.021187	164.0
46.054951	172.0
46.077915	168.0
46.123867	192.0
46.155121	68.0
46.238396	208.0
46.302475	188.0
46.324146	136.0
46.367508	152.0
46.419025	152.0
46.444794	176.0
46.493641	120.0
46.619946	104.0
46.647129	100.0
46.67432	224.0
46.804955	148.0
46.888058	156.0
46.918045	180.0
46.930317	136.0
46.954865	224.0
46.983513	160.0
47.064041	204.0
47.18681	184.0
47.229408	200.0
47.252666	80.0
47.29509	212.0
47.308781	160.0
47.336166	44.0
47.35397	144.0
47.444412	56.0
47.459461	172.0
47.467251	128.0
47.489666	100.0
47.50201	152.0
47.52602	176.0
47.582981	200.0
47.617313	152.0
47.627048	288.0
47.684639	128.0
47.835949	160.0
47.878635	440.0
47.897919	264.0
47.918583	116.0
47.933739	144.0
48.041286	180.0
48.073631	172.0
48.10339	124.0
48.118576	200.0
48.17244	80.0
48.194546	144.0
48.260895	148.0
48.270573	212.0
48.296852	176.0
48.31345	140.0
48.382652	156.0
48.422775	172.0
48.494858	188.0
48.512878	184.0
48.554478	180.0
48.600258	212.0
48.618084	208.0
48.633568	120.0
48.658554	172.0
48.693272	40.0
48.708549	124.0
48.737728	152.0
48.766823	184.0
48.882347	236.0
48.912968	148.0
48.977024	184.0
49.021873	232.0
49.136272	172.0
49.158276	184.0
49.295296	172.0
49.33287	60.0
49.359436	160.0
49.402798	100.0
49.499374	168.0
49.525986	104.0
49.559608	232.0
49.593243	48.0
49.637527	180.0
49.657742	164.0
49.67598	116.0
49.722282	56.0
49.73632	172.0
49.838844	188.0
49.88382	184.0
49.917564	188.0
49.931629	116.0
49.982273	156.0
49.99353	212.0
50.110409	136.0
50.159737	96.0
50.186523	132.0
50.369995	184.0
50.425491	160.0
50.463272	60.0
50.525505	180.0
50.58353	156.0
50.645836	208.0
50.656368	156.0
50.686924	152.0
50.787582	80.0
50.80035	160.0
50.918167	164.0
50.930759	148.0
50.952259	184.0
51.013371	144.0
51.066788	192.0
51.094437	152.0
51.121471	180.0
51.135704	160.0
51.161327	160.0
51.183395	160.0
51.219715	164.0
51.260632	204.0
51.278133	136.0
51.339439	108.0
51.359409	124.0
51.419338	156.0
51.455025	112.0
51.502151	152.0
51.568794	184.0
51.590752	60.0
51.688011	140.0
51.706615	68.0
51.731918	172.0
51.758156	152.0
51.816185	156.0
51.848408	120.0
51.867043	176.0
51.884243	76.0
51.935871	256.0
52.0191	248.0
52.062176	176.0
52.076538	172.0
52.128952	324.0
52.16563	156.0
52.249744	176.0
52.276382	176.0
52.318127	200.0
52.338284	172.0
52.372177	156.0
52.400219	208.0
52.430481	148.0
52.446335	132.0
52.462193	48.0
52.513599	216.0
52.529972	212.0
52.577587	172.0
52.646889	156.0
52.656998	112.0
52.669998	144.0
52.723457	64.0
52.746868	224.0
52.774055	244.0
52.784176	160.0
52.823227	128.0
52.84927	72.0
52.864529	200.0
52.889793	64.0
52.972336	124.0
53.099892	76.0
53.163902	332.0
53.198566	148.0
53.210705	144.0
53.24358	28.0
53.268272	56.0
53.279896	36.0
53.316223	148.0
53.345291	176.0
53.477665	180.0
53.538815	188.0
53.662373	228.0
53.675804	132.0
53.739986	88.0
53.766251	108.0
53.796906	224.0
53.815887	128.0
53.872482	176.0
53.907913	172.0
53.919605	164.0
54.055614	200.0
54.081451	184.0
54.128811	144.0
54.14785	168.0
54.1581	180.0
54.224037	144.0
54.34869	100.0
54.364994	180.0
54.39859	108.0
54.410336	196.0
54.420616	220.0
54.477894	148.0
54.599895	188.0
54.610191	92.0
54.680817	168.0
54.730873	140.0
54.777618	328.0
54.820484	188.0
54.901814	220.0
54.970463	180.0
54.988865	204.0
55.018387	176.0
55.115871	192.0
55.136559	180.0
55.164642	184.0
55.201607	260.0
55.220833	172.0
55.241543	32.0
55.299252	48.0
55.312576	204.0
55.381489	104.0
55.419209	144.0
55.539295	156.0
55.574902	164.0
55.687725	56.0
55.704067	128.0
55.776882	124.0
55.82943	224.0
55.897354	176.0
55.916702	148.0
55.954353	232.0
55.977741	188.0
55.992634	228.0
56.113338	128.0
56.134212	124.0
56.147636	132.0
56.18045	88.0
56.268509	144.0
56.28344	160.0
56.317116	204.0
56.328243	80.0
56.440338	160.0
56.456787	192.0
56.482216	188.0
56.549549	176.0
56.597458	172.0
56.630405	52.0
56.654373	92.0
56.671391	172.0
56.717896	176.0
56.728741	160.0
56.799786	220.0
56.834293	188.0
56.871811	116.0
56.967918	96.0
56.993462	200.0
57.008488	132.0
57.076134	220.0
57.152851	180.0
57.173035	108.0
57.185959	204.0
57.239792	164.0
57.262749	204.0
57.298901	32.0
57.316982	128.0
57.352409	144.0
57.421005	216.0
57.491917	188.0
57.517574	192.0
57.599117	144.0
57.632355	48.0
57.695835	248.0
57.733639	204.0
57.754814	112.0
57.772964	80.0
57.788097	156.0
57.810528	204.0
57.848633	52.0
57.863773	164.0
57.894058	92.0
57.930412	120.0
57.974354	100.0
57.998604	164.0
58.050152	156.0
58.063801	116.0
58.082005	136.0
58.095657	132.0
58.115379	160.0
58.133591	152.0
58.154839	144.0
58.179127	156.0
58.191273	252.0
58.242908	160.0
58.255062	184.0
58.294567	212.0
58.375137	136.0
58.391865	140.0
58.450603	184.0
58.606518	188.0
58.617184	184.0
58.67968	260.0
58.781879	416.0
58.82309	272.0
58.833775	160.0
58.852154	180.0
58.980427	108.0
59.014061	136.0
59.033939	168.0
59.073708	188.0
59.138824	192.0
59.213005	128.0
59.258961	140.0
59.283478	156.0
59.410679	180.0
59.51358	36.0
59.547363	36.0
59.582695	180.0
59.593452	164.0
59.618038	184.0
59.738338	184.0
59.773361	68.0
59.791828	200.0
59.848785	140.0
59.870346	48.0
59.930424	96.0
60.039875	216.0
60.072266	116.0
60.220455	252.0
60.234356	372.0
60.276615	296.0
60.342537	176.0
60.400726	128.0
60.481773	76.0
60.518929	220.0
60.581371	164.0
60.597923	112.0
60.625816	188.0
60.644413	196.0
60.721939	156.0
60.849186	128.0
61.013874	216.0
61.046528	148.0
61.068302	264.0
61.186573	272.0
61.2146	188.0
61.255096	144.0
61.309631	148.0
61.364189	184.0
61.409412	140.0
61.44389	160.0
61.476501	92.0
61.515377	212.0
61.532696	80.0
61.611645	136.0
61.659229	220.0
61.851616	120.0
61.867966	200.0
61.882927	140.0
61.911114	56.0
61.956539	124.0
62.066257	176.0
62.133701	192.0
62.144684	144.0
62.191765	180.0
62.207462	176.0
62.325256	76.0
62.353546	124.0
62.391273	172.0
62.423229	196.0
62.474625	204.0
62.627209	168.0
62.701126	152.0
62.707481	128.0
62.74551	176.0
62.762856	120.0
62.79282	212.0
62.833836	200.0
62.847614	180.0
62.866703	212.0
62.893803	188.0
62.956959	36.0
62.988548	224.0
63.059654	148.0
63.0802	140.0
63.106236	120.0
63.121311	148.0
63.167175	128.0
63.189327	148.0
63.20673	168.0
63.271626	108.0
63.341309	136.0
63.352398	184.0
63.38567	216.0
63.425293	216.0
63.583904	100.0
63.620415	184.0
63.654449	184.0
63.679169	136.0
63.715153	232.0
63.736362	156.0
63.750664	164.0
63.763378	196.0
63.857185	176.0
63.877026	236.0
63.931961	216.0
63.982899	180.0
64.011559	196.0
64.022705	128.0
64.04023	192.0
64.056152	160.0
64.094391	264.0
64.129456	160.0
64.166122	44.0
64.320869	104.0
64.348007	136.0
64.370361	176.0
64.493385	128.0
64.635719	108.0
64.701347	156.0
64.712555	96.0
64.73497	140.0
64.750992	156.0
64.889992	188.0
64.917274	116.0
64.935303	136.0
64.981827	100.0
65.015526	164.0
65.054047	224.0
65.12149	72.0
65.134338	152.0
65.204041	216.0
65.235855	164.0
65.264519	176.0
65.335289	124.0
65.362648	152.0
65.404411	180.0
65.436684	188.0
65.468895	56.0
65.524498	184.0
65.559113	168.0
65.618752	264.0
65.646164	172.0
65.759102	140.0
65.778473	148.0
65.794617	60.0
65.82972	172.0
65.860825	156.0
65.97879	124.0
66.129822	220.0
66.206947	112.0
66.232864	176.0
66.253922	188.0
66.274986	120.0
66.323608	172.0
66.371368	80.0
66.396568	136.0
66.410355	160.0
66.432259	236.0
66.489044	176.0
66.524757	176.0
66.565346	172.0
66.599457	152.0
66.614075	240.0
66.627068	180.0
66.702591	144.0
66.838448	72.0
66.977158	160.0
67.007744	168.0
67.027336	180.0
67.154106	164.0
67.226288	152.0
67.257301	112.0
67.322609	176.0
67.402657	140.0
67.420631	164.0
67.470642	168.0
67.514519	140.0
67.585793	240.0
67.615532	208.0
67.769188	120.0
67.795403	156.0
67.828186	152.0
67.856056	52.0
67.869171	40.0
67.89666	152.0
67.908531	176.0
67.962891	180.0
67.974159	328.0
68.029961	52.0
68.122025	132.0
68.133423	176.0
68.17086	204.0
68.251236	136.0
68.2715	360.0
68.286301	148.0
68.376793	184.0
68.460762	136.0
68.513466	84.0
68.534889	144.0
68.605759	152.0
68.630791	156.0
68.648628	204.0
68.675018	92.0
68.691513	148.0
68.743828	136.0
68.874786	176.0
68.962318	188.0
68.995384	148.0
69.023491	232.0
69.056564	104.0
69.106194	172.0
69.157455	168.0
69.20385	168.0
69.374504	60.0
69.396057	140.0
69.409325	140.0
69.490601	188.0
69.513832	124.0
69.595169	212.0
69.649971	128.0
69.766129	196.0
69.799553	128.0
69.821358	176.0
69.846123	220.0
69.902687	184.0
69.919334	148.0
69.944298	148.0
69.979713	192.0
70.167534	116.0
70.282623	60.0
70.32782	240.0
70.374428	200.0
70.406158	204.0
70.422859	204.0
70.452927	176.0
70.485725	152.0
70.511818	212.0
70.586639	128.0
70.612724	188.0
70.629326	184.0
70.673622	196.0
70.708763	140.0
70.73053	156.0
70.774055	164.0
70.799171	84.0
70.881927	224.0
70.959892	180.0
70.991905	172.0
71.042313	144.0
71.066559	168.0
71.361328	40.0
71.415138	100.0
71.431961	108.0
71.482437	188.0
71.497581	48.0
71.529564	172.0
71.553673	220.0
71.585129	184.0
71.635658	92.0
71.664299	188.0
71.676094	128.0
71.711266	124.0
71.766953	200.0
71.795242	372.0
71.804749	140.0
71.913887	160.0
71.989861	232.0
72.001686	192.0
72.077705	28.0
72.109818	196.0
72.140244	132.0
72.209572	32.0
72.26709	136.0
72.336479	148.0
72.377113	36.0
72.388962	148.0
72.468575	100.0
72.497383	132.0
72.510941	88.0
72.548233	52.0
72.6008	212.0
72.612671	156.0
72.677139	212.0
72.741631	52.0
72.81974	152.0
72.918282	152.0
72.93528	196.0
73.039009	172.0
73.069626	220.0
73.095154	36.0
73.110466	112.0
73.176857	168.0
73.219429	128.0
73.255219	328.0
73.289276	168.0
73.301201	184.0
73.317505	140.0
73.384727	80.0
73.415421	180.0
73.465172	188.0
73.507538	140.0
73.543381	188.0
73.637978	188.0
73.698792	176.0
73.726135	140.0
73.744186	196.0
73.760315	132.0
73.775703	88.0
73.909111	192.0
73.938202	112.0
73.963875	148.0
73.992981	112.0
74.031143	320.0
74.126587	44.0
74.172859	128.0
74.239731	192.0
74.316925	164.0
74.328934	180.0
74.368828	164.0
74.504066	172.0
74.548744	132.0
74.662209	184.0
74.784363	136.0
74.863564	196.0
74.877342	160.0
74.894562	168.0
75.022087	136.0
75.04277	44.0
75.125557	108.0
75.170418	128.0
75.229103	192.0
75.296448	208.0
75.325813	152.0
75.33963	168.0
75.358635	152.0
75.407921	184.0
75.441597	104.0
75.455429	128.0
75.521141	132.0
75.61071	172.0
75.694206	132.0
75.732307	192.0
75.766953	208.0
75.825745	160.0
75.885956	152.0
75.934937	168.0
75.997551	168.0
76.072182	60.0
76.117325	148.0
76.155533	48.0
76.232254	172.0
76.284172	140.0
76.298027	148.0
76.325851	224.0
76.438919	192.0
76.454582	100.0
76.477211	64.0
76.520729	204.0
76.607811	132.0
76.635132	164.0
76.733292	136.0
76.745499	180.0
76.777679	172.0
76.794327	96.0
76.811768	204.0
76.900757	204.0
76.942657	164.0
76.986313	188.0
77.029976	152.0
77.149872	184.0
77.178535	164.0
77.206512	148.0
77.293983	192.0
77.474327	84.0
77.491844	84.0
77.804031	116.0
77.911163	140.0
77.923462	136.0
77.942795	164.0
77.962219	216.0
78.002548	136.0
78.065842	192.0
78.086952	56.0
78.113693	136.0
78.170609	116.0
78.181953	164.0
78.194275	52.0
78.25338	108.0
78.303436	180.0
78.349236	236.0
78.382446	160.0
78.38826	188.0
78.437347	152.0
78.503723	204.0
78.539619	172.0
78.557266	104.0
78.604904	124.0
78.666679	244.0
78.698456	288.0
78.710815	68.0
78.753204	80.0
78.809418	156.0
78.901642	88.0
78.916763	232.0
78.967072	92.0
79.107292	224.0
79.206604	160.0
79.248383	168.0
79.266266	124.0
79.397896	192.0
79.409081	108.0
79.427605	168.0
79.457764	160.0
79.523422	60.0
79.717827	184.0
79.752556	128.0
79.780998	168.0
79.868134	80.0
79.883217	200.0
79.912613	96.0
79.928627	84.0
79.953537	128.0
79.994476	160.0
80.015839	184.0
80.062141	108.0
80.087929	148.0
80.161903	200.0
80.17794	156.0
80.227852	188.0
80.244423	232.0
80.295609	88.0
80.345161	180.0
80.358047	228.0
80.375893	156.0
80.397301	172.0
80.411583	88.0
80.566933	208.0
80.641991	88.0
80.656288	176.0
80.672379	148.0
80.688469	88.0
80.708138	136.0
80.740959	204.0
80.819038	152.0
80.874512	116.0
80.899574	172.0
80.980156	196.0
81.02494	212.0
81.058983	180.0
81.071526	56.0
81.089447	212.0
81.171921	80.0
81.210266	168.0
81.245461	164.0
81.258018	128.0
81.306465	140.0
81.336983	148.0
81.428551	92.0
81.504692	136.0
81.532761	140.0
81.597473	128.0
81.622643	136.0
81.64962	136.0
81.692787	128.0
81.717278	300.0
81.807961	152.0
81.829567	340.0
81.878189	140.0
81.914932	220.0
81.930428	228.0
81.97007	208.0
82.031349	132.0
82.060196	172.0
82.074615	180.0
82.161194	116.0
82.20269	168.0
82.249619	68.0
82.336288	148.0
82.374214	164.0
82.388672	104.0
82.437454	104.0
82.473602	32.0
82.488068	56.0
82.52784	64.0
82.592949	180.0
82.607414	128.0
82.674362	132.0
82.741341	180.0
82.772118	132.0
82.799286	128.0
82.861725	196.0
82.88443	108.0
82.911613	244.0
82.942421	160.0
82.991371	140.0
83.109276	124.0
83.161903	168.0
83.209106	268.0
83.232704	132.0
83.254501	72.0
83.269875	180.0
83.318077	192.0
83.330795	96.0
83.365318	116.0
83.428932	164.0
83.58886	164.0
83.629517	136.0
83.67215	76.0
83.67791	52.0
83.682861	120.0
83.742554	196.0
83.80204	328.0
83.836662	152.0
83.910263	212.0
83.957886	228.0
84.007179	208.0
84.037834	128.0
84.064621	148.0
84.088348	136.0
84.119377	148.0
84.227119	176.0
84.245384	144.0
84.342239	144.0
84.365608	188.0
84.426338	100.0
84.470238	44.0
84.49585	140.0
84.530617	120.0
84.580032	116.0
84.59285	168.0
84.634956	108.0
84.675247	168.0
84.732033	200.0
84.759514	180.0
84.790672	56.0
84.82	200.0
84.854828	180.0
84.915344	120.0
84.968544	152.0
84.990562	208.0
85.036438	208.0
85.082329	156.0
85.152107	192.0
85.174149	104.0
85.308296	128.0
85.359779	232.0
85.409439	72.0
85.434273	160.0
85.46463	56.0
85.511353	164.0
85.514992	164.0
85.541931	156.0
85.626633	228.0
85.687416	116.0
85.719292	200.0
85.74823	112.0
85.855324	212.0
85.903854	140.0
85.92067	180.0
85.97139	132.0
86.050766	136.0
86.076614	140.0
86.10247	80.0
86.194839	164.0
86.231796	156.0
86.259529	48.0
86.272469	224.0
86.327934	76.0
86.351982	224.0
86.364929	164.0
86.382294	164.0
86.427826	252.0
86.455589	212.0
86.548141	164.0
86.590736	124.0
86.703758	180.0
86.716728	204.0
86.745323	376.0
86.787178	108.0
86.809425	128.0
86.839279	328.0
86.863213	88.0
86.946709	116.0
87.059959	104.0
87.130753	144.0
87.162132	176.0
87.245773	156.0
87.260643	352.0
87.292252	180.0
87.342468	300.0
87.36483	224.0
87.461563	136.0
87.569557	132.0
87.59005	144.0
87.653389	104.0
87.682388	164.0
87.734016	124.0
87.77269	52.0
87.823051	96.0
87.841698	52.0
88.05262	44.0
88.099319	176.0
88.224533	72.0
88.241943	256.0
88.29277	152.0
88.36068	196.0
88.381645	148.0
88.418053	204.0
88.441528	76.0
88.460251	144.0
88.499931	248.0
88.576355	148.0
88.595085	360.0
88.617569	172.0
88.63443	148.0
88.71315	128.0
88.776901	196.0
88.85006	136.0
88.883827	160.0
88.915733	128.0
88.934502	152.0
88.994576	180.0
89.042198	156.0
89.084724	168.0
89.120422	60.0
89.15049	144.0
89.203117	48.0
89.257645	160.0
89.30217	136.0
89.340919	160.0
89.371307	224.0
89.403603	204.0
89.431236	188.0
89.485321	128.0
89.534279	148.0
89.547462	200.0
89.577599	128.0
89.641663	92.0
89.684212	176.0
89.705742	84.0
89.720825	200.0
89.818886	164.0
89.854729	144.0
89.871712	228.0
89.903793	188.0
89.926437	156.0
90.050095	236.0
90.073723	156.0
90.09639	208.0
90.109451	136.0
90.188988	168.0
90.368645	140.0
90.419739	120.0
90.4841	68.0
90.520081	148.0
90.533333	160.0
90.698128	172.0
90.722816	116.0
90.78006	168.0
90.810043	152.0
90.825035	208.0
90.830467	188.0
90.83799	164.0
90.863159	188.0
90.91819	184.0
90.978355	160.0
90.999947	256.0
91.030724	412.0
91.054283	39416.0
91.127899	64.0
91.148872	76.0
91.176476	80.0
91.193581	68.0
91.253044	128.0
91.279739	164.0
91.309563	192.0
91.364212	104.0
91.397072	80.0
91.439667	156.0
91.480812	44.0
91.497948	140.0
91.515083	60.0
91.532219	40.0
91.556023	208.0
91.596977	52.0
91.618797	44.0
91.647934	268.0
91.673187	80.0
91.734184	136.0
91.766594	44.0
91.798759	152.0
91.813919	244.0
91.862297	132.0
91.888657	100.0
91.935196	120.0
91.974533	88.0
92.058067	3908.0
92.091011	168.0
92.11393	80.0
92.162514	112.0
92.192268	152.0
92.207558	188.0
92.229813	348.0
92.258606	204.0
92.273033	192.0
92.293587	48.0
92.311371	160.0
92.349045	108.0
92.368172	84.0
92.413132	80.0
92.450447	104.0
92.484482	232.0
92.527016	160.0
92.555733	52.0
92.582542	184.0
92.612122	108.0
92.634575	164.0
92.666428	76.0
92.685989	184.0
92.706161	144.0
92.735817	68.0
92.771973	116.0
92.791412	100.0
92.837433	36.0
92.979401	36.0
93.006271	228.0
93.063026	464.0
93.102272	240.0
93.136841	128.0
93.150291	136.0
93.227142	80.0
93.257896	160.0
93.384796	100.0
93.402107	76.0
93.498314	212.0
93.559906	120.0
93.597511	168.0
93.673531	116.0
93.74675	124.0
93.827705	212.0
93.85582	192.0
93.920273	188.0
93.933769	164.0
93.964638	216.0
93.993584	176.0
94.009506	160.0
94.066101	592.0
94.175056	132.0
94.22142	188.0
94.242676	116.0
94.316116	60.0
94.337379	176.0
94.397316	144.0
94.488228	140.0
94.545532	176.0
94.563698	212.0
94.606285	124.0
94.645004	160.0
94.668243	204.0
94.700165	264.0
94.718597	168.0
94.786407	172.0
94.832924	108.0
94.93956	128.0
94.969002	216.0
95.039566	188.0
95.054016	132.0
95.068359	260.0
95.094765	136.0
95.121941	112.0
95.158829	76.0
95.248161	168.0
95.273415	128.0
95.29673	212.0
95.362808	124.0
95.380302	184.0
95.436676	96.0
95.46196	148.0
95.520309	168.0
95.681061	128.0
95.716881	204.0
95.831139	176.0
95.890266	144.0
95.93705	172.0
95.960442	164.0
96.024796	204.0
96.082764	196.0
96.217987	180.0
96.237511	168.0
96.288284	80.0
96.307816	152.0
96.344933	164.0
96.427002	100.0
96.44593	152.0
96.52475	116.0
96.552536	232.0
96.577553	116.0
96.595161	156.0
96.798706	60.0
96.883186	124.0
96.908401	116.0
96.980911	172.0
97.076126	3040.0
97.096588	164.0
97.114243	36.0
97.135818	196.0
97.171135	236.0
97.259445	180.0
97.446007	192.0
97.492729	216.0
97.528549	188.0
97.559998	80.0
97.610046	144.0
97.642586	168.0
97.672089	116.0
97.720726	156.0
98.026482	148.0
98.080383	172.0
98.088051	168.0
98.119125	160.0
98.146675	148.0
98.167206	204.0
98.24929	124.0
98.276909	152.0
98.328217	204.0
98.450623	112.0
98.478271	176.0
98.495186	220.0
98.541489	152.0
98.586937	160.0
98.626465	164.0
98.697639	96.0
98.77755	148.0
98.794556	120.0
98.816315	156.0
98.840057	132.0
98.869865	132.0
98.969292	180.0
99.006348	160.0
99.057846	188.0
99.091942	840.0
99.135117	176.0
99.165665	136.0
99.212425	140.0
99.23423	136.0
99.283806	76.0
99.37307	124.0
99.478378	128.0
99.521935	124.0
99.559662	140.0
99.581512	132.0
99.631172	148.0
99.763016	164.0
99.847839	132.0
99.863747	152.0
99.929398	172.0
99.955269	252.0
99.989098	196.0
100.009476	184.0
100.038857	296.0
100.073715	164.0
100.092613	268.0
100.217384	144.0
100.331711	152.0
100.385551	220.0
100.405617	196.0
100.423447	168.0
100.452728	188.0
100.475311	124.0
100.531181	180.0
100.545151	80.0
100.642967	108.0
100.711952	196.0
100.789261	116.0
100.824753	156.0
100.854729	120.0
100.932701	228.0
101.048714	168.0
101.078728	184.0
101.122757	128.0
101.168793	224.0
101.19883	112.0
101.230865	96.0
101.385124	68.0
101.40316	168.0
101.429214	152.0
101.483345	124.0
101.531471	136.0
101.635681	224.0
101.746185	124.0
101.765213	208.0
101.802406	132.0
101.858643	180.0
101.93499	116.0
101.951065	152.0
101.997292	124.0
102.053528	324.0
102.087769	176.0
102.150124	128.0
102.206459	148.0
102.313133	72.0
102.361458	128.0
102.395691	204.0
102.444031	92.0
102.544785	164.0
102.738365	152.0
102.849358	180.0
102.905884	404.0
102.978584	108.0
103.002823	144.0
103.052971	344.0
103.107887	148.0
103.14225	116.0
103.310089	176.0
103.348534	152.0
103.404167	112.0
103.478073	188.0
103.502373	224.0
103.54895	72.0
103.617104	180.0
103.644165	128.0
103.694824	148.0
103.741447	272.0
103.773888	108.0
103.800247	196.0
103.840805	204.0
103.930069	184.0
103.950363	80.0
103.984863	164.0
104.035606	188.0
104.053879	116.0
104.098549	160.0
104.234657	180.0
104.258942	160.0
104.352547	188.0
104.649246	204.0
104.710701	124.0
104.751442	128.0
104.776489	176.0
104.926704	124.0
104.961365	212.0
105.004326	184.0
105.02459	112.0
105.044884	164.0
105.069466	152.0
105.128639	160.0
105.144905	128.0
105.181709	80.0
105.238869	240.0
105.257248	32.0
105.296051	44.0
105.394104	108.0
105.416588	140.0
105.445198	92.0
105.463593	168.0
105.594452	144.0
105.661957	60.0
105.707893	168.0
105.756371	176.0
105.778603	184.0
105.825691	188.0
105.844124	156.0
105.945435	180.0
105.983406	168.0
106.068611	176.0
106.087936	208.0
106.122368	196.0
106.155602	148.0
106.172005	156.0
106.244987	124.0
106.379242	164.0
106.449051	124.0
106.469589	184.0
106.576408	164.0
106.660667	160.0
106.70179	336.0
106.73674	140.0
106.764893	232.0
106.851929	144.0
106.88073	52.0
106.907486	156.0
106.930122	64.0
107.020699	148.0
107.12368	124.0
107.2164	120.0
107.274109	172.0
107.293579	144.0
107.323593	192.0
107.368958	180.0
107.525757	276.0
107.604202	236.0
107.672768	156.0
107.688873	36.0
107.823166	236.0
107.930664	128.0
107.991196	148.0
108.07827	308.0
108.116844	180.0
108.141678	148.0
108.192673	196.0
108.230698	104.0
108.249336	100.0
108.328041	148.0
108.407593	172.0
108.427498	172.0
108.477249	132.0
108.527916	200.0
108.556038	180.0
108.570557	156.0
108.584137	108.0
108.645226	180.0
108.690872	172.0
108.730301	212.0
108.925476	148.0
108.940018	84.0
109.075935	828.0
109.102966	240.0
109.179054	164.0
109.199425	176.0
109.328842	156.0
109.401695	208.0
109.430847	84.0
109.453751	116.0
109.659996	184.0
109.705856	76.0
109.830971	188.0
109.851463	136.0
109.906075	244.0
109.974945	160.0
110.085526	180.0
110.121101	92.0
110.141991	180.0
110.206757	96.0
110.300804	148.0
110.334251	68.0
110.348885	32.0
110.376068	144.0
110.417892	164.0
110.53923	72.0
110.590668	132.0
110.618767	172.0
110.673195	132.0
110.731834	144.0
110.754875	152.0
110.780014	200.0
110.826103	120.0
110.842865	60.0
110.893166	188.0
110.993797	120.0
111.03154	208.0
111.093468	284.0
111.155319	172.0
111.247665	36.0
111.321152	128.0
111.367355	136.0
111.384163	64.0
111.413574	56.0
111.43248	108.0
111.493423	180.0
111.514435	184.0
111.541763	172.0
111.573296	196.0
111.644791	136.0
111.695267	144.0
111.7668	88.0
111.806786	180.0
111.91835	200.0
111.935196	80.0
112.061584	184.0
112.084763	180.0
112.145454	200.0
112.181709	148.0
112.204903	84.0
112.272377	164.0
112.311447	176.0
112.350426	144.0
112.382072	92.0
112.417946	148.0
112.470711	216.0
112.523483	124.0
112.584724	152.0
112.603729	104.0
112.696678	136.0
112.743423	132.0
112.910187	116.0
112.9673	128.0
112.986336	88.0
113.001144	108.0
113.087914	160.0
113.112045	220.0
113.151421	36.0
113.168358	104.0
113.250946	148.0
113.278488	100.0
113.322975	60.0
113.363235	176.0
113.425629	184.0
113.52623	152.0
113.549805	128.0
113.600708	160.0
113.712379	172.0
113.733719	288.0
113.764114	108.0
113.781097	156.0
113.815071	128.0
113.874535	168.0
114.048767	96.0
114.082779	132.0
114.165703	132.0
114.203987	120.0
114.231636	164.0
114.26355	140.0
114.369949	192.0
114.489182	176.0
114.540298	168.0
114.586708	184.0
114.655357	120.0
114.715042	316.0
114.764076	148.0
114.795448	228.0
114.874977	200.0
115.008003	176.0
115.049515	308.0
115.148201	300.0
115.227234	168.0
115.257149	112.0
115.310394	144.0
115.353325	132.0
115.37043	116.0
115.431465	248.0
115.458099	224.0
115.503014	72.0
115.561623	172.0
115.581047	232.0
115.661362	48.0
115.770554	68.0
115.815529	108.0
115.843376	128.0
115.858376	136.0
115.879799	128.0
115.995529	184.0
116.01503	164.0
116.042686	176.0
116.057701	168.0
116.098442	212.0
116.186386	140.0
116.240181	168.0
116.456863	108.0
116.482643	112.0
116.551392	200.0
116.676056	80.0
116.734856	208.0
116.768974	152.0
116.802933	188.0
116.87178	52.0
116.951408	160.0
117.012314	192.0
117.065331	192.0
117.087051	168.0
117.104279	76.0
117.126678	100.0
117.145203	80.0
117.168907	180.0
117.186142	140.0
117.242165	120.0
117.259407	120.0
117.296051	108.0
117.340271	172.0
117.548347	196.0
117.637909	76.0
117.699501	204.0
117.720032	268.0
117.755646	52.0
117.829094	164.0
117.852859	116.0
117.870148	132.0
117.926338	156.0
117.941467	140.0
118.021461	32.0
118.077682	152.0
118.159882	176.0
118.207489	196.0
118.226631	184.0
118.313545	180.0
118.504135	92.0
118.615089	144.0
118.65802	180.0
118.688377	128.0
118.768623	116.0
118.788147	100.0
118.807671	208.0
118.979965	144.0
119.013855	124.0
119.059464	140.0
119.092041	336.0
119.124626	120.0
119.205017	116.0
119.244133	208.0
119.303909	200.0
119.415894	168.0
119.509438	76.0
119.544258	68.0
119.637054	164.0
119.672684	60.0
119.809898	80.0
119.849182	140.0
119.881332	172.0
119.92321	40.0
119.958092	192.0
120.054024	144.0
120.07769	296.0
120.097649	56.0
120.112915	64.0
120.16964	128.0
120.246017	180.0
120.289665	84.0
120.40976	136.0
120.577988	144.0
120.595474	176.0
120.61515	52.0
120.728844	168.0
120.785713	100.0
120.976662	108.0
120.983597	28.0
120.990906	120.0
121.013313	156.0
121.0812	212.0
121.111862	100.0
121.171005	128.0
121.232361	64.0
121.267426	168.0
121.315651	244.0
121.341827	132.0
121.381432	168.0
121.431396	148.0
121.449417	144.0
121.473549	128.0
121.515228	128.0
121.539368	184.0
121.627151	148.0
121.664917	196.0
121.767677	236.0
121.811607	208.0
121.897293	208.0
121.925865	160.0
122.035774	92.0
122.053368	36.0
122.068756	72.0
122.096069	172.0
122.114944	200.0
122.156738	224.0
122.242546	72.0
122.270576	184.0
122.297562	168.0
122.334984	144.0
122.379021	352.0
122.394432	108.0
122.442879	100.0
122.469482	156.0
122.612526	160.0
122.672035	156.0
122.742592	104.0
122.762436	64.0
122.788902	176.0
122.910233	84.0
123.016174	180.0
123.038254	172.0
123.053703	336.0
123.06916	124.0
123.091248	152.0
123.161919	120.0
123.181801	144.0
123.460297	140.0
123.528862	144.0
123.549034	136.0
123.592506	120.0
123.658516	188.0
123.74575	204.0
123.765678	32.0
123.805534	132.0
123.856476	60.0
123.894135	32.0
123.909645	192.0
123.971687	140.0
124.117996	84.0
124.142387	68.0
124.204491	188.0
124.264389	40.0
124.299889	144.0
124.481918	228.0
124.555206	100.0
124.590752	168.0
124.606308	124.0
124.65519	260.0
124.686302	184.0
124.724091	336.0
124.779663	200.0
124.913101	148.0
124.928673	60.0
125.019897	180.0
125.070023	940.0
125.097664	180.0
125.259621	212.0
125.279343	216.0
125.360626	176.0
125.405197	164.0
125.446373	136.0
125.478767	200.0
125.660591	172.0
125.744217	228.0
125.762077	56.0
125.804489	112.0
125.882637	104.0
125.904968	132.0
126.046906	152.0
126.074341	192.0
126.103813	188.0
126.119461	108.0
126.221809	184.0
126.2715	132.0
126.302811	148.0
126.383354	132.0
126.410202	48.0
126.495255	180.0
126.517639	32.0
126.574104	164.0
126.665443	140.0
126.701286	124.0
126.755058	184.0
126.78022	212.0
126.832306	180.0
126.871559	172.0
126.950821	196.0
127.053268	204.0
127.087135	296.0
127.11834	96.0
127.165466	204.0
127.203629	184.0
127.262001	136.0
127.375793	244.0
127.45517	168.0
127.61911	124.0
127.652985	168.0
127.67997	172.0
127.704712	104.0
127.74295	96.0
127.808197	208.0
127.830696	152.0
127.859665	156.0
127.981514	52.0
128.064896	304.0
128.090714	124.0
128.100876	128.0
128.127914	136.0
128.229324	168.0
128.25412	228.0
128.283417	84.0
128.314987	60.0
128.337524	148.0
128.427734	200.0
128.56311	200.0
128.681458	240.0
128.723389	104.0
128.76178	136.0
128.849869	112.0
128.992249	236.0
129.068466	352.0
129.093994	172.0
129.127975	160.0
129.14827	220.0
129.184464	156.0
129.213882	28.0
129.281769	136.0
129.308411	196.0
129.347397	96.0
129.408524	220.0
129.451553	176.0
129.471085	160.0
129.521759	236.0
129.553467	148.0
129.637314	184.0
129.674362	148.0
129.725708	200.0
129.748383	124.0
129.834549	80.0
129.875366	156.0
129.893509	200.0
129.934891	184.0
129.961578	152.0
130.013214	196.0
130.059204	184.0
130.100021	172.0
130.115921	156.0
130.493073	176.0
130.513535	144.0
130.577209	216.0
130.615875	232.0
130.778061	188.0
130.804749	148.0
130.838898	188.0
130.879868	108.0
130.898087	188.0
130.981384	176.0
131.048431	192.0
131.068756	400.0
131.112442	180.0
131.137299	144.0
131.176605	148.0
131.205688	240.0
131.230774	236.0
131.300903	180.0
131.306564	136.0
131.31369	212.0
131.349365	228.0
131.415527	108.0
131.50058	264.0
131.666626	108.0
131.700882	216.0
131.769424	80.0
131.805969	200.0
131.849396	192.0
131.8974	156.0
131.968262	196.0
132.04657	164.0
132.082047	128.0
132.135223	132.0
132.185562	252.0
132.233627	184.0
132.272537	152.0
132.313751	168.0
132.332062	140.0
132.373276	148.0
132.44339	124.0
132.489258	164.0
132.517593	104.0
132.540497	128.0
132.595917	132.0
132.641342	232.0
132.792679	144.0
132.941803	128.0
132.976227	128.0
133.049683	128.0
133.079529	176.0
133.118561	208.0
133.187469	120.0
133.247269	120.0
133.351898	176.0
133.451752	128.0
133.578247	112.0
133.626556	160.0
133.65123	244.0
133.677185	128.0
133.716309	164.0
133.815292	216.0
133.836014	120.0
133.868256	192.0
133.923523	132.0
133.962677	124.0
133.994934	128.0
134.027191	136.0
134.061752	176.0
134.094986	376.0
134.285385	156.0
134.373047	72.0
134.428436	152.0
134.533356	156.0
134.650055	272.0
134.774811	204.0
134.834885	148.0
134.862625	156.0
134.890366	152.0
134.945847	104.0
135.058121	116.0
135.112579	132.0
135.155823	184.0
135.385513	124.0
135.409592	80.0
135.454987	132.0
135.670502	148.0
135.723831	232.0
135.756302	196.0
135.811966	112.0
135.86763	160.0
135.897797	160.0
135.927963	316.0
135.946533	204.0
135.985977	148.0
136.004547	156.0
136.039368	188.0
136.065689	120.0
136.095093	212.0
136.178696	112.0
136.212555	312.0
136.234451	152.0
136.328308	148.0
136.529648	156.0
136.54567	152.0
136.629669	160.0
136.671539	120.0
136.871719	108.0
136.997498	120.0
137.076721	96.0
137.107986	148.0
137.139633	68.0
137.20369	192.0
137.274857	104.0
137.340164	128.0
137.540833	176.0
137.638885	144.0
137.741653	156.0
137.802277	76.0
137.982361	124.0
138.001068	144.0
138.064209	124.0
138.080582	116.0
138.108643	52.0
138.298172	172.0
138.328598	144.0
138.366058	144.0
138.405853	160.0
138.421005	104.0
138.50827	160.0
138.60965	192.0
138.626053	32.0
138.743256	92.0
138.792496	168.0
138.840012	168.0
138.862839	132.0
138.881607	240.0
138.942596	68.0
138.982483	168.0
139.010651	160.0
139.060257	352.0
139.086914	324.0
139.120529	596.0
139.243057	212.0
139.325272	132.0
139.466278	108.0
139.506241	92.0
139.565018	172.0
139.665405	140.0
139.710831	164.0
139.769653	192.0
139.812012	148.0
139.847321	156.0
139.908325	148.0
139.934418	136.0
139.969742	172.0
140.000351	196.0
140.01683	116.0
140.048676	348.0
140.071014	176.0
140.087494	44.0
140.120819	140.0
140.195892	120.0
140.214737	168.0
140.240662	84.0
140.257172	128.0
140.336487	224.0
140.358536	168.0
140.441086	36.0
140.542648	160.0
140.641647	156.0
140.688858	104.0
140.705383	152.0
140.762054	144.0
140.792755	124.0
140.818741	176.0
140.873062	132.0
140.896683	72.0
141.06543	632.0
141.098846	164.0
141.138855	304.0
141.159058	108.0
141.180344	48.0
141.207535	120.0
141.246567	52.0
141.270218	52.0
141.293869	36.0
141.31517	152.0
141.341202	96.0
141.5495	192.0
141.675034	132.0
141.767441	160.0
141.791153	124.0
141.82196	144.0
142.002151	108.0
142.074158	480.0
142.109619	132.0
142.14212	132.0
142.158737	148.0
142.251297	196.0
142.282166	156.0
142.313034	164.0
142.357178	196.0
142.396149	320.0
142.437164	180.0
142.545822	36.0
142.619492	172.0
142.675537	188.0
142.719345	140.0
142.755005	48.0
142.79068	128.0
142.876312	164.0
142.923904	144.0
143.079376	516.0
143.118988	292.0
143.161957	148.0
143.21434	108.0
143.435944	132.0
143.459793	52.0
143.505081	152.0
143.536987	168.0
143.573029	252.0
143.69014	160.0
143.724533	160.0
143.822372	112.0
143.927414	104.0
143.999069	44.0
144.022949	108.0
144.081024	2964.0
144.120895	104.0
144.137619	128.0
144.238007	152.0
144.261902	172.0
144.304947	180.0
144.362335	28.0
144.388641	56.0
144.412552	164.0
144.529785	140.0
144.569489	148.0
144.618332	180.0
144.649445	140.0
144.735626	104.0
144.79071	156.0
144.814667	40.0
144.936844	120.0
144.958405	156.0
144.989563	148.0
145.011139	144.0
145.037506	172.0
145.085541	692.0
145.135788	132.0
145.16217	80.0
145.178955	160.0
145.22998	160.0
145.303528	184.0
145.385269	208.0
145.433273	152.0
145.462082	196.0
145.561554	148.0
145.619858	180.0
145.668594	128.0
145.749054	220.0
145.769501	180.0
145.839203	176.0
145.927322	140.0
145.973846	172.0
146.060425	176.0
146.094101	168.0
146.118164	180.0
146.143555	108.0
146.207184	148.0
146.262787	296.0
146.289032	212.0
146.314377	196.0
146.345413	192.0
146.368484	72.0
146.440735	144.0
146.474457	172.0
146.496902	88.0
146.544312	160.0
146.643127	212.0
146.674454	124.0
146.741959	56.0
146.775711	92.0
146.809479	32.0
146.843231	124.0
146.972549	220.0
147.014526	144.0
147.064133	124.0
147.101578	192.0
147.159363	116.0
147.202835	100.0
147.24147	60.0
147.311523	176.0
147.37236	196.0
147.408157	192.0
147.435852	156.0
147.564499	200.0
147.594299	160.0
147.616058	140.0
147.723541	316.0
147.751511	148.0
147.813889	236.0
148.063766	100.0
148.109222	196.0
148.206696	208.0
148.243042	132.0
148.638306	208.0
148.669861	156.0
148.749954	160.0
148.771805	124.0
148.793655	64.0
148.876205	168.0
148.970932	148.0
149.00737	272.0
149.029251	40.0
149.31366	164.0
149.391495	56.0
149.445023	196.0
149.488831	68.0
149.642181	160.0
149.693314	176.0
149.777023	184.0
149.807785	160.0
149.834579	132.0
149.895493	92.0
149.912552	180.0
149.985672	176.0
150.070999	176.0
150.112457	136.0
150.136841	104.0
150.229523	132.0
150.295395	156.0
150.397903	124.0
150.505325	208.0
150.546829	184.0
150.633484	184.0
150.686813	260.0
150.771591	208.0
150.82048	152.0
150.86937	180.0
150.94516	60.0
151.030762	80.0
151.06012	100.0
151.123718	156.0
151.150635	148.0
151.209366	144.0
151.270569	132.0
151.339233	176.0
151.375854	36.0
151.405228	92.0
151.5186	132.0
151.601227	92.0
151.635529	144.0
151.681412	184.0
151.782623	176.0
151.912613	164.0
151.979767	168.0
152.0737	168.0
152.128571	180.0
152.148209	156.0
152.170303	144.0
152.204681	176.0
152.226776	176.0
152.263626	204.0
152.288177	148.0
152.347137	92.0
152.386444	128.0
152.514236	84.0
152.565857	224.0
152.693359	348.0
152.750534	248.0
152.826553	144.0
152.851669	156.0
152.88562	60.0
152.957001	188.0
153.021301	132.0
153.067017	524.0
153.107193	152.0
153.12561	176.0
153.224411	348.0
153.32399	224.0
153.363434	180.0
153.409698	208.0
153.479294	168.0
153.517868	156.0
153.560684	180.0
153.597672	140.0
153.678528	228.0
153.718567	136.0
153.883957	52.0
153.91272	208.0
153.943207	188.0
154.017303	180.0
154.042007	144.0
154.063721	432.0
154.18779	156.0
154.234756	200.0
154.442459	108.0
154.541412	136.0
154.559265	132.0
154.581009	40.0
154.61528	324.0
154.645355	100.0
154.694855	152.0
154.774078	156.0
154.791412	128.0
154.860764	92.0
154.922684	164.0
154.986481	224.0
155.034195	104.0
155.075912	500.0
155.14325	132.0
155.187881	188.0
155.217575	168.0
155.244904	156.0
155.306458	88.0
155.320709	164.0
155.373886	32.0
155.419724	136.0
155.473221	144.0
155.540756	216.0
155.639465	104.0
155.701553	52.0
155.718933	116.0
155.760864	68.0
155.82576	168.0
155.845627	168.0
155.865509	112.0
155.920181	168.0
155.984802	204.0
156.075638	424.0
156.094208	116.0
156.198654	172.0
156.223541	40.0
156.240952	132.0
156.274048	160.0
156.31311	140.0
156.35791	56.0
156.382797	192.0
156.544617	84.0
156.562057	52.0
156.594421	172.0
156.636765	172.0
156.853561	192.0
156.945816	84.0
157.043076	164.0
157.063019	168.0
157.094482	1460.0
157.136703	188.0
157.175293	176.0
157.28511	128.0
157.352509	76.0
157.439911	156.0
157.487366	132.0
157.549805	152.0
157.579788	68.0
157.619766	168.0
157.684738	192.0
157.703384	152.0
157.724731	184.0
157.797241	76.0
157.826508	192.0
157.889755	208.0
157.991028	156.0
158.014755	144.0
158.031738	188.0
158.066116	152.0
158.095551	13204.0
158.153946	244.0
158.215622	52.0
158.234299	64.0
158.362793	56.0
158.401733	88.0
158.427917	76.0
158.458817	128.0
158.558212	104.0
158.578262	44.0
158.629715	156.0
158.678543	40.0
158.713638	144.0
158.741226	72.0
158.788879	108.0
158.81897	120.0
158.837524	324.0
158.899246	56.0
159.027878	292.0
159.100647	2352.0
159.165314	140.0
159.20549	164.0
159.305817	144.0
159.398926	200.0
159.419022	168.0
159.562302	164.0
159.625412	120.0
159.74588	92.0
159.801239	164.0
159.97348	164.0
160.033585	204.0
160.08316	156.0
160.108063	924.0
160.166275	148.0
160.19902	180.0
160.216644	120.0
160.312393	156.0
160.354401	132.0
160.375244	124.0
160.40062	180.0
160.430862	176.0
160.479675	212.0
160.521637	96.0
160.549377	104.0
160.582153	136.0
160.622513	164.0
160.708298	52.0
160.773117	168.0
160.837006	52.0
160.900116	184.0
160.955658	220.0
161.031418	140.0
161.092041	108.0
161.109726	152.0
161.132462	220.0
161.165314	96.0
161.213333	164.0
161.314423	136.0
161.402924	184.0
161.46434	112.0
161.536957	208.0
161.630569	172.0
161.681183	176.0
161.711563	148.0
161.855865	140.0
161.891953	176.0
162.050888	152.0
162.072937	132.0
162.091431	268.0
162.124374	132.0
162.147186	136.0
162.183777	176.0
162.218857	160.0
162.373596	132.0
162.40834	132.0
162.459076	48.0
162.476837	184.0
162.508041	160.0
162.532654	204.0
162.578339	68.0
162.603714	140.0
162.629089	168.0
162.674789	116.0
162.720474	180.0
162.745865	144.0
162.794113	168.0
162.865234	200.0
163.022751	120.0
163.045624	120.0
163.09137	80.0
163.138397	280.0
163.460144	220.0
163.477966	116.0
163.551773	136.0
163.625595	180.0
163.733047	60.0
163.798767	140.0
163.859909	132.0
163.923615	192.0
164.0383	284.0
164.091843	116.0
164.154999	244.0
164.198944	120.0
164.232681	176.0
164.512787	136.0
164.600388	168.0
164.640457	280.0
164.668625	148.0
164.747742	152.0
164.897186	132.0
164.947067	192.0
164.998199	120.0
165.070526	920.0
165.108154	108.0
165.161865	144.0
165.183655	92.0
165.238602	188.0
165.264191	104.0
165.284668	136.0
165.399292	244.0
165.464005	180.0
165.673843	120.0
165.791702	96.0
165.809647	44.0
165.889099	48.0
166.009613	260.0
166.037827	92.0
166.065918	664.0
166.103607	260.0
166.123245	112.0
166.155823	168.0
166.181473	164.0
166.304825	176.0
166.517761	128.0
166.553726	52.0
166.671906	128.0
166.733582	148.0
166.86467	212.0
166.898102	96.0
166.936676	128.0
166.963669	296.0
167.018967	112.0
167.076126	1088.0
167.134735	68.0
167.157776	156.0
167.224808	112.0
167.265991	152.0
167.314911	164.0
167.33551	144.0
167.448807	148.0
167.495178	172.0
167.569885	156.0
167.605957	88.0
167.688431	108.0
167.709045	120.0
167.745132	92.0
167.783798	200.0
167.889526	188.0
167.941101	176.0
167.993744	232.0
168.02623	208.0
168.080643	16292.0
168.120178	212.0
168.127228	168.0
168.144928	212.0
168.193039	144.0
168.214844	96.0
168.265167	232.0
168.307571	144.0
168.327682	216.0
168.353058	240.0
168.394318	224.0
168.431534	180.0
168.484879	160.0
168.538635	96.0
168.555542	168.0
168.594315	204.0
168.640564	76.0
168.689941	124.0
168.708038	108.0
168.736481	116.0
168.783508	128.0
168.845078	108.0
168.86319	52.0
168.886459	120.0
168.925262	100.0
168.983353	88.0
169.031815	200.0
169.085999	7996.0
169.184052	48.0
169.248779	160.0
169.266907	100.0
169.299835	84.0
169.339417	192.0
169.380859	112.0
169.424896	148.0
169.481903	232.0
169.528549	240.0
169.546692	80.0
169.577789	220.0
169.665924	80.0
169.691849	200.0
169.76445	224.0
169.8293	124.0
169.90712	128.0
169.951218	104.0
169.992737	232.0
170.01091	148.0
170.052429	192.0
170.096481	4344.0
170.137207	236.0
170.184418	108.0
170.226379	100.0
170.259018	176.0
170.283508	136.0
170.31665	132.0
170.34671	180.0
170.369232	44.0
170.447174	44.0
170.465363	160.0
170.590118	140.0
170.622879	200.0
170.664764	220.0
170.683487	180.0
170.73053	124.0
170.813766	152.0
170.852783	136.0
170.878799	60.0
170.897018	268.0
170.933441	160.0
170.969879	160.0
171.047348	68.0
171.101501	1624.0
171.1521	72.0
171.178131	52.0
171.231689	384.0
171.281281	140.0
171.307144	120.0
171.350052	84.0
171.378006	236.0
171.396942	132.0
171.480865	228.0
171.510254	168.0
171.568863	192.0
171.595047	160.0
171.649796	108.0
171.709778	112.0
171.767227	168.0
171.827164	144.0
171.871765	176.0
171.978516	180.0
172.038559	124.0
172.109146	1340.0
172.150696	76.0
172.212265	176.0
172.310165	160.0
172.362427	44.0
172.396393	124.0
172.48526	128.0
172.58461	184.0
172.642136	172.0
172.676132	180.0
172.70752	88.0
172.945633	76.0
172.995361	52.0
173.063446	148.0
173.081772	252.0
173.117813	512.0
173.191757	80.0
173.236069	144.0
173.265564	212.0
173.299713	156.0
173.335861	188.0
173.356827	348.0
173.456421	136.0
173.53244	76.0
173.556046	216.0
173.629471	184.0
173.705536	104.0
173.735306	264.0
173.787613	264.0
173.870834	152.0
173.925949	92.0
173.949585	52.0
173.991043	136.0
174.038849	52.0
174.117447	116.0
174.175415	124.0
174.309402	116.0
174.372467	196.0
174.465454	108.0
174.545578	180.0
174.698532	124.0
174.74588	172.0
174.785355	216.0
174.806396	68.0
175.05394	224.0
175.117233	188.0
175.153931	224.0
175.193451	124.0
175.265427	220.0
175.319931	124.0
175.42009	156.0
175.544006	160.0
175.573013	152.0
175.60466	148.0
175.625763	68.0
175.74556	176.0
175.865875	172.0
175.884354	128.0
175.92131	128.0
175.955627	132.0
176.011078	104.0
176.059982	152.0
176.090302	108.0
176.264664	136.0
176.285797	148.0
176.465546	156.0
176.575256	156.0
176.584961	76.0
176.593933	168.0
176.761795	176.0
176.825317	124.0
176.854431	232.0
176.907364	96.0
177.031815	132.0
177.050354	84.0
177.071533	168.0
177.267578	156.0
177.333847	276.0
177.368301	140.0
177.397461	164.0
177.458435	188.0
177.587708	188.0
177.606949	124.0
177.689178	124.0
177.772858	160.0
177.94928	120.0
177.999741	152.0
178.018326	112.0
178.051361	308.0
178.0755	432.0
178.161758	168.0
178.21489	128.0
178.240601	192.0
178.318527	160.0
178.420563	220.0
178.467407	252.0
178.565796	172.0
178.624313	144.0
178.78331	180.0
178.901077	120.0
178.991592	124.0
179.051315	160.0
179.083939	1780.0
179.230057	148.0
179.25798	52.0
179.340591	228.0
179.38591	120.0
179.425903	212.0
179.495224	132.0
179.615234	156.0
179.759308	164.0
179.847382	84.0
179.876755	120.0
179.953934	132.0
180.036957	208.0
180.08168	1284.0
180.125092	168.0
180.239975	148.0
180.293427	300.0
180.336182	52.0
180.354889	160.0
180.413696	180.0
180.561157	156.0
180.57637	72.0
180.583496	144.0
180.651718	80.0
180.697189	164.0
180.798477	52.0
180.833664	156.0
180.868469	128.0
180.944397	92.0
180.986633	116.0
181.046829	160.0
181.088638	21472.0
181.167114	84.0
181.232681	36.0
181.270355	144.0
181.297745	200.0
181.325073	76.0
181.34256	124.0
181.377686	356.0
181.394287	108.0
181.465881	132.0
181.490005	104.0
181.568512	192.0
181.613373	48.0
181.650925	72.0
181.675064	144.0
181.70726	100.0
181.755554	48.0
181.779709	184.0
181.843643	180.0
181.868271	104.0
181.932693	44.0
181.954178	116.0
182.038086	64.0
182.095322	15772.0
182.154938	180.0
182.185974	116.0
182.232895	176.0
182.265747	68.0
182.289932	116.0
182.316803	52.0
182.375931	104.0
182.421036	164.0
182.45369	52.0
182.519684	152.0
182.611481	172.0
182.646286	132.0
182.687073	164.0
182.724564	156.0
182.770157	164.0
182.803558	60.0
182.868149	152.0
182.927368	44.0
182.970245	116.0
183.000061	72.0
183.045837	48.0
183.102203	8872.0
183.148178	168.0
183.181076	148.0
183.21402	132.0
183.255936	108.0
183.280182	132.0
183.304428	112.0
183.325989	164.0
183.376755	160.0
183.409546	96.0
183.449982	188.0
183.487717	64.0
183.524567	168.0
183.55513	72.0
183.576706	192.0
183.610382	148.0
183.638489	136.0
183.673798	176.0
183.713058	60.0
183.757431	220.0
183.796158	180.0
183.832977	96.0
183.932846	56.0
183.957138	52.0
183.986832	76.0
184.027328	180.0
184.05629	136.0
184.10994	6188.0
184.178574	84.0
184.20018	380.0
184.244995	92.0
184.267715	124.0
184.299011	144.0
184.323776	144.0
184.327957	108.0
184.394714	48.0
184.420975	172.0
184.458008	164.0
184.510452	108.0
184.647125	56.0
184.702957	124.0
184.857178	148.0
184.884399	136.0
184.941071	152.0
184.973557	176.0
185.077927	196.0
185.112747	1592.0
185.162674	156.0
185.167206	132.0
185.225388	148.0
185.309372	168.0
185.43132	136.0
185.477402	76.0
185.588547	52.0
185.683472	184.0
185.721436	172.0
185.778397	108.0
185.843521	72.0
186.049789	208.0
186.103653	148.0
186.123138	304.0
186.251617	236.0
186.279266	48.0
186.321365	88.0
186.386581	120.0
186.407288	116.0
186.430054	188.0
186.476257	172.0
186.496826	120.0
186.546936	36.0
186.576843	148.0
186.652969	152.0
186.755295	352.0
186.843246	96.0
186.867844	176.0
186.935867	108.0
186.965805	36.0
187.009354	88.0
187.080124	152.0
187.128723	212.0
187.189041	80.0
187.259842	144.0
187.317047	160.0
187.415985	216.0
187.554123	60.0
187.600464	136.0
187.630447	88.0
187.706787	48.0
187.90863	176.0
188.219803	132.0
188.238907	384.0
188.400055	132.0
188.435181	216.0
188.50116	84.0
188.629608	32.0
188.700699	68.0
188.719833	192.0
188.766312	180.0
188.892136	124.0
188.996094	40.0
189.017975	164.0
189.047653	176.0
189.105011	220.0
189.146622	160.0
189.187683	208.0
189.299942	180.0
189.368408	164.0
189.464279	248.0
189.535522	120.0
189.554703	204.0
189.573883	96.0
189.647873	120.0
189.86174	128.0
189.913849	180.0
189.944016	104.0
190.057922	100.0
190.081192	148.0
190.144318	120.0
190.276703	164.0
190.363937	84.0
190.427109	116.0
190.536987	148.0
190.655136	172.0
190.743103	108.0
190.866821	136.0
190.891571	124.0
190.954819	52.0
191.063751	224.0
191.080093	324.0
191.18042	192.0
191.240967	80.0
191.312531	180.0
191.337311	40.0
191.563141	196.0
191.687119	88.0
191.711929	112.0
191.891098	124.0
191.91478	132.0
191.951752	164.0
191.998642	160.0
192.079956	1012.0
192.19725	140.0
192.387695	88.0
192.456726	136.0
192.616898	116.0
192.779907	196.0
192.851776	96.0
192.995529	36.0
193.02594	120.0
193.09053	1952.0
193.13858	216.0
193.195892	196.0
193.261063	140.0
193.321945	208.0
193.348419	204.0
193.424347	72.0
193.471405	160.0
193.507401	208.0
193.537857	120.0
193.604309	144.0
193.632004	128.0
193.687408	76.0
193.706802	224.0
193.773285	132.0
193.914612	192.0
193.977905	144.0
194.095184	6796.0
194.166916	148.0
194.223251	180.0
194.270493	128.0
194.326065	172.0
194.374542	132.0
194.401199	112.0
194.477661	72.0
194.515884	156.0
194.577805	160.0
194.627563	96.0
194.714981	228.0
194.735504	160.0
194.783096	64.0
194.888672	176.0
194.909683	224.0
194.933136	108.0
194.978516	204.0
195.049866	176.0
195.102692	5380.0
195.17218	128.0
195.194427	68.0
195.244492	132.0
195.33905	48.0
195.379715	176.0
195.433655	148.0
195.519165	140.0
195.558884	136.0
195.636826	92.0
195.764145	172.0
195.775269	160.0
195.881882	148.0
196.019455	148.0
196.036407	104.0
196.065781	144.0
196.110916	12128.0
196.168686	148.0
196.207932	36.0
196.255798	48.0
196.280426	32.0
196.320084	72.0
196.36409	52.0
196.386414	140.0
196.430161	192.0
196.479721	80.0
196.516937	192.0
196.542633	84.0
196.592865	100.0
196.633621	172.0
196.657059	148.0
196.682175	80.0
196.726837	148.0
196.757553	124.0
196.799423	156.0
196.824554	124.0
196.876724	176.0
196.902206	144.0
197.000519	72.0
197.03331	100.0
197.073151	156.0
197.110062	4232.0
197.173752	76.0
197.200806	68.0
197.22966	72.0
197.24823	72.0
197.274384	196.0
197.344269	40.0
197.372238	68.0
197.442154	140.0
197.548431	88.0
197.573608	88.0
197.615753	64.0
197.668747	196.0
197.691986	92.0
197.803085	224.0
197.889877	144.0
197.957077	132.0
198.022232	240.0
198.082169	180.0
198.118774	3100.0
198.17276	104.0
198.198059	160.0
198.245621	100.0
198.353119	148.0
198.436234	216.0
198.475479	44.0
198.495117	128.0
198.53157	188.0
198.562424	92.0
198.593277	36.0
198.630295	224.0
198.671814	64.0
198.731049	108.0
198.789658	64.0
198.834564	188.0
198.924377	28.0
199.061172	200.0
199.087234	216.0
199.122375	1244.0
199.174301	112.0
199.236099	88.0
199.332977	168.0
199.483398	48.0
199.520889	72.0
199.57692	200.0
199.639526	144.0
199.683044	180.0
199.92218	216.0
200.125534	748.0
200.18399	112.0
200.203705	116.0
200.26416	120.0
200.284058	128.0
200.324814	180.0
200.437515	172.0
200.570419	176.0
200.65683	124.0
200.688385	88.0
200.880157	96.0
200.905548	140.0
200.94223	172.0
201.029709	132.0
201.052277	168.0
201.12001	132.0
201.142593	128.0
201.255524	220.0
201.276749	216.0
201.303528	160.0
201.328949	212.0
201.360016	176.0
201.397079	164.0
201.433456	172.0
201.4617	188.0
201.54364	124.0
201.594498	204.0
201.617111	112.0
201.738647	168.0
201.942245	212.0
202.029938	28.0
202.074707	136.0
202.137451	136.0
202.253494	120.0
202.324265	180.0
202.422058	136.0
202.508392	160.0
202.56781	224.0
202.601791	180.0
202.68364	140.0
202.710892	176.0
202.731155	164.0
202.748047	216.0
202.953247	68.0
203.084656	316.0
203.146103	160.0
203.256699	180.0
203.287964	72.0
203.36586	144.0
203.435562	144.0
203.493774	184.0
203.543457	296.0
203.59259	184.0
203.716705	160.0
203.810455	108.0
203.872986	188.0
203.892868	120.0
203.926971	112.0
204.083176	484.0
204.165802	196.0
204.248276	100.0
204.299408	208.0
204.492981	208.0
204.629623	208.0
204.733444	80.0
204.828979	80.0
204.942932	144.0
205.089066	1588.0
205.131027	148.0
205.176651	188.0
205.327774	92.0
205.444717	140.0
205.493225	108.0
205.692993	124.0
205.826248	208.0
205.987122	212.0
206.0354	120.0
206.044937	224.0
206.050842	144.0
206.0961	12156.0
206.189987	228.0
206.211563	152.0
206.347198	48.0
206.37294	172.0
206.43013	144.0
206.453003	144.0
206.541672	188.0
206.575195	72.0
206.629761	116.0
206.657715	120.0
206.669403	68.0
206.692184	216.0
206.741943	140.0
206.7677	36.0
206.819229	140.0
206.880585	156.0
206.91655	80.0
206.961349	224.0
207.029694	208.0
207.055603	172.0
207.10231	6220.0
207.147385	160.0
207.157272	148.0
207.192398	196.0
207.220932	116.0
207.30571	204.0
207.404739	164.0
207.412659	68.0
207.422516	176.0
207.472534	132.0
207.5383	64.0
207.575577	92.0
207.62146	84.0
207.705765	132.0
207.754303	192.0
207.919968	84.0
207.955933	180.0
207.977234	176.0
208.05043	160.0
208.111298	24684.0
208.183945	168.0
208.244263	64.0
208.277573	160.0
208.306808	72.0
208.353287	88.0
208.455902	204.0
208.494308	172.0
208.545944	92.0
208.616959	208.0
208.66008	148.0
208.793213	160.0
208.830597	72.0
208.870621	140.0
208.899139	164.0
208.927246	60.0
208.974442	124.0
209.026169	184.0
209.029663	144.0
209.117798	13612.0
209.191406	132.0
209.225586	76.0
209.250748	120.0
209.302567	76.0
209.370178	212.0
209.469742	92.0
209.503677	68.0
209.514465	56.0
209.529587	100.0
209.567566	64.0
209.619431	44.0
209.64537	56.0
209.72319	128.0
209.752014	156.0
209.775436	168.0
209.860748	112.0
209.9077	192.0
209.929688	192.0
209.954956	196.0
210.014404	72.0
210.048859	616.0
210.12532	9168.0
210.190384	132.0
210.227905	56.0
210.261276	256.0
210.294922	128.0
210.349121	52.0
210.392426	104.0
210.415527	112.0
210.449921	116.0
210.507919	148.0
210.545471	240.0
210.586166	320.0
210.614792	168.0
210.63501	64.0
210.663895	164.0
210.718781	136.0
210.750565	104.0
210.926865	116.0
210.979919	192.0
211.008987	196.0
211.066238	172.0
211.124069	8220.0
211.181305	88.0
211.201553	40.0
211.230484	52.0
211.276779	136.0
211.31366	92.0
211.363571	168.0
211.392502	60.0
211.414871	140.0
211.537231	84.0
211.566513	68.0
211.615387	140.0
211.713852	144.0
211.768875	92.0
211.920074	228.0
211.93364	96.0
211.941406	216.0
211.971664	132.0
212.033875	180.0
212.052811	184.0
212.093399	156.0
212.126633	1704.0
212.209351	212.0
212.23111	84.0
212.290543	88.0
212.381393	184.0
212.444275	172.0
212.466797	204.0
212.504532	160.0
212.574844	88.0
212.638687	48.0
212.658997	260.0
212.724762	256.0
212.733444	168.0
212.740768	196.0
212.768463	96.0
212.821579	176.0
212.865128	64.0
212.885452	116.0
212.976852	60.0
213.033585	144.0
213.080963	108.0
213.138	2408.0
213.228271	156.0
213.24942	172.0
213.384048	88.0
213.411407	156.0
213.434677	76.0
213.501556	108.0
213.539368	184.0
213.565536	132.0
213.603363	148.0
213.63826	64.0
213.79248	124.0
213.935104	220.0
214.010803	140.0
214.039917	320.0
214.142502	400.0
214.252533	44.0
214.342865	204.0
214.374908	104.0
214.430283	32.0
214.582413	64.0
214.608109	136.0
214.651855	120.0
214.794754	180.0
214.829773	104.0
214.883743	148.0
214.905624	212.0
214.995773	228.0
215.031097	124.0
215.089371	204.0
215.099976	188.0
215.150787	80.0
215.188736	240.0
215.252975	48.0
215.419464	48.0
215.600616	152.0
215.670761	272.0
215.706223	180.0
215.860382	140.0
215.888138	148.0
216.001175	104.0
216.040924	176.0
216.088501	160.0
216.241119	232.0
216.288559	152.0
216.425537	48.0
216.495819	140.0
216.525101	280.0
216.564301	220.0
216.651062	240.0
216.797562	164.0
216.847397	60.0
217.045273	172.0
217.106812	256.0
217.181641	124.0
217.204636	148.0
217.237381	100.0
217.293121	96.0
217.72168	112.0
217.956696	156.0
218.012527	136.0
218.063843	256.0
218.093643	836.0
218.140854	140.0
218.194016	248.0
218.231232	180.0
218.2771	100.0
218.309448	40.0
218.544769	208.0
218.571259	152.0
218.67131	56.0
218.691925	228.0
218.88916	44.0
218.915665	164.0
218.986359	200.0
219.102356	820.0
219.266251	124.0
219.49498	224.0
219.534531	168.0
219.658401	164.0
219.728683	68.0
219.781357	184.0
219.808868	148.0
219.832489	88.0
219.876755	212.0
219.909058	152.0
219.916351	144.0
220.021393	220.0
220.111481	16376.0
220.20311	96.0
220.232437	68.0
220.269455	116.0
220.349213	48.0
220.377075	204.0
220.458542	112.0
220.486984	72.0
220.557755	120.0
220.606339	100.0
220.627029	56.0
220.659546	56.0
220.698792	160.0
220.727554	124.0
220.831757	120.0
220.850876	332.0
220.884308	176.0
220.98967	364.0
221.041565	1488.0
221.118332	22580.0
221.193451	76.0
221.206268	120.0
221.232819	184.0
221.266846	76.0
221.334167	124.0
221.410217	176.0
221.454269	36.0
221.486099	92.0
221.556305	120.0
221.61203	156.0
221.67186	140.0
221.722229	92.0
221.779388	140.0
221.843262	48.0
221.869843	196.0
221.906021	32.0
221.983109	176.0
222.045273	728.0
222.126709	22296.0
222.201126	120.0
222.245331	156.0
222.268921	196.0
222.325424	140.0
222.348953	140.0
222.370041	104.0
222.416962	212.0
222.438095	148.0
222.474686	136.0
222.529831	32.0
222.542618	112.0
222.562592	128.0
222.602859	148.0
222.637558	152.0
222.658966	76.0
222.763702	164.0
222.790268	68.0
222.80629	96.0
222.870667	132.0
222.924149	108.0
222.957565	212.0
223.004288	108.0
223.035172	512.0
223.126358	5360.0
223.18277	80.0
223.205353	128.0
223.239044	164.0
223.274948	44.0
223.328491	112.0
223.373108	68.0
223.414749	56.0
223.438553	52.0
223.459381	68.0
223.492111	48.0
223.532364	144.0
223.647781	116.0
223.681168	76.0
223.819534	60.0
223.843353	152.0
223.866028	156.0
223.896957	44.0
223.922974	212.0
223.989288	64.0
224.052917	156.0
224.101303	360.0
224.129318	2164.0
224.214935	164.0
224.271667	144.0
224.314102	68.0
224.381775	80.0
224.4534	72.0
224.504364	368.0
224.678329	176.0
224.740585	48.0
224.797272	136.0
224.86293	52.0
224.88382	40.0
224.925613	44.0
224.959702	76.0
225.006424	172.0
225.137192	2368.0
225.23317	180.0
225.339783	192.0
225.487152	64.0
225.537964	92.0
225.623184	88.0
225.786118	116.0
225.856461	124.0
225.963547	96.0
226.138489	536.0
226.242157	108.0
226.300812	56.0
226.411621	76.0
226.569427	140.0
226.702209	40.0
226.72319	36.0
226.759155	236.0
226.786133	108.0
226.93602	128.0
226.989243	96.0
227.055969	68.0
227.109955	156.0
227.1577	308.0
227.22995	136.0
227.301956	40.0
227.358978	208.0
227.524078	108.0
227.563095	60.0
227.677216	48.0
227.857437	184.0
227.908524	388.0
227.974625	116.0
228.013687	208.0
228.141281	180.0
228.278244	200.0
228.332382	156.0
228.542679	132.0
228.636246	172.0
228.666336	120.0
228.747604	180.0
228.785919	44.0
229.012589	112.0
229.087906	284.0
229.112	108.0
229.148148	52.0
229.16925	136.0
229.365128	176.0
229.49176	128.0
229.841644	184.0
230.034805	120.0
230.077072	200.0
230.137451	132.0
230.215958	152.0
230.285431	200.0
230.333755	48.0
230.433456	128.0
230.496902	208.0
230.521072	32.0
230.581436	140.0
230.652771	160.0
230.702423	40.0
230.805222	228.0
230.932236	124.0
230.968536	176.0
230.999344	988.0
231.110733	460.0
231.140991	164.0
231.180328	180.0
231.337723	172.0
231.401291	32.0
231.534531	120.0
231.734451	112.0
231.910217	148.0
231.955688	132.0
232.000259	632.0
232.049911	148.0
232.073929	124.0
232.109482	328.0
232.210388	112.0
232.34549	200.0
232.416672	200.0
232.484512	216.0
232.510757	172.0
232.583603	120.0
232.743484	168.0
232.777908	72.0
232.869019	132.0
232.917618	104.0
232.998856	1016.0
233.039124	132.0
233.1203	312.0
233.264023	128.0
233.421951	144.0
233.446457	108.0
233.665451	124.0
233.695877	208.0
233.747604	216.0
233.78717	112.0
233.998734	356.0
234.049576	396.0
234.079208	116.0
234.126968	9128.0
234.239929	108.0
234.25061	76.0
234.2603	124.0
234.29451	52.0
234.411453	160.0
234.46022	132.0
234.505936	56.0
234.606522	136.0
234.743729	80.0
234.787521	100.0
234.850479	88.0
235.056534	1128.0
235.090866	248.0
235.125443	2288.0
235.265472	204.0
235.378448	80.0
235.483017	148.0
235.53421	92.0
235.726685	72.0
235.833649	176.0
235.91925	44.0
235.968155	120.0
236.015579	140.0
236.062012	548.0
236.128586	1660.0
236.163651	168.0
236.252579	120.0
236.344376	36.0
236.374969	68.0
236.500443	100.0
236.573242	164.0
236.627136	104.0
236.723938	148.0
236.773026	156.0
236.917557	164.0
236.96048	228.0
237.064178	160.0
237.098007	116.0
237.13765	6832.0
237.200699	92.0
237.222015	128.0
237.306137	36.0
237.352127	188.0
237.382797	132.0
237.423737	160.0
237.486023	256.0
237.576035	72.0
237.646591	104.0
237.704895	100.0
237.829926	200.0
237.975021	216.0
238.051224	780.0
238.144318	3204.0
238.20842	120.0
238.266785	168.0
238.438873	96.0
238.488052	104.0
238.650986	76.0
238.711182	180.0
238.724548	104.0
238.734863	152.0
238.81842	160.0
238.857025	108.0
238.943161	180.0
238.989319	76.0
239.0345	108.0
239.062637	284.0
239.152924	9392.0
239.290955	172.0
239.337143	188.0
239.478806	60.0
239.517731	56.0
239.546387	136.0
239.582825	208.0
239.631393	156.0
239.719101	232.0
239.873215	40.0
240.002701	52.0
240.053955	296.0
240.08287	160.0
240.158173	1868.0
240.304977	172.0
240.35434	44.0
240.469025	184.0
240.533997	228.0
240.556885	64.0
240.562454	112.0
240.647568	128.0
240.817413	76.0
240.909836	288.0
240.940979	88.0
241.037796	180.0
241.057495	160.0
241.083115	148.0
241.107834	136.0
241.16275	216.0
241.352051	76.0
241.444824	160.0
241.54689	128.0
241.670639	116.0
241.775864	120.0
241.912048	164.0
241.952301	76.0
241.992538	140.0
242.053925	108.0
242.094727	560.0
242.122955	176.0
242.146393	176.0
242.169739	168.0
242.205048	116.0
242.271286	104.0
242.299164	148.0
242.387268	128.0
242.463394	48.0
242.630783	44.0
242.733093	212.0
242.838547	132.0
242.928497	196.0
242.950211	152.0
243.027771	84.0
243.095901	84.0
243.195358	88.0
243.304001	172.0
243.456161	96.0
243.481003	84.0
243.630096	100.0
243.763702	60.0
243.931534	176.0
243.962616	224.0
244.115265	364.0
244.307816	176.0
244.342041	256.0
244.463394	160.0
244.952209	200.0
244.983368	80.0
245.016861	156.0
245.112946	136.0
245.157852	192.0
245.288757	152.0
245.319931	116.0
245.425934	100.0
245.47583	124.0
245.584976	124.0
245.828323	40.0
245.872025	196.0
246.074921	160.0
246.126785	536.0
246.243546	96.0
246.371628	196.0
246.590363	60.0
246.612228	160.0
246.793549	164.0
247.009659	180.0
247.043762	104.0
247.090164	144.0
247.143097	724.0
247.218979	232.0
247.328522	60.0
247.481918	76.0
247.710541	152.0
247.887436	96.0
248.023895	180.0
248.103928	156.0
248.141647	1528.0
248.227692	92.0
248.271591	40.0
248.309219	188.0
248.547638	92.0
248.591568	124.0
248.622955	112.0
248.692001	204.0
248.770477	192.0
248.85524	128.0
248.880371	160.0
248.918045	44.0
249.063736	216.0
249.134674	328.0
249.229019	156.0
249.364151	164.0
249.417587	36.0
249.526184	128.0
249.593643	148.0
249.625092	140.0
249.672256	132.0
249.738312	140.0
249.763474	56.0
249.80751	144.0
249.911331	76.0
250.027771	120.0
250.056091	84.0
250.108597	232.0
250.147705	520.0
250.21727	188.0
250.260056	172.0
250.380371	184.0
250.717941	164.0
250.821487	32.0
250.860626	212.0
250.90976	172.0
250.950745	100.0
251.020111	144.0
251.075775	184.0
251.153351	15156.0
251.218811	88.0
251.256668	76.0
251.322693	52.0
251.373413	108.0
251.404373	84.0
251.458633	92.0
251.496506	52.0
251.576904	176.0
251.638565	140.0
251.710663	112.0
251.793289	188.0
251.867203	60.0
251.897522	60.0
251.930191	164.0
251.994171	152.0
252.046448	176.0
252.102905	64.0
252.158936	9204.0
252.264099	64.0
252.287186	84.0
252.358948	140.0
252.389023	136.0
252.421265	96.0
252.485428	112.0
252.523376	88.0
252.762131	120.0
252.878983	236.0
252.912567	96.0
252.970703	104.0
253.017029	60.0
253.041138	52.0
253.085358	228.0
253.164856	3616.0
253.290527	132.0
253.364349	60.0
253.417236	200.0
253.473343	120.0
253.660126	108.0
253.694992	104.0
253.744293	240.0
253.839386	200.0
253.94342	104.0
253.986725	112.0
254.034317	72.0
254.101562	236.0
254.162277	1080.0
254.25325	192.0
254.383392	60.0
254.659637	60.0
254.831177	76.0
254.971008	72.0
255.008957	116.0
255.110535	156.0
255.164429	212.0
255.21431	140.0
255.30481	160.0
255.368423	108.0
255.616577	124.0
255.679031	128.0
255.796997	192.0
255.871216	80.0
255.947632	124.0
256.006958	120.0
256.111877	388.0
256.218353	72.0
256.31076	32.0
256.406372	228.0
256.575287	176.0
256.728363	120.0
256.776184	208.0
256.814453	168.0
256.887817	172.0
257.017334	128.0
257.039703	140.0
257.082458	112.0
257.121094	1056.0
257.232483	84.0
257.2612	176.0
257.382538	40.0
257.404877	168.0
257.491119	124.0
257.96402	144.0
258.028717	184.0
258.126862	5984.0
258.382935	88.0
258.494202	192.0
258.552551	48.0
258.610138	88.0
258.752289	152.0
258.94635	56.0
259.02002	140.0
259.061646	80.0
259.133545	3156.0
259.286835	88.0
259.323944	136.0
259.426971	108.0
259.519958	32.0
259.561646	44.0
259.689484	88.0
259.990662	152.0
260.037781	76.0
260.141144	1304.0
260.203369	60.0
260.360718	92.0
260.517487	64.0
260.852295	132.0
260.99054	80.0
261.016266	88.0
261.143982	332.0
261.206024	108.0
261.300323	160.0
261.3508	104.0
261.559998	116.0
261.679108	36.0
261.795044	100.0
261.824005	60.0
261.949646	52.0
262.16095	796.0
262.268646	200.0
262.318237	136.0
262.545929	136.0
262.694275	48.0
262.75882	128.0
262.916931	100.0
262.967896	96.0
263.004059	52.0
263.11795	420.0
263.162262	136.0
263.320496	68.0
263.569244	68.0
263.614471	88.0
263.691315	144.0
263.753448	120.0
263.776093	264.0
263.863373	188.0
263.950806	176.0
264.130737	348.0
264.235291	180.0
264.290314	112.0
264.332367	120.0
264.665771	176.0
264.691681	40.0
264.762939	232.0
265.028564	152.0
265.133179	2012.0
265.219757	160.0
265.261902	176.0
265.352692	148.0
265.381866	80.0
265.469421	112.0
265.706207	164.0
265.761353	120.0
265.858704	140.0
265.895477	72.0
265.971893	188.0
266.135254	568.0
266.170349	108.0
266.245026	144.0
266.462677	36.0
266.729156	56.0
266.820923	104.0
266.946991	104.0
266.969757	196.0
267.112213	596.0
267.171814	320.0
267.231506	204.0
267.415466	148.0
267.588013	152.0
267.643341	72.0
267.721497	96.0
267.799683	216.0
267.874573	184.0
267.900635	64.0
267.96106	168.0
267.975006	92.0
267.980133	152.0
268.01947	144.0
268.02655	144.0
268.118011	1688.0
268.178864	8364.0
268.218262	160.0
268.246063	60.0
268.302551	124.0
268.347137	60.0
268.444977	64.0
268.467804	44.0
268.523224	32.0
268.611298	28.0
268.643921	64.0
268.689606	72.0
268.725159	64.0
268.766724	132.0
268.839691	80.0
268.872314	56.0
268.908234	228.0
268.950653	56.0
268.99823	176.0
269.014618	108.0
269.126129	1376.0
269.187561	9304.0
269.339233	44.0
269.381683	36.0
269.425934	88.0
269.466644	180.0
269.496033	56.0
269.62677	76.0
269.661011	92.0
269.809814	148.0
269.855591	72.0
270.022339	100.0
270.131256	1396.0
270.192749	1644.0
270.292053	64.0
270.372406	120.0
270.430328	156.0
270.473236	80.0
270.574646	72.0
270.824249	48.0
270.869232	184.0
271.036804	268.0
271.133575	2688.0
271.197723	228.0
271.325378	56.0
271.338226	52.0
271.531952	152.0
271.78479	80.0
271.955444	212.0
271.997681	184.0
272.03363	472.0
272.142822	3712.0
272.249908	64.0
272.418457	72.0
272.465607	148.0
272.563019	64.0
272.615601	40.0
272.697754	84.0
272.720764	208.0
272.852753	128.0
272.987061	96.0
273.033447	576.0
273.0896	160.0
273.147125	996.0
273.190979	64.0
273.223877	56.0
273.27652	88.0
273.41217	148.0
273.4375	96.0
273.655029	148.0
274.032013	136.0
274.104706	204.0
274.156128	1684.0
274.271088	144.0
274.365173	164.0
274.378784	88.0
274.385651	196.0
274.646973	44.0
274.818542	60.0
274.851532	36.0
275.009949	136.0
275.043884	244.0
275.097443	96.0
275.166077	272.0
275.208008	88.0
275.244324	164.0
275.310394	64.0
275.353302	140.0
275.435883	56.0
275.475525	184.0
275.588928	148.0
275.623077	140.0
275.889374	148.0
275.94812	84.0
276.050629	148.0
276.163086	128.0
276.563446	44.0
276.675995	72.0
276.838226	60.0
276.877991	136.0
276.967407	76.0
277.013794	64.0
277.04361	156.0
277.126434	128.0
277.171875	256.0
277.650177	148.0
277.68335	124.0
277.709869	144.0
277.739716	160.0
277.806061	84.0
277.862457	100.0
278.133301	176.0
278.313873	188.0
278.483246	56.0
278.559631	88.0
278.6427	132.0
278.778931	140.0
278.815491	68.0
278.901886	208.0
278.941772	140.0
279.132629	188.0
279.196655	92.0
279.227722	156.0
279.493866	64.0
279.553772	152.0
279.603699	112.0
279.822723	180.0
279.860016	48.0
279.891602	156.0
279.933258	92.0
280.135773	80.0
280.14212	164.0
280.259705	144.0
280.289703	56.0
280.439667	96.0
280.506348	92.0
280.579681	104.0
280.60968	136.0
280.652008	184.0
280.776398	108.0
280.806427	144.0
281.039948	124.0
281.12912	4776.0
281.200714	160.0
281.303589	32.0
281.370361	112.0
281.48056	52.0
281.547333	52.0
281.620819	180.0
281.872803	112.0
281.911499	196.0
281.97644	68.0
282.133759	7408.0
282.187622	124.0
282.232391	108.0
282.289246	152.0
282.347107	144.0
282.423981	112.0
282.509674	164.0
282.550568	60.0
282.596985	176.0
282.652618	172.0
282.888153	80.0
283.015381	92.0
283.140076	1808.0
283.187622	64.0
283.219666	36.0
283.430725	108.0
283.45578	52.0
283.675385	64.0
283.718964	104.0
283.745789	148.0
283.796082	48.0
284.030823	156.0
284.139343	1144.0
284.173706	176.0
284.275757	40.0
284.440216	32.0
284.524139	168.0
284.597412	112.0
284.69873	108.0
284.749115	76.0
284.900269	156.0
285.007782	128.0
285.148499	736.0
285.246399	232.0
285.390961	156.0
285.831604	176.0
285.871979	152.0
285.972961	96.0
286.050385	96.0
286.157318	2192.0
286.464569	132.0
286.488159	180.0
286.626312	168.0
286.953247	172.0
287.037537	40.0
287.159424	416.0
287.256775	152.0
287.644836	108.0
287.668457	84.0
288.012909	108.0
288.107483	120.0
288.167908	792.0
288.215607	164.0
288.577271	104.0
288.617828	112.0
288.646576	148.0
288.70575	52.0
289.17218	152.0
289.416382	148.0
289.5112	120.0
289.578949	168.0
289.900787	120.0
290.121094	56.0
290.175812	388.0
290.575562	148.0
290.650208	100.0
291.084717	168.0
291.176392	96.0
291.203583	64.0
291.227356	156.0
291.34964	136.0
291.373413	188.0
291.47876	216.0
292.172363	100.0
292.237	160.0
292.36972	140.0
292.543304	36.0
292.774841	152.0
292.848236	204.0
292.927765	136.0
293.071198	156.0
293.122314	184.0
293.15979	112.0
293.372589	112.0
293.432495	144.0
293.527954	56.0
293.773529	40.0
293.985077	96.0
294.157684	436.0
294.227417	172.0
294.292084	124.0
294.357178	92.0
294.381073	120.0
294.449371	72.0
294.96875	112.0
294.996094	136.0
295.02002	200.0
295.165009	1408.0
295.495392	136.0
295.538635	132.0
295.782867	68.0
295.878723	196.0
295.912964	40.0
296.174927	14172.0
296.265717	28.0
296.310242	152.0
296.373627	80.0
296.416473	40.0
296.502136	92.0
296.546692	64.0
296.663239	120.0
296.687256	52.0
296.817017	136.0
296.886108	68.0
296.968414	64.0
297.040466	68.0
297.07135	148.0
297.14679	3192.0
297.176422	2880.0
297.290924	44.0
297.327393	64.0
297.350433	92.0
297.421356	68.0
297.558655	44.0
297.613586	196.0
297.757843	76.0
297.833405	188.0
297.867737	76.0
298.042969	64.0
298.091064	104.0
298.153381	1412.0
298.25946	48.0
298.300446	52.0
298.379791	72.0
298.421051	176.0
298.495117	116.0
298.737457	84.0
298.895721	64.0
298.9198	140.0
299.009094	68.0
299.063446	136.0
299.163391	488.0
299.250244	80.0
299.381104	116.0
299.449982	32.0
299.570557	112.0
299.834229	212.0
299.980621	168.0
300.11853	200.0
300.174438	8008.0
300.280609	72.0
300.319641	180.0
300.494476	44.0
300.522095	144.0
300.597992	168.0
300.680817	48.0
300.718353	32.0
300.860321	92.0
300.929382	44.0
300.962158	120.0
301.119293	68.0
301.176086	1724.0
301.219482	180.0
301.374939	100.0
301.568451	116.0
301.74823	144.0
301.795471	96.0
301.862335	176.0
302.042175	88.0
302.128662	116.0
302.174713	772.0
302.234344	148.0
302.372192	156.0
302.505859	48.0
302.600128	124.0
302.661652	104.0
302.737854	100.0
303.032288	124.0
303.183472	1352.0
303.240906	200.0
303.265167	136.0
303.326843	64.0
303.416992	64.0
303.524475	184.0
303.635437	132.0
303.815826	88.0
304.048309	196.0
304.188202	576.0
304.336426	128.0
304.616211	92.0
305.201599	48.0
305.253784	156.0
305.33725	56.0
305.365051	160.0
305.799957	108.0
305.925293	228.0
306.088928	104.0
306.3815	88.0
306.527832	64.0
306.625427	200.0
307.197266	196.0
307.248901	160.0
307.364716	172.0
307.619507	92.0
307.839478	128.0
307.986145	64.0
308.363525	100.0
308.433411	172.0
308.615204	92.0
308.800568	152.0
308.870514	116.0
309.283417	144.0
309.31842	160.0
309.630035	100.0
309.700073	144.0
309.934814	184.0
310.14859	92.0
310.3414	116.0
310.579865	148.0
310.678101	56.0
310.779846	124.0
310.804413	88.0
311.011475	316.0
311.160217	804.0
311.222107	168.0
311.315552	152.0
311.35202	112.0
311.510101	56.0
311.548737	124.0
311.622528	116.0
311.664673	92.0
311.74115	136.0
311.829651	152.0
311.910675	128.0
311.935181	112.0
311.995056	296.0
312.030212	172.0
312.072418	144.0
312.099243	372.0
312.171722	31160.0
312.262299	56.0
312.297791	132.0
312.334503	252.0
312.40152	152.0
312.445221	184.0
312.479675	108.0
312.507568	160.0
312.571106	232.0
312.605042	200.0
312.751373	112.0
312.779541	112.0
312.835571	140.0
312.899231	112.0
312.955566	108.0
312.999329	200.0
313.067627	268.0
313.128021	160.0
313.177704	60352.0
313.264038	56.0
313.286865	164.0
313.334442	56.0
313.350739	100.0
313.380829	92.0
313.401398	132.0
313.464172	160.0
313.493713	192.0
313.549255	144.0
313.623505	152.0
313.648834	164.0
313.694794	68.0
313.718292	124.0
313.771088	88.0
313.825867	52.0
313.894348	56.0
313.927246	168.0
313.957062	176.0
314.014252	104.0
314.079102	104.0
314.109558	72.0
314.180267	11488.0
314.263214	220.0
314.324738	184.0
314.356567	232.0
314.386719	96.0
314.457306	44.0
314.499847	76.0
314.527161	104.0
314.556152	104.0
314.617126	88.0
314.642761	60.0
314.683228	60.0
314.732666	128.0
314.782104	64.0
314.885498	112.0
314.919647	144.0
314.997559	92.0
315.06424	132.0
315.184357	1188.0
315.280212	52.0
315.306396	108.0
315.3349	92.0
315.398621	112.0
315.475555	60.0
315.51944	144.0
315.584351	96.0
315.718597	104.0
315.778717	48.0
315.831757	60.0
315.863617	124.0
315.941437	64.0
315.97641	216.0
316.056824	124.0
316.106995	116.0
316.176575	96.0
316.203278	212.0
316.228058	68.0
316.312653	124.0
316.371307	144.0
316.663544	124.0
316.769806	76.0
316.92923	56.0
316.971771	60.0
317.061462	204.0
317.099335	100.0
317.197296	688.0
317.323059	72.0
317.418396	100.0
317.499969	100.0
317.563812	88.0
317.595734	208.0
317.799103	148.0
318.088959	128.0
318.138672	88.0
318.199829	228.0
318.241608	100.0
318.422729	108.0
318.761261	176.0
318.923706	80.0
319.051666	104.0
319.10144	132.0
319.197449	48.0
319.225647	160.0
319.329041	48.0
319.400177	156.0
319.457092	32.0
319.624298	52.0
319.83429	48.0
320.254456	128.0
320.350616	204.0
320.689148	88.0
320.819	112.0
321.225677	144.0
321.927124	36.0
322.366516	92.0
322.395111	112.0
323.16394	208.0
323.26413	44.0
323.310638	64.0
323.489594	148.0
324.363647	76.0
324.471222	60.0
325.170715	124.0
325.206604	120.0
325.644623	104.0
325.669769	168.0
326.082428	108.0
326.111725	108.0
326.179169	300.0
326.449677	244.0
326.997803	100.0
327.182648	140.0
327.219696	52.0
327.316925	80.0
327.623047	96.0
327.850067	148.0
327.983429	100.0
328.08075	220.0
328.160065	120.0
328.192505	160.0
328.26825	68.0
328.470215	124.0
328.545959	208.0
328.679474	124.0
328.794952	64.0
328.903229	124.0
329.02597	80.0
329.065247	100.0
329.094574	120.0
329.198669	2632.0
329.293182	136.0
329.423218	44.0
329.455719	72.0
329.527985	112.0
329.603851	80.0
329.676147	124.0
330.044861	80.0
330.199402	804.0
330.352264	68.0
330.428253	64.0
330.78653	108.0
330.851685	48.0
331.050842	124.0
331.216034	264.0
331.510895	96.0
331.561646	140.0
331.761017	76.0
331.819	56.0
331.982178	136.0
332.214264	248.0
332.503235	116.0
332.820435	60.0
333.212708	124.0
333.358032	52.0
333.550659	44.0
333.859711	76.0
334.358124	72.0
334.383606	108.0
334.667542	100.0
334.984406	120.0
335.924927	52.0
336.249664	116.0
336.910583	36.0
337.122498	160.0
338.091644	52.0
338.212402	72.0
338.516296	108.0
339.150116	176.0
339.186768	140.0
339.217346	176.0
339.315063	36.0
339.634125	56.0
339.707489	96.0
339.737549	124.0
340.118469	56.0
340.159241	184.0
340.42688	140.0
340.97995	80.0
341.207397	344.0
341.4375	72.0
341.890015	100.0
342.081421	120.0
342.188171	208.0
342.237366	180.0
342.309692	124.0
342.427521	136.0
342.865967	76.0
342.921234	60.0
343.07605	176.0
343.216309	4424.0
343.289917	64.0
343.669861	80.0
343.817474	232.0
343.843292	156.0
343.905701	52.0
343.972473	64.0
344.053711	84.0
344.218781	1908.0
344.388214	144.0
344.688995	28.0
344.73703	56.0
344.855286	152.0
345.043823	36.0
345.154755	200.0
345.180634	140.0
345.214142	136.0
345.276764	60.0
346.052246	136.0
346.063812	76.0
346.073578	112.0
346.66507	56.0
346.702118	124.0
347.173981	712.0
347.423981	176.0
347.699738	64.0
347.896484	76.0
348.180298	92.0
348.286377	164.0
348.434967	104.0
348.910706	124.0
349.159821	80.0
349.344788	192.0
349.65094	88.0
352.675751	132.0
352.739288	188.0
353.375061	148.0
354.44043	212.0
354.759705	124.0
354.787018	112.0
354.813263	288.0
355.175964	556.0
355.293304	128.0
355.683594	184.0
356.103821	124.0
356.181702	244.0
356.885773	208.0
357.119537	280.0
357.261902	164.0
357.675842	36.0
358.102417	280.0
358.158539	300.0
358.226501	116.0
358.794678	108.0
359.046112	88.0
359.122742	136.0
359.170288	184.0
359.560394	184.0
359.78653	128.0
359.879303	100.0
359.91452	244.0
360.037659	148.0
360.083984	164.0
360.106812	44.0
360.241882	10332.0
360.323181	224.0
360.466766	28.0
360.549896	68.0
360.59903	60.0
360.645477	124.0
360.977081	64.0
361.064056	44.0
361.195862	272.0
361.245178	2344.0
361.355316	48.0
361.423431	48.0
361.552094	40.0
361.592773	128.0
361.650513	32.0
361.731689	80.0
361.770691	48.0
361.776947	132.0
361.831055	104.0
361.862488	104.0
361.889008	48.0
361.942017	100.0
362.09729	84.0
362.127563	72.0
362.198395	120.0
362.25293	536.0
362.661804	64.0
363.180328	80.0
363.211639	172.0
363.257141	132.0
363.314056	108.0
363.416473	96.0
363.565704	124.0
363.644196	56.0
363.746674	96.0
363.777039	68.0
363.932678	160.0
364.103577	32.0
364.202332	164.0
364.350494	76.0
364.529053	76.0
364.730499	104.0
365.422638	124.0
365.578644	52.0
365.73468	196.0
365.902191	68.0
365.997406	220.0
366.271576	176.0
366.488739	132.0
366.618286	224.0
367.010925	112.0
367.262634	116.0
367.557495	68.0
368.00296	112.0
368.472748	80.0
368.591217	100.0
368.828156	64.0
369.030762	144.0
369.753754	148.0
369.979614	76.0
370.067657	76.0
370.26297	128.0
370.515778	176.0
370.642212	108.0
371.174561	128.0
371.451172	144.0
371.577759	60.0
371.834869	196.0
371.884766	128.0
372.195709	184.0
372.514496	64.0
372.760376	44.0
373.102478	204.0
373.18869	1672.0
373.240875	148.0
373.663971	52.0
373.967987	40.0
374.021881	128.0
374.110413	140.0
374.189941	688.0
374.256714	108.0
374.599487	108.0
374.79599	60.0
374.930847	76.0
375.194214	160.0
375.220734	252.0
375.528442	44.0
375.613312	76.0
375.713593	76.0
375.744476	80.0
375.906525	84.0
376.211456	140.0
376.508759	156.0
376.647797	44.0
376.767548	92.0
377.153992	168.0
377.192657	144.0
377.54837	152.0
378.666748	152.0
378.89151	84.0
379.352692	88.0
379.895599	108.0
380.000366	108.0
380.264252	128.0
380.792267	128.0
381.752197	76.0
381.82608	48.0
383.149567	84.0
384.697815	68.0
385.381287	60.0
385.416443	104.0
385.600128	76.0
386.224182	632.0
386.370453	128.0
386.710876	92.0
387.219177	184.0
387.345215	88.0
388.208649	140.0
388.304626	140.0
389.210052	276.0
389.781616	80.0
389.856415	124.0
390.237579	184.0
390.587585	64.0
392.14682	104.0
393.977783	164.0
394.562683	72.0
394.621979	44.0
394.693146	52.0
395.207367	88.0
395.547729	172.0
395.749634	224.0
395.844666	84.0
396.086243	44.0
396.779755	72.0
397.041473	140.0
397.32309	76.0
397.704071	60.0
397.862854	112.0
398.001801	104.0
398.812256	124.0
399.170044	108.0
399.492218	120.0
399.6633	216.0
399.7117	144.0
400.39975	72.0
400.678589	88.0
400.72641	128.0
400.829987	88.0
400.981445	96.0
401.009338	148.0
401.145844	368.0
401.276428	96.0
401.336212	100.0
401.364136	112.0
401.435913	136.0
401.479767	88.0
401.527649	132.0
401.675232	96.0
401.766388	84.0
402.030304	96.0
402.090179	60.0
402.148193	164.0
402.212463	352.0
402.417511	112.0
402.587311	44.0
402.633148	136.0
402.681091	128.0
402.856842	112.0
402.892181	108.0
402.968689	116.0
403.036621	80.0
403.13736	932.0
403.210175	112.0
403.220154	160.0
403.302368	128.0
403.420837	176.0
403.452301	124.0
403.576233	112.0
403.62204	96.0
403.660187	128.0
403.697357	260.0
403.737885	224.0
403.832184	136.0
403.898071	176.0
403.932159	100.0
403.976868	164.0
404.009949	144.0
404.05072	176.0
404.14679	532.0
404.165375	328.0
404.232208	65564.0
404.344696	156.0
404.376953	200.0
404.408447	132.0
404.459412	116.0
404.496399	80.0
404.536163	64.0
404.587402	60.0
404.651764	108.0
404.685089	120.0
404.700348	68.0
404.715729	84.0
404.768646	92.0
404.8237	136.0
404.847046	188.0
404.893402	116.0
404.948578	112.0
404.983093	128.0
405.033051	152.0
405.087036	108.0
405.123444	116.0
405.234039	18796.0
405.323303	128.0
405.404724	76.0
405.444366	124.0
405.493744	124.0
405.585205	44.0
405.646057	48.0
405.690155	40.0
405.732269	56.0
405.795105	112.0
405.845947	56.0
405.925049	72.0
405.954803	36.0
406.002655	60.0
406.079132	104.0
406.13681	208.0
406.238892	2608.0
406.321411	80.0
406.376068	164.0
406.432159	48.0
406.502502	120.0
406.535065	68.0
406.547791	44.0
406.604706	80.0
406.672699	68.0
406.837524	100.0
406.881683	72.0
406.917816	52.0
406.949921	60.0
406.99411	80.0
407.11908	148.0
407.244751	272.0
407.303558	72.0
407.337769	140.0
407.369965	136.0
407.439911	68.0
407.521729	88.0
407.579071	120.0
407.625854	124.0
407.667114	88.0
407.894043	108.0
407.92218	56.0
407.954315	160.0
407.998444	116.0
408.078949	64.0
408.119171	108.0
408.147308	44.0
408.211639	92.0
408.280029	68.0
408.340332	100.0
408.416779	60.0
408.470581	84.0
408.508392	168.0
408.551971	72.0
408.674225	136.0
408.7547	28.0
408.833435	92.0
408.867401	68.0
408.925751	88.0
409.052551	40.0
409.261902	72.0
409.584076	56.0
409.660614	32.0
409.809692	52.0
409.938629	48.0
410.027283	44.0
410.124023	44.0
410.224792	48.0
410.293335	84.0
411.209015	52.0
411.382568	36.0
411.61676	96.0
412.496216	112.0
412.671356	60.0
413.670654	104.0
414.144409	160.0
414.209229	32.0
414.375305	104.0
416.216766	88.0
417.025208	40.0
417.102448	80.0
417.171539	140.0
417.732727	80.0
418.269897	116.0
418.86441	88.0
419.051788	68.0
419.736572	44.0
420.572906	56.0
420.919952	68.0
420.99704	68.0
421.3815	116.0
421.55719	76.0
421.683899	80.0
422.399445	32.0
422.460815	112.0
422.599915	52.0
424.512848	92.0
425.628998	104.0
426.721954	84.0
426.960449	72.0
427.836884	92.0
430.496399	52.0
437.000183	28.0
439.466797	64.0
440.001007	84.0
440.134644	132.0
441.229309	80.0
441.680969	40.0
446.512848	120.0
448.361084	44.0
449.968231	84.0
449.997772	116.0
450.462341	76.0
451.286438	40.0
451.688232	64.0
453.907501	84.0
456.20871	96.0
456.476593	108.0
457.433868	124.0
457.915039	80.0
458.843994	108.0
459.479462	84.0
460.589386	84.0
461.123474	40.0
462.136993	124.0
462.637726	88.0
465.261414	68.0
465.403107	32.0
466.653442	72.0
467.444885	108.0
467.513763	88.0
468.965149	72.0
470.569916	56.0
474.281677	80.0
476.447113	72.0
477.586029	60.0
479.257751	112.0
480.583252	52.0
482.592468	92.0
483.497955	36.0
484.399933	84.0
485.526398	68.0
488.060211	40.0
488.434021	88.0
491.209198	64.0
493.572021	40.0
495.032318	96.0
499.030304	64.0
499.902161	92.0
500.298279	92.0
503.499847	92.0
503.857178	68.0
506.74295	112.0
507.110413	48.0
507.890594	32.0
507.9534	52.0
508.222565	68.0
510.765381	68.0
512.255371	132.0
514.325134	64.0
519.588135	100.0
519.796814	20.0
524.134888	68.0
524.5177	88.0
527.174011	68.0
527.795715	56.0
530.011169	80.0
530.382385	48.0
531.25824	60.0
536.786804	60.0
541.764709	100.0
541.908325	92.0
542.149292	76.0
542.900269	92.0
544.849792	116.0
544.933411	52.0
545.300537	28.0
549.174377	136.0
549.5849	40.0
551.167786	40.0
553.263184	108.0
555.160828	56.0
555.953674	68.0
556.413635	32.0
556.700073	120.0
556.916138	68.0
559.57312	128.0
559.676697	96.0
562.005188	52.0
562.892578	76.0
563.969727	104.0
564.622253	40.0
566.411377	28.0
568.559204	72.0
569.594238	88.0
572.605103	84.0
576.058472	44.0
581.387634	28.0
583.193481	76.0
585.791931	100.0
588.618225	104.0
589.671387	52.0
591.059326	136.0
597.00177	64.0
598.89502	108.0
598.938904	32.0
599.352966	64.0
599.723389	72.0
605.194885	52.0
605.390747	124.0
622.75647	88.0
628.716064	116.0
633.265747	92.0
634.974854	116.0
635.215576	100.0
637.193604	104.0
639.818909	52.0
641.657776	44.0
644.752075	108.0
645.950439	52.0
647.337219	80.0
648.183167	84.0
653.097595	56.0
653.133179	100.0
658.607666	60.0
660.181824	68.0
662.244385	60.0
662.690063	52.0
665.300537	36.0
665.685669	84.0
667.797913	60.0
669.455139	60.0
671.39801	108.0
676.285583	68.0
678.761963	100.0
685.93158	88.0
689.428528	112.0
691.30072	36.0
691.970764	92.0
694.81665	48.0
695.168213	36.0
696.013306	40.0
697.310913	52.0
698.60968	60.0
700.810425	76.0
701.959534	160.0
706.591858	80.0
713.326965	92.0
714.262878	56.0
714.422485	128.0
715.002441	100.0
715.875549	96.0
716.045959	96.0
716.168457	320.0
716.381531	52.0
716.418823	52.0
717.259583	124.0
717.665955	132.0
721.178711	96.0
724.582153	48.0
728.879944	56.0
728.998169	72.0
729.164795	60.0
731.127808	48.0
739.699036	160.0
741.93634	68.0
743.194641	64.0
748.619629	196.0
751.001343	28.0
752.294617	104.0
754.54541	84.0
756.356201	100.0
759.238159	88.0
759.424622	108.0
761.158875	88.0
761.801453	108.0
762.829102	172.0
763.054504	72.0
766.263184	148.0
768.181702	212.0
769.031494	164.0
775.142639	32.0
776.267944	96.0
777.205383	88.0
780.098999	160.0
780.32135	160.0
780.504883	180.0
780.60498	52.0
780.799622	216.0
781.348083	140.0
785.015381	68.0
789.359924	88.0
789.404663	92.0
790.282898	180.0
791.150391	48.0
792.393738	80.0
792.869995	152.0
794.945007	60.0
796.050903	340.0
801.270752	120.0
801.569336	100.0
802.944885	108.0
804.1297	200.0
804.389343	76.0
805.083862	100.0
806.920288	176.0
809.245667	104.0
809.908264	36.0
812.81665	148.0
814.264282	132.0
817.584534	44.0
818.31311	168.0
818.415588	144.0
819.697266	60.0
819.759949	76.0
821.459045	236.0
821.898315	40.0
822.360596	128.0
822.982849	148.0
823.473938	88.0
824.908203	184.0
825.188293	120.0
826.057617	40.0
826.177734	212.0
827.133423	156.0
828.479126	184.0
829.012024	144.0
831.013245	68.0
831.116516	128.0
831.47229	148.0
831.719116	164.0
833.229431	120.0
833.895996	144.0
834.189148	148.0
836.121826	160.0
836.501709	48.0
837.73407	96.0
838.096985	36.0
838.241089	196.0
838.828979	216.0
839.445862	176.0
840.761169	60.0
841.055542	188.0
842.216125	44.0
842.377869	100.0
842.481873	72.0
843.256165	56.0
844.875305	148.0
845.44812	124.0
848.26886	88.0
848.889221	80.0
849.585266	124.0
853.866272	72.0
855.018188	116.0
856.234985	276.0
856.590332	72.0
857.586731	52.0
858.012268	132.0
858.682861	188.0
859.499573	144.0
861.297729	44.0
862.074829	60.0
863.834717	132.0
867.10199	184.0
867.18988	172.0
867.811279	152.0
868.028259	104.0
868.927551	188.0
871.532593	76.0
872.666992	120.0
872.772827	148.0
873.025696	232.0
874.578979	160.0
875.709473	200.0
876.080566	188.0
876.923218	248.0
877.400696	156.0
877.636536	124.0
879.589294	144.0
880.327332	36.0
881.573792	244.0
882.338989	116.0
883.530945	144.0
884.400879	228.0
884.767883	120.0
884.945496	164.0
885.01062	164.0
885.513977	128.0
886.088562	176.0
887.220581	224.0
887.52887	168.0
889.053406	84.0
889.522339	176.0
889.70636	176.0
890.472351	160.0
890.989136	92.0
891.387268	120.0
891.470459	184.0
892.243164	164.0
892.992432	60.0
895.349304	140.0
895.569641	156.0
895.796021	196.0
896.999756	96.0
897.053406	132.0
897.160706	72.0
899.045532	172.0
899.415588	40.0
899.684204	216.0
900.120056	188.0
902.360779	156.0
902.994629	212.0
903.084351	180.0
903.318054	60.0
903.449219	168.0
903.993713	236.0
904.310913	80.0
905.76593	104.0
906.820496	176.0
907.012329	188.0
907.503906	48.0
908.176453	140.0
910.053955	216.0
910.49231	140.0
912.457275	172.0
912.571472	108.0
913.780396	160.0
914.309937	124.0
915.03833	236.0
917.719482	76.0
918.89563	160.0
920.966248	140.0
921.226013	56.0
923.05127	76.0
925.683594	184.0
925.847107	176.0
926.434692	196.0
928.028625	148.0
928.974731	236.0
929.041504	208.0
929.721069	128.0
933.955872	80.0
934.594604	196.0
935.611084	208.0
936.207764	188.0
936.809692	160.0
939.810425	252.0
941.006714	124.0
942.112122	168.0
945.224243	200.0
946.999634	164.0
948.176025	216.0
950.10144	236.0
951.06488	36.0
951.310425	140.0
952.077942	124.0
952.765869	320.0
953.454102	148.0
953.853577	144.0
955.766296	124.0
958.019714	92.0
958.38324	176.0
959.831787	116.0
960.109253	164.0
962.231934	188.0
962.497437	76.0
962.78772	144.0
962.963562	128.0
963.522766	384.0
965.346191	180.0
965.562622	140.0
965.643066	144.0
965.927551	64.0
966.230713	60.0
966.50293	72.0
967.028992	220.0
967.357056	44.0
967.83136	156.0
968.025696	40.0
968.545959	88.0
970.274902	168.0
970.454712	52.0
970.541565	108.0
973.389709	172.0
973.68158	120.0
974.22821	144.0
976.478394	156.0
976.727173	248.0
977.64801	180.0
978.581726	144.0
979.951965	160.0
981.528992	144.0
981.871948	172.0
985.49884	200.0
986.505066	144.0
989.226318	72.0
989.89624	112.0
989.983887	140.0
990.02771	260.0
990.422302	104.0
991.011902	280.0
992.753845	180.0
993.312073	172.0
994.567017	128.0
994.654907	164.0
995.157166	160.0
996.143127	84.0
996.997681	224.0
997.214233	44.0
997.311951	144.0
998.041199	136.0
998.764404	76.0
999.085266	144.0
1001.313538	40.0
1001.496216	116.0
1004.237427	172.0
1006.756226	160.0
1006.939392	56.0
1011.175415	196.0
1013.600952	68.0
1013.905151	136.0
1015.756531	220.0
1019.095947	120.0
1021.009338	56.0
1021.919006	196.0
1021.982605	32.0
1022.924561	140.0
1023.694946	156.0
1026.192749	92.0
1027.570435	160.0
1028.572388	92.0
1028.629883	120.0
1028.687256	116.0
1030.130493	128.0
1030.794922	60.0
1031.031372	52.0
1031.670654	196.0
1032.284424	160.0
1033.269409	80.0
1033.333496	200.0
1033.634155	176.0
1034.27417	184.0
1036.150513	184.0
1037.663086	168.0
1039.099731	160.0
1040.139404	132.0
1040.325562	136.0
1040.402588	208.0
1041.430054	232.0
1042.098145	104.0
1042.573608	252.0
1042.946411	212.0
1043.512085	156.0
1044.000854	144.0
1044.779175	48.0
1045.268066	240.0
1045.351807	200.0
1047.234863	96.0
1047.901611	164.0
1048.004761	156.0
1048.494507	176.0
1049.113281	156.0
1050.854614	140.0
1051.49353	40.0
1052.448853	88.0
1052.720093	44.0
1053.269043	100.0
1054.361084	204.0
1054.755249	172.0
1054.826416	160.0
1055.220825	160.0
1055.822144	36.0
1056.242554	200.0
1059.226685	56.0
1060.11438	68.0
1061.890747	128.0
1062.721069	124.0
1062.78833	176.0
1063.533081	160.0
1064.545044	60.0
1064.772461	180.0
1065.15564	60.0
1067.184326	168.0
1068.380005	136.0
1069.518799	164.0
1070.31311	204.0
1070.47583	232.0
1071.055542	136.0
1071.276978	220.0
1071.589722	92.0
1072.502075	296.0
1077.833984	156.0
1078.056274	152.0
1078.422241	164.0
1081.129883	176.0
1083.775391	176.0
1084.024414	132.0
1084.810913	112.0
1085.486328	136.0
1086.725952	84.0
1086.837524	128.0
1087.415039	140.0
1091.363159	132.0
1091.71167	144.0
1094.245117	120.0
1095.496338	204.0
1095.588623	160.0
1097.592285	128.0
1099.030273	120.0
1099.736328	124.0
1100.720093	156.0
1100.957764	68.0
1101.492798	224.0
1101.902344	184.0
1102.345093	100.0
1104.070557	112.0
1104.487183	60.0
1105.115723	152.0
1106.174561	228.0
1106.234131	72.0
1106.419556	148.0
1109.049438	44.0
1110.554565	180.0
1110.600952	204.0
1111.04541	92.0
1111.383789	176.0
1111.921387	180.0
1112.419189	164.0
1112.631592	152.0
1112.923706	128.0
1113.61438	108.0
1114.291992	200.0
1114.51355	192.0
1115.627808	180.0
1118.295288	116.0
1118.355225	40.0
1118.454956	132.0
1119.660156	152.0
1119.993164	96.0
1121.245728	180.0
1121.705688	112.0
1123.646362	148.0
1124.240234	140.0
1124.447144	128.0
1125.161377	148.0
1126.557129	224.0
1127.048096	204.0
1127.445801	56.0
1128.328125	100.0
1129.170654	132.0
1129.324585	124.0
1130.56897	120.0
1130.963867	68.0
1131.452515	64.0
1132.852173	56.0
1133.683105	132.0
1134.299683	136.0
1134.418701	176.0
1135.392578	200.0
1135.546875	124.0
1136.303833	184.0
1136.600098	144.0
1137.647095	188.0
1138.459595	132.0
1138.506592	168.0
1139.077515	172.0
1139.984497	188.0
1140.308228	176.0
1140.838135	124.0
1140.972656	208.0
1141.182983	244.0
1141.389526	64.0
1143.23938	188.0
1143.360596	176.0
1144.538574	120.0
1145.137939	48.0
1145.542114	172.0
1145.697021	128.0
1146.310181	156.0
1146.471924	200.0
1146.802246	232.0
1147.341431	112.0
1147.550537	120.0
1148.09668	148.0
1148.811646	172.0
1149.155762	152.0
1149.817017	116.0
1150.127563	140.0
1150.741821	180.0
1151.977783	192.0
1152.673706	212.0
1152.720947	128.0
1152.910156	136.0
1153.025146	252.0
1153.856567	328.0
1153.991821	128.0
1154.262207	232.0
1154.350098	148.0
1155.906006	88.0
1155.966919	204.0
1156.62561	112.0
1157.228638	224.0
1157.483276	48.0
1159.502075	76.0
1159.827393	144.0
1160.145996	36.0
1160.193481	128.0
1160.407349	156.0
1160.512085	212.0
1160.959595	124.0
1161.305542	136.0
1162.859253	184.0
1163.510986	232.0
1164.536377	100.0
1165.650513	168.0
1167.8396	204.0
1168.540283	216.0
1169.207153	176.0
1170.391724	180.0
1171.290649	28.0
1171.604004	112.0
1172.053711	152.0
1172.353516	100.0
1173.041992	36.0
1173.273804	152.0
1173.82605	64.0
1174.044312	124.0
1174.647339	176.0
1175.688354	176.0
1177.40979	164.0
1177.484009	168.0
1178.146484	156.0
1179.759399	208.0
1181.024414	232.0
1181.414307	48.0
1181.578491	184.0
1184.720947	128.0
1185.371826	168.0
1187.826416	92.0
1190.812256	88.0
1191.293091	44.0
1191.904541	132.0
1192.103149	204.0
1194.241943	188.0
1196.767578	172.0
1199.957764	176.0
1201.35083	156.0
1202.144287	136.0
1202.296143	164.0
1202.710205	164.0
1203.590942	192.0
1203.801147	112.0
1204.623047	96.0
1204.678345	144.0
1204.754272	152.0
1205.56958	68.0
1206.060303	168.0
1206.129395	136.0
1207.360107	148.0
1207.609131	192.0
1207.685181	132.0
1207.775146	144.0
1208.245605	108.0
1209.145142	184.0
1209.297363	156.0
1209.691895	128.0
1210.155762	184.0
1210.224976	208.0
1211.506348	144.0
1213.120972	136.0
1213.446899	216.0
1214.618896	68.0
1214.972656	224.0
1217.140747	228.0
1217.388184	68.0
1217.818726	52.0
1217.929932	144.0
1219.076294	72.0
1219.159668	72.0
1219.861694	220.0
1220.223145	232.0
1222.525635	156.0
1224.091919	164.0
1225.150635	224.0
1227.339111	132.0
1228.943359	136.0
1229.683105	164.0
1229.990234	136.0
1231.442627	168.0
1234.126099	148.0
1234.412842	120.0
1234.576538	188.0
1235.608887	84.0
1236.126709	92.0
1236.301636	160.0
1237.120605	216.0
1238.065796	128.0
1239.789185	164.0
1241.675171	152.0
1242.987061	48.0
1243.485229	256.0
1243.723877	128.0
1243.829224	220.0
1245.7323	156.0
1247.046265	152.0
1248.09375	128.0
1248.480469	104.0
1249.233154	144.0
1249.746704	84.0
1250.78833	124.0
1251.724731	184.0
1252.309204	268.0
1253.126343	52.0
1254.881348	116.0
1256.193115	144.0
1256.341309	220.0
1256.821045	140.0
1257.675049	144.0
1258.267944	92.0
1258.705811	192.0
1259.744019	168.0
1260.685669	180.0
1260.789795	232.0
1263.031006	188.0
1263.356445	160.0
1263.802246	164.0
1264.693848	184.0
1265.762939	52.0
1266.039062	220.0
1266.393188	56.0
1266.485352	132.0
1267.115845	164.0
1269.504517	284.0
1270.432495	184.0
1270.618164	180.0
1271.121948	196.0
1271.356079	128.0
1273.336914	132.0
1274.679565	72.0
1275.575195	92.0
1275.688843	216.0
1276.449585	56.0
1276.94751	120.0
1278.114136	40.0
1278.57666	200.0
1278.626587	168.0
1279.131958	232.0
1279.430908	60.0
1280.0354	196.0
1280.235474	164.0
1281.211304	60.0
1281.596069	40.0
1282.401367	136.0
1283.891479	176.0
1285.917725	120.0
1286.595825	164.0
1287.90979	112.0
1288.674194	184.0
1289.674683	348.0
1290.382324	44.0
1290.46106	44.0
1290.675537	76.0
1291.790405	64.0
1292.106079	184.0
1292.327881	156.0
1292.721436	136.0
1293.200928	228.0
1293.666138	204.0
1293.802246	172.0
1294.016968	132.0
1294.289062	88.0
1294.876343	152.0
1295.628418	84.0
1296.213135	232.0
1296.344971	184.0
1296.409424	132.0
1296.516968	64.0
1296.817993	188.0
1296.98999	100.0
1297.857422	84.0
1298.036743	132.0
1298.266235	172.0
1298.474243	188.0
1298.739624	196.0
1299.83728	152.0
1300.059692	180.0
1300.174561	108.0
1300.296509	56.0
1300.504639	204.0
1300.568726	212.0
1301.265625	60.0
1301.452271	188.0
1301.954956	48.0
1302.084229	56.0
1302.845703	172.0
1303.564209	84.0
1303.858887	192.0
1304.052856	56.0
1305.044922	160.0
1305.893555	148.0
1306.245972	120.0
1306.634521	176.0
1307.663574	136.0
1307.987427	192.0
1308.052246	256.0
1309.110596	204.0
1309.240234	172.0
1310.241455	128.0
1310.400024	184.0
1310.990845	168.0
1312.208984	136.0
1312.38208	140.0
1312.858032	132.0
1314.331055	200.0
1314.546143	60.0
1314.762573	176.0
1315.52771	244.0
1315.628784	52.0
1315.679321	112.0
1315.830933	40.0
1315.960938	144.0
1317.33313	192.0
1317.629272	164.0
1318.980713	164.0
1319.772095	208.0
1321.005493	184.0
1321.128418	236.0
1321.367188	160.0
1321.591431	136.0
1322.047363	152.0
1323.19104	92.0
1323.791992	160.0
1324.70459	140.0
1325.001709	28.0
1325.407349	80.0
1325.776978	112.0
1325.863892	204.0
1327.328369	192.0
1327.538574	144.0
1328.191406	144.0
1328.452515	56.0
1329.62793	68.0
1331.755371	52.0
1332.808716	160.0
1333.157593	128.0
1333.230225	72.0
1333.644531	236.0
1334.06604	128.0
1335.476807	156.0
1336.575317	140.0
1337.19397	164.0
1337.390381	204.0
1339.028687	204.0
1340.237915	128.0
1340.473877	136.0
1340.835571	172.0
1341.65918	160.0
1342.169556	140.0
1342.811279	156.0
1343.26355	148.0
1344.832397	108.0
1345.474731	160.0
1345.708374	144.0
1345.912842	156.0
1346.197632	116.0
1346.526245	232.0
1347.05957	160.0
1348.345459	216.0
1349.091064	124.0
1349.77832	180.0
1350.363403	200.0
1350.597534	156.0
1352.28772	172.0
1352.382812	212.0
1354.359863	228.0
1354.479492	192.0
1355.070068	76.0
1355.290283	124.0
1355.480713	168.0
1356.734131	164.0
1357.079834	180.0
1357.680054	180.0
1357.907349	120.0
1358.252075	232.0
1358.406128	244.0
1359.037109	144.0
1359.550781	56.0
1360.41687	164.0
1361.878174	132.0
1362.267456	172.0
1362.634766	156.0
1362.737671	68.0
1364.001709	144.0
1364.685425	120.0
1366.487427	192.0
1366.671387	164.0
1367.510376	60.0
1368.820801	140.0
1369.078491	140.0
1369.527832	172.0
1370.61084	160.0
1371.237183	184.0
1371.782593	172.0
1372.350342	188.0
1373.382812	112.0
1373.55249	188.0
1374.806763	124.0
1375.655518	204.0
1375.943481	88.0
1376.37915	180.0
1377.132446	144.0
1377.856323	100.0
1378.100098	132.0
1378.307007	128.0
1380.095825	80.0
1380.480347	92.0
1380.702148	212.0
1381.464111	236.0
1381.730347	112.0
1382.322388	172.0
1382.418579	180.0
1382.522095	152.0
1382.884766	128.0
1383.462158	52.0
1383.750977	160.0
1384.18042	156.0
1384.587646	176.0
1385.454346	128.0
1385.95813	128.0
1386.017456	152.0
1386.376953	204.0
1386.551025	224.0
1387.77417	136.0
1387.892822	152.0
1389.702637	156.0
1389.851074	176.0
1390.199829	156.0
1390.303711	124.0
1390.526367	144.0
1390.986572	72.0
1391.572998	180.0
1391.855225	36.0
1392.48645	64.0
1393.437256	92.0
1394.076294	44.0
1394.276978	208.0
1394.328979	196.0
1394.388428	156.0
1394.64856	144.0
1395.481201	52.0
1395.577881	188.0
1395.674561	220.0
1396.001709	152.0
1396.440552	180.0
1396.901733	256.0
1396.961182	176.0
1397.340576	204.0
1397.407593	160.0
1397.481934	164.0
1398.233521	204.0
1398.740234	160.0
1398.843872	88.0
1399.774658	152.0
1400.400146	88.0
1400.824829	192.0
1401.741211	152.0
1402.076538	108.0
1402.672852	136.0
1404.212891	168.0
1404.619141	32.0
1406.342773	144.0
1406.604004	176.0
1408.93396	120.0
1409.950195	160.0
1410.144531	60.0
1410.862183	120.0
1411.871582	128.0
1412.021118	184.0
1413.060913	208.0
1413.255493	128.0
1413.741943	140.0
1415.898071	200.0
1416.42981	100.0
1417.104004	184.0
1417.276367	144.0
1417.636108	136.0
1418.595459	156.0
1418.790405	156.0
1418.992798	52.0
1419.090332	212.0
1419.645142	196.0
1419.817627	48.0
1420.117676	48.0
1420.192627	144.0
1420.515259	248.0
1420.747803	88.0
1420.935303	260.0
1422.088257	216.0
1422.443848	208.0
1422.646484	68.0
1423.096924	48.0
1423.5625	188.0
1423.720703	188.0
1424.133301	160.0
1424.5177	112.0
1425.447998	160.0
1425.598389	144.0
1425.959106	152.0
1426.552856	180.0
1426.936279	228.0
1427.470215	44.0
1428.477173	184.0
1428.861694	116.0
1429.275513	124.0
1429.704468	176.0
1430.682983	180.0
1432.34729	196.0
1432.580811	176.0
1432.964966	84.0
1433.447266	148.0
1434.313965	164.0
1434.43457	76.0
1434.743652	120.0
1435.399658	156.0
1436.070923	176.0
1436.851807	236.0
1436.976074	172.0
1437.791138	156.0
1438.289185	60.0
1438.795044	84.0
1439.293335	136.0
1439.519897	212.0
1439.65332	240.0
1439.86731	164.0
1440.192017	160.0
1440.6604	120.0
1441.133911	220.0
1441.657715	144.0
1441.76355	172.0
1441.854248	168.0
1442.973022	188.0
1443.093994	116.0
1444.78064	192.0
1444.86377	112.0
1444.947021	164.0
1445.423706	152.0
1445.612915	60.0
1445.885376	152.0
1446.430298	176.0
1447.391846	148.0
1447.664429	140.0
1448.088501	152.0
1448.156738	180.0
1448.414307	176.0
1448.679443	212.0
1449.133911	152.0
1449.209717	236.0
1449.914429	208.0
1450.657349	156.0
1451.696045	124.0
1451.984253	224.0
1452.469604	128.0
1453.258667	232.0
1453.76709	220.0
1454.548828	128.0
1455.330811	144.0
1455.528198	136.0
1455.581421	204.0
1455.649658	168.0
1455.778809	80.0
1456.836304	212.0
1457.115723	160.0
1458.050293	128.0
1459.431152	180.0
1460.407349	80.0
1461.099609	204.0
1461.419067	84.0
1462.225708	212.0
1462.682495	176.0
1463.359985	108.0
1463.428589	124.0
1463.733154	56.0
1463.908203	164.0
1464.966919	172.0
1466.04895	180.0
1466.323242	172.0
1466.681519	192.0
1466.788208	164.0
1467.291138	108.0
1467.398193	200.0
1467.721924	168.0
1467.817505	112.0
1468.359009	124.0
1468.450439	192.0
1468.747925	196.0
1469.442139	188.0
1469.770264	160.0
1470.937988	148.0
1471.319702	124.0
1471.800659	120.0
1471.93811	184.0
1472.373413	116.0
1472.92334	180.0
1473.46582	100.0
1474.008301	188.0
1474.887207	140.0
1475.452881	116.0
1476.239746	216.0
1476.332275	148.0
1476.546387	180.0
1477.181274	128.0
1477.357178	312.0
1477.456665	244.0
1478.175903	96.0
1478.413086	196.0
1479.117188	96.0
1479.369873	120.0
1479.480591	160.0
1480.58728	176.0
1481.720947	144.0
1482.180664	84.0
1482.364624	176.0
1482.795532	144.0
1483.000732	156.0
1483.705933	292.0
1484.158325	192.0
1486.244751	144.0
1487.495728	52.0
1487.595459	52.0
1487.97937	92.0
1488.33252	136.0
1488.486084	172.0
1488.708862	208.0
1489.249268	172.0
1489.682129	116.0
1489.960815	132.0
1490.652344	332.0
1491.098145	152.0
1491.244141	136.0
1491.567017	196.0
1491.751465	172.0
1492.312744	156.0
1492.868042	152.0
1494.135498	228.0
1495.882446	152.0
1497.060547	148.0
1497.953979	204.0
1498.061768	160.0
1498.369995	128.0
1500.042236	176.0
1500.234985	44.0
1500.396851	152.0
1501.260498	160.0
1502.834106	180.0
1502.895874	188.0
1503.598145	172.0
1504.053467	148.0
1504.261963	40.0
1504.524414	196.0
1505.080322	128.0
1505.288818	156.0
END IONS

BEGIN IONS
PEPMASS=333.241
CHARGE=1
MSLEVEL=2
SOURCE_INSTRUMENT=LC-ESI-qTof
FILENAME=p3-E03_GE3_01_18272.mzXML
SEQ=*..*
IONMODE=Positive
ORGANISM=GNPS-NIH-SMALLMOLECULEPHARMACOLOGICALLYACTIVE
NAME=MLS001076262-01! M+H
PI=Dorrestein
DATACOLLECTOR=VP/LMS
SMILES=CC(=O)[C@H]1CC[C@H]2[C@@H]3CC[C@H]4C[C@H](O)CC[C@]4(C)[C@H]3C(=O)C[C@]12C
INCHI=N/A
INCHIAUX=N/A
PUBMED=N/A
SUBMITUSER=vphelan
LIBRARYQUALITY=1
SPECTRUMID=CCMSLIB00000085049
USI=mzspec:GNPS:GNPS-NIH-SMALLMOLECULEPHARMACOLOGICALLYACTIVE:accession:CCMSLIB00000085049
SCANS=2133
44.952118	128.0
44.978809	200.0
45.028217	128.0
45.621849	232.0
46.028767	88.0
46.047672	140.0
46.246437	136.0
46.457836	172.0
47.769375	156.0
48.064228	112.0
48.566448	184.0
48.961189	228.0
49.108932	172.0
49.156368	188.0
49.46246	192.0
49.647415	128.0
50.043205	240.0
50.263599	104.0
50.544807	160.0
51.204967	168.0
51.408844	172.0
51.470676	128.0
51.538795	252.0
51.941109	160.0
52.545345	220.0
52.967491	172.0
53.526672	208.0
53.885502	220.0
53.942501	268.0
54.318855	76.0
54.345264	120.0
54.409847	72.0
55.36095	140.0
55.583317	148.0
55.853722	60.0
56.018963	160.0
57.340618	140.0
57.444664	236.0
57.601662	140.0
58.50552	112.0
58.969261	60.0
59.576084	140.0
59.62833	244.0
59.689827	220.0
59.803677	228.0
59.909931	196.0
60.207638	188.0
60.626904	176.0
60.654804	208.0
61.0243	188.0
61.050735	136.0
61.186115	136.0
61.524433	236.0
61.588463	172.0
61.73069	76.0
62.857727	188.0
63.49144	240.0
64.869125	120.0
64.992622	160.0
65.138725	56.0
65.16925	192.0
65.225502	148.0
65.441086	176.0
65.837776	148.0
65.916939	100.0
66.357224	116.0
66.451294	152.0
66.842903	140.0
66.997581	188.0
67.49704	192.0
67.97702	200.0
68.078804	212.0
68.095222	164.0
68.745544	132.0
68.78186	164.0
68.953644	168.0
69.21006	172.0
69.500145	208.0
69.780853	200.0
69.804131	200.0
70.849022	184.0
71.283607	140.0
71.433243	148.0
71.456802	132.0
72.78878	128.0
72.812553	152.0
73.600487	208.0
74.264778	212.0
74.885574	160.0
75.761391	220.0
76.156906	140.0
76.6632	176.0
77.07679	164.0
77.08902	208.0
77.472214	128.0
77.968796	152.0
78.135849	128.0
78.209763	244.0
78.333023	80.0
78.855331	204.0
79.405975	196.0
79.473389	100.0
79.572784	160.0
79.627838	208.0
79.869568	168.0
80.008377	152.0
80.38269	80.0
80.890289	136.0
81.062233	220.0
81.498283	60.0
82.424484	200.0
82.471474	140.0
83.417709	172.0
83.439522	168.0
83.477707	216.0
83.963966	292.0
84.42054	64.0
84.559586	192.0
84.757378	160.0
84.783028	216.0
85.838264	116.0
86.381279	188.0
86.394226	220.0
86.759071	164.0
87.277084	100.0
87.319862	180.0
87.7463	160.0
88.140144	140.0
89.033737	240.0
89.063789	128.0
89.862007	152.0
90.495193	212.0
90.622101	100.0
90.796501	176.0
91.056625	228.0
91.330223	144.0
91.648155	192.0
91.871231	152.0
92.058174	172.0
92.157623	196.0
92.505707	84.0
92.718315	68.0
92.958038	220.0
93.065781	200.0
93.338394	128.0
93.891098	136.0
93.948967	128.0
94.714493	96.0
94.875336	44.0
94.999451	64.0
95.084251	736.0
95.459785	124.0
95.607635	116.0
95.648514	180.0
95.683556	168.0
95.759499	164.0
95.853012	156.0
95.897835	128.0
96.022621	172.0
96.085045	148.0
96.362289	40.0
96.518661	168.0
96.581245	160.0
96.682991	136.0
96.941498	136.0
97.059113	116.0
97.380966	168.0
97.483131	136.0
97.724998	232.0
98.008537	188.0
98.118912	104.0
98.141449	196.0
98.185959	212.0
98.541283	204.0
98.816116	192.0
99.255844	136.0
99.452255	236.0
99.87748	136.0
101.088547	176.0
101.238693	124.0
101.9328	120.0
102.597023	156.0
102.780563	160.0
103.054115	160.0
103.648048	116.0
103.686554	120.0
103.737228	104.0
104.000938	28.0
104.057777	180.0
104.269043	144.0
105.06926	2124.0
105.10672	240.0
105.167267	172.0
105.281601	164.0
105.470123	184.0
105.645439	44.0
106.072098	436.0
106.43248	76.0
106.473557	44.0
107.049393	152.0
107.084183	1820.0
107.216263	168.0
107.263672	220.0
107.278099	188.0
107.858177	36.0
107.945007	44.0
108.089081	204.0
108.156044	176.0
108.29892	152.0
108.863052	192.0
108.906662	44.0
109.002235	108.0
109.060425	192.0
109.102333	592.0
109.382843	164.0
110.070869	236.0
110.332054	52.0
110.670998	224.0
110.930794	148.0
111.080742	168.0
111.466003	32.0
112.088882	240.0
112.344002	212.0
112.609978	128.0
112.817062	108.0
113.269928	236.0
113.672768	100.0
114.732025	232.0
115.056313	308.0
115.135315	136.0
115.398155	156.0
115.680565	124.0
116.059784	192.0
116.90831	240.0
116.934135	140.0
117.067856	896.0
117.239967	136.0
117.285225	108.0
117.813927	168.0
117.852821	184.0
118.47377	156.0
118.636307	88.0
119.044228	196.0
119.084641	2388.0
119.191948	48.0
120.040916	168.0
120.083496	168.0
120.381348	244.0
120.962944	64.0
120.978264	56.0
121.066055	380.0
121.09996	836.0
121.359489	168.0
121.864326	152.0
121.90168	124.0
122.064354	116.0
122.101082	188.0
122.237152	240.0
122.68306	200.0
122.921272	72.0
123.025009	152.0
123.076653	348.0
123.120049	200.0
123.298912	132.0
123.723618	104.0
123.798904	148.0
123.960617	132.0
124.08918	164.0
124.228905	216.0
125.095596	100.0
125.177979	148.0
125.247025	200.0
125.530075	140.0
126.784233	156.0
126.840263	184.0
127.185707	92.0
127.338394	148.0
128.061462	548.0
129.067978	476.0
129.148331	196.0
129.632843	172.0
129.741638	152.0
130.074005	300.0
130.99382	48.0
131.084061	1916.0
131.301544	156.0
131.559387	104.0
131.828918	172.0
132.082703	364.0
132.130737	144.0
132.219986	176.0
133.066818	284.0
133.09938	1548.0
133.143921	152.0
133.192154	68.0
133.244995	152.0
134.104019	328.0
134.158676	44.0
134.480362	192.0
134.902039	140.0
135.08136	292.0
135.116714	828.0
135.3069	40.0
135.853836	160.0
136.030212	168.0
136.088257	216.0
136.115387	128.0
136.618164	148.0
137.016266	76.0
137.094818	472.0
137.115402	192.0
137.473282	152.0
138.099426	136.0
139.069473	116.0
139.107025	128.0
139.915741	104.0
140.929932	216.0
141.070938	268.0
141.772369	136.0
142.0755	440.0
142.439087	200.0
142.7005	116.0
143.084763	896.0
143.119278	124.0
143.252655	76.0
143.402771	136.0
143.860764	144.0
144.090973	556.0
144.362534	212.0
144.762177	172.0
145.013733	144.0
145.042496	120.0
145.065048	260.0
145.099747	2148.0
145.402283	152.0
145.575134	228.0
145.728882	88.0
145.978867	56.0
146.051025	196.0
146.070694	156.0
146.101898	264.0
146.142441	100.0
146.371109	180.0
147.046143	152.0
147.078293	180.0
147.116241	2232.0
147.148972	168.0
147.16745	172.0
147.253769	156.0
147.384232	52.0
147.574692	160.0
147.650146	84.0
147.942932	128.0
148.003464	68.0
148.11734	400.0
148.187546	80.0
148.362045	52.0
149.092957	620.0
149.132278	1012.0
149.294464	84.0
150.005432	88.0
150.106995	280.0
150.132385	60.0
151.079956	152.0
151.108017	456.0
151.302658	148.0
152.062576	124.0
152.266357	236.0
153.067383	184.0
153.67691	184.0
153.847214	132.0
153.926224	128.0
153.955856	168.0
154.079361	144.0
154.922989	160.0
154.940338	88.0
155.085464	776.0
155.515656	132.0
155.885712	176.0
156.090973	356.0
156.181564	48.0
156.512573	68.0
157.098862	1196.0
157.158157	76.0
157.700073	60.0
157.79007	256.0
158.00766	156.0
158.099136	592.0
158.25795	136.0
158.313034	208.0
159.085022	388.0
159.115097	2612.0
159.153107	168.0
159.519913	36.0
159.590317	68.0
159.72612	80.0
160.083511	112.0
160.118195	512.0
161.092529	448.0
161.131805	436.0
161.221283	60.0
161.904358	96.0
161.946991	100.0
162.138641	344.0
163.110352	576.0
163.140793	84.0
163.292633	136.0
165.070297	172.0
165.120148	196.0
166.125931	172.0
166.448853	196.0
166.726288	128.0
166.988541	216.0
167.086609	408.0
167.108017	212.0
167.511063	112.0
168.092758	596.0
168.597336	60.0
169.100555	1020.0
169.166382	152.0
170.106949	308.0
171.115707	1616.0
171.220276	68.0
171.373978	96.0
171.929413	60.0
172.088638	200.0
172.117523	168.0
173.094666	560.0
173.13179	924.0
173.181778	44.0
173.302292	44.0
173.519836	132.0
174.103043	140.0
174.132294	168.0
174.325668	36.0
175.111313	448.0
175.144608	340.0
175.470688	164.0
176.116165	320.0
176.151581	132.0
176.979385	120.0
177.128128	412.0
177.488144	96.0
177.684418	68.0
177.806488	92.0
178.07106	208.0
178.164963	136.0
178.930908	112.0
179.079056	148.0
179.140488	132.0
179.426453	112.0
180.096268	204.0
180.716492	212.0
181.100296	428.0
182.107742	324.0
182.392654	40.0
182.911804	100.0
183.030273	184.0
183.114868	996.0
183.205338	76.0
183.36972	64.0
183.898361	144.0
184.123001	336.0
184.357498	68.0
184.433167	88.0
185.132629	844.0
185.212463	64.0
186.107437	148.0
186.133713	424.0
187.039932	80.0
187.078049	104.0
187.111954	628.0
187.147858	168.0
187.434845	100.0
188.157837	172.0
188.179489	100.0
188.216293	92.0
188.313309	48.0
188.44989	72.0
189.126389	1040.0
189.16301	200.0
190.130249	76.0
191.143433	144.0
191.175598	128.0
191.505981	104.0
192.142761	188.0
193.096436	280.0
193.12204	244.0
193.155075	120.0
193.2341	100.0
194.109177	312.0
194.395111	48.0
194.445068	60.0
195.118149	476.0
195.899323	192.0
196.091599	56.0
196.114197	336.0
197.087875	164.0
197.131912	1320.0
197.364594	56.0
198.133469	268.0
198.193146	68.0
199.113281	164.0
199.146042	760.0
199.309921	116.0
199.45607	108.0
200.111298	88.0
200.162186	200.0
200.723007	132.0
201.127975	424.0
201.159744	192.0
201.999619	76.0
202.1241	104.0
203.139206	332.0
203.933487	120.0
204.824112	148.0
205.120773	292.0
205.163223	160.0
205.274429	144.0
206.102249	132.0
207.115585	196.0
207.14328	184.0
207.172302	148.0
208.120804	152.0
209.12973	164.0
209.280411	44.0
210.136459	324.0
210.838165	164.0
211.147598	548.0
211.193787	72.0
212.151978	560.0
212.375565	116.0
212.723785	80.0
212.866043	204.0
213.121674	324.0
213.163086	608.0
213.583923	116.0
213.607193	68.0
214.093262	148.0
214.166077	216.0
214.68779	104.0
215.141006	600.0
216.141052	452.0
216.174759	216.0
216.906982	84.0
217.155106	200.0
217.198868	184.0
218.483978	236.0
218.904877	124.0
219.146423	236.0
221.137726	196.0
222.138367	204.0
223.115417	136.0
223.148071	1744.0
223.284912	48.0
223.451492	64.0
223.513977	48.0
223.633026	44.0
224.159271	408.0
224.219772	56.0
225.164856	52.0
226.158188	128.0
227.173782	864.0
227.225037	176.0
227.71434	60.0
228.147049	124.0
228.191925	164.0
229.116119	128.0
229.144882	176.0
229.198822	264.0
230.129517	28.0
230.168762	224.0
230.540329	92.0
231.1754	164.0
233.152588	100.0
234.132339	140.0
235.141495	100.0
237.167572	584.0
238.170227	208.0
238.805954	68.0
239.174072	748.0
239.221359	136.0
239.390717	60.0
240.187225	184.0
241.156631	520.0
241.189438	76.0
243.081787	128.0
243.163071	296.0
243.224564	160.0
244.100708	200.0
245.179626	140.0
246.132431	240.0
246.197998	124.0
246.73233	40.0
247.104507	280.0
249.170761	120.0
250.173645	148.0
250.791321	52.0
251.177612	228.0
252.078995	128.0
252.948761	196.0
253.195572	876.0
254.202606	456.0
255.169098	320.0
255.204147	632.0
255.274429	32.0
255.299866	160.0
256.175171	36.0
256.8797	80.0
257.000916	52.0
257.118988	144.0
257.157288	160.0
257.197235	356.0
257.479767	64.0
257.885529	60.0
258.080536	32.0
258.186493	88.0
258.374786	40.0
258.675629	44.0
258.890137	180.0
259.167938	308.0
260.175293	120.0
261.851257	172.0
264.192902	252.0
266.425232	108.0
269.195831	260.0
269.218079	104.0
269.242828	184.0
270.25946	204.0
271.201416	792.0
272.199921	148.0
272.972229	84.0
273.189087	100.0
273.214569	208.0
273.501923	56.0
279.207184	152.0
280.211395	160.0
280.604736	68.0
280.951569	152.0
282.043549	68.0
282.515076	124.0
287.200378	316.0
288.204041	284.0
289.215088	212.0
290.234833	180.0
292.232056	132.0
297.218964	1388.0
297.34433	44.0
298.220184	156.0
299.200531	44.0
300.206696	76.0
300.696594	40.0
301.242157	104.0
307.597107	48.0
309.071991	124.0
310.964417	100.0
315.226654	300.0
318.229584	64.0
322.590363	52.0
324.534393	116.0
330.195435	72.0
331.266846	188.0
333.160553	108.0
333.211426	168.0
334.222229	160.0
356.801971	28.0
357.226929	120.0
401.243744	32.0
481.858093	128.0
495.063354	32.0
533.89978	48.0
533.954956	64.0
579.379395	44.0
648.534363	128.0
780.235291	192.0
798.515564	164.0
806.081299	136.0
857.491394	172.0
892.990601	176.0
916.012329	80.0
955.334351	236.0
970.583801	100.0
982.457214	144.0
999.109497	128.0
1003.562378	156.0
1012.314209	40.0
1017.374023	216.0
1020.162903	88.0
1020.766968	180.0
1042.277466	132.0
1043.781616	52.0
1047.417969	148.0
1053.139404	116.0
1068.015381	168.0
1073.401489	60.0
1091.317017	128.0
1098.297852	136.0
1103.197754	60.0
1105.042969	136.0
1112.691406	172.0
1117.716431	112.0
1121.685791	112.0
1126.042969	208.0
1127.319092	128.0
1128.863281	128.0
1130.67627	156.0
1136.902344	192.0
1153.43103	152.0
1154.71582	160.0
1162.608643	156.0
1165.72583	172.0
1181.469849	120.0
1183.660034	196.0
1189.130859	124.0
1189.343628	164.0
1189.776123	64.0
1192.620117	188.0
1195.556885	72.0
1199.848267	152.0
1204.423584	188.0
1211.902222	144.0
1214.349365	172.0
1216.83374	148.0
1229.998413	144.0
1247.750488	208.0
1252.507812	152.0
1255.926514	144.0
1257.090698	64.0
1260.586304	96.0
1269.612427	228.0
1274.37561	188.0
1278.635254	180.0
1279.824097	176.0
1281.106079	144.0
1296.654907	188.0
1300.987549	188.0
1309.415039	192.0
1316.822266	68.0
1317.234009	76.0
1317.450684	148.0
1318.855347	136.0
1319.597168	64.0
1320.002075	100.0
1322.722534	44.0
1328.962524	188.0
1337.516357	168.0
1338.841553	180.0
1340.181885	168.0
1343.021973	132.0
1345.141235	180.0
1345.360229	156.0
1354.127808	172.0
1354.413452	148.0
1358.386475	136.0
1362.409546	164.0
1364.062988	172.0
1367.417114	176.0
1370.539673	120.0
1372.080078	192.0
1376.74353	176.0
1382.917114	140.0
1383.005859	152.0
1388.192139	144.0
1388.466553	52.0
1390.87793	236.0
1398.161987	108.0
1399.144531	120.0
1399.673218	148.0
1404.390747	72.0
1410.551147	196.0
1414.942505	124.0
1426.64624	152.0
1430.963501	228.0
1436.360718	200.0
1437.333984	200.0
1441.645874	72.0
1442.152222	176.0
1448.614502	144.0
1451.904175	216.0
1458.091797	176.0
1459.368896	172.0
1462.891479	240.0
1473.767334	140.0
1473.897217	204.0
1474.22583	60.0
1481.035156	140.0
1483.272705	216.0
1493.762329	164.0
1495.231934	184.0
1498.373779	156.0
1504.258057	168.0
1504.52832	144.0
END IONS

BEGIN IONS
PEPMASS=462.242
CHARGE=1
MSLEVEL=2
SOURCE_INSTRUMENT=LC-ESI-qTof
FILENAME=p3-F05_GF5_01_18286.mzXML
SEQ=*..*
IONMODE=Positive
ORGANISM=GNPS-NIH-SMALLMOLECULEPHARMACOLOGICALLYACTIVE
NAME=MLS001077311-01!2062-78-4 M+H
PI=Dorrestein
DATACOLLECTOR=VP/LMS
SMILES=Oc1nc2ccccc2n1C3CCN(CCCC(c4ccc(F)cc4)c5ccc(F)cc5)CC3
INCHI=N/A
INCHIAUX=N/A
PUBMED=N/A
SUBMITUSER=vphelan
LIBRARYQUALITY=1
SPECTRUMID=CCMSLIB00000085145
USI=mzspec:GNPS:GNPS-NIH-SMALLMOLECULEPHARMACOLOGICALLYACTIVE:accession:CCMSLIB00000085145
SCANS=1970
44.89209	96.0
44.904091	100.0
44.930447	196.0
44.942783	168.0
44.97081	132.0
44.980152	428.0
44.989498	120.0
45.024807	316.0
45.03624	168.0
45.065628	152.0
45.096367	168.0
45.127117	128.0
45.159897	188.0
45.171253	204.0
45.191517	180.0
45.23415	172.0
45.251556	104.0
45.263607	168.0
45.274578	84.0
45.291733	160.0
45.303791	136.0
45.331928	112.0
45.341312	112.0
45.357395	88.0
45.411034	128.0
45.445431	156.0
45.519691	356.0
45.549046	152.0
45.554451	124.0
45.578854	176.0
45.595959	132.0
45.609287	112.0
45.644947	168.0
45.655483	144.0
45.664898	140.0
45.685562	144.0
45.712746	156.0
45.729179	176.0
45.733322	160.0
45.767181	148.0
45.797653	160.0
45.81028	220.0
45.8251	184.0
45.860142	96.0
45.884407	64.0
45.911377	176.0
45.927998	180.0
45.932335	104.0
45.935944	132.0
45.955894	68.0
45.976139	104.0
45.999084	240.0
46.038242	156.0
46.054821	148.0
46.074715	76.0
46.105877	176.0
46.149757	192.0
46.162979	228.0
46.172047	132.0
46.19482	196.0
46.228867	80.0
46.251877	160.0
46.271885	144.0
46.312813	188.0
46.344032	184.0
46.358883	56.0
46.395481	148.0
46.407204	136.0
46.436508	204.0
46.471436	152.0
46.51894	184.0
46.551525	72.0
46.619453	80.0
46.673832	160.0
46.699673	196.0
46.713276	76.0
46.744572	160.0
46.763626	128.0
46.820301	224.0
46.856541	212.0
46.913471	176.0
46.947563	116.0
46.972115	144.0
47.004993	208.0
47.010906	204.0
47.032158	140.0
47.05127	140.0
47.07312	76.0
47.086777	232.0
47.095928	160.0
47.126354	156.0
47.155094	256.0
47.201576	148.0
47.219357	156.0
47.238506	196.0
47.2486	148.0
47.264503	128.0
47.285034	112.0
47.30172	188.0
47.332951	100.0
47.35178	208.0
47.411308	184.0
47.424744	160.0
47.445995	120.0
47.472088	212.0
47.521393	136.0
47.537212	156.0
47.559143	184.0
47.583885	284.0
47.596241	96.0
47.630413	144.0
47.641571	120.0
47.655807	48.0
47.659843	120.0
47.680992	64.0
47.692417	148.0
47.706161	160.0
47.72509	188.0
47.74604	216.0
47.783184	132.0
47.81287	140.0
47.840687	164.0
47.863018	112.0
47.890682	236.0
47.920872	164.0
47.951191	124.0
47.969112	176.0
48.029675	192.0
48.049103	164.0
48.060143	52.0
48.077126	104.0
48.089931	164.0
48.104961	200.0
48.131924	196.0
48.156525	256.0
48.159546	208.0
48.165524	140.0
48.177505	192.0
48.21896	80.0
48.251877	180.0
48.268784	104.0
48.279797	116.0
48.296394	168.0
48.344341	196.0
48.394657	140.0
48.422352	272.0
48.445782	136.0
48.47916	140.0
48.548477	168.0
48.641445	144.0
48.679913	144.0
48.696442	132.0
48.73172	156.0
48.78891	136.0
48.799618	132.0
48.823051	160.0
48.852116	268.0
48.874943	148.0
48.898762	208.0
48.943054	112.0
48.989117	148.0
49.009686	168.0
49.033707	172.0
49.049042	184.0
49.060043	112.0
49.072044	140.0
49.107605	60.0
49.163418	196.0
49.180164	112.0
49.199619	124.0
49.202503	116.0
49.217312	132.0
49.247192	172.0
49.270939	120.0
49.287708	96.0
49.305874	128.0
49.332436	208.0
49.357601	168.0
49.434685	120.0
49.45414	180.0
49.472336	184.0
49.49194	152.0
49.521885	136.0
49.559845	84.0
49.586704	236.0
49.590267	152.0
49.64048	140.0
49.656578	84.0
49.669937	124.0
49.68116	176.0
49.69519	120.0
49.721024	88.0
49.729214	164.0
49.787842	148.0
49.821556	176.0
49.841225	148.0
49.887611	160.0
49.908699	176.0
49.924168	236.0
49.945484	164.0
49.969116	168.0
49.990292	148.0
50.005775	152.0
50.024075	52.0
50.05505	232.0
50.08181	164.0
50.124077	200.0
50.138172	192.0
50.151237	192.0
50.17482	180.0
50.231236	160.0
50.274975	168.0
50.31839	160.0
50.337093	112.0
50.356865	220.0
50.374008	128.0
50.392185	184.0
50.427513	76.0
50.455788	164.0
50.491142	40.0
50.518894	116.0
50.547729	156.0
50.563297	168.0
50.592873	220.0
50.611435	164.0
50.63126	320.0
50.653923	160.0
50.697281	140.0
50.712513	220.0
50.744629	104.0
50.758808	132.0
50.775826	116.0
50.81271	184.0
50.860962	184.0
50.876579	164.0
50.892078	144.0
50.913498	272.0
50.970325	92.0
50.984539	192.0
50.99733	160.0
51.020073	176.0
51.035717	152.0
51.054203	200.0
51.073853	144.0
51.092609	176.0
51.108261	72.0
51.129494	152.0
51.132751	192.0
51.187645	204.0
51.249634	384.0
51.263485	196.0
51.287712	148.0
51.316132	120.0
51.351269	160.0
51.381836	116.0
51.391827	112.0
51.420368	80.0
51.435429	160.0
51.454731	212.0
51.477474	200.0
51.510254	152.0
51.560341	168.0
51.579823	232.0
51.608944	232.0
51.628796	168.0
51.660435	100.0
51.684761	168.0
51.694778	152.0
51.71159	224.0
51.72913	152.0
51.753468	128.0
51.807659	312.0
51.846588	216.0
51.862354	276.0
51.873138	132.0
51.89246	132.0
51.922607	176.0
51.945526	140.0
51.955566	28.0
52.034508	168.0
52.064663	216.0
52.076153	172.0
52.086208	192.0
52.121338	116.0
52.16444	128.0
52.19746	148.0
52.226376	128.0
52.258736	432.0
52.283787	180.0
52.297592	144.0
52.329266	200.0
52.345104	132.0
52.366707	208.0
52.376221	172.0
52.396362	196.0
52.412811	140.0
52.440193	192.0
52.453167	164.0
52.490654	240.0
52.509403	60.0
52.522385	140.0
52.546913	208.0
52.571102	204.0
52.585033	212.0
52.606358	148.0
52.644489	208.0
52.659515	100.0
52.676849	60.0
52.695633	144.0
52.714417	120.0
52.738987	128.0
52.750553	32.0
52.77224	196.0
52.804054	344.0
52.837326	320.0
52.867714	208.0
52.880741	148.0
52.90535	72.0
52.940334	208.0
52.95686	316.0
52.98349	164.0
53.011089	104.0
53.038628	136.0
53.06205	208.0
53.088219	60.0
53.094337	124.0
53.212883	180.0
53.278862	164.0
53.299877	208.0
53.315865	148.0
53.333469	176.0
53.416195	84.0
53.442383	308.0
53.511845	244.0
53.54842	148.0
53.56031	144.0
53.571739	260.0
53.631798	136.0
53.649208	72.0
53.67271	200.0
53.693192	196.0
53.734528	244.0
53.773201	128.0
53.795097	128.0
53.816898	176.0
53.822556	164.0
53.845463	112.0
53.887112	112.0
53.8988	128.0
53.948498	120.0
53.993828	104.0
54.011379	152.0
54.079407	172.0
54.091866	120.0
54.181202	172.0
54.200249	164.0
54.232491	152.0
54.266384	148.0
54.298203	172.0
54.332214	156.0
54.348354	152.0
54.373081	160.0
54.411469	248.0
54.434963	124.0
54.507221	160.0
54.526051	160.0
54.553982	156.0
54.602509	192.0
54.627514	148.0
54.649582	168.0
54.680489	40.0
54.720234	180.0
54.777676	168.0
54.808617	128.0
54.85368	160.0
54.87347	76.0
54.893421	192.0
54.921818	92.0
54.963451	184.0
54.982635	180.0
55.004128	148.0
55.0284	52.0
55.068272	152.0
55.085678	192.0
55.102249	224.0
55.155689	176.0
55.19981	144.0
55.21312	252.0
55.241226	184.0
55.254883	172.0
55.275257	156.0
55.290367	152.0
55.338909	184.0
55.381855	132.0
55.402973	236.0
55.436676	312.0
55.458626	168.0
55.495972	64.0
55.530083	292.0
55.540466	160.0
55.570137	252.0
55.589428	148.0
55.599815	144.0
55.6166	196.0
55.672142	252.0
55.711185	264.0
55.745983	128.0
55.766171	208.0
55.778061	192.0
55.788467	68.0
55.800362	232.0
55.834564	164.0
55.845856	156.0
55.864315	140.0
55.882168	104.0
55.955101	188.0
56.030121	272.0
56.047089	164.0
56.092167	216.0
56.127949	48.0
56.147373	168.0
56.166729	140.0
56.245815	40.0
56.260647	180.0
56.287624	56.0
56.308533	192.0
56.328197	152.0
56.380096	196.0
56.429577	124.0
56.44453	120.0
56.459488	208.0
56.472946	144.0
56.50901	152.0
56.640331	112.0
56.665169	228.0
56.693043	148.0
56.711029	48.0
56.735016	132.0
56.74551	144.0
56.7995	188.0
56.819004	176.0
56.849194	148.0
56.870026	140.0
56.882305	156.0
56.898552	152.0
56.93396	160.0
56.95562	36.0
57.002647	224.0
57.00964	168.0
57.014946	364.0
57.03075	128.0
57.066948	156.0
57.122482	56.0
57.141357	116.0
57.152573	60.0
57.167622	180.0
57.178158	212.0
57.245102	128.0
57.256447	132.0
57.268497	112.0
57.295612	92.0
57.348358	180.0
57.394512	124.0
57.432232	204.0
57.450905	72.0
57.476837	192.0
57.500023	116.0
57.535419	144.0
57.54882	128.0
57.567131	96.0
57.585255	128.0
57.59885	52.0
57.647202	172.0
57.681892	168.0
57.707664	144.0
57.727325	124.0
57.757576	152.0
57.772701	104.0
57.786644	168.0
57.851398	124.0
57.863514	184.0
57.936211	88.0
57.952877	116.0
57.974918	324.0
58.024593	140.0
58.03928	128.0
58.070408	160.0
58.089333	148.0
58.102985	156.0
58.14378	136.0
58.152721	160.0
58.177353	96.0
58.187981	44.0
58.206203	112.0
58.217377	156.0
58.271519	60.0
58.288235	176.0
58.307991	172.0
58.322918	156.0
58.33297	148.0
58.337143	180.0
58.349033	156.0
58.360256	84.0
58.390842	228.0
58.42601	144.0
58.455513	52.0
58.46769	196.0
58.485954	212.0
58.52998	144.0
58.559803	120.0
58.615414	208.0
58.636913	408.0
58.673336	60.0
58.7015	136.0
58.719086	152.0
58.750061	144.0
58.770954	132.0
58.795372	96.0
58.81216	120.0
58.841248	152.0
58.859489	168.0
58.876289	108.0
58.891563	104.0
58.916759	168.0
58.937397	160.0
59.022881	104.0
59.044411	36.0
59.05946	200.0
59.117847	212.0
59.131622	68.0
59.15152	180.0
59.164242	304.0
59.198986	192.0
59.228088	124.0
59.276497	112.0
59.289379	144.0
59.30164	144.0
59.375237	216.0
59.409283	184.0
59.442741	188.0
59.511818	132.0
59.524101	136.0
59.567108	180.0
59.580936	168.0
59.616177	220.0
59.670422	144.0
59.686993	64.0
59.708523	148.0
59.803814	176.0
59.846062	172.0
59.86689	196.0
59.894772	164.0
59.917881	56.0
59.961029	188.0
59.981068	156.0
60.002651	188.0
60.040211	168.0
60.055084	108.0
60.115669	132.0
60.160789	156.0
60.184723	160.0
60.19862	164.0
60.220245	164.0
60.246922	208.0
60.32996	180.0
60.384083	140.0
60.397083	328.0
60.421963	136.0
60.44574	192.0
60.451942	144.0
60.45742	200.0
60.495499	184.0
60.507141	292.0
60.524918	160.0
60.538857	204.0
60.591522	240.0
60.603916	132.0
60.641491	164.0
60.662815	92.0
60.752636	148.0
60.783794	172.0
60.796211	124.0
60.855202	220.0
60.889366	100.0
60.917397	176.0
60.932861	112.0
60.957726	152.0
60.998135	92.0
61.046337	140.0
61.062305	164.0
61.078999	144.0
61.094559	160.0
61.144352	208.0
61.159412	148.0
61.180954	148.0
61.215969	184.0
61.246441	156.0
61.264256	144.0
61.298534	108.0
61.321915	216.0
61.371799	196.0
61.387394	140.0
61.403511	132.0
61.406868	148.0
61.434189	40.0
61.464828	176.0
61.475445	200.0
61.493488	56.0
61.520439	160.0
61.584049	160.0
61.61998	144.0
61.638733	164.0
61.663876	188.0
61.687187	100.0
61.704384	112.0
61.758335	424.0
61.812313	172.0
61.827965	152.0
61.840485	156.0
61.889019	128.0
61.906158	156.0
62.011215	116.0
62.028458	268.0
62.039165	164.0
62.121025	144.0
62.18375	192.0
62.24498	156.0
62.272224	324.0
62.319881	176.0
62.357635	180.0
62.380104	116.0
62.391109	168.0
62.403687	176.0
62.466599	84.0
62.494919	100.0
62.533672	128.0
62.548431	156.0
62.570469	124.0
62.592514	176.0
62.609837	200.0
62.6399	188.0
62.663399	120.0
62.674427	44.0
62.697075	184.0
62.728016	304.0
62.743782	120.0
62.756371	144.0
62.791088	176.0
62.8027	240.0
62.836838	48.0
62.879444	252.0
62.913403	180.0
62.936279	104.0
62.969955	184.0
62.981361	384.0
63.019997	148.0
63.03896	112.0
63.10004	200.0
63.124329	72.0
63.198517	40.0
63.223469	176.0
63.235519	144.0
63.258995	108.0
63.2794	116.0
63.296818	212.0
63.346333	200.0
63.358074	232.0
63.383945	256.0
63.463203	160.0
63.49968	176.0
63.551197	124.0
63.564121	272.0
63.586945	72.0
63.599644	152.0
63.65255	152.0
63.672684	116.0
63.693573	132.0
63.7509	156.0
63.754208	128.0
63.774372	128.0
63.793812	176.0
63.812527	180.0
63.832329	164.0
63.850693	64.0
63.863419	176.0
63.896828	132.0
63.960484	136.0
64.013023	32.0
64.08754	180.0
64.129333	128.0
64.160118	128.0
64.194702	84.0
64.207458	64.0
64.223412	76.0
64.274467	116.0
64.291138	224.0
64.309647	180.0
64.326797	188.0
64.397171	56.0
64.422958	100.0
64.443008	172.0
64.49675	160.0
64.529884	168.0
64.562019	180.0
64.589211	148.0
64.610008	60.0
64.640411	124.0
64.698547	176.0
64.717247	180.0
64.731659	160.0
64.773308	136.0
64.85022	40.0
64.890297	148.0
64.920769	152.0
64.978516	64.0
65.032127	168.0
65.061974	36.0
65.08606	132.0
65.10051	144.0
65.156425	168.0
65.180664	292.0
65.19738	216.0
65.219406	160.0
65.253174	188.0
65.307846	176.0
65.324417	188.0
65.33989	148.0
65.35054	180.0
65.365059	172.0
65.383469	224.0
65.438202	132.0
65.479408	116.0
65.500969	140.0
65.524277	256.0
65.541298	200.0
65.567841	196.0
65.625114	292.0
65.646866	156.0
65.671883	136.0
65.686401	128.0
65.761452	204.0
65.776695	192.0
65.831665	140.0
65.855896	160.0
65.918907	88.0
65.939919	204.0
65.973976	188.0
66.012672	180.0
66.067665	188.0
66.123146	140.0
66.140488	168.0
66.168015	156.0
66.194565	120.0
66.240028	180.0
66.26033	220.0
66.299225	152.0
66.367966	208.0
66.389801	156.0
66.411095	184.0
66.4403	60.0
66.46788	184.0
66.544357	240.0
66.559113	128.0
66.573402	172.0
66.604263	80.0
66.623756	52.0
66.661133	220.0
66.742409	144.0
66.75502	236.0
66.784088	140.0
66.804932	164.0
66.830246	104.0
66.862793	180.0
66.909271	148.0
66.934425	48.0
66.953835	192.0
66.968628	212.0
66.988174	156.0
67.017029	124.0
67.038506	140.0
67.129982	216.0
67.147926	156.0
67.182182	180.0
67.209183	124.0
67.24276	160.0
67.278473	144.0
67.2948	196.0
67.337257	148.0
67.35849	168.0
67.375237	160.0
67.433662	112.0
67.45237	144.0
67.472893	164.0
67.494148	136.0
67.519951	160.0
67.579208	140.0
67.612724	120.0
67.633217	96.0
67.679054	136.0
67.703621	132.0
67.720001	276.0
67.749489	100.0
67.792908	128.0
67.805199	152.0
67.823235	124.0
67.840912	168.0
67.893738	160.0
67.908501	144.0
67.928185	164.0
67.939667	148.0
67.959351	160.0
67.990532	120.0
68.020081	132.0
68.044708	124.0
68.070976	244.0
68.149902	168.0
68.21228	180.0
68.225433	144.0
68.241875	164.0
68.261604	68.0
68.274765	96.0
68.302727	112.0
68.319176	148.0
68.330696	168.0
68.348793	164.0
68.3843	188.0
68.408051	108.0
68.459244	176.0
68.474251	136.0
68.479919	124.0
68.48436	188.0
68.500267	36.0
68.526772	184.0
68.557938	192.0
68.599144	132.0
68.661804	128.0
68.70977	176.0
68.769058	208.0
68.828117	160.0
68.845818	132.0
68.859871	128.0
68.882996	104.0
68.89621	120.0
68.925949	200.0
68.944702	220.0
68.959358	168.0
69.049942	112.0
69.075676	144.0
69.101227	152.0
69.119431	196.0
69.155075	216.0
69.174049	132.0
69.236504	328.0
69.266785	136.0
69.301086	144.0
69.391083	156.0
69.415955	40.0
69.44249	164.0
69.486397	148.0
69.56031	172.0
69.588531	140.0
69.620361	360.0
69.643761	140.0
69.680473	124.0
69.698158	72.0
69.753006	188.0
69.767899	180.0
69.836151	136.0
69.855171	184.0
69.877739	124.0
69.912689	112.0
69.930031	248.0
69.955963	152.0
69.987206	144.0
70.015907	144.0
70.047562	160.0
70.067551	148.0
70.089211	188.0
70.159218	176.0
70.170433	160.0
70.186546	164.0
70.277641	128.0
70.307678	132.0
70.327881	168.0
70.35376	172.0
70.37278	164.0
70.401772	156.0
70.433449	292.0
70.457962	184.0
70.478546	176.0
70.556572	168.0
70.609451	180.0
70.676147	312.0
70.698761	176.0
70.730263	156.0
70.755669	400.0
70.785812	120.0
70.80088	140.0
70.912506	200.0
70.93158	92.0
70.946671	84.0
71.003677	88.0
71.059631	204.0
71.075958	196.0
71.095955	212.0
71.137924	328.0
71.151352	140.0
71.168144	124.0
71.193329	164.0
71.212334	128.0
71.272232	160.0
71.277992	152.0
71.286377	156.0
71.291214	212.0
71.309258	116.0
71.336159	196.0
71.354652	148.0
71.376511	260.0
71.42865	140.0
71.447151	128.0
71.463982	204.0
71.475761	184.0
71.492584	116.0
71.615494	144.0
71.634026	96.0
71.654243	72.0
71.677834	200.0
71.70311	180.0
71.733452	180.0
71.751358	184.0
71.8144	84.0
71.851509	132.0
71.888634	176.0
71.954468	124.0
72.010193	108.0
72.064255	120.0
72.077774	144.0
72.10746	176.0
72.135239	152.0
72.172432	220.0
72.189346	188.0
72.207947	144.0
72.229935	112.0
72.241776	96.0
72.263771	132.0
72.378876	104.0
72.393501	44.0
72.422913	168.0
72.434715	136.0
72.47374	164.0
72.512718	164.0
72.553398	36.0
72.570351	136.0
72.585617	200.0
72.614403	164.0
72.639893	160.0
72.664078	172.0
72.680611	180.0
72.694183	124.0
72.709457	108.0
72.731529	220.0
72.75869	232.0
72.805153	176.0
72.838509	104.0
72.869003	156.0
72.904045	176.0
72.922951	64.0
72.93367	208.0
72.971069	64.0
72.985535	140.0
73.006401	144.0
73.00882	180.0
73.037399	100.0
73.053505	172.0
73.066315	112.0
73.095245	212.0
73.121544	208.0
73.141197	236.0
73.188866	136.0
73.245827	144.0
73.275734	148.0
73.333679	184.0
73.366066	124.0
73.379654	128.0
73.399117	220.0
73.412109	144.0
73.4394	172.0
73.476929	164.0
73.497406	260.0
73.541779	276.0
73.557137	124.0
73.589577	164.0
73.634735	100.0
73.668144	128.0
73.681808	148.0
73.767265	184.0
73.786064	232.0
73.81955	172.0
73.825531	100.0
73.831291	180.0
73.876823	188.0
73.912437	200.0
73.946449	196.0
74.04789	152.0
74.062469	168.0
74.099281	124.0
74.130249	220.0
74.13768	168.0
74.151154	164.0
74.184975	120.0
74.218216	176.0
74.244995	80.0
74.274712	172.0
74.292526	256.0
74.316994	152.0
74.343903	184.0
74.368347	116.0
74.418983	92.0
74.441757	160.0
74.48156	136.0
74.504196	60.0
74.521378	36.0
74.537849	132.0
74.573242	156.0
74.600433	204.0
74.636543	180.0
74.653305	160.0
74.676094	132.0
74.691574	112.0
74.719101	136.0
74.736313	216.0
74.762123	116.0
74.798271	148.0
74.810318	132.0
74.872139	200.0
74.876785	180.0
74.903366	124.0
74.939133	180.0
74.950119	204.0
75.020615	184.0
75.048088	124.0
75.064293	120.0
75.089478	168.0
75.10759	208.0
75.122147	132.0
75.146278	164.0
75.169586	184.0
75.239609	116.0
75.270683	304.0
75.301773	168.0
75.382973	144.0
75.408897	208.0
75.431374	220.0
75.450386	140.0
75.508705	160.0
75.543777	140.0
75.562042	144.0
75.581841	48.0
75.59742	180.0
75.628571	136.0
75.653107	116.0
75.706482	128.0
75.739395	88.0
75.79657	156.0
75.817368	148.0
75.833466	152.0
75.888443	160.0
75.92659	132.0
75.949142	116.0
75.961281	116.0
75.985573	256.0
76.00061	156.0
76.029831	140.0
76.061935	68.0
76.178284	112.0
76.223457	176.0
76.259956	64.0
76.282555	120.0
76.298203	176.0
76.341675	132.0
76.416138	248.0
76.486084	184.0
76.505234	180.0
76.527664	168.0
76.557724	180.0
76.564026	152.0
76.641312	344.0
76.671448	228.0
76.683792	192.0
76.698608	204.0
76.748611	360.0
76.771446	108.0
76.79451	148.0
76.80954	160.0
76.83812	204.0
76.859062	84.0
76.914909	108.0
76.979515	164.0
77.019684	140.0
77.093063	164.0
77.152496	124.0
77.180473	124.0
77.199486	220.0
77.267326	104.0
77.307602	232.0
77.36676	128.0
77.386826	172.0
77.406212	136.0
77.429993	212.0
77.436188	136.0
77.456711	144.0
77.474525	192.0
77.494507	168.0
77.598961	160.0
77.665604	192.0
77.688408	172.0
77.770889	136.0
77.791954	172.0
77.833374	224.0
77.861832	184.0
77.880196	136.0
77.889618	104.0
77.916649	132.0
77.928947	176.0
77.979912	56.0
78.020973	156.0
78.03968	84.0
78.055511	144.0
78.0942	68.0
78.126595	192.0
78.141701	44.0
78.182892	132.0
78.207726	240.0
78.222656	112.0
78.250397	232.0
78.270195	288.0
78.321266	176.0
78.367073	160.0
78.395271	156.0
78.411133	128.0
78.435806	220.0
78.462257	128.0
78.516273	228.0
78.536324	192.0
78.591011	312.0
78.603363	220.0
78.62101	168.0
78.668373	164.0
78.706299	168.0
78.767563	164.0
78.788765	124.0
78.855919	192.0
78.930168	148.0
78.949623	176.0
78.962006	140.0
78.983231	148.0
79.020859	164.0
79.045151	120.0
79.057541	84.0
79.07711	144.0
79.119499	192.0
79.175644	192.0
79.232941	144.0
79.247017	124.0
79.26651	164.0
79.287781	140.0
79.300186	156.0
79.318474	164.0
79.349823	228.0
79.374649	124.0
79.387062	136.0
79.415436	124.0
79.444817	236.0
79.461563	88.0
79.497017	180.0
79.525497	160.0
79.564507	116.0
79.61245	124.0
79.720375	140.0
79.733261	260.0
79.815041	212.0
79.852005	160.0
79.879066	148.0
79.905754	176.0
79.921768	172.0
79.952019	152.0
79.966263	236.0
80.021446	168.0
80.043129	68.0
80.067749	180.0
80.104546	196.0
80.140785	128.0
80.174644	160.0
80.193359	88.0
80.206726	52.0
80.242386	68.0
80.271446	196.0
80.303017	152.0
80.318893	160.0
80.386971	144.0
80.452629	176.0
80.478081	164.0
80.50042	116.0
80.533272	228.0
80.590096	188.0
80.620819	584.0
80.67981	168.0
80.704842	84.0
80.763855	144.0
80.776382	160.0
80.825203	108.0
80.853935	116.0
80.914185	128.0
80.935669	28.0
80.959892	176.0
80.975067	152.0
81.041351	128.0
81.113045	140.0
81.176964	240.0
81.193733	132.0
81.261902	148.0
81.295998	272.0
81.33548	144.0
81.38755	248.0
81.403709	196.0
81.421722	252.0
81.453949	132.0
81.472374	380.0
81.500717	140.0
81.525497	152.0
81.552834	152.0
81.655281	176.0
81.712883	168.0
81.736595	160.0
81.809662	156.0
81.837082	192.0
81.867645	204.0
81.894714	156.0
81.925339	200.0
81.939751	124.0
81.954163	112.0
81.970268	124.0
81.975227	116.0
82.009544	340.0
82.014275	124.0
82.055183	172.0
82.082146	64.0
82.116417	204.0
82.158455	196.0
82.181358	284.0
82.204697	128.0
82.274536	180.0
82.291466	136.0
82.305908	100.0
82.3452	164.0
82.373711	200.0
82.410675	80.0
82.434166	108.0
82.45224	44.0
82.477249	148.0
82.504662	176.0
82.523605	176.0
82.5354	332.0
82.576996	88.0
82.598701	36.0
82.621674	184.0
82.744293	224.0
82.767021	348.0
82.783318	160.0
82.820358	112.0
82.846718	108.0
82.868462	136.0
82.901695	140.0
82.930077	104.0
82.94989	292.0
82.977211	212.0
82.997154	76.0
83.00985	108.0
83.074066	168.0
83.109619	60.0
83.128319	340.0
83.173462	224.0
83.20134	208.0
83.234871	148.0
83.28199	140.0
83.310555	204.0
83.331139	188.0
83.360214	28.0
83.423294	104.0
83.442017	168.0
83.471581	276.0
83.555344	272.0
83.572914	204.0
83.602898	192.0
83.645775	128.0
83.671265	144.0
83.704041	272.0
83.720428	144.0
83.742287	164.0
83.762062	140.0
83.778717	160.0
83.793289	124.0
83.807869	76.0
83.822449	116.0
83.902756	132.0
83.940941	36.0
83.959526	248.0
83.986534	216.0
84.014771	132.0
84.048569	152.0
84.077087	420.0
84.092369	76.0
84.109802	116.0
84.126045	116.0
84.174522	148.0
84.194611	164.0
84.225662	164.0
84.285957	196.0
84.304863	344.0
84.357239	104.0
84.38781	144.0
84.410103	184.0
84.434036	160.0
84.54747	156.0
84.58007	172.0
84.633507	56.0
84.66098	64.0
84.688454	136.0
84.725365	188.0
84.747078	108.0
84.785561	132.0
84.835716	380.0
84.864388	80.0
84.882721	148.0
84.960136	176.0
85.016647	112.0
85.036835	172.0
85.068451	172.0
85.078903	48.0
85.084038	168.0
85.119446	152.0
85.224152	116.0
85.290314	152.0
85.309074	256.0
85.329826	284.0
85.352829	104.0
85.40741	136.0
85.454163	132.0
85.486855	140.0
85.512436	180.0
85.529449	124.0
85.568108	136.0
85.61599	108.0
85.634407	208.0
85.671249	152.0
85.696526	172.0
85.752327	120.0
85.776794	168.0
85.818054	184.0
85.834488	176.0
85.867569	136.0
85.912758	128.0
85.936356	208.0
85.997017	308.0
86.040108	196.0
86.053032	136.0
86.065956	88.0
86.093658	200.0
86.149071	116.0
86.222984	208.0
86.24147	140.0
86.289536	152.0
86.302475	56.0
86.339462	76.0
86.370903	184.0
86.431961	80.0
86.450462	124.0
86.476273	244.0
86.507843	316.0
86.524506	144.0
86.570267	256.0
86.61525	176.0
86.638718	180.0
86.681953	168.0
86.728287	140.0
86.744972	140.0
86.76722	168.0
86.783768	160.0
86.815849	208.0
86.820412	140.0
86.852272	148.0
86.871078	192.0
86.941589	176.0
86.983765	72.0
87.012123	104.0
87.062263	96.0
87.121239	176.0
87.149574	212.0
87.231354	124.0
87.260674	140.0
87.28904	156.0
87.331337	208.0
87.355949	204.0
87.39502	212.0
87.409904	116.0
87.438156	332.0
87.454575	108.0
87.50856	164.0
87.6045	104.0
87.622177	120.0
87.704178	104.0
87.726547	124.0
87.743324	116.0
87.761971	144.0
87.78994	124.0
87.812325	64.0
87.83638	152.0
87.935471	392.0
87.960938	224.0
88.004066	212.0
88.032555	176.0
88.046486	244.0
88.062439	92.0
88.102577	188.0
88.145149	132.0
88.168938	184.0
88.189491	184.0
88.206322	144.0
88.245583	36.0
88.259743	132.0
88.288589	168.0
88.315269	148.0
88.378334	148.0
88.41581	136.0
88.450142	212.0
88.506126	212.0
88.546867	148.0
88.567474	144.0
88.616035	148.0
88.635818	192.0
88.651848	124.0
88.773643	120.0
88.80056	160.0
88.835617	352.0
88.936584	156.0
88.968788	84.0
88.992516	188.0
89.040634	216.0
89.115807	248.0
89.149117	112.0
89.179184	128.0
89.244987	180.0
89.293877	120.0
89.35183	144.0
89.393593	184.0
89.429352	160.0
89.469368	140.0
89.493362	104.0
89.526146	264.0
89.557396	188.0
89.606377	104.0
89.625214	152.0
89.640289	160.0
89.653481	168.0
89.679871	104.0
89.725113	132.0
89.740196	128.0
89.764709	104.0
89.7798	152.0
89.796776	116.0
89.848289	168.0
89.934875	168.0
90.068581	168.0
90.080917	140.0
90.136597	168.0
90.161171	116.0
90.197914	208.0
90.250015	108.0
90.299271	188.0
90.329453	176.0
90.382431	136.0
90.409233	148.0
90.446777	40.0
90.489647	192.0
90.526299	368.0
90.571426	232.0
90.679764	116.0
90.742195	188.0
90.766304	160.0
90.785934	152.0
90.801109	176.0
90.82766	96.0
90.883316	112.0
90.918739	112.0
90.932281	116.0
90.949104	192.0
91.026947	128.0
91.080132	148.0
91.104828	100.0
91.149261	172.0
91.173233	96.0
91.201744	140.0
91.220749	116.0
91.26638	64.0
91.293007	128.0
91.323433	192.0
91.359581	44.0
91.376701	192.0
91.390022	164.0
91.451378	168.0
91.47567	172.0
91.496613	148.0
91.551834	164.0
91.633743	164.0
91.684517	188.0
91.746193	104.0
91.772888	188.0
91.797676	184.0
91.811028	180.0
91.830612	164.0
91.873268	172.0
91.898773	116.0
91.91964	184.0
91.934868	136.0
91.971245	140.0
92.005661	244.0
92.027542	208.0
92.049927	132.0
92.067429	328.0
92.084801	156.0
92.102432	220.0
92.118774	192.0
92.164192	308.0
92.192856	168.0
92.240585	136.0
92.30352	212.0
92.43956	168.0
92.452957	132.0
92.469254	188.0
92.521866	204.0
92.542923	112.0
92.579308	112.0
92.594475	148.0
92.680954	136.0
92.726837	120.0
92.756714	156.0
92.781158	176.0
92.818855	216.0
92.839333	308.0
92.842239	192.0
92.881432	160.0
92.895576	128.0
92.940575	124.0
92.948341	56.0
92.954353	152.0
93.008003	200.0
93.053627	308.0
93.081757	184.0
93.110565	204.0
93.139374	132.0
93.173958	140.0
93.194626	132.0
93.221992	80.0
93.256584	192.0
93.302727	104.0
93.352722	72.0
93.375801	312.0
93.393112	188.0
93.423889	192.0
93.45549	184.0
93.492531	196.0
93.519279	316.0
93.533577	128.0
93.564384	188.0
93.647621	160.0
93.694481	276.0
93.731956	132.0
93.763779	148.0
93.807129	160.0
93.857254	160.0
93.902115	168.0
93.91761	164.0
93.934219	192.0
93.953697	84.0
93.972992	148.0
93.992043	252.0
94.025093	148.0
94.065437	248.0
94.096947	180.0
94.141411	176.0
94.179558	80.0
94.201454	360.0
94.249115	208.0
94.264572	208.0
94.297424	96.0
94.316757	152.0
94.342529	144.0
94.362038	180.0
94.407486	108.0
94.45018	148.0
94.46566	124.0
94.488876	144.0
94.554665	160.0
94.568253	200.0
94.59404	152.0
94.639793	152.0
94.665909	140.0
94.699883	160.0
94.726418	160.0
94.756065	120.0
94.820007	64.0
94.87429	168.0
94.93634	124.0
94.954933	272.0
95.069679	400.0
95.145256	108.0
95.168427	120.0
95.175476	156.0
95.209496	128.0
95.249725	192.0
95.31675	184.0
95.371254	188.0
95.384857	204.0
95.398468	40.0
95.412079	188.0
95.437355	156.0
95.476242	32.0
95.493401	156.0
95.536545	144.0
95.550163	216.0
95.567673	176.0
95.622169	128.0
95.651367	164.0
95.674728	212.0
95.718208	108.0
95.749847	180.0
95.763565	116.0
95.769501	72.0
95.779121	164.0
95.824692	188.0
95.869514	184.0
95.894852	172.0
95.920189	112.0
95.961891	216.0
96.004669	160.0
96.034302	160.0
96.07885	1748.0
96.109375	124.0
96.124985	112.0
96.160118	40.0
96.17749	160.0
96.203369	152.0
96.292885	76.0
96.322182	108.0
96.348091	200.0
96.398384	72.0
96.417931	120.0
96.44529	48.0
96.48439	92.0
96.533745	248.0
96.550873	92.0
96.572388	140.0
96.611511	188.0
96.660431	148.0
96.674133	88.0
96.69957	144.0
96.723991	124.0
96.752213	236.0
96.800247	528.0
96.828796	128.0
96.850342	144.0
96.883644	160.0
96.930672	140.0
96.958107	132.0
96.979668	132.0
97.01413	200.0
97.042122	284.0
97.062012	228.0
97.086288	1036.0
97.118958	116.0
97.144386	384.0
97.192818	148.0
97.222878	200.0
97.270447	84.0
97.292679	128.0
97.304611	200.0
97.381912	124.0
97.434952	188.0
97.491936	120.0
97.545708	232.0
97.576462	48.0
97.590225	116.0
97.627586	116.0
97.662987	204.0
97.720039	148.0
97.739716	272.0
97.760536	76.0
97.788918	116.0
97.82238	108.0
97.847977	148.0
97.862434	340.0
97.888474	136.0
97.903114	124.0
97.918022	168.0
97.942505	136.0
97.989693	164.0
98.021317	140.0
98.052811	200.0
98.060013	132.0
98.066025	152.0
98.095428	21976.0
98.1455	104.0
98.160843	108.0
98.173904	184.0
98.212555	44.0
98.23896	104.0
98.271416	76.0
98.288818	92.0
98.299278	88.0
98.30529	132.0
98.360558	176.0
98.386215	204.0
98.40596	100.0
98.428902	168.0
98.445457	84.0
98.463226	152.0
98.477058	124.0
98.497246	216.0
98.541771	200.0
98.567932	120.0
98.583748	96.0
98.613388	164.0
98.63118	160.0
98.670723	116.0
98.7276	204.0
98.745041	200.0
98.807419	172.0
98.842285	164.0
98.85675	264.0
98.896774	104.0
98.918015	56.0
98.935837	124.0
98.95829	188.0
99.017021	140.0
99.034851	172.0
99.098358	2504.0
99.122383	176.0
99.151749	196.0
99.19883	172.0
99.227081	108.0
99.264908	152.0
99.290535	152.0
99.30442	36.0
99.318306	164.0
99.364548	128.0
99.399612	224.0
99.447281	176.0
99.4711	152.0
99.488968	160.0
99.517418	180.0
99.534637	192.0
99.562439	60.0
99.59819	156.0
99.630791	156.0
99.668915	160.0
99.690987	176.0
99.749153	132.0
99.775055	44.0
99.848885	288.0
99.920898	196.0
99.93338	160.0
99.962036	64.0
99.981934	64.0
100.037827	204.0
100.102425	284.0
100.155159	148.0
100.185043	148.0
100.202972	140.0
100.21891	104.0
100.289246	124.0
100.323349	120.0
100.368416	60.0
100.412285	144.0
100.44857	316.0
100.483788	152.0
100.521492	168.0
100.54303	176.0
100.583885	176.0
100.606979	120.0
100.630714	132.0
100.691711	164.0
100.721672	116.0
100.741104	132.0
100.774612	72.0
100.845955	164.0
100.880592	160.0
100.896156	156.0
100.922447	200.0
100.929443	92.0
100.93689	288.0
101.010811	100.0
101.041634	108.0
101.085564	172.0
101.10157	172.0
101.121338	196.0
101.152809	192.0
101.227692	180.0
101.243713	160.0
101.259735	96.0
101.273758	128.0
101.287781	116.0
101.305809	144.0
101.331856	216.0
101.361916	152.0
101.383026	112.0
101.445969	128.0
101.486221	272.0
101.506248	144.0
101.608543	44.0
101.650681	104.0
101.692825	148.0
101.735046	180.0
101.750198	160.0
101.783173	64.0
101.817924	184.0
101.863083	132.0
101.909805	188.0
101.976036	48.0
101.992119	108.0
102.016884	324.0
102.025444	104.0
102.035164	136.0
102.100693	160.0
102.122818	132.0
102.167076	204.0
102.201279	176.0
102.215363	120.0
102.254524	236.0
102.291847	104.0
102.401131	176.0
102.448929	140.0
102.516151	204.0
102.535576	56.0
102.55835	148.0
102.577911	172.0
102.630821	164.0
102.658562	128.0
102.700272	176.0
102.731171	192.0
102.749329	196.0
102.773781	172.0
102.836105	68.0
102.872437	84.0
102.910995	124.0
102.954002	172.0
102.989563	96.0
103.053368	3748.0
103.083305	192.0
103.115852	192.0
103.133026	28.0
103.151222	64.0
103.171165	148.0
103.188057	164.0
103.215919	164.0
103.23008	88.0
103.269699	192.0
103.3899	68.0
103.456696	140.0
103.48764	128.0
103.53347	236.0
103.554359	212.0
103.592384	252.0
103.606064	244.0
103.622078	128.0
103.665329	48.0
103.685593	60.0
103.720055	60.0
103.746407	432.0
103.799126	140.0
103.835632	120.0
103.877617	132.0
103.914742	180.0
103.935036	184.0
103.963448	208.0
103.98983	76.0
104.011505	124.0
104.046623	544.0
104.052498	128.0
104.14415	172.0
104.194939	192.0
104.255898	80.0
104.280289	152.0
104.328056	136.0
104.336365	68.0
104.340485	176.0
104.391212	180.0
104.418549	160.0
104.489746	108.0
104.519798	264.0
104.533607	140.0
104.560966	72.0
104.581322	160.0
104.629906	180.0
104.650536	124.0
104.664795	128.0
104.703484	196.0
104.730263	164.0
104.758324	152.0
104.888908	124.0
104.940773	192.0
104.999977	152.0
105.046227	192.0
105.070412	160.0
105.103058	80.0
105.127541	132.0
105.204147	136.0
105.234375	168.0
105.258194	92.0
105.272491	140.0
105.30925	136.0
105.343369	148.0
105.372581	200.0
105.393013	32.0
105.433884	124.0
105.460457	76.0
105.491119	184.0
105.52803	152.0
105.583649	144.0
105.622444	220.0
105.639618	104.0
105.660866	108.0
105.695648	176.0
105.727325	176.0
105.766388	156.0
105.795944	160.0
105.810272	132.0
105.849693	32.0
105.922913	200.0
105.961838	200.0
105.975517	136.0
106.023315	188.0
106.091957	164.0
106.160675	132.0
106.195541	164.0
106.245239	176.0
106.312485	104.0
106.361748	156.0
106.384331	212.0
106.403534	124.0
106.421402	208.0
106.439766	100.0
106.505486	152.0
106.523422	192.0
106.575607	168.0
106.597946	120.0
106.612328	88.0
106.704834	172.0
106.723335	164.0
106.752129	180.0
106.766525	84.0
106.807655	180.0
106.821365	172.0
106.868889	168.0
106.883781	176.0
106.927147	164.0
106.982903	128.0
107.025818	140.0
107.059258	724.0
107.091225	396.0
107.124054	132.0
107.159698	40.0
107.182365	184.0
107.229767	200.0
107.293671	244.0
107.355774	208.0
107.440102	100.0
107.456612	148.0
107.517891	184.0
107.565208	200.0
107.618225	160.0
107.696083	108.0
107.751862	208.0
107.781929	188.0
107.87368	216.0
107.941177	188.0
107.956505	216.0
107.975418	136.0
108.01442	208.0
108.05658	264.0
108.079514	332.0
108.113731	120.0
108.13868	156.0
108.188255	184.0
108.239456	352.0
108.292809	220.0
108.325912	160.0
108.34565	184.0
108.360153	172.0
108.401596	76.0
108.446701	152.0
108.478287	160.0
108.523903	164.0
108.557076	112.0
108.596329	164.0
108.63797	180.0
108.653236	56.0
108.666771	168.0
108.681541	164.0
108.703522	176.0
108.732605	192.0
108.74588	396.0
108.766632	96.0
108.785789	176.0
108.814384	76.0
108.834991	236.0
108.858818	140.0
108.91758	172.0
108.931725	168.0
108.955849	192.0
108.984032	376.0
109.044243	115560.0
109.094147	252.0
109.116592	208.0
109.160568	100.0
109.192436	268.0
109.22654	100.0
109.250702	112.0
109.278358	148.0
109.29821	224.0
109.301788	172.0
109.312523	308.0
109.3647	244.0
109.385498	1060.0
109.424362	172.0
109.458984	176.0
109.473557	232.0
109.493484	120.0
109.548546	52.0
109.566063	88.0
109.579796	132.0
109.608307	76.0
109.651512	192.0
109.711388	204.0
109.726929	204.0
109.732887	124.0
109.740799	208.0
109.756035	156.0
109.783035	112.0
109.812157	160.0
109.867516	32.0
109.893837	156.0
109.952942	156.0
109.98027	240.0
110.004463	148.0
110.019005	216.0
110.047272	8824.0
110.09481	4316.0
110.126999	132.0
110.155174	96.0
110.170235	64.0
110.246948	208.0
110.262009	148.0
110.270119	120.0
110.291443	80.0
110.34182	112.0
110.367416	176.0
110.380997	72.0
110.41317	184.0
110.434677	128.0
110.471283	96.0
110.493332	104.0
110.524529	88.0
110.547104	220.0
110.601028	144.0
110.620392	112.0
110.667091	108.0
110.705086	204.0
110.721687	148.0
110.76078	124.0
110.803116	80.0
110.843407	148.0
110.875938	336.0
110.912506	220.0
110.933067	252.0
110.958717	124.0
110.984421	164.0
111.046967	160.0
111.05764	92.0
111.099602	320.0
111.135445	184.0
111.183716	176.0
111.204704	100.0
111.224129	164.0
111.261383	116.0
111.288673	32.0
111.309677	140.0
111.345375	96.0
111.366379	172.0
111.389488	44.0
111.418098	136.0
111.458824	36.0
111.512764	156.0
111.538689	128.0
111.570328	156.0
111.635406	176.0
111.653633	168.0
111.717438	72.0
111.734268	360.0
111.748604	172.0
111.80014	216.0
111.831505	116.0
111.893417	136.0
111.919495	80.0
111.957397	120.0
111.986885	132.0
112.00795	76.0
112.025948	100.0
112.039551	128.0
112.110619	1652.0
112.138588	144.0
112.16449	280.0
112.199722	84.0
112.273529	208.0
112.338188	104.0
112.364235	172.0
112.377853	136.0
112.432182	200.0
112.524643	108.0
112.552094	184.0
112.571098	352.0
112.623741	208.0
112.628975	208.0
112.706291	136.0
112.723198	144.0
112.737991	120.0
112.780144	140.0
112.805626	144.0
112.827667	132.0
112.888092	204.0
112.945595	240.0
113.003716	200.0
113.019241	164.0
113.074265	264.0
113.111412	512.0
113.161964	168.0
113.190704	148.0
113.237297	188.0
113.259186	84.0
113.299736	168.0
113.345345	88.0
113.414398	172.0
113.474648	172.0
113.502213	148.0
113.548866	104.0
113.576111	208.0
113.608261	100.0
113.707993	168.0
113.731346	152.0
113.784721	140.0
113.820511	180.0
113.852364	176.0
113.869354	132.0
113.941582	116.0
113.971329	128.0
113.988327	192.0
114.007454	124.0
114.043587	56.0
114.079727	148.0
114.096405	128.0
114.125587	196.0
114.22023	56.0
114.271141	112.0
114.300926	124.0
114.320084	72.0
114.403198	80.0
114.522346	172.0
114.585266	172.0
114.648048	160.0
114.677887	264.0
114.693054	216.0
114.711998	156.0
114.743599	180.0
114.775955	156.0
114.814034	216.0
114.872681	220.0
114.974358	184.0
115.022453	172.0
115.052299	216.0
115.089638	144.0
115.104584	200.0
115.11953	172.0
115.149429	324.0
115.175064	144.0
115.217789	188.0
115.251289	212.0
115.349319	88.0
115.467896	208.0
115.485001	184.0
115.519234	148.0
115.544899	144.0
115.57058	212.0
115.617661	184.0
115.63308	216.0
115.707565	216.0
115.754669	64.0
115.778229	176.0
115.941055	172.0
116.022507	212.0
116.063797	356.0
116.088387	392.0
116.142967	164.0
116.19838	104.0
116.239151	188.0
116.279922	160.0
116.319336	276.0
116.357201	172.0
116.421623	376.0
116.465607	192.0
116.484161	152.0
116.526711	148.0
116.556961	48.0
116.606544	168.0
116.657524	132.0
116.690231	140.0
116.73539	92.0
116.781891	148.0
116.803452	364.0
116.822693	88.0
116.861526	200.0
116.896729	148.0
116.962944	172.0
117.008659	168.0
117.066254	340.0
117.088341	160.0
117.182785	184.0
117.208977	220.0
117.267166	144.0
117.315247	132.0
117.364182	152.0
117.39653	148.0
117.415939	336.0
117.431038	116.0
117.482811	152.0
117.514168	224.0
117.536751	96.0
117.597588	212.0
117.655464	128.0
117.672737	120.0
117.707283	124.0
117.748314	132.0
117.763435	120.0
117.864975	108.0
117.936028	148.0
117.968719	164.0
117.996826	196.0
118.0271	172.0
118.063034	188.0
118.076759	108.0
118.101997	368.0
118.15255	68.0
118.206642	148.0
118.230453	164.0
118.25692	188.0
118.282402	44.0
118.317039	136.0
118.344666	200.0
118.374443	148.0
118.418816	124.0
118.440475	136.0
118.462944	140.0
118.569176	212.0
118.588882	180.0
118.609497	164.0
118.631172	168.0
118.70845	144.0
118.776466	204.0
118.809982	160.0
118.841553	108.0
118.863251	104.0
118.896812	224.0
118.916954	416.0
118.960922	124.0
118.982635	116.0
119.010864	168.0
119.039093	28.0
119.059334	944.0
119.088799	176.0
119.115112	168.0
119.134659	180.0
119.152908	140.0
119.168159	96.0
119.199844	124.0
119.251213	396.0
119.275917	132.0
119.312767	332.0
119.356361	152.0
119.388977	80.0
119.47599	44.0
119.495567	160.0
119.541267	176.0
119.569557	136.0
119.584793	112.0
119.606964	108.0
119.645744	164.0
119.695824	116.0
119.724136	204.0
119.745865	168.0
119.752716	164.0
119.798195	64.0
119.835236	164.0
119.853653	176.0
119.859962	80.0
119.867065	204.0
119.900612	44.0
119.941444	196.0
119.963875	172.0
119.994347	140.0
120.011787	176.0
120.03141	156.0
120.054741	176.0
120.070671	124.0
120.135605	104.0
120.157928	160.0
120.208115	80.0
120.232117	128.0
120.378387	80.0
120.41552	184.0
120.491974	128.0
120.537857	116.0
120.584709	156.0
120.62529	76.0
120.657318	292.0
120.680801	112.0
120.723679	164.0
120.78595	280.0
120.815552	144.0
120.843994	148.0
120.90818	204.0
120.955605	176.0
120.99501	216.0
121.019829	132.0
121.043472	3244.0
121.08905	204.0
121.115417	204.0
121.163658	132.0
121.187759	148.0
121.255692	144.0
121.273224	108.0
121.288567	56.0
121.343376	328.0
121.366302	188.0
121.458817	200.0
121.464546	128.0
121.575897	156.0
121.606628	116.0
121.640808	56.0
121.662979	164.0
121.743484	340.0
121.768944	140.0
121.835007	192.0
121.85038	68.0
121.867004	184.0
121.981834	128.0
122.044708	428.0
122.098183	616.0
122.138374	48.0
122.175774	148.0
122.293571	136.0
122.338631	132.0
122.354042	72.0
122.371658	188.0
122.45314	124.0
122.533195	188.0
122.558884	152.0
122.596344	160.0
122.622795	72.0
122.756622	148.0
122.796974	100.0
122.812973	248.0
122.86676	200.0
122.885216	216.0
122.909492	44.0
122.929352	200.0
122.955742	276.0
123.00219	156.0
123.026474	112.0
123.059082	8400.0
123.102432	620.0
123.145714	176.0
123.170013	328.0
123.223038	92.0
123.238503	44.0
123.260597	116.0
123.321838	124.0
123.346794	116.0
123.367691	112.0
123.408699	64.0
123.435234	44.0
123.463982	124.0
123.519279	108.0
123.55571	172.0
123.594505	224.0
123.616631	132.0
123.640007	56.0
123.720665	136.0
123.747231	196.0
123.810051	176.0
123.833603	156.0
123.934601	196.0
123.993126	188.0
124.061455	1344.0
124.110992	7076.0
124.157188	52.0
124.241486	128.0
124.289558	192.0
124.348	76.0
124.527847	188.0
124.545616	96.0
124.616356	176.0
124.623253	148.0
124.657921	180.0
124.678925	144.0
124.730049	160.0
124.750053	108.0
124.776733	128.0
124.800652	148.0
124.830101	168.0
124.850113	152.0
124.875694	104.0
124.89238	48.0
124.925743	112.0
124.954285	192.0
124.988045	168.0
125.004921	164.0
125.036507	144.0
125.077065	160.0
125.116455	1444.0
125.164925	148.0
125.217346	128.0
125.241844	44.0
125.257439	96.0
125.273033	104.0
125.287842	68.0
125.329651	224.0
125.369934	312.0
125.391136	204.0
125.431259	88.0
125.482529	200.0
125.543816	120.0
125.584221	184.0
125.602959	100.0
125.623039	52.0
125.719589	148.0
125.739716	208.0
125.756927	160.0
125.774284	196.0
125.808014	176.0
125.832825	72.0
125.861275	216.0
125.947777	236.0
125.955864	128.0
125.964592	212.0
125.99041	60.0
126.039162	212.0
126.069611	116.0
126.125916	316.0
126.161255	116.0
126.206268	180.0
126.275299	108.0
126.293823	184.0
126.311882	152.0
126.337929	112.0
126.369255	120.0
126.398346	144.0
126.416901	192.0
126.505775	164.0
126.557274	136.0
126.582474	204.0
126.718544	176.0
126.850349	148.0
126.857719	120.0
126.864784	160.0
126.946121	152.0
126.974098	124.0
127.017181	116.0
127.052864	1696.0
127.097488	160.0
127.117683	132.0
127.136322	164.0
127.229912	152.0
127.265411	128.0
127.326469	116.0
127.351173	52.0
127.375885	160.0
127.425308	160.0
127.526436	152.0
127.546669	140.0
127.562401	168.0
127.611862	148.0
127.692825	176.0
127.740059	252.0
127.780556	108.0
127.809807	100.0
127.857903	140.0
127.895042	156.0
127.935852	96.0
127.970169	196.0
127.992142	160.0
128.053909	496.0
128.13179	208.0
128.17807	140.0
128.208405	100.0
128.225983	276.0
128.306152	196.0
128.325623	112.0
128.365112	156.0
128.397781	156.0
128.465454	160.0
128.492523	116.0
128.512833	200.0
128.539917	64.0
128.574844	216.0
128.603287	148.0
128.630188	72.0
128.700867	120.0
128.724915	176.0
128.730515	168.0
128.772446	184.0
128.802887	172.0
128.876373	100.0
128.907089	160.0
128.96225	128.0
128.991638	100.0
129.029404	124.0
129.069534	1236.0
129.096588	268.0
129.112473	348.0
129.14241	320.0
129.163498	168.0
129.181595	144.0
129.222321	100.0
129.247208	128.0
129.274368	108.0
129.303787	120.0
129.340225	160.0
129.392853	184.0
129.498505	48.0
129.54155	124.0
129.581009	152.0
129.623108	148.0
129.683624	176.0
129.755463	216.0
129.793121	104.0
129.811264	144.0
129.83168	200.0
129.867966	224.0
129.890656	116.0
130.040176	160.0
130.063614	4100.0
130.12764	180.0
130.142563	224.0
130.189331	156.0
130.244766	104.0
130.306107	160.0
130.383606	188.0
130.417465	136.0
130.488953	116.0
130.52887	36.0
130.560699	72.0
130.603912	196.0
130.634171	120.0
130.660797	132.0
130.685822	48.0
130.739609	156.0
130.798508	140.0
130.888412	144.0
130.936234	88.0
131.009125	124.0
131.071152	2184.0
131.157242	84.0
131.225647	172.0
131.278091	84.0
131.325989	132.0
131.389862	244.0
131.419525	196.0
131.458313	124.0
131.549606	124.0
131.588425	152.0
131.655548	112.0
131.730026	56.0
131.76886	156.0
131.800858	92.0
131.831375	192.0
131.872437	196.0
131.903702	160.0
131.949524	208.0
131.997437	204.0
132.030548	100.0
132.04776	128.0
132.075623	332.0
132.101883	300.0
132.106705	200.0
132.115173	168.0
132.132401	144.0
132.168488	232.0
132.248917	200.0
132.283447	44.0
132.326935	156.0
132.342972	88.0
132.358994	420.0
132.468002	168.0
132.546677	220.0
132.608185	204.0
132.651627	244.0
132.706024	160.0
132.849487	56.0
132.883911	184.0
132.945862	156.0
133.010864	212.0
133.043396	1288.0
133.074844	148.0
133.143845	168.0
133.168564	312.0
133.214508	136.0
133.237488	184.0
133.267349	84.0
133.290619	448.0
133.340897	160.0
133.36618	52.0
133.506424	116.0
133.522522	112.0
133.543228	204.0
133.580032	164.0
133.635239	84.0
133.711182	140.0
133.743774	124.0
133.837082	232.0
133.865616	160.0
134.050552	1720.0
134.105042	80.0
134.127029	156.0
134.159256	132.0
134.204178	392.0
134.303345	168.0
134.384094	132.0
134.436203	172.0
134.492554	176.0
134.538727	128.0
134.561813	176.0
134.610306	180.0
134.716553	196.0
134.752441	128.0
134.887451	172.0
134.934875	300.0
134.977737	196.0
135.024704	192.0
135.056015	19704.0
135.097031	100.0
135.121643	228.0
135.141586	48.0
135.1651	64.0
135.189514	220.0
135.236847	248.0
135.267471	140.0
135.303986	64.0
135.331772	160.0
135.357239	168.0
135.415146	156.0
135.457886	144.0
135.479996	188.0
135.494888	96.0
135.512436	84.0
135.53447	204.0
135.554138	164.0
135.581955	172.0
135.612091	180.0
135.639908	132.0
135.679306	120.0
135.727997	136.0
135.75351	108.0
135.809174	68.0
135.846298	160.0
135.878769	132.0
135.897339	152.0
135.931976	116.0
135.994247	184.0
136.02774	168.0
136.06044	1496.0
136.088684	284.0
136.116592	140.0
136.141083	188.0
136.168289	184.0
136.201263	92.0
136.227768	176.0
136.274963	176.0
136.357147	148.0
136.378723	436.0
136.484009	216.0
136.531509	148.0
136.604599	180.0
136.694992	148.0
136.724625	44.0
136.747894	136.0
136.792114	64.0
136.824707	144.0
136.845398	176.0
136.848587	156.0
136.857956	216.0
136.878265	52.0
136.983078	144.0
137.063156	216.0
137.084045	144.0
137.104736	164.0
137.167175	156.0
137.195145	76.0
137.23558	288.0
137.31041	112.0
137.435379	136.0
137.456268	80.0
137.498398	192.0
137.520767	176.0
137.559082	164.0
137.589432	180.0
137.619781	140.0
137.647476	56.0
137.7202	96.0
137.757584	176.0
137.783279	76.0
137.812164	192.0
137.827682	252.0
137.878448	220.0
137.915939	168.0
137.946869	120.0
138.014679	156.0
138.052948	196.0
138.076584	128.0
138.180374	168.0
138.213501	88.0
138.241592	64.0
138.261597	180.0
138.288391	136.0
138.319412	80.0
138.351593	36.0
138.37178	232.0
138.396088	104.0
138.534027	112.0
138.59285	116.0
138.627991	88.0
138.660812	164.0
138.766296	72.0
138.787399	180.0
138.88356	184.0
138.919754	168.0
138.953934	60.0
138.972702	192.0
139.00087	152.0
139.021988	108.0
139.094742	144.0
139.141693	108.0
139.18631	88.0
139.285965	216.0
139.468689	148.0
139.53186	124.0
139.575729	144.0
139.632828	148.0
139.685104	124.0
139.710449	124.0
139.736328	156.0
139.755157	148.0
139.778687	156.0
139.811493	180.0
139.841446	168.0
139.879135	168.0
139.896378	128.0
139.915207	116.0
139.952881	148.0
139.99292	152.0
140.055374	228.0
140.091843	124.0
140.149506	160.0
140.223801	132.0
140.268585	220.0
140.303955	308.0
140.367233	148.0
140.410065	168.0
140.442184	116.0
140.463104	164.0
140.492615	100.0
140.528015	128.0
140.612961	180.0
140.743484	140.0
140.82486	172.0
140.84436	124.0
140.919968	64.0
141.012924	200.0
141.052841	304.0
141.068268	144.0
141.139786	160.0
141.170532	188.0
141.22966	204.0
141.260406	192.0
141.279343	156.0
141.300629	160.0
141.32193	168.0
141.41658	132.0
141.440262	152.0
141.56337	164.0
141.598907	116.0
141.627319	64.0
141.724457	136.0
141.741043	124.0
141.766144	156.0
141.871216	148.0
141.959137	136.0
142.03978	200.0
142.096725	164.0
142.129944	160.0
142.210632	100.0
142.276947	184.0
142.280899	172.0
142.300598	80.0
142.338837	64.0
142.400574	152.0
142.505112	140.0
142.526489	112.0
142.555008	120.0
142.626587	68.0
142.74176	136.0
142.792755	152.0
142.880768	100.0
142.904556	180.0
142.930664	144.0
142.97081	352.0
143.056702	168.0
143.160339	208.0
143.223572	144.0
143.286667	128.0
143.306961	152.0
143.485123	128.0
143.502411	148.0
143.52626	148.0
143.562027	164.0
143.60257	144.0
143.65744	164.0
143.707535	60.0
143.808807	220.0
143.885376	148.0
143.962311	172.0
144.039383	172.0
144.076416	448.0
144.140579	260.0
144.260437	176.0
144.285538	120.0
144.311844	108.0
144.342926	272.0
144.359665	168.0
144.40303	60.0
144.430298	188.0
144.534851	104.0
144.555832	184.0
144.582153	44.0
144.632263	176.0
144.680298	240.0
144.721008	104.0
144.742249	216.0
144.764099	196.0
144.872604	336.0
144.905426	156.0
144.993881	172.0
145.038986	496.0
145.073441	3484.0
145.128342	296.0
145.144501	136.0
145.205078	160.0
145.269852	140.0
145.300674	160.0
145.316269	208.0
145.346146	160.0
145.399429	104.0
145.43782	192.0
145.481033	92.0
145.517044	136.0
145.560272	156.0
145.579147	176.0
145.661148	192.0
145.693069	324.0
145.733215	212.0
145.766861	80.0
145.786087	108.0
145.838959	64.0
145.879837	124.0
145.911621	180.0
145.936676	156.0
145.973602	216.0
146.002457	92.0
146.021698	96.0
146.051422	4104.0
146.114944	100.0
146.141678	64.0
146.25029	144.0
146.293671	164.0
146.368027	116.0
146.42186	200.0
146.449265	100.0
146.464767	152.0
146.505539	92.0
146.544388	96.0
146.573013	32.0
146.616394	88.0
146.633255	156.0
146.667389	172.0
146.747803	368.0
146.789963	188.0
146.828278	248.0
146.859909	88.0
146.879196	120.0
146.897797	220.0
146.926117	380.0
146.949173	196.0
146.965195	124.0
147.000458	208.0
147.02301	220.0
147.059723	99228.0
147.143829	208.0
147.162506	44.0
147.188126	156.0
147.21936	116.0
147.225876	108.0
147.240463	204.0
147.267746	108.0
147.295517	112.0
147.302719	60.0
147.342712	80.0
147.367706	160.0
147.387787	172.0
147.410446	68.0
147.45752	408.0
147.492554	104.0
147.537949	72.0
147.564011	100.0
147.60022	60.0
147.647003	132.0
147.668152	192.0
147.687042	100.0
147.722092	152.0
147.748093	144.0
147.790939	224.0
147.82814	224.0
147.860199	132.0
147.906998	72.0
147.935806	172.0
147.976395	92.0
148.015091	188.0
148.062134	11512.0
148.119995	124.0
148.194473	124.0
148.249054	124.0
148.273102	280.0
148.305862	60.0
148.334412	160.0
148.377853	144.0
148.423645	188.0
148.450684	160.0
148.486237	176.0
148.525208	176.0
148.566772	116.0
148.634979	120.0
148.679382	60.0
148.70726	124.0
148.757401	200.0
148.777634	144.0
148.804489	172.0
148.837189	140.0
148.870041	128.0
148.889145	116.0
148.910034	288.0
148.940796	260.0
148.969635	284.0
148.996384	96.0
149.018936	188.0
149.075378	46892.0
149.109329	372.0
149.139648	320.0
149.161377	128.0
149.179596	288.0
149.219406	184.0
149.246002	188.0
149.323227	76.0
149.340393	72.0
149.369446	128.0
149.393936	120.0
149.417801	64.0
149.440002	36.0
149.468658	124.0
149.477234	144.0
149.517868	48.0
149.571808	296.0
149.594452	84.0
149.613525	96.0
149.648117	48.0
149.668396	140.0
149.687439	124.0
149.724823	108.0
149.752991	156.0
149.810074	164.0
149.839584	72.0
149.870178	232.0
149.892914	76.0
149.935669	148.0
149.969513	100.0
149.981735	72.0
150.002594	144.0
150.021103	208.0
150.078049	5848.0
150.120789	48.0
150.139145	40.0
150.190979	156.0
150.210693	88.0
150.229385	212.0
150.27034	296.0
150.292831	40.0
150.31723	112.0
150.341629	180.0
150.363266	224.0
150.42218	128.0
150.458801	76.0
150.541565	112.0
150.558182	172.0
150.67128	88.0
150.733994	192.0
150.795914	56.0
150.857849	172.0
150.888184	172.0
150.940155	88.0
150.976837	100.0
150.998367	104.0
151.052658	136.0
151.076797	248.0
151.108932	108.0
151.155655	164.0
151.190186	192.0
151.228836	152.0
151.252792	212.0
151.290039	128.0
151.358597	144.0
151.412476	184.0
151.478607	104.0
151.495758	220.0
151.517807	216.0
151.569336	152.0
151.628082	120.0
151.667297	212.0
151.711426	32.0
151.760452	140.0
151.823669	108.0
151.862442	220.0
151.976303	80.0
152.037659	120.0
152.089203	132.0
152.133896	140.0
152.178482	124.0
152.270905	124.0
152.351089	168.0
152.393723	48.0
152.424454	172.0
152.519058	216.0
152.571762	164.0
152.617783	156.0
152.66597	364.0
152.701019	92.0
152.72316	140.0
152.762512	116.0
152.819397	100.0
152.863953	264.0
152.932266	264.0
152.96431	120.0
152.984009	168.0
153.02832	148.0
153.068176	152.0
153.163773	144.0
153.198257	96.0
153.257385	172.0
153.296814	164.0
153.327774	172.0
153.363831	104.0
153.397675	152.0
153.444717	168.0
153.523621	140.0
153.54335	172.0
153.593704	176.0
153.642029	64.0
153.66423	164.0
153.697296	124.0
153.804901	168.0
153.846863	176.0
153.878967	224.0
153.906998	68.0
153.980621	120.0
154.002441	144.0
154.041122	240.0
154.057602	168.0
154.090179	200.0
154.209991	240.0
154.280029	120.0
154.368225	144.0
154.392944	196.0
154.415207	196.0
154.444885	92.0
154.486938	144.0
154.519104	88.0
154.536423	144.0
154.590866	52.0
154.627991	156.0
154.650269	116.0
154.729675	184.0
154.832153	192.0
154.846786	140.0
154.887985	84.0
154.922668	120.0
155.016815	100.0
155.059326	2548.0
155.11348	72.0
155.171555	132.0
155.331696	92.0
155.372025	316.0
155.455704	156.0
155.560013	152.0
155.608917	184.0
155.651123	236.0
155.751221	88.0
155.808365	184.0
155.910233	40.0
155.927628	36.0
155.979828	192.0
156.059143	392.0
156.089233	228.0
156.114105	32.0
156.17688	148.0
156.235977	176.0
156.370361	156.0
156.42511	88.0
156.477402	172.0
156.497314	140.0
156.51973	80.0
156.654221	48.0
156.719009	120.0
156.773819	208.0
156.81868	128.0
156.838623	192.0
156.8741	192.0
156.907547	152.0
156.945831	132.0
157.018158	172.0
157.068039	136.0
157.135391	180.0
157.157852	116.0
157.192795	112.0
157.265244	132.0
157.335205	208.0
157.354965	156.0
157.407471	172.0
157.435852	208.0
157.702286	224.0
157.737274	244.0
157.877289	156.0
157.897308	164.0
157.927322	136.0
158.019882	80.0
158.046295	948.0
158.091675	196.0
158.11998	32.0
158.165024	132.0
158.187561	124.0
158.22261	72.0
158.301865	172.0
158.330292	48.0
158.372864	176.0
158.416504	152.0
158.436417	196.0
158.503143	108.0
158.547729	76.0
158.570816	224.0
158.625961	192.0
158.680588	192.0
158.845947	280.0
158.877701	308.0
158.901825	52.0
158.929428	120.0
159.000809	72.0
159.056061	388.0
159.081558	144.0
159.101105	148.0
159.119308	120.0
159.172913	156.0
159.293472	196.0
159.313568	132.0
159.333664	76.0
159.3927	112.0
159.43483	172.0
159.474823	164.0
159.521011	172.0
159.567413	52.0
159.65744	160.0
159.705719	56.0
159.740936	40.0
159.789444	172.0
159.831512	92.0
159.89444	172.0
159.924637	132.0
159.987564	140.0
160.04361	212.0
160.052704	152.0
160.098358	208.0
160.155914	132.0
160.20668	116.0
160.236908	68.0
160.272186	116.0
160.299896	104.0
160.34404	188.0
160.38559	176.0
160.405762	196.0
160.452454	92.0
160.473831	64.0
160.514175	116.0
160.533569	128.0
160.570175	248.0
160.630203	160.0
160.662994	44.0
160.704071	144.0
160.774017	84.0
160.810471	136.0
160.872467	40.0
160.935577	176.0
160.963348	100.0
160.998993	140.0
161.029022	120.0
161.070236	1104.0
161.097214	152.0
161.117432	144.0
161.167969	180.0
161.324661	156.0
161.381836	112.0
161.440979	152.0
161.7117	88.0
161.744598	156.0
161.772446	120.0
161.857407	136.0
161.934509	120.0
161.981293	136.0
162.008865	136.0
162.035843	88.0
162.079529	468.0
162.20192	112.0
162.22084	128.0
162.312119	84.0
162.334946	176.0
162.366409	176.0
162.411026	140.0
162.504898	136.0
162.53569	160.0
162.574707	188.0
162.593643	128.0
162.647568	92.0
162.677475	96.0
162.69606	200.0
162.763809	168.0
162.7892	168.0
162.839996	140.0
162.898422	176.0
162.923828	88.0
162.946686	344.0
162.98735	236.0
163.088501	400.0
163.13063	64.0
163.147476	104.0
163.204315	112.0
163.220749	220.0
163.252914	108.0
163.373016	140.0
163.501038	152.0
163.669067	100.0
163.722534	112.0
163.74292	152.0
163.771286	116.0
163.885574	380.0
163.926346	108.0
163.956924	124.0
164.008835	132.0
164.058044	180.0
164.086487	348.0
164.132828	124.0
164.155777	196.0
164.199615	108.0
164.258804	204.0
164.290771	104.0
164.406723	176.0
164.446396	128.0
164.52861	172.0
164.56662	68.0
164.601837	176.0
164.691757	132.0
164.763275	52.0
164.801605	108.0
164.842484	156.0
164.914047	112.0
164.951233	140.0
165.023987	156.0
165.070007	140.0
165.146729	36.0
165.182541	204.0
165.205566	152.0
165.278671	196.0
165.300247	32.0
165.34787	156.0
165.434586	156.0
165.548553	112.0
165.566483	108.0
165.648453	328.0
165.753494	172.0
165.791611	184.0
165.820129	140.0
165.937393	208.0
165.978439	144.0
166.021271	176.0
166.074326	176.0
166.103668	180.0
166.140091	124.0
166.189423	176.0
166.207382	88.0
166.251007	116.0
166.268967	188.0
166.328003	180.0
166.357361	476.0
166.443542	76.0
166.667023	100.0
166.767242	224.0
166.83136	132.0
166.844833	152.0
166.87941	324.0
166.903503	192.0
167.065536	64.0
167.104614	152.0
167.14389	124.0
167.165161	168.0
167.227661	92.0
167.263702	172.0
167.294586	168.0
167.342636	200.0
167.387924	192.0
167.454239	152.0
167.528946	156.0
167.626846	108.0
167.755722	184.0
167.790009	108.0
167.870743	124.0
167.954285	196.0
168.029099	120.0
168.096191	116.0
168.201477	152.0
168.239685	52.0
168.258804	164.0
168.300125	204.0
168.442169	196.0
168.480911	72.0
168.516006	192.0
168.599777	168.0
168.641129	140.0
168.770401	208.0
168.88678	60.0
168.920288	168.0
168.97258	144.0
169.074005	220.0
169.171432	176.0
169.241333	272.0
169.313843	128.0
169.352692	68.0
169.413055	212.0
169.456314	132.0
169.497772	92.0
169.531464	152.0
169.557388	88.0
169.575531	176.0
169.59436	176.0
169.640335	116.0
169.70015	56.0
169.763184	168.0
169.824448	176.0
169.855576	156.0
169.873734	44.0
169.920425	116.0
170.050995	316.0
170.076141	176.0
170.105179	192.0
170.13324	136.0
170.164398	148.0
170.278656	132.0
170.322815	128.0
170.409653	124.0
170.481308	128.0
170.525497	280.0
170.641098	136.0
170.689285	112.0
170.761673	120.0
170.83493	220.0
170.868759	84.0
170.897202	124.0
170.993668	168.0
171.027496	156.0
171.053345	1728.0
171.085648	188.0
171.134247	148.0
171.161514	212.0
171.227997	136.0
171.296799	180.0
171.341278	156.0
171.399933	136.0
171.462479	176.0
171.527634	124.0
171.595428	152.0
171.626709	180.0
171.644958	108.0
171.668732	104.0
171.746674	116.0
171.766373	160.0
171.834061	128.0
171.926651	164.0
171.98674	96.0
172.028503	304.0
172.060837	968.0
172.224365	132.0
172.253738	172.0
172.280518	184.0
172.305344	316.0
172.341919	188.0
172.372787	168.0
172.43573	76.0
172.499405	200.0
172.603317	76.0
172.640289	204.0
172.649002	180.0
172.677322	120.0
172.739319	156.0
172.773331	36.0
172.793823	120.0
172.8358	240.0
172.852676	160.0
172.889191	100.0
172.915253	160.0
172.943222	208.0
172.974457	428.0
172.993439	196.0
173.042511	492.0
173.070145	102640.0
173.143982	160.0
173.175751	88.0
173.217667	104.0
173.2341	92.0
173.267258	152.0
173.31337	140.0
173.350677	228.0
173.368378	112.0
173.405502	164.0
173.445099	160.0
173.458694	68.0
173.500397	492.0
173.538986	160.0
173.604416	136.0
173.634354	80.0
173.677948	76.0
173.704315	188.0
173.725494	244.0
173.750198	144.0
173.767593	188.0
173.799484	72.0
173.818787	52.0
173.865372	112.0
173.922623	192.0
173.947388	216.0
173.97049	348.0
174.011017	204.0
174.072449	12600.0
174.154205	116.0
174.193527	224.0
174.233643	68.0
174.266678	144.0
174.300034	76.0
174.354523	104.0
174.387955	128.0
174.425491	212.0
174.459671	68.0
174.500275	252.0
174.570099	76.0
174.593765	124.0
174.643738	124.0
174.662155	44.0
174.685837	32.0
174.767395	172.0
174.821274	168.0
174.872437	92.0
174.907043	172.0
174.943985	168.0
174.967422	56.0
174.98793	112.0
175.032181	188.0
175.078491	1080.0
175.119217	112.0
175.159668	32.0
175.211548	192.0
175.233337	160.0
175.250565	72.0
175.272812	212.0
175.301956	124.0
175.358719	308.0
175.408951	328.0
175.449982	172.0
175.506866	100.0
175.519958	140.0
175.543549	56.0
175.620972	136.0
175.673737	156.0
175.764755	160.0
175.829407	184.0
175.882202	56.0
175.927078	48.0
175.968338	64.0
176.022125	52.0
176.085571	272.0
176.114563	60.0
176.201752	60.0
176.241379	104.0
176.259872	44.0
176.294235	172.0
176.376465	192.0
176.508362	96.0
176.555969	240.0
176.577118	160.0
176.755814	176.0
176.780838	212.0
176.804657	92.0
176.831116	116.0
176.85759	68.0
176.876114	152.0
176.923767	48.0
176.97673	76.0
177.021744	112.0
177.068405	964.0
177.201859	112.0
177.254852	268.0
177.435104	124.0
177.487427	120.0
177.522598	144.0
177.561874	84.0
177.56691	68.0
177.576935	132.0
177.602585	152.0
177.623398	132.0
177.644623	76.0
177.684418	64.0
177.79274	184.0
177.835678	160.0
177.861252	88.0
177.90065	84.0
177.984344	144.0
178.02417	116.0
178.077805	208.0
178.10141	1800.0
178.215439	100.0
178.281876	88.0
178.430725	136.0
178.505188	52.0
178.542419	152.0
178.598267	140.0
178.638168	140.0
178.675415	124.0
178.71756	176.0
178.763229	52.0
178.811127	124.0
178.835083	168.0
178.890991	144.0
178.938904	176.0
178.96553	56.0
178.984177	260.0
179.073151	196.0
179.083267	148.0
179.112061	212.0
179.215118	172.0
179.261215	144.0
179.311859	88.0
179.426483	72.0
179.479813	144.0
179.643204	196.0
179.757233	172.0
179.810608	124.0
179.853317	216.0
179.884918	320.0
179.938736	192.0
179.972137	148.0
179.99205	244.0
180.069595	104.0
180.098969	32.0
180.118362	280.0
180.135925	168.0
180.272324	168.0
180.36084	108.0
180.39949	184.0
180.410233	140.0
180.459763	156.0
180.498688	164.0
180.596146	172.0
180.681747	40.0
180.751312	132.0
180.863724	116.0
180.930649	204.0
180.986542	156.0
181.002945	240.0
181.037766	140.0
181.074188	192.0
181.150253	196.0
181.230637	100.0
181.260101	32.0
181.27887	68.0
181.305054	136.0
181.424316	168.0
181.571091	104.0
181.654236	152.0
181.782639	108.0
181.858185	188.0
181.969849	148.0
181.974274	196.0
182.005844	160.0
182.027313	156.0
182.044922	144.0
182.10701	196.0
182.148621	148.0
182.193848	144.0
182.2435	176.0
182.27446	132.0
182.309387	76.0
182.330902	180.0
182.43573	200.0
182.492691	128.0
182.518478	180.0
182.54866	160.0
182.578247	152.0
182.618591	132.0
182.640106	144.0
182.658936	96.0
182.718124	68.0
182.736954	240.0
182.761002	192.0
182.788071	184.0
182.863434	136.0
182.898422	92.0
182.919952	156.0
182.944183	156.0
182.973801	72.0
183.019577	52.0
183.058914	7924.0
183.13269	132.0
183.163574	140.0
183.203644	140.0
183.325027	196.0
183.360504	72.0
183.382324	164.0
183.418304	140.0
183.477615	44.0
183.531418	176.0
183.615143	52.0
183.65419	252.0
183.690674	64.0
183.82515	124.0
183.938934	120.0
183.971329	80.0
184.02533	188.0
184.063385	1252.0
184.11174	124.0
184.130646	148.0
184.180557	200.0
184.244095	108.0
184.328537	160.0
184.35759	172.0
184.380737	192.0
184.425156	192.0
184.452194	116.0
184.473816	32.0
184.492737	96.0
184.636047	160.0
184.692856	196.0
184.736237	104.0
184.814606	52.0
184.897003	168.0
184.925552	168.0
184.952621	132.0
185.026276	136.0
185.06662	520.0
185.117783	264.0
185.230133	108.0
185.280304	56.0
185.299271	84.0
185.411697	156.0
185.434769	92.0
185.470001	56.0
185.526932	36.0
185.559464	132.0
185.635391	132.0
185.743546	100.0
185.792709	120.0
185.844254	124.0
185.896088	124.0
185.921387	180.0
186.078354	516.0
186.115692	128.0
186.159149	48.0
186.18631	108.0
186.21347	76.0
186.297668	56.0
186.332993	176.0
186.364731	152.0
186.436249	136.0
186.547699	140.0
186.642853	60.0
186.727158	88.0
186.792435	112.0
186.855942	176.0
186.947525	72.0
186.977463	100.0
187.085236	5692.0
187.114807	408.0
187.151688	44.0
187.173477	152.0
187.192535	112.0
187.223221	120.0
187.391388	132.0
187.437714	192.0
187.470413	60.0
187.514023	132.0
187.601242	220.0
187.680313	120.0
187.729401	72.0
187.756668	48.0
187.816681	204.0
187.838501	64.0
187.877426	148.0
187.901245	88.0
187.969467	168.0
188.040009	260.0
188.088211	884.0
188.138687	212.0
188.187836	52.0
188.220596	92.0
188.257584	172.0
188.31073	180.0
188.329849	76.0
188.463715	164.0
188.541367	48.0
188.562088	176.0
188.592163	140.0
188.633163	200.0
188.705139	208.0
188.790146	184.0
188.795486	76.0
188.806625	136.0
188.93399	160.0
189.010834	140.0
189.043442	136.0
189.097412	364.0
189.28981	64.0
189.330887	144.0
189.358276	184.0
189.391144	140.0
189.451416	132.0
189.470596	184.0
189.522659	76.0
189.5802	76.0
189.629532	144.0
189.769348	96.0
189.848862	140.0
189.870804	164.0
189.917435	152.0
190.102234	204.0
190.196487	196.0
190.326355	160.0
190.425232	252.0
190.471924	52.0
190.504883	148.0
190.53511	96.0
190.587311	144.0
190.631897	212.0
190.708237	140.0
190.760468	164.0
190.826447	200.0
190.892441	180.0
190.951721	180.0
191.000473	128.0
191.073975	80.0
191.110229	116.0
191.241852	56.0
191.302414	184.0
191.324432	72.0
191.467621	120.0
191.531036	160.0
191.553009	180.0
191.597092	44.0
191.664917	188.0
191.704544	196.0
191.751404	168.0
191.778961	220.0
191.831345	212.0
191.963684	164.0
191.991272	236.0
192.113602	752.0
192.147751	132.0
192.173325	132.0
192.206436	168.0
192.228516	184.0
192.275436	80.0
192.375259	120.0
192.532196	164.0
192.757523	92.0
192.802261	80.0
192.84993	212.0
192.888626	80.0
192.954987	40.0
192.985397	100.0
193.065582	216.0
193.101776	140.0
193.126434	180.0
193.237091	152.0
193.342255	108.0
193.364395	128.0
193.397598	100.0
193.422974	120.0
193.488068	136.0
193.530487	196.0
193.641266	76.0
193.699432	124.0
193.729904	164.0
193.804718	108.0
193.824112	116.0
193.868454	100.0
193.914749	164.0
193.969315	148.0
194.031998	176.0
194.059723	124.0
194.120728	156.0
194.17897	220.0
194.29953	156.0
194.353348	148.0
194.400909	136.0
194.556351	52.0
194.617432	104.0
194.672974	144.0
194.73407	140.0
194.809082	216.0
194.847977	120.0
194.917435	128.0
194.945221	64.0
195.055328	160.0
195.112	108.0
195.137024	196.0
195.198196	164.0
195.353958	144.0
195.559875	144.0
195.621124	168.0
195.68515	112.0
195.79097	88.0
195.829956	84.0
196.064346	464.0
196.133102	96.0
196.191452	204.0
196.222885	96.0
196.309326	96.0
196.33165	92.0
196.381851	148.0
196.462738	116.0
196.501801	164.0
196.577148	64.0
196.700577	72.0
196.733444	156.0
196.758575	52.0
196.831177	76.0
196.888351	168.0
196.941437	116.0
197.00769	328.0
197.036362	104.0
197.074524	4772.0
197.186859	264.0
197.294998	204.0
197.386871	56.0
197.447678	120.0
197.527115	68.0
197.574661	96.0
197.633423	180.0
197.681	228.0
197.736969	116.0
197.864365	188.0
197.888138	160.0
197.932938	72.0
197.958145	116.0
198.07576	824.0
198.110825	156.0
198.148621	120.0
198.185043	112.0
198.224274	124.0
198.299942	140.0
198.327972	240.0
198.428894	60.0
198.46785	148.0
198.524231	116.0
198.56987	132.0
198.619598	36.0
198.639236	104.0
198.672897	232.0
198.692535	156.0
198.743042	144.0
198.765488	200.0
198.810394	72.0
198.870682	116.0
198.900208	148.0
199.084198	160.0
199.116409	52.0
199.139542	168.0
199.265289	192.0
199.299011	168.0
199.490128	108.0
199.606659	108.0
199.644775	200.0
199.698212	92.0
199.720718	96.0
199.751389	192.0
199.875458	200.0
199.909225	184.0
199.957062	28.0
200.009125	348.0
200.096466	232.0
200.148499	140.0
200.168213	136.0
200.20929	116.0
200.252701	128.0
200.312363	200.0
200.356384	184.0
200.404831	112.0
200.434891	132.0
200.450912	136.0
200.489365	168.0
200.509094	180.0
200.568283	104.0
200.599304	144.0
200.620178	148.0
200.669785	124.0
200.697983	60.0
200.74028	144.0
200.803894	164.0
200.831497	140.0
200.867203	96.0
200.962021	152.0
201.011185	124.0
201.049194	2768.0
201.101196	82184.0
201.186203	136.0
201.218277	240.0
201.286407	196.0
201.320984	192.0
201.349869	208.0
201.384445	148.0
201.510468	48.0
201.540375	72.0
201.570358	152.0
201.591278	116.0
201.634735	160.0
201.663483	132.0
201.728287	152.0
201.792068	140.0
201.84726	180.0
201.912292	156.0
201.937759	104.0
201.969193	148.0
202.007309	116.0
202.058594	1536.0
202.103745	8388.0
202.171173	160.0
202.195312	120.0
202.218948	84.0
202.257492	84.0
202.285797	84.0
202.313278	124.0
202.350433	124.0
202.410507	124.0
202.450027	52.0
202.484009	48.0
202.508118	188.0
202.560486	204.0
202.582565	116.0
202.622818	56.0
202.645477	100.0
202.702148	236.0
202.721802	184.0
202.747498	108.0
202.782486	128.0
202.803635	104.0
202.82518	236.0
202.849213	172.0
202.87413	312.0
202.913254	144.0
202.940765	360.0
202.975266	152.0
203.001419	332.0
203.007996	320.0
203.018021	296.0
203.065765	54384.0
203.102051	948.0
203.148819	96.0
203.168427	36.0
203.214859	156.0
203.271194	132.0
203.282166	128.0
203.334579	76.0
203.365799	64.0
203.388504	196.0
203.431091	80.0
203.464355	56.0
203.516891	276.0
203.55574	72.0
203.579987	128.0
203.613678	40.0
203.636963	184.0
203.676392	116.0
203.707809	172.0
203.749176	76.0
203.789764	148.0
203.819336	52.0
203.862946	104.0
203.886963	108.0
203.935501	148.0
203.97937	44.0
204.068085	6456.0
204.116837	424.0
204.150284	36.0
204.200089	64.0
204.219589	72.0
204.231125	52.0
204.245422	144.0
204.280807	72.0
204.320633	64.0
204.363007	128.0
204.396393	96.0
204.44014	96.0
204.537933	112.0
204.59581	212.0
204.619476	44.0
204.650787	220.0
204.678314	144.0
204.703659	148.0
204.782684	64.0
204.835922	184.0
204.912842	76.0
204.982864	180.0
205.042862	116.0
205.072144	240.0
205.132278	268.0
205.168335	80.0
205.204926	188.0
205.259018	124.0
205.291962	128.0
205.329025	132.0
205.360413	60.0
205.387283	104.0
205.467758	76.0
205.505905	60.0
205.548706	164.0
205.575867	100.0
205.614746	112.0
205.668564	100.0
205.698074	152.0
205.724869	104.0
205.751358	64.0
205.791748	136.0
205.835251	116.0
205.908417	164.0
205.943985	136.0
206.01709	84.0
206.036957	168.0
206.091248	144.0
206.13295	212.0
206.159073	160.0
206.256775	152.0
206.311325	36.0
206.376221	200.0
206.423843	152.0
206.508636	200.0
206.548676	96.0
206.58873	48.0
206.654541	108.0
206.768997	116.0
206.854874	128.0
206.890823	56.0
206.945953	64.0
206.97226	140.0
207.132645	136.0
207.213379	332.0
207.275894	136.0
207.299683	112.0
207.347549	76.0
207.422073	52.0
207.456467	140.0
207.637115	76.0
207.751862	136.0
207.823593	152.0
207.878113	88.0
207.994858	136.0
208.054825	268.0
208.214737	188.0
208.235168	76.0
208.673782	68.0
208.739914	148.0
208.860718	128.0
208.892365	104.0
209.000534	168.0
209.065002	164.0
209.168625	92.0
209.204117	204.0
209.231949	40.0
209.374374	140.0
209.600479	228.0
209.633255	172.0
209.664032	156.0
209.744736	36.0
209.790863	60.0
209.886017	100.0
209.913681	208.0
210.073669	188.0
210.145615	128.0
210.296906	132.0
210.336334	48.0
210.358154	124.0
210.402481	116.0
210.615051	92.0
210.697083	28.0
210.769318	180.0
210.931168	248.0
210.954285	96.0
210.996429	152.0
211.067017	288.0
211.086212	140.0
211.153809	172.0
211.17984	168.0
211.205872	96.0
211.255051	160.0
211.411301	44.0
211.590759	160.0
211.663147	176.0
211.695007	116.0
211.741348	60.0
211.764511	140.0
211.81665	68.0
211.98053	136.0
212.079926	168.0
212.149918	104.0
212.236893	140.0
212.270813	132.0
212.344193	44.0
212.419617	96.0
212.637238	372.0
212.674973	128.0
212.786804	92.0
212.850876	80.0
212.901489	236.0
212.965332	144.0
212.991486	96.0
213.051956	108.0
213.110596	92.0
213.136749	132.0
213.232208	52.0
213.264618	160.0
213.441971	164.0
213.770691	264.0
213.872559	292.0
213.921555	100.0
214.057297	912.0
214.271515	64.0
214.420135	132.0
214.592133	312.0
214.691269	136.0
214.73468	168.0
214.850372	148.0
214.872131	168.0
214.957489	268.0
215.063065	1408.0
215.102676	144.0
215.136948	212.0
215.250076	120.0
215.272034	240.0
215.2948	180.0
215.443512	164.0
215.499878	120.0
215.572922	148.0
215.625534	188.0
215.722946	144.0
215.774612	152.0
215.79509	160.0
215.912048	52.0
215.955933	128.0
216.070206	704.0
216.211258	148.0
216.269012	116.0
216.438812	128.0
216.45932	160.0
216.55011	140.0
216.608688	152.0
216.784317	136.0
216.837234	180.0
216.863617	148.0
216.898788	192.0
216.954117	156.0
216.980881	112.0
217.028458	140.0
217.080414	13788.0
217.183228	72.0
217.216202	132.0
217.267136	172.0
217.286835	152.0
217.325348	208.0
217.365128	128.0
217.438492	56.0
217.582336	236.0
217.652802	152.0
217.695648	168.0
217.717407	112.0
217.737961	28.0
217.75853	200.0
217.811401	56.0
217.842239	136.0
217.899536	132.0
217.943604	44.0
218.00238	76.0
218.083954	1924.0
218.125839	3612.0
218.185959	132.0
218.281647	320.0
218.335449	124.0
218.372818	44.0
218.44342	76.0
218.466949	140.0
218.500549	96.0
218.555222	156.0
218.578766	84.0
218.608185	180.0
218.696487	72.0
218.735565	172.0
218.770081	108.0
218.879013	148.0
218.951111	216.0
219.041	52.0
219.092224	332.0
219.131485	716.0
219.236679	88.0
219.338623	44.0
219.421173	72.0
219.457993	132.0
219.502686	80.0
219.558716	112.0
219.589432	144.0
219.645309	168.0
219.727905	108.0
219.760162	116.0
219.822327	68.0
219.934494	176.0
219.984665	144.0
220.132294	144.0
220.309525	144.0
220.540024	32.0
220.640533	224.0
220.676407	120.0
220.702621	156.0
220.815002	124.0
220.86232	128.0
220.920395	140.0
220.986572	60.0
221.020599	96.0
221.076157	384.0
221.167099	88.0
221.318085	180.0
221.341782	176.0
221.403976	140.0
221.528381	144.0
221.593552	84.0
221.646896	108.0
221.715057	28.0
221.928482	108.0
222.01152	76.0
222.032288	140.0
222.183563	116.0
222.298813	100.0
222.4655	112.0
222.575363	120.0
222.628815	152.0
222.748764	128.0
222.815948	116.0
222.869431	160.0
222.893204	164.0
222.943726	184.0
222.994247	116.0
223.032898	164.0
223.089951	144.0
223.128021	184.0
223.148834	164.0
223.169647	28.0
223.368912	56.0
223.422455	128.0
223.470062	148.0
223.609924	144.0
223.937454	64.0
224.071503	160.0
224.154938	148.0
224.217514	180.0
224.238373	188.0
224.295013	48.0
224.319077	108.0
224.38147	104.0
224.414261	120.0
224.45845	88.0
224.49173	204.0
224.599167	176.0
224.630722	160.0
224.685684	196.0
224.721481	224.0
224.751328	140.0
224.876663	124.0
224.927414	196.0
224.948303	84.0
225.031906	64.0
225.070724	128.0
225.104294	432.0
225.229004	128.0
225.318634	60.0
225.425156	184.0
225.447113	148.0
225.539764	368.0
225.656357	48.0
225.745346	180.0
225.769989	116.0
225.821625	152.0
225.862717	40.0
225.961441	136.0
226.034363	152.0
226.084122	120.0
226.106613	176.0
226.185898	160.0
226.227951	180.0
226.332596	120.0
226.421707	148.0
226.467361	336.0
226.488327	164.0
226.677078	68.0
226.79245	108.0
226.904892	100.0
227.066376	160.0
227.201202	256.0
227.25882	120.0
227.389465	284.0
227.55896	120.0
227.610016	48.0
227.72113	104.0
227.748169	140.0
227.790222	68.0
227.946457	176.0
227.97879	116.0
228.030609	156.0
228.071884	376.0
228.108765	184.0
228.168884	208.0
228.212372	164.0
228.358337	148.0
228.490692	124.0
228.529816	156.0
228.803711	208.0
228.833817	72.0
228.884995	236.0
229.031097	204.0
229.065552	324.0
229.122314	152.0
229.156097	48.0
229.266052	164.0
229.306763	72.0
229.403229	68.0
229.454483	128.0
229.584137	108.0
229.623352	136.0
229.700943	248.0
229.805511	156.0
229.836609	124.0
229.88475	112.0
229.909973	208.0
229.993576	80.0
230.042068	140.0
230.067688	176.0
230.127579	11876.0
230.293411	48.0
230.31456	32.0
230.360504	144.0
230.400436	140.0
230.444092	128.0
230.486771	276.0
230.507919	156.0
230.607651	56.0
230.642197	140.0
230.707413	128.0
230.78299	60.0
230.825333	104.0
230.967484	108.0
231.04628	164.0
231.091522	124.0
231.130997	1860.0
231.200165	168.0
231.235291	120.0
231.260986	116.0
231.354828	56.0
231.444565	144.0
231.462875	140.0
231.533478	132.0
231.578918	156.0
231.615982	136.0
231.678879	40.0
231.79248	156.0
231.821289	200.0
231.925629	132.0
231.972839	124.0
232.147614	3048.0
232.213226	160.0
232.305145	44.0
232.378967	44.0
232.430817	112.0
232.464203	232.0
232.491516	168.0
232.527939	176.0
232.588638	104.0
232.615067	148.0
232.670609	80.0
232.737411	76.0
232.764099	132.0
232.831543	40.0
232.933609	120.0
233.001663	84.0
233.05275	196.0
233.088943	264.0
233.11821	112.0
233.151321	404.0
233.208298	208.0
233.267242	164.0
233.293411	144.0
233.424164	96.0
233.530609	56.0
233.606659	92.0
233.673584	104.0
233.740524	128.0
233.801392	228.0
233.822693	204.0
233.847046	216.0
233.917053	168.0
233.993164	96.0
234.06929	212.0
234.111923	128.0
234.13324	76.0
234.158615	144.0
234.356308	124.0
234.498856	104.0
234.549576	144.0
234.58725	112.0
234.697006	256.0
234.718353	104.0
234.761047	48.0
234.822052	136.0
234.901352	172.0
234.925766	40.0
234.950165	168.0
234.995926	152.0
235.061127	120.0
235.141251	136.0
235.203461	128.0
235.359161	136.0
235.380539	160.0
235.44902	132.0
235.490479	116.0
235.551575	156.0
235.679886	184.0
235.716568	52.0
235.780746	64.0
235.879623	204.0
236.003906	88.0
236.049774	148.0
236.095169	132.0
236.159866	124.0
236.199631	204.0
236.230225	80.0
236.30365	116.0
236.337311	176.0
236.401566	152.0
236.422989	132.0
236.545425	156.0
236.713821	204.0
236.753632	148.0
236.906143	76.0
237.145813	116.0
237.188629	144.0
237.216309	196.0
237.415619	176.0
237.450851	188.0
237.544434	72.0
237.602722	152.0
237.697845	144.0
237.826752	200.0
237.903488	64.0
237.980255	160.0
238.032455	124.0
238.106155	124.0
238.130722	84.0
238.253601	152.0
238.401093	168.0
238.551697	44.0
238.582443	128.0
238.61319	176.0
238.668533	216.0
238.840759	76.0
238.862289	168.0
238.982285	212.0
239.120758	132.0
239.210037	160.0
239.323944	152.0
239.422485	48.0
239.517975	180.0
239.607315	160.0
239.628876	124.0
239.659683	100.0
239.715164	76.0
239.767822	180.0
239.844604	132.0
239.992584	124.0
240.043884	132.0
240.055801	104.0
240.183792	144.0
240.322632	132.0
240.353485	84.0
240.375092	52.0
240.427002	136.0
240.473846	136.0
240.498245	188.0
240.668335	160.0
240.705399	56.0
240.764923	72.0
240.785202	128.0
240.811066	128.0
240.9216	68.0
240.97876	144.0
241.014297	144.0
241.075562	160.0
241.246094	108.0
241.289383	100.0
241.363586	136.0
241.533691	148.0
241.654343	136.0
241.739441	96.0
241.81218	96.0
242.087723	112.0
242.151337	148.0
242.322601	152.0
242.399689	312.0
242.450195	144.0
242.55867	192.0
242.602081	100.0
242.710587	204.0
242.788116	56.0
242.930801	124.0
242.985153	316.0
243.045593	84.0
243.096848	7636.0
243.138702	272.0
243.22049	136.0
243.266312	36.0
243.315643	168.0
243.377731	140.0
243.411896	116.0
243.52092	192.0
243.638641	196.0
243.679031	40.0
243.779907	112.0
243.836685	120.0
244.100662	1628.0
244.181442	124.0
244.204391	136.0
244.266602	116.0
244.34024	180.0
244.419067	96.0
244.447067	92.0
244.490631	52.0
244.513809	108.0
244.574677	96.0
244.61203	60.0
244.651413	104.0
244.836212	44.0
244.927704	140.0
245.07608	168.0
245.107803	236.0
245.169571	164.0
245.247482	68.0
245.284897	136.0
245.447021	48.0
245.49379	156.0
245.549927	136.0
245.618561	104.0
245.68718	76.0
245.714218	112.0
245.776779	248.0
245.846329	108.0
245.955566	212.0
246.102295	128.0
246.127274	192.0
246.205353	104.0
246.361526	164.0
246.399017	192.0
246.424011	192.0
246.477127	116.0
246.502136	68.0
246.586517	164.0
246.611526	184.0
246.727188	132.0
246.761581	168.0
246.852249	160.0
246.889786	136.0
246.977356	112.0
247.002274	120.0
247.118134	156.0
247.143173	68.0
247.16507	208.0
247.559509	120.0
247.816376	152.0
247.99501	116.0
248.082779	120.0
248.120392	116.0
248.161163	112.0
248.317963	120.0
248.342361	92.0
248.415192	92.0
248.540695	140.0
248.572083	168.0
248.656815	180.0
248.727325	60.0
248.785507	128.0
248.957397	156.0
248.995895	260.0
249.061859	140.0
249.087906	164.0
249.112122	168.0
249.467239	136.0
249.508102	88.0
249.570984	104.0
249.593002	140.0
249.630737	48.0
249.737671	140.0
249.87294	120.0
249.961044	104.0
250.020828	120.0
250.158096	92.0
250.197281	148.0
250.272675	132.0
250.420029	172.0
250.445343	116.0
250.452057	96.0
250.609711	72.0
250.732605	132.0
250.779892	124.0
250.972198	128.0
251.026382	144.0
251.053207	180.0
251.259216	148.0
251.369659	84.0
251.445251	88.0
251.536942	152.0
251.622177	72.0
251.672562	92.0
251.742172	100.0
251.775055	164.0
251.871658	184.0
251.922211	108.0
251.975906	112.0
252.051743	144.0
252.175003	128.0
252.209763	140.0
252.415268	92.0
252.459549	136.0
252.557602	120.0
252.649338	128.0
252.696793	88.0
252.858185	192.0
252.889832	172.0
252.943649	60.0
253.022797	128.0
253.146408	192.0
253.203293	100.0
253.236603	116.0
253.269806	164.0
253.377518	176.0
253.418701	140.0
253.478912	84.0
253.52327	56.0
253.577148	188.0
253.790222	208.0
253.84346	224.0
253.944519	120.0
253.954956	104.0
253.961548	136.0
254.002045	156.0
254.062317	108.0
254.144806	124.0
254.236847	56.0
254.332062	216.0
254.386017	172.0
254.457901	156.0
254.506546	204.0
254.563828	132.0
254.837006	56.0
255.046539	112.0
255.097	204.0
255.132599	148.0
255.196182	172.0
255.310654	32.0
255.336105	104.0
255.533325	248.0
255.623825	108.0
255.682892	48.0
255.749741	48.0
255.775192	168.0
255.963043	216.0
256.020355	164.0
256.342133	204.0
256.619446	168.0
256.660889	132.0
256.683228	88.0
256.759766	116.0
256.823547	96.0
256.873077	144.0
256.932007	128.0
257.108215	136.0
257.171356	52.0
257.229614	176.0
257.337738	136.0
257.479584	96.0
257.525787	120.0
257.642395	100.0
257.679108	164.0
257.717468	88.0
257.784546	148.0
257.93158	176.0
257.966736	116.0
258.075439	204.0
258.158081	244.0
258.273743	156.0
258.328125	264.0
258.374359	116.0
258.468903	224.0
258.494507	116.0
258.542511	108.0
258.622528	152.0
258.867462	260.0
258.968323	52.0
259.109283	140.0
259.166962	176.0
259.216644	172.0
259.240662	160.0
259.343201	140.0
259.387573	168.0
259.452209	148.0
259.562225	140.0
259.747253	76.0
259.90918	212.0
259.987885	132.0
260.036041	136.0
260.10022	56.0
260.160553	76.0
260.202972	196.0
260.389221	144.0
260.540192	128.0
260.588379	140.0
260.614075	104.0
260.667572	148.0
260.733002	152.0
260.758698	188.0
260.823517	144.0
261.025543	152.0
261.048035	128.0
261.18634	188.0
261.308594	84.0
261.430878	136.0
261.756012	160.0
261.785004	48.0
261.826874	188.0
262.174805	156.0
262.271515	160.0
262.36499	116.0
262.423035	148.0
262.448822	168.0
262.555237	72.0
262.645569	88.0
262.726196	80.0
262.81424	208.0
262.9198	124.0
263.003723	160.0
263.045685	156.0
263.11026	144.0
263.190979	124.0
263.333069	136.0
263.407379	180.0
263.501068	128.0
263.54306	124.0
263.608673	184.0
263.63678	72.0
263.80484	104.0
263.848602	156.0
263.879211	156.0
263.943878	212.0
263.995636	116.0
264.086182	124.0
264.228516	168.0
264.647736	124.0
264.710815	136.0
264.778809	140.0
264.810791	60.0
264.853333	56.0
264.953735	200.0
265.00235	92.0
265.203278	176.0
265.323212	308.0
265.401031	136.0
265.439941	44.0
265.585876	160.0
265.645721	216.0
265.696198	152.0
265.752258	144.0
265.829224	108.0
265.93161	160.0
265.981781	132.0
266.014221	156.0
266.069427	156.0
266.196045	128.0
266.37793	112.0
266.430023	132.0
266.592377	76.0
266.680145	144.0
266.768005	140.0
266.829681	116.0
266.914215	172.0
267.131531	212.0
267.285065	60.0
267.478699	176.0
267.6008	96.0
267.685455	136.0
267.896271	96.0
267.972107	104.0
268.024231	160.0
268.209991	48.0
268.493683	80.0
268.51651	236.0
268.588257	108.0
268.640442	136.0
268.695923	192.0
268.793793	204.0
268.831177	284.0
268.855927	124.0
268.957001	156.0
269.014771	132.0
269.081055	200.0
269.259094	120.0
269.311829	232.0
269.474487	148.0
269.550873	148.0
269.682129	84.0
269.731171	116.0
269.76059	64.0
269.816162	148.0
270.03894	124.0
270.097412	116.0
270.182465	160.0
270.313354	136.0
270.388611	104.0
270.442291	72.0
270.506287	84.0
270.614502	116.0
270.748749	128.0
270.807709	140.0
270.856842	140.0
270.90271	328.0
270.958405	124.0
271.043121	144.0
271.07309	116.0
271.458679	172.0
271.51239	132.0
271.679688	204.0
271.774811	204.0
271.801727	204.0
271.866699	144.0
271.906097	168.0
271.9422	116.0
272.073486	56.0
272.125458	112.0
272.23111	64.0
272.2771	96.0
272.50705	168.0
272.549744	108.0
272.635193	112.0
272.677917	112.0
272.75351	52.0
272.819275	168.0
272.875153	64.0
272.950775	184.0
273.072479	100.0
273.102478	128.0
273.134979	180.0
273.19223	168.0
273.230927	116.0
273.342255	72.0
273.404755	56.0
273.431091	96.0
273.495575	156.0
273.559479	72.0
273.607391	180.0
273.733978	124.0
273.766907	140.0
273.859131	88.0
273.895355	88.0
273.951355	148.0
274.060089	120.0
274.139252	10300.0
274.230255	164.0
274.264435	148.0
274.349304	204.0
274.37265	48.0
274.429688	92.0
274.483521	124.0
274.55246	56.0
274.622498	60.0
274.672791	132.0
274.798676	116.0
274.878174	128.0
274.902466	148.0
274.96405	136.0
274.993378	96.0
275.049683	140.0
275.075897	96.0
275.141479	1980.0
275.207855	140.0
275.322937	128.0
275.369781	72.0
275.424622	180.0
275.492004	100.0
275.535889	168.0
275.58783	176.0
275.652588	160.0
275.736511	100.0
275.809235	152.0
275.835693	92.0
275.882599	164.0
275.944794	104.0
276.001007	56.0
276.093689	156.0
276.143158	552.0
276.232513	184.0
276.421112	80.0
276.46347	132.0
276.530334	128.0
276.553497	172.0
276.581696	92.0
276.623016	140.0
276.685242	60.0
276.732544	140.0
276.801788	100.0
276.848145	116.0
276.881287	148.0
276.908966	144.0
276.995819	288.0
277.030334	128.0
277.140076	184.0
277.229126	72.0
277.274475	176.0
277.388245	128.0
277.434662	160.0
277.474426	184.0
277.590485	92.0
277.766266	172.0
277.882385	120.0
277.945435	116.0
278.141235	80.0
278.38031	68.0
278.450043	92.0
278.632751	368.0
278.732422	232.0
278.768982	128.0
278.890594	116.0
278.945129	52.0
279.014954	116.0
279.051544	84.0
279.147949	68.0
279.174408	88.0
279.271027	36.0
279.31427	112.0
279.364166	140.0
279.417389	184.0
279.47229	96.0
279.561188	152.0
279.676971	220.0
279.860077	156.0
279.966644	28.0
280.011108	180.0
280.13446	144.0
280.210266	216.0
280.289764	104.0
280.453064	140.0
280.546814	148.0
280.636444	68.0
280.876099	180.0
280.901703	104.0
280.939941	176.0
281.045624	124.0
281.256958	80.0
281.307037	88.0
281.33374	140.0
281.588684	168.0
281.70932	148.0
281.888275	176.0
282.078705	172.0
282.19574	192.0
282.312775	76.0
282.536865	124.0
282.577026	132.0
282.607147	64.0
282.657318	120.0
282.82132	184.0
282.899628	204.0
282.985352	84.0
283.065735	156.0
283.095551	132.0
283.226501	212.0
283.259979	120.0
283.501221	144.0
283.60849	120.0
283.72583	100.0
283.772766	116.0
284.041046	148.0
284.139832	268.0
284.239014	124.0
284.322906	152.0
284.403442	68.0
284.645172	260.0
284.6922	92.0
284.725769	100.0
284.819824	100.0
285.09198	192.0
285.406647	180.0
285.438232	144.0
285.468506	176.0
285.53241	144.0
285.646759	184.0
285.68042	104.0
285.740967	76.0
285.787689	172.0
285.838531	168.0
285.935699	120.0
285.998596	144.0
286.023651	140.0
286.138336	644.0
286.316589	208.0
286.417633	108.0
286.625732	156.0
286.683807	168.0
286.711243	172.0
286.855713	144.0
286.896149	160.0
287.141144	304.0
287.435822	212.0
287.564087	168.0
287.604584	140.0
287.665344	116.0
287.753113	88.0
287.856567	144.0
288.013153	132.0
288.063812	192.0
288.090851	148.0
288.155243	132.0
288.182068	148.0
288.236145	48.0
288.273315	176.0
288.347656	92.0
288.455841	88.0
288.506531	108.0
288.566223	164.0
288.712799	72.0
288.894226	188.0
288.986816	152.0
289.017242	108.0
289.139099	160.0
289.206787	144.0
289.274475	84.0
289.352356	176.0
289.376038	84.0
289.501343	80.0
289.531525	224.0
289.674072	56.0
289.982422	132.0
290.470703	88.0
290.518219	164.0
290.552124	228.0
290.616608	76.0
290.725189	120.0
290.806641	156.0
290.986572	76.0
291.037079	132.0
291.18692	244.0
291.224274	128.0
291.258789	188.0
291.292206	160.0
291.380554	144.0
291.448517	188.0
291.489288	144.0
291.54364	68.0
291.598022	112.0
291.657684	388.0
291.684418	84.0
291.723816	148.0
291.839386	176.0
291.910797	192.0
291.938019	100.0
291.989044	160.0
292.060455	80.0
292.131897	144.0
292.302002	148.0
292.397308	120.0
292.45517	208.0
292.479004	156.0
292.516449	156.0
292.584534	96.0
292.618561	140.0
292.690094	112.0
292.83313	140.0
292.914856	52.0
293.092041	160.0
293.177216	156.0
293.227295	196.0
293.383484	148.0
293.456757	140.0
293.492859	136.0
293.620422	52.0
293.682343	156.0
293.715942	52.0
293.756866	172.0
293.789673	144.0
294.005676	100.0
294.228943	196.0
294.319366	204.0
294.36969	220.0
294.705994	36.0
294.757263	168.0
294.805756	172.0
295.0401	160.0
295.205078	224.0
295.315033	132.0
295.426727	140.0
295.485565	184.0
295.543732	80.0
295.724792	156.0
295.779877	216.0
295.882599	136.0
295.91684	80.0
295.971619	52.0
296.077789	144.0
296.101746	108.0
296.197662	184.0
296.235352	168.0
296.447784	128.0
296.584869	104.0
296.78714	112.0
296.830597	296.0
296.903748	128.0
296.996338	116.0
297.414978	148.0
297.441284	108.0
297.524811	160.0
297.579742	144.0
297.648438	68.0
297.68277	180.0
297.830444	136.0
297.863251	160.0
297.895721	60.0
297.930084	132.0
297.954132	104.0
298.05722	200.0
298.146545	96.0
298.232483	188.0
298.33905	180.0
298.42157	128.0
298.46283	116.0
298.493774	100.0
298.538483	200.0
298.565979	72.0
298.610718	116.0
298.645111	192.0
298.73111	136.0
298.786133	140.0
298.875824	60.0
299.028046	240.0
299.06366	176.0
299.106201	120.0
299.140625	96.0
299.199127	144.0
299.274902	168.0
299.305878	148.0
299.422974	100.0
299.519409	76.0
299.581421	112.0
299.681335	300.0
299.73645	148.0
299.764038	156.0
299.82608	108.0
299.87088	52.0
299.991516	124.0
300.105286	208.0
300.148743	140.0
300.253571	88.0
300.284607	128.0
300.332916	164.0
300.567505	84.0
300.629639	116.0
300.722809	240.0
300.861755	176.0
300.895416	136.0
300.950653	44.0
301.00592	136.0
301.057709	140.0
301.112976	176.0
301.213135	160.0
301.403168	132.0
301.524109	144.0
301.641632	164.0
301.771912	152.0
301.911346	184.0
301.990875	140.0
302.052734	132.0
302.09726	340.0
302.181915	184.0
302.312653	120.0
302.361084	120.0
302.551483	276.0
302.603424	236.0
302.849304	164.0
302.970673	124.0
303.036377	92.0
303.272034	116.0
303.344818	196.0
303.396057	184.0
303.497375	96.0
303.532043	92.0
303.68811	156.0
303.722809	148.0
303.806061	128.0
303.979553	132.0
304.021179	104.0
304.052429	188.0
304.0802	100.0
304.122742	176.0
304.160034	48.0
304.199524	84.0
304.288483	152.0
304.323181	168.0
304.350983	276.0
304.406525	124.0
304.434326	168.0
304.569763	160.0
304.670502	32.0
304.739471	132.0
304.771271	132.0
304.802551	64.0
304.869263	160.0
304.913757	124.0
304.971008	160.0
305.011078	200.0
305.07016	148.0
305.167511	192.0
305.226624	152.0
305.268372	104.0
305.316284	184.0
305.449219	116.0
305.538879	148.0
305.61792	264.0
305.65799	104.0
305.713654	124.0
305.82251	72.0
305.8508	128.0
305.923462	160.0
305.957306	120.0
306.131409	112.0
306.16275	136.0
306.225464	128.0
306.377258	132.0
306.389862	164.0
306.434479	92.0
306.598236	36.0
306.723724	100.0
306.829987	132.0
306.894562	144.0
307.196991	196.0
307.309631	112.0
307.347107	76.0
307.410828	136.0
307.557404	108.0
307.672607	112.0
307.697052	108.0
307.721497	148.0
307.745941	116.0
307.983429	156.0
308.182556	128.0
308.241943	96.0
308.276886	164.0
308.438354	184.0
308.596863	108.0
308.937744	148.0
309.039215	128.0
309.221191	120.0
309.389221	168.0
309.532776	108.0
309.651825	124.0
309.721893	152.0
309.851501	96.0
309.942627	144.0
310.005676	144.0
310.058258	144.0
310.11084	380.0
310.183899	104.0
310.207306	192.0
310.36676	176.0
310.466003	160.0
310.551453	120.0
310.724518	144.0
310.752594	224.0
310.822784	160.0
310.889435	124.0
310.956116	152.0
311.173767	172.0
311.222931	180.0
311.535522	88.0
311.572479	116.0
311.637421	136.0
311.735809	160.0
311.785004	40.0
311.929108	200.0
312.326477	120.0
312.430817	152.0
312.477753	104.0
312.576263	104.0
312.637909	112.0
312.681854	116.0
312.706482	132.0
312.798004	148.0
312.893066	264.0
312.93634	176.0
313.037415	88.0
313.086731	80.0
313.162994	104.0
313.192383	140.0
313.227631	76.0
313.296173	208.0
313.37558	144.0
313.400238	60.0
313.470734	48.0
313.601135	124.0
313.638916	144.0
313.728027	76.0
313.946655	164.0
314.04541	220.0
314.167358	124.0
314.295898	124.0
314.365051	168.0
314.599426	76.0
314.804199	212.0
314.864258	116.0
314.927826	96.0
314.977295	96.0
315.002014	68.0
315.033813	188.0
315.072662	140.0
315.097382	80.0
315.16098	136.0
315.277618	132.0
315.447266	148.0
315.574554	128.0
315.687714	140.0
315.751373	32.0
315.889313	168.0
315.980286	140.0
316.04245	112.0
316.108673	124.0
316.147614	96.0
316.225464	208.0
316.342285	104.0
316.367065	92.0
316.448486	108.0
316.498077	64.0
316.537018	172.0
316.597229	120.0
316.705048	100.0
316.742432	132.0
316.912506	36.0
317.04007	148.0
317.100311	76.0
317.128662	128.0
317.206665	132.0
317.266937	76.0
317.380371	172.0
317.446625	176.0
317.500946	188.0
317.597351	136.0
317.64856	176.0
317.735077	116.0
317.827332	76.0
317.869904	80.0
318.047363	176.0
318.132568	56.0
318.292328	164.0
318.434387	72.0
318.516083	176.0
318.583588	100.0
318.663605	160.0
318.764801	176.0
318.904694	120.0
319.017151	160.0
319.052704	116.0
319.143463	124.0
319.212708	144.0
319.256897	112.0
319.344299	208.0
319.500824	68.0
319.710754	92.0
319.803314	52.0
319.828217	140.0
320.13797	120.0
320.173584	140.0
320.454285	240.0
320.522705	188.0
320.618927	128.0
320.658142	48.0
320.704468	160.0
320.779327	160.0
320.87851	132.0
321.018219	188.0
321.132355	140.0
321.207245	192.0
321.528381	84.0
321.679626	136.0
321.740631	148.0
321.822968	108.0
321.853241	316.0
322.053223	108.0
322.131836	96.0
322.185425	104.0
322.213135	244.0
322.410522	112.0
322.499878	76.0
322.635712	124.0
322.73584	132.0
322.800385	148.0
322.882446	144.0
323.036865	168.0
323.089935	72.0
323.117065	96.0
323.170197	184.0
323.277588	108.0
323.318939	144.0
323.359558	148.0
323.381348	92.0
323.422729	124.0
323.516846	96.0
323.683441	148.0
323.741394	80.0
323.77005	168.0
323.798706	112.0
323.852417	68.0
323.877502	152.0
323.924072	144.0
324.011078	124.0
324.156982	200.0
324.217865	156.0
324.273407	136.0
324.399536	152.0
324.522583	156.0
324.556915	124.0
324.611328	148.0
324.673187	148.0
324.773621	92.0
324.832672	168.0
324.938629	72.0
325.019073	164.0
325.114929	224.0
325.146759	56.0
325.18924	120.0
325.264526	164.0
325.378418	172.0
325.415985	188.0
325.481812	280.0
325.548248	148.0
325.638275	120.0
325.71048	144.0
325.757202	128.0
325.797607	176.0
325.844238	256.0
325.855072	164.0
325.911346	340.0
325.976349	56.0
326.01947	64.0
326.06311	252.0
326.113708	132.0
326.170135	57264.0
326.266327	196.0
326.316162	160.0
326.35144	92.0
326.381165	92.0
326.449097	132.0
326.50174	336.0
326.561951	120.0
326.59671	96.0
326.6297	212.0
326.695801	172.0
326.748505	132.0
326.795746	220.0
326.819733	180.0
326.844818	96.0
326.891693	136.0
326.960052	152.0
327.05719	188.0
327.172943	13816.0
327.242523	160.0
327.278168	88.0
327.314545	76.0
327.339661	112.0
327.36496	92.0
327.412567	200.0
327.459747	252.0
327.515594	148.0
327.559631	144.0
327.594055	268.0
327.617859	192.0
327.652679	180.0
327.692413	136.0
327.733826	196.0
327.779327	92.0
327.807373	396.0
327.857513	144.0
327.891785	180.0
327.936676	172.0
327.96756	376.0
327.996613	232.0
328.11441	588.0
328.186737	191684.0
328.343994	196.0
328.411713	148.0
328.441284	104.0
328.486176	508.0
328.566071	404.0
328.6008	228.0
328.672638	128.0
328.721924	180.0
328.779327	596.0
328.805603	280.0
328.817871	168.0
328.830994	208.0
328.880432	220.0
328.894409	184.0
328.919861	104.0
328.969269	212.0
328.996948	136.0
329.022125	236.0
329.05368	340.0
329.099457	108.0
329.189178	44240.0
329.307007	76.0
329.337891	164.0
329.387177	128.0
329.426392	224.0
329.477112	80.0
329.545532	48.0
329.586304	148.0
329.616852	168.0
329.670563	80.0
329.721405	124.0
329.762604	184.0
329.799774	292.0
329.831116	224.0
329.876129	152.0
329.883148	148.0
329.932831	152.0
329.976898	252.0
330.004242	112.0
330.061737	156.0
330.111633	304.0
330.193054	4036.0
330.334595	144.0
330.345551	36.0
330.361786	128.0
330.392365	80.0
330.45755	76.0
330.498322	40.0
330.547485	104.0
330.569366	172.0
330.612793	44.0
330.684021	76.0
330.728516	112.0
330.770691	96.0
330.810791	96.0
330.848755	128.0
330.889038	148.0
330.918274	148.0
330.962189	80.0
331.006287	84.0
331.03595	192.0
331.088287	132.0
331.127838	104.0
331.193054	236.0
331.244934	208.0
331.279816	104.0
331.305054	108.0
331.361206	88.0
331.405884	280.0
331.44693	176.0
331.476471	124.0
331.522095	164.0
331.566315	92.0
331.625488	132.0
331.693329	92.0
331.72403	104.0
331.762573	172.0
331.812347	208.0
331.835815	156.0
331.88562	72.0
331.911011	100.0
331.950897	76.0
331.974365	72.0
332.008942	104.0
332.037933	72.0
332.103973	92.0
332.19931	116.0
332.250519	80.0
332.319275	108.0
332.364441	32.0
332.461365	68.0
332.499451	184.0
332.63797	164.0
332.667816	68.0
332.704376	100.0
332.748566	68.0
332.756195	56.0
332.769287	120.0
332.800018	136.0
332.865387	56.0
332.930756	104.0
332.963867	68.0
333.043335	116.0
333.072418	36.0
333.097839	44.0
333.125183	76.0
333.25769	80.0
333.352173	80.0
333.450287	152.0
333.476715	148.0
333.50174	144.0
333.562988	40.0
333.617493	176.0
333.709747	88.0
333.777496	84.0
333.80899	168.0
333.85022	60.0
333.970245	68.0
333.999329	104.0
334.032074	44.0
334.13031	224.0
334.206726	60.0
334.25766	96.0
334.381378	188.0
334.548828	44.0
334.643494	68.0
334.763672	32.0
334.872925	84.0
335.10434	100.0
335.18988	128.0
335.407166	116.0
335.420898	72.0
335.428619	144.0
335.466888	44.0
335.499695	76.0
335.594482	96.0
335.671082	56.0
335.711182	76.0
335.930023	64.0
336.024872	88.0
336.165192	124.0
336.236542	104.0
336.298584	144.0
336.371582	36.0
336.466522	140.0
336.535889	60.0
336.809784	132.0
336.849976	32.0
336.889465	84.0
336.974182	72.0
337.018036	92.0
337.109375	116.0
337.22998	132.0
337.259247	64.0
337.495453	88.0
337.588287	52.0
337.807739	188.0
337.869934	64.0
337.932129	116.0
338.170013	76.0
338.334747	104.0
338.558105	112.0
338.766022	188.0
338.865814	136.0
338.927643	160.0
339.074677	148.0
339.206635	64.0
339.353302	224.0
339.432434	176.0
339.496307	56.0
339.576996	60.0
339.678345	164.0
339.852142	108.0
339.91452	68.0
339.987915	60.0
340.029327	112.0
340.087006	100.0
340.123718	156.0
340.296265	128.0
340.432129	68.0
340.472534	44.0
340.531281	72.0
340.663513	96.0
340.755371	180.0
340.795807	108.0
340.828857	104.0
340.921112	76.0
340.994232	84.0
341.03833	140.0
341.211121	124.0
341.336151	52.0
341.383942	124.0
341.531067	48.0
341.579529	68.0
341.607758	108.0
341.641418	72.0
341.983643	116.0
342.123535	88.0
342.156677	76.0
342.230316	168.0
342.451263	104.0
342.506531	136.0
342.587555	104.0
342.62442	108.0
342.69809	68.0
342.779175	208.0
342.878662	152.0
342.926575	172.0
342.970825	104.0
343.011353	184.0
343.059296	124.0
343.110901	92.0
343.324768	84.0
343.372711	100.0
343.409607	196.0
343.478271	220.0
343.627258	128.0
343.782227	128.0
343.837585	120.0
344.025848	160.0
344.092285	116.0
344.180908	76.0
344.276917	180.0
344.432068	152.0
344.5784	240.0
344.631561	208.0
344.675903	144.0
344.735016	160.0
344.767365	80.0
344.834808	192.0
345.057922	124.0
345.208221	124.0
345.252594	144.0
345.3573	144.0
345.456024	116.0
345.705292	176.0
345.8927	44.0
345.922333	80.0
346.003754	40.0
346.28891	104.0
346.388916	192.0
346.614929	156.0
346.748352	164.0
346.800232	52.0
346.993011	204.0
347.033783	92.0
347.113983	108.0
347.426941	72.0
347.588745	144.0
347.708557	112.0
347.760895	80.0
347.861145	124.0
347.916809	36.0
348.087616	188.0
348.176758	112.0
348.269592	192.0
348.295593	72.0
348.523865	64.0
348.826996	172.0
348.873566	128.0
349.035187	68.0
349.278168	152.0
349.369965	132.0
349.433197	108.0
349.474121	140.0
349.637878	76.0
349.742065	92.0
349.809937	160.0
349.861206	120.0
350.095795	200.0
350.171722	52.0
350.352814	220.0
350.591278	184.0
350.770203	68.0
350.796295	32.0
350.83728	100.0
350.952881	120.0
351.001343	144.0
351.086761	160.0
351.150513	136.0
351.254974	136.0
351.284058	100.0
351.340759	184.0
351.575836	112.0
351.792328	32.0
351.915558	44.0
352.213165	192.0
352.259155	48.0
352.449677	36.0
352.520691	124.0
352.595428	100.0
352.636536	96.0
352.86084	128.0
352.894501	96.0
352.995453	84.0
353.118866	72.0
353.186188	104.0
353.249786	196.0
353.657684	112.0
353.691345	148.0
353.978485	168.0
354.043304	72.0
354.305511	120.0
354.384216	128.0
354.417938	112.0
354.489136	144.0
354.530334	96.0
354.676514	160.0
354.77774	148.0
354.897705	192.0
354.983948	80.0
355.032715	128.0
355.066467	104.0
355.133972	80.0
355.212769	132.0
355.246521	200.0
355.302795	128.0
355.385345	172.0
355.456635	116.0
355.497925	132.0
355.779419	132.0
355.8461	148.0
355.853882	72.0
355.959656	132.0
356.026428	72.0
356.100067	124.0
356.154968	108.0
356.320251	124.0
356.696075	104.0
356.748688	168.0
356.887817	76.0
357.218781	80.0
357.2854	152.0
357.625183	148.0
357.881165	176.0
357.930115	140.0
358.043091	36.0
358.303009	120.0
358.355774	108.0
358.630859	132.0
358.781647	88.0
359.045624	116.0
359.166321	88.0
359.230438	120.0
359.264404	216.0
359.347382	100.0
359.721039	160.0
359.894684	156.0
359.940002	68.0
360.015533	120.0
360.121277	80.0
360.147736	140.0
360.238403	88.0
360.276154	196.0
360.397064	96.0
360.588226	132.0
360.756134	172.0
361.096436	156.0
361.296936	108.0
361.323425	200.0
361.78653	164.0
361.853302	196.0
361.9328	140.0
362.300201	180.0
362.33429	120.0
362.403564	100.0
362.497223	104.0
362.56546	112.0
362.622284	92.0
362.664001	128.0
362.762543	96.0
362.927856	212.0
363.001434	200.0
363.035553	188.0
363.284393	172.0
363.298431	104.0
363.361755	76.0
363.407288	84.0
363.468018	64.0
363.612213	228.0
363.69574	136.0
363.828583	160.0
363.953888	160.0
364.177948	116.0
364.212128	60.0
364.269135	180.0
364.310913	60.0
364.417297	124.0
364.611084	172.0
364.717529	124.0
365.033081	88.0
365.074921	72.0
365.261292	44.0
365.736938	96.0
365.803009	180.0
365.853577	112.0
366.191284	468.0
366.361481	156.0
366.41098	48.0
366.677734	120.0
366.738739	92.0
366.773041	120.0
366.799713	88.0
366.975098	136.0
367.036102	76.0
367.169556	208.0
367.204041	116.0
367.30307	112.0
367.474762	164.0
367.63501	128.0
367.883118	120.0
368.197876	148.0
368.303162	172.0
368.337555	132.0
368.42923	116.0
368.513306	144.0
368.574432	124.0
368.807556	128.0
368.868713	172.0
369.350555	88.0
369.576263	208.0
369.652802	152.0
369.687225	88.0
369.967712	88.0
369.993469	156.0
370.26535	104.0
370.372589	120.0
370.57431	176.0
370.644592	68.0
370.924377	88.0
371.020233	48.0
371.411377	112.0
371.468933	88.0
371.518799	140.0
371.887177	32.0
371.971619	188.0
372.034485	160.0
372.067596	120.0
372.155914	128.0
372.311768	164.0
372.443939	116.0
372.501556	84.0
372.532288	104.0
372.563049	68.0
372.724396	120.0
372.80127	76.0
372.951172	132.0
372.993439	144.0
373.135681	68.0
373.447174	172.0
373.474091	144.0
373.761475	104.0
373.808838	48.0
373.858856	100.0
373.905029	128.0
374.139252	264.0
374.263062	132.0
374.367035	84.0
374.401703	124.0
374.517242	180.0
374.676056	88.0
374.725281	176.0
374.783051	28.0
374.944916	124.0
375.180054	160.0
375.261017	124.0
375.303436	60.0
375.365143	88.0
375.415253	88.0
375.530975	164.0
375.654419	196.0
375.777863	164.0
376.090454	92.0
376.283478	160.0
376.360687	80.0
376.928528	120.0
377.187469	196.0
377.280273	64.0
377.450378	128.0
377.504517	116.0
377.575867	144.0
377.96875	156.0
378.065491	96.0
378.189331	124.0
378.371277	316.0
378.510681	76.0
378.603607	76.0
378.704315	108.0
379.07666	120.0
379.138245	120.0
379.173126	140.0
379.285553	136.0
379.661652	148.0
379.878845	140.0
379.944794	104.0
380.030151	76.0
380.29895	124.0
380.545563	132.0
380.624054	132.0
380.837646	44.0
381.082397	136.0
381.272827	128.0
381.369995	140.0
381.541687	144.0
381.599365	200.0
381.638245	160.0
381.751007	168.0
381.809357	220.0
381.92215	136.0
381.961029	112.0
382.027161	212.0
382.132202	108.0
382.198364	152.0
382.283966	112.0
382.381256	116.0
382.544769	164.0
382.665436	96.0
382.696594	200.0
382.722748	140.0
382.879608	176.0
382.922455	160.0
383.015961	144.0
383.179565	84.0
383.510803	36.0
383.572296	176.0
383.658936	140.0
383.811005	172.0
383.928009	68.0
383.970886	136.0
384.060608	108.0
384.162048	32.0
384.345398	44.0
384.638123	112.0
385.239502	76.0
385.317657	100.0
385.391876	140.0
385.423157	144.0
385.538147	168.0
385.602905	92.0
385.747528	124.0
386.019409	180.0
386.271545	120.0
386.518036	80.0
386.730133	144.0
387.109131	124.0
387.171814	208.0
387.46167	124.0
387.696686	144.0
387.971161	124.0
388.088776	100.0
388.116241	124.0
388.198578	144.0
388.237793	116.0
388.465302	120.0
388.516296	368.0
388.89386	148.0
389.115173	108.0
389.167816	68.0
389.34848	104.0
389.471069	92.0
389.537018	156.0
389.6745	180.0
390.138275	160.0
390.209045	128.0
390.287689	160.0
390.42926	128.0
390.478149	168.0
390.570862	136.0
390.8974	112.0
391.027283	156.0
391.142426	156.0
391.21228	136.0
391.424347	168.0
391.468231	192.0
391.82666	84.0
391.90152	160.0
392.465179	104.0
392.575592	168.0
392.97403	336.0
393.001648	76.0
393.155548	56.0
393.254211	148.0
393.353149	120.0
393.416046	128.0
393.467377	84.0
393.656921	140.0
393.704315	64.0
393.897858	204.0
393.929443	188.0
393.992645	56.0
394.134888	92.0
394.233704	176.0
394.458984	120.0
394.549896	104.0
394.628998	252.0
394.680389	80.0
394.806946	148.0
394.861755	176.0
394.941406	128.0
395.07196	92.0
395.139221	44.0
395.226257	64.0
395.3013	116.0
395.347321	168.0
395.467682	96.0
395.527039	116.0
395.561676	432.0
395.64978	112.0
395.721039	112.0
396.109161	136.0
396.208191	112.0
396.562775	96.0
396.600525	36.0
396.913727	128.0
396.98114	140.0
397.028717	136.0
397.25943	120.0
397.294495	88.0
397.385742	96.0
397.441864	164.0
397.50592	168.0
397.814362	40.0
397.953339	136.0
398.036133	140.0
398.151886	80.0
398.214691	196.0
398.294861	68.0
398.394196	136.0
398.561646	180.0
398.615173	208.0
398.675629	96.0
398.855042	128.0
398.954529	60.0
399.03009	152.0
399.197083	160.0
399.344238	196.0
399.578949	84.0
399.833618	160.0
399.986816	172.0
400.343231	76.0
400.626038	148.0
400.75351	188.0
400.853149	136.0
400.881042	112.0
400.968719	124.0
401.092285	80.0
401.156067	144.0
401.207886	112.0
401.355408	220.0
401.494995	152.0
401.754272	52.0
401.869965	56.0
402.25708	228.0
402.476685	84.0
402.576508	84.0
402.832153	100.0
403.091858	132.0
403.263702	128.0
403.379639	140.0
403.445374	144.0
403.499573	148.0
403.547424	156.0
403.644653	112.0
403.675507	108.0
403.739471	108.0
403.803467	140.0
404.049835	224.0
404.543762	184.0
404.844055	164.0
404.936157	56.0
405.176514	152.0
405.220581	52.0
405.36084	148.0
405.533173	132.0
405.95816	168.0
405.986237	44.0
406.523743	120.0
406.828857	92.0
406.858673	112.0
407.009552	164.0
407.073792	52.0
407.13916	128.0
407.230408	76.0
407.330841	60.0
407.459412	108.0
407.796967	148.0
407.929596	148.0
407.96579	128.0
408.182922	124.0
408.363892	144.0
408.428253	60.0
408.476501	92.0
408.806458	204.0
408.862793	32.0
408.93927	84.0
409.015747	200.0
409.088196	132.0
409.144562	140.0
409.253265	124.0
409.28952	80.0
409.615753	140.0
409.704376	164.0
409.760773	132.0
410.050903	56.0
410.079132	180.0
410.155701	100.0
410.40567	172.0
410.52832	136.0
410.611328	168.0
410.776733	76.0
410.950195	176.0
410.998627	140.0
411.160034	168.0
411.313416	80.0
411.474915	96.0
411.632385	120.0
411.660645	180.0
411.692963	120.0
411.765656	132.0
411.842407	156.0
411.955505	116.0
411.983795	76.0
412.092865	40.0
412.222168	112.0
412.282806	112.0
412.371704	96.0
412.424255	56.0
412.452545	160.0
413.120483	144.0
413.245209	184.0
413.370667	80.0
413.56897	196.0
413.738983	264.0
414.224976	120.0
414.46402	44.0
414.504517	60.0
414.57605	160.0
414.68689	68.0
414.715271	72.0
414.930115	132.0
415.027435	136.0
415.11261	140.0
415.222107	96.0
415.753571	124.0
415.810394	160.0
415.972748	92.0
416.07019	128.0
416.131104	156.0
416.187927	140.0
416.252899	60.0
416.309753	80.0
416.399109	64.0
416.43161	148.0
416.472229	176.0
416.500671	112.0
416.638916	112.0
416.780975	132.0
416.971985	140.0
417.045166	212.0
417.130524	64.0
417.175232	204.0
417.415131	108.0
417.585938	132.0
417.915436	56.0
417.969147	104.0
418.131134	156.0
418.200317	112.0
418.269531	128.0
418.456787	144.0
418.501587	124.0
418.548737	136.0
418.766296	144.0
418.900726	136.0
419.014801	196.0
419.251129	156.0
419.446777	160.0
419.681366	152.0
419.764801	48.0
419.796814	160.0
419.858582	96.0
420.42569	88.0
420.507294	324.0
420.695068	64.0
420.723663	116.0
420.795105	104.0
420.929382	136.0
421.087189	108.0
421.156525	144.0
421.340363	100.0
421.516052	232.0
421.577362	172.0
421.679535	80.0
421.926117	160.0
422.370544	108.0
422.476898	120.0
422.722412	100.0
422.801941	140.0
422.882019	68.0
422.914764	136.0
423.041656	120.0
423.258667	208.0
423.31601	60.0
423.373322	108.0
423.422485	108.0
423.475739	128.0
423.543823	160.0
423.684631	120.0
423.776306	128.0
423.844452	112.0
424.14682	144.0
424.205109	136.0
424.266602	28.0
424.340393	196.0
424.406006	128.0
424.623352	68.0
424.661835	304.0
424.869476	88.0
425.0336	60.0
425.144409	52.0
425.230591	144.0
425.304474	72.0
425.435852	76.0
425.657562	152.0
425.875214	48.0
425.92041	116.0
425.957367	136.0
426.031342	112.0
426.076508	32.0
426.162811	120.0
426.278503	52.0
426.355927	192.0
426.59433	132.0
426.816376	52.0
426.976746	88.0
427.059021	56.0
427.104248	152.0
427.157745	112.0
427.202972	212.0
427.359314	120.0
427.622711	136.0
427.980865	124.0
428.083801	112.0
428.192993	180.0
428.236206	180.0
428.281525	124.0
428.471863	76.0
428.572571	80.0
428.631714	132.0
428.730621	140.0
428.808075	176.0
429.122223	128.0
429.221191	100.0
429.31604	96.0
429.505768	120.0
429.885345	128.0
429.988525	60.0
430.021545	132.0
430.122925	204.0
430.182526	116.0
430.310516	76.0
430.343536	36.0
430.459167	204.0
430.628479	176.0
430.66153	88.0
431.008575	148.0
431.054016	160.0
431.25238	164.0
431.450806	84.0
431.698914	136.0
431.827118	80.0
431.8685	180.0
432.021545	124.0
432.075317	212.0
432.108429	128.0
432.542969	156.0
432.580231	76.0
432.683716	60.0
432.807953	128.0
432.870056	124.0
433.031555	112.0
433.072998	76.0
433.292542	108.0
433.450012	64.0
433.495575	148.0
433.710724	132.0
433.770111	84.0
434.046936	160.0
434.153992	200.0
434.279175	176.0
434.544678	68.0
434.860077	88.0
435.015717	120.0
435.04071	124.0
435.159332	276.0
435.237854	160.0
435.412262	68.0
435.453796	176.0
435.736298	44.0
435.890015	216.0
435.964813	144.0
436.064575	204.0
436.279694	160.0
436.526062	96.0
436.800568	108.0
436.852448	164.0
436.950317	124.0
437.04187	92.0
437.070984	140.0
437.204163	80.0
437.262421	44.0
437.308197	200.0
437.428925	36.0
437.605072	156.0
437.861969	132.0
437.916107	140.0
438.095245	208.0
438.14566	160.0
438.774567	104.0
438.895477	340.0
439.016418	200.0
439.049774	156.0
439.170715	176.0
439.204102	144.0
439.265045	124.0
439.325073	164.0
439.448517	164.0
439.617157	156.0
439.817505	80.0
439.876343	124.0
439.967773	128.0
440.070618	120.0
440.138977	136.0
440.388428	108.0
440.554047	112.0
440.694519	52.0
440.846954	92.0
440.941071	136.0
441.296387	224.0
441.434387	224.0
441.509674	200.0
441.627899	136.0
441.702087	92.0
441.823395	124.0
441.877777	56.0
442.246033	156.0
442.426056	140.0
442.488861	136.0
442.651367	188.0
442.702423	60.0
442.828064	140.0
442.865753	100.0
442.899261	92.0
442.983032	172.0
443.279388	176.0
443.294006	128.0
443.360138	100.0
443.457458	148.0
443.812897	216.0
443.846436	100.0
443.930298	228.0
443.959656	176.0
444.078613	144.0
444.358154	28.0
444.505035	168.0
444.635132	144.0
444.752655	48.0
444.899567	108.0
444.987915	96.0
445.075928	88.0
445.188263	124.0
445.239685	92.0
445.432922	64.0
445.684998	228.0
445.76062	104.0
446.668793	96.0
446.800964	124.0
446.900177	44.0
446.954895	88.0
447.013794	120.0
447.114807	112.0
447.321045	84.0
447.684906	172.0
447.919037	132.0
448.011688	88.0
448.129669	96.0
448.21817	168.0
448.271729	168.0
448.517395	88.0
448.614349	96.0
448.652283	80.0
448.760498	144.0
448.829041	96.0
448.86734	124.0
449.099304	80.0
449.183655	44.0
449.390381	52.0
449.449463	96.0
449.677338	92.0
449.749115	144.0
449.934845	176.0
450.040405	188.0
450.086853	76.0
450.227661	140.0
450.509216	204.0
450.919098	52.0
451.24884	180.0
451.278412	84.0
451.565887	148.0
451.579773	200.0
451.798645	112.0
451.853638	76.0
451.946747	88.0
451.993286	176.0
452.157837	140.0
452.251434	124.0
452.369965	72.0
452.399597	124.0
452.433472	124.0
452.666351	140.0
452.776459	160.0
452.835754	40.0
452.958588	180.0
453.013672	56.0
453.378082	116.0
453.450134	180.0
453.53064	168.0
453.589996	108.0
453.700226	164.0
453.806213	124.0
453.869812	72.0
453.97583	140.0
454.074249	188.0
454.153595	188.0
454.49762	116.0
454.556366	128.0
454.612183	132.0
454.837128	116.0
455.155548	48.0
455.251434	164.0
455.333923	224.0
455.533569	32.0
455.586609	132.0
455.652527	140.0
455.748352	116.0
455.869232	104.0
455.981506	180.0
456.094482	136.0
456.130493	204.0
456.226257	56.0
456.260284	112.0
456.430359	192.0
456.655762	200.0
456.813141	88.0
456.893982	120.0
456.932281	120.0
457.00885	160.0
457.081207	124.0
457.115234	112.0
457.213104	52.0
457.255676	100.0
457.315277	108.0
457.498322	88.0
457.545135	108.0
457.574951	76.0
457.609009	104.0
457.656982	104.0
457.736755	128.0
457.785156	192.0
457.846497	120.0
457.919891	48.0
458.175476	136.0
458.273468	124.0
458.384247	140.0
458.443909	52.0
458.543671	88.0
458.708191	148.0
458.760956	136.0
458.831818	124.0
458.874451	48.0
458.940674	188.0
458.994446	192.0
459.038879	100.0
459.083405	84.0
459.153961	88.0
459.205353	228.0
459.266602	96.0
459.313721	192.0
459.373138	120.0
459.407562	96.0
459.486084	168.0
459.569092	112.0
459.657379	116.0
459.704956	80.0
459.759338	136.0
459.814209	120.0
459.878845	72.0
459.919647	212.0
459.953796	96.0
459.987946	80.0
460.020477	204.0
460.07077	112.0
460.145203	96.0
460.218414	624.0
460.280609	156.0
460.328705	160.0
460.38504	328.0
460.437775	284.0
460.515594	328.0
460.586517	132.0
460.646057	388.0
460.71933	320.0
460.749084	268.0
460.823547	256.0
460.872192	104.0
460.913208	348.0
460.969788	236.0
461.018707	436.0
461.096497	272.0
461.154175	180.0
461.21225	400.0
461.257599	144.0
461.267731	224.0
461.317627	388.0
461.375244	260.0
461.434875	384.0
461.467194	300.0
461.513062	128.0
461.579742	92.0
461.627075	344.0
461.670258	124.0
461.706421	172.0
461.729736	164.0
461.777649	596.0
461.852478	180.0
461.889099	1256.0
461.928833	312.0
461.995239	452.0
462.01236	368.0
462.038422	568.0
462.110291	724.0
462.235443	250540.0
462.350983	164.0
462.381165	168.0
462.434753	116.0
462.472504	184.0
462.530426	244.0
462.564911	204.0
462.614655	368.0
462.655975	656.0
462.731476	332.0
462.738739	348.0
462.757202	524.0
462.79361	244.0
462.880829	248.0
462.942261	3928.0
462.993256	432.0
463.0914	432.0
463.156128	476.0
463.237915	131416.0
463.338623	272.0
463.36795	180.0
463.43103	144.0
463.505402	236.0
463.542877	284.0
463.584137	252.0
463.63443	136.0
463.678955	580.0
463.725494	104.0
463.762115	112.0
463.805328	168.0
463.877197	208.0
463.945953	564.0
464.007965	260.0
464.074219	200.0
464.115295	104.0
464.154114	452.0
464.240265	13520.0
464.38382	192.0
464.448486	212.0
464.502594	136.0
464.53949	208.0
464.577728	136.0
464.632507	196.0
464.664337	120.0
464.708038	232.0
464.782623	128.0
464.829956	80.0
464.870972	92.0
464.92746	116.0
464.971893	152.0
465.022064	188.0
465.071777	256.0
465.125092	136.0
465.18454	76.0
465.190826	84.0
465.242462	1924.0
465.319489	116.0
465.368347	172.0
465.398193	168.0
465.484314	92.0
465.516907	332.0
465.57486	320.0
465.615234	204.0
465.657715	256.0
465.675934	152.0
465.7435	220.0
465.762329	96.0
465.776886	108.0
465.804657	264.0
465.864746	344.0
465.96225	140.0
465.995239	220.0
466.030426	272.0
466.116608	104.0
466.17984	132.0
466.221741	344.0
466.274567	236.0
466.316467	200.0
466.386963	56.0
466.459076	104.0
466.523682	128.0
466.581024	132.0
466.594055	132.0
466.668182	204.0
466.806213	208.0
466.861938	80.0
466.948517	28.0
466.989441	76.0
467.053925	152.0
467.097778	124.0
467.129822	176.0
467.197296	180.0
467.245728	112.0
467.280579	300.0
467.346741	92.0
467.393829	116.0
467.458374	64.0
467.494171	68.0
467.62677	124.0
467.732849	28.0
467.784454	160.0
467.815186	100.0
467.830841	84.0
467.850616	56.0
467.864807	88.0
467.901978	52.0
467.987061	84.0
468.016998	184.0
468.053314	56.0
468.08313	136.0
468.151733	120.0
468.195831	84.0
468.242188	140.0
468.272339	48.0
468.312622	56.0
468.352448	100.0
468.461853	48.0
468.535583	72.0
468.61264	48.0
468.654144	120.0
468.703125	72.0
468.793976	52.0
468.862579	48.0
468.910004	36.0
468.948792	72.0
469.009125	64.0
469.086182	64.0
469.142761	52.0
469.215515	64.0
469.315216	92.0
469.378937	36.0
469.431641	60.0
469.565796	76.0
469.625732	40.0
469.744995	80.0
469.785339	76.0
469.837128	56.0
469.960297	104.0
470.1521	28.0
470.216858	68.0
470.292267	104.0
470.350647	64.0
470.385193	44.0
470.441315	56.0
470.516052	128.0
470.596741	36.0
470.674469	56.0
470.7565	108.0
470.844666	68.0
471.03891	52.0
471.146973	84.0
471.339691	104.0
471.426117	68.0
471.473663	36.0
471.512543	84.0
471.642212	84.0
471.750305	60.0
471.962158	80.0
472.044312	60.0
472.295166	104.0
472.400208	112.0
472.572052	76.0
472.700775	48.0
472.758118	84.0
473.0784	76.0
473.130371	88.0
473.203979	56.0
473.48111	52.0
473.632721	72.0
473.751617	80.0
474.096313	60.0
474.152649	88.0
474.187317	44.0
474.33905	100.0
474.373718	52.0
474.491211	116.0
474.542816	104.0
474.698914	80.0
474.802979	88.0
475.067596	64.0
475.123993	88.0
475.440765	88.0
475.544922	116.0
475.633911	72.0
476.291748	52.0
476.427979	68.0
476.508972	56.0
476.613251	40.0
476.656708	108.0
476.860962	140.0
476.921814	112.0
476.98703	140.0
477.139191	140.0
477.195709	88.0
477.247894	132.0
477.304413	76.0
477.756775	68.0
477.883362	40.0
477.931976	176.0
477.992645	76.0
478.064392	80.0
478.204956	76.0
478.47052	76.0
478.531464	52.0
478.932129	56.0
478.997467	176.0
479.04538	56.0
479.189148	72.0
479.341675	32.0
479.435028	104.0
479.549561	108.0
479.585724	32.0
479.620605	76.0
479.8255	176.0
479.877808	64.0
480.00293	104.0
480.046509	116.0
480.095856	28.0
480.343384	112.0
480.470978	52.0
480.545135	60.0
480.59314	124.0
480.68042	72.0
480.977203	104.0
481.357056	52.0
481.780731	64.0
481.959869	144.0
482.51059	140.0
482.554321	68.0
482.702972	88.0
482.759827	80.0
482.969788	60.0
483.074768	60.0
483.332886	84.0
483.424805	60.0
483.459808	36.0
483.788086	52.0
483.818726	132.0
483.954468	88.0
484.086884	100.0
484.147156	80.0
484.234741	108.0
484.707886	56.0
484.797729	96.0
484.918243	40.0
484.984009	40.0
485.040985	92.0
485.084808	52.0
485.634888	72.0
485.70752	108.0
485.843506	36.0
486.260376	44.0
486.778412	72.0
486.945312	48.0
487.476898	100.0
488.013184	44.0
488.052765	56.0
488.149506	100.0
488.26825	44.0
488.743347	92.0
489.055817	96.0
489.165863	44.0
489.20108	88.0
490.024658	56.0
490.117188	76.0
490.293488	44.0
490.628479	84.0
490.721069	108.0
491.091522	68.0
491.351776	108.0
492.124176	120.0
493.038605	48.0
493.679657	52.0
495.981995	52.0
497.050842	88.0
497.521332	124.0
498.765198	140.0
498.822968	64.0
499.031952	52.0
499.730255	96.0
499.903809	72.0
500.75415	56.0
501.734497	40.0
502.175537	80.0
502.336578	84.0
503.014862	136.0
503.090759	68.0
503.255951	68.0
504.256653	104.0
504.726044	68.0
506.803009	64.0
507.600922	64.0
508.637329	72.0
508.97406	80.0
510.510925	132.0
511.891632	84.0
513.672852	116.0
513.71344	64.0
513.754028	44.0
515.424622	68.0
515.971558	72.0
516.930481	72.0
517.15802	72.0
517.650269	72.0
517.777039	48.0
519.186584	48.0
519.594788	48.0
519.685547	44.0
520.225647	124.0
521.943115	104.0
522.097717	80.0
522.200317	100.0
522.461609	116.0
522.757385	32.0
525.240479	64.0
525.477722	100.0
526.121277	68.0
526.774292	100.0
528.282898	104.0
530.371094	60.0
530.426086	60.0
530.999268	52.0
531.636963	48.0
531.806763	80.0
532.683838	76.0
533.198486	72.0
534.983215	60.0
536.02417	100.0
538.090576	48.0
538.224487	96.0
538.298401	88.0
539.638428	108.0
540.262817	80.0
540.961609	40.0
542.504272	76.0
542.773193	84.0
542.856689	100.0
544.546021	48.0
546.754456	72.0
547.410889	76.0
547.657776	44.0
549.63916	64.0
554.615356	84.0
555.844116	108.0
556.853516	68.0
557.703979	88.0
558.112976	88.0
558.277588	108.0
558.959656	108.0
559.444458	100.0
559.632812	92.0
559.863525	80.0
560.637024	112.0
560.994385	92.0
561.352783	80.0
561.494263	256.0
561.777283	44.0
564.100708	108.0
564.460022	120.0
565.59082	80.0
565.623962	112.0
566.391052	100.0
567.097107	84.0
567.206116	44.0
567.343567	108.0
568.183044	84.0
568.648071	52.0
569.44574	68.0
569.904724	116.0
571.832581	68.0
573.065979	100.0
576.979736	80.0
577.027527	76.0
578.088806	132.0
579.133179	60.0
580.527893	64.0
581.051697	100.0
581.271423	72.0
582.889771	100.0
583.307922	80.0
584.077271	36.0
585.463501	68.0
585.954834	40.0
586.176453	36.0
587.285339	88.0
589.259827	96.0
589.298462	72.0
590.860168	64.0
591.958923	60.0
592.201111	128.0
592.462708	144.0
594.2323	56.0
594.712769	92.0
595.946289	60.0
596.00946	100.0
596.490601	116.0
596.685059	92.0
598.78241	64.0
599.147766	88.0
600.278564	60.0
600.898071	48.0
602.269897	84.0
602.401794	128.0
604.748962	136.0
605.199341	40.0
605.640076	96.0
605.943848	108.0
606.193726	48.0
606.242737	100.0
606.438782	80.0
606.830994	60.0
607.218384	60.0
607.704041	40.0
609.206421	136.0
609.51593	128.0
610.651611	60.0
612.581177	68.0
612.869263	120.0
613.665405	60.0
614.424988	116.0
614.464478	60.0
614.503906	92.0
615.960327	60.0
616.21228	68.0
617.101929	72.0
617.270081	60.0
619.096191	92.0
620.716675	100.0
620.979492	148.0
622.458435	72.0
622.637268	148.0
624.60553	100.0
625.506226	52.0
625.770081	124.0
626.113708	52.0
626.786255	48.0
626.94574	40.0
627.005493	132.0
627.324524	80.0
627.868042	96.0
628.237183	120.0
628.95575	112.0
629.040588	100.0
629.509949	88.0
629.764648	60.0
629.874573	76.0
631.044006	72.0
631.634155	44.0
631.669189	120.0
633.005554	120.0
633.125732	84.0
635.426575	96.0
638.375122	128.0
638.50592	128.0
638.950562	112.0
640.332886	40.0
640.539429	124.0
641.073486	124.0
641.638062	48.0
641.683411	48.0
642.732605	48.0
644.424133	116.0
644.954773	52.0
645.40979	28.0
645.531128	28.0
645.677795	68.0
648.107727	88.0
648.345947	68.0
650.440735	84.0
651.309021	60.0
652.757507	84.0
654.243286	116.0
657.699585	96.0
662.609009	132.0
663.116333	128.0
663.577698	116.0
666.574341	80.0
666.688416	120.0
666.929993	48.0
667.341309	76.0
667.660095	52.0
668.009888	80.0
668.189941	120.0
669.430481	68.0
669.832214	40.0
670.502075	48.0
671.084595	84.0
671.533264	44.0
672.336365	60.0
673.164124	60.0
673.339722	112.0
673.814941	68.0
673.964783	72.0
674.259338	72.0
674.774597	108.0
675.241699	40.0
675.412415	68.0
676.022949	52.0
676.400757	48.0
678.566284	80.0
678.861877	92.0
678.9552	128.0
681.77948	48.0
682.008179	80.0
682.580078	64.0
683.615295	44.0
683.734985	92.0
684.245117	108.0
684.672119	40.0
684.995056	60.0
685.797546	80.0
686.511841	68.0
688.202576	60.0
689.45105	80.0
690.161987	68.0
690.847168	92.0
691.009338	80.0
691.585022	60.0
691.76825	76.0
693.00946	44.0
693.538818	84.0
694.755432	44.0
695.175171	64.0
697.21283	136.0
697.675415	44.0
698.921936	44.0
699.932617	68.0
701.486938	88.0
703.892822	120.0
705.768738	96.0
706.160095	168.0
706.593872	72.0
708.828369	36.0
710.318237	80.0
710.519836	116.0
711.299927	40.0
712.207947	72.0
712.585144	68.0
716.128113	52.0
717.23114	132.0
717.396362	28.0
717.540344	116.0
718.121582	84.0
718.569702	68.0
719.781372	56.0
719.845459	72.0
720.598633	76.0
720.876465	96.0
721.261292	56.0
721.373535	64.0
721.576721	76.0
722.935364	60.0
723.208374	44.0
723.781189	40.0
723.936462	116.0
724.134644	92.0
724.188232	132.0
725.179443	128.0
725.715576	48.0
726.219666	52.0
728.221741	36.0
728.388245	84.0
728.737488	52.0
728.866455	32.0
728.963135	40.0
729.909302	56.0
730.269592	72.0
730.307251	56.0
730.716125	48.0
731.313477	84.0
732.902161	28.0
733.953308	116.0
735.183228	52.0
735.604248	116.0
736.219788	44.0
736.538452	60.0
738.780457	104.0
742.888367	44.0
745.902283	232.0
747.517639	32.0
747.572083	84.0
747.680908	76.0
748.110962	64.0
748.15448	44.0
748.666321	40.0
748.82666	116.0
749.554321	88.0
749.979431	76.0
750.573669	80.0
751.11908	108.0
752.024841	56.0
752.123108	68.0
753.635925	44.0
753.985657	100.0
754.379211	116.0
756.534668	64.0
757.279419	92.0
757.394409	44.0
757.788879	64.0
759.170227	52.0
760.882263	184.0
765.198242	184.0
769.95166	52.0
770.040039	64.0
771.034546	108.0
771.952271	80.0
772.682434	148.0
772.986755	44.0
773.307739	72.0
774.326477	84.0
775.916931	116.0
776.532471	140.0
777.397949	64.0
777.908569	76.0
778.025146	52.0
778.263916	112.0
778.419373	84.0
778.530457	112.0
779.808289	80.0
781.231873	76.0
781.309753	44.0
784.651428	56.0
785.627441	116.0
785.923157	104.0
786.103088	128.0
788.117554	68.0
788.195801	80.0
788.972717	184.0
790.169617	48.0
794.141418	184.0
794.837097	116.0
797.785828	104.0
800.497864	116.0
802.351685	68.0
804.100403	84.0
804.444763	56.0
804.919006	52.0
805.122314	176.0
810.241577	168.0
813.413086	156.0
813.513367	196.0
813.775085	64.0
813.928406	204.0
814.484985	76.0
814.752014	60.0
815.752197	88.0
816.753052	144.0
816.838379	168.0
817.077332	96.0
817.208191	48.0
818.551514	60.0
821.007751	60.0
822.439819	76.0
822.56543	176.0
823.381958	104.0
823.610413	156.0
823.958923	176.0
824.267456	92.0
824.776123	40.0
824.85614	64.0
825.279236	240.0
826.434631	64.0
826.686401	72.0
827.367554	64.0
829.424194	200.0
829.894287	56.0
830.002625	164.0
830.255554	200.0
831.690002	148.0
831.844971	264.0
832.057373	84.0
832.361694	100.0
832.734985	104.0
832.838379	100.0
836.271118	76.0
836.77771	108.0
837.249939	56.0
838.246582	104.0
839.468689	52.0
840.108948	144.0
840.264709	32.0
841.984924	48.0
843.03064	140.0
843.313843	44.0
843.73584	64.0
845.41333	36.0
846.003723	96.0
846.322144	48.0
847.544373	80.0
848.680481	184.0
849.86377	68.0
850.159729	208.0
851.663452	72.0
851.79126	164.0
852.906982	132.0
853.354614	96.0
853.587219	176.0
853.912903	160.0
854.610962	48.0
857.05658	192.0
857.208069	84.0
857.930847	88.0
858.064941	220.0
858.846375	128.0
859.634033	64.0
859.797424	88.0
860.311096	100.0
860.667297	88.0
862.273804	88.0
862.560242	128.0
862.758972	92.0
863.788269	104.0
865.210327	52.0
867.254822	252.0
867.577209	72.0
867.630005	52.0
868.42749	204.0
868.703186	36.0
868.826416	108.0
869.01416	80.0
869.565796	168.0
870.710693	68.0
873.567383	104.0
877.189087	228.0
877.283447	124.0
879.552551	80.0
880.948242	124.0
881.060486	60.0
881.515503	48.0
884.005127	72.0
884.401672	76.0
886.036133	128.0
887.172791	240.0
887.950867	200.0
888.027954	48.0
888.733948	212.0
889.618286	120.0
890.330811	48.0
890.378296	64.0
891.031738	100.0
891.168396	76.0
891.417969	40.0
893.380127	156.0
894.135803	140.0
895.034729	136.0
895.261047	140.0
896.86377	100.0
899.112366	120.0
899.321289	116.0
899.960083	112.0
901.788147	144.0
901.830017	176.0
902.344116	136.0
902.493591	76.0
902.936096	44.0
903.522339	108.0
906.238464	192.0
906.911804	148.0
907.859131	152.0
907.949097	44.0
908.608948	100.0
908.908936	60.0
908.99292	192.0
909.737183	168.0
910.782104	120.0
910.850525	256.0
910.968323	68.0
911.058411	168.0
911.725403	116.0
913.144287	40.0
914.305481	80.0
914.949585	120.0
915.919189	64.0
916.431274	68.0
916.877197	188.0
917.256897	100.0
919.530945	200.0
920.219116	196.0
920.895508	148.0
921.131104	52.0
921.233765	48.0
922.067627	64.0
922.829346	124.0
923.609497	172.0
925.037598	44.0
925.2677	72.0
925.770264	44.0
927.703125	92.0
928.734009	148.0
928.812866	48.0
930.469666	32.0
930.773254	168.0
931.423096	180.0
931.89093	60.0
931.994202	92.0
932.978821	204.0
933.106506	88.0
934.899719	96.0
935.55835	96.0
936.088074	124.0
936.307312	196.0
936.80072	60.0
937.080994	192.0
937.16626	108.0
937.720825	212.0
938.617065	100.0
942.077759	216.0
942.450439	60.0
943.10437	52.0
943.176086	104.0
943.856384	144.0
944.602539	76.0
944.737122	40.0
945.397949	148.0
946.150879	76.0
947.9823	112.0
948.840454	136.0
948.938599	124.0
949.815552	148.0
950.37384	172.0
951.28833	224.0
952.154114	120.0
952.307678	72.0
952.965027	124.0
954.981445	64.0
956.132019	172.0
956.31665	108.0
957.11084	60.0
957.197021	132.0
958.348938	164.0
959.076172	56.0
960.543762	96.0
960.889221	96.0
961.73468	152.0
961.907532	188.0
962.852234	112.0
962.907837	112.0
963.099304	132.0
963.593506	140.0
964.359802	164.0
964.724548	136.0
964.934753	108.0
966.245972	120.0
966.740967	184.0
967.359924	96.0
967.649292	180.0
967.880005	168.0
969.459717	164.0
969.521667	152.0
969.62085	184.0
970.680969	136.0
970.891785	44.0
971.133667	156.0
971.344604	288.0
971.505859	44.0
971.707092	168.0
971.934021	164.0
972.480103	132.0
973.119568	52.0
973.218872	100.0
973.299622	56.0
974.467346	48.0
975.785034	152.0
976.313599	148.0
976.437988	204.0
977.147156	88.0
977.800537	68.0
978.012146	76.0
979.519104	128.0
979.880432	136.0
980.142151	76.0
981.126953	52.0
981.962524	168.0
982.099792	124.0
982.698669	256.0
983.150635	168.0
983.859558	44.0
984.103088	68.0
985.00238	48.0
985.127319	96.0
985.356262	344.0
985.708618	120.0
985.833374	180.0
987.890503	188.0
988.178345	188.0
988.628845	196.0
988.678955	68.0
988.804138	164.0
989.148376	140.0
989.574097	196.0
990.479797	104.0
990.688904	160.0
990.952087	144.0
991.052307	112.0
991.190186	196.0
991.490967	136.0
992.688416	32.0
993.108582	164.0
993.227783	196.0
994.344666	160.0
994.389343	172.0
994.489014	44.0
994.595764	192.0
994.928467	132.0
995.493591	92.0
996.272461	116.0
996.460938	232.0
996.567749	92.0
996.96991	44.0
997.221313	56.0
998.075806	192.0
998.648621	52.0
999.227356	112.0
999.988831	144.0
1000.234314	96.0
1000.290955	52.0
1000.654541	168.0
1000.863892	136.0
1000.977234	76.0
1001.361389	92.0
1001.487366	88.0
1001.63855	164.0
1002.690857	208.0
1003.163147	108.0
1004.084229	140.0
1004.500488	56.0
1006.450745	120.0
1008.491333	160.0
1008.95282	156.0
1009.642029	104.0
1011.033875	104.0
1011.483276	200.0
1011.856812	104.0
1012.381165	272.0
1012.718079	96.0
1013.161499	88.0
1013.319885	168.0
1013.605042	40.0
1014.067688	132.0
1015.076843	184.0
1015.291321	192.0
1015.849548	180.0
1016.014465	112.0
1016.445923	152.0
1017.429749	120.0
1017.575806	108.0
1017.867859	132.0
1018.109192	140.0
1018.312439	96.0
1019.042969	180.0
1019.570435	56.0
1019.653625	168.0
1019.837341	76.0
1020.600281	44.0
1021.253845	188.0
1021.306213	80.0
1022.025085	56.0
1022.873962	140.0
1022.954346	224.0
1023.883972	76.0
1024.259766	84.0
1024.501831	160.0
1024.973389	216.0
1025.617065	228.0
1025.661621	184.0
1025.891113	148.0
1026.10791	196.0
1026.41394	48.0
1026.854004	160.0
1026.955078	148.0
1029.196167	200.0
1029.279175	144.0
1029.3302	196.0
1029.636841	100.0
1029.700684	88.0
1030.588623	100.0
1031.464233	160.0
1031.560059	72.0
1031.675171	236.0
1031.918091	260.0
1032.065186	240.0
1033.158936	228.0
1034.163574	136.0
1034.205444	132.0
1034.516846	84.0
1034.605347	156.0
1035.015015	260.0
1035.168701	52.0
1035.402466	224.0
1035.501831	96.0
1035.847656	116.0
1036.427612	148.0
1036.962646	116.0
1037.180542	140.0
1038.418091	168.0
1038.604126	156.0
1039.027466	100.0
1039.655396	120.0
1040.163452	144.0
1040.985229	164.0
1041.177856	144.0
1041.306396	96.0
1042.539917	144.0
1043.092651	96.0
1044.082886	148.0
1044.314453	124.0
1044.526733	224.0
1044.925537	104.0
1045.311646	112.0
1045.858765	100.0
1046.135498	180.0
1046.264282	140.0
1046.322266	48.0
1046.553955	44.0
1046.714966	48.0
1047.197998	192.0
1047.391235	200.0
1047.442749	140.0
1047.558716	40.0
1048.273926	36.0
1048.460815	132.0
1049.814697	152.0
1050.608032	192.0
1051.750244	92.0
1051.814819	188.0
1052.034302	76.0
1052.111816	56.0
1052.428223	116.0
1052.546753	196.0
1052.822144	88.0
1053.151489	144.0
1053.524902	176.0
1054.831543	296.0
1055.28418	228.0
1055.814453	156.0
1056.118408	176.0
1056.3125	212.0
1056.661865	112.0
1056.78479	148.0
1057.050049	168.0
1057.690796	112.0
1057.800903	124.0
1058.001587	148.0
1058.687866	148.0
1058.746216	152.0
1058.914551	96.0
1059.044189	76.0
1059.536499	184.0
1060.339966	136.0
1060.625244	148.0
1060.683472	172.0
1061.1698	36.0
1061.831177	128.0
1062.973022	128.0
1063.206665	196.0
1063.303955	152.0
1063.725952	132.0
1063.829834	224.0
1063.979126	184.0
1064.27124	172.0
1064.446655	80.0
1064.553467	176.0
1065.48584	228.0
1065.927734	60.0
1066.525635	176.0
1066.675171	204.0
1067.123779	116.0
1067.175781	196.0
1068.307495	172.0
1068.984009	148.0
1069.342041	144.0
1069.433228	152.0
1069.621948	120.0
1070.331665	148.0
1070.468384	104.0
1070.950317	124.0
1071.862427	152.0
1072.129639	44.0
1073.009644	88.0
1073.520752	216.0
1074.131348	256.0
1074.190063	180.0
1074.340088	120.0
1074.809937	104.0
1076.245972	152.0
1076.513672	216.0
1077.480469	116.0
1078.166504	176.0
1078.336548	180.0
1079.238647	136.0
1079.971191	140.0
1080.067505	120.0
1080.324341	128.0
1080.409424	124.0
1081.233887	188.0
1082.752808	152.0
1083.466919	180.0
1084.29248	148.0
1085.151245	192.0
1085.406982	116.0
1085.60376	156.0
1085.774292	40.0
1085.910522	124.0
1086.541748	152.0
1087.259155	196.0
1087.467041	60.0
1087.585205	168.0
1087.795288	208.0
1088.044678	168.0
1088.202271	156.0
1088.412354	176.0
1089.05603	236.0
1089.634155	172.0
1089.739258	192.0
1090.074341	172.0
1090.46875	108.0
1090.633057	64.0
1091.757324	148.0
1092.526978	144.0
1093.369141	164.0
1093.84314	64.0
1094.376343	108.0
1095.357666	156.0
1095.581665	152.0
1095.878174	124.0
1096.31311	136.0
1096.846924	76.0
1097.644775	32.0
1097.94812	156.0
1098.297729	136.0
1098.469238	80.0
1098.733032	144.0
1098.93103	116.0
1099.062988	136.0
1099.227905	60.0
1099.643677	128.0
1100.706665	160.0
1100.917969	132.0
1100.977417	100.0
1101.710571	204.0
1103.587646	84.0
1104.222534	84.0
1104.288696	52.0
1104.335815	144.0
1104.917114	140.0
1105.330322	152.0
1105.552368	144.0
1106.32019	196.0
1106.618042	156.0
1107.909058	148.0
1108.028809	128.0
1108.081909	164.0
1108.181274	164.0
1108.340332	148.0
1109.407349	116.0
1110.687256	136.0
1111.808594	188.0
1113.501587	172.0
1113.793823	64.0
1113.993164	148.0
1114.278809	212.0
1115.0896	104.0
1115.275635	168.0
1115.501709	216.0
1115.687866	48.0
1116.026123	160.0
1116.246338	48.0
1116.492432	176.0
1116.758423	140.0
1117.17749	60.0
1117.609985	164.0
1117.995972	172.0
1118.355347	220.0
1118.548462	96.0
1118.594971	140.0
1119.920166	68.0
1120.192261	116.0
1120.286499	136.0
1120.493042	88.0
1120.799561	140.0
1121.032837	132.0
1121.158569	148.0
1121.672607	184.0
1121.965942	88.0
1122.372681	196.0
1123.219727	140.0
1124.000366	124.0
1124.44751	76.0
1124.727783	156.0
1125.088257	100.0
1125.188477	192.0
1125.675903	192.0
1125.822754	204.0
1126.109985	116.0
1126.357178	104.0
1126.477417	180.0
1126.811401	132.0
1126.858154	160.0
1127.192261	128.0
1127.670654	200.0
1127.807129	116.0
1128.535889	104.0
1128.830078	72.0
1128.937134	180.0
1129.151123	224.0
1129.385254	44.0
1129.485596	196.0
1129.592529	60.0
1130.415527	100.0
1130.837158	92.0
1131.352661	180.0
1132.069092	128.0
1132.36377	124.0
1132.993408	80.0
1133.060425	172.0
1133.315063	100.0
1133.516113	156.0
1133.831055	128.0
1134.018677	120.0
1134.307007	64.0
1134.805786	172.0
1134.856689	164.0
1135.010986	172.0
1135.567627	160.0
1135.634644	112.0
1136.030396	140.0
1136.459839	116.0
1136.547119	188.0
1136.640991	120.0
1137.251709	228.0
1137.72168	184.0
1137.782104	188.0
1138.050659	176.0
1138.10437	148.0
1138.74231	64.0
1139.004272	248.0
1139.353638	196.0
1139.400635	132.0
1139.542847	156.0
1139.609009	224.0
1139.823975	412.0
1140.146606	144.0
1140.207031	168.0
1140.334717	92.0
1140.435547	88.0
1140.697754	196.0
1140.845581	144.0
1141.081299	192.0
1141.316284	136.0
1141.444092	84.0
1142.035889	160.0
1142.183838	48.0
1143.575073	100.0
1143.792114	232.0
1143.839233	72.0
1143.933472	140.0
1144.270142	200.0
1144.546143	168.0
1145.145508	32.0
1145.22644	148.0
1145.279907	192.0
1145.44873	184.0
1145.940552	156.0
1146.681763	116.0
1146.85022	144.0
1147.039062	116.0
1147.382812	48.0
1147.537964	152.0
1147.955933	124.0
1148.374146	100.0
1148.792358	180.0
1149.163452	144.0
1149.522583	180.0
1149.804565	152.0
1149.953003	144.0
1150.088013	136.0
1150.945435	88.0
1150.992676	44.0
1151.532959	124.0
1151.870728	132.0
1152.262573	128.0
1152.411133	124.0
1152.762573	180.0
1152.972046	208.0
1153.607422	184.0
1153.817017	120.0
1153.87793	104.0
1154.107788	104.0
1154.378296	152.0
1154.4729	180.0
1154.723145	168.0
1155.156128	48.0
1155.568848	192.0
1155.832642	112.0
1155.920654	152.0
1156.204834	156.0
1156.306396	236.0
1156.71936	100.0
1156.915649	180.0
1157.071289	112.0
1157.572388	88.0
1157.619873	80.0
1157.897461	184.0
1158.222656	144.0
1158.90686	80.0
1159.950562	64.0
1160.079346	112.0
1160.227661	144.0
1160.254395	124.0
1160.384521	216.0
1160.789429	180.0
1160.893066	148.0
1160.940552	60.0
1161.015137	120.0
1161.150757	148.0
1161.218628	140.0
1161.951172	144.0
1162.100464	88.0
1162.270142	220.0
1162.806274	228.0
1163.023438	40.0
1163.267212	200.0
1163.342529	92.0
1163.437622	144.0
1163.614136	196.0
1164.109741	168.0
1164.170898	100.0
1164.517334	156.0
1165.114136	144.0
1165.400391	196.0
1165.583862	204.0
1165.719849	156.0
1166.052856	132.0
1166.688721	144.0
1166.992065	152.0
1167.093018	168.0
1167.174561	144.0
1168.255981	60.0
1168.643799	60.0
1168.779907	156.0
1169.018066	156.0
1169.195068	164.0
1169.460449	96.0
1169.521729	100.0
1169.882568	188.0
1170.243408	160.0
1170.393188	160.0
1170.63147	128.0
1170.692749	184.0
1171.302368	172.0
1171.448853	104.0
1172.177856	128.0
1173.410522	148.0
1173.50708	144.0
1173.738892	124.0
1173.834351	224.0
1175.996948	172.0
1176.324829	188.0
1176.461304	48.0
1176.642456	168.0
1177.055298	60.0
1177.403687	144.0
1177.547119	160.0
1177.635864	176.0
1177.806641	184.0
1178.202881	124.0
1178.359985	60.0
1178.93396	172.0
1179.350952	184.0
1179.518555	176.0
1179.610718	160.0
1180.082397	196.0
1180.383301	32.0
1180.916748	180.0
1181.162964	184.0
1181.265625	168.0
1181.388672	168.0
1181.744507	136.0
1182.09668	136.0
1182.408325	184.0
1182.777954	176.0
1183.179932	184.0
1183.318726	172.0
1183.626831	148.0
1184.044678	132.0
1184.777588	84.0
1184.996216	172.0
1185.2229	68.0
1185.29834	172.0
1185.709351	176.0
1186.107056	160.0
1186.285278	256.0
1186.570679	220.0
1186.628052	44.0
1187.128662	148.0
1187.272705	120.0
1187.505859	148.0
1187.842041	160.0
1188.795654	168.0
1189.152588	168.0
1189.406616	152.0
1189.461426	216.0
1189.835083	152.0
1189.955811	156.0
1190.05188	132.0
1190.395264	220.0
1191.054565	88.0
1191.288208	88.0
1191.528564	228.0
1191.782837	156.0
1192.263916	76.0
1192.449463	196.0
1192.504639	144.0
1192.607544	136.0
1192.889404	116.0
1193.70752	60.0
1193.948242	36.0
1194.670532	232.0
1195.213135	148.0
1195.233398	128.0
1195.803345	148.0
1196.067505	128.0
1196.260254	60.0
1197.017578	120.0
1197.072754	116.0
1197.182861	136.0
1197.685669	72.0
1198.27124	204.0
1198.912109	96.0
1199.201538	148.0
1199.256714	196.0
1199.339478	184.0
1199.580688	108.0
1199.918579	152.0
1200.035767	160.0
1200.111572	72.0
1200.525391	196.0
1200.61499	184.0
1200.7323	208.0
1200.904663	156.0
1200.966797	120.0
1201.201294	156.0
1201.477295	148.0
1201.732544	148.0
1201.870483	140.0
1201.918823	184.0
1201.973999	156.0
1202.043091	64.0
1202.236328	208.0
1202.450195	172.0
1202.657349	56.0
1202.712524	128.0
1202.781494	160.0
1202.947266	56.0
1203.168091	124.0
1203.720581	164.0
1204.231567	160.0
1204.818726	208.0
1204.894775	116.0
1206.435913	232.0
1206.546631	116.0
1207.307251	128.0
1207.355591	136.0
1207.5354	132.0
1208.192627	128.0
1208.286987	148.0
1208.44165	148.0
1209.618286	136.0
1209.673584	124.0
1210.026733	220.0
1210.179077	172.0
1210.359009	104.0
1210.483643	136.0
1211.335571	176.0
1211.924561	200.0
1212.340332	120.0
1212.555176	128.0
1213.518799	156.0
1213.608887	132.0
1214.087402	192.0
1214.808716	140.0
1215.280518	148.0
1215.433228	196.0
1215.724609	140.0
1215.917114	196.0
1216.314575	172.0
1216.464111	68.0
1216.988037	172.0
1217.161621	96.0
1217.467163	72.0
1217.534546	188.0
1217.717285	152.0
1217.786743	216.0
1218.060059	196.0
1218.342407	32.0
1218.469971	192.0
1218.557861	184.0
1218.801025	116.0
1219.857422	96.0
1219.920044	260.0
1220.288452	100.0
1220.949097	52.0
1221.051636	188.0
1221.234253	156.0
1222.020386	164.0
1222.173462	84.0
1222.291748	68.0
1222.396118	108.0
1222.938965	52.0
1223.154785	168.0
1223.354248	148.0
1223.746582	160.0
1224.052979	68.0
1224.194336	208.0
1224.90271	72.0
1225.090698	156.0
1225.292847	140.0
1226.289307	156.0
1226.713013	192.0
1226.805176	176.0
1227.077026	160.0
1227.272339	76.0
1227.383911	96.0
1228.074341	52.0
1228.395142	144.0
1228.69519	236.0
1229.057983	168.0
1229.316162	180.0
1229.438721	216.0
1229.688477	172.0
1229.763184	192.0
1230.328247	144.0
1230.391113	164.0
1230.614502	56.0
1231.019531	144.0
1231.197021	196.0
1232.123169	164.0
1232.556396	180.0
1233.143433	216.0
1233.534912	164.0
1233.926392	168.0
1234.164185	156.0
1234.380005	120.0
1234.702637	160.0
1234.772583	112.0
1235.283203	172.0
1235.430054	52.0
1235.640015	200.0
1235.709961	104.0
1235.898804	216.0
1236.087769	84.0
1236.489136	144.0
1236.619751	88.0
1236.682739	200.0
1237.046631	216.0
1237.711792	136.0
1237.865845	152.0
1239.007568	128.0
1239.163574	184.0
1239.224854	144.0
1239.421021	84.0
1239.645264	252.0
1240.009644	140.0
1240.086792	196.0
1240.352051	172.0
1240.437256	176.0
1240.7948	112.0
1241.033203	120.0
1241.152466	136.0
1241.292725	148.0
1241.538086	124.0
1241.860718	136.0
1242.148315	148.0
1242.428467	164.0
1243.291992	188.0
1243.348145	84.0
1243.586792	88.0
1244.148438	164.0
1244.578979	188.0
1244.759277	144.0
1245.089355	148.0
1245.21582	152.0
1245.286011	160.0
1245.623169	152.0
1245.876099	180.0
1246.189575	188.0
1246.487427	188.0
1246.7052	120.0
1246.782593	80.0
1247.162109	96.0
1247.223267	152.0
1247.365967	392.0
1247.415161	188.0
1247.478394	184.0
1247.851074	220.0
1247.977661	112.0
1248.111206	168.0
1248.230713	144.0
1248.526123	204.0
1248.94812	136.0
1249.011475	136.0
1249.328003	128.0
1249.398315	184.0
1249.591675	188.0
1250.185669	72.0
1250.482056	204.0
1250.55896	156.0
1250.635986	160.0
1250.688599	216.0
1250.77063	156.0
1250.918457	132.0
1251.129639	64.0
1251.481689	128.0
1251.716187	192.0
1251.777466	164.0
1251.883057	216.0
1252.10144	144.0
1252.481812	44.0
1252.848145	96.0
1253.02417	192.0
1253.112549	156.0
1253.439941	56.0
1253.771118	136.0
1253.954468	124.0
1254.299805	112.0
1254.511353	256.0
1254.638184	152.0
1254.955444	136.0
1255.166992	104.0
1255.484375	124.0
1255.547852	164.0
1255.646606	144.0
1256.006348	136.0
1256.055664	204.0
1256.189697	148.0
1256.376221	228.0
1256.517822	136.0
1256.775269	224.0
1257.18457	116.0
1257.622192	192.0
1257.932739	116.0
1258.047607	208.0
1258.158691	108.0
1258.780029	180.0
1258.935425	32.0
1259.175537	184.0
1259.479248	72.0
1259.825439	48.0
1259.966675	192.0
1260.093872	184.0
1260.232178	120.0
1261.295288	100.0
1261.514404	88.0
1261.88208	168.0
1261.988159	136.0
1262.164917	388.0
1262.872192	32.0
1263.21167	144.0
1263.890869	124.0
1264.11731	164.0
1264.237671	160.0
1264.329712	244.0
1265.370239	248.0
1266.212891	160.0
1266.326294	188.0
1266.496216	124.0
1267.7323	172.0
1268.161377	160.0
1269.040527	136.0
1269.302856	128.0
1269.756714	120.0
1269.990723	132.0
1270.246094	112.0
1270.402222	292.0
1270.686035	84.0
1270.827881	108.0
1271.42395	104.0
1271.479492	156.0
1272.020264	148.0
1272.069946	72.0
1272.467529	156.0
1272.566895	152.0
1272.80835	116.0
1273.29126	44.0
1273.890747	196.0
1273.954834	180.0
1274.598389	124.0
1275.14563	260.0
1275.39978	164.0
1275.658936	156.0
1275.728516	64.0
1276.233276	120.0
1276.361328	144.0
1276.411133	124.0
1276.581787	160.0
1276.744751	144.0
1276.880493	264.0
1277.243286	172.0
1277.52063	164.0
1277.598877	120.0
1277.648682	144.0
1278.040039	192.0
1278.111206	204.0
1278.232178	148.0
1279.192993	152.0
1279.463623	180.0
1279.520508	132.0
1279.677124	144.0
1279.904175	144.0
1280.026123	220.0
1280.240601	196.0
1280.353638	176.0
1280.47644	152.0
1280.595825	128.0
1280.645752	180.0
1281.07312	120.0
1281.208496	176.0
1281.293945	116.0
1281.422241	140.0
1282.113403	224.0
1282.161011	112.0
1282.298706	180.0
1282.41272	312.0
1282.662231	164.0
1282.812012	100.0
1282.947388	184.0
1283.161987	168.0
1283.3396	104.0
1283.610474	140.0
1283.674683	216.0
1284.081177	76.0
1284.544922	112.0
1284.669067	196.0
1284.922974	160.0
1284.98584	220.0
1285.087036	132.0
1285.456421	232.0
1285.829224	136.0
1286.086182	108.0
1286.193237	76.0
1286.243286	144.0
1286.429932	192.0
1286.714478	168.0
1286.907227	112.0
1286.958984	160.0
1287.035767	124.0
1287.728516	236.0
1287.821289	124.0
1287.985596	152.0
1288.442871	196.0
1288.585693	112.0
1288.963257	156.0
1289.736328	164.0
1290.30188	176.0
1290.42981	188.0
1291.180664	108.0
1291.502441	164.0
1292.097778	116.0
1292.446899	116.0
1293.62793	184.0
1293.778076	128.0
1293.899902	180.0
1294.021606	76.0
1294.08606	172.0
1294.179077	144.0
1294.537109	160.0
1295.199829	196.0
1295.403809	220.0
1295.86853	152.0
1296.055786	72.0
1296.171875	120.0
1296.363892	148.0
1296.557373	156.0
1296.715088	48.0
1297.023315	120.0
1297.532349	116.0
1297.625488	148.0
1297.711548	412.0
1297.819092	132.0
1298.701294	108.0
1298.808838	152.0
1298.959473	244.0
1299.052979	132.0
1299.210571	120.0
1299.382812	224.0
1299.777344	180.0
1300.030762	156.0
1300.143433	88.0
1300.216431	152.0
1300.55249	152.0
1300.846802	180.0
1300.918579	168.0
1301.013306	216.0
1301.191406	160.0
1301.374634	232.0
1301.593506	260.0
1302.125	164.0
1302.466309	152.0
1302.656494	176.0
1302.749878	120.0
1302.83606	140.0
1303.094727	148.0
1303.281616	196.0
1303.353394	180.0
1303.461182	60.0
1303.540283	144.0
1303.705566	164.0
1303.834961	148.0
1304.036133	132.0
1304.25061	196.0
1304.359619	152.0
1304.460327	180.0
1304.532104	208.0
1305.071411	88.0
1305.229614	108.0
1305.300903	184.0
1305.430908	140.0
1306.01355	152.0
1306.207764	128.0
1306.404907	212.0
1307.150269	124.0
1307.301392	156.0
1307.385498	128.0
1307.949219	156.0
1308.21106	252.0
1308.280273	316.0
1308.633057	64.0
1309.007568	64.0
1309.274048	164.0
1309.410889	140.0
1309.857422	156.0
1309.994263	108.0
1310.138428	156.0
1310.54187	184.0
1310.592285	92.0
1310.862427	184.0
1311.034546	188.0
1311.300415	152.0
1311.810303	184.0
1311.940063	124.0
1312.286133	124.0
1312.581787	176.0
1312.646729	132.0
1312.902954	176.0
1312.963989	224.0
1313.245361	200.0
1313.339111	180.0
1313.483398	44.0
1313.613159	264.0
1313.670898	148.0
1313.721436	168.0
1314.111084	152.0
1314.4646	200.0
1314.529541	92.0
1314.738892	124.0
1315.200806	120.0
1315.857666	140.0
1315.929932	88.0
1316.796509	312.0
1316.955444	56.0
1317.338257	156.0
1317.52478	192.0
1317.612793	144.0
1317.909058	140.0
1318.010254	136.0
1318.234253	352.0
1318.465454	84.0
1318.780518	136.0
1319.021973	156.0
1319.231689	180.0
1320.186157	200.0
1320.381348	164.0
1320.540527	148.0
1320.960083	60.0
1321.010742	96.0
1321.285645	220.0
1321.423096	108.0
1321.697998	176.0
1321.763184	52.0
1321.828247	52.0
1322.04541	136.0
1322.689575	160.0
1322.928467	192.0
1322.979126	188.0
1323.073242	168.0
1323.135986	144.0
1323.254272	272.0
1323.514893	112.0
1324.043579	52.0
1324.282593	144.0
1324.405762	192.0
1324.709961	260.0
1324.862305	136.0
1324.970825	124.0
1325.33313	276.0
1325.499756	76.0
1325.654419	160.0
1326.159302	148.0
1326.543457	144.0
1326.905884	116.0
1327.043701	36.0
1327.312012	152.0
1327.652832	200.0
1328.021973	156.0
1328.124268	72.0
1328.233032	168.0
1328.450684	176.0
1328.740967	124.0
1329.081909	76.0
1329.451172	104.0
1330.039917	52.0
1330.16333	188.0
1330.356323	124.0
1330.475464	156.0
1330.542358	224.0
1331.52124	148.0
1331.804443	152.0
1331.898926	100.0
1332.094971	268.0
1332.67627	164.0
1333.192139	196.0
1333.788208	168.0
1333.969971	60.0
1334.202515	136.0
1334.435181	164.0
1334.627197	176.0
1335.344238	68.0
1335.569702	228.0
1336.333618	112.0
1336.675659	128.0
1336.923096	100.0
1337.10498	76.0
1337.22876	160.0
1337.337891	164.0
1337.403442	320.0
1337.519897	144.0
1338.116821	152.0
1338.895996	292.0
1338.968872	88.0
1339.056274	260.0
1339.333008	172.0
1339.397583	116.0
1339.580688	236.0
1339.682495	124.0
1339.856934	132.0
1340.010498	128.0
1340.331177	100.0
1340.593506	92.0
1341.344238	116.0
1341.453613	116.0
1341.555664	84.0
1341.876465	76.0
1341.934814	136.0
1342.117065	112.0
1342.437866	84.0
1342.637451	204.0
1342.78064	176.0
1342.948486	184.0
1343.188721	176.0
1343.313232	160.0
1344.057373	196.0
1344.188721	248.0
1344.254395	112.0
1344.353638	80.0
1345.181396	184.0
1345.371216	84.0
1346.539551	228.0
1347.284668	108.0
1347.430786	136.0
1347.671875	124.0
1347.737671	184.0
1347.788818	132.0
1347.869141	84.0
1348.008057	124.0
1348.175659	120.0
1348.263794	196.0
1348.388062	252.0
1348.895264	164.0
1348.95813	128.0
1349.235962	180.0
1349.294434	64.0
1349.572266	168.0
1349.623535	184.0
1349.99646	164.0
1350.054932	192.0
1350.252441	84.0
1350.396729	112.0
1350.545044	188.0
1350.705933	92.0
1351.020508	168.0
1351.174194	116.0
1351.56189	148.0
1351.832642	164.0
1352.126831	148.0
1352.213257	36.0
1352.322998	168.0
1352.451904	184.0
1352.945312	148.0
1353.003906	132.0
1353.150269	168.0
1353.208862	180.0
1354.138916	52.0
1355.071655	144.0
1355.486938	184.0
1355.587891	200.0
1355.973389	188.0
1356.212524	192.0
1356.337158	144.0
1356.395752	52.0
1356.571655	112.0
1357.407593	156.0
1357.649536	208.0
1358.096924	120.0
1358.15564	140.0
1358.808594	204.0
1359.420166	148.0
1359.441895	52.0
1359.466675	164.0
1359.541504	184.0
1359.755249	164.0
1359.843262	168.0
1360.423218	152.0
1360.599365	168.0
1360.658081	160.0
1360.705933	156.0
1360.914307	112.0
1361.054565	164.0
1361.1427	120.0
1361.304321	216.0
1361.392456	80.0
1361.614502	84.0
1361.670166	152.0
1361.939453	116.0
1362.104858	136.0
1362.288574	124.0
1362.466919	260.0
1362.677856	536.0
1362.72937	172.0
1362.92041	156.0
1363.049927	208.0
1363.287842	124.0
1363.368652	204.0
1364.390381	104.0
1364.449219	188.0
1364.574219	144.0
1364.927124	96.0
1365.117554	180.0
1365.368408	172.0
1365.537598	136.0
1365.714111	156.0
1365.91272	180.0
1366.096191	144.0
1366.167358	180.0
1366.229004	84.0
1366.331177	140.0
1366.40564	156.0
1367.045776	132.0
1367.178223	140.0
1367.399048	176.0
1367.53894	204.0
1367.840698	44.0
1367.951172	208.0
1368.135132	184.0
1368.297119	172.0
1368.598999	100.0
1368.687378	124.0
1368.754028	168.0
1368.878906	128.0
1369.129272	152.0
1369.616577	196.0
1369.806885	124.0
1369.887939	172.0
1370.013184	196.0
1370.086792	68.0
1370.226807	136.0
1370.307861	128.0
1370.587891	104.0
1370.88269	64.0
1371.818726	204.0
1372.895264	164.0
1373.138672	120.0
1373.418945	168.0
1373.839355	120.0
1374.09021	132.0
1374.292969	320.0
1374.392822	184.0
1375.342285	360.0
1375.713989	184.0
1376.068359	76.0
1376.238159	196.0
1376.422729	96.0
1377.109619	200.0
1377.161255	180.0
1377.279419	104.0
1377.486328	132.0
1377.589722	176.0
1377.818726	324.0
1377.951782	228.0
1378.023315	212.0
1378.106934	204.0
1378.358154	184.0
1378.602051	144.0
1378.665649	208.0
1378.764648	184.0
1378.860718	208.0
1379.47644	176.0
1379.666382	188.0
1379.755127	140.0
1379.932617	220.0
1380.043457	144.0
1380.280151	104.0
1380.49231	160.0
1380.738647	116.0
1380.834717	156.0
1380.947754	148.0
1381.024048	192.0
1381.196655	160.0
1381.381226	132.0
1381.581909	196.0
1381.700317	176.0
1381.907471	244.0
1381.959229	124.0
1382.092407	52.0
1382.380981	136.0
1382.839844	188.0
1383.206177	176.0
1383.728271	208.0
1384.016968	80.0
1384.187256	92.0
1384.239136	152.0
1384.750122	120.0
1385.053833	148.0
1385.431641	148.0
1385.751343	84.0
1386.044434	132.0
1386.224731	204.0
1386.557983	188.0
1386.854492	180.0
1386.913574	128.0
1387.062012	148.0
1387.173218	56.0
1387.620361	180.0
1387.843872	164.0
1387.964111	196.0
1388.389282	312.0
1388.500488	152.0
1388.589478	156.0
1388.715576	148.0
1388.805786	96.0
1389.123535	168.0
1389.234863	160.0
1389.290405	152.0
1389.368408	160.0
1389.553833	108.0
1389.806152	92.0
1389.95459	104.0
1390.13269	136.0
1390.875366	132.0
1390.993652	128.0
1391.090088	192.0
1391.149536	144.0
1391.340088	160.0
1391.409424	188.0
1391.535645	68.0
1392.192383	180.0
1392.594116	172.0
1392.760986	232.0
1393.01355	104.0
1393.065552	120.0
1393.243896	116.0
1393.637573	144.0
1393.858521	148.0
1394.239502	140.0
1394.473877	176.0
1394.953125	188.0
1395.296753	184.0
1395.454346	156.0
1395.518188	204.0
1396.380859	212.0
1396.497803	164.0
1396.827148	168.0
1396.886597	152.0
1397.154419	180.0
1397.26355	200.0
1397.638062	128.0
1397.801758	164.0
1397.861328	112.0
1397.957153	132.0
1398.248291	148.0
1398.449219	44.0
1399.476685	148.0
1399.627441	204.0
1400.425049	180.0
1400.639404	208.0
1400.891724	184.0
1400.973633	176.0
1401.182251	60.0
1401.636841	164.0
1402.329956	176.0
1402.583374	44.0
1402.668091	152.0
1403.313965	60.0
1403.403442	324.0
1403.574951	112.0
1403.634644	132.0
1403.873169	220.0
1404.067139	160.0
1404.126831	320.0
1404.365479	96.0
1404.581787	156.0
1405.021973	144.0
1405.096558	112.0
1405.215942	172.0
1405.387573	168.0
1405.454712	116.0
1405.827759	144.0
1405.924805	140.0
1406.195557	176.0
1406.46228	164.0
1406.589111	124.0
1406.738403	128.0
1407.134155	88.0
1407.395508	164.0
1407.4552	176.0
1407.559692	148.0
1407.641846	44.0
1408.022705	140.0
1408.127319	108.0
1408.583008	180.0
1408.739868	184.0
1408.814575	172.0
1408.904175	152.0
1409.143311	144.0
1409.404785	168.0
1409.943481	156.0
1410.050659	196.0
1410.40625	52.0
1410.533325	108.0
1410.630493	152.0
1410.767456	188.0
1410.922119	84.0
1411.079102	96.0
1411.318359	112.0
1411.460449	160.0
1411.692261	132.0
1412.11853	112.0
1412.170898	152.0
1412.275635	236.0
1412.462646	220.0
1412.544922	168.0
1412.799316	136.0
1412.911499	204.0
1413.061157	192.0
1413.95166	92.0
1414.670044	228.0
1414.992188	152.0
1415.182495	144.0
1415.261719	180.0
1415.366577	164.0
1415.868286	156.0
1416.446777	140.0
1416.699829	128.0
1416.971558	144.0
1417.276733	156.0
1417.33667	144.0
1417.56665	144.0
1417.966187	152.0
1418.041138	84.0
1418.318481	124.0
1418.438354	176.0
1418.498413	128.0
1418.640747	152.0
1418.910645	192.0
1419.120605	156.0
1419.233154	176.0
1419.983032	180.0
1420.065552	200.0
1420.268066	128.0
1420.320557	112.0
1420.876587	164.0
1420.980713	60.0
1421.10083	160.0
1421.276123	136.0
1421.378418	60.0
1421.798706	180.0
1422.249023	48.0
1422.505737	228.0
1422.699463	204.0
1423.104858	184.0
1423.315186	124.0
1423.367676	208.0
1423.465332	148.0
1423.593018	116.0
1424.148804	160.0
1424.329102	192.0
1424.516846	32.0
1424.937622	172.0
1425.057861	156.0
1425.230591	120.0
1425.358398	48.0
1425.478638	80.0
1425.636475	60.0
1425.704102	152.0
1425.771729	128.0
1425.959595	180.0
1426.012207	52.0
1426.170044	132.0
1426.39563	140.0
1426.628662	172.0
1426.944336	48.0
1427.042114	160.0
1427.342896	40.0
1427.523438	44.0
1427.718872	192.0
1427.94458	144.0
1428.013916	164.0
1428.102539	164.0
1428.275513	188.0
1428.538818	88.0
1428.65918	168.0
1429.020264	136.0
1429.072754	116.0
1429.128662	188.0
1429.276123	152.0
1429.38147	124.0
1429.584717	224.0
1429.780396	124.0
1429.968506	80.0
1430.053467	252.0
1430.108765	88.0
1430.128906	128.0
1430.478638	168.0
1430.623413	224.0
1430.706177	172.0
1430.789062	224.0
1431.316162	152.0
1431.45166	36.0
1431.655029	164.0
1431.881104	172.0
1431.993896	132.0
1432.265015	164.0
1432.438354	164.0
1432.656738	64.0
1432.837646	128.0
1433.086304	140.0
1433.256104	140.0
1433.349976	188.0
1433.681519	148.0
1433.794678	172.0
1434.261963	172.0
1434.367432	120.0
1434.457886	176.0
1434.744385	148.0
1435.08374	136.0
1435.619141	256.0
1436.026367	176.0
1436.207397	200.0
1436.260254	232.0
1436.312988	168.0
1436.373291	180.0
1436.479004	128.0
1436.569458	256.0
1436.63269	144.0
1436.697754	100.0
1436.924072	196.0
1437.00708	96.0
1437.08252	128.0
1437.256104	120.0
1437.541382	168.0
1437.563721	136.0
1438.161743	164.0
1438.418335	148.0
1438.516479	168.0
1438.622192	148.0
1438.682617	88.0
1438.961914	164.0
1439.316772	40.0
1439.437622	124.0
1439.505615	100.0
1439.656616	132.0
1439.928589	180.0
1440.140015	88.0
1440.404419	124.0
1440.56311	132.0
1440.643555	208.0
1440.835083	176.0
1441.008789	168.0
1441.175049	124.0
1441.545288	240.0
1441.983643	152.0
1442.210449	92.0
1442.338867	196.0
1442.527954	88.0
1442.625366	144.0
1442.951294	172.0
1443.079834	132.0
1443.268799	160.0
1443.813354	248.0
1443.881348	104.0
1443.989746	132.0
1444.205078	192.0
1444.39502	212.0
1444.826904	136.0
1445.114502	288.0
1445.417114	156.0
1445.545776	120.0
1445.62146	240.0
1445.787964	52.0
1445.871216	212.0
1445.954468	136.0
1446.204224	200.0
1446.365112	144.0
1446.514648	132.0
1446.798096	212.0
1447.147339	228.0
1447.272705	160.0
1447.567627	108.0
1447.688232	148.0
1447.88208	120.0
1448.278931	160.0
1448.347168	52.0
1448.506226	160.0
1448.752075	308.0
1449.036499	212.0
1449.241089	224.0
1449.422974	224.0
1449.544189	172.0
1449.741211	128.0
1450.203613	108.0
1450.43103	140.0
1450.499268	180.0
1450.59021	180.0
1450.794922	140.0
1450.931274	188.0
1450.984375	148.0
1451.090576	156.0
1451.712402	104.0
1451.795776	156.0
1451.87915	172.0
1452.068848	204.0
1452.121948	96.0
1452.262573	160.0
1452.853394	196.0
1453.051147	208.0
1453.417114	196.0
1453.578491	180.0
1453.639282	208.0
1453.866943	196.0
1453.920044	132.0
1454.026245	124.0
1454.284302	124.0
1454.337524	156.0
1454.887207	140.0
1455.002441	60.0
1455.142212	204.0
1455.468018	124.0
1455.493408	112.0
1455.508667	152.0
1455.620605	156.0
1455.714355	216.0
1455.810425	84.0
1456.083862	136.0
1456.213013	88.0
1456.668701	112.0
1456.972656	116.0
1457.056152	136.0
1457.139771	128.0
1457.24231	160.0
1457.304688	136.0
1457.990845	216.0
1458.044067	92.0
1458.431641	172.0
1458.606445	184.0
1458.674927	156.0
1459.033447	220.0
1459.273804	188.0
1459.354248	124.0
1459.549316	148.0
1460.142456	204.0
1460.241333	172.0
1461.169434	152.0
1461.424438	112.0
1461.667358	176.0
1462.234741	148.0
1462.301758	180.0
1462.70166	144.0
1463.186279	156.0
1463.422363	196.0
1463.643188	132.0
1463.932495	112.0
1464.237183	148.0
1464.564697	168.0
1464.686523	132.0
1464.838867	112.0
1464.998901	188.0
1465.249756	180.0
1465.338135	168.0
1465.864136	364.0
1466.018188	140.0
1466.324829	188.0
1466.759277	136.0
1466.82019	72.0
1467.064209	176.0
1467.414917	172.0
1467.651245	136.0
1467.895264	92.0
1468.181519	192.0
1468.261353	96.0
1468.673218	124.0
1468.940186	140.0
1469.34082	128.0
1469.434204	124.0
1469.489502	120.0
1469.608887	180.0
1469.970215	116.0
1470.473999	128.0
1470.550293	128.0
1470.977783	28.0
1471.229736	176.0
1471.321289	120.0
1471.521118	188.0
1471.580933	120.0
1471.664917	136.0
1471.79834	52.0
1471.932129	228.0
1472.261353	184.0
1472.428589	156.0
1472.627075	48.0
1472.925049	76.0
1473.123657	192.0
1473.673706	148.0
1474.028687	276.0
1474.178101	144.0
1474.262085	112.0
1474.510132	172.0
1474.690186	84.0
1475.217651	116.0
1475.500488	160.0
1475.553955	136.0
1475.68396	196.0
1475.836914	144.0
1475.959229	168.0
1476.028076	192.0
1476.196289	56.0
1476.502197	132.0
1476.601685	144.0
1476.674683	268.0
1476.961182	336.0
1477.160034	168.0
1477.557861	160.0
1478.789917	84.0
1478.996582	148.0
1479.06543	140.0
1479.172607	168.0
1479.379272	124.0
1479.700928	208.0
1480.121948	104.0
1480.178589	256.0
1480.267456	76.0
1480.512573	120.0
1480.640015	124.0
1480.75	212.0
1481.056396	136.0
1481.125366	148.0
1481.240234	120.0
1481.600342	212.0
1481.68457	148.0
1482.117554	148.0
1482.481689	176.0
1482.565796	128.0
1482.772705	192.0
1482.956665	172.0
1483.063965	164.0
1483.125244	184.0
1483.232544	116.0
1484.038818	172.0
1484.175659	196.0
1484.33667	128.0
1484.41333	32.0
1484.666382	204.0
1484.743164	136.0
1484.896484	136.0
1484.994385	144.0
1485.425781	224.0
1486.455444	160.0
1486.722534	112.0
1486.829956	48.0
1486.914307	188.0
1487.288208	152.0
1487.315796	108.0
1487.332031	184.0
1487.469849	144.0
1487.574463	236.0
1487.751099	112.0
1488.18103	196.0
1488.586792	224.0
1488.687866	40.0
1488.772339	128.0
1489.109375	164.0
1489.202393	164.0
1489.540405	128.0
1489.65564	100.0
1489.709473	44.0
1489.863037	120.0
1490.262573	136.0
1490.539185	160.0
1490.67749	136.0
1490.969604	144.0
1491.077148	48.0
1491.261597	104.0
1491.392334	192.0
1491.576782	36.0
1491.899658	176.0
1491.999634	136.0
1492.237915	68.0
1492.530151	164.0
1493.076172	140.0
1493.337646	188.0
1493.445312	120.0
1493.499146	108.0
1493.63855	136.0
1493.768433	36.0
1493.994995	156.0
1494.068481	184.0
1494.50708	268.0
1494.637817	128.0
1494.799805	152.0
1494.922607	124.0
1495.210693	172.0
1495.368896	116.0
1495.438232	132.0
1495.499756	180.0
1495.753784	152.0
1496.069458	192.0
1496.170532	192.0
1496.261963	132.0
1496.419922	168.0
1496.662354	116.0
1496.939575	192.0
1497.039673	192.0
1497.401611	188.0
1497.478638	168.0
1498.025513	216.0
1498.380005	132.0
1498.441528	184.0
1498.782104	216.0
1498.873047	116.0
1499.011841	72.0
1499.165894	156.0
1499.240845	200.0
1499.443359	140.0
1499.66687	156.0
1500.525269	196.0
1500.68457	164.0
1500.761597	132.0
1501.039185	184.0
1501.116333	80.0
1501.517334	184.0
1501.814331	136.0
1501.949341	52.0
1502.088135	108.0
1502.145874	160.0
1502.289673	192.0
1502.535645	60.0
1503.484741	152.0
1503.546509	352.0
1503.600464	96.0
1503.886108	120.0
1504.250854	140.0
1504.588623	208.0
1504.80481	72.0
1504.920654	52.0
1505.152222	172.0
END IONS

BEGIN IONS
PEPMASS=186.092
CHARGE=1
MSLEVEL=2
SOURCE_INSTRUMENT=LC-ESI-qTof
FILENAME=p3-F06_GF6_01_18287.mzXML
SEQ=*..*
IONMODE=Positive
ORGANISM=GNPS-NIH-SMALLMOLECULEPHARMACOLOGICALLYACTIVE
NAME=MLS000860042-01!Pirfenidone M+H
PI=Dorrestein
DATACOLLECTOR=VP/LMS
SMILES=Cc1ccc(=O)n(c1)c2ccccc2
INCHI=N/A
INCHIAUX=N/A
PUBMED=N/A
SUBMITUSER=vphelan
LIBRARYQUALITY=1
SPECTRUMID=CCMSLIB00000085154
USI=mzspec:GNPS:GNPS-NIH-SMALLMOLECULEPHARMACOLOGICALLYACTIVE:accession:CCMSLIB00000085154
SCANS=1575
44.932301	180.0
44.962994	88.0
45.048458	148.0
45.186165	180.0
45.410267	128.0
45.615341	200.0
45.643578	112.0
45.68124	180.0
45.817215	120.0
45.852253	36.0
45.946651	48.0
45.984436	192.0
46.197948	176.0
46.42009	224.0
46.429585	152.0
46.661797	68.0
46.849621	84.0
47.002335	188.0
47.063763	164.0
47.10474	160.0
47.122501	152.0
47.242817	232.0
47.493515	216.0
47.810913	232.0
47.831562	200.0
48.094856	136.0
48.254421	196.0
48.405945	116.0
48.417023	72.0
48.458584	176.0
48.515411	204.0
48.527889	36.0
48.598629	180.0
48.672199	152.0
48.769455	168.0
49.091084	136.0
49.28373	184.0
49.459953	164.0
49.541176	284.0
49.625271	108.0
49.771206	148.0
50.350021	68.0
50.487118	84.0
50.613068	248.0
50.638561	44.0
50.71933	164.0
50.756191	112.0
50.841312	220.0
50.905201	204.0
51.02314	224.0
51.068649	96.0
51.196747	136.0
51.278812	180.0
52.118046	228.0
52.130978	148.0
52.341011	144.0
52.410156	128.0
52.443306	148.0
52.612087	60.0
52.636635	352.0
52.759457	108.0
52.892551	128.0
52.902683	184.0
53.162148	84.0
53.188416	204.0
53.307377	80.0
53.647984	104.0
53.700481	68.0
53.891727	220.0
53.901958	140.0
54.00869	180.0
54.330982	232.0
54.596863	96.0
54.608627	160.0
54.621868	192.0
54.673367	152.0
55.137955	140.0
55.148304	40.0
55.392467	208.0
55.450256	164.0
55.678749	204.0
55.808041	160.0
55.837784	180.0
56.138634	168.0
56.852264	156.0
56.891293	148.0
57.28833	140.0
57.583996	104.0
57.597588	188.0
57.706406	224.0
57.726063	156.0
57.751774	184.0
57.871334	156.0
58.404037	164.0
58.553204	120.0
58.608047	140.0
58.632431	164.0
59.237537	148.0
59.718014	156.0
59.774937	148.0
59.890411	156.0
60.350323	168.0
60.922253	168.0
61.001816	184.0
61.52029	204.0
61.632751	140.0
61.704651	172.0
61.781288	192.0
61.818844	196.0
61.873631	112.0
62.471588	228.0
63.074005	116.0
63.232185	224.0
63.271759	128.0
63.295509	136.0
63.401653	160.0
63.857334	160.0
63.911423	48.0
64.292297	44.0
64.567101	192.0
64.860123	212.0
64.988426	228.0
65.007683	112.0
65.08313	188.0
65.113647	232.0
65.37571	152.0
65.420776	268.0
65.609276	164.0
65.723793	128.0
66.179634	72.0
66.369217	148.0
66.430855	184.0
66.476288	28.0
66.827286	204.0
66.859833	48.0
66.890762	172.0
67.188995	184.0
67.329384	116.0
67.411072	160.0
67.676079	148.0
67.913712	152.0
68.191208	140.0
68.372131	192.0
68.545052	152.0
68.723145	52.0
68.802368	188.0
68.903122	120.0
68.957649	128.0
69.773262	184.0
69.784904	168.0
70.134514	124.0
70.256256	184.0
70.490021	72.0
70.533478	216.0
70.81292	196.0
70.915123	160.0
71.106339	124.0
71.19532	180.0
71.853508	176.0
72.079773	140.0
72.552017	192.0
72.591019	112.0
72.663956	116.0
72.874504	124.0
72.922089	72.0
73.073441	172.0
73.17897	100.0
73.279465	180.0
73.424362	148.0
73.444832	152.0
73.641129	164.0
74.019096	128.0
74.036224	52.0
74.513107	148.0
74.544037	208.0
74.643745	160.0
74.991524	144.0
75.190086	164.0
75.224396	28.0
75.407501	196.0
75.552757	196.0
75.6064	152.0
75.698158	156.0
76.133453	204.0
76.338524	152.0
76.455086	196.0
76.812286	168.0
77.196548	216.0
77.371529	116.0
77.56073	192.0
77.681732	192.0
77.701027	208.0
77.960915	176.0
78.078712	136.0
78.152596	136.0
78.191315	220.0
78.441437	196.0
78.492569	168.0
78.573708	60.0
78.611572	176.0
78.646065	176.0
78.665482	172.0
79.408691	136.0
79.508049	200.0
79.70517	72.0
79.821381	260.0
80.462189	220.0
80.665855	136.0
80.717705	132.0
80.801781	216.0
80.925278	216.0
81.163597	220.0
81.40406	156.0
81.979752	148.0
82.004982	184.0
82.062668	116.0
82.216003	228.0
82.344193	220.0
82.499596	188.0
82.778244	80.0
82.805412	152.0
83.66938	232.0
84.03981	176.0
84.251602	212.0
84.536858	188.0
84.861092	60.0
85.334808	132.0
86.347237	188.0
86.817665	92.0
86.875168	116.0
87.055382	196.0
87.179688	176.0
87.453316	148.0
87.840683	116.0
88.188011	176.0
88.444275	132.0
88.744026	228.0
88.813416	176.0
88.999214	156.0
89.179573	192.0
89.469276	156.0
90.697212	224.0
90.712379	104.0
90.87738	120.0
90.966583	124.0
91.058006	220.0
91.455124	200.0
91.599846	192.0
91.767563	244.0
91.899178	148.0
91.969788	180.0
92.007965	180.0
92.048965	2732.0
92.075996	244.0
92.528008	244.0
92.844193	56.0
93.040672	204.0
93.052872	316.0
93.184792	204.0
93.455078	148.0
93.537834	76.0
93.653374	224.0
94.137482	148.0
94.483482	232.0
94.502831	184.0
94.646065	68.0
94.785538	144.0
94.917358	44.0
95.033745	176.0
95.113312	212.0
95.249245	176.0
96.199577	156.0
96.240578	176.0
96.334328	240.0
96.690689	196.0
96.717613	72.0
97.429482	72.0
97.569023	232.0
97.814934	100.0
97.855118	224.0
98.1203	116.0
98.161705	204.0
98.222847	176.0
98.376778	152.0
98.981804	124.0
99.029335	164.0
99.209663	136.0
99.419922	184.0
99.49337	164.0
99.769531	100.0
99.817245	152.0
100.075935	156.0
100.097839	104.0
100.434662	188.0
100.610275	108.0
101.037979	156.0
101.32428	104.0
101.462578	96.0
101.701302	108.0
101.731415	116.0
101.948341	288.0
102.046913	416.0
102.149414	236.0
102.261276	156.0
102.32048	144.0
102.568275	228.0
102.615654	168.0
102.630775	124.0
102.695312	196.0
102.806274	196.0
103.052322	512.0
103.317505	216.0
103.481445	108.0
103.86245	232.0
103.961868	128.0
104.048683	1548.0
104.40699	212.0
104.875092	60.0
105.050461	224.0
105.311752	148.0
105.354652	128.0
105.39756	144.0
105.647003	156.0
105.823021	232.0
105.855782	68.0
106.064766	160.0
106.13858	100.0
106.255493	52.0
106.315002	40.0
106.475143	148.0
106.847214	180.0
106.956284	188.0
107.137505	200.0
107.232292	136.0
107.715141	148.0
107.793655	136.0
107.861862	100.0
108.040642	216.0
108.312973	104.0
108.406212	148.0
108.563774	128.0
108.796173	68.0
109.018425	240.0
109.047409	148.0
109.2742	140.0
109.803329	236.0
109.949371	76.0
109.997383	200.0
110.024521	176.0
110.058891	4876.0
110.112228	144.0
110.149826	164.0
110.179649	188.0
110.23967	120.0
110.266838	48.0
110.423653	52.0
110.448753	52.0
110.54081	76.0
110.561737	32.0
110.815125	184.0
110.97023	156.0
110.995392	40.0
111.061317	336.0
111.453003	184.0
111.673744	156.0
111.865234	168.0
111.983162	196.0
112.040039	48.0
112.328857	216.0
112.685654	160.0
112.784981	236.0
112.899155	156.0
112.922424	76.0
113.192719	184.0
113.411537	116.0
113.443336	168.0
113.663925	60.0
113.7658	220.0
113.916588	96.0
113.986702	180.0
114.156769	172.0
114.362038	108.0
114.61232	104.0
114.633629	168.0
114.780724	104.0
115.052475	5260.0
115.188377	144.0
116.060127	1112.0
116.166702	96.0
116.233215	188.0
116.261116	192.0
116.327652	148.0
116.407097	200.0
116.611198	168.0
117.056129	872.0
117.722916	164.0
117.770432	116.0
117.934647	44.0
118.014641	148.0
118.061859	276.0
118.508148	180.0
118.649033	148.0
118.82254	132.0
119.631027	48.0
119.809608	44.0
120.051559	76.0
120.652046	212.0
120.857643	72.0
121.017433	148.0
121.429428	164.0
121.734489	36.0
122.290733	128.0
122.81736	48.0
123.062332	116.0
123.429138	144.0
123.506546	40.0
123.882874	140.0
124.29306	140.0
125.035324	180.0
125.211212	116.0
125.304771	228.0
125.985245	164.0
126.045723	168.0
126.398895	152.0
126.443649	204.0
126.537674	164.0
126.918587	160.0
127.05378	512.0
127.282104	192.0
127.497772	76.0
128.061584	1376.0
128.083298	140.0
128.193192	72.0
128.21347	176.0
128.782043	168.0
128.881454	48.0
128.928909	84.0
129.049683	300.0
129.066055	724.0
129.431122	160.0
129.619141	144.0
129.75061	32.0
129.850388	92.0
130.064148	896.0
130.336212	120.0
130.697769	188.0
130.725067	148.0
131.07225	1688.0
131.640778	144.0
131.719177	148.0
132.046036	140.0
132.07605	800.0
132.119247	64.0
133.049728	144.0
133.079575	80.0
133.150772	80.0
133.205902	136.0
133.668045	116.0
133.944321	200.0
133.97197	160.0
134.80957	172.0
135.08934	204.0
135.3694	176.0
135.475952	196.0
135.863129	196.0
136.269424	160.0
136.334488	156.0
136.450714	156.0
136.715469	196.0
136.855576	52.0
137.11882	204.0
137.433655	136.0
137.989563	132.0
138.069061	200.0
138.361572	156.0
138.434158	172.0
138.607513	156.0
138.684845	144.0
139.052155	588.0
139.12352	144.0
139.236237	176.0
140.050507	292.0
140.894592	140.0
141.031647	240.0
141.067505	3644.0
141.093811	172.0
141.642151	60.0
142.062927	3312.0
142.353699	96.0
142.439209	64.0
142.750565	160.0
142.909943	148.0
142.969437	208.0
143.012268	200.0
143.040833	212.0
143.071381	9500.0
143.240875	104.0
143.262314	160.0
143.29567	64.0
143.367157	212.0
143.393372	92.0
143.507797	72.0
143.715317	164.0
143.872849	136.0
143.899109	72.0
143.918213	32.0
143.980301	108.0
144.018509	72.0
144.05481	344.0
144.07637	1424.0
144.185776	28.0
144.220627	144.0
144.743179	32.0
144.872528	72.0
145.023483	108.0
145.070236	336.0
145.143356	68.0
145.229706	132.0
145.284882	176.0
145.85643	104.0
145.952591	76.0
146.089691	152.0
146.161865	144.0
146.720673	208.0
147.447266	160.0
148.105392	80.0
148.238647	108.0
148.97142	156.0
149.747391	100.0
150.043442	188.0
150.786789	48.0
151.028854	212.0
151.05069	536.0
151.528259	240.0
152.046585	364.0
152.06337	152.0
152.16597	120.0
152.428787	116.0
152.928055	56.0
153.056259	1784.0
153.874695	148.0
154.061401	828.0
154.366425	156.0
154.693024	108.0
154.764816	48.0
155.059326	176.0
155.3423	88.0
155.769287	124.0
155.876129	56.0
155.948196	216.0
156.079544	1080.0
156.1297	140.0
156.423309	192.0
156.709717	120.0
156.974152	188.0
157.033798	160.0
157.087326	2292.0
157.365707	72.0
157.428131	44.0
157.458939	40.0
158.067581	172.0
158.094727	7844.0
158.138184	300.0
158.233307	68.0
158.528885	48.0
158.641693	52.0
158.774582	108.0
159.073181	144.0
159.097549	796.0
159.31929	44.0
159.341904	164.0
159.457489	48.0
159.60582	76.0
159.849823	64.0
160.077454	124.0
160.1026	140.0
160.217453	72.0
160.364273	76.0
161.267227	156.0
161.307678	152.0
162.322968	104.0
162.680725	136.0
162.949936	208.0
163.40506	156.0
163.471222	280.0
163.593384	40.0
164.097839	172.0
165.055389	200.0
165.597946	136.0
165.946472	148.0
166.064285	888.0
166.246597	152.0
166.300491	84.0
166.564972	120.0
167.071228	3992.0
167.151184	108.0
167.488449	56.0
167.831223	152.0
168.079468	2140.0
168.176926	172.0
168.213074	136.0
168.280197	44.0
168.324097	40.0
168.422241	140.0
168.923721	120.0
169.065353	300.0
169.07373	144.0
169.080368	460.0
169.490738	100.0
169.954895	160.0
170.057434	1432.0
170.101395	36.0
170.523636	132.0
170.560028	36.0
170.786255	156.0
171.066055	1360.0
171.140198	208.0
171.215714	56.0
171.248505	68.0
171.353775	124.0
171.679611	56.0
172.240784	84.0
173.014862	164.0
173.407791	56.0
173.441864	76.0
173.567719	216.0
174.61557	92.0
174.710266	216.0
174.815521	180.0
175.257919	128.0
177.141693	136.0
177.30864	220.0
177.425262	180.0
177.555206	208.0
177.613556	156.0
178.545853	128.0
179.039597	208.0
179.365936	44.0
179.915497	80.0
179.94754	184.0
180.006287	196.0
180.059097	152.0
180.33757	64.0
182.299438	196.0
183.074234	160.0
183.233154	152.0
183.926239	104.0
183.94783	132.0
184.071426	664.0
185.004868	144.0
185.080872	164.0
185.356979	132.0
185.416595	204.0
185.525024	108.0
185.55484	204.0
185.642715	160.0
185.831497	140.0
185.850494	144.0
185.959488	100.0
186.01062	140.0
186.040451	180.0
186.090347	31972.0
186.164307	80.0
186.203415	100.0
186.233292	56.0
186.289856	132.0
186.312073	44.0
186.33606	152.0
186.363693	40.0
186.409882	68.0
186.453369	84.0
186.5186	104.0
186.546509	60.0
186.564819	104.0
186.59201	68.0
186.678558	72.0
186.733414	56.0
186.755173	52.0
186.774216	76.0
186.994614	60.0
187.019104	180.0
187.049057	68.0
187.09314	3504.0
187.215134	40.0
187.247818	144.0
187.62114	72.0
187.741119	60.0
187.847504	88.0
187.891144	84.0
188.093704	288.0
188.303345	80.0
188.327927	108.0
188.357864	96.0
188.401688	56.0
188.472733	72.0
188.494583	88.0
188.535583	152.0
188.658035	40.0
188.811707	112.0
189.337189	60.0
189.381012	52.0
191.058304	104.0
196.667313	84.0
197.044312	124.0
197.115341	48.0
198.435364	44.0
198.684982	88.0
200.287369	72.0
200.760895	48.0
202.278183	124.0
203.403595	56.0
207.847443	64.0
208.556824	40.0
208.919159	136.0
210.386078	40.0
215.039398	132.0
220.52916	48.0
244.641113	64.0
247.075409	76.0
249.308014	76.0
262.291992	56.0
288.703918	84.0
309.957977	104.0
322.99115	64.0
337.644623	68.0
365.418854	88.0
367.064392	92.0
373.995178	76.0
416.498413	84.0
428.827271	52.0
467.357391	88.0
482.976257	68.0
493.527008	56.0
505.11734	52.0
553.942993	68.0
586.926208	108.0
639.308594	68.0
649.951233	160.0
665.951477	44.0
728.439758	164.0
737.190002	124.0
740.002869	172.0
765.036438	48.0
836.188416	188.0
842.271606	196.0
844.479675	144.0
850.337524	128.0
850.639343	180.0
859.509399	188.0
915.393127	148.0
930.856262	176.0
936.609863	276.0
954.063171	192.0
955.028625	196.0
962.312988	128.0
962.664978	208.0
966.175903	160.0
969.123108	212.0
972.72644	144.0
972.782349	76.0
981.436707	212.0
985.837708	144.0
996.270508	192.0
1014.972351	168.0
1015.321106	148.0
1021.132568	176.0
1024.646484	172.0
1028.096191	148.0
1029.845703	64.0
1031.50061	136.0
1038.518799	232.0
1046.249512	160.0
1061.129028	40.0
1064.185059	168.0
1068.708984	156.0
1069.80896	180.0
1073.764282	220.0
1075.05603	228.0
1082.076538	212.0
1086.500488	152.0
1087.360107	100.0
1090.992798	128.0
1102.455444	160.0
1110.950806	44.0
1116.530518	132.0
1122.330933	116.0
1122.764404	124.0
1128.079468	252.0
1128.754761	132.0
1134.352173	144.0
1135.129883	184.0
1138.270508	144.0
1143.743286	208.0
1144.349121	176.0
1146.019531	224.0
1146.875488	204.0
1150.53186	128.0
1152.436523	72.0
1155.61438	224.0
1156.331787	156.0
1163.069214	172.0
1171.835449	152.0
1174.814941	204.0
1177.948364	164.0
1178.064453	84.0
1187.50415	88.0
1190.352295	212.0
1194.111694	236.0
1195.68042	104.0
1196.045166	84.0
1196.864502	208.0
1207.893433	100.0
1208.834473	192.0
1209.20813	176.0
1215.507812	168.0
1216.840576	56.0
1218.375488	128.0
1220.106079	172.0
1224.148804	60.0
1225.277222	92.0
1225.528076	244.0
1226.001953	144.0
1226.817505	148.0
1229.105225	188.0
1232.862305	184.0
1239.916992	244.0
1242.329102	124.0
1245.143921	148.0
1248.229126	144.0
1249.692261	204.0
1250.191895	236.0
1250.747925	60.0
1251.057617	180.0
1253.078979	164.0
1254.460327	164.0
1254.523804	176.0
1255.369873	88.0
1256.3927	112.0
1260.975586	128.0
1266.175903	96.0
1267.83374	212.0
1268.230713	88.0
1274.0	140.0
1275.926025	160.0
1276.672607	76.0
1285.392334	240.0
1285.570801	28.0
1288.405518	156.0
1295.710327	204.0
1298.305176	172.0
1301.039185	156.0
1301.599243	56.0
1302.310181	108.0
1302.640625	152.0
1305.868164	156.0
1306.918457	116.0
1309.351685	52.0
1310.230591	52.0
1319.071167	140.0
1319.439819	252.0
1320.300293	152.0
1322.934204	160.0
1324.498413	200.0
1326.324463	124.0
1327.187256	216.0
1331.87561	168.0
1332.151611	144.0
1341.583374	192.0
1341.65625	124.0
1344.997437	224.0
1345.245605	60.0
1345.435425	176.0
1347.202759	156.0
1347.889648	236.0
1348.035767	192.0
1351.062988	184.0
1352.707153	192.0
1353.815186	116.0
1356.189087	184.0
1357.076172	76.0
1357.970825	80.0
1359.291382	156.0
1361.368896	204.0
1368.34729	212.0
1370.306519	184.0
1370.608521	140.0
1373.941284	128.0
1374.531616	156.0
1378.002075	212.0
1380.212158	148.0
1386.260132	280.0
1388.73645	156.0
1389.901245	132.0
1390.175781	88.0
1391.801514	188.0
1393.955811	220.0
1394.758423	128.0
1396.781128	164.0
1398.336304	152.0
1403.431885	248.0
1405.132446	176.0
1405.490601	200.0
1405.86377	164.0
1410.315186	144.0
1410.666626	244.0
1414.279663	40.0
1416.046753	156.0
1417.245361	124.0
1418.092285	204.0
1418.654419	136.0
1425.913208	204.0
1432.820312	220.0
1433.424072	112.0
1440.811035	212.0
1446.35437	52.0
1451.104492	160.0
1451.347046	188.0
1453.275635	236.0
1453.364746	172.0
1453.911133	112.0
1457.298096	184.0
1460.460693	132.0
1461.335571	132.0
1461.594238	88.0
1462.512573	164.0
1462.563721	176.0
1463.88562	196.0
1466.437866	216.0
1466.971436	92.0
1467.489868	220.0
1468.077026	196.0
1469.175537	76.0
1469.228882	204.0
1469.595093	184.0
1469.862183	140.0
1470.862061	80.0
1471.136841	68.0
1471.694214	188.0
1472.511353	168.0
1473.810059	204.0
1474.024048	40.0
1475.728638	240.0
1476.500977	160.0
1484.872314	192.0
1484.987305	128.0
1487.10498	40.0
1489.231934	216.0
1489.900269	168.0
1490.069336	204.0
1494.475098	168.0
1495.598633	188.0
1495.883545	244.0
1498.116821	224.0
1500.282349	180.0
1500.398071	168.0
1500.752686	40.0
1500.853027	128.0
1503.576172	56.0
END IONS

BEGIN IONS
PEPMASS=190.057
CHARGE=1
MSLEVEL=2
SOURCE_INSTRUMENT=LC-ESI-qTof
FILENAME=p3-F08_GF8_01_18289.mzXML
SEQ=*..*
IONMODE=Positive
ORGANISM=GNPS-NIH-SMALLMOLECULEPHARMACOLOGICALLYACTIVE
NAME=MLS001333083-01!THIO-TEPA52-24-4 M+H
PI=Dorrestein
DATACOLLECTOR=VP/LMS
SMILES=S=P(N1CC1)(N2CC2)N3CC3
INCHI=N/A
INCHIAUX=N/A
PUBMED=N/A
SUBMITUSER=vphelan
LIBRARYQUALITY=1
SPECTRUMID=CCMSLIB00000085177
USI=mzspec:GNPS:GNPS-NIH-SMALLMOLECULEPHARMACOLOGICALLYACTIVE:accession:CCMSLIB00000085177
SCANS=1398
51.94598	176.0
53.458035	184.0
54.096729	164.0
58.173306	192.0
58.748581	176.0
62.441975	116.0
63.884655	72.0
66.163734	180.0
71.252747	188.0
81.846802	108.0
82.98156	172.0
87.79071	132.0
96.500877	180.0
99.893265	176.0
101.025093	344.0
102.033218	116.0
102.941994	116.0
102.970268	148.0
103.055115	148.0
103.970024	1716.0
104.006981	60.0
104.972549	320.0
105.983803	640.0
106.987633	200.0
107.980194	132.0
111.933105	152.0
113.020233	88.0
114.019081	144.0
115.045799	140.0
120.993881	204.0
122.069061	168.0
128.802948	220.0
146.921494	212.0
146.972168	160.0
147.013809	1212.0
149.074127	116.0
149.093567	156.0
170.961319	140.0
190.050781	108.0
192.106033	132.0
842.523743	136.0
930.338135	148.0
951.634338	212.0
964.164307	192.0
1015.331909	172.0
1053.025024	196.0
1137.80542	168.0
1148.080688	184.0
1190.776489	204.0
1192.762329	120.0
1197.248413	184.0
1221.718018	120.0
1244.397949	224.0
1245.641113	180.0
1258.042603	224.0
1258.275635	60.0
1288.332642	224.0
1301.260254	164.0
1311.410889	160.0
1322.578125	176.0
1339.971313	176.0
1344.638428	120.0
1453.743042	36.0
1456.818237	184.0
1463.572144	92.0
1474.145142	128.0
END IONS

BEGIN IONS
PEPMASS=303.017
CHARGE=1
MSLEVEL=2
SOURCE_INSTRUMENT=LC-ESI-qTof
FILENAME=p3-G03_GG3_01_18296.mzXML
SEQ=*..*
IONMODE=Positive
ORGANISM=GNPS-NIH-SMALLMOLECULEPHARMACOLOGICALLYACTIVE
NAME=MLS002701928-01! M+H
PI=Dorrestein
DATACOLLECTOR=VP/LMS
SMILES=CCC(=C)C(=O)c1ccc(OCC(=O)O)c(Cl)c1Cl
INCHI=N/A
INCHIAUX=N/A
PUBMED=N/A
SUBMITUSER=vphelan
LIBRARYQUALITY=1
SPECTRUMID=CCMSLIB00000085228
USI=mzspec:GNPS:GNPS-NIH-SMALLMOLECULEPHARMACOLOGICALLYACTIVE:accession:CCMSLIB00000085228
SCANS=2180
44.967606	164.0
45.015671	140.0
45.208187	188.0
45.224247	268.0
45.457458	176.0
45.80307	188.0
46.502121	176.0
46.730816	176.0
46.840717	112.0
47.084885	36.0
47.520222	128.0
47.562767	180.0
48.301403	196.0
48.430141	96.0
49.102901	132.0
49.84071	60.0
50.162674	156.0
51.750095	112.0
52.575268	132.0
52.669121	128.0
53.235455	188.0
53.284843	44.0
53.360424	208.0
53.482632	176.0
53.893917	144.0
53.917297	84.0
54.182167	248.0
54.594658	172.0
54.960003	172.0
55.24052	84.0
55.504375	48.0
56.072296	116.0
56.327461	100.0
56.83202	128.0
57.817616	168.0
58.278637	148.0
58.295353	156.0
58.528103	172.0
59.037815	140.0
59.172478	204.0
59.410042	112.0
59.591217	168.0
59.681908	160.0
59.726509	164.0
59.774204	240.0
60.368149	216.0
61.178131	148.0
61.600769	116.0
61.628891	100.0
61.69923	192.0
61.849415	180.0
62.65506	108.0
63.005322	208.0
63.480194	120.0
63.523796	188.0
64.202225	160.0
64.238914	148.0
64.468849	124.0
64.817719	180.0
64.905891	100.0
65.019791	144.0
65.095253	52.0
65.540848	96.0
65.673058	164.0
65.95887	160.0
68.287498	180.0
68.859444	216.0
68.922226	140.0
69.513412	164.0
70.404099	60.0
70.420799	148.0
70.599632	208.0
71.717873	140.0
72.444534	176.0
72.749802	156.0
74.128021	156.0
74.806488	132.0
76.508339	152.0
76.621552	188.0
76.822044	292.0
77.096191	172.0
78.558891	120.0
78.823746	168.0
78.915665	152.0
79.793343	156.0
79.8965	140.0
80.372246	188.0
81.109116	144.0
82.696083	188.0
82.946053	188.0
83.567184	164.0
84.536163	200.0
84.629524	20.0
85.078735	88.0
85.834976	112.0
86.015793	164.0
86.13398	136.0
86.906021	188.0
87.301704	88.0
87.67778	252.0
88.387444	140.0
88.428619	184.0
88.563431	152.0
88.673981	144.0
89.042946	248.0
89.165741	156.0
89.363197	168.0
90.094749	160.0
90.446495	140.0
91.05706	144.0
91.850807	180.0
92.749573	60.0
92.841606	144.0
92.979744	36.0
93.410164	180.0
93.448639	104.0
93.714355	124.0
93.781815	180.0
94.366768	208.0
95.240814	148.0
95.456558	72.0
95.643333	184.0
97.234421	184.0
97.934402	120.0
98.8228	136.0
99.572159	80.0
99.824562	152.0
100.463943	52.0
100.847359	148.0
101.219482	216.0
101.237511	136.0
101.407814	96.0
102.044197	176.0
102.428596	244.0
102.491051	144.0
103.05368	212.0
103.784752	192.0
103.985596	184.0
104.41227	36.0
104.792946	196.0
105.068199	244.0
105.650475	148.0
105.855164	100.0
105.976021	104.0
106.671783	180.0
106.764313	52.0
106.832191	176.0
107.605072	144.0
107.766182	68.0
107.80751	156.0
108.610863	124.0
108.776878	136.0
108.982491	60.0
109.069778	188.0
109.252785	176.0
109.927895	156.0
110.820808	128.0
111.032539	224.0
111.133232	160.0
111.498634	240.0
112.480202	136.0
112.617455	132.0
112.701965	216.0
113.042419	152.0
113.116501	84.0
113.504234	196.0
113.81617	52.0
114.028618	180.0
114.058372	192.0
114.464752	48.0
114.547821	132.0
114.660751	156.0
114.927322	172.0
114.946526	128.0
115.052895	1196.0
116.060249	596.0
116.316338	136.0
116.599876	220.0
117.027977	180.0
117.067459	476.0
117.267105	180.0
117.709381	148.0
118.073448	156.0
118.180618	184.0
118.325638	152.0
119.049896	136.0
120.465721	116.0
120.968704	204.0
121.060669	164.0
121.13076	100.0
122.735207	148.0
123.123611	200.0
123.209763	132.0
123.548027	148.0
124.001984	108.0
125.013939	704.0
126.054649	212.0
126.933754	244.0
127.012253	220.0
127.04879	308.0
127.324249	164.0
127.974152	124.0
128.06189	1048.0
128.28508	32.0
128.853806	256.0
129.068466	1196.0
129.125076	76.0
129.475891	36.0
129.530258	60.0
129.743286	164.0
130.042725	152.0
130.078812	504.0
130.149429	152.0
130.292526	212.0
130.603973	116.0
131.046646	448.0
131.086655	392.0
132.056976	492.0
132.148483	280.0
132.960541	412.0
133.001022	120.0
133.067596	168.0
133.145676	52.0
133.883942	160.0
134.109741	176.0
134.954071	224.0
136.009399	164.0
136.085449	244.0
136.657242	124.0
137.014236	536.0
137.491516	128.0
137.596558	36.0
137.989075	180.0
138.796906	112.0
138.96814	132.0
138.992722	176.0
139.011703	128.0
139.031509	176.0
139.054001	260.0
139.950668	168.0
140.974457	72.0
141.002823	160.0
141.026459	124.0
141.06929	1824.0
141.591949	104.0
141.715134	168.0
142.070114	156.0
143.078476	176.0
143.712479	116.0
143.748276	204.0
144.053894	128.0
144.099289	176.0
144.345505	80.0
144.957245	196.0
144.991882	152.0
145.027847	368.0
145.062393	976.0
145.32283	180.0
145.582077	160.0
146.036331	196.0
146.072021	436.0
147.039459	144.0
147.079697	152.0
147.123154	124.0
148.006744	136.0
148.955444	172.0
149.015015	328.0
149.060898	168.0
149.688522	188.0
150.023361	388.0
150.6642	172.0
151.009918	328.0
151.030991	560.0
151.114059	188.0
151.278046	156.0
151.393127	224.0
151.736191	124.0
152.000412	356.0
152.018066	468.0
152.035706	232.0
152.337479	84.0
152.990585	140.0
153.023941	176.0
153.041656	180.0
153.555954	36.0
153.997772	112.0
154.420441	60.0
155.012604	192.0
155.033844	148.0
155.059235	200.0
155.299744	172.0
155.649689	136.0
156.064789	240.0
156.303452	164.0
156.76915	196.0
157.028427	128.0
157.062439	316.0
158.071243	804.0
158.112778	148.0
158.164734	132.0
158.74913	200.0
158.791779	56.0
158.862015	184.0
158.974655	424.0
159.042114	144.0
159.078308	876.0
159.102936	100.0
159.404358	44.0
159.474731	188.0
159.731216	80.0
159.945114	132.0
159.972946	144.0
160.043289	176.0
160.078552	116.0
160.948547	112.0
160.974915	172.0
161.059677	40.0
161.097565	108.0
162.021439	204.0
162.102081	116.0
162.781952	108.0
162.972458	172.0
162.99942	244.0
163.028748	284.0
163.07666	172.0
163.924179	56.0
164.035065	288.0
165.011292	944.0
165.043579	792.0
165.1241	188.0
165.144562	148.0
165.303192	88.0
165.920502	116.0
166.016006	672.0
166.074371	100.0
167.00325	200.0
167.025787	504.0
167.086533	160.0
167.253799	52.0
167.547394	208.0
167.830902	124.0
167.980499	140.0
168.015015	348.0
168.037262	296.0
168.055313	160.0
168.362518	128.0
168.447754	100.0
168.913071	172.0
169.027405	148.0
169.073486	148.0
169.296143	40.0
169.581146	108.0
170.510345	192.0
170.981339	128.0
171.173752	176.0
171.945435	144.0
172.053131	468.0
172.920334	188.0
172.955383	1156.0
172.992783	172.0
173.011963	160.0
173.058365	200.0
173.289581	88.0
173.958191	208.0
174.021378	140.0
174.06665	712.0
174.402313	188.0
174.951828	784.0
174.988983	148.0
175.030838	332.0
175.06662	120.0
175.094315	252.0
175.363068	152.0
175.392059	80.0
175.766571	40.0
175.798233	132.0
175.997894	76.0
176.037399	1600.0
176.963989	132.0
177.009766	428.0
177.472733	48.0
177.711456	72.0
178.027908	308.0
178.282394	104.0
178.70787	144.0
178.960739	196.0
179.02475	4644.0
179.091232	60.0
179.128525	52.0
179.165817	52.0
179.1978	124.0
179.229767	60.0
179.408356	48.0
179.856522	200.0
179.989746	156.0
180.030045	500.0
180.323959	36.0
180.810745	100.0
181.020889	736.0
181.199036	56.0
181.290131	84.0
181.410751	136.0
181.432205	148.0
181.984909	140.0
182.011627	160.0
182.028778	288.0
182.189041	176.0
182.264267	112.0
182.74559	148.0
182.972031	212.0
183.00267	132.0
183.082077	48.0
184.004303	132.0
184.06102	52.0
184.109619	160.0
184.972168	228.0
184.991699	292.0
185.465179	96.0
186.966446	352.0
187.001923	168.0
187.070633	164.0
187.416519	68.0
187.972809	352.0
188.952896	588.0
188.989334	176.0
189.01123	176.0
189.621948	180.0
189.948257	364.0
190.014099	164.0
190.063492	256.0
190.947021	492.0
191.027145	348.0
191.069138	56.0
191.652847	108.0
192.044327	176.0
192.135727	152.0
192.858902	128.0
192.975006	124.0
193.004349	644.0
193.040222	432.0
193.210098	52.0
194.010834	1116.0
194.048691	720.0
194.079819	48.0
194.759766	200.0
194.834778	184.0
194.979279	100.0
195.019394	3540.0
195.096024	52.0
195.132156	72.0
195.485428	120.0
195.510483	60.0
195.727615	160.0
195.980347	252.0
196.021057	212.0
196.043182	156.0
196.859818	68.0
197.016602	892.0
197.185226	144.0
197.818863	100.0
197.97287	176.0
198.163361	84.0
198.272644	128.0
198.841995	172.0
198.973785	152.0
199.011414	172.0
199.836807	156.0
199.983337	196.0
200.007721	132.0
200.104202	148.0
200.205582	40.0
200.631073	80.0
200.957657	136.0
200.986343	224.0
201.021301	196.0
201.093704	168.0
201.435364	84.0
201.984772	184.0
202.702927	208.0
202.981476	452.0
203.03746	104.0
203.559647	124.0
203.988693	144.0
204.022797	180.0
204.073975	108.0
204.848114	92.0
205.012207	188.0
205.042847	260.0
207.017807	232.0
207.101959	212.0
207.296783	172.0
208.018555	320.0
208.981842	168.0
209.019699	168.0
209.040619	160.0
210.007217	260.0
210.034836	208.0
211.00798	280.0
211.031158	168.0
211.977905	984.0
212.006699	544.0
212.046448	36.0
212.101517	64.0
212.145004	80.0
212.417603	144.0
212.987045	472.0
213.131836	84.0
213.597015	124.0
213.742477	112.0
213.976028	136.0
214.00737	152.0
214.15007	120.0
214.96637	308.0
215.001358	332.0
215.033539	196.0
215.993973	180.0
216.082642	52.0
216.838165	92.0
216.943695	140.0
216.991516	276.0
217.052185	84.0
217.471725	64.0
219.015457	148.0
221.030731	236.0
221.111847	56.0
222.046417	284.0
222.119293	148.0
222.612	96.0
223.036865	160.0
223.069565	92.0
224.0457	132.0
224.967239	116.0
225.028778	276.0
225.950516	232.0
226.022324	180.0
226.833984	156.0
226.971909	148.0
226.992279	300.0
227.974365	152.0
228.600082	108.0
228.792725	120.0
228.980392	1360.0
229.431442	52.0
229.975586	120.0
230.669189	80.0
230.9785	1168.0
231.056305	44.0
231.141022	48.0
231.980347	176.0
232.041748	84.0
232.310562	48.0
233.075012	160.0
233.428314	108.0
234.134369	152.0
234.359802	68.0
234.6707	132.0
235.018433	288.0
235.693268	184.0
235.962234	164.0
237.024384	116.0
238.377686	64.0
239.009506	420.0
239.045013	156.0
240.024612	140.0
240.095551	52.0
240.848663	148.0
241.000549	148.0
241.040222	144.0
241.986313	172.0
242.987183	196.0
243.338608	84.0
243.919571	208.0
243.970001	788.0
244.006943	380.0
244.915329	56.0
244.964981	160.0
245.011902	124.0
245.594864	56.0
245.962952	576.0
246.006775	148.0
246.481522	36.0
248.024506	160.0
248.639267	116.0
248.95636	196.0
251.850876	168.0
253.024384	4536.0
253.705307	52.0
253.733841	32.0
254.027466	472.0
254.266754	104.0
254.598618	84.0
255.021469	1092.0
256.020813	96.0
256.305267	44.0
256.678223	68.0
256.895111	152.0
256.995056	548.0
258.0065	104.0
258.204773	52.0
259.00708	328.0
259.05304	184.0
259.799988	80.0
261.001251	196.0
263.515442	76.0
267.039307	136.0
268.050598	456.0
268.117004	116.0
269.046661	220.0
272.79126	64.0
274.312164	56.0
276.124969	120.0
292.998444	64.0
301.23233	176.0
315.841888	100.0
344.124268	148.0
345.946991	212.0
383.170807	64.0
409.445801	56.0
417.491699	112.0
428.919617	56.0
455.291077	44.0
501.22641	56.0
738.010803	116.0
809.344116	132.0
938.426453	164.0
952.760803	168.0
979.455566	220.0
997.697998	148.0
1053.163818	124.0
1080.317505	176.0
1092.125366	252.0
1122.286011	196.0
1125.609131	136.0
1171.55835	88.0
1176.038574	212.0
1189.029663	204.0
1203.949219	68.0
1220.755249	192.0
1245.44165	168.0
1257.94812	56.0
1259.946777	152.0
1288.601562	224.0
1288.901611	176.0
1314.119995	108.0
1333.048828	216.0
1353.826172	148.0
1360.109741	172.0
1361.761841	104.0
1369.720825	160.0
1372.079102	144.0
1379.67627	124.0
1387.57605	160.0
1388.562378	228.0
1390.098022	112.0
1394.911133	152.0
1415.286987	144.0
1429.700439	144.0
1430.60376	160.0
1435.312866	116.0
1444.247559	188.0
1445.314209	192.0
1455.600952	60.0
1460.875854	136.0
1464.895508	188.0
1473.509033	44.0
1476.811523	156.0
1478.364746	92.0
1482.722534	188.0
1485.774414	180.0
1485.843506	152.0
1494.526001	104.0
1498.460571	120.0
1501.960693	176.0
END IONS

BEGIN IONS
PEPMASS=363.095
CHARGE=1
MSLEVEL=2
SOURCE_INSTRUMENT=LC-ESI-qTof
FILENAME=p3-H03_GH3_01_18308.mzXML
SEQ=*..*
IONMODE=Positive
ORGANISM=GNPS-NIH-SMALLMOLECULEPHARMACOLOGICALLYACTIVE
NAME=MLS002154123-01!Piretanide55837-27-9 M+H
PI=Dorrestein
DATACOLLECTOR=VP/LMS
SMILES=NS(=O)(=O)c1cc(cc(N2CCCC2)c1Oc3ccccc3)C(=O)O
INCHI=N/A
INCHIAUX=N/A
PUBMED=N/A
SUBMITUSER=vphelan
LIBRARYQUALITY=1
SPECTRUMID=CCMSLIB00000085312
USI=mzspec:GNPS:GNPS-NIH-SMALLMOLECULEPHARMACOLOGICALLYACTIVE:accession:CCMSLIB00000085312
SCANS=1982
45.081238	36.0
45.535431	96.0
45.664467	172.0
45.906898	184.0
46.054016	252.0
46.286644	112.0
46.495422	144.0
46.544296	180.0
46.616295	212.0
46.685631	172.0
46.703312	132.0
46.884403	164.0
47.031925	152.0
47.191559	120.0
47.383183	112.0
47.535389	108.0
47.56284	168.0
47.755219	116.0
47.981068	120.0
48.077629	132.0
48.690971	184.0
48.902317	156.0
49.383709	204.0
50.063026	292.0
50.119377	92.0
50.533104	196.0
50.999691	44.0
51.305759	88.0
51.441292	188.0
51.617126	128.0
52.767403	132.0
52.873005	188.0
52.900505	188.0
52.967121	156.0
52.987404	156.0
53.803349	124.0
54.286228	172.0
54.543175	144.0
54.942272	180.0
54.968834	256.0
55.168236	172.0
55.507313	204.0
55.534008	148.0
55.624523	128.0
55.636402	156.0
55.841473	144.0
56.170673	112.0
56.674522	212.0
56.743473	184.0
56.798962	148.0
56.917534	172.0
57.200195	196.0
57.317673	220.0
57.869022	136.0
58.097885	116.0
58.52346	140.0
59.065266	112.0
59.411488	196.0
59.643379	172.0
59.909611	116.0
60.448494	132.0
61.326008	160.0
61.360306	92.0
62.071774	164.0
62.23497	56.0
62.258526	68.0
62.388947	104.0
62.590347	172.0
62.763687	140.0
62.885166	156.0
63.047844	128.0
63.088943	216.0
63.130054	204.0
63.304138	96.0
63.502796	140.0
63.6562	36.0
63.749928	64.0
64.203667	132.0
64.447906	164.0
64.955437	128.0
65.254158	40.0
65.703529	164.0
66.139862	148.0
66.332634	216.0
66.540298	188.0
66.626373	224.0
66.67025	100.0
67.209282	136.0
67.776703	128.0
68.239586	220.0
68.407402	100.0
68.633125	156.0
68.644669	136.0
68.712296	168.0
68.85096	28.0
69.562973	164.0
69.742378	220.0
70.607742	160.0
70.786819	144.0
70.914146	148.0
70.940964	116.0
71.113747	36.0
71.438065	220.0
72.417145	184.0
72.544235	112.0
72.556107	44.0
72.695198	100.0
72.735931	84.0
72.895584	196.0
73.867462	164.0
73.959869	160.0
74.318054	148.0
74.740768	164.0
74.952568	160.0
75.143967	140.0
75.382263	76.0
76.016083	120.0
76.346169	216.0
76.433151	232.0
78.031914	140.0
78.088188	176.0
78.248322	104.0
78.290588	160.0
78.317009	132.0
78.435066	92.0
78.468567	160.0
78.524994	148.0
79.016098	164.0
79.505173	136.0
79.61525	32.0
80.298691	176.0
80.493217	152.0
80.59861	124.0
81.236015	196.0
81.347282	196.0
81.780495	64.0
82.23111	240.0
82.361122	188.0
82.386406	132.0
83.741493	108.0
84.027702	204.0
84.106171	100.0
84.979141	164.0
85.685181	196.0
86.523689	64.0
86.558868	152.0
86.577393	132.0
86.877678	68.0
86.912926	52.0
86.994591	132.0
87.172905	68.0
87.353264	132.0
87.59713	216.0
87.91597	88.0
87.990639	60.0
88.076546	60.0
88.276535	156.0
88.59848	172.0
89.528297	100.0
89.745003	192.0
89.795921	60.0
90.054512	140.0
90.464851	220.0
90.506508	124.0
90.84008	144.0
90.952042	148.0
91.705292	180.0
91.880737	168.0
92.004791	44.0
92.092628	144.0
92.153763	32.0
92.222565	120.0
92.34111	140.0
92.586098	236.0
92.616737	216.0
93.284538	156.0
93.9123	56.0
94.058945	196.0
94.259811	232.0
94.350662	180.0
94.433815	148.0
94.883087	104.0
95.195488	148.0
95.244049	152.0
95.401451	144.0
95.428673	112.0
95.551208	136.0
95.625153	168.0
95.755608	132.0
95.790665	112.0
96.079597	176.0
96.153351	68.0
96.411156	176.0
96.516716	144.0
96.904282	152.0
96.921913	168.0
97.059128	172.0
97.076782	64.0
98.020386	148.0
98.450447	208.0
98.525513	196.0
98.568977	144.0
98.66188	132.0
98.752846	172.0
99.025986	160.0
99.442368	120.0
99.490013	160.0
99.652878	196.0
99.927261	48.0
99.941193	208.0
100.126328	188.0
100.200035	216.0
100.249847	32.0
100.535034	180.0
100.578941	88.0
101.437119	144.0
101.499268	172.0
101.603569	228.0
101.748077	196.0
102.097717	96.0
102.544685	96.0
102.853302	148.0
102.907806	208.0
104.033508	156.0
104.047714	172.0
104.767677	148.0
104.851227	196.0
105.057175	200.0
105.124512	204.0
105.342979	216.0
105.455368	120.0
105.772423	180.0
106.067406	168.0
106.251976	160.0
107.049515	80.0
107.325645	92.0
107.527817	208.0
107.717789	104.0
108.036148	100.0
108.788437	220.0
109.760422	156.0
110.091911	168.0
110.685822	64.0
111.722694	164.0
111.897377	128.0
112.221855	80.0
112.453911	188.0
113.041451	184.0
113.107063	68.0
113.59446	60.0
114.034004	228.0
114.106285	32.0
114.276443	112.0
114.5383	152.0
114.80899	184.0
114.979675	76.0
115.052773	868.0
115.118439	60.0
115.30645	212.0
115.329956	128.0
115.49247	168.0
115.871384	152.0
116.060005	232.0
116.461334	148.0
116.889168	76.0
117.044159	180.0
117.066772	156.0
117.941666	152.0
118.056259	144.0
118.080048	192.0
118.554192	120.0
119.029282	108.0
119.046654	140.0
119.181335	100.0
119.372627	208.0
119.690338	168.0
120.043556	208.0
120.646004	100.0
120.726913	72.0
120.860352	120.0
121.039848	196.0
121.073219	152.0
121.25235	176.0
121.792114	156.0
121.862411	48.0
122.165817	164.0
122.372704	200.0
123.012062	164.0
123.054008	140.0
123.195358	120.0
123.49157	212.0
123.637596	124.0
123.81028	232.0
123.845718	156.0
124.051804	120.0
124.238091	172.0
124.406754	176.0
124.880798	196.0
125.267395	152.0
125.878532	172.0
126.046066	140.0
126.166771	188.0
127.078331	212.0
127.096283	124.0
127.201767	188.0
127.221977	184.0
128.057571	348.0
128.572556	168.0
128.836746	148.0
128.988159	176.0
129.068604	164.0
129.182632	52.0
129.927994	144.0
130.002869	212.0
130.063828	364.0
130.261703	128.0
131.050613	332.0
131.142334	92.0
131.347549	88.0
131.573486	168.0
131.710495	196.0
132.080994	152.0
132.172333	68.0
132.398972	128.0
132.48143	172.0
132.770248	196.0
132.834473	172.0
132.949188	216.0
132.969849	100.0
132.985916	112.0
133.043304	112.0
133.709915	124.0
134.696793	100.0
134.96489	128.0
135.25177	140.0
135.318909	88.0
135.884445	124.0
136.070129	80.0
137.033035	156.0
137.452759	136.0
137.508759	144.0
137.793655	176.0
138.053131	216.0
138.312836	124.0
138.535309	128.0
139.05162	752.0
139.951553	164.0
140.044571	164.0
140.063766	224.0
140.142349	120.0
140.479492	128.0
140.975342	168.0
141.001694	132.0
141.068924	4796.0
141.391586	136.0
141.533615	136.0
141.929337	212.0
142.072052	1252.0
142.128586	68.0
142.396851	100.0
142.520386	112.0
143.07457	140.0
143.150772	132.0
143.684708	92.0
143.765839	88.0
144.043732	208.0
144.083786	152.0
144.234665	208.0
144.848953	88.0
145.357254	72.0
145.508469	152.0
145.571335	132.0
145.681396	44.0
146.054001	152.0
146.09729	176.0
147.172256	240.0
147.271271	148.0
147.454773	164.0
147.791046	116.0
147.931427	140.0
148.036514	276.0
148.355377	180.0
148.522705	136.0
148.830917	160.0
149.024323	232.0
149.042252	64.0
149.711227	180.0
149.840332	184.0
149.918304	140.0
149.935364	112.0
149.962173	188.0
150.025558	60.0
150.157227	184.0
150.41832	164.0
150.877594	108.0
150.938721	132.0
151.019424	232.0
151.05368	156.0
151.308197	152.0
151.969955	156.0
152.043076	176.0
152.064041	160.0
152.259628	80.0
152.296478	140.0
153.067749	248.0
153.177109	48.0
153.667709	52.0
154.071533	412.0
155.047546	408.0
155.084274	128.0
155.575912	108.0
155.70256	68.0
156.050461	200.0
156.083069	212.0
156.515762	244.0
156.814713	52.0
156.89946	148.0
157.062271	156.0
157.281143	136.0
157.32753	172.0
157.793289	240.0
158.015884	144.0
158.065933	164.0
158.872726	100.0
159.018265	136.0
159.040863	132.0
159.073486	224.0
159.364822	112.0
159.651398	36.0
159.958359	148.0
160.041443	132.0
160.071289	132.0
160.275711	128.0
161.013519	224.0
161.64183	248.0
161.98111	72.0
162.013916	444.0
162.090042	156.0
162.665787	172.0
162.909576	144.0
163.018845	136.0
163.044601	148.0
164.034973	140.0
164.37616	176.0
164.917603	116.0
165.037766	120.0
165.063599	280.0
165.127274	124.0
165.244949	60.0
165.439453	140.0
165.646881	184.0
165.669937	160.0
166.047852	800.0
166.068588	452.0
166.185272	176.0
166.765671	36.0
166.963638	212.0
167.045853	552.0
167.070663	1316.0
167.12056	148.0
167.43721	124.0
167.591766	164.0
167.756714	172.0
168.006882	112.0
168.055832	1992.0
168.078522	1764.0
168.135895	60.0
168.246887	52.0
168.306274	168.0
168.605942	132.0
168.626617	80.0
168.68866	48.0
169.063644	3316.0
169.265625	60.0
169.338135	76.0
169.39772	72.0
169.656876	56.0
169.895462	48.0
169.968124	124.0
170.025208	144.0
170.066879	620.0
170.28627	168.0
170.500488	180.0
170.924377	272.0
171.002457	88.0
171.042908	156.0
171.424362	136.0
171.961624	124.0
172.07431	144.0
173.043884	196.0
173.481415	124.0
174.043686	184.0
174.062851	140.0
174.373901	168.0
174.915756	128.0
175.086899	232.0
175.949173	120.0
176.028397	176.0
176.060074	192.0
177.039978	348.0
177.067734	168.0
177.651886	192.0
177.892395	232.0
178.049057	204.0
178.069687	476.0
178.647125	44.0
178.785492	164.0
178.987808	152.0
179.068665	196.0
179.08754	344.0
179.758194	164.0
179.830261	108.0
179.886322	164.0
179.985107	240.0
180.080475	876.0
180.161377	136.0
180.947678	136.0
181.009262	196.0
181.03479	136.0
181.062485	1340.0
181.089661	420.0
181.11908	52.0
181.228912	124.0
181.446014	96.0
181.58815	56.0
181.649841	120.0
181.923569	96.0
182.070435	788.0
182.135712	172.0
182.251236	56.0
182.366791	236.0
182.444748	100.0
182.990921	92.0
183.067596	692.0
183.098801	320.0
183.171356	120.0
183.365372	52.0
184.067215	372.0
184.106186	232.0
184.263977	140.0
184.977951	80.0
185.054703	256.0
185.153946	176.0
186.054703	168.0
186.081421	168.0
186.812439	64.0
186.921265	212.0
187.152649	72.0
187.446838	52.0
188.101425	140.0
188.738007	164.0
188.989655	112.0
189.074432	208.0
189.271591	64.0
189.35376	184.0
189.452362	164.0
189.929352	136.0
190.08992	196.0
190.313568	44.0
190.60199	196.0
191.084335	544.0
191.61731	120.0
192.06813	740.0
192.146683	60.0
192.237732	156.0
192.5	172.0
192.737564	256.0
193.051407	308.0
193.087585	588.0
193.143967	184.0
193.188232	160.0
193.337646	196.0
193.958084	172.0
194.06012	800.0
194.095444	348.0
194.296402	56.0
195.00174	44.0
195.061234	1144.0
195.092651	284.0
196.007278	124.0
196.075867	4840.0
196.137405	236.0
196.170853	64.0
196.282379	88.0
196.304688	28.0
196.324203	148.0
196.393936	44.0
196.533432	40.0
196.625519	40.0
196.999695	120.0
197.077667	1076.0
197.226044	184.0
197.553207	64.0
197.875061	68.0
198.034683	144.0
198.075455	216.0
198.096313	144.0
198.133514	144.0
198.443832	28.0
198.560654	128.0
199.051376	132.0
199.127487	52.0
199.277451	88.0
199.35614	252.0
199.842606	136.0
200.06778	72.0
200.798004	140.0
201.073486	184.0
201.602234	188.0
202.072189	120.0
203.03476	200.0
203.086044	176.0
203.704636	64.0
204.064728	1468.0
204.150879	184.0
204.202072	192.0
204.569138	196.0
205.030579	176.0
205.066452	192.0
205.084549	372.0
205.438339	172.0
206.079559	732.0
206.443756	108.0
206.684052	220.0
207.024704	176.0
207.066681	976.0
207.374252	132.0
208.011032	124.0
208.072617	876.0
208.112595	568.0
208.220642	56.0
208.341293	56.0
209.0802	1588.0
209.116364	304.0
209.149368	176.0
209.425797	72.0
209.772263	64.0
210.048737	144.0
210.085632	420.0
210.126144	3524.0
210.168152	56.0
210.233078	28.0
210.305237	40.0
210.380295	96.0
210.513107	48.0
211.04747	168.0
211.088181	168.0
211.132217	384.0
211.597443	72.0
211.675629	52.0
211.884171	60.0
211.913147	76.0
212.039902	152.0
212.069641	316.0
212.140305	260.0
212.176895	92.0
212.281281	128.0
212.466919	56.0
212.736832	56.0
212.803604	56.0
213.052689	152.0
213.091141	156.0
214.0159	60.0
214.855515	192.0
214.922623	144.0
215.083267	176.0
215.76088	144.0
215.991913	128.0
216.088455	156.0
217.089844	548.0
218.026764	184.0
218.055649	184.0
218.093765	176.0
218.099838	312.0
218.338409	164.0
218.561981	192.0
218.812164	160.0
219.074341	132.0
219.368988	100.0
219.569489	28.0
220.05658	128.0
220.080933	348.0
220.109406	432.0
220.697571	76.0
221.025909	196.0
221.048798	136.0
221.084518	812.0
221.118927	420.0
221.295273	124.0
221.455185	156.0
221.490738	76.0
221.579605	44.0
221.75444	28.0
222.021286	164.0
222.050064	452.0
222.089249	1628.0
222.414566	68.0
222.499023	108.0
222.528717	132.0
223.096909	524.0
223.185379	76.0
223.390594	68.0
223.750702	164.0
224.196213	128.0
224.525467	36.0
225.050674	356.0
225.247787	144.0
225.863571	104.0
226.043091	156.0
226.070023	176.0
226.120895	156.0
226.570068	204.0
226.908737	136.0
227.013687	144.0
227.046677	140.0
227.071899	172.0
227.8181	80.0
228.02243	160.0
228.066574	144.0
228.11261	32.0
228.338135	56.0
229.024384	148.0
229.069946	160.0
229.102783	152.0
229.238297	120.0
229.521667	44.0
230.034561	208.0
230.983444	48.0
232.8992	128.0
233.266891	140.0
234.025848	260.0
234.039139	92.0
234.049576	204.0
234.088669	392.0
234.161484	68.0
234.194992	72.0
235.057785	176.0
235.080566	124.0
235.10051	212.0
235.442444	64.0
235.476044	108.0
235.7724	140.0
235.92218	124.0
235.968033	184.0
236.00473	148.0
236.038361	84.0
236.067169	284.0
236.105347	13980.0
236.171463	164.0
236.308411	136.0
236.338135	76.0
236.399338	80.0
236.442184	152.0
236.469727	60.0
236.592163	120.0
236.782028	56.0
236.841034	188.0
236.907608	56.0
236.935181	80.0
236.956635	72.0
237.035065	80.0
237.057755	124.0
237.110748	4980.0
237.232452	64.0
237.345901	40.0
237.505386	92.0
237.600479	36.0
237.667984	44.0
237.815292	72.0
237.870544	148.0
237.935013	56.0
237.979172	136.0
238.045761	332.0
238.064911	200.0
238.120316	4032.0
238.214478	68.0
238.257492	84.0
238.478745	84.0
238.574036	132.0
238.737	68.0
238.903107	112.0
238.9431	92.0
239.02002	104.0
239.060532	244.0
239.122223	584.0
239.364792	48.0
239.423309	68.0
239.638931	96.0
239.709808	96.0
239.842331	64.0
239.944061	40.0
240.062424	1212.0
240.095657	184.0
240.132172	144.0
240.687683	48.0
241.008926	164.0
241.068085	428.0
241.102722	204.0
241.144897	28.0
241.364395	72.0
242.066849	104.0
242.308456	32.0
243.176743	56.0
243.536926	60.0
244.077682	112.0
244.551605	108.0
245.419754	104.0
245.700455	40.0
246.093918	316.0
246.124954	68.0
246.190521	132.0
246.340454	72.0
246.56543	92.0
248.074295	184.0
248.168213	216.0
248.23407	96.0
248.908752	56.0
249.077072	244.0
249.91777	136.0
250.07019	184.0
251.125473	224.0
251.989334	104.0
252.046204	144.0
252.068329	312.0
252.125793	264.0
253.045731	120.0
253.074219	132.0
253.123184	164.0
253.172394	108.0
253.340271	32.0
254.080414	148.0
254.107864	316.0
254.555069	108.0
255.047531	144.0
255.079819	164.0
255.103027	140.0
256.064301	152.0
256.129425	36.0
257.906769	56.0
258.021851	204.0
258.856995	92.0
259.033142	140.0
260.024445	264.0
261.911346	68.0
262.036987	136.0
262.084015	172.0
262.749542	140.0
262.984039	204.0
264.101898	1368.0
265.102173	344.0
266.085388	180.0
267.089783	148.0
267.139374	32.0
267.380157	64.0
267.50058	64.0
267.891388	44.0
268.015045	208.0
268.064056	52.0
268.096649	236.0
268.148804	156.0
269.05661	392.0
269.71228	84.0
269.833221	224.0
270.06369	292.0
270.109222	192.0
270.693787	144.0
271.053772	180.0
272.041382	152.0
272.507751	100.0
273.484467	60.0
274.090454	132.0
274.901672	36.0
277.011139	32.0
278.065582	140.0
280.050568	120.0
280.093567	1556.0
281.096619	412.0
281.167511	76.0
281.240936	100.0
281.431244	64.0
281.604889	40.0
281.695099	80.0
282.058838	164.0
282.110229	5656.0
282.27832	72.0
282.808594	68.0
282.955902	80.0
283.036255	120.0
283.113983	1408.0
283.213776	60.0
284.038361	76.0
284.122223	152.0
284.273224	116.0
284.521606	64.0
284.692871	156.0
284.917908	88.0
285.001923	172.0
285.028809	148.0
285.126251	180.0
285.213654	84.0
285.469177	40.0
285.52298	76.0
286.002136	128.0
286.030151	192.0
286.373138	64.0
287.321777	80.0
287.963135	40.0
288.027313	124.0
288.061096	168.0
289.529083	80.0
292.013489	148.0
293.68927	88.0
294.385529	108.0
295.010803	88.0
298.102509	164.0
300.150726	144.0
303.026581	92.0
304.029633	1164.0
305.008179	184.0
305.042419	184.0
306.042969	132.0
309.050293	172.0
326.96225	164.0
329.053009	192.0
329.17218	148.0
332.706116	72.0
340.014038	60.0
341.248352	128.0
346.059326	280.0
347.086121	120.0
348.470642	88.0
350.085022	144.0
351.919678	56.0
352.352936	52.0
353.706726	68.0
361.244324	92.0
362.080872	116.0
363.102783	740.0
364.093842	248.0
365.097961	276.0
371.657227	64.0
387.019348	144.0
388.622498	112.0
411.73349	196.0
412.097046	48.0
415.128937	72.0
428.788361	172.0
438.091095	140.0
443.552948	96.0
455.125763	72.0
460.615601	100.0
462.5784	28.0
511.059387	132.0
550.950623	76.0
551.99762	52.0
565.4245	44.0
575.71759	72.0
587.617493	40.0
657.928162	52.0
673.570923	72.0
683.520386	112.0
721.805176	88.0
732.873657	88.0
772.287842	72.0
815.227234	76.0
823.09436	48.0
835.256226	84.0
854.05896	20.0
880.668213	104.0
911.248108	124.0
925.246826	44.0
926.936768	172.0
942.490417	156.0
957.286499	220.0
984.031311	88.0
998.626587	76.0
1047.780762	164.0
1062.800781	120.0
1072.569214	112.0
1087.758667	184.0
1112.382202	204.0
1115.697266	96.0
1117.053833	48.0
1121.768677	152.0
1125.578369	56.0
1161.146606	120.0
1174.703125	136.0
1190.088745	192.0
1196.159424	200.0
1196.290283	92.0
1223.86731	84.0
1224.758667	44.0
1229.269653	168.0
1239.962891	96.0
1258.273926	76.0
1261.332886	48.0
1275.19751	124.0
1275.332642	124.0
1279.067017	180.0
1284.625488	144.0
1291.855103	40.0
1292.928345	208.0
1298.9104	160.0
1300.303345	132.0
1301.868408	116.0
1325.465454	52.0
1329.591919	80.0
1342.170044	168.0
1356.397583	96.0
1357.475342	148.0
1376.572144	180.0
1377.591431	136.0
1378.241699	192.0
1393.446167	140.0
1394.085205	152.0
1394.709473	160.0
1403.121704	136.0
1403.658569	188.0
1404.866943	108.0
1405.314575	128.0
1411.402222	140.0
1426.750488	168.0
1428.397461	184.0
1432.221436	224.0
1433.999634	132.0
1453.904053	192.0
1468.689819	152.0
1476.641235	188.0
1479.036133	148.0
1484.307251	164.0
1485.595825	140.0
1501.626587	56.0
1502.667969	48.0
1504.450806	120.0
END IONS

BEGIN IONS
PEPMASS=576.33
CHARGE=1
MSLEVEL=2
SOURCE_INSTRUMENT=LC-ESI-qTof
FILENAME=p4-C05_GC5_01_18353.mzXML
SEQ=*..*
IONMODE=Positive
ORGANISM=GNPS-NIH-SMALLMOLECULEPHARMACOLOGICALLYACTIVE
NAME=MLS002153977-01!Ergocryptine-alpha511-09-1 M+H
PI=Dorrestein
DATACOLLECTOR=VP/LMS
SMILES=CC(C)C[C@@H]1N2C(=O)[C@](NC(=O)[C@H]3CN(C)[C@@H]4Cc5c[nH]c6cccc(C4=C3)c56)(O[C@@]2(O)[C@@H]7CCCN7C1=O)C(C)C
INCHI=N/A
INCHIAUX=N/A
PUBMED=N/A
SUBMITUSER=vphelan
LIBRARYQUALITY=1
SPECTRUMID=CCMSLIB00000085541
USI=mzspec:GNPS:GNPS-NIH-SMALLMOLECULEPHARMACOLOGICALLYACTIVE:accession:CCMSLIB00000085541
SCANS=1748
44.889187	136.0
44.923862	56.0
44.933201	188.0
44.979908	80.0
44.994152	220.0
45.005272	140.0
45.022633	168.0
45.053352	120.0
45.069386	196.0
45.089432	168.0
45.124184	180.0
45.141071	224.0
45.156277	148.0
45.211128	40.0
45.253963	196.0
45.264675	104.0
45.298653	116.0
45.317558	108.0
45.328327	108.0
45.377224	384.0
45.406727	144.0
45.444286	164.0
45.465755	176.0
45.530193	156.0
45.540939	96.0
45.558403	136.0
45.578556	148.0
45.596676	132.0
45.625652	188.0
45.63908	136.0
45.687458	156.0
45.708984	176.0
45.731865	192.0
45.745323	116.0
45.768864	164.0
45.77219	92.0
45.776863	160.0
45.800533	84.0
45.820328	288.0
45.854172	128.0
45.871948	160.0
45.881386	40.0
45.925377	160.0
45.946613	76.0
45.966354	180.0
45.986599	136.0
46.02066	156.0
46.05732	132.0
46.085178	28.0
46.114906	168.0
46.125195	156.0
46.15276	80.0
46.184765	192.0
46.200096	124.0
46.223694	152.0
46.235275	196.0
46.24955	308.0
46.269028	124.0
46.285263	164.0
46.289249	124.0
46.317135	156.0
46.339539	208.0
46.353088	80.0
46.370708	152.0
46.396461	100.0
46.439854	184.0
46.476112	132.0
46.492928	308.0
46.51041	160.0
46.52058	144.0
46.542992	140.0
46.552498	168.0
46.587811	164.0
46.61739	192.0
46.622475	148.0
46.642521	152.0
46.669487	124.0
46.719673	60.0
46.752331	236.0
46.78772	332.0
46.798611	116.0
46.834019	168.0
46.849003	176.0
46.859901	160.0
46.879124	148.0
46.893967	136.0
46.923958	40.0
46.949863	152.0
46.970322	120.0
46.998974	144.0
47.008526	176.0
47.026264	224.0
47.039913	196.0
47.060394	244.0
47.087101	344.0
47.112289	104.0
47.151276	188.0
47.17395	160.0
47.186089	168.0
47.216663	192.0
47.231018	220.0
47.284576	172.0
47.296894	216.0
47.312187	116.0
47.328381	188.0
47.340706	152.0
47.363987	156.0
47.381798	132.0
47.399609	52.0
47.424274	76.0
47.439739	156.0
47.457451	120.0
47.492832	164.0
47.50655	156.0
47.517525	192.0
47.542221	200.0
47.586456	248.0
47.606743	256.0
47.620476	112.0
47.633667	128.0
47.658939	68.0
47.71804	88.0
47.730415	44.0
47.746918	124.0
47.759296	184.0
47.771675	204.0
47.782681	140.0
47.804695	156.0
47.820946	124.0
47.823799	100.0
47.854248	116.0
47.869755	184.0
47.901073	200.0
47.952087	156.0
47.968594	212.0
47.988861	188.0
48.025127	76.0
48.046898	240.0
48.101582	104.0
48.114822	104.0
48.130009	140.0
48.141827	100.0
48.193802	172.0
48.276482	148.0
48.296059	128.0
48.354664	312.0
48.409328	124.0
48.431805	212.0
48.477207	136.0
48.486629	192.0
48.524921	160.0
48.540974	136.0
48.556225	180.0
48.592293	60.0
48.604778	292.0
48.615147	144.0
48.629761	96.0
48.640862	212.0
48.707329	180.0
48.722717	148.0
48.738079	228.0
48.771343	164.0
48.779991	176.0
48.821262	108.0
48.835388	140.0
48.869522	112.0
48.897999	208.0
48.949001	188.0
48.957024	200.0
48.978752	108.0
48.999214	128.0
49.061588	144.0
49.08746	176.0
49.107895	196.0
49.127907	164.0
49.151623	92.0
49.171162	116.0
49.19648	144.0
49.218552	152.0
49.305233	68.0
49.320606	76.0
49.354877	148.0
49.359604	76.0
49.363186	140.0
49.399677	168.0
49.413612	132.0
49.431091	136.0
49.495342	196.0
49.529091	288.0
49.544498	64.0
49.583733	40.0
49.594547	196.0
49.613518	384.0
49.642612	128.0
49.659443	76.0
49.681885	136.0
49.695915	68.0
49.722576	72.0
49.73661	156.0
49.773113	88.0
49.801201	164.0
49.81665	180.0
49.826485	124.0
49.843346	56.0
49.882698	124.0
49.895889	312.0
49.91925	240.0
49.934719	88.0
49.966011	164.0
49.999611	392.0
50.010113	116.0
50.02055	76.0
50.048706	124.0
50.088139	104.0
50.119133	172.0
50.150135	132.0
50.203575	296.0
50.219223	96.0
50.260098	152.0
50.279888	148.0
50.294003	240.0
50.306705	88.0
50.342003	208.0
50.360325	164.0
50.3759	136.0
50.399918	192.0
50.422531	264.0
50.449387	88.0
50.460693	152.0
50.486145	80.0
50.497459	148.0
50.541313	120.0
50.58094	64.0
50.604179	124.0
50.623413	64.0
50.657204	168.0
50.687157	144.0
50.712875	164.0
50.726841	148.0
50.74683	120.0
50.786396	172.0
50.820442	156.0
50.836052	104.0
50.848076	228.0
50.872952	168.0
50.902454	144.0
50.962975	300.0
50.990845	68.0
51.010746	116.0
51.020695	32.0
51.074734	136.0
51.100338	312.0
51.137924	68.0
51.158478	164.0
51.175774	48.0
51.241585	192.0
51.252342	216.0
51.348194	48.0
51.379578	136.0
51.419529	168.0
51.458138	172.0
51.524124	192.0
51.5452	128.0
51.565948	192.0
51.608696	164.0
51.6264	132.0
51.648499	156.0
51.68819	192.0
51.699638	180.0
51.727196	204.0
51.754032	120.0
51.771217	220.0
51.796997	176.0
51.809681	164.0
51.834244	180.0
51.85001	168.0
51.870075	168.0
51.915955	176.0
51.928864	92.0
51.973331	116.0
52.004959	216.0
52.028542	168.0
52.037994	164.0
52.081001	140.0
52.122665	224.0
52.141346	160.0
52.187344	76.0
52.231071	128.0
52.23661	172.0
52.260696	108.0
52.276527	96.0
52.294777	188.0
52.311859	124.0
52.336983	176.0
52.349628	128.0
52.381035	136.0
52.399815	192.0
52.430614	144.0
52.443584	68.0
52.467636	164.0
52.527218	208.0
52.548855	80.0
52.59359	108.0
52.605137	156.0
52.621017	228.0
52.632568	164.0
52.648453	160.0
52.665691	184.0
52.680229	52.0
52.715923	288.0
52.7467	132.0
52.801373	168.0
52.846485	164.0
52.860954	152.0
52.875427	152.0
52.887005	332.0
52.910168	204.0
52.949261	72.0
52.976784	152.0
52.994167	180.0
53.041683	188.0
53.069534	208.0
53.091286	116.0
53.10434	52.0
53.125282	164.0
53.148827	180.0
53.17543	100.0
53.197205	108.0
53.216747	364.0
53.265453	224.0
53.287243	132.0
53.311943	180.0
53.341011	156.0
53.384003	164.0
53.435539	128.0
53.445724	228.0
53.463184	136.0
53.477234	208.0
53.513687	248.0
53.547623	104.0
53.557819	132.0
53.608727	140.0
53.628139	168.0
53.672054	228.0
53.712326	140.0
53.728371	92.0
53.775219	180.0
53.794147	220.0
53.811558	92.0
53.840763	152.0
53.852448	116.0
53.915268	120.0
53.938656	144.0
53.955608	172.0
53.966431	56.0
53.978127	152.0
53.997139	184.0
54.058582	164.0
54.07468	100.0
54.087852	164.0
54.11713	84.0
54.128845	200.0
54.14056	156.0
54.178642	204.0
54.221134	156.0
54.248985	60.0
54.26218	332.0
54.295475	192.0
54.313503	144.0
54.339909	180.0
54.398613	64.0
54.42202	144.0
54.436783	192.0
54.457344	140.0
54.470566	208.0
54.480846	172.0
54.545506	48.0
54.574451	180.0
54.613144	280.0
54.652863	148.0
54.681072	188.0
54.701862	204.0
54.726456	36.0
54.744125	128.0
54.767403	144.0
54.804516	152.0
54.816307	144.0
54.832798	168.0
54.87674	52.0
54.912128	144.0
54.92688	112.0
54.954906	52.0
54.979115	208.0
55.034611	168.0
55.068653	152.0
55.085732	104.0
55.106983	92.0
55.148525	108.0
55.158707	208.0
55.173489	68.0
55.192707	148.0
55.207497	92.0
55.222378	188.0
55.233974	164.0
55.248909	200.0
55.267132	164.0
55.278381	140.0
55.309505	176.0
55.357285	308.0
55.388058	124.0
55.40276	156.0
55.428799	176.0
55.442879	336.0
55.461773	160.0
55.481415	112.0
55.528912	124.0
55.619373	108.0
55.669849	132.0
55.751556	104.0
55.789131	184.0
55.84164	168.0
55.86013	148.0
55.873482	128.0
55.89431	320.0
55.918121	172.0
55.950867	124.0
55.979156	136.0
55.989582	124.0
56.029114	148.0
56.055885	168.0
56.079739	152.0
56.10133	116.0
56.111767	124.0
56.129658	192.0
56.175892	116.0
56.238564	172.0
56.261612	172.0
56.308563	160.0
56.334129	128.0
56.35355	180.0
56.39838	208.0
56.416317	80.0
56.459679	152.0
56.50156	128.0
56.516888	164.0
56.541962	120.0
56.564411	128.0
56.598846	76.0
56.627296	172.0
56.685722	168.0
56.720341	124.0
56.768169	64.0
56.802666	112.0
56.814182	136.0
56.82967	52.0
56.841675	84.0
56.861858	184.0
56.903214	132.0
56.916725	212.0
56.933243	140.0
56.945557	144.0
56.961781	100.0
56.991825	164.0
57.045929	152.0
57.063969	140.0
57.074493	124.0
57.09536	128.0
57.10062	204.0
57.110802	196.0
57.120823	144.0
57.136158	164.0
57.17522	192.0
57.201355	280.0
57.25959	140.0
57.276157	108.0
57.291054	72.0
57.307323	268.0
57.328888	188.0
57.393707	160.0
57.424629	188.0
57.464596	192.0
57.501854	208.0
57.51936	180.0
57.540894	220.0
57.555157	88.0
57.567234	160.0
57.577805	168.0
57.59663	204.0
57.639744	180.0
57.6609	128.0
57.698689	84.0
57.726135	184.0
57.741028	168.0
57.768253	128.0
57.786407	124.0
57.800022	160.0
57.810616	260.0
57.848454	212.0
57.871162	96.0
57.905991	180.0
57.922653	92.0
57.934772	96.0
57.960526	204.0
57.985882	188.0
58.007511	88.0
58.032486	160.0
58.13036	148.0
58.159195	228.0
58.171337	28.0
58.222507	224.0
58.244762	180.0
58.268528	132.0
58.279163	288.0
58.289799	144.0
58.316383	144.0
58.371937	172.0
58.388611	176.0
58.435596	72.0
58.446419	140.0
58.460114	140.0
58.495117	148.0
58.513386	140.0
58.537746	108.0
58.568207	144.0
58.581917	64.0
58.606293	132.0
58.652012	184.0
58.664204	52.0
58.685505	144.0
58.713379	112.0
58.761806	244.0
58.780525	128.0
58.804535	108.0
58.819798	144.0
58.830482	160.0
58.864601	220.0
58.905308	200.0
58.926697	168.0
58.940804	188.0
58.963371	132.0
59.00378	192.0
59.047668	172.0
59.061008	172.0
59.140785	104.0
59.206619	204.0
59.220707	200.0
59.239727	212.0
59.259441	124.0
59.278618	228.0
59.311234	128.0
59.324596	168.0
59.342125	120.0
59.357269	168.0
59.384399	136.0
59.398201	120.0
59.414265	268.0
59.43502	140.0
59.465714	68.0
59.487202	92.0
59.514839	140.0
59.530193	160.0
59.557838	116.0
59.62598	148.0
59.652962	172.0
59.658939	156.0
59.676167	148.0
59.694618	124.0
59.745373	208.0
59.75922	164.0
59.774731	100.0
59.79615	104.0
59.819885	176.0
59.868507	36.0
59.879288	180.0
59.899311	96.0
59.928581	172.0
59.943989	160.0
59.958824	100.0
59.987144	120.0
60.011337	260.0
60.014847	132.0
60.019981	160.0
60.084297	164.0
60.102814	196.0
60.124416	152.0
60.150654	192.0
60.16061	152.0
60.172268	152.0
60.183075	96.0
60.201115	164.0
60.228046	100.0
60.265175	104.0
60.295841	172.0
60.308205	48.0
60.363022	232.0
60.409924	184.0
60.435013	56.0
60.450485	164.0
60.485279	168.0
60.520988	212.0
60.54208	200.0
60.572796	332.0
60.594482	68.0
60.647171	124.0
60.66732	176.0
60.756039	232.0
60.783642	128.0
60.822441	148.0
60.847279	128.0
60.878334	224.0
60.892311	92.0
60.937359	144.0
60.948235	176.0
60.968719	220.0
60.973637	196.0
60.996365	132.0
61.000206	236.0
61.023472	324.0
61.058605	196.0
61.072601	124.0
61.130165	156.0
61.145729	180.0
61.188328	152.0
61.217339	84.0
61.232616	168.0
61.281845	136.0
61.314854	208.0
61.34354	176.0
61.385635	208.0
61.418385	164.0
61.439079	176.0
61.474434	212.0
61.505764	44.0
61.519814	144.0
61.56197	96.0
61.591644	96.0
61.605701	56.0
61.646324	160.0
61.666641	176.0
61.683834	200.0
61.706093	168.0
61.737858	144.0
61.756477	192.0
61.798874	184.0
61.832424	172.0
61.84631	160.0
61.862164	116.0
61.885647	164.0
61.938892	128.0
61.967091	164.0
61.999996	48.0
62.018803	32.0
62.034477	120.0
62.134068	168.0
62.16156	140.0
62.221161	160.0
62.250992	128.0
62.291828	232.0
62.313744	136.0
62.34087	168.0
62.387684	180.0
62.398689	168.0
62.409695	108.0
62.446686	176.0
62.465176	332.0
62.474888	168.0
62.506176	308.0
62.557579	208.0
62.578663	192.0
62.595608	104.0
62.606388	236.0
62.617413	200.0
62.636314	92.0
62.666245	104.0
62.708794	132.0
62.727707	236.0
62.76712	156.0
62.77816	160.0
62.79393	156.0
62.808125	132.0
62.858608	100.0
62.962799	176.0
63.011765	124.0
63.034538	116.0
63.048107	164.0
63.067074	128.0
63.083504	80.0
63.135056	172.0
63.147011	116.0
63.173016	168.0
63.185673	208.0
63.204659	136.0
63.222569	176.0
63.244221	80.0
63.271133	144.0
63.290131	152.0
63.327877	184.0
63.350315	120.0
63.386753	172.0
63.410526	124.0
63.442226	116.0
63.486622	128.0
63.54174	160.0
63.589741	148.0
63.6427	100.0
63.657928	164.0
63.681828	188.0
63.727898	144.0
63.783516	164.0
63.802593	64.0
63.821323	156.0
63.848705	264.0
63.870613	124.0
63.909153	124.0
63.929688	168.0
63.976696	100.0
64.00943	44.0
64.030663	156.0
64.042442	148.0
64.065178	252.0
64.092262	160.0
64.158249	236.0
64.173546	160.0
64.242126	144.0
64.261154	112.0
64.27475	160.0
64.288521	204.0
64.304863	340.0
64.33947	100.0
64.352242	152.0
64.393761	148.0
64.417038	188.0
64.421448	148.0
64.459892	152.0
64.484871	152.0
64.554909	124.0
64.587158	176.0
64.606354	164.0
64.679962	176.0
64.698845	156.0
64.711975	152.0
64.726387	208.0
64.784042	148.0
64.81237	124.0
64.816483	164.0
64.841728	184.0
64.854553	132.0
64.899437	92.0
64.941757	164.0
64.958778	124.0
64.981232	80.0
64.99247	160.0
65.006905	132.0
65.026169	172.0
65.043823	112.0
65.066292	136.0
65.075874	112.0
65.114952	80.0
65.151413	96.0
65.18676	80.0
65.243011	76.0
65.263916	156.0
65.279991	204.0
65.298676	188.0
65.312851	204.0
65.336288	144.0
65.36525	48.0
65.426193	148.0
65.477936	108.0
65.537537	160.0
65.57621	136.0
65.613289	196.0
65.652641	156.0
65.682297	176.0
65.718262	160.0
65.745552	136.0
65.772987	108.0
65.790718	144.0
65.802498	128.0
65.827881	152.0
65.871086	280.0
65.926422	172.0
65.944122	172.0
65.960358	188.0
66.001297	112.0
66.039589	156.0
66.054146	116.0
66.094589	192.0
66.109612	184.0
66.131653	332.0
66.169044	48.0
66.201431	312.0
66.214386	124.0
66.228661	108.0
66.243538	136.0
66.269463	172.0
66.291901	188.0
66.334282	52.0
66.347252	192.0
66.395897	56.0
66.425087	192.0
66.469894	104.0
66.475182	64.0
66.479607	160.0
66.494858	148.0
66.534027	132.0
66.546806	144.0
66.57766	80.0
66.610138	108.0
66.636131	140.0
66.732735	188.0
66.749908	240.0
66.800323	116.0
66.821472	80.0
66.839333	168.0
66.859825	292.0
66.875175	124.0
66.88723	140.0
66.90358	168.0
66.928894	204.0
66.945251	188.0
66.959023	168.0
67.00219	112.0
67.028198	240.0
67.051392	232.0
67.098343	148.0
67.158676	116.0
67.173271	156.0
67.223495	184.0
67.246941	124.0
67.259842	168.0
67.276161	136.0
67.311188	204.0
67.33168	92.0
67.348007	168.0
67.361267	172.0
67.375778	108.0
67.403252	64.0
67.417976	92.0
67.43708	132.0
67.454659	164.0
67.477791	248.0
67.509811	188.0
67.543991	120.0
67.586693	152.0
67.633484	252.0
67.663193	140.0
67.714378	176.0
67.756966	76.0
67.788963	196.0
67.814903	192.0
67.827263	160.0
67.855301	336.0
67.894653	108.0
67.91761	244.0
67.929092	120.0
67.952065	200.0
67.979958	172.0
68.038498	180.0
68.061127	200.0
68.080338	244.0
68.146828	172.0
68.189583	196.0
68.215546	388.0
68.239975	172.0
68.255875	140.0
68.310196	172.0
68.328285	104.0
68.371071	108.0
68.415512	136.0
68.487968	164.0
68.51178	176.0
68.527504	136.0
68.542328	144.0
68.557327	156.0
68.649475	120.0
68.661644	180.0
68.681274	384.0
68.702255	104.0
68.724541	228.0
68.747902	144.0
68.765923	116.0
68.779755	116.0
68.819473	180.0
68.842094	160.0
68.854111	172.0
68.86528	152.0
68.919106	208.0
68.938599	112.0
68.966637	112.0
68.991928	244.0
69.02597	164.0
69.083862	184.0
69.098083	160.0
69.129662	152.0
69.146629	128.0
69.173218	156.0
69.246071	128.0
69.259323	140.0
69.307213	172.0
69.351707	148.0
69.37738	172.0
69.391129	52.0
69.42025	156.0
69.453255	144.0
69.511314	124.0
69.534554	184.0
69.553513	188.0
69.572823	144.0
69.589333	208.0
69.6325	172.0
69.649109	152.0
69.671989	140.0
69.690643	176.0
69.779709	204.0
69.797852	172.0
69.810326	136.0
69.845253	220.0
69.861885	140.0
69.888115	328.0
69.901817	216.0
69.92012	32.0
69.93676	184.0
69.970055	180.0
69.994362	196.0
70.005646	160.0
70.025391	208.0
70.040924	144.0
70.054985	124.0
70.132576	180.0
70.156639	136.0
70.266708	84.0
70.286728	172.0
70.305084	68.0
70.341049	176.0
70.410263	156.0
70.433647	64.0
70.447006	84.0
70.463562	180.0
70.504402	148.0
70.52314	156.0
70.548241	256.0
70.580711	88.0
70.609138	76.0
70.623062	136.0
70.640541	212.0
70.694275	148.0
70.778152	192.0
70.789879	184.0
70.803276	232.0
70.835098	120.0
70.849701	128.0
70.868599	156.0
70.889465	88.0
70.91552	112.0
70.942146	172.0
70.984261	148.0
71.002892	144.0
71.017319	140.0
71.07148	32.0
71.11055	128.0
71.126862	184.0
71.145195	52.0
71.160439	132.0
71.184052	124.0
71.19738	136.0
71.230965	152.0
71.303688	184.0
71.349823	204.0
71.382225	192.0
71.393608	156.0
71.434784	144.0
71.466156	116.0
71.486519	128.0
71.514694	200.0
71.552162	100.0
71.568237	192.0
71.624146	140.0
71.656586	116.0
71.687813	176.0
71.705452	316.0
71.737473	152.0
71.785736	128.0
71.796486	176.0
71.808296	284.0
71.825157	148.0
71.848778	148.0
71.875893	168.0
71.906143	196.0
71.934837	96.0
72.032784	204.0
72.056427	244.0
72.079315	252.0
72.108276	164.0
72.157303	224.0
72.180313	176.0
72.196121	152.0
72.220406	108.0
72.238457	208.0
72.323616	108.0
72.337158	112.0
72.3507	152.0
72.365471	140.0
72.370361	176.0
72.404884	108.0
72.41922	160.0
72.437065	188.0
72.507751	104.0
72.521782	160.0
72.537041	152.0
72.552292	128.0
72.570946	132.0
72.582817	124.0
72.613335	164.0
72.660835	40.0
72.687981	124.0
72.718529	128.0
72.7472	148.0
72.771149	196.0
72.814789	172.0
72.835114	216.0
72.885727	104.0
72.934235	224.0
72.948494	184.0
72.993736	152.0
73.013535	268.0
73.036255	64.0
73.075378	204.0
73.117737	228.0
73.14341	180.0
73.225174	172.0
73.2388	148.0
73.274574	376.0
73.334213	140.0
73.348251	220.0
73.37001	80.0
73.381943	324.0
73.402405	144.0
73.414345	120.0
73.501343	364.0
73.52523	68.0
73.580551	196.0
73.608879	92.0
73.67485	172.0
73.710884	520.0
73.742958	140.0
73.755806	136.0
73.796196	204.0
73.857681	316.0
73.884056	124.0
73.984138	112.0
73.998718	68.0
74.04332	180.0
74.056938	124.0
74.075218	244.0
74.103195	128.0
74.135231	292.0
74.235176	104.0
74.343246	88.0
74.382721	192.0
74.394958	188.0
74.500183	220.0
74.535576	152.0
74.576599	324.0
74.602257	180.0
74.621513	72.0
74.665199	128.0
74.678261	276.0
74.72226	104.0
74.773682	52.0
74.794495	180.0
74.807175	152.0
74.855515	196.0
74.867569	136.0
74.884483	220.0
74.912331	160.0
74.93647	124.0
74.96244	224.0
74.979553	88.0
75.003677	108.0
75.043327	164.0
75.085167	136.0
75.118095	136.0
75.161232	168.0
75.185898	160.0
75.203812	132.0
75.245186	120.0
75.267403	116.0
75.283173	168.0
75.336716	184.0
75.367943	112.0
75.401833	200.0
75.424843	180.0
75.469383	136.0
75.487083	168.0
75.509407	184.0
75.51757	140.0
75.550087	172.0
75.589142	176.0
75.615425	128.0
75.639336	64.0
75.66674	96.0
75.703094	140.0
75.725906	132.0
75.746689	144.0
75.836044	152.0
75.872986	136.0
75.887497	160.0
75.922066	192.0
75.940941	116.0
75.992859	152.0
76.023979	124.0
76.039711	288.0
76.066193	188.0
76.089378	196.0
76.116096	168.0
76.131721	180.0
76.168198	164.0
76.258545	160.0
76.275932	112.0
76.334999	164.0
76.354172	224.0
76.394173	148.0
76.451591	96.0
76.47422	120.0
76.502068	172.0
76.533089	176.0
76.576942	208.0
76.629196	172.0
76.653595	140.0
76.667534	88.0
76.761665	112.0
76.77562	160.0
76.78994	224.0
76.859352	200.0
76.875824	132.0
76.89016	140.0
76.904724	136.0
76.918686	176.0
76.946617	188.0
76.972809	64.0
77.039177	152.0
77.06189	36.0
77.089844	136.0
77.142494	32.0
77.163254	72.0
77.182465	168.0
77.259445	120.0
77.280952	176.0
77.30143	160.0
77.322433	128.0
77.342148	136.0
77.365181	228.0
77.416969	44.0
77.459	64.0
77.476517	140.0
77.499298	152.0
77.526764	124.0
77.54985	184.0
77.597137	156.0
77.609764	144.0
77.633804	152.0
77.686882	288.0
77.704552	172.0
77.757072	184.0
77.785156	164.0
77.812408	80.0
77.830803	200.0
77.849258	164.0
77.868019	192.0
77.901047	184.0
77.964302	80.0
77.984421	312.0
78.020927	172.0
78.060989	88.0
78.090881	188.0
78.108696	188.0
78.147865	248.0
78.178848	92.0
78.192924	136.0
78.214752	140.0
78.233414	240.0
78.251762	232.0
78.287994	136.0
78.307365	68.0
78.324257	176.0
78.337311	184.0
78.351402	136.0
78.374107	132.0
78.42012	36.0
78.432465	152.0
78.454903	148.0
78.499458	188.0
78.518852	136.0
78.578827	180.0
78.601898	268.0
78.619263	408.0
78.644119	196.0
78.667068	136.0
78.706284	168.0
78.720032	156.0
78.734047	128.0
78.769485	248.0
78.797752	64.0
78.822487	112.0
78.864899	180.0
78.902023	224.0
78.916168	140.0
78.944458	36.0
78.985397	160.0
79.001053	256.0
79.043175	208.0
79.09449	160.0
79.105881	168.0
79.119621	96.0
79.142639	144.0
79.165749	80.0
79.185143	120.0
79.20639	44.0
79.259544	52.0
79.333977	148.0
79.370232	152.0
79.456345	100.0
79.479408	232.0
79.523773	232.0
79.592247	224.0
79.628525	136.0
79.67189	172.0
79.703659	164.0
79.747566	36.0
79.76178	168.0
79.800896	164.0
79.82045	68.0
79.844986	176.0
79.85994	176.0
79.88092	136.0
79.971664	200.0
79.998367	156.0
80.014702	428.0
80.028633	116.0
80.059975	140.0
80.079262	388.0
80.123413	240.0
80.143196	152.0
80.166946	148.0
80.201431	372.0
80.221039	220.0
80.233521	120.0
80.285225	124.0
80.299492	172.0
80.326248	116.0
80.355988	220.0
80.433182	112.0
80.461876	132.0
80.517227	320.0
80.535934	208.0
80.554184	168.0
80.611908	140.0
80.649292	160.0
80.669487	148.0
80.699493	196.0
80.749557	164.0
80.801437	76.0
80.839333	132.0
80.858696	152.0
80.881966	152.0
80.908813	80.0
80.96611	208.0
80.980438	220.0
81.000679	40.0
81.01519	260.0
81.035973	184.0
81.048515	100.0
81.09845	120.0
81.130119	200.0
81.184746	160.0
81.212158	168.0
81.231377	64.0
81.263672	92.0
81.304939	144.0
81.328636	176.0
81.37854	160.0
81.403671	112.0
81.421631	184.0
81.453964	104.0
81.504265	124.0
81.525826	176.0
81.556381	88.0
81.57975	208.0
81.599342	120.0
81.637283	220.0
81.666061	144.0
81.686424	136.0
81.718224	116.0
81.73082	264.0
81.779411	92.0
81.815414	108.0
81.853165	136.0
81.905449	232.0
81.939674	180.0
82.009956	216.0
82.028458	224.0
82.064812	164.0
82.076653	168.0
82.100098	96.0
82.116325	200.0
82.128952	276.0
82.14978	168.0
82.184082	336.0
82.208809	92.0
82.298584	148.0
82.354568	100.0
82.40696	108.0
82.474831	172.0
82.512329	184.0
82.525642	168.0
82.542519	96.0
82.562523	192.0
82.636574	76.0
82.66552	136.0
82.702164	192.0
82.74736	196.0
82.778595	188.0
82.839874	200.0
82.866508	112.0
82.89006	124.0
82.906372	304.0
82.918442	148.0
83.004211	156.0
83.031433	132.0
83.051407	160.0
83.065918	120.0
83.093513	152.0
83.125793	136.0
83.182053	196.0
83.211952	136.0
83.292458	192.0
83.302696	200.0
83.355927	152.0
83.37751	124.0
83.410927	180.0
83.444511	156.0
83.486923	120.0
83.520027	152.0
83.5364	96.0
83.565506	156.0
83.589157	140.0
83.64917	140.0
83.684959	216.0
83.75119	112.0
83.790611	168.0
83.851395	176.0
83.864151	184.0
83.876915	92.0
83.893318	192.0
83.929413	184.0
83.95713	168.0
83.977196	108.0
83.991783	56.0
84.01368	92.0
84.041046	68.0
84.101265	220.0
84.135948	128.0
84.172462	120.0
84.187073	188.0
84.22908	80.0
84.268692	152.0
84.288994	176.0
84.294434	140.0
84.301254	284.0
84.325912	124.0
84.355164	184.0
84.376266	228.0
84.402222	92.0
84.437439	84.0
84.456818	128.0
84.505119	44.0
84.53257	196.0
84.54538	288.0
84.576492	152.0
84.634209	212.0
84.679024	104.0
84.691841	144.0
84.710159	96.0
84.724365	180.0
84.750465	84.0
84.79628	108.0
84.840271	132.0
84.893616	168.0
84.935623	120.0
84.976234	144.0
85.002213	188.0
85.036888	188.0
85.045341	176.0
85.078758	328.0
85.11026	200.0
85.133408	168.0
85.163277	136.0
85.204872	184.0
85.220039	172.0
85.285202	180.0
85.332283	176.0
85.346542	212.0
85.349564	160.0
85.388412	236.0
85.460052	188.0
85.477585	236.0
85.511887	144.0
85.558571	140.0
85.582504	156.0
85.601944	108.0
85.639595	132.0
85.674591	148.0
85.689079	160.0
85.726181	172.0
85.742722	172.0
85.748558	168.0
85.754463	196.0
85.783318	172.0
85.801231	180.0
85.838631	256.0
85.878929	164.0
85.905022	140.0
85.927574	268.0
85.947456	212.0
85.988052	144.0
86.002823	156.0
86.017586	228.0
86.032356	140.0
86.051704	116.0
86.079681	272.0
86.112656	204.0
86.153008	260.0
86.169014	124.0
86.233688	128.0
86.259567	60.0
86.343605	212.0
86.377914	140.0
86.417397	192.0
86.440819	64.0
86.488243	196.0
86.501892	108.0
86.518044	200.0
86.532166	204.0
86.583359	164.0
86.609283	100.0
86.632477	192.0
86.653748	208.0
86.68895	144.0
86.736595	136.0
86.758896	184.0
86.774216	92.0
86.822426	152.0
86.848389	172.0
86.933487	152.0
86.950432	160.0
86.974304	88.0
87.013176	80.0
87.088272	112.0
87.100822	268.0
87.121254	120.0
87.169563	156.0
87.206734	116.0
87.219742	144.0
87.243912	224.0
87.25692	108.0
87.287369	364.0
87.331306	40.0
87.344322	176.0
87.365585	84.0
87.43177	160.0
87.444794	200.0
87.501778	72.0
87.53788	148.0
87.562088	60.0
87.582573	140.0
87.602371	152.0
87.635773	204.0
87.693771	212.0
87.754562	124.0
87.761864	156.0
87.797981	148.0
87.819908	160.0
87.837936	88.0
87.858459	100.0
87.871521	88.0
87.923447	156.0
87.946114	156.0
87.976028	64.0
88.007767	156.0
88.030281	272.0
88.050713	176.0
88.089935	188.0
88.115417	256.0
88.151596	104.0
88.175888	220.0
88.205795	276.0
88.224487	108.0
88.237572	72.0
88.285301	328.0
88.336685	152.0
88.363731	220.0
88.399689	148.0
88.448036	164.0
88.49202	100.0
88.551941	144.0
88.57254	80.0
88.595779	148.0
88.613754	180.0
88.653107	176.0
88.671844	144.0
88.688713	196.0
88.718704	104.0
88.756203	108.0
88.791832	88.0
88.818825	132.0
88.822395	204.0
88.840508	412.0
88.855606	188.0
88.870613	144.0
88.938171	128.0
88.990738	208.0
89.022186	192.0
89.029594	144.0
89.047073	140.0
89.067513	216.0
89.098907	196.0
89.124092	164.0
89.142464	144.0
89.167648	112.0
89.187988	120.0
89.20755	236.0
89.238747	100.0
89.319611	48.0
89.34935	84.0
89.415565	72.0
89.482903	220.0
89.557709	184.0
89.571838	204.0
89.59333	156.0
89.673584	196.0
89.734962	164.0
89.758415	132.0
89.834213	176.0
89.88102	244.0
89.896118	212.0
89.911217	108.0
89.941414	128.0
89.976624	288.0
89.998978	140.0
90.013153	192.0
90.035812	208.0
90.073219	196.0
90.105705	160.0
90.145378	196.0
90.186867	164.0
90.290947	152.0
90.313187	184.0
90.327858	112.0
90.359039	112.0
90.374176	116.0
90.397598	224.0
90.423378	268.0
90.461235	100.0
90.483948	72.0
90.4972	188.0
90.516136	224.0
90.57579	96.0
90.603317	136.0
90.632996	196.0
90.652527	188.0
90.677834	248.0
90.713173	172.0
90.743507	196.0
90.779045	156.0
90.807976	104.0
90.895241	136.0
90.913292	196.0
90.946663	284.0
90.963379	164.0
90.984444	156.0
91.049004	180.0
91.102959	148.0
91.116692	164.0
91.129967	264.0
91.188416	168.0
91.206703	96.0
91.237587	144.0
91.277039	40.0
91.298866	316.0
91.377846	116.0
91.398781	148.0
91.421616	44.0
91.462685	152.0
91.504074	148.0
91.535828	88.0
91.583916	192.0
91.629158	196.0
91.648209	68.0
91.696556	216.0
91.710098	176.0
91.739685	164.0
91.764473	184.0
91.785446	192.0
91.79879	168.0
91.837196	176.0
91.869362	156.0
91.899353	156.0
91.919693	200.0
91.933746	172.0
91.959747	284.0
91.992332	164.0
92.006767	136.0
92.031586	224.0
92.066544	196.0
92.100334	100.0
92.144272	128.0
92.183464	176.0
92.198921	100.0
92.220703	168.0
92.234085	152.0
92.246956	60.0
92.276917	276.0
92.290466	112.0
92.325645	184.0
92.330849	164.0
92.36985	80.0
92.465256	180.0
92.49614	108.0
92.530594	156.0
92.55986	140.0
92.566589	40.0
92.573654	172.0
92.601448	144.0
92.6269	180.0
92.672325	116.0
92.72023	164.0
92.759247	168.0
92.777733	156.0
92.802444	180.0
92.829498	176.0
92.879669	152.0
92.900467	228.0
92.931435	224.0
92.945374	284.0
92.975296	68.0
92.989304	216.0
93.004082	168.0
93.027115	172.0
93.10968	212.0
93.126961	144.0
93.143066	136.0
93.165161	104.0
93.192276	112.0
93.207649	160.0
93.23455	124.0
93.257614	152.0
93.307594	124.0
93.332085	168.0
93.371048	124.0
93.397972	148.0
93.424904	52.0
93.474648	164.0
93.517265	148.0
93.533287	124.0
93.559616	136.0
93.58226	144.0
93.634712	148.0
93.680939	180.0
93.727173	204.0
93.758827	160.0
93.779205	120.0
93.821571	172.0
93.850533	156.0
93.912239	52.0
93.929604	184.0
93.94722	152.0
93.965492	172.0
94.0103	116.0
94.02993	136.0
94.074326	144.0
94.093636	160.0
94.13092	220.0
94.153488	148.0
94.201775	116.0
94.23481	124.0
94.257805	176.0
94.295441	84.0
94.321579	108.0
94.335114	104.0
94.356377	108.0
94.371841	96.0
94.410515	108.0
94.424057	184.0
94.462036	44.0
94.478218	84.0
94.513039	156.0
94.593895	36.0
94.62336	184.0
94.689598	136.0
94.713524	152.0
94.784706	224.0
94.859703	136.0
94.877151	204.0
94.891319	168.0
94.915443	96.0
94.935318	192.0
94.955605	148.0
94.980843	144.0
95.016785	164.0
95.038124	36.0
95.05365	64.0
95.090523	124.0
95.117691	148.0
95.168167	164.0
95.205269	228.0
95.27887	96.0
95.319725	148.0
95.341049	208.0
95.365364	156.0
95.412964	96.0
95.434349	184.0
95.469353	132.0
95.485817	180.0
95.510841	120.0
95.517586	120.0
95.522728	216.0
95.55883	156.0
95.602516	284.0
95.623047	32.0
95.670433	220.0
95.693123	84.0
95.710648	172.0
95.732346	180.0
95.769066	136.0
95.7827	168.0
95.862579	184.0
95.894905	136.0
95.92028	128.0
95.95224	116.0
95.969788	172.0
95.991234	148.0
96.011757	244.0
96.042198	312.0
96.067299	104.0
96.119896	168.0
96.178528	120.0
96.235138	164.0
96.248802	204.0
96.279228	188.0
96.297623	152.0
96.324974	180.0
96.348198	180.0
96.369156	168.0
96.39798	156.0
96.424622	300.0
96.471527	112.0
96.490189	132.0
96.503967	108.0
96.565933	200.0
96.590691	184.0
96.657326	160.0
96.671028	180.0
96.712128	132.0
96.730942	228.0
96.755188	108.0
96.776726	128.0
96.815887	96.0
96.851143	60.0
96.936935	316.0
96.970657	148.0
96.988297	144.0
97.026375	324.0
97.07119	156.0
97.098091	128.0
97.116905	156.0
97.135361	148.0
97.162827	184.0
97.17852	176.0
97.202065	148.0
97.229774	172.0
97.264549	224.0
97.292351	200.0
97.329651	120.0
97.347321	124.0
97.362053	192.0
97.394455	140.0
97.465179	136.0
97.49369	156.0
97.522171	164.0
97.572388	192.0
97.62735	128.0
97.667458	252.0
97.705048	104.0
97.742645	144.0
97.769974	132.0
97.808884	168.0
97.811813	140.0
97.840561	204.0
97.862495	180.0
97.895966	148.0
97.917633	184.0
97.939949	204.0
97.958992	160.0
97.972778	168.0
98.018593	140.0
98.058617	128.0
98.084183	240.0
98.098663	164.0
98.126503	144.0
98.199692	68.0
98.282318	136.0
98.327705	76.0
98.343491	128.0
98.358742	204.0
98.380997	188.0
98.433998	256.0
98.45208	88.0
98.515282	144.0
98.539345	160.0
98.567719	140.0
98.631866	124.0
98.645706	164.0
98.678413	212.0
98.699081	212.0
98.72139	200.0
98.74157	196.0
98.781372	188.0
98.796082	180.0
98.823692	116.0
98.876457	112.0
98.906807	136.0
98.951569	244.0
99.011337	216.0
99.07093	168.0
99.118713	168.0
99.157928	132.0
99.162842	104.0
99.176323	172.0
99.243362	140.0
99.258789	96.0
99.297928	196.0
99.340462	208.0
99.371552	292.0
99.412193	104.0
99.456871	164.0
99.476791	184.0
99.506363	184.0
99.523758	156.0
99.54203	196.0
99.580093	180.0
99.605675	144.0
99.655441	196.0
99.684242	240.0
99.733978	160.0
99.763741	160.0
99.778816	192.0
99.799751	164.0
99.837311	184.0
99.868713	152.0
99.896629	184.0
99.903366	152.0
99.930191	184.0
99.949768	156.0
99.990494	36.0
100.01239	160.0
100.036621	184.0
100.078079	220.0
100.133835	128.0
100.150917	200.0
100.166962	276.0
100.199547	288.0
100.253372	84.0
100.271309	120.0
100.289246	176.0
100.339081	136.0
100.363007	104.0
100.388924	96.0
100.411911	244.0
100.442772	76.0
100.469063	136.0
100.488655	156.0
100.506775	148.0
100.535622	320.0
100.568481	156.0
100.613609	204.0
100.651825	144.0
100.757927	124.0
100.77916	128.0
100.812126	160.0
100.826118	116.0
100.866089	120.0
100.912071	164.0
100.958061	140.0
100.972061	164.0
100.994675	220.0
101.014061	312.0
101.074081	164.0
101.096245	104.0
101.150131	220.0
101.19017	68.0
101.207733	140.0
101.238228	204.0
101.26226	124.0
101.278557	144.0
101.301491	176.0
101.323555	180.0
101.353989	260.0
101.386871	60.0
101.414528	228.0
101.428368	168.0
101.466644	220.0
101.49897	164.0
101.524796	48.0
101.557266	188.0
101.62709	152.0
101.65744	236.0
101.729698	332.0
101.749893	152.0
101.759415	112.0
101.766029	144.0
101.786415	192.0
101.863251	164.0
101.906174	148.0
101.934906	148.0
102.00264	228.0
102.041824	140.0
102.058929	144.0
102.084839	140.0
102.163513	76.0
102.229904	120.0
102.246574	384.0
102.287376	220.0
102.310417	136.0
102.332558	168.0
102.352798	156.0
102.385887	164.0
102.429222	128.0
102.451385	140.0
102.469513	140.0
102.489662	148.0
102.515862	176.0
102.539642	176.0
102.578339	128.0
102.600449	128.0
102.658981	136.0
102.697304	104.0
102.715454	180.0
102.729576	48.0
102.767906	124.0
102.782028	180.0
102.814316	172.0
102.914322	232.0
102.933418	124.0
102.977852	92.0
103.010162	144.0
103.038445	152.0
103.062691	148.0
103.080879	136.0
103.101089	124.0
103.115234	116.0
103.14151	136.0
103.159698	120.0
103.189262	308.0
103.213852	168.0
103.237389	152.0
103.288666	180.0
103.323502	264.0
103.336838	156.0
103.368019	68.0
103.382179	144.0
103.451897	140.0
103.511734	164.0
103.589714	168.0
103.613297	140.0
103.667717	128.0
103.683929	148.0
103.708244	88.0
103.746758	108.0
103.771149	132.0
103.844681	196.0
103.896324	160.0
103.927261	176.0
103.953644	152.0
103.978279	84.0
104.008438	60.0
104.037163	160.0
104.05513	40.0
104.069336	108.0
104.0998	104.0
104.124023	168.0
104.131714	156.0
104.173531	128.0
104.194267	188.0
104.213493	168.0
104.241989	208.0
104.285645	92.0
104.333458	80.0
104.378677	132.0
104.421318	132.0
104.439194	32.0
104.465637	176.0
104.483948	96.0
104.508308	152.0
104.534813	132.0
104.624367	104.0
104.648544	192.0
104.665108	276.0
104.686722	128.0
104.735825	212.0
104.81588	136.0
104.844345	188.0
104.888687	260.0
104.905495	172.0
104.942192	192.0
104.972771	200.0
105.007736	140.0
105.029877	116.0
105.084961	180.0
105.118996	164.0
105.135971	196.0
105.152298	144.0
105.184952	176.0
105.215576	200.0
105.240074	132.0
105.295212	156.0
105.314789	316.0
105.376419	132.0
105.437569	152.0
105.458656	132.0
105.485229	260.0
105.591553	116.0
105.621101	232.0
105.675415	116.0
105.722481	52.0
105.755226	156.0
105.789085	140.0
105.818512	188.0
105.872978	148.0
105.888306	108.0
105.904694	124.0
105.939514	44.0
105.955902	68.0
105.980484	196.0
106.006462	332.0
106.038551	104.0
106.053345	152.0
106.071381	176.0
106.093788	184.0
106.137268	112.0
106.15062	164.0
106.208038	104.0
106.254654	144.0
106.278648	96.0
106.298309	112.0
106.345695	180.0
106.375938	136.0
106.396828	188.0
106.431732	140.0
106.470749	208.0
106.492737	220.0
106.530312	96.0
106.548256	152.0
106.567291	64.0
106.61026	180.0
106.615852	164.0
106.637161	200.0
106.651543	36.0
106.702324	148.0
106.73378	96.0
106.759918	112.0
106.814636	152.0
106.836609	152.0
106.858009	140.0
106.953903	100.0
106.975822	160.0
107.005363	176.0
107.052727	192.0
107.091278	128.0
107.105606	272.0
107.133049	96.0
107.198982	104.0
107.222473	72.0
107.26738	108.0
107.285545	84.0
107.29998	192.0
107.333443	184.0
107.365959	136.0
107.382462	124.0
107.407005	120.0
107.535133	184.0
107.569252	204.0
107.599442	144.0
107.642487	116.0
107.673462	208.0
107.725914	152.0
107.75618	180.0
107.828407	168.0
107.867821	236.0
107.886284	64.0
107.915382	108.0
107.947693	148.0
107.967995	168.0
108.001503	172.0
108.026688	152.0
108.053795	88.0
108.074486	112.0
108.115875	180.0
108.163475	136.0
108.206947	180.0
108.252502	112.0
108.300133	116.0
108.318771	224.0
108.357513	120.0
108.380928	140.0
108.401649	172.0
108.434807	232.0
108.494919	116.0
108.515648	272.0
108.559189	188.0
108.596519	184.0
108.621414	104.0
108.635933	144.0
108.710625	156.0
108.732712	112.0
108.744522	108.0
108.779114	144.0
108.800262	296.0
108.839317	44.0
108.883858	436.0
108.917427	164.0
108.970169	140.0
109.005493	156.0
109.04203	124.0
109.096947	80.0
109.139442	168.0
109.169716	140.0
109.186356	92.0
109.221153	164.0
109.248749	116.0
109.302353	132.0
109.318695	156.0
109.390259	172.0
109.481865	136.0
109.511024	140.0
109.528946	132.0
109.565811	172.0
109.597641	124.0
109.642982	332.0
109.6642	152.0
109.696472	120.0
109.832008	124.0
109.848694	64.0
109.86647	252.0
109.901154	220.0
109.932144	312.0
109.987534	104.0
110.058205	440.0
110.11586	120.0
110.151367	208.0
110.178528	52.0
110.19883	100.0
110.211487	324.0
110.251656	68.0
110.318542	160.0
110.353821	32.0
110.370262	216.0
110.408447	56.0
110.428398	208.0
110.459229	172.0
110.488304	180.0
110.51931	144.0
110.536049	228.0
110.554886	52.0
110.573959	140.0
110.610428	168.0
110.68676	80.0
110.701424	116.0
110.747269	112.0
110.82885	168.0
110.841766	200.0
110.864609	180.0
110.894157	212.0
110.917213	108.0
110.982201	96.0
111.022041	64.0
111.047165	184.0
111.092377	360.0
111.120628	184.0
111.135315	128.0
111.174706	176.0
111.27594	196.0
111.30323	56.0
111.34079	172.0
111.408875	188.0
111.462868	72.0
111.479683	220.0
111.504715	92.0
111.533478	148.0
111.550484	140.0
111.562393	148.0
111.605804	52.0
111.657219	224.0
111.721474	204.0
111.767639	204.0
111.793015	52.0
111.832771	184.0
111.83551	228.0
111.86364	176.0
111.912224	160.0
111.936157	156.0
111.961426	304.0
111.978271	76.0
112.003548	200.0
112.028694	128.0
112.049889	132.0
112.064636	200.0
112.101921	156.0
112.125748	128.0
112.163788	172.0
112.18898	424.0
112.231148	128.0
112.250961	172.0
112.372459	140.0
112.416771	144.0
112.477974	156.0
112.492752	136.0
112.570457	124.0
112.594101	212.0
112.636337	120.0
112.651131	168.0
112.678429	156.0
112.748085	200.0
112.807503	148.0
112.834984	140.0
112.856125	160.0
112.877274	184.0
112.94606	144.0
112.989365	104.0
113.038033	224.0
113.070625	272.0
113.112106	160.0
113.140175	156.0
113.157822	148.0
113.181969	284.0
113.196793	108.0
113.240791	168.0
113.289986	132.0
113.340187	172.0
113.371742	184.0
113.425598	100.0
113.442131	184.0
113.463478	192.0
113.501923	164.0
113.586754	152.0
113.622375	116.0
113.699203	148.0
113.763741	128.0
113.781807	144.0
113.799797	216.0
113.837189	216.0
113.88179	208.0
113.896652	140.0
113.956223	104.0
113.990135	56.0
114.022011	180.0
114.053368	180.0
114.062202	136.0
114.069176	168.0
114.092667	216.0
114.143501	132.0
114.164444	56.0
114.192093	136.0
114.236763	136.0
114.279312	104.0
114.298462	144.0
114.315857	136.0
114.35379	148.0
114.396362	124.0
114.41552	184.0
114.451714	164.0
114.479393	196.0
114.515594	172.0
114.53685	176.0
114.592789	168.0
114.622238	212.0
114.673264	212.0
114.71244	188.0
114.801979	264.0
114.834007	172.0
114.892891	204.0
114.921768	204.0
115.005981	180.0
115.055054	312.0
115.085236	64.0
115.127678	52.0
115.15789	136.0
115.193886	152.0
115.214775	144.0
115.222878	112.0
115.231537	96.0
115.240242	172.0
115.25798	100.0
115.27935	100.0
115.318558	92.0
115.373901	336.0
115.389526	156.0
115.427895	140.0
115.474022	188.0
115.539284	296.0
115.56926	192.0
115.591545	40.0
115.637199	132.0
115.683258	160.0
115.713829	92.0
115.750534	176.0
115.764282	156.0
115.827049	96.0
115.888596	192.0
115.936317	100.0
115.955605	44.0
116.000618	168.0
116.024658	168.0
116.06398	168.0
116.069344	236.0
116.120575	152.0
116.125931	144.0
116.158096	356.0
116.176453	144.0
116.193619	192.0
116.215073	128.0
116.318085	128.0
116.352432	88.0
116.417336	332.0
116.440262	200.0
116.479126	100.0
116.498238	116.0
116.50441	104.0
116.511879	196.0
116.560074	124.0
116.587227	180.0
116.630112	180.0
116.699112	140.0
116.734886	136.0
116.760071	224.0
116.816612	96.0
116.831673	108.0
116.884247	312.0
116.922882	124.0
116.947868	164.0
116.995224	160.0
117.02536	164.0
117.078789	224.0
117.097862	144.0
117.133759	144.0
117.193359	260.0
117.225685	112.0
117.243263	152.0
117.282707	136.0
117.327942	216.0
117.460686	100.0
117.481949	228.0
117.490089	196.0
117.495392	228.0
117.551559	152.0
117.585823	176.0
117.616043	164.0
117.650581	144.0
117.672165	144.0
117.702393	64.0
117.723228	216.0
117.776428	200.0
117.806061	88.0
117.821182	128.0
117.853523	120.0
117.874413	160.0
117.89357	168.0
117.961647	92.0
117.992386	128.0
118.01786	92.0
118.035156	172.0
118.051117	200.0
118.114685	164.0
118.165558	136.0
118.197388	152.0
118.226715	188.0
118.26664	160.0
118.312096	188.0
118.342407	88.0
118.41674	188.0
118.437904	164.0
118.473915	156.0
118.511246	156.0
118.52507	216.0
118.569519	184.0
118.57769	156.0
118.608772	192.0
118.639214	100.0
118.66523	128.0
118.725945	156.0
118.754135	232.0
118.769928	184.0
118.799889	184.0
118.831688	176.0
118.886475	128.0
118.942436	168.0
118.971123	136.0
118.995239	216.0
119.056793	44.0
119.112274	132.0
119.173363	336.0
119.206726	84.0
119.32959	192.0
119.362816	240.0
119.40889	136.0
119.443192	200.0
119.470947	152.0
119.501404	292.0
119.533646	152.0
119.541512	268.0
119.571037	124.0
119.626053	232.0
119.68206	164.0
119.700264	188.0
119.733459	152.0
119.762634	396.0
119.804024	116.0
119.82338	176.0
119.847595	360.0
119.878098	80.0
119.904251	260.0
119.923866	228.0
119.987083	76.0
120.021965	76.0
120.078659	140.0
120.096107	144.0
120.111382	32.0
120.137558	156.0
120.163734	100.0
120.200829	144.0
120.224831	80.0
120.260841	168.0
120.29686	136.0
120.331787	144.0
120.353622	164.0
120.382004	128.0
120.416946	404.0
120.486847	176.0
120.573967	184.0
120.611404	144.0
120.643127	164.0
120.66256	140.0
120.677681	164.0
120.738213	132.0
120.752937	168.0
120.774147	112.0
120.801575	128.0
120.836647	68.0
120.856339	76.0
120.884781	84.0
120.90451	152.0
120.952629	172.0
120.985291	200.0
121.011734	172.0
121.029091	112.0
121.036491	104.0
121.045189	144.0
121.108467	116.0
121.159866	176.0
121.206841	152.0
121.231445	156.0
121.255409	132.0
121.283043	132.0
121.288696	112.0
121.295158	180.0
121.32283	192.0
121.368759	152.0
121.376297	324.0
121.412727	48.0
121.490135	96.0
121.511436	148.0
121.550926	148.0
121.619789	112.0
121.667252	68.0
121.687012	116.0
121.708969	132.0
121.730927	192.0
121.747261	244.0
121.799011	208.0
121.827568	44.0
121.844002	124.0
121.88868	176.0
121.901321	336.0
121.917648	308.0
122.023155	100.0
122.059029	152.0
122.082275	120.0
122.144104	132.0
122.218903	124.0
122.243111	64.0
122.26255	120.0
122.293724	100.0
122.322342	236.0
122.355362	64.0
122.434631	124.0
122.492012	148.0
122.513924	148.0
122.53595	192.0
122.554237	120.0
122.56855	176.0
122.593239	104.0
122.621887	84.0
122.640518	116.0
122.664825	400.0
122.746552	240.0
122.814316	168.0
122.835762	204.0
122.858093	228.0
122.881889	196.0
122.92205	164.0
123.065834	192.0
123.092659	156.0
123.123184	112.0
123.138153	164.0
123.163094	136.0
123.180115	164.0
123.199997	308.0
123.241501	112.0
123.321533	148.0
123.350266	32.0
123.374336	180.0
123.467834	136.0
123.493988	44.0
123.513893	224.0
123.580261	128.0
123.620766	180.0
123.637794	120.0
123.706551	188.0
123.760887	136.0
123.792755	112.0
123.834831	180.0
123.874771	120.0
123.915802	144.0
123.94429	200.0
123.963326	64.0
124.000999	124.0
124.01651	84.0
124.036461	80.0
124.076317	196.0
124.111862	616.0
124.155678	176.0
124.196106	88.0
124.244408	160.0
124.251137	124.0
124.281837	136.0
124.298157	160.0
124.340317	132.0
124.360291	80.0
124.376816	140.0
124.395805	100.0
124.413567	140.0
124.481682	180.0
124.556076	184.0
124.609764	152.0
124.650978	112.0
124.667732	176.0
124.687088	140.0
124.735672	116.0
124.766579	236.0
124.781242	240.0
124.797424	144.0
124.903442	124.0
124.955826	236.0
124.981758	164.0
125.029694	184.0
125.071579	504.0
125.113098	272.0
125.12986	268.0
125.153915	224.0
125.205132	136.0
125.238541	120.0
125.270782	160.0
125.294228	148.0
125.414558	164.0
125.480354	280.0
125.499268	232.0
125.536606	156.0
125.568398	96.0
125.59568	152.0
125.623711	256.0
125.646469	136.0
125.664215	180.0
125.70002	108.0
125.742416	116.0
125.780365	148.0
125.80938	200.0
125.848938	128.0
125.866653	264.0
125.885292	120.0
125.918793	152.0
125.990273	96.0
126.014847	180.0
126.033577	104.0
126.066399	168.0
126.088493	96.0
126.105011	264.0
126.127113	360.0
126.204826	208.0
126.240494	232.0
126.276062	140.0
126.287987	148.0
126.344177	148.0
126.408371	216.0
126.42646	136.0
126.458572	280.0
126.484322	256.0
126.522522	116.0
126.570206	280.0
126.681519	108.0
126.72715	228.0
126.782341	144.0
126.811478	160.0
126.827164	92.0
126.861504	224.0
126.917053	124.0
126.966171	208.0
126.990494	172.0
127.020058	156.0
127.050308	108.0
127.11647	132.0
127.151009	100.0
127.181511	188.0
127.249878	176.0
127.270805	180.0
127.276962	136.0
127.307281	92.0
127.351997	180.0
127.410599	160.0
127.447784	224.0
127.478004	380.0
127.493378	176.0
127.529694	140.0
127.581505	160.0
127.636345	172.0
127.653343	136.0
127.687073	160.0
127.718559	120.0
127.746681	120.0
127.784218	196.0
127.79435	116.0
127.849197	192.0
127.909821	60.0
127.979607	224.0
128.009552	136.0
128.069534	272.0
128.095474	220.0
128.151306	204.0
128.182327	156.0
128.232956	248.0
128.27887	148.0
128.282074	124.0
128.291214	180.0
128.364563	128.0
128.385208	132.0
128.414047	112.0
128.452881	232.0
128.485596	332.0
128.520554	120.0
128.552139	40.0
128.572769	144.0
128.621353	444.0
128.66951	152.0
128.687576	140.0
128.714676	164.0
128.757584	116.0
128.805008	188.0
128.858368	284.0
128.922974	148.0
128.9776	208.0
129.070419	464.0
129.094299	120.0
129.110123	124.0
129.130478	120.0
129.17775	156.0
129.200607	92.0
129.226608	400.0
129.251816	144.0
129.300674	220.0
129.348938	112.0
129.365799	172.0
129.397491	108.0
129.422928	120.0
129.44278	116.0
129.483536	248.0
129.49939	268.0
129.522049	124.0
129.549225	168.0
129.590942	328.0
129.633057	72.0
129.70993	152.0
129.750916	144.0
129.778122	204.0
129.826736	128.0
129.866562	64.0
129.882446	208.0
129.911926	288.0
129.99588	260.0
130.062683	264.0
130.104828	224.0
130.140091	112.0
130.194366	192.0
130.302399	188.0
130.324142	156.0
130.375122	140.0
130.428452	172.0
130.453171	212.0
130.481949	120.0
130.517258	156.0
130.552429	216.0
130.57518	144.0
130.616119	108.0
130.672989	108.0
130.71167	136.0
130.76738	92.0
130.79007	152.0
130.806259	156.0
130.824738	164.0
130.852356	280.0
130.881882	128.0
130.908188	192.0
130.948425	184.0
130.96965	164.0
131.050934	136.0
131.07283	184.0
131.141586	204.0
131.160614	124.0
131.208191	352.0
131.251923	44.0
131.274307	112.0
131.303955	84.0
131.327682	408.0
131.43399	164.0
131.456802	116.0
131.47963	152.0
131.497879	96.0
131.516144	456.0
131.707306	272.0
131.752991	160.0
131.847305	92.0
131.878906	128.0
131.896805	128.0
131.918167	36.0
131.955093	104.0
132.009613	100.0
132.056137	152.0
132.091949	96.0
132.126755	220.0
132.165161	184.0
132.202881	164.0
132.242493	136.0
132.304764	156.0
132.381638	196.0
132.405518	52.0
132.453125	168.0
132.4897	180.0
132.568726	132.0
132.591354	132.0
132.625458	128.0
132.650681	140.0
132.673599	212.0
132.7034	156.0
132.735504	104.0
132.783661	84.0
132.828339	188.0
132.847885	108.0
132.866241	128.0
132.882294	128.0
132.898361	60.0
132.95343	132.0
132.99556	212.0
133.015396	40.0
133.033768	180.0
133.06842	156.0
133.084702	168.0
133.131165	152.0
133.15387	220.0
133.288696	48.0
133.327759	132.0
133.352905	168.0
133.449661	116.0
133.494324	184.0
133.54541	132.0
133.566864	128.0
133.58757	120.0
133.635605	284.0
133.704926	76.0
133.762451	180.0
133.803894	124.0
133.82692	132.0
133.854553	128.0
133.906845	180.0
133.938171	192.0
133.969177	244.0
134.008865	116.0
134.043427	236.0
134.088608	100.0
134.168625	100.0
134.195557	168.0
134.234756	84.0
134.254883	104.0
134.283279	244.0
134.343155	140.0
134.361618	96.0
134.391602	196.0
134.407761	192.0
134.476807	152.0
134.56398	308.0
134.645523	124.0
134.735611	84.0
134.753067	252.0
134.816483	168.0
134.853455	124.0
134.868729	188.0
134.915863	204.0
134.949951	248.0
134.980469	140.0
134.983444	176.0
135.043228	196.0
135.071457	184.0
135.093079	232.0
135.123337	240.0
135.154083	156.0
135.184158	60.0
135.200363	180.0
135.241486	236.0
135.269409	168.0
135.308258	236.0
135.47821	60.0
135.499054	156.0
135.540771	64.0
135.556992	152.0
135.59407	104.0
135.61261	124.0
135.62883	144.0
135.656647	112.0
135.686783	44.0
135.715729	140.0
135.744751	164.0
135.81665	56.0
135.839844	352.0
135.856079	188.0
135.873459	184.0
135.909439	208.0
135.930328	112.0
135.962814	136.0
136.006912	88.0
136.056061	92.0
136.063171	136.0
136.118347	188.0
136.16246	172.0
136.192734	120.0
136.232147	96.0
136.250732	188.0
136.27861	160.0
136.313812	108.0
136.323685	160.0
136.350647	236.0
136.376205	136.0
136.48587	164.0
136.540207	224.0
136.605453	196.0
136.62735	68.0
136.680862	144.0
136.705246	108.0
136.785583	136.0
136.857758	148.0
136.881042	196.0
136.918823	212.0
136.941589	216.0
136.96962	120.0
137.00914	188.0
137.033905	152.0
137.07814	204.0
137.114914	172.0
137.15361	156.0
137.188583	176.0
137.318695	140.0
137.379807	104.0
137.41246	116.0
137.443573	204.0
137.461456	176.0
137.482468	128.0
137.505798	184.0
137.575821	168.0
137.601456	176.0
137.63652	128.0
137.671738	104.0
137.793015	104.0
137.815689	96.0
137.83847	132.0
137.847839	60.0
137.854233	160.0
137.88414	196.0
137.958939	128.0
138.011276	144.0
138.052841	1316.0
138.08754	180.0
138.124054	276.0
138.213776	220.0
138.294022	128.0
138.301941	44.0
138.415161	156.0
138.433899	100.0
138.463928	204.0
138.486649	200.0
138.518341	148.0
138.572098	168.0
138.59404	208.0
138.611923	172.0
138.662369	176.0
138.691666	172.0
138.710358	48.0
138.726776	280.0
138.761932	168.0
138.799118	116.0
138.846405	160.0
138.869492	124.0
138.926102	68.0
138.94252	48.0
138.987091	112.0
139.053131	536.0
139.085388	156.0
139.102097	276.0
139.145874	188.0
139.180664	196.0
139.189575	92.0
139.196472	136.0
139.236511	160.0
139.282562	168.0
139.32283	132.0
139.353378	32.0
139.378113	152.0
139.40715	180.0
139.414062	160.0
139.435623	196.0
139.454422	60.0
139.484085	148.0
139.553055	208.0
139.602402	148.0
139.666031	20.0
139.709625	160.0
139.755417	148.0
139.855484	116.0
140.060913	516.0
140.106216	148.0
140.136566	168.0
140.170135	128.0
140.195343	112.0
140.220383	172.0
140.302078	72.0
140.325394	112.0
140.363129	280.0
140.447235	108.0
140.471603	108.0
140.504639	236.0
140.532364	292.0
140.563568	172.0
140.578812	164.0
140.6073	180.0
140.617493	92.0
140.623657	164.0
140.660385	152.0
140.707596	48.0
140.724121	148.0
140.747742	180.0
140.77739	144.0
140.784943	164.0
140.794556	188.0
140.870544	172.0
140.898026	76.0
140.906128	180.0
140.925995	144.0
140.969772	168.0
140.999542	332.0
141.032379	252.0
141.041824	124.0
141.047714	188.0
141.07019	236.0
141.158539	136.0
141.215637	108.0
141.245926	124.0
141.277145	128.0
141.336288	240.0
141.417786	216.0
141.45192	172.0
141.49173	148.0
141.515854	116.0
141.558319	120.0
141.595062	176.0
141.628113	88.0
141.66774	144.0
141.707596	204.0
141.805176	184.0
141.871536	60.0
141.904419	60.0
141.928864	156.0
141.980606	212.0
142.0233	148.0
142.043457	152.0
142.065048	160.0
142.105209	208.0
142.130051	68.0
142.153778	236.0
142.235229	228.0
142.281952	112.0
142.307663	140.0
142.343506	208.0
142.391174	192.0
142.424438	128.0
142.447662	180.0
142.451843	140.0
142.463013	116.0
142.472672	168.0
142.493317	68.0
142.524216	92.0
142.569656	160.0
142.607834	168.0
142.675537	288.0
142.721497	120.0
142.752396	60.0
142.79213	136.0
142.836792	256.0
142.880844	220.0
142.90802	180.0
142.935532	260.0
142.985535	96.0
143.029907	168.0
143.071594	168.0
143.123611	116.0
143.147415	236.0
143.175995	152.0
143.207031	244.0
143.227478	84.0
143.234772	112.0
143.243393	160.0
143.321304	268.0
143.341507	176.0
143.362259	168.0
143.376938	296.0
143.395172	52.0
143.447952	168.0
143.49353	108.0
143.538986	172.0
143.557281	140.0
143.581833	164.0
143.614517	152.0
143.657455	124.0
143.698013	108.0
143.75766	120.0
143.829269	100.0
143.863983	208.0
143.888641	128.0
143.903763	136.0
143.941467	88.0
143.986847	56.0
144.065125	228.0
144.080154	364.0
144.095703	208.0
144.175568	200.0
144.20903	148.0
144.230545	60.0
144.254959	132.0
144.295944	168.0
144.326172	148.0
144.356491	224.0
144.388336	120.0
144.412262	160.0
144.452927	256.0
144.479233	220.0
144.502747	184.0
144.550125	172.0
144.643799	156.0
144.669037	124.0
144.713776	144.0
144.742508	116.0
144.776031	160.0
144.796143	140.0
144.835281	252.0
144.862259	96.0
144.914963	164.0
144.969482	160.0
144.989243	212.0
145.051559	108.0
145.084549	272.0
145.108444	248.0
145.148834	156.0
145.174469	136.0
145.212204	124.0
145.233795	84.0
145.255386	212.0
145.336945	312.0
145.377747	140.0
145.420944	144.0
145.458328	220.0
145.497757	188.0
145.524155	100.0
145.543365	156.0
145.579391	244.0
145.629578	168.0
145.656235	176.0
145.683212	196.0
145.716293	152.0
145.745132	252.0
145.773972	152.0
145.826828	244.0
145.855682	224.0
145.874786	220.0
145.917419	152.0
145.95311	172.0
145.983002	192.0
146.022018	232.0
146.043228	100.0
146.068665	216.0
146.122604	180.0
146.187576	116.0
146.213242	144.0
146.286255	52.0
146.312836	176.0
146.339218	140.0
146.442764	148.0
146.459152	332.0
146.494431	284.0
146.518616	180.0
146.541534	92.0
146.659866	152.0
146.678894	200.0
146.741562	148.0
146.770508	224.0
146.817078	152.0
146.854904	212.0
146.915207	184.0
146.940308	168.0
146.977936	68.0
147.027039	196.0
147.07402	172.0
147.126053	140.0
147.163193	180.0
147.204742	208.0
147.224152	200.0
147.266846	208.0
147.30043	200.0
147.316513	200.0
147.348175	152.0
147.373917	112.0
147.384842	108.0
147.389282	168.0
147.412582	140.0
147.455276	148.0
147.473801	144.0
147.494522	128.0
147.500061	160.0
147.523331	68.0
147.53714	344.0
147.557602	180.0
147.586609	144.0
147.627716	180.0
147.678818	160.0
147.792206	148.0
147.825043	176.0
147.843018	168.0
147.879318	140.0
147.908508	140.0
147.92923	188.0
147.965469	132.0
148.004059	152.0
148.029312	188.0
148.106918	40.0
148.135422	204.0
148.180847	340.0
148.203827	232.0
148.230896	152.0
148.249863	180.0
148.275726	172.0
148.308304	208.0
148.33078	144.0
148.348297	72.0
148.353592	100.0
148.36261	208.0
148.388016	232.0
148.425003	160.0
148.462265	116.0
148.509262	200.0
148.543228	208.0
148.582047	148.0
148.62709	204.0
148.717926	156.0
148.759201	168.0
148.79715	196.0
148.832031	92.0
148.867325	196.0
148.95488	248.0
148.979492	172.0
149.006897	64.0
149.048203	116.0
149.087296	324.0
149.127029	156.0
149.16243	60.0
149.189026	144.0
149.225632	176.0
149.254807	104.0
149.280853	208.0
149.313171	132.0
149.357681	200.0
149.38858	104.0
149.42395	148.0
149.471375	120.0
149.532516	128.0
149.595413	136.0
149.639236	260.0
149.670883	56.0
149.695038	100.0
149.720993	124.0
149.742493	148.0
149.774872	160.0
149.79509	200.0
149.817017	148.0
149.91188	184.0
149.987747	132.0
150.016296	160.0
150.048538	132.0
150.090088	168.0
150.117096	132.0
150.163147	180.0
150.180222	152.0
150.272919	128.0
150.3022	132.0
150.336349	176.0
150.354477	348.0
150.385162	240.0
150.436432	76.0
150.548737	136.0
150.634216	188.0
150.707504	172.0
150.730103	180.0
150.770523	132.0
150.805023	124.0
150.834564	184.0
150.881042	184.0
150.932373	200.0
150.973648	196.0
151.003571	216.0
151.055359	396.0
151.08902	180.0
151.125809	392.0
151.158997	124.0
151.201462	48.0
151.247482	180.0
151.318954	96.0
151.336105	80.0
151.355682	308.0
151.413635	120.0
151.434052	232.0
151.470398	456.0
151.48996	168.0
151.539383	132.0
151.578583	64.0
151.615524	164.0
151.639847	196.0
151.671722	176.0
151.728226	156.0
151.748993	336.0
151.782043	224.0
151.790527	164.0
151.845795	124.0
151.865417	168.0
151.919388	52.0
151.94516	220.0
152.062546	1208.0
152.10434	312.0
152.218811	100.0
152.243591	216.0
152.305328	140.0
152.361267	120.0
152.39566	116.0
152.444809	176.0
152.464462	108.0
152.496353	152.0
152.53714	328.0
152.562775	92.0
152.594742	76.0
152.658661	96.0
152.707855	188.0
152.732452	180.0
152.75145	176.0
152.785263	188.0
152.806244	108.0
152.855453	48.0
152.880066	156.0
152.919449	84.0
152.948975	48.0
152.971893	220.0
152.982285	68.0
152.994171	188.0
153.035934	136.0
153.068771	1592.0
153.10408	148.0
153.138397	10600.0
153.18251	188.0
153.206543	80.0
153.228561	188.0
153.251968	108.0
153.27449	184.0
153.350449	124.0
153.369064	188.0
153.388214	212.0
153.43129	216.0
153.484589	184.0
153.510696	64.0
153.539291	248.0
153.606888	64.0
153.638947	144.0
153.685242	136.0
153.707336	184.0
153.734863	124.0
153.738251	164.0
153.78511	196.0
153.804276	40.0
153.822052	180.0
153.844681	192.0
153.865997	132.0
153.898087	48.0
153.917847	116.0
153.942856	188.0
153.976089	156.0
154.006744	164.0
154.032013	176.0
154.06514	3952.0
154.142563	828.0
154.174255	140.0
154.201935	124.0
154.22171	116.0
154.239014	36.0
154.281036	104.0
154.323059	184.0
154.356293	172.0
154.377457	88.0
154.394775	104.0
154.439285	132.0
154.521439	152.0
154.572876	224.0
154.599518	136.0
154.622375	176.0
154.671936	144.0
154.694626	168.0
154.723862	56.0
154.743668	108.0
154.804886	160.0
154.845184	120.0
154.867477	92.0
154.904633	112.0
154.98143	116.0
155.027893	160.0
155.070908	524.0
155.147232	272.0
155.221298	52.0
155.246658	132.0
155.268982	132.0
155.293777	168.0
155.356247	156.0
155.377594	116.0
155.401733	148.0
155.502197	84.0
155.537964	156.0
155.56424	136.0
155.598999	172.0
155.708252	48.0
155.741714	152.0
155.75824	184.0
155.810104	176.0
155.880402	136.0
155.930389	136.0
155.950714	232.0
155.968124	188.0
156.015991	160.0
156.054794	132.0
156.081177	2232.0
156.123276	148.0
156.144012	192.0
156.148911	92.0
156.159119	156.0
156.193939	156.0
156.219177	180.0
156.242111	192.0
156.281235	216.0
156.299896	200.0
156.341156	204.0
156.39447	112.0
156.420486	148.0
156.484085	156.0
156.516449	148.0
156.536362	128.0
156.576218	108.0
156.613235	180.0
156.656204	140.0
156.718887	160.0
156.73703	152.0
156.759048	152.0
156.785477	196.0
156.844391	144.0
156.867737	140.0
156.88768	76.0
156.91394	164.0
156.946335	208.0
156.985931	176.0
157.004868	176.0
157.022324	160.0
157.066788	136.0
157.085602	400.0
157.13707	220.0
157.169449	180.0
157.209427	124.0
157.26683	148.0
157.291779	140.0
157.314255	72.0
157.356689	140.0
157.427811	316.0
157.454071	160.0
157.508331	144.0
157.514877	104.0
157.586578	136.0
157.616455	120.0
157.639526	120.0
157.66893	148.0
157.723907	80.0
157.763474	160.0
157.7939	120.0
157.827728	156.0
157.85527	176.0
157.897995	288.0
157.916428	168.0
157.975494	164.0
158.099747	160.0
158.174149	296.0
158.206696	256.0
158.311844	44.0
158.330505	160.0
158.351913	144.0
158.413147	136.0
158.428925	204.0
158.47467	76.0
158.510864	180.0
158.542328	144.0
158.59996	136.0
158.622452	152.0
158.651749	128.0
158.668015	360.0
158.723267	176.0
158.748596	156.0
158.758987	112.0
158.765152	104.0
158.803055	164.0
158.878311	144.0
158.938522	224.0
158.974869	140.0
159.018112	140.0
159.041412	144.0
159.075592	172.0
159.095963	180.0
159.13681	148.0
159.180908	212.0
159.204544	172.0
159.272415	156.0
159.300049	124.0
159.337723	324.0
159.37114	212.0
159.408081	204.0
159.433212	68.0
159.501068	148.0
159.581696	280.0
159.619095	152.0
159.644379	124.0
159.668503	228.0
159.68576	140.0
159.719818	112.0
159.750015	64.0
159.772644	124.0
159.800323	124.0
159.822968	48.0
159.884567	260.0
159.926147	52.0
160.016769	148.0
160.06955	208.0
160.190536	160.0
160.223846	180.0
160.273529	140.0
160.296356	60.0
160.321548	144.0
160.339188	228.0
160.356476	172.0
160.376999	244.0
160.41153	160.0
160.43866	52.0
160.463257	368.0
160.481857	176.0
160.524338	152.0
160.561478	160.0
160.578705	260.0
160.613113	280.0
160.666977	208.0
160.777069	280.0
160.807663	204.0
160.828476	232.0
160.88681	156.0
160.931976	196.0
160.953339	148.0
160.97995	64.0
161.017838	172.0
161.035522	80.0
161.084183	180.0
161.101196	148.0
161.123932	172.0
161.140625	176.0
161.169403	152.0
161.207306	180.0
161.241684	316.0
161.306824	180.0
161.354965	192.0
161.384247	116.0
161.419693	200.0
161.462631	332.0
161.534592	116.0
161.604294	116.0
161.633499	120.0
161.65712	404.0
161.697037	196.0
161.742188	208.0
161.778336	156.0
161.833023	300.0
161.908051	164.0
161.930832	188.0
161.972321	248.0
161.993622	208.0
162.024567	136.0
162.083572	204.0
162.105637	172.0
162.13501	212.0
162.177155	164.0
162.214615	168.0
162.234894	164.0
162.251007	136.0
162.272934	144.0
162.291824	160.0
162.308426	260.0
162.334183	176.0
162.36795	160.0
162.400284	196.0
162.422546	148.0
162.458603	244.0
162.486786	160.0
162.54126	176.0
162.615463	124.0
162.668488	156.0
162.699417	148.0
162.77327	156.0
162.831177	108.0
162.851501	172.0
162.880478	196.0
162.899765	140.0
162.92009	192.0
162.975174	164.0
163.055786	752.0
163.089844	400.0
163.117447	156.0
163.166595	108.0
163.234543	176.0
163.298813	196.0
163.338181	128.0
163.348221	152.0
163.358643	316.0
163.382767	104.0
163.410217	96.0
163.479446	96.0
163.507446	168.0
163.527802	156.0
163.55188	164.0
163.580826	192.0
163.624527	108.0
163.652542	68.0
163.677994	132.0
163.705032	252.0
163.754395	128.0
163.798721	120.0
163.825714	184.0
163.894501	132.0
163.948013	216.0
164.016235	136.0
164.034271	76.0
164.06102	516.0
164.101562	196.0
164.146957	180.0
164.167252	140.0
164.192749	144.0
164.234329	172.0
164.253967	144.0
164.287125	148.0
164.310089	180.0
164.34581	220.0
164.401947	200.0
164.437668	124.0
164.473358	228.0
164.476456	124.0
164.549988	180.0
164.568756	136.0
164.600754	112.0
164.639359	116.0
164.671829	112.0
164.749405	176.0
164.769623	148.0
164.8517	192.0
164.88472	88.0
164.907608	300.0
164.938278	188.0
165.023956	148.0
165.068878	2800.0
165.135712	252.0
165.177368	152.0
165.222214	112.0
165.306458	280.0
165.353485	196.0
165.391022	108.0
165.410919	124.0
165.455063	376.0
165.49086	72.0
165.519653	180.0
165.557434	316.0
165.654099	140.0
165.693192	188.0
165.754669	80.0
165.834122	124.0
165.872574	44.0
165.895645	120.0
165.923935	112.0
165.952042	128.0
165.995804	244.0
166.028961	168.0
166.065781	708.0
166.116501	152.0
166.14183	132.0
166.177734	232.0
166.195694	128.0
166.241425	220.0
166.259857	76.0
166.284821	176.0
166.335526	168.0
166.390701	172.0
166.408737	156.0
166.442108	168.0
166.466278	184.0
166.486557	256.0
166.506302	80.0
166.571808	168.0
166.605423	152.0
166.632431	156.0
166.669373	184.0
166.70668	208.0
166.729813	136.0
166.755508	168.0
166.84317	156.0
166.859619	144.0
166.891663	112.0
166.90062	108.0
166.90834	160.0
166.940613	172.0
167.072556	8724.0
167.111145	148.0
167.15564	204.0
167.172775	112.0
167.188705	176.0
167.213684	112.0
167.316269	40.0
167.373581	248.0
167.395203	224.0
167.471756	168.0
167.481934	180.0
167.526932	100.0
167.585434	204.0
167.62793	140.0
167.660782	212.0
167.698685	152.0
167.73616	160.0
167.76857	112.0
167.800354	160.0
167.823822	184.0
167.872818	132.0
167.92955	240.0
167.960159	152.0
167.969482	132.0
168.008133	208.0
168.015335	140.0
168.080307	9824.0
168.146103	100.0
168.174179	64.0
168.21315	164.0
168.244766	236.0
168.261658	68.0
168.321213	176.0
168.367004	112.0
168.411667	176.0
168.479355	164.0
168.553528	152.0
168.582703	68.0
168.647934	88.0
168.691254	176.0
168.722275	100.0
168.761063	104.0
168.796692	172.0
168.817947	204.0
168.862885	128.0
168.897659	288.0
168.914276	196.0
168.959106	184.0
168.982101	196.0
169.01001	144.0
169.038528	324.0
169.085251	928.0
169.117188	112.0
169.150787	68.0
169.172195	48.0
169.179474	176.0
169.202087	112.0
169.211655	148.0
169.223801	136.0
169.230621	264.0
169.253784	176.0
169.289398	172.0
169.309296	212.0
169.349823	124.0
169.370911	188.0
169.425079	112.0
169.463348	188.0
169.483185	76.0
169.557541	116.0
169.610504	156.0
169.646057	188.0
169.725082	208.0
169.762589	76.0
169.802048	76.0
169.834518	276.0
169.861542	128.0
169.892822	212.0
169.913574	100.0
169.964478	84.0
170.004669	192.0
170.048508	128.0
170.069275	108.0
170.099014	232.0
170.178299	176.0
170.212997	44.0
170.277222	128.0
170.373093	148.0
170.391266	132.0
170.422455	172.0
170.453629	212.0
170.503006	48.0
170.557114	204.0
170.629868	208.0
170.695374	108.0
170.729172	424.0
170.766602	276.0
170.788635	204.0
170.891647	312.0
170.988937	132.0
171.02771	156.0
171.050201	124.0
171.080429	84.0
171.124695	156.0
171.178894	220.0
171.21843	128.0
171.240707	80.0
171.288757	156.0
171.346313	164.0
171.369522	168.0
171.415054	168.0
171.527771	280.0
171.553192	168.0
171.596268	36.0
171.618484	336.0
171.648407	384.0
171.688461	232.0
171.726639	132.0
171.744904	44.0
171.765762	128.0
171.802292	108.0
171.835968	136.0
171.919708	116.0
171.951752	184.0
172.031036	220.0
172.060654	264.0
172.084824	108.0
172.118942	160.0
172.137772	276.0
172.176193	160.0
172.217331	336.0
172.237915	388.0
172.294312	144.0
172.360748	164.0
172.402313	168.0
172.444626	100.0
172.481232	164.0
172.513443	160.0
172.536118	136.0
172.559647	120.0
172.600311	152.0
172.638092	32.0
172.681198	164.0
172.70755	144.0
172.734863	204.0
172.807037	232.0
172.850479	104.0
172.881378	236.0
172.920639	124.0
173.01889	112.0
173.101028	132.0
173.224365	76.0
173.242706	248.0
173.304047	172.0
173.31369	124.0
173.37561	220.0
173.403259	188.0
173.43689	148.0
173.493958	132.0
173.538742	156.0
173.646362	164.0
173.673889	216.0
173.691711	152.0
173.720093	144.0
173.76178	176.0
173.801132	116.0
173.850983	160.0
173.897903	352.0
173.955978	160.0
174.082001	44.0
174.102997	200.0
174.124008	80.0
174.160614	256.0
174.177643	76.0
174.191681	160.0
174.258469	204.0
174.284256	120.0
174.323074	88.0
174.368347	52.0
174.476425	172.0
174.499771	60.0
174.539078	164.0
174.562881	208.0
174.585815	100.0
174.683212	164.0
174.707535	80.0
174.746994	176.0
174.776947	136.0
174.804886	128.0
174.848709	244.0
174.874619	64.0
174.906921	140.0
174.980377	136.0
175.031616	176.0
175.100601	120.0
175.167557	224.0
175.212936	176.0
175.222183	172.0
175.250641	152.0
175.295547	216.0
175.333405	40.0
175.376373	68.0
175.427322	252.0
175.489716	172.0
175.508179	120.0
175.579376	108.0
175.605743	184.0
175.658508	132.0
175.687515	148.0
175.708618	136.0
175.769165	148.0
175.824722	184.0
175.86586	204.0
175.891159	164.0
175.932938	192.0
175.96727	172.0
176.003342	216.0
176.096649	144.0
176.170792	272.0
176.205048	120.0
176.226089	208.0
176.249817	164.0
176.278946	108.0
176.29744	88.0
176.325912	124.0
176.372116	456.0
176.391754	176.0
176.434875	184.0
176.453384	44.0
176.508911	124.0
176.616806	100.0
176.666382	52.0
176.771469	220.0
176.794601	372.0
176.828888	184.0
176.887238	124.0
176.929596	180.0
176.964005	184.0
177.011673	88.0
177.030212	132.0
177.071487	136.0
177.105515	136.0
177.147171	196.0
177.210403	136.0
177.255371	180.0
177.28186	168.0
177.307159	228.0
177.335159	148.0
177.365677	192.0
177.417038	208.0
177.438248	128.0
177.456802	120.0
177.478012	152.0
177.525742	256.0
177.544312	156.0
177.570114	176.0
177.60817	200.0
177.670563	160.0
177.692307	116.0
177.702042	216.0
177.73407	164.0
177.800934	332.0
177.854721	148.0
177.879333	192.0
177.901016	148.0
177.963562	152.0
177.984802	140.0
178.064117	2780.0
178.101791	252.0
178.179901	212.0
178.247971	108.0
178.326462	136.0
178.364716	260.0
178.399384	192.0
178.439148	48.0
178.464783	116.0
178.516251	176.0
178.539627	172.0
178.590714	52.0
178.644577	192.0
178.675842	188.0
178.700211	132.0
178.72998	172.0
178.753448	164.0
178.822189	64.0
178.875992	176.0
178.908432	80.0
178.928665	108.0
178.987244	112.0
179.008545	144.0
179.036209	184.0
179.070724	808.0
179.103882	100.0
179.116974	240.0
179.141708	128.0
179.200317	220.0
179.278915	168.0
179.325562	96.0
179.350449	160.0
179.42009	192.0
179.450516	188.0
179.454559	164.0
179.466339	252.0
179.581512	228.0
179.608185	184.0
179.639435	264.0
179.662811	192.0
179.770935	356.0
179.82431	148.0
179.878326	184.0
179.933746	316.0
179.958801	156.0
180.024872	276.0
180.08136	24464.0
180.130035	120.0
180.167313	168.0
180.219833	244.0
180.250092	164.0
180.293976	288.0
180.327652	148.0
180.355286	284.0
180.393478	176.0
180.399857	168.0
180.41008	240.0
180.47612	72.0
180.498276	180.0
180.527954	176.0
180.567032	32.0
180.58844	140.0
180.613144	268.0
180.625046	116.0
180.638336	140.0
180.666199	224.0
180.719513	172.0
180.744034	192.0
180.778381	220.0
180.869293	124.0
180.877136	120.0
180.901245	164.0
180.923187	276.0
180.949493	120.0
180.973114	128.0
180.980255	140.0
180.988205	72.0
181.032547	156.0
181.085815	7276.0
181.133743	33596.0
181.209351	132.0
181.234222	100.0
181.265976	44.0
181.325516	184.0
181.347351	68.0
181.369064	36.0
181.400711	44.0
181.426544	120.0
181.49205	84.0
181.521606	404.0
181.575821	164.0
181.605637	76.0
181.635788	136.0
181.665222	52.0
181.70163	160.0
181.734146	144.0
181.773148	116.0
181.822067	140.0
181.850021	32.0
181.858643	52.0
181.885254	208.0
181.9151	100.0
181.946213	176.0
181.96669	200.0
182.006821	80.0
182.09465	7212.0
182.1362	4228.0
182.183319	172.0
182.203781	300.0
182.22142	44.0
182.231842	192.0
182.281509	124.0
182.31897	196.0
182.357971	132.0
182.384201	112.0
182.403671	112.0
182.440659	84.0
182.473572	88.0
182.508255	204.0
182.537445	216.0
182.572021	272.0
182.618774	152.0
182.655487	216.0
182.694092	72.0
182.730896	172.0
182.768005	84.0
182.787064	72.0
182.820541	156.0
182.866867	132.0
182.904816	168.0
182.941666	108.0
182.974731	128.0
183.00264	136.0
183.044601	104.0
183.09877	2640.0
183.142456	564.0
183.183777	180.0
183.193146	220.0
183.24501	144.0
183.27832	152.0
183.31604	180.0
183.340714	200.0
183.374817	156.0
183.400101	336.0
183.442551	132.0
183.478912	160.0
183.499329	60.0
183.526291	160.0
183.572128	44.0
183.61145	96.0
183.636398	248.0
183.649521	200.0
183.68541	52.0
183.733124	180.0
183.771729	136.0
183.874268	152.0
183.916397	68.0
183.965698	188.0
184.014633	124.0
184.047302	164.0
184.073074	136.0
184.097275	312.0
184.124573	84.0
184.152359	124.0
184.172424	56.0
184.193359	308.0
184.231461	196.0
184.263916	148.0
184.296021	240.0
184.349243	196.0
184.390106	172.0
184.425247	124.0
184.454971	60.0
184.484711	168.0
184.524063	108.0
184.545853	152.0
184.584747	120.0
184.615234	144.0
184.651031	164.0
184.672256	168.0
184.714554	80.0
184.810638	116.0
184.914673	100.0
185.001404	236.0
185.042404	240.0
185.082626	60.0
185.104279	128.0
185.13472	216.0
185.158447	68.0
185.180618	320.0
185.200653	144.0
185.264709	104.0
185.313583	160.0
185.334518	136.0
185.390518	240.0
185.426651	120.0
185.479034	168.0
185.512054	148.0
185.56218	172.0
185.606964	280.0
185.63269	256.0
185.654373	144.0
185.673355	168.0
185.733032	172.0
185.789993	172.0
185.849686	52.0
185.879532	56.0
185.912094	236.0
185.939224	180.0
185.963654	120.0
185.990631	128.0
185.998764	120.0
186.068893	172.0
186.087891	172.0
186.117447	104.0
186.149368	176.0
186.221588	120.0
186.246033	120.0
186.267761	96.0
186.30307	244.0
186.32843	252.0
186.394653	156.0
186.419907	112.0
186.455597	212.0
186.510742	188.0
186.599304	172.0
186.678146	184.0
186.773895	156.0
186.859024	56.0
186.928772	60.0
186.960266	108.0
186.973145	208.0
187.001892	116.0
187.026077	180.0
187.110779	228.0
187.148895	224.0
187.167206	160.0
187.226944	228.0
187.270721	152.0
187.300568	132.0
187.41037	140.0
187.437607	124.0
187.464859	68.0
187.501984	180.0
187.520401	116.0
187.582626	284.0
187.63916	200.0
187.687485	184.0
187.7211	168.0
187.76474	108.0
187.824738	72.0
187.85202	136.0
187.90657	180.0
187.931137	356.0
187.950226	176.0
187.999344	140.0
188.027542	120.0
188.0746	140.0
188.094879	140.0
188.141281	224.0
188.17955	200.0
188.206802	64.0
188.236847	168.0
188.288452	160.0
188.33316	192.0
188.430771	64.0
188.474487	248.0
188.602921	104.0
188.676422	148.0
188.698608	264.0
188.753281	268.0
188.793915	140.0
188.829849	240.0
188.85173	208.0
188.914642	128.0
188.956619	164.0
189.0327	160.0
189.105652	204.0
189.127548	184.0
189.182831	136.0
189.221283	172.0
189.259491	144.0
189.349854	32.0
189.374496	212.0
189.399155	176.0
189.459091	68.0
189.51239	104.0
189.599152	212.0
189.616898	132.0
189.726532	220.0
189.752655	340.0
189.774582	76.0
189.796524	136.0
189.870956	260.0
189.900406	200.0
189.932526	168.0
190.00827	156.0
190.065582	1824.0
190.13118	264.0
190.180588	92.0
190.330811	188.0
190.359039	176.0
190.380142	216.0
190.422195	40.0
190.468369	188.0
190.487259	180.0
190.528152	196.0
190.581528	132.0
190.606262	88.0
190.663956	168.0
190.71344	120.0
190.738174	164.0
190.78215	64.0
190.80571	224.0
190.839188	200.0
190.900589	168.0
190.929535	132.0
190.98288	168.0
191.027115	148.0
191.07309	20644.0
191.131561	224.0
191.156906	156.0
191.196808	148.0
191.240997	168.0
191.279175	188.0
191.32135	172.0
191.379166	120.0
191.402267	256.0
191.436981	160.0
191.458633	192.0
191.520767	152.0
191.550385	164.0
191.614487	144.0
191.645401	304.0
191.687653	148.0
191.741592	116.0
191.776627	100.0
191.801407	160.0
191.828888	164.0
191.849487	212.0
191.871567	180.0
191.901688	236.0
191.932587	164.0
191.943008	44.0
191.956238	148.0
191.967087	108.0
191.975525	56.0
192.024216	244.0
192.045471	320.0
192.081192	61088.0
192.149414	164.0
192.165283	200.0
192.209961	116.0
192.220734	144.0
192.242386	276.0
192.264252	136.0
192.286026	236.0
192.328079	76.0
192.370255	208.0
192.420456	112.0
192.467453	120.0
192.474716	84.0
192.485886	64.0
192.510574	100.0
192.553787	108.0
192.562775	160.0
192.616837	184.0
192.666122	92.0
192.722427	240.0
192.835693	204.0
192.855026	196.0
192.874374	64.0
192.906448	120.0
192.919846	180.0
192.961609	152.0
193.084595	7748.0
193.135422	196.0
193.178543	100.0
193.197906	180.0
193.22049	196.0
193.248688	216.0
193.268356	164.0
193.32579	184.0
193.347839	264.0
193.377686	124.0
193.427505	120.0
193.467529	112.0
193.478119	48.0
193.487427	124.0
193.53093	116.0
193.560928	248.0
193.589096	168.0
193.622253	156.0
193.674026	76.0
193.70575	168.0
193.749741	344.0
193.787598	84.0
193.815308	80.0
193.837479	140.0
193.87532	172.0
193.908325	156.0
193.951111	208.0
193.973282	32.0
194.020401	32.0
194.061142	1268.0
194.09581	14064.0
194.182129	192.0
194.204071	152.0
194.241867	144.0
194.273453	172.0
194.308823	128.0
194.332291	176.0
194.391983	128.0
194.409882	324.0
194.43576	132.0
194.504044	288.0
194.527863	64.0
194.538925	92.0
194.546646	60.0
194.558792	120.0
194.595779	132.0
194.616623	40.0
194.638107	84.0
194.661331	92.0
194.703384	204.0
194.792725	256.0
194.884293	224.0
194.966904	60.0
194.989136	64.0
195.029251	156.0
195.100525	2448.0
195.175385	132.0
195.209305	84.0
195.248093	92.0
195.282364	204.0
195.321579	176.0
195.342255	164.0
195.409439	212.0
195.441605	72.0
195.457886	112.0
195.542938	156.0
195.604843	164.0
195.629715	132.0
195.699829	304.0
195.719727	160.0
195.751373	60.0
195.787582	212.0
195.834457	96.0
195.87384	144.0
195.878342	184.0
195.966431	232.0
195.990921	348.0
196.015732	120.0
196.047501	212.0
196.108566	1308.0
196.146988	152.0
196.173187	80.0
196.211105	148.0
196.234879	228.0
196.272446	60.0
196.382187	80.0
196.402634	120.0
196.447586	108.0
196.519211	212.0
196.527725	192.0
196.577805	136.0
196.616547	168.0
196.640671	196.0
196.685333	96.0
196.762421	216.0
196.816544	76.0
196.84343	172.0
196.886353	164.0
196.939651	188.0
196.964554	148.0
196.986908	116.0
197.025452	140.0
197.058777	148.0
197.106888	3240.0
197.171249	196.0
197.197739	192.0
197.232803	80.0
197.252365	176.0
197.283798	180.0
197.308273	48.0
197.352646	184.0
197.410095	164.0
197.457916	124.0
197.4832	144.0
197.510818	208.0
197.599136	216.0
197.629913	152.0
197.64949	68.0
197.705002	124.0
197.823013	208.0
197.857864	80.0
197.922531	144.0
197.965805	132.0
197.993805	60.0
198.06839	324.0
198.110123	628.0
198.178192	184.0
198.203903	120.0
198.254333	128.0
198.273956	204.0
198.328751	180.0
198.38327	200.0
198.472992	184.0
198.52066	116.0
198.548218	176.0
198.571136	112.0
198.592926	244.0
198.603821	188.0
198.638443	212.0
198.660889	184.0
198.708588	92.0
198.809875	164.0
198.860107	128.0
198.950027	124.0
199.000473	152.0
199.053818	168.0
199.07579	208.0
199.111008	120.0
199.154922	92.0
199.174576	128.0
199.267807	172.0
199.298187	92.0
199.320663	44.0
199.35321	220.0
199.379684	64.0
199.404968	176.0
199.447128	140.0
199.483673	224.0
199.561371	336.0
199.587692	64.0
199.622864	168.0
199.658447	312.0
199.678757	168.0
199.703934	180.0
199.781982	192.0
199.827682	160.0
199.863342	136.0
199.915421	164.0
199.973099	108.0
200.024399	192.0
200.053085	152.0
200.108215	152.0
200.133545	140.0
200.218643	160.0
200.240555	184.0
200.285629	176.0
200.31633	280.0
200.344772	136.0
200.378586	80.0
200.406754	132.0
200.497604	152.0
200.522293	300.0
200.654785	60.0
200.708344	200.0
200.759857	104.0
200.809875	72.0
200.829605	136.0
200.896317	240.0
200.972748	204.0
201.086365	56.0
201.159744	180.0
201.210556	176.0
201.248062	128.0
201.271988	136.0
201.360214	96.0
201.37999	124.0
201.416702	104.0
201.45343	132.0
201.513168	152.0
201.535355	80.0
201.577744	164.0
201.614471	128.0
201.690781	128.0
201.710571	48.0
201.736008	92.0
201.755798	96.0
201.784073	108.0
201.808411	132.0
201.849945	172.0
201.87738	136.0
201.928284	208.0
202.041428	172.0
202.127777	200.0
202.138504	104.0
202.192184	144.0
202.287216	84.0
202.315872	164.0
202.344238	172.0
202.373016	200.0
202.454681	188.0
202.48999	152.0
202.534103	192.0
202.570801	192.0
202.635025	184.0
202.661453	128.0
202.698288	92.0
202.78331	332.0
202.904297	188.0
202.936111	124.0
202.943878	112.0
203.010284	140.0
203.032791	68.0
203.069656	196.0
203.103699	144.0
203.183121	68.0
203.309372	236.0
203.340317	120.0
203.39595	144.0
203.418655	220.0
203.460068	112.0
203.483948	180.0
203.52301	164.0
203.619736	156.0
203.642914	168.0
203.711151	104.0
203.753754	120.0
203.816269	80.0
203.874985	96.0
203.894318	140.0
203.917236	68.0
203.959076	224.0
204.083038	388.0
204.110825	196.0
204.143158	128.0
204.227173	204.0
204.254074	136.0
204.289703	128.0
204.313812	136.0
204.342804	84.0
204.387787	160.0
204.4077	176.0
204.444702	64.0
204.468887	128.0
204.53862	124.0
204.575623	264.0
204.669571	140.0
204.692352	128.0
204.78064	92.0
204.844666	108.0
204.86792	156.0
204.894638	336.0
204.919601	192.0
204.947189	180.0
204.989716	132.0
205.028488	132.0
205.077377	2660.0
205.106781	504.0
205.133957	168.0
205.156754	92.0
205.179565	60.0
205.208069	144.0
205.273651	160.0
205.333542	200.0
205.373474	160.0
205.429794	156.0
205.470459	72.0
205.490433	160.0
205.516113	184.0
205.554474	84.0
205.697021	192.0
205.767273	108.0
205.792969	68.0
205.816101	132.0
205.838654	176.0
205.888351	116.0
205.946915	184.0
205.958206	148.0
205.967819	184.0
205.998581	244.0
206.086777	2088.0
206.127029	152.0
206.185608	176.0
206.218597	112.0
206.265106	236.0
206.301086	192.0
206.326813	112.0
206.392776	220.0
206.442261	260.0
206.508743	224.0
206.538834	184.0
206.561432	124.0
206.598022	72.0
206.626266	92.0
206.644669	172.0
206.667557	156.0
206.69046	160.0
206.712646	148.0
206.757355	224.0
206.779907	152.0
206.85524	60.0
206.885071	180.0
206.95015	192.0
206.9832	160.0
207.067978	8852.0
207.090088	8048.0
207.141846	144.0
207.159912	296.0
207.208176	156.0
207.217026	92.0
207.246445	200.0
207.275757	196.0
207.322006	204.0
207.347366	116.0
207.377121	92.0
207.403549	128.0
207.4254	148.0
207.435532	176.0
207.482788	236.0
207.525253	228.0
207.545868	144.0
207.560165	76.0
207.567947	116.0
207.592758	92.0
207.623947	176.0
207.671356	168.0
207.713226	124.0
207.74115	196.0
207.767731	140.0
207.789017	180.0
207.836502	264.0
207.873886	44.0
207.916321	280.0
207.938797	340.0
207.950348	208.0
207.994873	332.0
208.076569	107376.0
208.146576	240.0
208.223236	52.0
208.231705	212.0
208.270966	244.0
208.328476	108.0
208.374863	92.0
208.38559	152.0
208.396561	132.0
208.403473	164.0
208.428192	208.0
208.450165	220.0
208.471939	120.0
208.516296	356.0
208.546417	332.0
208.586746	192.0
208.62207	248.0
208.650101	112.0
208.680099	76.0
208.7397	116.0
208.771881	152.0
208.821915	56.0
208.842041	56.0
208.878418	288.0
208.910461	148.0
208.972122	244.0
208.998962	212.0
209.03215	240.0
209.080154	22428.0
209.128021	15044.0
209.201996	192.0
209.22998	172.0
209.270279	108.0
209.295944	292.0
209.355667	108.0
209.389206	72.0
209.447693	44.0
209.480759	116.0
209.525208	192.0
209.59996	64.0
209.627625	96.0
209.652786	216.0
209.675308	200.0
209.725983	60.0
209.756409	100.0
209.773361	100.0
209.839554	80.0
209.865875	68.0
209.907608	232.0
209.949722	184.0
209.970749	188.0
209.996353	196.0
210.019318	168.0
210.040573	152.0
210.083435	2048.0
210.129517	2248.0
210.183426	136.0
210.242111	156.0
210.263245	128.0
210.308609	112.0
210.351257	192.0
210.38855	212.0
210.423981	136.0
210.453857	156.0
210.518112	148.0
210.540726	168.0
210.547318	272.0
210.59964	152.0
210.614349	112.0
210.628052	44.0
210.638794	124.0
210.682037	312.0
210.705658	116.0
210.725037	136.0
210.732697	84.0
210.743912	124.0
210.766541	188.0
210.795853	128.0
210.831757	140.0
210.882294	96.0
210.909378	96.0
210.972061	188.0
211.007675	92.0
211.027908	64.0
211.053925	84.0
211.084641	296.0
211.143097	6304.0
211.219925	160.0
211.232269	132.0
211.244904	116.0
211.256378	136.0
211.299774	40.0
211.348953	80.0
211.383881	112.0
211.403931	208.0
211.431244	192.0
211.486069	116.0
211.545502	220.0
211.550888	124.0
211.605911	128.0
211.636032	88.0
211.694138	96.0
211.748596	100.0
211.786087	148.0
211.809265	124.0
211.838226	240.0
211.869171	132.0
211.922241	80.0
211.946289	40.0
211.991028	168.0
212.042862	132.0
212.090134	308.0
212.145813	900.0
212.210632	152.0
212.220779	76.0
212.231247	152.0
212.265137	200.0
212.299911	96.0
212.324066	276.0
212.398132	152.0
212.419357	80.0
212.518387	144.0
212.568848	188.0
212.593903	132.0
212.656464	224.0
212.684937	52.0
212.766205	56.0
212.826141	168.0
212.923004	136.0
213.094391	140.0
213.115646	76.0
213.139343	160.0
213.181549	260.0
213.204803	156.0
213.230957	160.0
213.303619	360.0
213.365601	100.0
213.396652	76.0
213.442123	100.0
213.597305	144.0
213.640945	108.0
213.743881	204.0
213.834091	180.0
213.859177	116.0
213.89119	160.0
213.93486	236.0
213.992111	120.0
214.01239	216.0
214.062973	132.0
214.091003	168.0
214.118301	120.0
214.149689	36.0
214.287704	204.0
214.328033	96.0
214.37175	240.0
214.397964	132.0
214.482498	112.0
214.607849	180.0
214.6474	148.0
214.702042	172.0
214.7341	124.0
214.758377	136.0
214.811905	140.0
214.847	36.0
214.879089	84.0
214.968994	128.0
215.023773	116.0
215.060013	80.0
215.080444	96.0
215.208893	96.0
215.243927	48.0
215.270203	140.0
215.328613	160.0
215.348755	152.0
215.395248	148.0
215.430847	152.0
215.502975	204.0
215.592789	104.0
215.65361	84.0
215.725998	136.0
215.763992	108.0
215.821609	124.0
215.840012	164.0
215.873093	180.0
215.937592	184.0
215.983353	172.0
216.035965	172.0
216.079849	160.0
216.100327	128.0
216.132507	76.0
216.173477	152.0
216.214447	56.0
216.280426	140.0
216.292618	68.0
216.303528	120.0
216.328598	80.0
216.363724	152.0
216.384216	168.0
216.420975	144.0
216.457428	104.0
216.485489	68.0
216.52478	80.0
216.57164	160.0
216.621429	156.0
216.650726	104.0
216.728363	124.0
216.791367	100.0
216.820663	144.0
216.873428	164.0
216.910645	172.0
216.961456	128.0
217.036606	216.0
217.072113	376.0
217.102097	180.0
217.13208	144.0
217.153076	116.0
217.178009	136.0
217.278091	72.0
217.363907	352.0
217.500137	108.0
217.545135	68.0
217.600922	76.0
217.656601	208.0
217.709564	112.0
217.759491	60.0
217.785919	44.0
217.936188	208.0
218.023895	112.0
218.081589	312.0
218.148575	152.0
218.178467	148.0
218.206131	92.0
218.22966	128.0
218.326691	100.0
218.357773	176.0
218.367691	128.0
218.380325	296.0
218.447281	112.0
218.47229	144.0
218.514557	180.0
218.559082	156.0
218.604553	168.0
218.661972	108.0
218.726822	108.0
218.746674	140.0
218.797806	144.0
218.865189	100.0
218.91449	92.0
218.944702	144.0
219.011093	148.0
219.050735	64.0
219.09024	532.0
219.150284	116.0
219.185638	764.0
219.245193	108.0
219.271713	216.0
219.330658	56.0
219.354248	140.0
219.410248	92.0
219.431458	168.0
219.496796	292.0
219.551788	136.0
219.572433	68.0
219.593079	60.0
219.633499	288.0
219.672714	64.0
219.705154	120.0
219.76207	180.0
219.790131	100.0
219.849731	144.0
219.950089	140.0
219.972473	116.0
220.033157	252.0
220.099823	4232.0
220.186096	324.0
220.227631	152.0
220.265854	68.0
220.322922	108.0
220.366776	40.0
220.459457	108.0
220.499451	160.0
220.530563	136.0
220.620071	120.0
220.630188	104.0
220.63623	240.0
220.670349	192.0
220.686768	160.0
220.732254	240.0
220.77504	164.0
220.811157	156.0
220.870697	252.0
220.925232	204.0
220.953766	124.0
220.984467	156.0
221.027863	104.0
221.107742	77144.0
221.190369	60.0
221.223557	232.0
221.247391	148.0
221.298553	168.0
221.339127	184.0
221.350052	120.0
221.361176	216.0
221.389282	224.0
221.43219	244.0
221.483612	176.0
221.54007	132.0
221.590607	160.0
221.636597	340.0
221.662445	176.0
221.690079	100.0
221.7211	172.0
221.728607	136.0
221.764191	60.0
221.808472	124.0
221.819229	80.0
221.871063	112.0
221.942123	204.0
221.996185	268.0
222.021774	184.0
222.111755	15988.0
222.170639	148.0
222.197052	136.0
222.228287	160.0
222.277573	136.0
222.283676	88.0
222.320953	208.0
222.34549	112.0
222.380173	320.0
222.406082	80.0
222.418182	68.0
222.450241	96.0
222.506821	264.0
222.569214	184.0
222.594254	148.0
222.634445	84.0
222.639435	72.0
222.645828	56.0
222.679276	252.0
222.746902	300.0
222.805603	368.0
222.838043	376.0
222.875427	156.0
222.902008	424.0
222.935226	240.0
222.957535	316.0
222.965698	164.0
222.976364	224.0
223.01358	348.0
223.053314	672.0
223.124084	275936.0
223.189453	356.0
223.21402	228.0
223.22644	196.0
223.252243	140.0
223.273087	312.0
223.309784	196.0
223.319458	196.0
223.347595	116.0
223.397125	400.0
223.436966	436.0
223.447693	304.0
223.454102	188.0
223.501938	240.0
223.525864	128.0
223.561295	244.0
223.582031	348.0
223.613647	3036.0
223.649521	272.0
223.663956	104.0
223.672852	288.0
223.717407	200.0
223.746689	292.0
223.793457	136.0
223.834946	192.0
223.89743	160.0
223.952698	52.0
223.986038	220.0
224.01799	180.0
224.044922	340.0
224.065018	316.0
224.127411	69356.0
224.178375	264.0
224.223434	180.0
224.275375	64.0
224.333206	240.0
224.38414	380.0
224.437988	112.0
224.466049	168.0
224.518799	88.0
224.53981	88.0
224.550827	60.0
224.557785	60.0
224.61261	188.0
224.646362	132.0
224.710861	252.0
224.754654	108.0
224.80838	104.0
224.84227	432.0
224.895126	76.0
224.93277	76.0
224.967392	132.0
225.007645	52.0
225.102188	12188.0
225.128738	5584.0
225.204529	160.0
225.227036	272.0
225.248016	68.0
225.295837	152.0
225.324921	348.0
225.360092	112.0
225.393478	112.0
225.457977	136.0
225.528702	120.0
225.547028	280.0
225.581436	68.0
225.593964	264.0
225.630508	88.0
225.667679	148.0
225.69574	272.0
225.709106	68.0
225.723312	304.0
225.757919	176.0
225.782745	184.0
225.793396	104.0
225.809372	120.0
225.834076	256.0
225.867706	120.0
225.897034	176.0
225.929626	60.0
225.951889	68.0
225.963837	88.0
225.972046	128.0
226.009888	140.0
226.048538	144.0
226.103058	2304.0
226.130707	336.0
226.165421	272.0
226.207321	52.0
226.258224	124.0
226.295776	212.0
226.308289	116.0
226.313171	180.0
226.349838	100.0
226.397293	152.0
226.440872	72.0
226.477722	204.0
226.52774	112.0
226.557816	96.0
226.58934	120.0
226.659561	300.0
226.684631	152.0
226.719482	88.0
226.751053	132.0
226.789413	104.0
226.814178	180.0
226.857208	168.0
226.914322	128.0
226.933929	120.0
226.954086	84.0
227.002731	64.0
227.050842	144.0
227.092621	264.0
227.137604	196.0
227.174347	108.0
227.211227	76.0
227.241226	44.0
227.27124	44.0
227.300613	76.0
227.349258	108.0
227.381958	156.0
227.468353	276.0
227.494965	80.0
227.523346	76.0
227.549454	80.0
227.583389	48.0
227.611984	92.0
227.649445	84.0
227.715515	124.0
227.760574	56.0
227.795456	76.0
227.835663	56.0
227.858398	100.0
228.075928	92.0
228.121155	176.0
228.160233	184.0
228.235397	40.0
228.291885	168.0
228.334625	36.0
228.363556	104.0
228.409821	168.0
228.566269	104.0
228.602371	124.0
228.671051	180.0
228.761887	68.0
228.893707	152.0
228.963623	196.0
229.001419	116.0
229.083542	128.0
229.156403	336.0
229.267899	56.0
229.316116	104.0
229.399002	40.0
229.463821	68.0
229.5784	176.0
229.632675	152.0
229.785538	128.0
229.846863	72.0
230.005997	44.0
230.050003	52.0
230.091339	180.0
230.130585	76.0
230.15686	160.0
230.202148	132.0
230.229126	144.0
230.254395	84.0
230.311783	88.0
230.378235	60.0
230.446014	184.0
230.481934	84.0
230.541397	152.0
230.652145	68.0
230.674377	72.0
230.722626	108.0
230.961639	144.0
230.982803	32.0
231.00563	140.0
231.098984	276.0
231.164337	52.0
231.211761	244.0
231.312637	52.0
231.458847	176.0
231.485199	96.0
231.512451	40.0
231.566971	140.0
231.609375	104.0
231.712677	80.0
231.739639	72.0
231.866898	44.0
231.947433	148.0
231.99118	140.0
232.021484	96.0
232.057709	156.0
232.111908	1440.0
232.212524	152.0
232.330826	148.0
232.449142	156.0
232.567505	88.0
232.655533	116.0
232.728394	236.0
232.846832	124.0
232.874161	144.0
232.901489	56.0
232.96225	60.0
233.047318	196.0
233.083176	340.0
233.107681	748.0
233.133133	148.0
233.196014	60.0
233.266129	184.0
233.481995	112.0
233.561325	96.0
233.59758	124.0
233.623383	112.0
233.67363	160.0
233.727875	116.0
233.777084	76.0
233.81665	44.0
233.927353	160.0
233.993195	88.0
234.021606	168.0
234.081863	1676.0
234.117218	2032.0
234.172745	116.0
234.200256	112.0
234.285553	68.0
234.420135	208.0
234.523651	80.0
234.581146	120.0
234.625153	120.0
234.683273	160.0
234.736633	104.0
234.929459	180.0
234.992844	96.0
235.099701	972.0
235.120193	1184.0
235.176559	332.0
235.262939	72.0
235.382004	128.0
235.390701	104.0
235.424088	72.0
235.499588	68.0
235.534225	176.0
235.560669	32.0
235.600388	60.0
235.64827	196.0
235.716492	52.0
235.786774	104.0
235.866241	76.0
235.936554	84.0
235.957947	100.0
236.0336	176.0
236.092422	524.0
236.112534	228.0
236.181473	212.0
236.267685	120.0
236.37085	128.0
236.39534	116.0
236.456543	48.0
236.493271	128.0
236.551422	52.0
236.578979	40.0
236.683075	84.0
236.707565	188.0
236.756561	64.0
236.799988	180.0
236.845383	112.0
236.879074	76.0
236.925018	180.0
236.952591	64.0
236.992432	156.0
237.059845	132.0
237.098175	584.0
237.135574	368.0
237.206955	72.0
237.231476	44.0
237.298447	180.0
237.435806	216.0
237.473709	56.0
237.541183	52.0
237.805069	60.0
237.900223	56.0
237.971558	84.0
237.995392	112.0
238.109146	144.0
238.138367	120.0
238.194077	300.0
238.299454	172.0
238.360916	152.0
238.41008	112.0
238.434662	48.0
238.529938	120.0
238.665207	184.0
238.689819	92.0
238.726715	120.0
238.766693	160.0
238.871262	156.0
238.959213	120.0
238.991241	52.0
239.108185	52.0
239.163574	132.0
239.289795	120.0
239.332901	112.0
239.446838	36.0
239.542511	184.0
239.724091	148.0
239.748749	108.0
239.820557	120.0
239.956635	288.0
240.084763	44.0
240.139786	148.0
240.171127	92.0
240.279099	136.0
240.448807	76.0
240.546021	128.0
240.615494	152.0
240.698853	112.0
240.82399	204.0
240.881058	76.0
240.992279	80.0
241.081894	144.0
241.236435	48.0
241.282791	132.0
241.40387	232.0
241.524002	168.0
241.618591	120.0
241.700333	136.0
241.756042	88.0
241.882935	180.0
242.00676	48.0
242.05452	168.0
242.098145	100.0
242.135269	136.0
242.279297	156.0
242.338165	124.0
242.678635	132.0
242.716309	60.0
242.784531	84.0
242.860123	128.0
242.964432	84.0
243.060608	60.0
243.184738	116.0
243.277863	84.0
243.299591	96.0
243.339951	140.0
243.377213	68.0
243.464157	176.0
243.510742	164.0
243.588394	104.0
243.706284	156.0
243.774796	120.0
243.861816	224.0
243.892899	152.0
243.91777	152.0
244.017242	204.0
244.039017	32.0
244.105698	748.0
244.253586	32.0
244.285782	172.0
244.427811	52.0
244.617661	72.0
244.63945	164.0
244.683029	144.0
244.751526	44.0
244.788895	36.0
244.963303	176.0
245.035217	92.0
245.105347	472.0
245.262436	124.0
245.318542	76.0
245.405838	84.0
245.52121	108.0
245.621017	196.0
245.655334	56.0
245.686523	148.0
245.761398	88.0
245.805084	56.0
245.900146	200.0
246.073502	32.0
246.113342	440.0
246.150848	172.0
246.189041	100.0
246.36525	164.0
246.45256	176.0
246.49205	108.0
246.667068	156.0
246.826508	116.0
246.948471	180.0
247.085922	140.0
247.118073	440.0
247.195618	144.0
247.226913	144.0
247.374008	120.0
247.420975	120.0
247.442886	104.0
247.507889	152.0
247.543076	148.0
247.62294	144.0
247.687149	156.0
247.731903	152.0
247.928391	40.0
248.087158	400.0
248.110123	300.0
248.143631	124.0
248.298325	28.0
248.41124	164.0
248.483383	48.0
248.599487	48.0
248.731293	76.0
248.753265	172.0
248.816055	116.0
248.875702	120.0
248.916534	80.0
249.004456	32.0
249.032669	248.0
249.056274	208.0
249.097626	640.0
249.137756	7684.0
249.202362	228.0
249.249481	32.0
249.306152	120.0
249.397186	44.0
249.421341	152.0
249.440033	280.0
249.472626	52.0
249.535507	56.0
249.576385	52.0
249.622452	172.0
249.793381	124.0
250.005539	92.0
250.057678	160.0
250.139496	1232.0
250.223022	76.0
250.284332	108.0
250.410294	88.0
250.438644	120.0
250.520538	124.0
250.567795	140.0
250.627655	60.0
250.697845	148.0
250.772614	124.0
250.848267	164.0
250.968826	148.0
250.997833	100.0
251.050049	52.0
251.117371	11304.0
251.224747	72.0
251.254181	132.0
251.378113	52.0
251.412827	48.0
251.494888	128.0
251.551712	148.0
251.593582	136.0
251.670029	100.0
251.69693	52.0
251.803619	148.0
251.908539	100.0
252.121155	1032.0
252.192917	40.0
252.259293	44.0
252.287735	232.0
252.467621	144.0
252.521729	144.0
252.56601	164.0
252.616623	68.0
252.676727	152.0
252.727356	128.0
252.758987	176.0
252.936844	136.0
253.007904	168.0
253.121857	1284.0
253.170502	184.0
253.235321	60.0
253.285965	132.0
253.490448	48.0
253.582352	140.0
253.604538	128.0
253.686951	128.0
253.712311	132.0
253.788406	68.0
253.965988	68.0
254.083359	120.0
254.127075	280.0
254.286438	76.0
254.388016	84.0
254.530884	144.0
254.673782	56.0
254.704422	144.0
254.902527	176.0
254.975616	76.0
255.001038	68.0
255.112289	144.0
255.303055	112.0
255.376205	132.0
255.481171	192.0
255.59166	88.0
255.633896	140.0
255.687988	180.0
255.727448	152.0
255.77829	196.0
255.818222	144.0
255.826736	132.0
255.945847	60.0
255.980865	160.0
256.043488	144.0
256.112152	296.0
256.136322	104.0
256.235687	28.0
256.446106	220.0
256.595825	84.0
256.694641	128.0
256.854126	60.0
256.923767	236.0
257.102966	108.0
257.138092	68.0
257.282837	160.0
257.618439	92.0
257.648987	180.0
257.720001	244.0
257.808167	132.0
257.840698	168.0
257.946167	120.0
258.064453	44.0
258.163574	236.0
258.249939	84.0
258.355469	264.0
258.521851	92.0
258.581482	208.0
258.630676	48.0
258.713898	168.0
258.735321	64.0
258.976471	48.0
259.027313	124.0
259.059753	124.0
259.122223	4596.0
259.194305	92.0
259.348145	140.0
259.399902	132.0
259.479584	44.0
259.562927	80.0
259.607452	176.0
259.613342	156.0
259.626862	132.0
259.707245	156.0
259.786438	208.0
259.867645	56.0
259.954285	108.0
259.976746	144.0
260.056976	324.0
260.123871	952.0
260.185364	176.0
260.214264	108.0
260.284912	168.0
260.361969	100.0
260.398468	176.0
260.439056	132.0
260.4776	152.0
260.528992	48.0
260.561127	52.0
260.800964	176.0
260.908203	40.0
260.936859	188.0
260.969055	68.0
261.014313	124.0
261.05484	132.0
261.087769	160.0
261.092834	236.0
261.138611	18952.0
261.200836	120.0
261.234741	132.0
261.289825	120.0
261.335938	44.0
261.383148	60.0
261.432495	64.0
261.480743	156.0
261.545135	36.0
261.568909	104.0
261.611023	136.0
261.639099	292.0
261.686768	76.0
261.773712	124.0
261.797546	176.0
261.831665	172.0
261.863892	116.0
261.928284	144.0
261.957275	132.0
262.015839	244.0
262.037811	140.0
262.071503	324.0
262.10788	1088.0
262.140839	3196.0
262.190613	460.0
262.248993	196.0
262.408447	72.0
262.435822	68.0
262.502167	132.0
262.556793	32.0
262.597382	128.0
262.624512	84.0
262.65033	92.0
262.708069	208.0
262.766449	36.0
262.911652	192.0
262.998779	68.0
263.034302	112.0
263.077057	168.0
263.145844	728.0
263.174225	1440.0
263.224762	80.0
263.304138	184.0
263.418549	84.0
263.447632	108.0
263.496094	176.0
263.528381	44.0
263.587006	84.0
263.702881	108.0
263.774017	180.0
263.812805	136.0
263.841888	116.0
263.864532	64.0
264.027985	144.0
264.057037	136.0
264.1297	152.0
264.179474	92.0
264.275269	28.0
264.378815	92.0
264.407928	76.0
264.511505	248.0
264.71225	136.0
264.757568	72.0
264.835297	84.0
264.968109	124.0
265.003754	72.0
265.065308	160.0
265.133362	32.0
265.428345	148.0
265.499695	64.0
265.5289	108.0
265.56131	76.0
265.591644	104.0
265.674835	104.0
265.736481	168.0
265.843567	176.0
265.869537	68.0
265.992859	72.0
266.124359	448.0
266.161621	140.0
266.389008	132.0
266.418243	132.0
266.601624	120.0
266.647156	60.0
266.75296	100.0
266.788727	212.0
266.869995	72.0
266.96756	76.0
267.006561	60.0
267.080505	196.0
267.090515	144.0
267.135651	1708.0
267.185486	56.0
267.233948	232.0
267.254974	100.0
267.393738	132.0
267.455566	144.0
267.540192	172.0
267.719269	120.0
267.790924	224.0
267.830017	88.0
267.896729	140.0
267.921204	172.0
268.025116	144.0
268.072784	100.0
268.144623	25756.0
268.209717	120.0
268.238312	156.0
268.269012	44.0
268.278503	44.0
268.290741	72.0
268.336426	64.0
268.380768	44.0
268.424683	68.0
268.449219	80.0
268.476074	140.0
268.537292	68.0
268.614044	192.0
268.677734	144.0
268.720306	100.0
268.791748	176.0
268.853729	68.0
268.892914	60.0
268.971222	160.0
269.059387	196.0
269.146423	5316.0
269.19873	152.0
269.293365	188.0
269.317352	52.0
269.389191	40.0
269.516632	40.0
269.632111	128.0
269.716797	48.0
269.798157	84.0
269.915405	112.0
269.95874	124.0
270.046204	100.0
270.085297	356.0
270.15274	600.0
270.206482	52.0
270.410095	72.0
270.46167	172.0
270.532837	44.0
270.57959	108.0
270.612305	120.0
270.654877	68.0
270.697449	68.0
270.733887	96.0
270.831024	188.0
270.913605	116.0
270.939819	144.0
270.966034	116.0
270.992249	76.0
271.015167	120.0
271.03598	92.0
271.079468	256.0
271.133148	156.0
271.159821	132.0
271.189972	152.0
271.283905	104.0
271.312469	164.0
271.347778	112.0
271.377563	68.0
271.521149	168.0
271.674164	56.0
271.703674	76.0
271.743042	100.0
271.844757	176.0
271.9888	180.0
272.010864	292.0
272.05481	112.0
272.092072	124.0
272.186157	136.0
272.22226	136.0
272.333923	156.0
272.376617	168.0
272.422607	92.0
272.448883	200.0
272.738068	124.0
272.915588	48.0
273.010956	48.0
273.075348	192.0
273.128967	176.0
273.211578	124.0
273.360107	56.0
273.60321	72.0
273.725037	80.0
273.772217	136.0
273.85675	136.0
273.916046	172.0
273.962158	128.0
273.998383	108.0
274.028046	112.0
274.078125	176.0
274.113708	148.0
274.143372	40.0
274.174377	156.0
274.251251	152.0
274.263184	112.0
274.279144	192.0
274.43866	172.0
274.651093	160.0
274.786346	68.0
274.895233	168.0
274.918335	180.0
274.979004	100.0
275.086182	140.0
275.11676	172.0
275.162872	172.0
275.25174	120.0
275.423462	96.0
275.5242	152.0
275.582031	84.0
275.63205	144.0
275.849701	160.0
275.94043	120.0
275.97113	132.0
276.048096	100.0
276.078186	364.0
276.145782	1632.0
276.269684	204.0
276.335846	128.0
276.362305	124.0
276.385468	112.0
276.450348	100.0
276.483917	216.0
276.527771	84.0
276.550934	160.0
276.582703	216.0
276.643616	128.0
276.734528	344.0
276.797699	148.0
276.824615	144.0
276.885345	172.0
276.915863	336.0
276.974762	220.0
277.030243	160.0
277.043762	212.0
277.059967	72.0
277.064545	160.0
277.133698	54604.0
277.216614	36.0
277.258972	240.0
277.306091	140.0
277.364105	124.0
277.394592	108.0
277.441986	80.0
277.476807	88.0
277.499512	144.0
277.548309	116.0
277.595917	112.0
277.64093	108.0
277.691101	128.0
277.723846	188.0
277.74707	52.0
277.779846	96.0
277.844635	156.0
277.871521	116.0
277.895233	96.0
277.902557	64.0
277.917175	88.0
277.955902	116.0
277.992462	164.0
278.048981	92.0
278.08847	376.0
278.135925	11716.0
278.229126	76.0
278.273804	56.0
278.296417	52.0
278.335999	76.0
278.367676	88.0
278.40271	192.0
278.449127	84.0
278.51712	60.0
278.543152	96.0
278.574707	124.0
278.627777	52.0
278.6633	96.0
278.72644	48.0
278.767517	188.0
278.819458	64.0
278.845428	108.0
278.892578	52.0
278.928192	136.0
278.988861	140.0
279.035522	176.0
279.068604	72.0
279.139221	1644.0
279.220581	68.0
279.269562	96.0
279.32486	44.0
279.404694	52.0
279.441284	60.0
279.474548	120.0
279.536346	100.0
279.578705	148.0
279.650909	68.0
279.68457	108.0
279.730804	76.0
279.767426	68.0
279.822998	104.0
279.853973	124.0
279.880615	112.0
279.903931	92.0
279.986389	84.0
280.059387	88.0
280.083466	132.0
280.141632	168.0
280.199493	192.0
280.271149	80.0
280.330292	56.0
280.376953	40.0
280.441895	124.0
280.524963	140.0
280.566956	52.0
280.600281	132.0
280.793304	104.0
281.02652	120.0
281.127289	84.0
281.18634	168.0
281.239563	88.0
281.285828	96.0
281.330902	76.0
281.427704	56.0
281.581329	104.0
281.631409	40.0
281.654816	40.0
281.704895	168.0
281.748322	64.0
281.775055	100.0
281.818481	92.0
282.075836	108.0
282.100616	172.0
282.187592	172.0
282.263031	112.0
282.360016	56.0
282.413544	80.0
282.463715	40.0
282.644379	88.0
282.728027	132.0
283.009216	116.0
283.032654	60.0
283.212555	144.0
283.310608	156.0
283.384338	140.0
283.508301	100.0
283.655762	120.0
284.051453	128.0
284.131958	140.0
284.209137	140.0
284.235962	40.0
284.373566	76.0
284.484344	200.0
284.574982	116.0
284.779816	136.0
284.8302	48.0
284.910828	148.0
284.961212	156.0
285.014984	184.0
285.055298	120.0
285.183014	216.0
285.260315	56.0
285.334259	184.0
285.384705	44.0
285.569641	100.0
285.852234	132.0
285.882538	232.0
285.943115	184.0
286.054169	156.0
286.094574	176.0
286.14621	152.0
286.234192	128.0
286.316803	88.0
286.347107	80.0
286.491943	180.0
286.640198	88.0
286.707581	44.0
286.79184	356.0
286.899719	44.0
287.064911	84.0
287.117065	936.0
287.216675	52.0
287.361755	96.0
287.414062	276.0
287.439362	152.0
287.503448	188.0
287.584473	128.0
287.726227	100.0
287.770111	56.0
287.881561	180.0
288.053802	136.0
288.102142	604.0
288.192322	48.0
288.4086	88.0
288.493103	116.0
288.796753	160.0
288.836121	64.0
288.861176	180.0
288.902283	44.0
288.949646	108.0
289.10672	264.0
289.14502	136.0
289.153473	136.0
289.213593	76.0
289.274811	96.0
289.335449	44.0
289.433655	84.0
289.507172	152.0
289.606354	80.0
289.630066	92.0
289.71814	168.0
289.741852	196.0
289.785889	104.0
289.83432	136.0
289.859222	112.0
289.889618	100.0
289.91803	92.0
289.97226	48.0
290.012939	80.0
290.063782	52.0
290.104797	272.0
290.158478	124.0
290.190186	124.0
290.348022	144.0
290.40625	52.0
290.429047	124.0
290.550995	104.0
290.581207	124.0
290.608551	132.0
290.681732	360.0
290.759369	172.0
290.80423	92.0
290.838898	116.0
290.869598	172.0
290.914734	180.0
290.989899	172.0
291.063324	208.0
291.072723	160.0
291.116058	212.0
291.170563	52720.0
291.239716	268.0
291.274536	88.0
291.332092	72.0
291.382446	48.0
291.441711	184.0
291.482971	140.0
291.517792	212.0
291.559174	108.0
291.587128	196.0
291.606262	152.0
291.63092	60.0
291.639191	60.0
291.729248	240.0
291.759552	132.0
291.773804	60.0
291.808777	96.0
291.898407	104.0
291.922821	52.0
291.966309	56.0
292.013245	132.0
292.084137	60.0
292.121948	212.0
292.173737	9020.0
292.272095	164.0
292.342712	56.0
292.383545	56.0
292.4151	124.0
292.475433	64.0
292.520325	56.0
292.568237	172.0
292.647675	88.0
292.662415	52.0
292.675812	84.0
292.730774	80.0
292.829956	100.0
292.88559	140.0
292.918335	60.0
292.955566	56.0
293.07309	264.0
293.108063	52.0
293.177979	1820.0
293.286102	56.0
293.361084	72.0
293.405396	80.0
293.447693	80.0
293.55542	40.0
293.613403	108.0
293.685028	64.0
293.72937	60.0
293.786835	132.0
293.798645	192.0
293.860626	76.0
293.899933	84.0
293.937469	28.0
293.973236	92.0
294.00531	104.0
294.069702	212.0
294.108551	136.0
294.152069	64.0
294.183563	444.0
294.222626	68.0
294.254913	108.0
294.285614	88.0
294.330017	52.0
294.364685	264.0
294.394897	40.0
294.446136	44.0
294.470032	40.0
294.497345	100.0
294.582001	188.0
294.633972	136.0
294.661316	52.0
294.715973	92.0
294.784332	52.0
294.93811	56.0
295.068024	60.0
295.101013	136.0
295.140961	1584.0
295.273193	116.0
295.321075	92.0
295.348419	132.0
295.391571	144.0
295.52066	48.0
295.560516	72.0
295.687134	56.0
295.751617	76.0
296.050018	68.0
296.14975	532.0
296.180176	92.0
296.204163	40.0
296.228119	36.0
296.255524	36.0
296.337738	96.0
296.49881	76.0
296.526215	64.0
296.550201	144.0
296.841614	128.0
296.954773	52.0
297.057678	180.0
297.174316	164.0
297.200165	108.0
297.248383	68.0
297.387085	44.0
297.490051	112.0
297.661713	124.0
297.723541	44.0
297.751007	148.0
298.008636	104.0
298.146088	72.0
298.197632	52.0
298.689301	108.0
298.778748	68.0
298.83609	132.0
298.895721	68.0
299.04715	124.0
299.124512	84.0
299.171051	224.0
299.233032	188.0
299.350098	120.0
299.594635	144.0
299.639435	148.0
299.787598	80.0
300.604858	72.0
300.760162	40.0
300.874084	88.0
300.944397	152.0
301.046722	88.0
301.217163	216.0
301.540741	64.0
301.579926	140.0
301.659088	116.0
302.017853	68.0
302.168793	144.0
302.20108	120.0
302.377686	136.0
302.663635	132.0
302.706543	188.0
302.969788	120.0
303.111847	160.0
303.347504	188.0
303.611023	100.0
303.812195	112.0
303.916016	216.0
304.0065	52.0
304.06366	144.0
304.134064	276.0
304.1763	404.0
304.256378	108.0
304.290497	388.0
304.318359	80.0
304.381195	80.0
304.452301	160.0
304.491852	108.0
304.547974	200.0
304.588165	44.0
304.618195	236.0
304.647125	164.0
304.679749	124.0
304.729187	60.0
304.759338	152.0
304.783417	188.0
304.812988	204.0
304.838348	356.0
304.905823	132.0
304.917542	272.0
304.948212	340.0
305.006134	256.0
305.042267	336.0
305.129272	123444.0
305.187134	556.0
305.253143	116.0
305.276031	104.0
305.330841	64.0
305.388763	212.0
305.465973	208.0
305.516479	224.0
305.547638	88.0
305.555237	72.0
305.589783	132.0
305.623779	116.0
305.655334	104.0
305.670044	196.0
305.698944	288.0
305.774109	268.0
305.801605	140.0
305.827301	152.0
305.849915	96.0
305.860657	128.0
305.870056	160.0
305.903717	128.0
305.959259	208.0
305.989746	164.0
306.014832	104.0
306.073608	60.0
306.131195	25168.0
306.186707	252.0
306.263824	44.0
306.305664	164.0
306.328949	228.0
306.373199	72.0
306.400879	44.0
306.436981	60.0
306.461395	124.0
306.506683	44.0
306.537384	84.0
306.562042	72.0
306.600769	56.0
306.648407	128.0
306.69577	124.0
306.708496	44.0
306.722565	212.0
306.834778	144.0
306.904022	88.0
306.949371	48.0
307.005157	52.0
307.044891	172.0
307.133392	2556.0
307.192261	56.0
307.202515	136.0
307.255554	56.0
307.312103	44.0
307.340027	52.0
307.384003	92.0
307.427002	220.0
307.49704	116.0
307.545319	92.0
307.626617	152.0
307.674347	64.0
307.841827	100.0
307.869141	112.0
307.919495	68.0
307.943939	64.0
308.013794	40.0
308.056458	116.0
308.087982	232.0
308.143738	456.0
308.218323	320.0
308.285706	116.0
308.311035	268.0
308.337769	132.0
308.377228	176.0
308.477325	80.0
308.530975	88.0
308.593903	60.0
308.648773	52.0
308.682587	72.0
308.747772	168.0
308.803711	152.0
308.852692	132.0
308.989105	100.0
309.182404	420.0
309.258575	80.0
309.298584	64.0
309.340576	52.0
309.36615	144.0
309.423096	52.0
309.482605	52.0
309.615662	84.0
309.696228	52.0
309.829346	84.0
309.871368	92.0
310.004517	40.0
310.162231	136.0
310.189819	328.0
310.25946	136.0
310.481293	64.0
310.611053	48.0
310.660156	68.0
310.684723	80.0
310.730316	96.0
311.123383	72.0
312.047363	108.0
312.279449	40.0
312.515137	92.0
312.81778	56.0
313.250916	68.0
313.286133	120.0
313.317841	44.0
313.582123	104.0
313.968628	108.0
314.118073	100.0
314.312103	80.0
314.686249	76.0
314.792175	108.0
314.966919	100.0
315.126251	116.0
315.237244	76.0
315.261993	204.0
315.368011	92.0
315.399841	68.0
315.558899	72.0
315.590729	76.0
315.880707	44.0
315.955017	80.0
316.128387	56.0
316.241638	64.0
316.40799	100.0
317.060486	152.0
317.091644	76.0
317.123535	180.0
317.251129	64.0
317.94635	52.0
318.237427	68.0
318.343933	92.0
318.393646	92.0
318.482452	32.0
318.527374	104.0
318.592682	112.0
318.638733	184.0
318.880371	44.0
318.908813	56.0
319.11499	64.0
319.168335	176.0
319.22522	116.0
319.370331	144.0
319.459961	104.0
319.677002	132.0
319.707489	188.0
320.061432	88.0
320.089905	84.0
320.176514	7064.0
320.274292	36.0
320.333069	108.0
320.360596	44.0
320.409698	96.0
320.631378	228.0
320.788208	60.0
321.026184	64.0
321.177338	2184.0
321.241089	36.0
321.312439	56.0
321.337402	40.0
321.79425	28.0
321.879944	128.0
321.951355	56.0
321.994202	128.0
322.18222	156.0
322.297852	60.0
322.429779	52.0
322.712463	28.0
322.80542	48.0
322.905548	72.0
322.991394	36.0
323.073669	36.0
323.123749	204.0
323.150024	128.0
323.402863	48.0
323.485199	80.0
323.610504	60.0
323.775208	56.0
323.814606	60.0
323.846832	112.0
323.914886	88.0
324.190765	84.0
325.019104	300.0
325.049377	136.0
325.927521	80.0
326.202545	160.0
326.279755	60.0
326.765259	88.0
327.290741	68.0
328.238403	56.0
328.386261	108.0
330.159515	124.0
330.22821	48.0
330.365662	104.0
330.528473	48.0
330.951965	92.0
331.198212	168.0
331.821503	144.0
332.035461	60.0
332.140625	56.0
332.336517	104.0
333.141968	212.0
333.229675	112.0
333.476776	88.0
333.567657	96.0
333.905792	76.0
334.109497	108.0
334.138611	148.0
334.396942	56.0
334.531616	40.0
334.699097	44.0
335.0961	40.0
335.161682	112.0
335.471466	104.0
335.69751	188.0
336.076874	48.0
336.788727	76.0
336.836212	36.0
337.01889	100.0
337.168701	80.0
337.578156	92.0
338.185364	208.0
338.459991	160.0
339.189056	164.0
339.225708	160.0
340.142761	64.0
340.201477	144.0
340.348328	36.0
340.484192	88.0
341.362488	100.0
341.697205	160.0
341.837036	140.0
341.962158	88.0
342.153564	192.0
342.882874	196.0
343.57608	100.0
343.69046	140.0
343.767944	48.0
344.085388	140.0
344.137054	156.0
344.306915	52.0
344.753937	96.0
344.841522	120.0
344.975677	112.0
345.505615	120.0
345.985596	144.0
346.145874	152.0
346.218872	108.0
346.62265	116.0
347.063751	52.0
347.149017	128.0
347.189819	80.0
347.547516	112.0
347.748962	184.0
347.831696	144.0
348.04422	156.0
348.118713	136.0
348.170959	25752.0
348.280975	32.0
348.310669	52.0
348.347168	88.0
348.381256	56.0
348.474152	112.0
348.526154	64.0
348.560822	124.0
348.596741	100.0
348.648773	64.0
348.714142	156.0
348.752838	84.0
348.801544	40.0
348.847931	104.0
348.935516	56.0
348.964722	108.0
348.998596	72.0
349.027954	88.0
349.060181	48.0
349.0867	160.0
349.174438	7216.0
349.327789	128.0
349.463104	64.0
349.556152	148.0
349.58963	44.0
349.647003	96.0
349.719879	72.0
349.772003	112.0
349.842712	56.0
349.930328	112.0
350.010498	64.0
350.09964	68.0
350.176727	1240.0
350.274689	88.0
350.301514	80.0
350.375275	32.0
350.416229	132.0
350.444458	104.0
350.459961	60.0
350.475342	88.0
350.576477	100.0
350.617462	48.0
350.677094	80.0
350.773987	60.0
350.826172	76.0
350.863464	52.0
350.915649	68.0
351.038696	132.0
351.075989	48.0
351.109955	76.0
351.177368	396.0
351.277405	88.0
351.484955	76.0
351.598267	64.0
351.695312	44.0
351.941711	232.0
351.975311	72.0
352.031311	52.0
352.128418	72.0
352.244202	48.0
352.535614	104.0
352.602875	64.0
352.687347	100.0
352.74118	72.0
353.212341	68.0
353.350739	80.0
353.425568	56.0
353.459229	56.0
354.208008	48.0
354.402802	40.0
354.627655	48.0
354.796326	88.0
355.190063	148.0
355.255585	60.0
356.447754	104.0
357.711426	52.0
357.974976	60.0
358.445831	56.0
358.638031	92.0
358.920776	68.0
358.966034	100.0
359.301697	92.0
359.743256	168.0
360.275696	52.0
360.343719	84.0
360.385254	116.0
360.903076	128.0
361.606689	48.0
361.655884	40.0
362.201141	100.0
362.231445	140.0
362.652008	56.0
363.175262	92.0
363.235931	140.0
363.611572	152.0
363.801361	52.0
364.112701	100.0
364.219055	120.0
364.25119	64.0
364.967712	48.0
365.009521	156.0
366.341614	128.0
366.749329	36.0
367.50058	96.0
367.615051	92.0
367.714264	104.0
368.302246	60.0
368.363373	52.0
368.432129	96.0
368.707245	92.0
369.15451	124.0
369.514038	56.0
369.61734	76.0
369.659454	80.0
370.655029	72.0
370.792999	104.0
370.865814	88.0
371.199341	100.0
371.763245	56.0
372.204742	108.0
372.358276	108.0
372.607971	88.0
372.784698	40.0
373.219055	216.0
374.103943	56.0
374.146271	124.0
374.531342	192.0
374.56601	56.0
374.824127	48.0
374.928192	60.0
375.321381	52.0
375.379211	108.0
375.568176	84.0
375.803497	44.0
376.486725	68.0
377.363861	88.0
379.028198	124.0
379.113434	88.0
379.299469	96.0
380.175995	84.0
380.36618	116.0
380.61853	64.0
381.430481	108.0
382.076019	76.0
382.301666	80.0
383.076477	56.0
383.28479	72.0
383.688293	104.0
384.023651	72.0
384.148468	76.0
384.878296	92.0
385.159454	120.0
385.221954	40.0
385.483734	108.0
385.585327	84.0
386.472992	156.0
386.617767	76.0
386.942657	68.0
387.028809	68.0
388.012207	92.0
388.055328	108.0
388.474945	44.0
388.765289	148.0
389.589813	76.0
390.218628	108.0
390.899078	80.0
392.092285	40.0
392.175049	84.0
392.328796	52.0
393.157074	32.0
393.318909	64.0
393.587372	140.0
393.812469	80.0
394.092926	124.0
394.436737	108.0
395.425568	104.0
395.469086	136.0
395.670959	216.0
396.090729	56.0
396.919037	60.0
397.061798	48.0
397.192657	60.0
397.220428	120.0
397.664825	84.0
397.787872	44.0
398.598083	80.0
398.685486	108.0
398.884216	56.0
399.389191	84.0
399.488647	40.0
399.596069	168.0
399.894501	76.0
400.814423	120.0
400.870056	108.0
401.212982	60.0
402.204132	204.0
402.413849	52.0
402.461761	64.0
403.220734	132.0
403.528534	36.0
404.856964	88.0
405.045227	136.0
405.149353	76.0
405.263458	84.0
405.734467	84.0
406.143494	128.0
406.259796	40.0
407.38382	88.0
407.584717	88.0
407.749481	52.0
408.167542	64.0
408.21579	48.0
408.823212	28.0
408.996277	84.0
410.466736	92.0
410.777283	116.0
410.942688	120.0
411.701569	104.0
411.834839	116.0
412.339874	76.0
413.282074	188.0
414.172699	92.0
414.334717	76.0
415.056152	84.0
415.240509	144.0
415.611847	88.0
415.977112	48.0
416.509033	76.0
416.545593	44.0
416.923431	148.0
417.219452	160.0
417.944092	76.0
418.21698	124.0
418.591309	84.0
418.689026	64.0
418.929352	52.0
419.186035	104.0
419.227783	148.0
419.472137	80.0
419.67514	96.0
419.879028	172.0
420.127838	72.0
420.205353	160.0
421.087067	68.0
421.597748	84.0
421.671295	68.0
421.900208	212.0
422.386841	92.0
423.496063	68.0
424.262329	44.0
424.746185	64.0
425.837982	40.0
426.877716	96.0
427.71698	60.0
428.742523	96.0
430.925354	72.0
431.88028	52.0
432.091248	72.0
433.27005	152.0
434.265961	56.0
434.319885	72.0
434.859253	104.0
435.095856	56.0
435.461273	64.0
435.918243	120.0
436.026306	132.0
436.250763	136.0
436.966064	136.0
437.182434	124.0
437.57785	52.0
438.0401	112.0
438.160919	132.0
438.29422	72.0
439.445007	108.0
440.142029	64.0
440.221375	44.0
440.325775	76.0
441.592133	60.0
442.035583	60.0
442.638336	64.0
442.830994	64.0
443.228943	132.0
443.312775	124.0
445.011536	52.0
445.364288	36.0
447.592377	84.0
448.212372	52.0
448.250305	96.0
448.705505	48.0
449.138733	76.0
450.659607	52.0
450.714539	48.0
450.908905	96.0
451.162537	100.0
451.940704	68.0
452.601013	48.0
453.003357	92.0
453.282959	124.0
454.427795	52.0
454.457489	104.0
454.707855	48.0
456.704742	68.0
456.777039	72.0
458.147766	108.0
458.220184	212.0
458.373566	60.0
460.156433	56.0
460.29306	152.0
461.254364	260.0
462.252197	208.0
462.353516	92.0
462.85437	92.0
465.34549	248.0
465.564484	76.0
466.931091	76.0
466.982697	80.0
467.128937	92.0
467.326843	128.0
467.559204	140.0
467.774414	52.0
467.91217	40.0
468.644348	68.0
468.700348	68.0
468.933044	100.0
469.170135	44.0
469.259277	244.0
469.57547	80.0
469.920532	88.0
470.268768	92.0
470.896118	120.0
471.254669	112.0
471.291107	164.0
472.026825	168.0
472.659882	84.0
473.213898	76.0
473.31781	160.0
473.378448	72.0
473.867889	56.0
474.478973	68.0
474.526672	60.0
474.95163	48.0
475.112152	32.0
476.205994	104.0
477.440277	52.0
478.58905	88.0
479.251099	132.0
480.262482	96.0
480.960602	52.0
483.736237	172.0
484.042725	84.0
484.305481	44.0
484.704132	32.0
485.072296	112.0
485.24765	128.0
486.067841	56.0
487.266907	128.0
487.345581	84.0
488.119171	68.0
488.189514	132.0
488.257629	292.0
488.299866	136.0
489.126648	88.0
489.267517	104.0
489.522888	144.0
490.500946	72.0
490.859741	140.0
491.007996	68.0
491.400574	112.0
492.301025	120.0
492.707367	92.0
493.016663	68.0
493.639984	288.0
494.648712	96.0
494.808075	60.0
495.06488	72.0
496.13269	92.0
496.310028	104.0
497.250488	140.0
498.262878	128.0
498.511719	76.0
499.125122	40.0
499.61438	136.0
499.961426	52.0
500.019287	32.0
500.353119	128.0
502.220245	60.0
502.336212	88.0
502.443268	60.0
503.35379	36.0
504.493073	68.0
504.680847	92.0
505.101227	72.0
505.409912	124.0
507.246063	48.0
507.380554	64.0
507.537476	76.0
507.568878	48.0
507.739258	60.0
507.923157	112.0
508.268616	168.0
508.331421	44.0
509.584167	68.0
510.914917	64.0
514.308044	104.0
514.366699	28.0
515.116272	104.0
515.263855	196.0
515.342468	120.0
516.078918	60.0
516.259583	172.0
516.39093	128.0
516.544678	136.0
516.66687	128.0
517.726013	84.0
518.423645	92.0
519.271423	32.0
519.498169	88.0
520.446716	92.0
521.146179	60.0
524.450012	44.0
525.047241	60.0
525.462341	132.0
527.229431	112.0
527.352844	68.0
527.814575	76.0
528.226135	84.0
528.285645	120.0
528.381714	160.0
529.179871	140.0
529.603882	84.0
530.016235	140.0
530.176575	112.0
530.240784	116.0
530.31189	2904.0
530.396484	124.0
530.621216	40.0
530.786255	96.0
531.111877	56.0
531.318604	1472.0
531.386169	112.0
531.397217	140.0
531.492676	116.0
531.52478	40.0
531.859802	40.0
532.002075	64.0
532.259216	84.0
532.330322	204.0
532.438293	80.0
532.658752	52.0
533.168762	48.0
533.223877	44.0
533.259094	188.0
534.290649	52.0
534.520691	72.0
534.580505	44.0
534.626526	96.0
534.667969	116.0
534.829041	32.0
535.607178	100.0
535.865173	80.0
536.335205	64.0
536.690186	48.0
537.165222	40.0
537.843506	64.0
537.889648	48.0
538.226685	124.0
538.300537	60.0
538.342102	104.0
538.476074	104.0
538.716248	56.0
538.93335	100.0
539.968872	44.0
540.209351	52.0
540.306519	204.0
541.301941	112.0
543.076599	32.0
543.452332	112.0
544.013855	72.0
544.176392	64.0
544.287781	72.0
544.40387	44.0
545.542236	56.0
546.891174	88.0
548.074036	92.0
548.996948	84.0
551.391846	40.0
551.644287	40.0
552.219421	108.0
552.252136	120.0
552.58429	52.0
552.645081	56.0
552.682495	80.0
553.32373	104.0
554.129272	40.0
554.855713	108.0
555.470032	48.0
555.662354	144.0
555.835938	56.0
556.004883	124.0
556.258362	112.0
557.049377	156.0
557.286804	112.0
557.502991	96.0
557.545288	96.0
557.615784	112.0
557.776428	64.0
557.888367	132.0
557.973022	36.0
558.034119	60.0
558.109375	104.0
558.141846	96.0
558.229858	272.0
558.305786	9592.0
558.471436	72.0
558.537292	64.0
558.58905	56.0
558.659607	44.0
558.781921	128.0
558.954651	136.0
559.018982	104.0
559.06897	104.0
559.156799	72.0
559.310547	4780.0
559.412537	176.0
559.487854	56.0
559.636841	72.0
559.704407	120.0
559.762268	92.0
559.817444	64.0
559.991333	52.0
560.038818	56.0
560.081177	72.0
560.165955	136.0
560.315491	936.0
560.462769	52.0
560.524048	96.0
560.712524	48.0
561.141479	112.0
561.217712	68.0
561.313171	388.0
561.348938	116.0
561.391357	124.0
561.495117	60.0
561.608337	56.0
561.801697	108.0
561.863037	60.0
561.900818	88.0
561.947998	52.0
562.023438	44.0
562.20752	92.0
562.258179	136.0
562.802246	116.0
562.953369	52.0
563.01001	104.0
563.335938	64.0
563.643005	96.0
563.723328	120.0
563.959656	152.0
564.200745	96.0
564.474976	108.0
565.345337	68.0
566.306396	132.0
567.02179	32.0
567.917908	64.0
568.35437	104.0
569.488953	188.0
569.588684	72.0
569.849976	100.0
570.309387	88.0
571.866211	96.0
573.252014	80.0
573.2854	80.0
573.642883	84.0
574.291321	136.0
574.410583	48.0
574.973572	64.0
575.374512	64.0
576.205505	120.0
576.326477	240.0
576.855469	112.0
576.986694	80.0
577.051453	92.0
577.317017	124.0
578.046326	56.0
578.098999	84.0
578.323914	104.0
579.089966	96.0
579.684021	64.0
580.489319	124.0
580.573914	76.0
587.776855	88.0
587.960205	88.0
588.196716	88.0
589.288147	96.0
589.723022	56.0
590.27417	36.0
591.343262	48.0
592.476318	76.0
593.397156	124.0
595.372009	36.0
595.406006	112.0
595.886902	100.0
595.950073	64.0
596.552734	88.0
597.141052	28.0
598.381897	72.0
600.535767	52.0
600.633301	68.0
600.974792	44.0
601.843567	68.0
604.752258	144.0
607.628723	108.0
608.762512	48.0
610.457886	132.0
611.003845	96.0
611.308899	68.0
612.342712	68.0
612.697388	52.0
613.461182	96.0
614.047974	52.0
614.995239	44.0
617.429565	72.0
620.515808	56.0
624.881409	64.0
627.152161	80.0
627.456238	56.0
628.543518	52.0
629.217346	80.0
631.360901	92.0
632.256409	68.0
632.346497	32.0
632.796997	108.0
633.623901	108.0
633.808716	36.0
634.916565	104.0
636.22113	56.0
639.382751	68.0
640.324158	72.0
643.213257	112.0
643.344482	64.0
643.768616	116.0
644.470703	56.0
645.05188	28.0
645.936829	76.0
646.144226	140.0
646.554077	84.0
648.260681	68.0
648.569824	48.0
649.771667	108.0
651.396118	60.0
651.68573	116.0
652.503967	72.0
652.814148	120.0
654.101318	60.0
655.517151	76.0
657.230469	52.0
661.011597	156.0
661.400574	56.0
663.634155	92.0
664.567627	88.0
664.947327	40.0
667.31543	92.0
670.800659	52.0
672.415039	64.0
672.79187	48.0
674.408691	72.0
674.594788	68.0
678.394409	48.0
679.509399	100.0
680.666809	108.0
680.732544	128.0
681.155029	100.0
682.937866	108.0
683.04187	60.0
684.712646	84.0
685.754639	52.0
687.459961	112.0
687.506958	100.0
690.144836	64.0
691.588684	40.0
695.766479	116.0
696.113037	120.0
700.457214	64.0
700.799683	92.0
702.286255	232.0
703.7005	140.0
704.608887	28.0
708.020569	48.0
708.608521	92.0
710.66571	92.0
710.75061	48.0
716.817688	36.0
720.787659	76.0
723.633179	104.0
735.546082	48.0
735.826843	80.0
742.222107	128.0
742.28717	132.0
748.546997	40.0
749.799988	52.0
750.9776	108.0
751.343079	32.0
754.220886	48.0
758.950806	80.0
760.678955	104.0
766.056885	68.0
767.098389	100.0
767.94751	56.0
769.338074	44.0
770.740906	44.0
776.780945	88.0
777.940674	96.0
778.273804	44.0
780.385132	96.0
782.939209	48.0
784.582947	116.0
788.33374	72.0
791.460571	84.0
797.47998	140.0
799.031982	60.0
799.363953	184.0
801.903748	44.0
802.382935	108.0
802.625366	64.0
803.020081	80.0
803.211853	40.0
806.837219	60.0
809.926941	60.0
816.56189	96.0
818.183594	104.0
822.938416	128.0
823.115417	108.0
823.263855	52.0
825.641174	104.0
826.293274	44.0
826.899841	104.0
832.833984	56.0
833.621033	96.0
835.57019	204.0
837.625366	148.0
837.850037	52.0
841.800903	48.0
841.916443	88.0
846.340088	108.0
848.814209	120.0
850.299316	60.0
855.094055	92.0
864.858582	64.0
866.306152	72.0
866.691589	52.0
868.338806	92.0
871.068115	68.0
873.572266	64.0
873.766418	56.0
878.744751	112.0
881.200806	108.0
884.033081	96.0
886.460999	76.0
890.708923	112.0
892.075623	168.0
894.28833	100.0
903.166626	84.0
903.549438	84.0
906.764954	40.0
907.970032	92.0
908.059998	56.0
908.833801	72.0
913.393555	32.0
919.098755	72.0
919.641907	100.0
922.003357	120.0
922.656128	52.0
924.918518	64.0
929.190796	76.0
933.45459	92.0
934.233093	60.0
937.63678	64.0
938.575562	84.0
942.616394	124.0
947.854309	68.0
950.135132	52.0
952.234436	104.0
960.296997	60.0
961.370422	84.0
961.59259	152.0
964.365723	108.0
966.969543	112.0
967.118103	140.0
968.597961	76.0
975.038208	72.0
976.729309	36.0
977.195923	56.0
977.681274	72.0
979.729736	76.0
981.312744	36.0
982.946899	56.0
983.340088	160.0
986.481873	188.0
995.874573	68.0
1000.911865	104.0
1006.751099	48.0
1011.486572	124.0
1014.368713	88.0
1014.869568	124.0
1022.161438	248.0
1023.338928	92.0
1026.869263	100.0
1030.098877	144.0
1030.20752	60.0
1033.442505	40.0
1036.169922	128.0
1036.695312	152.0
1037.374634	108.0
1042.579956	100.0
1042.721436	108.0
1044.36084	52.0
1046.439453	80.0
1048.22998	100.0
1051.247925	124.0
1052.106323	80.0
1054.62561	32.0
1060.62561	196.0
1060.768311	180.0
1060.897949	172.0
1066.278809	132.0
1068.034302	88.0
1068.476562	148.0
1069.166382	188.0
1071.126099	76.0
1071.591797	156.0
1075.57959	196.0
1078.492798	60.0
1079.087646	84.0
1080.016235	172.0
1081.220093	132.0
1082.306763	120.0
1082.804443	184.0
1087.314941	100.0
1089.777466	44.0
1090.171631	128.0
1091.131348	92.0
1093.558594	52.0
1094.282715	156.0
1099.694702	140.0
1101.90686	216.0
1102.86499	156.0
1103.70459	68.0
1112.403442	124.0
1115.512207	196.0
1122.596191	112.0
1124.79126	48.0
1125.31189	36.0
1128.177979	60.0
1128.826538	152.0
1129.829834	68.0
1129.990356	64.0
1133.673096	92.0
1136.932251	148.0
1137.167114	204.0
1138.153931	96.0
1141.883545	48.0
1142.071899	172.0
1145.942627	68.0
1146.57605	44.0
1147.027588	40.0
1147.789429	140.0
1148.713379	200.0
1149.104736	88.0
1149.388062	188.0
1150.326172	40.0
1152.385986	136.0
1155.306519	64.0
1162.067749	128.0
1162.210327	92.0
1165.163696	128.0
1167.046265	56.0
1168.161621	200.0
1168.209229	152.0
1168.256836	48.0
1168.773926	76.0
1169.627319	112.0
1172.117188	132.0
1172.212524	196.0
1175.014893	140.0
1177.8479	124.0
1182.141479	72.0
1183.435059	36.0
1185.709351	48.0
1186.970703	212.0
1189.598389	152.0
1190.243774	176.0
1191.370117	48.0
1192.077759	80.0
1194.635376	112.0
1194.855591	128.0
1197.843262	96.0
1199.076538	52.0
1199.62793	160.0
1201.917725	128.0
1202.283447	144.0
1203.305054	148.0
1205.349487	116.0
1206.455322	164.0
1207.513184	160.0
1208.557739	172.0
1209.727417	64.0
1211.631836	76.0
1212.082153	32.0
1212.588013	72.0
1213.16333	180.0
1213.718018	136.0
1214.085571	96.0
1215.840698	148.0
1216.763916	116.0
1217.972168	40.0
1219.876099	52.0
1221.545044	64.0
1223.479614	132.0
1225.311157	112.0
1225.45752	52.0
1226.356445	200.0
1227.353271	188.0
1229.397217	52.0
1230.772339	48.0
1234.140137	68.0
1234.664551	120.0
1236.672485	112.0
1237.022461	36.0
1237.295532	84.0
1241.359253	160.0
1243.976318	84.0
1245.563232	80.0
1246.279785	176.0
1246.961426	48.0
1247.151245	100.0
1247.63623	128.0
1249.837646	136.0
1250.041748	184.0
1251.174927	120.0
1251.91333	156.0
1252.012817	144.0
1253.661255	88.0
1257.462402	60.0
1257.589478	152.0
1257.998901	200.0
1258.549561	88.0
1259.538208	40.0
1260.209351	168.0
1260.527344	40.0
1260.901855	100.0
1261.361328	228.0
1262.591553	196.0
1265.160034	164.0
1265.471558	64.0
1265.71936	116.0
1266.95166	120.0
1267.519043	148.0
1269.638062	160.0
1270.042358	148.0
1270.836792	152.0
1271.00708	160.0
1271.759521	172.0
1272.483398	204.0
1273.491821	148.0
1273.740356	124.0
1277.692871	72.0
1278.041504	184.0
1279.24646	184.0
1279.31543	132.0
1280.582886	176.0
1283.640137	120.0
1285.822998	156.0
1286.30127	192.0
1286.793823	116.0
1287.586426	132.0
1288.229248	184.0
1288.958008	108.0
1289.20813	112.0
1289.779907	100.0
1290.673584	48.0
1291.115845	168.0
1291.968018	180.0
1293.241699	124.0
1293.341919	188.0
1293.49231	164.0
1293.943237	160.0
1295.289551	124.0
1298.7229	132.0
1300.33728	276.0
1300.904297	232.0
1301.327881	60.0
1304.287598	188.0
1304.359497	196.0
1304.625488	220.0
1305.941284	184.0
1307.707642	300.0
1308.359131	168.0
1308.729614	160.0
1309.921753	32.0
1310.541382	96.0
1310.966431	180.0
1313.136475	172.0
1313.417725	88.0
1315.885742	160.0
1320.387573	208.0
1321.204834	64.0
1322.174438	56.0
1322.314819	212.0
1323.267456	112.0
1324.63623	168.0
1324.933228	184.0
1325.121582	108.0
1326.273804	180.0
1326.498535	148.0
1326.875488	136.0
1327.702026	252.0
1328.275024	216.0
1329.194702	140.0
1329.341553	144.0
1329.914917	136.0
1333.473755	220.0
1334.156982	228.0
1335.1604	132.0
1337.699707	192.0
1338.274902	64.0
1338.420532	160.0
1338.704468	132.0
1340.037476	44.0
1341.436646	128.0
1341.932373	148.0
1342.180298	156.0
1343.009155	196.0
1343.602539	108.0
1344.120483	200.0
1344.952515	120.0
1345.047363	56.0
1345.339355	88.0
1347.216187	108.0
1348.012573	140.0
1348.458374	200.0
1348.904175	76.0
1350.585938	164.0
1351.185791	48.0
1352.220825	164.0
1352.934937	128.0
1353.432739	84.0
1353.959961	220.0
1355.029419	92.0
1355.395752	104.0
1355.768066	204.0
1355.78772	164.0
1357.030273	204.0
1358.313599	128.0
1359.428833	108.0
1360.214111	60.0
1361.572388	180.0
1362.343628	200.0
1363.306152	36.0
1363.783936	156.0
1364.31311	116.0
1364.570435	172.0
1364.67334	48.0
1364.893921	148.0
1366.048584	100.0
1366.71814	128.0
1367.549683	160.0
1367.829346	132.0
1367.947144	148.0
1369.559692	176.0
1369.721802	152.0
1370.259521	36.0
1370.598511	164.0
1370.74585	180.0
1370.915283	168.0
1371.61084	140.0
1371.76416	124.0
1372.72876	112.0
1373.399902	176.0
1374.041626	188.0
1374.831177	156.0
1375.119019	56.0
1376.706299	196.0
1376.824463	112.0
1377.20105	92.0
1377.710815	48.0
1378.043213	44.0
1378.863403	80.0
1379.085205	176.0
1380.112671	232.0
1380.985352	168.0
1381.998779	200.0
1383.000732	156.0
1383.427124	128.0
1384.189697	100.0
1384.530396	124.0
1384.77478	204.0
1386.226807	56.0
1386.338013	108.0
1387.019775	136.0
1387.37561	184.0
1388.384033	164.0
1388.999634	116.0
1389.711792	80.0
1391.114502	32.0
1391.240601	116.0
1391.5896	132.0
1391.983154	136.0
1392.406372	180.0
1393.305176	172.0
1394.226562	172.0
1394.501587	196.0
1394.769043	68.0
1395.140747	188.0
1395.215088	80.0
1395.386108	44.0
1396.270996	236.0
1396.672607	300.0
1396.769287	76.0
1396.992432	148.0
1397.609985	212.0
1398.302002	108.0
1399.321777	52.0
1400.081299	160.0
1400.215332	184.0
1401.125977	180.0
1401.258179	136.0
1402.167358	124.0
1402.592163	116.0
1403.531494	96.0
1404.187744	156.0
1404.79187	124.0
1404.911255	164.0
1405.232056	48.0
1405.374756	160.0
1405.776733	132.0
1409.002319	176.0
1409.719604	156.0
1410.519287	216.0
1411.207031	120.0
1411.506104	156.0
1412.007202	96.0
1412.089478	188.0
1412.261475	140.0
1412.448486	192.0
1413.106812	116.0
1413.465942	208.0
1413.727905	132.0
1413.862549	236.0
1415.486938	136.0
1416.041138	172.0
1418.558716	100.0
1419.810913	184.0
1419.885864	192.0
1419.998413	168.0
1420.403442	184.0
1420.673462	152.0
1420.725952	108.0
1420.801025	164.0
1421.558838	160.0
1422.429443	100.0
1422.872314	172.0
1424.208984	120.0
1424.434326	140.0
1425.238159	100.0
1425.643921	192.0
1425.76416	200.0
1426.200073	40.0
1426.305298	100.0
1426.500732	128.0
1426.891724	116.0
1427.816528	44.0
1428.012085	140.0
1428.124878	136.0
1428.817017	108.0
1429.230713	128.0
1429.607056	80.0
1430.29187	220.0
1431.165161	76.0
1431.722412	120.0
1432.475586	268.0
1432.889893	64.0
1433.070679	144.0
1433.153564	88.0
1433.643433	52.0
1433.779053	212.0
1435.030396	92.0
1435.166016	132.0
1436.372681	112.0
1436.636719	168.0
1437.073853	156.0
1437.232788	148.0
1438.88562	124.0
1439.989746	168.0
1441.217896	176.0
1441.770996	32.0
1442.50415	144.0
1442.685669	76.0
1443.003174	144.0
1443.766846	80.0
1444.984619	48.0
1445.264648	152.0
1445.529419	160.0
1446.316528	76.0
1446.619263	40.0
1446.717773	168.0
1446.854004	100.0
1447.807983	172.0
1447.904785	120.0
1449.815552	220.0
1450.050537	48.0
1450.323364	60.0
1450.406738	112.0
1451.475708	52.0
1451.695557	84.0
1452.01416	120.0
1452.643677	36.0
1452.727051	116.0
1452.924316	76.0
1453.212646	160.0
1453.387207	48.0
1453.857666	172.0
1454.176392	48.0
1455.193604	188.0
1455.512451	108.0
1455.96814	148.0
1456.165527	128.0
1456.514893	36.0
1456.644043	152.0
1456.803589	108.0
1457.327759	112.0
1457.608887	60.0
1459.19751	268.0
1459.585205	184.0
1459.668823	216.0
1460.741211	240.0
1461.44873	36.0
1461.517212	60.0
1461.776001	156.0
1461.981445	128.0
1462.125977	180.0
1462.202148	124.0
1462.795776	152.0
1463.145996	80.0
1463.37439	228.0
1463.846436	72.0
1464.44812	192.0
1464.501465	100.0
1464.679077	84.0
1465.057495	40.0
1465.666992	176.0
1466.109009	180.0
1466.80249	52.0
1466.962646	192.0
1468.018677	148.0
1470.448364	124.0
1470.799438	108.0
1471.662109	176.0
1471.837769	184.0
1472.173706	48.0
1473.006226	148.0
1473.067261	188.0
1473.342285	240.0
1473.609741	80.0
1474.259155	112.0
1474.381714	116.0
1476.047974	136.0
1476.12439	144.0
1476.200928	140.0
1476.39502	244.0
1476.713257	128.0
1477.317505	112.0
1478.12085	104.0
1478.327515	60.0
1478.603027	208.0
1478.771362	32.0
1478.829346	216.0
1478.924438	120.0
1480.578125	92.0
1480.96875	144.0
1481.052979	152.0
1481.819092	120.0
1482.240479	228.0
1483.298096	48.0
1484.47876	240.0
1484.616821	152.0
1484.800903	148.0
1485.46814	164.0
1486.565308	100.0
1487.424927	124.0
1487.693604	120.0
1488.046753	180.0
1488.146484	212.0
1488.96814	124.0
1489.421265	104.0
1489.720947	136.0
1489.790039	104.0
1490.235596	184.0
1490.430908	256.0
1491.03479	232.0
1491.926392	132.0
1492.294434	148.0
1492.356934	88.0
1493.125854	136.0
1494.231689	144.0
1495.210815	176.0
1495.387817	84.0
1496.573364	112.0
1496.77356	104.0
1497.343384	228.0
1497.451172	176.0
1497.574463	192.0
1497.782715	184.0
1498.406372	136.0
1498.891724	168.0
1499.192261	140.0
1499.361816	92.0
1499.477417	192.0
1499.947632	132.0
1500.078613	144.0
1500.425537	132.0
1501.065552	140.0
1501.628418	176.0
1501.739258	200.0
1501.77417	72.0
1501.787476	192.0
1501.921509	120.0
1502.081543	168.0
1502.577271	148.0
1502.770142	48.0
1502.963013	180.0
1503.379761	112.0
1503.4646	80.0
1504.251831	248.0
1504.313599	140.0
1504.421631	184.0
1504.506592	112.0
END IONS

BEGIN IONS
PEPMASS=576.018
CHARGE=1
MSLEVEL=2
SOURCE_INSTRUMENT=LC-ESI-qTof
FILENAME=p4-D04_GD4_01_18364.mzXML
SEQ=*..*
IONMODE=Positive
ORGANISM=GNPS-NIH-SMALLMOLECULEPHARMACOLOGICALLYACTIVE
NAME=MLS002153829-01!Cefotetan69712-56-7 M+H
PI=Dorrestein
DATACOLLECTOR=VP/LMS
SMILES=CO[C@]1(NC(=O)C2SC(=C(C(=O)N)C(=O)O)S2)[C@H]3SCC(=C(N3C1=O)C(=O)O)CSc4nnnn4C
INCHI=N/A
INCHIAUX=N/A
PUBMED=N/A
SUBMITUSER=vphelan
LIBRARYQUALITY=1
SPECTRUMID=CCMSLIB00000085609
USI=mzspec:GNPS:GNPS-NIH-SMALLMOLECULEPHARMACOLOGICALLYACTIVE:accession:CCMSLIB00000085609
SCANS=1328
44.894375	168.0
45.284626	224.0
45.878555	96.0
46.045876	168.0
46.484497	236.0
46.507568	176.0
46.631168	184.0
47.620365	208.0
47.657455	208.0
48.375999	204.0
48.428616	212.0
48.964729	160.0
49.826401	172.0
50.183887	144.0
50.968037	232.0
51.016361	176.0
51.155773	176.0
51.2911	188.0
51.313908	160.0
52.111115	196.0
52.30238	180.0
53.431133	160.0
54.133209	172.0
54.605762	128.0
55.279968	192.0
55.678749	152.0
56.328152	80.0
56.50156	100.0
56.927242	116.0
57.315338	164.0
57.614075	188.0
57.657894	124.0
57.815174	224.0
58.210835	212.0
58.295902	148.0
58.584991	128.0
59.343033	152.0
59.484173	132.0
59.843918	100.0
59.982567	132.0
60.146072	168.0
60.616234	188.0
60.710793	144.0
61.103779	180.0
61.228306	160.0
61.365433	216.0
61.471497	168.0
63.27914	136.0
63.551754	140.0
63.832905	136.0
63.937897	116.0
63.977692	64.0
64.361931	160.0
64.481743	188.0
64.545685	168.0
65.112984	64.0
65.815094	184.0
66.646019	160.0
66.982788	252.0
67.294273	128.0
68.4272	144.0
68.56189	172.0
69.411972	92.0
70.738174	168.0
71.357216	188.0
72.048203	184.0
72.330605	192.0
73.036484	144.0
73.882591	160.0
73.916809	220.0
74.280022	160.0
74.506622	204.0
74.554733	176.0
74.654442	132.0
74.936737	176.0
75.062561	144.0
75.167786	240.0
75.383636	176.0
75.967117	168.0
76.001816	104.0
76.079918	148.0
76.599869	180.0
76.87709	104.0
77.822327	144.0
77.866226	140.0
79.744347	180.0
79.91684	68.0
80.118019	128.0
80.451508	132.0
80.524719	160.0
82.611626	100.0
83.425865	136.0
84.560425	120.0
84.573242	92.0
84.87735	108.0
84.972733	116.0
85.051636	160.0
85.163643	108.0
85.395226	124.0
85.411781	156.0
85.741356	144.0
86.006462	200.0
86.428299	132.0
86.568985	232.0
86.960159	128.0
87.857056	236.0
88.146454	116.0
89.23735	240.0
89.337021	180.0
90.006096	160.0
90.257408	160.0
90.310356	148.0
90.401169	148.0
90.425774	176.0
90.56588	72.0
90.617027	116.0
91.372658	136.0
91.940491	116.0
92.053116	136.0
92.16964	36.0
92.307266	204.0
92.469879	152.0
92.594322	136.0
92.647957	176.0
93.152481	168.0
93.658379	136.0
93.930161	156.0
93.993828	148.0
94.051727	152.0
95.015419	184.0
95.157097	60.0
95.629471	52.0
96.11277	160.0
96.14399	164.0
96.222069	160.0
96.268929	152.0
96.483856	108.0
96.6325	124.0
97.367577	180.0
97.434364	112.0
97.626991	148.0
98.00296	48.0
98.247437	164.0
98.49221	100.0
98.508011	192.0
98.687859	184.0
98.855988	76.0
99.030212	68.0
99.853874	140.0
99.887688	168.0
100.13649	188.0
100.495308	204.0
100.637024	188.0
101.018738	136.0
101.226891	160.0
101.353088	152.0
101.477356	48.0
101.683968	164.0
102.005341	176.0
102.691956	136.0
102.776688	172.0
102.919991	36.0
102.940186	108.0
102.967041	4848.0
103.010872	64.0
103.031075	76.0
103.249382	184.0
103.338379	172.0
103.388969	96.0
103.451714	124.0
103.544853	40.0
103.631958	68.0
103.798172	96.0
103.911758	148.0
103.971169	300.0
104.015076	272.0
104.051796	108.0
104.204117	200.0
104.749329	92.0
104.796181	72.0
104.963943	952.0
105.057137	96.0
105.422615	64.0
105.862442	192.0
105.967552	164.0
106.005836	180.0
106.030426	124.0
106.052971	220.0
107.492584	160.0
107.690773	108.0
107.772942	180.0
107.796135	132.0
108.054588	128.0
108.692757	112.0
108.736336	120.0
109.07489	156.0
109.332794	132.0
109.505592	92.0
110.005478	1076.0
110.060509	456.0
110.283836	204.0
110.603859	68.0
111.014671	176.0
111.474228	136.0
111.556198	200.0
111.922272	228.0
112.021408	820.0
112.039116	552.0
112.076035	72.0
112.09079	216.0
112.183525	152.0
112.21093	144.0
112.632988	216.0
112.996597	140.0
113.025978	284.0
113.233673	188.0
113.636436	180.0
113.999527	176.0
114.037689	464.0
114.060272	172.0
114.714668	100.0
115.053856	248.0
115.284538	68.0
115.374313	96.0
115.453423	192.0
115.526146	180.0
115.913673	136.0
115.975822	248.0
116.020836	116.0
116.316872	144.0
116.338341	180.0
117.394775	132.0
118.04261	124.0
118.358536	172.0
118.552902	176.0
118.859245	160.0
119.05764	192.0
119.241447	168.0
120.112381	172.0
121.562927	164.0
122.021996	196.0
122.046776	280.0
122.517166	108.0
122.627342	208.0
122.722137	80.0
122.867699	136.0
123.053116	204.0
123.256287	104.0
123.616722	80.0
123.762817	88.0
123.886841	180.0
124.068077	192.0
124.265945	208.0
124.950241	236.0
125.041473	100.0
125.066345	160.0
125.083763	160.0
125.179497	256.0
125.37999	140.0
126.038414	156.0
126.107567	168.0
126.12545	164.0
126.143333	188.0
126.738647	228.0
127.06823	104.0
127.683708	156.0
128.016785	148.0
128.050644	196.0
128.219528	184.0
128.246582	136.0
128.487854	184.0
128.63681	88.0
128.964905	320.0
128.986938	364.0
129.002762	32.0
129.023102	56.0
129.045715	200.0
129.075104	44.0
129.928986	148.0
129.999863	304.0
130.564987	216.0
130.599106	76.0
130.957733	160.0
131.001999	196.0
131.702286	148.0
131.919373	60.0
131.992538	156.0
132.015396	120.0
132.418182	176.0
132.814697	148.0
132.995972	204.0
133.508316	132.0
133.554306	152.0
133.825867	204.0
134.005508	160.0
134.046982	124.0
134.305191	96.0
134.559036	168.0
134.822357	140.0
135.055878	164.0
135.910721	160.0
136.019791	168.0
136.054611	204.0
136.691467	156.0
136.714737	128.0
136.997314	304.0
137.01564	432.0
137.04538	196.0
137.06926	644.0
137.098984	80.0
137.171234	116.0
137.528122	212.0
137.782654	104.0
138.0186	176.0
138.046677	108.0
138.077774	1220.0
138.306458	28.0
138.353271	36.0
138.624969	40.0
139.007797	692.0
139.034653	656.0
139.083374	340.0
139.244308	112.0
139.994522	136.0
140.012726	312.0
140.03154	144.0
140.697159	52.0
140.982971	132.0
141.024689	196.0
141.044006	232.0
141.212296	52.0
141.995163	156.0
142.026596	120.0
142.96315	172.0
143.032166	92.0
143.878433	188.0
143.95723	112.0
144.011414	372.0
144.253494	136.0
145.007462	472.0
145.948502	96.0
145.973846	2396.0
146.0495	156.0
146.100021	56.0
146.143326	80.0
146.179413	116.0
146.958023	312.0
146.977798	308.0
147.176819	92.0
147.965225	648.0
148.050293	128.0
148.85054	132.0
148.950119	196.0
149.015701	188.0
149.032715	176.0
149.570175	112.0
149.752777	64.0
149.928192	184.0
150.003754	140.0
150.074463	164.0
150.223221	60.0
150.660202	232.0
151.029312	180.0
151.119827	172.0
152.021606	180.0
152.294067	148.0
152.965332	112.0
152.982574	164.0
153.014282	240.0
153.066284	272.0
153.430923	196.0
153.58136	112.0
153.976257	156.0
154.019897	876.0
154.070114	144.0
154.146713	152.0
154.20108	144.0
154.529968	160.0
155.022705	260.0
155.040054	176.0
155.762054	44.0
155.983215	132.0
156.010727	380.0
156.029816	192.0
156.941605	404.0
156.979095	140.0
157.019516	388.0
157.273483	64.0
157.353363	88.0
157.948135	168.0
158.028931	348.0
158.468842	108.0
158.956894	180.0
159.017563	192.0
159.41481	164.0
159.583221	176.0
159.95369	184.0
160.974121	128.0
161.014526	152.0
161.742691	80.0
162.307648	164.0
162.929474	160.0
162.965042	164.0
163.153122	148.0
163.262451	116.0
164.051758	100.0
165.008743	408.0
165.051788	168.0
165.385162	160.0
165.485001	124.0
166.000534	672.0
166.041061	152.0
166.947617	156.0
167.004196	300.0
167.030914	332.0
167.949478	216.0
168.605255	56.0
168.700897	148.0
169.007446	172.0
169.042252	1808.0
169.086304	48.0
169.241623	44.0
169.531738	192.0
170.030777	172.0
170.062164	160.0
170.504929	176.0
170.975647	192.0
171.057571	3512.0
171.194321	36.0
171.249008	68.0
171.553879	60.0
171.572128	124.0
171.953171	496.0
171.994446	192.0
172.055573	352.0
172.117432	44.0
172.899048	56.0
172.934814	204.0
172.942078	136.0
173.054321	288.0
173.0849	116.0
173.150375	44.0
173.213242	120.0
173.391403	148.0
173.967926	188.0
174.646408	256.0
174.833206	148.0
174.856888	108.0
174.950317	148.0
174.972702	180.0
175.006927	188.0
175.035904	144.0
175.378372	168.0
175.922958	196.0
175.964859	200.0
176.037933	188.0
176.458069	204.0
176.772827	36.0
176.951492	156.0
177.009552	208.0
177.071976	144.0
178.021393	120.0
178.074509	176.0
178.14357	96.0
178.231247	120.0
178.398682	172.0
178.991989	156.0
179.021271	180.0
179.045242	144.0
179.826401	180.0
180.001846	480.0
180.032288	140.0
180.986954	348.0
181.041718	252.0
181.120514	188.0
181.238388	184.0
182.023239	320.0
182.067276	124.0
182.462265	116.0
183.023224	536.0
183.0569	204.0
183.159241	40.0
183.396362	132.0
183.995209	168.0
184.004272	232.0
185.380081	132.0
185.76236	36.0
185.965866	132.0
186.022079	180.0
186.987793	152.0
187.053116	168.0
187.990692	168.0
188.042542	168.0
189.015411	180.0
189.417862	136.0
189.910065	268.0
189.962524	7116.0
190.110077	76.0
190.273468	56.0
190.339371	68.0
190.487671	112.0
190.556351	72.0
190.674515	72.0
190.930191	152.0
190.96463	696.0
190.999039	184.0
191.048462	164.0
191.331924	84.0
191.957901	1420.0
192.026321	148.0
192.487183	56.0
192.663956	108.0
192.962311	188.0
193.00943	300.0
193.039841	300.0
193.501923	88.0
193.992279	160.0
194.025543	140.0
194.058823	132.0
194.744247	120.0
195.023376	216.0
195.208359	112.0
195.700867	48.0
195.994461	288.0
196.972565	188.0
197.037201	2620.0
197.190506	76.0
197.29393	56.0
197.626755	108.0
198.02359	232.0
198.029114	276.0
198.122299	80.0
198.974854	128.0
199.025162	252.0
199.207947	176.0
199.94899	640.0
200.043457	136.0
200.457153	112.0
200.482513	172.0
200.899811	244.0
200.928787	736.0
201.018311	176.0
201.94043	120.0
201.948547	160.0
202.032639	76.0
202.191086	72.0
202.930634	164.0
202.998474	104.0
203.338898	64.0
203.975128	108.0
205.986908	132.0
207.022598	172.0
208.041901	164.0
208.971283	76.0
209.037033	536.0
209.141068	188.0
209.90451	52.0
209.991028	144.0
210.041611	164.0
210.138138	68.0
210.758911	104.0
210.961227	144.0
210.998535	348.0
211.017441	72.0
211.042618	184.0
212.006088	216.0
213.002686	188.0
213.036118	240.0
213.963821	188.0
214.036606	160.0
214.08902	152.0
214.636856	80.0
214.966476	52.0
215.04805	5408.0
215.103882	100.0
215.15036	116.0
215.962708	172.0
216.050735	680.0
216.846924	88.0
216.978027	144.0
217.040543	408.0
217.586136	72.0
217.768188	136.0
217.806381	104.0
217.91214	196.0
217.95517	524.0
218.053192	184.0
218.932831	156.0
218.958878	200.0
219.360046	44.0
219.483871	200.0
219.942337	196.0
220.019302	252.0
220.026398	64.0
220.99025	168.0
221.010971	116.0
221.061569	160.0
222.038879	148.0
222.270264	128.0
222.338516	40.0
223.015244	304.0
223.434967	88.0
224.009094	352.0
224.924973	200.0
225.014862	396.0
225.719666	64.0
225.969299	252.0
226.015549	236.0
226.051697	260.0
226.138489	72.0
226.213318	104.0
226.617615	56.0
227.010361	156.0
227.052277	140.0
227.844711	40.0
227.943863	184.0
227.988937	164.0
229.141388	136.0
229.177536	76.0
229.955566	168.0
230.901215	124.0
230.955658	164.0
231.973068	72.0
232.249008	164.0
232.922852	108.0
233.993301	132.0
234.660522	40.0
234.918564	156.0
234.938065	224.0
235.011841	176.0
236.028366	164.0
236.984528	208.0
237.007904	152.0
237.037338	296.0
237.921875	168.0
237.987045	176.0
238.033691	200.0
238.932968	136.0
239.019119	192.0
239.95546	184.0
240.011032	172.0
240.933792	152.0
240.961121	132.0
241.014816	396.0
241.147003	84.0
241.5737	72.0
241.955963	272.0
242.025879	156.0
242.955353	144.0
243.03064	60.0
243.597946	80.0
243.896255	100.0
243.945984	132.0
243.986404	208.0
244.319168	132.0
246.57045	60.0
246.976913	196.0
246.99881	140.0
247.048859	132.0
247.734421	40.0
249.498108	44.0
250.098923	164.0
250.997864	184.0
251.020584	132.0
252.003662	148.0
252.974579	160.0
253.029541	288.0
253.981613	220.0
254.035995	280.0
254.95694	184.0
254.993439	192.0
255.039581	412.0
255.777527	44.0
255.978104	108.0
256.041779	92.0
256.986511	300.0
257.949799	144.0
258.791199	92.0
258.976929	124.0
260.156952	140.0
260.770477	96.0
261.935242	140.0
261.980347	136.0
263.006317	208.0
263.209137	148.0
264.453796	220.0
264.993927	184.0
265.471069	76.0
265.980438	156.0
266.003143	204.0
266.938843	160.0
267.026672	140.0
267.947876	148.0
267.993469	184.0
268.648773	132.0
268.967316	156.0
269.003357	1348.0
269.429016	128.0
269.481293	152.0
270.406708	56.0
270.996704	144.0
271.838837	72.0
272.012787	156.0
272.347717	36.0
275.457184	32.0
275.993317	148.0
276.952301	144.0
277.88382	96.0
277.960114	172.0
277.996613	32.0
278.554413	124.0
278.966461	164.0
278.998962	164.0
279.724915	72.0
281.014618	104.0
281.655579	52.0
283.006653	324.0
283.981201	152.0
284.962036	168.0
285.943939	144.0
286.516388	68.0
286.924164	204.0
287.018372	488.0
288.014099	152.0
288.531158	36.0
288.960693	168.0
289.018646	356.0
289.505646	92.0
291.959229	152.0
292.435547	208.0
292.949707	148.0
292.993988	152.0
293.082581	68.0
294.010193	176.0
294.945923	44.0
294.983521	128.0
295.944885	156.0
297.968445	116.0
299.892029	40.0
302.704193	48.0
302.925842	180.0
302.975189	184.0
303.920837	164.0
303.955536	252.0
305.964478	40.0
306.10376	104.0
306.984039	164.0
307.973053	156.0
308.119781	80.0
309.004303	176.0
309.963684	132.0
315.896149	184.0
319.938171	36.0
320.946442	112.0
321.956299	136.0
325.943359	172.0
326.011627	140.0
326.496948	136.0
327.001526	328.0
327.360626	88.0
327.998322	136.0
331.826691	64.0
334.966553	44.0
335.907013	120.0
338.366455	56.0
338.951965	172.0
344.021088	132.0
350.965973	144.0
351.988373	120.0
352.972412	408.0
353.087036	36.0
353.973175	196.0
354.374725	104.0
357.950562	160.0
364.688446	88.0
364.937805	160.0
369.998413	180.0
370.975311	156.0
371.995697	388.0
372.057129	176.0
374.044556	96.0
379.840759	44.0
380.372375	116.0
384.947052	148.0
385.028137	120.0
388.010956	140.0
388.969391	160.0
390.25647	80.0
390.488495	76.0
395.962585	120.0
396.959625	232.0
397.889709	200.0
397.977081	192.0
398.954407	92.0
399.988678	160.0
413.977112	168.0
415.010376	196.0
416.885712	136.0
423.970245	132.0
428.947601	96.0
432.992645	108.0
441.198212	84.0
442.478394	144.0
442.851105	188.0
443.970093	156.0
462.905151	88.0
465.989166	116.0
472.378204	228.0
474.387512	68.0
478.723663	136.0
504.604797	120.0
506.797913	124.0
540.246826	80.0
593.747437	120.0
610.985596	144.0
639.168213	40.0
887.539612	84.0
897.391846	116.0
902.371277	140.0
908.054077	172.0
910.22644	220.0
916.210999	188.0
959.20636	168.0
960.371765	204.0
964.273865	144.0
965.918579	152.0
977.570251	76.0
1008.123352	52.0
1011.886902	204.0
1028.502563	52.0
1068.706665	192.0
1069.168579	144.0
1080.228027	216.0
1084.621826	144.0
1084.667725	152.0
1099.624878	196.0
1123.966797	92.0
1140.078491	148.0
1141.486572	176.0
1151.072266	156.0
1162.132446	76.0
1163.23877	196.0
1165.717773	168.0
1175.312134	84.0
1190.831543	172.0
1191.147461	160.0
1199.080811	172.0
1211.705444	124.0
1216.719727	136.0
1224.194336	56.0
1243.11792	172.0
1249.005371	184.0
1255.27356	104.0
1256.014038	212.0
1256.853638	136.0
1261.854248	208.0
1276.823364	176.0
1285.414673	176.0
1288.920776	204.0
1289.571045	164.0
1289.65686	136.0
1297.172607	140.0
1298.420288	144.0
1298.786011	136.0
1299.654053	164.0
1300.213867	92.0
1303.416626	148.0
1306.86792	228.0
1314.585327	188.0
1321.377319	168.0
1321.883789	104.0
1322.918823	120.0
1331.235107	148.0
1333.094849	172.0
1334.039673	52.0
1336.687134	172.0
1346.981567	212.0
1354.779663	180.0
1366.923584	160.0
1368.837402	128.0
1376.092896	176.0
1379.476562	168.0
1387.412354	212.0
1403.605957	132.0
1413.578247	144.0
1418.581299	192.0
1419.908447	112.0
1421.386353	120.0
1421.716553	216.0
1429.426636	152.0
1430.555664	176.0
1433.915039	140.0
1435.596191	188.0
1438.734985	156.0
1443.706787	188.0
1452.098145	156.0
1456.097778	176.0
1456.880127	180.0
1463.512085	168.0
1466.52124	120.0
1473.816895	120.0
1476.484741	28.0
1480.540771	124.0
1487.364502	132.0
1498.038818	148.0
1498.615601	64.0
1500.04126	140.0
1501.282593	128.0
1502.485962	172.0
END IONS

BEGIN IONS
PEPMASS=212.094
CHARGE=1
MSLEVEL=2
SOURCE_INSTRUMENT=LC-ESI-qTof
FILENAME=p4-D05_GD5_01_18365.mzXML
SEQ=*..*
IONMODE=Positive
ORGANISM=GNPS-NIH-SMALLMOLECULEPHARMACOLOGICALLYACTIVE
NAME="MLS000028644-01!3-(3,4-DIHYDROXYPHENYL)-2-METHYL-L-ALANINE" M+H
PI=Dorrestein
DATACOLLECTOR=VP/LMS
SMILES=C[C@](N)(Cc1ccc(O)c(O)c1)C(=O)O
INCHI=N/A
INCHIAUX=N/A
PUBMED=N/A
SUBMITUSER=vphelan
LIBRARYQUALITY=3
SPECTRUMID=CCMSLIB00000085614
USI=mzspec:GNPS:GNPS-NIH-SMALLMOLECULEPHARMACOLOGICALLYACTIVE:accession:CCMSLIB00000085614
SCANS=133
45.072041	84.0
47.206612	152.0
47.485992	212.0
48.215534	184.0
49.048466	156.0
49.742279	176.0
51.282688	196.0
51.55814	212.0
52.306843	180.0
55.133717	208.0
57.342625	36.0
58.461823	164.0
59.364666	164.0
61.925041	160.0
63.550346	156.0
64.183395	184.0
64.295067	200.0
68.633347	188.0
69.130554	200.0
89.574463	176.0
89.962921	220.0
90.943451	180.0
93.031876	132.0
102.043823	148.0
102.597466	128.0
103.05407	996.0
103.371048	72.0
103.780212	100.0
104.056824	120.0
104.088631	68.0
105.055389	136.0
106.038918	184.0
107.049683	180.0
107.910118	56.0
109.100136	160.0
110.036713	204.0
110.937233	108.0
111.043594	468.0
111.1092	56.0
112.049156	168.0
112.52771	156.0
118.406502	56.0
120.702385	136.0
120.95179	172.0
121.060692	336.0
122.068504	120.0
122.801865	76.0
122.965134	108.0
123.043732	1364.0
123.964737	160.0
124.046738	176.0
130.908981	156.0
131.051361	920.0
131.300964	204.0
132.053177	180.0
132.146149	60.0
133.046844	204.0
134.977615	176.0
139.038803	1068.0
139.232956	64.0
139.519623	72.0
140.038406	128.0
140.596054	52.0
141.014084	152.0
148.083038	228.0
148.957809	116.0
149.059921	376.0
150.060135	176.0
151.062134	548.0
152.554947	64.0
156.972046	196.0
165.918442	156.0
166.085846	1052.0
166.118469	28.0
166.500916	96.0
166.667877	92.0
167.086044	196.0
168.396469	72.0
176.823593	148.0
177.053925	152.0
178.920593	212.0
195.069885	172.0
223.986313	84.0
278.920685	232.0
279.852203	80.0
317.512177	52.0
416.643097	64.0
847.297302	136.0
871.122986	80.0
951.408752	200.0
962.960571	196.0
972.526489	60.0
985.523315	136.0
992.264099	144.0
1019.978088	96.0
1086.913696	224.0
1118.451782	172.0
1130.230835	56.0
1154.150024	124.0
1181.573853	148.0
1217.618896	152.0
1301.717773	200.0
1348.782837	148.0
1373.454834	112.0
1401.917725	128.0
1414.338013	156.0
1425.497803	184.0
1434.680298	184.0
1436.988159	216.0
1497.518188	72.0
END IONS

BEGIN IONS
PEPMASS=468.331
CHARGE=1
MSLEVEL=2
SOURCE_INSTRUMENT=LC-ESI-qTof
FILENAME=p4-D07_GD7_01_18367.mzXML
SEQ=*..*
IONMODE=Positive
ORGANISM=GNPS-NIH-SMALLMOLECULEPHARMACOLOGICALLYACTIVE
NAME=MLS002154188-01!Oxethazaine126-27-2 M+H
PI=Dorrestein
DATACOLLECTOR=VP/LMS
SMILES=CN(C(=O)CN(CCO)CC(=O)N(C)C(C)(C)Cc1ccccc1)C(C)(C)Cc2ccccc2
INCHI=N/A
INCHIAUX=N/A
PUBMED=N/A
SUBMITUSER=vphelan
LIBRARYQUALITY=1
SPECTRUMID=CCMSLIB00000085630
USI=mzspec:GNPS:GNPS-NIH-SMALLMOLECULEPHARMACOLOGICALLYACTIVE:accession:CCMSLIB00000085630
SCANS=2057
44.890472	100.0
44.893124	192.0
44.942871	108.0
44.970715	180.0
44.986244	168.0
45.000019	196.0
45.004169	160.0
45.023891	196.0
45.044559	332.0
45.061703	196.0
45.075062	88.0
45.085754	68.0
45.111149	136.0
45.12109	124.0
45.129868	136.0
45.146454	176.0
45.173393	384.0
45.186813	148.0
45.211754	148.0
45.226944	120.0
45.247898	200.0
45.2659	320.0
45.304638	116.0
45.327969	160.0
45.355679	172.0
45.382591	80.0
45.404049	144.0
45.418053	180.0
45.440601	128.0
45.449993	32.0
45.470337	176.0
45.4902	156.0
45.500954	132.0
45.533222	256.0
45.552029	184.0
45.562775	120.0
45.572178	260.0
45.597557	208.0
45.60207	148.0
45.634556	332.0
45.658211	176.0
45.668972	112.0
45.679482	228.0
45.697323	160.0
45.711437	212.0
45.741631	132.0
45.757786	84.0
45.791451	136.0
45.804619	160.0
45.814442	180.0
45.830009	212.0
45.852371	184.0
45.864365	152.0
45.878536	236.0
45.900608	500.0
45.910049	120.0
45.920837	144.0
45.950169	156.0
45.961647	160.0
45.980202	188.0
45.993698	136.0
46.005848	32.0
46.02475	144.0
46.040222	184.0
46.070923	192.0
46.106232	188.0
46.124725	172.0
46.137722	240.0
46.155819	148.0
46.177322	120.0
46.205864	176.0
46.217571	92.0
46.229122	164.0
46.245106	156.0
46.259068	140.0
46.280304	180.0
46.297909	84.0
46.32069	224.0
46.350739	148.0
46.375134	168.0
46.385056	188.0
46.402355	184.0
46.413094	192.0
46.428341	164.0
46.446232	312.0
46.478203	152.0
46.50127	144.0
46.510506	164.0
46.536919	324.0
46.559273	72.0
46.571819	96.0
46.589535	168.0
46.611385	96.0
46.636379	244.0
46.656223	112.0
46.672092	204.0
46.683762	148.0
46.701099	184.0
46.726589	192.0
46.744534	100.0
46.76545	168.0
46.779514	228.0
46.804459	168.0
46.823284	188.0
46.839836	156.0
46.856155	140.0
46.872971	176.0
46.886162	216.0
46.895702	124.0
46.924683	212.0
46.930141	168.0
46.948387	224.0
46.962059	120.0
46.967239	224.0
46.996578	144.0
47.005436	156.0
47.00779	212.0
47.014137	124.0
47.021431	168.0
47.040291	104.0
47.052578	120.0
47.063499	144.0
47.106617	140.0
47.118134	164.0
47.137062	164.0
47.150928	204.0
47.160618	132.0
47.202877	168.0
47.235798	172.0
47.254852	148.0
47.265366	164.0
47.298912	184.0
47.330132	120.0
47.349304	104.0
47.364372	204.0
47.37944	52.0
47.395882	136.0
47.413574	136.0
47.42466	112.0
47.435627	140.0
47.458931	128.0
47.469238	124.0
47.483616	136.0
47.505562	124.0
47.52496	144.0
47.553589	40.0
47.564568	80.0
47.577892	136.0
47.603863	116.0
47.629883	120.0
47.655094	144.0
47.66008	304.0
47.694237	100.0
47.716316	208.0
47.726681	228.0
47.736309	244.0
47.751907	152.0
47.764198	316.0
47.793354	144.0
47.817791	444.0
47.839741	172.0
47.849331	160.0
47.867035	236.0
47.885612	196.0
47.897079	192.0
47.912888	360.0
47.928497	200.0
47.948315	144.0
47.958736	144.0
47.968475	128.0
47.993805	80.0
48.028431	148.0
48.040699	136.0
48.053112	344.0
48.070271	192.0
48.103401	184.0
48.119701	196.0
48.142979	192.0
48.16021	76.0
48.173256	176.0
48.185337	200.0
48.203159	132.0
48.223698	144.0
48.233334	212.0
48.250298	88.0
48.284222	184.0
48.308205	180.0
48.323914	220.0
48.33482	100.0
48.360817	156.0
48.384422	156.0
48.397274	152.0
48.424969	136.0
48.443962	180.0
48.451729	188.0
48.46653	104.0
48.479	36.0
48.495583	208.0
48.533062	260.0
48.542454	208.0
48.585957	360.0
48.604633	204.0
48.6241	300.0
48.635723	96.0
48.648216	164.0
48.663357	320.0
48.676807	128.0
48.679241	196.0
48.69265	144.0
48.733459	180.0
48.762115	76.0
48.7771	152.0
48.781273	92.0
48.786076	152.0
48.817329	184.0
48.845543	108.0
48.863628	184.0
48.873367	40.0
48.901199	172.0
48.931824	60.0
48.968803	156.0
48.993103	204.0
49.007629	84.0
49.016949	104.0
49.021355	144.0
49.041367	220.0
49.054188	120.0
49.073189	112.0
49.088615	280.0
49.104202	336.0
49.120373	148.0
49.131119	208.0
49.148067	136.0
49.161816	112.0
49.185829	156.0
49.203354	100.0
49.207371	176.0
49.21241	108.0
49.227215	184.0
49.245583	124.0
49.292141	244.0
49.30888	192.0
49.321384	160.0
49.346939	196.0
49.357384	224.0
49.373554	184.0
49.392227	140.0
49.397198	128.0
49.417526	84.0
49.442627	172.0
49.456165	192.0
49.47887	188.0
49.488277	156.0
49.498711	184.0
49.523922	204.0
49.535126	64.0
49.547089	148.0
49.556313	164.0
49.57716	172.0
49.593098	388.0
49.623417	176.0
49.641644	92.0
49.665096	172.0
49.680916	164.0
49.697327	132.0
49.724415	100.0
49.735645	128.0
49.75745	120.0
49.773552	220.0
49.78936	88.0
49.819538	140.0
49.838165	116.0
49.863457	132.0
49.882706	196.0
49.885811	152.0
49.890644	188.0
49.915501	132.0
49.939381	176.0
49.95126	180.0
49.970329	52.0
49.983524	244.0
49.993484	288.0
50.011433	212.0
50.022839	216.0
50.033798	168.0
50.059784	276.0
50.077137	188.0
50.105541	216.0
50.125324	104.0
50.13623	196.0
50.13966	160.0
50.144566	104.0
50.16943	296.0
50.192394	176.0
50.206123	152.0
50.217678	116.0
50.230953	152.0
50.252037	140.0
50.294453	120.0
50.323761	160.0
50.353241	224.0
50.367062	104.0
50.371262	172.0
50.389256	152.0
50.401783	156.0
50.411674	196.0
50.43354	184.0
50.443089	336.0
50.479004	284.0
50.491428	280.0
50.514889	176.0
50.540928	168.0
50.559418	192.0
50.585476	268.0
50.601795	168.0
50.618206	160.0
50.646378	148.0
50.663532	92.0
50.673447	156.0
50.693287	116.0
50.707458	132.0
50.720215	128.0
50.734604	324.0
50.75415	308.0
50.767895	228.0
50.794277	172.0
50.806244	120.0
50.816647	196.0
50.830345	208.0
50.848232	240.0
50.909454	84.0
50.925674	224.0
50.957165	176.0
50.961945	168.0
50.968121	200.0
50.989151	308.0
50.994549	144.0
51.008293	152.0
51.028271	112.0
51.047081	144.0
51.076622	192.0
51.091053	188.0
51.103401	160.0
51.107014	132.0
51.116096	236.0
51.137451	224.0
51.142551	180.0
51.146996	184.0
51.170162	148.0
51.175926	108.0
51.200062	132.0
51.21563	176.0
51.221275	116.0
51.246628	192.0
51.273983	176.0
51.287361	100.0
51.30674	168.0
51.319561	204.0
51.337261	68.0
51.360867	148.0
51.396992	220.0
51.400295	192.0
51.431362	188.0
51.453991	168.0
51.458717	136.0
51.461777	184.0
51.479294	348.0
51.506371	164.0
51.534752	164.0
51.574261	92.0
51.593681	316.0
51.619461	188.0
51.645321	364.0
51.677135	196.0
51.686764	196.0
51.712784	284.0
51.744469	216.0
51.746998	112.0
51.770267	128.0
51.78532	180.0
51.79488	196.0
51.83086	496.0
51.853867	128.0
51.873798	172.0
51.89389	176.0
51.911911	228.0
51.94418	200.0
51.964554	148.0
51.983864	188.0
52.02013	156.0
52.044239	204.0
52.066635	160.0
52.072098	148.0
52.084301	184.0
52.133053	144.0
52.143963	220.0
52.163307	128.0
52.173325	348.0
52.183918	160.0
52.203007	124.0
52.228104	180.0
52.253754	212.0
52.271431	104.0
52.328838	196.0
52.362869	76.0
52.367271	116.0
52.372841	144.0
52.399956	156.0
52.427788	104.0
52.451294	36.0
52.468952	144.0
52.495258	180.0
52.508835	196.0
52.533485	140.0
52.543587	128.0
52.575329	68.0
52.603409	152.0
52.62331	184.0
52.647514	120.0
52.666687	160.0
52.684425	180.0
52.700832	180.0
52.719746	176.0
52.744366	232.0
52.760216	136.0
52.777813	188.0
52.789135	136.0
52.807934	116.0
52.827164	164.0
52.843117	276.0
52.867893	208.0
52.884621	168.0
52.903519	292.0
52.933136	188.0
52.948326	236.0
52.968346	136.0
52.993229	76.0
53.003952	96.0
53.028008	260.0
53.038155	252.0
53.086685	220.0
53.112362	120.0
53.128677	264.0
53.156597	144.0
53.19112	96.0
53.204979	152.0
53.23547	296.0
53.254044	208.0
53.295914	144.0
53.326843	76.0
53.34008	160.0
53.362934	144.0
53.375408	140.0
53.395332	156.0
53.409229	180.0
53.429489	116.0
53.459343	144.0
53.469528	164.0
53.482628	104.0
53.50592	172.0
53.545235	144.0
53.555431	120.0
53.566307	192.0
53.588074	128.0
53.605473	128.0
53.616623	124.0
53.631199	120.0
53.645775	148.0
53.663074	148.0
53.690926	120.0
53.707932	128.0
53.733994	108.0
53.750786	108.0
53.767239	204.0
53.792522	308.0
53.841293	156.0
53.87635	256.0
53.911419	320.0
53.926033	220.0
53.94796	80.0
53.969891	200.0
53.985138	140.0
54.006672	288.0
54.029743	168.0
54.048183	288.0
54.081158	136.0
54.098125	172.0
54.126453	124.0
54.146957	164.0
54.159431	132.0
54.194706	280.0
54.204784	296.0
54.249146	200.0
54.265652	216.0
54.287067	172.0
54.307583	276.0
54.322849	80.0
54.333118	152.0
54.349449	184.0
54.373589	540.0
54.383305	140.0
54.389721	136.0
54.409786	116.0
54.428928	172.0
54.444721	124.0
54.462299	112.0
54.499523	212.0
54.517334	304.0
54.534229	184.0
54.556015	144.0
54.586002	236.0
54.604431	164.0
54.620613	68.0
54.636906	164.0
54.639679	204.0
54.662354	104.0
54.674561	172.0
54.701801	140.0
54.722755	180.0
54.765297	140.0
54.782234	208.0
54.809494	60.0
54.821281	84.0
54.846336	156.0
54.87405	80.0
54.897938	176.0
54.923046	172.0
54.934326	292.0
54.969387	120.0
54.98885	180.0
55.002689	200.0
55.020405	288.0
55.032909	188.0
55.045506	264.0
55.075115	164.0
55.087578	148.0
55.10553	132.0
55.110867	176.0
55.132004	188.0
55.152477	168.0
55.168915	152.0
55.187973	192.0
55.203625	84.0
55.215385	264.0
55.224407	156.0
55.257538	204.0
55.291294	92.0
55.305706	300.0
55.316071	288.0
55.332611	160.0
55.363449	124.0
55.373814	128.0
55.389389	280.0
55.420979	328.0
55.438007	548.0
55.463661	144.0
55.47868	244.0
55.485615	152.0
55.489948	200.0
55.50322	112.0
55.530918	200.0
55.556492	204.0
55.570972	140.0
55.592869	148.0
55.603619	156.0
55.627075	244.0
55.650749	208.0
55.679497	148.0
55.692703	148.0
55.717182	200.0
55.729843	380.0
55.740582	232.0
55.756275	208.0
55.768478	152.0
55.798252	212.0
55.807781	220.0
55.81295	184.0
55.817661	216.0
55.856781	228.0
55.881329	208.0
55.899353	132.0
55.911259	264.0
55.923164	156.0
55.933586	156.0
55.950748	396.0
55.97604	140.0
56.015484	188.0
56.031742	188.0
56.063263	236.0
56.077587	212.0
56.096958	112.0
56.101013	132.0
56.108356	200.0
56.13472	48.0
56.151123	208.0
56.170513	120.0
56.180954	224.0
56.19886	128.0
56.224228	128.0
56.235928	176.0
56.271156	100.0
56.284981	172.0
56.29887	144.0
56.323616	492.0
56.364601	180.0
56.377888	148.0
56.397476	164.0
56.415417	224.0
56.446693	148.0
56.458778	132.0
56.483353	148.0
56.495472	120.0
56.507366	344.0
56.524597	140.0
56.541134	160.0
56.559021	124.0
56.5695	172.0
56.588963	160.0
56.60693	32.0
56.63134	160.0
56.642876	184.0
56.686535	352.0
56.71513	216.0
56.747746	180.0
56.767361	200.0
56.79171	68.0
56.814697	200.0
56.83181	160.0
56.838665	108.0
56.849075	196.0
56.881744	184.0
56.894619	192.0
56.926338	240.0
56.942013	220.0
56.965557	144.0
56.998077	132.0
57.008961	204.0
57.036133	308.0
57.048714	152.0
57.061283	152.0
57.075054	132.0
57.101616	276.0
57.104454	116.0
57.110786	128.0
57.127743	152.0
57.151199	176.0
57.172882	200.0
57.212975	188.0
57.234863	136.0
57.265327	188.0
57.294846	244.0
57.309391	196.0
57.326111	148.0
57.349094	132.0
57.371998	208.0
57.387749	268.0
57.420174	168.0
57.439926	172.0
57.452404	216.0
57.493244	212.0
57.506271	192.0
57.524261	152.0
57.554264	192.0
57.579937	164.0
57.598061	164.0
57.623066	196.0
57.657131	188.0
57.681362	156.0
57.694244	148.0
57.733891	216.0
57.738438	188.0
57.787178	136.0
57.803802	192.0
57.84454	176.0
57.862236	116.0
57.879822	320.0
57.91753	444.0
57.936916	180.0
57.97934	196.0
57.992275	108.0
57.995838	208.0
58.000935	328.0
58.020267	132.0
58.055325	100.0
58.079407	60.0
58.105198	140.0
58.120567	156.0
58.164738	204.0
58.194408	200.0
58.212318	160.0
58.235451	180.0
58.256504	108.0
58.274769	128.0
58.299557	180.0
58.316898	388.0
58.344311	180.0
58.3596	172.0
58.371002	40.0
58.409107	272.0
58.434181	328.0
58.45248	176.0
58.470608	168.0
58.474228	192.0
58.480442	252.0
58.507938	212.0
58.521641	84.0
58.535347	144.0
58.551949	164.0
58.581543	264.0
58.615856	136.0
58.634003	168.0
58.648083	396.0
58.665424	196.0
58.683147	164.0
58.710762	220.0
58.732899	180.0
58.754829	284.0
58.7673	156.0
58.811291	212.0
58.843346	240.0
58.873886	128.0
58.887608	244.0
58.90749	164.0
58.927349	136.0
58.951069	132.0
58.962494	84.0
58.991535	128.0
59.01783	344.0
59.070251	84.0
59.105442	252.0
59.122414	324.0
59.146034	276.0
59.15675	128.0
59.179714	212.0
59.195885	164.0
59.199352	92.0
59.204792	148.0
59.232731	316.0
59.256351	108.0
59.265419	196.0
59.267784	192.0
59.275055	228.0
59.291424	160.0
59.295681	148.0
59.306995	140.0
59.325642	160.0
59.339214	116.0
59.360172	228.0
59.38353	116.0
59.404419	168.0
59.429115	212.0
59.435226	120.0
59.439243	176.0
59.457119	348.0
59.481728	124.0
59.511677	124.0
59.528629	116.0
59.543144	104.0
59.562344	312.0
59.586155	84.0
59.598446	180.0
59.610996	192.0
59.631546	156.0
59.653519	192.0
59.659695	160.0
59.676838	224.0
59.692211	32.0
59.706055	216.0
59.72015	168.0
59.761429	300.0
59.78223	172.0
59.794678	132.0
59.830688	164.0
59.852245	164.0
59.871887	180.0
59.889206	152.0
59.906578	172.0
59.926178	248.0
59.935928	180.0
59.971828	240.0
59.987438	408.0
60.000927	80.0
60.028919	220.0
60.04179	160.0
60.054012	164.0
60.05843	152.0
60.085541	172.0
60.117657	180.0
60.137127	248.0
60.147736	192.0
60.167641	164.0
60.189255	164.0
60.22176	224.0
60.224373	292.0
60.243664	208.0
60.283504	200.0
60.301064	188.0
60.327774	204.0
60.339306	172.0
60.343006	116.0
60.348087	180.0
60.365124	268.0
60.40741	140.0
60.425869	212.0
60.469746	208.0
60.483677	152.0
60.496059	68.0
60.506897	148.0
60.534977	268.0
60.586853	140.0
60.621517	160.0
60.641476	164.0
60.66251	268.0
60.688648	128.0
60.705975	184.0
60.720592	152.0
60.735779	412.0
60.752453	168.0
60.769814	176.0
60.793995	200.0
60.8116	156.0
60.82935	232.0
60.844875	148.0
60.859623	176.0
60.888351	68.0
60.901932	172.0
60.925224	92.0
60.942722	52.0
60.962921	152.0
60.994007	120.0
61.009552	100.0
61.028561	88.0
61.045742	188.0
61.08308	184.0
61.099674	160.0
61.130871	120.0
61.142467	248.0
61.165112	136.0
61.179123	120.0
61.190018	52.0
61.208313	160.0
61.239243	184.0
61.272373	392.0
61.292282	128.0
61.329773	248.0
61.355164	108.0
61.369873	156.0
61.403282	160.0
61.440811	148.0
61.477116	136.0
61.50528	208.0
61.527531	132.0
61.553074	156.0
61.584164	388.0
61.599911	144.0
61.622932	196.0
61.636105	164.0
61.648262	156.0
61.659546	108.0
61.689682	200.0
61.708069	192.0
61.724018	148.0
61.735149	144.0
61.753353	184.0
61.767429	140.0
61.781509	212.0
61.803413	172.0
61.814365	112.0
61.830017	212.0
61.859756	92.0
61.87854	116.0
61.900787	96.0
61.913647	124.0
61.927086	200.0
61.941181	100.0
61.97403	116.0
62.003857	112.0
62.014828	196.0
62.0369	196.0
62.072834	176.0
62.089386	220.0
62.105766	192.0
62.132839	124.0
62.154247	164.0
62.168507	188.0
62.19817	108.0
62.208515	216.0
62.214859	208.0
62.232883	160.0
62.276161	168.0
62.300262	124.0
62.322884	160.0
62.34441	296.0
62.35672	144.0
62.394711	448.0
62.424583	392.0
62.45433	140.0
62.460068	128.0
62.481731	132.0
62.496941	192.0
62.528416	128.0
62.54208	240.0
62.553596	108.0
62.557423	168.0
62.564514	180.0
62.592957	220.0
62.637741	212.0
62.662231	204.0
62.689411	152.0
62.706387	160.0
62.723724	308.0
62.736416	156.0
62.785507	408.0
62.818409	172.0
62.831757	132.0
62.844879	136.0
62.850792	112.0
62.854286	112.0
62.873154	296.0
62.901867	184.0
62.927647	136.0
62.946178	52.0
62.96896	188.0
62.982502	260.0
63.008446	180.0
63.031479	108.0
63.045124	88.0
63.048622	160.0
63.097862	68.0
63.127186	44.0
63.144772	64.0
63.159534	148.0
63.192757	124.0
63.211746	192.0
63.22757	184.0
63.238647	136.0
63.256062	164.0
63.267963	360.0
63.297222	120.0
63.322311	76.0
63.343155	132.0
63.357262	152.0
63.376747	188.0
63.390686	72.0
63.401775	116.0
63.418629	188.0
63.428337	464.0
63.444511	104.0
63.485798	256.0
63.507504	152.0
63.534397	168.0
63.555595	240.0
63.580986	196.0
63.602798	172.0
63.620667	112.0
63.646954	216.0
63.66444	148.0
63.699856	180.0
63.720303	152.0
63.763214	336.0
63.768887	184.0
63.798595	180.0
63.81501	148.0
63.832985	140.0
63.858582	160.0
63.873779	128.0
63.894588	244.0
63.923779	68.0
63.944393	176.0
63.963226	236.0
63.981327	116.0
63.998226	128.0
64.010391	104.0
64.039658	172.0
64.072327	196.0
64.1026	128.0
64.119743	184.0
64.123688	196.0
64.130264	200.0
64.16954	136.0
64.204803	176.0
64.222168	184.0
64.233337	80.0
64.247688	152.0
64.269424	148.0
64.315269	300.0
64.340256	168.0
64.357185	220.0
64.368538	192.0
64.380173	112.0
64.402534	128.0
64.425697	192.0
64.449463	148.0
64.466019	152.0
64.469574	112.0
64.474815	148.0
64.501602	176.0
64.517548	156.0
64.536842	400.0
64.555161	204.0
64.565796	212.0
64.582108	112.0
64.602943	184.0
64.61763	160.0
64.648766	140.0
64.664429	140.0
64.678108	184.0
64.69516	64.0
64.709572	348.0
64.722382	52.0
64.734322	160.0
64.75441	300.0
64.773628	168.0
64.791252	116.0
64.815796	100.0
64.831306	140.0
64.843803	360.0
64.86969	152.0
64.873253	164.0
64.927696	160.0
64.969391	168.0
65.022934	164.0
65.068703	128.0
65.096001	100.0
65.109589	136.0
65.157036	172.0
65.197029	180.0
65.218651	376.0
65.238998	204.0
65.260765	96.0
65.284019	96.0
65.300285	140.0
65.316185	120.0
65.330658	208.0
65.341164	152.0
65.344177	80.0
65.386978	92.0
65.40596	176.0
65.428833	72.0
65.446541	140.0
65.468773	164.0
65.49485	100.0
65.527023	140.0
65.556435	144.0
65.585014	172.0
65.606041	184.0
65.617638	188.0
65.63887	156.0
65.659248	192.0
65.672157	188.0
65.689651	132.0
65.709587	348.0
65.742416	104.0
65.795387	76.0
65.859367	152.0
65.865456	132.0
65.868439	388.0
65.893311	388.0
65.927032	212.0
65.93132	128.0
65.938339	180.0
65.956337	332.0
65.970886	112.0
65.995132	340.0
66.005798	188.0
66.019394	92.0
66.048096	128.0
66.06723	168.0
66.085327	180.0
66.126167	100.0
66.139114	116.0
66.153412	160.0
66.163887	252.0
66.193657	424.0
66.236671	128.0
66.259964	288.0
66.265137	284.0
66.286179	228.0
66.314041	220.0
66.326408	140.0
66.347382	156.0
66.363525	208.0
66.3909	264.0
66.416451	176.0
66.448708	184.0
66.462341	152.0
66.48893	188.0
66.514671	124.0
66.552292	160.0
66.56797	116.0
66.583694	140.0
66.597984	144.0
66.612144	172.0
66.623978	228.0
66.645096	192.0
66.664169	184.0
66.697098	204.0
66.713356	56.0
66.758881	140.0
66.786247	280.0
66.814186	192.0
66.839226	124.0
66.867096	224.0
66.899712	180.0
66.922417	152.0
66.944588	176.0
66.959053	352.0
66.972084	80.0
66.991684	136.0
67.0177	144.0
67.042145	156.0
67.055183	140.0
67.068222	172.0
67.104752	192.0
67.125282	180.0
67.139389	92.0
67.158615	144.0
67.189507	212.0
67.199799	244.0
67.229683	96.0
67.243538	180.0
67.273758	192.0
67.301338	116.0
67.32444	188.0
67.345749	132.0
67.361938	128.0
67.377892	192.0
67.3992	168.0
67.408356	136.0
67.429199	144.0
67.451347	204.0
67.463486	172.0
67.47847	304.0
67.497589	96.0
67.524147	220.0
67.546654	232.0
67.573219	216.0
67.589737	112.0
67.608826	212.0
67.639038	160.0
67.653023	144.0
67.684258	148.0
67.720474	156.0
67.746368	108.0
67.757835	148.0
67.775856	160.0
67.798958	168.0
67.815735	168.0
67.836014	176.0
67.85125	120.0
67.863602	188.0
67.887352	200.0
67.903725	64.0
67.926689	180.0
67.953804	168.0
67.970985	164.0
67.982468	168.0
68.0065	168.0
68.01899	208.0
68.040649	60.0
68.056335	120.0
68.084091	160.0
68.094315	160.0
68.118744	104.0
68.145599	184.0
68.159821	180.0
68.196175	292.0
68.203682	128.0
68.207504	132.0
68.229713	152.0
68.25351	116.0
68.271599	188.0
68.291336	212.0
68.314682	208.0
68.32753	180.0
68.371956	160.0
68.406715	132.0
68.434509	124.0
68.462303	236.0
68.485779	268.0
68.491364	152.0
68.497459	196.0
68.516853	188.0
68.546104	336.0
68.564644	128.0
68.57618	144.0
68.604202	128.0
68.622337	148.0
68.637077	196.0
68.658615	140.0
68.678528	160.0
68.752647	240.0
68.767502	108.0
68.782936	160.0
68.794937	168.0
68.81868	36.0
68.83519	136.0
68.848259	192.0
68.865837	144.0
68.873093	80.0
68.875534	140.0
68.902634	204.0
68.935959	220.0
68.950829	108.0
68.96405	96.0
68.983185	132.0
69.022598	144.0
69.077141	204.0
69.110039	144.0
69.139366	128.0
69.166733	192.0
69.199829	152.0
69.21386	152.0
69.233727	220.0
69.25631	208.0
69.271454	144.0
69.281761	332.0
69.298813	204.0
69.326553	124.0
69.345215	124.0
69.370422	168.0
69.389832	192.0
69.415337	284.0
69.432709	120.0
69.459091	144.0
69.497299	132.0
69.509758	156.0
69.53878	80.0
69.560066	172.0
69.572617	188.0
69.595589	128.0
69.612366	124.0
69.636116	308.0
69.656853	148.0
69.701218	192.0
69.706017	148.0
69.713654	68.0
69.728088	204.0
69.73838	256.0
69.753502	200.0
69.76635	120.0
69.789871	220.0
69.806252	168.0
69.826767	156.0
69.869064	116.0
69.885681	192.0
69.900192	144.0
69.926865	168.0
69.960434	156.0
69.986778	312.0
70.040138	176.0
70.057175	176.0
70.097565	140.0
70.138611	160.0
70.155746	384.0
70.199257	128.0
70.215927	80.0
70.227608	160.0
70.244286	164.0
70.262634	92.0
70.284325	124.0
70.30925	180.0
70.315559	112.0
70.344406	36.0
70.368469	204.0
70.387772	160.0
70.393982	156.0
70.397545	136.0
70.439041	196.0
70.47718	56.0
70.516861	148.0
70.533165	44.0
70.562492	148.0
70.576637	152.0
70.590012	116.0
70.612717	152.0
70.646446	200.0
70.659409	180.0
70.682922	176.0
70.718529	132.0
70.726158	280.0
70.75354	136.0
70.766777	256.0
70.782928	332.0
70.805893	176.0
70.829605	352.0
70.862846	484.0
70.874573	112.0
70.887978	100.0
70.903061	168.0
70.929878	228.0
70.946892	144.0
70.960052	188.0
70.977203	464.0
71.012451	164.0
71.039787	96.0
71.054214	196.0
71.061943	80.0
71.064957	176.0
71.085609	164.0
71.101768	208.0
71.118622	268.0
71.135864	216.0
71.151314	188.0
71.171783	136.0
71.186577	116.0
71.220985	280.0
71.227425	136.0
71.234604	188.0
71.250404	140.0
71.274269	152.0
71.299133	100.0
71.317131	152.0
71.321663	108.0
71.354996	172.0
71.377106	160.0
71.411575	136.0
71.431908	132.0
71.455132	152.0
71.467628	132.0
71.4935	104.0
71.499374	60.0
71.50338	108.0
71.524513	164.0
71.558823	168.0
71.583435	240.0
71.612068	236.0
71.63488	308.0
71.659698	160.0
71.676086	188.0
71.694138	196.0
71.714539	200.0
71.724449	132.0
71.744652	132.0
71.764725	312.0
71.791481	132.0
71.808617	156.0
71.826859	184.0
71.844688	392.0
71.856499	48.0
71.868309	40.0
71.887772	172.0
71.90712	364.0
71.95945	172.0
72.002304	148.0
72.038506	172.0
72.043602	140.0
72.097893	168.0
72.131096	152.0
72.153519	152.0
72.172234	64.0
72.182434	132.0
72.215942	220.0
72.228836	108.0
72.254272	180.0
72.295822	144.0
72.316978	144.0
72.320747	188.0
72.362656	124.0
72.407394	324.0
72.434662	188.0
72.45269	324.0
72.475487	124.0
72.488876	112.0
72.516495	200.0
72.532944	120.0
72.56176	168.0
72.578712	136.0
72.602699	168.0
72.625221	132.0
72.649719	216.0
72.686554	216.0
72.714691	52.0
72.738937	136.0
72.765114	140.0
72.809204	180.0
72.823578	152.0
72.85807	148.0
72.892822	148.0
72.95031	188.0
72.970932	176.0
72.988785	128.0
73.012581	136.0
73.049164	196.0
73.075363	180.0
73.108711	108.0
73.130348	140.0
73.172722	212.0
73.205711	192.0
73.209854	328.0
73.222092	380.0
73.258545	124.0
73.272896	160.0
73.291298	144.0
73.314774	212.0
73.342041	180.0
73.35807	124.0
73.372681	144.0
73.420639	164.0
73.437523	124.0
73.456955	216.0
73.485291	104.0
73.502922	124.0
73.538193	76.0
73.573425	184.0
73.59169	296.0
73.603775	172.0
73.626823	140.0
73.644135	468.0
73.670044	260.0
73.698448	328.0
73.716789	132.0
73.738022	136.0
73.755486	128.0
73.771751	60.0
73.788933	168.0
73.822906	104.0
73.850105	196.0
73.877907	168.0
73.884544	180.0
73.915878	132.0
73.930374	236.0
73.960838	132.0
74.008606	136.0
74.035202	232.0
74.052727	128.0
74.097366	176.0
74.114502	136.0
74.153183	140.0
74.201912	156.0
74.22673	144.0
74.241684	144.0
74.261047	168.0
74.294388	204.0
74.315514	240.0
74.335167	116.0
74.366447	140.0
74.423859	168.0
74.427589	204.0
74.434853	216.0
74.469612	60.0
74.490486	132.0
74.553619	156.0
74.57917	168.0
74.588791	200.0
74.602417	140.0
74.616577	132.0
74.636307	152.0
74.651154	316.0
74.668442	224.0
74.685165	196.0
74.714478	188.0
74.747116	336.0
74.760162	144.0
74.775871	208.0
74.794586	208.0
74.816254	184.0
74.827705	256.0
74.84005	176.0
74.857803	156.0
74.894455	152.0
74.961647	192.0
74.972992	144.0
75.042236	204.0
75.077538	280.0
75.104378	200.0
75.123718	148.0
75.139374	152.0
75.155479	172.0
75.189529	140.0
75.235886	36.0
75.249695	164.0
75.263229	148.0
75.267929	136.0
75.274147	160.0
75.299408	176.0
75.313103	184.0
75.326393	204.0
75.356667	120.0
75.385567	200.0
75.392174	224.0
75.396996	308.0
75.411392	180.0
75.424179	140.0
75.444031	124.0
75.461647	172.0
75.477104	152.0
75.502182	172.0
75.537369	156.0
75.550415	104.0
75.570793	164.0
75.628197	248.0
75.652519	112.0
75.709839	152.0
75.733902	180.0
75.766891	208.0
75.785873	44.0
75.809036	300.0
75.836258	160.0
75.856934	128.0
75.873596	196.0
75.90416	188.0
75.917618	200.0
75.93322	136.0
75.950401	108.0
75.972031	192.0
75.993935	168.0
76.014763	128.0
76.035751	256.0
76.075684	40.0
76.088852	256.0
76.106789	212.0
76.122383	252.0
76.159401	140.0
76.176132	148.0
76.180099	140.0
76.186493	44.0
76.212387	152.0
76.253571	140.0
76.271797	172.0
76.300644	216.0
76.317001	136.0
76.333397	176.0
76.356995	148.0
76.36515	136.0
76.380211	104.0
76.387291	144.0
76.422073	176.0
76.43399	124.0
76.456161	300.0
76.468987	172.0
76.517914	140.0
76.542801	184.0
76.573105	140.0
76.585449	160.0
76.610283	140.0
76.621582	356.0
76.661499	180.0
76.685051	236.0
76.70314	180.0
76.723434	180.0
76.73661	188.0
76.749039	196.0
76.76693	92.0
76.781212	228.0
76.808105	128.0
76.82032	224.0
76.888367	100.0
76.908211	196.0
76.931946	176.0
76.949776	336.0
76.964142	168.0
76.967422	320.0
76.994865	124.0
77.015823	176.0
77.032936	176.0
77.054985	168.0
77.102081	184.0
77.131149	188.0
77.169899	192.0
77.211571	140.0
77.240517	124.0
77.260551	148.0
77.276299	60.0
77.315033	204.0
77.334389	216.0
77.356003	152.0
77.367302	188.0
77.388252	116.0
77.409325	164.0
77.435715	196.0
77.458366	72.0
77.495056	284.0
77.501999	172.0
77.521439	140.0
77.545975	76.0
77.584541	72.0
77.60733	156.0
77.621132	92.0
77.640793	144.0
77.66021	104.0
77.677483	200.0
77.711761	148.0
77.74305	184.0
77.778557	332.0
77.813362	196.0
77.825539	132.0
77.839729	184.0
77.859138	172.0
77.879692	160.0
77.905174	164.0
77.933846	152.0
77.947395	224.0
77.964394	88.0
77.975121	132.0
77.999878	220.0
78.020714	140.0
78.054855	188.0
78.06739	152.0
78.092445	148.0
78.11393	148.0
78.155884	220.0
78.184143	208.0
78.198593	180.0
78.229263	72.0
78.248627	108.0
78.275566	80.0
78.286484	144.0
78.299698	176.0
78.328941	136.0
78.414825	184.0
78.438889	156.0
78.45266	128.0
78.457886	108.0
78.464523	236.0
78.492882	144.0
78.521759	356.0
78.546455	96.0
78.561729	212.0
78.615616	320.0
78.646858	168.0
78.658501	104.0
78.661858	100.0
78.67804	260.0
78.716408	148.0
78.732315	144.0
78.764778	204.0
78.791878	300.0
78.823639	204.0
78.834808	184.0
78.855576	108.0
78.881958	216.0
78.901405	36.0
78.918236	216.0
78.944252	144.0
78.98098	108.0
79.005875	168.0
79.032288	132.0
79.04821	168.0
79.074509	172.0
79.09687	300.0
79.111931	132.0
79.130783	148.0
79.14679	216.0
79.169334	180.0
79.212868	112.0
79.225266	112.0
79.26265	164.0
79.296143	116.0
79.333366	416.0
79.373672	164.0
79.397202	216.0
79.419403	100.0
79.443436	176.0
79.458206	192.0
79.47818	296.0
79.510742	124.0
79.532043	144.0
79.551117	164.0
79.569321	84.0
79.582138	164.0
79.602722	128.0
79.611343	188.0
79.631607	164.0
79.647461	52.0
79.663445	84.0
79.684761	164.0
79.699745	120.0
79.707039	52.0
79.719368	168.0
79.744453	156.0
79.791801	88.0
79.804077	152.0
79.848534	152.0
79.880318	156.0
79.898911	248.0
79.926575	100.0
79.938499	112.0
79.951485	172.0
79.972389	144.0
79.987953	172.0
80.010231	216.0
80.022301	128.0
80.033554	124.0
80.047195	184.0
80.059723	196.0
80.077896	256.0
80.096977	168.0
80.114464	280.0
80.145592	144.0
80.176552	160.0
80.218658	184.0
80.25386	156.0
80.270363	164.0
80.335922	116.0
80.36203	224.0
80.379326	220.0
80.40773	80.0
80.420219	212.0
80.436287	128.0
80.451897	204.0
80.464294	180.0
80.488586	164.0
80.503242	140.0
80.521126	272.0
80.537407	240.0
80.56665	44.0
80.57988	128.0
80.585747	52.0
80.59288	164.0
80.620964	192.0
80.637093	216.0
80.651299	140.0
80.681023	196.0
80.698898	148.0
80.721848	144.0
80.744415	148.0
80.763084	152.0
80.796539	352.0
80.824104	72.0
80.859291	200.0
80.875381	184.0
80.904854	136.0
80.920761	320.0
80.960152	196.0
80.985474	176.0
81.021049	152.0
81.055389	508.0
81.081978	124.0
81.116028	308.0
81.137543	44.0
81.150963	196.0
81.176094	136.0
81.181175	204.0
81.210266	296.0
81.251366	176.0
81.279541	332.0
81.321335	176.0
81.357834	172.0
81.384804	176.0
81.413872	156.0
81.433624	180.0
81.447998	148.0
81.460571	148.0
81.483925	124.0
81.498299	176.0
81.512459	136.0
81.539055	120.0
81.574898	296.0
81.605202	192.0
81.633949	132.0
81.647255	176.0
81.668518	128.0
81.696564	200.0
81.717651	160.0
81.730247	64.0
81.748528	152.0
81.783951	152.0
81.80854	176.0
81.840942	120.0
81.855171	292.0
81.885063	160.0
81.903076	176.0
81.939217	128.0
81.960442	128.0
81.982803	308.0
82.012939	156.0
82.031013	212.0
82.045433	280.0
82.074722	184.0
82.120522	212.0
82.151833	144.0
82.19223	180.0
82.249176	140.0
82.276352	68.0
82.294182	128.0
82.314438	172.0
82.349892	188.0
82.371284	92.0
82.376312	148.0
82.39399	208.0
82.414589	112.0
82.432373	232.0
82.44976	148.0
82.481819	216.0
82.501755	172.0
82.522614	172.0
82.600479	204.0
82.61425	144.0
82.645424	176.0
82.651894	36.0
82.664413	132.0
82.671013	128.0
82.677139	176.0
82.698769	320.0
82.75531	136.0
82.782341	128.0
82.802094	144.0
82.827965	172.0
82.860268	176.0
82.875008	168.0
82.887527	132.0
82.909439	176.0
82.952156	268.0
82.967155	152.0
82.994865	160.0
83.018211	224.0
83.046234	184.0
83.067085	148.0
83.078209	152.0
83.123421	132.0
83.152458	80.0
83.181946	148.0
83.219627	60.0
83.249069	188.0
83.256653	92.0
83.264214	224.0
83.269226	144.0
83.308617	108.0
83.326782	40.0
83.355896	172.0
83.392204	324.0
83.432198	68.0
83.457466	152.0
83.494698	156.0
83.527222	164.0
83.546768	140.0
83.56678	100.0
83.608368	212.0
83.661209	200.0
83.666916	108.0
83.706932	100.0
83.73243	52.0
83.755608	188.0
83.790718	192.0
83.834953	216.0
83.866409	156.0
83.889389	388.0
83.903717	128.0
83.931061	100.0
83.947472	144.0
83.965714	140.0
83.978477	216.0
83.99099	144.0
83.997627	124.0
84.002876	92.0
84.049629	208.0
84.071663	108.0
84.100723	80.0
84.134529	208.0
84.168274	116.0
84.18203	308.0
84.199318	60.0
84.217583	132.0
84.240311	136.0
84.265495	168.0
84.290657	164.0
84.306229	100.0
84.327209	120.0
84.351494	160.0
84.380219	156.0
84.406334	156.0
84.42556	156.0
84.445068	164.0
84.475784	220.0
84.494637	100.0
84.500053	92.0
84.535606	160.0
84.549843	104.0
84.554436	116.0
84.561813	132.0
84.596092	88.0
84.668472	144.0
84.702301	116.0
84.715973	164.0
84.734062	404.0
84.741798	136.0
84.747398	244.0
84.769547	108.0
84.793091	160.0
84.81591	224.0
84.832504	156.0
84.854408	244.0
84.86702	128.0
84.882355	164.0
84.907066	184.0
84.920654	144.0
84.939491	152.0
84.9561	264.0
84.970291	372.0
84.986031	168.0
85.011772	344.0
85.040108	120.0
85.086533	260.0
85.138557	240.0
85.15892	140.0
85.179176	132.0
85.206787	156.0
85.22332	168.0
85.262611	116.0
85.289482	120.0
85.327675	160.0
85.339119	324.0
85.36235	164.0
85.367828	104.0
85.388954	208.0
85.420929	132.0
85.451614	376.0
85.474312	144.0
85.488113	180.0
85.507912	148.0
85.547165	192.0
85.57267	112.0
85.605042	176.0
85.640564	140.0
85.661217	232.0
85.701981	376.0
85.744095	108.0
85.768791	120.0
85.784256	152.0
85.803085	156.0
85.824913	356.0
85.848335	184.0
85.868927	204.0
85.888947	192.0
85.911888	168.0
85.924805	224.0
85.953239	176.0
85.975372	168.0
85.997559	160.0
86.010414	112.0
86.021141	140.0
86.040344	132.0
86.059845	1700.0
86.107811	168.0
86.138214	152.0
86.154091	184.0
86.16851	60.0
86.188835	120.0
86.225632	92.0
86.242088	152.0
86.267143	172.0
86.300743	132.0
86.304871	72.0
86.311966	188.0
86.327469	164.0
86.344116	124.0
86.3592	52.0
86.385147	136.0
86.393082	220.0
86.435402	248.0
86.44381	256.0
86.467812	172.0
86.49173	312.0
86.527306	36.0
86.555077	108.0
86.574776	244.0
86.614342	176.0
86.636574	188.0
86.677086	60.0
86.694008	280.0
86.716248	160.0
86.734787	72.0
86.766777	188.0
86.773956	216.0
86.814621	136.0
86.845192	132.0
86.884995	132.0
86.901688	136.0
86.935089	140.0
86.957359	148.0
86.984833	184.0
86.996063	240.0
87.016762	108.0
87.040848	148.0
87.062965	192.0
87.088425	264.0
87.101158	188.0
87.152008	176.0
87.209106	204.0
87.224327	164.0
87.247139	188.0
87.265266	128.0
87.28157	160.0
87.30822	252.0
87.334579	168.0
87.351273	216.0
87.363022	200.0
87.388611	284.0
87.4254	320.0
87.437912	176.0
87.471481	208.0
87.505043	212.0
87.522499	188.0
87.545723	152.0
87.55909	184.0
87.59227	284.0
87.628044	196.0
87.671761	180.0
87.692085	340.0
87.716255	136.0
87.737099	88.0
87.762863	152.0
87.78669	164.0
87.81321	112.0
87.829994	68.0
87.867004	248.0
87.886589	160.0
87.915352	128.0
87.932617	100.0
87.947548	132.0
87.960617	180.0
87.986519	164.0
87.989288	144.0
88.005508	332.0
88.039032	164.0
88.059784	168.0
88.085556	132.0
88.097435	164.0
88.113747	112.0
88.160645	164.0
88.184753	88.0
88.202202	204.0
88.235229	192.0
88.267014	120.0
88.287102	164.0
88.319794	160.0
88.34256	244.0
88.375504	164.0
88.390472	248.0
88.416672	136.0
88.431213	176.0
88.453674	156.0
88.478691	208.0
88.509407	348.0
88.533173	172.0
88.564583	172.0
88.581436	136.0
88.60759	180.0
88.641396	180.0
88.663399	128.0
88.680794	176.0
88.725739	188.0
88.757607	160.0
88.791512	156.0
88.822823	88.0
88.85083	148.0
88.892235	120.0
88.909218	308.0
88.93396	160.0
88.956123	148.0
88.986412	144.0
88.99733	132.0
89.005615	188.0
89.041588	208.0
89.097328	176.0
89.134102	148.0
89.153694	156.0
89.170609	76.0
89.193169	152.0
89.222305	336.0
89.25145	304.0
89.278519	184.0
89.309433	168.0
89.326675	164.0
89.339035	132.0
89.368065	172.0
89.391853	212.0
89.417336	404.0
89.437691	104.0
89.458397	172.0
89.477226	76.0
89.516769	132.0
89.547005	144.0
89.558746	316.0
89.586739	188.0
89.612144	276.0
89.624985	164.0
89.642273	184.0
89.680481	204.0
89.699394	120.0
89.730804	124.0
89.747841	136.0
89.771957	76.0
89.839279	132.0
89.876404	96.0
89.90873	200.0
89.915482	184.0
89.935844	208.0
89.970253	224.0
90.029701	176.0
90.067062	364.0
90.107147	152.0
90.129822	196.0
90.160057	264.0
90.19194	364.0
90.21109	124.0
90.238487	212.0
90.254311	172.0
90.288483	128.0
90.303452	184.0
90.306122	188.0
90.314056	212.0
90.336327	160.0
90.360855	104.0
90.374123	196.0
90.389633	100.0
90.422935	124.0
90.440613	224.0
90.459694	248.0
90.484673	148.0
90.522896	196.0
90.554749	116.0
90.582085	156.0
90.603821	120.0
90.623665	208.0
90.648811	324.0
90.677406	244.0
90.696068	156.0
90.722214	164.0
90.749352	192.0
90.774117	128.0
90.813232	112.0
90.834946	184.0
90.857819	228.0
90.876534	164.0
90.900337	364.0
90.924126	232.0
90.932617	104.0
90.937576	224.0
90.952179	228.0
90.969032	112.0
90.987816	136.0
91.016525	260.0
91.054688	26004.0
91.112564	176.0
91.142204	152.0
91.161591	220.0
91.183464	120.0
91.213692	152.0
91.242393	296.0
91.258858	176.0
91.279678	224.0
91.330261	152.0
91.34803	124.0
91.367172	140.0
91.397842	148.0
91.430702	224.0
91.451347	208.0
91.454269	284.0
91.478287	148.0
91.493782	236.0
91.522079	144.0
91.539314	148.0
91.562065	132.0
91.583015	276.0
91.624992	116.0
91.656227	188.0
91.678925	140.0
91.70208	204.0
91.749832	148.0
91.77771	148.0
91.796829	316.0
91.812981	160.0
91.825645	160.0
91.841881	244.0
91.857323	420.0
91.926628	104.0
91.952904	112.0
91.982407	344.0
92.000259	104.0
92.025803	148.0
92.057129	3292.0
92.096039	128.0
92.121674	124.0
92.141945	36.0
92.157646	312.0
92.18985	200.0
92.257683	308.0
92.298874	76.0
92.344574	108.0
92.367996	180.0
92.39048	268.0
92.405785	168.0
92.419075	148.0
92.451714	132.0
92.467155	168.0
92.490349	148.0
92.524445	160.0
92.562737	132.0
92.576141	52.0
92.601044	144.0
92.637222	272.0
92.662048	340.0
92.685333	228.0
92.702576	104.0
92.72834	108.0
92.751556	108.0
92.770676	148.0
92.792282	232.0
92.81768	404.0
92.868004	168.0
92.885651	132.0
92.910141	300.0
92.963684	152.0
93.022446	140.0
93.025108	260.0
93.062164	220.0
93.083946	144.0
93.090805	232.0
93.108971	172.0
93.128487	112.0
93.164093	172.0
93.179611	124.0
93.190506	280.0
93.21302	180.0
93.238411	208.0
93.268425	212.0
93.29734	124.0
93.30172	156.0
93.309944	188.0
93.316353	232.0
93.33989	264.0
93.354546	204.0
93.377998	328.0
93.436699	168.0
93.474648	268.0
93.502243	196.0
93.523308	188.0
93.569778	216.0
93.599655	192.0
93.623505	312.0
93.645554	48.0
93.693825	148.0
93.700104	132.0
93.706009	168.0
93.724457	172.0
93.727295	136.0
93.757622	544.0
93.813515	60.0
93.834175	196.0
93.850609	208.0
93.894501	240.0
93.915184	160.0
93.941895	112.0
93.970772	208.0
94.011505	364.0
94.045593	128.0
94.070045	180.0
94.087151	124.0
94.097839	156.0
94.113251	156.0
94.119385	68.0
94.172195	172.0
94.185249	100.0
94.197533	184.0
94.218788	128.0
94.250778	136.0
94.262505	204.0
94.282547	52.0
94.317337	52.0
94.335304	164.0
94.36628	216.0
94.404343	184.0
94.419815	100.0
94.43895	112.0
94.486153	148.0
94.537819	136.0
94.553307	128.0
94.588142	208.0
94.621056	152.0
94.636177	168.0
94.671394	76.0
94.706863	200.0
94.760498	236.0
94.77951	188.0
94.813797	168.0
94.833199	280.0
94.857399	116.0
94.870972	136.0
94.909691	156.0
94.926147	236.0
94.945412	152.0
94.986664	200.0
95.004349	168.0
95.037758	112.0
95.055222	256.0
95.071304	168.0
95.099312	128.0
95.140625	244.0
95.158699	152.0
95.175575	312.0
95.227005	152.0
95.248161	148.0
95.264816	168.0
95.292114	228.0
95.321472	144.0
95.340012	176.0
95.366867	136.0
95.408722	120.0
95.428162	124.0
95.441772	120.0
95.45948	152.0
95.480667	120.0
95.496223	156.0
95.514183	120.0
95.544235	240.0
95.610962	148.0
95.633377	132.0
95.652351	168.0
95.669403	160.0
95.688873	36.0
95.747345	300.0
95.768822	404.0
95.811569	164.0
95.847832	196.0
95.879768	148.0
95.908356	132.0
95.94928	288.0
95.974922	256.0
95.998688	68.0
96.016235	176.0
96.03894	240.0
96.066956	136.0
96.101669	136.0
96.142479	192.0
96.147652	300.0
96.167046	68.0
96.180016	204.0
96.198586	88.0
96.232773	116.0
96.250412	144.0
96.289795	72.0
96.320374	136.0
96.32798	112.0
96.336952	104.0
96.359314	196.0
96.405289	224.0
96.434052	108.0
96.451637	192.0
96.48159	212.0
96.538033	192.0
96.550949	172.0
96.570183	96.0
96.629059	160.0
96.647949	232.0
96.686348	348.0
96.717033	100.0
96.74028	144.0
96.766487	336.0
96.785652	104.0
96.807281	72.0
96.837097	132.0
96.852547	248.0
96.870399	84.0
96.890312	192.0
96.9188	288.0
96.937935	156.0
96.955154	140.0
96.991776	140.0
97.009529	108.0
97.037567	252.0
97.053085	176.0
97.076286	792.0
97.111771	176.0
97.128128	288.0
97.164459	176.0
97.178856	296.0
97.20945	116.0
97.258774	188.0
97.290833	172.0
97.309456	100.0
97.332191	356.0
97.363312	196.0
97.378418	152.0
97.395683	76.0
97.401527	188.0
97.431458	56.0
97.449142	92.0
97.480576	176.0
97.4963	100.0
97.527893	156.0
97.552315	88.0
97.57296	64.0
97.599937	172.0
97.651611	44.0
97.677513	144.0
97.701714	520.0
97.787369	144.0
97.802979	112.0
97.822594	152.0
97.835831	348.0
97.883041	184.0
97.907463	188.0
97.933067	92.0
97.967964	140.0
97.998077	196.0
98.019897	336.0
98.041428	300.0
98.063477	176.0
98.075897	112.0
98.115578	180.0
98.139389	144.0
98.147644	100.0
98.153412	164.0
98.169159	376.0
98.198647	220.0
98.216904	188.0
98.233421	152.0
98.252411	192.0
98.269333	148.0
98.297646	164.0
98.322617	152.0
98.361122	168.0
98.406357	184.0
98.426102	52.0
98.439919	56.0
98.463081	108.0
98.481392	44.0
98.500343	168.0
98.522873	88.0
98.574249	144.0
98.592033	164.0
98.611153	148.0
98.640732	188.0
98.671097	48.0
98.690872	116.0
98.716576	200.0
98.744263	112.0
98.763054	224.0
98.784264	280.0
98.802528	176.0
98.842087	152.0
98.856041	296.0
98.871925	148.0
98.887993	256.0
98.90255	164.0
98.922913	144.0
98.952042	140.0
98.969856	280.0
98.989609	152.0
99.021347	184.0
99.050186	256.0
99.065422	176.0
99.089806	548.0
99.108292	296.0
99.139412	144.0
99.170753	224.0
99.206512	348.0
99.24131	192.0
99.286919	120.0
99.319084	528.0
99.34642	120.0
99.386101	232.0
99.417854	200.0
99.440926	332.0
99.506767	116.0
99.52681	144.0
99.557747	132.0
99.578812	232.0
99.586456	140.0
99.633644	220.0
99.670609	156.0
99.708618	156.0
99.745567	180.0
99.79924	168.0
99.815147	212.0
99.839783	228.0
99.854927	216.0
99.883812	244.0
99.978416	168.0
100.005661	168.0
100.024551	148.0
100.062523	244.0
100.092026	112.0
100.125595	124.0
100.164413	116.0
100.197304	180.0
100.225113	184.0
100.259453	104.0
100.291519	284.0
100.315247	156.0
100.350708	140.0
100.355164	136.0
100.365723	168.0
100.39254	192.0
100.460457	112.0
100.4776	152.0
100.492378	160.0
100.516319	200.0
100.562218	120.0
100.621933	136.0
100.639618	192.0
100.66526	120.0
100.72683	172.0
100.730415	120.0
100.739532	356.0
100.767906	196.0
100.801483	144.0
100.849838	116.0
100.936111	204.0
100.976189	120.0
100.990685	324.0
101.015556	232.0
101.030281	168.0
101.048836	148.0
101.070587	4896.0
101.09539	164.0
101.115845	136.0
101.148331	196.0
101.210709	236.0
101.236435	172.0
101.251602	104.0
101.278732	124.0
101.29734	196.0
101.318085	140.0
101.348244	152.0
101.376663	168.0
101.390915	196.0
101.426109	176.0
101.446342	116.0
101.476219	180.0
101.507301	208.0
101.528244	156.0
101.560974	120.0
101.581009	260.0
101.601532	208.0
101.658173	160.0
101.688225	416.0
101.760109	156.0
101.771706	160.0
101.805557	120.0
101.851761	112.0
101.882584	116.0
101.891151	124.0
101.896172	196.0
101.917984	96.0
101.960373	148.0
101.985107	140.0
102.006409	48.0
102.023079	248.0
102.044502	548.0
102.054596	252.0
102.058006	304.0
102.074257	232.0
102.131508	188.0
102.181374	172.0
102.197472	176.0
102.211555	196.0
102.244644	176.0
102.28199	136.0
102.301353	200.0
102.340378	148.0
102.403915	232.0
102.451141	40.0
102.471062	248.0
102.496124	136.0
102.527504	116.0
102.534843	104.0
102.542618	172.0
102.56057	204.0
102.587372	380.0
102.614136	192.0
102.667427	212.0
102.7062	144.0
102.727325	120.0
102.74958	176.0
102.812065	204.0
102.839363	160.0
102.843719	164.0
102.851707	188.0
102.873016	224.0
102.90345	104.0
102.939407	200.0
102.963531	152.0
102.985268	168.0
103.026764	256.0
103.056717	600.0
103.084488	152.0
103.087509	132.0
103.115005	144.0
103.132271	192.0
103.17038	336.0
103.19384	100.0
103.210022	96.0
103.245049	224.0
103.282578	132.0
103.317215	48.0
103.347557	152.0
103.381958	144.0
103.396126	180.0
103.426613	132.0
103.441742	112.0
103.474503	368.0
103.494217	264.0
103.509491	176.0
103.533791	152.0
103.556068	136.0
103.58564	456.0
103.613663	204.0
103.63913	172.0
103.668564	152.0
103.676376	188.0
103.680489	224.0
103.719002	136.0
103.741722	380.0
103.778984	364.0
103.793358	132.0
103.836273	196.0
103.899597	132.0
103.924774	200.0
103.951401	160.0
103.968254	144.0
103.98996	116.0
104.013863	180.0
104.035515	184.0
104.068039	436.0
104.087402	192.0
104.111771	108.0
104.137764	236.0
104.154427	132.0
104.202332	256.0
104.223961	176.0
104.276337	180.0
104.319313	328.0
104.3582	188.0
104.379204	232.0
104.402382	100.0
104.430199	212.0
104.493073	164.0
104.52182	140.0
104.542747	136.0
104.567169	48.0
104.590599	124.0
104.603813	180.0
104.622833	116.0
104.658775	204.0
104.674728	72.0
104.686981	340.0
104.732094	468.0
104.763924	224.0
104.78466	144.0
104.809509	156.0
104.841415	200.0
104.874718	192.0
104.904846	272.0
104.909966	124.0
104.918816	220.0
104.924751	148.0
104.964584	200.0
104.982773	368.0
105.005447	296.0
105.040154	60.0
105.07016	6968.0
105.10405	160.0
105.12149	124.0
105.147148	144.0
105.20163	152.0
105.20797	184.0
105.216789	180.0
105.243286	120.0
105.305931	252.0
105.385719	100.0
105.440079	140.0
105.4785	160.0
105.501396	80.0
105.516563	144.0
105.564781	148.0
105.607773	172.0
105.62709	120.0
105.655487	184.0
105.684616	144.0
105.699326	160.0
105.703163	308.0
105.711182	360.0
105.767326	144.0
105.786484	164.0
105.806618	104.0
105.829582	260.0
105.857964	148.0
105.886841	136.0
105.909866	176.0
105.960892	96.0
105.986458	124.0
106.002151	140.0
106.074036	1140.0
106.129189	176.0
106.171501	228.0
106.194489	144.0
106.217438	200.0
106.244789	140.0
106.259155	116.0
106.281944	180.0
106.299789	164.0
106.329445	156.0
106.35125	132.0
106.369972	372.0
106.40844	216.0
106.439888	216.0
106.456932	200.0
106.47879	140.0
106.503662	328.0
106.521469	216.0
106.546577	240.0
106.567123	56.0
106.581177	168.0
106.608223	224.0
106.622604	152.0
106.641106	88.0
106.664902	148.0
106.690575	160.0
106.706886	88.0
106.723785	164.0
106.742188	140.0
106.762405	152.0
106.783653	204.0
106.807152	232.0
106.815361	176.0
106.853516	108.0
106.875542	156.0
106.899445	52.0
106.902748	216.0
106.942017	148.0
106.969498	220.0
107.004951	88.0
107.008354	192.0
107.033958	224.0
107.056686	188.0
107.077721	280.0
107.107986	176.0
107.150101	148.0
107.194931	148.0
107.234291	172.0
107.281326	152.0
107.313744	128.0
107.329887	152.0
107.365807	108.0
107.384026	172.0
107.428825	116.0
107.452446	128.0
107.487518	108.0
107.530861	228.0
107.586967	176.0
107.606941	172.0
107.619682	264.0
107.657532	200.0
107.684441	248.0
107.714706	204.0
107.779701	188.0
107.827698	132.0
107.860909	156.0
107.89045	140.0
107.925728	328.0
107.939537	276.0
107.965027	288.0
107.995277	216.0
108.016418	156.0
108.041214	348.0
108.063904	168.0
108.084694	192.0
108.150627	196.0
108.203568	148.0
108.235794	80.0
108.257164	164.0
108.276176	368.0
108.284012	184.0
108.29364	236.0
108.300591	168.0
108.307137	116.0
108.342598	188.0
108.37043	120.0
108.39473	160.0
108.409187	192.0
108.439255	172.0
108.458443	204.0
108.500648	116.0
108.527954	84.0
108.556389	180.0
108.586929	244.0
108.617004	128.0
108.650322	48.0
108.695625	144.0
108.727791	288.0
108.790047	244.0
108.816628	272.0
108.886642	180.0
108.913956	148.0
108.959183	320.0
108.964653	208.0
108.974876	360.0
108.995041	308.0
109.046936	212.0
109.072334	140.0
109.104347	116.0
109.1213	88.0
109.12458	136.0
109.150879	124.0
109.209534	176.0
109.231277	164.0
109.264717	268.0
109.319374	40.0
109.350594	208.0
109.356926	164.0
109.393166	144.0
109.456764	152.0
109.476799	116.0
109.497208	312.0
109.528717	168.0
109.547195	152.0
109.577484	96.0
109.592735	292.0
109.610909	128.0
109.625496	220.0
109.654808	180.0
109.672935	276.0
109.701622	244.0
109.732689	160.0
109.760986	152.0
109.79644	152.0
109.813126	440.0
109.828102	176.0
109.842323	356.0
109.858757	164.0
109.873535	176.0
109.909088	176.0
109.923691	176.0
109.986305	184.0
110.021149	184.0
110.036308	212.0
110.069588	220.0
110.115929	96.0
110.204613	112.0
110.212479	160.0
110.239685	112.0
110.30381	104.0
110.357216	212.0
110.398079	400.0
110.423996	104.0
110.467438	168.0
110.493782	128.0
110.508484	184.0
110.542236	180.0
110.564514	132.0
110.59874	212.0
110.61763	164.0
110.64209	192.0
110.678154	148.0
110.701538	304.0
110.715576	304.0
110.743217	52.0
110.773697	116.0
110.796417	316.0
110.904549	188.0
110.949059	212.0
110.964012	172.0
110.980019	240.0
111.004395	160.0
111.040833	188.0
111.066597	340.0
111.08857	132.0
111.107567	128.0
111.133362	160.0
111.153107	208.0
111.19619	164.0
111.255356	188.0
111.306725	148.0
111.322441	308.0
111.340912	212.0
111.354477	164.0
111.372406	164.0
111.427071	48.0
111.45636	64.0
111.485909	148.0
111.508652	144.0
111.552681	192.0
111.566628	288.0
111.654175	212.0
111.682915	176.0
111.741364	192.0
111.772682	64.0
111.796623	288.0
111.814682	260.0
111.832924	112.0
111.855217	176.0
111.895988	272.0
111.942398	212.0
111.96978	116.0
112.01889	212.0
112.036301	272.0
112.083534	84.0
112.113129	296.0
112.14267	136.0
112.164856	164.0
112.180588	168.0
112.198929	48.0
112.231079	160.0
112.245728	148.0
112.307167	152.0
112.336533	172.0
112.358742	152.0
112.393044	204.0
112.407288	208.0
112.443031	164.0
112.458916	136.0
112.475807	248.0
112.490578	160.0
112.514107	220.0
112.537025	100.0
112.564476	132.0
112.591721	336.0
112.598495	148.0
112.602882	172.0
112.64473	324.0
112.676422	136.0
112.693047	212.0
112.718872	200.0
112.750381	112.0
112.777855	148.0
112.807655	160.0
112.846359	236.0
112.894447	284.0
112.953354	208.0
112.980911	160.0
112.996468	116.0
113.013718	128.0
113.019859	156.0
113.029213	196.0
113.071861	404.0
113.098557	116.0
113.131836	160.0
113.159981	144.0
113.19558	140.0
113.230629	264.0
113.30265	220.0
113.324158	264.0
113.351204	144.0
113.365273	264.0
113.402245	108.0
113.433151	392.0
113.448875	76.0
113.472198	204.0
113.493401	44.0
113.512978	136.0
113.542175	72.0
113.561256	156.0
113.590958	188.0
113.618416	144.0
113.639259	224.0
113.653496	176.0
113.680069	192.0
113.714928	140.0
113.743736	172.0
113.785843	96.0
113.822563	136.0
113.850433	220.0
113.870392	240.0
113.902016	216.0
113.919991	116.0
113.947609	144.0
113.966728	108.0
113.989334	204.0
114.013885	188.0
114.054932	584.0
114.078636	1204.0
114.110191	120.0
114.134094	124.0
114.150208	176.0
114.177612	176.0
114.213547	276.0
114.246422	140.0
114.297844	144.0
114.303574	144.0
114.310486	204.0
114.328743	164.0
114.369537	312.0
114.410683	184.0
114.438416	172.0
114.483177	280.0
114.498833	144.0
114.526222	112.0
114.555367	176.0
114.596169	144.0
114.620102	124.0
114.656189	48.0
114.673241	120.0
114.692047	160.0
114.699982	132.0
114.714348	140.0
114.754242	164.0
114.79689	108.0
114.82888	140.0
114.850212	220.0
114.873672	144.0
114.914566	196.0
114.93663	292.0
114.958107	228.0
114.974823	148.0
115.002449	160.0
115.053864	188.0
115.086845	31616.0
115.14946	196.0
115.177406	96.0
115.197083	32.0
115.216248	348.0
115.25209	96.0
115.270058	168.0
115.292313	168.0
115.313683	56.0
115.332771	188.0
115.366974	264.0
115.380699	220.0
115.394691	160.0
115.428917	152.0
115.434601	196.0
115.460854	132.0
115.4813	196.0
115.499954	112.0
115.51712	168.0
115.540192	72.0
115.557312	172.0
115.576569	156.0
115.597275	112.0
115.604225	108.0
115.612289	128.0
115.657013	156.0
115.683022	376.0
115.732819	316.0
115.78228	176.0
115.829277	192.0
115.845055	128.0
115.894653	244.0
115.921188	136.0
115.959084	252.0
115.982697	144.0
116.009041	176.0
116.045639	320.0
116.088684	2056.0
116.154037	84.0
116.167679	304.0
116.187187	52.0
116.242973	136.0
116.277313	144.0
116.298775	184.0
116.322388	52.0
116.351372	168.0
116.39109	92.0
116.412209	376.0
116.451218	152.0
116.475922	200.0
116.492706	192.0
116.511368	76.0
116.564407	168.0
116.57103	104.0
116.579887	180.0
116.599464	136.0
116.61451	224.0
116.651634	132.0
116.65696	48.0
116.684158	160.0
116.718369	128.0
116.759193	176.0
116.791573	148.0
116.814476	116.0
116.837975	256.0
116.867035	140.0
116.904488	344.0
116.923706	136.0
116.937958	248.0
116.951202	148.0
116.96048	132.0
116.980576	192.0
117.03479	220.0
117.053238	184.0
117.078011	188.0
117.10125	1120.0
117.123505	116.0
117.175644	152.0
117.252052	144.0
117.27639	136.0
117.346413	160.0
117.370132	160.0
117.493073	152.0
117.527596	152.0
117.546295	180.0
117.555069	120.0
117.558212	148.0
117.579048	128.0
117.609604	176.0
117.636261	160.0
117.718697	120.0
117.739143	48.0
117.765602	112.0
117.786659	108.0
117.810425	248.0
117.841957	208.0
117.858086	168.0
117.886398	172.0
117.917839	180.0
117.942299	136.0
117.968605	160.0
117.998444	164.0
118.014954	176.0
118.054665	116.0
118.100105	216.0
118.123871	132.0
118.149834	60.0
118.197311	72.0
118.226173	152.0
118.255074	176.0
118.271317	200.0
118.295906	228.0
118.337585	144.0
118.369392	316.0
118.400917	172.0
118.450737	360.0
118.490326	160.0
118.528732	128.0
118.551971	276.0
118.56649	104.0
118.574478	220.0
118.604584	144.0
118.625175	208.0
118.665176	248.0
118.699165	120.0
118.739906	80.0
118.771545	192.0
118.819267	92.0
118.834457	128.0
118.864433	172.0
118.877167	164.0
118.917839	212.0
118.962166	332.0
118.978065	184.0
118.994255	236.0
119.059174	88.0
119.107994	172.0
119.125366	104.0
119.144287	164.0
119.151886	116.0
119.157562	88.0
119.175339	204.0
119.216621	112.0
119.238358	116.0
119.26786	132.0
119.276192	196.0
119.325676	188.0
119.351395	180.0
119.36879	232.0
119.395958	140.0
119.423164	180.0
119.445213	300.0
119.47319	308.0
119.50769	252.0
119.532082	184.0
119.604172	168.0
119.637527	156.0
119.705772	84.0
119.715446	124.0
119.745285	128.0
119.777954	188.0
119.805161	156.0
119.824165	192.0
119.861763	164.0
119.9207	180.0
119.942459	164.0
119.969719	152.0
119.988319	168.0
120.024277	164.0
120.096062	204.0
120.10601	144.0
120.112503	276.0
120.130005	56.0
120.150726	188.0
120.203636	144.0
120.218903	344.0
120.251106	88.0
120.27739	96.0
120.338722	144.0
120.408302	132.0
120.439583	136.0
120.473587	184.0
120.491516	164.0
120.529564	368.0
120.556854	160.0
120.587616	320.0
120.620537	472.0
120.644287	168.0
120.661293	164.0
120.669426	128.0
120.705505	156.0
120.736008	184.0
120.760178	180.0
120.80101	176.0
120.834549	144.0
120.850929	272.0
120.890594	216.0
120.925346	204.0
120.948135	316.0
121.010826	340.0
121.03373	160.0
121.086288	188.0
121.102867	84.0
121.122765	232.0
121.140312	120.0
121.146484	216.0
121.155037	144.0
121.16658	128.0
121.195816	420.0
121.217728	104.0
121.23526	192.0
121.267258	220.0
121.303207	172.0
121.351456	448.0
121.370697	148.0
121.394592	176.0
121.400772	120.0
121.412453	116.0
121.418236	216.0
121.449333	156.0
121.469856	208.0
121.499352	148.0
121.520416	300.0
121.558525	136.0
121.575172	84.0
121.597992	152.0
121.627998	176.0
121.651993	92.0
121.717865	96.0
121.746567	164.0
121.770836	132.0
121.788567	200.0
121.826378	144.0
121.860443	184.0
121.88195	216.0
121.900185	196.0
121.922157	244.0
121.950279	176.0
121.990486	140.0
122.016678	148.0
122.039536	332.0
122.056656	216.0
122.075981	152.0
122.097488	192.0
122.11898	176.0
122.153786	104.0
122.160637	156.0
122.201424	160.0
122.242561	144.0
122.267174	200.0
122.30265	144.0
122.33567	28.0
122.356621	132.0
122.373512	212.0
122.407753	244.0
122.439156	156.0
122.462181	268.0
122.478371	96.0
122.493477	200.0
122.516251	48.0
122.550446	184.0
122.572304	172.0
122.604385	172.0
122.633041	108.0
122.648468	188.0
122.688271	148.0
122.716812	284.0
122.730759	232.0
122.775818	200.0
122.806206	228.0
122.834007	140.0
122.919891	116.0
122.958824	180.0
123.037979	156.0
123.062729	148.0
123.110191	300.0
123.126434	164.0
123.165108	416.0
123.209709	168.0
123.240524	144.0
123.269676	212.0
123.294998	176.0
123.327522	368.0
123.361458	168.0
123.399811	196.0
123.439751	204.0
123.464134	184.0
123.500771	44.0
123.518463	124.0
123.540581	144.0
123.555168	140.0
123.586197	136.0
123.602921	192.0
123.625244	136.0
123.64901	164.0
123.672691	148.0
123.699913	48.0
123.722054	136.0
123.746407	160.0
123.772972	44.0
123.815048	124.0
123.834984	188.0
123.875046	212.0
123.905777	196.0
123.93689	108.0
123.967331	352.0
123.987854	180.0
124.051994	164.0
124.075798	108.0
124.118645	292.0
124.138603	136.0
124.202782	128.0
124.268257	124.0
124.285789	204.0
124.317001	152.0
124.352913	312.0
124.403931	164.0
124.446297	168.0
124.499687	180.0
124.528954	176.0
124.560654	396.0
124.612312	144.0
124.630135	240.0
124.647789	168.0
124.664719	144.0
124.692604	180.0
124.724831	172.0
124.732941	144.0
124.740349	272.0
124.776718	208.0
124.799248	308.0
124.833397	212.0
124.861717	164.0
124.915962	56.0
124.945923	128.0
124.96167	132.0
124.980476	156.0
125.010742	72.0
125.033882	76.0
125.06282	152.0
125.087303	152.0
125.107338	256.0
125.131828	44.0
125.149323	168.0
125.204994	280.0
125.208061	136.0
125.219231	176.0
125.265877	104.0
125.281044	176.0
125.323044	164.0
125.342865	176.0
125.368462	108.0
125.411812	152.0
125.435875	116.0
125.461555	204.0
125.479385	124.0
125.515732	348.0
125.564125	100.0
125.58667	192.0
125.652924	168.0
125.674088	96.0
125.703819	116.0
125.711021	184.0
125.744835	116.0
125.789482	56.0
125.811172	168.0
125.831001	140.0
125.872223	200.0
125.882507	168.0
125.887039	144.0
125.921219	180.0
125.935722	164.0
125.958939	144.0
125.98954	136.0
126.010567	108.0
126.030678	76.0
126.05043	200.0
126.055367	164.0
126.06485	132.0
126.116936	272.0
126.137131	164.0
126.16925	196.0
126.20726	144.0
126.266891	212.0
126.300606	124.0
126.326118	192.0
126.350395	68.0
126.377365	152.0
126.400017	160.0
126.417526	400.0
126.45871	224.0
126.474266	136.0
126.523842	120.0
126.595047	360.0
126.618851	172.0
126.652603	216.0
126.702446	144.0
126.726532	208.0
126.762695	172.0
126.791519	172.0
126.822891	204.0
126.872208	320.0
126.906982	172.0
126.951874	148.0
126.979919	124.0
127.004272	152.0
127.044579	144.0
127.086098	2724.0
127.122299	184.0
127.147339	152.0
127.17849	220.0
127.236107	176.0
127.252235	216.0
127.276321	104.0
127.281265	176.0
127.290527	208.0
127.313454	196.0
127.33445	104.0
127.371109	136.0
127.409637	152.0
127.425323	88.0
127.44381	240.0
127.469238	176.0
127.487213	196.0
127.509689	176.0
127.536659	144.0
127.574066	432.0
127.605515	160.0
127.633064	128.0
127.66256	144.0
127.686562	212.0
127.750282	216.0
127.802094	276.0
127.807022	128.0
127.818031	176.0
127.850357	176.0
127.869537	216.0
127.890625	48.0
127.907799	180.0
127.929375	80.0
127.962646	144.0
127.982094	152.0
128.000107	220.0
128.031631	324.0
128.065414	116.0
128.089203	348.0
128.119476	96.0
128.139023	136.0
128.178055	164.0
128.227219	152.0
128.252899	172.0
128.29335	132.0
128.319611	60.0
128.369659	140.0
128.408173	204.0
128.574219	212.0
128.604294	136.0
128.624313	156.0
128.676529	64.0
128.721695	40.0
128.7742	96.0
128.818802	60.0
128.8414	144.0
128.86174	104.0
128.891113	112.0
128.918228	32.0
128.954147	152.0
128.984268	204.0
129.011124	160.0
129.0448	176.0
129.100327	168.0
129.13179	164.0
129.153198	116.0
129.178406	156.0
129.205383	160.0
129.232529	132.0
129.252777	148.0
129.26886	148.0
129.301773	120.0
129.318527	156.0
129.350494	132.0
129.376846	204.0
129.419556	152.0
129.46196	344.0
129.505402	164.0
129.524567	140.0
129.550079	108.0
129.573441	184.0
129.615189	144.0
129.654022	148.0
129.675735	140.0
129.734116	212.0
129.773865	180.0
129.817352	176.0
129.859024	172.0
129.895004	160.0
129.924973	276.0
129.96376	352.0
130.00296	148.0
130.025452	132.0
130.058624	148.0
130.089203	212.0
130.127808	56.0
130.143692	380.0
130.159592	132.0
130.222321	360.0
130.257248	84.0
130.273148	160.0
130.290741	172.0
130.336761	108.0
130.378525	192.0
130.416428	140.0
130.450394	160.0
130.487122	180.0
130.539505	236.0
130.575363	204.0
130.625198	324.0
130.640686	172.0
130.666443	128.0
130.684647	140.0
130.719574	148.0
130.748367	164.0
130.785477	144.0
130.839417	144.0
130.892685	264.0
130.930389	188.0
130.959686	256.0
130.997757	180.0
131.036438	172.0
131.086166	84.0
131.103134	220.0
131.164551	264.0
131.205154	208.0
131.270477	128.0
131.311996	152.0
131.340744	56.0
131.357483	120.0
131.390442	128.0
131.40918	40.0
131.438843	164.0
131.490997	192.0
131.502197	132.0
131.50856	292.0
131.561432	164.0
131.594055	52.0
131.616211	344.0
131.65036	152.0
131.689667	184.0
131.70491	184.0
131.758499	132.0
131.781342	300.0
131.817902	100.0
131.837402	220.0
131.872757	172.0
131.8936	136.0
131.943756	188.0
131.971054	208.0
132.001968	84.0
132.064819	1676.0
132.117432	204.0
132.138626	148.0
132.175949	164.0
132.208862	200.0
132.214767	192.0
132.221924	168.0
132.249313	116.0
132.26828	208.0
132.293839	136.0
132.323624	176.0
132.345963	164.0
132.37558	132.0
132.393265	204.0
132.417282	316.0
132.445145	244.0
132.486206	176.0
132.545578	176.0
132.575195	156.0
132.61203	172.0
132.64183	96.0
132.659164	100.0
132.691483	140.0
132.733948	224.0
132.752274	184.0
132.800049	188.0
132.829803	148.0
132.835663	144.0
132.842148	224.0
132.85968	68.0
132.884918	120.0
132.900986	76.0
132.935165	156.0
132.971252	160.0
132.995071	156.0
133.014832	196.0
133.035919	116.0
133.044449	140.0
133.066772	348.0
133.101212	27780.0
133.144302	220.0
133.165619	72.0
133.184158	232.0
133.202545	112.0
133.227051	188.0
133.244598	172.0
133.308456	132.0
133.329056	264.0
133.346939	184.0
133.379501	164.0
133.403946	116.0
133.425842	176.0
133.464691	368.0
133.492935	108.0
133.513412	132.0
133.535019	276.0
133.561081	132.0
133.597122	40.0
133.621429	148.0
133.639679	72.0
133.670746	76.0
133.686844	136.0
133.716324	248.0
133.734772	112.0
133.765106	336.0
133.79837	160.0
133.843567	248.0
133.892197	160.0
133.937088	204.0
133.998978	164.0
134.023041	140.0
134.06601	140.0
134.104233	2440.0
134.132095	152.0
134.17894	176.0
134.207794	172.0
134.255554	180.0
134.284225	176.0
134.310226	196.0
134.336349	152.0
134.359329	216.0
134.38504	116.0
134.401199	152.0
134.417343	148.0
134.455719	344.0
134.482315	240.0
134.502731	352.0
134.520294	116.0
134.548904	160.0
134.571991	44.0
134.599991	128.0
134.636703	164.0
134.672134	240.0
134.709869	160.0
134.733658	208.0
134.754684	164.0
134.774506	204.0
134.868393	224.0
134.895386	216.0
134.935333	152.0
134.98558	376.0
135.023605	120.0
135.062393	96.0
135.077087	268.0
135.1008	148.0
135.110031	100.0
135.147522	296.0
135.179916	92.0
135.229446	216.0
135.275543	164.0
135.29332	236.0
135.336975	168.0
135.352859	204.0
135.381317	188.0
135.419296	200.0
135.460693	188.0
135.50383	192.0
135.529556	164.0
135.553925	124.0
135.578217	144.0
135.594452	72.0
135.62294	388.0
135.644211	116.0
135.663986	152.0
135.684845	172.0
135.709335	144.0
135.72554	180.0
135.74437	228.0
135.768326	136.0
135.792404	52.0
135.815948	320.0
135.850372	208.0
135.923752	276.0
135.976303	216.0
135.995697	104.0
136.018906	68.0
136.060608	124.0
136.06958	120.0
136.088547	152.0
136.120102	68.0
136.126633	40.0
136.133881	84.0
136.153183	164.0
136.200012	40.0
136.223251	232.0
136.245026	160.0
136.284164	72.0
136.327515	292.0
136.391525	124.0
136.40593	136.0
136.423096	148.0
136.455643	152.0
136.479065	124.0
136.497498	112.0
136.555115	160.0
136.624649	120.0
136.653336	168.0
136.690567	148.0
136.714447	140.0
136.760391	316.0
136.786652	296.0
136.804077	156.0
136.832092	204.0
136.857208	156.0
136.897751	136.0
136.932022	252.0
136.9496	244.0
136.997345	148.0
137.039841	116.0
137.100113	152.0
137.147034	128.0
137.169373	96.0
137.198318	296.0
137.220032	192.0
137.244705	148.0
137.271667	200.0
137.302216	152.0
137.331238	192.0
137.363113	156.0
137.388168	88.0
137.410553	200.0
137.429825	168.0
137.45517	188.0
137.474197	196.0
137.499222	128.0
137.515549	92.0
137.548019	220.0
137.555786	288.0
137.574966	88.0
137.591827	124.0
137.611267	44.0
137.673264	196.0
137.699875	144.0
137.702927	284.0
137.763748	152.0
137.808716	96.0
137.844437	228.0
137.896332	136.0
137.921814	128.0
137.960297	232.0
137.98642	176.0
138.041458	148.0
138.07692	248.0
138.109772	180.0
138.148987	48.0
138.156799	132.0
138.187759	140.0
138.207184	308.0
138.277481	244.0
138.298553	136.0
138.319534	200.0
138.339615	164.0
138.429657	232.0
138.448395	120.0
138.501205	276.0
138.518661	188.0
138.549103	176.0
138.570786	312.0
138.620575	116.0
138.637817	168.0
138.677826	208.0
138.755341	136.0
138.778793	148.0
138.799896	160.0
138.815247	168.0
138.842102	96.0
138.897079	224.0
138.947464	192.0
138.955643	148.0
138.962326	252.0
138.996933	156.0
139.015701	104.0
139.063507	368.0
139.095505	244.0
139.130981	216.0
139.146088	80.0
139.153015	160.0
139.169449	132.0
139.205856	104.0
139.272736	92.0
139.297455	196.0
139.31514	128.0
139.342087	132.0
139.364426	204.0
139.427917	144.0
139.478027	340.0
139.495422	144.0
139.520691	120.0
139.538574	312.0
139.572418	92.0
139.613403	316.0
139.63121	180.0
139.678253	196.0
139.695831	196.0
139.704941	92.0
139.714294	136.0
139.763733	192.0
139.780487	184.0
139.814713	116.0
139.839096	168.0
139.905457	164.0
139.951248	76.0
139.977158	44.0
139.995987	52.0
140.039658	368.0
140.057983	200.0
140.108429	152.0
140.140686	344.0
140.206863	228.0
140.300262	180.0
140.335403	92.0
140.354172	132.0
140.370667	108.0
140.422256	156.0
140.443787	148.0
140.463715	152.0
140.483383	248.0
140.528625	112.0
140.551773	284.0
140.58609	152.0
140.611298	160.0
140.666077	196.0
140.717117	140.0
140.749405	160.0
140.790024	180.0
140.817993	132.0
140.869385	144.0
140.892288	164.0
140.930023	136.0
140.96637	400.0
141.01207	144.0
141.026672	296.0
141.042923	324.0
141.071732	164.0
141.112198	180.0
141.141922	292.0
141.187759	172.0
141.208527	232.0
141.220688	104.0
141.228088	224.0
141.258713	120.0
141.275269	240.0
141.303665	128.0
141.33844	132.0
141.372284	108.0
141.410309	176.0
141.450394	152.0
141.489944	184.0
141.533249	212.0
141.561661	44.0
141.629181	196.0
141.665878	192.0
141.682465	300.0
141.734665	148.0
141.765396	140.0
141.827087	148.0
141.84816	160.0
141.891022	292.0
141.914719	124.0
141.943741	176.0
141.996918	168.0
142.052948	280.0
142.084381	112.0
142.152802	228.0
142.181	32.0
142.27298	88.0
142.306213	152.0
142.32283	120.0
142.347153	148.0
142.377457	172.0
142.405655	188.0
142.441574	236.0
142.511765	132.0
142.538986	132.0
142.557999	180.0
142.583206	172.0
142.60553	268.0
142.638306	328.0
142.672897	176.0
142.708206	336.0
142.731171	184.0
142.760056	136.0
142.788025	196.0
142.847107	304.0
142.86908	48.0
142.878952	264.0
142.94075	200.0
142.950317	192.0
142.955521	196.0
142.965576	196.0
142.999268	124.0
143.032974	380.0
143.082047	6144.0
143.134293	376.0
143.174423	140.0
143.205902	60.0
143.232101	128.0
143.281326	64.0
143.301697	88.0
143.3181	152.0
143.351669	140.0
143.37674	284.0
143.400482	148.0
143.431122	220.0
143.43988	188.0
143.450027	132.0
143.455719	160.0
143.492447	196.0
143.515076	160.0
143.526184	104.0
143.535568	132.0
143.548126	192.0
143.556564	168.0
143.58252	216.0
143.630569	380.0
143.634979	172.0
143.644226	148.0
143.666229	180.0
143.690125	224.0
143.711838	124.0
143.729141	156.0
143.73613	128.0
143.744614	132.0
143.76561	200.0
143.800079	96.0
143.833389	24.0
143.849182	212.0
143.88147	88.0
143.90538	116.0
143.930344	184.0
143.959137	140.0
143.986237	224.0
144.027374	204.0
144.032776	112.0
144.044647	152.0
144.052902	136.0
144.083237	264.0
144.134995	168.0
144.149673	288.0
144.168716	176.0
144.187988	108.0
144.201324	96.0
144.225342	128.0
144.259018	252.0
144.283249	204.0
144.315872	192.0
144.343536	384.0
144.395508	336.0
144.408478	372.0
144.443909	72.0
144.465057	220.0
144.518082	168.0
144.528519	300.0
144.542511	128.0
144.56665	300.0
144.582031	476.0
144.616226	756.0
144.635773	184.0
144.643143	228.0
144.677307	528.0
144.708282	532.0
144.732147	524.0
144.75119	200.0
144.770889	296.0
144.778549	320.0
144.787277	428.0
144.827301	336.0
144.851181	872.0
144.874908	324.0
144.893585	640.0
144.896896	816.0
144.925034	392.0
144.933792	700.0
144.980865	672.0
145.005753	640.0
145.012604	972.0
145.098526	464768.0
145.178894	272.0
145.231598	256.0
145.259811	644.0
145.296204	224.0
145.320389	3396.0
145.346954	440.0
145.361389	892.0
145.395767	844.0
145.427567	1212.0
145.464645	3268.0
145.494843	16500.0
145.572601	324.0
145.589737	292.0
145.625259	124.0
145.656876	212.0
145.677948	444.0
145.701477	616.0
145.731674	348.0
145.742432	228.0
145.751816	336.0
145.781097	216.0
145.826279	56.0
145.844345	180.0
145.867126	1100.0
145.883118	308.0
145.908203	356.0
145.924637	292.0
145.961716	440.0
146.028641	212.0
146.100159	94224.0
146.167511	148.0
146.189072	32.0
146.211243	88.0
146.235535	100.0
146.262024	164.0
146.284378	116.0
146.307495	112.0
146.330734	164.0
146.351852	40.0
146.375381	92.0
146.408569	72.0
146.420883	100.0
146.448425	140.0
146.471298	152.0
146.496109	256.0
146.542694	96.0
146.575867	80.0
146.601013	164.0
146.617767	228.0
146.65744	144.0
146.708054	196.0
146.729019	148.0
146.739258	132.0
146.76181	152.0
146.772461	100.0
146.831909	204.0
146.856689	240.0
146.884644	300.0
146.903397	268.0
146.931351	224.0
146.960617	168.0
146.981949	244.0
147.009109	240.0
147.027313	392.0
147.052155	304.0
147.057877	236.0
147.101883	7092.0
147.131073	276.0
147.166428	420.0
147.201019	504.0
147.235992	356.0
147.256302	328.0
147.282425	384.0
147.298523	468.0
147.325302	364.0
147.343842	236.0
147.348831	256.0
147.367477	244.0
147.40155	180.0
147.424561	148.0
147.439102	184.0
147.466812	156.0
147.503265	216.0
147.541077	172.0
147.55452	60.0
147.598007	88.0
147.622299	48.0
147.642853	28.0
147.679596	64.0
147.703323	72.0
147.746872	100.0
147.767212	76.0
147.806152	96.0
147.821869	236.0
147.837875	144.0
147.880569	156.0
147.899323	132.0
147.921112	144.0
147.953644	72.0
147.994247	132.0
148.013992	80.0
148.063019	124.0
148.10585	480.0
148.126938	32.0
148.15744	88.0
148.190857	72.0
148.226227	176.0
148.254593	124.0
148.289368	108.0
148.316788	80.0
148.344803	88.0
148.388657	140.0
148.416107	60.0
148.460281	52.0
148.494385	96.0
148.52153	96.0
148.543869	120.0
148.585114	84.0
148.629837	92.0
148.657349	68.0
148.706436	52.0
148.725861	56.0
148.771988	60.0
148.832672	64.0
148.854538	192.0
148.893265	164.0
148.923492	80.0
148.971115	64.0
149.022125	68.0
149.080444	120.0
149.099884	28.0
149.124191	64.0
149.167953	48.0
149.184967	52.0
149.235046	60.0
149.301666	176.0
149.406265	64.0
149.435455	28.0
149.484772	228.0
149.523056	32.0
149.596939	136.0
149.650513	56.0
149.710526	104.0
149.755692	72.0
149.788452	160.0
149.839615	168.0
149.866409	36.0
149.893219	72.0
149.922455	84.0
149.951706	100.0
149.971207	84.0
149.995575	96.0
150.023499	88.0
150.067047	152.0
150.093094	128.0
150.129684	96.0
150.179764	112.0
150.224808	52.0
150.24675	156.0
150.280914	60.0
150.307755	52.0
150.383408	36.0
150.530594	96.0
150.551865	36.0
150.68866	128.0
150.71553	96.0
150.765869	60.0
150.83284	120.0
150.913055	64.0
150.92746	176.0
150.99176	56.0
151.038239	48.0
151.083542	108.0
151.351486	112.0
151.466599	44.0
151.56459	80.0
151.598892	36.0
151.760681	52.0
151.7901	80.0
151.824432	224.0
151.90181	72.0
151.974075	56.0
152.02478	84.0
152.055054	148.0
152.104141	152.0
152.134766	40.0
152.17778	92.0
152.239182	232.0
152.315308	132.0
152.364441	72.0
152.467651	108.0
152.524887	92.0
152.701202	96.0
152.731842	184.0
152.752075	112.0
152.814194	56.0
152.8685	112.0
152.937408	44.0
152.966949	144.0
153.026031	52.0
153.136841	64.0
153.192047	184.0
153.222046	176.0
153.292542	140.0
153.319153	76.0
153.375839	96.0
153.415283	88.0
153.447342	120.0
153.466324	108.0
153.506516	160.0
153.531174	180.0
153.553375	52.0
153.580505	72.0
153.643906	108.0
153.684113	52.0
153.744751	96.0
153.790222	136.0
153.809967	36.0
153.832184	44.0
153.874161	48.0
153.896378	56.0
153.928482	164.0
153.965515	68.0
153.990219	28.0
154.009125	92.0
154.055267	160.0
154.095398	152.0
154.114792	224.0
154.13826	52.0
154.187866	100.0
154.239777	76.0
154.380692	40.0
154.400482	116.0
154.422989	80.0
154.472214	108.0
154.492004	96.0
154.511795	160.0
154.529114	52.0
154.576126	80.0
154.606857	56.0
154.625626	112.0
154.66275	52.0
154.697403	108.0
154.737015	88.0
154.803864	76.0
154.823669	188.0
154.850922	44.0
154.888657	104.0
155.010712	88.0
155.031769	84.0
155.077896	472.0
155.125961	108.0
155.145248	244.0
155.20372	120.0
155.224228	140.0
155.274002	124.0
155.302017	68.0
155.326813	76.0
155.344177	32.0
155.399261	216.0
155.433502	120.0
155.463272	48.0
155.508499	72.0
155.555115	124.0
155.589859	176.0
155.617172	56.0
155.655853	72.0
155.758728	88.0
155.808411	32.0
155.88295	168.0
155.900345	100.0
155.922714	152.0
155.964966	36.0
156.00473	292.0
156.046997	124.0
156.11116	208.0
156.193726	72.0
156.422653	80.0
156.45253	44.0
156.529709	76.0
156.551453	120.0
156.63681	60.0
156.656738	60.0
156.726486	96.0
156.749954	96.0
156.795349	152.0
156.871048	80.0
156.893478	120.0
156.92627	104.0
156.945068	64.0
157.055069	164.0
157.130402	64.0
157.19278	96.0
157.290665	92.0
157.431259	68.0
157.452408	68.0
157.486633	104.0
157.537338	244.0
157.596756	136.0
157.649765	52.0
157.694748	52.0
157.723846	112.0
157.847244	40.0
157.879761	152.0
157.897263	44.0
157.917267	88.0
158.001602	56.0
158.067383	56.0
158.096863	56.0
158.114243	160.0
158.272629	44.0
158.290161	168.0
158.310196	72.0
158.346146	56.0
158.400604	80.0
158.59079	80.0
158.74762	84.0
158.81395	140.0
158.84906	32.0
158.989563	72.0
159.092484	28.0
159.127625	48.0
159.15274	72.0
159.182861	88.0
159.240631	32.0
159.275787	104.0
159.301849	96.0
159.476807	32.0
159.517029	76.0
159.5849	76.0
159.667877	100.0
159.693039	44.0
159.735794	124.0
159.921997	40.0
159.942139	116.0
160.107651	164.0
160.151123	96.0
160.172104	156.0
160.260773	164.0
160.289688	124.0
160.362762	56.0
160.425781	92.0
160.473679	32.0
160.530899	52.0
160.569504	92.0
160.645981	112.0
160.66452	108.0
160.698151	68.0
160.81929	60.0
160.879868	36.0
160.932892	172.0
160.993484	108.0
161.10968	160.0
161.132416	120.0
161.170319	44.0
161.243591	144.0
161.377579	64.0
161.511612	212.0
161.593491	120.0
161.678589	160.0
161.830475	156.0
161.881119	96.0
161.924164	100.0
162.073624	120.0
162.470444	140.0
162.519882	168.0
162.674698	84.0
162.695007	188.0
162.786407	64.0
162.905792	76.0
163.02858	184.0
163.108017	260.0
163.167542	108.0
163.256546	120.0
163.475311	208.0
163.554214	64.0
163.714615	84.0
163.747726	172.0
163.811401	124.0
163.885284	72.0
163.915863	140.0
163.982117	188.0
164.040741	140.0
164.107025	180.0
164.142868	7688.0
164.185577	164.0
164.233093	92.0
164.274109	140.0
164.298309	60.0
164.347504	172.0
164.382507	140.0
164.530548	48.0
164.576508	96.0
164.681198	48.0
164.9086	156.0
165.054321	84.0
165.108673	92.0
165.147018	924.0
165.184753	108.0
165.225677	44.0
165.25383	92.0
165.645523	140.0
165.905243	136.0
166.112061	88.0
166.168488	188.0
166.222382	48.0
166.240341	88.0
166.432861	96.0
166.461105	124.0
166.51503	156.0
166.566406	168.0
166.643478	76.0
166.733414	68.0
166.805374	152.0
166.910797	40.0
166.949356	88.0
167.067688	96.0
167.150009	120.0
167.335342	60.0
167.672775	188.0
167.863556	156.0
167.881607	160.0
167.922867	104.0
168.062164	76.0
168.093124	184.0
168.124359	156.0
168.457169	140.0
168.526932	52.0
169.033722	100.0
169.126892	148.0
169.460968	204.0
169.523148	76.0
169.917267	168.0
170.000305	92.0
170.130081	128.0
170.228745	48.0
170.410568	32.0
170.485916	60.0
170.527512	144.0
170.550903	124.0
170.665283	84.0
170.706894	40.0
171.258621	100.0
171.362823	120.0
171.589569	120.0
171.772125	100.0
171.819077	164.0
172.111404	136.0
172.181915	236.0
172.369995	184.0
172.481613	124.0
172.644485	156.0
172.717712	204.0
172.800247	152.0
172.861603	108.0
173.00032	120.0
173.090714	1380.0
173.131241	44.0
173.173141	68.0
173.215057	32.0
173.264832	148.0
173.291031	196.0
173.338196	108.0
173.398468	84.0
173.426758	156.0
173.595078	120.0
173.828552	136.0
173.881042	184.0
173.922165	120.0
174.095001	296.0
174.198746	88.0
174.240784	96.0
174.377426	136.0
174.427368	48.0
174.541031	120.0
174.590378	160.0
174.969284	140.0
175.090836	124.0
175.237915	96.0
175.593781	152.0
175.631668	44.0
175.657089	152.0
175.680832	160.0
175.889297	32.0
176.146286	448.0
176.47049	120.0
176.499573	184.0
176.597427	156.0
176.692657	84.0
176.991745	92.0
177.100311	52.0
177.145355	168.0
177.338776	164.0
177.837418	152.0
178.424484	132.0
178.544128	140.0
178.631912	128.0
178.756958	152.0
179.089737	48.0
179.127029	56.0
179.233597	80.0
179.27623	88.0
179.470825	180.0
179.64151	112.0
179.993805	84.0
180.04187	116.0
180.301025	124.0
180.359665	144.0
180.394562	164.0
180.440018	136.0
180.825211	68.0
181.066162	120.0
181.307281	56.0
181.342117	188.0
181.698761	116.0
182.079651	188.0
182.54216	68.0
182.58519	252.0
182.77887	180.0
182.856918	100.0
183.096527	72.0
183.309357	104.0
183.379425	92.0
183.471069	76.0
183.659836	172.0
183.705688	140.0
183.78392	28.0
183.848694	76.0
183.867584	116.0
183.910767	136.0
184.115952	36.0
184.169968	80.0
184.79715	104.0
185.235718	144.0
185.433517	80.0
185.634125	136.0
185.723633	116.0
185.840286	48.0
185.905396	168.0
185.948822	236.0
185.984116	96.0
186.048889	188.0
186.092697	116.0
186.122498	8964.0
186.174164	48.0
186.309967	196.0
186.354248	112.0
186.443115	52.0
186.538239	36.0
186.603485	104.0
186.633392	64.0
186.704102	44.0
186.732147	152.0
186.766647	32.0
186.840103	44.0
186.946213	60.0
187.07959	72.0
187.125885	1196.0
187.262222	148.0
187.534485	80.0
187.768951	52.0
187.801682	44.0
187.954453	116.0
188.017227	132.0
188.097809	76.0
188.130142	204.0
188.350311	156.0
188.388565	100.0
188.478714	96.0
188.626297	172.0
188.694641	160.0
188.916168	40.0
189.288391	56.0
189.633575	112.0
189.693878	100.0
189.789841	156.0
189.844681	76.0
189.894043	32.0
189.929703	168.0
190.151947	184.0
190.264481	88.0
190.451218	148.0
190.580338	48.0
191.427551	120.0
191.468857	124.0
191.777435	252.0
191.978683	84.0
192.193848	52.0
192.320801	80.0
192.362198	164.0
192.533386	64.0
192.594147	140.0
192.658966	156.0
192.945099	112.0
193.133133	68.0
193.368317	128.0
193.59256	28.0
193.663269	188.0
193.726532	184.0
193.999863	136.0
194.235565	192.0
194.354858	64.0
194.672363	156.0
194.718521	120.0
194.810181	160.0
194.904648	116.0
195.046387	132.0
195.185394	156.0
195.224319	52.0
195.282715	48.0
195.560959	140.0
195.580444	216.0
196.151459	196.0
196.447052	152.0
196.497269	216.0
196.784729	184.0
197.122711	192.0
197.544891	56.0
197.614838	140.0
197.880722	140.0
197.967529	68.0
198.39061	216.0
198.553238	160.0
198.833786	52.0
199.325226	112.0
199.451706	116.0
199.775085	188.0
199.848236	140.0
200.04805	96.0
200.32402	144.0
200.685959	132.0
200.920044	60.0
201.082504	120.0
201.14743	56.0
201.316833	192.0
201.421326	132.0
201.45932	152.0
201.568237	128.0
201.621933	60.0
201.819809	52.0
201.845261	120.0
201.927277	112.0
201.997986	56.0
202.113983	144.0
202.164917	168.0
202.530136	92.0
202.572632	56.0
202.640625	224.0
202.836166	136.0
202.919464	136.0
202.981812	128.0
203.08284	88.0
203.201996	164.0
203.258163	100.0
203.338196	60.0
203.404816	204.0
203.44606	148.0
203.520752	192.0
203.548279	152.0
203.648239	100.0
203.69487	156.0
203.735733	68.0
203.768204	212.0
203.874649	184.0
203.972244	148.0
204.005707	284.0
204.03035	268.0
204.057449	260.0
204.093567	448.0
204.134415	113572.0
204.231613	132.0
204.239258	144.0
204.275528	172.0
204.327454	88.0
204.383636	140.0
204.39296	144.0
204.419479	108.0
204.439865	140.0
204.450134	116.0
204.493744	104.0
204.512863	52.0
204.521912	76.0
204.534286	132.0
204.563263	72.0
204.601974	320.0
204.63443	68.0
204.669037	76.0
204.719772	164.0
204.747925	140.0
204.774841	56.0
204.811157	140.0
204.874329	156.0
204.93634	92.0
204.964844	168.0
204.992554	192.0
205.056747	64.0
205.088867	92.0
205.095215	48.0
205.136444	10788.0
205.227066	52.0
205.253098	96.0
205.284103	56.0
205.312042	80.0
205.348511	84.0
205.385025	52.0
205.423859	136.0
205.463791	56.0
205.517471	212.0
205.56366	100.0
205.632156	68.0
205.676392	80.0
205.745026	44.0
205.837692	124.0
205.860535	88.0
205.909088	36.0
205.947708	108.0
205.991928	112.0
206.093262	144.0
206.137604	1704.0
206.213272	104.0
206.249542	76.0
206.274826	48.0
206.332001	172.0
206.352005	84.0
206.3806	88.0
206.43779	116.0
206.465271	92.0
206.532501	136.0
206.604034	128.0
206.663757	76.0
206.695236	60.0
206.736191	144.0
206.797012	128.0
206.849792	84.0
206.898453	48.0
206.990067	52.0
207.110352	112.0
207.25647	72.0
207.308044	48.0
207.351028	116.0
207.371094	72.0
207.414566	96.0
207.459946	52.0
207.584198	120.0
207.664291	112.0
207.702103	72.0
207.743683	68.0
207.783264	92.0
207.855743	88.0
207.902252	124.0
208.062408	136.0
208.123566	92.0
208.286392	72.0
208.320862	104.0
208.340973	72.0
208.392685	116.0
208.447281	56.0
208.921692	128.0
210.353912	92.0
211.423325	68.0
211.460953	128.0
211.817093	80.0
211.924286	56.0
212.234421	68.0
212.428741	44.0
212.541885	76.0
212.698608	84.0
212.907654	36.0
212.980255	124.0
213.276642	48.0
213.308609	136.0
213.384201	96.0
213.666306	64.0
214.15535	116.0
214.216507	120.0
214.758682	156.0
214.82869	116.0
214.884125	52.0
215.041702	108.0
215.278168	52.0
215.523544	44.0
215.596603	88.0
215.929886	56.0
216.093689	32.0
216.254639	52.0
216.424438	92.0
216.644089	80.0
216.688034	72.0
217.213806	172.0
218.275955	40.0
218.458313	32.0
218.634842	28.0
218.994034	52.0
219.156052	96.0
219.444901	84.0
219.574646	172.0
219.640121	196.0
219.934601	56.0
220.017258	44.0
220.41008	40.0
220.507599	72.0
220.835785	68.0
220.92157	44.0
221.383301	136.0
221.878128	164.0
222.881317	128.0
223.505753	108.0
223.609909	128.0
224.038681	72.0
224.214478	44.0
224.438065	28.0
225.067642	56.0
226.051086	28.0
227.093643	60.0
227.228638	28.0
227.381668	56.0
228.716171	60.0
228.923904	40.0
229.246231	60.0
229.644196	76.0
229.927795	84.0
229.957977	52.0
230.187408	212.0
231.042786	108.0
231.082108	132.0
231.218277	148.0
231.34726	76.0
231.399902	112.0
231.475601	96.0
231.87851	88.0
232.039169	180.0
232.166519	96.0
233.037704	124.0
233.283875	172.0
233.594055	104.0
234.254623	212.0
234.416092	92.0
234.647751	88.0
234.714828	56.0
234.934418	56.0
235.184647	60.0
235.529678	96.0
235.70076	176.0
235.887192	76.0
235.920822	100.0
235.966675	52.0
238.053329	100.0
238.680191	44.0
238.738617	60.0
238.969315	120.0
239.003159	104.0
239.320206	100.0
239.890152	64.0
240.090561	40.0
240.550293	120.0
240.645996	72.0
241.279358	56.0
241.412308	176.0
241.752609	88.0
241.972366	48.0
242.475296	100.0
243.864624	64.0
244.023163	92.0
244.243958	36.0
244.567566	68.0
244.685852	32.0
246.538666	104.0
246.926331	36.0
247.668121	84.0
247.843552	60.0
248.301239	76.0
248.476898	56.0
248.523956	60.0
249.224152	36.0
249.346695	56.0
249.431564	92.0
250.016571	56.0
250.271545	116.0
251.166565	76.0
251.598892	76.0
252.104263	28.0
252.353989	60.0
252.762009	120.0
252.875946	68.0
252.936081	44.0
253.062714	56.0
254.289505	100.0
254.352982	104.0
255.449265	120.0
256.538361	60.0
256.688202	92.0
256.74881	72.0
257.94931	60.0
258.308533	60.0
258.989258	40.0
259.182739	128.0
259.316071	116.0
260.673584	60.0
261.007874	212.0
261.261963	76.0
261.355286	68.0
261.876801	80.0
262.750366	60.0
263.968048	64.0
264.479218	132.0
264.508362	84.0
264.754425	64.0
264.806244	40.0
265.415466	120.0
267.589172	76.0
267.654297	220.0
268.406982	80.0
268.53418	72.0
269.807678	88.0
270.187042	52.0
270.33429	88.0
270.386627	68.0
270.687805	120.0
272.787598	68.0
272.92569	100.0
273.962402	184.0
274.423798	144.0
274.948303	144.0
275.174591	148.0
275.397308	108.0
275.688049	120.0
276.16745	132.0
276.190582	60.0
276.336151	68.0
276.918762	224.0
277.087708	124.0
277.18988	9124.0
277.250946	180.0
277.385956	100.0
277.47879	64.0
277.563843	68.0
277.627991	48.0
277.674438	48.0
277.7258	80.0
277.770599	96.0
277.906891	56.0
277.969666	40.0
278.022766	92.0
278.191772	2680.0
278.587219	240.0
278.750031	76.0
278.94281	104.0
279.152252	68.0
279.194305	380.0
279.26532	112.0
279.318542	40.0
279.74115	104.0
279.771118	120.0
279.821045	96.0
280.180756	64.0
280.264038	92.0
280.320679	116.0
281.077637	76.0
281.368011	108.0
282.323639	40.0
282.347046	68.0
282.81546	116.0
282.895813	76.0
283.334503	96.0
283.357971	108.0
283.461823	92.0
283.77356	72.0
283.850677	96.0
284.225037	92.0
284.37738	48.0
284.676178	56.0
284.914642	84.0
284.958313	60.0
285.623932	64.0
285.738312	68.0
285.761871	104.0
285.859467	76.0
286.000793	84.0
286.031097	60.0
288.977264	72.0
289.271667	96.0
289.667877	112.0
290.010101	116.0
290.39325	68.0
290.796997	168.0
290.993866	88.0
291.479584	64.0
292.373962	52.0
293.245819	128.0
293.545837	44.0
293.569702	36.0
294.771301	32.0
295.396973	88.0
295.619354	44.0
296.084961	92.0
298.029968	80.0
298.741638	36.0
299.316406	44.0
299.35083	68.0
299.736664	48.0
299.898621	88.0
299.998596	68.0
300.60907	32.0
300.75058	44.0
305.007568	132.0
305.786682	48.0
306.228851	40.0
306.552856	56.0
306.939789	88.0
308.074097	144.0
309.711182	72.0
310.440155	40.0
310.562927	132.0
314.087341	92.0
314.154388	60.0
314.210815	136.0
314.496674	44.0
316.865967	196.0
317.2117	144.0
317.277069	64.0
317.663605	84.0
317.801971	92.0
318.217133	272.0
318.270508	88.0
318.398346	44.0
319.165894	44.0
320.842865	92.0
321.731171	64.0
322.2276	112.0
323.2323	128.0
324.095245	52.0
324.123932	68.0
324.321045	60.0
325.332611	84.0
326.201935	64.0
326.424866	108.0
327.428894	96.0
327.882843	100.0
328.203674	68.0
328.715881	52.0
329.167084	76.0
329.427155	96.0
329.821014	88.0
330.311523	120.0
330.54071	88.0
330.819397	132.0
331.609039	52.0
333.670898	120.0
333.852692	40.0
334.90451	60.0
335.174103	92.0
335.254272	128.0
335.505768	128.0
335.582306	64.0
335.812073	60.0
336.151337	136.0
336.225403	2368.0
336.366669	84.0
336.450623	52.0
336.534607	148.0
336.698944	68.0
336.742767	48.0
336.786591	32.0
337.228943	1096.0
337.262512	160.0
337.371246	60.0
337.526184	172.0
337.931335	56.0
337.974731	88.0
338.135742	100.0
338.234558	104.0
338.311432	44.0
339.234589	144.0
339.306183	68.0
339.348236	68.0
339.47525	100.0
340.140656	152.0
340.304108	144.0
340.419678	40.0
341.43396	120.0
342.523438	88.0
342.925049	60.0
343.006134	88.0
343.12326	52.0
343.301086	40.0
343.788055	148.0
345.595001	80.0
346.305756	92.0
347.770325	40.0
347.837128	48.0
347.896515	72.0
348.342743	104.0
350.898804	128.0
350.973389	76.0
354.955688	72.0
355.083191	56.0
355.45459	96.0
356.648865	56.0
359.164124	60.0
359.828278	100.0
360.281464	136.0
362.059235	48.0
362.127411	68.0
362.241058	72.0
362.726074	60.0
362.820862	56.0
364.175537	68.0
364.338898	88.0
366.132324	120.0
366.191376	32.0
366.621887	36.0
369.420593	124.0
369.573639	140.0
370.216705	60.0
372.514191	68.0
373.282867	32.0
373.49823	52.0
374.009979	56.0
374.306427	80.0
375.123199	52.0
376.666748	32.0
376.944916	40.0
377.087891	168.0
377.55957	92.0
377.733612	36.0
378.306335	112.0
378.786499	56.0
379.32901	104.0
381.440704	52.0
383.168579	48.0
386.279938	56.0
386.319061	84.0
387.724731	40.0
388.20694	32.0
388.65802	60.0
389.345001	84.0
390.638123	44.0
391.5513	44.0
392.579895	80.0
393.167694	84.0
395.111755	88.0
395.163177	116.0
399.240906	44.0
400.140198	144.0
401.423187	60.0
402.025574	104.0
402.668335	44.0
403.039825	72.0
404.980103	100.0
406.411255	100.0
407.294464	92.0
408.114288	48.0
408.910797	132.0
410.308563	80.0
411.817749	80.0
414.289276	76.0
415.181	40.0
416.756012	132.0
418.728973	112.0
419.621368	44.0
424.011566	100.0
429.43866	52.0
429.644928	108.0
432.330658	64.0
432.533478	76.0
433.109039	92.0
433.668396	60.0
433.755432	96.0
434.369141	84.0
435.199158	56.0
435.394318	32.0
437.610687	108.0
437.752258	148.0
437.887787	88.0
439.210968	36.0
441.650299	64.0
441.922211	92.0
443.169922	76.0
443.454895	84.0
445.830322	80.0
446.158173	72.0
446.435699	40.0
449.949829	44.0
452.867615	44.0
454.058563	60.0
454.520966	88.0
455.331787	80.0
457.423737	44.0
459.56311	112.0
460.536438	60.0
464.94632	40.0
465.555939	80.0
466.987061	88.0
467.877808	96.0
468.127533	72.0
468.318909	544.0
468.661682	84.0
468.984894	72.0
469.327179	472.0
469.424622	44.0
469.924988	84.0
470.23999	96.0
470.283173	80.0
471.272095	116.0
472.166901	28.0
473.348328	92.0
473.460907	48.0
475.537628	48.0
476.936188	52.0
477.318787	80.0
478.302002	92.0
478.754822	68.0
479.382111	44.0
479.661072	40.0
481.947906	132.0
483.368988	72.0
483.44339	96.0
486.235016	64.0
487.556946	60.0
488.973083	56.0
489.364868	80.0
489.730377	44.0
491.210205	44.0
495.433105	80.0
496.22641	64.0
496.44812	48.0
496.678772	72.0
501.21344	52.0
503.524231	120.0
505.401764	60.0
506.2836	92.0
506.668823	80.0
509.553589	44.0
510.636932	64.0
512.509644	56.0
514.941101	68.0
518.907837	76.0
526.326172	80.0
527.93927	40.0
529.399109	104.0
529.591431	56.0
530.214539	44.0
535.525696	76.0
537.974182	76.0
538.195801	120.0
538.680725	72.0
542.294556	124.0
542.484558	52.0
542.836975	100.0
547.698303	60.0
548.117615	56.0
548.537048	40.0
549.651672	96.0
552.300659	76.0
553.601746	104.0
558.299255	68.0
561.91217	36.0
563.370911	72.0
564.916748	72.0
566.273132	36.0
567.151794	36.0
568.550964	124.0
570.774109	60.0
572.053955	104.0
573.116028	76.0
573.47821	40.0
574.431824	60.0
578.771362	96.0
580.870544	68.0
583.232971	128.0
592.556396	56.0
594.40863	44.0
596.550476	76.0
598.014587	56.0
606.680115	84.0
607.19989	72.0
609.253723	164.0
610.047791	60.0
612.197937	92.0
612.557434	60.0
613.099426	100.0
618.963135	76.0
619.245422	40.0
620.330566	212.0
634.864807	88.0
635.281128	116.0
638.717102	36.0
640.740784	296.0
645.925293	88.0
646.98291	96.0
656.642578	56.0
656.953735	116.0
661.875549	56.0
665.962891	108.0
666.07074	140.0
671.377136	56.0
672.765137	60.0
672.80127	60.0
673.276306	216.0
677.595459	160.0
678.300293	156.0
680.795898	64.0
681.55426	172.0
684.279724	104.0
684.389038	84.0
687.088867	56.0
692.095886	176.0
693.934998	72.0
696.285828	76.0
698.777466	68.0
699.30896	76.0
699.840637	104.0
700.04071	148.0
701.721619	128.0
702.665649	44.0
704.677246	28.0
707.681396	112.0
708.354004	136.0
708.968567	140.0
709.620605	160.0
713.118835	256.0
716.87085	124.0
718.139709	172.0
718.630493	140.0
724.640076	56.0
725.218811	160.0
726.602356	220.0
727.520081	36.0
729.427063	44.0
731.34198	120.0
731.541138	128.0
731.874939	124.0
733.480408	128.0
734.968872	152.0
737.036926	32.0
738.226135	116.0
741.344299	164.0
742.802734	172.0
743.464661	56.0
743.535217	184.0
744.257202	208.0
744.425537	88.0
744.680786	80.0
744.881775	192.0
744.968689	144.0
745.387024	80.0
746.610168	96.0
747.039856	192.0
748.18811	48.0
748.329712	80.0
748.405945	72.0
749.092163	172.0
749.250122	52.0
749.67511	172.0
750.111145	172.0
751.90564	60.0
752.970215	108.0
754.965027	72.0
756.677673	48.0
758.06897	128.0
760.344849	232.0
761.409912	88.0
762.080078	136.0
762.343811	96.0
762.404297	124.0
766.008118	136.0
766.15686	44.0
766.977966	60.0
767.33075	36.0
767.429993	152.0
768.334534	212.0
768.472412	48.0
768.660034	148.0
769.913147	108.0
770.308777	300.0
770.620239	180.0
772.898254	184.0
773.230286	164.0
773.368652	160.0
773.595581	128.0
776.998291	160.0
777.236877	140.0
777.969482	184.0
778.036072	32.0
778.324829	36.0
778.369263	180.0
779.474609	52.0
779.524658	72.0
780.619751	80.0
780.897827	108.0
781.587646	184.0
782.149719	84.0
782.312134	184.0
782.532104	180.0
783.224426	100.0
783.558655	100.0
784.779236	124.0
785.141724	172.0
785.543274	116.0
785.984009	144.0
786.983154	172.0
787.106018	100.0
787.575134	116.0
788.206421	196.0
788.256714	64.0
788.340515	220.0
788.424377	92.0
789.643127	164.0
791.153931	92.0
791.366699	128.0
793.61908	76.0
794.191101	144.0
794.791382	76.0
795.330139	96.0
795.419922	176.0
795.739929	204.0
795.852234	172.0
796.992432	32.0
797.031799	60.0
797.279053	116.0
797.717468	52.0
797.914185	152.0
798.049133	96.0
798.313416	116.0
798.549622	160.0
798.656494	156.0
799.106567	48.0
799.348511	76.0
799.911316	180.0
800.198425	164.0
801.110779	208.0
802.153259	92.0
802.491516	172.0
804.426636	128.0
805.160645	132.0
805.262268	168.0
805.363953	40.0
805.719849	160.0
805.979736	76.0
806.030579	132.0
806.516602	44.0
806.57312	40.0
806.833191	124.0
807.291199	192.0
808.156616	112.0
809.45282	100.0
809.520813	188.0
809.622742	216.0
810.152344	272.0
811.141174	180.0
811.209229	124.0
811.883911	204.0
812.025696	36.0
812.602173	148.0
813.024231	208.0
813.62793	168.0
813.960876	108.0
814.091492	84.0
816.108704	160.0
816.552307	120.0
817.303162	80.0
817.399902	160.0
818.077209	120.0
818.24231	60.0
818.333435	200.0
819.419434	112.0
819.466797	68.0
819.80304	52.0
820.136841	168.0
820.441406	184.0
820.566833	212.0
821.484985	220.0
822.129761	140.0
822.2724	260.0
822.740479	172.0
823.128723	228.0
823.528503	188.0
823.996887	44.0
825.019897	136.0
825.826172	56.0
827.932312	200.0
828.178589	56.0
828.304626	168.0
829.76593	172.0
830.01825	172.0
830.356567	236.0
831.021973	44.0
832.187134	212.0
832.698242	212.0
832.956665	200.0
834.548584	204.0
835.066162	132.0
835.407349	64.0
835.721985	136.0
837.011292	132.0
837.644836	160.0
838.332703	76.0
839.437256	184.0
839.512207	160.0
839.598755	44.0
839.829407	120.0
841.803223	80.0
843.322632	192.0
843.790833	184.0
843.877563	128.0
844.230286	168.0
844.536865	116.0
844.658325	140.0
845.526184	188.0
845.751709	116.0
845.767822	112.0
845.783386	200.0
846.267151	160.0
846.938904	104.0
847.85437	188.0
847.987671	260.0
848.155701	60.0
848.596313	108.0
848.845642	132.0
848.955811	148.0
849.477844	48.0
849.564819	156.0
849.970947	176.0
850.272766	156.0
850.324951	192.0
850.522339	124.0
850.754517	116.0
851.242249	52.0
851.538391	108.0
851.615356	432.0
851.945007	72.0
852.049561	156.0
852.276184	196.0
852.688782	152.0
853.601501	128.0
854.130737	160.0
854.433228	104.0
854.817261	176.0
855.201355	104.0
855.416748	168.0
856.5755	152.0
857.082397	196.0
857.158142	108.0
857.484497	188.0
857.571899	152.0
857.805054	84.0
857.875	180.0
857.991638	140.0
859.438049	176.0
859.595581	92.0
860.080017	144.0
860.155884	204.0
860.704651	48.0
860.984985	72.0
861.195251	196.0
861.241943	140.0
862.866516	168.0
862.924988	140.0
863.006836	116.0
863.351807	152.0
863.61499	180.0
863.872375	40.0
864.463318	96.0
864.5979	76.0
865.493591	180.0
865.815613	136.0
866.448242	152.0
866.55957	172.0
867.198303	100.0
867.579346	112.0
868.171509	116.0
868.212585	112.0
868.763916	204.0
869.438721	144.0
869.556091	100.0
869.638245	32.0
870.013916	112.0
870.10199	172.0
870.148987	132.0
870.195923	116.0
870.97699	192.0
871.714661	36.0
872.011108	136.0
872.340271	96.0
872.610718	168.0
873.298706	56.0
873.881104	188.0
874.004639	104.0
874.234131	124.0
875.276062	188.0
875.676514	148.0
877.179077	44.0
877.467896	84.0
878.259705	140.0
878.753662	180.0
879.066406	136.0
879.113586	136.0
879.202148	132.0
879.29657	172.0
879.8396	112.0
880.65448	152.0
880.890747	112.0
881.564331	168.0
881.641174	72.0
882.04895	240.0
882.093628	196.0
882.515991	92.0
882.675659	108.0
883.125122	136.0
883.444519	148.0
883.491882	200.0
883.7995	104.0
883.852783	168.0
884.11908	196.0
884.343994	144.0
884.409058	100.0
884.663635	52.0
884.764221	52.0
884.947754	224.0
885.131348	184.0
885.214233	76.0
885.421509	188.0
886.387146	44.0
886.434509	228.0
886.588623	108.0
887.400696	148.0
888.806396	76.0
889.269287	140.0
889.435486	220.0
889.613586	76.0
889.839172	40.0
889.940125	160.0
890.272644	92.0
890.48053	152.0
890.854736	104.0
891.472656	152.0
891.900574	140.0
892.495056	184.0
892.584229	160.0
894.202393	116.0
894.875061	124.0
895.012024	136.0
895.065613	40.0
895.494385	180.0
895.613464	72.0
895.869629	100.0
896.179443	136.0
896.411804	88.0
896.507141	136.0
896.656128	140.0
897.007812	208.0
897.267578	160.0
897.532471	32.0
897.605835	156.0
898.421143	80.0
898.552368	168.0
898.838806	148.0
898.940247	148.0
899.113281	244.0
899.369934	144.0
899.563354	200.0
899.9729	144.0
900.014709	212.0
900.378967	152.0
900.492432	160.0
900.671631	148.0
901.083801	168.0
902.153564	204.0
902.195435	168.0
902.291077	176.0
902.384583	100.0
902.667786	160.0
902.871094	84.0
902.934326	204.0
903.014648	212.0
903.164124	160.0
903.229919	220.0
903.295715	152.0
903.888062	244.0
904.07489	164.0
904.612244	132.0
905.588257	196.0
905.678101	140.0
905.815857	180.0
906.026611	132.0
906.552795	140.0
906.852478	168.0
907.014282	200.0
907.338013	112.0
907.511902	196.0
908.081604	148.0
908.237549	164.0
908.699463	292.0
908.747437	132.0
909.317505	96.0
909.569641	204.0
910.216736	268.0
910.440186	152.0
910.914673	156.0
911.323242	180.0
911.462708	128.0
911.611633	128.0
912.501221	188.0
912.573364	100.0
912.621521	128.0
913.583801	320.0
913.75824	32.0
913.986877	156.0
914.353943	80.0
915.004089	52.0
915.17865	188.0
915.63031	152.0
916.732788	112.0
917.142578	160.0
917.33551	44.0
917.425903	144.0
917.992676	140.0
918.059021	188.0
918.541504	176.0
918.692322	128.0
919.235352	216.0
919.380188	140.0
921.116577	188.0
921.345459	132.0
921.838013	128.0
922.345703	124.0
922.660034	52.0
923.02887	124.0
923.167969	268.0
923.33728	48.0
923.597351	180.0
923.863525	256.0
924.178101	200.0
924.680359	152.0
925.443115	224.0
925.552124	184.0
925.697449	88.0
926.133484	80.0
926.896851	60.0
927.036194	164.0
927.181641	108.0
927.642334	200.0
928.121277	152.0
928.218262	32.0
928.260742	188.0
928.624634	40.0
928.778503	116.0
929.577087	168.0
929.771301	184.0
929.904785	192.0
930.81543	148.0
931.037781	152.0
931.16156	132.0
931.216248	160.0
931.568542	176.0
931.908752	116.0
932.145752	180.0
932.598511	160.0
932.947998	204.0
933.3797	232.0
933.531738	104.0
933.65332	104.0
933.726318	220.0
933.90271	208.0
934.01001	224.0
934.176453	120.0
934.444092	208.0
934.870056	88.0
935.01001	80.0
935.289978	96.0
935.487	224.0
935.819275	148.0
936.233704	156.0
936.446838	264.0
936.958557	156.0
937.671509	152.0
937.991028	216.0
938.30542	116.0
938.354187	188.0
938.9823	104.0
939.329956	172.0
939.49469	208.0
939.842407	128.0
939.976685	148.0
940.434875	200.0
940.617493	108.0
940.916626	124.0
941.166931	156.0
941.331848	220.0
941.453979	132.0
941.594421	184.0
942.700195	176.0
942.834595	156.0
943.173523	136.0
943.250244	164.0
943.837158	188.0
943.904419	244.0
944.093994	108.0
944.191833	156.0
944.619995	60.0
944.730103	188.0
946.058044	140.0
946.921448	116.0
947.57074	60.0
947.613647	168.0
947.730042	148.0
948.097717	88.0
948.158997	140.0
948.252686	128.0
948.324524	116.0
948.704529	164.0
948.821045	100.0
948.952393	56.0
949.385132	72.0
950.483215	160.0
950.725037	156.0
951.495911	192.0
951.715271	148.0
952.005554	172.0
952.109985	92.0
952.871643	156.0
953.24646	136.0
953.338623	148.0
953.56604	124.0
953.688965	144.0
953.97168	48.0
954.223755	192.0
954.392212	172.0
954.525024	180.0
954.691101	176.0
954.967834	156.0
955.14624	200.0
955.429199	196.0
955.564514	168.0
955.626038	180.0
956.173706	132.0
956.592285	192.0
957.035522	244.0
957.12793	204.0
957.830017	52.0
957.971313	64.0
958.191528	76.0
958.58783	116.0
959.241089	164.0
959.308899	152.0
959.51239	92.0
959.641846	172.0
959.918274	188.0
960.122803	120.0
960.196838	208.0
960.40033	132.0
960.650757	148.0
960.980225	168.0
961.202393	128.0
961.455383	148.0
961.652893	140.0
961.770142	180.0
961.881287	100.0
962.037231	224.0
962.115845	148.0
962.22699	156.0
962.585083	180.0
962.727112	128.0
962.813599	156.0
963.110046	184.0
963.908203	104.0
964.035034	216.0
964.48175	44.0
964.537415	80.0
964.593018	112.0
964.704285	84.0
965.044312	100.0
965.14325	52.0
965.718384	176.0
965.922485	180.0
965.99054	112.0
966.188538	152.0
966.473145	48.0
967.587219	148.0
967.964905	76.0
968.00824	188.0
968.231201	56.0
968.801025	136.0
968.912537	184.0
969.327698	140.0
969.482605	208.0
969.544556	148.0
969.848389	176.0
970.368958	144.0
970.471497	204.0
970.914673	184.0
970.964294	220.0
971.144165	68.0
971.801697	136.0
971.969238	164.0
972.087158	152.0
972.2547	132.0
972.322937	180.0
972.403625	108.0
972.881165	180.0
973.05542	200.0
973.434204	56.0
973.527344	156.0
973.65155	68.0
974.111206	80.0
974.235413	180.0
974.347229	144.0
974.446655	136.0
974.490112	192.0
974.71991	208.0
974.782166	180.0
974.887817	148.0
975.23584	156.0
975.353943	128.0
975.416138	132.0
975.932129	88.0
976.075134	108.0
976.20575	168.0
976.417175	192.0
976.529114	180.0
976.914795	64.0
977.169861	256.0
977.345825	180.0
977.487183	56.0
977.57428	168.0
977.829163	168.0
977.910339	156.0
978.122009	172.0
978.167419	256.0
978.296265	104.0
978.433228	196.0
978.474976	148.0
978.532837	184.0
979.043457	212.0
979.136902	200.0
979.392212	148.0
979.664001	204.0
980.046387	168.0
980.133606	112.0
980.775513	200.0
980.987427	192.0
981.05603	164.0
981.236816	112.0
981.517395	180.0
982.377563	140.0
982.540283	120.0
982.714966	132.0
982.883423	88.0
982.977051	152.0
983.15802	108.0
983.70105	180.0
984.799988	40.0
985.143555	188.0
985.737122	124.0
986.099548	212.0
986.474609	184.0
986.655884	140.0
986.830994	400.0
987.437561	164.0
988.382141	136.0
988.538574	144.0
989.546326	88.0
989.659058	216.0
989.702881	192.0
989.759216	80.0
989.871948	172.0
990.300415	172.0
990.379211	152.0
990.504517	172.0
990.617249	188.0
990.867859	344.0
991.181152	64.0
991.306458	352.0
991.431824	184.0
991.770264	128.0
991.814087	188.0
991.908142	108.0
992.158875	112.0
992.622864	152.0
993.149658	52.0
993.258362	236.0
993.500977	156.0
993.927612	108.0
994.195251	160.0
994.31665	84.0
994.555176	200.0
994.925537	84.0
995.000854	128.0
995.201782	140.0
995.587769	112.0
996.673279	164.0
996.746948	48.0
996.860107	132.0
997.098877	60.0
997.40686	112.0
997.532593	64.0
997.589172	120.0
997.821777	88.0
997.87207	76.0
998.312195	140.0
998.356262	208.0
998.551208	108.0
998.702148	164.0
998.840515	156.0
999.004089	144.0
999.458557	204.0
999.507385	56.0
999.90387	192.0
1000.164978	132.0
1000.319275	360.0
1000.689575	216.0
1000.747375	120.0
1000.860718	204.0
1001.074829	152.0
1001.193176	208.0
1001.205261	164.0
1001.320435	148.0
1001.52124	104.0
1001.755066	140.0
1002.151978	176.0
1002.375732	224.0
1002.643494	136.0
1002.738037	64.0
1002.986572	200.0
1003.282104	196.0
1003.752991	160.0
1003.917664	140.0
1004.043091	116.0
1004.273621	180.0
1004.755859	168.0
1005.010498	236.0
1005.159668	64.0
1005.759216	124.0
1005.81604	252.0
1005.95343	212.0
1006.270569	76.0
1006.813599	88.0
1006.927246	184.0
1006.990417	144.0
1007.217834	152.0
1007.451538	212.0
1007.993103	200.0
1008.081726	156.0
1008.954468	176.0
1009.037781	136.0
1009.241272	164.0
1009.480408	172.0
1009.524658	40.0
1010.068604	196.0
1010.150818	180.0
1010.315308	96.0
1010.865784	88.0
1011.036621	120.0
1011.099915	180.0
1011.150574	132.0
1011.644287	156.0
1011.815186	60.0
1011.960815	172.0
1012.055786	108.0
1012.233093	188.0
1012.385071	72.0
1013.151489	184.0
1013.411255	132.0
1013.880188	212.0
1014.171692	96.0
1014.418945	232.0
1014.488647	168.0
1014.805664	180.0
1014.99585	84.0
1015.091797	188.0
1015.287598	64.0
1015.585693	144.0
1015.649109	324.0
1015.972595	132.0
1016.245422	132.0
1016.372314	144.0
1017.045044	100.0
1017.140259	48.0
1017.337036	224.0
1017.413208	108.0
1017.711609	204.0
1017.857666	148.0
1018.016418	172.0
1018.187866	168.0
1018.295837	176.0
1018.397461	144.0
1018.628174	176.0
1018.772217	144.0
1018.937439	80.0
1019.02417	196.0
1019.089905	180.0
1019.293213	152.0
1019.346069	88.0
1019.66095	120.0
1020.170349	204.0
1020.546021	168.0
1020.684448	180.0
1020.882446	220.0
1021.073242	108.0
1021.16864	204.0
1021.270386	76.0
1021.416687	148.0
1021.46759	160.0
1021.74115	204.0
1022.275574	176.0
1022.4729	132.0
1022.593811	144.0
1022.733826	72.0
1022.867493	204.0
1023.281311	140.0
1023.427734	64.0
1023.555115	140.0
1023.650635	92.0
1024.140991	148.0
1024.268433	136.0
1024.516846	180.0
1024.86084	144.0
1025.255981	124.0
1025.35791	136.0
1025.708496	176.0
1025.995361	176.0
1026.104248	152.0
1026.161133	164.0
1026.237671	148.0
1026.314087	164.0
1026.467163	176.0
1026.562866	188.0
1026.766846	160.0
1026.981689	200.0
1027.296265	172.0
1027.360107	128.0
1027.519531	184.0
1027.691895	60.0
1027.921509	140.0
1028.042847	140.0
1028.552124	200.0
1028.942749	132.0
1029.032227	112.0
1029.191772	168.0
1029.267578	160.0
1029.651611	164.0
1029.709106	168.0
1029.827637	192.0
1029.913452	96.0
1030.015625	100.0
1030.290405	76.0
1030.475586	208.0
1031.178589	136.0
1031.223267	132.0
1031.408691	32.0
1031.485352	124.0
1031.651611	180.0
1031.783569	228.0
1032.187988	168.0
1032.271729	120.0
1032.316528	128.0
1032.617065	144.0
1032.802612	184.0
1032.885742	152.0
1032.943359	200.0
1033.012207	124.0
1033.49353	160.0
1033.589478	344.0
1033.807007	192.0
1034.037476	144.0
1034.671143	120.0
1034.796753	164.0
1035.330688	168.0
1035.450806	184.0
1035.567627	192.0
1035.631714	180.0
1035.79187	172.0
1036.265869	120.0
1036.482422	208.0
1036.605469	156.0
1037.23999	64.0
1037.49646	72.0
1037.745728	148.0
1038.220947	216.0
1038.477539	116.0
1039.099731	80.0
1039.330688	200.0
1039.799194	136.0
1040.2677	128.0
1040.338379	128.0
1040.794189	128.0
1041.018188	164.0
1041.233154	180.0
1041.301514	164.0
1041.462036	164.0
1041.866821	112.0
1042.342285	132.0
1042.445068	192.0
1042.535034	112.0
1042.727783	152.0
1042.972046	92.0
1043.242554	140.0
1043.299927	112.0
1043.88501	124.0
1044.110107	116.0
1044.213013	88.0
1044.320557	260.0
1044.515259	176.0
1045.332397	148.0
1045.441772	144.0
1045.621948	140.0
1045.853638	228.0
1045.988892	164.0
1046.272095	136.0
1046.47168	188.0
1046.735718	48.0
1046.838745	88.0
1046.903076	132.0
1047.057617	204.0
1047.154297	156.0
1047.341064	148.0
1047.598755	136.0
1047.669556	208.0
1047.953125	236.0
1048.094849	48.0
1048.197876	132.0
1048.339722	68.0
1048.416992	80.0
1048.552368	152.0
1048.855347	80.0
1048.940918	144.0
1049.022827	180.0
1049.087402	216.0
1049.383911	168.0
1049.487061	296.0
1049.567261	148.0
1049.777222	100.0
1049.835327	160.0
1049.893311	132.0
1050.099731	128.0
1050.170654	76.0
1050.331909	192.0
1050.409302	128.0
1050.564087	76.0
1050.61438	176.0
1050.769531	168.0
1050.822144	160.0
1050.912476	148.0
1051.002808	108.0
1051.06665	104.0
1051.235107	168.0
1051.390015	164.0
1051.512695	128.0
1051.606323	188.0
1051.712524	148.0
1052.003174	156.0
1052.158203	184.0
1052.868408	204.0
1052.963013	184.0
1053.126831	44.0
1053.634277	204.0
1053.682373	128.0
1053.992432	180.0
1054.399536	116.0
1054.535278	168.0
1054.587036	136.0
1054.87146	172.0
1055.117065	80.0
1055.323975	116.0
1055.414429	192.0
1055.583618	240.0
1055.70105	148.0
1055.828369	44.0
1056.041748	156.0
1056.332397	112.0
1056.449341	116.0
1056.517334	180.0
1056.669312	160.0
1056.734009	224.0
1056.94751	140.0
1057.18689	160.0
1057.24231	184.0
1057.432861	132.0
1057.510498	52.0
1057.652954	40.0
1057.969604	180.0
1058.047729	160.0
1058.222534	172.0
1058.287354	88.0
1058.384399	60.0
1058.468628	156.0
1058.591675	108.0
1058.857178	104.0
1058.941406	176.0
1059.265259	136.0
1059.420776	132.0
1059.491943	204.0
1059.900757	140.0
1059.958496	52.0
1060.224121	128.0
1060.286987	324.0
1060.35376	64.0
1060.613037	136.0
1061.151123	284.0
1061.300293	68.0
1061.481812	176.0
1062.02002	100.0
1062.10437	136.0
1062.597412	144.0
1062.850464	100.0
1063.123047	144.0
1063.212036	204.0
1063.324219	144.0
1063.39563	164.0
1063.817505	68.0
1063.938354	152.0
1064.005737	172.0
1064.490356	188.0
1064.557739	52.0
1064.609619	132.0
1064.681641	128.0
1064.726562	272.0
1064.979858	64.0
1065.057739	164.0
1065.200684	140.0
1065.324097	148.0
1065.681396	92.0
1065.726929	116.0
1065.79834	152.0
1065.869873	188.0
1065.921875	168.0
1065.986816	148.0
1066.032349	160.0
1066.305298	156.0
1066.40271	104.0
1066.708252	152.0
1066.91626	156.0
1067.124268	136.0
1067.267334	212.0
1067.501465	128.0
1067.625	176.0
1067.830688	240.0
1068.03479	168.0
1068.177856	136.0
1068.281982	52.0
1068.561646	188.0
1069.17334	160.0
1069.349121	136.0
1069.428101	176.0
1069.739624	52.0
1069.97876	168.0
1070.214844	120.0
1070.332031	248.0
1070.853027	136.0
1070.957275	228.0
1071.119873	204.0
1071.230835	232.0
1071.374146	172.0
1071.530518	216.0
1071.699951	88.0
1071.93457	72.0
1072.176392	144.0
1072.279907	240.0
1072.775269	136.0
1072.827393	192.0
1073.229126	192.0
1073.248047	116.0
1073.274292	252.0
1073.322998	140.0
1073.407715	212.0
1073.468262	152.0
1073.516846	160.0
1073.705322	220.0
1073.79248	200.0
1073.844727	88.0
1074.040283	212.0
1074.112061	212.0
1074.438232	124.0
1074.496948	136.0
1074.687988	176.0
1074.738403	80.0
1074.849365	192.0
1075.071045	132.0
1075.20166	144.0
1075.417114	160.0
1075.526367	152.0
1075.586792	152.0
1075.958862	52.0
1076.095947	192.0
1076.513916	148.0
1076.703247	204.0
1076.800171	208.0
1076.886108	220.0
1076.977539	152.0
1077.155151	108.0
1077.265015	76.0
1077.441406	180.0
1077.676636	164.0
1077.807251	104.0
1078.134033	116.0
1078.191162	136.0
1078.539185	160.0
1078.691772	132.0
1078.820312	96.0
1079.114502	164.0
1079.768433	40.0
1080.062744	156.0
1080.115112	136.0
1080.187012	84.0
1080.343994	212.0
1080.416016	124.0
1080.553345	116.0
1080.612305	180.0
1081.017944	180.0
1081.184448	204.0
1081.443359	176.0
1081.508789	176.0
1081.593872	164.0
1081.672485	132.0
1081.760864	88.0
1081.927734	104.0
1082.039062	164.0
1082.211914	224.0
1082.409302	140.0
1082.611084	132.0
1082.713501	128.0
1082.811768	108.0
1082.896851	160.0
1083.204224	140.0
1083.223511	128.0
1083.289917	76.0
1083.499512	112.0
1083.702637	80.0
1083.930786	172.0
1084.049927	196.0
1084.141724	128.0
1084.4104	56.0
1084.482422	232.0
1084.673218	152.0
1084.829834	164.0
1084.901978	120.0
1084.987183	152.0
1085.195435	136.0
1085.341309	176.0
1085.433105	228.0
1085.544556	212.0
1085.610107	76.0
1085.708496	128.0
1085.933838	144.0
1085.952881	196.0
1086.141357	128.0
1086.390625	176.0
1086.495605	144.0
1086.626831	172.0
1086.712158	148.0
1087.013916	104.0
1087.368286	160.0
1087.479858	88.0
1087.900024	168.0
1088.261108	308.0
1088.385864	164.0
1088.628784	160.0
1088.694458	132.0
1088.740479	108.0
1088.861328	160.0
1088.911255	180.0
1089.042603	156.0
1089.252808	120.0
1089.522095	172.0
1090.100342	156.0
1090.317139	380.0
1090.494629	268.0
1090.693481	76.0
1091.053345	84.0
1091.099365	176.0
1091.235474	388.0
1091.329468	208.0
1091.388672	224.0
1091.434692	172.0
1091.487305	180.0
1091.612183	172.0
1091.710815	152.0
1092.061646	184.0
1092.138428	188.0
1092.269897	56.0
1092.329102	160.0
1092.421265	64.0
1093.421387	352.0
1093.533203	128.0
1094.025757	92.0
1094.24231	140.0
1094.507568	204.0
1094.678711	208.0
1094.805908	172.0
1094.876343	136.0
1095.001465	144.0
1095.139771	156.0
1095.297852	72.0
1095.422974	60.0
1095.646973	212.0
1095.818237	36.0
1095.86438	160.0
1096.25061	164.0
1096.582153	156.0
1096.734253	136.0
1097.406738	136.0
1097.749634	160.0
1097.855103	124.0
1097.960571	232.0
1098.013428	256.0
1098.085938	152.0
1098.488281	128.0
1098.576172	232.0
1098.65979	188.0
1098.887817	204.0
1099.398804	192.0
1099.65625	172.0
1099.933472	128.0
1100.072021	128.0
1100.250244	212.0
1100.33606	176.0
1100.474731	76.0
1100.79834	164.0
1100.924561	180.0
1101.009644	100.0
1101.108643	192.0
1101.286987	216.0
1101.37207	168.0
1101.511597	28.0
1101.571411	164.0
1101.742798	128.0
1101.856201	356.0
1102.07312	108.0
1102.125977	92.0
1102.542358	216.0
1102.720825	36.0
1102.800049	208.0
1102.935791	152.0
1103.150391	104.0
1103.17981	136.0
1103.197876	164.0
1103.249634	184.0
1103.652832	228.0
1103.738647	132.0
1103.818237	120.0
1103.92688	184.0
1104.049683	104.0
1104.183594	176.0
1104.512573	176.0
1104.598633	76.0
1104.883057	52.0
1105.180786	172.0
1105.531494	164.0
1105.670532	140.0
1105.812378	128.0
1106.067627	108.0
1106.3927	184.0
1106.561646	128.0
1106.630371	168.0
1106.881958	116.0
1107.054077	156.0
1107.650146	128.0
1107.862183	172.0
1107.954956	64.0
1108.166504	180.0
1108.266357	84.0
1108.44519	172.0
1108.491577	116.0
1108.580566	308.0
1108.902466	112.0
1108.982056	48.0
1109.04834	196.0
1109.307983	220.0
1109.419556	176.0
1109.578613	164.0
1109.750977	176.0
1109.812378	176.0
1109.989746	112.0
1110.115723	112.0
1110.175415	192.0
1110.380493	172.0
1110.540161	220.0
1110.606445	84.0
1110.701538	204.0
1110.778931	196.0
1110.890015	128.0
1111.150391	88.0
1111.203491	128.0
1111.263184	172.0
1111.422485	160.0
1111.502075	200.0
1111.787476	56.0
1111.900269	112.0
1112.265381	116.0
1112.464478	108.0
1112.513916	80.0
1112.637085	124.0
1112.9823	124.0
1113.121826	200.0
1113.283691	124.0
1113.343506	124.0
1113.633179	136.0
1113.998413	88.0
1114.051636	172.0
1114.476807	148.0
1114.696045	136.0
1114.789185	88.0
1114.835693	164.0
1114.995117	132.0
1115.167969	224.0
1115.214478	92.0
1115.260986	104.0
1115.65979	108.0
1115.905884	192.0
1115.979004	164.0
1116.13855	216.0
1116.305664	148.0
1116.369385	140.0
1116.396606	100.0
1116.61731	176.0
1116.803589	128.0
1117.00061	104.0
1117.102905	116.0
1117.189453	56.0
1117.329102	196.0
1117.526489	148.0
1117.7948	132.0
1117.907959	68.0
1118.02771	148.0
1118.336304	156.0
1118.460327	140.0
1118.859741	88.0
1119.192749	136.0
1119.519043	144.0
1119.605591	140.0
1119.732056	76.0
1120.058472	172.0
1120.165039	216.0
1120.27832	124.0
1120.378174	120.0
1120.45813	152.0
1120.691406	96.0
1121.230225	124.0
1121.348145	200.0
1121.484375	212.0
1121.53772	156.0
1121.584351	152.0
1121.693726	128.0
1121.975586	156.0
1122.226074	76.0
1122.357666	172.0
1122.557739	120.0
1122.804443	48.0
1122.924561	116.0
1122.997925	36.0
1123.218018	176.0
1123.744995	180.0
1123.885132	68.0
1124.002563	252.0
1124.065308	156.0
1124.225342	180.0
1124.399048	76.0
1124.539185	80.0
1124.751831	124.0
1125.039795	112.0
1125.086548	132.0
1125.133301	180.0
1125.587891	172.0
1125.747559	256.0
1125.841064	192.0
1125.981323	152.0
1126.033203	144.0
1126.123779	156.0
1126.582397	124.0
1126.635864	200.0
1126.922607	92.0
1127.304077	140.0
1127.363281	136.0
1127.43103	120.0
1127.778564	80.0
1127.918945	144.0
1127.985718	100.0
1128.045898	164.0
1128.470581	196.0
1128.721191	180.0
1128.788086	184.0
1128.881714	184.0
1128.941895	288.0
1129.031128	180.0
1129.088989	124.0
1129.155884	136.0
1129.336426	132.0
1129.390015	120.0
1129.503662	68.0
1129.577271	224.0
1129.971924	140.0
1130.104126	200.0
1130.206177	116.0
1130.259644	164.0
1130.353394	184.0
1130.493896	304.0
1130.560791	132.0
1130.634399	80.0
1130.771729	132.0
1130.868652	204.0
1130.975708	152.0
1131.195557	148.0
1131.238892	180.0
1131.329102	132.0
1131.5448	224.0
1131.671997	84.0
1131.956421	172.0
1132.127319	184.0
1132.4823	124.0
1132.570679	188.0
1132.67749	240.0
1132.937744	144.0
1133.125366	152.0
1133.286133	188.0
1133.380005	160.0
1133.507324	148.0
1133.587646	180.0
1133.647949	204.0
1133.735107	164.0
1134.210938	156.0
1134.331665	180.0
1134.59314	164.0
1134.713745	148.0
1134.881348	80.0
1134.935059	176.0
1135.024658	96.0
1135.196289	180.0
1135.384277	132.0
1135.431274	204.0
1135.478149	216.0
1135.68689	212.0
1135.961182	84.0
1136.170898	328.0
1136.217651	116.0
1136.303345	128.0
1136.457642	88.0
1136.564941	208.0
1136.672363	136.0
1136.819946	172.0
1136.866943	144.0
1137.034668	36.0
1137.264526	168.0
1137.484375	232.0
1137.671875	108.0
1137.849121	148.0
1138.014771	168.0
1138.068481	40.0
1138.169189	116.0
1138.316895	144.0
1138.699707	140.0
1138.760132	124.0
1138.941528	48.0
1139.166748	164.0
1139.238647	120.0
1139.579712	188.0
1139.675293	176.0
1139.956055	40.0
1140.527222	144.0
1140.621338	148.0
1140.913086	156.0
1141.112183	124.0
1141.360962	96.0
1141.688721	164.0
1141.905151	204.0
1142.04834	212.0
1142.337769	196.0
1142.477417	116.0
1142.544678	120.0
1142.598511	80.0
1142.652344	148.0
1142.786865	88.0
1142.901245	232.0
1143.148193	164.0
1143.264648	192.0
1143.318481	124.0
1143.415527	192.0
1143.47998	76.0
1143.533813	200.0
1143.630737	188.0
1143.749268	120.0
1143.803101	188.0
1143.930908	116.0
1144.048828	152.0
1144.220459	128.0
1144.300171	152.0
1144.469604	128.0
1144.797241	72.0
1145.250732	192.0
1145.383789	148.0
1145.452759	156.0
1145.580811	184.0
1145.664917	208.0
1145.742432	232.0
1145.86377	224.0
1145.971558	128.0
1146.220825	160.0
1146.591553	40.0
1146.800415	168.0
1146.874634	192.0
1147.149902	148.0
1147.218384	176.0
1147.373413	164.0
1147.447632	176.0
1147.636353	212.0
1147.776367	172.0
1147.87915	180.0
1148.048584	244.0
1148.268921	204.0
1148.441895	108.0
1148.728882	76.0
1148.890869	184.0
1149.215576	188.0
1149.500732	120.0
1149.666748	100.0
1149.781494	88.0
1149.943481	44.0
1150.16394	216.0
1150.281006	52.0
1150.361938	124.0
1150.525757	196.0
1150.584717	184.0
1150.807495	112.0
1151.037109	312.0
1151.131714	108.0
1151.185669	208.0
1151.334229	124.0
1151.402344	164.0
1152.016479	200.0
1152.185303	180.0
1152.455566	144.0
1152.597534	168.0
1152.685303	200.0
1152.827271	172.0
1152.973389	240.0
1153.194702	216.0
1153.445435	176.0
1153.618042	80.0
1153.857422	144.0
1153.942505	168.0
1154.050293	204.0
1154.25354	108.0
1154.398438	272.0
1154.578125	164.0
1154.725586	196.0
1154.979736	160.0
1155.100586	164.0
1155.186523	148.0
1155.271851	188.0
1155.356079	80.0
1155.578369	120.0
1155.934082	200.0
1155.992065	176.0
1156.161499	184.0
1156.225952	140.0
1156.432007	96.0
1156.499634	128.0
1156.655273	204.0
1156.735596	148.0
1156.831299	192.0
1156.912598	124.0
1156.980225	160.0
1157.52478	224.0
1157.609985	132.0
1157.711548	112.0
1157.806396	220.0
1157.930542	188.0
1158.016235	292.0
1158.476929	144.0
1158.666626	128.0
1158.754639	120.0
1158.971436	212.0
1159.108276	148.0
1159.265747	188.0
1159.365601	144.0
1159.5271	84.0
1159.601685	108.0
1159.710205	72.0
1159.832153	60.0
1159.985962	128.0
1160.295532	148.0
1160.514038	156.0
1160.584717	124.0
1160.75415	92.0
1160.835571	100.0
1160.916992	120.0
1160.966919	140.0
1161.032227	252.0
1161.228882	168.0
1161.283203	160.0
1161.563477	176.0
1161.77771	168.0
1161.893677	148.0
1162.022583	40.0
1162.070068	124.0
1162.165039	60.0
1162.395752	56.0
1162.592529	116.0
1162.687622	180.0
1162.741821	212.0
1162.96582	92.0
1163.074463	148.0
1163.217041	164.0
1163.522461	136.0
1163.753418	168.0
1163.828003	120.0
1163.909546	108.0
1163.986816	124.0
1164.33728	124.0
1164.513916	352.0
1164.575073	168.0
1164.703735	188.0
1164.880249	180.0
1165.133423	120.0
1165.356201	200.0
1165.675659	128.0
1165.736816	172.0
1165.911865	192.0
1165.987061	136.0
1166.049316	60.0
1166.10376	68.0
1166.362793	144.0
1166.559204	48.0
1166.784546	152.0
1166.9823	120.0
1167.130249	212.0
1167.184692	304.0
1167.524658	80.0
1167.687866	116.0
1167.749146	224.0
1167.803467	80.0
1167.953125	216.0
1168.03479	184.0
1168.354492	104.0
1168.463379	120.0
1168.69043	136.0
1168.75415	200.0
1169.062134	132.0
1169.140625	148.0
1169.166138	204.0
1169.259521	100.0
1169.354736	144.0
1169.40918	128.0
1169.749512	92.0
1169.906128	176.0
1170.123657	76.0
1170.21936	140.0
1170.294189	124.0
1170.341919	104.0
1170.403198	172.0
1170.559814	180.0
1170.661865	116.0
1170.715942	124.0
1170.788452	144.0
1170.886597	52.0
1171.119751	180.0
1171.254395	60.0
1171.341553	284.0
1171.567749	100.0
1171.724487	204.0
1171.789062	116.0
1171.865234	80.0
1172.160522	84.0
1172.712524	72.0
1172.760254	156.0
1173.005615	212.0
1173.148804	116.0
1173.203369	156.0
1173.360107	124.0
1173.721558	40.0
1173.873535	264.0
1174.001709	176.0
1174.072388	180.0
1174.328491	136.0
1174.710449	140.0
1174.996948	152.0
1175.05835	164.0
1175.242554	208.0
1175.406372	116.0
1175.501953	216.0
1175.665649	184.0
1175.781738	212.0
1176.013794	60.0
1176.16394	132.0
1176.273071	108.0
1176.378906	148.0
1176.437012	236.0
1176.491577	120.0
1176.607178	172.0
1176.798828	112.0
1176.944214	188.0
1177.133423	176.0
1177.251587	144.0
1177.433838	168.0
1177.590942	44.0
1177.64563	284.0
1177.918823	180.0
1178.034912	88.0
1178.082764	104.0
1178.144287	144.0
1178.192017	148.0
1178.308228	160.0
1178.574707	144.0
1178.632935	128.0
1178.68042	132.0
1178.745483	200.0
1178.848022	136.0
1179.210205	140.0
1179.264893	128.0
1179.367432	232.0
1179.681885	64.0
1179.948486	88.0
1180.072876	180.0
1180.153564	244.0
1180.304565	144.0
1180.366821	172.0
1180.426025	200.0
1180.844238	120.0
1180.926392	160.0
1181.100342	148.0
1181.1521	132.0
1181.343628	272.0
1181.446167	80.0
1181.699341	180.0
1181.849854	76.0
1181.974609	216.0
1182.089355	44.0
1182.212524	156.0
1182.267334	92.0
1182.339355	100.0
1182.484009	188.0
1182.543823	196.0
1182.699585	164.0
1182.814819	120.0
1182.862793	116.0
1182.951782	68.0
1183.245605	152.0
1183.46521	152.0
1183.540527	160.0
1183.615845	52.0
1183.780151	144.0
1184.023438	132.0
1184.122559	160.0
1184.533569	148.0
1184.608887	140.0
1184.732178	144.0
1184.96521	264.0
1185.012207	144.0
1185.184448	104.0
1185.369385	188.0
1185.712036	116.0
1185.766968	208.0
1185.965698	56.0
1186.022949	180.0
1186.095947	84.0
1186.185059	60.0
1186.322144	144.0
1186.405518	144.0
1186.457397	152.0
1186.596313	216.0
1186.752441	188.0
1186.84314	28.0
1186.959717	188.0
1187.055786	180.0
1187.10376	324.0
1187.34375	116.0
1187.503418	172.0
1187.590698	176.0
1187.709229	196.0
1187.789551	116.0
1188.062744	208.0
1188.372681	208.0
1188.448242	152.0
1188.509155	140.0
1188.533447	124.0
1188.565308	68.0
1188.65686	188.0
1188.873047	152.0
1189.093262	208.0
1189.443359	124.0
1189.511963	272.0
1189.634155	148.0
1189.875854	128.0
1190.119507	164.0
1190.315186	208.0
1190.390747	140.0
1190.569336	164.0
1190.775391	172.0
1190.894531	136.0
1191.015747	96.0
1191.084473	176.0
1191.251465	140.0
1191.310181	172.0
1191.390259	160.0
1191.572144	152.0
1191.640869	196.0
1191.807739	224.0
1192.225342	156.0
1192.279907	268.0
1192.362427	268.0
1192.508545	252.0
1192.575439	112.0
1192.829834	276.0
1192.980591	212.0
1193.063477	136.0
1193.145996	240.0
1193.355835	168.0
1193.489746	100.0
1193.58606	152.0
1193.868042	128.0
1194.039917	56.0
1194.23938	220.0
1194.473267	316.0
1194.52832	80.0
1194.713989	140.0
1194.947998	144.0
1195.019897	168.0
1195.192261	180.0
1195.374512	72.0
1195.512207	88.0
1195.608521	128.0
1195.725464	124.0
1195.858398	104.0
1196.042114	56.0
1196.090332	112.0
1196.186646	124.0
1196.310547	168.0
1196.400146	72.0
1196.4552	144.0
1196.637573	180.0
1196.971191	152.0
1197.118896	132.0
1197.240112	156.0
1197.308105	128.0
1197.501831	116.0
1197.591431	128.0
1197.65332	152.0
1197.846191	188.0
1197.982788	176.0
1198.038696	68.0
1198.049561	140.0
1198.182495	172.0
1198.287476	208.0
1198.418091	108.0
1198.466309	144.0
1198.604126	112.0
1198.693726	156.0
1199.181274	148.0
1199.555176	208.0
1199.789551	52.0
1199.872314	112.0
1199.975708	196.0
1200.368774	116.0
1200.423096	160.0
1200.536377	132.0
1200.837646	136.0
1201.051514	196.0
1201.251587	124.0
1201.782837	288.0
1201.831055	328.0
1201.893188	240.0
1201.941528	264.0
1202.10022	84.0
1202.206665	112.0
1202.341675	104.0
1202.408691	136.0
1202.731079	108.0
1202.845581	236.0
1202.921509	136.0
1203.529053	184.0
1203.674072	232.0
1203.751343	148.0
1203.874268	152.0
1204.150513	224.0
1204.240356	96.0
1204.456299	272.0
1204.710083	92.0
1204.804077	152.0
1204.889648	112.0
1204.961426	136.0
1205.090088	148.0
1205.338745	132.0
1205.456299	168.0
1205.52124	224.0
1205.64978	152.0
1205.753418	120.0
1206.078247	108.0
1206.147339	220.0
1206.224121	176.0
1206.295898	124.0
1206.367554	212.0
1206.37854	180.0
1206.408569	112.0
1206.432739	156.0
1206.5	124.0
1206.598999	124.0
1206.658936	404.0
1206.845581	60.0
1207.039307	160.0
1207.141357	280.0
1207.212158	120.0
1207.302002	180.0
1207.37561	128.0
1207.477417	164.0
1207.542236	192.0
1207.696289	152.0
1207.777466	184.0
1207.877319	188.0
1207.938354	180.0
1208.201172	100.0
1208.430054	176.0
1208.463623	180.0
1208.793701	196.0
1208.927734	168.0
1209.183838	48.0
1209.287598	220.0
1209.343018	216.0
1209.526855	220.0
1209.723755	120.0
1209.799805	124.0
1209.986816	308.0
1210.115234	152.0
1210.271118	196.0
1210.390869	208.0
1210.561523	164.0
1210.658447	172.0
1210.790039	136.0
1210.878174	132.0
1211.087769	236.0
1211.164062	172.0
1211.323364	144.0
1211.411621	196.0
1211.487061	288.0
1211.579712	196.0
1211.655884	128.0
1211.891479	92.0
1211.946899	180.0
1212.067871	180.0
1212.081787	84.0
1212.108887	136.0
1212.325317	84.0
1212.632935	128.0
1212.709106	128.0
1212.787964	284.0
1212.930908	128.0
1213.24292	160.0
1213.339966	184.0
1213.430054	52.0
1213.513306	116.0
1213.58667	168.0
1213.804565	128.0
1213.894653	104.0
1214.041992	128.0
1214.276123	164.0
1214.345459	296.0
1214.434326	204.0
1214.628052	204.0
1214.655151	152.0
1214.775513	60.0
1214.830933	28.0
1215.143555	128.0
1215.222534	164.0
1215.295776	216.0
1215.455444	72.0
1215.545654	108.0
1215.7052	60.0
1215.955078	156.0
1216.059692	56.0
1216.184082	152.0
1216.371582	72.0
1216.461792	188.0
1216.552002	140.0
1216.843628	168.0
1216.96167	216.0
1217.06311	128.0
1217.149048	172.0
1217.246338	148.0
1217.446045	168.0
1217.51709	132.0
1217.567383	156.0
1217.628296	96.0
1217.736572	136.0
1217.794922	72.0
1218.010254	116.0
1218.08667	172.0
1218.14917	80.0
1218.278564	184.0
1218.361572	140.0
1218.473145	196.0
1218.649414	156.0
1218.802246	144.0
1219.059326	164.0
1219.253906	184.0
1219.365112	172.0
1219.559814	120.0
1219.629272	244.0
1219.796143	104.0
1219.851685	200.0
1219.907349	220.0
1220.011597	72.0
1220.088135	224.0
1220.14856	200.0
1220.442627	144.0
1220.546997	120.0
1220.609497	100.0
1220.720825	136.0
1220.917969	112.0
1220.946777	40.0
1220.962036	132.0
1221.01416	180.0
1221.103027	128.0
1221.24353	208.0
1221.374512	128.0
1221.423218	180.0
1221.744751	196.0
1221.882324	132.0
1221.944946	192.0
1222.014526	108.0
1222.376343	176.0
1222.508667	80.0
1222.578247	52.0
1222.780029	120.0
1223.09082	164.0
1223.120361	108.0
1223.136963	152.0
1223.258423	136.0
1223.395874	160.0
1223.476074	184.0
1223.56665	124.0
1223.684937	168.0
1223.754639	192.0
1223.816406	152.0
1223.860352	184.0
1224.076172	296.0
1224.144531	124.0
1224.262939	208.0
1224.341187	184.0
1224.443848	184.0
1224.534546	112.0
1224.682129	180.0
1224.910645	176.0
1225.008545	84.0
1225.056885	224.0
1225.19043	156.0
1225.265991	172.0
1225.45105	136.0
1225.558594	204.0
1225.706665	260.0
1225.795532	44.0
1226.053345	164.0
1226.206665	392.0
1226.297241	156.0
1226.444336	172.0
1226.61792	100.0
1226.751587	208.0
1226.875854	148.0
1226.93457	148.0
1227.057129	164.0
1227.112915	148.0
1227.269775	136.0
1227.398438	164.0
1227.712524	108.0
1227.761353	144.0
1227.882446	172.0
1228.089111	160.0
1228.235596	196.0
1228.314697	132.0
1228.538696	168.0
1228.863525	116.0
1229.099365	140.0
1229.254272	108.0
1229.390869	152.0
1229.650269	160.0
1229.675537	120.0
1229.703735	204.0
1230.007935	136.0
1230.189453	100.0
1230.25293	340.0
1230.51062	128.0
1230.608398	44.0
1230.713135	192.0
1230.768921	116.0
1230.922607	140.0
1231.024902	188.0
1231.292725	148.0
1231.388916	212.0
1231.453369	160.0
1231.502197	112.0
1231.669922	120.0
1231.739746	124.0
1231.823486	40.0
1231.942871	140.0
1232.27063	52.0
1232.359009	148.0
1232.414795	176.0
1232.557129	96.0
1232.681641	196.0
1233.011353	48.0
1233.116211	120.0
1233.242065	108.0
1233.444702	184.0
1233.561279	224.0
1233.871094	108.0
1233.996948	124.0
1234.136841	96.0
1234.325562	132.0
1234.451538	204.0
1234.701294	220.0
1234.84314	112.0
1234.913086	116.0
1235.108887	212.0
1235.216431	220.0
1235.330811	148.0
1235.440796	164.0
1235.50769	148.0
1235.808472	84.0
1235.867798	136.0
1236.095337	184.0
1236.158325	136.0
1236.361328	204.0
1236.513062	168.0
1236.606201	180.0
1236.753296	140.0
1236.956177	88.0
1237.047241	288.0
1237.117188	56.0
1237.285278	104.0
1237.334229	144.0
1237.418213	144.0
1237.502319	104.0
1237.572266	120.0
1237.75	216.0
1237.825317	124.0
1237.924927	68.0
1238.16748	168.0
1238.384644	156.0
1238.454712	136.0
1238.615845	96.0
1238.692871	184.0
1238.839966	196.0
1239.015137	156.0
1239.2323	120.0
1239.302368	172.0
1239.386475	140.0
1239.568604	132.0
1239.757812	72.0
1239.947021	116.0
1240.066162	136.0
1240.217529	116.0
1240.310425	204.0
1240.388672	228.0
1240.437744	164.0
1240.640991	116.0
1240.748291	212.0
1240.816284	176.0
1240.997559	320.0
1241.10376	196.0
1241.166382	132.0
1241.442383	132.0
1241.501343	200.0
1241.689087	136.0
1241.804932	76.0
1241.97229	108.0
1242.043457	188.0
1242.19043	192.0
1242.274902	136.0
1242.366089	224.0
1242.49939	124.0
1242.555542	172.0
1242.604736	124.0
1242.715332	176.0
1243.004639	172.0
1243.287598	188.0
1243.390625	108.0
1243.57312	148.0
1243.642334	172.0
1243.952148	148.0
1244.016968	116.0
1244.085327	144.0
1244.225952	244.0
1244.324219	52.0
1244.492676	112.0
1244.60498	156.0
1244.675293	364.0
1244.844238	196.0
1244.902344	128.0
1245.022217	156.0
1245.288818	200.0
1245.504028	208.0
1245.594971	176.0
1245.862183	108.0
1245.991333	212.0
1246.059814	168.0
1246.115112	216.0
1246.195679	156.0
1246.336548	332.0
1246.411743	184.0
1246.515625	100.0
1246.67688	128.0
1246.810791	164.0
1246.930298	176.0
1247.084961	52.0
1247.211426	104.0
1247.299438	200.0
1247.373047	176.0
1247.429321	176.0
1247.492554	100.0
1247.588379	284.0
1247.81604	120.0
1248.055054	164.0
1248.125366	136.0
1248.251953	192.0
1248.322266	112.0
1248.560303	136.0
1248.779419	160.0
1248.934082	108.0
1249.025513	188.0
1249.412476	48.0
1249.526978	128.0
1249.588379	100.0
1249.714966	120.0
1249.876831	184.0
1249.981079	176.0
1250.18335	156.0
1250.256836	144.0
1250.348267	104.0
1250.423828	116.0
1250.487671	176.0
1250.573486	64.0
1250.622803	196.0
1250.728394	104.0
1250.919189	164.0
1250.981812	132.0
1251.031128	188.0
1251.171875	272.0
1251.366455	208.0
1251.545044	140.0
1251.71814	148.0
1251.777466	108.0
1252.355835	256.0
1252.595703	180.0
1252.818115	184.0
1252.932007	120.0
1252.984497	180.0
1253.099731	240.0
1253.28479	172.0
1253.341187	164.0
1253.397583	164.0
1253.518311	152.0
1253.633423	160.0
1253.658936	124.0
1253.674316	172.0
1253.770996	180.0
1253.911987	64.0
1253.980469	184.0
1254.060059	188.0
1254.18689	148.0
1254.539307	88.0
1254.719238	176.0
1254.849487	140.0
1254.993774	104.0
1255.138672	192.0
1255.258545	108.0
1255.452881	184.0
1255.561768	204.0
1255.792847	144.0
1255.838501	148.0
1255.928467	224.0
1256.147095	96.0
1256.372925	140.0
1256.422241	136.0
1256.732666	236.0
1256.866821	212.0
1257.000854	100.0
1257.219604	128.0
1257.269043	160.0
1257.364502	248.0
1257.548096	132.0
1257.783569	156.0
1258.073608	96.0
1258.214844	220.0
1258.303955	140.0
1258.436523	132.0
1258.494263	148.0
1258.610229	124.0
1258.684204	108.0
1258.888672	176.0
1258.956299	384.0
1259.040527	64.0
1259.165527	168.0
1259.224609	132.0
1259.333618	332.0
1259.381226	172.0
1259.430542	216.0
1259.641357	168.0
1259.731934	348.0
1259.853271	192.0
1259.952148	124.0
1260.190186	200.0
1260.369019	104.0
1260.439697	176.0
1260.625366	148.0
1260.672852	192.0
1260.830933	56.0
1260.906128	132.0
1260.976807	96.0
1261.287842	108.0
1261.386719	204.0
1261.443359	200.0
1261.619995	112.0
1261.773315	136.0
1261.880249	192.0
1261.895996	156.0
1261.918457	196.0
1262.26355	224.0
1262.730225	108.0
1262.800903	292.0
1262.850464	108.0
1262.937744	176.0
1263.045898	264.0
1263.097168	144.0
1263.211182	204.0
1263.446777	148.0
1263.66394	132.0
1263.720581	124.0
1263.883301	36.0
1264.013916	148.0
1264.129517	144.0
1264.276489	120.0
1264.484741	140.0
1264.569702	164.0
1264.888306	172.0
1265.113525	184.0
1265.171387	188.0
1265.263428	120.0
1265.320068	180.0
1265.43335	208.0
1265.51123	152.0
1265.757568	340.0
1265.91394	124.0
1265.985718	124.0
1266.035278	132.0
1266.113892	276.0
1266.220459	144.0
1266.346924	60.0
1266.446045	120.0
1266.502197	160.0
1266.661499	188.0
1266.814331	148.0
1266.885254	148.0
1266.948975	40.0
1267.108887	148.0
1267.168579	376.0
1267.281372	160.0
1267.452026	284.0
1267.578369	148.0
1267.685791	28.0
1267.756714	124.0
1267.806274	200.0
1268.210327	148.0
1268.313721	156.0
1268.465454	112.0
1268.522217	188.0
1268.571777	160.0
1268.713379	152.0
1268.898804	128.0
1269.046753	28.0
1269.242188	212.0
1269.443848	96.0
1269.5271	152.0
1269.649658	180.0
1269.710205	152.0
1269.727173	84.0
1269.751953	148.0
1269.841064	152.0
1269.98291	184.0
1270.089233	148.0
1270.174438	136.0
1270.503052	180.0
1270.584351	192.0
1270.64563	112.0
1270.724976	240.0
1270.848633	120.0
1271.046997	100.0
1271.09668	140.0
1271.203369	136.0
1271.291016	148.0
1271.373535	208.0
1271.444458	132.0
1271.507202	100.0
1271.629028	164.0
1271.709473	204.0
1271.792236	84.0
1271.863159	144.0
1272.005981	144.0
1272.084839	184.0
1272.181763	272.0
1272.303345	160.0
1272.49939	156.0
1272.520508	96.0
1272.541504	212.0
1272.601562	160.0
1272.690796	180.0
1272.821655	160.0
1272.951782	220.0
1273.247681	120.0
1273.332886	128.0
1273.411011	136.0
1273.55542	112.0
1273.730713	124.0
1273.7854	220.0
1273.84668	148.0
1273.950928	136.0
1274.220825	72.0
1274.323853	172.0
1274.640015	204.0
1274.753052	144.0
1274.777588	124.0
1275.052979	156.0
1275.329468	176.0
1275.558228	168.0
1275.639893	196.0
1275.734619	100.0
1275.791504	120.0
1275.947876	160.0
1276.00708	144.0
1276.118286	140.0
1276.302124	112.0
1276.389404	176.0
1276.499023	104.0
1276.552246	120.0
1276.753784	324.0
1276.833618	196.0
1276.997314	172.0
1277.106934	172.0
1277.249268	76.0
1277.299072	112.0
1277.455566	168.0
1277.853882	160.0
1277.949463	196.0
1278.209717	180.0
1278.366211	164.0
1278.430298	84.0
1278.480103	308.0
1278.586914	136.0
1278.900024	108.0
1279.153687	184.0
1279.668823	212.0
1279.794067	172.0
1279.974976	312.0
1280.138794	84.0
1280.210571	244.0
1280.309692	172.0
1280.380981	100.0
1280.516235	48.0
1280.59021	124.0
1280.776123	132.0
1280.82605	156.0
1280.879517	48.0
1281.128784	152.0
1281.210571	196.0
1281.26416	136.0
1281.477905	140.0
1281.6604	244.0
1281.689209	148.0
1281.714722	192.0
1281.841309	64.0
1281.983887	108.0
1282.147827	208.0
1282.404297	160.0
1282.465332	136.0
1282.725098	128.0
1282.810791	152.0
1282.9104	132.0
1283.04834	140.0
1283.13855	136.0
1283.210571	176.0
1283.395264	160.0
1283.502197	232.0
1283.651978	132.0
1283.730347	116.0
1283.808838	124.0
1283.865845	144.0
1283.965698	108.0
1284.086914	108.0
1284.165405	188.0
1284.236694	144.0
1284.400757	180.0
1284.571899	156.0
1284.720337	160.0
1284.826294	80.0
1284.971924	164.0
1285.028564	164.0
1285.13562	88.0
1285.264038	96.0
1285.528076	200.0
1285.592285	112.0
1285.654053	128.0
1285.686157	52.0
1285.718628	136.0
1285.799316	32.0
1285.855225	180.0
1286.08313	252.0
1286.17041	152.0
1286.250854	344.0
1286.323242	192.0
1286.424072	184.0
1286.491577	152.0
1286.577271	116.0
1286.777222	64.0
1286.862915	132.0
1286.950073	220.0
1287.223389	172.0
1287.341309	80.0
1287.535522	192.0
1287.679932	160.0
1287.826904	124.0
1287.955444	160.0
1288.100342	156.0
1288.198364	208.0
1288.334106	88.0
1288.476929	116.0
1288.531982	244.0
1288.677002	192.0
1288.744263	132.0
1288.817261	188.0
1288.912842	192.0
1289.088013	68.0
1289.183838	164.0
1289.341553	224.0
1289.399048	184.0
1289.608887	140.0
1289.687378	164.0
1289.81189	156.0
1289.883179	108.0
1290.02771	168.0
1290.099243	140.0
1290.149292	168.0
1290.245605	168.0
1290.33728	160.0
1290.390503	252.0
1290.463867	68.0
1290.75708	172.0
1290.849976	192.0
1291.151123	152.0
1291.357788	160.0
1291.536621	64.0
1291.67041	152.0
1291.810913	196.0
1291.937622	136.0
1292.123657	180.0
1292.330688	152.0
1292.459473	164.0
1292.509521	276.0
1292.571289	264.0
1292.731323	88.0
1292.802979	152.0
1293.050049	164.0
1293.125	144.0
1293.175049	188.0
1293.296753	160.0
1293.368286	92.0
1293.418457	168.0
1293.572144	164.0
1293.857788	120.0
1293.94104	112.0
1294.081665	172.0
1294.220215	184.0
1294.306152	132.0
1294.442261	160.0
1294.49231	156.0
1294.578247	156.0
1294.628418	152.0
1294.692871	180.0
1294.750122	80.0
1294.914917	128.0
1294.972168	72.0
1295.068237	172.0
1295.136963	184.0
1295.195435	116.0
1295.248169	128.0
1295.41626	184.0
1295.552368	128.0
1295.645508	196.0
1295.74585	216.0
1295.975098	136.0
1296.067261	292.0
1296.154297	140.0
1296.323364	172.0
1296.397827	172.0
1296.476685	196.0
1296.590088	220.0
1296.709961	148.0
1296.849365	176.0
1297.071533	88.0
1297.157593	200.0
1297.503174	228.0
1297.602051	172.0
1297.772217	244.0
1297.816895	92.0
1297.903198	132.0
1297.967773	84.0
1298.469727	132.0
1298.562988	152.0
1298.640625	140.0
1298.778198	148.0
1298.878296	168.0
1298.997192	200.0
1299.094849	148.0
1299.2229	80.0
1299.293091	284.0
1299.383911	184.0
1299.406982	80.0
1299.439453	156.0
1299.463135	108.0
1299.518188	184.0
1299.603149	124.0
1299.682129	56.0
1299.785645	60.0
1299.847168	172.0
1300.054443	156.0
1300.118774	144.0
1300.241821	108.0
1300.346802	76.0
1300.421265	148.0
1300.505981	100.0
1300.574585	168.0
1300.729614	192.0
1300.830444	168.0
1300.981201	140.0
1301.038574	120.0
1301.124878	148.0
1301.22522	104.0
1301.275513	60.0
1301.352051	360.0
1301.371338	188.0
1301.392822	188.0
1301.512451	368.0
1301.598633	140.0
1301.814087	92.0
1301.864258	216.0
1302.027344	124.0
1302.108521	248.0
1302.1875	96.0
1302.284058	164.0
1302.345459	152.0
1302.439087	124.0
1302.675903	176.0
1302.772461	180.0
1303.035156	156.0
1303.085449	144.0
1303.139648	292.0
1303.401611	184.0
1303.516479	156.0
1303.581177	120.0
1303.63147	200.0
1303.691284	148.0
1303.775269	88.0
1303.985229	184.0
1304.075317	180.0
1304.272339	212.0
1304.361938	148.0
1304.426392	224.0
1304.522705	84.0
1304.594604	180.0
1304.780762	148.0
1304.954102	244.0
1305.011597	100.0
1305.177124	164.0
1305.292114	164.0
1305.356812	148.0
1305.421509	244.0
1305.479004	120.0
1305.558105	172.0
1305.766724	196.0
1306.002808	164.0
1306.206787	200.0
1306.378052	188.0
1306.493164	212.0
1306.716187	168.0
1306.79541	220.0
1306.845703	168.0
1306.941284	368.0
1307.045166	116.0
1307.210938	100.0
1307.284668	132.0
1307.356567	36.0
1307.68689	156.0
1307.704956	140.0
1307.733276	212.0
1307.88208	104.0
1307.98999	152.0
1308.160767	264.0
1308.233765	148.0
1308.51062	140.0
1308.587524	96.0
1308.666748	160.0
1308.803467	128.0
1308.86792	84.0
1308.923096	204.0
1309.005127	148.0
1309.062744	120.0
1309.199585	132.0
1309.271606	224.0
1309.365234	140.0
1309.466064	64.0
1309.528076	172.0
1309.61731	96.0
1309.725342	132.0
1309.804565	180.0
1310.054443	184.0
1310.155396	172.0
1310.428223	164.0
1310.508423	80.0
1310.571655	108.0
1310.647461	264.0
1310.77002	228.0
1310.863647	200.0
1310.957397	164.0
1311.19519	60.0
1311.332153	164.0
1311.425781	92.0
1311.541138	132.0
1311.628418	224.0
1311.887085	196.0
1311.950073	228.0
1312.161133	160.0
1312.298096	220.0
1312.427856	152.0
1312.589844	144.0
1312.639771	88.0
1312.838867	80.0
1312.939819	176.0
1313.004761	124.0
1313.141724	88.0
1313.25	216.0
1313.322144	124.0
1313.451904	160.0
1313.583862	68.0
1313.759644	184.0
1313.884766	152.0
1313.956909	136.0
1314.007446	128.0
1314.19397	88.0
1314.226562	108.0
1314.539551	180.0
1314.685669	124.0
1314.75061	80.0
1314.858887	176.0
1314.909424	140.0
1314.983398	188.0
1315.384155	156.0
1315.501343	124.0
1315.598755	160.0
1315.720093	404.0
1315.984985	144.0
1316.1427	124.0
1316.15332	180.0
1316.230469	212.0
1316.302734	248.0
1316.396606	108.0
1316.531128	120.0
1316.602661	184.0
1316.699829	180.0
1316.779297	172.0
1316.837158	132.0
1316.909668	84.0
1317.015381	140.0
1317.181152	192.0
1317.263916	136.0
1317.32605	196.0
1317.467163	104.0
1317.560913	120.0
1317.684326	196.0
1317.723511	112.0
1317.735107	164.0
1317.841187	224.0
1317.899048	212.0
1318.060181	160.0
1318.374023	328.0
1318.688599	140.0
1318.831299	148.0
1318.917969	132.0
1319.007812	168.0
1319.087158	184.0
1319.322876	164.0
1319.49939	240.0
1319.648193	132.0
1319.908691	108.0
1319.988037	60.0
1320.121094	128.0
1320.501465	140.0
1320.652466	104.0
1320.703979	372.0
1320.924316	192.0
1320.973633	328.0
1321.160522	144.0
1321.222168	116.0
1321.268188	176.0
1321.449097	116.0
1321.661499	236.0
1321.716797	124.0
1321.774658	224.0
1322.01355	152.0
1322.059814	128.0
1322.311768	204.0
1322.368164	160.0
1322.46228	112.0
1322.709595	136.0
1322.766235	264.0
1322.944092	220.0
1323.123779	180.0
1323.242432	160.0
1323.345337	164.0
1323.553223	176.0
1323.620483	168.0
1323.685669	148.0
1323.740845	184.0
1323.801636	92.0
1323.866699	232.0
1323.924683	164.0
1323.99707	176.0
1324.098511	160.0
1324.164185	188.0
1324.331177	124.0
1324.40271	76.0
1324.460693	156.0
1324.57312	152.0
1324.601196	80.0
1324.640381	104.0
1324.658813	164.0
1324.793823	172.0
1324.931519	72.0
1325.076416	168.0
1325.164307	216.0
1325.286499	148.0
1325.583618	144.0
1325.728516	96.0
1325.932129	208.0
1326.065552	152.0
1326.133911	172.0
1326.161011	160.0
1326.315552	132.0
1326.425781	220.0
1326.563843	236.0
1326.638672	300.0
1326.736816	188.0
1326.841675	148.0
1326.917236	116.0
1327.055054	160.0
1327.279785	160.0
1327.355591	132.0
1327.487793	124.0
1327.517456	144.0
1327.613403	136.0
1327.743896	140.0
1327.816406	180.0
1327.910767	156.0
1328.004272	144.0
1328.070312	132.0
1328.18689	156.0
1328.396729	160.0
1328.578125	104.0
1328.657837	132.0
1328.752197	184.0
1328.914185	156.0
1329.071411	140.0
1329.207642	228.0
1329.234009	176.0
1329.310913	200.0
1329.376221	112.0
1329.532837	116.0
1329.615723	180.0
1329.688232	140.0
1329.758179	108.0
1329.884277	132.0
1330.058472	120.0
1330.109253	108.0
1330.21814	172.0
1330.290771	204.0
1330.341553	120.0
1330.56665	160.0
1330.668213	164.0
1330.745605	152.0
1330.852417	232.0
1330.915161	208.0
1331.029419	128.0
1331.089355	120.0
1331.228882	204.0
1331.403564	132.0
1331.588501	144.0
1331.868774	192.0
1331.938477	128.0
1332.004517	120.0
1332.069824	100.0
1332.159058	168.0
1332.215088	224.0
1332.265991	184.0
1332.382202	156.0
1332.46936	216.0
1332.745483	252.0
1332.880127	168.0
1332.992554	120.0
1333.166992	96.0
1333.341431	124.0
1333.460327	176.0
1333.488281	128.0
1333.595825	152.0
1333.759888	152.0
1333.901001	180.0
1333.959229	136.0
1334.228149	172.0
1334.366333	144.0
1334.482666	68.0
1334.599976	184.0
1334.766235	176.0
1334.838989	120.0
1334.96106	140.0
1335.09314	212.0
1335.24353	160.0
1335.349121	164.0
1335.427979	136.0
1335.488403	384.0
1335.597046	104.0
1335.718994	80.0
1335.867065	124.0
1335.937256	76.0
1335.995361	204.0
1336.075439	152.0
1336.148193	164.0
1336.398804	160.0
1336.49939	120.0
1336.681885	168.0
1336.897583	136.0
1337.116577	140.0
1337.217896	160.0
1337.297974	168.0
1337.421631	88.0
1337.792847	240.0
1337.997192	200.0
1338.062256	376.0
1338.171509	92.0
1338.236938	164.0
1338.368042	92.0
1338.462769	116.0
1338.688721	340.0
1338.78064	92.0
1338.822876	112.0
1338.932007	140.0
1339.045288	108.0
1339.150146	176.0
1339.253906	260.0
1339.314819	56.0
1339.569702	72.0
1339.753418	200.0
1339.846558	120.0
1339.924072	180.0
1339.972534	148.0
1340.159912	200.0
1340.291016	100.0
1340.356567	200.0
1340.422119	132.0
1340.490234	64.0
1340.567871	140.0
1340.625244	296.0
1340.735474	108.0
1340.954224	180.0
1341.012451	100.0
1341.189575	164.0
1341.253052	164.0
1341.336548	136.0
1341.463257	196.0
1341.541016	144.0
1341.741455	92.0
1341.843506	108.0
1341.901855	204.0
1342.054932	136.0
1342.237183	116.0
1342.42688	164.0
1342.552368	164.0
1342.611572	120.0
1342.740356	136.0
1342.80603	396.0
1343.061279	88.0
1343.148804	92.0
1343.382324	180.0
1343.455444	140.0
1343.632568	128.0
1343.665405	128.0
1343.677368	232.0
1343.761597	44.0
1343.854492	172.0
1343.917236	468.0
1344.0896	140.0
1344.15564	192.0
1344.446411	200.0
1344.637329	184.0
1344.788086	188.0
1344.924683	296.0
1345.0177	180.0
1345.162842	92.0
1345.222656	104.0
1345.272339	324.0
1345.38208	208.0
1345.491333	132.0
1345.624756	188.0
1345.724976	176.0
1345.987793	160.0
1346.068115	60.0
1346.185059	120.0
1346.243408	84.0
1346.360229	164.0
1346.418701	228.0
1346.510864	200.0
1346.601318	76.0
1346.709961	132.0
1346.915405	156.0
1347.015015	144.0
1347.239258	132.0
1347.270996	112.0
1347.37561	144.0
1347.441406	48.0
1347.536377	140.0
1347.696045	168.0
1347.974731	112.0
1348.031616	112.0
1348.13208	144.0
1348.215942	196.0
1348.281372	240.0
1348.319824	264.0
1348.407471	128.0
1348.535645	332.0
1348.778442	156.0
1348.885132	188.0
1349.044434	204.0
1349.385376	120.0
1349.453369	120.0
1349.604736	144.0
1349.692505	116.0
1349.88269	244.0
1350.006592	156.0
1350.072754	160.0
1350.328735	140.0
1350.501465	296.0
1350.570068	144.0
1350.653809	236.0
1350.731079	196.0
1351.029541	164.0
1351.145752	184.0
1351.447998	176.0
1351.539429	212.0
1351.604492	132.0
1351.736816	200.0
1351.930908	132.0
1352.267578	76.0
1352.43042	212.0
1352.676147	212.0
1352.721558	248.0
1352.820679	200.0
1352.949585	172.0
1353.189941	84.0
1353.337036	224.0
1353.445679	128.0
1353.560425	128.0
1353.673218	160.0
1353.761108	136.0
1353.915649	144.0
1353.989624	140.0
1354.079346	152.0
1354.215454	208.0
1354.325073	120.0
1354.39502	136.0
1354.422119	184.0
1354.494995	236.0
1354.563721	296.0
1354.669312	176.0
1354.727905	96.0
1354.779175	112.0
1354.860962	152.0
1355.101562	180.0
1355.182129	180.0
1355.291992	116.0
1355.391357	204.0
1355.482544	144.0
1355.603271	236.0
1355.760986	112.0
1355.812378	76.0
1355.867065	212.0
1356.002441	188.0
1356.087891	132.0
1356.185181	168.0
1356.303345	96.0
1356.427979	88.0
1356.515991	160.0
1356.625977	108.0
1356.755737	112.0
1356.816528	92.0
1356.925903	148.0
1357.117188	216.0
1357.196899	136.0
1357.393677	168.0
1357.493286	128.0
1357.734375	164.0
1357.894409	92.0
1358.242065	200.0
1358.386841	120.0
1358.481201	160.0
1358.62793	144.0
1358.77356	128.0
1358.839722	176.0
1358.95813	188.0
1359.017456	136.0
1359.293701	184.0
1359.372681	116.0
1359.442383	164.0
1359.527344	364.0
1359.838745	64.0
1359.940796	224.0
1360.139648	52.0
1360.223755	160.0
1360.326538	140.0
1360.522339	148.0
1360.675537	224.0
1360.78186	192.0
1360.973511	220.0
1361.173584	160.0
1361.285034	164.0
1361.428345	200.0
1361.578247	96.0
1361.618408	152.0
1361.674194	128.0
1361.75293	200.0
1361.773315	144.0
1361.794067	128.0
1362.054199	204.0
1362.125122	144.0
1362.423462	180.0
1362.526367	132.0
1362.636475	48.0
1362.746704	276.0
1362.812866	188.0
1362.950562	192.0
1363.025879	180.0
1363.128784	176.0
1363.194946	96.0
1363.343628	124.0
1363.415405	176.0
1363.571045	284.0
1363.679932	60.0
1363.73877	176.0
1363.797607	168.0
1363.929932	220.0
1363.981323	168.0
1364.133179	148.0
1364.216431	200.0
1364.297485	208.0
1364.457886	296.0
1364.523071	104.0
1364.606201	120.0
1364.916748	232.0
1365.025391	92.0
1365.084229	176.0
1365.204102	140.0
1365.274414	132.0
1365.497314	108.0
1365.596558	156.0
1365.770508	164.0
1365.875122	96.0
1365.966797	204.0
1366.068726	344.0
1366.144287	156.0
1366.262939	172.0
1366.393433	124.0
1366.489136	128.0
1366.562622	224.0
1366.720581	196.0
1366.797729	144.0
1366.890259	156.0
1367.070435	136.0
1367.121948	128.0
1367.1875	136.0
1367.342651	136.0
1367.46167	236.0
1367.577515	44.0
1367.651367	132.0
1367.729126	116.0
1368.160278	316.0
1368.260742	168.0
1368.380615	144.0
1368.476318	192.0
1368.535156	164.0
1368.586792	152.0
1368.699341	164.0
1368.822388	160.0
1368.94751	116.0
1369.095215	184.0
1369.215088	180.0
1369.290771	160.0
1369.529419	200.0
1369.580933	160.0
1369.654541	176.0
1369.75769	32.0
1369.900146	212.0
1369.971313	188.0
1370.045044	168.0
1370.095947	148.0
1370.15686	204.0
1370.313232	168.0
1370.384521	204.0
1370.486206	144.0
1370.512451	128.0
1370.581543	128.0
1370.730225	140.0
1370.796509	68.0
1370.875732	156.0
1370.896484	116.0
1371.091309	148.0
1371.201904	164.0
1371.365967	104.0
1371.487183	84.0
1371.650391	132.0
1371.732544	76.0
1371.78418	224.0
1371.900879	148.0
1372.015381	200.0
1372.171265	164.0
1372.233887	68.0
1372.366577	80.0
1372.418213	168.0
1372.48584	180.0
1372.595215	216.0
1372.661499	160.0
1372.793213	340.0
1372.869629	360.0
1372.945435	120.0
1372.958862	192.0
1373.026367	76.0
1373.06604	156.0
1373.1521	252.0
1373.22937	96.0
1373.362183	172.0
1373.421143	156.0
1373.502686	80.0
1373.528076	236.0
1373.716187	128.0
1373.816772	160.0
1374.040894	64.0
1374.144165	92.0
1374.203125	124.0
1374.308594	168.0
1374.424561	112.0
1374.487183	164.0
1374.771362	88.0
1374.852539	364.0
1375.024292	336.0
1375.088623	124.0
1375.181519	192.0
1375.256958	404.0
1375.42334	152.0
1375.531494	64.0
1375.701294	132.0
1375.841553	144.0
1376.077881	248.0
1376.198853	196.0
1376.33374	128.0
1376.566772	188.0
1376.786743	144.0
1376.999268	148.0
1377.028687	116.0
1377.044189	236.0
1377.108643	236.0
1377.381958	164.0
1377.439697	160.0
1377.554932	92.0
1377.616455	236.0
1377.724731	140.0
1377.798462	124.0
1377.926147	280.0
1378.18457	88.0
1378.404541	152.0
1378.474854	188.0
1378.5354	144.0
1378.59668	280.0
1378.724121	188.0
1378.793823	148.0
1378.892334	124.0
1379.003174	88.0
1379.195312	132.0
1379.24707	144.0
1379.372681	128.0
1379.437134	140.0
1379.786743	192.0
1379.964111	192.0
1380.082397	104.0
1380.296143	128.0
1380.385132	176.0
1380.404907	164.0
1380.511353	252.0
1380.585327	312.0
1380.644409	112.0
1380.72583	144.0
1380.792358	280.0
1380.858887	248.0
1380.969849	128.0
1381.032349	256.0
1381.14978	248.0
1381.211792	164.0
1381.34314	364.0
1381.428223	124.0
1381.539429	204.0
1381.605957	184.0
1381.689453	200.0
1381.776123	120.0
1382.060547	136.0
1382.138428	200.0
1382.263916	152.0
1382.282837	92.0
1382.412842	152.0
1382.508667	100.0
1382.567871	116.0
1382.715942	232.0
1382.805542	120.0
1382.880371	164.0
1382.952759	116.0
1383.078613	336.0
1383.145264	156.0
1383.236694	332.0
1383.43396	80.0
1383.559814	176.0
1383.707886	132.0
1383.759644	104.0
1383.83374	100.0
1383.885498	140.0
1384.064697	76.0
1384.148926	108.0
1384.203979	100.0
1384.37915	180.0
1384.47937	180.0
1384.592529	216.0
1384.72229	148.0
1385.125	176.0
1385.185547	144.0
1385.240845	192.0
1385.334839	184.0
1385.464966	140.0
1385.632568	172.0
1385.722046	252.0
1385.814575	116.0
1385.914551	128.0
1386.003906	164.0
1386.088989	116.0
1386.174316	116.0
1386.258789	60.0
1386.411499	176.0
1386.530884	176.0
1386.685669	180.0
1386.850586	144.0
1386.880493	116.0
1386.895752	176.0
1387.25647	80.0
1387.32312	132.0
1387.552979	164.0
1387.693848	160.0
1387.76062	76.0
1387.886597	164.0
1387.949219	136.0
1388.027588	96.0
1388.169556	176.0
1388.244507	60.0
1388.405396	168.0
1388.472534	132.0
1388.752808	140.0
1388.813599	168.0
1388.873047	96.0
1389.073242	168.0
1389.209839	216.0
1389.300659	184.0
1389.355103	108.0
1389.407104	64.0
1389.621826	160.0
1389.753174	236.0
1389.898804	144.0
1389.99707	196.0
1390.060059	132.0
1390.141602	152.0
1390.327148	220.0
1390.41626	148.0
1390.474243	168.0
1390.569458	180.0
1390.718384	184.0
1390.874268	288.0
1391.069458	84.0
1391.191284	164.0
1391.277222	120.0
1391.485107	164.0
1391.632446	152.0
1391.828491	112.0
1391.963745	284.0
1392.02478	112.0
1392.045288	120.0
1392.153442	144.0
1392.368774	88.0
1392.457886	132.0
1392.550903	132.0
1392.67334	160.0
1393.089233	72.0
1393.173584	172.0
1393.281494	240.0
1393.438477	68.0
1393.616821	160.0
1393.795044	152.0
1393.936279	216.0
1394.099243	84.0
1394.302734	224.0
1394.44165	168.0
1394.575439	180.0
1394.705688	200.0
1394.849854	120.0
1394.906372	212.0
1395.199829	176.0
1395.458984	168.0
1395.652588	136.0
1395.765503	160.0
1395.84668	164.0
1396.106934	144.0
1396.159058	144.0
1396.330078	148.0
1396.486206	244.0
1396.572144	224.0
1396.691162	148.0
1396.79126	192.0
1397.008789	164.0
1397.096191	64.0
1397.207764	152.0
1397.298462	152.0
1397.436157	156.0
1397.460449	108.0
1397.484131	152.0
1397.545166	236.0
1397.674072	84.0
1397.765869	160.0
1397.84021	140.0
1398.004028	108.0
1398.137085	144.0
1398.219849	288.0
1398.41333	116.0
1398.673828	140.0
1398.76416	92.0
1398.822632	84.0
1398.930542	124.0
1399.027222	184.0
1399.090698	192.0
1399.145752	172.0
1399.375488	232.0
1399.408813	60.0
1399.423706	216.0
1399.496948	328.0
1399.549316	208.0
1399.649048	112.0
1399.727783	120.0
1399.755859	152.0
1399.854004	180.0
1399.932007	152.0
1400.05127	180.0
1400.099976	200.0
1400.246582	160.0
1400.37146	192.0
1400.483154	176.0
1400.563721	196.0
1400.703613	168.0
1400.810913	236.0
1400.959961	64.0
1401.066284	452.0
1401.131226	168.0
1401.183472	144.0
1401.239014	360.0
1401.429321	108.0
1401.488037	140.0
1401.593262	152.0
1401.674316	184.0
1401.742188	200.0
1401.813721	136.0
1401.93811	200.0
1402.181885	108.0
1402.491455	148.0
1402.584229	188.0
1402.651489	184.0
1402.755859	100.0
1402.867676	180.0
1402.966187	212.0
1403.040161	112.0
1403.111938	156.0
1403.204102	196.0
1403.329956	112.0
1403.389526	120.0
1403.501343	128.0
1403.655518	160.0
1403.744629	144.0
1403.835938	120.0
1403.941406	300.0
1404.091309	276.0
1404.224731	152.0
1404.299316	168.0
1404.541992	156.0
1404.636475	120.0
1404.801636	176.0
1404.906738	188.0
1405.008057	144.0
1405.212769	108.0
1405.239624	156.0
1405.398682	184.0
1405.461304	148.0
1405.552612	184.0
1405.679932	204.0
1405.746704	128.0
1405.851196	112.0
1405.908691	376.0
1406.007812	188.0
1406.170532	132.0
1406.336304	192.0
1406.472656	176.0
1406.592041	160.0
1406.668823	204.0
1406.754272	156.0
1406.851318	180.0
1406.926025	220.0
1407.009644	312.0
1407.239136	148.0
1407.366455	184.0
1407.500854	188.0
1407.657715	32.0
1407.727173	236.0
1407.808472	172.0
1407.884033	204.0
1408.016113	140.0
1408.079346	256.0
1408.33728	264.0
1408.494141	192.0
1408.643555	136.0
1408.800415	208.0
1408.942383	176.0
1409.102539	212.0
1409.211304	212.0
1409.293579	148.0
1409.381714	132.0
1409.445801	168.0
1409.547607	184.0
1409.652954	260.0
1409.748413	132.0
1409.854004	68.0
1409.921265	208.0
1410.005615	240.0
1410.063232	180.0
1410.139404	84.0
1410.227661	148.0
1410.319458	180.0
1410.435669	188.0
1410.545776	128.0
1410.686768	172.0
1410.703125	164.0
1410.729858	200.0
1410.80896	52.0
1410.867676	64.0
1410.927979	88.0
1411.007812	360.0
1411.062378	128.0
1411.350342	160.0
1411.438721	180.0
1411.511597	172.0
1411.618164	152.0
1411.715454	124.0
1411.899292	224.0
1412.029297	124.0
1412.14917	180.0
1412.253906	140.0
1412.433472	180.0
1412.506104	236.0
1412.612915	112.0
1412.665283	188.0
1412.740112	28.0
1412.796265	40.0
1412.966797	228.0
1413.158569	132.0
1413.233887	144.0
1413.328979	204.0
1413.662109	180.0
1413.75769	92.0
1413.869995	84.0
1413.959717	108.0
1414.017334	172.0
1414.043335	120.0
1414.074097	192.0
1414.363892	168.0
1414.446289	148.0
1414.587036	184.0
1414.655884	180.0
1414.829956	128.0
1414.893799	128.0
1414.970337	148.0
1415.075073	244.0
1415.183716	136.0
1415.307251	80.0
1415.400635	152.0
1415.546875	172.0
1415.714478	136.0
1415.869507	144.0
1415.928101	176.0
1415.985962	204.0
1416.183472	132.0
1416.289429	152.0
1416.510986	204.0
1416.682617	248.0
1416.793823	124.0
1416.865112	32.0
1416.932495	156.0
1417.044922	208.0
1417.112305	140.0
1417.274414	172.0
1417.337036	208.0
1417.459351	180.0
1417.590698	176.0
1417.647339	228.0
1417.741821	208.0
1417.861694	212.0
1417.914185	216.0
1417.989136	192.0
1418.093994	160.0
1418.150757	120.0
1418.218994	160.0
1418.349365	136.0
1418.424438	152.0
1418.509033	152.0
1418.57373	92.0
1418.664673	120.0
1418.846313	176.0
1418.907715	140.0
1418.939087	76.0
1418.968018	196.0
1419.046021	136.0
1419.106323	128.0
1419.196045	144.0
1419.248535	160.0
1419.338501	172.0
1419.480957	64.0
1419.585938	180.0
1419.683472	104.0
1419.810913	60.0
1419.906738	192.0
1419.983398	72.0
1420.05542	164.0
1420.140869	152.0
1420.264526	204.0
1420.335938	136.0
1420.421509	264.0
1420.508423	184.0
1420.583496	168.0
1420.737183	164.0
1420.793579	176.0
1420.891113	124.0
1420.943604	308.0
1421.059204	116.0
1421.112549	140.0
1421.197998	180.0
1421.303711	160.0
1421.390137	168.0
1421.480957	144.0
1421.551392	128.0
1421.615845	260.0
1421.683838	160.0
1422.054199	112.0
1422.148193	104.0
1422.283691	136.0
1422.346924	372.0
1422.671265	324.0
1422.80481	112.0
1422.894897	84.0
1423.067139	136.0
1423.127686	96.0
1423.352905	164.0
1423.405518	168.0
1423.578247	80.0
1423.668335	144.0
1423.743408	80.0
1423.833496	32.0
1423.933716	140.0
1423.963867	160.0
1424.093018	196.0
1424.111206	172.0
1424.279663	148.0
1424.381836	196.0
1424.434082	104.0
1424.640015	140.0
1424.674194	52.0
1424.702026	136.0
1424.772461	184.0
1424.883057	236.0
1425.027954	240.0
1425.118042	108.0
1425.313599	148.0
1425.56897	168.0
1425.769775	240.0
1425.795776	176.0
1425.909912	192.0
1426.081299	180.0
1426.185181	172.0
1426.37207	136.0
1426.48291	124.0
1426.546021	308.0
1426.681274	140.0
1426.784546	192.0
1426.888916	152.0
1427.021851	160.0
1427.206543	140.0
1427.233521	108.0
1427.374146	104.0
1427.567993	116.0
1427.746094	144.0
1427.85083	156.0
1427.906982	104.0
1428.056519	180.0
1428.140137	112.0
1428.245483	180.0
1428.410889	272.0
1428.609619	128.0
1428.70459	132.0
1428.794556	172.0
1428.869873	52.0
1428.950928	268.0
1429.100464	188.0
1429.230957	124.0
1429.338989	92.0
1429.434082	128.0
1429.503296	196.0
1429.577148	176.0
1429.705078	136.0
1429.765259	120.0
1429.825439	120.0
1429.902466	124.0
1430.013672	144.0
1430.103882	92.0
1430.156616	136.0
1430.219116	80.0
1430.305786	168.0
1430.390015	144.0
1430.457764	104.0
1430.72876	36.0
1430.969604	112.0
1431.31311	156.0
1431.380371	220.0
1431.47998	200.0
1431.525757	136.0
1431.609741	120.0
1431.756714	148.0
1431.858154	104.0
1431.971191	152.0
1432.027222	156.0
1432.144409	160.0
1432.197144	284.0
1432.34021	128.0
1432.396851	196.0
1432.505493	188.0
1432.638184	220.0
1432.706421	196.0
1432.745605	124.0
1432.802979	84.0
1432.878296	112.0
1432.949707	160.0
1433.050781	360.0
1433.161377	48.0
1433.274414	228.0
1433.568359	208.0
1433.621094	200.0
1433.74231	144.0
1433.862305	220.0
1433.970459	168.0
1434.025635	124.0
1434.314453	128.0
1434.38855	276.0
1434.439941	176.0
1434.548218	204.0
1434.661255	156.0
1434.827148	172.0
1434.911133	204.0
1435.322144	172.0
1435.475586	40.0
1435.543457	160.0
1435.627808	140.0
1435.694946	176.0
1435.899658	172.0
1436.006714	208.0
1436.290039	80.0
1436.363037	124.0
1436.529297	232.0
1436.574829	356.0
1436.676758	160.0
1436.888306	108.0
1437.044434	32.0
1437.119873	356.0
1437.233765	212.0
1437.301025	184.0
1437.497192	216.0
1437.61792	160.0
1437.891113	168.0
1438.06665	212.0
1438.365112	212.0
1438.425537	220.0
1438.636597	204.0
1438.727539	128.0
1438.787842	100.0
1438.848267	120.0
1438.946411	240.0
1439.029419	228.0
1439.083618	184.0
1439.180542	316.0
1439.285889	160.0
1439.414551	156.0
1439.504272	164.0
1439.571533	112.0
1439.597534	88.0
1439.613403	132.0
1439.7771	136.0
1439.905396	176.0
1440.134033	148.0
1440.219116	196.0
1440.366211	104.0
1440.462402	196.0
1440.653198	136.0
1440.7323	160.0
1440.861572	188.0
1440.984619	200.0
1441.102173	160.0
1441.172852	240.0
1441.529663	112.0
1441.612793	112.0
1441.694824	112.0
1441.771484	268.0
1441.872559	228.0
1441.963745	136.0
1442.054199	100.0
1442.210449	144.0
1442.420654	148.0
1442.5802	148.0
1442.744507	172.0
1442.900635	148.0
1442.972778	104.0
1442.999512	96.0
1443.078125	112.0
1443.102539	96.0
1443.17749	164.0
1443.245605	164.0
1443.321167	100.0
1443.404297	160.0
1443.54187	192.0
1443.605103	152.0
1443.69165	112.0
1443.752197	116.0
1443.827881	96.0
1443.941284	124.0
1444.017822	136.0
1444.122803	224.0
1444.17334	80.0
1444.228638	208.0
1444.417847	124.0
1444.500977	120.0
1444.614502	112.0
1444.697632	176.0
1444.75061	72.0
1444.8479	192.0
1444.954956	164.0
1445.050903	316.0
1445.128906	104.0
1445.196167	160.0
1445.29541	416.0
1445.613159	136.0
1445.733887	164.0
1445.855347	124.0
1446.043335	144.0
1446.112671	100.0
1446.25647	100.0
1446.339722	184.0
1446.63501	156.0
1446.756104	152.0
1446.88208	156.0
1447.055298	200.0
1447.109009	156.0
1447.217896	68.0
1447.32251	188.0
1447.443726	188.0
1447.73291	168.0
1447.850952	140.0
1448.005493	100.0
1448.477539	100.0
1448.528076	160.0
1448.664429	48.0
1448.81604	260.0
1449.035645	152.0
1449.272339	132.0
1449.338745	128.0
1449.406982	176.0
1449.47522	52.0
1449.624634	284.0
1449.694946	48.0
1450.316406	260.0
1450.375366	224.0
1450.407104	176.0
1450.424438	172.0
1450.536255	188.0
1450.595581	220.0
1450.778809	44.0
1450.907715	152.0
1451.072021	184.0
1451.202881	132.0
1451.248535	164.0
1451.267456	156.0
1451.408936	172.0
1451.514282	120.0
1451.681396	168.0
1451.775635	208.0
1451.854126	112.0
1451.951782	200.0
1452.056763	160.0
1452.229614	132.0
1452.347168	140.0
1452.377808	116.0
1452.412598	124.0
1452.44165	172.0
1452.495483	192.0
1452.638184	220.0
1452.712524	512.0
1452.792969	176.0
1452.844482	168.0
1452.928101	164.0
1453.034912	164.0
1453.124756	84.0
1453.264526	124.0
1453.310791	188.0
1453.329468	92.0
1453.378052	188.0
1453.516846	128.0
1453.652588	112.0
1453.729248	128.0
1453.782349	164.0
1453.922485	144.0
1453.983765	164.0
1454.101196	148.0
1454.19165	176.0
1454.313721	180.0
1454.366821	64.0
1454.435425	116.0
1454.541382	148.0
1454.67688	104.0
1454.789551	204.0
1454.959229	136.0
1455.008545	164.0
1455.125977	92.0
1455.183228	156.0
1455.361328	240.0
1455.410156	152.0
1455.520752	120.0
1455.631592	148.0
1455.782104	168.0
1455.97876	176.0
1456.144287	240.0
1456.240601	316.0
1456.396118	108.0
1456.473511	312.0
1456.550903	164.0
1456.702148	220.0
1456.849121	188.0
1456.979004	152.0
1457.077759	128.0
1457.174927	192.0
1457.412109	152.0
1457.518433	164.0
1457.689209	224.0
1457.74646	124.0
1457.803955	168.0
1457.87561	140.0
1457.97522	352.0
1458.173706	108.0
1458.339233	104.0
1458.422852	144.0
1458.471924	132.0
1458.673706	188.0
1458.834717	232.0
1458.963135	260.0
1459.083862	104.0
1459.133423	180.0
1459.243896	96.0
1459.411743	164.0
1459.479614	312.0
1459.545776	180.0
1459.561523	128.0
1459.591431	152.0
1459.713623	164.0
1459.806519	148.0
1459.865479	360.0
1459.939697	124.0
1460.057495	156.0
1460.31604	156.0
1460.39978	120.0
1460.529053	196.0
1460.731934	144.0
1460.840942	224.0
1460.918701	216.0
1461.053955	164.0
1461.163818	144.0
1461.325562	176.0
1461.435791	164.0
1461.651001	156.0
1461.680176	180.0
1461.715088	352.0
1461.871826	364.0
1461.959351	108.0
1462.050781	108.0
1462.294312	204.0
1462.387573	396.0
1462.487793	152.0
1462.668701	192.0
1462.766968	272.0
1462.933716	192.0
1463.040283	192.0
1463.200073	184.0
1463.41333	96.0
1463.481812	80.0
1463.557983	160.0
1463.671631	172.0
1463.797363	288.0
1463.965576	84.0
1464.075806	140.0
1464.185913	204.0
1464.32959	204.0
1464.532715	172.0
1464.837402	124.0
1465.00708	168.0
1465.088867	44.0
1465.225952	116.0
1465.454468	116.0
1465.515503	176.0
1465.572266	148.0
1465.660278	192.0
1465.792603	64.0
1465.844482	216.0
1465.919312	196.0
1465.972656	104.0
1466.04126	104.0
1466.109863	112.0
1466.221802	132.0
1466.331909	120.0
1466.596069	136.0
1466.728271	124.0
1466.793701	148.0
1466.849121	132.0
1466.974609	196.0
1467.098877	180.0
1467.321777	120.0
1467.436157	108.0
1467.690308	132.0
1467.748779	152.0
1467.809814	144.0
1467.893677	84.0
1467.973022	160.0
1468.267334	160.0
1468.355103	328.0
1468.443359	144.0
1468.537598	220.0
1468.7052	180.0
1468.984375	144.0
1469.228394	152.0
1469.312378	200.0
1469.605713	128.0
1469.783691	176.0
1469.907471	120.0
1469.991455	156.0
1470.056396	188.0
1470.144043	448.0
1470.324219	160.0
1470.341064	128.0
1470.426392	124.0
1470.547974	156.0
1470.674316	116.0
1470.781494	156.0
1470.858521	120.0
1470.97998	200.0
1471.044678	160.0
1471.137451	84.0
1471.296631	240.0
1471.44165	108.0
1471.522461	532.0
1471.632568	156.0
1471.72937	176.0
1471.83252	132.0
1471.862427	112.0
1471.911133	280.0
1471.983765	88.0
1472.113647	92.0
1472.251099	52.0
1472.342773	96.0
1472.408691	280.0
1472.57666	296.0
1472.762817	124.0
1472.816284	104.0
1472.8927	68.0
1473.048584	84.0
1473.121826	224.0
1473.35498	156.0
1473.490601	116.0
1473.671875	124.0
1473.809448	148.0
1473.862915	164.0
1473.99231	136.0
1474.188599	280.0
1474.290771	116.0
1474.504761	200.0
1474.950195	176.0
1475.116333	156.0
1475.246216	168.0
1475.317139	140.0
1475.464478	124.0
1475.613159	164.0
1475.732056	148.0
1475.766602	68.0
1475.793335	152.0
1475.880859	192.0
1475.942017	124.0
1476.056641	88.0
1476.133179	244.0
1476.247803	152.0
1476.31665	104.0
1476.515991	136.0
1476.584351	132.0
1476.668457	180.0
1476.760498	124.0
1476.859741	196.0
1477.066162	160.0
1477.188599	160.0
1477.349243	84.0
1477.532837	332.0
1477.632324	180.0
1477.73938	260.0
1477.800659	176.0
1477.953735	172.0
1478.15564	192.0
1478.267212	216.0
1478.433472	176.0
1478.503418	296.0
1478.734131	184.0
1478.763306	172.0
1478.991455	236.0
1479.060059	64.0
1479.224121	172.0
1479.302979	168.0
1479.491333	136.0
1479.874878	144.0
1479.928467	172.0
1480.037964	196.0
1480.165771	56.0
1480.219482	136.0
1480.32666	148.0
1480.433105	204.0
1480.556396	188.0
1480.715576	176.0
1480.837402	128.0
1480.982788	128.0
1481.074341	208.0
1481.172729	160.0
1481.268677	68.0
1481.366577	128.0
1481.379639	100.0
1481.409912	176.0
1481.533325	176.0
1481.605713	172.0
1481.690063	128.0
1481.776489	220.0
1481.99353	156.0
1482.18042	136.0
1482.328369	208.0
1482.45459	152.0
1482.530029	200.0
1482.640137	136.0
1482.847046	176.0
1482.967285	128.0
1483.069336	52.0
1483.184326	284.0
1483.452637	128.0
1483.583984	148.0
1483.667236	212.0
1483.744019	188.0
1483.986938	120.0
1484.147583	112.0
1484.279175	160.0
1484.384155	116.0
1484.527466	136.0
1484.670532	220.0
1484.798706	168.0
1484.940186	116.0
1485.044678	152.0
1485.074829	224.0
1485.193237	148.0
1485.25354	252.0
1485.3927	196.0
1485.488037	112.0
1485.645874	176.0
1485.793701	140.0
1485.847778	152.0
1485.991089	384.0
1486.05249	68.0
1486.268066	160.0
1486.382446	148.0
1486.727783	104.0
1486.819824	112.0
1486.888184	172.0
1487.467285	204.0
1487.648804	176.0
1487.748657	112.0
1488.071045	152.0
1488.160767	136.0
1488.247681	132.0
1488.454956	152.0
1488.55481	180.0
1488.792847	96.0
1488.95752	208.0
1489.077026	276.0
1489.2229	100.0
1489.345825	120.0
1489.437378	180.0
1489.7146	160.0
1489.800781	128.0
1489.855225	144.0
1489.88623	80.0
1489.910767	172.0
1489.998413	176.0
1490.081787	136.0
1490.16687	164.0
1490.423584	156.0
1490.47522	248.0
1490.659546	168.0
1490.713379	56.0
1490.790283	136.0
1490.895752	360.0
1490.957642	196.0
1491.089966	152.0
1491.19751	32.0
1491.266724	200.0
1491.415771	208.0
1491.473877	152.0
1491.797241	340.0
1491.939331	180.0
1492.039795	120.0
1492.074097	224.0
1492.173828	108.0
1492.411743	164.0
1492.470825	308.0
1492.562256	208.0
1492.684204	160.0
1492.841797	184.0
1493.004272	112.0
1493.165771	108.0
1493.304199	196.0
1493.373413	112.0
1493.513794	320.0
1493.588745	148.0
1493.768677	160.0
1493.918579	184.0
1493.946167	204.0
1494.031738	156.0
1494.109253	220.0
1494.419678	120.0
1494.500244	304.0
1494.688965	360.0
1494.819824	152.0
1494.965942	220.0
1495.089111	196.0
1495.186401	148.0
1495.306152	156.0
1495.374756	100.0
1495.422363	256.0
1495.573975	136.0
1495.889648	148.0
1495.955322	172.0
1496.060303	200.0
1496.217163	276.0
1496.338013	180.0
1496.413086	124.0
1496.521606	172.0
1496.664307	228.0
1496.784424	120.0
1496.925171	172.0
1496.990601	140.0
1497.064087	436.0
1497.136963	168.0
1497.216187	232.0
1497.334839	236.0
1497.364746	164.0
1497.459595	140.0
1497.543213	200.0
1497.713379	240.0
1497.96875	192.0
1498.022705	180.0
1498.084351	136.0
1498.174927	184.0
1498.236328	108.0
1498.265503	136.0
1498.29126	180.0
1498.500366	252.0
1498.562012	88.0
1498.77002	168.0
1499.011353	152.0
1499.201538	148.0
1499.274414	228.0
1499.373657	152.0
1499.462646	108.0
1499.602295	152.0
1499.759644	172.0
1499.825195	156.0
1499.956787	240.0
1500.035034	424.0
1500.243164	264.0
1500.373169	176.0
1500.42334	180.0
1500.481079	232.0
1500.758667	144.0
1500.881958	56.0
1500.966797	132.0
1501.055298	364.0
1501.159546	192.0
1501.244385	164.0
1501.349854	120.0
1501.421753	92.0
1501.47583	132.0
1501.606934	272.0
1501.664185	132.0
1501.85376	240.0
1501.957153	136.0
1502.069702	200.0
1502.144897	116.0
1502.195435	104.0
1502.251465	200.0
1502.455444	132.0
1502.516846	244.0
1502.622559	108.0
1502.709961	172.0
1502.833496	52.0
1503.008545	200.0
1503.060547	156.0
1503.172974	204.0
1503.334961	184.0
1503.400269	424.0
1503.720825	88.0
1503.890625	76.0
1503.944702	148.0
1504.083862	148.0
1504.168579	156.0
1504.230835	132.0
1504.376953	148.0
1504.490601	204.0
1504.566895	180.0
1504.656982	192.0
1504.747925	192.0
1504.864868	384.0
1504.949219	304.0
1505.147827	128.0
1505.276001	184.0
END IONS

BEGIN IONS
PEPMASS=340.206
CHARGE=1
MSLEVEL=2
SOURCE_INSTRUMENT=LC-ESI-qTof
FILENAME=p4-E05_GE5_01_18377.mzXML
SEQ=*..*
IONMODE=Positive
ORGANISM=GNPS-NIH-SMALLMOLECULEPHARMACOLOGICALLYACTIVE
NAME=MLS000756415-01!Methergine M+H
PI=Dorrestein
DATACOLLECTOR=VP/LMS
SMILES=CCC(CO)NC(=O)C1CN(C)C2Cc3c[nH]c4cccc(C2=C1)c34
INCHI=N/A
INCHIAUX=N/A
PUBMED=N/A
SUBMITUSER=vphelan
LIBRARYQUALITY=1
SPECTRUMID=CCMSLIB00000085698
USI=mzspec:GNPS:GNPS-NIH-SMALLMOLECULEPHARMACOLOGICALLYACTIVE:accession:CCMSLIB00000085698
SCANS=1264
45.156666	108.0
45.166027	60.0
45.182083	88.0
45.194122	228.0
45.219551	136.0
45.29855	196.0
45.400265	140.0
45.428585	188.0
45.444172	220.0
45.509109	200.0
45.530598	136.0
45.605839	124.0
45.783436	140.0
45.945187	172.0
46.180233	260.0
46.211346	156.0
46.230289	180.0
46.268192	136.0
46.376564	176.0
46.411812	208.0
46.45657	112.0
46.551579	56.0
46.683399	208.0
46.824936	200.0
46.849453	180.0
46.887608	128.0
46.903965	156.0
47.034798	140.0
47.200226	200.0
47.256615	160.0
47.400082	124.0
47.439831	188.0
47.706154	172.0
47.795555	140.0
47.82996	172.0
47.916721	188.0
48.009075	132.0
48.123608	144.0
48.158131	212.0
48.265926	100.0
48.32312	164.0
48.418152	168.0
48.547039	148.0
48.603912	76.0
48.63538	184.0
48.701096	60.0
48.731655	120.0
48.801151	168.0
48.82201	160.0
48.839355	216.0
48.952827	180.0
49.065689	120.0
49.132633	188.0
49.182869	176.0
49.258274	160.0
49.27504	188.0
49.336533	92.0
49.37149	208.0
49.386875	180.0
49.442841	88.0
49.496037	120.0
49.550663	180.0
49.591301	180.0
49.631756	168.0
49.654396	220.0
49.762447	140.0
49.782104	232.0
49.848129	80.0
49.879051	128.0
49.926857	116.0
50.392033	152.0
50.413937	144.0
50.430191	164.0
50.496643	152.0
50.527763	208.0
50.537666	136.0
50.595291	224.0
50.612686	156.0
50.672176	148.0
50.728863	200.0
50.916161	156.0
50.947411	120.0
51.038376	228.0
51.202026	180.0
51.267563	220.0
51.277538	176.0
51.301769	132.0
51.438721	116.0
51.54298	168.0
51.558697	128.0
51.693127	140.0
51.741795	204.0
51.779022	160.0
51.870728	184.0
51.8951	148.0
52.009865	140.0
52.019913	76.0
52.157818	168.0
52.183693	112.0
52.206703	116.0
52.229713	112.0
52.275753	192.0
52.379417	140.0
52.411114	196.0
52.495857	188.0
52.867435	164.0
52.881214	204.0
53.064316	148.0
53.101074	132.0
53.119545	188.0
53.155815	120.0
53.165974	156.0
53.292309	68.0
53.315559	144.0
53.414433	128.0
53.450802	160.0
53.460991	104.0
53.490101	160.0
53.543972	188.0
53.672215	228.0
53.685337	160.0
53.699924	180.0
53.81813	264.0
53.864864	36.0
54.024204	164.0
54.129707	148.0
54.480133	168.0
54.502174	72.0
54.571255	100.0
54.587433	112.0
54.603607	220.0
54.634499	164.0
54.646267	116.0
54.745541	200.0
54.794975	260.0
54.844704	220.0
54.873512	208.0
54.999958	192.0
55.342548	196.0
55.363674	160.0
55.513351	204.0
55.560818	56.0
55.621658	116.0
55.987423	132.0
56.084267	148.0
56.209545	176.0
56.236408	144.0
56.273727	128.0
56.533821	180.0
56.572739	172.0
56.646118	68.0
56.733036	84.0
56.779518	224.0
56.796017	112.0
56.87104	96.0
56.935604	168.0
56.988178	120.0
57.219803	164.0
57.233353	116.0
57.272511	160.0
57.320721	144.0
57.415695	140.0
57.43681	156.0
57.521439	196.0
57.534901	280.0
57.610413	152.0
57.622498	216.0
57.658764	220.0
57.688995	128.0
57.722256	176.0
57.766117	216.0
57.866001	76.0
57.964458	116.0
58.062328	136.0
58.099403	44.0
58.211723	132.0
58.310471	212.0
58.400177	168.0
58.457188	144.0
58.529537	284.0
58.706303	128.0
58.869591	180.0
59.078995	168.0
59.091232	148.0
59.152451	176.0
59.213696	196.0
59.293365	128.0
59.399162	220.0
59.45747	220.0
59.601822	164.0
59.61565	112.0
59.760197	188.0
59.926483	120.0
59.941891	176.0
60.079117	180.0
60.220535	176.0
60.296841	108.0
60.316933	136.0
60.337029	172.0
60.386513	96.0
60.412807	44.0
60.426731	132.0
60.474705	116.0
60.521149	136.0
60.578453	164.0
60.638065	156.0
60.677639	152.0
60.705547	172.0
60.780006	244.0
60.879356	44.0
60.963245	164.0
60.974613	140.0
60.986561	212.0
60.998993	164.0
61.05497	176.0
61.089188	148.0
61.148319	180.0
61.235508	156.0
61.335228	124.0
61.357052	64.0
61.42411	240.0
61.556774	196.0
61.567707	52.0
61.800625	128.0
61.835052	44.0
61.856964	56.0
61.971291	160.0
61.982262	108.0
62.044956	148.0
62.055931	152.0
62.112389	116.0
62.288197	124.0
62.555527	64.0
62.574417	176.0
62.690933	128.0
62.761917	136.0
62.779263	88.0
62.834473	212.0
62.991222	164.0
63.093483	168.0
63.128269	112.0
63.201035	64.0
63.250095	140.0
63.303925	60.0
63.327682	228.0
63.346691	92.0
63.386299	168.0
63.411655	68.0
63.459213	88.0
63.487755	164.0
63.516304	280.0
63.578503	140.0
63.584797	168.0
63.859398	108.0
63.875305	104.0
63.892803	152.0
63.926216	152.0
63.987675	144.0
64.00103	168.0
64.118919	116.0
64.23053	76.0
64.316696	100.0
64.382156	212.0
64.460434	232.0
64.535561	124.0
64.661942	168.0
64.693954	116.0
64.745193	124.0
64.810867	216.0
64.834908	112.0
64.863754	144.0
64.900635	88.0
64.979225	156.0
65.048233	156.0
65.183144	128.0
65.216896	168.0
65.268341	80.0
65.31337	144.0
65.332672	244.0
65.487206	152.0
65.538757	108.0
65.567764	160.0
65.592323	152.0
65.617737	140.0
65.767761	188.0
65.856567	156.0
66.133064	224.0
66.252892	116.0
66.330673	84.0
66.395531	104.0
66.434464	168.0
66.445816	156.0
66.504646	80.0
66.518845	88.0
66.544037	124.0
66.673149	176.0
66.74305	156.0
66.869003	200.0
66.928551	236.0
66.954605	148.0
66.992065	76.0
67.19912	204.0
67.225227	152.0
67.236656	144.0
67.329712	76.0
67.376862	60.0
67.624863	136.0
67.63546	192.0
67.650192	164.0
67.858261	156.0
67.902534	228.0
67.941902	180.0
68.203003	200.0
68.29673	160.0
68.382294	156.0
68.467903	208.0
68.507439	172.0
68.565109	196.0
68.687119	88.0
68.737862	148.0
68.751465	148.0
68.840614	216.0
68.873093	192.0
69.214333	220.0
69.239174	368.0
69.350807	180.0
69.36676	160.0
69.423912	128.0
69.530968	128.0
69.657158	32.0
69.668785	140.0
69.71199	200.0
69.808403	148.0
69.909882	160.0
70.324875	140.0
70.752815	220.0
70.860001	152.0
70.995781	96.0
71.014229	196.0
71.099792	196.0
71.166939	88.0
71.202202	204.0
71.230759	96.0
71.250916	32.0
71.482956	168.0
71.953224	224.0
72.318359	240.0
72.415817	252.0
72.441978	184.0
72.502975	176.0
72.640312	196.0
72.697998	176.0
72.759109	176.0
72.910286	212.0
73.09111	216.0
73.106323	192.0
73.197784	164.0
73.328964	116.0
73.383514	52.0
73.409088	192.0
73.434113	132.0
73.519974	184.0
73.555824	196.0
73.5746	276.0
73.610458	112.0
73.757385	76.0
73.837746	44.0
73.880508	212.0
73.894196	188.0
73.923286	156.0
73.942108	40.0
73.955803	124.0
74.022575	148.0
74.135635	128.0
74.154488	220.0
74.180199	192.0
74.252213	136.0
74.277946	232.0
74.324547	172.0
74.480499	144.0
74.523445	160.0
74.588753	148.0
74.722893	244.0
74.78656	132.0
74.870926	48.0
74.88298	104.0
74.953232	196.0
74.972572	176.0
75.020836	60.0
75.146736	88.0
75.256386	144.0
75.3591	112.0
75.424774	80.0
75.461082	152.0
75.499123	64.0
75.597229	208.0
75.771881	132.0
75.855804	236.0
75.932098	136.0
76.105629	156.0
76.128204	164.0
76.416756	36.0
76.474182	140.0
76.590843	60.0
76.618713	168.0
76.686676	176.0
76.707596	248.0
76.756409	148.0
76.838387	188.0
76.850601	164.0
77.056625	152.0
77.184227	184.0
77.236694	36.0
77.266434	52.0
77.292679	152.0
77.308426	132.0
77.320679	124.0
77.34343	176.0
77.401207	156.0
77.416962	136.0
77.576408	160.0
77.702682	176.0
77.721985	156.0
77.765854	104.0
77.820274	188.0
77.864174	160.0
77.897552	212.0
78.064522	156.0
78.094421	160.0
78.170074	124.0
78.182388	168.0
78.319717	152.0
78.402527	120.0
78.43602	128.0
78.498016	220.0
78.619446	36.0
78.670639	200.0
78.686523	176.0
78.720078	64.0
78.767761	152.0
78.829597	152.0
78.962189	152.0
79.063034	132.0
79.098434	252.0
79.135612	232.0
79.234795	220.0
79.286186	108.0
79.415611	216.0
79.43512	152.0
79.575325	220.0
79.7743	76.0
79.873886	160.0
79.991333	100.0
80.042961	188.0
80.07502	140.0
80.100227	132.0
80.489731	168.0
80.52269	144.0
80.55484	200.0
80.604866	140.0
80.647758	124.0
80.933998	184.0
80.96981	156.0
81.181282	76.0
81.215363	136.0
81.242271	164.0
81.308662	76.0
81.452301	192.0
81.500809	220.0
81.676994	56.0
81.752563	164.0
81.811958	156.0
81.956039	108.0
81.983772	196.0
82.224739	136.0
82.259033	128.0
82.34964	200.0
82.416161	160.0
82.42804	200.0
82.472183	128.0
82.528221	176.0
82.551735	132.0
82.771965	228.0
82.785751	76.0
82.789864	184.0
83.022583	128.0
83.067924	124.0
83.084251	144.0
83.122604	176.0
83.171356	132.0
83.204033	48.0
83.251244	224.0
83.372963	184.0
83.402046	184.0
83.502045	192.0
83.532967	128.0
83.622131	156.0
83.643967	116.0
83.771439	168.0
83.864372	176.0
83.974121	188.0
84.010254	128.0
84.043091	56.0
84.121574	340.0
84.15078	140.0
84.16539	140.0
84.181557	192.0
84.242096	160.0
84.278824	160.0
84.502495	204.0
84.560265	120.0
84.63166	112.0
84.690262	108.0
84.726898	192.0
84.747047	52.0
84.895531	168.0
85.172668	116.0
85.229622	152.0
85.259026	180.0
85.463142	60.0
85.562531	180.0
85.58831	108.0
85.665665	168.0
85.724625	220.0
85.74305	112.0
85.811256	112.0
86.021576	136.0
86.058495	216.0
86.097275	124.0
86.117592	184.0
86.185944	120.0
86.300545	72.0
86.319038	92.0
86.38192	164.0
86.437424	164.0
86.53923	184.0
86.596634	128.0
86.66703	76.0
86.694214	132.0
86.744873	192.0
86.969322	144.0
86.986031	164.0
87.171761	204.0
87.40081	112.0
87.428894	224.0
87.473061	140.0
87.495399	144.0
87.718445	116.0
87.725266	188.0
87.855438	176.0
88.079102	220.0
88.191216	144.0
88.2286	192.0
88.282822	200.0
88.376358	196.0
88.477425	52.0
88.596519	196.0
88.944206	72.0
88.959221	212.0
89.006165	156.0
89.030571	68.0
89.15081	32.0
89.16584	216.0
89.207191	188.0
89.239151	144.0
89.267357	144.0
89.376465	164.0
89.404686	160.0
89.446098	180.0
89.502579	240.0
89.6269	88.0
89.755074	192.0
89.847496	184.0
89.943741	164.0
90.091034	200.0
90.253571	144.0
90.297066	112.0
90.372734	164.0
90.412476	132.0
90.743973	84.0
90.793274	112.0
90.840691	184.0
91.030495	96.0
91.074173	160.0
91.087471	172.0
91.14637	100.0
91.195778	128.0
91.262314	84.0
91.462074	192.0
91.484222	176.0
91.558914	116.0
91.719223	80.0
91.754807	132.0
91.80883	184.0
91.825996	252.0
91.90612	144.0
92.053101	188.0
92.137146	136.0
92.236519	128.0
92.290047	124.0
92.552185	208.0
92.678604	176.0
92.716934	164.0
92.730347	156.0
92.851135	172.0
92.885658	128.0
92.995033	196.0
93.198601	104.0
93.215889	132.0
93.413925	104.0
93.475494	136.0
93.494736	252.0
93.558815	180.0
93.627579	136.0
93.72197	128.0
93.945618	152.0
93.995781	116.0
94.022797	116.0
94.063332	100.0
94.136703	92.0
94.154083	200.0
94.214157	204.0
94.235214	48.0
94.307182	200.0
94.450989	208.0
94.492363	192.0
94.50692	152.0
94.531059	180.0
95.060097	80.0
95.417496	204.0
95.431107	136.0
95.524452	60.0
95.58873	116.0
95.681114	128.0
95.705452	120.0
95.824265	104.0
95.85154	108.0
96.023102	200.0
96.138206	220.0
96.197144	244.0
96.226967	144.0
96.358856	192.0
96.450706	84.0
96.480026	104.0
96.511307	104.0
96.671715	160.0
96.701172	152.0
96.811531	236.0
96.969398	144.0
97.077225	80.0
97.393204	80.0
97.440353	180.0
97.577934	220.0
97.73922	84.0
97.843536	108.0
97.859283	180.0
98.014893	152.0
98.040512	144.0
98.273193	168.0
98.381744	112.0
98.395569	108.0
98.488091	136.0
98.512085	108.0
98.593094	100.0
98.62867	156.0
98.739395	180.0
98.761154	92.0
98.782913	44.0
99.022415	124.0
99.062035	160.0
99.075897	176.0
99.147232	120.0
99.266182	200.0
99.343536	224.0
99.530098	104.0
99.579742	212.0
99.609543	112.0
99.671127	224.0
99.752617	124.0
99.784424	120.0
99.971405	212.0
99.993294	148.0
100.017181	176.0
100.039078	64.0
100.054543	192.0
100.078896	144.0
100.104782	140.0
100.423653	132.0
100.529396	204.0
100.683113	176.0
100.739044	172.0
100.780998	84.0
100.814972	32.0
100.832954	168.0
100.850945	160.0
100.928909	212.0
101.062927	140.0
101.092522	152.0
101.128967	104.0
101.257111	32.0
101.395348	192.0
101.439445	152.0
101.461494	116.0
101.49157	144.0
101.573799	116.0
101.668098	192.0
101.728317	188.0
101.744377	192.0
101.75843	112.0
102.062302	152.0
102.096016	144.0
102.225128	156.0
102.307289	180.0
102.3395	196.0
102.409988	200.0
102.474876	132.0
102.538719	228.0
102.544151	204.0
102.597389	112.0
102.643761	224.0
102.730492	116.0
102.818085	136.0
102.935867	196.0
103.019173	156.0
103.073723	148.0
103.112122	64.0
103.166695	120.0
103.23008	252.0
103.292076	136.0
103.403358	92.0
103.441818	124.0
103.761909	164.0
103.81868	180.0
103.836937	180.0
103.871414	188.0
103.89373	204.0
103.940399	212.0
104.064217	196.0
104.100761	72.0
104.179977	76.0
104.247032	200.0
104.482895	116.0
104.588715	100.0
104.62133	164.0
104.688477	100.0
105.124733	108.0
105.14106	64.0
105.212502	160.0
105.288055	188.0
105.351372	68.0
105.484207	52.0
105.629395	144.0
105.688721	136.0
105.760353	152.0
105.838142	140.0
105.877052	148.0
105.930305	184.0
105.965134	104.0
105.985626	168.0
106.031334	224.0
106.157814	148.0
106.191635	220.0
106.291153	164.0
106.311676	156.0
106.348618	100.0
106.375305	76.0
106.39994	136.0
106.416359	172.0
106.449219	104.0
106.471809	164.0
106.551918	224.0
106.630005	164.0
106.8274	80.0
106.989975	160.0
107.062042	204.0
107.103233	72.0
107.14444	188.0
107.2248	76.0
107.245415	200.0
107.409462	172.0
107.478455	52.0
107.594032	200.0
107.668373	156.0
107.720009	152.0
107.748932	144.0
107.78244	144.0
107.843987	92.0
107.926682	72.0
107.943222	224.0
108.052849	132.0
108.220497	156.0
108.243271	256.0
108.257767	52.0
108.292976	284.0
108.384132	136.0
108.400711	160.0
108.462883	128.0
108.531303	96.0
108.62085	268.0
108.697533	200.0
108.72007	188.0
108.79895	180.0
108.884087	224.0
108.942245	196.0
108.96302	204.0
108.98172	52.0
108.998344	168.0
109.031982	192.0
109.120972	124.0
109.247841	144.0
109.335228	136.0
109.402283	192.0
109.420578	152.0
109.489288	132.0
109.574699	68.0
109.595184	72.0
109.62262	204.0
109.672638	196.0
109.797737	104.0
109.962006	136.0
110.027267	48.0
110.165108	116.0
110.196442	220.0
110.227783	104.0
110.286537	108.0
110.334381	204.0
110.388748	152.0
110.438942	188.0
110.610527	40.0
110.731964	68.0
110.840904	76.0
110.857666	272.0
111.05323	100.0
111.140755	148.0
111.220505	176.0
111.254089	288.0
111.319183	152.0
111.335983	44.0
111.388489	160.0
111.415802	44.0
111.584923	144.0
111.632294	124.0
111.72274	72.0
111.870056	172.0
112.05117	184.0
112.591377	216.0
112.67144	60.0
112.799561	160.0
112.829948	180.0
112.844749	120.0
112.890358	200.0
112.990685	164.0
113.136711	84.0
113.181175	160.0
113.206589	164.0
113.3909	164.0
113.40683	128.0
113.422691	148.0
113.448135	188.0
113.575226	60.0
113.613548	144.0
113.755737	128.0
113.825798	148.0
113.85128	172.0
113.883141	212.0
113.929871	164.0
113.993614	212.0
114.010612	156.0
114.048874	140.0
114.072502	172.0
114.223236	116.0
114.248764	44.0
114.291313	176.0
114.384956	256.0
114.408371	132.0
114.423279	92.0
114.461601	196.0
114.576622	216.0
114.621361	120.0
114.721535	48.0
114.838821	160.0
114.934822	128.0
115.013786	144.0
115.049736	152.0
115.103447	212.0
115.270073	104.0
115.293579	76.0
115.428253	72.0
115.558731	132.0
115.580132	220.0
116.171463	140.0
116.259438	188.0
116.401115	152.0
116.572968	148.0
116.654648	152.0
116.673996	156.0
116.951492	152.0
117.069328	164.0
117.072922	120.0
117.408257	128.0
117.565742	116.0
117.611069	156.0
117.647766	168.0
117.768692	120.0
117.831337	184.0
117.904808	60.0
118.153473	100.0
118.201073	236.0
118.224876	180.0
118.265999	180.0
118.311462	108.0
118.415398	172.0
118.459618	164.0
118.612572	172.0
118.627747	176.0
118.692795	72.0
118.757851	136.0
118.959656	192.0
119.013931	144.0
119.278984	132.0
119.361595	124.0
119.549034	172.0
119.629211	100.0
119.751152	156.0
119.825218	180.0
119.850189	164.0
119.997398	132.0
120.058456	176.0
120.080261	192.0
120.134796	136.0
120.202431	108.0
120.22644	128.0
120.27227	164.0
120.301552	136.0
120.383835	164.0
120.52124	68.0
120.619583	136.0
120.673691	192.0
120.755318	156.0
120.787956	212.0
120.901733	176.0
121.175934	200.0
121.377106	128.0
121.504318	132.0
121.578606	196.0
121.675507	208.0
121.892952	132.0
122.057816	96.0
122.172188	132.0
122.280006	52.0
122.297958	128.0
122.568504	248.0
122.584892	236.0
122.733818	152.0
122.771309	40.0
122.786743	172.0
122.991943	84.0
123.13546	140.0
123.184052	140.0
123.436012	224.0
123.612984	188.0
123.829941	236.0
123.997887	176.0
124.067039	168.0
124.253334	104.0
124.304367	164.0
124.362068	84.0
124.406464	152.0
124.508606	164.0
124.626343	184.0
124.866425	96.0
124.881996	284.0
125.175766	92.0
125.195808	124.0
125.470535	204.0
125.503319	148.0
125.521164	168.0
125.556839	80.0
125.646065	176.0
125.868065	104.0
125.949669	184.0
126.036797	184.0
126.09285	792.0
126.202202	92.0
126.31179	156.0
126.329681	140.0
126.394478	200.0
126.638588	124.0
126.654266	184.0
126.672188	188.0
126.723717	184.0
126.775253	228.0
126.846764	208.0
126.965813	220.0
126.990479	116.0
127.065094	200.0
127.0952	380.0
127.111626	160.0
127.129578	180.0
127.152023	172.0
127.394531	52.0
127.459686	228.0
127.486649	200.0
127.57206	176.0
127.610283	92.0
127.961273	236.0
128.015198	152.0
128.048035	188.0
128.063583	176.0
128.141449	244.0
128.233841	176.0
128.292282	104.0
128.411957	76.0
128.47287	196.0
128.572144	236.0
128.651154	96.0
128.703079	176.0
128.777603	176.0
128.797928	196.0
128.840851	84.0
129.039734	168.0
129.069595	272.0
129.118881	160.0
129.139236	56.0
129.234253	120.0
129.38739	188.0
129.558014	180.0
129.616928	220.0
129.814133	48.0
129.850418	60.0
129.934357	160.0
130.035706	108.0
130.064667	692.0
130.100021	144.0
130.174957	156.0
130.215836	188.0
130.265808	80.0
130.315781	112.0
130.342087	104.0
130.449875	172.0
130.511261	44.0
130.540817	32.0
130.574936	152.0
130.731918	168.0
130.809296	204.0
130.873047	192.0
131.037033	148.0
131.065292	184.0
131.112228	132.0
131.128189	128.0
131.146423	140.0
131.166931	136.0
131.385864	192.0
131.408676	160.0
131.630081	196.0
131.849396	184.0
131.93396	112.0
132.046005	160.0
132.062027	60.0
132.078033	120.0
132.180984	192.0
132.240494	76.0
132.538208	136.0
132.602371	44.0
132.730743	236.0
132.812592	192.0
132.856888	312.0
133.194351	180.0
133.21962	104.0
133.249481	88.0
133.306931	180.0
133.325317	120.0
133.362091	132.0
133.391968	116.0
133.550629	140.0
133.739304	192.0
133.849808	188.0
133.872833	152.0
134.084793	328.0
134.255386	188.0
134.294601	104.0
134.795578	168.0
134.821335	140.0
134.994385	156.0
135.167877	240.0
135.232681	252.0
135.348434	192.0
135.394745	196.0
135.566177	192.0
135.631073	112.0
135.65657	188.0
135.811935	156.0
135.916336	164.0
135.999878	124.0
136.037018	204.0
136.08577	168.0
136.148468	144.0
136.315735	156.0
136.345947	168.0
136.471481	188.0
136.615677	156.0
136.636261	156.0
136.844879	216.0
136.94191	160.0
136.98349	208.0
136.999786	104.0
137.202545	48.0
137.435776	140.0
137.491791	216.0
137.535736	236.0
137.79068	240.0
137.851425	132.0
137.888824	140.0
138.092224	204.0
138.134338	152.0
138.336227	116.0
138.397156	160.0
138.440948	176.0
138.581497	76.0
138.658829	148.0
138.693985	256.0
138.793304	252.0
138.867493	200.0
138.907364	216.0
139.051727	168.0
139.069275	120.0
139.116226	180.0
139.163177	88.0
139.233627	184.0
139.398071	172.0
139.560257	136.0
139.597885	132.0
139.69902	156.0
139.82373	40.0
139.859039	156.0
140.047409	144.0
140.066589	168.0
140.195297	300.0
140.29248	76.0
140.429245	140.0
140.698257	272.0
140.764359	240.0
140.804642	152.0
140.99115	288.0
141.018066	196.0
141.068558	256.0
141.277267	132.0
141.383743	144.0
141.478424	208.0
141.608658	140.0
141.656036	148.0
141.850342	148.0
141.902496	196.0
141.933319	132.0
142.072739	280.0
142.431717	156.0
142.46022	160.0
142.969055	220.0
143.021423	172.0
143.08223	188.0
143.207138	148.0
143.264313	100.0
143.345322	56.0
143.362	156.0
143.483566	156.0
143.602798	164.0
143.657654	196.0
143.719681	196.0
143.762634	152.0
143.874832	160.0
143.929733	144.0
143.963165	144.0
144.014191	200.0
144.049164	124.0
144.098755	540.0
144.185349	32.0
144.28096	124.0
144.300095	116.0
144.376358	188.0
144.47287	180.0
144.49382	156.0
144.591934	56.0
144.776276	100.0
144.800217	160.0
145.027832	164.0
145.053116	76.0
145.389999	224.0
145.550842	160.0
145.646896	36.0
145.711761	116.0
145.829514	172.0
145.9095	176.0
146.007431	148.0
146.045914	36.0
146.171021	108.0
146.21434	108.0
146.245621	116.0
146.47377	160.0
146.491501	180.0
146.524963	100.0
146.599655	140.0
146.999969	188.0
147.072372	104.0
147.193085	176.0
147.449158	160.0
147.541016	188.0
147.70787	220.0
147.790131	76.0
147.923248	172.0
148.107269	212.0
148.167831	124.0
148.199341	212.0
148.289001	160.0
148.387558	224.0
148.536224	196.0
148.594543	172.0
148.664917	144.0
148.684219	96.0
148.78627	120.0
148.859116	140.0
148.87854	180.0
148.968414	40.0
149.043732	76.0
149.119064	180.0
149.153091	196.0
149.177399	136.0
149.261749	168.0
149.279526	224.0
149.320862	144.0
149.642075	136.0
149.741058	136.0
149.785767	176.0
149.861282	184.0
150.04306	104.0
150.180649	112.0
150.231873	176.0
150.302628	184.0
150.449066	148.0
150.651764	172.0
151.003754	48.0
151.060501	384.0
151.089371	156.0
151.113831	184.0
151.258224	84.0
151.356155	104.0
151.385544	124.0
151.405136	164.0
151.483505	144.0
151.542908	180.0
151.650131	116.0
151.941956	172.0
152.023514	164.0
152.062164	1080.0
152.118652	132.0
152.241409	92.0
152.386337	176.0
152.492004	216.0
152.720673	184.0
152.860901	156.0
152.961807	168.0
153.020889	44.0
153.069366	5524.0
153.107086	116.0
153.177597	152.0
153.217926	100.0
153.243637	156.0
153.29245	196.0
153.360855	52.0
153.506317	124.0
153.681442	168.0
153.706116	144.0
153.753006	128.0
153.802368	164.0
153.863678	144.0
153.888779	228.0
153.973083	244.0
154.026718	164.0
154.064346	1660.0
154.137146	116.0
154.284073	140.0
154.370621	28.0
154.402771	132.0
154.427505	184.0
154.544754	40.0
154.702164	112.0
154.745605	132.0
154.81015	196.0
154.882935	64.0
154.929062	208.0
154.979553	44.0
155.068695	616.0
155.135696	128.0
155.234879	188.0
155.277039	168.0
155.42836	128.0
155.53508	72.0
155.634384	172.0
155.795471	116.0
155.852966	144.0
155.887756	188.0
156.077988	612.0
156.140564	196.0
156.168686	52.0
156.223419	80.0
156.405075	84.0
156.422501	176.0
156.53952	136.0
156.597107	64.0
156.845963	216.0
156.865906	144.0
156.900803	80.0
156.970627	104.0
157.032974	140.0
157.05043	36.0
157.078552	160.0
157.196259	204.0
157.260025	64.0
157.34166	96.0
157.374847	72.0
157.429794	144.0
157.704605	160.0
157.738373	132.0
157.852112	184.0
157.884628	204.0
157.937149	208.0
158.039719	48.0
158.144821	128.0
158.23996	52.0
158.278412	212.0
158.38269	152.0
158.465363	112.0
158.505463	180.0
158.625763	44.0
158.680908	32.0
158.708496	228.0
158.768677	160.0
158.841415	220.0
158.861481	152.0
158.981918	48.0
159.012039	40.0
159.064743	188.0
159.082321	124.0
159.137558	164.0
159.200333	64.0
159.403809	128.0
159.4767	148.0
159.52948	28.0
159.569702	68.0
159.675323	172.0
159.718079	36.0
159.770905	56.0
159.801102	124.0
160.125824	236.0
160.355103	156.0
160.397949	184.0
160.574448	164.0
160.627426	48.0
160.768723	136.0
160.849487	204.0
161.094437	156.0
161.177811	108.0
161.34462	216.0
161.38002	132.0
161.417953	144.0
161.716476	128.0
161.75444	132.0
161.85318	136.0
161.972214	116.0
161.992477	144.0
162.086227	148.0
162.119171	140.0
162.276321	80.0
162.329575	140.0
162.481766	156.0
162.545197	164.0
162.588333	124.0
162.689865	60.0
162.738113	124.0
162.763504	144.0
162.783813	208.0
162.84053	180.0
162.882858	136.0
162.971786	180.0
162.996033	160.0
163.052765	336.0
163.086136	356.0
163.220886	120.0
163.276825	176.0
163.29718	124.0
163.439636	44.0
163.459991	140.0
163.503265	84.0
163.541443	180.0
163.602524	128.0
163.655991	220.0
163.847015	128.0
163.915817	32.0
164.064346	428.0
164.154312	160.0
164.298264	96.0
164.377365	148.0
164.527954	84.0
164.602005	152.0
164.668396	156.0
164.780792	156.0
164.814011	180.0
164.862564	180.0
165.06842	1180.0
165.11055	136.0
165.253799	128.0
165.310089	136.0
165.330566	132.0
165.371521	148.0
165.566101	120.0
165.691605	152.0
165.784882	160.0
165.829987	60.0
165.945343	152.0
166.045349	172.0
166.069305	340.0
166.219803	96.0
166.394348	100.0
166.420013	152.0
166.461105	44.0
166.558701	136.0
166.725708	124.0
166.754044	140.0
166.789963	156.0
166.838806	172.0
166.982803	132.0
167.073547	6020.0
167.236069	212.0
167.29158	44.0
167.36882	100.0
167.393051	248.0
167.412598	72.0
167.585175	156.0
167.637039	188.0
167.675369	168.0
167.747543	84.0
167.781464	172.0
167.809418	128.0
167.879044	252.0
167.933197	40.0
167.959	64.0
168.020905	184.0
168.07869	3280.0
168.255768	152.0
168.317734	240.0
168.457199	172.0
168.535538	160.0
168.658752	204.0
168.710449	140.0
168.79837	156.0
168.894058	160.0
168.927689	160.0
168.945786	60.0
169.07782	748.0
169.10881	208.0
169.214951	124.0
169.243423	160.0
169.328888	96.0
169.573059	164.0
169.657974	192.0
169.722794	132.0
169.746124	60.0
169.810959	96.0
169.847275	108.0
169.900238	116.0
169.910187	48.0
169.91861	128.0
169.957977	184.0
170.062637	152.0
170.091904	188.0
170.127045	168.0
170.180862	192.0
170.229401	104.0
170.441544	80.0
170.543152	128.0
170.600342	84.0
170.818787	156.0
170.86821	152.0
170.930664	60.0
171.006134	160.0
171.077316	116.0
171.093872	136.0
171.14151	48.0
171.162338	108.0
171.188293	120.0
171.230042	64.0
171.31601	76.0
171.503616	156.0
171.532288	180.0
171.615723	208.0
171.936584	232.0
172.051483	180.0
172.075607	184.0
172.213333	100.0
172.249908	128.0
172.647186	176.0
172.702103	164.0
172.770126	64.0
172.797943	208.0
172.840759	176.0
173.097382	128.0
173.119064	132.0
173.209915	128.0
173.34877	160.0
173.527008	136.0
173.752563	208.0
173.946762	240.0
173.996643	132.0
174.022903	196.0
174.046539	144.0
174.093796	132.0
174.130569	152.0
174.233017	80.0
174.333984	224.0
174.437988	136.0
174.482681	184.0
174.582611	60.0
174.685181	192.0
174.819366	124.0
174.961502	112.0
175.069458	132.0
175.224869	160.0
175.288116	112.0
175.338181	180.0
175.361908	160.0
175.393539	80.0
175.435715	144.0
175.491074	156.0
175.533264	52.0
175.723175	192.0
175.797058	64.0
175.870956	180.0
176.156143	216.0
176.224838	132.0
176.312042	152.0
176.350922	176.0
176.452133	228.0
176.571136	216.0
176.732498	116.0
176.788071	116.0
176.806595	176.0
176.894012	148.0
177.026321	180.0
177.137558	104.0
177.158752	220.0
177.368103	200.0
177.413162	168.0
177.460892	104.0
177.60675	64.0
177.65715	112.0
177.68898	144.0
177.744705	128.0
178.065323	992.0
178.16687	180.0
178.227982	36.0
178.451889	200.0
178.876907	184.0
178.906189	148.0
178.924835	40.0
179.072678	1928.0
179.171646	260.0
179.343063	176.0
179.409698	48.0
179.444366	140.0
179.567688	128.0
179.703079	148.0
179.735092	176.0
179.836502	144.0
179.889893	136.0
179.936859	236.0
179.976242	152.0
180.017258	188.0
180.036499	188.0
180.080704	43096.0
180.12912	120.0
180.151596	80.0
180.169708	168.0
180.205032	204.0
180.225067	112.0
180.269165	96.0
180.321014	60.0
180.370728	72.0
180.408142	72.0
180.440231	60.0
180.519562	36.0
180.535599	132.0
180.566895	120.0
180.595337	32.0
180.631653	180.0
180.675583	60.0
180.701843	68.0
180.739792	36.0
180.769226	52.0
180.787964	76.0
180.844162	232.0
180.93251	128.0
180.983368	424.0
181.012833	168.0
181.084198	6600.0
181.144073	100.0
181.176208	108.0
181.21315	112.0
181.267319	64.0
181.326263	172.0
181.358429	52.0
181.400116	84.0
181.454941	80.0
181.556839	184.0
181.591705	80.0
181.624847	224.0
181.677536	140.0
181.792908	168.0
181.948593	168.0
181.972763	108.0
182.008331	80.0
182.08963	4364.0
182.162445	140.0
182.259521	124.0
182.283188	176.0
182.316452	76.0
182.342361	168.0
182.391846	136.0
182.418167	96.0
182.64299	140.0
182.663055	200.0
182.693024	60.0
182.746841	132.0
182.803345	84.0
182.841339	204.0
183.019348	188.0
183.092758	916.0
183.143921	104.0
183.181061	180.0
183.244934	196.0
183.279968	84.0
183.312302	136.0
183.378082	188.0
183.468628	152.0
183.546829	36.0
183.614243	48.0
183.654694	80.0
183.873245	112.0
184.055786	464.0
184.074005	272.0
184.112305	304.0
184.145935	36.0
184.191711	76.0
184.243179	104.0
184.356659	52.0
184.457779	176.0
184.524261	136.0
184.56752	80.0
184.681107	96.0
184.702744	176.0
184.870483	116.0
184.90567	124.0
184.930023	168.0
185.013947	208.0
185.048416	180.0
185.11412	36.0
185.152039	136.0
185.241425	144.0
185.303741	52.0
185.368759	136.0
185.450073	128.0
185.797165	76.0
186.177185	192.0
186.639145	116.0
186.817001	132.0
187.177917	148.0
187.246002	144.0
187.322266	192.0
187.551163	260.0
187.687469	220.0
187.979355	172.0
188.031204	48.0
188.09671	164.0
188.194992	92.0
188.429886	152.0
188.492722	92.0
188.582916	132.0
188.651245	100.0
188.675858	116.0
188.791901	192.0
188.905579	160.0
188.92598	148.0
189.065231	204.0
189.099854	160.0
189.321609	164.0
189.357208	136.0
189.49144	152.0
189.538025	168.0
189.692749	220.0
189.790207	112.0
189.9767	76.0
190.015106	68.0
190.064255	2488.0
190.1633	152.0
190.325256	52.0
190.344482	164.0
190.399414	32.0
190.495544	172.0
190.569717	148.0
190.784088	120.0
190.880325	176.0
190.946335	92.0
190.998596	180.0
191.024368	108.0
191.072449	14600.0
191.134567	132.0
191.163666	92.0
191.199448	32.0
191.248978	168.0
191.29715	96.0
191.335007	32.0
191.436203	56.0
191.521576	156.0
191.606979	128.0
191.670349	88.0
191.722702	124.0
191.841232	64.0
191.870209	180.0
191.912918	148.0
191.973068	220.0
192.018143	152.0
192.037003	212.0
192.079269	9404.0
192.144592	168.0
192.174942	340.0
192.197021	48.0
192.220978	60.0
192.268768	108.0
192.296356	92.0
192.351562	92.0
192.478561	44.0
192.60112	160.0
192.652573	124.0
192.68573	84.0
192.709442	192.0
192.754807	52.0
192.801773	144.0
192.876404	172.0
192.898514	96.0
192.942749	156.0
192.969177	108.0
193.07901	3936.0
193.150452	184.0
193.160294	108.0
193.171051	148.0
193.199356	184.0
193.224854	128.0
193.311935	160.0
193.341064	188.0
193.437943	228.0
193.487778	68.0
193.509918	36.0
193.606842	228.0
193.656693	100.0
193.685226	92.0
193.73703	68.0
193.864487	220.0
193.886658	56.0
193.908829	52.0
193.97258	96.0
194.058258	2064.0
194.094467	5068.0
194.138931	60.0
194.178345	76.0
194.20549	52.0
194.233231	112.0
194.254501	132.0
194.331696	196.0
194.452438	84.0
194.490601	32.0
194.532852	144.0
194.612106	100.0
194.641205	64.0
194.743958	132.0
194.771744	196.0
194.81897	180.0
194.921768	68.0
194.962753	64.0
195.065659	292.0
195.099442	2168.0
195.18634	144.0
195.359787	200.0
195.505753	80.0
195.592026	92.0
195.675552	48.0
195.77301	96.0
195.839844	56.0
195.876053	132.0
195.918198	128.0
195.959641	216.0
196.041168	140.0
196.071106	148.0
196.108276	1848.0
196.171448	92.0
196.213257	148.0
196.266235	76.0
196.316437	80.0
196.366638	116.0
196.402893	72.0
196.584244	72.0
196.614944	208.0
196.673553	60.0
196.701462	72.0
196.723953	68.0
196.765671	152.0
196.958679	212.0
197.106323	7184.0
197.188187	188.0
197.243546	132.0
197.325058	176.0
197.360794	208.0
197.397476	132.0
197.43631	36.0
197.483841	52.0
197.606934	44.0
197.947754	152.0
198.109177	860.0
198.166901	184.0
198.298615	156.0
198.402328	80.0
198.637894	104.0
198.688385	156.0
198.783783	236.0
198.926926	180.0
198.98027	88.0
199.030807	172.0
199.106628	320.0
199.129105	180.0
199.199326	192.0
199.328568	80.0
199.373535	108.0
199.393204	132.0
199.412872	68.0
199.522507	64.0
199.595474	176.0
199.618103	276.0
199.689957	300.0
199.789673	120.0
199.829071	104.0
199.97258	152.0
200.00354	100.0
200.083008	192.0
200.107712	100.0
200.426697	112.0
200.566895	108.0
200.820663	124.0
200.8517	60.0
201.221375	184.0
201.345627	108.0
201.436401	144.0
201.571625	120.0
201.599884	104.0
201.656418	140.0
201.928391	228.0
202.156998	168.0
202.315506	64.0
202.423096	76.0
202.533554	80.0
202.564713	84.0
202.658203	160.0
202.737549	200.0
202.954666	128.0
203.123138	136.0
203.199738	164.0
203.262161	100.0
203.46936	220.0
203.660721	196.0
203.767578	164.0
203.915344	172.0
203.940918	284.0
204.029053	188.0
204.07692	124.0
204.358963	108.0
204.384567	136.0
204.464249	244.0
204.697693	172.0
204.823013	176.0
205.045258	160.0
205.079178	272.0
205.156418	188.0
205.267609	120.0
205.573593	216.0
205.75267	140.0
205.886871	176.0
205.912582	112.0
205.946854	144.0
205.981125	152.0
206.032547	148.0
206.054092	692.0
206.082611	824.0
206.269745	44.0
206.435577	68.0
206.45845	120.0
206.498489	180.0
206.538467	168.0
206.576309	156.0
206.621948	200.0
206.692093	148.0
206.735947	204.0
206.75885	132.0
206.793182	168.0
206.823532	20.0
206.853867	200.0
206.913422	100.0
206.973541	180.0
207.012344	204.0
207.068405	24064.0
207.085968	12280.0
207.128021	200.0
207.2061	144.0
207.22905	136.0
207.268585	44.0
207.347275	176.0
207.37822	184.0
207.405762	236.0
207.424896	52.0
207.47258	136.0
207.54364	192.0
207.598236	92.0
207.633728	160.0
207.669937	84.0
207.699677	160.0
207.736557	180.0
207.772415	176.0
207.799362	172.0
207.82309	156.0
207.838699	68.0
207.844345	184.0
207.862305	392.0
207.92775	180.0
207.987289	180.0
208.006851	280.0
208.075714	69836.0
208.190994	84.0
208.229111	104.0
208.260391	240.0
208.283752	128.0
208.353455	116.0
208.393875	68.0
208.417236	52.0
208.447083	92.0
208.45784	64.0
208.4841	76.0
208.51796	92.0
208.54657	192.0
208.569366	132.0
208.598602	152.0
208.631241	128.0
208.654175	204.0
208.684814	92.0
208.753983	96.0
208.779572	124.0
208.884979	44.0
208.908707	224.0
208.929916	32.0
208.935547	76.0
208.973114	88.0
208.997803	220.0
209.028824	56.0
209.078171	11796.0
209.192627	132.0
209.247589	84.0
209.296066	100.0
209.30777	84.0
209.333389	40.0
209.338348	84.0
209.432205	84.0
209.469635	116.0
209.519913	108.0
209.534836	92.0
209.575928	68.0
209.619156	92.0
209.6772	112.0
209.7509	156.0
209.801956	132.0
209.829559	44.0
209.913193	36.0
209.955658	108.0
210.031433	72.0
210.052567	160.0
210.081802	1192.0
210.110031	292.0
210.146835	64.0
210.276688	108.0
210.310242	64.0
210.318207	104.0
210.339783	72.0
210.392151	64.0
210.430908	132.0
210.483582	180.0
210.508911	148.0
210.523727	84.0
210.57959	136.0
210.628952	184.0
210.674393	120.0
210.721237	72.0
210.753174	136.0
210.874542	104.0
210.912125	44.0
210.96022	44.0
211.036438	204.0
211.090271	324.0
211.128967	176.0
211.172348	36.0
211.253342	48.0
211.277603	156.0
211.340134	120.0
211.392227	112.0
211.450104	100.0
211.542725	64.0
211.565887	120.0
211.644058	60.0
211.713562	64.0
211.820724	48.0
211.855484	56.0
211.965591	160.0
212.049637	124.0
212.069916	204.0
212.238068	84.0
212.366333	88.0
212.443985	68.0
212.603577	32.0
212.885178	272.0
212.978104	156.0
213.066772	92.0
213.178574	48.0
213.198914	132.0
213.29483	72.0
213.39949	36.0
213.451828	112.0
213.740479	224.0
214.05127	216.0
214.692383	200.0
215.238083	40.0
215.311096	108.0
215.506805	44.0
216.053543	120.0
216.132538	44.0
216.161804	112.0
216.352051	44.0
216.44574	88.0
217.13736	36.0
217.234146	72.0
217.401398	176.0
217.509995	40.0
217.741943	88.0
217.774261	80.0
217.918198	108.0
217.985779	120.0
218.073959	64.0
218.109222	96.0
218.179779	164.0
218.235641	128.0
218.365036	40.0
218.520935	112.0
218.92421	156.0
218.953659	72.0
219.087875	184.0
219.345535	96.0
219.419235	52.0
219.46936	168.0
219.587311	68.0
219.687607	48.0
219.737762	60.0
219.796768	164.0
220.032898	104.0
220.073471	1320.0
220.097824	412.0
220.465363	88.0
220.505539	208.0
220.656296	320.0
220.771606	40.0
221.037857	164.0
221.067734	372.0
221.106308	3520.0
221.212479	88.0
221.242081	72.0
221.274643	116.0
221.318497	84.0
221.404938	76.0
221.514526	116.0
221.569214	88.0
221.671555	144.0
221.804916	48.0
221.959091	28.0
222.046921	156.0
222.112167	1296.0
222.154846	120.0
222.267593	64.0
222.386292	148.0
222.41301	76.0
222.433792	76.0
222.837677	152.0
222.864426	116.0
222.900269	60.0
222.997513	188.0
223.038071	268.0
223.086411	800.0
223.121536	34120.0
223.222488	148.0
223.28952	108.0
223.31926	44.0
223.346024	84.0
223.476929	76.0
223.519699	108.0
223.551315	84.0
223.607864	44.0
223.651703	176.0
223.69989	48.0
223.744919	92.0
223.766922	148.0
223.808838	156.0
223.935379	84.0
223.965164	52.0
224.01329	76.0
224.094818	1424.0
224.124481	4836.0
224.185638	52.0
224.218414	52.0
224.257751	60.0
224.286972	44.0
224.325714	32.0
224.58812	56.0
224.659714	56.0
224.680603	64.0
224.71994	64.0
224.755188	72.0
224.847702	48.0
224.868591	44.0
225.00293	100.0
225.035767	72.0
225.101059	4372.0
225.173126	68.0
225.205978	40.0
225.293396	200.0
225.337433	96.0
225.363785	112.0
225.445877	108.0
225.557999	84.0
225.64624	124.0
225.749924	84.0
225.794785	64.0
225.81572	172.0
225.872543	120.0
225.956314	28.0
226.031113	52.0
226.104889	332.0
226.132874	400.0
226.33345	56.0
226.567062	40.0
226.617996	92.0
226.683914	72.0
227.013672	96.0
227.057159	96.0
227.111343	180.0
227.26265	72.0
227.457718	68.0
227.499741	32.0
227.700928	68.0
228.016388	80.0
228.380188	60.0
228.638947	136.0
229.826248	128.0
229.883575	76.0
229.986191	68.0
230.355103	96.0
230.387817	80.0
231.603882	120.0
232.031158	80.0
232.088776	184.0
232.116058	100.0
232.519531	36.0
233.109009	196.0
233.248505	64.0
234.102219	256.0
235.085068	128.0
235.225464	56.0
235.872192	196.0
236.09436	480.0
236.137482	168.0
236.94722	136.0
237.102081	560.0
237.130173	308.0
237.385544	96.0
238.094452	100.0
238.186584	48.0
238.214233	52.0
239.114166	336.0
240.940659	112.0
241.172409	44.0
242.109879	184.0
243.101913	60.0
243.35025	132.0
246.89328	112.0
247.346954	76.0
249.087311	172.0
249.124817	244.0
250.132874	604.0
251.116058	1164.0
251.15181	284.0
251.184525	168.0
251.363617	100.0
252.155365	176.0
252.200531	144.0
253.092667	120.0
253.126236	172.0
253.843674	28.0
254.107025	476.0
254.564026	172.0
255.120056	148.0
255.613052	108.0
255.746719	48.0
257.749512	140.0
261.128479	128.0
261.334381	92.0
261.640137	56.0
261.727051	124.0
262.120026	112.0
265.488525	60.0
265.793457	56.0
265.903778	132.0
266.283661	128.0
267.134094	264.0
268.121857	112.0
269.127258	428.0
269.167999	180.0
270.133942	180.0
270.182281	200.0
270.231354	56.0
270.385162	60.0
271.072876	136.0
274.544373	104.0
274.613647	192.0
275.600708	120.0
275.980835	44.0
277.812347	132.0
278.117645	176.0
278.144196	132.0
279.077728	68.0
279.150787	1420.0
279.243988	172.0
280.153015	328.0
280.879456	168.0
281.160736	264.0
282.559814	76.0
285.436951	220.0
286.541687	108.0
288.698639	52.0
288.901581	64.0
289.866547	76.0
292.00531	248.0
292.99588	76.0
294.145142	164.0
295.141418	424.0
295.173523	132.0
296.107788	88.0
296.285889	124.0
296.899475	128.0
296.974915	144.0
297.157837	6320.0
297.207764	184.0
297.269958	72.0
297.321442	56.0
297.386658	80.0
297.527405	68.0
297.558289	76.0
297.709381	64.0
298.038879	152.0
298.163452	1372.0
298.245361	32.0
298.358795	36.0
298.420685	52.0
299.15448	136.0
299.18103	160.0
299.856171	120.0
299.994049	96.0
300.428558	52.0
301.023682	60.0
303.343811	76.0
304.221466	92.0
304.395081	104.0
304.909241	72.0
305.608185	88.0
305.855286	100.0
305.900543	140.0
307.165497	148.0
309.160004	524.0
310.160278	416.0
311.144501	140.0
312.772125	112.0
313.513031	88.0
317.439301	48.0
318.969543	164.0
321.498352	140.0
321.948181	100.0
322.196747	380.0
323.883118	136.0
324.169739	56.0
324.743378	124.0
325.09137	140.0
325.175568	1020.0
325.335449	56.0
325.385712	32.0
325.486237	136.0
325.884949	28.0
326.179932	256.0
326.226379	100.0
327.136505	32.0
328.632202	48.0
328.726013	112.0
330.398926	60.0
332.885406	112.0
338.845581	72.0
338.951843	56.0
338.977478	180.0
339.212036	124.0
340.063049	256.0
340.198853	2672.0
340.371429	76.0
340.555054	60.0
341.202026	1060.0
341.348877	64.0
341.687256	104.0
341.790283	92.0
342.117859	48.0
342.213806	160.0
346.38681	100.0
347.187408	60.0
351.618378	48.0
354.610474	128.0
354.666687	92.0
355.833374	72.0
361.642578	108.0
362.449219	104.0
362.475739	72.0
363.389557	28.0
370.469452	124.0
371.519867	92.0
372.448822	68.0
376.547028	64.0
377.21936	132.0
377.687225	40.0
378.991913	104.0
379.918518	100.0
380.225067	36.0
386.006348	112.0
386.651825	108.0
405.946442	68.0
409.499146	68.0
418.188141	52.0
418.497528	52.0
420.817535	100.0
425.530121	124.0
431.078552	80.0
443.393127	104.0
447.796204	76.0
450.077698	92.0
451.1297	80.0
454.645325	60.0
455.587952	52.0
456.455017	140.0
464.35141	76.0
465.557404	108.0
469.715149	96.0
470.103455	88.0
472.579437	140.0
483.637726	112.0
484.8685	56.0
489.287476	68.0
492.577332	84.0
493.363953	112.0
493.576172	84.0
493.730957	112.0
495.133881	64.0
506.85022	32.0
516.973389	44.0
527.900635	48.0
529.575684	40.0
532.345825	56.0
546.72345	72.0
547.631348	80.0
552.556213	44.0
553.216125	56.0
566.434814	84.0
567.249878	56.0
577.937195	132.0
579.986938	48.0
595.03363	52.0
605.047852	88.0
605.277954	120.0
644.645813	100.0
652.227966	132.0
672.34198	40.0
681.18042	44.0
757.341736	72.0
767.955505	84.0
769.815369	120.0
779.137512	60.0
788.219543	48.0
801.214294	84.0
803.791077	68.0
816.952881	56.0
826.446594	116.0
829.929138	84.0
835.70166	64.0
842.337402	48.0
846.33374	52.0
893.84314	108.0
894.604919	56.0
915.712708	64.0
930.54657	108.0
950.352966	60.0
954.76355	52.0
964.041748	68.0
969.276978	92.0
971.229919	96.0
976.465942	36.0
991.963806	76.0
994.071167	136.0
994.811829	84.0
1005.405212	160.0
1014.843262	172.0
1046.780762	160.0
1080.900757	112.0
1088.45874	100.0
1093.547241	96.0
1095.232788	192.0
1100.924683	172.0
1101.618164	32.0
1103.541382	48.0
1104.321777	96.0
1108.214355	132.0
1110.043823	128.0
1115.228882	108.0
1131.720215	184.0
1141.584351	216.0
1149.297363	192.0
1151.052368	212.0
1153.741455	40.0
1158.207764	244.0
1169.561035	84.0
1171.637939	156.0
1173.389526	136.0
1176.15918	144.0
1176.951172	136.0
1185.748657	48.0
1187.53125	172.0
1194.372559	132.0
1200.254028	148.0
1200.378174	136.0
1201.564575	192.0
1204.118652	108.0
1213.550659	144.0
1221.029663	76.0
1223.868896	152.0
1233.168213	68.0
1242.144897	188.0
1242.292236	156.0
1246.989746	212.0
1247.165527	44.0
1250.330566	140.0
1250.999268	140.0
1251.928711	160.0
1254.47229	144.0
1260.167603	256.0
1265.713135	48.0
1269.582275	112.0
1274.928101	152.0
1277.87915	168.0
1279.494751	152.0
1281.082886	180.0
1283.185303	176.0
1285.346436	140.0
1285.417847	232.0
1294.381836	188.0
1294.718506	52.0
1297.86438	196.0
1300.906372	132.0
1301.22229	124.0
1314.350952	156.0
1316.949951	160.0
1317.7229	72.0
1321.294434	80.0
1322.879395	168.0
1327.204712	112.0
1327.647095	96.0
1341.950439	192.0
1342.322388	68.0
1342.650513	64.0
1344.204346	128.0
1344.948853	124.0
1345.927124	140.0
1346.416382	160.0
1347.190674	92.0
1351.555542	128.0
1353.539185	200.0
1365.530762	164.0
1365.89856	208.0
1366.935913	188.0
1367.02417	184.0
1367.745483	196.0
1378.247559	164.0
1380.968018	172.0
1382.536499	176.0
1384.735352	88.0
1386.884033	120.0
1388.322388	64.0
1388.663574	152.0
1392.315186	136.0
1397.34021	68.0
1397.875854	172.0
1398.724365	160.0
1403.492432	160.0
1404.238159	156.0
1404.805054	128.0
1410.159058	48.0
1416.129639	116.0
1422.098022	168.0
1428.251831	116.0
1429.696411	204.0
1430.313599	180.0
1431.812012	192.0
1436.636108	156.0
1436.786987	164.0
1443.138794	88.0
1444.91626	96.0
1446.217773	232.0
1448.762207	144.0
1450.846191	180.0
1452.188477	192.0
1453.258057	104.0
1454.996094	108.0
1456.393433	156.0
1458.00415	160.0
1458.901123	164.0
1462.521973	128.0
1463.306152	168.0
1463.473633	132.0
1463.603027	172.0
1466.071167	176.0
1466.55896	44.0
1466.612305	172.0
1467.123047	136.0
1467.5271	148.0
1467.611084	88.0
1468.533813	156.0
1468.587158	132.0
1471.548096	204.0
1471.624512	228.0
1472.27356	156.0
1475.24585	132.0
1475.865112	100.0
1476.071533	120.0
1476.943481	152.0
1477.685547	148.0
1478.412476	184.0
1480.127197	160.0
1480.502441	152.0
1481.130493	192.0
1483.000122	76.0
1484.656128	196.0
1486.527954	132.0
1490.252197	120.0
1490.474976	136.0
1490.605591	172.0
1490.913086	128.0
1492.573486	164.0
1492.881104	148.0
1494.681152	152.0
1495.95105	156.0
1496.066528	40.0
1501.483521	164.0
1501.714844	136.0
1502.856567	176.0
1504.322998	152.0
END IONS

BEGIN IONS
PEPMASS=325.156
CHARGE=1
MSLEVEL=2
SOURCE_INSTRUMENT=LC-ESI-qTof
FILENAME=p4-F03_GF3_01_18387.mzXML
SEQ=*..*
IONMODE=Positive
ORGANISM=GNPS-NIH-SMALLMOLECULEPHARMACOLOGICALLYACTIVE
NAME=MLS002154125-01!Oxyphenbutazone129-20-4 M+H
PI=Dorrestein
DATACOLLECTOR=VP/LMS
SMILES=CCCCC1C(=O)N(N(C1=O)c2ccc(O)cc2)c3ccccc3
INCHI=N/A
INCHIAUX=N/A
PUBMED=N/A
SUBMITUSER=vphelan
LIBRARYQUALITY=1
SPECTRUMID=CCMSLIB00000085768
USI=mzspec:GNPS:GNPS-NIH-SMALLMOLECULEPHARMACOLOGICALLYACTIVE:accession:CCMSLIB00000085768
SCANS=2015
44.977375	132.0
45.086899	124.0
45.500816	136.0
46.649178	168.0
46.719894	164.0
46.783859	256.0
47.006027	188.0
47.056641	228.0
47.58366	208.0
48.264332	72.0
48.462269	100.0
48.555149	176.0
48.742565	232.0
48.967937	196.0
49.054333	164.0
49.375484	128.0
49.647182	168.0
50.108246	164.0
50.363586	188.0
50.533234	180.0
50.755615	172.0
50.921658	104.0
50.968536	140.0
52.532051	32.0
53.075871	172.0
53.199196	144.0
54.116257	88.0
54.637295	224.0
55.032295	188.0
55.593323	136.0
55.735882	160.0
55.784927	224.0
56.06625	188.0
56.125877	152.0
56.298985	168.0
56.50676	140.0
56.59507	160.0
57.139915	216.0
57.218178	136.0
58.211613	184.0
58.985611	184.0
59.155415	196.0
59.262623	204.0
59.661671	132.0
59.709339	120.0
59.889507	144.0
60.845119	220.0
60.866856	192.0
62.052731	136.0
62.153114	196.0
62.242588	196.0
62.564915	48.0
62.752399	120.0
62.791824	120.0
64.144379	136.0
64.580307	140.0
64.703522	160.0
64.745155	208.0
64.860519	76.0
65.500069	188.0
65.537125	176.0
66.37606	184.0
67.368912	160.0
67.444084	136.0
67.963242	212.0
68.168503	184.0
68.2211	148.0
68.384621	176.0
68.441566	68.0
68.857147	164.0
68.916618	144.0
68.94471	128.0
69.449692	160.0
69.47789	160.0
69.969833	80.0
70.044777	180.0
70.284859	136.0
70.496933	88.0
70.675865	152.0
71.210648	240.0
71.414024	52.0
71.838516	144.0
71.924583	196.0
72.020828	100.0
72.259193	152.0
72.330269	140.0
72.896759	120.0
72.934151	152.0
72.974945	108.0
73.506401	132.0
73.707901	108.0
73.979851	136.0
74.99852	196.0
75.5961	92.0
75.876709	52.0
75.949547	36.0
76.109207	180.0
76.557861	160.0
77.053253	132.0
77.920517	140.0
78.900444	152.0
80.203468	220.0
80.265869	196.0
81.00222	160.0
81.15815	164.0
81.246033	224.0
82.398277	208.0
83.102592	260.0
83.416786	116.0
83.460426	156.0
84.119957	156.0
84.397667	172.0
85.171059	188.0
85.220665	196.0
85.376419	164.0
87.242645	208.0
87.391434	220.0
87.445404	112.0
87.462151	132.0
87.532898	144.0
87.8311	128.0
87.868416	120.0
88.14476	156.0
88.591934	164.0
89.459557	136.0
90.537727	148.0
91.055489	360.0
91.131477	216.0
91.357719	216.0
91.641403	256.0
92.050552	964.0
92.175682	120.0
92.198616	160.0
92.21199	124.0
92.535286	180.0
93.036179	232.0
93.056198	476.0
93.649109	152.0
94.034729	188.0
94.062408	800.0
95.173042	92.0
95.78373	164.0
95.98642	40.0
96.046883	192.0
96.078094	44.0
97.419136	104.0
97.466293	48.0
98.157227	108.0
99.050568	176.0
99.08226	212.0
99.179367	204.0
100.53582	88.0
101.20549	220.0
101.479996	176.0
102.036148	172.0
102.176941	216.0
102.325874	192.0
102.400383	180.0
102.702721	60.0
102.868187	172.0
102.914627	256.0
102.963089	152.0
103.426109	152.0
103.709686	248.0
103.731987	152.0
103.912483	204.0
104.047134	700.0
104.080948	56.0
104.809166	228.0
105.031387	124.0
105.063156	196.0
105.729774	104.0
106.028618	524.0
106.065033	1252.0
106.166542	92.0
106.992569	176.0
107.033623	168.0
107.048485	284.0
107.138794	92.0
107.79287	180.0
108.017815	220.0
108.043846	2172.0
108.103058	212.0
108.276962	72.0
108.696381	268.0
109.030647	320.0
109.048782	264.0
109.213043	56.0
109.381592	164.0
109.627357	40.0
110.040756	132.0
110.060432	396.0
110.839867	72.0
110.914848	128.0
111.189613	164.0
111.447914	236.0
111.519371	188.0
113.31736	192.0
114.089897	164.0
114.430305	164.0
114.933334	164.0
115.052834	188.0
115.428909	144.0
116.062752	164.0
116.399643	92.0
116.85318	204.0
117.059723	180.0
117.881729	88.0
117.981155	224.0
118.066559	312.0
118.671814	160.0
118.704338	204.0
118.927803	240.0
119.038528	204.0
119.067833	180.0
119.255791	60.0
119.40799	140.0
119.782372	180.0
119.958885	144.0
120.043076	1968.0
120.066452	84.0
120.075272	180.0
120.16243	104.0
120.290466	160.0
120.340683	156.0
120.393089	96.0
120.491386	36.0
120.7034	180.0
120.810577	204.0
121.030373	244.0
121.046921	388.0
121.156479	56.0
121.244125	284.0
121.643326	148.0
121.808022	160.0
122.034752	216.0
122.059334	900.0
122.131149	76.0
122.406258	48.0
122.542824	96.0
123.065567	200.0
123.653603	120.0
123.857307	152.0
124.012413	240.0
124.039009	184.0
124.189796	200.0
124.380623	196.0
124.556046	148.0
124.676025	148.0
125.058571	112.0
125.296852	136.0
125.517509	88.0
126.010803	180.0
126.381966	132.0
126.62822	40.0
127.058617	132.0
128.049942	496.0
128.302322	56.0
129.071686	156.0
130.065781	372.0
130.723694	180.0
131.044769	188.0
131.07399	232.0
131.138199	228.0
131.653824	216.0
132.042282	252.0
132.078949	496.0
132.332977	124.0
132.876175	180.0
133.046249	340.0
134.058975	676.0
134.094284	164.0
134.888992	168.0
135.030273	224.0
135.065353	148.0
135.917313	188.0
136.005493	180.0
136.034943	392.0
136.07045	204.0
136.10997	128.0
136.695297	40.0
137.038055	160.0
137.36911	192.0
138.039444	160.0
138.655151	76.0
139.063263	264.0
139.598923	172.0
140.057861	200.0
140.295883	168.0
140.501053	144.0
140.781952	156.0
141.020569	224.0
141.849045	180.0
142.057724	124.0
142.249939	80.0
142.34491	132.0
142.779816	224.0
143.066589	192.0
143.089157	148.0
143.732712	124.0
144.000092	116.0
144.044189	212.0
144.078262	168.0
145.073776	248.0
145.156021	44.0
145.271149	104.0
145.527954	116.0
146.027802	136.0
146.056229	536.0
146.620087	28.0
147.053406	168.0
147.230469	64.0
147.680008	48.0
147.701141	76.0
147.793716	112.0
147.880829	168.0
148.037613	6804.0
148.075302	440.0
148.11499	388.0
148.246536	52.0
148.576309	40.0
148.87001	276.0
148.955017	40.0
149.047333	5044.0
149.115387	208.0
149.185883	128.0
149.351242	36.0
149.516693	152.0
149.635971	28.0
149.945343	44.0
150.011154	56.0
150.048828	856.0
150.09404	128.0
151.048126	380.0
151.259445	120.0
151.333618	80.0
151.501877	48.0
152.036423	168.0
152.539948	144.0
153.872757	140.0
154.064377	244.0
154.258148	192.0
154.730667	96.0
155.060135	372.0
155.816986	112.0
156.043152	192.0
156.075974	224.0
156.877182	164.0
157.070816	168.0
157.089279	236.0
157.575989	160.0
157.723434	184.0
158.058792	620.0
158.085831	176.0
158.634613	116.0
159.066788	188.0
159.367462	140.0
160.04039	508.0
160.063095	600.0
160.111847	1492.0
160.135193	208.0
160.374115	128.0
160.558167	108.0
161.075394	308.0
161.143814	148.0
162.055496	1504.0
162.090164	552.0
162.126709	512.0
162.848709	44.0
163.060577	592.0
163.12822	116.0
163.369812	36.0
163.519943	48.0
164.06189	344.0
164.107315	176.0
164.20787	84.0
164.613647	96.0
166.069901	116.0
169.088501	232.0
170.095413	252.0
172.083176	100.0
172.109833	484.0
172.410843	40.0
173.06778	140.0
173.546951	192.0
174.050369	272.0
174.089157	140.0
174.28978	56.0
174.352859	96.0
175.059265	444.0
175.086868	220.0
175.339798	240.0
175.64566	40.0
176.03363	272.0
176.067627	208.0
176.105347	480.0
177.046494	176.0
177.102127	124.0
177.648193	68.0
178.052383	156.0
178.086182	28.0
178.122467	536.0
178.966446	76.0
179.070297	160.0
179.120911	128.0
180.123901	200.0
181.076141	148.0
181.802689	144.0
182.057175	368.0
182.083481	332.0
183.046021	144.0
183.067276	212.0
184.07077	188.0
185.063065	524.0
185.115906	120.0
186.093445	112.0
186.964676	92.0
188.076706	220.0
188.109009	360.0
189.074326	132.0
190.046112	1188.0
190.091049	136.0
190.121353	200.0
191.052734	104.0
191.125534	184.0
193.060791	180.0
196.074219	212.0
196.103729	124.0
197.070923	188.0
197.740448	128.0
197.799225	44.0
198.076309	672.0
198.80545	104.0
199.079285	428.0
200.072342	268.0
200.107056	388.0
200.12944	156.0
201.099228	152.0
201.534134	120.0
202.089752	176.0
203.088348	92.0
203.670242	40.0
204.062424	260.0
204.100082	3264.0
204.134216	144.0
204.398056	68.0
205.073013	188.0
205.104523	788.0
206.08519	148.0
206.113052	224.0
206.411972	56.0
206.689453	44.0
207.116028	76.0
207.809799	132.0
208.033661	88.0
209.105835	176.0
209.883667	172.0
210.049896	164.0
210.212509	44.0
212.141739	196.0
213.099472	144.0
214.084244	348.0
214.863861	180.0
215.953476	48.0
216.096817	208.0
216.169968	136.0
216.966675	180.0
217.139679	120.0
218.140961	176.0
220.002808	168.0
221.123108	176.0
222.078827	100.0
222.551987	92.0
222.837128	136.0
223.110626	208.0
224.065643	216.0
224.093643	168.0
227.081207	928.0
227.118729	184.0
228.054977	140.0
228.086945	128.0
231.034317	120.0
231.243118	128.0
232.094635	708.0
235.093826	216.0
236.0867	168.0
236.63443	112.0
237.098511	240.0
237.734879	120.0
241.138077	96.0
243.517624	76.0
248.095398	184.0
249.105911	164.0
251.09523	148.0
251.972794	76.0
253.098801	168.0
254.179733	56.0
254.910095	156.0
257.998688	156.0
262.132843	140.0
263.077881	112.0
263.119843	104.0
263.177979	160.0
264.07959	140.0
266.06604	196.0
267.936096	36.0
268.076202	148.0
269.082977	216.0
270.080872	132.0
278.094513	192.0
279.08783	160.0
280.116211	64.0
281.092072	196.0
281.156525	144.0
282.091766	168.0
283.139069	176.0
288.759735	80.0
294.688446	80.0
299.081573	92.0
324.263611	108.0
325.160248	176.0
327.158844	108.0
355.384094	124.0
376.332153	72.0
395.461945	40.0
442.27298	44.0
536.744202	60.0
604.509399	36.0
733.412964	56.0
791.348633	196.0
842.519592	80.0
845.289185	196.0
850.812927	168.0
867.210876	136.0
876.997437	204.0
885.630188	208.0
910.820679	108.0
913.892761	224.0
924.156372	72.0
925.687866	180.0
932.35199	40.0
941.695129	164.0
954.227112	152.0
971.607056	228.0
977.416504	108.0
1000.210693	60.0
1005.959778	96.0
1033.153687	64.0
1037.925415	104.0
1053.540039	76.0
1055.136353	172.0
1062.584595	240.0
1063.751953	216.0
1070.05896	56.0
1070.410522	156.0
1079.533569	108.0
1089.634644	132.0
1092.185303	124.0
1102.213135	116.0
1127.706909	176.0
1131.499878	120.0
1133.690308	144.0
1138.493774	144.0
1139.857422	140.0
1140.106079	136.0
1151.140991	136.0
1152.343384	188.0
1159.557129	168.0
1190.092407	120.0
1208.288452	124.0
1222.798584	100.0
1223.926392	128.0
1227.361694	40.0
1229.119507	128.0
1231.269653	160.0
1235.834595	264.0
1242.546753	156.0
1247.09729	164.0
1249.804932	152.0
1256.724243	116.0
1269.010254	192.0
1270.677124	136.0
1272.785156	208.0
1273.197021	60.0
1277.75354	232.0
1278.358398	164.0
1281.819214	116.0
1286.626709	124.0
1293.933472	172.0
1298.598633	208.0
1314.404419	176.0
1314.794189	224.0
1321.297607	216.0
1324.316284	204.0
1327.80249	196.0
1329.166382	164.0
1331.997925	152.0
1333.1604	236.0
1333.872681	200.0
1334.105347	128.0
1337.356934	152.0
1339.53418	56.0
1343.653198	128.0
1347.932007	124.0
1356.356079	120.0
1359.054932	124.0
1368.161377	156.0
1373.02478	132.0
1375.415283	204.0
1382.199951	104.0
1383.761841	64.0
1386.517456	184.0
1388.445068	236.0
1389.379761	272.0
1393.886719	196.0
1396.630127	184.0
1397.269897	124.0
1404.630249	176.0
1404.697388	192.0
1408.38501	152.0
1418.456909	132.0
1424.903442	96.0
1430.732178	180.0
1431.108643	56.0
1434.86084	168.0
1443.710693	152.0
1446.154419	156.0
1448.895752	152.0
1450.108154	136.0
1450.646362	172.0
1456.094482	152.0
1457.819092	164.0
1461.705078	196.0
1463.349121	120.0
1471.553223	156.0
1473.202881	152.0
1473.508545	56.0
1476.726807	64.0
1480.5	96.0
1481.817505	128.0
1490.956787	184.0
1493.48645	136.0
1494.15564	140.0
1503.610718	184.0
END IONS

BEGIN IONS
PEPMASS=391.253
CHARGE=1
MSLEVEL=2
SOURCE_INSTRUMENT=LC-ESI-qTof
FILENAME=p4-F08_GF8_01_18392.mzXML
SEQ=*..*
IONMODE=Positive
ORGANISM=GNPS-NIH-SMALLMOLECULEPHARMACOLOGICALLYACTIVE
NAME=MLS002154092-01!Alfadolone acetate23930-37-2 M+H
PI=Dorrestein
DATACOLLECTOR=VP/LMS
SMILES=CC(=O)OCC(=O)[C@H]1CC[C@H]2[C@@H]3CC[C@H]4C[C@H](O)CC[C@]4(C)[C@H]3C(=O)C[C@]12C
INCHI=N/A
INCHIAUX=N/A
PUBMED=N/A
SUBMITUSER=vphelan
LIBRARYQUALITY=1
SPECTRUMID=CCMSLIB00000085806
USI=mzspec:GNPS:GNPS-NIH-SMALLMOLECULEPHARMACOLOGICALLYACTIVE:accession:CCMSLIB00000085806
SCANS=2133
44.955276	132.0
45.027084	256.0
45.039108	180.0
45.11795	132.0
45.140682	156.0
45.274509	240.0
45.369648	64.0
45.40451	180.0
45.576344	88.0
45.768696	124.0
45.930424	128.0
46.062714	156.0
46.100548	180.0
46.121788	240.0
46.229023	192.0
46.315674	144.0
46.608723	120.0
46.683487	96.0
46.832493	148.0
46.854385	232.0
46.931324	108.0
46.993195	156.0
47.111485	176.0
47.163414	104.0
47.41663	192.0
47.680145	236.0
47.717262	44.0
47.790157	128.0
47.865868	136.0
47.931988	68.0
47.953213	180.0
48.016083	108.0
48.04781	312.0
48.093349	140.0
48.279873	148.0
48.297855	100.0
48.454288	148.0
48.482002	176.0
48.631794	180.0
48.859695	84.0
49.099285	108.0
49.199753	104.0
49.255615	172.0
49.318497	148.0
49.342258	216.0
49.358784	176.0
49.445774	212.0
49.522785	120.0
49.569016	40.0
49.604057	208.0
49.630695	96.0
49.703636	148.0
49.719074	180.0
49.74855	188.0
50.039574	72.0
50.063515	172.0
50.121269	224.0
50.143818	180.0
50.167782	160.0
50.280628	116.0
50.298977	136.0
50.397839	124.0
50.547729	196.0
50.686504	184.0
50.858711	180.0
50.897861	164.0
51.039959	76.0
51.059872	336.0
51.111084	128.0
51.192226	148.0
51.215012	232.0
51.272007	200.0
51.286259	120.0
51.31477	64.0
51.339012	224.0
51.551727	92.0
51.660393	180.0
51.673271	128.0
51.739105	172.0
51.77277	220.0
51.810715	168.0
51.878071	76.0
52.168064	168.0
52.432919	140.0
52.507889	128.0
52.519428	188.0
52.803974	140.0
52.814098	192.0
52.945808	116.0
53.145859	116.0
53.314312	196.0
53.440823	160.0
53.484482	100.0
53.526707	224.0
53.608284	108.0
53.793522	128.0
54.028809	108.0
54.188396	76.0
54.340881	112.0
54.383442	112.0
54.599422	108.0
54.653851	80.0
54.756901	88.0
54.804043	192.0
54.858574	140.0
54.936737	168.0
54.995762	176.0
55.113911	172.0
55.137554	148.0
55.193729	152.0
55.294331	96.0
55.464664	188.0
55.49728	64.0
55.709518	108.0
55.795719	64.0
55.870079	256.0
55.904301	44.0
56.023422	204.0
56.048752	92.0
56.194878	164.0
56.302933	124.0
56.348663	144.0
56.449734	208.0
56.468254	192.0
56.505653	180.0
56.69133	208.0
56.703186	136.0
56.817284	184.0
56.856869	148.0
56.890823	176.0
57.107212	72.0
57.170403	144.0
57.218571	44.0
57.253204	48.0
57.293873	184.0
57.307434	180.0
57.461224	140.0
57.479332	172.0
57.489895	184.0
57.704395	180.0
57.875374	80.0
57.943531	132.0
57.975353	112.0
58.032955	160.0
58.089069	148.0
58.119415	236.0
58.157356	148.0
58.240868	56.0
58.529831	40.0
58.615135	184.0
58.642567	180.0
58.747784	208.0
58.813404	180.0
58.860733	160.0
58.879059	148.0
58.937107	160.0
59.034943	176.0
59.168064	236.0
59.235451	184.0
59.359596	92.0
59.4762	160.0
59.533009	60.0
59.55912	200.0
59.585236	176.0
59.620579	200.0
59.70052	128.0
59.800526	84.0
59.89291	160.0
59.945297	136.0
60.026997	156.0
60.172043	224.0
60.195202	104.0
60.298714	132.0
60.315716	184.0
60.430157	164.0
60.479679	196.0
60.62682	132.0
60.704334	168.0
60.837772	184.0
60.934063	184.0
61.346489	108.0
61.399502	172.0
61.429138	36.0
61.597736	180.0
61.727459	188.0
61.849495	124.0
62.17551	208.0
62.486649	180.0
62.61573	160.0
62.67717	180.0
62.913757	156.0
63.256809	52.0
63.297974	140.0
63.329651	156.0
63.548424	160.0
63.616669	124.0
63.661919	160.0
63.748501	144.0
63.772339	152.0
63.945709	60.0
64.058769	60.0
64.226143	72.0
64.555161	164.0
64.630341	108.0
64.753609	168.0
65.008377	180.0
65.214096	200.0
65.300926	52.0
65.333099	136.0
65.354012	120.0
65.500519	164.0
65.521461	228.0
65.571419	96.0
65.760124	156.0
66.015388	88.0
66.10598	132.0
66.248466	124.0
66.280876	160.0
66.379761	80.0
66.582619	144.0
66.735374	160.0
66.823204	160.0
66.849045	232.0
66.910431	124.0
66.974602	156.0
67.015335	152.0
67.074005	128.0
67.212631	196.0
67.332924	216.0
67.374275	44.0
67.519753	164.0
67.757111	56.0
67.927612	100.0
68.035919	132.0
68.053978	164.0
68.078613	128.0
68.119675	144.0
68.162392	56.0
68.234718	160.0
68.49968	140.0
68.524391	184.0
68.809731	176.0
68.9832	176.0
69.269485	212.0
69.342392	184.0
69.393784	84.0
69.410362	208.0
69.504822	212.0
69.667633	92.0
69.923706	232.0
69.935356	136.0
69.998817	168.0
70.128571	68.0
70.266983	92.0
70.716469	164.0
70.818649	196.0
70.833725	192.0
71.295143	152.0
71.337166	128.0
71.473396	184.0
71.493591	72.0
71.567657	244.0
71.633347	104.0
71.719284	156.0
71.791779	120.0
72.115944	152.0
72.173424	176.0
72.457779	224.0
72.495056	140.0
72.508614	128.0
72.523872	152.0
72.686684	140.0
72.814011	164.0
72.896423	196.0
73.210274	76.0
73.585419	92.0
73.604202	172.0
73.670815	108.0
73.824646	140.0
74.018021	216.0
74.03344	40.0
74.07283	128.0
74.093391	152.0
74.175232	196.0
74.288826	156.0
74.407249	48.0
74.438065	152.0
74.494835	148.0
74.85775	128.0
74.905983	136.0
74.950775	112.0
75.000755	212.0
75.133537	64.0
75.240547	116.0
75.565475	136.0
75.678032	240.0
75.697021	148.0
75.731659	128.0
75.769775	80.0
76.025986	132.0
76.041267	228.0
76.104523	40.0
76.125359	180.0
76.184418	132.0
76.27652	148.0
76.38607	180.0
76.464371	48.0
76.574799	164.0
76.966446	196.0
77.038055	144.0
77.052032	140.0
77.083488	80.0
77.160393	180.0
77.25309	228.0
77.405357	120.0
77.513969	180.0
77.557785	208.0
77.729477	264.0
77.759499	176.0
77.864838	252.0
78.327438	92.0
78.440216	132.0
78.472832	152.0
78.671318	180.0
78.685928	188.0
79.060181	172.0
79.288651	152.0
79.343597	208.0
79.382607	72.0
79.693253	124.0
79.730568	168.0
79.833679	180.0
79.956436	160.0
80.050789	184.0
80.095322	140.0
80.107788	108.0
80.175499	132.0
80.230759	140.0
80.243233	56.0
80.293167	184.0
80.393074	232.0
80.446617	176.0
80.50531	92.0
80.668808	64.0
81.611191	124.0
81.636368	184.0
81.692123	44.0
81.951385	124.0
81.987419	76.0
82.064934	156.0
82.24173	76.0
82.281448	216.0
82.333885	204.0
82.375359	176.0
82.411491	124.0
82.57238	204.0
82.708084	168.0
82.9617	144.0
83.092278	68.0
83.328308	100.0
83.473877	144.0
83.661133	180.0
83.690262	180.0
83.730324	156.0
83.992798	88.0
84.058479	84.0
84.336082	112.0
84.422012	64.0
84.507988	144.0
84.573875	84.0
84.760681	144.0
84.857826	240.0
84.962372	176.0
85.063301	132.0
85.383797	132.0
85.412445	232.0
85.458443	44.0
85.568871	216.0
85.837898	148.0
85.860023	76.0
85.906136	140.0
85.920898	48.0
86.015015	176.0
86.074097	232.0
86.099953	148.0
86.360558	80.0
86.397552	144.0
86.701233	112.0
86.766106	120.0
86.897789	192.0
86.957176	40.0
87.07972	104.0
87.245102	176.0
87.269096	212.0
87.524193	92.0
87.624771	80.0
88.076233	220.0
88.210777	144.0
88.350716	212.0
88.410912	212.0
88.425888	248.0
88.526985	356.0
88.551331	96.0
88.581299	244.0
88.832497	228.0
88.86969	156.0
88.922569	104.0
88.99015	148.0
89.070908	168.0
89.187408	188.0
89.285179	120.0
89.335968	144.0
89.441345	192.0
89.565628	140.0
89.720154	184.0
89.914444	132.0
90.084389	164.0
90.167526	152.0
90.241249	160.0
90.279068	200.0
90.364189	164.0
90.424751	100.0
90.690315	152.0
90.716454	168.0
90.904366	168.0
90.934601	60.0
91.053726	1168.0
91.08519	156.0
91.141602	164.0
91.209259	156.0
91.523933	228.0
91.638222	36.0
91.838387	168.0
91.910881	232.0
92.000587	172.0
92.057007	168.0
92.128548	84.0
92.24321	256.0
92.390457	148.0
92.449776	132.0
92.470833	180.0
92.503372	96.0
92.581871	208.0
92.708313	144.0
92.763901	132.0
92.811829	184.0
93.068413	904.0
93.09008	184.0
93.205338	144.0
93.238007	128.0
93.297592	172.0
93.532288	196.0
93.547691	152.0
93.59005	140.0
94.03923	180.0
94.073845	180.0
94.429527	188.0
94.551094	200.0
94.727615	92.0
94.760551	184.0
94.812874	164.0
94.867149	212.0
95.016479	152.0
95.048325	184.0
95.083786	1120.0
95.358253	252.0
95.395187	232.0
95.420456	148.0
95.471924	128.0
95.589684	156.0
95.663643	48.0
95.80043	152.0
95.87011	184.0
96.006577	168.0
96.087456	312.0
96.166565	148.0
96.29348	172.0
96.498665	216.0
96.555374	164.0
96.709946	232.0
96.746033	156.0
96.841133	140.0
97.064186	492.0
97.779648	92.0
97.811142	248.0
97.899742	136.0
97.915497	140.0
97.929283	156.0
98.055382	160.0
98.14212	180.0
98.264412	180.0
98.323608	224.0
98.361115	188.0
98.635689	224.0
98.82753	148.0
99.080185	344.0
99.424004	120.0
99.519547	156.0
99.559006	48.0
99.704033	84.0
99.817352	204.0
100.099922	48.0
100.313118	60.0
100.388885	104.0
100.506577	176.0
100.738174	248.0
100.770142	136.0
100.838089	112.0
100.968048	104.0
100.987343	216.0
101.026054	128.0
101.060158	424.0
101.174149	140.0
101.202179	40.0
101.486702	160.0
101.508766	108.0
101.633133	56.0
101.665237	120.0
101.862007	160.0
101.98056	136.0
102.050926	140.0
102.109245	164.0
102.14344	204.0
102.199768	48.0
102.350739	172.0
102.380943	164.0
102.427269	204.0
102.483681	136.0
102.549858	172.0
102.705444	84.0
102.723595	52.0
102.751839	160.0
102.769997	192.0
102.818428	108.0
102.866875	60.0
103.032478	132.0
103.053528	660.0
103.101181	36.0
103.165863	168.0
103.258873	176.0
103.35598	268.0
103.511848	212.0
103.750938	132.0
103.813797	168.0
103.856392	220.0
103.890877	148.0
104.062675	308.0
104.099937	168.0
104.148682	228.0
104.205566	80.0
104.410873	176.0
104.490211	72.0
104.555328	100.0
104.634712	240.0
104.71006	220.0
104.801727	136.0
104.871017	224.0
105.023949	140.0
105.040268	56.0
105.069344	5364.0
105.107597	120.0
105.136162	40.0
105.230064	36.0
105.260689	56.0
105.315834	88.0
105.387337	100.0
105.538597	76.0
105.569267	52.0
105.60199	160.0
105.640854	208.0
105.765686	184.0
105.904922	56.0
106.071747	812.0
106.0914	140.0
106.224701	176.0
106.259575	212.0
106.294456	168.0
106.368347	200.0
106.51825	224.0
106.568039	196.0
106.598381	140.0
106.80809	108.0
107.046982	620.0
107.084343	3912.0
107.162186	36.0
107.184853	120.0
107.242561	56.0
107.395142	44.0
107.539574	80.0
108.052071	156.0
108.089851	564.0
108.283913	48.0
108.383354	84.0
108.420654	132.0
108.447601	80.0
108.553337	72.0
108.603111	128.0
108.769112	148.0
108.831398	160.0
108.850082	160.0
108.983025	56.0
109.014198	68.0
109.064095	2016.0
109.100105	1784.0
109.267876	52.0
109.338631	56.0
109.501022	152.0
109.828262	128.0
109.903374	152.0
110.064514	764.0
110.104027	416.0
110.120483	108.0
110.289734	148.0
110.471657	336.0
110.490486	224.0
110.649551	80.0
110.668396	148.0
110.87159	160.0
110.938667	104.0
111.041931	244.0
111.081444	332.0
111.142113	48.0
111.179886	68.0
111.440277	144.0
111.480202	132.0
111.753563	152.0
111.909325	124.0
112.113655	240.0
112.195862	228.0
112.235924	208.0
112.263336	212.0
112.573555	148.0
112.710861	152.0
112.82711	108.0
113.019585	84.0
113.061913	140.0
113.095772	172.0
113.129646	152.0
113.23764	180.0
113.530113	96.0
113.612839	152.0
113.640419	200.0
114.071548	172.0
114.286354	92.0
114.452385	212.0
114.750687	156.0
114.806702	252.0
114.850922	88.0
115.054207	520.0
115.406181	148.0
115.459641	140.0
115.548141	280.0
115.665047	136.0
115.759254	132.0
115.80423	168.0
115.879211	176.0
115.90921	100.0
116.061623	464.0
116.14975	124.0
116.351059	152.0
116.67762	84.0
116.765175	224.0
116.946518	212.0
116.963737	80.0
117.042114	276.0
117.068733	1292.0
117.174789	124.0
117.250206	216.0
117.329964	156.0
117.375244	136.0
117.748192	216.0
117.798271	292.0
117.843643	120.0
117.869568	164.0
117.997101	60.0
118.074043	476.0
118.289154	160.0
118.397423	128.0
118.514397	132.0
118.60759	52.0
118.646614	144.0
118.883041	196.0
119.01329	84.0
119.05088	260.0
119.085205	5072.0
119.126228	160.0
119.163162	120.0
119.184883	52.0
119.251251	104.0
119.276169	64.0
119.374008	72.0
119.391403	208.0
119.480591	124.0
119.585037	100.0
119.650345	48.0
119.759232	144.0
119.781013	180.0
119.84201	140.0
119.89431	160.0
120.051277	128.0
120.088242	1404.0
120.243271	60.0
120.286926	140.0
120.3153	192.0
120.352417	156.0
120.444145	268.0
120.540276	160.0
120.562134	188.0
120.772026	184.0
120.870476	164.0
120.894547	164.0
120.909866	192.0
121.063721	2364.0
121.100128	2524.0
121.214272	208.0
121.319481	140.0
121.578049	168.0
121.687675	200.0
121.771515	136.0
121.839615	216.0
121.916519	184.0
122.071419	276.0
122.104179	364.0
122.129791	184.0
122.208984	152.0
122.396561	244.0
122.41703	188.0
122.622993	84.0
122.918518	56.0
123.041489	356.0
123.078239	856.0
123.116867	396.0
123.813377	168.0
123.884735	152.0
124.044296	148.0
124.086288	144.0
124.523582	176.0
124.570229	248.0
124.599106	140.0
124.685768	68.0
124.982307	196.0
125.049446	144.0
125.098892	256.0
125.146255	152.0
125.366783	200.0
125.384613	196.0
125.409126	108.0
125.444794	184.0
125.562973	180.0
125.591972	260.0
125.612045	196.0
125.699059	92.0
125.942413	148.0
126.103287	184.0
126.282158	88.0
126.364929	120.0
126.400734	204.0
126.47683	160.0
126.732132	184.0
126.90921	104.0
126.947327	132.0
127.054214	156.0
127.218826	136.0
127.24128	120.0
127.409721	124.0
127.59626	216.0
127.843689	136.0
128.060562	1032.0
128.104874	148.0
128.258118	132.0
128.391144	132.0
128.430466	116.0
128.52507	164.0
128.546799	192.0
128.612259	132.0
128.725143	120.0
128.969147	196.0
129.025665	220.0
129.069382	2304.0
129.108673	140.0
129.396713	172.0
129.605087	148.0
129.652679	176.0
129.754684	148.0
129.770554	120.0
129.93158	216.0
130.015549	196.0
130.038239	140.0
130.07399	876.0
130.12677	164.0
130.717773	172.0
130.990982	224.0
131.028259	144.0
131.045288	320.0
131.084427	3760.0
131.107773	172.0
131.188553	132.0
131.778076	36.0
131.894623	160.0
132.08905	368.0
132.15535	112.0
132.185089	160.0
132.230865	80.0
132.434647	180.0
132.459839	116.0
132.601898	124.0
132.65004	40.0
132.721115	192.0
132.973465	152.0
133.040039	76.0
133.065079	700.0
133.099365	4336.0
133.249023	196.0
133.2789	64.0
133.412201	164.0
133.488083	132.0
133.573181	124.0
133.757278	208.0
133.791809	40.0
133.911545	52.0
133.946091	168.0
134.066925	336.0
134.102051	800.0
134.197296	172.0
134.22728	152.0
134.243423	120.0
134.388748	188.0
134.63916	244.0
134.915344	108.0
135.049454	152.0
135.080902	1700.0
135.115921	2736.0
135.141998	124.0
135.304016	56.0
135.378113	124.0
135.572037	124.0
135.612106	76.0
135.65152	156.0
135.744263	180.0
135.867188	96.0
135.904312	180.0
136.015717	64.0
136.08609	152.0
136.122284	476.0
136.315323	40.0
136.382721	192.0
136.55014	208.0
136.624573	144.0
136.675766	204.0
136.74324	48.0
137.055603	948.0
137.093277	884.0
137.132629	180.0
137.216141	164.0
137.293091	120.0
137.444717	164.0
137.596436	120.0
137.661819	188.0
137.77861	172.0
138.089508	176.0
138.108215	136.0
138.300095	100.0
138.33551	152.0
138.576431	220.0
138.656097	160.0
138.693604	104.0
138.796753	160.0
138.878845	148.0
138.916382	44.0
139.073029	444.0
139.110321	136.0
139.548141	108.0
139.703369	184.0
139.762192	228.0
139.849258	140.0
139.978745	144.0
140.426529	96.0
140.55864	136.0
140.662491	152.0
140.927002	152.0
141.045166	112.0
141.069397	944.0
141.13501	112.0
141.25563	164.0
141.440201	208.0
141.951965	136.0
142.051514	160.0
142.075409	2184.0
142.141739	56.0
142.334015	136.0
142.391006	164.0
142.73085	80.0
142.776031	136.0
142.811707	76.0
142.921143	128.0
142.947327	272.0
142.980637	192.0
143.046158	204.0
143.08429	5228.0
143.311646	128.0
143.373596	124.0
143.411743	112.0
143.452255	172.0
143.480865	48.0
143.623947	108.0
143.657349	132.0
143.707458	72.0
143.733704	204.0
143.757568	136.0
144.053329	160.0
144.091843	876.0
144.43132	140.0
144.543686	180.0
144.595261	144.0
144.735275	32.0
144.79274	40.0
144.967636	148.0
145.03714	140.0
145.062286	1156.0
145.099808	5300.0
145.130646	180.0
145.233765	148.0
145.264954	52.0
145.339325	144.0
145.37532	56.0
145.39212	52.0
145.42572	56.0
145.466522	108.0
145.63942	252.0
145.752335	128.0
145.96553	192.0
146.064789	156.0
146.101883	964.0
146.6259	80.0
146.647598	116.0
146.780197	172.0
146.864609	180.0
146.882416	228.0
146.910431	124.0
147.0504	164.0
147.078918	2080.0
147.115723	5812.0
147.144836	204.0
147.178345	72.0
147.265289	144.0
147.359497	56.0
147.451324	56.0
147.647156	100.0
147.695541	88.0
147.79715	44.0
147.862488	44.0
147.984222	180.0
148.040527	196.0
148.080536	360.0
148.119507	896.0
148.155487	256.0
148.216049	60.0
148.266953	124.0
148.395416	200.0
148.460892	172.0
148.530975	148.0
148.577332	196.0
148.673294	160.0
148.698654	128.0
148.732635	52.0
149.025009	196.0
149.055359	164.0
149.095291	1844.0
149.131882	2388.0
149.170822	124.0
149.196625	56.0
149.259842	56.0
149.298752	172.0
149.318207	44.0
149.349823	36.0
149.398483	72.0
149.551788	200.0
149.724655	132.0
149.865952	140.0
149.992676	56.0
150.068253	192.0
150.095612	216.0
150.133667	348.0
150.536758	176.0
150.727295	80.0
150.744415	52.0
150.766403	44.0
150.859283	184.0
151.073456	804.0
151.111771	360.0
151.146484	208.0
151.248245	180.0
151.507812	152.0
151.794601	200.0
151.91478	164.0
152.062805	368.0
152.290344	84.0
152.752472	152.0
153.028107	180.0
153.071228	336.0
153.09021	836.0
153.121689	212.0
153.345901	124.0
153.454361	128.0
153.767654	188.0
154.019516	180.0
154.077042	476.0
154.249313	236.0
154.647568	156.0
154.71936	160.0
154.954636	104.0
155.054626	120.0
155.083786	2296.0
155.146072	248.0
155.547363	160.0
155.574661	156.0
156.088531	976.0
156.11882	180.0
156.20784	208.0
156.49707	36.0
156.763596	140.0
156.888229	52.0
157.065247	272.0
157.099472	5740.0
157.195023	108.0
157.287369	192.0
157.344788	36.0
157.522095	92.0
157.543289	100.0
157.569565	100.0
157.587051	40.0
157.719513	92.0
157.764511	128.0
157.891083	180.0
157.989594	216.0
158.034622	144.0
158.068024	492.0
158.106003	992.0
158.209824	176.0
158.911575	60.0
158.974319	152.0
159.034546	156.0
159.08139	1152.0
159.11644	5180.0
159.40123	64.0
159.667709	56.0
160.014969	140.0
160.087357	244.0
160.119003	1144.0
160.382767	144.0
160.523956	164.0
160.571884	40.0
160.722214	176.0
160.808182	220.0
160.927704	156.0
161.051437	140.0
161.094055	2284.0
161.129196	1524.0
161.172714	260.0
161.256104	104.0
161.453308	60.0
161.726562	88.0
161.746277	192.0
162.07605	240.0
162.099945	808.0
162.136536	692.0
162.730469	40.0
162.821884	120.0
162.915863	48.0
163.075134	348.0
163.108444	864.0
163.149033	316.0
163.398926	40.0
163.678909	100.0
164.073837	116.0
164.112152	416.0
164.359512	72.0
164.48201	196.0
165.072037	440.0
165.090149	576.0
165.12558	468.0
165.16684	144.0
165.28125	188.0
165.450897	208.0
165.601974	260.0
165.814636	44.0
166.074753	416.0
166.093063	368.0
166.130035	192.0
166.196747	208.0
166.653793	132.0
166.679489	184.0
166.864548	144.0
166.89064	136.0
166.949417	164.0
167.062286	140.0
167.085159	604.0
167.137192	124.0
167.193817	144.0
167.538864	148.0
167.562042	60.0
167.595535	52.0
167.760483	180.0
168.092758	716.0
168.173218	72.0
168.625229	200.0
168.958801	80.0
168.99762	68.0
169.059723	120.0
169.09935	2460.0
169.149124	192.0
169.310837	40.0
169.36264	104.0
169.398911	112.0
169.58548	44.0
169.722885	212.0
169.951141	64.0
170.03418	212.0
170.076859	172.0
170.085403	252.0
170.104065	784.0
170.293823	40.0
170.327591	108.0
170.402176	188.0
170.727859	60.0
170.85231	204.0
170.990631	112.0
171.079056	724.0
171.114868	2636.0
171.214523	164.0
171.232758	92.0
171.329147	76.0
171.365616	112.0
171.545441	36.0
171.706085	184.0
171.915833	76.0
171.996735	100.0
172.083694	284.0
172.119644	764.0
172.346695	64.0
172.631622	52.0
172.673477	32.0
172.715317	28.0
172.799042	48.0
172.885391	92.0
172.979492	168.0
173.09494	2284.0
173.13002	2836.0
173.249359	64.0
173.474731	68.0
173.537659	176.0
173.695007	92.0
173.855057	48.0
173.988922	88.0
174.095383	580.0
174.13327	348.0
174.288345	28.0
174.377701	124.0
174.485474	56.0
174.601181	44.0
175.073334	208.0
175.110291	1832.0
175.143356	612.0
175.177628	284.0
175.203979	48.0
175.393707	76.0
175.480713	212.0
175.894897	264.0
176.085022	72.0
176.119354	164.0
176.157059	232.0
176.655975	232.0
176.880905	236.0
176.917969	76.0
177.047714	128.0
177.08519	160.0
177.125427	1036.0
177.373611	156.0
177.628189	184.0
177.835159	40.0
177.853729	132.0
177.95993	192.0
178.047562	172.0
178.075974	272.0
178.129898	144.0
178.778656	88.0
178.823914	152.0
178.967667	136.0
179.085388	740.0
179.521927	40.0
179.543274	88.0
179.772705	84.0
179.96756	188.0
180.093216	492.0
180.199936	144.0
180.288132	176.0
180.93277	176.0
181.100266	1184.0
181.200592	188.0
181.44986	224.0
181.583939	180.0
181.924713	172.0
182.106247	704.0
182.29538	104.0
183.080933	108.0
183.11496	1932.0
183.169815	168.0
183.288361	48.0
183.6604	168.0
184.086761	428.0
184.12117	340.0
184.324554	48.0
184.387314	164.0
184.42186	136.0
184.621933	248.0
184.728333	176.0
184.870819	144.0
185.014282	116.0
185.040649	168.0
185.094025	1128.0
185.130051	3272.0
185.168625	192.0
185.187592	92.0
185.309494	68.0
185.477524	64.0
185.656464	148.0
185.724274	56.0
185.949478	136.0
185.982056	232.0
186.055344	180.0
186.111206	236.0
186.133163	896.0
186.26445	92.0
186.291611	112.0
186.378555	132.0
186.492706	144.0
186.938736	164.0
187.055771	124.0
187.109299	1776.0
187.145584	1088.0
187.230026	68.0
187.251816	76.0
187.352615	56.0
187.388763	148.0
187.500504	52.0
187.521561	68.0
187.573349	56.0
187.641495	84.0
187.769669	68.0
188.012482	88.0
188.075256	116.0
188.115509	416.0
188.148895	152.0
188.269104	64.0
188.59697	136.0
188.832123	136.0
189.053726	104.0
189.08255	184.0
189.12619	348.0
189.158707	172.0
189.245346	180.0
189.35762	104.0
189.946945	200.0
190.082291	192.0
190.122543	156.0
190.169205	152.0
190.336121	200.0
190.61412	212.0
191.021027	140.0
191.080658	160.0
191.105011	512.0
191.142944	408.0
191.188416	72.0
191.334763	148.0
191.566101	212.0
191.662521	112.0
191.728668	108.0
192.104492	120.0
192.52597	112.0
192.912811	128.0
192.968094	208.0
193.096207	588.0
193.118118	552.0
193.156158	140.0
193.25853	140.0
194.042374	168.0
194.104004	204.0
194.130829	204.0
194.65004	80.0
194.802795	76.0
194.910156	156.0
195.047333	80.0
195.114563	2664.0
195.586975	260.0
195.976868	168.0
196.082123	240.0
196.121475	404.0
196.29744	128.0
196.487106	108.0
196.576401	84.0
197.000793	156.0
197.023148	96.0
197.09436	276.0
197.130646	3556.0
197.355743	60.0
197.660645	40.0
197.699829	108.0
197.747406	44.0
197.775391	180.0
197.864975	48.0
198.104843	152.0
198.136139	540.0
198.167465	28.0
198.369247	156.0
198.4814	152.0
198.562729	64.0
198.829254	80.0
198.851715	36.0
198.916275	140.0
199.11348	800.0
199.146484	2000.0
199.326324	64.0
199.390961	152.0
199.82402	92.0
200.114777	352.0
200.147659	156.0
200.35614	124.0
200.508301	76.0
200.767685	108.0
201.055435	176.0
201.094589	156.0
201.125916	960.0
201.15892	784.0
201.205048	64.0
201.77858	148.0
201.84079	104.0
202.126495	276.0
202.167831	256.0
202.531342	56.0
202.596497	100.0
202.695663	180.0
202.794861	132.0
202.882736	120.0
202.990479	144.0
203.102783	1140.0
203.13887	392.0
203.177689	156.0
203.29686	88.0
203.322403	116.0
203.529633	204.0
203.586426	136.0
204.094345	172.0
204.134903	156.0
204.180405	164.0
204.521835	128.0
204.715439	48.0
205.120575	1548.0
205.152161	220.0
205.182755	132.0
205.493637	56.0
205.844727	212.0
205.976105	180.0
206.106903	416.0
206.276154	96.0
207.114044	392.0
208.023605	40.0
208.123459	368.0
208.175781	128.0
208.526291	44.0
208.603897	36.0
208.813797	40.0
209.087296	132.0
209.127777	1368.0
209.219543	76.0
209.343353	40.0
209.527695	88.0
209.556503	96.0
209.890869	68.0
210.111908	296.0
210.13736	804.0
210.384247	168.0
210.687485	132.0
211.117615	176.0
211.145828	2180.0
211.25412	56.0
211.407928	128.0
211.647751	44.0
211.925812	48.0
212.116501	116.0
212.149536	1020.0
212.177979	72.0
212.45929	84.0
212.56665	44.0
213.125977	2152.0
213.1586	1232.0
213.356705	60.0
213.749359	224.0
213.982224	148.0
214.129654	172.0
214.170517	704.0
214.33757	116.0
214.381287	32.0
214.448318	48.0
214.468719	56.0
214.833237	108.0
214.958694	160.0
214.999557	64.0
215.095871	164.0
215.141418	608.0
215.172394	436.0
215.297333	64.0
215.607025	36.0
215.656708	72.0
215.826263	44.0
216.15097	116.0
216.847977	64.0
217.121017	316.0
217.160324	212.0
217.19397	308.0
217.270233	156.0
217.334793	144.0
217.432755	136.0
218.004318	220.0
218.106064	272.0
218.132263	248.0
218.15715	128.0
218.836777	64.0
219.11557	480.0
219.175522	48.0
219.290451	148.0
219.458481	184.0
219.635437	192.0
220.051544	160.0
220.11821	340.0
220.687729	228.0
221.129303	932.0
221.435501	116.0
221.853317	152.0
222.049026	136.0
222.128204	516.0
222.144409	240.0
222.767365	124.0
223.016968	108.0
223.141815	908.0
223.486847	52.0
224.046585	116.0
224.119431	116.0
224.154572	652.0
224.237305	128.0
224.855713	152.0
224.917374	44.0
225.095963	88.0
225.126465	472.0
225.162231	1732.0
225.475906	36.0
225.64032	192.0
225.819748	192.0
226.131485	292.0
226.160767	868.0
226.250656	60.0
226.653931	188.0
226.732925	96.0
226.885788	92.0
227.08371	152.0
227.139603	820.0
227.176422	1512.0
227.365738	152.0
227.566864	136.0
227.677963	160.0
228.147156	472.0
228.183655	600.0
228.570816	124.0
228.700226	132.0
228.799561	52.0
228.860306	152.0
229.046509	104.0
229.115799	232.0
229.158203	624.0
229.189713	460.0
229.84848	68.0
230.123154	108.0
230.153687	316.0
230.200928	132.0
230.787888	64.0
231.138748	1072.0
231.185135	200.0
231.583817	160.0
232.14241	272.0
232.329529	224.0
232.359863	172.0
232.645142	60.0
232.678543	60.0
233.012634	136.0
233.13121	164.0
233.155731	352.0
233.788025	96.0
233.964569	204.0
234.134033	196.0
234.163773	260.0
234.199051	236.0
234.433655	112.0
234.744598	156.0
235.145874	1576.0
235.391541	68.0
235.562592	124.0
236.030212	64.0
236.149612	712.0
236.95459	96.0
237.130524	384.0
237.160767	1672.0
237.580017	116.0
237.819382	40.0
237.945236	68.0
238.137817	152.0
238.169342	648.0
238.399857	36.0
238.636551	136.0
239.139694	880.0
239.175674	1444.0
239.210678	156.0
239.344254	36.0
239.424316	64.0
239.461273	68.0
239.806366	96.0
240.142609	148.0
240.183182	376.0
241.154785	468.0
241.174347	180.0
241.19516	244.0
241.578827	164.0
242.083344	68.0
242.163864	184.0
242.199814	180.0
242.408615	60.0
242.85817	92.0
242.948196	172.0
243.090851	152.0
243.136017	552.0
243.173233	768.0
243.201935	472.0
243.631119	176.0
243.997849	72.0
244.082764	156.0
244.177109	308.0
244.21553	144.0
244.529785	120.0
244.666748	144.0
245.071655	96.0
245.14389	224.0
245.189301	424.0
245.324097	148.0
245.991699	52.0
246.1884	264.0
246.747726	80.0
247.149551	360.0
247.185989	140.0
247.210678	68.0
247.295181	124.0
247.821289	44.0
247.874557	76.0
248.152603	328.0
248.247604	180.0
248.824966	212.0
249.041641	52.0
249.158737	704.0
249.217575	132.0
249.503586	136.0
249.720566	220.0
250.016312	128.0
250.047791	144.0
250.154083	296.0
250.321686	92.0
251.122192	172.0
251.177444	876.0
251.222382	68.0
251.333557	144.0
251.380341	116.0
251.731293	48.0
251.983994	44.0
252.040863	84.0
252.151474	112.0
252.19046	324.0
252.64476	40.0
252.682739	140.0
253.160172	436.0
253.191895	2320.0
253.230377	148.0
253.338089	152.0
253.426788	40.0
253.458481	132.0
253.610596	32.0
254.160889	256.0
254.196121	952.0
254.476669	92.0
255.171478	716.0
255.897919	92.0
256.124023	76.0
256.16806	136.0
256.2164	120.0
256.36618	128.0
256.607788	80.0
257.042236	152.0
257.150574	804.0
257.189545	404.0
257.220978	176.0
257.313538	60.0
257.364624	56.0
257.700012	120.0
257.744751	124.0
258.03241	124.0
258.152771	216.0
258.189423	320.0
258.883575	228.0
259.159271	132.0
259.835602	68.0
260.158844	128.0
260.708984	144.0
261.154846	212.0
261.183716	196.0
261.233093	132.0
261.439026	36.0
261.928436	152.0
261.957428	112.0
262.16803	620.0
262.202301	100.0
263.122162	148.0
263.174774	132.0
263.187805	156.0
264.163086	128.0
264.185272	164.0
264.437317	188.0
264.686615	80.0
265.148132	164.0
265.192078	444.0
265.477295	132.0
265.57135	88.0
265.652466	100.0
265.905548	52.0
266.197754	100.0
267.174164	620.0
267.208466	1668.0
267.263947	120.0
267.439697	52.0
267.670837	76.0
267.748993	44.0
268.14975	156.0
268.178101	396.0
268.216553	608.0
268.348602	76.0
269.007629	72.0
269.14801	128.0
269.188904	524.0
269.644592	60.0
269.804749	76.0
270.085999	68.0
270.156342	168.0
270.181824	124.0
270.205505	200.0
270.249573	40.0
270.648895	112.0
271.168945	420.0
271.200714	1040.0
271.258301	148.0
271.330414	44.0
271.838837	108.0
272.091583	56.0
272.20639	448.0
272.232758	168.0
272.774902	52.0
273.051086	128.0
273.139893	88.0
273.182495	280.0
273.208984	124.0
273.238586	172.0
273.400818	200.0
273.725739	128.0
274.183655	124.0
274.866302	112.0
275.161255	520.0
275.203003	96.0
275.814178	68.0
275.953033	72.0
276.161377	184.0
277.065979	56.0
277.192657	2996.0
277.552338	40.0
277.675018	108.0
277.864105	80.0
278.194519	772.0
278.353821	120.0
278.783905	144.0
279.19928	148.0
279.236053	56.0
279.918304	124.0
280.058167	104.0
280.180389	168.0
280.616455	84.0
282.188843	160.0
282.551849	76.0
283.212311	300.0
283.395599	52.0
283.502838	60.0
283.603363	68.0
284.106384	184.0
284.206787	360.0
285.191925	464.0
285.658447	80.0
286.171265	300.0
286.185272	112.0
286.192047	248.0
286.2323	100.0
287.197723	1160.0
288.082275	60.0
288.196808	188.0
288.897034	136.0
289.206299	420.0
289.817932	80.0
290.055176	48.0
290.180603	156.0
290.224915	180.0
291.137543	188.0
292.150452	120.0
292.504364	28.0
293.185577	72.0
294.424011	292.0
294.628967	36.0
294.652863	80.0
295.161743	208.0
295.203857	6112.0
295.355591	80.0
295.458923	204.0
295.853302	52.0
295.926056	64.0
296.048492	200.0
296.116974	76.0
296.169312	144.0
296.204742	1516.0
296.293182	72.0
296.336212	40.0
296.65152	56.0
297.179688	140.0
297.205963	164.0
297.310089	116.0
297.567535	72.0
298.196198	164.0
298.632843	104.0
298.925293	100.0
299.154053	336.0
299.297058	96.0
301.124847	100.0
301.218109	200.0
301.245728	132.0
302.023499	72.0
303.194153	280.0
304.182343	144.0
304.241455	124.0
305.204895	228.0
305.242035	152.0
305.760376	132.0
306.0354	88.0
306.216461	104.0
306.986694	52.0
307.25177	180.0
309.128143	184.0
309.194641	224.0
309.334656	92.0
309.835449	108.0
310.171875	116.0
310.659302	96.0
312.204803	136.0
312.264587	60.0
312.304321	220.0
312.873383	68.0
313.067017	28.0
313.119873	88.0
313.214966	5104.0
313.479218	64.0
314.12442	88.0
314.214447	1140.0
314.645203	108.0
314.749146	96.0
315.196686	184.0
315.222504	232.0
315.342651	112.0
316.184418	64.0
319.178558	112.0
320.45285	112.0
322.951782	52.0
324.050812	52.0
325.528687	56.0
329.093597	152.0
329.196106	144.0
330.223602	132.0
330.347687	164.0
331.097626	156.0
331.225342	2136.0
331.448364	56.0
331.95224	204.0
332.23407	652.0
332.322235	32.0
332.728729	48.0
332.91391	88.0
333.231232	140.0
333.54248	80.0
333.989746	72.0
334.138885	136.0
334.222595	136.0
334.415466	124.0
334.61203	64.0
335.074585	60.0
335.289581	48.0
336.226898	28.0
337.191101	152.0
340.209595	164.0
344.152618	276.0
345.204407	848.0
345.805115	124.0
346.034637	36.0
346.204865	292.0
346.753296	52.0
347.187073	108.0
348.125977	100.0
349.232422	820.0
349.322815	120.0
350.23587	264.0
350.793762	52.0
354.183105	192.0
355.225128	604.0
356.231384	280.0
357.242523	140.0
358.285339	76.0
360.677917	72.0
367.880219	80.0
369.914185	56.0
373.228882	1020.0
374.244873	176.0
375.24707	76.0
378.128479	164.0
378.651154	120.0
384.330811	48.0
387.192383	36.0
389.255219	128.0
390.237549	124.0
391.512512	48.0
393.215698	152.0
396.326569	88.0
410.563812	68.0
411.378876	72.0
422.465424	108.0
437.687744	112.0
444.312653	108.0
449.572449	28.0
452.692352	60.0
453.154053	120.0
453.989136	84.0
459.698242	28.0
472.12262	92.0
475.818817	88.0
477.822449	88.0
499.721619	76.0
505.647858	88.0
524.757141	64.0
529.308228	116.0
535.885925	48.0
537.379822	52.0
538.464661	88.0
543.868042	72.0
548.221436	48.0
560.499329	80.0
567.381287	88.0
588.06665	72.0
618.298462	92.0
635.762024	60.0
644.372803	60.0
653.173706	68.0
698.189453	136.0
713.694641	64.0
763.402527	156.0
789.608093	200.0
792.407043	48.0
794.930359	96.0
795.188538	124.0
801.768921	244.0
829.444641	68.0
835.175354	172.0
854.381409	176.0
859.736328	120.0
863.28833	188.0
866.455017	52.0
873.646912	160.0
876.997559	100.0
881.17572	208.0
890.951477	124.0
890.993042	128.0
893.7995	136.0
905.009521	168.0
905.722168	92.0
924.168762	148.0
928.142334	68.0
948.05835	128.0
951.008423	148.0
951.972351	100.0
955.642151	156.0
962.434692	56.0
966.811401	172.0
968.984924	40.0
977.833984	188.0
978.960815	152.0
980.555725	156.0
983.181396	156.0
984.434021	100.0
988.775024	200.0
990.164917	116.0
991.461792	128.0
992.684326	208.0
996.349976	132.0
997.292603	316.0
1002.45343	144.0
1011.763855	160.0
1013.632385	120.0
1017.304749	112.0
1019.578735	212.0
1022.211609	44.0
1025.944092	260.0
1031.229614	148.0
1036.964478	148.0
1039.748047	136.0
1041.455933	164.0
1053.047852	200.0
1053.269531	192.0
1060.510132	160.0
1061.346436	72.0
1061.858765	144.0
1066.852295	144.0
1067.391968	180.0
1069.675659	200.0
1073.77417	176.0
1074.08728	192.0
1074.641846	60.0
1074.961548	140.0
1075.849243	168.0
1083.356934	204.0
1084.392334	204.0
1084.942871	220.0
1090.562134	72.0
1092.423096	140.0
1094.568726	116.0
1100.02124	160.0
1100.88623	132.0
1101.830811	152.0
1103.053467	200.0
1108.931396	140.0
1111.232544	152.0
1113.868164	132.0
1113.981079	240.0
1117.963867	240.0
1118.596191	208.0
1119.295288	128.0
1122.353882	76.0
1122.804077	272.0
1124.141602	164.0
1125.349731	148.0
1126.343506	132.0
1130.530396	156.0
1138.817261	152.0
1141.169312	164.0
1141.404663	164.0
1143.456543	224.0
1146.224365	116.0
1147.491577	136.0
1147.848999	136.0
1149.508423	164.0
1151.567627	152.0
1153.65564	128.0
1158.108276	100.0
1158.345337	228.0
1158.453735	196.0
1159.890381	196.0
1165.068237	36.0
1165.890503	44.0
1166.073975	180.0
1168.351929	196.0
1172.723755	144.0
1173.051025	180.0
1173.671387	168.0
1182.867554	264.0
1183.086548	204.0
1184.099976	164.0
1192.305664	144.0
1195.593018	48.0
1195.902832	172.0
1200.125854	144.0
1202.623169	188.0
1204.591187	224.0
1208.504272	168.0
1209.798584	76.0
1210.560181	52.0
1211.453735	160.0
1216.051147	196.0
1217.557739	184.0
1219.753418	132.0
1220.490356	144.0
1221.464111	132.0
1222.702637	156.0
1226.505615	236.0
1232.235107	56.0
1235.864014	180.0
1237.039795	128.0
1238.048096	132.0
1238.636353	268.0
1239.245972	164.0
1239.624268	136.0
1240.675659	132.0
1243.685181	180.0
1245.152588	180.0
1248.920532	140.0
1253.876831	184.0
1254.588745	208.0
1259.302612	156.0
1261.330566	168.0
1264.294067	236.0
1264.485229	64.0
1264.655029	196.0
1266.552734	224.0
1270.671631	148.0
1271.239258	224.0
1271.636719	132.0
1271.885132	184.0
1272.375	116.0
1273.227051	160.0
1275.052979	208.0
1275.3302	100.0
1276.069458	196.0
1278.637573	112.0
1279.933228	144.0
1280.645386	180.0
1281.443237	104.0
1282.091675	204.0
1282.797363	116.0
1284.537354	164.0
1285.393555	200.0
1285.893066	84.0
1287.349609	100.0
1292.038574	132.0
1292.217407	108.0
1292.296143	48.0
1293.06897	180.0
1293.935181	184.0
1294.192993	116.0
1294.980713	152.0
1295.124023	180.0
1298.299072	188.0
1299.482666	384.0
1302.174683	172.0
1304.51001	220.0
1307.696655	164.0
1308.848511	144.0
1317.467651	184.0
1318.088989	124.0
1320.236084	192.0
1320.387939	144.0
1321.306641	180.0
1322.449951	144.0
1322.645386	80.0
1325.281616	240.0
1326.760132	148.0
1327.071899	144.0
1328.029175	176.0
1328.529785	128.0
1330.677979	192.0
1331.738281	112.0
1332.442871	212.0
1333.031494	264.0
1333.169556	196.0
1341.314209	176.0
1342.881836	188.0
1342.984009	76.0
1343.757324	108.0
1344.165894	212.0
1346.75769	224.0
1347.437012	140.0
1348.021606	204.0
1349.600586	84.0
1350.024658	116.0
1350.917114	200.0
1351.677979	204.0
1353.661743	232.0
1354.071899	136.0
1355.786255	192.0
1358.213257	140.0
1359.262329	172.0
1359.570557	132.0
1361.112183	80.0
1361.809937	152.0
1362.331421	108.0
1363.000122	88.0
1363.911377	152.0
1363.962891	80.0
1364.93335	148.0
1364.984863	236.0
1366.978394	168.0
1368.251709	176.0
1368.509521	112.0
1368.907104	128.0
1369.231201	48.0
1369.864624	176.0
1372.820312	168.0
1374.030029	84.0
1374.87854	144.0
1375.247559	124.0
1375.823364	200.0
1377.366821	224.0
1379.155029	152.0
1379.413696	132.0
1379.790771	72.0
1379.894287	188.0
1380.360107	140.0
1381.943115	140.0
1382.209473	156.0
1383.312256	68.0
1384.348877	84.0
1385.659912	140.0
1386.393555	56.0
1388.50647	176.0
1392.388184	156.0
1393.212646	272.0
1395.241577	184.0
1395.628174	228.0
1396.0	128.0
1397.807739	144.0
1399.705933	128.0
1400.860352	160.0
1402.723389	40.0
1402.902344	188.0
1404.363892	184.0
1404.960693	180.0
1405.318848	184.0
1406.229248	192.0
1406.371094	120.0
1407.438599	128.0
1409.410645	76.0
1410.255127	44.0
1411.41394	196.0
1412.805054	120.0
1413.186646	28.0
1413.514893	180.0
1413.942505	156.0
1414.997925	132.0
1415.140259	116.0
1415.312622	136.0
1415.484741	120.0
1418.406616	112.0
1420.74646	176.0
1423.61377	148.0
1424.18457	120.0
1425.845093	184.0
1426.889893	152.0
1428.800293	52.0
1429.658081	176.0
1430.591431	76.0
1430.877563	176.0
1431.622925	80.0
1432.248169	220.0
1432.85083	252.0
1433.039185	160.0
1435.149658	184.0
1437.269287	148.0
1437.925781	104.0
1438.069214	184.0
1438.42395	160.0
1438.733521	200.0
1442.170654	168.0
1442.246216	128.0
1442.389893	56.0
1443.523926	48.0
1445.589111	108.0
1448.693481	160.0
1451.126343	148.0
1452.317017	144.0
1452.946655	172.0
1453.121094	124.0
1453.272949	184.0
1453.530884	172.0
1456.191895	188.0
1458.049438	52.0
1458.307861	228.0
1459.562256	168.0
1460.147827	192.0
1460.231567	88.0
1460.581421	208.0
1462.308716	196.0
1464.052124	208.0
1464.227295	244.0
1466.467407	200.0
1467.252563	164.0
1467.412598	176.0
1468.594727	168.0
1469.655151	216.0
1469.968018	208.0
1470.395386	56.0
1471.548096	44.0
1473.755493	192.0
1473.961792	184.0
1475.66626	184.0
1475.719849	196.0
1477.28772	200.0
1477.876831	192.0
1480.249756	144.0
1480.402954	124.0
1481.858398	136.0
1482.394775	84.0
1484.525879	236.0
1485.216187	184.0
1487.057739	176.0
1487.820435	224.0
1489.207642	236.0
1490.444458	140.0
1490.751831	136.0
1491.15918	100.0
1491.412842	120.0
1491.635742	128.0
1491.904785	140.0
1492.312256	224.0
1496.675171	196.0
1498.346558	152.0
1498.562256	124.0
1499.648804	36.0
1499.802979	28.0
1501.021118	188.0
1501.8927	136.0
1502.108643	84.0
1502.232056	132.0
1503.551514	128.0
1503.675049	188.0
1503.929688	180.0
1504.138184	184.0
1505.303955	132.0
END IONS

BEGIN IONS
PEPMASS=210.113
CHARGE=1
MSLEVEL=2
SOURCE_INSTRUMENT=LC-ESI-qTof
FILENAME=p4-G11_GG11_01_18407.mzXML
SEQ=*..*
IONMODE=Positive
ORGANISM=GNPS-NIH-SMALLMOLECULEPHARMACOLOGICALLYACTIVE
NAME=MLS002207242-01!Propoxur114-26-1 M+H
PI=Dorrestein
DATACOLLECTOR=VP/LMS
SMILES=CNC(=O)Oc1ccccc1OC(C)C
INCHI=N/A
INCHIAUX=N/A
PUBMED=N/A
SUBMITUSER=vphelan
LIBRARYQUALITY=1
SPECTRUMID=CCMSLIB00000085919
USI=mzspec:GNPS:GNPS-NIH-SMALLMOLECULEPHARMACOLOGICALLYACTIVE:accession:CCMSLIB00000085919
SCANS=1742
46.260426	152.0
49.322979	164.0
49.385902	180.0
51.916302	256.0
56.405785	196.0
59.561005	48.0
61.53875	44.0
61.710621	192.0
63.201786	80.0
63.425095	148.0
64.111725	140.0
70.906189	136.0
71.981209	176.0
74.309853	116.0
78.389565	188.0
78.832512	156.0
80.690063	228.0
84.281754	172.0
85.725945	136.0
85.967529	112.0
89.962166	152.0
92.347008	136.0
92.442665	96.0
92.827721	164.0
93.033188	2100.0
93.540535	164.0
94.033997	168.0
94.503593	104.0
94.668129	260.0
98.454491	376.0
105.067406	200.0
106.483955	64.0
107.049522	132.0
107.206093	36.0
108.34877	52.0
109.033539	260.0
110.532982	208.0
111.043915	5956.0
111.143921	116.0
111.180534	60.0
111.201523	72.0
111.223389	48.0
111.365295	92.0
111.558624	72.0
112.047508	432.0
112.070061	76.0
112.232361	44.0
118.703682	124.0
123.940849	80.0
130.068512	208.0
134.075912	108.0
137.025818	152.0
146.051315	36.0
150.953079	204.0
151.945114	112.0
168.065811	184.0
168.083878	136.0
171.953369	88.0
174.9785	136.0
222.896423	84.0
223.970459	132.0
225.061996	160.0
246.930557	124.0
287.69223	64.0
511.580505	20.0
820.571106	196.0
849.169922	196.0
901.467529	212.0
980.44928	184.0
987.348083	176.0
1048.030518	140.0
1155.400513	208.0
1161.21936	136.0
1175.438232	192.0
1201.974609	224.0
1210.574219	180.0
1226.206055	196.0
1233.122925	196.0
1236.963013	112.0
1237.509155	108.0
1242.085571	272.0
1277.620361	284.0
1305.121582	276.0
1308.193848	188.0
1340.571289	164.0
1349.104004	128.0
1364.735474	56.0
1386.890869	128.0
1434.343872	192.0
1441.559326	140.0
1466.415039	144.0
1467.459351	148.0
1475.063354	112.0
1490.998901	144.0
1504.146973	112.0
END IONS

BEGIN IONS
PEPMASS=1269.58
CHARGE=1
MSLEVEL=2
SOURCE_INSTRUMENT=LC-ESI-qTof
FILENAME=p5-A04_GA4_01_18427.mzXML
SEQ=*..*
IONMODE=Positive
ORGANISM=GNPS-NIH-SMALLMOLECULEPHARMACOLOGICALLYACTIVE
NAME=MLS002154135-01!Ioxaglic acid59017-64-0 M+H
PI=Dorrestein
DATACOLLECTOR=VP/LMS
SMILES=CNC(=O)c1c(I)c(N(C)C(=O)C)c(I)c(C(=O)NCC(=O)Nc2c(I)c(C(=O)O)c(I)c(C(=O)NCCO)c2I)c1I
INCHI=N/A
INCHIAUX=N/A
PUBMED=N/A
SUBMITUSER=vphelan
LIBRARYQUALITY=1
SPECTRUMID=CCMSLIB00000086006
USI=mzspec:GNPS:GNPS-NIH-SMALLMOLECULEPHARMACOLOGICALLYACTIVE:accession:CCMSLIB00000086006
SCANS=699
47.715572	160.0
53.715626	180.0
55.133991	224.0
57.892826	64.0
60.452545	120.0
63.745953	140.0
66.631897	124.0
68.693039	136.0
70.973251	152.0
74.737564	136.0
76.478554	20.0
76.85498	80.0
82.012741	148.0
82.836716	208.0
86.734528	88.0
88.877388	148.0
94.409866	88.0
95.014198	172.0
100.434235	168.0
101.430016	204.0
109.789879	200.0
111.382652	124.0
116.266273	108.0
119.880035	164.0
125.015755	124.0
126.247185	144.0
131.078232	188.0
131.137497	100.0
131.680496	136.0
132.078201	204.0
134.918213	168.0
137.382217	88.0
137.414871	168.0
143.686295	80.0
146.057907	160.0
150.078125	192.0
150.261047	228.0
150.732285	172.0
151.138199	256.0
166.260513	40.0
166.699646	132.0
168.283783	128.0
172.267746	28.0
173.384995	84.0
174.945221	128.0
179.785233	124.0
179.870636	108.0
182.149399	136.0
182.17627	148.0
185.528015	56.0
190.080215	164.0
190.113159	128.0
191.193176	104.0
193.329208	60.0
194.845932	136.0
197.510956	164.0
199.707199	116.0
201.517014	120.0
204.050812	136.0
206.058228	116.0
207.075607	112.0
209.246506	212.0
209.592148	96.0
215.233994	76.0
217.271072	56.0
218.949463	92.0
224.565903	172.0
226.077621	152.0
228.087112	156.0
228.815125	44.0
232.187363	140.0
234.065704	348.0
237.500504	128.0
238.292526	196.0
240.210464	164.0
240.676483	144.0
241.013153	116.0
241.099686	172.0
244.753952	88.0
247.573761	136.0
247.981033	144.0
257.191864	152.0
258.079987	188.0
260.785645	148.0
262.701569	44.0
263.0961	216.0
263.223236	88.0
263.4505	108.0
265.72644	172.0
267.80368	140.0
267.862305	120.0
268.908966	124.0
271.955414	684.0
272.95813	144.0
273.056793	84.0
275.096405	64.0
276.249725	124.0
278.251373	52.0
278.434021	112.0
280.226959	88.0
282.099213	156.0
283.136444	140.0
284.460846	116.0
286.950348	136.0
290.592957	152.0
292.373505	148.0
298.906342	236.0
299.009583	180.0
299.27121	160.0
299.667297	56.0
299.946472	328.0
300.142944	76.0
300.656952	132.0
300.955322	184.0
300.987122	456.0
302.935516	84.0
305.681854	100.0
305.950989	280.0
307.019562	148.0
308.052704	76.0
309.038574	140.0
309.577637	152.0
310.22583	144.0
312.115295	120.0
312.948608	140.0
314.750397	188.0
315.944092	296.0
315.980377	156.0
316.92926	116.0
319.944641	128.0
320.763977	84.0
326.179901	112.0
326.963989	132.0
328.758698	236.0
328.91391	124.0
328.979279	4696.0
329.13916	172.0
329.166626	44.0
329.704895	72.0
329.742584	84.0
329.980408	504.0
330.967041	232.0
331.637573	120.0
332.069031	68.0
332.978271	364.0
333.005432	144.0
333.194305	32.0
333.230652	64.0
334.623627	88.0
338.962891	96.0
339.927307	116.0
341.326843	96.0
342.441895	128.0
342.585754	72.0
342.950073	160.0
343.96051	324.0
344.071777	140.0
345.9646	176.0
346.00531	144.0
346.094177	156.0
346.981201	196.0
347.979279	156.0
349.840271	64.0
351.722748	148.0
353.891052	152.0
354.947693	96.0
355.825653	176.0
356.693451	92.0
356.821289	156.0
356.915283	88.0
356.979614	168.0
357.505859	164.0
358.843048	160.0
359.839111	168.0
359.956146	108.0
360.97168	264.0
361.055847	164.0
361.54007	84.0
361.89212	140.0
362.759674	176.0
362.979584	60.0
363.730774	132.0
366.084198	40.0
372.959381	92.0
374.980072	168.0
376.299316	140.0
380.92334	164.0
385.016937	148.0
385.817963	116.0
387.030823	196.0
388.657471	72.0
389.313599	136.0
389.74118	204.0
389.851227	156.0
390.322937	104.0
394.968781	160.0
396.853851	100.0
397.230591	160.0
397.819855	276.0
397.940979	112.0
398.258667	132.0
398.84848	200.0
399.968445	156.0
402.404205	56.0
402.999298	132.0
404.434967	152.0
405.672394	140.0
407.085022	164.0
407.824249	172.0
408.318787	52.0
408.435425	124.0
410.049988	76.0
412.783051	60.0
415.848297	172.0
418.178711	140.0
421.600464	100.0
422.140076	140.0
422.806915	96.0
424.77359	68.0
425.843201	300.0
427.839233	136.0
430.848816	276.0
431.852417	176.0
432.826904	164.0
432.859894	92.0
436.407593	188.0
437.222931	124.0
438.839142	108.0
438.897522	104.0
439.882111	40.0
440.454193	76.0
441.264923	144.0
441.823853	180.0
441.938293	128.0
442.817383	236.0
442.850891	80.0
442.884399	172.0
443.475189	60.0
443.857056	404.0
443.974091	124.0
444.221558	124.0
444.406158	156.0
444.897186	44.0
444.981171	48.0
446.15332	136.0
446.34671	40.0
449.856262	32.0
450.337646	236.0
451.897522	128.0
453.667786	88.0
453.871307	112.0
454.872559	332.0
455.297119	136.0
455.882263	1924.0
456.40332	64.0
456.470032	56.0
456.580597	88.0
456.831543	56.0
456.879303	480.0
457.851532	148.0
457.879578	212.0
459.775787	116.0
459.997742	124.0
460.928772	60.0
463.586151	44.0
466.805756	196.0
466.835846	160.0
466.917542	180.0
468.372314	172.0
468.841949	192.0
469.208344	96.0
469.859161	444.0
469.873657	284.0
470.096863	60.0
470.856506	96.0
470.86264	272.0
471.388031	124.0
471.808594	132.0
471.868927	140.0
471.928345	128.0
473.1138	68.0
474.842712	156.0
475.879211	328.0
476.874603	100.0
478.684387	52.0
479.333435	104.0
480.881622	64.0
481.896332	76.0
482.865173	156.0
483.879089	180.0
484.848999	424.0
485.098236	60.0
485.716522	76.0
485.847046	144.0
487.556183	120.0
487.644073	52.0
487.758362	140.0
487.878204	1368.0
488.008942	152.0
488.88327	360.0
489.86615	124.0
491.219452	52.0
491.541534	116.0
496.119232	116.0
496.846558	68.0
500.867371	160.0
500.936432	140.0
502.01947	132.0
511.747589	196.0
511.889343	392.0
512.508789	204.0
512.864807	152.0
512.907593	240.0
513.613281	140.0
513.721558	352.0
513.751831	196.0
513.834351	104.0
513.888489	76.0
514.863708	192.0
515.867126	100.0
516.857056	280.0
518.355896	60.0
519.176392	92.0
525.969238	88.0
526.923645	188.0
530.99762	124.0
536.792175	68.0
539.881409	140.0
539.910034	380.0
540.341248	52.0
540.870239	176.0
540.904053	132.0
541.024414	68.0
541.726685	2144.0
541.93219	36.0
542.367798	60.0
542.613464	68.0
542.723572	256.0
542.90094	72.0
542.947327	44.0
543.71283	112.0
544.474182	88.0
545.008423	144.0
545.092041	40.0
545.538208	144.0
557.998108	160.0
559.987915	104.0
560.812439	196.0
566.747986	152.0
571.253479	80.0
571.315308	52.0
574.154175	84.0
584.766479	104.0
589.023804	172.0
592.453613	104.0
596.073059	104.0
596.768127	148.0
596.957764	32.0
597.541504	64.0
597.747131	152.0
597.867493	132.0
598.729187	144.0
598.88501	136.0
600.937378	76.0
601.88916	92.0
602.779724	504.0
603.791321	216.0
608.768311	116.0
609.250549	108.0
610.076111	136.0
610.331787	124.0
610.366211	128.0
610.464539	140.0
610.785034	1948.0
610.845581	84.0
610.858948	152.0
610.902283	80.0
611.113831	44.0
611.359863	32.0
611.443542	64.0
611.785522	684.0
611.861938	148.0
612.776367	120.0
612.970154	156.0
613.063782	64.0
613.206726	80.0
613.946228	52.0
615.559937	88.0
615.871033	56.0
631.143005	112.0
636.76947	276.0
639.802063	416.0
640.185486	36.0
640.779846	124.0
640.820129	180.0
642.19635	48.0
642.892578	152.0
645.898743	56.0
652.8573	72.0
654.867615	132.0
657.819946	36.0
661.725708	88.0
667.807678	492.0
668.784302	124.0
672.903137	80.0
683.679688	168.0
687.817993	72.0
689.196716	80.0
697.776672	68.0
703.825317	76.0
711.826355	144.0
717.818115	152.0
734.562561	96.0
736.867737	108.0
737.789795	156.0
738.76532	92.0
741.76532	116.0
754.806763	108.0
755.830261	136.0
764.783875	112.0
770.878052	100.0
780.783508	108.0
784.922241	128.0
787.115234	148.0
789.83136	156.0
792.6474	60.0
794.800598	180.0
797.805359	88.0
798.817627	88.0
798.856995	56.0
806.299805	96.0
810.777832	124.0
823.714844	52.0
823.937622	140.0
824.823364	92.0
835.535645	176.0
835.772827	124.0
841.820251	104.0
841.945312	56.0
845.859619	132.0
850.839294	144.0
867.797607	128.0
869.741455	56.0
879.146545	28.0
881.721375	60.0
882.738159	68.0
883.717468	80.0
887.47522	68.0
890.691772	92.0
896.696106	148.0
899.713562	164.0
906.664001	172.0
908.73877	80.0
909.710999	116.0
910.761841	124.0
913.665283	120.0
913.707397	120.0
925.730957	128.0
926.725952	120.0
926.809204	48.0
930.581848	56.0
935.707153	88.0
938.686707	60.0
939.784607	120.0
952.721191	88.0
956.706238	116.0
965.820496	116.0
967.732727	104.0
969.752197	92.0
970.241882	88.0
972.729492	96.0
978.728943	112.0
986.727722	80.0
990.645325	104.0
995.682007	128.0
995.73761	108.0
995.813904	100.0
996.731079	156.0
1020.592834	120.0
1022.399414	140.0
1032.351318	28.0
1036.640381	72.0
1037.640259	100.0
1042.666382	124.0
1053.593018	84.0
1054.570312	128.0
1054.642944	68.0
1054.699585	128.0
1055.51416	72.0
1063.593018	92.0
1064.605835	68.0
1085.651978	152.0
1090.635132	48.0
1092.568481	164.0
1095.669312	100.0
1096.67749	140.0
1098.602905	104.0
1100.642334	136.0
1101.652832	168.0
1105.57373	92.0
1105.624268	172.0
1110.588989	100.0
1110.648682	56.0
1123.653809	644.0
1124.588257	60.0
1124.652832	236.0
1124.722534	208.0
1124.795166	140.0
1125.676392	132.0
1141.648071	284.0
1141.712891	64.0
1142.62561	80.0
1142.654053	56.0
1142.682861	76.0
1143.670654	72.0
1145.387695	40.0
1181.46875	52.0
1183.521973	116.0
1194.507324	132.0
1194.571533	268.0
1194.76416	128.0
1195.610474	176.0
1196.519043	104.0
1212.586182	112.0
1220.458374	232.0
1220.50708	124.0
1251.595947	48.0
1478.887085	92.0
END IONS

BEGIN IONS
PEPMASS=405.132
CHARGE=1
MSLEVEL=2
SOURCE_INSTRUMENT=LC-ESI-qTof
FILENAME=p5-B05_GB5_01_18444.mzXML
SEQ=*..*
IONMODE=Positive
ORGANISM=GNPS-NIH-SMALLMOLECULEPHARMACOLOGICALLYACTIVE
NAME=MLS001074941-01!Sulfinpyrazone M+H
PI=Dorrestein
DATACOLLECTOR=VP/LMS
SMILES=O=C1C(CCS(=O)c2ccccc2)C(=O)N(N1c3ccccc3)c4ccccc4
INCHI=N/A
INCHIAUX=N/A
PUBMED=N/A
SUBMITUSER=vphelan
LIBRARYQUALITY=1
SPECTRUMID=CCMSLIB00000086032
USI=mzspec:GNPS:GNPS-NIH-SMALLMOLECULEPHARMACOLOGICALLYACTIVE:accession:CCMSLIB00000086032
SCANS=1977
44.952503	152.0
45.02993	128.0
45.099407	244.0
45.147537	192.0
45.361759	140.0
45.379185	164.0
45.435513	128.0
45.501274	228.0
45.520069	176.0
45.988564	160.0
46.018261	76.0
46.183125	176.0
47.413921	260.0
47.849346	132.0
48.111282	164.0
48.183094	168.0
48.288147	212.0
49.275089	184.0
49.454079	128.0
49.641808	108.0
49.654427	88.0
49.692303	172.0
50.021145	136.0
50.178921	120.0
50.396271	104.0
50.551811	40.0
50.706169	192.0
51.139347	152.0
51.207687	152.0
51.219082	120.0
51.330242	56.0
51.447235	156.0
52.07515	216.0
52.080711	112.0
52.086243	148.0
52.366364	212.0
52.669254	184.0
52.936806	56.0
52.988949	108.0
53.107815	40.0
53.299442	112.0
53.412838	200.0
53.594814	204.0
53.658943	164.0
53.854481	60.0
53.947998	196.0
54.088425	76.0
54.346348	176.0
54.482887	212.0
54.624008	208.0
54.945148	192.0
55.00565	152.0
55.110504	176.0
55.292385	160.0
55.376774	108.0
55.387142	64.0
55.419735	152.0
55.658535	144.0
55.766979	168.0
56.04377	52.0
56.089966	176.0
56.599403	224.0
57.204433	160.0
57.230026	192.0
57.300816	136.0
57.416878	260.0
57.549667	120.0
57.758217	184.0
58.351147	152.0
58.858513	112.0
59.311344	168.0
59.435566	152.0
59.656723	204.0
59.829018	176.0
59.87059	132.0
59.952236	136.0
60.183613	128.0
60.531517	52.0
60.976742	208.0
61.105804	140.0
61.252136	124.0
61.518784	136.0
61.623421	104.0
61.764111	132.0
61.901833	52.0
62.185585	216.0
62.364635	228.0
62.454254	116.0
62.465267	172.0
63.493488	88.0
63.885807	180.0
64.153343	176.0
64.667671	188.0
64.718895	124.0
64.806992	228.0
65.063599	132.0
65.108559	168.0
65.237099	204.0
65.531601	284.0
65.936623	212.0
65.981888	184.0
66.493744	132.0
66.89521	52.0
67.521759	84.0
67.595367	192.0
67.935486	148.0
67.988655	176.0
68.136436	316.0
68.220245	136.0
68.34359	80.0
68.963646	144.0
69.296257	204.0
69.387413	132.0
69.403908	160.0
69.598122	128.0
69.716057	204.0
69.874016	180.0
69.908958	172.0
70.358986	112.0
70.467537	128.0
70.86573	184.0
71.070282	192.0
71.325546	204.0
71.582954	132.0
71.658745	144.0
71.712669	164.0
71.864441	80.0
72.173531	164.0
72.554466	240.0
73.358551	128.0
73.559837	40.0
74.006035	156.0
74.091667	136.0
74.197922	212.0
74.350578	196.0
74.37632	64.0
75.162804	204.0
75.360077	172.0
75.591331	120.0
76.631393	196.0
77.113014	148.0
77.240646	160.0
77.441933	148.0
77.696106	148.0
78.152901	180.0
78.344795	176.0
78.904228	184.0
79.070503	196.0
79.566811	168.0
79.852898	228.0
80.253563	108.0
80.539085	152.0
80.633781	48.0
80.726746	116.0
81.084778	200.0
81.612534	152.0
81.790894	140.0
82.128967	88.0
82.183495	156.0
82.235825	156.0
82.257484	136.0
82.318871	156.0
82.358604	144.0
82.441711	92.0
82.790848	140.0
82.85968	128.0
82.875984	152.0
83.088104	136.0
83.545906	204.0
83.696968	228.0
83.769814	132.0
83.844521	136.0
84.079773	160.0
84.229492	56.0
84.452484	196.0
84.48175	64.0
84.877342	236.0
84.930527	156.0
85.286728	204.0
85.465111	76.0
86.156487	92.0
86.261818	108.0
86.328377	160.0
87.112366	148.0
87.298225	144.0
87.432159	108.0
87.711533	236.0
88.288445	120.0
88.441864	176.0
88.466194	124.0
88.505508	192.0
88.616013	136.0
88.677856	212.0
89.036186	120.0
89.220329	192.0
89.252289	148.0
89.998428	180.0
90.08152	196.0
90.575226	224.0
90.915573	176.0
90.984818	172.0
91.254601	40.0
91.435303	192.0
91.90789	136.0
92.047226	188.0
92.135086	220.0
92.525215	164.0
92.918091	216.0
92.987167	128.0
93.004448	188.0
93.031319	140.0
93.056969	556.0
93.085075	228.0
93.771858	152.0
93.991692	168.0
94.031319	136.0
94.070824	136.0
94.23111	188.0
94.368332	220.0
94.708916	144.0
94.78447	168.0
94.825165	192.0
94.96476	152.0
94.982216	164.0
95.042358	76.0
95.065643	168.0
95.098633	108.0
95.259796	124.0
95.358887	204.0
95.458038	184.0
95.557236	176.0
95.820061	188.0
95.894112	56.0
96.255005	116.0
96.337036	172.0
96.383926	132.0
96.959244	140.0
97.029808	136.0
97.286797	208.0
97.538231	140.0
97.669975	184.0
97.72506	132.0
97.825912	224.0
98.308304	100.0
98.474136	136.0
98.612434	184.0
98.778519	196.0
98.826004	148.0
98.901199	108.0
98.97049	140.0
99.079414	120.0
99.273659	132.0
99.867462	172.0
100.273621	172.0
100.381271	216.0
100.590759	192.0
101.318657	100.0
101.900459	212.0
102.019035	52.0
102.049271	240.0
102.739975	212.0
102.869125	144.0
103.053497	480.0
103.528244	164.0
103.880905	168.0
103.962059	120.0
104.05011	2844.0
104.075836	160.0
104.140717	156.0
104.177277	56.0
104.53511	76.0
104.673531	76.0
104.795738	152.0
104.975113	132.0
104.99958	212.0
105.031357	76.0
105.036499	200.0
105.056862	372.0
105.07196	328.0
105.105659	44.0
105.653206	136.0
105.733002	152.0
106.034561	196.0
106.067146	560.0
106.097595	104.0
106.138603	228.0
106.179619	40.0
106.224739	140.0
106.637444	48.0
106.742287	112.0
106.808098	272.0
107.034477	164.0
107.067421	416.0
107.10656	40.0
107.527161	156.0
107.994087	64.0
108.010635	220.0
108.047867	188.0
108.089249	112.0
108.484825	136.0
108.503487	156.0
108.526291	108.0
108.854126	160.0
109.016602	132.0
109.326004	124.0
109.363464	116.0
109.396774	132.0
110.377342	68.0
111.001335	108.0
111.709114	208.0
111.753288	172.0
112.33474	200.0
112.619698	176.0
113.040398	160.0
113.59124	156.0
113.67823	208.0
114.863266	260.0
115.008354	176.0
115.054321	524.0
115.448463	176.0
115.557549	124.0
116.050072	660.0
116.101616	204.0
116.292557	136.0
116.41922	60.0
117.004059	60.0
117.058159	1936.0
117.085884	164.0
117.111725	144.0
117.139725	56.0
117.204361	164.0
117.391891	120.0
117.495422	120.0
117.6875	224.0
117.719894	116.0
117.871101	220.0
118.065834	2756.0
118.113235	116.0
118.217079	112.0
118.342621	232.0
118.444405	116.0
118.487732	48.0
118.589577	136.0
118.613419	212.0
118.689293	68.0
118.773872	108.0
118.838951	84.0
119.038773	536.0
119.069199	572.0
119.414604	120.0
119.484215	184.0
119.616959	192.0
120.044518	700.0
120.076691	168.0
120.183578	168.0
120.216309	136.0
120.388763	252.0
120.476128	180.0
120.749352	96.0
121.049355	140.0
121.160858	32.0
121.176201	120.0
121.656479	212.0
122.016754	196.0
122.49649	160.0
122.935242	168.0
122.998703	212.0
123.030174	300.0
123.069885	248.0
123.111839	196.0
123.379189	124.0
123.416779	200.0
123.449944	168.0
123.589294	220.0
124.003395	136.0
124.032722	208.0
124.076546	52.0
125.561882	180.0
125.637718	40.0
125.885468	152.0
125.968102	148.0
126.066406	216.0
126.348129	136.0
126.372742	60.0
126.912521	64.0
127.085228	48.0
127.489403	52.0
127.941498	64.0
128.050644	1048.0
128.090118	80.0
128.117157	96.0
128.615494	144.0
128.64032	88.0
128.807419	224.0
128.949768	52.0
129.026306	116.0
129.058533	5624.0
129.144211	84.0
129.160721	40.0
129.483688	160.0
129.717072	204.0
129.769211	144.0
129.884857	184.0
130.004044	136.0
130.040543	200.0
130.066666	7172.0
130.12767	132.0
130.158859	212.0
130.198074	100.0
130.261658	136.0
130.284378	180.0
130.418442	64.0
130.536667	120.0
130.63446	40.0
130.736847	32.0
130.887863	152.0
131.048904	344.0
131.069046	816.0
131.162735	96.0
131.826874	40.0
131.906876	284.0
131.970886	272.0
132.044678	652.0
132.082367	1944.0
132.110382	36.0
132.135544	104.0
132.543091	60.0
132.650803	44.0
132.742508	92.0
133.015533	148.0
133.046616	336.0
133.085678	820.0
133.302612	152.0
133.410629	32.0
133.47731	164.0
133.900726	160.0
133.983658	96.0
134.05246	488.0
134.058731	116.0
135.025818	1248.0
135.346313	180.0
135.561737	164.0
135.587234	204.0
135.728638	180.0
135.935074	136.0
135.981491	112.0
136.029449	140.0
136.069702	148.0
136.229935	152.0
136.501862	192.0
136.846222	104.0
136.925385	180.0
136.983627	212.0
137.013763	164.0
137.043274	148.0
137.225983	132.0
137.522247	136.0
137.59227	164.0
137.947357	144.0
137.984756	172.0
138.010468	84.0
139.041168	180.0
139.217224	152.0
140.047424	104.0
140.146362	156.0
140.316055	156.0
140.976944	116.0
141.06572	200.0
141.547028	120.0
141.826584	152.0
142.067841	780.0
142.094543	144.0
142.564682	212.0
142.693024	92.0
142.84285	144.0
143.067169	424.0
143.450058	156.0
143.791138	168.0
143.853195	48.0
144.046265	600.0
144.09201	116.0
144.658768	192.0
144.924606	160.0
145.015671	64.0
145.049942	164.0
145.070786	164.0
146.016815	192.0
146.060318	436.0
146.120255	144.0
146.233353	160.0
146.739197	96.0
147.028473	300.0
147.063461	176.0
147.386047	36.0
147.531052	128.0
148.027039	216.0
149.011795	156.0
150.060745	152.0
150.372986	176.0
150.63913	116.0
151.468353	144.0
151.485504	84.0
151.536942	164.0
151.735458	144.0
153.015442	148.0
153.367706	164.0
153.616745	144.0
153.666092	188.0
153.76973	172.0
154.679291	28.0
155.064667	216.0
155.745499	124.0
156.0401	184.0
156.070267	360.0
156.678314	180.0
156.735626	44.0
157.055328	232.0
157.077164	100.0
157.181946	172.0
157.319214	184.0
157.871384	244.0
157.926407	220.0
157.962814	144.0
158.061462	11316.0
158.119064	40.0
158.141083	80.0
158.184128	44.0
158.374435	124.0
158.399475	60.0
158.429535	32.0
158.46962	52.0
158.692688	92.0
158.712738	40.0
159.064819	1360.0
159.815384	80.0
159.836441	140.0
160.017578	448.0
160.07634	1460.0
160.175385	124.0
160.268585	72.0
160.533264	112.0
161.046234	196.0
161.075806	220.0
161.128937	196.0
161.199677	172.0
161.594116	128.0
161.745956	116.0
161.834564	116.0
161.90799	28.0
162.053894	700.0
162.092911	256.0
162.45546	96.0
163.036896	100.0
163.057236	168.0
163.991089	168.0
164.386566	72.0
164.774658	168.0
165.068588	148.0
166.000671	332.0
166.067627	712.0
166.76828	104.0
166.901962	180.0
167.068542	844.0
167.280136	84.0
167.370255	120.0
167.975204	200.0
168.082993	328.0
169.05484	208.0
169.083664	212.0
169.091095	160.0
169.330246	152.0
169.350967	80.0
169.576385	140.0
170.050217	132.0
170.069641	316.0
170.336609	160.0
170.391159	56.0
170.804489	112.0
170.843506	204.0
171.054306	348.0
171.223526	116.0
171.830872	80.0
172.050079	44.0
172.070969	144.0
172.611816	172.0
173.0383	160.0
173.061859	136.0
174.003098	52.0
174.055099	532.0
174.073975	132.0
174.365585	232.0
175.023224	112.0
175.473755	184.0
175.626709	80.0
176.066986	228.0
176.479675	132.0
176.643646	172.0
176.844727	140.0
177.045944	140.0
178.082901	172.0
178.122742	44.0
178.260895	216.0
179.066971	92.0
180.084412	132.0
180.163239	140.0
181.067322	208.0
181.089798	212.0
181.254837	100.0
182.084671	640.0
182.333603	44.0
182.833801	228.0
183.01416	128.0
183.063065	180.0
183.092178	2224.0
183.337402	136.0
183.504517	40.0
183.547653	180.0
183.615463	192.0
183.833588	212.0
184.092133	748.0
184.330444	44.0
184.554794	152.0
184.665665	60.0
184.817154	140.0
184.852325	104.0
185.005249	96.0
185.048096	6220.0
185.108017	96.0
185.12886	176.0
185.320755	56.0
185.44902	60.0
185.480652	108.0
185.5186	56.0
185.863037	64.0
185.91188	52.0
186.055939	8184.0
186.213226	84.0
186.270264	52.0
186.376205	32.0
186.463165	40.0
186.631699	60.0
187.060944	856.0
187.088776	292.0
187.140503	132.0
187.246689	92.0
187.276657	96.0
187.404694	132.0
187.444489	172.0
187.619995	120.0
187.868149	84.0
188.073029	224.0
188.326721	80.0
188.537094	96.0
188.673767	168.0
188.99649	84.0
189.029327	136.0
189.067627	156.0
189.65921	124.0
190.078796	100.0
190.375259	228.0
191.07341	168.0
191.318344	124.0
191.946518	132.0
192.018204	44.0
192.078888	148.0
192.214066	84.0
192.352066	36.0
193.074875	124.0
193.096649	148.0
193.139557	164.0
194.057602	656.0
194.858261	152.0
194.911041	160.0
195.091064	320.0
195.489426	140.0
196.102112	136.0
196.80043	192.0
197.031311	184.0
198.096832	148.0
198.419403	176.0
198.946823	168.0
199.047897	148.0
199.52272	104.0
200.060028	128.0
201.065735	288.0
201.990173	64.0
202.077774	176.0
202.103333	104.0
202.256149	176.0
203.05777	1044.0
203.196976	168.0
203.406967	136.0
203.543243	76.0
203.960861	48.0
204.058945	340.0
204.083267	184.0
204.228119	128.0
205.061737	244.0
205.073624	192.0
205.085526	236.0
205.393082	188.0
206.052505	152.0
206.084869	440.0
206.129639	52.0
206.38118	72.0
207.098969	116.0
207.222641	164.0
207.526443	92.0
207.644012	36.0
208.106003	76.0
208.654755	52.0
209.076355	324.0
209.112106	180.0
209.371216	272.0
210.078384	148.0
210.406357	144.0
210.559387	192.0
211.024612	132.0
211.086136	4732.0
211.143173	164.0
211.284897	48.0
211.35434	72.0
211.380386	52.0
211.449829	52.0
211.504822	52.0
211.591675	44.0
211.707489	152.0
211.965302	156.0
212.090591	1416.0
212.171082	52.0
212.365356	44.0
212.812256	56.0
213.095642	168.0
213.195679	44.0
213.419495	120.0
213.666702	100.0
215.077087	176.0
216.021362	232.0
216.084167	212.0
217.088013	132.0
217.676819	124.0
217.973495	112.0
217.994064	76.0
218.082855	148.0
219.017868	228.0
219.095215	468.0
219.504135	80.0
220.083679	156.0
220.114944	56.0
221.070465	144.0
221.114365	236.0
221.783478	76.0
222.113358	124.0
222.39447	48.0
222.724045	136.0
223.082764	116.0
223.12822	232.0
223.199539	60.0
223.648758	116.0
224.071609	148.0
224.12822	136.0
224.217606	116.0
225.106583	64.0
225.261887	120.0
227.030746	140.0
228.331085	176.0
229.032349	140.0
229.098618	180.0
230.803818	132.0
231.096115	432.0
231.790588	108.0
232.103348	696.0
233.079788	204.0
233.108261	1736.0
233.147018	232.0
233.21405	72.0
233.663925	100.0
233.694351	32.0
233.715652	44.0
233.846512	40.0
234.110825	800.0
234.133316	192.0
234.217957	48.0
234.275833	112.0
234.364182	64.0
234.601898	120.0
234.820206	148.0
235.016678	60.0
235.083679	204.0
235.123474	332.0
235.743408	244.0
235.770905	48.0
235.80452	60.0
236.101074	160.0
236.122482	124.0
237.102142	216.0
237.402573	128.0
238.060699	300.0
239.544785	172.0
240.069046	156.0
240.707489	144.0
242.092972	176.0
243.010315	32.0
243.089996	344.0
243.680939	232.0
244.094223	128.0
244.781998	124.0
245.130875	112.0
247.08606	196.0
247.423416	80.0
248.058746	192.0
248.098068	224.0
248.846756	156.0
248.991196	148.0
249.083359	340.0
249.11998	112.0
249.19223	200.0
249.324203	148.0
250.069061	152.0
250.111252	180.0
251.080872	192.0
251.115829	868.0
252.084747	116.0
252.126083	196.0
252.343933	52.0
252.404007	84.0
253.087448	164.0
253.124985	196.0
253.556274	116.0
254.101654	220.0
254.460281	76.0
256.078827	128.0
258.866821	120.0
259.08847	428.0
259.555725	44.0
260.095306	820.0
261.101227	2344.0
261.270813	64.0
261.415588	56.0
261.444885	160.0
261.637665	64.0
261.9758	44.0
262.069	144.0
262.079956	124.0
262.107269	372.0
262.223907	92.0
262.462463	100.0
263.084778	208.0
263.122253	180.0
263.282104	104.0
263.343445	180.0
263.828125	60.0
263.902496	192.0
264.071381	196.0
264.099579	140.0
264.361816	116.0
265.100586	488.0
265.197357	124.0
266.06366	524.0
266.090088	284.0
266.125519	100.0
266.336212	64.0
267.077393	368.0
268.083282	120.0
277.056641	148.0
277.100067	268.0
277.789246	168.0
278.105347	128.0
278.978058	176.0
279.113007	3256.0
279.152802	116.0
279.194183	64.0
279.553467	168.0
280.11911	1092.0
281.124878	128.0
281.193085	32.0
281.51355	92.0
281.700592	112.0
282.05481	140.0
282.14505	200.0
282.783936	140.0
284.090729	48.0
290.768219	36.0
290.954895	40.0
291.121277	128.0
292.045685	136.0
292.270203	108.0
294.062653	572.0
295.077179	144.0
295.213959	104.0
296.062622	136.0
299.008179	52.0
299.195465	192.0
303.748596	68.0
308.103424	132.0
318.040863	76.0
338.169312	160.0
339.213196	160.0
340.152252	132.0
347.247589	84.0
351.90274	104.0
353.341614	60.0
354.685974	120.0
361.15097	132.0
374.776062	32.0
375.292542	72.0
388.112152	104.0
404.954926	96.0
405.103149	200.0
408.302063	212.0
410.004974	52.0
442.8284	84.0
447.380035	104.0
452.776184	44.0
486.67926	108.0
512.964966	76.0
536.248596	108.0
612.579407	96.0
622.267334	80.0
622.883118	76.0
638.773926	128.0
694.092224	100.0
703.372498	76.0
757.349304	188.0
763.188232	180.0
777.317566	204.0
785.596252	188.0
788.058289	72.0
805.993225	176.0
833.354492	112.0
849.873291	172.0
856.762695	40.0
861.58136	220.0
868.3479	112.0
868.641113	52.0
878.989746	188.0
890.884155	184.0
910.805664	148.0
924.539856	168.0
945.223694	108.0
946.552002	220.0
950.094543	216.0
998.082153	180.0
1005.610107	216.0
1008.060364	192.0
1014.268921	256.0
1018.958435	192.0
1028.561401	108.0
1029.634033	212.0
1033.962158	144.0
1045.481567	204.0
1045.803345	176.0
1054.814087	136.0
1069.271362	260.0
1073.192871	204.0
1077.337036	188.0
1090.895264	172.0
1092.519531	224.0
1102.693726	172.0
1105.616821	120.0
1106.391235	156.0
1111.52771	188.0
1111.673706	140.0
1117.381226	148.0
1127.41626	100.0
1133.344849	160.0
1134.068604	200.0
1137.818237	172.0
1145.956055	52.0
1149.630859	124.0
1151.514404	240.0
1156.971069	180.0
1158.244141	172.0
1161.456909	224.0
1162.746094	144.0
1163.852539	184.0
1166.617554	40.0
1168.508179	164.0
1171.626221	204.0
1176.474854	192.0
1177.963501	72.0
1193.84375	216.0
1193.974365	60.0
1194.648438	120.0
1194.834229	184.0
1196.265503	188.0
1199.854614	228.0
1208.328491	192.0
1214.479736	172.0
1217.929443	84.0
1223.965698	168.0
1225.247314	112.0
1225.421387	164.0
1228.795776	144.0
1229.772705	212.0
1233.04834	152.0
1239.458252	204.0
1240.130981	192.0
1242.402954	128.0
1245.751465	176.0
1249.983765	56.0
1259.289307	184.0
1259.939209	140.0
1262.292725	144.0
1267.516602	116.0
1270.515747	76.0
1271.367065	204.0
1272.233032	56.0
1278.87915	196.0
1280.246094	164.0
1280.566528	160.0
1282.84668	140.0
1283.138916	208.0
1289.570435	156.0
1291.429321	168.0
1293.02478	144.0
1293.797852	148.0
1294.535278	92.0
1296.992676	64.0
1315.377808	168.0
1316.041992	256.0
1317.847656	188.0
1318.635254	156.0
1327.568726	112.0
1332.889526	148.0
1339.670166	120.0
1348.937622	168.0
1356.074097	232.0
1356.257324	100.0
1358.28833	152.0
1359.682373	108.0
1366.074707	164.0
1369.43103	124.0
1369.48999	208.0
1372.260742	172.0
1372.437744	196.0
1373.374268	176.0
1373.890625	204.0
1384.852539	160.0
1387.208862	204.0
1389.819336	220.0
1391.207153	220.0
1392.825928	116.0
1396.52002	172.0
1402.804321	164.0
1404.489502	100.0
1410.574951	152.0
1415.25061	184.0
1415.894653	148.0
1419.191772	252.0
1419.724121	164.0
1426.646729	232.0
1427.879883	212.0
1433.834839	192.0
1435.078613	240.0
1435.629028	188.0
1437.273438	196.0
1437.582764	160.0
1439.182983	48.0
1448.662476	188.0
1453.192627	180.0
1453.397461	136.0
1456.284668	60.0
1456.517578	144.0
1458.630005	148.0
1459.040527	164.0
1459.283813	172.0
1462.646118	176.0
1463.506348	224.0
1463.681519	56.0
1467.872437	176.0
1468.383301	172.0
1469.283447	52.0
1471.336304	248.0
1472.344116	152.0
1480.396729	204.0
1480.450317	164.0
1481.537964	188.0
1485.263306	144.0
1486.751709	100.0
1488.302368	128.0
1491.744141	152.0
1492.928101	156.0
1493.051147	128.0
1496.452271	184.0
1498.077148	124.0
1499.664429	64.0
1500.304199	120.0
1500.396729	184.0
1501.561035	160.0
1502.502075	72.0
END IONS

BEGIN IONS
PEPMASS=307.243
CHARGE=1
MSLEVEL=2
SOURCE_INSTRUMENT=LC-ESI-qTof
FILENAME=p5-G04_GG4_01_18473.mzXML
SEQ=*..*
IONMODE=Positive
ORGANISM=GNPS-NIH-SMALLMOLECULEPHARMACOLOGICALLYACTIVE
NAME=MLS000028619-01!BUTACAINE149-16-6 M+H
PI=Dorrestein
DATACOLLECTOR=VP/LMS
SMILES=CCCCN(CCCC)CCCOC(=O)c1ccc(N)cc1
INCHI=N/A
INCHIAUX=N/A
PUBMED=N/A
SUBMITUSER=vphelan
LIBRARYQUALITY=1
SPECTRUMID=CCMSLIB00000086158
USI=mzspec:GNPS:GNPS-NIH-SMALLMOLECULEPHARMACOLOGICALLYACTIVE:accession:CCMSLIB00000086158
SCANS=1551
44.932045	128.0
45.091846	184.0
45.112335	72.0
45.160473	168.0
45.176525	128.0
45.222019	128.0
45.30772	132.0
45.322456	168.0
45.37875	160.0
45.429714	200.0
45.439106	160.0
45.480705	84.0
45.491444	192.0
45.511581	88.0
45.520981	144.0
45.542469	168.0
45.55859	140.0
45.58971	172.0
45.681282	208.0
45.720005	160.0
45.772442	148.0
45.851921	80.0
45.958454	164.0
45.980045	144.0
46.086918	172.0
46.109695	148.0
46.140785	204.0
46.175945	184.0
46.207058	228.0
46.221939	240.0
46.26796	208.0
46.320774	180.0
46.360065	192.0
46.383106	112.0
46.398018	232.0
46.411575	144.0
46.44548	72.0
46.467182	104.0
46.483467	204.0
46.50518	160.0
46.677715	176.0
46.700836	200.0
46.718517	180.0
46.752533	48.0
46.781116	80.0
46.792007	224.0
46.830139	184.0
46.845119	148.0
46.857384	100.0
46.94598	164.0
47.030567	160.0
47.135544	180.0
47.156898	228.0
47.221855	96.0
47.254684	128.0
47.285488	172.0
47.361462	220.0
47.388863	152.0
47.408043	208.0
47.435104	140.0
47.450535	188.0
47.460133	100.0
47.497162	96.0
47.514996	168.0
47.601467	144.0
47.628937	68.0
47.679771	192.0
47.723759	216.0
47.798332	204.0
47.832417	204.0
47.883389	220.0
47.91507	160.0
47.953655	104.0
48.017075	208.0
48.083298	172.0
48.108574	180.0
48.127472	172.0
48.177639	184.0
48.19101	164.0
48.232468	116.0
48.242142	64.0
48.260117	116.0
48.315437	144.0
48.446957	108.0
48.466351	292.0
48.477436	132.0
48.506794	132.0
48.594635	160.0
48.638321	68.0
48.650814	140.0
48.66053	136.0
48.729977	176.0
48.786957	176.0
48.824497	124.0
48.857883	156.0
48.877361	204.0
48.889885	224.0
48.953922	144.0
48.990135	228.0
49.126751	148.0
49.143494	100.0
49.189548	128.0
49.231434	160.0
49.316658	220.0
49.344616	60.0
49.364189	132.0
49.373981	200.0
49.386566	196.0
49.404751	124.0
49.438332	48.0
49.459904	184.0
49.522301	168.0
49.54615	160.0
49.572273	192.0
49.578041	184.0
49.5994	180.0
49.609211	96.0
49.64146	60.0
49.662495	132.0
49.687748	184.0
49.784599	136.0
49.80426	164.0
49.88295	96.0
49.893742	200.0
49.950447	112.0
49.972958	176.0
50.08276	128.0
50.122208	132.0
50.146164	192.0
50.156601	212.0
50.22089	140.0
50.264626	156.0
50.400406	200.0
50.419453	144.0
50.448235	44.0
50.465199	188.0
50.494896	56.0
50.506882	176.0
50.629345	204.0
50.708683	112.0
50.737999	176.0
50.773899	188.0
50.792336	164.0
50.803684	132.0
50.891216	196.0
50.934284	108.0
51.047981	120.0
51.065048	136.0
51.07785	120.0
51.117687	224.0
51.145657	184.0
51.295784	168.0
51.335636	128.0
51.368443	176.0
51.426945	168.0
51.44693	200.0
51.47263	192.0
51.521191	108.0
51.63554	128.0
51.645554	132.0
51.662079	188.0
51.695629	148.0
51.712803	164.0
51.741432	136.0
51.761475	180.0
51.794415	152.0
51.823067	132.0
51.886127	200.0
51.900276	180.0
51.921978	168.0
51.93919	112.0
51.996578	52.0
52.051132	144.0
52.153835	188.0
52.19051	140.0
52.209206	108.0
52.240849	56.0
52.285454	176.0
52.361755	72.0
52.374718	52.0
52.386242	148.0
52.409294	168.0
52.424561	140.0
52.453972	180.0
52.481361	152.0
52.513088	152.0
52.549152	184.0
52.60688	60.0
52.622761	136.0
52.680527	160.0
52.736881	272.0
52.793266	32.0
52.826534	148.0
52.884411	96.0
52.910469	44.0
52.937981	184.0
52.988693	160.0
53.007511	76.0
53.064041	112.0
53.091591	148.0
53.22945	64.0
53.263115	112.0
53.278835	144.0
53.358768	172.0
53.425667	60.0
53.489697	120.0
53.645561	44.0
53.668289	160.0
53.689304	188.0
53.7141	108.0
53.789978	196.0
53.811878	128.0
53.83287	296.0
53.892208	192.0
53.914127	188.0
53.931667	84.0
53.949207	32.0
54.006237	168.0
54.063293	200.0
54.088177	116.0
54.137955	160.0
54.164284	168.0
54.219994	148.0
54.236118	188.0
54.290363	196.0
54.300629	136.0
54.38673	176.0
54.43124	188.0
54.444454	124.0
54.509094	144.0
54.553185	104.0
54.592884	116.0
54.623772	60.0
54.663494	60.0
54.73415	148.0
54.763603	68.0
54.88887	176.0
54.91394	168.0
54.972954	108.0
55.048237	132.0
55.08073	140.0
55.137779	236.0
55.197487	48.0
55.247772	124.0
55.333611	144.0
55.388458	212.0
55.401737	108.0
55.576683	116.0
55.708817	140.0
55.719215	128.0
55.754433	120.0
55.862644	144.0
55.978024	128.0
56.033314	148.0
56.083801	208.0
56.180729	168.0
56.308449	168.0
56.359886	184.0
56.370346	144.0
56.427147	180.0
56.467522	172.0
56.504196	208.0
56.543823	140.0
56.602207	132.0
56.669609	168.0
56.687592	208.0
56.748379	224.0
56.789536	136.0
56.867558	148.0
56.960651	120.0
56.989193	256.0
57.008152	188.0
57.053089	152.0
57.183182	60.0
57.193718	212.0
57.231354	156.0
57.259815	180.0
57.282562	132.0
57.345844	148.0
57.412182	152.0
57.422737	172.0
57.451397	208.0
57.49712	172.0
57.552517	44.0
57.582722	180.0
57.602356	92.0
57.644661	152.0
57.662796	208.0
57.715706	148.0
57.781147	180.0
57.83522	168.0
57.947281	180.0
57.973042	168.0
58.015244	156.0
58.036362	204.0
58.098888	152.0
58.211205	192.0
58.237026	216.0
58.300835	184.0
58.323631	108.0
58.382927	152.0
58.452904	136.0
58.475731	160.0
58.507698	152.0
58.5214	156.0
58.592983	56.0
58.708824	128.0
58.771366	104.0
58.783573	156.0
58.845387	188.0
58.879749	80.0
58.980591	124.0
59.075397	152.0
59.135075	136.0
59.175434	216.0
59.289761	124.0
59.317348	168.0
59.361809	208.0
59.541363	144.0
59.584373	240.0
59.819664	132.0
59.876633	192.0
59.93055	120.0
59.964451	144.0
60.036911	196.0
60.052368	188.0
60.109493	156.0
60.137196	56.0
60.159618	144.0
60.22057	60.0
60.265369	188.0
60.296272	208.0
60.421524	176.0
60.499283	212.0
60.535442	140.0
60.573235	84.0
60.608868	188.0
60.646576	180.0
60.747387	228.0
60.771671	176.0
60.788742	128.0
60.84462	160.0
60.863251	204.0
60.897415	152.0
60.953342	128.0
60.982868	156.0
61.038837	196.0
61.083939	180.0
61.138393	208.0
61.18042	248.0
61.248501	228.0
61.329964	128.0
61.45628	124.0
61.504662	156.0
61.565552	196.0
61.599911	168.0
61.612408	136.0
61.679604	88.0
61.718689	164.0
61.878281	172.0
61.929958	128.0
61.955021	212.0
62.067867	200.0
62.138447	48.0
62.151001	180.0
62.317432	56.0
62.36338	252.0
62.429039	156.0
62.446625	148.0
62.465214	160.0
62.481339	112.0
62.537594	196.0
62.576553	204.0
62.598991	136.0
62.63364	140.0
62.679329	88.0
62.768734	128.0
62.788845	136.0
62.835423	200.0
62.857513	192.0
62.889076	144.0
62.93919	156.0
62.972759	80.0
63.012962	160.0
63.075462	176.0
63.113407	172.0
63.137127	116.0
63.194073	56.0
63.23838	160.0
63.263157	196.0
63.27536	200.0
63.317543	100.0
63.358727	52.0
63.453815	148.0
63.469673	184.0
63.546959	88.0
63.593414	128.0
63.610874	96.0
63.641037	212.0
63.660091	180.0
63.785606	268.0
63.796734	200.0
63.833302	68.0
63.847935	180.0
63.914429	124.0
63.939888	212.0
64.03701	172.0
64.102325	72.0
64.16449	144.0
64.240852	172.0
64.301674	204.0
64.338387	160.0
64.362335	148.0
64.383095	180.0
64.432823	88.0
64.526901	144.0
64.544487	88.0
64.648468	148.0
64.666069	132.0
64.694885	116.0
64.723701	68.0
64.834236	68.0
64.850266	132.0
64.864685	188.0
64.959297	152.0
64.986954	252.0
64.997169	152.0
65.036316	192.0
65.067108	156.0
65.184074	128.0
65.202446	156.0
65.216217	200.0
65.238716	220.0
65.293388	224.0
65.331993	112.0
65.359344	180.0
65.391525	160.0
65.425331	148.0
65.439819	56.0
65.472023	72.0
65.515022	224.0
65.554184	348.0
65.604149	204.0
65.642845	80.0
65.679939	180.0
65.775139	168.0
65.808502	192.0
65.830032	104.0
65.841339	156.0
65.89949	220.0
65.950439	192.0
65.980301	132.0
66.00679	336.0
66.083809	160.0
66.112938	112.0
66.156639	180.0
66.259064	164.0
66.299171	124.0
66.33213	120.0
66.349426	180.0
66.364014	44.0
66.376984	60.0
66.389961	140.0
66.453224	196.0
66.471069	176.0
66.506149	260.0
66.553856	172.0
66.613945	168.0
66.750465	88.0
66.823662	164.0
66.97506	180.0
67.027191	180.0
67.144562	132.0
67.170662	208.0
67.186974	152.0
67.231026	148.0
67.25061	192.0
67.361649	276.0
67.41066	216.0
67.444984	188.0
67.4646	128.0
67.541916	200.0
67.559448	168.0
67.639633	80.0
67.6595	148.0
67.682198	208.0
67.719864	148.0
67.757545	204.0
67.834564	60.0
67.868996	132.0
68.021568	152.0
68.044556	252.0
68.064255	196.0
68.08889	136.0
68.106956	132.0
68.217049	132.0
68.263084	240.0
68.31572	128.0
68.335457	144.0
68.402771	208.0
68.417252	352.0
68.579178	172.0
68.620392	176.0
68.725952	212.0
68.775459	128.0
68.78701	188.0
68.838196	180.0
68.864616	148.0
68.928307	196.0
69.012146	204.0
69.13903	168.0
69.249992	72.0
69.303986	128.0
69.317917	180.0
69.334488	156.0
69.505295	64.0
69.520226	104.0
69.541801	208.0
69.593262	108.0
69.687935	228.0
69.706215	76.0
69.802628	172.0
69.849197	144.0
69.864166	32.0
69.935722	228.0
69.992325	196.0
70.02774	196.0
70.069458	168.0
70.09227	164.0
70.164413	168.0
70.232307	224.0
70.315903	192.0
70.329079	172.0
70.342438	148.0
70.401527	184.0
70.447639	216.0
70.564629	164.0
70.688057	216.0
70.718529	140.0
70.751198	284.0
70.768745	172.0
70.932922	172.0
70.95472	192.0
70.988007	216.0
71.036896	172.0
71.135933	184.0
71.159401	156.0
71.387215	208.0
71.455101	132.0
71.530937	140.0
71.68428	168.0
71.704422	64.0
71.719589	144.0
71.731392	124.0
71.802208	152.0
71.827507	192.0
71.8545	48.0
71.881493	172.0
71.962517	156.0
72.00135	156.0
72.050339	200.0
72.104408	168.0
72.119621	88.0
72.210922	60.0
72.400475	168.0
72.447899	196.0
72.464844	168.0
72.547882	208.0
72.575012	216.0
72.598755	152.0
72.669991	40.0
72.735374	152.0
72.756554	104.0
72.814285	172.0
72.890732	304.0
72.913727	172.0
72.976295	188.0
72.988884	252.0
73.030136	208.0
73.05735	68.0
73.096481	140.0
73.120308	128.0
73.166267	136.0
73.178185	188.0
73.195694	132.0
73.215645	80.0
73.275269	204.0
73.319572	168.0
73.384346	184.0
73.447075	148.0
73.493507	132.0
73.523865	192.0
73.546165	140.0
73.563477	120.0
73.609573	156.0
73.647148	176.0
73.705231	204.0
73.758209	116.0
73.794113	156.0
73.920685	172.0
73.94294	128.0
74.006271	52.0
74.018257	172.0
74.048294	208.0
74.270187	148.0
74.457268	256.0
74.550034	168.0
74.622231	184.0
74.754677	140.0
74.802872	200.0
74.871742	152.0
74.975105	176.0
75.030266	116.0
75.050812	196.0
75.066475	152.0
75.268364	144.0
75.317108	160.0
75.359642	180.0
75.439407	120.0
75.551819	152.0
75.58123	152.0
75.643532	160.0
75.679893	192.0
75.724915	116.0
75.84967	320.0
75.898209	192.0
75.936363	176.0
76.036995	124.0
76.116844	148.0
76.134209	232.0
76.221069	164.0
76.280159	48.0
76.317261	132.0
76.34623	124.0
76.522209	208.0
76.621246	164.0
76.644608	196.0
76.720589	224.0
76.874077	192.0
77.003265	160.0
77.022476	196.0
77.039948	252.0
77.066704	176.0
77.113335	224.0
77.153542	188.0
77.239227	148.0
77.282959	132.0
77.323212	32.0
77.357658	164.0
77.375725	156.0
77.393234	216.0
77.410744	176.0
77.444016	40.0
77.484306	128.0
77.55542	160.0
77.591217	188.0
77.643822	104.0
77.666618	152.0
77.680656	148.0
77.729782	148.0
77.789452	180.0
77.829834	172.0
77.896568	156.0
77.936974	156.0
77.986183	68.0
78.009033	188.0
78.028374	92.0
78.077606	100.0
78.102226	164.0
78.130379	188.0
78.219231	228.0
78.250053	152.0
78.32225	160.0
78.345932	136.0
78.419159	144.0
78.502136	180.0
78.734367	124.0
78.751488	204.0
78.772636	172.0
78.845978	192.0
79.000099	192.0
79.026634	200.0
79.081306	224.0
79.118668	132.0
79.179489	156.0
79.198357	168.0
79.225258	212.0
79.236885	160.0
79.4412	176.0
79.560104	164.0
79.655998	216.0
79.73951	196.0
79.775055	184.0
79.872856	152.0
79.887383	172.0
79.984962	124.0
80.074638	164.0
80.118515	168.0
80.180885	160.0
80.200485	196.0
80.229012	172.0
80.277153	204.0
80.289635	140.0
80.302116	160.0
80.402031	208.0
80.441292	120.0
80.52343	132.0
80.609184	116.0
80.664589	136.0
80.678528	140.0
80.737892	156.0
80.90609	120.0
80.965332	136.0
81.097755	140.0
81.210716	160.0
81.230446	176.0
81.259148	192.0
81.345291	100.0
81.357857	188.0
81.462013	180.0
81.47818	144.0
81.582413	140.0
81.615463	220.0
81.636353	232.0
81.710808	232.0
81.83429	140.0
81.863098	124.0
81.882912	148.0
81.911728	164.0
81.949562	48.0
81.992805	136.0
82.082947	180.0
82.099174	136.0
82.126228	128.0
82.15509	120.0
82.174934	64.0
82.274857	176.0
82.490974	220.0
82.503632	112.0
82.519905	132.0
82.586815	132.0
82.60128	136.0
82.633842	40.0
82.648323	148.0
82.745338	192.0
82.804001	120.0
82.874649	36.0
82.896393	216.0
82.927864	220.0
82.975121	208.0
83.019669	160.0
83.106735	188.0
83.166626	188.0
83.179329	224.0
83.261032	192.0
83.325645	168.0
83.355499	156.0
83.41227	168.0
83.479111	168.0
83.699287	196.0
83.74482	48.0
83.804939	148.0
83.908821	112.0
83.961624	180.0
83.985413	200.0
84.01825	180.0
84.056564	132.0
84.124092	116.0
84.206261	200.0
84.226357	120.0
84.24279	100.0
84.256233	188.0
84.27494	148.0
84.345123	124.0
84.363403	64.0
84.467636	92.0
84.49691	192.0
84.562782	180.0
84.650658	124.0
84.806381	88.0
84.821045	132.0
84.859543	124.0
84.879715	200.0
84.934731	112.0
84.967751	176.0
84.997612	176.0
85.087044	160.0
85.125603	72.0
85.204582	236.0
85.257874	220.0
85.290955	140.0
85.30616	176.0
85.333237	156.0
85.373688	148.0
85.43071	204.0
85.498787	120.0
85.550323	204.0
85.592674	164.0
85.625816	80.0
85.63871	72.0
85.705032	200.0
85.808243	148.0
85.882011	68.0
85.939194	128.0
86.063736	160.0
86.067749	204.0
86.123802	160.0
86.352997	100.0
86.613976	184.0
86.699203	220.0
86.738121	164.0
86.758873	208.0
86.843811	144.0
86.871635	148.0
86.918022	144.0
86.933334	176.0
87.001541	172.0
87.029388	100.0
87.077667	200.0
87.109245	156.0
87.272789	160.0
87.298828	136.0
87.315559	208.0
87.375084	144.0
87.460686	116.0
87.512863	156.0
87.55378	208.0
87.594757	200.0
87.625519	172.0
87.693512	120.0
87.738068	164.0
87.784859	216.0
87.991974	156.0
88.03492	188.0
88.090958	164.0
88.11898	184.0
88.149864	184.0
88.167564	240.0
88.228821	212.0
88.393837	204.0
88.524361	176.0
88.576759	176.0
88.61853	216.0
88.648514	56.0
88.721115	152.0
88.971123	52.0
88.986137	124.0
89.006798	112.0
89.027451	84.0
89.049988	184.0
89.164597	116.0
89.196548	196.0
89.236023	124.0
89.347954	204.0
89.404419	184.0
89.477905	192.0
89.62941	164.0
89.644485	204.0
89.659561	192.0
89.701027	40.0
89.738731	168.0
89.849937	108.0
89.90284	84.0
89.957977	168.0
90.012321	212.0
90.036873	100.0
90.05954	164.0
90.148331	144.0
90.235283	168.0
90.256081	48.0
90.397949	112.0
90.435799	176.0
90.471764	64.0
90.68013	160.0
90.712029	164.0
90.730705	204.0
90.778709	120.0
90.80526	180.0
90.854584	204.0
90.87545	224.0
91.043182	252.0
91.108093	140.0
91.126068	148.0
91.213493	84.0
91.300949	172.0
91.35421	192.0
91.420799	196.0
91.441734	196.0
91.466476	168.0
91.609299	132.0
91.655022	88.0
91.826279	144.0
91.838196	144.0
91.954422	192.0
92.050621	5872.0
92.130096	72.0
92.197678	140.0
92.223724	208.0
92.336533	140.0
92.374786	120.0
92.408119	76.0
92.42453	260.0
92.437927	76.0
92.614059	124.0
92.673447	140.0
92.942436	208.0
93.018646	164.0
93.035927	124.0
93.056259	1800.0
93.136665	104.0
93.231842	48.0
93.29335	116.0
93.316422	176.0
93.364494	220.0
93.427963	200.0
93.454903	180.0
93.469994	128.0
93.529953	148.0
93.575638	296.0
93.654686	108.0
93.7052	116.0
93.743736	124.0
93.870964	224.0
93.896034	160.0
93.943398	108.0
93.967407	136.0
94.054245	204.0
94.160439	128.0
94.233208	244.0
94.269928	196.0
94.390411	148.0
94.475258	92.0
94.504532	144.0
94.578072	252.0
94.614845	168.0
94.74073	160.0
94.793045	140.0
94.822113	184.0
94.88414	40.0
95.006317	192.0
95.070351	128.0
95.113045	188.0
95.173233	88.0
95.206245	196.0
95.276169	152.0
95.456924	204.0
95.51722	136.0
95.602829	36.0
95.628128	176.0
95.660126	192.0
95.717682	136.0
95.787788	164.0
95.803375	76.0
95.83754	224.0
95.89106	196.0
95.945641	140.0
95.969032	200.0
96.002182	88.0
96.025589	156.0
96.064598	212.0
96.134842	176.0
96.203903	52.0
96.220726	172.0
96.277351	136.0
96.322273	116.0
96.394562	180.0
96.484467	136.0
96.513794	160.0
96.574677	216.0
96.611588	148.0
96.668327	152.0
96.689812	184.0
96.807312	200.0
96.88958	40.0
97.024803	208.0
97.062057	128.0
97.122856	192.0
97.148354	100.0
97.278038	216.0
97.370155	232.0
97.395691	184.0
97.456589	172.0
97.482307	228.0
97.519478	148.0
97.545029	172.0
97.592522	204.0
97.855858	172.0
97.970085	144.0
98.011459	160.0
98.033142	128.0
98.064674	228.0
98.080437	128.0
98.186913	140.0
98.208603	112.0
98.257072	140.0
98.362511	152.0
98.384224	196.0
98.463211	104.0
98.494812	84.0
98.565933	176.0
98.609413	120.0
98.633125	152.0
98.650917	184.0
98.936607	232.0
99.020935	228.0
99.060547	144.0
99.211159	128.0
99.232964	80.0
99.281219	108.0
99.302368	128.0
99.341072	200.0
99.380318	220.0
99.53405	172.0
99.588181	152.0
99.614006	180.0
99.639832	192.0
99.69944	228.0
99.764473	328.0
99.846558	160.0
99.874397	160.0
99.920326	180.0
99.968529	140.0
99.98571	148.0
100.007339	108.0
100.03447	108.0
100.062614	336.0
100.078438	136.0
100.112549	17292.0
100.170807	44.0
100.185379	120.0
100.222168	128.0
100.240723	28.0
100.269577	92.0
100.293701	172.0
100.342957	96.0
100.380257	40.0
100.419724	132.0
100.452911	64.0
100.509918	84.0
100.573776	88.0
100.604126	236.0
100.623688	80.0
100.639557	76.0
100.675705	152.0
100.711548	148.0
100.730492	240.0
100.785469	140.0
100.838089	216.0
101.057396	304.0
101.075401	88.0
101.115936	1152.0
101.177475	40.0
101.197502	52.0
101.249565	84.0
101.264763	176.0
101.319672	100.0
101.349724	120.0
101.36776	196.0
101.428459	148.0
101.46196	144.0
101.518105	112.0
101.621941	188.0
101.636452	92.0
101.662544	56.0
101.736809	224.0
101.750862	72.0
101.766922	68.0
101.784988	120.0
101.869904	144.0
101.904442	136.0
101.983879	72.0
102.076363	48.0
102.173912	136.0
102.267479	176.0
102.293648	136.0
102.362099	168.0
102.398354	48.0
102.470871	80.0
102.503105	136.0
102.636147	132.0
102.672447	140.0
102.708748	108.0
102.726906	148.0
102.753128	48.0
102.831825	56.0
102.902481	208.0
102.944885	204.0
102.983253	180.0
103.120644	176.0
103.148941	168.0
103.197464	136.0
103.22261	128.0
103.311562	212.0
103.359276	212.0
103.379509	176.0
103.448326	168.0
103.551598	156.0
103.654915	48.0
103.719765	124.0
103.774506	144.0
103.790726	176.0
103.833313	144.0
103.863731	156.0
103.959091	136.0
104.017952	164.0
104.05246	152.0
104.070732	156.0
104.212914	444.0
104.369415	156.0
104.393822	36.0
104.424324	68.0
104.456871	124.0
104.482384	152.0
104.507729	136.0
104.530869	216.0
104.550461	188.0
104.574883	228.0
104.605415	100.0
104.790741	188.0
104.805	108.0
104.845757	200.0
104.97419	160.0
105.031296	156.0
105.070053	132.0
105.302757	144.0
105.404907	172.0
105.464172	104.0
105.533676	104.0
105.584801	84.0
105.618385	180.0
105.75666	216.0
105.795555	136.0
105.824219	72.0
105.885651	160.0
105.994225	32.0
106.066711	416.0
106.088501	28.0
106.238205	168.0
106.277184	148.0
106.355171	192.0
106.369537	188.0
106.408539	168.0
106.546143	208.0
106.568741	168.0
106.755798	216.0
106.790764	104.0
106.822906	204.0
107.008263	196.0
107.03154	44.0
107.066597	176.0
107.151001	176.0
107.165421	196.0
107.226524	196.0
107.359184	144.0
107.439629	88.0
107.495338	52.0
107.656357	136.0
107.697662	136.0
107.718315	176.0
107.838158	172.0
107.9953	196.0
108.04335	1088.0
108.119003	172.0
108.173248	148.0
108.218796	168.0
108.235359	268.0
108.338913	256.0
108.467392	112.0
108.527519	156.0
108.598625	152.0
108.635361	140.0
108.656105	308.0
108.76194	100.0
108.928055	144.0
108.942596	132.0
109.002853	128.0
109.034027	60.0
109.051941	168.0
109.140045	160.0
109.202431	128.0
109.275238	156.0
109.41468	108.0
109.483391	196.0
109.552124	188.0
109.577126	192.0
109.590958	176.0
109.627136	88.0
109.654228	144.0
109.693428	144.0
109.773056	84.0
109.824554	180.0
110.013	148.0
110.050575	136.0
110.090256	232.0
110.132019	128.0
110.182159	176.0
110.30127	200.0
110.330536	52.0
110.382812	68.0
110.430908	180.0
110.504128	172.0
110.556435	140.0
110.583649	132.0
110.602486	52.0
110.63179	124.0
110.648537	136.0
110.904106	128.0
110.958611	40.0
111.046677	228.0
111.063461	68.0
111.168358	164.0
111.206139	48.0
111.246017	168.0
111.310493	192.0
111.344704	184.0
111.464447	176.0
111.535904	112.0
111.575844	168.0
111.662056	116.0
111.676781	104.0
111.731468	156.0
111.946167	100.0
111.963013	120.0
112.062012	224.0
112.083084	128.0
112.112015	324.0
112.133659	188.0
112.165276	180.0
112.239067	288.0
112.283356	212.0
112.300224	132.0
112.332657	212.0
112.390938	200.0
112.466911	172.0
112.568253	200.0
112.597816	120.0
112.614166	108.0
112.654846	192.0
112.709778	132.0
112.781631	144.0
112.798538	268.0
112.826019	164.0
112.864082	64.0
112.91272	292.0
112.929634	184.0
113.011665	196.0
113.107368	220.0
113.122192	232.0
113.170883	140.0
113.278893	192.0
113.350929	196.0
113.418747	192.0
113.516037	184.0
113.539597	128.0
113.601112	124.0
113.668999	132.0
113.748825	164.0
113.788185	212.0
113.81971	112.0
113.845192	220.0
113.872803	164.0
113.904663	172.0
113.96627	240.0
114.074661	88.0
114.100174	92.0
114.128098	1544.0
114.200607	224.0
114.260857	304.0
114.325638	136.0
114.357567	172.0
114.491692	92.0
114.632294	128.0
114.679176	200.0
114.734604	112.0
114.822533	168.0
114.883881	204.0
114.90522	176.0
114.994843	96.0
115.020454	156.0
115.037529	144.0
115.054611	176.0
115.129242	332.0
115.180603	176.0
115.199829	232.0
115.249207	212.0
115.274605	264.0
115.541878	116.0
115.618904	212.0
115.653152	180.0
115.687401	132.0
115.755913	204.0
115.822304	76.0
115.933044	204.0
115.976578	148.0
116.030174	136.0
116.048897	180.0
116.083237	176.0
116.109909	152.0
116.133102	236.0
116.176003	32.0
116.203896	156.0
116.37056	184.0
116.397072	120.0
116.418541	132.0
116.444313	184.0
116.876411	164.0
116.911919	192.0
116.940971	204.0
116.99263	200.0
117.058762	168.0
117.102448	168.0
117.17569	36.0
117.255417	152.0
117.348106	164.0
117.371826	188.0
117.413467	180.0
117.477509	196.0
117.499084	176.0
117.594025	100.0
117.624245	168.0
117.694977	168.0
117.711571	232.0
117.828629	208.0
117.84819	224.0
117.898544	120.0
117.917999	152.0
117.939613	124.0
117.974197	88.0
118.088799	196.0
118.114754	164.0
118.179657	168.0
118.208206	164.0
118.233757	92.0
118.268387	144.0
118.361473	120.0
118.382553	164.0
118.558601	136.0
118.606285	244.0
118.695175	204.0
118.719025	208.0
118.738541	44.0
118.99894	156.0
119.072357	220.0
119.140106	72.0
119.194427	128.0
119.242233	128.0
119.270493	116.0
119.316139	40.0
119.370499	152.0
119.391685	156.0
119.396446	116.0
119.403587	148.0
119.428131	56.0
119.454132	168.0
119.48143	192.0
119.503181	120.0
119.518417	176.0
119.557587	64.0
119.616348	196.0
119.639984	244.0
119.659889	120.0
119.707008	200.0
119.756416	216.0
119.800491	200.0
119.82724	100.0
119.850311	140.0
119.885132	284.0
119.909584	308.0
119.944908	288.0
119.980492	580.0
120.020981	736.0
120.045563	140468.0
120.103355	132.0
120.132637	124.0
120.151886	148.0
120.177208	216.0
120.245834	188.0
120.265602	92.0
120.286957	56.0
120.292107	56.0
120.314026	100.0
120.337952	76.0
120.364334	96.0
120.381012	220.0
120.404411	2836.0
120.449677	324.0
120.4711	140.0
120.486191	64.0
120.508316	48.0
120.523605	36.0
120.544792	144.0
120.56456	108.0
120.580811	160.0
120.608109	60.0
120.622856	68.0
120.673691	96.0
120.686966	76.0
120.727707	76.0
120.755165	212.0
120.807831	108.0
120.862358	52.0
120.877838	128.0
120.912239	164.0
120.928055	72.0
120.973068	212.0
120.994041	100.0
121.016441	152.0
121.048111	19896.0
121.109909	40.0
121.133926	76.0
121.173431	60.0
121.199722	44.0
121.2313	96.0
121.265236	100.0
121.294937	40.0
121.322464	164.0
121.34137	40.0
121.40345	64.0
121.426369	44.0
121.447449	64.0
121.476715	88.0
121.528618	52.0
121.582664	136.0
121.602135	56.0
121.619286	216.0
121.652374	152.0
121.684395	124.0
121.705826	112.0
121.732231	100.0
121.777206	148.0
121.792915	112.0
121.809631	76.0
121.836632	84.0
121.875961	188.0
121.88604	140.0
121.89312	132.0
121.900368	188.0
121.938728	228.0
121.972519	188.0
121.989822	120.0
122.022156	68.0
122.051086	1148.0
122.068115	260.0
122.104958	132.0
122.127678	104.0
122.170517	48.0
122.194351	240.0
122.282372	76.0
122.317589	52.0
122.346207	60.0
122.438683	56.0
122.493744	172.0
122.54882	60.0
122.603912	56.0
122.64138	64.0
122.742622	52.0
122.800133	188.0
122.934708	68.0
122.967812	196.0
122.987671	132.0
123.029617	60.0
123.12677	40.0
123.159897	176.0
123.256256	108.0
123.513557	104.0
123.672874	92.0
123.710503	176.0
123.89431	128.0
123.949699	176.0
123.978508	112.0
124.102646	92.0
124.143341	68.0
124.286743	152.0
124.32225	64.0
124.694031	188.0
125.260513	96.0
125.666252	104.0
125.686333	180.0
125.806854	56.0
126.057404	180.0
126.12619	276.0
126.173233	56.0
126.287277	88.0
126.394661	72.0
126.636436	84.0
126.750694	120.0
126.950203	48.0
127.351929	176.0
127.567642	136.0
127.626099	56.0
127.880302	92.0
127.90731	112.0
127.953537	60.0
128.006378	44.0
128.060425	188.0
128.144043	3356.0
128.247437	48.0
128.274078	156.0
128.356293	84.0
128.382706	128.0
128.576721	96.0
128.621857	56.0
128.705399	68.0
128.761856	72.0
128.811539	48.0
128.913208	80.0
128.990051	132.0
129.039795	128.0
129.150757	348.0
129.261459	40.0
129.376892	120.0
129.431229	148.0
129.561417	100.0
129.592041	40.0
129.714417	136.0
129.750687	96.0
129.786972	80.0
129.948013	144.0
130.027435	104.0
130.062881	220.0
130.070786	156.0
130.075867	236.0
130.122772	132.0
130.150009	192.0
130.179535	176.0
130.243118	40.0
130.263565	112.0
130.49649	128.0
130.597702	44.0
130.750153	80.0
130.775177	128.0
130.854858	188.0
130.910492	148.0
131.00061	52.0
131.055283	68.0
131.223953	108.0
131.258148	236.0
131.274109	108.0
131.376755	204.0
131.413254	72.0
131.465729	200.0
131.746582	76.0
131.874542	28.0
132.077042	152.0
132.103195	116.0
132.137115	1004.0
132.350372	132.0
132.753677	124.0
132.955612	160.0
133.081802	120.0
133.139206	116.0
133.281631	144.0
133.302322	48.0
133.410339	92.0
133.615021	136.0
133.974167	76.0
134.097458	356.0
134.739075	168.0
134.818649	104.0
135.100739	128.0
135.253464	144.0
135.584671	140.0
135.614807	132.0
136.141449	196.0
136.613281	176.0
136.66214	232.0
137.047409	1964.0
137.123215	104.0
137.496368	108.0
137.853683	48.0
137.965866	204.0
138.054779	576.0
138.419769	176.0
138.82518	48.0
139.280487	136.0
139.379166	92.0
139.428513	96.0
139.503723	136.0
139.762436	228.0
140.193359	176.0
140.849258	168.0
141.305511	56.0
141.528	72.0
141.591934	188.0
141.715103	140.0
141.753021	48.0
141.790939	244.0
141.876266	108.0
141.892868	144.0
141.923691	80.0
141.990082	164.0
142.032776	136.0
142.089722	160.0
142.111069	84.0
142.159058	20788.0
142.248718	68.0
142.331818	84.0
142.35405	164.0
142.391556	100.0
142.410187	108.0
142.487579	124.0
142.526581	196.0
142.564606	212.0
142.583618	60.0
142.702469	44.0
142.799973	48.0
143.030762	140.0
143.066483	76.0
143.11647	40.0
143.16217	1820.0
143.354675	76.0
143.435715	44.0
143.452393	96.0
143.485764	60.0
143.576385	112.0
143.900909	84.0
143.931946	184.0
144.056137	108.0
144.080032	248.0
144.136108	144.0
144.167389	164.0
144.256866	112.0
144.46492	68.0
144.665939	116.0
144.821579	44.0
144.946152	260.0
144.982101	144.0
145.195465	80.0
145.262619	76.0
145.289017	164.0
145.605865	140.0
145.737976	164.0
146.264664	152.0
146.671738	108.0
148.199081	76.0
148.378433	128.0
149.74408	132.0
150.064255	204.0
150.30722	140.0
150.849411	104.0
151.101303	124.0
151.622864	104.0
152.469559	176.0
153.055038	64.0
153.170776	180.0
153.441864	108.0
153.72551	40.0
153.851395	36.0
154.050568	104.0
154.123077	120.0
154.320816	132.0
154.397461	124.0
154.493927	156.0
154.570633	108.0
155.403168	168.0
156.541611	144.0
156.96524	96.0
157.05751	128.0
157.93924	184.0
158.144409	132.0
158.774246	100.0
158.901199	76.0
158.981491	116.0
159.53833	184.0
160.076218	444.0
160.223618	60.0
160.629486	44.0
160.798538	204.0
160.907074	116.0
161.03334	116.0
161.36438	80.0
161.389664	136.0
161.693222	144.0
162.473663	188.0
164.116669	156.0
164.529984	212.0
164.652542	144.0
166.871658	120.0
167.50473	96.0
167.793365	144.0
167.821716	44.0
167.847504	240.0
168.025482	136.0
168.136429	120.0
168.172562	104.0
169.048676	188.0
169.175507	180.0
169.297195	136.0
169.356918	68.0
169.444839	92.0
169.592545	124.0
169.688065	104.0
169.911514	104.0
169.958206	180.0
170.113922	232.0
170.137299	56.0
170.190445	10200.0
170.237595	128.0
170.309326	60.0
170.346863	40.0
170.386612	64.0
170.4048	68.0
170.437454	132.0
170.456757	124.0
170.500946	176.0
170.519135	296.0
170.594513	60.0
170.643906	104.0
170.698517	48.0
170.838959	92.0
171.099197	108.0
171.192291	1240.0
171.222748	184.0
171.346619	64.0
171.393524	52.0
171.43782	60.0
171.456055	40.0
171.59108	240.0
171.625504	116.0
171.682343	40.0
171.888947	68.0
171.956802	32.0
172.079483	72.0
172.165665	120.0
172.197006	156.0
173.007599	136.0
173.214478	144.0
173.445068	88.0
173.597122	64.0
174.129868	228.0
174.517532	108.0
174.763412	136.0
175.11615	156.0
175.224167	72.0
175.517517	172.0
175.983749	144.0
176.387955	148.0
176.411743	232.0
177.044113	108.0
177.725372	136.0
177.754562	192.0
177.773132	148.0
177.881958	152.0
178.03186	208.0
178.086685	26388.0
178.219238	168.0
178.239929	56.0
178.317566	152.0
178.368851	136.0
178.430267	60.0
178.477066	40.0
178.546204	108.0
178.567474	80.0
178.663239	92.0
178.72316	84.0
178.772324	60.0
178.873474	68.0
179.089371	3200.0
179.187103	52.0
179.217026	104.0
179.310287	64.0
179.350266	100.0
179.432159	72.0
179.475571	40.0
179.63559	280.0
179.693527	172.0
179.79567	68.0
179.843719	40.0
179.918045	52.0
180.009232	52.0
180.089355	124.0
180.206894	56.0
180.276367	92.0
180.434784	120.0
180.982559	56.0
181.172714	84.0
181.312042	96.0
181.338852	60.0
181.674026	36.0
182.595352	52.0
182.832092	124.0
183.055542	104.0
183.691605	200.0
184.169373	116.0
184.188278	40.0
184.745132	108.0
185.110535	100.0
185.712173	132.0
185.99707	164.0
186.026932	60.0
186.18396	144.0
187.209671	168.0
187.580215	56.0
188.128525	72.0
188.201126	9112.0
188.267776	48.0
188.322403	56.0
188.485306	76.0
188.655762	56.0
188.737778	36.0
188.830765	76.0
188.893677	100.0
188.953857	48.0
189.096146	160.0
189.203888	844.0
190.008636	56.0
190.508286	104.0
190.738144	68.0
190.840836	72.0
192.049789	128.0
192.867081	100.0
194.112915	156.0
195.104141	188.0
195.457367	148.0
196.421326	32.0
197.233887	48.0
197.535873	52.0
199.473557	56.0
200.416367	48.0
201.986038	180.0
204.400406	40.0
209.085052	192.0
210.127991	356.0
211.098679	164.0
211.144943	196.0
211.361908	44.0
211.552933	60.0
212.645706	72.0
213.334122	164.0
214.151779	80.0
214.183823	48.0
216.090118	188.0
216.851471	64.0
216.936478	132.0
221.009659	80.0
221.927856	112.0
222.384705	52.0
224.858002	104.0
227.921539	168.0
228.595108	64.0
229.616364	84.0
238.061844	196.0
239.633652	68.0
243.143372	84.0
244.871979	56.0
246.003845	40.0
246.20993	116.0
247.404358	88.0
248.087296	108.0
249.126038	92.0
250.7276	100.0
252.444962	108.0
254.006378	156.0
254.908051	176.0
259.007751	76.0
260.178192	188.0
265.573639	88.0
270.261536	72.0
273.721222	68.0
275.000336	84.0
276.553772	152.0
278.549896	84.0
282.620575	60.0
288.18866	104.0
289.477417	44.0
299.994324	64.0
300.92926	192.0
302.997498	52.0
303.583282	84.0
306.663544	104.0
307.237122	1060.0
307.521545	72.0
307.874176	72.0
307.944031	72.0
308.233887	284.0
309.206146	196.0
309.262146	96.0
311.843628	120.0
312.177612	128.0
319.086823	44.0
319.115265	72.0
323.081177	32.0
324.040649	112.0
327.917999	64.0
329.632202	40.0
331.263916	56.0
334.113678	60.0
336.296417	48.0
337.512939	100.0
341.20874	80.0
353.86438	36.0
355.971649	64.0
360.66217	112.0
363.449463	76.0
373.593384	72.0
401.765137	124.0
402.783051	140.0
407.100586	72.0
408.475128	104.0
419.779236	48.0
429.610748	68.0
443.210602	28.0
446.514374	28.0
455.551392	64.0
462.1297	80.0
466.121674	72.0
488.760468	56.0
489.544006	40.0
489.574829	56.0
494.621338	84.0
506.452362	68.0
512.620789	92.0
519.307251	76.0
521.445679	32.0
540.403564	68.0
578.281311	120.0
586.060913	40.0
623.843201	28.0
631.062195	92.0
652.139648	100.0
658.636108	64.0
673.837097	92.0
676.4953	144.0
699.617126	200.0
785.227966	60.0
789.757629	96.0
791.178955	60.0
801.0401	184.0
813.668152	148.0
819.976501	172.0
822.828613	132.0
825.245361	180.0
827.911926	156.0
837.013733	132.0
839.958801	140.0
845.794861	160.0
846.130615	108.0
850.884644	160.0
851.982239	60.0
860.059021	144.0
862.97998	208.0
871.261292	104.0
883.535522	116.0
884.772461	172.0
888.17981	208.0
891.047058	36.0
891.320374	132.0
900.518494	164.0
903.088562	208.0
904.363037	188.0
908.809631	192.0
912.280945	28.0
918.46521	216.0
918.531555	220.0
919.853088	192.0
925.3302	176.0
925.784302	116.0
929.979675	148.0
930.513916	232.0
932.305786	132.0
937.643066	184.0
938.270874	176.0
939.966492	128.0
944.089844	144.0
947.254211	140.0
947.437988	56.0
949.000793	144.0
951.866272	100.0
952.54187	176.0
954.551575	88.0
955.461914	148.0
955.812561	68.0
960.809387	172.0
962.278259	164.0
963.025452	140.0
964.446594	168.0
965.021484	128.0
965.46051	208.0
967.58905	164.0
968.282593	176.0
970.482483	212.0
972.405518	80.0
975.505005	136.0
976.269714	108.0
978.229614	172.0
978.484863	100.0
979.811401	72.0
980.771057	136.0
982.311279	184.0
985.132874	176.0
985.932617	152.0
986.551392	180.0
987.920959	176.0
987.964722	188.0
990.343384	156.0
990.769348	104.0
992.191956	184.0
993.157654	136.0
993.439941	160.0
995.33374	140.0
997.452576	172.0
1001.076538	116.0
1002.336365	224.0
1002.664062	132.0
1003.256592	136.0
1004.151978	176.0
1005.81134	116.0
1007.339478	36.0
1009.109009	196.0
1009.808838	156.0
1011.411682	80.0
1011.563599	144.0
1013.064453	128.0
1014.515625	228.0
1016.488159	116.0
1016.926025	148.0
1017.808472	168.0
1019.046997	192.0
1019.269409	188.0
1024.066162	144.0
1024.199951	140.0
1024.664917	172.0
1026.78125	224.0
1027.329712	128.0
1028.459229	252.0
1029.576538	104.0
1029.678711	80.0
1030.36853	156.0
1031.001099	172.0
1031.141724	136.0
1034.915894	116.0
1036.401978	56.0
1037.453003	176.0
1038.081299	144.0
1038.331421	144.0
1040.018921	136.0
1041.78479	184.0
1042.799927	180.0
1043.892822	212.0
1044.97998	156.0
1045.938843	172.0
1046.312134	156.0
1047.561646	192.0
1047.922241	140.0
1050.849365	180.0
1051.101074	184.0
1051.359131	168.0
1053.125854	220.0
1053.360718	208.0
1053.90979	128.0
1056.586548	148.0
1057.123535	200.0
1057.175293	152.0
1058.269287	160.0
1059.692505	216.0
1059.791382	144.0
1060.543091	36.0
1061.541504	172.0
1061.813843	212.0
1062.352295	144.0
1063.033447	76.0
1063.26062	80.0
1063.643555	64.0
1063.877319	52.0
1065.286499	144.0
1066.449585	188.0
1066.781128	272.0
1068.140137	236.0
1069.148682	128.0
1069.428467	164.0
1069.825562	224.0
1070.405029	92.0
1070.971558	168.0
1071.140991	216.0
1072.229004	176.0
1072.783081	188.0
1073.239502	68.0
1074.061157	136.0
1076.319214	156.0
1078.507812	148.0
1078.769287	168.0
1079.279175	172.0
1079.599609	144.0
1079.710815	160.0
1079.952759	176.0
1080.325684	188.0
1080.724731	180.0
1081.143555	132.0
1081.215454	56.0
1083.625244	108.0
1085.585083	176.0
1085.709717	128.0
1087.244751	80.0
1087.993042	124.0
1088.662842	152.0
1090.088257	200.0
1090.18689	152.0
1090.600952	176.0
1090.798096	160.0
1091.429321	164.0
1091.804077	212.0
1092.876343	188.0
1093.751587	56.0
1094.232178	148.0
1096.036865	200.0
1096.597046	128.0
1096.669556	164.0
1098.27832	152.0
1099.175537	112.0
1099.677124	148.0
1100.185303	140.0
1101.545776	132.0
1101.631592	152.0
1101.684448	44.0
1101.955322	124.0
1102.735107	128.0
1103.072144	96.0
1103.839111	236.0
1103.991699	160.0
1104.685669	116.0
1105.671509	164.0
1106.051636	124.0
1106.227539	116.0
1106.644653	224.0
1106.916138	148.0
1108.406494	72.0
1108.75769	136.0
1110.720215	44.0
1111.569458	176.0
1113.303223	224.0
1113.494629	88.0
1114.178833	172.0
1114.743652	228.0
1115.288574	264.0
1115.408203	36.0
1116.21936	196.0
1117.150513	168.0
1117.982178	164.0
1118.255005	144.0
1118.77417	156.0
1118.907349	92.0
1119.466675	32.0
1119.693115	92.0
1119.960083	96.0
1120.166016	44.0
1120.619019	172.0
1122.071899	196.0
1122.131958	192.0
1122.972168	196.0
1123.31897	144.0
1123.73938	168.0
1126.8573	164.0
1126.950806	144.0
1127.057739	172.0
1127.505493	136.0
1127.866333	196.0
1128.300903	116.0
1128.78894	160.0
1128.855835	108.0
1129.06311	156.0
1129.25708	92.0
1129.571411	124.0
1129.926025	156.0
1130.514893	252.0
1132.262085	128.0
1132.610474	208.0
1133.735962	220.0
1134.252075	136.0
1134.500122	104.0
1134.734741	72.0
1135.747314	232.0
1136.619507	160.0
1136.901367	156.0
1137.36438	184.0
1137.632935	148.0
1138.264038	136.0
1138.598267	152.0
1139.681396	236.0
1140.118164	252.0
1140.494507	96.0
1141.173462	124.0
1141.408813	208.0
1141.966919	112.0
1142.067871	116.0
1142.188965	148.0
1143.218262	176.0
1143.473999	144.0
1143.521118	148.0
1143.568237	60.0
1143.722168	152.0
1144.423218	172.0
1144.658936	188.0
1146.511475	176.0
1147.171997	172.0
1147.670898	108.0
1147.852905	180.0
1148.075439	172.0
1148.439697	156.0
1148.986084	156.0
1149.330078	148.0
1150.214233	88.0
1150.754272	144.0
1151.294434	200.0
1152.098267	108.0
1152.60498	200.0
1152.976685	104.0
1153.360352	220.0
1153.584961	216.0
1154.707397	68.0
1155.647705	192.0
1156.737305	144.0
1157.07373	136.0
1157.090942	96.0
1157.112305	160.0
1157.800293	172.0
1157.928955	176.0
1158.599487	200.0
1158.897583	180.0
1159.385498	60.0
1159.866699	156.0
1160.110718	160.0
1160.354858	176.0
1160.551392	80.0
1161.042725	208.0
1161.148193	60.0
1161.439819	68.0
1162.362549	176.0
1162.559326	60.0
1162.756104	156.0
1163.543457	160.0
1164.568848	104.0
1164.628906	192.0
1164.755981	188.0
1164.908447	180.0
1165.45813	204.0
1165.778198	196.0
1167.205688	212.0
1167.362061	132.0
1168.130615	184.0
1168.246338	172.0
1169.484741	188.0
1170.172241	36.0
1170.403809	184.0
1170.873657	160.0
1171.391235	48.0
1171.757202	136.0
1172.740479	152.0
1173.340332	152.0
1173.667603	92.0
1173.933472	116.0
1177.174927	176.0
1177.332031	204.0
1177.65979	128.0
1178.363403	64.0
1179.422607	100.0
1179.571411	168.0
1179.866943	164.0
1180.017334	176.0
1180.174683	192.0
1180.331909	196.0
1180.817383	192.0
1180.967896	240.0
1181.508301	212.0
1181.884644	176.0
1182.917969	152.0
1184.287476	164.0
1185.911377	180.0
1186.418579	200.0
1186.589966	208.0
1186.761353	256.0
1187.049438	136.0
1187.858643	124.0
1188.613403	180.0
1188.935913	220.0
1189.491821	176.0
1189.553589	164.0
1190.425537	144.0
1191.112427	184.0
1191.414673	164.0
1192.060547	148.0
1192.239136	108.0
1193.62085	312.0
1194.205444	148.0
1194.927734	168.0
1195.003418	204.0
1195.120361	60.0
1195.230469	64.0
1196.066162	228.0
1196.483154	204.0
1196.958252	164.0
1197.171631	128.0
1198.135986	160.0
1198.356445	84.0
1199.18335	184.0
1199.617676	200.0
1200.105225	228.0
1200.362183	160.0
1201.065674	56.0
1201.348511	272.0
1202.949463	112.0
1203.018555	104.0
1203.612305	124.0
1204.213135	152.0
1205.028198	204.0
1205.14563	184.0
1205.539551	96.0
1205.795288	108.0
1206.265259	192.0
1206.348145	116.0
1207.309326	164.0
1207.357666	128.0
1207.620483	200.0
1209.599365	172.0
1210.138916	112.0
1211.42749	172.0
1211.524536	136.0
1211.780884	136.0
1211.912476	60.0
1211.981812	180.0
1212.487671	116.0
1212.961548	204.0
1213.499756	148.0
1213.957397	172.0
1214.165405	188.0
1214.796631	144.0
1216.63501	140.0
1217.072998	112.0
1217.197998	92.0
1217.600708	228.0
1217.85083	188.0
1218.149414	140.0
1219.302856	140.0
1219.705933	104.0
1219.817139	188.0
1220.136963	68.0
1220.338623	140.0
1221.026978	212.0
1221.87561	204.0
1221.924316	204.0
1222.856812	204.0
1222.905518	188.0
1222.954224	136.0
1223.43457	108.0
1223.53894	192.0
1223.706055	200.0
1225.88623	132.0
1226.116211	184.0
1226.82019	188.0
1227.106079	132.0
1227.391968	168.0
1227.475586	32.0
1227.80603	132.0
1228.187012	136.0
1228.326538	196.0
1228.43811	120.0
1228.654297	184.0
1229.959229	132.0
1230.070923	132.0
1230.126831	120.0
1231.306885	184.0
1231.635132	100.0
1231.844604	188.0
1232.857788	180.0
1233.437866	136.0
1234.143921	212.0
1234.220825	160.0
1235.444824	112.0
1235.773682	212.0
1236.011475	184.0
1236.081543	180.0
1236.158447	172.0
1236.326416	120.0
1236.473389	192.0
1236.599365	220.0
1237.159302	128.0
1237.488403	192.0
1237.796509	116.0
1238.019287	236.0
1238.286743	156.0
1238.368164	128.0
1238.924072	104.0
1239.120239	160.0
1239.260376	176.0
1239.652832	168.0
1240.045288	144.0
1241.77002	88.0
1242.534546	128.0
1242.590698	184.0
1243.392578	144.0
1244.064453	208.0
1244.47168	192.0
1244.619141	184.0
1245.09668	188.0
1245.251099	168.0
1245.532104	136.0
1245.588257	176.0
1245.637451	236.0
1246.677368	152.0
1247.007568	172.0
1247.077881	124.0
1247.527832	148.0
1248.041016	140.0
1248.209717	92.0
1248.448853	168.0
1248.554321	188.0
1248.730103	68.0
1249.799438	136.0
1250.144287	152.0
1250.200562	196.0
1250.742432	56.0
1251.319702	120.0
1251.967529	220.0
1252.770508	136.0
1253.28479	124.0
1254.208008	156.0
1254.440552	156.0
1254.581543	200.0
1255.893188	136.0
1256.711548	44.0
1257.085449	124.0
1257.240723	160.0
1257.353638	152.0
1257.883057	104.0
1257.981812	128.0
1258.052368	124.0
1258.402222	224.0
1258.518433	244.0
1259.210449	180.0
1259.415283	176.0
1259.754272	204.0
1259.88147	160.0
1260.651611	208.0
1260.785889	160.0
1261.761353	148.0
1262.008789	180.0
1262.553223	228.0
1262.857422	156.0
1264.321899	152.0
1264.477661	220.0
1265.256226	76.0
1265.730591	196.0
1265.794312	172.0
1266.453003	188.0
1266.523804	172.0
1266.599976	164.0
1266.679688	180.0
1266.934692	196.0
1267.423462	164.0
1267.607788	236.0
1267.791992	176.0
1267.855835	72.0
1268.118042	200.0
1268.394409	124.0
1268.663818	152.0
1269.188477	132.0
1269.486328	152.0
1269.578491	196.0
1269.78418	216.0
1270.089111	156.0
1270.223877	60.0
1271.1604	124.0
1271.266846	316.0
1272.377808	184.0
1272.942139	152.0
1273.204956	192.0
1273.425049	148.0
1273.758911	156.0
1274.014648	160.0
1274.540405	220.0
1274.845947	240.0
1275.371826	168.0
1275.862305	164.0
1276.706177	148.0
1276.907593	124.0
1277.185059	152.0
1277.498047	152.0
1278.472778	116.0
1278.821533	172.0
1280.081543	120.0
1280.964722	136.0
1281.484863	184.0
1281.862427	172.0
1282.268677	180.0
1282.37561	136.0
1282.503906	144.0
1283.01001	120.0
1283.337891	108.0
1283.501953	176.0
1283.65918	180.0
1283.879883	144.0
1284.193726	196.0
1284.279297	88.0
1284.675537	204.0
1285.435059	176.0
1286.113037	168.0
1286.369995	124.0
1286.484253	172.0
1287.233887	132.0
1287.31958	160.0
1288.953613	188.0
1289.05542	204.0
1289.112549	144.0
1289.627197	188.0
1289.748657	244.0
1291.01416	120.0
1291.357422	176.0
1291.602783	184.0
1291.664917	176.0
1292.087036	160.0
1292.294556	144.0
1292.552124	260.0
1293.095947	184.0
1293.539795	108.0
1293.740234	156.0
1294.134033	136.0
1294.284302	96.0
1295.637939	352.0
1295.788452	156.0
1296.118042	212.0
1296.261353	116.0
1296.712769	84.0
1296.841797	60.0
1297.028198	172.0
1297.22168	248.0
1297.80249	160.0
1298.820068	84.0
1298.957031	124.0
1299.021606	128.0
1299.33728	152.0
1299.452148	168.0
1299.595581	216.0
1299.947144	168.0
1300.133789	200.0
1300.356201	188.0
1301.167358	88.0
1301.885376	108.0
1302.273193	172.0
1302.337891	168.0
1302.402588	132.0
1302.467163	152.0
1302.560547	200.0
1302.862305	148.0
1302.94751	152.0
1303.666992	196.0
1303.983276	196.0
1304.292236	40.0
1304.472046	132.0
1305.026367	152.0
1305.536133	184.0
1305.751831	212.0
1305.931641	44.0
1306.061157	184.0
1306.737305	204.0
1307.173462	200.0
1307.507324	260.0
1307.564819	192.0
1307.931885	204.0
1308.054321	124.0
1308.277466	64.0
1310.058838	156.0
1310.44519	192.0
1310.646973	200.0
1310.985718	120.0
1311.28833	88.0
1311.57666	220.0
1312.016357	204.0
1312.614746	176.0
1312.782227	208.0
1312.843994	208.0
1313.675049	184.0
1313.869995	192.0
1314.100708	196.0
1314.237793	124.0
1314.418091	152.0
1314.74292	124.0
1314.822266	112.0
1316.056641	192.0
1316.331055	236.0
1317.009888	156.0
1317.224731	224.0
1317.30603	160.0
1317.356567	132.0
1318.071899	164.0
1318.845215	148.0
1319.05481	192.0
1320.028076	168.0
1320.117554	168.0
1320.797485	220.0
1321.122925	176.0
1321.368896	140.0
1322.468872	212.0
1322.599121	180.0
1323.134766	196.0
1323.344727	192.0
1323.829956	144.0
1324.612183	128.0
1324.662842	84.0
1324.735229	116.0
1325.01062	168.0
1325.16272	200.0
1325.974365	140.0
1326.112061	204.0
1326.16272	124.0
1327.590942	140.0
1327.736084	272.0
1329.172363	148.0
1329.296631	188.0
1329.680298	168.0
1329.767456	176.0
1330.297363	128.0
1330.471558	136.0
1330.682129	204.0
1330.761963	132.0
1331.328369	204.0
1331.53894	164.0
1331.960205	216.0
1332.069214	124.0
1332.40332	152.0
1333.086304	184.0
1333.286621	184.0
1333.47876	52.0
1333.94397	72.0
1334.111206	172.0
1334.452881	60.0
1334.787354	68.0
1334.932739	156.0
1335.234741	156.0
1335.310913	180.0
1335.376343	380.0
1335.492798	108.0
1335.630981	184.0
1335.732788	144.0
1336.249268	200.0
1336.394775	48.0
1337.027832	144.0
1337.857666	200.0
1338.032349	168.0
1338.119751	136.0
1338.36731	184.0
1338.520264	160.0
1338.687744	180.0
1338.767822	152.0
1339.029663	220.0
1339.204834	204.0
1339.692871	152.0
1340.10083	164.0
1340.610718	152.0
1341.106445	120.0
1341.405273	180.0
1341.769775	188.0
1342.2948	168.0
1342.542725	172.0
1342.59375	140.0
1343.490967	120.0
1344.264282	32.0
1344.439453	144.0
1344.599976	64.0
1344.804321	144.0
1344.964966	28.0
1345.118286	164.0
1345.5271	140.0
1346.162231	112.0
1346.59314	72.0
1347.126343	172.0
1347.184814	60.0
1347.38208	124.0
1347.477051	148.0
1347.572021	156.0
1348.068848	180.0
1348.310059	220.0
1348.434326	144.0
1348.617065	184.0
1348.734009	204.0
1349.07019	120.0
1349.377319	132.0
1349.801392	148.0
1350.196289	252.0
1350.935059	64.0
1351.603394	132.0
1352.281372	164.0
1353.174438	100.0
1353.225708	160.0
1353.577148	84.0
1353.672363	172.0
1353.738281	140.0
1353.811523	172.0
1354.24353	152.0
1354.338745	216.0
1354.661133	168.0
1354.822266	108.0
1355.071289	164.0
1355.518311	108.0
1356.559082	64.0
1356.646973	68.0
1356.754517	168.0
1357.01355	196.0
1357.915527	180.0
1357.988892	152.0
1358.245605	164.0
1358.502319	136.0
1359.419434	100.0
1359.507568	48.0
1359.683716	148.0
1360.050659	108.0
1360.579224	52.0
1360.714233	236.0
1360.828735	240.0
1360.946289	96.0
1362.310547	216.0
1363.149902	128.0
1363.539429	216.0
1363.70105	120.0
1364.414062	152.0
1364.693481	44.0
1364.943481	172.0
1365.208252	112.0
1365.366089	180.0
1365.943726	160.0
1366.326172	172.0
1366.973755	176.0
1367.400513	52.0
1367.76123	44.0
1367.856934	212.0
1368.718262	196.0
1369.381104	184.0
1369.668335	168.0
1369.933472	140.0
1370.014526	176.0
1370.323975	160.0
1370.503418	144.0
1370.721802	152.0
1370.928223	148.0
1371.444092	204.0
1371.554565	180.0
1371.724121	168.0
1372.68335	164.0
1372.844849	176.0
1373.058716	144.0
1373.139893	140.0
1373.442261	124.0
1373.870117	172.0
1374.157837	168.0
1374.374268	224.0
1374.541504	176.0
1374.718628	180.0
1374.958862	100.0
1375.220459	148.0
1375.333862	164.0
1375.486206	196.0
1376.541992	196.0
1377.11792	384.0
1377.199219	144.0
1377.583374	104.0
1377.87146	152.0
1378.122681	196.0
1378.698975	136.0
1379.829956	184.0
1379.920166	160.0
1380.251343	120.0
1380.517578	164.0
1380.643311	196.0
1381.449463	232.0
1381.745483	160.0
1381.856445	152.0
1381.915649	120.0
1382.041382	176.0
1382.100586	152.0
1382.433594	32.0
1383.89917	152.0
1384.150879	120.0
1384.499023	144.0
1384.632324	188.0
1384.921143	136.0
1385.617432	144.0
1386.743774	156.0
1386.939819	136.0
1387.292358	184.0
1387.729736	172.0
1388.404541	192.0
1388.649292	176.0
1388.797607	140.0
1388.86438	96.0
1389.101685	120.0
1389.442993	220.0
1389.710083	52.0
1390.170166	192.0
1390.806274	96.0
1390.919678	208.0
1391.105347	172.0
1391.610107	180.0
1391.706665	228.0
1391.855103	112.0
1391.973999	148.0
1392.026001	148.0
1392.077881	180.0
1392.427002	224.0
1392.738892	172.0
1392.813232	160.0
1392.883301	180.0
1392.998901	108.0
1393.065796	140.0
1393.400024	172.0
1393.459473	68.0
1393.719482	108.0
1393.884399	156.0
1394.373535	68.0
1394.945801	188.0
1395.451294	120.0
1395.585205	236.0
1395.838013	252.0
1396.061035	260.0
1396.80481	52.0
1397.065186	36.0
1397.228882	196.0
1397.496704	80.0
1397.749634	172.0
1398.121704	164.0
1398.315308	144.0
1398.531128	176.0
1399.100342	252.0
1399.178711	176.0
1399.856323	196.0
1399.960571	156.0
1400.12439	192.0
1400.288208	132.0
1400.414795	128.0
1400.831909	60.0
1401.080322	180.0
1401.15979	212.0
1402.612915	196.0
1402.940918	144.0
1403.231689	112.0
1403.33606	152.0
1403.760986	184.0
1404.081665	160.0
1405.260254	204.0
1405.469238	180.0
1405.596069	240.0
1405.872192	160.0
1406.461792	52.0
1407.238159	152.0
1407.424805	144.0
1407.499512	160.0
1407.768311	60.0
1408.082031	120.0
1408.328491	48.0
1408.380737	132.0
1408.470337	168.0
1408.88562	68.0
1408.948486	168.0
1409.404175	172.0
1409.613403	144.0
1410.465454	148.0
1410.779419	152.0
1410.936401	208.0
1411.564453	84.0
1411.73645	256.0
1411.785645	164.0
1411.998169	112.0
1412.925659	144.0
1413.008057	144.0
1413.165161	180.0
1413.367188	188.0
1413.456909	168.0
1413.509277	204.0
1413.988281	252.0
1415.365723	112.0
1415.440552	136.0
1415.97229	216.0
1416.792358	364.0
1416.916016	128.0
1417.088379	160.0
1417.455566	128.0
1417.605347	128.0
1417.657837	156.0
1417.732788	208.0
1417.88269	232.0
1418.14502	224.0
1418.332397	48.0
1418.42981	92.0
1418.572266	112.0
1418.624756	336.0
1419.269531	220.0
1419.344482	32.0
1419.509399	84.0
1419.876953	164.0
1420.304443	116.0
1420.490845	172.0
1420.649536	156.0
1421.047119	172.0
1421.445557	200.0
1421.512329	120.0
1422.179565	48.0
1423.082153	168.0
1423.403931	176.0
1423.681763	140.0
1423.824463	176.0
1423.974731	216.0
1424.298584	168.0
1424.472412	172.0
1425.31189	208.0
1425.687622	144.0
1425.785278	48.0
1426.251343	188.0
1426.326416	212.0
1426.717407	180.0
1427.333862	128.0
1427.484253	212.0
1427.597046	96.0
1427.702393	180.0
1427.860229	248.0
1428.004395	100.0
1428.108521	212.0
1428.176147	164.0
1428.334106	124.0
1428.681641	164.0
1429.026245	168.0
1429.109009	176.0
1429.300415	168.0
1429.598145	140.0
1429.914185	196.0
1430.162598	272.0
1430.70459	140.0
1431.796387	164.0
1431.924316	128.0
1432.142822	188.0
1432.941284	112.0
1433.171753	144.0
1433.890747	96.0
1434.101807	232.0
1434.214844	168.0
1434.433472	184.0
1435.609619	204.0
1436.016846	52.0
1436.167725	172.0
1437.261597	192.0
1437.684204	104.0
1437.8125	140.0
1438.023804	176.0
1438.091675	144.0
1438.831543	168.0
1439.269409	112.0
1440.757324	172.0
1441.05188	60.0
1441.346558	184.0
1441.558228	48.0
1441.656372	132.0
1441.988892	164.0
1442.192993	164.0
1442.329102	144.0
1443.18335	128.0
1443.606812	156.0
1443.969849	192.0
1444.143799	124.0
1444.393311	180.0
1444.746704	112.0
1445.460083	116.0
1445.52063	160.0
1445.639282	236.0
1445.914185	128.0
1446.080688	112.0
1446.179077	164.0
1446.285034	128.0
1446.527222	220.0
1446.746826	200.0
1446.890625	160.0
1446.943604	128.0
1447.131226	236.0
1447.458496	200.0
1447.875	224.0
1448.056763	204.0
1448.155151	132.0
1448.837158	172.0
1449.041504	128.0
1449.161743	132.0
1449.731079	84.0
1449.950806	204.0
1450.746704	144.0
1450.807373	32.0
1450.9021	268.0
1451.201538	188.0
1451.815796	32.0
1452.160034	128.0
1452.240479	196.0
1452.809326	44.0
1453.42395	184.0
1454.463623	248.0
1455.230347	148.0
1455.594849	184.0
1455.731567	188.0
1456.779663	116.0
1457.866211	192.0
1458.124512	148.0
1458.375366	144.0
1458.626221	172.0
1459.067139	180.0
1459.325562	120.0
1459.971924	160.0
1460.253296	136.0
1460.671631	164.0
1461.097656	44.0
1461.531372	144.0
1461.819702	176.0
1462.665283	112.0
1463.609375	116.0
1464.269775	104.0
1464.622192	232.0
1465.178345	136.0
1465.269775	124.0
1465.620239	44.0
1465.726929	152.0
1465.994873	188.0
1466.153564	176.0
1466.245117	112.0
1467.138184	204.0
1467.47644	148.0
1468.006104	76.0
1468.16626	212.0
1468.39502	112.0
1468.471313	184.0
1468.677246	68.0
1469.272217	124.0
1469.49646	228.0
1469.661377	68.0
1469.844482	160.0
1469.905518	204.0
1470.325195	124.0
1471.004517	72.0
1471.248779	140.0
1471.666382	180.0
1471.936035	164.0
1472.348389	160.0
1473.043457	124.0
1473.303101	180.0
1473.51709	76.0
1473.684692	160.0
1473.815063	324.0
1473.86853	148.0
1474.105347	308.0
1474.380493	92.0
1474.450195	152.0
1474.617432	144.0
1474.670898	164.0
1475.320679	136.0
1475.672363	104.0
1475.809937	160.0
1475.978149	204.0
1476.21521	204.0
1476.368164	204.0
1476.674072	112.0
1476.865234	164.0
1477.630249	36.0
1477.722046	208.0
1477.844482	52.0
1477.901367	164.0
1478.188843	164.0
1478.295898	152.0
1478.548462	132.0
1478.625	140.0
1478.877563	160.0
1479.084229	88.0
1479.352173	136.0
1479.673706	140.0
1480.186646	144.0
1480.291748	212.0
1480.362793	172.0
1480.937256	92.0
1481.335571	192.0
1481.588257	188.0
1481.871826	308.0
1482.280884	216.0
1482.990601	224.0
1484.048462	196.0
1484.316895	208.0
1484.784668	216.0
1484.884399	140.0
1485.160522	164.0
1485.298584	96.0
1485.497925	220.0
1485.705078	192.0
1486.104004	180.0
1486.272827	224.0
1486.510742	52.0
1486.633545	188.0
1487.078613	212.0
1487.462402	160.0
1488.353027	160.0
1488.445068	188.0
1488.52356	132.0
1488.575684	220.0
1489.074829	156.0
1489.312988	44.0
1489.42041	212.0
1489.597168	132.0
1490.035034	172.0
1490.265503	196.0
1490.672729	184.0
1490.857178	252.0
1491.610352	100.0
1492.210083	220.0
1493.317383	68.0
1493.509644	128.0
1493.925049	180.0
1494.025024	172.0
1494.094238	256.0
1494.217407	136.0
1494.355835	176.0
1494.528564	168.0
1494.58667	164.0
1494.702148	136.0
1495.04834	172.0
1495.217651	232.0
1495.379272	160.0
1496.557129	188.0
1496.657227	208.0
1496.757324	200.0
1497.358032	136.0
1497.881714	84.0
1498.821655	64.0
1499.098999	192.0
1499.75415	212.0
1499.908325	156.0
1500.193481	124.0
1500.887329	148.0
1501.244507	372.0
1501.434937	64.0
1501.697144	216.0
1501.897705	156.0
1502.244751	212.0
1502.607422	132.0
1502.699951	40.0
1502.946899	200.0
1503.263184	164.0
1503.479248	148.0
1503.703125	196.0
1503.919189	180.0
1504.119873	172.0
1504.559937	196.0
1504.791504	116.0
1505.223877	200.0
END IONS

BEGIN IONS
PEPMASS=249.162
CHARGE=1
MSLEVEL=2
SOURCE_INSTRUMENT=LC-ESI-qTof
FILENAME=p5-H04_GH4_01_18479.mzXML
SEQ=*..*
IONMODE=Positive
ORGANISM=GNPS-NIH-SMALLMOLECULEPHARMACOLOGICALLYACTIVE
NAME=MLS001056774-01!S(?)-Pindolol M+H
PI=Dorrestein
DATACOLLECTOR=VP/LMS
SMILES=CC(C)NC[C@H](O)COc1cccc2[nH]ccc12
INCHI=N/A
INCHIAUX=N/A
PUBMED=N/A
SUBMITUSER=vphelan
LIBRARYQUALITY=1
SPECTRUMID=CCMSLIB00000086181
USI=mzspec:GNPS:GNPS-NIH-SMALLMOLECULEPHARMACOLOGICALLYACTIVE:accession:CCMSLIB00000086181
SCANS=1200
44.983315	172.0
45.430279	200.0
45.86462	112.0
46.008961	144.0
46.341667	176.0
46.436275	152.0
46.545128	52.0
46.56414	184.0
46.798035	192.0
46.819824	180.0
46.949291	216.0
46.961567	196.0
47.125381	232.0
47.294956	88.0
47.312752	196.0
47.459351	116.0
47.514214	52.0
47.558125	44.0
47.76836	188.0
47.816521	48.0
47.835789	124.0
47.890869	164.0
47.910152	108.0
47.992847	56.0
48.002502	164.0
48.204041	184.0
48.686131	148.0
48.898842	176.0
49.029758	244.0
49.543961	176.0
49.687469	220.0
49.814713	92.0
49.917313	184.0
50.117191	164.0
50.224335	68.0
50.330181	72.0
50.341476	184.0
50.518154	104.0
50.625725	68.0
50.818504	172.0
50.839787	128.0
51.279247	120.0
51.457561	132.0
51.599003	84.0
51.714874	156.0
52.077629	48.0
52.191158	152.0
52.277466	56.0
52.492107	144.0
52.577221	140.0
52.604645	176.0
52.762817	172.0
52.898098	236.0
53.118359	132.0
53.170593	232.0
53.510742	128.0
53.583561	180.0
53.612705	40.0
53.809624	188.0
54.132771	184.0
54.795219	116.0
54.94265	208.0
55.090279	188.0
55.183384	76.0
55.270653	140.0
55.408348	156.0
55.587761	204.0
55.812057	200.0
55.870064	176.0
55.998077	172.0
56.270969	108.0
56.439808	176.0
56.950844	96.0
57.341011	224.0
57.412895	136.0
57.459007	140.0
57.523037	92.0
57.828369	224.0
57.914673	164.0
58.151203	176.0
58.365402	208.0
58.538876	156.0
58.569336	120.0
58.741585	164.0
58.851467	172.0
58.866737	80.0
58.973682	88.0
59.024132	140.0
59.242996	148.0
59.46994	128.0
59.512924	196.0
59.617378	128.0
60.522877	192.0
60.719685	148.0
60.891956	176.0
61.022491	152.0
61.414925	60.0
61.544453	72.0
61.595989	196.0
62.222401	160.0
62.241241	92.0
62.335491	160.0
62.839359	204.0
63.167961	200.0
63.313576	136.0
63.57357	104.0
63.597378	180.0
63.662468	120.0
63.694233	120.0
63.878628	152.0
64.036209	152.0
64.12384	248.0
64.214714	192.0
64.296082	120.0
64.38549	172.0
64.7117	48.0
64.722908	144.0
64.73732	152.0
64.887939	136.0
64.928024	44.0
65.056389	192.0
65.147926	136.0
65.160782	164.0
65.779182	236.0
67.04921	112.0
67.075287	104.0
67.43438	140.0
67.760017	172.0
68.010925	224.0
68.065102	160.0
68.170235	172.0
68.553658	140.0
68.669067	124.0
68.928253	128.0
69.14489	180.0
69.604088	160.0
69.64727	176.0
69.743721	176.0
69.878342	196.0
69.943245	136.0
70.008179	224.0
70.445175	156.0
70.552124	108.0
70.727776	188.0
71.06797	52.0
71.185471	268.0
71.274506	204.0
71.314835	220.0
71.517731	184.0
71.678345	124.0
71.867203	124.0
71.889137	176.0
72.249031	204.0
72.379356	152.0
72.45388	208.0
72.713318	192.0
73.680519	260.0
73.886276	140.0
74.130524	124.0
74.195656	176.0
74.784859	220.0
74.910561	180.0
75.343567	76.0
75.592552	60.0
75.767426	176.0
75.80555	52.0
76.329788	92.0
76.381966	140.0
76.637878	196.0
77.33992	124.0
78.148941	168.0
78.56826	148.0
78.684738	144.0
78.70063	152.0
78.864922	172.0
79.295013	164.0
79.642776	140.0
80.149803	180.0
80.319168	172.0
80.349495	144.0
80.61554	168.0
80.794342	204.0
81.150749	48.0
81.454041	188.0
81.554665	196.0
82.123642	196.0
82.168739	116.0
82.806839	244.0
83.105949	144.0
83.140434	168.0
83.769539	40.0
83.798691	212.0
84.094109	80.0
85.018349	192.0
85.106461	184.0
85.119316	220.0
85.347168	80.0
85.44281	92.0
85.555069	188.0
85.927345	228.0
85.942108	144.0
86.211708	176.0
86.278252	112.0
86.685448	196.0
86.965492	152.0
86.982201	44.0
87.446884	268.0
87.625648	192.0
87.890411	156.0
88.030411	180.0
88.198563	104.0
88.232208	52.0
88.737709	160.0
89.039986	172.0
89.40078	68.0
89.521263	136.0
89.658783	176.0
89.743614	168.0
89.951141	192.0
90.056877	104.0
90.083321	160.0
90.09655	92.0
90.253418	164.0
90.641457	192.0
90.813972	192.0
90.92971	104.0
91.001846	60.0
91.053535	384.0
91.132904	44.0
91.83918	148.0
91.921211	192.0
91.93457	180.0
91.996284	204.0
92.016647	108.0
92.04792	736.0
92.574989	172.0
92.695671	128.0
92.850952	32.0
93.558067	176.0
93.638939	224.0
93.721779	108.0
94.053482	156.0
94.163536	200.0
94.256271	164.0
94.318115	112.0
94.339378	192.0
94.414886	152.0
94.453468	168.0
94.645065	152.0
94.662491	236.0
94.786469	48.0
95.08123	196.0
95.123932	112.0
95.158882	76.0
95.178299	148.0
95.242386	164.0
95.287064	184.0
95.318153	180.0
95.349243	180.0
95.413391	116.0
95.84938	136.0
95.863014	196.0
96.095055	80.0
96.339096	204.0
96.624527	156.0
96.865318	180.0
96.898621	244.0
97.681923	52.0
97.756691	176.0
97.882675	156.0
98.096687	568.0
98.45768	144.0
98.582962	204.0
98.683777	116.0
99.099419	180.0
99.166794	228.0
99.496086	112.0
99.684776	232.0
99.953224	96.0
100.11013	464.0
100.192154	172.0
100.216064	200.0
100.413414	208.0
100.46727	164.0
100.740768	136.0
100.974632	152.0
101.20076	216.0
101.230789	196.0
101.294884	204.0
101.371017	100.0
101.39106	164.0
101.689896	148.0
102.046463	200.0
102.081253	224.0
102.304985	176.0
103.054665	620.0
103.225029	196.0
103.467834	156.0
103.658501	208.0
103.719025	176.0
103.970528	204.0
104.049026	1064.0
104.435791	176.0
104.545654	112.0
104.602646	120.0
104.781853	148.0
104.96122	88.0
105.035194	192.0
105.056854	208.0
105.077766	168.0
105.835762	64.0
106.030373	176.0
106.06498	2316.0
106.155426	208.0
106.26004	72.0
106.648155	76.0
106.68927	120.0
106.711884	60.0
107.049583	1740.0
107.067223	700.0
107.11525	56.0
107.168816	80.0
107.566841	136.0
107.845695	160.0
107.955276	124.0
108.054558	176.0
108.28019	184.0
108.441795	124.0
108.742538	88.0
109.037453	112.0
109.089417	168.0
110.334	164.0
110.997726	252.0
111.190727	204.0
111.825447	176.0
112.029694	168.0
112.40921	220.0
112.700607	188.0
112.950073	256.0
114.022942	148.0
114.188774	208.0
114.239822	188.0
114.30365	36.0
114.582573	128.0
114.676338	136.0
114.846909	140.0
114.930115	144.0
115.053894	2856.0
115.083794	124.0
115.130768	96.0
115.211937	148.0
115.282448	104.0
115.320396	272.0
115.451332	48.0
115.519775	160.0
115.845161	148.0
116.00589	160.0
116.049141	3104.0
116.107422	6336.0
116.134544	96.0
116.177444	112.0
116.220352	88.0
116.39637	260.0
116.486572	56.0
116.516647	200.0
116.557472	84.0
116.867104	120.0
116.901527	160.0
116.929504	140.0
117.059692	3324.0
117.111664	260.0
117.174988	56.0
117.209465	36.0
117.287048	160.0
117.47506	192.0
117.496223	168.0
117.59549	144.0
117.768219	76.0
117.794136	152.0
117.925941	48.0
118.065056	5000.0
118.11319	140.0
118.215744	104.0
118.354286	132.0
118.510895	144.0
118.607758	56.0
118.95266	140.0
119.032303	152.0
119.06749	1044.0
119.180695	44.0
119.659195	160.0
119.776794	48.0
119.872658	196.0
119.898811	152.0
119.929321	172.0
120.044548	520.0
120.077583	120.0
120.153931	168.0
120.212845	196.0
120.354729	120.0
120.780891	92.0
120.909981	160.0
120.925301	36.0
121.040802	184.0
121.078552	52.0
121.102646	172.0
121.345894	120.0
121.819931	32.0
122.526108	36.0
122.587807	108.0
122.896515	52.0
122.942406	204.0
123.086342	132.0
123.260849	132.0
123.783859	164.0
123.900276	136.0
124.197327	160.0
124.912582	208.0
125.034958	228.0
125.620964	160.0
126.047401	248.0
126.434273	176.0
127.05368	644.0
127.335541	188.0
127.902145	152.0
128.052078	360.0
128.603149	172.0
128.668427	224.0
128.686676	132.0
128.729706	68.0
129.009735	136.0
129.057831	400.0
129.215546	228.0
129.340012	164.0
130.038544	216.0
130.063797	912.0
130.601608	156.0
130.8246	168.0
131.044968	164.0
131.054443	228.0
131.069077	416.0
131.183975	196.0
131.46965	76.0
131.789337	128.0
131.985916	168.0
132.044357	1532.0
132.078323	648.0
132.420715	172.0
132.835602	120.0
133.016876	116.0
133.053436	1408.0
133.090347	140.0
133.108719	60.0
133.570663	64.0
133.605179	44.0
133.724838	76.0
133.750153	88.0
133.770874	92.0
134.005768	156.0
134.059799	10544.0
134.10025	168.0
134.148666	60.0
134.164795	40.0
134.180939	48.0
134.330841	40.0
134.356216	68.0
134.37236	108.0
134.621658	32.0
134.640121	72.0
134.665527	48.0
134.815704	176.0
134.875793	152.0
135.064697	1572.0
135.144058	32.0
135.31958	72.0
135.468185	44.0
135.55159	52.0
135.654724	56.0
135.671707	156.0
135.959732	92.0
136.243011	88.0
136.687103	32.0
137.243805	168.0
138.775314	160.0
138.951218	256.0
140.336533	176.0
140.643219	88.0
141.006943	140.0
141.259949	204.0
142.0298	92.0
142.064941	208.0
142.958755	208.0
143.072632	2700.0
143.306412	84.0
143.523315	156.0
143.957779	172.0
144.056656	684.0
144.080017	14972.0
144.179779	100.0
144.301697	60.0
144.359085	76.0
144.40213	68.0
144.432343	184.0
144.497818	44.0
144.607895	76.0
144.855774	84.0
144.873047	76.0
144.919205	108.0
144.962326	100.0
145.059204	800.0
145.084274	740.0
145.326813	40.0
145.614075	96.0
145.78064	116.0
145.807068	40.0
145.929672	52.0
145.96814	56.0
146.018646	148.0
146.059357	3952.0
146.244812	188.0
147.063034	236.0
147.095688	88.0
148.077377	204.0
150.052979	36.0
152.321579	60.0
153.002762	164.0
153.064316	144.0
153.747162	44.0
154.064041	688.0
154.59729	168.0
154.976151	128.0
155.059814	544.0
157.048599	328.0
157.411362	96.0
157.846161	96.0
158.058777	172.0
160.074066	800.0
161.049057	164.0
161.081421	244.0
161.245041	124.0
162.102951	44.0
163.507324	144.0
164.009079	100.0
166.326538	80.0
167.275055	44.0
169.475449	132.0
170.059677	316.0
170.087479	128.0
170.594025	148.0
171.066116	168.0
171.187256	52.0
171.395645	208.0
171.466003	68.0
171.505096	88.0
171.932831	144.0
171.974594	224.0
171.995483	196.0
172.075821	3512.0
172.13385	44.0
172.395081	28.0
172.604202	52.0
173.051636	52.0
173.077682	312.0
173.148529	52.0
173.203522	104.0
173.308319	72.0
173.405273	96.0
173.455566	64.0
173.780273	40.0
173.893112	48.0
174.087387	156.0
174.134659	132.0
174.181946	68.0
180.941971	176.0
182.068161	256.0
183.001266	172.0
185.039719	40.0
185.077621	160.0
186.126984	128.0
198.60556	128.0
199.105148	192.0
207.032089	208.0
207.12088	248.0
210.615753	68.0
210.84111	140.0
223.037949	128.0
228.11972	88.0
247.210236	120.0
248.237732	172.0
249.156769	584.0
250.149612	172.0
268.820587	76.0
272.35318	52.0
273.010498	152.0
279.181549	84.0
290.555481	88.0
418.708588	96.0
427.522949	44.0
439.227722	100.0
488.396973	52.0
584.12323	108.0
591.762756	236.0
626.134827	56.0
685.34845	72.0
710.788513	44.0
738.059631	128.0
748.091309	44.0
786.816895	168.0
787.710388	248.0
839.594299	172.0
853.684265	236.0
856.780762	204.0
874.72406	172.0
892.324036	172.0
902.113159	212.0
941.26001	164.0
945.282227	172.0
970.599915	80.0
980.259705	180.0
982.136292	136.0
983.059692	256.0
995.52356	100.0
997.578125	192.0
998.458374	172.0
1001.813293	204.0
1004.044617	104.0
1014.826233	208.0
1020.197266	212.0
1026.577148	152.0
1031.327148	144.0
1042.266724	152.0
1042.530151	260.0
1043.770752	116.0
1050.417358	112.0
1062.611938	244.0
1079.959595	160.0
1085.729736	120.0
1086.326538	148.0
1088.590942	184.0
1088.650024	72.0
1089.911255	140.0
1099.895386	212.0
1100.535767	140.0
1102.953613	204.0
1104.798584	172.0
1106.731201	196.0
1109.759155	96.0
1112.127441	132.0
1114.896973	204.0
1115.801025	132.0
1117.017944	220.0
1122.132568	224.0
1125.5354	140.0
1125.642212	176.0
1126.22998	160.0
1126.630737	164.0
1126.791138	160.0
1134.815918	200.0
1135.117554	204.0
1146.828979	168.0
1150.086792	100.0
1150.6875	84.0
1151.740967	156.0
1154.769043	196.0
1155.655273	160.0
1162.363403	80.0
1167.206543	48.0
1167.342529	68.0
1174.459595	52.0
1175.755859	144.0
1178.767456	232.0
1178.897339	52.0
1179.676514	172.0
1181.687134	168.0
1184.781738	172.0
1185.08313	96.0
1188.93689	76.0
1192.597656	128.0
1198.350586	244.0
1200.259888	176.0
1201.591064	184.0
1204.138184	136.0
1207.213623	216.0
1209.074585	196.0
1212.897827	264.0
1213.064087	180.0
1216.359131	160.0
1218.963623	124.0
1220.840454	164.0
1222.614502	200.0
1229.318481	136.0
1240.859741	192.0
1241.820435	124.0
1242.093994	160.0
1246.039307	196.0
1247.965088	192.0
1249.223999	152.0
1249.885254	160.0
1250.103394	216.0
1250.786133	168.0
1250.955078	148.0
1253.37085	188.0
1254.343384	188.0
1254.717041	164.0
1264.486206	168.0
1265.250732	200.0
1266.220825	176.0
1266.757202	180.0
1271.22583	192.0
1273.16394	172.0
1280.06897	236.0
1285.308228	216.0
1287.542603	124.0
1289.092896	68.0
1290.543945	48.0
1293.291016	76.0
1296.478027	240.0
1296.807739	72.0
1298.435303	88.0
1299.281616	184.0
1299.46106	104.0
1302.892822	172.0
1303.323853	184.0
1304.200684	100.0
1306.494507	156.0
1307.883423	156.0
1310.27417	104.0
1313.763428	260.0
1318.991577	144.0
1319.114502	124.0
1321.530029	196.0
1321.71814	160.0
1324.606812	116.0
1327.788818	188.0
1328.187622	36.0
1328.579346	132.0
1329.101807	92.0
1329.595215	168.0
1330.088745	88.0
1330.814819	116.0
1333.386353	236.0
1335.858521	148.0
1338.602417	228.0
1338.755249	208.0
1339.738647	176.0
1340.33606	160.0
1341.516724	204.0
1341.684448	28.0
1342.982422	272.0
1344.412354	260.0
1345.989136	116.0
1352.027344	172.0
1352.451904	252.0
1352.56897	148.0
1354.948975	164.0
1358.196411	104.0
1361.829712	204.0
1362.96106	140.0
1363.181519	56.0
1364.298706	208.0
1365.357544	204.0
1366.622803	140.0
1370.252563	184.0
1375.244873	160.0
1379.21875	200.0
1379.270386	184.0
1380.579102	240.0
1381.141235	192.0
1381.333496	164.0
1382.125122	148.0
1383.168579	200.0
1386.286743	212.0
1386.509033	124.0
1388.125122	108.0
1391.709106	48.0
1392.02832	48.0
1392.637329	168.0
1393.707153	176.0
1395.94458	184.0
1397.744751	64.0
1398.494995	156.0
1400.469482	88.0
1409.69812	288.0
1410.019531	48.0
1411.021118	84.0
1411.948364	164.0
1412.075562	140.0
1414.410034	76.0
1415.997314	68.0
1418.132568	148.0
1418.222534	196.0
1420.734619	64.0
1421.079712	176.0
1421.88269	168.0
1422.926025	216.0
1425.09668	68.0
1425.817993	248.0
1426.742554	184.0
1430.534058	148.0
1435.996948	156.0
1436.939941	156.0
1438.298218	180.0
1438.479492	164.0
1439.030518	204.0
1440.367188	236.0
1441.462769	196.0
1442.052246	144.0
1442.611572	172.0
1443.912109	232.0
1447.6875	160.0
1448.218628	172.0
1448.445801	140.0
1449.35498	184.0
1449.445923	76.0
1452.72876	36.0
1454.071777	236.0
1457.162354	136.0
1457.489136	260.0
1460.712646	180.0
1462.371338	176.0
1464.952637	148.0
1465.585083	160.0
1466.072754	40.0
1467.25415	124.0
1467.307617	216.0
1467.696411	192.0
1468.245483	68.0
1468.397949	156.0
1468.596313	168.0
1470.137451	132.0
1472.458252	196.0
1472.969971	208.0
1474.926147	144.0
1475.323608	184.0
1479.875854	156.0
1481.759888	180.0
1483.698853	196.0
1484.619019	164.0
1486.160889	168.0
1486.314331	204.0
1488.617188	92.0
1489.469727	96.0
1490.575928	196.0
1490.921753	124.0
1491.30603	144.0
1492.912842	236.0
1493.335938	132.0
1493.528198	116.0
1494.405151	180.0
1495.513306	180.0
1499.988525	184.0
1500.404907	164.0
1500.744141	52.0
1503.081177	44.0
1503.328125	152.0
1504.022827	128.0
1504.895142	260.0
1505.142212	224.0
1505.28894	240.0
END IONS

BEGIN IONS
PEPMASS=208.133
CHARGE=1
MSLEVEL=2
SOURCE_INSTRUMENT=LC-ESI-Q-Exactive Plus Orbitrap Res 14k
FILENAME=Pesticide_Mix3_pos_14k.mzXML
SEQ=*..*
IONMODE=positive
ORGANISM=GNPS-COLLECTIONS-PESTICIDES-POSITIVE
NAME=Pesticide3_Fenobucarb_C12H17NO2_Bassa M+H
PI=Dorrestein/Touboul
DATACOLLECTOR=lfnothias
SMILES=CCC(C)C1=CC=CC=C1OC(=O)NC
INCHI=InChI=1S/C12H17NO2/c1-4-9(2)10-7-5-6-8-11(10)15-12(14)13-3/h5-9H,4H2,1-3H3,(H,13,14)
INCHIAUX=N/A
PUBMED=n/a
SUBMITUSER=mwang87
LIBRARYQUALITY=1
SPECTRUMID=CCMSLIB00001058239
USI=mzspec:GNPS:GNPS-COLLECTIONS-PESTICIDES-POSITIVE:accession:CCMSLIB00001058239
SCANS=2668
77.038879	83118.828125
83.91526	14525.890625
84.992249	14654.522461
85.096397	15987.34668
88.293938	16099.860352
95.049294	19400766.0
98.047173	20337.294922
101.436783	19534.851562
104.098656	18562.214844
105.045059	23081.917969
109.401886	16481.908203
135.615662	16251.62207
150.941727	15397.914062
151.112442	338855.40625
152.070282	1292572.875
157.5298	18189.388672
208.132645	76962.796875
209.394379	18193.396484
END IONS

BEGIN IONS
PEPMASS=315.163
CHARGE=1
MSLEVEL=2
SOURCE_INSTRUMENT=LC-ESI-qTof
FILENAME=mmv_positive.mgf
SEQ=*..*
IONMODE=Positive
ORGANISM=MMV_POSITIVE
NAME=MMV004168 M+H
PI=Sirenas MD
DATACOLLECTOR=Sirenas MD
SMILES=CN1CCCN(CC1)C(c2ccccc2)c3ccc(Cl)cc3
INCHI=N/A
INCHIAUX=N/A
PUBMED=N/A
SUBMITUSER=mwang87
LIBRARYQUALITY=3
SPECTRUMID=CCMSLIB00004722096
USI=mzspec:GNPS:MMV_POSITIVE:accession:CCMSLIB00004722096
SCANS=101
113.107498	2873.152344
113.151886	71.480766
113.169296	33.333332
113.264961	39.41346
113.472542	19.595589
139.055893	65.657608
149.012421	30.333334
152.446243	28.923077
162.665314	20.020834
162.689621	21.799999
163.050446	75.265625
163.780655	45.511364
164.062897	311.579468
164.154785	25.941177
164.193298	58.53125
164.230499	40.01907
164.252792	40.833332
164.319336	19.041666
164.355698	47.668652
164.375778	73.142242
164.453766	23.446428
164.497467	20.086538
164.560593	43.063774
164.600769	19.005434
164.960617	74.66848
165.069244	12698.62793
165.137756	207.357147
165.155579	142.189392
165.190002	117.272728
165.233826	189.482147
165.277847	42.361111
165.307556	101.145348
165.336197	110.010872
165.376709	31.571428
165.401489	98.086266
165.455399	78.049606
165.48056	25.556818
165.505096	65.440475
165.526718	42.164474
165.563736	63.30682
165.589935	30.625
165.674805	34.142857
165.71817	22.322369
165.763641	26.183823
165.835007	25.680555
165.859924	30.163462
165.958511	39.30682
166.036148	255.888885
166.050125	291.0354
166.077499	22248.171875
166.133606	619.246948
166.190216	101.08654
166.229782	121.837212
166.261536	40.852272
166.298264	53.25
166.341339	129.001083
166.353699	148.28006
166.377441	133.228653
166.406296	69.32692
166.457062	70.686401
166.476395	91.009956
166.494843	70.324997
166.525818	128.338852
166.553619	64.408333
166.581009	54.470589
166.601639	22.568182
166.673859	20.416666
166.69722	45.219593
166.769547	33.692307
166.86618	19.125
166.94342	33.017857
167.028931	57.142857
167.05545	33.782406
167.082184	1381.491943
167.144409	52.969826
167.225174	23.778847
167.276855	40.102272
167.691101	50.398586
167.798065	23.020834
167.929352	20.03409
168.425003	31.102272
169.863068	18.556818
198.383545	36.113636
198.446091	39.266666
199.030289	51.308823
199.528458	18.15
199.710327	20.076923
199.791718	39.693966
199.847168	177.163635
199.886688	175.003616
199.909592	186.507812
199.937241	184.215515
199.991165	288.243927
200.039093	598.735352
200.065414	241.125
200.124435	190.125
200.152206	154.691895
200.194153	115.070312
200.229309	215.664719
200.250702	76.307693
200.273605	51.361111
200.328476	67.449997
200.384308	39.140625
200.428818	41.336113
200.458206	50.198528
200.473831	47.799999
200.501846	86.541664
200.523849	46.025002
200.552521	23.272728
200.59053	45.487904
200.611816	77.77594
200.660675	65.030403
200.721161	45.344513
200.750595	53.462837
200.786179	187.116882
200.85556	36.796051
200.897018	60.27174
200.931671	73.059212
200.961197	69.0
201.046875	164810.78125
201.108688	9715.837891
201.494781	110.508827
201.519531	36.190788
201.559097	213.127762
201.625412	180.410461
201.6595	149.209015
201.683823	152.0
201.713547	145.183136
201.758789	193.255325
201.786255	123.144234
201.830887	117.1875
201.906082	131.887375
201.929092	67.166664
201.963318	46.75
201.993423	40.179295
202.049438	9670.587891
202.146088	106.377068
202.167648	89.929817
202.212708	56.418388
202.255768	75.455811
202.304352	29.173868
202.323273	20.85
202.349045	48.952778
202.395111	66.144814
202.420242	100.162788
202.459167	43.191326
202.497406	48.240383
202.564209	33.671295
202.596863	41.264706
202.639618	59.597828
202.664398	61.608883
202.700836	81.001663
202.725677	63.424999
202.770065	52.533333
202.783981	29.200001
202.840729	75.964287
202.879227	32.002453
202.971436	70.578949
203.009293	131.242645
203.044998	525.172852
203.131104	24.5
203.146896	30.002777
203.172241	102.177635
203.262177	40.041668
203.280487	29.199751
203.3069	73.130318
203.375565	37.41346
203.509048	20.041666
203.518982	17.03125
203.553299	17.017857
203.628174	29.063776
203.707947	18.918478
203.782104	17.004999
203.885239	18.013889
203.996017	27.48077
204.022705	44.841217
204.166916	44.926281
204.41507	61.054825
204.686996	22.5625
205.140198	18.014706
205.454987	24.142857
205.86409	43.55682
206.552826	25.803572
207.704361	23.025
208.019211	34.666668
209.336212	44.44643
219.644653	18.005953
279.355286	36.125
315.160767	163.461533
316.16275	32.266666
882.228394	17.0
END IONS

BEGIN IONS
PEPMASS=469.075
CHARGE=1
MSLEVEL=2
SOURCE_INSTRUMENT=ESI-qTof
FILENAME=MSV000079274/ccms_peak/plate22/1151.D_RG11_01_5307.mzXML
SEQ=*..*
IONMODE=Positive
ORGANISM=GNPS-NIST14-MATCHES
NAME=Spectral Match to Cromolyn from NIST14 M+H
PI=Data from P.Dorrestein
DATACOLLECTOR=Data deposited by amelnik
SMILES=C1=CC2=C(C(=C1)OCC(COC3=CC=CC4=C3C(=O)C=C(O4)C(=O)O)O)C(=O)C=C(O2)C(=O)O
INCHI=InChI=1S/C23H16O11/c24-11(9-31-14-3-1-5-16-20(14)12(25)7-18(33-16)22(27)28)10-32-15-4-2-6-17-21(15)13(26)8-19(34-17)23(29)30/h1-8,11,24H,9-10H2,(H,27,28)(H,29,30)
INCHIAUX=N/A
PUBMED=N/A
SUBMITUSER=mwang87
LIBRARYQUALITY=3
SPECTRUMID=CCMSLIB00003134785
USI=mzspec:GNPS:GNPS-NIST14-MATCHES:accession:CCMSLIB00003134785
SCANS=1171
147.043732	544.0
206.021942	520.0
207.028534	6912.0
208.030029	624.0
217.049118	796.0
219.031448	548.0
233.044312	804.0
245.044769	4504.0
246.048462	636.0
263.05545	1540.0
467.240692	472.0
END IONS

BEGIN IONS
PEPMASS=206.139
CHARGE=1
MSLEVEL=2
SOURCE_INSTRUMENT=ESI-qTof
FILENAME=MSV000080507/ccms_peak/Pos_MSMS_mzxml/pos_Haweii_2016_100ml_21.mzXML
SEQ=*..*
IONMODE=Positive
ORGANISM=GNPS-NIST14-MATCHES
NAME=Spectral Match to Dexpanthenol from NIST14 M+H
PI=Data from Lihini Aluwihare
DATACOLLECTOR=Data deposited by daniel
SMILES=CC(C)(CO)[C@H](C(=O)NCCCO)O
INCHI=InChI=1S/C9H19NO4/c1-9(2,6-12)7(13)8(14)10-4-3-5-11/h7,11-13H,3-6H2,1-2H3,(H,10,14)/t7-/m0/s1
INCHIAUX=N/A
PUBMED=N/A
SUBMITUSER=mwang87
LIBRARYQUALITY=3
SPECTRUMID=CCMSLIB00003135223
USI=mzspec:GNPS:GNPS-NIST14-MATCHES:accession:CCMSLIB00003135223
SCANS=513
76.071358	1289.187866
76.07579	40587.820312
77.079399	1463.656982
85.064537	1066.32605
95.049492	1192.16748
102.05513	9854.400391
103.074913	1004.711975
118.800507	996.964172
120.925179	1037.329346
148.08638	1069.265137
162.337662	903.056946
164.942673	931.401123
165.113602	913.002075
170.116699	7725.760254
188.127502	17409.707031
189.129959	1170.921753
206.118011	1513.664062
206.13768	31564.96875
206.157318	1707.552856
207.140701	4378.911621
END IONS

BEGIN IONS
PEPMASS=337.21
CHARGE=1
MSLEVEL=2
SOURCE_INSTRUMENT=ESI-qTof
FILENAME=MSV000079568/ccms_peak/137ST_10uM_160211160005.mzXML
SEQ=*..*
IONMODE=Positive
ORGANISM=GNPS-NIST14-MATCHES
NAME=Spectral Match to Acebutolol from NIST14 M+H
PI=Data from Pieter Dorrestein
DATACOLLECTOR=Data deposited by amelnik
SMILES=CCCC(=O)NC1=CC(=C(C=C1)OCC(CNC(C)C)O)C(=O)C
INCHI=InChI=1S/C18H28N2O4/c1-5-6-18(23)20-14-7-8-17(16(9-14)13(4)21)24-11-15(22)10-19-12(2)3/h7-9,12,15,19,22H,5-6,10-11H2,1-4H3,(H,20,23)
INCHIAUX=N/A
PUBMED=N/A
SUBMITUSER=mwang87
LIBRARYQUALITY=3
SPECTRUMID=CCMSLIB00003135332
USI=mzspec:GNPS:GNPS-NIST14-MATCHES:accession:CCMSLIB00003135332
SCANS=2128
86.096909	14884.44043
98.096786	352715.28125
114.091469	14427.467773
116.107178	1191185.375
118.64415	2339.469727
148.075378	13773.333984
158.085098	2640.249268
172.075455	3214.214844
180.100845	4523.92627
183.882751	2979.962402
190.086349	4268.182617
198.658966	2687.091309
216.103241	2619.771729
218.11731	70851.390625
222.111969	26623.138672
230.11763	3206.553467
232.133408	3250.435059
234.113602	4623.084961
235.14389	4872.454102
242.117065	5386.728027
244.132065	5940.45752
248.128021	16452.746094
260.127747	182002.4375
275.174591	10308.795898
277.154327	16245.543945
277.192383	3427.435547
278.137543	11343.330078
295.167206	5082.939453
295.20166	3358.497803
319.201172	342124.15625
337.211731	951353.375
END IONS

BEGIN IONS
PEPMASS=114.091
CHARGE=1
MSLEVEL=2
SOURCE_INSTRUMENT=ESI-qTof
FILENAME=MSV000081116/ccms_peak/TSB/Pseudomonas synxantha 32/P_syn_32_SampleF2_control.mzML
SEQ=*..*
IONMODE=Positive
ORGANISM=GNPS-NIST14-MATCHES
NAME=Spectral Match to 6-Aminocaproic acid from NIST14 M+H-H2O
PI=Data from Pieter Dorrestein
DATACOLLECTOR=Data deposited by lfnothias
SMILES=C(CCC(=O)O)CCN
INCHI=InChI=1S/C6H13NO2/c7-5-3-1-2-4-6(8)9/h1-5,7H2,(H,8,9)
INCHIAUX=N/A
PUBMED=N/A
SUBMITUSER=mwang87
LIBRARYQUALITY=3
SPECTRUMID=CCMSLIB00003137149
USI=mzspec:GNPS:GNPS-NIST14-MATCHES:accession:CCMSLIB00003137149
SCANS=804
55.018295	66089.820312
55.054653	115513.0
62.157173	9643.842773
67.054749	146369.125
68.049515	212389.375
69.069893	1298784.875
69.074234	23568.615234
70.065521	106933.328125
71.049248	110285.90625
71.085663	152209.515625
72.044586	13117.916016
72.081184	233582.5
72.937393	480764.125
73.046974	71201.601562
77.104309	9403.092773
79.054321	2128535.5
84.080978	57089.644531
85.065094	14934.463867
86.059776	13511.670898
86.096237	181493.03125
90.947899	84365.914062
91.057083	152915.703125
95.049248	20862.234375
96.08078	1573455.0
96.086052	16662.353516
97.064735	589912.875
97.407501	10549.811523
113.96386	25114.273438
114.078194	100128.554688
114.090996	25203488.0
114.097847	481558.90625
115.095116	70486.484375
121.159698	10787.754883
END IONS

BEGIN IONS
PEPMASS=631.803
CHARGE=1
MSLEVEL=2
SOURCE_INSTRUMENT=ESI-qTof
FILENAME=MSV000081151/ccms_peak/mzXML_Files/Plate_2/HFD_C1_Ant10.mzXML
SEQ=*..*
IONMODE=Positive
ORGANISM=GNPS-NIST14-MATCHES
NAME=Spectral Match to Diatrizoic acid from NIST14 M+NH4
PI=Data from Joshua Wollam
DATACOLLECTOR=Data deposited by fevargas
SMILES=CC(=O)NC1=C(C(=C(C(=C1I)C(=O)O)I)NC(=O)C)I
INCHI=InChI=1S/C11H9I3N2O4/c1-3(17)15-9-6(12)5(11(19)20)7(13)10(8(9)14)16-4(2)18/h1-2H3,(H,15,17)(H,16,18)(H,19,20)
INCHIAUX=N/A
PUBMED=N/A
SUBMITUSER=mwang87
LIBRARYQUALITY=3
SPECTRUMID=CCMSLIB00003139191
USI=mzspec:GNPS:GNPS-NIST14-MATCHES:accession:CCMSLIB00003139191
SCANS=189
51.590206	1372.926392
60.135345	1197.64563
62.495213	1134.065186
63.60458	1436.691772
63.957001	1346.015381
66.880386	1314.918701
76.154442	1244.441772
80.30999	1163.121338
89.246742	1383.215088
140.238907	1486.125977
143.266724	1791.298584
148.039352	9610.28418
148.331192	1806.648071
170.415512	1410.616577
176.451614	1550.887207
180.700806	1468.242188
189.064514	2958.324219
192.052811	30031.515625
202.152298	1752.627686
219.039459	2448.068604
233.055634	263316.78125
234.059616	19762.1875
280.206573	1624.382568
318.955994	6400.772461
360.968079	372520.25
361.971771	22168.189453
466.822113	1564.802246
589.052429	1600.844849
END IONS

BEGIN IONS
PEPMASS=447.06
CHARGE=1
MSLEVEL=2
SOURCE_INSTRUMENT=ESI-qTof
FILENAME=MSV000078567/ccms_peak/FDA_NIH_DrugLibrary/NCP003106_G2_H11_BB5_01_15708.mzXML
SEQ=*..*
IONMODE=Positive
ORGANISM=GNPS-NIST14-MATCHES
NAME=Spectral Match to Cefuroxime from NIST14 M+Na
PI=Data from Dorrestein
DATACOLLECTOR=Data deposited by negarg
SMILES=CO/N=C(/C1=CC=CO1)\C(=O)N[C@H]2[C@@H]3N(C2=O)C(=C(CS3)COC(=O)N)C(=O)O
INCHI=InChI=1S/C16H16N4O8S/c1-26-19-9(8-3-2-4-27-8)12(21)18-10-13(22)20-11(15(23)24)7(5-28-16(17)25)6-29-14(10)20/h2-4,10,14H,5-6H2,1H3,(H2,17,25)(H,18,21)(H,23,24)/b19-9-/t10-,14-/m1/s1
INCHIAUX=N/A
PUBMED=N/A
SUBMITUSER=mwang87
LIBRARYQUALITY=3
SPECTRUMID=CCMSLIB00003139846
USI=mzspec:GNPS:GNPS-NIST14-MATCHES:accession:CCMSLIB00003139846
SCANS=1092
45.670002	188.0
51.572498	144.0
55.960033	164.0
70.62973	148.0
78.487785	172.0
97.497665	140.0
111.006569	140.0
115.556564	180.0
116.004158	160.0
123.982605	152.0
126.05442	200.0
133.038391	364.0
133.095184	224.0
134.022141	288.0
136.429138	144.0
140.015182	160.0
140.678787	188.0
142.006226	160.0
143.516296	172.0
151.035233	136.0
151.972992	212.0
155.81723	156.0
157.029495	148.0
161.971115	152.0
162.054718	168.0
168.029968	148.0
168.983322	176.0
172.538605	156.0
173.034729	368.0
173.998184	512.0
175.005936	1524.0
176.00975	324.0
177.003647	144.0
177.040726	168.0
177.993332	748.0
178.999756	776.0
179.24823	160.0
181.056671	112.0
181.989929	168.0
184.03894	172.0
189.009262	168.0
190.016541	464.0
191.013412	116.0
191.043655	288.0
192.008347	1532.0
192.043396	172.0
193.012878	136.0
193.034836	144.0
194.009705	168.0
195.01384	148.0
195.979919	220.0
196.044022	184.0
197.001022	160.0
197.350372	152.0
200.016388	192.0
201.038589	156.0
201.789948	192.0
204.974609	332.0
205.014496	148.0
207.02565	180.0
209.058121	160.0
209.801239	184.0
210.017502	180.0
210.055008	152.0
211.601089	156.0
211.966034	144.0
217.011856	224.0
218.013519	280.0
220.928635	168.0
221.002594	164.0
222.000839	164.0
222.98671	248.0
231.035263	1656.0
232.026047	192.0
232.05542	172.0
242.029144	204.0
242.100357	160.0
243.037827	160.0
244.005539	180.0
244.058029	168.0
247.089996	144.0
249.038116	180.0
250.038727	144.0
253.000366	172.0
255.033691	144.0
262.000122	160.0
265.247803	188.0
266.036774	440.0
267.039276	400.0
270.259888	164.0
271.051636	140.0
275.008698	1060.0
276.013824	504.0
277.00473	148.0
278.063995	140.0
282.094818	176.0
282.853088	156.0
284.015778	140.0
285.049835	144.0
285.920807	148.0
286.651581	176.0
292.024261	216.0
292.075989	328.0
293.028259	216.0
293.037628	204.0
295.014679	164.0
296.014862	124.0
298.060364	876.0
299.063019	468.0
299.172485	152.0
299.416962	220.0
300.064758	164.0
306.065826	208.0
310.030609	144.0
311.032257	240.0
312.048187	112.0
313.041199	172.0
314.055634	2660.0
314.387817	152.0
314.603119	144.0
315.055298	372.0
316.065704	664.0
317.074829	328.0
317.107483	180.0
318.437958	148.0
320.069794	192.0
321.072968	156.0
323.104004	140.0
324.024109	188.0
325.552124	212.0
327.011749	236.0
328.575623	148.0
331.395691	192.0
333.558624	152.0
336.070709	360.0
339.551758	204.0
341.070343	200.0
341.93576	152.0
342.051636	12428.0
342.221802	148.0
343.05542	1716.0
344.048126	668.0
345.525024	144.0
349.075806	136.0
350.079376	304.0
355.01828	312.0
357.59317	212.0
357.950806	176.0
358.045227	504.0
358.10144	180.0
358.907898	140.0
359.076202	1288.0
360.063324	1548.0
360.17215	164.0
361.064819	288.0
362.002655	144.0
362.058228	220.0
363.067535	180.0
364.061188	152.0
366.073486	152.0
366.119171	176.0
367.617371	204.0
368.518494	184.0
385.091705	200.0
385.275299	148.0
386.041504	10432.0
386.673187	136.0
386.973846	144.0
387.045013	1336.0
388.041473	664.0
389.039978	180.0
390.044342	244.0
401.999481	112.0
403.06897	372.0
404.05484	156.0
405.073486	396.0
405.995636	132.0
406.050049	144.0
406.928833	188.0
410.0383	152.0
420.020477	312.0
421.02356	172.0
428.121399	172.0
429.149628	240.0
438.021729	148.0
439.032715	148.0
444.622314	104.0
447.057861	2452.0
447.428162	144.0
448.058624	852.0
448.992096	164.0
449.061707	192.0
449.267731	164.0
450.308167	216.0
1896.401611	172.0
END IONS

BEGIN IONS
PEPMASS=175.024
CHARGE=-1
MSLEVEL=2
SOURCE_INSTRUMENT=ESI-qTof
FILENAME=IROATECH_MSMLS_SCIEX_5600_TripleTOF.mgf
SEQ=*..*
IONMODE=Negative
ORGANISM=PSU-MSMLS
NAME=GLUCURONOLACTONE [M-H]-
PI=Andrew D. Patterson
DATACOLLECTOR=Philip Smith
SMILES=C(=O)[C@@H]([C@@H]1[C@@H]([C@@H](C(=O)O1)O)O)O
INCHI="InChI=1S/C6H8O6/c7-1-2(8)5-3(9)4(10)6(11)12-5/h1-5,8-10H/t2-,3+,4-,5+/m0/s1"
INCHIAUX=N/A
PUBMED=92283
SUBMITUSER=mpanitchpakdi
LIBRARYQUALITY=1
SPECTRUMID=CCMSLIB00005720669
USI=mzspec:GNPS:PSU-MSMLS:accession:CCMSLIB00005720669
SCANS=347
55.021	4.0
55.025188	6.0
57.037121	8.0
57.041382	6.0
59.014648	4.0
59.015732	4.0
59.017899	4.0
59.020069	6.0
71.017738	4.0
84.021156	4.0
85.030922	20.0
85.033531	16.0
86.975037	10.0
86.977676	4.0
86.980309	14.0
95.01255	4.0
113.024811	6.0
113.026314	6.0
113.029312	6.0
130.965988	10.0
130.967606	10.0
130.970825	8.0
174.965607	4.0
END IONS

BEGIN IONS
PEPMASS=307.18
CHARGE=1
MSLEVEL=2
SOURCE_INSTRUMENT=LC-ESI-qTof
FILENAME=C_fluorocurarine.mgf
SEQ=*..*
IONMODE=Positive
ORGANISM=MIADB
NAME=C-Fluorocurarine M+
PI=Beniddir/Le Pogam
DATACOLLECTOR=Sarah Szwarc
SMILES=CC=C1C[N+]2(CCC34[C@@H]2C[C@@H]1C(=C3NC5=CC=CC=C45)C=O)C
INCHI=InChI=1S/C20H22N2O/c1-3-13-11-22(2)9-8-20-16-6-4-5-7-17(16)21-19(20)15(12-23)14(13)10-18(20)22/h3-7,12,14,18H,8-11H2,1-2H3/p+1/t14-,18-,20?,22?/m0/s1
INCHIAUX=N/A
PUBMED=N/A
SUBMITUSER=jzemlin
LIBRARYQUALITY=3
SPECTRUMID=CCMSLIB00012474653
USI=mzspec:GNPS:MIADB:accession:CCMSLIB00012474653
SCANS=138
103.05378	0.051303
105.069412	0.054368
106.06572	0.028216
112.111252	0.04308
115.053818	0.130455
116.054321	0.033658
117.059044	0.077264
118.06459	0.03397
122.094994	0.030253
127.053551	0.079667
128.056976	0.130965
129.067596	0.093856
130.064804	0.301379
131.070404	0.040201
132.08046	0.026481
136.11142	0.035827
139.053116	0.052741
140.054153	0.051221
141.065308	0.043266
142.065399	0.043298
143.073151	0.083802
144.0802	0.140268
151.05365	0.038098
152.06105	0.120044
153.066864	0.050684
154.065002	0.207456
155.071487	0.08658
156.079987	0.109049
157.084854	0.029909
158.093079	0.034866
165.068863	0.086188
166.066422	0.152648
167.072968	1.0
168.079483	0.85177
169.082428	0.143043
170.083939	0.037272
178.070541	0.092521
179.075073	0.110429
180.080582	0.836277
181.085388	0.287699
182.091751	0.135895
183.089752	0.31878
184.08992	0.068315
185.105545	0.034868
190.067535	0.036286
191.072998	0.240819
192.080078	0.273205
193.087387	0.250566
194.095428	0.297063
195.097137	0.117948
196.102036	0.165132
197.104996	0.061671
198.113235	0.033902
203.075211	0.041457
204.080566	0.466634
205.086884	0.347707
206.094727	0.399975
207.101273	0.24576
208.10907	0.172832
209.108673	0.082239
210.113159	0.033108
216.081085	0.072613
217.088242	0.261302
218.095001	0.259274
219.100296	0.168778
220.108429	0.336619
221.111038	0.175614
222.124771	0.251425
223.125336	0.083877
224.12262	0.02704
230.095215	0.068278
231.101883	0.08065
232.109741	0.102683
233.113342	0.112295
234.110809	0.042686
234.123947	0.061147
235.119995	0.087701
236.140335	0.16047
237.143021	0.038335
243.099075	0.030242
246.125824	0.039937
247.124512	0.035263
248.14119	0.083607
249.138885	0.058558
250.127151	0.072296
251.132339	0.031958
259.12265	0.034559
261.135071	0.026322
264.141846	0.058321
279.183624	0.034169
307.180481	0.316699
308.183319	0.081001
END IONS

BEGIN IONS
PEPMASS=478.325
CHARGE=1
MSLEVEL=2
SOURCE_INSTRUMENT=LC-ESI-qTof
FILENAME=M24054_C8_Gentamycin-sulfate.mzXML
SEQ=*..*
IONMODE=Positive
ORGANISM=UM-NPDC
NAME=Gentamycin_20eV M+H
PI=Ashootosh Tripathi (UM-NPDC)
DATACOLLECTOR=Osama G. Mohamed
SMILES=CN[C@@H]([C@@H]1CC[C@H]([C@H](O1)O[C@@H]2[C@H](C[C@H]([C@@H]([C@H]2O)O[C@H]3OC[C@](O)([C@@H]([C@H]3O)NC)C)N)N)N)C
INCHI=N/A
INCHIAUX=N/A
PUBMED=N/A
SUBMITUSER=mpanitchpakdi
LIBRARYQUALITY=3
SPECTRUMID=CCMSLIB00005723272
USI=mzspec:GNPS:UM-NPDC:accession:CCMSLIB00005723272
SCANS=39642
72.080132	130.603577
102.233917	46.360001
113.082344	219.895462
113.121498	5.375
114.090652	363.866669
114.112595	45.969826
114.134094	6.0625
118.085899	954.206421
118.137154	5.125
126.089401	90.518677
139.123108	855.960022
139.169342	13.125
139.225815	5.0625
140.106094	408.252441
141.110489	266.953644
141.158218	9.166667
141.182983	29.881098
142.087326	233.001068
142.150116	12.208333
146.082657	261.49707
146.136307	5.225
157.133179	6168.173828
157.194138	50.049419
157.558807	26.066668
157.584396	65.111366
157.616974	8.035714
157.780975	35.315216
158.357529	82.851852
160.096649	3147.985107
160.153854	27.058823
160.562805	49.14674
160.580368	5.025
160.619446	13.375
160.796082	20.132353
161.096664	44.010418
163.108047	1176.622925
163.143616	40.25
163.200394	13.148809
163.355927	28.289286
164.111481	175.003906
168.616699	8.035714
208.534805	53.002552
227.139679	52.633774
270.177032	100.047104
302.207123	239.654495
319.857208	19.036291
322.197357	1887.096436
322.287872	15.0
344.310791	30.31579
441.621979	21.004032
460.031311	30.03409
461.156616	21.058823
461.296295	891.31427
461.380341	15.007353
461.444122	6.05
462.299713	306.983063
478.198273	31.142241
478.316864	61.56514
710.736328	18.605
END IONS

BEGIN IONS
PEPMASS=353.233
CHARGE=1
MSLEVEL=2
SOURCE_INSTRUMENT=LC-ESI-Orbitrap
FILENAME=tharwood/spectral_libraries/BERKELEY-LAB.mgf
SEQ=*..*
IONMODE=Negative
ORGANISM=BERKELEY-LAB
NAME=dinoprost CollisionEnergy:102040 M-H
PI=Trent Northen
DATACOLLECTOR=JGI
SMILES=CCCCCC(O)C=CC1C(O)CC(O)C1CC=CCCCC(=O)O
INCHI="InChI=1S/C20H34O5/c1-2-3-6-9-15(21)12-13-17-16(18(22)14-19(17)23)10-7-4-5-8-11-20(24)25/h4,7,12-13,15-19,21-23H,2-3,5-6,8-11,14H2,1H3,(H,24,25)/b7-4-,13-12+/t15-,16+,17+,18-,19+/m0/s1"
INCHIAUX=N/A
PUBMED=N/A
SUBMITUSER=mwang87
LIBRARYQUALITY=3
SPECTRUMID=CCMSLIB00010110520
USI=mzspec:GNPS:BERKELEY-LAB:accession:CCMSLIB00010110520
SCANS=8086
57.294491	2013.0
60.546719	2583.0
66.609009	2005.0
73.357132	2148.0
75.228088	2355.0
102.840492	2319.0
104.300217	2347.0
116.376442	2231.0
118.326332	2209.0
157.995407	3001.0
185.421814	2601.0
193.122742	2478.0
193.158401	2617.0
216.922607	4088.0
247.206497	3603.0
291.196259	3175.0
309.206696	28447.0
335.223145	3792.0
353.233093	242350.0
370.871155	4688.0
546.003113	2529.0
END IONS

BEGIN IONS
PEPMASS=810.427
CHARGE=1
MSLEVEL=2
SOURCE_INSTRUMENT=LC-ESI-Orbitrap
FILENAME=tharwood/spectral_libraries/BERKELEY-LAB.mgf
SEQ=*..*
IONMODE=Positive
ORGANISM=BERKELEY-LAB
NAME=Protoveratrine B CollisionEnergy:102040 M+H
PI=Trent Northen
DATACOLLECTOR=JGI
SMILES=CCC(C)C(=O)OC1C(O)C2C(CN3CC(C)CCC3C2(C)O)C2CC34OC5(O)C(OC(=O)C(C)(O)C(C)O)CCC3(C)C5C(OC(C)=O)C(OC(C)=O)C4C21O
INCHI="InChI=1S/C41H63NO15/c1-10-19(3)34(47)56-33-28(46)27-23(17-42-16-18(2)11-12-25(42)38(27,9)50)24-15-39-32(40(24,33)51)30(54-22(6)45)29(53-21(5)44)31-36(39,7)14-13-26(41(31,52)57-39)55-35(48)37(8,49)20(4)43/h18-20,23-33,43,46,49-52H,10-17H2,1-9H3/t18-,19+,20?,23-,24-,25-,26-,27+,28+,29-,30+,31-,32+,33-,36-,37?,38+,39+,40-,41-/m0/s1"
INCHIAUX=N/A
PUBMED=N/A
SUBMITUSER=mwang87
LIBRARYQUALITY=3
SPECTRUMID=CCMSLIB00010111984
USI=mzspec:GNPS:BERKELEY-LAB:accession:CCMSLIB00010111984
SCANS=9550
57.07029	54265.0
66.742668	5953.0
71.048813	8781.0
71.996193	4953.0
73.953773	5355.0
74.011467	4817.0
89.059212	8480.0
95.092216	4436.0
98.096291	74958.0
110.095596	19569.0
112.111847	71178.0
124.111519	21871.0
136.111252	7118.0
138.127441	42926.0
141.457031	5003.0
142.122223	26421.0
148.110977	5469.0
154.122391	274666.0
162.12674	33946.0
163.13504	5771.0
164.065125	4446.0
164.141998	31979.0
166.12236	6765.0
174.127258	6462.0
176.142532	10715.0
188.141663	6725.0
188.583679	4687.0
190.122284	10673.0
190.157349	5693.0
192.137375	32800.0
197.897171	5396.0
246.184921	4798.0
260.164856	6308.0
264.733246	6189.0
285.901398	5177.0
328.187225	8440.0
333.209351	5738.0
334.214569	10695.0
372.230927	8077.0
380.829376	5815.0
390.241852	52266.0
392.259216	5650.0
400.225098	12491.0
402.243774	5504.0
406.2565	69297.0
408.252991	67316.0
418.234528	56164.0
420.253967	8129.0
426.261108	27890.0
436.246063	165808.0
438.26416	5415.0
450.265778	6953.0
454.248718	93776.0
460.249329	5581.0
468.277893	10417.0
472.268433	34472.0
478.257843	34952.0
480.274017	10548.0
490.278137	149705.0
496.266998	121340.0
498.289276	6707.0
510.316895	30083.0
514.279419	117512.0
520.303711	8620.0
522.319641	10019.0
524.297791	6456.0
532.290039	8787.0
534.285217	24033.0
538.301025	71809.0
540.336182	75230.0
552.294617	91114.0
556.289001	113969.0
558.310608	8890.0
570.303894	67426.0
572.358765	24490.0
574.302368	40357.0
580.319397	12448.0
582.340027	46643.0
588.31665	20732.0
590.327698	6696.0
594.30603	20837.0
598.334534	133548.0
600.351624	83731.0
612.315308	102977.0
616.34552	69815.0
630.324585	79791.0
640.346313	84372.0
642.360413	33042.0
648.336243	21389.0
654.35675	86114.0
658.357056	1794016.0
659.35498	38063.0
660.375305	20657.0
672.36554	120743.0
676.367554	452023.0
690.349731	70121.0
696.369873	20054.0
708.357849	9628.0
714.381409	126859.0
732.395203	173348.0
750.404541	58328.0
774.402954	196772.0
780.37561	6388.0
792.414978	1826610.0
810.425659	13346663.0
END IONS

BEGIN IONS
PEPMASS=305.152
CHARGE=1
MSLEVEL=2
SOURCE_INSTRUMENT=LC-ESI-Orbitrap
FILENAME=tharwood/spectral_libraries/BERKELEY-LAB.mgf
SEQ=*..*
IONMODE=Positive
ORGANISM=BERKELEY-LAB
NAME=tubocurarine CollisionEnergy:102040 M+H]
PI=Trent Northen
DATACOLLECTOR=JGI
SMILES=COc1cc2c3cc1Oc1cc(ccc1O)CC1c4c(cc(OC)c(O)c4Oc4ccc(cc4)CC3N(C)CC2)CC[N+]1(C)C
INCHI="InChI=1S/C37H40N2O6/c1-38-14-12-24-19-32(42-4)33-21-27(24)28(38)16-22-6-9-26(10-7-22)44-37-35-25(20-34(43-5)36(37)41)13-15-39(2,3)29(35)17-23-8-11-30(40)31(18-23)45-33/h6-11,18-21,28-29H,12-17H2,1-5H3,(H-,40,41)/p+1/t28-,29+/m0/s1"
INCHIAUX=N/A
PUBMED=N/A
SUBMITUSER=mwang87
LIBRARYQUALITY=3
SPECTRUMID=CCMSLIB00010112220
USI=mzspec:GNPS:BERKELEY-LAB:accession:CCMSLIB00010112220
SCANS=9786
52.201519	2802.0
56.04974	3183.0
58.06562	1380420.0
59.06884	15734.0
89.784058	3250.0
92.054604	2765.0
103.216263	2479.0
107.049278	4724.0
116.573471	3058.0
118.657463	2988.0
121.063843	3098.0
133.06398	5122.0
137.059631	4678.0
147.080551	11074.0
158.071945	3798.0
159.080109	3440.0
174.06749	3257.0
174.090958	10683.0
175.099609	5220.0
176.107071	6571.0
191.759583	3198.0
192.348587	3139.0
207.079636	3277.0
207.690521	16755.0
219.290039	2809.0
229.084885	4826.0
235.075638	3416.0
241.08493	18144.0
253.085159	4122.0
254.093094	25399.0
255.10083	16693.0
265.085144	3203.0
266.609161	5405.0
267.101776	21004.0
267.989227	2941.0
279.098816	4507.0
282.622345	63805.0
283.125031	12839.0
283.629425	51013.0
284.131195	7073.0
285.073364	3133.0
289.628448	5696.0
290.637634	11431.0
297.640259	12130.0
305.151276	3500793.0
305.652679	718807.0
343.13327	3009.0
355.129364	3336.0
367.128632	3860.0
385.141663	3730.0
386.149475	4346.0
387.158417	11605.0
397.142151	3068.0
399.156952	14987.0
400.166534	3235.0
401.171997	5947.0
412.162811	6860.0
430.199677	15742.0
489.16629	5233.0
495.16983	4871.0
506.17392	4519.0
509.195404	37338.0
510.205627	3705.0
521.194641	90567.0
521.282166	3829.0
522.198669	17367.0
523.211914	17365.0
552.237549	619409.0
553.14679	5217.0
553.239868	120531.0
566.252197	76342.0
567.254639	13904.0
END IONS

BEGIN IONS
PEPMASS=654.229
CHARGE=1
MSLEVEL=2
SOURCE_INSTRUMENT=LC-ESI-Orbitrap
FILENAME=tharwood/spectral_libraries/BERKELEY-LAB.mgf
SEQ=*..*
IONMODE=Positive
ORGANISM=BERKELEY-LAB
NAME=bromocriptine CollisionEnergy:102040 M+H
PI=Trent Northen
DATACOLLECTOR=JGI
SMILES=CC(C)CC1C(=O)N2CCCC2C2(O)OC(N=C(O)C3C=C4c5cccc6[nH]c(Br)c(c56)CC4N(C)C3)(C(C)C)C(=O)N12
INCHI="InChI=1S/C32H40BrN5O5/c1-16(2)12-24-29(40)37-11-7-10-25(37)32(42)38(24)30(41)31(43-32,17(3)4)35-28(39)18-13-20-19-8-6-9-22-26(19)21(27(33)34-22)14-23(20)36(5)15-18/h6,8-9,13,16-18,23-25,34,42H,7,10-12,14-15H2,1-5H3,(H,35,39)/t18-,23-,24+,25+,31-,32+/m1/s1"
INCHIAUX=N/A
PUBMED=N/A
SUBMITUSER=mwang87
LIBRARYQUALITY=3
SPECTRUMID=CCMSLIB00010112455
USI=mzspec:GNPS:BERKELEY-LAB:accession:CCMSLIB00010112455
SCANS=10021
152.070526	53343.0
153.138107	10153.0
181.133484	127738.0
191.072311	27662.0
192.081665	5349.0
193.088638	7619.0
196.097305	4425.0
203.282578	5481.0
206.059982	182443.0
207.067963	646555.0
207.09082	68698.0
209.128235	91239.0
211.144257	114447.0
221.107117	114008.0
222.114853	198749.0
223.086273	49241.0
224.094101	105964.0
244.984131	4680.0
245.990067	7327.0
249.101715	19640.0
257.960388	5743.0
257.990692	146082.0
260.007324	6222.0
260.130432	8247.0
262.478577	4713.0
265.53653	4860.0
266.129059	46512.0
267.136627	22000.0
268.982697	58959.0
269.990936	43230.0
272.006592	25066.0
275.017639	265635.0
283.970795	8941.0
285.002594	18359.0
285.984833	435601.0
286.991638	5965.0
291.169891	408588.0
299.017303	164413.0
301.03302	2075401.0
302.04071	17960.0
303.012268	1216768.0
315.011932	44684.0
318.160187	7866.0
327.047791	17593.0
329.028137	97041.0
331.031128	39955.0
337.032257	6411.0
339.048645	63456.0
345.045471	9764.0
346.054443	2872014.0
347.163452	6651.0
355.043518	290843.0
366.49588	4697.0
373.054535	18395.0
383.0383	760359.0
398.085114	49827.0
426.080566	516471.0
462.175873	5074.0
513.249695	10624.0
556.291687	132006.0
557.297791	21019.0
593.175415	45513.0
608.220764	31681.0
611.185059	46736.0
618.202759	6744.0
636.217407	1587449.0
654.227966	10218072.0
658.58197	6906.0
END IONS

BEGIN IONS
PEPMASS=528.186
CHARGE=1
MSLEVEL=2
SOURCE_INSTRUMENT=LC-ESI-Orbitrap
FILENAME=tharwood/spectral_libraries/BERKELEY-LAB.mgf
SEQ=*..*
IONMODE=Positive
ORGANISM=BERKELEY-LAB
NAME=AC1MJ3VH CollisionEnergy:102040 M+H
PI=Trent Northen
DATACOLLECTOR=JGI
SMILES=COc1cccc2c1C(=O)c1c(O)c3c(c(O)c1C2=O)CC(O)(C(C)=O)CC3OC1CC(N)C(O)C(C)O1
INCHI="InChI=1S/C27H29NO10/c1-10-22(30)14(28)7-17(37-10)38-16-9-27(35,11(2)29)8-13-19(16)26(34)21-20(24(13)32)23(31)12-5-4-6-15(36-3)18(12)25(21)33/h4-6,10,14,16-17,22,30,32,34-35H,7-9,28H2,1-3H3/t10?,14?,16-,17?,22?,27-/m0/s1"
INCHIAUX=N/A
PUBMED=N/A
SUBMITUSER=mwang87
LIBRARYQUALITY=3
SPECTRUMID=CCMSLIB00010113575
USI=mzspec:GNPS:BERKELEY-LAB:accession:CCMSLIB00010113575
SCANS=11141
52.725441	2917.0
60.044762	4363.0
69.033829	27467.0
72.044769	36130.0
86.06028	72693.0
95.048782	6147.0
109.98259	2622.0
112.07489	5812.0
113.059624	46500.0
114.044983	2962.0
118.534126	2788.0
130.086182	129107.0
131.181046	2881.0
136.202469	3069.0
148.096176	15937.0
192.560837	2833.0
293.076813	3933.0
306.051483	63977.0
321.075104	1116778.0
345.074982	3903.0
355.290497	3582.0
363.08551	445053.0
365.136963	2880.0
381.095703	85958.0
399.108398	11272.0
528.18573	270808.0
END IONS

BEGIN IONS
PEPMASS=1083.47
CHARGE=1
MSLEVEL=2
SOURCE_INSTRUMENT=LC-ESI-Orbitrap
FILENAME=tharwood/spectral_libraries/BERKELEY-LAB.mgf
SEQ=*..*
IONMODE=Negative
ORGANISM=BERKELEY-LAB
NAME=plicamycin CollisionEnergy:102040 M-H
PI=Trent Northen
DATACOLLECTOR=JGI
SMILES=COC(C(=O)C(O)C(C)O)C1Cc2cc3cc(OC4CC(OC5CC(O)C(O)C(C)O5)C(O)C(C)O4)c(C)c(O)c3c(O)c2C(=O)C1OC1CC(OC2CC(OC3CC(C)(O)C(O)C(C)O3)C(O)C(C)O2)C(O)C(C)O1
INCHI="InChI=1S/C52H76O24/c1-18-29(72-34-14-30(43(58)21(4)68-34)73-33-13-28(54)42(57)20(3)67-33)12-26-10-25-11-27(49(66-9)48(63)41(56)19(2)53)50(47(62)39(25)46(61)38(26)40(18)55)76-36-16-31(44(59)23(6)70-36)74-35-15-32(45(60)22(5)69-35)75-37-17-52(8,65)51(64)24(7)71-37/h10,12,19-24,27-28,30-37,41-45,49-51,53-61,64-65H,11,13-17H2,1-9H3/t19-,20?,21?,22?,23?,24?,27+,28?,30?,31?,32?,33?,34?,35?,36?,37?,41+,42?,43?,44?,45?,49+,50+,51?,52?/m1/s1"
INCHIAUX=N/A
PUBMED=N/A
SUBMITUSER=mwang87
LIBRARYQUALITY=3
SPECTRUMID=CCMSLIB00010114561
USI=mzspec:GNPS:BERKELEY-LAB:accession:CCMSLIB00010114561
SCANS=12127
84.700439	4912.0
84.910103	4660.0
89.594101	4668.0
104.287392	6157.0
133.595047	5424.0
197.839874	5590.0
241.052124	6606.0
253.051178	6751.0
269.045685	831796.0
270.053162	92067.0
271.061401	42586.0
295.061707	5799.0
324.06665	19318.0
325.073822	11604.0
341.066498	83248.0
341.107544	5532.0
505.015259	5879.0
530.180969	104588.0
531.185364	47463.0
532.648926	5793.0
585.197998	11391.0
601.307129	6576.0
672.454468	6032.0
675.270081	26470.0
678.258301	10284.0
935.393616	1067830.0
1007.410767	30901.0
1039.44104	160645.0
1083.466064	2061921.0
END IONS

BEGIN IONS
PEPMASS=287.092
CHARGE=1
MSLEVEL=2
SOURCE_INSTRUMENT=LC-ESI-Orbitrap
FILENAME=tharwood/spectral_libraries/BERKELEY-LAB.mgf
SEQ=*..*
IONMODE=Negative
ORGANISM=BERKELEY-LAB
NAME=shikonin CollisionEnergy:102040 M-H
PI=Trent Northen
DATACOLLECTOR=JGI
SMILES=CC(C)=CCC(O)C1=CC(=O)c2c(O)ccc(O)c2C1=O
INCHI="InChI=1S/C16H16O5/c1-8(2)3-4-10(17)9-7-13(20)14-11(18)5-6-12(19)15(14)16(9)21/h3,5-7,10,17-19H,4H2,1-2H3/t10-/m1/s1"
INCHIAUX=N/A
PUBMED=N/A
SUBMITUSER=mwang87
LIBRARYQUALITY=3
SPECTRUMID=CCMSLIB00010114719
USI=mzspec:GNPS:BERKELEY-LAB:accession:CCMSLIB00010114719
SCANS=12285
54.409439	2322.0
60.54089	2323.0
87.759666	2012.0
92.382607	2548.0
117.015503	2718.0
136.220551	2798.0
147.161362	2484.0
190.026596	9477.0
218.022293	557831.0
287.092651	71233.0
287.129059	2969.0
287.167664	8837.0
287.228424	2741.0
398.281311	2456.0
END IONS

BEGIN IONS
PEPMASS=286.144
CHARGE=1
MSLEVEL=2
SOURCE_INSTRUMENT=LC-ESI-qTof
FILENAME=morphine.mgf
SEQ=*..*
IONMODE=Positive
ORGANISM=IQAMDB
NAME=Morphine M+H
PI=Beniddir/Le Pogam
DATACOLLECTOR=Le Pogam
SMILES=Oc1c2c([C@]34CCN5C)c(CC5[C@]3([H])C=C[C@@H]([C@@H]4O2)O)cc1
INCHI=InChI=1S/C17H19NO3/c1-18-7-6-17-10-3-5-13(20)16(17)21-15-12(19)4-2-9(14(15)17)8-11(10)18/h2-5,10-11,13,16,19-20H,6-8H2,1H3/t10-,11?,13-,16-,17-/m0/s1
INCHIAUX=N/A
PUBMED=N/A
SUBMITUSER=mpanitchpakdi
LIBRARYQUALITY=3
SPECTRUMID=CCMSLIB00008851323
USI=mzspec:GNPS:IQAMDB:accession:CCMSLIB00008851323
SCANS=1
103.054161	59499.640625
105.069656	37886.578125
107.049095	37056.171875
115.054214	307413.3125
115.061493	33126.890625
116.061913	31715.669922
117.069946	114388.898438
123.044037	73964.09375
127.054276	340267.90625
127.061821	35141.769531
128.062057	392151.3125
128.069534	37228.761719
129.069916	225728.0
129.077698	25419.169922
131.049225	92837.0625
132.056747	19367.550781
133.064804	18265.609375
139.054291	44146.351562
140.062073	32033.890625
141.069931	175567.40625
141.078156	21048.480469
143.049179	31404.349609
143.085556	32522.789062
144.057022	96745.273438
145.064941	111428.0
147.044174	185600.203125
147.052399	22269.589844
151.054382	81529.328125
152.06218	552690.375
152.069946	44553.199219
152.090958	21652.289062
153.070053	835393.6875
153.078552	56099.988281
153.099045	35189.21875
154.077759	89086.21875
155.04921	39164.300781
155.085587	269476.5
155.093781	29477.470703
156.056763	37228.160156
157.06488	577164.8125
157.073212	53600.949219
157.093964	23507.109375
158.072708	47399.511719
160.052017	45264.148438
161.059799	28850.679688
164.061996	30799.009766
165.070023	742131.625
165.078537	59386.671875
165.099976	31673.230469
166.077637	89872.101562
167.08548	28948.189453
168.057022	106399.203125
169.06485	79614.71875
170.072495	35117.710938
171.044128	135904.5
171.053024	19247.589844
171.080261	52468.5
172.052017	17045.380859
173.059647	59021.039062
178.077759	89176.710938
179.08551	36853.109375
181.064896	477751.90625
181.073761	45349.5
181.096069	22679.900391
182.072479	31051.009766
183.080597	81119.25
184.051865	189755.296875
184.061081	23648.599609
185.059738	139409.796875
185.068466	19126.589844
186.067444	21820.130859
189.069809	113317.0
190.077759	83911.65625
191.085434	78067.273438
193.064972	22848.929688
194.072678	59520.710938
197.059784	52790.238281
198.067535	49863.980469
199.075211	41667.191406
201.069855	21730.089844
201.090988	25593.580078
202.077499	19219.380859
209.059814	73372.59375
211.075455	37921.449219
218.072632	19142.580078
221.060043	20228.160156
227.070526	17861.160156
END IONS

BEGIN IONS
PEPMASS=605.2
CHARGE=1
MSLEVEL=2
SOURCE_INSTRUMENT=LC-ESI-qToF
FILENAME=delorazepam.mgf
SEQ=*..*
IONMODE=Positive
ORGANISM=DRUGS-OF-ABUSE-LIBRARY
NAME=Delorazepam M+H
PI=Barkholtz
DATACOLLECTOR=Pieters
SMILES=C1C(=O)NC2=C(C=C(C=C2)Cl)C(=N1)C3=CC=CC=C3Cl
INCHI="1S/C15H10Cl2N2O/c16-9-5-6-13-11(7-9)15(18-8-14(20)19-13)10-3-1-2-4-12(10)17/h1-7H,8H2,(H,19,20)"
INCHIAUX=N/A
PUBMED=17925
SUBMITUSER=Jzemlin
LIBRARYQUALITY=2
SPECTRUMID=CCMSLIB00009919307
USI=mzspec:GNPS:DRUGS-OF-ABUSE-LIBRARY:accession:CCMSLIB00009919307
SCANS=1
77.038696	14079.849609
91.053902	33410.578125
104.0494	18380.769531
105.055801	38735.921875
105.069603	43788.941406
107.049301	8184.919922
125.014801	35551.730469
135.044495	8647.589844
138.009995	28958.429688
140.025803	678925.5
142.023102	169367.265625
150.010498	24330.869141
158.047806	34038.828125
165.021103	212076.671875
166.005203	47142.269531
167.017899	69196.789062
178.064499	13562.950195
179.072296	120190.992188
180.080307	26793.730469
193.077194	9298.0
201.046204	120503.9375
205.075104	87196.289062
206.082794	341142.53125
207.089005	139663.375
214.041794	163529.59375
216.039597	34717.160156
221.200897	6134.589844
227.048401	69960.296875
228.044693	178696.109375
229.046295	39928.910156
230.042007	50832.960938
235.084106	12885.540039
237.232803	47783.441406
240.040894	7328.180176
241.051498	261619.046875
242.059296	326047.71875
243.053299	217219.96875
248.003098	8157.02002
252.044601	30811.570312
253.029297	6106.430176
269.047791	3747.870117
275.008087	4261.049805
276.017609	5757.259766
277.028412	74724.65625
278.024109	8937.830078
279.024994	37278.140625
300.292206	13549.049805
305.0242	3284245.75
305.098511	28535.839844
307.021515	2113058.75
307.094513	15959.25
309.018799	294261.53125
327.00769	23147.189453
329.003204	11378.740234
330.299286	23008.589844
349.198212	99471.476562
353.229095	52110.570312
354.282593	8334.860352
371.180389	3083.159912
375.215515	14559.389648
427.267792	15151.009766
END IONS

BEGIN IONS
PEPMASS=204.29
CHARGE=1
MSLEVEL=2
SOURCE_INSTRUMENT=LC-ESI-qToF
FILENAME=levamisole.mgf
SEQ=*..*
IONMODE=Positive
ORGANISM=DRUGS-OF-ABUSE-LIBRARY
NAME=levamisole M+H
PI=Barkholtz
DATACOLLECTOR=Pieters
SMILES=C1CSC2=NC(CN21)C3=CC=CC=C3
INCHI="1S/C11H12N2S/c1-2-4-9(5-3-1)10-8-13-6-7-14-11(13)12-10/h1-5,10H,6-8H2/t10-/m1/s1"
INCHIAUX=N/A
PUBMED=26879
SUBMITUSER=Jzemlin
LIBRARYQUALITY=2
SPECTRUMID=CCMSLIB00009919330
USI=mzspec:GNPS:DRUGS-OF-ABUSE-LIBRARY:accession:CCMSLIB00009919330
SCANS=1
88.020798	112862.421875
91.053398	440233.0625
103.053299	136236.34375
105.069199	209164.796875
106.066299	35999.808594
115.053497	341943.28125
117.062698	642440.0625
118.0644	490030.65625
123.025597	1182681.25
125.023003	32663.109375
127.053101	165119.625
128.059494	632698.0625
129.068604	474930.25
130.065094	637272.875
130.1586	648313.3125
132.079697	104026.5625
135.025208	98616.21875
144.0802	173897.015625
145.076004	202000.25
146.0952	343877.59375
148.020599	34263.960938
150.036194	139695.84375
178.067902	3978305.0
178.201599	26648.039062
180.064804	147287.90625
188.051804	77674.726562
205.078506	11968389.0
205.221603	309931.28125
205.335999	63028.449219
207.075699	582498.375
279.092407	304779.34375
END IONS

BEGIN IONS
PEPMASS=324.4
CHARGE=1
MSLEVEL=2
SOURCE_INSTRUMENT=LC-ESI-qToF
FILENAME=LSD.mgf
SEQ=*..*
IONMODE=Positive
ORGANISM=DRUGS-OF-ABUSE-LIBRARY
NAME=LSD M+H
PI=Barkholtz
DATACOLLECTOR=Pieters
SMILES=CCN(CC)C(=O)C1CN(C2CC3=CNC4=CC=CC(=C34)C2=C1)C
INCHI="1S/C20H25N3O/c1-4-23(5-2)20(24)14-9-16-15-7-6-8-17-19(15)13(11-21-17)10-18(16)22(3)12-14/h6-9,11,14,18,21H,4-5,10,12H2,1-3H3/t14-,18-/m1/s1"
INCHIAUX=N/A
PUBMED=5761
SUBMITUSER=Jzemlin
LIBRARYQUALITY=2
SPECTRUMID=CCMSLIB00009919337
USI=mzspec:GNPS:DRUGS-OF-ABUSE-LIBRARY:accession:CCMSLIB00009919337
SCANS=1
151.053406	25230.289062
152.061996	106121.09375
165.066406	26508.550781
167.072998	47314.289062
180.080795	196189.296875
182.089493	81041.953125
191.070999	43390.109375
192.080307	167761.640625
194.094101	100023.5
197.1082	130142.609375
205.077301	18713.609375
206.087296	23378.789062
207.090698	344595.5
208.100098	401268.0625
221.105499	110786.132812
223.122803	806819.375
251.1203	30801.109375
281.16571	99247.34375
324.207611	834291.0625
END IONS

BEGIN IONS
PEPMASS=266.4
CHARGE=1
MSLEVEL=2
SOURCE_INSTRUMENT=LC-ESI-qToF
FILENAME=Desipramine.mgf
SEQ=*..*
IONMODE=Positive
ORGANISM=DRUGS-OF-ABUSE-LIBRARY
NAME=Desipramine M+H
PI=Barkholtz
DATACOLLECTOR=Pieters
SMILES=CNCCCN1C2=CC=CC=C2CCC3=CC=CC=C31
INCHI="1S/C18H22N2/c1-19-13-6-14-20-17-9-4-2-7-15(17)11-12-16-8-3-5-10-18(16)20/h2-5,7-10,19H,6,11-14H2,1H3"
INCHIAUX=N/A
PUBMED=2995
SUBMITUSER=Jzemlin
LIBRARYQUALITY=2
SPECTRUMID=CCMSLIB00009919495
USI=mzspec:GNPS:DRUGS-OF-ABUSE-LIBRARY:accession:CCMSLIB00009919495
SCANS=1
72.0802	4719828.5
72.165398	175121.015625
72.232002	32149.279297
91.053497	70684.507812
105.069298	74805.523438
115.053497	96754.6875
116.1427	79624.101562
117.056503	47205.128906
118.064003	86170.039062
118.085403	95688.203125
128.048004	30402.75
130.064499	147044.515625
132.080093	24104.029297
139.053497	128459.820312
140.050003	68384.609375
143.072006	40832.199219
144.080002	68812.53125
145.087204	38488.449219
150.045807	47982.5
151.053101	84412.828125
152.060593	215114.5625
158.095306	96911.789062
162.045303	37705.460938
163.053497	459366.5625
165.069107	1215053.25
167.072998	620884.75
176.060593	60028.140625
177.061493	87812.671875
178.073898	506105.53125
180.080505	1038186.625
180.173798	39258.171875
181.085693	298303.21875
188.048401	32240.25
189.055695	75385.296875
190.064697	330280.75
191.072693	889134.6875
192.0802	1773724.625
193.088104	8485885.0
193.158798	24492.859375
193.2276	316456.875
193.336807	51552.460938
194.093307	2218221.5
195.101593	709553.3125
196.110794	888442.125
200.236404	825891.3125
201.045807	224791.03125
204.0802	201800.359375
206.095703	718478.875
207.950104	45392.449219
208.111603	8759060.0
208.168503	59868.980469
208.256393	249745.625
208.369797	19872.890625
210.119705	118667.15625
218.095398	46659.109375
220.111404	688292.1875
222.126297	238595.0
226.179306	37772.910156
234.126999	91172.84375
236.092606	21905.460938
236.142807	2833459.75
236.297195	37546.359375
238.149094	39750.070312
266.171387	65294.941406
267.185394	10667660.0
267.268402	137868.203125
267.348602	594925.875
267.415985	114837.492188
267.479095	235055.640625
267.532806	12053.959961
267.562805	114255.453125
267.642792	32666.089844
268.313385	13184.400391
268.3927	25270.509766
269.191406	225284.171875
269.365387	31837.960938
269.480988	18659.060547
279.092102	287587.375
279.202911	12447.0
282.086395	19866.640625
288.1539	54085.339844
325.083588	22834.009766
329.105713	41804.449219
331.104309	13533.150391
359.0448	28109.380859
361.040985	17402.539062
429.088013	20453.810547
END IONS

BEGIN IONS
PEPMASS=294.207
CHARGE=1
MSLEVEL=2
SOURCE_INSTRUMENT=LC-ESI-qTof
FILENAME=DMIM_centroided_library_abundance_filtered.mgf
SEQ=*..*
IONMODE=Positive
ORGANISM=DMIM-DRUG-METABOLITE-LIBRARY
NAME=PRAMOXINE [M+H]+
PI=Libin Xu
DATACOLLECTOR=Dylan H. Ross
SMILES=CCCCOC1=CC=C(C=C1)OCCCN2CCOCC2
INCHI=N/A
INCHIAUX=N/A
PUBMED=N/A
SUBMITUSER=jzemlin
LIBRARYQUALITY=3
SPECTRUMID=CCMSLIB00012465053
USI=mzspec:GNPS:DMIM-DRUG-METABOLITE-LIBRARY:accession:CCMSLIB00012465053
SCANS=31
55.045399	7404.0
56.052456	27602.0
57.058876	6562.0
58.066895	8427.0
59.021393	3538.0
65.038467	10722.0
67.056114	16554.0
68.051628	2689.0
69.047379	11282.0
70.067223	93988.0
71.06395	5614.0
72.082329	42520.0
73.059967	4346.0
74.054398	2506.0
76.024551	6337.0
77.040703	9233.0
79.052856	6661.0
80.048721	3032.0
81.059616	13294.0
82.063087	4944.0
83.05703	6550.0
84.063828	30947.0
85.02961	9686.0
86.064384	134429.0
87.057152	8642.0
88.07637	34901.0
89.054443	2855.0
91.055084	8817.0
93.045029	33714.0
94.053131	4004.0
95.058159	68884.0
96.059853	6937.0
97.033401	178811.0
98.078331	32861.0
98.242577	1519.0
99.024895	12531.0
99.927689	1382.0
100.082565	1682123.0
100.224174	55374.0
100.338066	34086.0
100.731377	1296.0
100.886497	30775.0
101.079697	126964.0
101.418694	1112.0
101.572418	7194.0
102.091576	31965.0
102.267448	1414.0
103.055397	4381.0
104.065407	1037.0
105.066864	16953.0
106.069328	2037.0
107.068336	15512.0
108.065979	4067.0
109.058075	35854.0
110.05336	16505.0
111.04892	15041.0
112.049843	5697.0
113.040115	22994.0
114.06955	6781.0
115.06015	5553.0
116.039734	6537.0
117.054695	3272.0
118.063469	1791.0
118.929222	2317.0
119.066994	10150.0
120.073708	5181.0
120.960701	2671.0
121.06263	23466.0
122.067909	4437.0
123.049492	468769.0
123.170418	2702.0
123.352493	1267.0
124.052383	34154.0
124.936867	1278.0
125.04821	14152.0
126.088356	12220.0
127.054291	7836.0
128.111313	392178.0
128.245819	4072.0
128.41127	2408.0
129.108551	40238.0
130.064911	12453.0
131.068649	5297.0
132.060364	1974.0
133.063278	16557.0
134.078903	4304.0
135.075699	16979.0
136.068771	17737.0
136.946106	17490.0
137.0737	18797.0
138.06488	5225.0
139.030624	24453.0
140.051971	3534.0
140.922272	1297.0
141.042831	5121.0
142.039948	18130.0
142.988968	5691.0
143.092789	3402.0
144.044525	3872.0
145.076508	5419.0
146.076614	1802.0
147.07309	9276.0
148.06337	3929.0
149.080627	13270.0
150.070312	5381.0
151.079865	217610.0
151.222	1855.0
151.39447	1163.0
152.078888	28229.0
152.898422	1008.0
153.056824	18711.0
154.083939	11223.0
155.057709	9794.0
156.070435	2929.0
157.082336	4426.0
158.087326	2248.0
158.941879	2603.0
159.096619	7581.0
160.095825	2469.0
161.071579	9740.0
162.04245	6034.0
162.94873	1058.0
163.07811	18915.0
164.081146	5283.0
164.932709	3836.0
165.062698	14804.0
166.072662	5838.0
167.053101	12377.0
168.061722	3792.0
169.060349	9244.0
170.054916	4474.0
171.078552	9929.0
172.096191	2248.0
172.988251	1872.0
173.101456	6715.0
174.086868	2031.0
174.940872	3239.0
175.07872	7466.0
176.052551	2020.0
176.954666	1141.0
177.069992	13426.0
178.08136	3453.0
178.956085	4479.0
179.104568	62014.0
180.101837	8031.0
180.906723	2946.0
181.076111	17031.0
182.08165	3477.0
183.067841	13489.0
184.076782	4782.0
185.064896	5493.0
186.080399	1733.0
186.210861	2818.0
187.09198	5573.0
188.077026	2297.0
189.073212	7856.0
190.091202	2025.0
191.077789	11386.0
192.083237	2566.0
192.956406	3330.0
193.081711	17777.0
194.08812	3510.0
194.946915	1617.0
195.086975	13438.0
196.091766	2814.0
196.913147	2079.0
197.08728	21820.0
198.095215	3494.0
198.893158	2078.0
199.063217	7593.0
200.102051	3560.0
200.940323	22571.0
201.105576	4870.0
202.092636	2095.0
202.918686	1065.0
203.077408	9289.0
204.084091	2425.0
205.085403	9181.0
206.087204	2843.0
207.101089	17085.0
208.121872	3021.0
209.085785	24434.0
210.094879	3834.0
211.002335	2180.0
211.108719	8987.0
212.115585	2537.0
213.089294	6525.0
214.113251	2408.0
214.874771	1767.0
215.031372	7922.0
215.148895	1628.0
216.092545	2756.0
216.919327	13464.0
217.081238	5553.0
218.076859	1820.0
218.955276	1803.0
219.100647	6349.0
220.104691	2324.0
220.937454	2985.0
221.106674	8910.0
222.097687	2947.0
222.922653	3015.0
223.09549	14988.0
224.099808	2357.0
225.087997	9285.0
226.112152	3368.0
227.075287	7805.0
228.109222	2673.0
229.099045	5424.0
230.113251	2358.0
230.909058	1745.0
231.069855	6993.0
232.092377	2196.0
232.885117	8150.0
233.085266	9869.0
234.116684	1808.0
234.989655	3643.0
235.114777	10991.0
236.113617	2376.0
236.982147	1239.0
237.110153	14110.0
238.141861	9613.0
238.913361	1956.0
239.1073	9806.0
240.103638	2136.0
240.211182	1921.0
240.912247	1257.0
241.096298	4873.0
242.144058	1935.0
243.098038	3400.0
244.1297	2039.0
245.086792	4789.0
246.077133	1153.0
246.94223	1328.0
247.11525	5437.0
248.114792	1794.0
248.929047	2093.0
249.091324	15248.0
250.111847	3455.0
250.974136	2160.0
251.109314	14520.0
252.109497	3676.0
253.007675	1238.0
253.124283	8746.0
254.101669	1960.0
254.856659	2436.0
255.121765	7351.0
256.139557	2394.0
257.085388	4036.0
258.138489	1957.0
258.928467	1140.0
259.121246	4103.0
260.131287	1216.0
261.138367	5229.0
262.146912	1886.0
262.948456	1157.0
263.134247	6023.0
264.117462	2396.0
264.938538	2370.0
265.121185	9506.0
266.132446	2216.0
266.990265	1575.0
267.117371	10159.0
268.126892	2639.0
269.12204	5428.0
270.128021	1325.0
270.321472	4131.0
271.131653	3779.0
271.299957	1314.0
272.1539	1342.0
273.012604	1155.0
273.141968	3592.0
274.105682	1757.0
275.156281	6247.0
276.146637	1386.0
276.974915	1134.0
277.144958	8743.0
278.142578	1907.0
278.987274	1305.0
279.133148	8005.0
280.147949	1783.0
281.120453	5870.0
282.124298	1865.0
282.870239	1287.0
283.122925	4693.0
285.116974	3066.0
286.04953	2268.0
287.159698	2707.0
288.151764	1317.0
288.998077	1275.0
289.150879	4736.0
290.163727	1607.0
291.156952	8343.0
292.174255	3119.0
293.154663	8782.0
294.035858	1048.0
294.215851	198894.0
294.407532	5158.0
294.549164	2670.0
294.67691	2398.0
294.923157	1201.0
295.08252	1430.0
295.211914	48312.0
295.439728	1806.0
295.624542	3332.0
296.150818	2426.0
END IONS

BEGIN IONS
PEPMASS=281.071
CHARGE=1
MSLEVEL=2
SOURCE_INSTRUMENT=LC-ESI-qTof
FILENAME=DMIM_centroided_library_abundance_filtered.mgf
SEQ=*..*
IONMODE=Positive
ORGANISM=DMIM-DRUG-METABOLITE-LIBRARY
NAME=SULFAMONOMETHOXINE [M+H]+
PI=Libin Xu
DATACOLLECTOR=Dylan H. Ross
SMILES=COC1=NC=NC(=C1)NS(=O)(=O)C2=CC=C(C=C2)N
INCHI=N/A
INCHIAUX=N/A
PUBMED=N/A
SUBMITUSER=jzemlin
LIBRARYQUALITY=3
SPECTRUMID=CCMSLIB00012465093
USI=mzspec:GNPS:DMIM-DRUG-METABOLITE-LIBRARY:accession:CCMSLIB00012465093
SCANS=71
55.03524	3096.0
56.053341	7232.0
57.011765	2412.0
58.020607	1079.0
59.002182	54906.0
60.014183	2061.0
60.997444	3448.0
62.996605	1356.0
65.04171	219708.0
66.043243	12600.0
67.049339	6262.0
68.023033	11249.0
69.050049	6156.0
70.049927	7669.0
71.013733	2864.0
72.0783	1981.0
73.023239	3377.0
74.038086	1614.0
76.025055	254430.0
77.03418	13022.0
78.022461	9340.0
79.042503	6263.0
80.052536	63198.0
81.05648	11041.0
82.032936	4292.0
83.044647	10264.0
84.048134	273969.0
85.037598	77218.0
86.059425	8221.0
86.995636	14992.0
88.025124	13211.0
89.02504	2993.0
90.03315	1483.0
91.054146	8694.0
92.055634	915645.0
92.260704	22447.0
92.8246	5686.0
93.058174	105391.0
94.062462	8189.0
95.059921	16303.0
96.053375	6697.0
97.034874	27411.0
98.022331	7168.0
99.017441	15143.0
100.036667	2580.0
101.041794	2182.0
102.055687	6990.0
103.041176	3089.0
104.064484	1950.0
105.064117	8539.0
106.065025	6131.0
107.071648	9657.0
108.04953	791345.0
108.179634	18808.0
108.324142	10065.0
108.881233	3641.0
109.052376	73764.0
110.062035	6673.0
111.046623	10137.0
112.037254	4855.0
113.022423	10804.0
114.040512	10000.0
115.056458	4264.0
116.021408	92951.0
117.039429	9669.0
118.040802	9501.0
118.94088	9716.0
119.074081	15621.0
120.064064	7167.0
121.045654	16728.0
122.062645	4675.0
123.053703	29273.0
124.051323	45294.0
125.045151	20945.0
126.070808	351001.0
126.196175	3701.0
126.37558	2168.0
127.064339	26142.0
128.060303	4035.0
129.07959	10281.0
130.056519	51632.0
131.065628	11065.0
132.078461	12634.0
133.064194	11756.0
134.065933	7219.0
134.942261	1082.0
135.064743	11680.0
136.06604	24738.0
136.955353	31959.0
137.07959	11747.0
138.052734	3261.0
139.020004	20846.0
140.03038	4499.0
141.047028	11942.0
142.037796	85158.0
143.043152	14431.0
144.026062	28780.0
145.066193	15884.0
146.070923	32520.0
147.069168	11847.0
148.065903	4240.0
149.060623	10431.0
150.078796	8894.0
151.049393	9723.0
152.061203	9180.0
152.936981	4054.0
153.049881	14713.0
154.057312	3715.0
155.043839	8707.0
156.017532	200989.0
156.167038	3374.0
156.34639	1624.0
157.029343	22017.0
158.042725	17570.0
158.965103	2913.0
159.084976	8993.0
160.086761	5291.0
161.055222	9463.0
162.03067	42618.0
163.053162	11614.0
164.049606	4866.0
164.934082	3376.0
165.058929	9094.0
166.064041	3411.0
167.050735	8148.0
168.061523	19042.0
169.05574	8190.0
170.051102	14810.0
171.069962	6323.0
172.073593	3501.0
173.065048	47750.0
174.072067	97555.0
174.89505	3924.0
175.075714	16079.0
176.079483	8490.0
177.062943	8757.0
178.071762	3099.0
179.061707	14360.0
180.067261	3825.0
180.929916	5922.0
181.068787	10709.0
182.080307	3588.0
182.920166	1551.0
183.064606	8038.0
184.069366	4289.0
185.063126	5400.0
186.094437	2875.0
186.916092	1645.0
187.067398	13828.0
188.02565	23527.0
189.046417	7103.0
190.058533	3816.0
190.867081	1266.0
191.067413	7427.0
192.064301	2030.0
192.949081	1829.0
193.071671	8374.0
194.078247	13675.0
195.077332	7607.0
196.075378	5812.0
196.901688	2130.0
197.079224	7518.0
198.075485	3677.0
198.895187	1398.0
199.052689	6799.0
200.067307	3304.0
200.921951	2598.0
201.047089	11934.0
202.064835	3057.0
202.911438	2347.0
203.07399	6502.0
204.08519	3029.0
204.922165	1374.0
205.08432	4550.0
206.011658	2282.0
206.11174	1101.0
207.082062	6611.0
208.086594	2578.0
209.078476	6604.0
210.090744	3001.0
211.065247	3864.0
212.088409	2047.0
212.897446	1014.0
213.069855	3475.0
214.087952	2063.0
214.906555	2519.0
215.095001	87278.0
216.093002	12314.0
216.914261	3482.0
217.098495	5182.0
218.096573	1847.0
218.948425	2541.0
219.099243	3609.0
220.08223	1654.0
220.929657	2268.0
221.097305	5061.0
222.087265	2288.0
222.91687	1322.0
223.079498	5662.0
224.090714	1876.0
225.065369	5790.0
226.08844	2167.0
227.062683	5341.0
228.087692	5700.0
229.094452	3026.0
230.095474	2193.0
231.087387	3679.0
232.092972	1676.0
232.882767	1653.0
233.082504	7354.0
234.081833	2027.0
235.100342	5120.0
236.111771	1518.0
237.107651	5016.0
238.112396	1351.0
238.893402	1409.0
239.083893	3483.0
240.08606	1815.0
240.883484	1128.0
241.081757	2362.0
242.076736	1242.0
243.1073	2281.0
244.073166	1809.0
245.072525	4660.0
246.059235	5181.0
247.09053	3122.0
248.050613	3811.0
249.108902	4362.0
250.060287	1411.0
251.081024	7181.0
252.105545	1638.0
253.127762	3728.0
254.142181	1368.0
254.85997	2163.0
255.083832	2488.0
256.061432	1598.0
256.882294	1022.0
257.078613	1436.0
259.123718	2057.0
260.032166	1266.0
260.871979	1277.0
261.019287	1192.0
261.123077	3165.0
262.129669	1258.0
263.126984	4156.0
264.123108	1281.0
265.112671	4157.0
266.11911	1196.0
267.113586	4007.0
269.109497	1435.0
270.120361	1427.0
270.828766	2354.0
271.119476	1602.0
272.11908	1272.0
273.115173	3368.0
275.133331	2550.0
277.126984	3334.0
278.042236	1041.0
279.11908	5561.0
280.109375	1314.0
281.088898	8257.0
282.096832	1474.0
END IONS

BEGIN IONS
PEPMASS=250.085
CHARGE=1
MSLEVEL=2
SOURCE_INSTRUMENT=LC-ESI-qTof
FILENAME=DMIM_centroided_library_abundance_filtered.mgf
SEQ=*..*
IONMODE=Positive
ORGANISM=DMIM-DRUG-METABOLITE-LIBRARY
NAME=METAPROTERENOL [M+K]+
PI=Libin Xu
DATACOLLECTOR=Dylan H. Ross
SMILES=CC(C)NCC(C1=CC(=CC(=C1)O)O)O
INCHI=N/A
INCHIAUX=N/A
PUBMED=N/A
SUBMITUSER=jzemlin
LIBRARYQUALITY=3
SPECTRUMID=CCMSLIB00012465155
USI=mzspec:GNPS:DMIM-DRUG-METABOLITE-LIBRARY:accession:CCMSLIB00012465155
SCANS=133
55.029865	3939.0
56.049839	2389.0
56.998837	2770.0
58.997284	9321.0
61.01046	1537.0
65.03376	1725.0
67.049522	6400.0
68.050812	1904.0
69.019707	8173.0
70.057785	4763.0
71.008957	3200.0
72.081169	2905.0
73.038971	2315.0
74.033913	1313.0
76.025375	18938.0
77.040878	24401.0
78.037888	3070.0
79.051689	16572.0
80.051376	8730.0
81.054359	11611.0
82.062614	4586.0
83.045853	10796.0
84.053268	35943.0
85.000961	14561.0
86.042763	7191.0
87.000076	5505.0
88.029053	3499.0
89.032188	2219.0
91.055855	15212.0
92.053078	4243.0
93.065353	11689.0
94.063972	3980.0
95.069191	12083.0
96.06424	4028.0
97.029427	18356.0
98.024925	6138.0
99.006836	11159.0
100.028908	2758.0
101.020378	2658.0
102.050034	1820.0
102.935326	1045.0
103.04464	3111.0
104.050827	1023.0
105.063362	13793.0
106.062546	5657.0
107.054581	114861.0
108.056496	18126.0
109.061607	16524.0
110.051643	17082.0
111.033485	9567.0
112.036942	4107.0
113.028847	11562.0
114.039597	4860.0
115.048019	6156.0
116.032074	17843.0
117.05397	7158.0
118.055031	2029.0
118.930649	21535.0
119.07589	9173.0
120.067039	4890.0
121.040398	14824.0
122.06382	4695.0
123.050644	25791.0
124.044273	8326.0
125.05925	59057.0
126.054024	5487.0
127.038933	5273.0
128.056885	4825.0
129.070557	7994.0
130.05983	11020.0
131.059219	7243.0
132.048203	5189.0
132.966202	1814.0
133.073868	10346.0
134.072113	6921.0
134.894318	1470.0
135.056107	14629.0
136.067322	24628.0
136.946915	30096.0
137.07486	13302.0
138.051117	3225.0
139.018967	15576.0
140.041138	3264.0
141.046082	9292.0
142.042709	22357.0
142.950577	1202.0
143.059692	6625.0
144.042786	6560.0
144.960098	1197.0
145.065567	8121.0
146.06601	4265.0
147.056793	9962.0
148.063141	3729.0
149.065338	9710.0
150.057587	4582.0
151.039978	9066.0
152.074295	32521.0
152.907272	2732.0
153.037033	14962.0
154.079803	4425.0
155.040878	8022.0
156.081879	3863.0
157.085312	4576.0
158.091034	3246.0
158.919327	1197.0
159.075226	7979.0
160.08049	4422.0
161.062088	10649.0
162.055496	24559.0
163.065735	10468.0
164.07431	9677.0
164.932907	1863.0
165.061905	8080.0
166.069717	2711.0
167.062683	6483.0
168.071213	2914.0
169.06749	4802.0
170.063507	4230.0
171.06572	4528.0
172.10257	2378.0
173.074295	6600.0
174.087234	3255.0
174.896622	4659.0
175.071121	5999.0
176.073059	3486.0
177.054092	9515.0
178.068497	3942.0
179.059204	8063.0
180.072571	3709.0
180.966339	7687.0
181.087875	3411.0
182.082703	1717.0
182.918198	1756.0
183.052307	4639.0
184.084824	2053.0
185.054825	5025.0
186.093414	2281.0
187.069534	7008.0
188.063919	2951.0
189.062164	5817.0
190.07579	1987.0
190.860886	1029.0
191.048141	7630.0
192.055725	2421.0
192.927628	1020.0
193.057541	7243.0
194.098251	3469.0
194.956573	1086.0
195.084213	4752.0
196.087082	2309.0
196.906387	2061.0
197.07991	3476.0
198.072006	2319.0
198.905869	2187.0
199.064682	4309.0
200.085129	2406.0
200.920746	2235.0
201.047302	9681.0
202.059799	2755.0
202.919312	3377.0
203.084534	3387.0
204.093811	3282.0
204.921646	1403.0
205.092194	3745.0
206.10994	2496.0
207.067886	5642.0
208.069046	2057.0
209.079971	4140.0
210.082581	2018.0
211.087219	3726.0
212.105133	2995.0
212.916718	1971.0
213.089355	1987.0
214.096558	2187.0
214.886353	2984.0
215.052475	3649.0
216.118271	2215.0
216.906448	5768.0
217.10434	3386.0
218.105316	1577.0
218.980469	3186.0
219.115143	2230.0
220.115097	1244.0
220.928391	2381.0
221.097641	3207.0
222.085449	1332.0
222.93071	1810.0
223.090698	3294.0
224.098083	1652.0
225.069199	2162.0
226.123825	1271.0
227.061249	1667.0
228.116089	1171.0
229.125137	1315.0
231.073288	2255.0
232.125763	2480.0
232.88179	1538.0
233.082703	3574.0
234.931107	1104.0
235.101913	3439.0
236.116058	1314.0
237.102844	2977.0
238.113434	1183.0
238.896042	1178.0
239.08461	2321.0
241.089508	1564.0
242.098221	1043.0
243.101944	1388.0
245.070694	2313.0
247.103683	1613.0
249.010406	3387.0
249.123825	1904.0
250.962845	1662.0
251.09819	2684.0
END IONS

BEGIN IONS
PEPMASS=211.124
CHARGE=1
MSLEVEL=2
SOURCE_INSTRUMENT=LC-ESI-qTof
FILENAME=DMIM_centroided_library_abundance_filtered.mgf
SEQ=*..*
IONMODE=Positive
ORGANISM=DMIM-DRUG-METABOLITE-LIBRARY
NAME=NAPHAZOLINE [M+H]+
PI=Libin Xu
DATACOLLECTOR=Dylan H. Ross
SMILES=C1(CC2=NCCN2)=CC=CC3=CC=CC=C13
INCHI=N/A
INCHIAUX=N/A
PUBMED=N/A
SUBMITUSER=jzemlin
LIBRARYQUALITY=3
SPECTRUMID=CCMSLIB00012465301
USI=mzspec:GNPS:DMIM-DRUG-METABOLITE-LIBRARY:accession:CCMSLIB00012465301
SCANS=279
55.03553	2193.0
56.048878	1521.0
56.976681	1407.0
59.003258	3280.0
63.023174	4005.0
65.038528	3573.0
67.050064	2447.0
68.045158	1414.0
69.044403	2806.0
70.055977	2633.0
71.01738	2632.0
73.008476	1360.0
74.022278	1397.0
76.027054	4658.0
77.038757	6442.0
78.045441	1224.0
79.042297	4425.0
80.052666	6126.0
81.053627	5689.0
82.049873	1512.0
83.047523	8494.0
84.055489	17638.0
84.994469	8975.0
86.039772	3447.0
87.012321	2211.0
89.039742	12738.0
90.035934	1232.0
91.055992	28141.0
92.053429	2831.0
93.064369	4286.0
94.062317	1072.0
95.063339	5738.0
96.044571	2797.0
97.024055	14535.0
98.025627	3777.0
99.000679	6534.0
100.030182	1328.0
101.019234	1628.0
102.048035	4556.0
102.995483	5690.0
104.062157	1273.0
105.065353	8440.0
106.0522	2728.0
107.065788	5342.0
108.052086	7635.0
109.062775	9729.0
110.064163	3159.0
111.031593	5602.0
112.031898	2417.0
113.027374	11548.0
114.044044	3896.0
115.058365	721591.0
115.187057	14498.0
115.344734	7832.0
115.900589	1969.0
116.059303	73637.0
117.061172	6456.0
118.064301	1668.0
118.927307	23561.0
119.075974	7534.0
120.062012	2922.0
120.967331	3870.0
121.069717	6694.0
122.063454	2418.0
122.936226	1279.0
123.052559	15430.0
124.039253	5240.0
125.021431	6507.0
126.04734	3094.0
127.052376	11900.0
128.063354	25716.0
129.072388	15760.0
130.06369	6222.0
131.059998	5333.0
132.056091	2510.0
132.938782	1245.0
133.071075	4912.0
134.078201	2139.0
134.915482	4887.0
135.065262	5983.0
136.065933	23538.0
136.942123	18270.0
137.070786	6023.0
138.04982	2152.0
138.453476	2587.0
139.047897	38193.0
140.058197	18892.0
140.931702	3154.0
141.076294	1747692.0
141.229507	116366.0
141.377579	44342.0
141.941162	15603.0
142.075165	373803.0
142.200043	6985.0
142.7043	1081.0
142.856445	23023.0
142.957733	2858.0
143.071701	22359.0
143.501999	1016.0
143.677414	9023.0
144.070862	3579.0
144.494034	2716.0
145.073303	5755.0
146.062714	2518.0
147.053314	5776.0
148.063065	2832.0
149.050735	5693.0
150.063873	3009.0
151.048111	9297.0
152.065231	24077.0
152.914124	4230.0
153.069366	41955.0
154.071167	12789.0
154.955368	1861.0
155.075592	12027.0
156.082123	10969.0
157.073395	6179.0
158.083023	2086.0
159.080078	4834.0
160.078003	2643.0
161.05864	5526.0
162.048996	3319.0
163.039078	3327.0
164.064224	2966.0
164.929855	1542.0
165.069351	20477.0
165.936096	1164.0
166.070633	46830.0
167.078186	52731.0
168.084976	44950.0
169.079147	7876.0
170.077942	5292.0
171.091324	2520.0
172.087708	1891.0
173.082809	3345.0
174.082733	1699.0
174.886948	3774.0
175.076385	3680.0
176.066055	2690.0
177.034393	5671.0
178.068527	3280.0
178.912643	1398.0
179.065979	5812.0
180.083237	8225.0
180.932663	6068.0
181.080795	10654.0
182.094193	12081.0
182.931503	2467.0
183.092102	10196.0
184.094208	2837.0
184.903259	1309.0
185.052887	4540.0
186.087814	1525.0
186.906433	1148.0
187.073242	2805.0
188.082031	1319.0
189.069412	4006.0
190.083038	1104.0
190.870499	1318.0
191.060486	3887.0
192.083801	3450.0
193.080399	6911.0
194.097137	7405.0
195.090179	7086.0
196.08844	1909.0
196.902008	2404.0
197.077484	2430.0
198.91803	2796.0
199.068283	1754.0
200.922836	2106.0
201.028381	3362.0
202.077271	1394.0
202.908936	4398.0
203.083679	2177.0
204.077789	1913.0
204.908859	1961.0
205.073776	2076.0
206.086716	1034.0
207.089676	4189.0
208.105103	10754.0
209.110214	22274.0
210.119415	8155.0
210.966782	1445.0
211.13063	472461.0
211.29335	16059.0
211.426682	10379.0
211.538666	4085.0
212.13382	107019.0
212.302933	7443.0
212.417114	4960.0
212.887589	2280.0
213.081818	1698.0
END IONS

BEGIN IONS
PEPMASS=455.038
CHARGE=1
MSLEVEL=2
SOURCE_INSTRUMENT=LC-ESI-qTof
FILENAME=DMIM_centroided_library_abundance_filtered.mgf
SEQ=*..*
IONMODE=Positive
ORGANISM=DMIM-DRUG-METABOLITE-LIBRARY
NAME=CEFAZOLIN [M+H]+
PI=Libin Xu
DATACOLLECTOR=Dylan H. Ross
SMILES=CC1=NN=C(S1)SCC2=C(N3[C@@H]([C@@H](C3=O)NC(=O)CN4C=NN=N4)SC2)C(=O)O
INCHI=N/A
INCHIAUX=N/A
PUBMED=N/A
SUBMITUSER=jzemlin
LIBRARYQUALITY=3
SPECTRUMID=CCMSLIB00012465305
USI=mzspec:GNPS:DMIM-DRUG-METABOLITE-LIBRARY:accession:CCMSLIB00012465305
SCANS=283
55.053383	3106.0
57.038986	1407.0
58.075157	1203.0
59.023735	1280.0
62.986034	1148.0
67.05397	2785.0
69.058708	4677.0
70.067108	5781.0
71.04467	2618.0
72.079475	2973.0
73.053864	1305.0
76.026237	2792.0
77.033401	2782.0
79.047867	2899.0
80.039635	2330.0
81.062088	7179.0
82.048508	1261.0
83.054314	4645.0
84.064697	10912.0
85.021492	7054.0
86.094429	7309.0
87.044273	1640.0
88.053436	1645.0
89.05294	1286.0
91.053772	9096.0
92.054039	1293.0
93.067451	5349.0
94.0597	1407.0
95.078201	11912.0
96.063454	2224.0
97.040359	30641.0
98.043861	3889.0
99.022522	8675.0
100.038513	4441.0
101.05439	3635.0
102.060173	2019.0
103.03112	2579.0
104.062302	1104.0
105.07177	51176.0
106.073105	5381.0
107.07341	9376.0
108.06424	4209.0
109.075882	16732.0
110.075142	5946.0
111.055069	12310.0
112.053375	5988.0
113.036186	9972.0
114.044609	2224.0
115.067642	3889.0
116.038292	4493.0
117.045189	2167.0
118.057274	1031.0
118.929405	2131.0
119.069229	7616.0
120.07225	6287.0
121.072937	21817.0
122.056221	5085.0
123.0578	65211.0
124.047333	8370.0
125.035286	15737.0
126.076004	8641.0
127.049294	5628.0
128.039383	4137.0
129.097961	12299.0
130.062759	5946.0
131.069107	3396.0
132.075806	1391.0
133.039932	9667.0
134.058395	2113.0
135.072693	10437.0
136.067322	25577.0
136.947189	19577.0
137.075058	23520.0
138.063583	5457.0
139.039688	27128.0
140.045929	4568.0
141.050812	4986.0
142.041565	7714.0
142.972412	6449.0
143.097458	2922.0
144.03389	3134.0
145.070724	5198.0
146.064224	1888.0
147.063965	8265.0
148.063614	2509.0
149.07692	11196.0
150.05864	4209.0
151.067001	12652.0
152.063004	4726.0
153.053406	18123.0
154.08168	15549.0
155.050262	11799.0
156.0215	23355.0
156.908051	1121.0
157.065399	5894.0
158.039734	2843.0
158.942566	3687.0
159.093384	5334.0
160.102661	1372.0
161.082779	8955.0
162.040085	6643.0
163.076813	15441.0
164.080154	5259.0
164.934433	7771.0
165.064743	17415.0
166.061584	6840.0
167.061569	13504.0
168.056274	4056.0
169.058914	8899.0
170.056915	3051.0
170.964111	1357.0
171.089752	4690.0
172.084564	1889.0
173.07196	8491.0
174.084137	2195.0
174.926834	3370.0
175.085266	8111.0
176.079742	3521.0
176.945938	1205.0
177.079056	12719.0
178.043991	7840.0
178.968796	1907.0
179.084442	23411.0
180.075226	5664.0
180.914597	4951.0
181.076202	22027.0
182.079681	3498.0
183.067322	15855.0
184.072159	3896.0
185.04982	5833.0
185.154724	1646.0
186.137573	2730.0
186.938095	1426.0
187.097458	5135.0
188.067642	2737.0
189.083725	6696.0
190.08519	2837.0
191.074738	13677.0
192.073441	3777.0
192.956787	3473.0
193.08429	23611.0
194.084412	5232.0
194.969162	1238.0
195.085083	17921.0
196.083725	4011.0
196.916718	2241.0
197.084015	35727.0
198.084274	4004.0
198.90361	3735.0
199.076447	6600.0
199.969055	1202.0
200.097183	3565.0
200.952164	6632.0
201.107422	5074.0
202.103683	1305.0
203.094513	9314.0
204.050903	2504.0
205.089371	11025.0
206.068832	3415.0
207.088989	16748.0
208.087891	3962.0
209.084305	32480.0
210.083389	5160.0
211.091507	11988.0
212.095291	3554.0
213.090042	6902.0
214.107086	2427.0
214.882004	1193.0
215.034882	7481.0
216.042236	2965.0
216.910828	21799.0
217.088135	6219.0
218.032166	1304.0
218.952332	2077.0
219.099228	8288.0
220.106003	2513.0
220.917999	2002.0
221.104706	14913.0
222.081268	3615.0
222.932098	1903.0
223.094009	23526.0
224.09697	3585.0
225.088821	14940.0
226.109848	3973.0
227.076004	7569.0
228.076065	2298.0
228.199554	1127.0
229.085281	5621.0
230.117325	1856.0
231.067856	8335.0
232.102417	2526.0
232.886429	6242.0
233.101593	11288.0
234.10614	3191.0
234.994156	2340.0
235.115387	15472.0
236.102066	3611.0
236.979401	1465.0
237.110992	17885.0
238.111267	3886.0
238.917847	2494.0
239.092834	12659.0
240.096786	2729.0
240.231049	3304.0
240.926651	1227.0
241.091782	5998.0
242.082932	1357.0
242.22226	2201.0
243.113678	3664.0
244.147629	1635.0
245.081635	6119.0
246.107254	1705.0
246.942993	1479.0
247.106262	6412.0
248.116959	2268.0
248.942734	2268.0
249.114822	13749.0
250.120972	2872.0
250.98999	1268.0
251.112915	22669.0
252.11731	4407.0
253.013931	1583.0
253.12413	13355.0
254.125214	3141.0
254.859024	3067.0
255.124313	11362.0
256.122833	2896.0
256.959534	1749.0
257.117523	4404.0
258.064606	1536.0
258.976562	1268.0
259.125793	3667.0
260.129028	1431.0
261.01535	1844.0
261.134583	7219.0
262.136261	2181.0
262.992004	1170.0
263.135803	9765.0
264.126984	2636.0
264.934998	2077.0
265.122101	11067.0
266.116547	2482.0
266.943939	1318.0
267.11969	17253.0
268.128387	4469.0
269.130432	11482.0
270.129395	2441.0
270.315491	1857.0
271.11261	5698.0
272.158325	1516.0
273.015717	1413.0
273.134033	4575.0
275.142242	8226.0
276.146637	2231.0
277.00354	1320.0
277.146942	10194.0
278.149445	2982.0
279.144318	10488.0
280.15152	2935.0
281.122162	9995.0
282.133759	2773.0
282.86438	1241.0
283.129333	8039.0
284.117371	2473.0
284.313507	1622.0
285.125671	3576.0
286.072205	1855.0
287.135254	4518.0
288.163574	1425.0
288.930359	2254.0
289.147888	7636.0
290.147614	1464.0
291.153229	10530.0
292.148315	1958.0
293.152527	12368.0
294.155212	3270.0
294.930573	1155.0
295.15274	13127.0
296.14856	2302.0
296.923187	1680.0
297.134644	4707.0
298.151215	1016.0
298.947632	3564.0
299.142731	3789.0
300.166595	1298.0
301.136475	4987.0
302.051819	2265.0
303.158508	5474.0
304.168518	1522.0
305.173523	9653.0
306.179291	2787.0
307.159393	13024.0
308.144989	3073.0
309.16095	10287.0
310.165314	2685.0
311.156738	6426.0
312.067444	3323.0
312.938202	2106.0
313.166565	3585.0
314.195862	1108.0
315.175781	4072.0
316.169678	1241.0
317.032471	2638.0
317.189514	5346.0
318.078278	1074.0
318.220123	1134.0
318.949127	1405.0
319.187866	11176.0
320.194305	3312.0
320.924469	1577.0
321.173187	10316.0
322.17804	3070.0
323.167358	9538.0
324.186523	2864.0
325.162567	5904.0
326.155731	1171.0
327.101013	8995.0
327.244202	3378.0
328.083191	2426.0
328.904419	2648.0
329.039703	1281.0
329.177673	3666.0
330.084961	2892.0
331.044067	1090.0
331.186432	6701.0
332.079285	1996.0
332.207397	1080.0
333.191284	9759.0
334.043793	1353.0
334.204132	1916.0
334.850403	1166.0
335.028656	1008.0
335.183838	11875.0
336.195007	2307.0
336.896851	1028.0
337.178253	7515.0
338.196686	2768.0
339.16449	5438.0
340.147705	1634.0
341.176086	3150.0
342.172791	1381.0
343.19519	4233.0
344.203461	1432.0
344.911377	1491.0
345.18576	5491.0
346.056976	3910.0
346.205139	1397.0
347.031952	3614.0
347.192902	9617.0
348.172333	2342.0
349.195282	10958.0
350.202057	2875.0
351.001282	1165.0
351.184021	8526.0
352.052094	1193.0
352.198792	2687.0
352.862305	1440.0
353.186005	5646.0
354.210663	1193.0
355.179626	3533.0
356.1763	1179.0
357.138458	1223.0
357.257385	6742.0
358.25708	1693.0
359.214355	5560.0
360.218536	1426.0
361.227081	9543.0
362.218597	2937.0
363.056915	1476.0
363.213104	10560.0
364.182648	2212.0
365.174713	12746.0
366.193085	2742.0
367.192627	6502.0
368.039368	2300.0
368.207855	1922.0
369.029419	1141.0
369.204529	3566.0
370.209137	1063.0
371.218811	4797.0
372.211426	1479.0
373.220886	5017.0
374.048859	2173.0
374.225311	1547.0
375.215851	8484.0
376.207428	1763.0
377.211426	11498.0
378.211731	2758.0
379.205658	11954.0
380.188385	2547.0
381.208496	9511.0
382.211639	2205.0
383.212341	5056.0
384.019287	1439.0
384.206757	1316.0
385.211426	3925.0
386.197296	1086.0
387.226807	4247.0
388.224731	1375.0
389.131195	1880.0
389.232544	10888.0
390.236115	3050.0
391.220184	11288.0
392.219482	2855.0
393.210236	13352.0
394.220398	3151.0
395.209473	10280.0
396.216431	2631.0
397.207214	7379.0
398.218048	2236.0
399.219238	4251.0
400.213348	1628.0
401.274078	4163.0
402.273376	1491.0
403.213867	5714.0
404.206024	1907.0
405.227539	9535.0
406.224304	2755.0
407.222382	11804.0
408.211609	2555.0
409.178986	63808.0
409.319092	1568.0
410.181274	14635.0
411.201965	9160.0
412.221069	2704.0
413.211548	4275.0
414.235901	1832.0
415.197113	2808.0
417.211029	3463.0
419.22467	5704.0
420.228546	1794.0
421.214294	11164.0
422.222748	2301.0
423.218323	8551.0
424.222656	1917.0
425.203522	7668.0
426.22052	1983.0
427.001038	2513.0
427.217163	3682.0
428.041626	1443.0
428.22879	1156.0
429.190002	1943.0
431.233887	2289.0
432.241913	1111.0
433.232178	2622.0
434.226562	1045.0
435.216125	4549.0
436.214966	1680.0
437.230438	9636.0
438.223969	2340.0
439.21048	4596.0
440.20401	1355.0
441.218536	2932.0
442.971344	1564.0
443.210144	1200.0
447.212524	1610.0
448.983246	1428.0
449.216644	2354.0
451.211792	2683.0
452.225403	1082.0
453.220367	2557.0
454.276428	1475.0
455.216644	1402.0
END IONS

BEGIN IONS
PEPMASS=247.181
CHARGE=1
MSLEVEL=2
SOURCE_INSTRUMENT=LC-ESI-qTof
FILENAME=DMIM_centroided_library_abundance_filtered.mgf
SEQ=*..*
IONMODE=Positive
ORGANISM=DMIM-DRUG-METABOLITE-LIBRARY
NAME=MEPIVACAINE [M+H]+
PI=Libin Xu
DATACOLLECTOR=Dylan H. Ross
SMILES=O=C(C1N(C)CCCC1)NC2=C(C)C=CC=C2C
INCHI=N/A
INCHIAUX=N/A
PUBMED=N/A
SUBMITUSER=jzemlin
LIBRARYQUALITY=3
SPECTRUMID=CCMSLIB00012465354
USI=mzspec:GNPS:DMIM-DRUG-METABOLITE-LIBRARY:accession:CCMSLIB00012465354
SCANS=332
55.044209	3551.0
56.05101	7522.0
57.018524	2463.0
58.998009	44051.0
60.023426	1173.0
61.004417	2484.0
67.053398	4730.0
68.051239	4379.0
69.053474	4122.0
70.067604	89922.0
71.041618	6632.0
72.077286	1814.0
73.021721	1817.0
74.030907	1274.0
76.024582	199745.0
77.034355	8416.0
78.020493	7225.0
79.040459	5318.0
80.051559	11195.0
81.051903	7824.0
82.05896	2840.0
83.054459	9939.0
84.048126	222660.0
85.014824	18462.0
86.054245	5302.0
86.996552	13555.0
88.025307	10021.0
89.014732	1841.0
91.053207	7049.0
92.056091	1197.0
93.065933	5266.0
94.06221	1463.0
95.065536	9182.0
96.07402	8763.0
97.029236	18775.0
97.972107	1342.0
98.102737	909886.0
98.300247	35842.0
98.830887	4324.0
98.945793	16354.0
99.098045	77801.0
99.569641	3265.0
100.068512	4176.0
101.02549	2377.0
102.058075	5865.0
103.041801	1821.0
104.060837	1747.0
105.064865	10992.0
106.057022	2477.0
107.07077	9776.0
108.054291	10589.0
109.061653	11307.0
110.071411	4859.0
111.034599	8509.0
112.041916	4124.0
113.01899	9498.0
114.040565	9328.0
115.05246	4670.0
116.021652	78413.0
117.033333	8938.0
118.025414	4606.0
118.937653	10323.0
119.077919	7224.0
120.070206	4253.0
121.047577	14958.0
122.071068	4536.0
122.958046	1374.0
123.058296	25110.0
124.040207	9006.0
125.030441	9884.0
126.034012	2162.0
127.04055	5023.0
128.056915	3000.0
129.083725	7077.0
130.055908	40403.0
131.062775	8145.0
132.068649	4377.0
133.062622	7233.0
134.083115	2214.0
135.064468	8997.0
136.066605	21205.0
136.947784	25382.0
137.077744	8978.0
138.055374	3104.0
139.019547	16965.0
140.038879	2885.0
140.923187	1114.0
141.048813	11106.0
142.037704	76591.0
143.043228	10348.0
144.023483	25086.0
145.065002	7906.0
146.054626	4703.0
147.057663	9186.0
148.056381	3114.0
149.059677	7873.0
150.084579	7450.0
151.060532	6618.0
152.052567	4070.0
152.906982	1466.0
153.036057	10960.0
154.061462	3287.0
155.036041	6508.0
156.082794	2562.0
157.060394	4943.0
158.095551	3599.0
158.917038	1296.0
159.076202	5864.0
160.074265	3102.0
161.059921	9908.0
162.028336	36085.0
163.048309	8856.0
164.044205	4321.0
164.934372	2394.0
165.057877	7955.0
166.058411	2625.0
167.055603	6277.0
168.054245	2849.0
169.045624	6371.0
170.040665	8759.0
171.065231	5024.0
172.076447	2470.0
173.065521	5414.0
174.075897	2149.0
174.887482	4228.0
175.072083	6097.0
176.054672	3505.0
177.053543	7784.0
178.073746	2238.0
179.056992	12674.0
180.080231	2914.0
180.907669	2611.0
181.046463	9560.0
182.088211	1852.0
182.925858	1183.0
183.07045	4635.0
184.077515	2421.0
185.070389	4700.0
186.085648	2045.0
186.914246	1246.0
187.066376	11530.0
188.055573	5138.0
189.054337	5230.0
190.080811	1702.0
191.072021	6158.0
192.078613	1736.0
192.938538	1387.0
193.0746	6743.0
194.078613	1811.0
195.07576	5399.0
196.095673	1636.0
196.904984	1537.0
197.084061	4436.0
198.06485	1591.0
198.894714	1652.0
199.058029	5637.0
200.073532	1532.0
200.919846	2240.0
201.04303	11933.0
202.07222	2574.0
202.918716	2140.0
203.086716	4039.0
204.077225	2550.0
204.921219	1513.0
205.077438	3647.0
206.064148	1819.0
207.079086	5432.0
208.103485	1511.0
209.07843	6244.0
210.08725	1403.0
211.098114	3160.0
212.094452	1246.0
213.064163	2479.0
214.088455	1887.0
214.881638	2150.0
215.05835	5881.0
216.054901	2283.0
216.905304	4301.0
217.07341	2154.0
218.942383	2781.0
219.097458	3295.0
220.933334	1982.0
221.104141	4164.0
222.093521	1678.0
222.920212	1148.0
223.085281	5088.0
224.082138	1127.0
225.115997	2546.0
226.110123	1666.0
227.065277	3017.0
228.091354	1176.0
229.07872	1840.0
231.064697	2592.0
232.102158	1419.0
232.886383	1466.0
233.083023	5435.0
234.087372	1578.0
235.098495	4599.0
236.112946	1364.0
237.090897	4147.0
238.120209	1566.0
238.889801	1450.0
239.082001	3049.0
240.094131	1157.0
241.063416	1396.0
243.067505	1273.0
245.070572	5480.0
246.073578	1266.0
247.131775	2159.0
249.1035	2924.0
END IONS

BEGIN IONS
PEPMASS=281.186
CHARGE=1
MSLEVEL=2
SOURCE_INSTRUMENT=LC-ESI-qTof
FILENAME=DMIM_centroided_library_abundance_filtered.mgf
SEQ=*..*
IONMODE=Positive
ORGANISM=DMIM-DRUG-METABOLITE-LIBRARY
NAME=MEFEXAMIDE [M+H]+
PI=Libin Xu
DATACOLLECTOR=Dylan H. Ross
SMILES=CCN(CC)CCNC(=O)COC1=CC=C(C=C1)OC
INCHI=N/A
INCHIAUX=N/A
PUBMED=N/A
SUBMITUSER=jzemlin
LIBRARYQUALITY=3
SPECTRUMID=CCMSLIB00012465840
USI=mzspec:GNPS:DMIM-DRUG-METABOLITE-LIBRARY:accession:CCMSLIB00012465840
SCANS=818
55.041023	3540.0
56.052689	15218.0
57.056244	13147.0
58.066612	9833.0
58.999039	44552.0
60.022213	1467.0
61.000252	2058.0
65.040192	4554.0
66.047508	1796.0
67.051323	6309.0
68.048271	1655.0
69.047333	7502.0
70.062767	7205.0
71.047859	4326.0
72.0746	28905.0
73.045395	3955.0
74.097824	45760.0
75.088127	3197.0
76.024086	257952.0
77.038795	45601.0
78.026932	12078.0
79.054314	26296.0
80.048355	13486.0
81.064583	17482.0
82.051193	2257.0
83.052765	7351.0
84.047714	278939.0
84.932022	1069.0
85.055557	820969.0
85.187119	1867.0
85.293968	7460.0
85.671028	1138.0
86.096146	487584.0
86.351425	2915.0
86.990608	10270.0
87.093231	22780.0
88.029724	11053.0
89.011574	2297.0
91.053467	11357.0
92.040215	3680.0
93.066635	8393.0
94.045013	14428.0
95.054939	88148.0
96.054962	7386.0
97.031601	177586.0
98.032608	11960.0
99.041443	16639.0
100.113663	110059.0
101.101883	7183.0
102.058838	8358.0
103.042732	3619.0
104.052979	1881.0
105.043007	27470.0
106.0588	4421.0
107.05809	30932.0
108.055061	7362.0
109.065224	137788.0
110.063507	12093.0
111.04673	10881.0
112.040077	4945.0
113.032394	21865.0
114.038712	9193.0
115.059464	5707.0
116.02005	76417.0
117.039215	6441.0
118.041573	7053.0
118.921646	2206.0
119.06562	14220.0
120.069817	12707.0
120.95549	2329.0
121.060097	32351.0
122.048584	9648.0
123.04792	467364.0
123.167107	2934.0
123.347847	1271.0
124.052101	88459.0
125.042686	17997.0
126.044792	2603.0
127.035591	6483.0
128.054672	1619.0
129.093521	10120.0
130.05603	59885.0
131.07103	19842.0
132.056961	8632.0
133.050659	26986.0
134.064087	10701.0
134.493942	1063.0
135.072037	17979.0
136.072067	25647.0
136.932022	11345.0
137.064194	990645.0
137.209854	32305.0
137.370224	14598.0
137.928375	2583.0
138.064529	115315.0
138.82164	1535.0
139.037796	31660.0
140.053696	3111.0
141.050797	9625.0
142.035965	83541.0
143.035187	12136.0
144.018509	24973.0
145.05896	9602.0
146.054886	7461.0
147.069839	55080.0
148.076126	52068.0
149.061844	31528.0
150.062912	6611.0
151.066238	12843.0
152.064697	14980.0
153.055786	21836.0
154.059402	4039.0
155.052246	7773.0
156.049362	3303.0
157.083984	4699.0
158.119888	4123.0
158.947296	1900.0
159.085632	8878.0
160.072311	3863.0
161.067352	11025.0
162.068863	128710.0
163.068832	56076.0
164.067474	17754.0
164.933624	4773.0
165.063065	14670.0
166.05899	4916.0
167.053787	11312.0
168.053116	7577.0
169.055496	8239.0
170.043625	9606.0
171.07576	10947.0
172.072876	3252.0
173.069122	7836.0
174.06929	2688.0
174.8983	2355.0
175.067505	13692.0
176.07431	25043.0
177.068558	19217.0
178.077621	4270.0
178.925354	1057.0
179.052185	20753.0
180.094742	10619.0
180.908707	3643.0
181.073257	17683.0
182.072952	4553.0
183.069183	12000.0
184.062469	4247.0
185.067856	7345.0
186.099899	2584.0
186.918228	1223.0
187.067963	12979.0
188.057373	4435.0
189.0681	6633.0
190.087585	16402.0
191.074768	12951.0
192.072296	3439.0
192.940201	1700.0
193.075409	45060.0
194.078659	8686.0
195.076965	11126.0
196.096954	2402.0
196.905121	3046.0
197.084122	20398.0
198.088959	3349.0
199.050354	8158.0
199.995499	1847.0
200.113678	1350.0
200.942764	19948.0
201.100662	4203.0
202.090668	1880.0
203.064163	21382.0
204.080338	2337.0
205.08342	6174.0
206.02092	3108.0
207.080276	8380.0
208.10257	466967.0
208.264954	14911.0
208.397614	9173.0
208.507599	4305.0
209.101227	100857.0
209.278519	6992.0
209.402283	3015.0
210.107895	14388.0
210.278854	3117.0
211.099808	8323.0
211.274948	1215.0
212.088486	2071.0
213.092667	6076.0
214.087006	1789.0
215.036484	14703.0
216.041245	4356.0
216.990463	7171.0
217.125473	3303.0
218.095367	1395.0
218.943283	1504.0
219.097717	5648.0
220.090775	1649.0
220.931519	2088.0
221.097885	7116.0
222.103561	1873.0
222.918381	1510.0
223.084488	11180.0
224.09964	2185.0
225.09166	6445.0
226.106201	1765.0
227.068649	9091.0
228.090012	4409.0
229.101486	4783.0
230.102951	1232.0
231.084366	5325.0
232.092575	1736.0
232.886871	1458.0
233.079224	12048.0
234.075424	3007.0
234.958511	2790.0
235.105881	8778.0
236.12587	2046.0
237.104935	8745.0
238.107407	2429.0
238.904602	1757.0
239.093796	6193.0
240.071823	1767.0
240.204514	1352.0
241.067856	2897.0
243.099777	2540.0
244.097275	1480.0
245.07579	6676.0
246.095428	1251.0
247.117462	6023.0
248.131165	2104.0
249.095901	12783.0
250.110199	2609.0
251.087646	15595.0
252.095459	2945.0
253.115387	7710.0
254.12056	1688.0
254.855392	3117.0
255.113068	4997.0
256.069244	1613.0
256.926239	1129.0
257.095306	2813.0
258.867584	1053.0
259.125549	3387.0
260.125	1369.0
261.132629	5035.0
262.11554	1672.0
263.136017	6889.0
264.133606	1132.0
265.123718	7745.0
266.116791	2475.0
267.109863	7229.0
268.073578	1865.0
269.126953	3028.0
270.133331	1299.0
271.115662	2187.0
272.157135	1190.0
273.032196	1463.0
273.137115	2989.0
274.125671	1030.0
275.135956	5934.0
276.159943	1680.0
277.144135	7791.0
278.140442	1977.0
279.13504	7277.0
280.14502	1646.0
281.172913	14679.0
282.181854	3207.0
282.878967	1206.0
283.129028	2666.0
END IONS

BEGIN IONS
PEPMASS=456.065
CHARGE=1
MSLEVEL=2
SOURCE_INSTRUMENT=LC-ESI-qTof
FILENAME=DMIM_centroided_library_abundance_filtered.mgf
SEQ=*..*
IONMODE=Positive
ORGANISM=DMIM-DRUG-METABOLITE-LIBRARY
NAME=CEFOTAXIME [M+H]+
PI=Libin Xu
DATACOLLECTOR=Dylan H. Ross
SMILES=O=C1N2[C@]([C@@H]1N([H])C(/C(C3=CSC(N([H])[H])=N3)=N/OC)=O)([H])SCC(COC(C)=O)=C2C(O)=O
INCHI=N/A
INCHIAUX=N/A
PUBMED=N/A
SUBMITUSER=jzemlin
LIBRARYQUALITY=3
SPECTRUMID=CCMSLIB00012465899
USI=mzspec:GNPS:DMIM-DRUG-METABOLITE-LIBRARY:accession:CCMSLIB00012465899
SCANS=877
55.049694	2722.0
57.058739	3150.0
58.06641	2333.0
60.072117	1044.0
67.053764	2381.0
69.062019	4063.0
70.064789	5564.0
71.071564	2628.0
72.055946	4279.0
73.049194	1463.0
74.061722	1050.0
76.024635	2248.0
79.034309	1964.0
80.044449	4580.0
81.063721	6212.0
83.06118	4684.0
84.059639	6098.0
85.034271	7631.0
86.089043	7596.0
87.040588	1232.0
88.06118	1512.0
89.057167	1709.0
91.053215	5929.0
93.062637	3616.0
94.060135	1293.0
95.076843	13226.0
96.060722	2758.0
97.041779	21540.0
98.023827	4271.0
99.016685	12476.0
100.031517	4572.0
101.045914	4000.0
102.029884	2369.0
103.027382	1531.0
104.056229	1241.0
105.064156	11870.0
106.050247	2650.0
107.067238	10242.0
108.059647	3435.0
109.0821	16813.0
110.069031	5033.0
111.05262	10714.0
112.035194	20422.0
113.040283	7302.0
114.015846	6282.0
115.065659	4003.0
116.043404	2690.0
117.050453	1689.0
119.06794	5504.0
120.074982	4577.0
121.071518	20509.0
122.054436	5384.0
123.053955	70241.0
124.036835	15718.0
125.010635	114222.0
126.014755	91821.0
126.133453	1203.0
127.023773	23359.0
128.01329	8902.0
129.087753	9103.0
130.059235	5253.0
131.057617	3402.0
132.065262	1581.0
133.049301	8743.0
134.051331	3528.0
135.080566	8748.0
136.06221	12004.0
136.933502	6105.0
137.063904	32608.0
138.049149	10205.0
139.040665	35159.0
140.02475	28406.0
141.012054	36708.0
142.031952	6760.0
142.974915	7562.0
143.095322	2272.0
144.04866	1847.0
145.061462	5046.0
146.065933	1332.0
147.054016	8007.0
148.057755	2295.0
148.974228	1068.0
149.080124	10538.0
150.051575	3897.0
151.06691	12354.0
152.031189	11529.0
153.05011	16085.0
154.051224	4536.0
155.059692	12929.0
156.025223	56408.0
157.044556	7880.0
158.031815	5576.0
158.941452	2597.0
159.093735	6124.0
160.063766	1389.0
161.08403	6733.0
162.038406	5165.0
163.078995	16464.0
164.073837	5841.0
164.931793	6524.0
165.061539	20968.0
166.041412	17350.0
167.036102	61155.0
168.033875	10961.0
169.054901	12755.0
170.049316	4831.0
171.076813	5613.0
172.067505	2465.0
173.004608	1885.0
173.104996	5309.0
174.074295	2200.0
174.95401	3520.0
175.085587	6664.0
176.059509	2889.0
177.078064	18007.0
178.073837	3807.0
179.075592	29075.0
180.062469	8030.0
180.91539	3225.0
181.06778	41427.0
182.037292	15759.0
183.054367	29371.0
184.034653	12661.0
185.045822	7059.0
185.154938	1405.0
186.050507	1904.0
186.18071	1124.0
186.945038	1014.0
187.095703	4669.0
188.068436	2180.0
189.078461	6286.0
190.054398	2900.0
191.075577	15320.0
192.070038	4204.0
192.960251	2203.0
193.071426	32446.0
194.071609	6619.0
194.971527	1913.0
195.081711	25474.0
196.059341	5458.0
196.909714	2152.0
197.07959	50686.0
197.195419	1280.0
198.075424	7300.0
199.059204	8264.0
200.005463	13941.0
200.134415	1484.0
200.964203	7551.0
201.094299	6074.0
202.046432	3745.0
203.089706	8543.0
204.070312	2977.0
205.088699	11387.0
206.080948	3753.0
207.095551	18563.0
208.098572	3766.0
209.0681	45887.0
210.033875	16977.0
211.046478	35738.0
211.150436	1657.0
212.020615	10712.0
212.139633	1173.0
213.068375	11321.0
213.175735	1106.0
214.025314	3473.0
215.008667	2581.0
215.126663	5393.0
216.045853	4067.0
216.922211	4757.0
217.087326	7114.0
218.056488	3808.0
219.104004	10569.0
220.090729	2871.0
220.985413	1521.0
221.107849	18291.0
222.097839	3833.0
222.958755	1267.0
223.094177	25241.0
224.067581	6663.0
225.082687	30076.0
226.019379	7360.0
226.13591	3282.0
227.017212	39611.0
227.144073	1378.0
228.021698	4792.0
229.019455	5489.0
229.143509	2468.0
230.068695	3030.0
231.073837	10573.0
232.067368	8766.0
232.946915	1655.0
233.099838	13420.0
234.077484	3994.0
235.010971	3315.0
235.11557	19923.0
236.007904	1225.0
236.121994	4442.0
236.982697	1347.0
237.114273	26944.0
238.117798	4963.0
238.909592	1150.0
239.097488	18988.0
240.091599	2257.0
240.233505	11151.0
241.059052	12986.0
241.210526	2486.0
242.075699	2557.0
243.077499	5584.0
244.07399	6020.0
245.073746	9817.0
246.070007	2547.0
247.001251	1897.0
247.118652	8440.0
248.043594	2358.0
248.984299	1349.0
249.098312	20888.0
250.078506	6353.0
251.007187	1338.0
251.117859	23494.0
252.119308	4958.0
252.995209	3246.0
253.12146	19175.0
254.001419	3006.0
254.14212	6061.0
254.870163	1445.0
255.121857	13241.0
256.126282	3230.0
257.037659	7663.0
257.161804	1287.0
258.047302	2580.0
259.085205	5960.0
260.056091	3383.0
261.009399	1399.0
261.132538	9101.0
262.007629	1033.0
262.132751	2713.0
263.132019	12002.0
264.11734	3503.0
265.116669	16802.0
266.117981	4001.0
266.989044	1985.0
267.120239	20489.0
268.119781	2777.0
268.260101	2138.0
269.125702	13095.0
270.133606	2656.0
271.090454	4843.0
271.229523	46857.0
272.094208	1116.0
272.229095	8235.0
273.130157	4452.0
274.045258	2778.0
274.987091	1701.0
275.130951	8165.0
276.025085	1321.0
276.158661	2022.0
277.023895	5178.0
277.145538	13871.0
278.028931	1962.0
278.14328	2923.0
279.024597	1852.0
279.145721	16603.0
280.143738	3426.0
280.98291	1189.0
281.129028	14403.0
282.159332	2727.0
283.128906	12091.0
284.14093	2558.0
285.034393	5662.0
285.147919	4429.0
286.02774	1503.0
286.148956	1115.0
287.12265	4639.0
289.147827	6627.0
290.138	2125.0
291.023987	1425.0
291.153839	11841.0
292.146942	2352.0
293.024231	1845.0
293.151428	16726.0
294.155945	3762.0
295.006409	1253.0
295.150421	19046.0
296.153534	3778.0
296.93103	3435.0
297.136871	8751.0
298.144012	2683.0
298.933075	1789.0
299.119537	5050.0
300.141632	1761.0
300.896393	1995.0
301.136902	3842.0
302.141235	2173.0
303.146301	6171.0
304.160645	1534.0
305.156097	9285.0
306.145142	2471.0
307.009125	1078.0
307.155029	15021.0
308.120026	5315.0
309.158752	17003.0
310.17157	6446.0
311.153503	10844.0
312.152039	2990.0
312.934357	2221.0
313.163971	6220.0
314.153961	1469.0
314.972198	1592.0
315.156738	4575.0
316.145844	1284.0
317.019531	1432.0
317.191132	5967.0
318.157471	1509.0
318.95575	1734.0
319.183319	9099.0
320.06192	1051.0
320.194672	2465.0
320.981384	1154.0
321.161469	14465.0
322.167603	2771.0
323.163208	13762.0
324.081482	3185.0
324.20636	1848.0
325.04718	1032.0
325.161957	12887.0
326.167175	3345.0
327.162079	6652.0
328.175171	1810.0
328.884613	1347.0
329.014801	3902.0
329.178101	4169.0
329.848114	1169.0
330.072906	3058.0
330.195862	1189.0
331.048553	1489.0
331.196808	6815.0
332.083313	1675.0
332.221527	1337.0
333.188141	9375.0
333.308899	1079.0
334.055695	1155.0
334.208069	2683.0
335.187042	13554.0
336.181946	3057.0
337.169647	10842.0
338.178009	2940.0
339.169678	10017.0
340.187286	2509.0
341.174286	6527.0
342.195526	1876.0
343.173798	5824.0
344.181213	1801.0
345.184204	6008.0
346.048492	5873.0
346.214783	1452.0
347.052307	6260.0
347.211914	8686.0
348.060059	2347.0
348.210327	1991.0
349.188843	10487.0
350.041351	1088.0
350.202271	2887.0
351.055328	1002.0
351.17926	11874.0
352.046783	1197.0
352.186829	3152.0
352.843506	1496.0
353.180603	8046.0
354.172363	2113.0
355.064758	1180.0
355.181519	5247.0
356.170319	2063.0
356.858032	1072.0
357.164368	5266.0
357.28418	1339.0
358.169952	1566.0
359.211212	7088.0
360.217346	2064.0
361.218445	9583.0
362.228546	2671.0
363.007751	1147.0
363.200897	9691.0
363.309387	1087.0
364.218323	2701.0
365.081207	1586.0
365.192413	10975.0
366.18335	2793.0
366.8862	1187.0
367.194275	8612.0
368.03421	2460.0
368.202087	1906.0
368.822174	1074.0
369.022186	1288.0
369.188232	5888.0
370.213043	1629.0
371.145325	2252.0
371.264374	10223.0
372.261658	2464.0
373.121368	1336.0
373.230621	6720.0
374.049072	2162.0
374.225739	1429.0
375.228363	9575.0
376.220306	2556.0
377.217224	10088.0
378.211853	2886.0
379.196106	8937.0
380.192322	2292.0
381.201233	8954.0
382.211121	2325.0
383.202393	5971.0
384.016968	1023.0
384.211609	1920.0
384.994751	1211.0
385.212555	6171.0
385.315643	1269.0
386.189453	1433.0
386.712555	1029.0
387.227417	6047.0
388.239197	1836.0
389.174683	8383.0
389.29187	5829.0
390.244934	2783.0
391.030457	1011.0
391.212189	10588.0
391.321533	1610.0
392.221771	3369.0
393.225586	9344.0
394.216736	2616.0
395.191315	7995.0
396.206818	2120.0
397.205261	4763.0
398.235504	2411.0
399.22467	4575.0
400.21347	1711.0
401.149506	1377.0
401.283264	15696.0
402.290222	4173.0
403.147766	1773.0
403.269714	10000.0
404.270538	3474.0
405.024078	1241.0
405.149628	2459.0
405.260315	9557.0
406.229828	3314.0
407.227173	9928.0
408.243256	2596.0
409.178375	20496.0
409.29895	1679.0
410.184296	4376.0
411.194336	4937.0
412.251343	1771.0
413.235687	4025.0
414.231812	1812.0
415.179382	1860.0
415.297455	11452.0
416.292114	2359.0
417.150177	1122.0
417.269775	9084.0
418.282776	2061.0
419.265076	13827.0
420.275146	3807.0
421.244751	14791.0
422.250244	3628.0
423.131836	1031.0
423.250763	7971.0
424.258698	2310.0
425.106293	1263.0
425.247833	7604.0
426.264893	1906.0
427.000854	16107.0
427.233124	4863.0
428.012817	2932.0
428.229401	1521.0
429.256866	5353.0
430.225647	2069.0
431.268524	9603.0
432.257965	2742.0
433.160706	1666.0
433.2742	11716.0
434.265198	4772.0
435.249237	12688.0
436.260223	4025.0
437.240936	11880.0
438.234436	3287.0
439.243622	7925.0
440.247284	2452.0
441.248962	5777.0
442.239136	2215.0
442.972778	13515.0
443.262573	5113.0
443.974091	1551.0
444.224884	1453.0
444.979401	1812.0
445.181915	2002.0
445.310791	26232.0
446.309204	6859.0
447.273499	15466.0
448.265106	3317.0
448.982117	2462.0
449.140167	1050.0
449.256683	13193.0
450.258911	4512.0
451.248016	13313.0
452.246735	3716.0
453.247986	10154.0
454.241577	3550.0
455.234314	6867.0
456.244873	2685.0
457.248718	5635.0
END IONS

BEGIN IONS
PEPMASS=446.046
CHARGE=1
MSLEVEL=2
SOURCE_INSTRUMENT=LC-ESI-qTof
FILENAME=DMIM_centroided_library_abundance_filtered.mgf
SEQ=*..*
IONMODE=Positive
ORGANISM=DMIM-DRUG-METABOLITE-LIBRARY
NAME=CEPHAPIRIN [M+Na]+
PI=Libin Xu
DATACOLLECTOR=Dylan H. Ross
SMILES=CC(=O)OCC1=C(N2[C@@H]([C@@H](C2=O)NC(=O)CSC3=CC=NC=C3)SC1)C(=O)O
INCHI=N/A
INCHIAUX=N/A
PUBMED=N/A
SUBMITUSER=jzemlin
LIBRARYQUALITY=3
SPECTRUMID=CCMSLIB00012465917
USI=mzspec:GNPS:DMIM-DRUG-METABOLITE-LIBRARY:accession:CCMSLIB00012465917
SCANS=895
55.054844	1888.0
57.036575	2172.0
58.070305	1303.0
59.034897	1437.0
67.052086	2088.0
69.064301	4184.0
70.066223	5268.0
71.056854	1969.0
72.080849	3813.0
73.046852	1247.0
76.02359	4023.0
77.032738	1949.0
79.041672	3126.0
80.042336	2173.0
81.059944	6017.0
83.052071	4248.0
84.061752	11411.0
85.021233	6414.0
86.093979	8305.0
87.044662	1998.0
88.053734	1632.0
89.048096	1206.0
91.053757	7182.0
93.066849	4246.0
95.075584	11782.0
96.070053	1977.0
97.041901	21120.0
98.047783	3264.0
99.022972	7678.0
100.079346	1076.0
101.06385	3233.0
102.061104	1377.0
103.028854	2621.0
104.039917	1199.0
105.07151	67371.0
106.07476	5689.0
107.079002	8136.0
108.057709	3829.0
109.081818	14273.0
110.073715	5883.0
111.050179	13183.0
112.036804	8564.0
113.037697	7401.0
114.051819	1510.0
115.068649	3404.0
116.033417	4588.0
117.034096	2061.0
118.060966	1019.0
118.932777	1409.0
119.066124	6990.0
120.074577	5972.0
121.07415	23588.0
122.062073	5158.0
123.055511	66148.0
124.045311	10379.0
125.032501	16082.0
126.072632	7875.0
127.044632	5446.0
128.087524	1461.0
129.097946	11598.0
130.063217	7543.0
131.064728	3085.0
132.078232	1042.0
133.051041	7427.0
134.053131	1968.0
135.079254	9822.0
136.066544	29081.0
136.933472	14490.0
137.064392	29152.0
138.06752	5378.0
139.039795	25078.0
140.048691	4138.0
141.055069	5606.0
142.039856	7641.0
142.970306	5880.0
143.093567	2934.0
144.033127	3075.0
145.072479	3748.0
146.062653	1712.0
147.078934	8183.0
148.06514	1941.0
149.076324	9241.0
150.059265	3621.0
151.070053	9882.0
152.034515	8816.0
153.049698	14380.0
154.080963	14250.0
155.056	10769.0
156.063202	2970.0
157.078522	3624.0
158.077438	1971.0
158.939819	3178.0
159.094406	6889.0
160.078903	1263.0
161.079407	7057.0
162.040787	7353.0
163.075439	14740.0
164.074982	4961.0
164.931412	6289.0
165.065109	16305.0
166.068161	3556.0
167.062805	11921.0
168.065643	4751.0
169.059845	10390.0
170.049301	3642.0
171.088364	4865.0
172.07663	2347.0
173.006516	2603.0
173.113037	5509.0
174.086044	1785.0
174.913712	2796.0
175.081238	7649.0
176.09639	2490.0
176.953903	1050.0
177.078522	14435.0
178.075775	4018.0
178.96666	1423.0
179.082733	25411.0
180.085266	5119.0
180.910751	3192.0
181.075256	25406.0
182.085526	4030.0
183.071396	14658.0
184.078613	3616.0
185.073685	8059.0
186.120346	2116.0
187.086517	6164.0
188.062119	2302.0
189.078903	5870.0
190.069199	2167.0
191.077057	13424.0
192.076462	3208.0
192.959229	2934.0
193.08078	28212.0
194.077591	5216.0
194.966476	1365.0
195.08374	18211.0
196.081116	3649.0
196.915222	2589.0
197.085007	38882.0
198.091797	6166.0
198.90509	3119.0
199.078949	6664.0
199.967651	1299.0
200.09874	3139.0
200.955734	3087.0
201.106735	5631.0
202.082733	1614.0
203.09256	7804.0
204.09845	2424.0
205.089752	10320.0
206.089722	2534.0
207.092148	18178.0
208.096222	2899.0
209.083008	32758.0
210.086319	5090.0
211.090042	11978.0
212.096878	3325.0
212.875687	1017.0
213.09819	8052.0
214.110809	2306.0
214.915939	1015.0
215.052475	5888.0
216.091553	2163.0
216.910461	20818.0
217.08783	6419.0
218.105453	1746.0
218.937973	1077.0
219.099564	9530.0
220.099976	2502.0
220.939789	1587.0
221.104507	13464.0
222.108063	3025.0
223.093628	21789.0
224.098618	3675.0
225.084869	12740.0
226.110779	3604.0
227.071274	9295.0
228.123581	2652.0
229.101913	4265.0
230.103806	1601.0
230.948502	2376.0
231.09166	6501.0
232.103333	1810.0
232.91066	3143.0
233.098083	13376.0
234.1008	3040.0
235.007401	1338.0
235.114822	14919.0
236.110474	3425.0
237.111664	20088.0
238.108337	4793.0
238.908813	3834.0
239.095078	13768.0
240.086365	2713.0
240.214066	2619.0
240.925446	1037.0
241.087891	6593.0
242.089935	2604.0
242.228699	1210.0
243.110062	3773.0
244.126938	1979.0
245.080429	6498.0
246.089325	1675.0
247.119904	6606.0
248.098862	1855.0
248.951019	1450.0
249.112991	12260.0
250.122589	3965.0
250.9953	1296.0
251.115173	22037.0
252.109283	4389.0
253.007339	1621.0
253.123337	15426.0
254.143143	3360.0
254.858932	2824.0
255.118271	10385.0
256.108429	2247.0
256.939545	1091.0
257.105316	4637.0
258.125916	2314.0
258.98642	1041.0
259.115601	4698.0
260.074158	1704.0
260.879272	1080.0
261.015717	1038.0
261.134766	7647.0
262.13269	2017.0
263.127472	11041.0
264.130676	2760.0
264.927399	1183.0
265.120087	12203.0
266.118073	2854.0
267.12149	19925.0
268.125031	3169.0
268.281738	1205.0
269.128204	10109.0
270.146759	2516.0
270.998413	1484.0
271.13446	6244.0
272.118378	2010.0
272.867096	1101.0
273.132416	4303.0
274.136627	1513.0
275.141968	7771.0
276.151123	2172.0
277.013397	1049.0
277.144073	11585.0
278.140472	2392.0
279.024139	1369.0
279.14447	12295.0
280.155334	2352.0
281.122162	10444.0
282.132141	1944.0
283.129425	10022.0
284.043549	1914.0
284.164276	1083.0
284.333313	2166.0
285.128815	5295.0
286.099091	3598.0
286.955872	1045.0
287.129669	4485.0
288.132965	1616.0
289.132446	7632.0
290.177185	1904.0
291.018036	1178.0
291.14798	11641.0
292.148773	3577.0
293.147369	13362.0
294.145203	2527.0
294.988953	1029.0
295.145721	13654.0
296.147461	3237.0
296.914948	1435.0
297.132507	7258.0
298.161407	1663.0
298.936066	2732.0
299.12674	4018.0
300.130829	1639.0
300.884491	1108.0
301.028748	1729.0
301.159546	3789.0
302.062866	2550.0
303.163422	6475.0
304.165558	1751.0
305.173462	9207.0
306.150116	1963.0
307.155914	12126.0
308.143829	4051.0
309.155182	11759.0
310.151276	3040.0
311.15564	8031.0
312.066742	2982.0
312.200439	1160.0
312.922821	1804.0
313.074493	1319.0
313.177002	3998.0
314.185181	1206.0
314.947327	1129.0
315.181763	4236.0
316.152252	1231.0
317.088745	1289.0
317.19339	5776.0
318.181702	2261.0
319.180786	9804.0
320.183502	2021.0
320.910828	1519.0
321.172333	9421.0
322.148438	2585.0
323.164154	9210.0
324.15918	2186.0
325.160889	6940.0
326.17038	1698.0
327.105652	6872.0
327.236206	3291.0
328.058655	1981.0
328.192474	1704.0
328.898041	1290.0
329.028015	1778.0
329.180023	3475.0
330.0802	3354.0
331.063019	1074.0
331.192993	6829.0
332.05423	1331.0
332.187744	2217.0
333.184784	10391.0
334.057373	1447.0
334.206848	2330.0
334.948059	1467.0
335.184387	10460.0
336.189545	2907.0
336.907806	1137.0
337.174835	9567.0
338.169128	2390.0
339.17218	6057.0
340.183563	1569.0
341.16806	3898.0
343.189209	4733.0
344.187378	1159.0
345.184967	6672.0
346.046722	6653.0
346.200745	1511.0
347.03891	2366.0
347.193726	9833.0
348.202576	2747.0
349.195679	11515.0
350.198578	2523.0
350.99884	1417.0
351.179016	9090.0
352.043213	1037.0
352.17868	2918.0
353.187988	5170.0
354.177124	2067.0
355.179474	3575.0
356.183167	1182.0
357.13385	1248.0
357.253906	7576.0
358.258301	2196.0
359.200073	7350.0
360.185181	1823.0
361.213562	10491.0
362.086823	1341.0
362.249969	2206.0
363.197266	11284.0
364.214996	2892.0
365.078583	1110.0
365.181244	10403.0
366.195129	3254.0
367.186218	6318.0
368.038666	2839.0
368.196289	1730.0
369.178223	3278.0
370.205078	1160.0
371.128174	1679.0
371.261932	6624.0
372.183105	1329.0
373.183075	4461.0
374.044098	2659.0
374.217224	1544.0
375.214355	8836.0
376.217499	2341.0
377.21875	10947.0
378.237213	2874.0
379.214478	10413.0
380.215027	2681.0
381.210083	7700.0
382.216919	1504.0
383.203461	4739.0
384.009918	1146.0
384.217255	1339.0
385.205597	4621.0
386.228149	1177.0
387.227417	5385.0
388.242676	1522.0
389.219513	13938.0
390.234009	3980.0
391.224731	13954.0
392.233887	3132.0
393.214966	14169.0
394.221649	3403.0
395.21106	9787.0
396.207031	2912.0
397.206573	6602.0
398.217041	2244.0
399.211121	4089.0
401.156433	1064.0
401.281494	13613.0
402.286591	3151.0
403.229156	8264.0
404.230316	2177.0
405.229034	12712.0
406.22937	3054.0
407.113403	1115.0
407.225555	12431.0
408.22052	3979.0
409.173889	101198.0
409.325867	2026.0
410.022003	1068.0
410.17627	22473.0
411.196686	11031.0
412.214386	3875.0
413.210571	4662.0
414.221649	1305.0
415.202484	2730.0
416.248444	1063.0
417.226837	5686.0
418.215393	1316.0
419.219604	8209.0
420.218414	1810.0
421.217285	12058.0
422.225098	3267.0
423.217346	10946.0
424.222717	2794.0
425.198761	9790.0
426.204529	2305.0
427.001648	2595.0
427.201904	4893.0
428.037201	1711.0
428.229004	1357.0
429.218628	2322.0
430.210846	1579.0
431.225952	3690.0
432.259888	1117.0
433.221497	5734.0
434.231903	1937.0
435.214844	8679.0
436.214386	2591.0
437.229584	14762.0
438.237885	3092.0
439.217529	7127.0
440.227661	1877.0
441.218933	4058.0
442.969391	2386.0
443.206848	1809.0
444.234924	1010.0
445.210663	1485.0
447.241302	3617.0
END IONS

BEGIN IONS
PEPMASS=313.174
CHARGE=1
MSLEVEL=2
SOURCE_INSTRUMENT=LC-ESI-qTof
FILENAME=DMIM_centroided_library_abundance_filtered.mgf
SEQ=*..*
IONMODE=Positive
ORGANISM=DMIM-DRUG-METABOLITE-LIBRARY
NAME=ETHOPROPAZINE [M+H]+
PI=Libin Xu
DATACOLLECTOR=Dylan H. Ross
SMILES=CCN(CC)C(C)CN1C2=CC=CC=C2SC3=CC=CC=C31
INCHI=N/A
INCHIAUX=N/A
PUBMED=N/A
SUBMITUSER=jzemlin
LIBRARYQUALITY=3
SPECTRUMID=CCMSLIB00012466095
USI=mzspec:GNPS:DMIM-DRUG-METABOLITE-LIBRARY:accession:CCMSLIB00012466095
SCANS=1073
55.039932	2063.0
56.047604	7133.0
57.025864	1855.0
58.062626	5521.0
58.998421	37177.0
60.024776	1114.0
60.997807	2093.0
62.986523	1489.0
67.053986	3025.0
68.04763	1299.0
69.055168	3633.0
70.064743	5865.0
71.03418	2584.0
72.082085	4692.0
73.034828	2620.0
76.023987	199015.0
77.033646	11918.0
78.021202	8286.0
79.030228	4209.0
80.048546	9903.0
81.057083	6380.0
82.054436	1292.0
83.049988	5769.0
84.047821	220779.0
85.034363	15703.0
86.095238	44329.0
86.996384	10190.0
87.102921	2196.0
88.025284	8197.0
89.03112	2583.0
91.052849	4797.0
92.0522	1079.0
93.063828	4932.0
94.05378	1052.0
95.054535	10703.0
96.05825	2764.0
97.033852	38296.0
98.019653	7327.0
99.021805	8655.0
100.06723	2446.0
101.053574	1974.0
102.05632	5399.0
103.028419	2022.0
104.060921	1255.0
105.06517	9515.0
106.069138	2584.0
107.070259	5912.0
108.055542	4050.0
109.070686	14476.0
110.062401	5630.0
111.042725	9126.0
112.035538	10894.0
113.026306	8209.0
114.000046	1599.0
114.12928	351463.0
114.257149	4321.0
114.413086	2230.0
114.952339	1122.0
115.125252	29700.0
116.020302	67062.0
117.033371	5619.0
118.023003	4111.0
118.92923	1878.0
119.062241	6791.0
120.053116	6915.0
121.049393	17802.0
122.061775	4668.0
123.057007	35304.0
124.034081	8444.0
125.028046	12037.0
126.039902	2466.0
127.032661	6570.0
128.029388	2435.0
129.093796	9440.0
130.053772	41448.0
131.060196	6645.0
132.048264	2158.0
133.059128	6592.0
134.070221	2547.0
135.056305	9604.0
136.060394	10037.0
136.952347	16050.0
137.077103	11807.0
138.05748	3925.0
139.030716	20375.0
140.037109	3355.0
140.921753	1188.0
141.047348	8314.0
142.035248	64079.0
143.034439	10615.0
144.022385	23971.0
145.053482	6657.0
146.04538	4181.0
147.067795	7577.0
148.043686	4095.0
149.075989	6077.0
150.052536	2997.0
151.055542	9566.0
152.059174	14580.0
153.055984	17470.0
154.064209	11002.0
155.054031	7157.0
156.044037	3871.0
157.065048	4107.0
158.07959	1898.0
158.952591	2784.0
159.088013	5777.0
160.039749	10436.0
161.059265	7881.0
162.029617	43060.0
163.060989	12850.0
164.053131	5014.0
164.952606	9148.0
165.070892	7598.0
166.060699	5785.0
167.055038	9931.0
168.051559	5185.0
169.059769	7593.0
170.033859	8324.0
171.052795	7916.0
172.068527	3393.0
173.060654	7891.0
174.046631	3769.0
174.906128	5800.0
175.075607	7036.0
176.054916	3511.0
176.927948	1159.0
177.063751	8596.0
178.060471	3322.0
179.05835	19018.0
180.080185	14109.0
180.911148	8356.0
181.073761	17248.0
182.066284	3264.0
183.066879	10677.0
184.064957	4033.0
185.055969	8316.0
186.050537	4041.0
186.915665	1403.0
187.059906	12445.0
188.051468	4165.0
189.065384	6182.0
189.984833	1015.0
190.107529	1289.0
191.069092	8920.0
192.070023	2549.0
192.954895	1938.0
193.077362	15090.0
194.084946	4680.0
195.078964	8590.0
196.022034	3907.0
196.890656	8729.0
197.077972	19605.0
198.042603	304289.0
198.206299	4263.0
198.416061	2133.0
198.88884	1622.0
199.046265	55074.0
199.197769	1211.0
200.038132	20163.0
200.953522	14485.0
201.072266	6531.0
202.06694	2883.0
202.89975	1717.0
203.061523	23709.0
204.065292	4290.0
204.913239	1119.0
205.078262	6564.0
205.983078	3044.0
206.087692	8981.0
207.09613	12556.0
207.949066	1093.0
208.104248	5019.0
209.080978	18781.0
210.075058	5321.0
211.079651	8094.0
212.060364	13809.0
212.859085	3848.0
213.061523	11543.0
214.047211	5868.0
214.863678	1108.0
215.039536	13375.0
216.049622	4303.0
217.011642	4485.0
217.127228	1666.0
218.097244	1194.0
218.926956	2026.0
219.108307	5674.0
220.095322	1915.0
220.936584	2025.0
221.104919	7646.0
222.100555	2100.0
222.925247	1424.0
223.072601	13303.0
224.062012	9336.0
225.067841	18155.0
226.076248	7323.0
227.060699	7814.0
228.084381	5819.0
229.091675	4115.0
230.124786	1870.0
231.091187	3981.0
232.089523	1605.0
233.077972	11180.0
234.096985	2011.0
234.996689	1754.0
235.11026	7086.0
236.118347	1818.0
237.105164	7492.0
238.075104	4630.0
238.896378	1939.0
239.081985	21950.0
240.087753	30861.0
240.235916	1100.0
240.932495	1154.0
241.085831	7580.0
242.07486	3893.0
243.071106	2791.0
244.070633	2206.0
245.075775	5830.0
246.086365	1702.0
247.119507	3679.0
248.140961	1351.0
249.096756	10968.0
250.087738	1892.0
251.084183	14448.0
252.096497	2688.0
252.999939	1167.0
253.124527	5886.0
254.127319	1589.0
254.850616	1084.0
255.109146	5315.0
256.080505	6355.0
256.91333	1207.0
257.084259	3676.0
258.019409	7542.0
258.998474	1210.0
259.12616	3109.0
260.067078	1290.0
260.877319	1407.0
261.124146	4893.0
262.138641	1504.0
263.140015	5677.0
264.057343	1152.0
264.158661	1107.0
265.131989	6056.0
266.113312	2172.0
267.113831	5477.0
268.12738	1814.0
269.126923	2338.0
270.112488	1317.0
271.024231	1401.0
272.168671	1118.0
273.096924	4828.0
274.002777	1738.0
274.134644	1065.0
275.149445	4696.0
276.135986	1346.0
277.020325	1029.0
277.146423	7497.0
278.007324	1772.0
278.143158	1967.0
279.128479	6804.0
280.148132	1779.0
281.13504	4296.0
282.150543	1461.0
282.859375	1486.0
283.115479	2257.0
284.081177	1125.0
285.062134	7121.0
286.058411	1999.0
287.13028	2420.0
288.101501	1342.0
288.853241	1113.0
289.022186	1398.0
289.137238	3577.0
290.123016	1020.0
291.141754	6816.0
292.148102	2056.0
293.147308	7960.0
294.167786	1774.0
295.147369	5881.0
296.171173	1499.0
296.965332	1075.0
297.147491	3147.0
298.843384	1123.0
299.137451	1599.0
300.070709	1028.0
301.069427	2186.0
301.180328	1149.0
303.154205	3544.0
304.84137	1145.0
305.158905	6126.0
306.156311	1631.0
307.033142	2792.0
307.150055	7701.0
308.149506	1893.0
309.147125	6292.0
310.159302	1683.0
311.164001	3223.0
312.077362	2485.0
313.079376	2751.0
END IONS

BEGIN IONS
PEPMASS=134.097
CHARGE=1
MSLEVEL=2
SOURCE_INSTRUMENT=LC-ESI-qTof
FILENAME=DMIM_centroided_library_abundance_filtered.mgf
SEQ=*..*
IONMODE=Positive
ORGANISM=DMIM-DRUG-METABOLITE-LIBRARY
NAME=PHENYLPROPANOLAMINE [M+H-H2O]+
PI=Libin Xu
DATACOLLECTOR=Dylan H. Ross
SMILES=C[C@H]([C@H](C1=CC=CC=C1)O)N
INCHI=N/A
INCHIAUX=N/A
PUBMED=N/A
SUBMITUSER=jzemlin
LIBRARYQUALITY=3
SPECTRUMID=CCMSLIB00012466141
USI=mzspec:GNPS:DMIM-DRUG-METABOLITE-LIBRARY:accession:CCMSLIB00012466141
SCANS=1119
65.036774	2423.0
77.040222	3956.0
79.049736	1465.0
81.035637	1021.0
84.974564	1209.0
89.040024	1114.0
91.055916	19421.0
92.057945	2233.0
93.053078	1351.0
97.012833	1209.0
103.044594	1221.0
104.054916	2728.0
105.059479	2454.0
106.064934	1048.0
107.065872	1461.0
109.019997	2149.0
110.035728	1775.0
115.057404	21362.0
116.061844	3680.0
117.069481	8877.0
118.070091	5772.0
118.919518	1688.0
119.076096	3830.0
121.069763	1579.0
122.088852	2984.0
122.945686	1595.0
123.06321	2562.0
124.991127	2110.0
127.016045	1724.0
128.017029	4138.0
129.068512	1506.0
131.059219	1074.0
134.092789	3328.0
134.898148	4592.0
135.047424	2464.0
END IONS

BEGIN IONS
PEPMASS=138.126
CHARGE=1
MSLEVEL=2
SOURCE_INSTRUMENT=LC-ESI-qTof
FILENAME=DMIM_centroided_library_abundance_filtered.mgf
SEQ=*..*
IONMODE=Positive
ORGANISM=DMIM-DRUG-METABOLITE-LIBRARY
NAME=TUAMINOHEPTANE [M+Na]+
PI=Libin Xu
DATACOLLECTOR=Dylan H. Ross
SMILES=CCCCCC(C)N
INCHI=N/A
INCHIAUX=N/A
PUBMED=N/A
SUBMITUSER=jzemlin
LIBRARYQUALITY=3
SPECTRUMID=CCMSLIB00012466267
USI=mzspec:GNPS:DMIM-DRUG-METABOLITE-LIBRARY:accession:CCMSLIB00012466267
SCANS=1245
77.041046	3036.0
79.043396	1764.0
81.026512	1188.0
91.055046	3246.0
95.052856	1123.0
103.065758	1029.0
105.063705	1981.0
107.036491	1760.0
109.027924	2030.0
110.034294	1692.0
115.056084	2547.0
119.068153	1155.0
121.060356	2173.0
122.089775	2722.0
122.967201	1996.0
123.077431	1938.0
124.962204	1088.0
127.005684	1561.0
128.021851	2308.0
129.064468	1424.0
134.899689	3654.0
135.044724	2852.0
137.037552	1322.0
138.090607	1120.0
139.04509	2302.0
END IONS

BEGIN IONS
PEPMASS=285.142
CHARGE=1
MSLEVEL=2
SOURCE_INSTRUMENT=LC-ESI-qTof
FILENAME=DMIM_centroided_library_abundance_filtered.mgf
SEQ=*..*
IONMODE=Positive
ORGANISM=DMIM-DRUG-METABOLITE-LIBRARY
NAME=PROMAZINE [M+H]+
PI=Libin Xu
DATACOLLECTOR=Dylan H. Ross
SMILES=CN(C)CCCN1C2=CC=CC=C2SC3=CC=CC=C13
INCHI=N/A
INCHIAUX=N/A
PUBMED=N/A
SUBMITUSER=jzemlin
LIBRARYQUALITY=3
SPECTRUMID=CCMSLIB00012466353
USI=mzspec:GNPS:DMIM-DRUG-METABOLITE-LIBRARY:accession:CCMSLIB00012466353
SCANS=1331
55.044121	2536.0
56.046787	7008.0
57.006081	1837.0
58.067715	117170.0
59.004356	38441.0
60.009853	1328.0
60.998802	1879.0
67.055008	2846.0
68.042618	1131.0
69.054802	2776.0
70.060577	5322.0
71.039467	2716.0
72.080994	4157.0
73.027374	2532.0
76.024506	189041.0
77.033745	10245.0
78.021591	8529.0
79.044029	4307.0
80.051613	10351.0
81.05793	6352.0
82.050468	1384.0
83.049484	13565.0
84.048248	203021.0
85.029167	16117.0
86.099258	219266.0
86.310677	1110.0
86.997688	11351.0
87.103287	8585.0
88.024681	9761.0
89.030998	1719.0
91.056152	4081.0
93.066078	5072.0
94.0616	1184.0
95.035301	11583.0
96.054382	3360.0
97.032204	9749.0
98.036926	7595.0
99.008377	6655.0
100.046654	2214.0
101.049278	1969.0
102.055176	5391.0
103.037361	1801.0
104.062012	1338.0
105.060913	5880.0
106.06543	2668.0
107.071686	6585.0
108.056267	4058.0
109.06562	10081.0
110.053703	5408.0
111.03933	8321.0
112.018654	13086.0
113.020248	5705.0
114.03759	7735.0
115.044312	3510.0
116.024635	74615.0
117.046059	8688.0
118.025208	3427.0
118.9244	4161.0
119.068253	6255.0
120.056488	7009.0
121.061111	12457.0
122.054596	3658.0
123.055237	23509.0
124.035782	9229.0
125.026527	8897.0
126.018295	2202.0
127.027214	5002.0
128.033905	2995.0
129.088669	8575.0
130.054688	41796.0
131.061646	5974.0
132.057587	2176.0
133.053513	6627.0
134.059235	2788.0
135.063492	7287.0
136.062317	7726.0
136.950211	19234.0
137.076248	9406.0
138.052551	2398.0
139.023315	14459.0
140.052353	2388.0
140.921036	1320.0
141.050934	8626.0
142.035934	67010.0
143.030045	10457.0
144.021194	26688.0
145.057571	8378.0
146.040649	4189.0
147.058701	7070.0
148.049225	3480.0
149.056503	7880.0
150.055496	2508.0
151.051773	7841.0
152.058258	12334.0
152.932892	1357.0
153.055405	13362.0
154.060638	3863.0
155.053391	6180.0
156.043671	3572.0
157.089294	3146.0
158.110138	5281.0
158.933426	3276.0
159.089996	4483.0
160.039673	11607.0
161.059967	8197.0
162.028214	38947.0
163.061035	9129.0
164.047836	4827.0
164.956589	6878.0
165.072769	6339.0
166.055878	4599.0
167.068649	14986.0
168.061127	5482.0
169.058365	6093.0
170.037338	7711.0
171.057739	5641.0
172.060364	2416.0
173.058167	7191.0
174.060226	2859.0
174.90329	5356.0
175.082275	5311.0
176.027634	2701.0
177.067581	6510.0
178.071976	4202.0
179.069244	22694.0
180.085236	79955.0
180.910461	7628.0
181.078278	21828.0
182.083801	3687.0
182.915466	1010.0
183.066986	8360.0
184.059601	3018.0
185.057755	5527.0
186.076996	2321.0
186.916794	1944.0
187.063446	12265.0
188.058578	4932.0
189.058228	7028.0
190.041397	2214.0
191.069	6658.0
192.061432	3273.0
192.952789	1604.0
193.076202	9507.0
194.077469	2809.0
195.082108	7458.0
196.062698	5496.0
196.890106	8383.0
197.077835	9847.0
198.044006	21256.0
198.887604	1398.0
199.051559	39828.0
200.047562	8110.0
200.912857	1037.0
201.050369	14906.0
202.057648	2928.0
202.903061	1735.0
203.066681	12905.0
204.070923	2915.0
205.080521	5102.0
205.986862	3378.0
206.095154	7589.0
207.09671	11088.0
208.098129	2114.0
209.079376	9295.0
210.065186	2886.0
211.067276	4723.0
212.059326	67255.0
212.861679	3726.0
213.058731	14759.0
214.060349	5180.0
214.860092	1295.0
215.044266	14135.0
216.04715	2922.0
216.943024	1516.0
217.093033	3977.0
218.077866	1379.0
218.900772	1533.0
219.095139	3688.0
220.103027	1418.0
220.937393	1819.0
221.103546	4658.0
222.081497	2270.0
223.062744	9886.0
224.074829	3163.0
225.066422	5600.0
226.08902	3338.0
227.055542	5428.0
228.067001	7567.0
229.064636	2572.0
230.068939	1544.0
231.099243	2767.0
232.101639	1235.0
233.073532	8841.0
234.099792	1814.0
235.11409	5675.0
236.123795	1446.0
237.100952	5602.0
238.078796	6331.0
239.075211	9364.0
240.090103	10873.0
241.08493	3839.0
242.089859	1805.0
243.042328	1623.0
244.078247	1327.0
245.074844	6007.0
246.079803	1046.0
247.108353	2965.0
248.111588	1247.0
249.108948	5366.0
250.104721	1355.0
251.084412	9249.0
252.069702	1747.0
253.115936	4868.0
254.125488	1461.0
254.85672	1669.0
255.0672	3216.0
256.079071	4650.0
257.071411	1922.0
258.025238	4039.0
259.124512	2241.0
261.116089	5084.0
262.103455	1164.0
263.132141	3841.0
265.123291	4340.0
266.10675	1577.0
267.107483	4309.0
268.123413	1370.0
269.130249	1490.0
271.158783	1085.0
273.071014	2895.0
273.180634	1208.0
275.134827	3318.0
277.138885	4864.0
278.046143	1890.0
279.124329	6539.0
280.132294	1953.0
281.136383	4272.0
282.85733	1065.0
283.136383	1751.0
284.101471	1763.0
285.089508	11560.0
286.102386	2663.0
287.095978	1150.0
END IONS

BEGIN IONS
PEPMASS=137.108
CHARGE=1
MSLEVEL=2
SOURCE_INSTRUMENT=LC-ESI-qTof
FILENAME=DMIM_centroided_library_abundance_filtered.mgf
SEQ=*..*
IONMODE=Positive
ORGANISM=DMIM-DRUG-METABOLITE-LIBRARY
NAME=BETAHISTINE [M+H]+
PI=Libin Xu
DATACOLLECTOR=Dylan H. Ross
SMILES=CNCCC1=CC=CC=N1
INCHI=N/A
INCHIAUX=N/A
PUBMED=N/A
SUBMITUSER=jzemlin
LIBRARYQUALITY=3
SPECTRUMID=CCMSLIB00012466463
USI=mzspec:GNPS:DMIM-DRUG-METABOLITE-LIBRARY:accession:CCMSLIB00012466463
SCANS=1441
77.041611	2613.0
79.051682	2132.0
91.054062	2527.0
97.011749	1100.0
105.063873	1390.0
107.064651	1150.0
109.035828	1699.0
110.034195	1104.0
115.057014	3195.0
120.069038	1039.0
121.058456	2250.0
122.088203	2654.0
122.94574	1253.0
123.070305	2194.0
127.020287	1620.0
128.042221	2158.0
134.900162	3539.0
135.0448	2570.0
139.033997	1892.0
END IONS

BEGIN IONS
PEPMASS=470.034
CHARGE=1
MSLEVEL=2
SOURCE_INSTRUMENT=LC-ESI-qTof
FILENAME=DMIM_centroided_library_abundance_filtered.mgf
SEQ=*..*
IONMODE=Positive
ORGANISM=DMIM-DRUG-METABOLITE-LIBRARY
NAME=DICLOXACILLIN [M+H]+
PI=Libin Xu
DATACOLLECTOR=Dylan H. Ross
SMILES=CC1=C(C(=NO1)C2=C(C=CC=C2Cl)Cl)C(=O)N[C@H]3[C@@H]4N(C3=O)[C@H](C(S4)(C)C)C(=O)O
INCHI=N/A
INCHIAUX=N/A
PUBMED=N/A
SUBMITUSER=jzemlin
LIBRARYQUALITY=3
SPECTRUMID=CCMSLIB00012466515
USI=mzspec:GNPS:DMIM-DRUG-METABOLITE-LIBRARY:accession:CCMSLIB00012466515
SCANS=1493
55.051228	2377.0
57.058743	1893.0
58.06646	1326.0
59.033428	1177.0
60.066769	1472.0
67.055809	1688.0
69.060425	3582.0
70.067673	5734.0
71.063057	2078.0
72.082695	2820.0
73.053513	1414.0
74.06398	1369.0
76.027443	3453.0
77.033638	1111.0
79.045013	1964.0
80.027985	1841.0
81.060173	5697.0
82.04895	1115.0
83.063049	4925.0
84.064079	7662.0
85.03875	3810.0
86.093613	7108.0
87.048836	5055.0
88.056839	1341.0
89.061493	9889.0
91.054924	7176.0
93.066917	3354.0
95.077347	10224.0
96.059982	1464.0
97.056625	9582.0
98.054131	2011.0
99.034706	6044.0
100.053177	3251.0
101.057587	3116.0
102.056053	1971.0
103.029297	2213.0
104.071747	4884.0
105.071526	38293.0
106.073868	3118.0
107.072029	5976.0
108.054543	2521.0
109.081665	13159.0
110.074005	4220.0
111.058823	9775.0
112.045242	4034.0
113.042664	5722.0
114.047829	4352.0
115.070793	3006.0
116.047073	3385.0
117.057083	1440.0
119.070076	5610.0
120.079849	5025.0
121.072487	18189.0
122.080582	28986.0
123.055511	67664.0
124.055794	6339.0
125.032433	13828.0
126.07856	3112.0
127.067543	4151.0
128.056747	9988.0
129.094513	9899.0
130.065109	5447.0
131.061096	3085.0
133.066788	12466.0
134.066879	2172.0
135.079056	7370.0
136.066238	10347.0
136.933929	5253.0
137.06749	29144.0
138.066498	5467.0
139.043488	21343.0
140.052872	3508.0
141.055084	4066.0
142.039993	4625.0
142.964035	7818.0
143.092651	1947.0
144.04744	2868.0
145.075333	3049.0
146.058136	2252.0
147.053513	7851.0
148.077164	2576.0
149.080261	8023.0
150.070801	2400.0
151.079926	9003.0
152.072128	3720.0
153.055115	11881.0
154.064774	3708.0
155.065002	9274.0
156.085175	1928.0
157.09137	3193.0
158.106918	1754.0
158.937317	4609.0
159.09404	4272.0
160.046967	11688.0
161.080566	7075.0
162.038635	6128.0
163.085052	14343.0
164.079651	5832.0
164.933472	7970.0
165.065933	16720.0
166.068176	4428.0
167.065552	9391.0
168.065414	3053.0
169.06636	8684.0
170.047226	2787.0
171.088364	4200.0
172.082764	1909.0
173.083282	7573.0
174.068878	6718.0
174.908051	5829.0
175.082001	7465.0
176.074371	2813.0
176.915649	1542.0
177.085709	16808.0
178.085175	3788.0
179.084396	24386.0
180.073929	5578.0
180.908432	5693.0
181.080154	28433.0
182.061478	7839.0
183.074371	13776.0
184.077194	2800.0
185.058273	5051.0
186.1035	2175.0
186.918213	1401.0
187.084595	4953.0
188.047119	1226.0
189.082611	5468.0
190.084137	1953.0
191.080811	13727.0
192.079819	3954.0
192.953339	1638.0
193.085068	22840.0
194.093155	4763.0
194.980469	1202.0
195.088989	21768.0
196.090073	4163.0
196.900787	5395.0
197.085632	42300.0
198.076324	6315.0
198.908737	1136.0
199.080704	6017.0
200.006058	2465.0
200.145737	1347.0
200.969666	1543.0
201.105682	4547.0
202.062637	1574.0
203.0952	8495.0
204.098236	2098.0
205.092072	10919.0
206.087051	3315.0
207.093475	17960.0
208.091309	3644.0
209.086273	32984.0
210.092438	4959.0
211.092239	14155.0
211.974777	15769.0
212.117676	2077.0
212.868515	3073.0
213.067856	9503.0
213.973709	10604.0
214.115601	1379.0
214.961258	1517.0
215.088272	6419.0
215.991699	2432.0
216.128235	1391.0
216.966858	2120.0
217.103699	7018.0
218.103912	2011.0
219.106644	10186.0
220.100433	3206.0
220.945175	1572.0
221.110138	18344.0
222.107422	3232.0
223.098038	24629.0
224.104385	3967.0
225.093887	16507.0
226.123428	3541.0
227.069443	6624.0
228.124268	2089.0
229.095795	3835.0
230.117752	1797.0
231.092453	6387.0
232.0849	2508.0
232.891174	1073.0
233.098923	15443.0
234.113434	2874.0
235.012421	1354.0
235.118057	20455.0
236.123901	3508.0
237.118286	24203.0
238.116318	4273.0
238.901077	2713.0
239.106964	15413.0
240.08223	3875.0
240.222107	5018.0
241.094009	7203.0
242.018555	1482.0
242.150742	2092.0
243.118271	4481.0
244.120071	2050.0
245.102921	5496.0
246.118454	1780.0
246.963577	1337.0
247.117554	7489.0
248.120407	1953.0
249.121307	16123.0
250.118835	3297.0
250.991409	1069.0
251.117767	24375.0
252.125641	4825.0
253.120712	18809.0
253.98909	2050.0
254.142395	4362.0
254.870773	1522.0
255.126801	12610.0
256.008728	2122.0
256.134979	1659.0
256.93454	1341.0
257.102997	3868.0
258.031677	3055.0
258.987762	1087.0
259.121277	3578.0
260.103058	1802.0
260.884888	1281.0
261.015625	1122.0
261.134521	10894.0
262.140686	2831.0
262.936798	1077.0
263.131165	12957.0
264.131561	3175.0
265.127075	15586.0
266.131897	2941.0
266.93161	2007.0
267.12677	20768.0
268.121887	4540.0
268.269409	2198.0
269.133514	13160.0
270.126465	2037.0
270.251007	1277.0
270.998108	1511.0
271.100555	3876.0
271.220795	12731.0
272.037598	1429.0
272.211914	3080.0
273.020508	1473.0
273.137268	4186.0
274.137573	1701.0
274.988922	1158.0
275.141846	8221.0
276.146484	2489.0
277.001678	1110.0
277.143982	15942.0
278.135834	3505.0
278.903412	1121.0
279.144531	15025.0
280.148407	3488.0
281.128052	12928.0
282.143341	2494.0
283.133575	11517.0
284.119446	2582.0
284.339325	3405.0
284.931946	1187.0
285.118683	5576.0
286.119385	1785.0
287.008057	1377.0
287.143127	4289.0
288.151855	1781.0
288.870728	1136.0
289.136444	8200.0
290.116486	2335.0
291.143982	11419.0
292.145477	2475.0
292.995117	1359.0
293.155487	15910.0
293.985504	1039.0
294.16037	3486.0
295.008392	1293.0
295.151428	14810.0
295.972717	1557.0
296.151917	3749.0
297.131805	7859.0
298.129822	2351.0
298.342072	1275.0
298.844391	1202.0
298.990021	1020.0
299.139648	5376.0
300.15741	1527.0
300.887238	1433.0
301.12854	3944.0
302.128876	2148.0
303.161682	6251.0
304.180267	1959.0
305.168304	12105.0
306.167297	3076.0
307.160828	13779.0
308.140411	4606.0
309.160126	15799.0
309.999542	1060.0
310.175079	4262.0
311.002411	2004.0
311.159607	11728.0
312.073242	3611.0
312.197815	1507.0
313.013977	2811.0
313.163116	5504.0
314.032867	1118.0
314.169128	2040.0
314.986694	2063.0
315.178772	4132.0
315.999725	1122.0
316.848389	1334.0
317.035004	1435.0
317.19342	7266.0
318.181213	2082.0
318.900024	1117.0
319.043152	1359.0
319.190033	10034.0
320.163605	2455.0
320.887665	1398.0
321.164764	13802.0
322.168213	2662.0
322.865997	1018.0
323.159668	11606.0
324.156769	2238.0
325.164734	11800.0
326.167389	2309.0
327.15097	7894.0
328.028992	1263.0
328.165344	1575.0
328.91214	1483.0
329.178436	4489.0
329.846832	1017.0
330.083771	6469.0
331.066864	1918.0
331.192963	7257.0
332.058624	2865.0
332.19928	1561.0
333.004822	2357.0
333.197845	11938.0
334.076416	1649.0
334.217712	2233.0
334.993713	1515.0
335.191071	11792.0
336.199402	2839.0
336.973114	1109.0
337.172058	9696.0
338.181793	2828.0
339.160614	7431.0
340.186157	2250.0
341.173462	5921.0
342.153229	1561.0
343.17926	5787.0
344.160645	1599.0
345.204285	6459.0
346.05542	16559.0
346.211578	1504.0
347.047668	2578.0
347.202057	10129.0
348.064819	2239.0
348.227875	2880.0
349.194824	14857.0
350.030334	1142.0
350.20108	4245.0
350.999786	1513.0
351.182465	10982.0
352.076385	2289.0
352.216431	1626.0
353.185181	8112.0
354.189789	1521.0
355.168304	4613.0
355.288818	1272.0
356.220001	1554.0
357.136108	2263.0
357.237579	4723.0
358.232025	2479.0
359.216675	7779.0
360.219177	1942.0
361.216553	10424.0
362.240479	3886.0
363.205444	10775.0
364.205322	3457.0
365.168243	17552.0
366.187988	3418.0
367.188049	8001.0
368.032471	4550.0
368.200653	1798.0
369.035522	1400.0
369.190155	5167.0
371.153564	2230.0
371.262848	8743.0
372.236603	2596.0
373.121246	1180.0
373.228943	6459.0
374.048767	7797.0
374.22113	2018.0
375.070618	1901.0
375.227539	10157.0
376.225677	3203.0
377.117981	1250.0
377.23114	11207.0
378.226562	3220.0
379.213776	10094.0
380.218018	2722.0
381.11673	6746.0
381.227966	5664.0
382.198181	2109.0
383.211334	4635.0
384.013092	2650.0
384.196838	1099.0
385.021851	1015.0
385.157532	1453.0
385.274231	4537.0
386.207581	2132.0
387.236145	7248.0
388.232483	2710.0
389.149445	3994.0
389.25708	10306.0
390.019562	4948.0
390.258392	3742.0
391.064148	3234.0
391.240143	14837.0
392.026367	1137.0
392.245575	3988.0
393.225433	14799.0
394.228973	3995.0
395.122223	1379.0
395.226959	8102.0
396.18988	1870.0
397.2164	5567.0
398.23996	2060.0
399.240265	5282.0
400.233978	1837.0
401.156982	1383.0
401.285675	23855.0
402.107635	1210.0
402.290771	5118.0
403.144348	1149.0
403.266174	11453.0
404.257263	3786.0
405.141907	1644.0
405.256714	15121.0
405.994965	4031.0
406.250031	4191.0
407.236969	12497.0
407.997864	1400.0
408.249115	3285.0
408.983856	1146.0
409.177856	87351.0
409.327545	2479.0
410.177521	21390.0
410.292511	1004.0
411.20401	9124.0
412.245544	2579.0
413.221405	4336.0
414.219452	1753.0
415.245758	7400.0
416.246521	2462.0
417.249573	9619.0
418.252014	3109.0
418.789246	1140.0
419.255554	17159.0
420.263977	4484.0
421.244659	19113.0
421.973969	1852.0
422.25	4013.0
423.238525	12037.0
424.240326	3552.0
425.222015	10125.0
426.20578	3186.0
426.994934	1022.0
427.226013	5502.0
428.238312	1868.0
429.238647	5065.0
430.243134	1826.0
431.249054	9678.0
432.256226	2686.0
433.241943	16141.0
434.26297	4049.0
435.241699	15420.0
436.246002	4256.0
436.779999	1410.0
437.24588	40113.0
438.246246	7837.0
439.237152	12461.0
440.23642	2883.0
441.237671	6753.0
442.240601	1811.0
443.236969	3879.0
444.235687	1337.0
445.194397	2181.0
445.30719	11201.0
446.313812	3246.0
447.170349	1497.0
447.275787	11249.0
448.26178	3455.0
449.239746	11583.0
450.241882	3744.0
451.238281	14141.0
452.241425	3526.0
453.233154	14375.0
454.255219	4450.0
454.786499	1108.0
455.242065	6795.0
456.23468	2017.0
457.237488	5139.0
458.249695	1481.0
459.239136	4860.0
460.246246	1465.0
461.256134	6262.0
462.247528	2190.0
463.250458	8266.0
464.246796	3008.0
465.239319	10637.0
466.250854	3031.0
467.236969	9510.0
468.241333	2911.0
469.229034	6809.0
470.253845	3439.0
471.239349	4459.0
END IONS

BEGIN IONS
PEPMASS=281.202
CHARGE=1
MSLEVEL=2
SOURCE_INSTRUMENT=LC-ESI-qTof
FILENAME=DMIM_centroided_library_abundance_filtered.mgf
SEQ=*..*
IONMODE=Positive
ORGANISM=DMIM-DRUG-METABOLITE-LIBRARY
NAME=IMIPRAMINE [M+H]+
PI=Libin Xu
DATACOLLECTOR=Dylan H. Ross
SMILES=CN(C)CCCN1C2=CC=CC=C2CCC3=CC=CC=C31
INCHI=N/A
INCHIAUX=N/A
PUBMED=N/A
SUBMITUSER=jzemlin
LIBRARYQUALITY=3
SPECTRUMID=CCMSLIB00012466544
USI=mzspec:GNPS:DMIM-DRUG-METABOLITE-LIBRARY:accession:CCMSLIB00012466544
SCANS=1522
55.040531	1943.0
56.046524	5183.0
57.022831	2190.0
58.067677	155766.0
59.005749	34574.0
60.01881	1484.0
60.999748	1343.0
67.052696	2547.0
68.042938	1185.0
69.056374	3078.0
70.064865	5642.0
71.037659	3215.0
72.081367	3800.0
73.027046	1926.0
76.024452	161787.0
77.034447	10628.0
78.022842	6625.0
79.032654	4157.0
80.049568	7099.0
81.05455	7534.0
82.053391	1019.0
83.047081	6319.0
84.047966	179332.0
85.027916	13473.0
86.099632	344021.0
86.346771	1894.0
86.991051	9712.0
87.096786	15483.0
88.027756	9312.0
89.036507	2135.0
91.054916	5755.0
93.061821	5030.0
94.06768	1146.0
95.0448	12089.0
96.056358	2156.0
97.034737	14148.0
98.018852	5665.0
99.015541	6925.0
100.032974	1831.0
101.052383	2009.0
102.060692	5888.0
103.012054	2177.0
104.067665	1247.0
105.055084	6733.0
106.064972	1611.0
107.071938	5956.0
108.055138	3752.0
109.074554	9190.0
110.066978	6068.0
111.044289	8865.0
112.017067	10956.0
113.027382	6539.0
114.038857	6991.0
115.060539	4311.0
116.020645	64460.0
117.030495	5849.0
118.028381	3942.0
118.92672	3037.0
119.062988	6614.0
120.046875	7164.0
121.066002	13609.0
122.057274	4108.0
123.05735	30254.0
124.031662	8342.0
125.026573	10077.0
126.029449	2029.0
127.026337	5681.0
128.036819	3140.0
129.092209	8128.0
130.054916	37404.0
131.062836	6212.0
132.055649	2171.0
133.0522	7285.0
134.058548	2289.0
135.067688	7048.0
136.068359	6300.0
136.950119	16310.0
137.080795	11505.0
138.061035	2988.0
139.031113	16084.0
140.031693	3278.0
141.049911	7342.0
142.035583	57930.0
143.036758	9971.0
144.024765	24144.0
145.053802	7898.0
146.046494	3690.0
147.064514	7176.0
148.069748	2014.0
149.075806	7095.0
150.06189	2466.0
151.051956	8860.0
152.062027	13596.0
152.912506	1109.0
153.058029	16998.0
154.059677	3194.0
155.048828	5398.0
156.046539	3297.0
156.975388	1191.0
157.08519	3413.0
158.092926	2542.0
158.935043	3073.0
159.093582	5531.0
160.04068	11605.0
161.061142	8859.0
162.029282	33408.0
163.058716	10356.0
164.052658	4966.0
164.949936	8286.0
165.073364	8676.0
166.058899	3910.0
167.059769	8551.0
168.051254	4538.0
169.056305	6013.0
170.040359	7692.0
171.06308	5435.0
172.07019	2097.0
173.068619	7663.0
174.037582	3278.0
174.899628	5473.0
175.073303	7187.0
176.024277	2405.0
176.945511	1475.0
177.074158	7271.0
178.072922	3354.0
179.062424	15639.0
180.075195	6270.0
180.911957	9646.0
181.074326	13881.0
182.074081	3234.0
182.915771	1227.0
183.068481	9129.0
184.063095	2631.0
185.055679	7281.0
186.085312	2423.0
186.914352	1673.0
187.062744	11275.0
188.051117	3823.0
189.054886	5840.0
190.050598	2999.0
191.07077	8637.0
192.079712	9742.0
192.957657	2236.0
193.093124	133541.0
194.094727	22601.0
195.091904	11876.0
196.06105	6138.0
196.886322	8427.0
197.082535	13177.0
198.071884	2986.0
198.886749	2001.0
199.061554	5355.0
199.994751	1837.0
200.110321	1232.0
200.920273	1621.0
201.053177	11910.0
202.050339	2515.0
203.065628	21136.0
204.096664	3413.0
205.086899	6643.0
205.984634	2728.0
206.09082	6619.0
206.974136	1333.0
207.092636	10989.0
208.118332	128742.0
208.973022	1311.0
209.105255	33020.0
210.103348	4149.0
211.091705	5620.0
212.103149	2063.0
212.86026	3945.0
213.070694	4886.0
214.107635	1751.0
214.865814	1265.0
215.038284	12249.0
216.04364	2953.0
217.067276	4942.0
218.093414	1668.0
218.903732	1663.0
219.106033	3773.0
220.111572	6188.0
220.930695	1919.0
221.105392	6696.0
222.099838	1647.0
223.060562	9746.0
224.104996	5218.0
225.088806	4580.0
226.110336	1519.0
227.059753	5838.0
228.093323	4113.0
229.08757	3986.0
230.090683	1388.0
231.095627	3241.0
232.091583	1614.0
232.883987	1042.0
233.074478	9056.0
234.115051	2077.0
235.117432	7450.0
236.144165	9992.0
237.114197	8749.0
238.097885	1747.0
238.888443	1511.0
239.073013	5788.0
240.045792	1450.0
240.204422	1789.0
241.006577	2165.0
242.054352	1213.0
243.043732	1848.0
244.098877	1056.0
245.077133	6035.0
246.086487	1631.0
247.113586	3210.0
248.966934	1071.0
249.117554	6666.0
250.137054	1068.0
251.086502	13500.0
252.094849	2632.0
253.009552	1256.0
253.131561	5641.0
254.126221	1128.0
254.857056	1689.0
255.061279	4465.0
256.047913	2222.0
256.917816	1371.0
257.09079	2103.0
258.016418	4556.0
258.996857	1118.0
259.130005	3413.0
260.138977	1244.0
260.866241	1648.0
261.11319	6583.0
262.12677	1321.0
263.137146	5315.0
264.147827	1532.0
265.130188	5882.0
266.117249	1710.0
267.118561	4214.0
268.082184	1366.0
269.13205	2477.0
270.842651	1322.0
271.10025	1964.0
273.102203	4719.0
274.072693	1624.0
275.136993	3804.0
277.144836	6923.0
278.082336	2777.0
279.127899	8733.0
280.151215	1251.0
281.140228	5741.0
282.143372	1435.0
283.135925	2002.0
END IONS

BEGIN IONS
PEPMASS=371.161
CHARGE=1
MSLEVEL=2
SOURCE_INSTRUMENT=LC-ESI-qTof
FILENAME=DMIM_centroided_library_abundance_filtered.mgf
SEQ=*..*
IONMODE=Positive
ORGANISM=DMIM-DRUG-METABOLITE-LIBRARY
NAME=THIORIDAZINE [M+H]+
PI=Libin Xu
DATACOLLECTOR=Dylan H. Ross
SMILES=CN1C(CCN2C(C=C3SC)=C(C=C3)SC4=CC=CC=C24)CCCC1
INCHI=N/A
INCHIAUX=N/A
PUBMED=N/A
SUBMITUSER=jzemlin
LIBRARYQUALITY=3
SPECTRUMID=CCMSLIB00012466865
USI=mzspec:GNPS:DMIM-DRUG-METABOLITE-LIBRARY:accession:CCMSLIB00012466865
SCANS=1843
55.053574	3049.0
56.054958	1362.0
57.065464	1344.0
58.06818	20285.0
59.054276	1465.0
62.983559	1052.0
67.053902	3071.0
68.055634	1028.0
69.063484	2944.0
70.067871	18116.0
71.057526	1667.0
72.082436	2768.0
76.02681	2280.0
77.037819	1760.0
79.043365	2062.0
80.038216	1375.0
81.06356	6024.0
82.058685	1138.0
83.068565	4240.0
84.075317	16212.0
85.038979	3597.0
86.096611	6168.0
87.049942	2698.0
88.063965	1864.0
89.06015	4124.0
91.056076	5319.0
93.06852	3771.0
94.066711	1168.0
95.076851	13238.0
96.074646	4761.0
97.053993	10684.0
98.101334	650897.0
98.226494	1921.0
98.356827	3584.0
98.967468	2686.0
99.099472	39000.0
100.09243	2139.0
101.06472	2376.0
102.057823	1471.0
103.040695	1835.0
104.069969	1808.0
105.072166	32853.0
106.077065	3100.0
107.076614	5694.0
108.06356	2066.0
109.083023	10690.0
110.081154	6638.0
111.068047	9945.0
112.002769	1169.0
112.106857	8977.0
113.052055	5530.0
115.07415	2825.0
116.038551	3397.0
117.046104	1465.0
118.938332	1238.0
119.069839	5716.0
120.078377	4471.0
121.074364	17204.0
122.075356	6785.0
123.057053	54021.0
124.092247	13824.0
125.046654	13633.0
126.13279	543631.0
126.264557	7207.0
126.433876	4018.0
126.99855	2118.0
127.132408	50333.0
128.125885	2095.0
129.09964	9048.0
130.069321	5215.0
131.067108	2534.0
132.076736	1061.0
133.061783	6991.0
134.064957	2426.0
135.078491	7217.0
136.068192	17917.0
136.93512	7895.0
137.069214	22594.0
138.073776	4475.0
139.043121	19050.0
140.065765	2894.0
141.063309	3106.0
142.072449	9803.0
142.967087	5712.0
143.107544	2791.0
144.049667	2846.0
145.072174	3307.0
147.067795	5026.0
148.063126	1374.0
149.072128	7027.0
150.064423	2225.0
151.078842	7098.0
152.072861	3461.0
153.056015	11548.0
154.086685	10931.0
155.068237	7914.0
156.06955	2129.0
157.083771	3760.0
158.090103	1814.0
158.937744	3603.0
159.09758	4492.0
160.047012	5438.0
161.08284	4760.0
162.041733	5289.0
163.084564	12101.0
164.077377	4539.0
164.948746	9880.0
165.075287	11118.0
166.072693	3580.0
167.071075	9573.0
168.056961	2722.0
169.062759	7075.0
170.060532	1842.0
171.084122	4242.0
172.07576	1334.0
173.075684	7181.0
174.072983	2063.0
174.914154	4904.0
175.084518	5280.0
176.117691	1454.0
176.937469	1098.0
177.084656	11551.0
178.086533	2828.0
179.086029	21968.0
180.067993	5936.0
180.912567	5139.0
181.081558	19131.0
182.076813	3077.0
183.072052	12639.0
184.072586	2530.0
185.064789	5030.0
186.090057	1879.0
186.944412	1439.0
187.094299	4602.0
188.085083	1792.0
189.073654	5503.0
190.067184	1726.0
191.083206	11002.0
192.082413	3365.0
192.95697	2373.0
193.086136	20717.0
194.079651	3716.0
195.089706	15238.0
196.093582	3104.0
196.898834	6020.0
197.086655	32575.0
198.074753	5991.0
198.894897	1580.0
199.065186	7896.0
199.996994	1992.0
200.115601	2671.0
200.962021	3612.0
201.107132	4425.0
202.087494	1293.0
203.088287	8414.0
204.100647	2122.0
205.090607	8850.0
206.080261	2833.0
207.093826	13088.0
208.1008	3239.0
209.088104	28325.0
210.070541	6705.0
211.065857	24852.0
212.067413	8224.0
212.873032	2911.0
213.077942	7454.0
214.058228	2071.0
214.898224	1136.0
215.064911	6149.0
216.113632	1213.0
216.934433	8573.0
217.109024	4853.0
218.085815	1450.0
218.955276	1137.0
219.107574	8091.0
220.089417	2455.0
220.953827	1474.0
221.108093	12665.0
222.108093	2555.0
222.930054	1086.0
223.096207	18898.0
224.09581	4042.0
225.085953	15141.0
226.080475	30816.0
227.074738	11707.0
228.083923	4220.0
229.071701	5451.0
230.046112	2265.0
230.954514	1220.0
231.09201	6315.0
232.087021	1760.0
232.925583	2716.0
233.1035	11130.0
234.104767	2984.0
234.996689	1432.0
235.118271	12757.0
236.097931	3731.0
236.993469	1084.0
237.11525	15676.0
238.089752	4317.0
238.916443	2784.0
239.102814	12367.0
240.084579	3049.0
240.218948	2303.0
241.093399	5309.0
242.067444	3118.0
242.234741	1094.0
243.032959	12279.0
243.151688	1550.0
244.035172	40577.0
244.172607	1044.0
245.045792	35634.0
245.183884	1113.0
246.041748	7678.0
247.065506	6410.0
247.168182	2204.0
248.109955	2131.0
248.940598	1451.0
249.119278	12721.0
250.115799	3236.0
250.994873	1039.0
251.117538	18125.0
252.118546	3628.0
253.122818	13729.0
254.138855	3114.0
254.870804	2189.0
255.126266	10598.0
256.076111	2369.0
256.939087	1603.0
257.110443	4154.0
258.049744	89523.0
259.046722	28034.0
260.045624	15649.0
260.877777	1354.0
261.021515	4279.0
261.131104	9770.0
262.05188	7505.0
262.173431	1165.0
263.018005	1899.0
263.137085	9241.0
264.128571	2686.0
265.124847	11764.0
266.11554	2252.0
267.12558	15883.0
268.111786	4747.0
269.005585	1328.0
269.13446	10702.0
270.137848	1949.0
270.998352	1435.0
271.114471	5122.0
272.071533	1704.0
273.138062	4256.0
274.050201	6966.0
274.992035	1004.0
275.131714	7702.0
276.129089	2373.0
277.149109	11339.0
278.137268	2722.0
279.143524	11481.0
280.151062	2453.0
281.132172	9548.0
282.133209	2451.0
282.871307	1413.0
283.12912	8899.0
284.072052	3607.0
284.329315	1477.0
285.123474	4974.0
286.067352	2507.0
286.987183	1442.0
287.138702	3834.0
288.057556	1397.0
288.982117	1740.0
289.151459	6801.0
290.0578	2368.0
290.185883	1326.0
291.158936	9975.0
292.141327	3181.0
293.150879	13481.0
294.154266	3292.0
295.152252	10779.0
296.138428	2575.0
297.13974	4091.0
298.143372	1647.0
298.855469	1883.0
298.975861	1484.0
299.145416	3448.0
300.8638	1117.0
301.080811	5032.0
301.196106	1441.0
302.052368	3018.0
303.170502	5593.0
304.15448	1851.0
305.174164	9803.0
306.196686	2375.0
307.165802	10667.0
308.159119	2780.0
309.164795	8295.0
310.146088	2690.0
311.158661	5944.0
312.071869	2904.0
312.936279	1112.0
313.151672	3664.0
314.813202	1022.0
314.985565	1363.0
315.176788	3424.0
316.003235	1157.0
316.860962	1201.0
317.046234	1188.0
317.192444	5856.0
318.177216	1900.0
319.066101	1037.0
319.189117	9614.0
320.19516	2485.0
320.910187	1255.0
321.167236	8937.0
322.178894	2370.0
323.170258	10776.0
324.171143	6556.0
325.161713	6975.0
326.173615	1756.0
327.105133	8652.0
327.250397	2774.0
328.070282	2623.0
328.908569	1060.0
329.041595	1032.0
329.176147	3772.0
330.079712	3564.0
331.188446	6906.0
332.062103	2611.0
332.216675	1592.0
333.186646	9544.0
334.047119	1482.0
334.197815	2225.0
335.035065	1314.0
335.187805	11054.0
336.207855	3066.0
337.175995	7636.0
338.197571	2135.0
339.183807	5464.0
340.152832	2769.0
341.164734	3493.0
342.190369	1166.0
343.201172	3822.0
345.188385	5797.0
346.054169	9121.0
346.207977	1716.0
347.045898	2859.0
347.202362	10094.0
348.048523	1035.0
348.21167	2820.0
349.199799	13356.0
350.029816	1065.0
350.204437	3415.0
351.202057	8648.0
352.069153	2095.0
352.2052	1473.0
353.186279	4976.0
354.171112	2124.0
355.211182	3970.0
356.147003	4192.0
357.136292	2652.0
357.257507	8658.0
358.25769	1902.0
359.212799	5177.0
360.230042	1912.0
361.226562	11505.0
362.038818	1325.0
362.240295	3263.0
363.219299	11903.0
364.211731	2391.0
365.183014	15224.0
366.19339	3135.0
366.993683	1020.0
367.202606	6920.0
368.038727	4405.0
368.213928	1680.0
369.048859	1113.0
369.203705	4379.0
370.171173	3568.0
371.176361	51976.0
371.307434	1374.0
372.157837	28192.0
373.141846	4076.0
END IONS

BEGIN IONS
PEPMASS=219.087
CHARGE=1
MSLEVEL=2
SOURCE_INSTRUMENT=LC-ESI-qTof
FILENAME=DMIM_centroided_library_abundance_filtered.mgf
SEQ=*..*
IONMODE=Positive
ORGANISM=DMIM-DRUG-METABOLITE-LIBRARY
NAME=TRIACETIN [M+H]+
PI=Libin Xu
DATACOLLECTOR=Dylan H. Ross
SMILES=CC(=O)OCC(COC(=O)C)OC(=O)C
INCHI=N/A
INCHIAUX=N/A
PUBMED=N/A
SUBMITUSER=jzemlin
LIBRARYQUALITY=3
SPECTRUMID=CCMSLIB00012466917
USI=mzspec:GNPS:DMIM-DRUG-METABOLITE-LIBRARY:accession:CCMSLIB00012466917
SCANS=1895
55.033897	1467.0
56.027546	1341.0
59.002689	1642.0
67.047668	1639.0
69.032196	1120.0
70.063431	1650.0
70.99884	1072.0
76.023338	1536.0
77.039406	3386.0
79.046715	2868.0
80.051422	2490.0
81.044785	2519.0
83.045578	5139.0
84.057106	9201.0
84.989929	5505.0
86.065437	2077.0
91.056282	4828.0
92.050079	1140.0
93.06723	2769.0
94.064095	1111.0
95.023323	6230.0
96.043983	2142.0
97.026962	4901.0
98.024681	1695.0
99.002945	4061.0
100.02623	1686.0
101.006676	1146.0
102.98774	3125.0
104.069458	1388.0
105.065262	5324.0
106.065407	1162.0
107.068161	3593.0
108.060005	2927.0
109.061378	4725.0
110.046135	2958.0
111.026627	3116.0
112.016327	5728.0
113.008629	2698.0
114.03907	1999.0
115.052757	3096.0
116.042961	3148.0
117.061974	2059.0
118.927269	19810.0
119.078262	4327.0
120.07373	1556.0
120.98214	4503.0
121.090187	4156.0
122.085083	1511.0
122.950722	1958.0
123.060814	8448.0
124.040535	2914.0
125.018829	3789.0
126.005699	1269.0
127.022133	2249.0
128.027252	5170.0
129.064194	4069.0
130.05275	2918.0
131.064377	2983.0
132.039322	1834.0
133.077637	3273.0
134.073441	2061.0
134.909637	2820.0
135.069901	4109.0
136.070312	5805.0
136.938141	28491.0
137.085068	3109.0
138.064392	1585.0
139.016434	5752.0
140.030975	1632.0
140.928757	1293.0
141.038803	3897.0
142.043442	5764.0
143.039337	4119.0
144.065948	1946.0
145.070435	4533.0
146.078201	1731.0
147.059372	3910.0
148.075897	1687.0
148.934967	1364.0
149.082626	3316.0
150.079453	1499.0
151.041351	3247.0
152.060898	2327.0
152.914978	5554.0
153.061951	3603.0
154.066147	1731.0
155.018143	3929.0
156.070969	1733.0
157.086304	2487.0
158.090073	1672.0
158.925949	2261.0
159.080704	3833.0
160.063187	3515.0
161.065826	3772.0
162.076752	2145.0
163.068756	2981.0
164.065231	1499.0
164.947067	3183.0
165.076218	2667.0
166.06665	1471.0
167.061783	2079.0
168.0634	1519.0
169.066681	2583.0
169.946335	1099.0
170.074905	1919.0
171.014023	1890.0
173.098862	1670.0
174.091461	1141.0
174.890701	2020.0
175.084717	2627.0
176.025375	1992.0
177.041931	3555.0
178.039719	1661.0
178.932678	1179.0
179.067581	3210.0
180.06427	1283.0
180.92421	4199.0
181.070847	1952.0
182.069946	1173.0
182.924576	1203.0
183.078705	1497.0
185.0392	1985.0
186.089523	1185.0
186.915573	1066.0
187.061234	1898.0
189.061035	2155.0
190.889099	1403.0
191.065659	2422.0
192.058395	1031.0
193.05098	3597.0
195.0811	1907.0
196.095444	1101.0
196.895035	1565.0
197.081314	1724.0
198.906021	1397.0
200.962921	1453.0
202.087921	1090.0
202.906479	2239.0
203.087494	1340.0
205.086166	1666.0
207.075821	1304.0
208.935104	1184.0
209.085892	1312.0
211.09198	1288.0
214.863266	1632.0
218.942841	1134.0
END IONS

BEGIN IONS
PEPMASS=95.0609
CHARGE=1
MSLEVEL=2
SOURCE_INSTRUMENT=LC-ESI-qTof
FILENAME=DMIM_centroided_library_abundance_filtered.mgf
SEQ=*..*
IONMODE=Positive
ORGANISM=DMIM-DRUG-METABOLITE-LIBRARY
NAME=FAMPRIDINE [M+H]+
PI=Libin Xu
DATACOLLECTOR=Dylan H. Ross
SMILES=C1=CN=CC=C1N
INCHI=N/A
INCHIAUX=N/A
PUBMED=N/A
SUBMITUSER=jzemlin
LIBRARYQUALITY=3
SPECTRUMID=CCMSLIB00012466978
USI=mzspec:GNPS:DMIM-DRUG-METABOLITE-LIBRARY:accession:CCMSLIB00012466978
SCANS=1956
49.972622	1268.0
50.993027	5606.0
51.165997	2188.0
51.636421	1414.0
52.787025	1091.0
53.312237	1430.0
53.878948	1727.0
54.032127	1570.0
54.29459	3432.0
54.760605	2293.0
54.930504	1725.0
55.464153	1650.0
55.735641	1030.0
55.917645	2162.0
56.228851	1694.0
56.395905	1249.0
56.729916	1621.0
56.910172	1848.0
57.46043	1001.0
57.883446	1106.0
58.182571	1959.0
58.61829	1149.0
58.911583	2213.0
59.326176	1334.0
59.983006	1710.0
60.179665	3618.0
60.553074	1509.0
61.737865	1262.0
61.891144	2658.0
62.329041	1271.0
62.574966	1676.0
62.800377	2039.0
63.05809	1056.0
64.051064	3019.0
64.308304	1650.0
65.043861	2072.0
65.287094	1609.0
65.732689	1878.0
66.825539	1425.0
67.089172	3835.0
68.138138	1115.0
69.077652	1704.0
69.473175	1339.0
69.815331	2809.0
70.101433	2022.0
70.492462	1712.0
70.714722	3183.0
71.025368	1352.0
71.216927	1361.0
72.762688	6646.0
73.80674	2560.0
73.994301	5381.0
74.152603	1544.0
74.474487	2165.0
75.259491	2676.0
75.781036	2610.0
76.095657	1086.0
76.514275	4037.0
76.678902	2690.0
76.856667	3205.0
77.030182	1927.0
77.145164	1334.0
77.411613	1318.0
77.798965	1928.0
77.915001	1571.0
78.076668	9606.0
78.254097	8992.0
78.464249	4612.0
78.619431	3536.0
78.810593	7959.0
79.069107	4304.0
79.238892	1260.0
79.410721	2012.0
79.5569	2583.0
79.780891	2718.0
79.912735	1072.0
80.061363	5534.0
80.252724	3342.0
80.40535	1088.0
80.529709	2442.0
80.695816	2085.0
80.863647	18025.0
81.060562	22022.0
81.183495	9974.0
81.311974	12397.0
81.430565	8608.0
81.596046	7479.0
81.744034	1642.0
81.893883	2453.0
82.093094	2669.0
82.244072	1256.0
82.447472	2668.0
82.612167	6608.0
82.76622	1812.0
82.973259	2991.0
83.160309	1175.0
83.311195	3651.0
83.490616	3987.0
83.712685	4239.0
83.904442	5296.0
84.08654	5920.0
84.244591	2965.0
84.364197	9267.0
84.577538	3400.0
84.76622	4201.0
84.918037	1356.0
85.180153	3848.0
85.310791	2097.0
85.501862	2972.0
85.616165	1488.0
85.917511	5556.0
86.108849	1746.0
86.929634	1914.0
87.075058	2819.0
87.255844	2835.0
87.489517	3445.0
87.747795	1417.0
88.014023	2899.0
88.640869	1040.0
89.000275	1228.0
89.174995	1657.0
89.427628	2310.0
89.818359	1891.0
89.992226	1006.0
90.212677	1543.0
90.388847	1562.0
90.579597	2231.0
90.862328	1130.0
91.06308	2673.0
91.213852	1285.0
91.494675	6416.0
91.771751	1643.0
91.930649	2604.0
92.098045	1069.0
92.592392	1831.0
92.8293	1862.0
93.01651	1059.0
93.130791	2300.0
93.436081	1066.0
93.708328	2599.0
94.184631	1499.0
94.368065	1215.0
94.991249	2593.0
95.169289	1470.0
95.36097	1296.0
95.682533	1127.0
95.897552	1825.0
96.743416	1122.0
96.952805	2230.0
END IONS

BEGIN IONS
PEPMASS=137.072
CHARGE=1
MSLEVEL=2
SOURCE_INSTRUMENT=LC-ESI-qTof
FILENAME=DMIM_centroided_library_abundance_filtered.mgf
SEQ=*..*
IONMODE=Positive
ORGANISM=DMIM-DRUG-METABOLITE-LIBRARY
NAME=PRALIDOXIME [M]+
PI=Libin Xu
DATACOLLECTOR=Dylan H. Ross
SMILES=C[N+]1=CC=CC=C1/C=N/O
INCHI=N/A
INCHIAUX=N/A
PUBMED=N/A
SUBMITUSER=jzemlin
LIBRARYQUALITY=3
SPECTRUMID=CCMSLIB00012467343
USI=mzspec:GNPS:DMIM-DRUG-METABOLITE-LIBRARY:accession:CCMSLIB00012467343
SCANS=2321
50.4473	3114.0
51.369518	2874.0
51.534065	2076.0
52.380718	1340.0
52.536564	1441.0
53.042667	2143.0
53.884796	2866.0
55.65382	1079.0
56.958939	1489.0
57.209976	1898.0
58.478394	1716.0
59.912724	1103.0
61.015762	2011.0
61.569027	3380.0
64.98967	1032.0
65.396751	1324.0
65.74913	1154.0
69.746605	4041.0
69.947655	2014.0
70.136559	1154.0
71.251526	2105.0
72.669144	1715.0
73.431	1073.0
73.588287	2397.0
73.985138	1270.0
77.001579	3929.0
77.677406	1510.0
78.066673	2017.0
78.170708	1023.0
78.299324	3277.0
78.499542	1524.0
78.664207	1404.0
79.786301	1213.0
80.053513	2278.0
80.89537	3771.0
81.049385	4081.0
81.193726	6049.0
81.344872	1495.0
81.481331	2640.0
81.703476	1143.0
82.040489	1517.0
83.034317	1193.0
83.883057	1036.0
84.075287	1837.0
84.257744	1391.0
84.837975	8333.0
85.384506	1505.0
85.605492	1100.0
85.966995	1725.0
86.436897	1999.0
87.190132	1186.0
87.499863	2352.0
89.882446	1802.0
91.076363	1469.0
93.04808	3067.0
93.660431	2847.0
94.052185	1278.0
94.93058	2504.0
95.387886	1405.0
96.975586	2185.0
98.978363	1210.0
105.934631	1318.0
107.094238	1027.0
107.708244	1104.0
110.95108	1490.0
114.122688	1024.0
115.029526	1793.0
117.121719	2221.0
119.059387	1876.0
120.065437	1053.0
121.047119	1852.0
123.059387	2442.0
123.669044	2537.0
127.211494	3604.0
127.779434	4121.0
128.062897	1060.0
129.077011	1223.0
134.902222	1886.0
136.062668	1988.0
137.070282	1674.0
END IONS

BEGIN IONS
PEPMASS=312.196
CHARGE=1
MSLEVEL=2
SOURCE_INSTRUMENT=LC-ESI-qTof
FILENAME=DMIM_centroided_library_abundance_filtered.mgf
SEQ=*..*
IONMODE=Positive
ORGANISM=DMIM-DRUG-METABOLITE-LIBRARY
NAME=ADIPHENINE [M+H]+
PI=Libin Xu
DATACOLLECTOR=Dylan H. Ross
SMILES=CCN(CC)CCOC(=O)C(C1=CC=CC=C1)C2=CC=CC=C2
INCHI=N/A
INCHIAUX=N/A
PUBMED=N/A
SUBMITUSER=jzemlin
LIBRARYQUALITY=3
SPECTRUMID=CCMSLIB00012467580
USI=mzspec:GNPS:DMIM-DRUG-METABOLITE-LIBRARY:accession:CCMSLIB00012467580
SCANS=2558
50.001316	1795.0
50.178379	2638.0
50.604984	1229.0
50.964653	1041.0
51.111263	3692.0
51.304745	1487.0
51.54187	1079.0
51.68819	1413.0
51.88052	1319.0
52.058693	1790.0
52.369801	1375.0
52.714153	1232.0
53.046883	2596.0
53.22226	1380.0
53.638302	1570.0
53.828835	1362.0
54.03521	1564.0
54.249008	1781.0
54.439838	1523.0
54.648609	1404.0
54.848164	1059.0
55.05164	9518.0
55.535828	1367.0
55.694614	1861.0
55.866005	1016.0
56.051422	7673.0
56.367058	1247.0
56.660698	1379.0
56.804417	1301.0
56.933292	1134.0
57.06987	9922.0
57.338352	2014.0
57.910492	1160.0
58.066681	5727.0
58.270267	1656.0
58.444988	1162.0
58.612068	1663.0
58.830677	1071.0
59.005306	6236.0
59.259674	1693.0
59.535126	1085.0
59.702366	2090.0
59.862309	1302.0
60.051743	5301.0
60.489315	1543.0
60.691498	4642.0
61.016972	2261.0
61.296654	2074.0
61.576794	1390.0
61.752609	2145.0
62.276676	1879.0
62.508892	1341.0
62.782841	1542.0
62.987171	4246.0
63.47665	1686.0
63.792393	1154.0
64.012505	1142.0
64.327477	1239.0
64.575874	1197.0
64.76841	1287.0
64.982628	6693.0
65.40947	1071.0
65.575287	1080.0
65.931221	2359.0
66.143379	1408.0
66.328629	1144.0
67.053299	7255.0
67.231537	1386.0
67.571991	1374.0
67.903229	1214.0
68.054123	4425.0
68.452293	1260.0
68.864281	2067.0
69.044075	28421.0
69.329018	1531.0
69.575615	1430.0
69.725601	1090.0
69.871048	2036.0
70.067184	104447.0
70.292099	2185.0
70.54763	1114.0
71.065048	6802.0
71.740814	1186.0
72.084221	42618.0
72.417976	1536.0
72.933189	1209.0
73.06813	6202.0
73.808266	1179.0
74.062309	6412.0
74.656693	1087.0
74.802803	1126.0
75.059082	2302.0
75.748283	1265.0
76.024078	12704.0
76.78727	1275.0
77.034554	4216.0
77.199623	1035.0
77.630974	5235.0
78.047295	3085.0
78.306541	2328.0
78.48954	2125.0
78.75869	1395.0
79.04615	7117.0
79.213295	1032.0
79.505486	1045.0
79.652977	1749.0
79.820709	1567.0
80.053123	6503.0
80.203613	1302.0
80.472267	1172.0
80.942856	3558.0
81.061119	15664.0
81.283356	2393.0
81.5186	2278.0
81.735649	1084.0
82.056503	6281.0
82.782471	1832.0
82.93399	1388.0
83.054741	7551.0
83.361115	1524.0
83.673103	1298.0
84.072395	182392.0
84.406624	1188.0
84.566902	1103.0
84.961212	4249.0
85.066879	16965.0
85.417328	1188.0
85.924538	1083.0
86.098816	72970.0
87.070091	9081.0
87.342667	1647.0
87.666862	1608.0
88.029243	9199.0
88.257324	1030.0
88.801201	1042.0
89.013092	3423.0
89.314804	1024.0
89.495644	1188.0
90.071304	1288.0
91.045624	11910.0
92.042244	1886.0
92.384705	1041.0
93.06176	8749.0
94.059135	2688.0
94.319023	1034.0
94.939003	1172.0
95.083618	19533.0
95.27803	1277.0
96.049072	9594.0
96.298264	1111.0
96.918579	2421.0
97.033455	410193.0
97.218361	1682.0
97.765472	1142.0
98.034317	30492.0
98.722534	1329.0
99.005806	21531.0
99.119408	1854.0
99.656364	1124.0
99.817123	1057.0
99.967415	1490.0
100.098557	14383.0
101.084305	8609.0
102.064774	6797.0
103.05587	4983.0
103.246124	1363.0
103.660667	1131.0
104.085312	4946.0
104.932571	1176.0
105.068008	22377.0
106.065079	5163.0
106.953186	1306.0
107.071861	8562.0
108.053253	9233.0
108.676353	1215.0
109.082069	11097.0
110.074982	78965.0
110.603325	1015.0
111.057472	19487.0
111.923332	1107.0
112.072601	16196.0
112.905022	77899.0
113.044228	44449.0
113.777466	1056.0
114.044014	10664.0
114.899811	35531.0
115.077271	15258.0
116.042648	17365.0
116.9095	4571.0
117.059372	6120.0
117.340942	1009.0
118.05162	5296.0
118.959885	16516.0
119.068924	11424.0
119.923187	1478.0
120.076836	67001.0
120.988434	18499.0
121.093079	11094.0
121.788101	1093.0
122.068604	8948.0
122.927368	5082.0
123.062073	93327.0
124.051605	15911.0
124.961494	16539.0
125.083832	6308.0
126.064491	9327.0
126.775017	1121.0
127.044075	19405.0
127.170486	1036.0
128.070267	7346.0
128.550034	1010.0
128.951141	1682.0
129.107178	171930.0
130.07489	66286.0
131.0737	14406.0
132.068237	10617.0
132.71936	1248.0
133.038025	20115.0
134.064056	5334.0
135.056122	16818.0
135.533173	1014.0
136.070465	302373.0
136.34549	1032.0
136.942078	103473.0
137.07402	32720.0
138.075653	14736.0
139.040146	24823.0
139.925735	1253.0
140.067017	13043.0
140.941803	6530.0
141.088379	17456.0
141.839218	1159.0
142.040833	48455.0
142.96701	38509.0
143.110931	18271.0
144.049606	14967.0
144.962845	1607.0
145.076065	15185.0
145.787033	2191.0
146.076523	7299.0
146.982864	3949.0
147.100967	23484.0
148.062714	13372.0
148.948074	1968.0
149.054932	13041.0
150.068024	10804.0
150.934875	3218.0
151.066193	14863.0
151.926651	2255.0
152.074387	23110.0
152.915253	2758.0
153.059097	22782.0
154.061035	12410.0
154.985123	3990.0
155.096954	32490.0
155.953934	1099.0
156.075729	21240.0
156.899368	12678.0
157.093857	27798.0
158.083603	14747.0
158.937698	64935.0
159.095612	33958.0
159.609695	1729.0
159.960541	1066.0
160.080673	9068.0
160.934189	6344.0
161.066238	15612.0
162.045776	17173.0
162.146698	1091.0
162.955246	1664.0
163.070038	17133.0
164.065628	10583.0
164.940033	181980.0
165.078445	26160.0
165.94339	1974.0
166.072617	36985.0
166.948303	4929.0
167.087234	98360.0
168.068924	29626.0
168.972916	3597.0
169.094009	35201.0
170.056427	17620.0
170.161865	1735.0
170.943512	1600.0
171.087967	37230.0
171.620453	2657.0
171.981186	1723.0
172.095963	11721.0
172.87027	1083.0
173.006165	19786.0
173.107712	38604.0
174.068756	17527.0
174.766541	2094.0
174.90506	2084448.0
175.088959	40386.0
175.282898	3571.0
175.529205	1508.0
175.917145	6836.0
176.097839	10913.0
176.610504	1147.0
176.907303	328038.0
177.058655	40129.0
177.190918	1380.0
177.704987	1321.0
177.89389	1176.0
178.077225	15059.0
178.234131	1319.0
178.968277	35030.0
179.096405	16098.0
179.212585	1090.0
179.506775	1344.0
179.970657	1749.0
180.094513	8460.0
180.56868	1298.0
180.913742	354514.0
181.075745	39660.0
181.944107	1160.0
182.081604	12073.0
182.926163	35473.0
183.103317	44028.0
183.953979	1297.0
184.079697	30505.0
184.912247	1711.0
185.096558	47642.0
185.996979	3182.0
186.119461	24176.0
186.922607	70073.0
187.106903	32571.0
188.066147	19226.0
188.916702	2018.0
189.061996	29922.0
190.043854	10776.0
190.9431	12477.0
191.077698	22466.0
191.91658	1376.0
192.085983	11077.0
192.946625	8848.0
193.073181	32426.0
193.949799	1299.0
194.078964	18026.0
194.950516	4059.0
195.086349	37722.0
196.061218	20834.0
196.888412	689753.0
197.009918	6438.0
197.115601	30443.0
197.882721	2062.0
197.987503	3882.0
198.116013	11887.0
198.890106	117039.0
199.073593	36424.0
199.2043	3198.0
199.989578	17349.0
200.142166	18489.0
200.94603	125862.0
201.118011	30790.0
201.949707	2076.0
202.102142	14145.0
202.899704	65467.0
203.075943	46999.0
203.907181	1271.0
204.08139	15212.0
204.913834	10563.0
205.082428	22181.0
206.014679	16067.0
206.123169	4048.0
206.920319	2243.0
207.069489	34922.0
207.183197	1163.0
207.975494	2601.0
208.096558	11500.0
208.951721	4151.0
209.087158	42247.0
209.954422	1156.0
210.101425	16620.0
211.006302	9954.0
211.117599	23496.0
211.940826	3460.0
212.111343	21172.0
212.68013	1458.0
212.86261	804209.0
213.007004	7122.0
213.108246	33456.0
213.876877	2803.0
214.09433	24898.0
214.222443	1608.0
214.623138	1134.0
214.865112	183648.0
214.998886	12639.0
215.116104	23855.0
215.875992	1939.0
215.991333	5276.0
216.11792	15963.0
216.922974	75085.0
217.070114	38437.0
217.623062	1078.0
218.032944	9370.0
218.15303	4725.0
218.875275	71865.0
219.008392	9173.0
219.112305	15244.0
219.899078	2213.0
220.074097	15496.0
220.926208	72305.0
221.098053	21989.0
221.97081	4625.0
222.100281	13864.0
222.949738	29730.0
223.107483	30143.0
223.980347	1599.0
224.110428	14132.0
224.935959	3638.0
225.089157	32810.0
225.196075	1691.0
225.640701	1329.0
225.867615	1202.0
226.017212	4313.0
226.137695	30242.0
226.902832	5963.0
227.056137	46711.0
227.161102	6898.0
227.98613	6181.0
228.130569	21344.0
228.957184	10943.0
229.109039	28224.0
229.973221	2782.0
230.119781	16564.0
230.912308	3646.0
231.061813	40087.0
231.169678	2213.0
231.896317	8614.0
232.093109	29091.0
232.903183	19832.0
233.080017	27596.0
233.183884	3163.0
233.990875	2502.0
234.12471	11304.0
234.877411	78823.0
235.027817	25885.0
235.132339	15148.0
235.860764	1366.0
236.024704	3550.0
236.132706	9655.0
236.858246	11827.0
237.008469	11019.0
237.12291	26132.0
237.987411	5797.0
238.115234	14182.0
238.937347	21674.0
239.105072	32362.0
239.866043	1340.0
240.010834	4399.0
240.131821	24722.0
240.935867	5144.0
241.088806	25490.0
241.222168	1250.0
241.941315	1869.0
242.055817	4280.0
242.159805	11635.0
242.883331	2777.0
243.003326	10054.0
243.127396	19911.0
243.894974	1729.0
244.137405	18784.0
244.904816	11267.0
245.09053	35283.0
245.95488	2471.0
246.126602	10355.0
246.953262	11892.0
247.118927	18002.0
247.934082	3207.0
248.120102	10271.0
248.686432	1373.0
248.903641	14904.0
249.067215	53758.0
249.174942	4558.0
249.889481	14918.0
250.093597	18607.0
250.839142	11140.0
250.970566	4815.0
251.110016	31000.0
251.840332	1236.0
251.97493	1966.0
252.122131	12142.0
252.846893	5898.0
253.047256	25181.0
253.16243	14490.0
254.009476	7081.0
254.148026	18996.0
254.898605	50475.0
255.11496	24274.0
255.943863	1189.0
256.092224	16996.0
256.196411	2076.0
256.860748	2104.0
256.997681	32585.0
257.158264	15497.0
257.895691	1025.0
258.011597	2962.0
258.127594	16441.0
258.857391	4568.0
259.007019	13447.0
259.142029	12232.0
260.011932	3171.0
260.141693	9153.0
260.575287	1048.0
260.881866	25900.0
261.063782	17457.0
261.167145	5758.0
261.965607	2641.0
262.127808	11043.0
262.280823	1075.0
262.926178	11507.0
263.120575	16003.0
263.955963	4706.0
264.139404	6224.0
264.863373	4042.0
264.969147	13903.0
265.107971	20356.0
265.899414	1368.0
266.020996	5490.0
266.14563	11125.0
266.896667	49127.0
267.098236	33699.0
267.988312	5431.0
268.132477	19845.0
268.896149	3426.0
269.005646	5152.0
269.130585	20253.0
269.846558	1801.0
269.974335	2192.0
270.1409	15031.0
270.891388	26466.0
271.048279	19619.0
271.199524	10333.0
271.870392	2080.0
272.019409	4717.0
272.164856	11432.0
272.881714	12463.0
273.053925	18094.0
273.17395	3374.0
273.972961	2358.0
274.1203	10901.0
274.846375	4412.0
274.975677	5681.0
275.153656	14519.0
275.877136	1514.0
276.006958	3143.0
276.154694	10810.0
276.676483	1094.0
276.860779	25228.0
277.019409	6071.0
277.141174	18443.0
277.899689	2222.0
278.026337	3954.0
278.131073	10301.0
278.889008	19550.0
279.008179	4828.0
279.131439	19189.0
279.946167	3292.0
280.136688	10834.0
280.692352	1071.0
280.866699	4505.0
280.985931	5485.0
281.138947	16223.0
281.894501	1125.0
282.025818	3289.0
282.154938	10493.0
282.866699	169684.0
283.03772	18312.0
283.167419	10025.0
283.661255	2455.0
283.87381	2218.0
284.063934	15892.0
284.184662	6934.0
284.891571	38590.0
285.035797	4548.0
285.139282	19496.0
285.88327	1753.0
286.074646	23827.0
286.181763	5284.0
286.870392	14661.0
287.022919	10719.0
287.156952	11679.0
287.665344	1775.0
287.85437	1982.0
287.978455	3851.0
288.127686	15484.0
288.625458	1521.0
288.876282	100971.0
289.062683	17011.0
289.18045	5969.0
289.911011	1882.0
290.084167	10669.0
290.185974	2091.0
290.886719	6566.0
291.0159	6528.0
291.144196	18016.0
291.451569	1017.0
291.690796	1333.0
291.992401	4877.0
292.153076	9601.0
292.582275	1480.0
292.836639	22295.0
293.001038	4512.0
293.148193	19592.0
293.860382	1799.0
294.037262	4649.0
294.168091	11536.0
294.863983	29054.0
295.05545	7901.0
295.177826	15786.0
295.944397	1471.0
296.103394	15376.0
296.215515	2924.0
296.838135	4138.0
296.944275	18784.0
297.150452	15056.0
297.681183	1021.0
297.835785	1637.0
297.99231	3578.0
298.141998	11978.0
298.621674	1666.0
298.843201	249372.0
298.980164	10090.0
299.156616	14321.0
299.645691	1345.0
299.865631	2443.0
300.007874	4599.0
300.144775	12426.0
300.691315	1153.0
300.870941	118394.0
301.06308	20605.0
301.187805	7722.0
301.877655	2557.0
302.072937	23078.0
302.194611	3689.0
302.63739	1007.0
302.866119	13589.0
303.038239	4845.0
303.154663	12658.0
303.722778	1355.0
303.881287	1156.0
304.053406	9088.0
304.170166	5861.0
304.695435	1195.0
304.849976	197143.0
305.023621	4818.0
305.160645	15578.0
305.859924	2759.0
306.094757	9744.0
306.200958	1396.0
306.864716	36741.0
307.031799	7750.0
307.164978	20066.0
307.649536	1595.0
307.84549	1289.0
307.965332	1569.0
308.121124	18664.0
308.22879	1328.0
308.873413	6559.0
309.010071	4432.0
309.162933	17393.0
309.85376	2607.0
310.03241	4240.0
310.171051	10733.0
310.845428	31653.0
311.028961	7373.0
311.186127	15881.0
311.887756	3163.0
312.066498	54900.0
312.194855	6954.0
312.678955	1088.0
312.883636	18609.0
313.07785	18110.0
313.210999	6970.0
313.670959	1927.0
313.885162	1847.0
314.110199	11241.0
END IONS

BEGIN IONS
PEPMASS=294.132
CHARGE=1
MSLEVEL=2
SOURCE_INSTRUMENT=LC-ESI-qTof
FILENAME=DMIM_centroided_library_abundance_filtered.mgf
SEQ=*..*
IONMODE=Positive
ORGANISM=DMIM-DRUG-METABOLITE-LIBRARY
NAME=PIMETHIXENE [M+H]+
PI=Libin Xu
DATACOLLECTOR=Dylan H. Ross
SMILES=CN1CCC(=C2C3=CC=CC=C3SC4=CC=CC=C42)CC1
INCHI=N/A
INCHIAUX=N/A
PUBMED=N/A
SUBMITUSER=jzemlin
LIBRARYQUALITY=3
SPECTRUMID=CCMSLIB00012468238
USI=mzspec:GNPS:DMIM-DRUG-METABOLITE-LIBRARY:accession:CCMSLIB00012468238
SCANS=3216
53.038002	1127.0
54.035759	1660.0
55.046886	8935.0
56.051834	20959.0
57.061375	4886.0
58.062618	10736.0
58.998734	164314.0
60.019867	4691.0
61.005508	10970.0
62.987564	3180.0
65.034012	3487.0
67.051895	18423.0
68.052643	21956.0
69.049431	17120.0
70.066299	52845.0
71.055489	5204.0
72.082497	9827.0
73.025108	8629.0
74.05072	4046.0
75.034126	1264.0
76.025185	521049.0
76.258118	1202.0
77.037331	42212.0
78.022476	22348.0
79.052879	20756.0
80.052689	57005.0
81.062576	33773.0
82.069275	593645.0
82.307976	2996.0
82.782478	1544.0
83.06572	36861.0
84.049797	665209.0
84.794289	1287.0
85.038597	44241.0
86.083351	19402.0
86.999474	14300.0
87.120323	1112.0
88.025841	45203.0
89.0326	4876.0
90.026474	2044.0
91.057518	56138.0
92.056778	4914.0
93.068146	12730.0
94.067345	38792.0
94.278793	1295.0
95.054184	34328.0
96.085541	974285.0
96.213264	9416.0
96.347046	8400.0
96.838417	2396.0
96.944778	2688.0
97.076118	466758.0
97.353943	1507.0
98.06118	49296.0
99.022125	18274.0
100.039124	5577.0
101.053284	3322.0
102.072159	8898.0
103.04718	6515.0
104.056068	2618.0
105.066353	16936.0
106.06678	4116.0
107.078606	17370.0
108.055206	13653.0
109.076782	31528.0
110.062279	21344.0
111.052505	19579.0
112.032135	18099.0
113.036133	20811.0
114.037712	19714.0
115.060593	18508.0
116.023209	139586.0
117.059471	23859.0
118.034172	10327.0
118.926888	10460.0
119.063339	22182.0
120.062897	24255.0
121.039803	43426.0
122.05986	13095.0
123.062195	75051.0
124.033684	27144.0
124.9692	28658.0
125.082794	8852.0
126.047966	6795.0
127.030128	16647.0
128.054245	10392.0
129.094925	46797.0
130.057236	137525.0
131.06456	20347.0
132.060181	7925.0
133.062363	22891.0
134.060577	9951.0
135.055893	29263.0
136.06749	56550.0
136.9496	61326.0
137.082199	30773.0
138.067154	12253.0
139.038666	38493.0
140.037262	10413.0
140.927567	4433.0
141.063232	35906.0
142.041855	282743.0
142.986969	51681.0
143.088211	14268.0
144.028748	59816.0
144.174088	1780.0
144.954773	1520.0
145.072388	18714.0
146.051926	11959.0
147.057022	32550.0
148.058075	11167.0
148.960297	1993.0
149.077576	20712.0
150.064896	9530.0
151.061157	26602.0
152.064789	54841.0
152.922684	2744.0
153.065247	63663.0
154.067886	15267.0
155.06488	20333.0
156.046722	13627.0
156.883286	1223.0
157.062302	18289.0
157.960419	1325.0
158.10585	11257.0
158.934616	11730.0
159.091354	20904.0
160.04454	26602.0
160.93837	3117.0
161.08226	20738.0
162.030823	98025.0
162.143524	1648.0
162.942261	2518.0
163.069885	34254.0
164.055542	16813.0
164.935287	36452.0
165.073822	108507.0
166.068985	29682.0
166.939056	2077.0
167.065399	29902.0
168.05307	18523.0
169.066788	22473.0
170.043777	31819.0
171.078033	55023.0
171.943726	1033.0
172.076355	13186.0
173.062363	29935.0
173.164368	1379.0
174.056854	12406.0
174.919403	26038.0
175.090515	21209.0
176.046906	9506.0
176.14798	1934.0
176.901489	2585.0
177.054214	34755.0
177.155243	1737.0
177.925613	1073.0
178.082809	70590.0
178.943909	7346.0
179.078934	68281.0
179.958618	1283.0
180.081573	16602.0
180.914093	35180.0
181.073746	48826.0
181.951965	1863.0
182.079514	10784.0
182.921295	4058.0
183.0755	31081.0
184.068924	19992.0
184.212326	2936.0
184.912735	1730.0
185.06279	35548.0
185.175049	2605.0
186.068466	9804.0
186.221008	32181.0
186.919357	14752.0
187.071671	36773.0
187.221405	3986.0
188.05426	15321.0
188.175903	1014.0
188.906952	1124.0
189.066177	25060.0
189.960739	1708.0
190.072586	11149.0
190.923187	3623.0
191.072678	29474.0
191.926529	4126.0
192.077988	10727.0
192.948013	7369.0
193.076416	42680.0
193.325012	1869.0
194.082703	10815.0
194.954056	3545.0
195.088364	31763.0
196.03157	15213.0
196.140701	3570.0
196.889618	22856.0
197.051926	1563575.0
197.208954	60999.0
197.337845	38878.0
197.444199	16735.0
197.882309	1104.0
198.054855	340309.0
198.218323	32056.0
198.327408	8172.0
198.453293	1124.0
198.893677	10273.0
199.050659	155143.0
199.20462	15442.0
199.319611	1121.0
200.049179	38223.0
200.184723	4494.0
200.942078	140076.0
201.094971	21496.0
201.943222	2642.0
202.081345	30411.0
202.906082	9935.0
203.072418	136828.0
203.921173	2285.0
204.0896	35147.0
204.916321	9763.0
205.090286	23083.0
206.012482	17939.0
206.120163	5011.0
206.957504	4395.0
207.08783	23938.0
208.051987	19409.0
208.932083	3832.0
209.075287	78941.0
210.059341	159989.0
210.182144	1140.0
210.906555	1642.0
211.069794	75238.0
212.072067	19827.0
212.188843	2316.0
212.873047	11305.0
213.064255	28915.0
213.171387	1986.0
213.942184	1636.0
214.077881	16048.0
214.871017	4363.0
215.044952	64173.0
215.155518	3820.0
215.939972	3002.0
216.078705	21397.0
216.946579	29594.0
217.100662	51292.0
217.978714	2475.0
218.115402	46350.0
218.936569	9127.0
219.109131	23480.0
219.974457	1103.0
220.10817	7096.0
220.912994	15699.0
221.055725	156900.0
221.168823	1390.0
222.058716	106382.0
222.19873	1050.0
222.918884	25209.0
223.067627	199795.0
224.068039	35312.0
224.193069	1058.0
224.904907	2187.0
225.078094	31509.0
225.1819	1843.0
225.959763	1923.0
226.112793	10847.0
226.903503	2877.0
227.068512	34149.0
227.960724	2500.0
228.092682	17605.0
228.257217	1032.0
228.946121	2420.0
229.091583	19115.0
229.946457	1476.0
230.109329	7708.0
230.925659	5105.0
231.094147	17336.0
231.906326	2212.0
232.093597	9907.0
232.884827	11110.0
233.073318	38409.0
233.180573	1965.0
233.908936	1666.0
234.061111	105684.0
234.893814	4376.0
235.066559	105877.0
235.181442	1948.0
235.902359	1222.0
236.073593	40233.0
236.917175	4025.0
237.088913	64890.0
237.93689	1626.0
238.08905	15917.0
238.919891	17465.0
239.090912	23803.0
240.054138	12237.0
240.205338	6152.0
240.863312	2608.0
240.992859	8393.0
241.122849	5803.0
241.249222	1031.0
242.04628	4392.0
242.162674	1762.0
242.28511	4834.0
242.89122	4047.0
243.06221	8729.0
243.165756	3271.0
243.973679	2957.0
244.124817	7892.0
244.900177	4706.0
245.078064	28287.0
245.196625	1059.0
245.904968	1585.0
246.075836	9600.0
246.917969	3308.0
247.078125	30713.0
247.188385	2276.0
247.933212	2683.0
248.079849	17772.0
248.924881	5004.0
249.081482	111872.0
249.203827	2080.0
249.917358	1933.0
250.082458	28725.0
250.951355	2377.0
251.092529	110899.0
251.939209	1714.0
252.099197	22678.0
252.890121	1071.0
253.009171	6070.0
253.127213	23716.0
253.956375	1770.0
254.120255	8101.0
254.860199	21115.0
254.988815	1976.0
255.115936	13328.0
256.065155	7687.0
256.169556	1566.0
256.290192	3367.0
256.862457	1721.0
256.984314	20870.0
257.146912	5903.0
258.019562	24164.0
258.175201	4057.0
258.881409	6619.0
259.008972	4451.0
259.125397	11891.0
259.909241	1336.0
260.088379	8161.0
260.218658	1318.0
260.879333	14097.0
261.10733	22835.0
261.946716	1467.0
262.104401	8709.0
262.90332	3755.0
263.121948	24181.0
263.939819	2692.0
264.103058	9338.0
264.881409	2837.0
264.998077	5760.0
265.119568	26648.0
265.974152	1509.0
266.11264	8271.0
266.89444	5019.0
267.098785	28543.0
267.989594	2711.0
268.115417	7962.0
268.878723	2119.0
268.993774	2852.0
269.129242	9605.0
269.966187	2583.0
270.139587	4898.0
270.325989	35352.0
270.843231	6403.0
271.010498	3708.0
271.13385	6409.0
271.323944	7607.0
272.023407	3395.0
272.16156	2188.0
272.887482	4852.0
273.068604	14785.0
273.179626	3128.0
274.01004	4357.0
274.144806	4009.0
274.840607	1143.0
274.958191	3514.0
275.141541	17235.0
275.982056	2528.0
276.151031	5807.0
276.868805	7379.0
277.014954	3614.0
277.145844	24252.0
277.96109	2535.0
278.109253	11581.0
278.88681	7760.0
279.127533	37813.0
279.993134	2388.0
280.128357	10643.0
280.915802	4056.0
281.13562	16033.0
281.987671	3421.0
282.146729	4077.0
282.867249	12698.0
283.010162	2491.0
283.14502	9925.0
284.073059	5700.0
284.215454	1664.0
284.877563	3081.0
285.071289	14770.0
285.195404	2636.0
286.029877	10187.0
286.168976	3066.0
286.859802	2008.0
286.973785	4196.0
287.130859	7424.0
288.083862	4501.0
288.223938	1365.0
288.872009	15820.0
289.027252	4285.0
289.152893	12627.0
289.975159	1373.0
290.122437	7119.0
290.917358	3205.0
291.126526	38424.0
291.955292	1533.0
292.127319	15007.0
292.846649	1805.0
292.980316	2339.0
293.141022	28913.0
293.988007	1781.0
294.14386	154169.0
294.31546	1992.0
294.605072	1272.0
294.871399	3749.0
295.000458	1477.0
295.148956	51358.0
295.617523	1011.0
295.958923	1765.0
296.096863	3626.0
END IONS

BEGIN IONS
PEPMASS=255.117
CHARGE=1
MSLEVEL=2
SOURCE_INSTRUMENT=LC-ESI-qTof
FILENAME=DMIM_centroided_library_abundance_filtered.mgf
SEQ=*..*
IONMODE=Positive
ORGANISM=DMIM-DRUG-METABOLITE-LIBRARY
NAME=THIAMYLAL [M+H]+
PI=Libin Xu
DATACOLLECTOR=Dylan H. Ross
SMILES=CCCC(C)C1(C(=O)NC(=S)NC1=O)CC=C
INCHI=N/A
INCHIAUX=N/A
PUBMED=N/A
SUBMITUSER=jzemlin
LIBRARYQUALITY=3
SPECTRUMID=CCMSLIB00012468637
USI=mzspec:GNPS:DMIM-DRUG-METABOLITE-LIBRARY:accession:CCMSLIB00012468637
SCANS=3615
55.040516	5011.0
56.049213	11999.0
57.012596	5136.0
58.040108	1777.0
58.999168	86548.0
60.020199	2019.0
61.006222	5740.0
62.992371	1833.0
65.023857	2286.0
66.034431	1188.0
67.052406	7204.0
68.051834	4193.0
69.039597	6059.0
70.064308	14039.0
71.024719	3806.0
72.07959	3561.0
73.014473	5355.0
74.041656	2657.0
76.026375	216325.0
77.040039	22621.0
77.479584	1031.0
78.027565	8946.0
79.046562	12820.0
80.053757	30927.0
81.054298	14880.0
82.05806	5079.0
83.052025	22978.0
84.050903	248931.0
85.012543	30530.0
86.053329	11920.0
86.996414	11427.0
88.026527	22829.0
89.023857	3150.0
90.025185	1517.0
91.058006	20670.0
92.05658	3774.0
93.061386	9565.0
94.057831	3429.0
95.026817	30673.0
96.05172	6648.0
97.03286	27427.0
98.020882	15755.0
99.009018	15753.0
100.03434	5045.0
101.015381	2333.0
102.04007	3682.0
102.939934	5036.0
103.042007	5743.0
104.091553	4052.0
105.070045	21443.0
106.057854	4928.0
107.074493	16698.0
108.060822	15731.0
109.066666	21367.0
110.059044	12598.0
111.030273	15059.0
112.024109	18167.0
113.007774	11863.0
114.048607	12599.0
114.925858	2968.0
115.056992	10271.0
116.0252	81549.0
116.151199	12552.0
117.057541	11917.0
118.035118	6646.0
118.928955	81962.0
119.076508	19801.0
120.064461	11584.0
120.967522	10760.0
121.080811	19336.0
121.948975	1130.0
122.06562	9934.0
122.933327	3428.0
123.060287	54591.0
124.035629	24297.0
125.020172	17859.0
126.036156	5546.0
127.028748	9315.0
128.048645	11408.0
128.954819	1276.0
129.081818	22888.0
130.058868	57098.0
130.918243	1746.0
131.075027	15703.0
132.06012	9205.0
132.969604	3445.0
133.083786	14409.0
133.966949	1170.0
134.078537	5168.0
134.913101	5107.0
135.070618	20267.0
136.069489	60646.0
136.94162	139819.0
137.082153	20044.0
138.058762	6620.0
139.023026	26627.0
140.034393	7955.0
140.925919	10283.0
141.052078	31298.0
142.041168	149753.0
142.915344	1215.0
143.04361	25216.0
144.028519	42628.0
144.944687	3313.0
145.076874	18262.0
146.057358	9637.0
146.947906	1334.0
147.072845	19281.0
148.071381	7828.0
148.956146	2525.0
149.08168	16722.0
150.053787	8882.0
150.945038	3521.0
151.06189	16367.0
151.92157	1852.0
152.057434	13539.0
152.922958	17283.0
153.062836	18042.0
153.930313	1324.0
154.068863	9570.0
154.947144	3370.0
155.067795	15285.0
155.96904	1739.0
156.088837	8403.0
156.945908	3128.0
157.086777	11232.0
157.969147	2109.0
158.098572	8749.0
158.923203	9685.0
159.086273	19674.0
160.05661	19729.0
160.93634	4569.0
161.078873	19266.0
162.03421	73881.0
162.146194	1272.0
162.91272	3094.0
163.060745	21605.0
164.054886	10104.0
164.956802	15296.0
165.080292	13588.0
165.961258	5644.0
166.077896	6573.0
166.945572	2963.0
167.066483	14573.0
167.945053	1623.0
168.068665	8549.0
168.946274	2513.0
169.0746	11619.0
170.045929	23908.0
171.059891	17675.0
171.945465	1217.0
172.078369	8090.0
172.926453	1166.0
173.075851	22811.0
174.078827	8604.0
174.889694	39260.0
175.081512	15486.0
176.056595	10957.0
176.888519	1361.0
177.038345	24174.0
178.074463	8469.0
178.899796	5922.0
179.064056	29763.0
179.946548	1442.0
180.077911	7026.0
180.931686	29245.0
181.076874	18081.0
181.992111	4407.0
182.101303	3863.0
182.915543	6900.0
183.055817	16748.0
183.970779	4337.0
184.098511	6192.0
184.911911	3573.0
185.069901	14153.0
185.947662	1311.0
186.095779	8199.0
186.921997	16626.0
187.067932	33881.0
188.062683	11607.0
188.908752	2358.0
189.069321	14684.0
190.017944	5233.0
190.127533	2160.0
190.885605	7601.0
191.059265	16075.0
191.926208	2727.0
192.082062	5829.0
192.930099	6202.0
193.076324	15387.0
193.97197	1127.0
194.095596	5744.0
194.934937	3293.0
195.093384	13101.0
195.961609	2727.0
196.089172	5803.0
196.90976	9762.0
197.083435	11625.0
197.984268	1370.0
198.093384	5641.0
198.914062	19303.0
199.075974	14663.0
199.971878	2403.0
200.091248	3786.0
200.245422	23834.0
200.924622	12572.0
201.049911	84479.0
201.244385	3933.0
201.923706	1437.0
202.064987	13676.0
202.919617	21378.0
203.095917	11187.0
203.922455	1562.0
204.091629	5858.0
204.927551	7336.0
205.091934	9776.0
206.008759	5591.0
206.121841	2588.0
206.916031	3689.0
207.089935	11741.0
207.961151	1843.0
208.102554	4169.0
208.934372	5587.0
209.085831	15443.0
209.986664	1420.0
210.102234	4918.0
210.950317	2662.0
211.095276	8818.0
211.95401	1735.0
212.112717	4250.0
212.893356	5258.0
213.07164	8467.0
213.895233	1134.0
214.076462	5851.0
214.888763	14857.0
215.053482	18325.0
215.885117	1576.0
216.053268	7265.0
216.916214	17035.0
217.080658	5968.0
217.920914	1460.0
218.090591	2670.0
218.227249	1576.0
218.863373	1589.0
218.971268	11391.0
219.121536	5532.0
219.953262	1782.0
220.103745	3873.0
220.930939	19416.0
221.108414	8617.0
221.954208	1152.0
222.099533	4445.0
222.943405	9268.0
223.093658	10659.0
223.952698	1743.0
224.11293	3479.0
224.911087	2906.0
225.079987	7557.0
225.951996	1945.0
226.114059	4472.0
226.90065	2544.0
227.063477	10749.0
227.882462	1576.0
228.065247	4981.0
228.92334	2894.0
229.089722	5199.0
229.98642	2530.0
230.159729	3419.0
230.885132	7818.0
231.063477	8708.0
231.897263	2641.0
232.0914	5161.0
232.889236	13720.0
233.085312	15594.0
233.897629	1725.0
234.088058	4782.0
234.895416	4795.0
235.015228	1797.0
235.116089	10135.0
236.113541	3299.0
236.885208	3466.0
236.99617	1729.0
237.109955	9947.0
237.96344	2857.0
238.114288	3105.0
238.890198	6402.0
239.082886	8322.0
239.891357	1255.0
240.092209	4158.0
240.87674	5742.0
241.01329	2587.0
241.139969	1861.0
242.116699	2644.0
242.906586	4374.0
243.097778	4394.0
244.073135	2793.0
244.896454	3231.0
245.07576	15066.0
245.915405	2285.0
246.090164	2883.0
246.930389	6631.0
247.116577	5138.0
247.93721	1880.0
248.120895	2282.0
248.943741	4592.0
249.116638	8764.0
249.911819	2752.0
250.109756	3882.0
250.902176	3109.0
251.099533	13656.0
251.986954	1008.0
252.118729	4245.0
252.980576	2757.0
253.133835	7048.0
254.131104	3147.0
254.86116	12970.0
255.060867	6985.0
256.055573	5163.0
256.183624	1556.0
256.90274	3416.0
257.060791	4400.0
END IONS

BEGIN IONS
PEPMASS=250.181
CHARGE=1
MSLEVEL=2
SOURCE_INSTRUMENT=LC-ESI-qTof
FILENAME=DMIM_centroided_library_abundance_filtered.mgf
SEQ=*..*
IONMODE=Positive
ORGANISM=DMIM-DRUG-METABOLITE-LIBRARY
NAME=ALPRENOLOL [M+H]+
PI=Libin Xu
DATACOLLECTOR=Dylan H. Ross
SMILES=CC(C)NCC(COC1=CC=CC=C1CC=C)O
INCHI=N/A
INCHIAUX=N/A
PUBMED=N/A
SUBMITUSER=jzemlin
LIBRARYQUALITY=3
SPECTRUMID=CCMSLIB00012468724
USI=mzspec:GNPS:DMIM-DRUG-METABOLITE-LIBRARY:accession:CCMSLIB00012468724
SCANS=3702
53.045506	1165.0
55.046749	4325.0
56.052975	59111.0
57.035767	5966.0
58.063675	11530.0
58.99921	164507.0
60.018585	4176.0
61.005894	8709.0
62.988689	1977.0
65.03479	3900.0
67.053215	8662.0
68.047836	4304.0
69.047745	6889.0
70.065529	16162.0
71.039177	3637.0
72.083519	31712.0
73.027374	8325.0
74.063812	54125.0
75.052055	2026.0
76.026138	494609.0
77.039078	40677.0
78.026421	19738.0
79.052208	22409.0
80.053635	40213.0
81.064629	14643.0
82.052071	5389.0
83.054314	16518.0
84.050514	541791.0
85.033951	33080.0
86.072556	15319.0
86.99894	16197.0
88.026367	36677.0
89.018356	3374.0
90.019081	1617.0
91.059372	294945.0
92.061356	18728.0
93.068474	13549.0
94.061218	3043.0
95.042717	28377.0
96.05336	6665.0
97.033569	23184.0
98.073143	50946.0
99.022247	15886.0
100.093704	17029.0
101.064156	2909.0
102.059944	6725.0
102.93557	1996.0
103.055946	12282.0
104.079697	10940.0
105.072227	36154.0
106.064781	5703.0
107.056992	127768.0
108.058517	20319.0
109.072762	22212.0
110.059349	13037.0
111.047546	13309.0
112.028625	16037.0
113.010933	10815.0
114.043877	18351.0
114.922607	1364.0
115.060707	34946.0
116.056618	241433.0
117.072594	74113.0
118.054466	14589.0
118.926949	30486.0
119.076134	64218.0
120.064934	17073.0
120.952095	2359.0
121.069733	31269.0
122.060745	10882.0
122.951828	2308.0
123.064949	49254.0
124.034035	28153.0
125.018867	20058.0
126.036552	5508.0
126.952286	1245.0
127.052597	29164.0
128.061661	28209.0
129.082718	43114.0
130.060028	122462.0
131.059708	88684.0
132.062866	72636.0
133.069229	34762.0
134.075592	8236.0
134.932877	2038.0
135.074341	24856.0
136.070251	36407.0
136.944336	88326.0
137.084946	19867.0
138.056091	6598.0
139.029404	27807.0
139.131775	1158.0
140.023361	7624.0
140.926193	5475.0
141.053986	31347.0
142.040237	235931.0
142.922272	1207.0
143.038757	38321.0
144.0298	83669.0
144.933075	1313.0
145.077698	63166.0
146.059082	18500.0
146.947357	1016.0
147.082321	71541.0
148.074768	15711.0
148.95723	1723.0
149.078735	19154.0
150.062119	8195.0
151.060074	16997.0
152.060028	28802.0
152.918976	7379.0
153.062149	35081.0
153.933014	1022.0
154.070969	10656.0
154.963074	2478.0
155.075684	18135.0
155.981659	3085.0
156.085815	7351.0
156.955154	2801.0
157.080994	14132.0
158.082352	27620.0
158.926575	7466.0
159.085968	20559.0
160.052765	19786.0
160.939789	4123.0
161.082352	24019.0
162.032516	127581.0
162.943649	2635.0
163.066284	28771.0
164.043732	13744.0
164.954712	18797.0
165.078812	13585.0
165.932892	1054.0
166.060333	9589.0
166.942291	1798.0
167.063873	14790.0
168.053848	10772.0
168.971466	2792.0
169.079834	15451.0
170.043839	25408.0
171.068863	18582.0
171.971939	1442.0
172.083649	7733.0
172.96344	1487.0
173.087326	51432.0
173.970764	1166.0
174.081345	13860.0
174.892761	22039.0
175.081131	18910.0
176.064194	10005.0
177.02861	20029.0
177.128937	5166.0
178.079453	7369.0
178.907089	2733.0
179.063644	36093.0
180.069748	8771.0
180.92308	21056.0
181.074326	30586.0
181.961258	1457.0
182.080231	6608.0
182.922974	4057.0
183.069733	19112.0
184.02742	8314.0
184.134491	2491.0
184.910416	2140.0
185.069946	15688.0
185.981934	1909.0
186.1203	7209.0
186.922089	11976.0
187.066971	42598.0
188.059631	14895.0
188.912064	1305.0
189.069595	17245.0
189.992111	2729.0
190.10321	5781.0
190.906845	5817.0
191.069931	18313.0
191.914246	2868.0
192.074875	6686.0
192.942352	5111.0
193.076553	24951.0
193.932526	1004.0
194.081299	7287.0
194.959793	3184.0
195.090683	15403.0
196.025406	7789.0
196.131943	2133.0
196.906769	13312.0
197.080109	19616.0
197.981201	2093.0
198.095596	5467.0
198.91214	15947.0
199.070023	16116.0
200.003326	8559.0
200.113083	2097.0
200.240753	11430.0
200.925339	8458.0
201.055527	77118.0
201.224747	3314.0
201.914642	1140.0
202.0625	14131.0
202.913284	11668.0
203.071152	34271.0
204.085785	9031.0
204.923584	5457.0
205.091278	12802.0
206.012451	12295.0
206.136826	2525.0
206.944199	3797.0
207.087173	14039.0
207.992157	2629.0
208.117752	6463.0
208.934174	3923.0
209.08252	26642.0
210.090347	8973.0
210.987991	2664.0
211.093384	11948.0
211.983322	1087.0
212.103897	5637.0
212.876648	4807.0
213.047821	12823.0
213.151443	1873.0
213.901505	1011.0
214.088745	8532.0
214.873718	8316.0
215.038025	35300.0
215.156525	2290.0
215.888992	1041.0
216.046417	10837.0
216.925278	18452.0
217.098038	8996.0
218.080856	4112.0
218.968185	9304.0
219.123703	7785.0
220.076141	4750.0
220.933121	16183.0
221.113815	10987.0
221.985336	1865.0
222.112442	5307.0
222.900772	3516.0
223.044785	22239.0
223.149246	2650.0
223.986053	1456.0
224.103607	5263.0
224.899612	1647.0
225.061157	12446.0
225.172852	1278.0
225.999054	1673.0
226.119583	5233.0
226.909195	1662.0
227.061523	17355.0
227.186569	1129.0
227.944458	2621.0
228.093185	9342.0
228.927902	2473.0
229.088654	10047.0
230.064224	3194.0
230.899567	6864.0
231.0923	8446.0
231.896515	1604.0
232.104462	6652.0
232.887848	11204.0
233.075378	27991.0
233.181915	1426.0
233.899902	1167.0
234.079971	5644.0
234.874496	1835.0
234.976212	4919.0
235.124084	11510.0
235.985229	1422.0
236.117798	3360.0
236.865051	1996.0
236.982239	3193.0
237.10968	15475.0
237.968201	1252.0
238.107361	4819.0
238.892593	8241.0
239.077698	13646.0
240.062485	5534.0
240.203598	2601.0
240.887299	5294.0
241.030716	4720.0
241.147324	3548.0
242.067917	3772.0
242.269897	2412.0
242.890091	3465.0
243.063934	6554.0
243.183197	1300.0
243.942535	1458.0
244.092804	3694.0
244.903778	3126.0
245.076584	21100.0
245.911667	2168.0
246.093231	4388.0
246.942429	4818.0
247.124664	7610.0
247.94635	1734.0
248.153336	7373.0
248.935654	4750.0
249.117538	14338.0
250.022888	2444.0
250.187256	22606.0
250.885986	2070.0
251.08606	27616.0
251.192291	5116.0
252.080643	6166.0
END IONS

BEGIN IONS
PEPMASS=180.114
CHARGE=1
MSLEVEL=2
SOURCE_INSTRUMENT=LC-ESI-qTof
FILENAME=DMIM_centroided_library_abundance_filtered.mgf
SEQ=*..*
IONMODE=Positive
ORGANISM=DMIM-DRUG-METABOLITE-LIBRARY
NAME=IPRONIAZID [M+H]+
PI=Libin Xu
DATACOLLECTOR=Dylan H. Ross
SMILES=CC(C)NNC(=O)C1=CC=NC=C1
INCHI=N/A
INCHIAUX=N/A
PUBMED=N/A
SUBMITUSER=jzemlin
LIBRARYQUALITY=3
SPECTRUMID=CCMSLIB00012468830
USI=mzspec:GNPS:DMIM-DRUG-METABOLITE-LIBRARY:accession:CCMSLIB00012468830
SCANS=3808
55.040657	2354.0
56.038452	3625.0
56.982922	2622.0
59.002064	6702.0
61.006687	1622.0
65.036942	2409.0
66.037537	3818.0
67.046715	5023.0
68.047546	1877.0
69.035706	3133.0
70.06353	5015.0
71.000648	2637.0
72.072716	1300.0
72.956947	1444.0
74.002586	1439.0
76.02533	5692.0
77.04248	12421.0
78.038544	7372.0
79.046738	96592.0
80.053238	24427.0
81.060936	7199.0
82.051201	3329.0
83.055367	15782.0
84.054634	18375.0
84.984238	13262.0
86.035355	5166.0
87.002815	1382.0
88.027077	2013.0
89.013306	1480.0
91.056778	22543.0
92.055092	4551.0
93.054672	18312.0
94.057617	3480.0
95.026604	17016.0
96.052979	3758.0
97.028252	9820.0
98.023163	5435.0
99.010475	6993.0
100.032097	4000.0
101.003654	2266.0
102.027542	2400.0
102.96067	11667.0
103.062126	3510.0
103.971001	1603.0
104.07988	1525.0
104.949249	1452.0
105.067398	19919.0
106.060043	5437.0
107.061531	13694.0
108.057663	13009.0
109.064217	16851.0
110.050941	5921.0
111.013969	7267.0
112.029381	9200.0
113.014099	5044.0
114.037659	3909.0
115.05732	11135.0
116.073296	8293.0
117.066231	8276.0
118.059669	2748.0
118.92807	90226.0
119.076973	16152.0
120.071213	6062.0
120.93087	1898.0
121.044418	122518.0
122.054222	15966.0
122.938927	6706.0
123.057053	28460.0
124.03701	14147.0
125.009598	8673.0
126.026314	3914.0
127.046875	7188.0
128.042358	14786.0
128.947128	1226.0
129.071106	13046.0
130.068863	8825.0
130.930328	1388.0
131.079086	11145.0
132.067413	4759.0
132.931641	2862.0
133.085022	10642.0
133.923904	1753.0
134.08432	4223.0
134.908371	17850.0
135.07515	14386.0
135.892624	1061.0
136.070038	38685.0
136.940506	80761.0
137.071899	26705.0
138.066025	9483.0
139.023254	12317.0
140.02092	3880.0
140.93129	4991.0
141.043701	22148.0
142.053879	23337.0
142.943909	3724.0
143.065598	11699.0
144.072433	7235.0
144.93129	1614.0
145.076767	12078.0
146.081223	6011.0
146.937485	1721.0
147.074173	11297.0
147.923477	1045.0
148.080368	4898.0
148.93924	2415.0
149.082687	10108.0
149.964355	1506.0
150.087891	4195.0
150.93367	2900.0
151.054779	8807.0
151.916779	3041.0
152.062714	8180.0
152.91568	24390.0
153.065628	11448.0
153.92009	2020.0
154.068985	5114.0
154.951294	3629.0
155.075958	10658.0
156.092163	5946.0
156.922485	1858.0
157.088257	9243.0
157.947052	1136.0
158.09819	6146.0
158.929016	4794.0
159.090408	11665.0
159.89621	1367.0
160.070251	7476.0
160.931931	2927.0
161.079849	9415.0
162.081329	6372.0
162.932251	4789.0
163.08493	7035.0
164.069885	4153.0
164.931015	5705.0
165.070084	11275.0
165.950928	4359.0
166.086929	3876.0
166.937408	2943.0
167.069244	7196.0
167.936127	1407.0
168.067322	5484.0
168.934128	2471.0
169.080826	7639.0
169.916336	1586.0
170.047623	11529.0
170.962585	1562.0
171.094315	5810.0
171.952484	1012.0
172.087158	4653.0
172.930939	1424.0
173.094925	7708.0
174.09848	3491.0
174.892014	13066.0
175.08017	7815.0
176.062546	5083.0
177.018143	9807.0
177.126175	2475.0
178.074631	5623.0
178.913818	4739.0
179.077805	7492.0
180.088242	3758.0
180.930344	15286.0
181.080231	7186.0
181.942276	1994.0
182.067902	2265.0
END IONS

BEGIN IONS
PEPMASS=139.098
CHARGE=1
MSLEVEL=2
SOURCE_INSTRUMENT=LC-ESI-qTof
FILENAME=DMIM_centroided_library_abundance_filtered.mgf
SEQ=*..*
IONMODE=Positive
ORGANISM=DMIM-DRUG-METABOLITE-LIBRARY
NAME=PENTYLENETETRAZOL [M+H]+
PI=Libin Xu
DATACOLLECTOR=Dylan H. Ross
SMILES=C1CCC2=NN=NN2CC1
INCHI=N/A
INCHIAUX=N/A
PUBMED=N/A
SUBMITUSER=jzemlin
LIBRARYQUALITY=3
SPECTRUMID=CCMSLIB00012468845
USI=mzspec:GNPS:DMIM-DRUG-METABOLITE-LIBRARY:accession:CCMSLIB00012468845
SCANS=3823
51.170025	1135.0
58.999317	1834.0
61.005489	1339.0
62.989578	1452.0
65.034836	2584.0
67.049126	1956.0
68.950645	1397.0
70.055084	1088.0
70.99646	1032.0
72.957176	1450.0
77.043831	10493.0
78.043808	2584.0
79.046501	6330.0
80.05101	2505.0
81.052467	2379.0
82.041512	1104.0
83.024544	1626.0
84.055496	1145.0
84.979088	2649.0
89.023903	1518.0
91.055428	13775.0
92.0532	1914.0
93.060661	3644.0
94.057663	1401.0
95.05703	1843.0
96.059357	1700.0
97.018539	2506.0
98.032928	1230.0
98.992149	1954.0
100.031311	1303.0
101.001854	1213.0
102.049149	1312.0
102.998878	6055.0
104.07106	1584.0
105.069252	8408.0
106.055626	2599.0
107.028694	8102.0
108.058029	2278.0
109.044579	5653.0
110.046776	2739.0
111.032219	1691.0
113.01004	1466.0
113.977928	1175.0
115.058273	12019.0
116.057693	3483.0
117.063759	5216.0
118.067009	2350.0
118.933266	5977.0
119.080437	5829.0
120.080063	2228.0
120.976448	3744.0
121.087753	4413.0
122.086662	6302.0
122.965401	9942.0
123.083473	6734.0
124.051346	3166.0
124.964523	5398.0
125.068466	1435.0
126.015259	2413.0
127.024948	7982.0
128.038574	14218.0
129.070648	7983.0
130.077209	3426.0
130.90448	1430.0
131.074203	3669.0
132.078171	1686.0
132.924774	1742.0
133.076614	2851.0
134.085571	1755.0
134.903595	19715.0
135.068848	8849.0
136.08902	3950.0
136.922165	2420.0
137.072372	3973.0
138.086395	1740.0
139.044266	6486.0
140.052109	1628.0
140.952728	2817.0
141.05838	9261.0
END IONS

BEGIN IONS
PEPMASS=315.091
CHARGE=1
MSLEVEL=2
SOURCE_INSTRUMENT=LC-ESI-qTof
FILENAME=DMIM_centroided_library_abundance_filtered.mgf
SEQ=*..*
IONMODE=Positive
ORGANISM=DMIM-DRUG-METABOLITE-LIBRARY
NAME=SULFAPHENAZOLE [M+H]+
PI=Libin Xu
DATACOLLECTOR=Dylan H. Ross
SMILES=C1=CC=C(C=C1)N2C(=CC=N2)NS(=O)(=O)C3=CC=C(C=C3)N
INCHI=N/A
INCHIAUX=N/A
PUBMED=N/A
SUBMITUSER=jzemlin
LIBRARYQUALITY=3
SPECTRUMID=CCMSLIB00012470766
USI=mzspec:GNPS:DMIM-DRUG-METABOLITE-LIBRARY:accession:CCMSLIB00012470766
SCANS=5744
56.053246	3384.0
58.998695	29596.0
61.005909	1195.0
65.041443	37504.0
66.04586	1440.0
67.051239	1062.0
70.066528	6319.0
72.082428	2378.0
73.022705	1108.0
76.025261	111632.0
77.038162	7046.0
78.028755	3888.0
79.037781	1831.0
80.053528	11206.0
81.066849	2565.0
83.060486	2203.0
84.050522	155488.0
85.042854	7057.0
86.090286	5712.0
86.99984	2305.0
88.026901	8868.0
89.003983	1781.0
91.045044	4537.0
92.053421	139335.0
93.058739	10826.0
94.062973	1287.0
95.063011	3476.0
97.037827	6550.0
98.018761	2880.0
99.019089	3030.0
100.05336	1274.0
102.072723	2069.0
103.05529	3580.0
104.055176	11948.0
105.059677	3565.0
106.069496	24782.0
107.069099	3547.0
108.04911	130452.0
109.061333	10036.0
110.068047	6108.0
111.055267	2894.0
112.043877	2593.0
113.037079	2322.0
114.034134	3747.0
115.059669	1895.0
116.028221	33892.0
117.052223	5144.0
118.045731	4457.0
118.923744	2113.0
119.065338	23031.0
120.063782	7470.0
120.963097	1009.0
121.080177	3567.0
122.054108	2264.0
123.065445	10230.0
124.035789	5604.0
124.977715	2720.0
125.080887	1987.0
126.045723	1156.0
127.024048	2936.0
128.062958	2349.0
129.102539	14370.0
130.062943	48994.0
131.065948	93853.0
132.071213	33120.0
133.076736	40895.0
134.077866	4989.0
135.071671	3378.0
136.069244	15551.0
136.94046	16350.0
137.077026	5113.0
138.069748	1868.0
139.035385	5116.0
140.024765	21338.0
141.050873	5800.0
142.038803	59117.0
142.949631	1889.0
143.059143	15650.0
144.031754	13241.0
145.071854	3007.0
146.050964	1772.0
147.074127	3755.0
148.061859	1379.0
149.056198	3420.0
150.054901	1319.0
151.056656	3180.0
152.063171	5749.0
153.064285	6573.0
154.058548	2651.0
155.071991	4077.0
156.020218	55851.0
157.05397	9234.0
158.078415	558457.0
158.233734	16031.0
158.407516	8059.0
158.940033	3214.0
159.085129	276592.0
159.226028	5863.0
159.939697	1890.0
160.092743	247870.0
160.228714	2514.0
160.927979	1266.0
161.092728	26077.0
162.033096	20220.0
163.063461	5733.0
164.049744	2341.0
164.939941	17620.0
165.078888	3974.0
166.065414	2646.0
167.068878	4274.0
168.048233	2587.0
169.075439	4437.0
170.042435	5814.0
171.082123	10373.0
172.080322	2426.0
173.064224	6213.0
174.037262	2323.0
174.901337	7669.0
175.084579	4522.0
176.093155	1375.0
176.901749	1001.0
177.052597	6725.0
178.080276	1890.0
179.06311	9316.0
180.074127	2158.0
180.913651	9257.0
181.070175	8642.0
182.078003	1932.0
182.920074	1264.0
183.078644	6115.0
184.078659	2434.0
185.060959	6861.0
186.094818	2653.0
186.220795	5674.0
186.921005	17438.0
187.072968	6594.0
188.058624	3046.0
189.041046	4135.0
190.00769	1861.0
191.05928	4701.0
192.064178	2271.0
192.950302	1699.0
193.076248	7477.0
194.087753	2505.0
195.089874	5460.0
196.015762	3780.0
196.891998	7959.0
197.088715	8956.0
198.096542	2225.0
198.913666	2971.0
199.066986	4409.0
199.994476	2517.0
200.131989	1382.0
200.9487	5656.0
201.099823	3749.0
202.099594	1439.0
202.897827	4996.0
203.063828	23604.0
204.069534	3546.0
204.915146	1828.0
205.080643	3677.0
206.001877	3800.0
207.08876	4401.0
208.087219	1756.0
209.089233	9147.0
210.105011	2177.0
211.089081	4801.0
212.113998	1960.0
212.865631	3667.0
213.077194	5697.0
214.084488	2762.0
214.874985	1210.0
215.039185	6475.0
216.055984	2035.0
216.933121	2912.0
217.086594	3668.0
218.90184	3142.0
219.095673	3458.0
220.086884	1238.0
220.922913	7058.0
221.106079	3098.0
222.046906	17560.0
222.924454	2099.0
223.07489	9236.0
224.063904	2289.0
225.097076	4239.0
226.148331	2271.0
226.910751	1173.0
227.060684	5922.0
228.102448	2987.0
228.938782	1362.0
229.099915	3551.0
230.119995	1112.0
231.091599	3017.0
232.096893	2411.0
232.903656	1287.0
233.082214	5369.0
234.120789	1448.0
234.926041	3579.0
235.112503	5654.0
236.124405	1525.0
236.970917	1212.0
237.112717	4876.0
238.117401	1501.0
238.891235	2630.0
239.079926	4614.0
240.144699	2322.0
241.006958	1972.0
241.128998	1052.0
242.891846	1380.0
243.100922	2741.0
244.129761	1479.0
244.891586	1336.0
245.074936	6160.0
246.101318	1565.0
246.995255	1172.0
247.124115	2941.0
248.102295	1082.0
248.907394	2912.0
249.100281	5685.0
250.11734	1780.0
251.098083	7419.0
252.107437	2371.0
252.974594	1342.0
253.121521	4821.0
254.144791	2248.0
254.863724	16260.0
255.107071	2838.0
256.082581	1184.0
256.216431	1714.0
256.912476	2924.0
257.147156	2035.0
258.018036	4485.0
258.168182	1163.0
258.882202	1578.0
259.108948	2271.0
260.876709	5003.0
261.126129	3805.0
262.127625	1583.0
262.918732	1397.0
263.136292	3900.0
264.142975	1122.0
264.889648	1400.0
265.12146	4132.0
266.112885	1652.0
266.903656	2240.0
267.111603	3651.0
268.161865	1560.0
269.133453	2563.0
270.102356	1404.0
270.325226	7928.0
270.8508	3813.0
271.085999	2039.0
271.300537	1748.0
272.873413	1935.0
273.088501	2388.0
275.143707	3415.0
276.145844	1278.0
276.861816	2702.0
277.156708	4063.0
278.142334	1288.0
278.883972	2840.0
279.147247	3494.0
280.152405	1438.0
280.869141	1084.0
281.132355	2023.0
282.863983	4578.0
283.151428	1881.0
284.113403	1650.0
284.885895	1177.0
285.073517	3006.0
286.068298	1410.0
286.890808	1108.0
287.128387	1867.0
288.870544	14096.0
289.028107	1016.0
289.147125	2556.0
290.14325	1044.0
290.899689	1307.0
291.148651	4767.0
292.136841	1585.0
292.877686	1088.0
293.155518	4475.0
294.154968	1540.0
295.160889	3306.0
296.094574	1299.0
296.89798	1423.0
297.134033	1347.0
298.857483	2581.0
299.165344	1373.0
300.894409	2292.0
301.082123	2117.0
303.174011	2205.0
304.853119	5446.0
305.158203	3248.0
306.144836	1007.0
306.866699	1580.0
307.068634	3362.0
307.179291	2898.0
308.167847	1325.0
309.166351	4123.0
310.160889	1232.0
311.17923	2326.0
312.06192	2630.0
313.067505	1509.0
313.210785	1188.0
314.157898	1184.0
314.822693	1706.0
315.106842	21515.0
316.112762	3940.0
316.86441	1462.0
END IONS

BEGIN IONS
PEPMASS=233.104
CHARGE=1
MSLEVEL=2
SOURCE_INSTRUMENT=LC-ESI-qTof
FILENAME=DMIM_centroided_library_abundance_filtered.mgf
SEQ=*..*
IONMODE=Positive
ORGANISM=DMIM-DRUG-METABOLITE-LIBRARY
NAME=TODRALAZINE [M+H]+
PI=Libin Xu
DATACOLLECTOR=Dylan H. Ross
SMILES=CCOC(=O)NNC1=NN=CC2=CC=CC=C21
INCHI=N/A
INCHIAUX=N/A
PUBMED=N/A
SUBMITUSER=jzemlin
LIBRARYQUALITY=3
SPECTRUMID=CCMSLIB00012470788
USI=mzspec:GNPS:DMIM-DRUG-METABOLITE-LIBRARY:accession:CCMSLIB00012470788
SCANS=5766
56.051449	1771.0
58.999695	6992.0
63.017742	2110.0
70.065369	2669.0
76.027069	12409.0
77.043259	11487.0
78.042503	2305.0
79.072906	2588.0
80.053391	6504.0
81.0578	1830.0
82.045082	1424.0
83.059258	6646.0
84.053253	29469.0
85.010422	6853.0
86.050247	2913.0
86.999474	1306.0
88.027664	2725.0
89.04277	417813.0
89.28775	1212.0
90.047668	63365.0
91.050957	8136.0
93.061783	2038.0
95.02327	4242.0
96.054543	1527.0
97.029907	4222.0
98.023201	3432.0
99.017822	3083.0
100.030388	1354.0
102.040993	3492.0
102.934639	1344.0
103.045456	90457.0
104.053566	70400.0
105.058929	9975.0
106.044518	2310.0
107.066574	2725.0
108.055542	4197.0
109.069183	2992.0
110.064156	2453.0
111.028374	1986.0
112.042572	3199.0
113.012741	2152.0
114.0467	3422.0
115.049156	4685.0
116.052391	47286.0
117.06144	160584.0
118.060966	18735.0
118.925751	57758.0
119.06559	3841.0
120.07222	2088.0
120.965965	4444.0
121.090965	2380.0
122.02932	1619.0
122.932404	2052.0
123.058121	17442.0
124.03685	6310.0
125.009918	2892.0
127.030685	1596.0
128.051849	2775.0
129.062225	12868.0
130.057678	52846.0
131.065277	105831.0
132.072144	112577.0
133.071396	11184.0
134.079346	1365.0
134.906784	3521.0
135.069901	2543.0
136.067505	37693.0
136.937469	59009.0
137.073959	4313.0
138.059937	1242.0
139.036362	3455.0
140.03125	2161.0
140.929871	1694.0
141.04834	5890.0
142.037384	22460.0
143.033096	6172.0
144.058075	33759.0
145.069748	254423.0
145.1987	1658.0
146.07135	24538.0
147.064011	4167.0
148.07399	1718.0
149.069519	2509.0
150.067307	1813.0
151.034134	2767.0
152.063248	2439.0
152.914856	5693.0
153.065094	3362.0
154.067215	2469.0
155.06868	3294.0
156.071594	2208.0
157.081421	2291.0
158.071152	5020.0
158.912674	2833.0
159.072906	149019.0
160.075836	28078.0
161.088547	184941.0
161.228012	1821.0
162.078018	25844.0
162.935852	1964.0
163.069794	2919.0
164.031509	1160.0
164.940384	11181.0
165.077454	2631.0
165.945908	1887.0
166.07193	1064.0
166.957397	1965.0
167.088608	1538.0
168.058136	1597.0
169.06604	2723.0
170.03981	4527.0
171.051437	3029.0
172.080017	1811.0
173.075607	5207.0
174.070038	1518.0
174.886993	13147.0
175.080353	2708.0
176.075653	1730.0
177.038788	6523.0
178.069199	2091.0
178.903183	2165.0
179.061722	4825.0
180.08168	1712.0
180.921234	20264.0
181.072968	3334.0
181.995209	1606.0
182.925049	4325.0
183.066635	2700.0
183.946396	1083.0
184.085022	1196.0
184.906113	1683.0
185.048294	5061.0
186.076111	1930.0
186.919296	40988.0
187.068481	80884.0
188.070511	10432.0
188.92424	1528.0
189.076614	2432.0
190.052048	1228.0
190.867813	3662.0
191.062836	2971.0
192.05957	1319.0
192.909988	1378.0
193.081223	2640.0
194.088745	1568.0
195.078018	2027.0
196.901642	4630.0
197.085709	2001.0
198.913986	5907.0
199.071594	3049.0
200.040482	1174.0
200.242477	3351.0
200.920013	3446.0
201.051682	23220.0
202.056442	3181.0
202.904968	13685.0
203.088287	2085.0
204.083496	1485.0
204.906082	4721.0
205.079575	13485.0
206.078812	1910.0
206.898956	1392.0
207.089157	1768.0
208.906311	1013.0
209.07489	2334.0
211.083359	2750.0
212.101242	1047.0
212.89592	2573.0
213.093826	1492.0
214.07695	1167.0
214.887375	4059.0
215.057343	2630.0
216.077591	1023.0
216.912552	2863.0
217.080994	1177.0
218.908356	3667.0
219.106064	1304.0
220.92392	6664.0
221.111038	1646.0
222.926163	2148.0
223.107376	1344.0
225.026947	1786.0
226.111649	1009.0
226.920105	1157.0
227.08934	1872.0
228.090958	1208.0
228.973312	1458.0
230.89032	1255.0
231.057495	4427.0
231.874207	1875.0
232.086731	1786.0
232.8853	2763.0
233.098389	4931.0
234.8806	1362.0
235.036377	2017.0
END IONS

BEGIN IONS
PEPMASS=228.115
CHARGE=1
MSLEVEL=2
SOURCE_INSTRUMENT=LC-ESI-qTof
FILENAME=DMIM_centroided_library_abundance_filtered.mgf
SEQ=*..*
IONMODE=Positive
ORGANISM=DMIM-DRUG-METABOLITE-LIBRARY
NAME=TULOBUTEROL [M+H]+
PI=Libin Xu
DATACOLLECTOR=Dylan H. Ross
SMILES=CC(C)(NCC(O)C1=CC=CC=C1Cl)C
INCHI=N/A
INCHIAUX=N/A
PUBMED=N/A
SUBMITUSER=jzemlin
LIBRARYQUALITY=3
SPECTRUMID=CCMSLIB00012471367
USI=mzspec:GNPS:DMIM-DRUG-METABOLITE-LIBRARY:accession:CCMSLIB00012471367
SCANS=6345
56.051826	1603.0
57.028461	1038.0
58.99868	12172.0
70.0653	3721.0
76.025162	28035.0
77.038361	2639.0
78.031586	1312.0
79.04364	1586.0
80.05162	5944.0
81.053856	1687.0
83.056465	4152.0
84.052094	39648.0
85.019012	5182.0
86.060104	3833.0
86.996758	1582.0
88.025024	3078.0
91.057121	18672.0
92.05999	1745.0
93.064453	1576.0
95.026787	3171.0
96.047241	1077.0
97.032669	4945.0
98.02198	2801.0
99.010117	2123.0
101.043259	1043.0
102.048996	2021.0
102.956184	1568.0
104.063118	1366.0
105.067291	2954.0
106.042435	1623.0
107.066162	2832.0
108.055168	3235.0
109.073219	3489.0
110.068596	3126.0
111.03231	1619.0
112.048538	2242.0
113.033958	1633.0
114.048767	2653.0
115.058868	1705.0
116.024139	13907.0
116.14682	1224.0
117.060936	5928.0
118.069336	54472.0
118.92482	40211.0
119.076775	68529.0
120.077019	7711.0
120.973022	2245.0
121.087173	2199.0
122.057877	1576.0
123.057869	22174.0
124.038963	6035.0
125.020782	2973.0
126.046158	1029.0
127.042992	1558.0
128.053558	1748.0
129.094055	5913.0
130.058502	10503.0
131.058136	2658.0
132.060532	5219.0
133.0495	3116.0
134.065842	1591.0
134.917389	1900.0
135.069336	2755.0
136.066681	42302.0
136.939896	51372.0
137.073212	4350.0
138.062759	1329.0
139.021683	3705.0
140.030945	1293.0
140.927582	1181.0
141.04837	6181.0
142.039124	28421.0
143.041977	5270.0
144.029099	7280.0
145.075104	2292.0
146.050629	1869.0
147.07164	2378.0
148.067093	1439.0
149.077469	2085.0
150.05661	1605.0
151.042542	2309.0
152.060745	2916.0
152.920959	4491.0
153.064285	3181.0
154.048309	41784.0
155.059586	6077.0
156.048859	14844.0
157.063385	3164.0
158.097687	1688.0
158.929184	2591.0
159.08165	2602.0
160.06279	3792.0
161.055008	2839.0
162.029266	12060.0
163.048355	2955.0
164.055511	1542.0
164.939545	9918.0
165.0784	1883.0
166.059219	1575.0
166.935822	1012.0
167.069305	2486.0
168.066574	1598.0
169.073212	2459.0
170.038544	4802.0
171.05899	3033.0
172.061661	1352.0
173.069778	4528.0
174.072495	1866.0
174.886017	10900.0
175.083206	2727.0
176.058502	1542.0
177.019653	6617.0
178.060547	1532.0
178.9086	1473.0
179.058823	5050.0
180.917755	12830.0
181.071701	3326.0
182.074615	1455.0
182.926498	2790.0
183.073853	2589.0
183.950684	1091.0
184.086823	1002.0
184.906693	1116.0
185.052551	2972.0
186.084442	1868.0
186.918823	39239.0
187.06691	5560.0
188.051758	2467.0
189.037933	2509.0
190.064545	1377.0
190.873184	2868.0
191.05249	2630.0
192.061905	1569.0
192.905777	1320.0
193.080109	2518.0
194.081421	1021.0
195.095169	2391.0
196.10257	1121.0
196.90329	4573.0
197.099869	2383.0
198.078003	1205.0
198.911942	5454.0
199.067017	2727.0
200.063721	1245.0
200.238876	3389.0
200.917725	3084.0
201.051712	26332.0
202.056671	3906.0
202.905396	10568.0
203.087799	1782.0
204.077835	1685.0
204.903763	5076.0
205.084015	1915.0
207.087646	1974.0
208.092468	1006.0
209.087479	1890.0
210.09613	1087.0
211.095612	1556.0
212.884628	2113.0
213.057388	1565.0
214.082611	1684.0
214.887833	3882.0
215.059448	2974.0
216.053513	1269.0
216.907059	3333.0
217.090881	1675.0
218.912872	3337.0
219.101303	1176.0
220.923141	5993.0
221.105515	2071.0
222.92012	2221.0
223.093216	1280.0
225.103165	1208.0
227.060959	1866.0
229.093536	1116.0
END IONS

BEGIN IONS
PEPMASS=392.186
CHARGE=1
MSLEVEL=2
SOURCE_INSTRUMENT=ESI-Orbitrap
FILENAME=gnps_msn_lib_pos.mgf
SEQ=*..*
IONMODE=Positive
ORGANISM=MSNLIB-POSITIVE
NAME=flavoxate [M+H]+
PI=Tomas Pluskal
DATACOLLECTOR=Corinna Brungs
SMILES=Cc1c(-c2ccccc2)oc2c(cccc2C(=O)OCCN2CCCCC2)c1=O
INCHI=InChI=1S/C24H25NO4/c1-17-21(26)19-11-8-12-20(23(19)29-22(17)18-9-4-2-5-10-18)24(27)28-16-15-25-13-6-3-7-14-25/h2,4-5,8-12H,3,6-7,13-16H2,1H3
INCHIAUX=SPIUTQOUKAMGCX-UHFFFAOYSA-N
PUBMED=N/A
SUBMITUSER=jzemlin
LIBRARYQUALITY=1
SPECTRUMID=CCMSLIB00012277771
USI=mzspec:GNPS:MSNLIB-POSITIVE:accession:CCMSLIB00012277771
SCANS=3470
41.026051	0.293
41.038651	1.88
41.255188	0.117
42.033871	0.22
43.57478	0.393
43.577255	0.393
44.049526	2.418
51.022907	0.43
53.002197	0.193
53.038574	0.159
54.010014	0.078
54.033787	0.144
55.054218	3.255
56.049461	10.419
58.065121	1.807
62.014996	0.221
63.022835	1.444
65.038483	0.349
66.041847	0.113
67.054184	0.414
69.069794	5.56
70.065056	0.255
82.065094	0.219
83.085403	0.12
84.080719	3.498
84.083	0.052
91.017746	3.601
93.033356	0.055
95.049026	0.279
97.088669	0.194
105.033463	1.271
105.044647	0.054
107.012657	0.093
110.096413	0.582
112.106613	0.159
112.109444	0.265
112.111931	100.0
112.114197	0.808
112.116486	0.629
112.119614	1.568
112.126015	0.969
112.130165	0.915
112.135422	0.384
119.012688	5.514
121.028275	0.109
121.039497	0.07
128.10701	0.106
146.993866	0.114
146.997574	0.125
147.007828	7.641
149.023163	0.632
150.026382	0.258
152.062057	0.052
164.985687	0.363
164.992294	0.284
165.00209	0.107
165.018341	47.578999
165.021301	0.193
165.024536	0.14
165.044556	0.267
165.050858	0.303
178.077698	0.09
179.085632	0.114
183.028992	2.225
191.034042	3.184
195.08078	0.165
209.044571	0.633
263.070435	14.095
307.096649	9.527
392.185944	20.561001
END IONS

BEGIN IONS
PEPMASS=223.144
CHARGE=1
MSLEVEL=2
SOURCE_INSTRUMENT=ESI-Orbitrap
FILENAME=gnps_msn_lib_pos.mgf
SEQ=*..*
IONMODE=Positive
ORGANISM=MSNLIB-POSITIVE
NAME=NEOSTIGMINE [M]+
PI=Tomas Pluskal
DATACOLLECTOR=Corinna Brungs
SMILES=CN(C)C(=O)Oc1cccc([N+](C)(C)C)c1
INCHI=InChI=1S/C12H19N2O2/c1-13(2)12(15)16-11-8-6-7-10(9-11)14(3,4)5/h6-9H,1-5H3/q+1
INCHIAUX=ALWKGYPQUAPLQC-UHFFFAOYSA-N
PUBMED=N/A
SUBMITUSER=jzemlin
LIBRARYQUALITY=1
SPECTRUMID=CCMSLIB00012278672
USI=mzspec:GNPS:MSNLIB-POSITIVE:accession:CCMSLIB00012278672
SCANS=4371
42.03381	0.188
44.049374	0.444
51.022923	0.024
55.783909	0.196
55.78743	0.289
56.012928	0.53
58.064903	0.564
63.022854	0.017
65.03846	0.13
66.046288	0.073
72.000053	0.048
72.03878	0.656
72.044006	97.342003
72.046532	0.08
72.048721	2.608
72.051064	2.201
72.053375	1.046
72.056076	0.359
72.058846	0.273
72.061531	0.126
72.064156	0.081
72.067169	0.061
72.080383	0.032
72.08532	0.057
77.038467	0.021
78.046257	0.077
79.020821	0.11
79.054085	0.053
80.049332	0.027
91.054039	0.132
92.02549	0.087
92.049324	0.083
92.061729	0.049
94.041168	0.046
95.049004	0.163
104.049423	0.018
105.044571	0.029
106.064957	0.157
107.048927	0.017
107.072784	0.177
108.05677	0.064
108.080612	0.291
109.089027	0.032
111.043884	0.026
118.064873	0.053
119.072754	0.063
120.044235	0.031
120.08062	0.208
121.052078	0.033
121.088577	0.066
122.059761	0.014
122.072517	0.131
122.096306	0.539
123.104179	0.048
125.059631	0.031
134.059891	0.096
134.096298	0.402
135.067734	0.327
135.104141	1.173
136.075562	0.62
137.083435	0.824
137.954269	0.094
149.1073	0.065
150.091248	2.57
150.094803	0.014
150.102219	0.038
151.099121	4.586
151.10997	0.073
152.106918	0.738
155.96463	0.049
163.062714	0.067
163.122894	0.085
164.070663	0.232
164.130814	0.258
166.122742	0.135
178.085266	0.036
178.087402	0.03
181.94426	0.039
207.113022	0.347
208.074326	0.04
208.120773	8.927
208.132339	0.026
208.157669	0.061
208.166855	0.078
223.048019	0.043
223.062927	0.089
223.092209	0.618
223.103912	0.405
223.144119	100.0
223.184814	0.674
223.195465	0.731
223.210602	0.281
223.225021	0.14
223.239243	0.076
223.254654	0.08
END IONS

BEGIN IONS
PEPMASS=836.662
CHARGE=1
MSLEVEL=2
SOURCE_INSTRUMENT=ESI-Orbitrap
FILENAME=gnps_msn_lib_pos.mgf
SEQ=*..*
IONMODE=Positive
ORGANISM=MSNLIB-POSITIVE
NAME=Erythrosin B [M+H]+
PI=Tomas Pluskal
DATACOLLECTOR=Corinna Brungs
SMILES=O=C1OC2(c3ccccc13)c1cc(I)c(O)c(I)c1Oc1c(I)c(O)c(I)cc12
INCHI=InChI=1S/C20H8I4O5/c21-11-5-9-17(13(23)15(11)25)28-18-10(6-12(22)16(26)14(18)24)20(9)8-4-2-1-3-7(8)19(27)29-20/h1-6,25-26H
INCHIAUX=OALHHIHQOFIMEF-UHFFFAOYSA-N
PUBMED=N/A
SUBMITUSER=jzemlin
LIBRARYQUALITY=1
SPECTRUMID=CCMSLIB00012278817
USI=mzspec:GNPS:MSNLIB-POSITIVE:accession:CCMSLIB00012278817
SCANS=4516
150.04631	1.65
163.054016	2.504
169.064911	0.835
174.046158	1.103
175.054184	1.273
176.062027	1.428
177.06987	2.343
187.054108	4.186
188.062012	5.444
189.06987	61.949001
198.046234	4.814
199.054199	3.584
200.061981	29.254
201.069901	32.445999
203.049164	1.851
205.06488	6.95
216.057266	2.818
217.064957	33.382
219.080811	17.607
221.060745	1.832
223.038925	1.57
227.049698	4.973
228.05719	9.919
229.064987	63.515999
231.044617	2.137
233.059631	1.965
235.075836	1.834
244.052063	4.114
245.059784	33.049999
255.044189	4.395
256.051849	30.858
257.059662	38.291
272.047516	2.466
273.054779	70.712997
273.089874	1.805
283.039764	3.798
284.046936	16.690001
285.054718	34.327
287.03421	6.558
300.042908	1.683
301.049774	17.080999
311.034393	5.165
329.044464	100.0
354.961365	2.017
371.965179	1.935
382.955139	1.531
383.964386	5.22
427.953369	2.916
509.864441	2.444
582.854187	16.330999
END IONS

BEGIN IONS
PEPMASS=233.201
CHARGE=1
MSLEVEL=2
SOURCE_INSTRUMENT=ESI-Orbitrap
FILENAME=gnps_msn_lib_pos.mgf
SEQ=*..*
IONMODE=Positive
ORGANISM=MSNLIB-POSITIVE
NAME=Aloperine [M+H]+
PI=Tomas Pluskal
DATACOLLECTOR=Corinna Brungs
SMILES=C1=C2CCCN[C@H]2[C@@H]2C[C@H]1[C@H]1CCCCN1C2
INCHI=InChI=1S/C15H24N2/c1-2-7-17-10-13-9-12(14(17)5-1)8-11-4-3-6-16-15(11)13/h8,12-16H,1-7,9-10H2/t12-,13+,14+,15+/m0/s1
INCHIAUX=SKOLRLSBMUGVOY-GBJTYRQASA-N
PUBMED=N/A
SUBMITUSER=jzemlin
LIBRARYQUALITY=1
SPECTRUMID=CCMSLIB00012281263
USI=mzspec:GNPS:MSNLIB-POSITIVE:accession:CCMSLIB00012281263
SCANS=6962
41.038616	0.192
42.033875	7.081
44.049438	0.567
51.022942	0.491
53.038593	0.118
54.03381	0.062
55.041622	0.055
55.054134	2.109
56.049366	0.478
57.057301	0.434
58.29805	0.161
58.301788	0.266
61.010406	0.096
62.018246	0.16
63.022896	0.182
65.038528	1.633
67.054016	0.737
68.049423	2.648
69.069756	0.452
70.06501	15.949
70.068306	0.18
70.071526	0.133
72.937035	0.035
77.038506	0.164
78.046333	0.055
79.053986	1.741
80.049377	0.597
81.057228	0.058
81.069527	0.122
82.064995	0.461
83.072823	0.509
84.080444	3.438
89.038521	0.073
91.054031	3.956
91.056671	0.043
93.057259	0.058
93.069588	0.236
94.065048	0.322
95.049088	0.936
95.085106	0.126
96.044464	0.037
96.080521	2.286
97.08828	0.131
98.090446	0.063
98.096207	71.139999
98.099281	0.49
98.103188	1.529
98.105522	0.035
98.107552	1.227
98.110794	0.653
98.115257	0.333
98.119675	0.158
99.099503	0.079
102.046387	0.114
103.054192	0.295
105.044685	0.117
105.069679	3.407
106.065155	0.082
107.072929	0.042
107.085251	0.343
108.080376	0.16
110.096115	1.034
111.103813	0.164
115.054161	0.127
117.069733	0.118
119.085258	0.254
120.080582	0.199
122.09626	2.572
124.111809	0.121
126.046471	0.033
127.054161	0.037
128.062012	0.317
129.069458	0.104
130.065063	0.233
131.085281	0.411
132.080551	0.092
133.089447	0.099
133.100891	1.481
134.096252	1.853
135.103973	0.309
136.111893	0.494
138.127548	0.479
143.085403	0.13
145.100983	0.132
146.096451	0.162
147.103912	0.163
148.111908	0.868
150.127609	1.211
150.950867	0.091
154.946075	0.085
159.006989	0.086
160.111969	0.22
161.119492	0.079
162.127533	0.251
172.112	0.087
174.127747	0.386
175.135574	0.079
176.143417	0.169
186.127823	0.08
188.143402	0.805
189.151428	0.111
190.159058	0.572
202.159149	0.192
203.166901	0.189
204.174866	0.694
205.169937	0.162
213.109848	0.089
214.159515	0.132
216.174881	3.151
231.185959	0.881
233.145981	0.63
233.155975	0.146
233.15834	0.417
233.201385	100.0
233.244843	0.592
233.25647	0.636
233.272812	0.259
233.288086	0.163
233.301819	0.084
END IONS

BEGIN IONS
PEPMASS=371.015
CHARGE=1
MSLEVEL=2
SOURCE_INSTRUMENT=ESI-Orbitrap
FILENAME=gnps_msn_lib_pos.mgf
SEQ=*..*
IONMODE=Positive
ORGANISM=MSNLIB-POSITIVE
NAME=azosemide [M+H]+
PI=Tomas Pluskal
DATACOLLECTOR=Corinna Brungs
SMILES=NS(=O)(=O)c1c(Cl)cc(NCc2cccs2)c(-c2n[nH]nn2)c1
INCHI=InChI=1S/C12H11ClN6O2S2/c13-9-5-10(15-6-7-2-1-3-22-7)8(12-16-18-19-17-12)4-11(9)23(14,20)21/h1-5,15H,6H2,(H2,14,20,21)(H,16,17,18,19)
INCHIAUX=HMEDEBAJARCKCT-UHFFFAOYSA-N
PUBMED=N/A
SUBMITUSER=jzemlin
LIBRARYQUALITY=1
SPECTRUMID=CCMSLIB00012285591
USI=mzspec:GNPS:MSNLIB-POSITIVE:accession:CCMSLIB00012285591
SCANS=11290
44.979385	12.13
53.038589	34.085999
68.979317	2.795
97.010536	100.0
129.138718	2.861
134.978668	4.232
152.989197	4.592
226.123352	2.757
232.947006	5.176
250.956039	3.111
END IONS

BEGIN IONS
PEPMASS=794.888
CHARGE=1
MSLEVEL=2
SOURCE_INSTRUMENT=ESI-Orbitrap
FILENAME=gnps_msn_lib_pos.mgf
SEQ=*..*
IONMODE=Positive
ORGANISM=MSNLIB-POSITIVE
NAME=iopamidol [M+NH4]+
PI=Tomas Pluskal
DATACOLLECTOR=Corinna Brungs
SMILES=C[C@H](O)C(=O)Nc1c(I)c(C(=O)NC(CO)CO)c(I)c(C(=O)NC(CO)CO)c1I
INCHI=InChI=1S/C17H22I3N3O8/c1-6(28)15(29)23-14-12(19)9(16(30)21-7(2-24)3-25)11(18)10(13(14)20)17(31)22-8(4-26)5-27/h6-8,24-28H,2-5H2,1H3,(H,21,30)(H,22,31)(H,23,29)/t6-/m0/s1
INCHIAUX=XQZXYNRDCRIARQ-LURJTMIESA-N
PUBMED=N/A
SUBMITUSER=jzemlin
LIBRARYQUALITY=1
SPECTRUMID=CCMSLIB00012300663
USI=mzspec:GNPS:MSNLIB-POSITIVE:accession:CCMSLIB00012300663
SCANS=17789
74.059784	100.0
285.935913	26.801001
331.943054	33.470001
END IONS

BEGIN IONS
PEPMASS=557.755
CHARGE=1
MSLEVEL=2
SOURCE_INSTRUMENT=ESI-Orbitrap
FILENAME=gnps_msn_lib_pos.mgf
SEQ=*..*
IONMODE=Positive
ORGANISM=MSNLIB-POSITIVE
NAME=Acetrizoic acid [M+H]+
PI=Tomas Pluskal
DATACOLLECTOR=Corinna Brungs
SMILES=CC(=O)Nc1c(I)cc(I)c(C(=O)O)c1I
INCHI=InChI=1S/C9H6I3NO3/c1-3(14)13-8-5(11)2-4(10)6(7(8)12)9(15)16/h2H,1H3,(H,13,14)(H,15,16)
INCHIAUX=GNOGSFBXBWBTIG-UHFFFAOYSA-N
PUBMED=N/A
SUBMITUSER=jzemlin
LIBRARYQUALITY=1
SPECTRUMID=CCMSLIB00012301625
USI=mzspec:GNPS:MSNLIB-POSITIVE:accession:CCMSLIB00012301625
SCANS=18148
91.041641	16.658001
133.052185	100.0
303.947327	36.777
END IONS

BEGIN IONS
PEPMASS=234.149
CHARGE=1
MSLEVEL=2
SOURCE_INSTRUMENT=ESI-Orbitrap
FILENAME=gnps_msn_lib_pos.mgf
SEQ=*..*
IONMODE=Positive
ORGANISM=MSNLIB-POSITIVE
NAME=Piperoxan [M+H]+
PI=Tomas Pluskal
DATACOLLECTOR=Corinna Brungs
SMILES=c1ccc2OC(CN3CCCCC3)COc2c1
INCHI=InChI=1S/C14H19NO2/c1-4-8-15(9-5-1)10-12-11-16-13-6-2-3-7-14(13)17-12/h2-3,6-7,12H,1,4-5,8-11H2
INCHIAUX=LYKMMUBOEFYJQG-UHFFFAOYSA-N
PUBMED=N/A
SUBMITUSER=jzemlin
LIBRARYQUALITY=1
SPECTRUMID=CCMSLIB00012304365
USI=mzspec:GNPS:MSNLIB-POSITIVE:accession:CCMSLIB00012304365
SCANS=19222
41.038643	0.936
42.033894	3.149
43.017773	0.252
43.041729	0.754
44.049515	2.181
51.022942	0.178
52.030804	0.155
53.038601	0.459
54.010094	0.073
54.03384	1.51
55.017746	0.238
55.054241	6.879
56.049492	16.896999
56.051613	0.075
57.033447	1.002
57.057343	1.107
57.069908	0.13
58.535133	0.139
58.538692	0.179
65.038483	0.392
67.041672	0.121
67.054192	1.124
68.049416	0.95
69.057281	0.284
69.069809	1.827
70.065071	4.141
77.03849	0.49
78.046455	0.078
79.041641	0.258
79.054123	0.215
80.049431	0.227
81.033417	1.562
81.057274	0.13
81.069839	0.242
82.065056	2.302
83.072853	0.563
84.073952	0.251
84.077728	0.204
84.080666	88.945999
84.083061	1.07
84.086342	1.485
84.089508	0.94
84.092232	0.729
84.095749	0.28
85.088524	6.034
86.096214	1.645
91.05407	3.04
92.025604	0.068
93.033218	0.178
93.069702	0.613
94.065109	1.723
95.043114	0.089
95.048988	2.35
95.072906	0.061
95.085503	0.109
96.044388	0.118
96.080681	2.126
97.08815	0.107
98.092674	0.157
98.096336	42.297001
98.100159	0.396
98.103165	0.377
98.107674	0.473
98.111015	0.264
103.054153	0.92
105.044632	0.207
107.048996	1.023
108.080666	0.195
109.020515	0.107
109.028305	2.93
109.088661	0.147
110.087784	0.154
110.096336	13.192
110.100906	0.138
110.105408	0.137
111.04377	0.154
111.103958	0.095
112.111816	0.518
119.048988	1.605
121.028259	3.872
121.064674	1.395
122.096458	0.173
123.043968	0.346
124.109497	0.078
124.112015	19.797001
124.114204	0.307
124.117416	0.185
124.121277	0.108
125.119781	0.605
126.091362	0.168
126.115883	0.276
126.119125	0.163
126.122169	0.576
126.12764	100.0
126.12989	0.189
126.132019	0.755
126.136147	0.77
126.144257	0.841
126.148987	0.639
126.155518	0.237
128.106903	1.108
131.049088	0.241
134.036163	0.357
149.059662	6.944
232.134018	0.151
234.093307	0.462
234.149185	77.030998
234.205032	0.477
END IONS

BEGIN IONS
PEPMASS=279.17
CHARGE=1
MSLEVEL=2
SOURCE_INSTRUMENT=ESI-Orbitrap
FILENAME=gnps_msn_lib_pos.mgf
SEQ=*..*
IONMODE=Positive
ORGANISM=MSNLIB-POSITIVE
NAME=Tolycaine [M+H]+
PI=Tomas Pluskal
DATACOLLECTOR=Corinna Brungs
SMILES=CCN(CC)CC(=O)Nc1c(C)cccc1C(=O)OC
INCHI=InChI=1S/C15H22N2O3/c1-5-17(6-2)10-13(18)16-14-11(3)8-7-9-12(14)15(19)20-4/h7-9H,5-6,10H2,1-4H3,(H,16,18)
INCHIAUX=UDKICLZCJWQTLS-UHFFFAOYSA-N
PUBMED=N/A
SUBMITUSER=jzemlin
LIBRARYQUALITY=1
SPECTRUMID=CCMSLIB00012316872
USI=mzspec:GNPS:MSNLIB-POSITIVE:accession:CCMSLIB00012316872
SCANS=24737
42.034218	0.096
58.065014	12.723
58.070168	0.259
86.096214	100.0
86.10183	1.38
86.105728	1.671
86.108307	0.98
86.112137	0.393
86.115463	0.195
86.122208	0.08
149.023178	0.102
164.986084	0.075
247.144608	0.519
279.098785	0.089
279.171448	3.78
END IONS

BEGIN IONS
PEPMASS=280.191
CHARGE=1
MSLEVEL=2
SOURCE_INSTRUMENT=ESI-Orbitrap
FILENAME=gnps_msn_lib_pos.mgf
SEQ=*..*
IONMODE=Positive
ORGANISM=MSNLIB-POSITIVE
NAME=Moxisylyte [M+H]+
PI=Tomas Pluskal
DATACOLLECTOR=Corinna Brungs
SMILES=CC(=O)Oc1cc(C(C)C)c(OCCN(C)C)cc1C
INCHI=InChI=1S/C16H25NO3/c1-11(2)14-10-15(20-13(4)18)12(3)9-16(14)19-8-7-17(5)6/h9-11H,7-8H2,1-6H3
INCHIAUX=VRYMTAVOXVTQEF-UHFFFAOYSA-N
PUBMED=N/A
SUBMITUSER=jzemlin
LIBRARYQUALITY=1
SPECTRUMID=CCMSLIB00012325134
USI=mzspec:GNPS:MSNLIB-POSITIVE:accession:CCMSLIB00012325134
SCANS=28739
42.033783	5.845
43.017807	0.44
44.049419	24.054001
44.051624	0.719
45.057243	3.699
46.06506	0.464
56.049366	2.427
57.057171	3.712
58.064926	1.262
70.064934	12.12
72.075531	0.417
72.08049	100.0
72.085266	1.585
72.087654	1.774
72.08989	1.08
72.092621	0.399
79.054245	0.137
91.054268	0.123
95.085426	0.532
105.069664	0.297
109.100723	0.289
119.085602	0.304
121.064774	0.651
123.080383	0.373
137.059616	0.542
147.080765	0.411
151.075363	1.804
164.08316	0.289
165.091415	0.382
175.111572	0.113
193.086029	0.255
193.122375	1.31
235.133118	1.697
238.143967	1.395
280.1185	0.675
280.132904	0.409
280.19104	92.620003
280.248718	0.537
280.263733	0.695
END IONS

BEGIN IONS
PEPMASS=334.31
CHARGE=1
MSLEVEL=2
SOURCE_INSTRUMENT=ESI-Orbitrap
FILENAME=gnps_msn_lib_pos.mgf
SEQ=*..*
IONMODE=Positive
ORGANISM=MSNLIB-POSITIVE
NAME=Domiphen [M]+
PI=Tomas Pluskal
DATACOLLECTOR=Corinna Brungs
SMILES=CCCCCCCCCCCC[N+](C)(C)CCOc1ccccc1
INCHI=InChI=1S/C22H40NO/c1-4-5-6-7-8-9-10-11-12-16-19-23(2,3)20-21-24-22-17-14-13-15-18-22/h13-15,17-18H,4-12,16,19-21H2,1-3H3/q+1
INCHIAUX=YXUPZGKORWTXID-UHFFFAOYSA-N
PUBMED=N/A
SUBMITUSER=jzemlin
LIBRARYQUALITY=1
SPECTRUMID=CCMSLIB00012326734
USI=mzspec:GNPS:MSNLIB-POSITIVE:accession:CCMSLIB00012326734
SCANS=29517
41.038612	2.236
42.033897	2.431
43.054203	1.333
44.049522	5.954
45.057388	0.742
46.065186	0.948
50.015171	0.738
51.022984	12.552
52.030777	0.381
53.038631	0.736
55.01791	0.4
56.049549	0.956
57.057343	1.025
57.069767	5.579
58.064987	30.504999
58.068356	0.78
62.015095	0.584
63.022934	4.829
65.038589	46.195
67.054237	0.441
70.065086	2.211
71.072952	0.525
71.085365	1.331
72.080681	24.610001
77.038574	7.354
78.046417	0.606
79.021126	0.626
91.05423	100.0
91.056786	1.096
93.06987	9.475
95.049133	18.759001
102.046425	0.361
103.054199	2.2
105.044739	1.162
121.010681	0.342
121.064789	14.653
164.107254	2.867
166.122833	20.451
214.25322	6.357
334.310669	28.591999
334.357758	0.602
END IONS

BEGIN IONS
PEPMASS=142.123
CHARGE=1
MSLEVEL=2
SOURCE_INSTRUMENT=ESI-Orbitrap
FILENAME=gnps_msn_lib_pos.mgf
SEQ=*..*
IONMODE=Positive
ORGANISM=MSNLIB-POSITIVE
NAME=Tropine [M+H]+
PI=Tomas Pluskal
DATACOLLECTOR=Corinna Brungs
SMILES=CN1C2CCC1CC(O)C2
INCHI=InChI=1S/C8H15NO/c1-9-6-2-3-7(9)5-8(10)4-6/h6-8,10H,2-5H2,1H3
INCHIAUX=CYHOMWAPJJPNMW-UHFFFAOYSA-N
PUBMED=N/A
SUBMITUSER=jzemlin
LIBRARYQUALITY=1
SPECTRUMID=CCMSLIB00012329223
USI=mzspec:GNPS:MSNLIB-POSITIVE:accession:CCMSLIB00012329223
SCANS=30758
41.038624	0.787
42.033859	2.04
43.017841	1.388
43.041649	0.646
44.049488	1.25
50.015171	0.237
51.022995	4.344
52.030811	0.143
53.038616	0.385
55.017811	0.564
55.054199	2.799
56.049492	3.172
57.033401	0.541
57.057304	5.59
57.069809	0.461
58.065052	7.832
58.069996	0.139
59.930183	0.776
60.044353	0.281
62.015179	0.125
63.022964	0.684
65.038605	8.177
67.054153	6.68
67.058144	0.155
68.049446	2.396
69.033409	0.202
69.069817	0.746
70.065041	0.948
77.038559	1.823
78.046425	0.235
79.054153	0.167
80.049492	0.599
81.044762	0.166
81.05732	0.668
81.069756	0.45
82.065086	0.618
83.072906	0.994
83.085426	0.271
85.064812	0.151
91.05088	0.103
91.054245	19.766001
91.057068	0.269
91.061035	0.148
93.057381	0.129
93.069855	5.582
94.065147	0.776
95.049156	7.478
95.051926	0.108
95.060379	0.095
95.072914	0.247
95.085518	0.526
96.08078	2.52
98.09642	10.446
101.003044	1.915
105.044769	0.588
109.088615	0.135
111.080421	0.351
118.967361	0.671
124.086365	0.138
124.112213	0.866
142.096466	0.523
142.101883	0.427
142.122711	100.0
142.132645	1.809
142.142944	0.621
142.148849	0.76
142.156525	0.31
END IONS

BEGIN IONS
PEPMASS=276.159
CHARGE=1
MSLEVEL=2
SOURCE_INSTRUMENT=ESI-Orbitrap
FILENAME=gnps_msn_lib_pos.mgf
SEQ=*..*
IONMODE=Positive
ORGANISM=MSNLIB-POSITIVE
NAME=Dihydro-beta-erythroidine [M+H]+
PI=Tomas Pluskal
DATACOLLECTOR=Corinna Brungs
SMILES=CO[C@H]1CC=C2CCN3CCC4=C(CC(=O)OC4)[C@]23C1
INCHI=InChI=1S/C16H21NO3/c1-19-13-3-2-12-5-7-17-6-4-11-10-20-15(18)8-14(11)16(12,17)9-13/h2,13H,3-10H2,1H3/t13-,16-/m0/s1
INCHIAUX=ALSKYCOJJPXPFS-BBRMVZONSA-N
PUBMED=N/A
SUBMITUSER=jzemlin
LIBRARYQUALITY=1
SPECTRUMID=CCMSLIB00012334588
USI=mzspec:GNPS:MSNLIB-POSITIVE:accession:CCMSLIB00012334588
SCANS=33415
42.033913	1.237
44.049545	1.438
45.033695	0.306
51.02298	0.304
53.038601	0.291
55.054253	2.047
56.049469	2.974
61.010685	0.398
65.038544	0.353
67.054192	1.394
68.049515	0.593
71.049171	0.406
77.038536	0.405
79.020966	0.447
79.054199	1.648
80.049423	0.923
81.069885	0.62
82.065125	0.973
85.064796	0.401
89.038582	0.421
90.046341	0.294
91.054199	2.954
92.0494	0.19
93.057281	1.097
93.069855	1.384
94.065056	0.785
95.049133	1.116
95.085419	0.474
103.054184	0.632
105.069855	2.915
106.065025	0.508
107.085373	0.394
108.080765	6.83
115.054207	1.13
116.06205	0.288
117.057266	1.171
117.069901	1.478
118.065109	2.822
119.072906	0.311
119.085564	1.075
120.080772	0.678
121.101196	0.867
128.062057	2.472
129.06987	3.424
130.06514	2.926
130.077652	0.529
131.072952	1.246
131.085571	1.725
132.08078	2.79
133.088608	3.469
133.100327	0.321
134.096466	1.481
139.054184	0.499
140.049622	0.246
141.069916	1.655
142.065125	0.295
142.077682	1.895
143.073029	1.3
143.085526	4.514
144.080811	1.895
144.092575	0.293
145.065231	0.353
145.088638	2.111
145.101227	0.962
146.096451	3.964
147.104248	0.957
148.075165	0.274
153.069763	0.528
154.065125	0.676
154.077789	0.971
155.072922	0.583
155.08551	1.685
156.08078	2.318
156.093445	1.571
157.088562	1.535
157.101257	1.84
158.096497	4.114
159.104279	4.099
159.11705	0.672
160.11203	0.734
161.083694	0.303
165.069885	0.203
166.06517	0.755
167.073074	1.526
167.085938	0.345
168.080826	1.502
168.093735	0.365
169.088562	0.897
169.101379	1.657
170.096527	5.341
171.104202	2.331
171.117111	2.212
172.112198	5.678
173.096405	0.353
173.11998	0.658
174.09137	0.454
174.127335	0.355
182.096573	0.432
183.104355	0.229
183.117981	0.519
184.112259	6.335
185.100723	0.289
185.120041	4.93
186.127869	1.623
187.111908	0.375
187.135696	1.237
188.107071	0.546
188.13356	0.306
188.143494	44.993
189.078659	0.469
190.086243	2.663
198.127792	1.102
200.132355	0.448
200.143478	65.084999
200.149094	0.218
202.086243	0.623
202.122818	0.358
216.13858	8.318
217.14537	0.471
232.169846	28.438
244.133392	27.229
276.090485	0.743
276.131805	1.539
276.160126	100.0
END IONS

BEGIN IONS
PEPMASS=547.106
CHARGE=1
MSLEVEL=2
SOURCE_INSTRUMENT=ESI-Orbitrap
FILENAME=gnps_msn_lib_pos.mgf
SEQ=*..*
IONMODE=Positive
ORGANISM=MSNLIB-POSITIVE
NAME=cefazid [M]+
PI=Tomas Pluskal
DATACOLLECTOR=Corinna Brungs
SMILES=CC(C)(O/N=C(\C(=O)N[C@@H]1C(=O)N2C(C(=O)O)=C(C[n+]3ccccc3)CS[C@H]12)c1csc(N)n1)C(=O)O
INCHI=InChI=1S/C22H22N6O7S2/c1-22(2,20(33)34)35-26-13(12-10-37-21(23)24-12)16(29)25-14-17(30)28-15(19(31)32)11(9-36-18(14)28)8-27-6-4-3-5-7-27/h3-7,10,14,18H,8-9H2,1-2H3,(H4-,23,24,25,29,31,32,33,34)/p+1/b26-13-/t14-,18-/m1/s1
INCHIAUX=ORFOPKXBNMVMKC-DWVKKRMSSA-O
PUBMED=N/A
SUBMITUSER=jzemlin
LIBRARYQUALITY=1
SPECTRUMID=CCMSLIB00012335220
USI=mzspec:GNPS:MSNLIB-POSITIVE:accession:CCMSLIB00012335220
SCANS=33725
43.029118	2.946
44.979389	15.488
53.038578	4.571
55.029053	3.781
56.013073	5.085
56.979351	11.831
59.049019	21.385
65.038345	4.078
67.029068	1.826
68.049599	2.704
71.990158	5.337
80.049332	45.717999
83.990227	6.925
85.010536	36.752998
90.000824	3.665
92.049347	6.984
93.057129	5.032
94.040047	1.851
95.02401	2.677
95.06044	4.056
96.04425	6.509
97.010536	33.341
98.005898	4.253
99.001129	10.291
100.008957	4.034
100.021408	4.252
105.04425	2.448
107.060265	7.913
108.04454	1.633
108.06839	4.282
111.001244	1.904
112.021439	26.426001
113.016808	2.475
114.012283	2.694
116.027687	10.036
124.00898	10.867
124.021599	21.214001
124.050545	5.372
125.004257	15.698
125.014404	2.452
126.011993	100.0
127.019852	19.263
134.047333	3.588
138.011963	3.71
138.996017	4.056
139.019897	6.051
139.032349	15.817
140.016495	28.162001
141.047974	13.191
141.995468	2.776
142.007019	32.771
144.022598	42.896
152.016403	52.588001
152.027817	4.265
153.022858	6.816
154.007156	3.571
156.022781	7.122
166.030975	24.188
167.014374	3.674
167.027512	45.341999
181.0186	4.42
182.025665	7.734
183.033844	18.650999
197.013107	8.469
199.028458	3.122
209.013092	9.242
210.020889	22.789
217.054688	3.001
227.023132	3.708
227.060059	14.344
249.026474	6.031
273.06546	10.244
277.021576	12.494
293.040863	3.68
310.040222	3.424
313.060455	53.32
396.079895	9.568
424.073792	4.239
468.064484	29.847
END IONS

BEGIN IONS
PEPMASS=150.091
CHARGE=1
MSLEVEL=2
SOURCE_INSTRUMENT=ESI-Orbitrap
FILENAME=gnps_msn_lib_pos.mgf
SEQ=*..*
IONMODE=Positive
ORGANISM=MSNLIB-POSITIVE
NAME=phenylephrine [M+H-H2O]+
PI=Tomas Pluskal
DATACOLLECTOR=Corinna Brungs
SMILES=CNC[C@H](O)c1cc(O)ccc1
INCHI=InChI=1S/C9H13NO2/c1-10-6-9(12)7-3-2-4-8(11)5-7/h2-5,9-12H,6H2,1H3/t9-/m0/s1
INCHIAUX=SONNWYBIRXJNDC-VIFPVBQESA-N
PUBMED=N/A
SUBMITUSER=jzemlin
LIBRARYQUALITY=1
SPECTRUMID=CCMSLIB00012335442
USI=mzspec:GNPS:MSNLIB-POSITIVE:accession:CCMSLIB00012335442
SCANS=33835
41.038666	1.451
42.03376	20.985001
44.979397	1.265
46.994995	2.819
51.022976	2.683
53.038635	1.037
55.01786	0.777
56.049286	1.983
57.05714	2.801
58.997902	0.438
59.930103	1.337
61.01049	4.692
61.927715	1.049
62.015095	0.734
62.018318	1.609
62.989841	6.88
63.022938	3.172
63.997749	0.604
65.038559	28.962
66.046394	4.902
69.999123	1.161
77.038528	3.152
78.013542	2.615
79.021065	3.315
79.041451	4.547
79.054131	4.961
80.049362	2.73
80.062042	0.891
81.069756	4.552
82.979897	0.455
89.038559	2.892
90.046333	1.698
90.995522	0.846
91.054161	70.699997
91.057541	0.776
91.499466	0.855
91.985138	4.117
91.999855	0.528
92.049477	1.366
92.485519	0.422
92.489037	4.013
92.983986	0.573
92.989471	1.16
92.992851	2.707
93.069809	1.547
93.493309	0.624
94.041267	13.945
95.049072	5.801
95.060112	1.248
99.011169	2.342
100.000748	8.656
100.501167	1.0
100.504631	12.027
100.999138	1.409
101.005119	6.097
101.494354	0.445
101.503159	3.229
101.998215	2.906
102.498604	0.58
102.969833	0.576
103.054054	1.388
105.044601	3.068
105.069633	0.881
106.065086	4.811
107.049088	17.058001
107.072929	0.547
108.008316	0.91
108.01635	21.576
108.05687	3.218
108.080757	0.849
108.516983	4.437
109.014885	5.212
109.064728	34.669998
109.509979	1.696
110.060143	0.511
111.044052	0.737
116.049385	0.467
117.02182	1.284
117.057281	2.464
118.041222	1.614
118.065033	3.666
119.049042	6.785
119.524323	1.575
120.044365	4.274
120.979927	0.918
121.039581	1.198
121.064735	3.997
122.096169	0.967
123.055191	4.734
130.506363	5.454
131.007324	1.637
131.504761	2.534
132.080887	1.324
133.052216	0.538
134.060013	11.839
135.067871	38.789001
135.070267	0.449
138.018082	1.622
150.067825	2.414
150.077362	1.009
150.091461	100.0
157.952362	1.085
END IONS

BEGIN IONS
PEPMASS=281.117
CHARGE=1
MSLEVEL=2
SOURCE_INSTRUMENT=ESI-Orbitrap
FILENAME=gnps_msn_lib_pos.mgf
SEQ=*..*
IONMODE=Positive
ORGANISM=MSNLIB-POSITIVE
NAME=PHENPROCOUMON [M+H]+
PI=Tomas Pluskal
DATACOLLECTOR=Corinna Brungs
SMILES=CCC(c1ccccc1)c1c(O)c2ccccc2oc1=O
INCHI=InChI=1S/C18H16O3/c1-2-13(12-8-4-3-5-9-12)16-17(19)14-10-6-7-11-15(14)21-18(16)20/h3-11,13,19H,2H2,1H3
INCHIAUX=DQDAYGNAKTZFIW-UHFFFAOYSA-N
PUBMED=N/A
SUBMITUSER=jzemlin
LIBRARYQUALITY=1
SPECTRUMID=CCMSLIB00012346063
USI=mzspec:GNPS:MSNLIB-POSITIVE:accession:CCMSLIB00012346063
SCANS=39144
41.038673	0.462
43.017933	0.29
43.759884	0.126
50.015163	0.195
50.767811	0.179
51.022964	4.755
53.002274	0.318
53.038609	2.204
55.017879	0.859
55.054249	6.324
65.038574	14.395
65.040604	0.17
67.017815	0.615
69.033485	0.338
77.038574	16.177
77.041176	0.185
79.054214	21.021
79.056313	0.436
81.033424	0.633
83.049126	10.733
89.038551	0.14
91.05423	4.49
93.033516	2.807
95.049133	18.021999
95.052734	0.187
102.04644	0.252
103.054245	1.949
105.033501	0.263
105.044746	2.861
105.070007	0.157
107.049149	19.386999
107.052773	0.266
107.08564	0.419
109.028442	1.377
111.044075	1.695
115.054283	2.055
116.062035	0.317
119.049301	0.144
119.08567	0.14
121.028427	24.768999
121.031097	0.235
121.033524	0.186
121.039566	1.464
127.039024	0.118
128.062088	1.015
129.069885	0.376
131.049271	0.358
132.057053	0.183
135.080383	0.698
139.039124	0.222
141.070068	0.22
144.057114	0.171
145.064911	0.185
147.044174	0.387
147.080521	0.229
163.039001	0.166
175.027725	0.138
175.030258	0.335
175.039185	54.129002
175.046036	0.115
175.048187	0.469
203.025742	0.32
203.055847	0.176
203.059265	0.602
203.061508	0.388
203.070511	100.0
203.079117	0.479
203.081833	0.674
203.084854	0.294
203.115128	0.285
281.11792	3.477
END IONS

BEGIN IONS
PEPMASS=311.158
CHARGE=1
MSLEVEL=2
SOURCE_INSTRUMENT=ESI-Orbitrap
FILENAME=gnps_msn_lib_pos.mgf
SEQ=*..*
IONMODE=Positive
ORGANISM=MSNLIB-POSITIVE
NAME=Pecazine [M+H]+
PI=Tomas Pluskal
DATACOLLECTOR=Corinna Brungs
SMILES=CN1CCCC(CN2c3ccccc3Sc3ccccc32)C1
INCHI=InChI=1S/C19H22N2S/c1-20-12-6-7-15(13-20)14-21-16-8-2-4-10-18(16)22-19-11-5-3-9-17(19)21/h2-5,8-11,15H,6-7,12-14H2,1H3
INCHIAUX=CBHCDHNUZWWAPP-UHFFFAOYSA-N
PUBMED=N/A
SUBMITUSER=jzemlin
LIBRARYQUALITY=1
SPECTRUMID=CCMSLIB00012347199
USI=mzspec:GNPS:MSNLIB-POSITIVE:accession:CCMSLIB00012347199
SCANS=39704
41.038654	5.05
42.033901	6.792
43.041721	0.499
44.049549	4.932
51.023018	0.088
53.038605	0.41
55.054256	8.352
56.049503	0.918
57.057335	1.289
58.065128	53.779999
58.067654	0.231
63.022881	0.109
65.038567	0.195
67.041641	0.187
67.054207	0.248
68.049454	1.25
69.057297	0.146
69.069847	3.579
70.065086	7.869
71.072861	0.143
74.015076	0.124
74.930916	0.244
76.927818	0.404
77.038574	0.277
79.054199	0.326
80.049461	0.122
81.057289	0.13
81.069855	0.521
82.065102	3.278
83.072929	2.608
83.085503	0.332
84.080734	6.727
95.049133	0.224
96.080757	0.962
97.088593	0.754
98.014969	0.11
98.096413	2.916
109.010651	0.473
110.096352	0.307
112.103592	0.104
112.106804	0.266
112.109512	0.198
112.112015	100.0
112.11412	1.191
112.116455	1.036
112.119858	0.666
112.125755	0.545
112.129951	0.379
113.119644	1.587
115.054153	0.11
121.010612	0.204
122.015007	0.1
126.046349	0.146
127.054359	0.103
136.021606	0.151
139.054291	0.174
140.049576	0.166
141.069931	0.152
145.064804	0.333
146.006271	0.085
150.046448	0.356
151.054276	1.04
152.062057	9.82
153.057312	0.786
153.06987	2.398
155.060425	0.284
163.054337	0.467
164.04953	0.2
165.069977	0.186
167.073227	0.526
168.080887	0.269
169.064911	1.713
170.060165	0.246
171.026413	0.422
172.034439	0.097
172.952332	0.405
176.062164	0.162
177.057449	0.416
178.065308	2.37
179.060562	0.396
179.07312	6.183
180.062378	0.248
180.067551	0.244
180.071533	0.138
180.080948	22.51
180.090195	0.136
180.099258	0.211
184.034241	0.71
185.042053	0.28
186.046494	0.114
187.054398	0.299
188.049637	0.222
188.06221	0.121
189.057159	0.125
189.069962	0.342
190.065186	0.619
191.072937	0.608
195.02655	0.27
196.02182	0.104
196.075714	0.348
199.045212	1.919
203.073166	0.415
204.080963	3.885
205.088608	0.202
208.034393	0.227
210.037567	0.169
211.045242	0.139
212.041122	0.184
212.053131	20.462999
212.064972	0.106
214.065582	0.127
214.069397	0.238
216.081085	0.471
217.088898	0.57
218.096802	0.411
222.037476	1.432
223.045334	2.825
224.053131	2.05
225.060959	0.117
235.045395	0.483
236.053116	9.429
237.060944	8.004
238.068771	1.185
248.143707	0.219
250.068741	0.586
251.076492	0.487
280.115784	11.353
311.157928	20.23
END IONS

BEGIN IONS
PEPMASS=292.227
CHARGE=1
MSLEVEL=2
SOURCE_INSTRUMENT=ESI-Orbitrap
FILENAME=gnps_msn_lib_pos.mgf
SEQ=*..*
IONMODE=Positive
ORGANISM=MSNLIB-POSITIVE
NAME=(+)-Penbutolol [M+H]+
PI=Tomas Pluskal
DATACOLLECTOR=Corinna Brungs
SMILES=CC(C)(C)NC[C@@H](O)COc1ccccc1C1CCCC1
INCHI=InChI=1S/C18H29NO2/c1-18(2,3)19-12-15(20)13-21-17-11-7-6-10-16(17)14-8-4-5-9-14/h6-7,10-11,14-15,19-20H,4-5,8-9,12-13H2,1-3H3/t15-/m1/s1
INCHIAUX=KQXKVJAGOJTNJS-OAHLLOKOSA-N
PUBMED=N/A
SUBMITUSER=jzemlin
LIBRARYQUALITY=1
SPECTRUMID=CCMSLIB00012351304
USI=mzspec:GNPS:MSNLIB-POSITIVE:accession:CCMSLIB00012351304
SCANS=41725
41.038601	1.925
44.049435	0.764
51.022984	2.512
53.038639	0.548
55.017864	0.336
56.049412	25.582001
56.054325	0.535
57.033501	0.389
57.069778	16.552
57.072987	0.379
58.065056	1.544
61.010567	0.837
62.018322	0.391
63.022961	0.23
65.038544	0.424
67.054123	2.086
69.069794	6.376
74.059952	29.332001
74.064629	0.612
74.067154	0.517
77.038574	4.772
79.054199	5.837
89.038597	0.243
90.947533	0.462
91.054192	3.348
93.069733	1.091
95.049133	7.853
103.05423	5.171
104.062126	0.252
105.044754	1.346
105.06987	17.531
107.049088	5.101
109.064697	1.203
115.054237	1.053
116.062019	0.359
117.069832	1.205
118.924629	0.478
119.04911	0.392
119.085526	2.985
121.064743	9.31
128.062103	0.669
129.069809	0.95
131.049164	0.343
131.085724	0.242
133.064819	19.308001
133.06723	0.24
133.074692	0.343
133.076843	0.363
133.948318	1.247
135.080566	1.755
139.923828	0.369
141.069931	0.379
142.077728	0.282
144.057053	0.792
145.064941	0.565
145.101334	0.216
147.080536	1.308
150.091537	2.392
151.075439	0.478
151.959	1.292
152.061996	0.204
155.060379	0.207
157.065002	0.214
157.101227	0.543
159.080597	2.737
160.088333	0.31
168.102112	16.750999
172.088425	0.324
172.914017	0.957
173.096649	0.367
175.112091	1.748
189.127655	1.972
190.924744	0.969
201.105743	0.376
201.127716	21.483999
213.915405	1.385
218.154419	0.422
236.108566	0.638
236.12175	0.623
236.143967	1.229
236.165039	100.0
236.178848	0.32
292.197174	0.379
292.228363	32.331001
END IONS

BEGIN IONS
PEPMASS=1131.56
CHARGE=1
MSLEVEL=2
SOURCE_INSTRUMENT=ESI-Orbitrap
FILENAME=gnps_msn_lib_pos.mgf
SEQ=*..*
IONMODE=Positive
ORGANISM=MSNLIB-POSITIVE
NAME=Escin [M+H]+
PI=Tomas Pluskal
DATACOLLECTOR=Corinna Brungs
SMILES=C/C=C(\C)C(=O)OC1[C@H](OC(C)=O)C2(CO)C(CC1(C)C)C1=CCC3C4(C)CCC(O[C@@H]5O[C@H](C(=O)O)[C@@H](O[C@@H]6O[C@H](CO)[C@@H](O)[C@H](O)[C@H]6O)[C@H](O)[C@H]5O[C@H]5O[C@H](CO)[C@@H](O)[C@H](O)[C@H]5O)[C@](C)(CO)C4CCC3(C)[C@]1(C)C[C@H]2O
INCHI=InChI=1S/C55H86O24/c1-10-23(2)46(71)79-43-44(72-24(3)60)55(22-59)26(17-50(43,4)5)25-11-12-30-51(6)15-14-32(52(7,21-58)29(51)13-16-53(30,8)54(25,9)18-31(55)61)75-49-41(77-48-38(67)36(65)34(63)28(20-57)74-48)39(68)40(42(78-49)45(69)70)76-47-37(66)35(64)33(62)27(19-56)73-47/h10-11,26-44,47-49,56-59,61-68H,12-22H2,1-9H3,(H,69,70)/b23-10+/t26?,27-,28-,29?,30?,31-,32?,33-,34-,35+,36+,37-,38-,39+,40+,41-,42+,43?,44+,47+,48-,49-,51?,52-,53?,54-,55?/m1/s1
INCHIAUX=AXNVHPCVMSNXNP-YSYFQUGBSA-N
PUBMED=N/A
SUBMITUSER=jzemlin
LIBRARYQUALITY=1
SPECTRUMID=CCMSLIB00012352091
USI=mzspec:GNPS:MSNLIB-POSITIVE:accession:CCMSLIB00012352091
SCANS=42118
83.048866	100.0
119.085587	87.936996
END IONS

BEGIN IONS
PEPMASS=130.159
CHARGE=1
MSLEVEL=2
SOURCE_INSTRUMENT=ESI-Orbitrap
FILENAME=gnps_msn_lib_pos.mgf
SEQ=*..*
IONMODE=Positive
ORGANISM=MSNLIB-POSITIVE
NAME=Tetraethylammonium [M]+
PI=Tomas Pluskal
DATACOLLECTOR=Corinna Brungs
SMILES=CC[N+](CC)(CC)CC
INCHI=InChI=1S/C8H20N/c1-5-9(6-2,7-3)8-4/h5-8H2,1-4H3/q+1
INCHIAUX=CBXCPBUEXACCNR-UHFFFAOYSA-N
PUBMED=N/A
SUBMITUSER=jzemlin
LIBRARYQUALITY=1
SPECTRUMID=CCMSLIB00012354450
USI=mzspec:GNPS:MSNLIB-POSITIVE:accession:CCMSLIB00012354450
SCANS=43274
42.033993	0.116
44.049557	4.408
44.979332	0.382
45.987179	0.243
46.065166	0.15
46.994953	0.634
48.00285	0.153
57.069775	0.129
57.934753	2.694
58.065052	9.768
58.06926	0.157
58.932594	0.327
59.930202	1.533
61.010551	0.498
62.018372	1.397
62.989822	2.779
62.993843	0.133
64.985619	0.176
70.065254	0.069
72.08075	1.98
74.096344	0.512
74.92746	1.264
78.013268	3.202
79.021133	0.273
80.009018	0.163
86.089523	0.354
86.096283	97.622002
86.102074	1.63
86.105675	1.226
86.108452	0.927
86.112091	0.365
86.115585	0.236
92.48555	0.054
93.487633	0.175
98.961372	0.266
100.000847	0.161
100.112083	12.313
100.115417	0.14
100.118828	0.152
100.501205	0.086
100.504738	0.11
100.956955	0.148
100.999344	0.266
101.005241	0.2
101.119858	1.13
101.503265	0.497
102.127724	1.858
102.996773	0.155
106.996857	0.5
108.016281	0.29
108.516891	0.513
109.014938	1.132
115.954117	0.814
116.971909	2.018
118.967339	1.196
130.135864	0.562
130.159058	100.0
130.16832	0.168
130.176834	1.086
130.181641	0.789
130.188538	0.318
130.194595	0.152
133.964737	0.559
139.987991	0.54
END IONS

BEGIN IONS
PEPMASS=128.107
CHARGE=1
MSLEVEL=2
SOURCE_INSTRUMENT=ESI-Orbitrap
FILENAME=gnps_msn_lib_pos.mgf
SEQ=*..*
IONMODE=Positive
ORGANISM=MSNLIB-POSITIVE
NAME=Nortropine [M+H]+
PI=Tomas Pluskal
DATACOLLECTOR=Corinna Brungs
SMILES=OC1C[C@H]2CC[C@@H](C1)N2
INCHI=InChI=1S/C7H13NO/c9-7-3-5-1-2-6(4-7)8-5/h5-9H,1-4H2/t5-,6+,7?
INCHIAUX=YYMCYJLIYNNOMK-MEKDEQNOSA-N
PUBMED=N/A
SUBMITUSER=jzemlin
LIBRARYQUALITY=1
SPECTRUMID=CCMSLIB00012359767
USI=mzspec:GNPS:MSNLIB-POSITIVE:accession:CCMSLIB00012359767
SCANS=45932
41.038574	2.459
42.033752	2.509
43.017754	1.851
44.049393	5.078
44.979252	1.876
45.987068	1.679
46.9949	6.774
50.015121	0.7
51.022942	21.777
52.030769	0.329
53.038586	1.176
55.017792	0.848
55.054077	3.425
55.934261	0.984
56.049324	2.397
57.069714	1.091
57.934692	2.609
58.93259	2.713
59.930092	1.018
61.010494	1.574
62.015038	0.427
62.018318	12.048
62.989735	3.378
63.022881	2.248
65.038528	17.767
66.046364	0.31
67.054016	21.447001
67.058105	0.56
69.057114	0.701
71.929054	3.352
72.937019	1.48
74.927391	0.911
74.937462	0.912
75.935287	3.319
76.932899	0.426
76.943085	0.535
77.038513	14.547
78.013176	1.784
78.046303	0.856
79.021027	1.287
82.064819	1.004
84.080559	17.108
91.054146	33.703999
91.056664	0.468
91.912476	0.945
93.057381	0.26
93.069763	12.386
93.945747	1.111
94.065063	0.581
95.049042	44.472
95.072716	0.276
105.044624	2.461
105.497589	2.671
128.106888	100.0
128.115707	1.321
128.128906	0.759
130.966309	1.826
137.917938	0.878
END IONS

BEGIN IONS
PEPMASS=586.293
CHARGE=1
MSLEVEL=2
SOURCE_INSTRUMENT=ESI-Orbitrap
FILENAME=gnps_msn_lib_pos.mgf
SEQ=*..*
IONMODE=Positive
ORGANISM=MSNLIB-POSITIVE
NAME=amikacin [M+H]+
PI=Tomas Pluskal
DATACOLLECTOR=Corinna Brungs
SMILES=NCC[C@H](O)C(=O)N[C@@H]1C[C@H](N)[C@@H](O[C@H]2O[C@H](CN)[C@@H](O)[C@H](O)[C@H]2O)[C@H](O)[C@H]1O[C@H]1O[C@H](CO)[C@@H](O)[C@H](N)[C@H]1O
INCHI=InChI=1S/C22H43N5O13/c23-2-1-8(29)20(36)27-7-3-6(25)18(39-22-16(34)15(33)13(31)9(4-24)37-22)17(35)19(7)40-21-14(32)11(26)12(30)10(5-28)38-21/h6-19,21-22,28-35H,1-5,23-26H2,(H,27,36)/t6-,7+,8-,9+,10+,11-,12+,13+,14+,15-,16+,17-,18+,19-,21+,22+/m0/s1
INCHIAUX=LKCWBDHBTVXHDL-RMDFUYIESA-N
PUBMED=N/A
SUBMITUSER=jzemlin
LIBRARYQUALITY=1
SPECTRUMID=CCMSLIB00012360849
USI=mzspec:GNPS:MSNLIB-POSITIVE:accession:CCMSLIB00012360849
SCANS=46474
41.038662	3.053
42.033905	2.306
44.049557	1.57
45.033524	0.873
53.038609	0.845
55.054253	2.243
56.0495	8.779
57.033512	9.664
57.044785	0.785
59.049202	0.843
60.044392	9.308
65.038559	3.206
67.041626	3.08
67.054214	0.994
68.049438	26.952
69.033463	5.31
72.044365	1.721
73.028389	0.921
74.060081	0.8
80.049454	2.928
82.065094	9.015
83.049156	2.346
84.044365	26.142
85.028381	11.701
86.060013	1.185
92.049469	2.537
95.060356	1.119
98.060028	0.659
101.070839	0.865
102.054901	25.132
109.076027	2.067
110.060028	7.581
111.043991	0.859
115.038925	2.187
128.070587	3.825
143.081604	0.689
144.065475	4.442
145.097153	18.804001
146.081192	3.649
162.076187	7.992
163.107834	100.0
173.092178	9.209
187.107758	1.494
204.087143	1.941
205.118942	4.641
229.118637	1.037
246.145096	4.825
247.129059	10.479
264.156036	30.934999
306.166321	2.95
324.177673	2.083
425.226105	2.85
END IONS

BEGIN IONS
PEPMASS=441.167
CHARGE=1
MSLEVEL=2
SOURCE_INSTRUMENT=ESI-Orbitrap
FILENAME=gnps_msn_lib_pos.mgf
SEQ=*..*
IONMODE=Positive
ORGANISM=MSNLIB-POSITIVE
NAME=Prednisolone phosphate [M+H]+
PI=Tomas Pluskal
DATACOLLECTOR=Corinna Brungs
SMILES=C[C@]12C=CC(=O)C=C1CC[C@@H]1[C@@H]2[C@@H](O)C[C@@]2(C)[C@H]1CC[C@]2(O)C(=O)COP(=O)(O)O
INCHI=InChI=1S/C21H29O8P/c1-19-7-5-13(22)9-12(19)3-4-14-15-6-8-21(25,17(24)11-29-30(26,27)28)20(15,2)10-16(23)18(14)19/h5,7,9,14-16,18,23,25H,3-4,6,8,10-11H2,1-2H3,(H2,26,27,28)/t14-,15-,16-,18+,19-,20-,21-/m0/s1
INCHIAUX=JDOZJEUDSLGTLU-VWUMJDOOSA-N
PUBMED=N/A
SUBMITUSER=jzemlin
LIBRARYQUALITY=1
SPECTRUMID=CCMSLIB00012362248
USI=mzspec:GNPS:MSNLIB-POSITIVE:accession:CCMSLIB00012362248
SCANS=47175
43.017914	3.078
65.038521	3.975
77.038506	7.285
78.046303	3.113
79.0541	5.678
91.054108	20.742001
93.069893	5.51
95.049042	7.238
98.983864	12.545
102.046448	2.794
103.054176	5.942
104.061974	5.74
105.069763	13.033
107.049004	7.961
115.054138	7.535
117.06987	6.26
119.085411	13.482
121.064621	36.745998
126.046181	4.868
128.062012	3.494
129.069855	2.555
131.049103	12.388
132.056931	15.406
135.080078	5.76
139.054291	3.347
143.085526	2.672
145.064865	9.473
145.101288	7.249
147.080353	100.0
150.046295	9.798
151.054092	3.342
152.061935	26.816
158.073059	6.382
159.08046	7.165
161.0961	10.109
165.091263	7.275
171.080536	28.974001
173.096283	12.531
195.080215	3.492
197.096191	8.321
208.089035	5.587
209.096313	8.638
210.103409	6.125
211.111938	2.939
222.104309	7.722
223.112183	10.516
224.120071	6.492
232.088562	3.283
237.09108	2.669
237.12767	37.493999
239.085617	3.131
239.143433	17.266001
242.072617	3.821
245.096207	5.882
247.112106	3.101
258.103973	4.005
259.111908	6.603
263.142792	6.5
265.158997	16.952
273.127686	4.157
274.135681	7.522
279.175232	14.615
289.159332	24.221001
307.169647	43.331001
325.180206	21.193001
423.15741	8.185
END IONS

BEGIN IONS
PEPMASS=258.089
CHARGE=1
MSLEVEL=2
SOURCE_INSTRUMENT=ESI-Orbitrap
FILENAME=gnps_msn_lib_pos_second_batch.mgf
SEQ=*..*
IONMODE=Positive
ORGANISM=MSNLIB-POSITIVE
NAME=meclofenoxate [M+H]+
PI=Tomas Pluskal
DATACOLLECTOR=Corinna Brungs
SMILES=CN(C)CCOC(=O)COc1ccc(Cl)cc1
INCHI=InChI=1S/C12H16ClNO3/c1-14(2)7-8-16-12(15)9-17-11-5-3-10(13)4-6-11/h3-6H,7-9H2,1-2H3
INCHIAUX=XZTYGFHCIAKPGJ-UHFFFAOYSA-N
PUBMED=N/A
SUBMITUSER=jzemlin
LIBRARYQUALITY=1
SPECTRUMID=CCMSLIB00013047546
USI=mzspec:GNPS:MSNLIB-POSITIVE:accession:CCMSLIB00013047546
SCANS=102081
42.010056	12.881
42.033951	5.463
43.017815	1.258
44.049488	18.795
45.033474	0.663
45.057228	2.226
51.022881	7.633
53.03857	0.702
56.049549	2.396
57.05743	3.08
58.065063	6.885
70.065086	8.432
72.080521	100.0
72.084991	2.486
72.087303	1.616
73.028152	3.545
75.022804	1.941
77.038445	9.328
78.046272	5.242
79.02124	1.785
86.036125	47.647999
86.038391	0.879
90.091064	1.177
91.054054	1.498
95.049118	9.141
98.999542	0.697
105.033379	2.589
105.044579	1.449
105.06971	1.071
106.041092	2.22
107.048996	1.146
113.015358	3.81
119.048981	0.918
121.028275	0.747
129.010468	2.985
131.049011	1.088
131.093826	6.894
132.056854	0.519
133.028275	0.985
133.064651	3.642
134.036041	2.524
134.072449	1.115
134.955811	2.079
135.956787	2.015
139.005981	2.833
141.010132	27.371
150.950424	1.706
151.952499	1.859
155.025574	2.161
169.005203	2.046
173.541916	2.423
177.054535	0.967
178.062393	13.781
178.945328	1.496
179.947311	2.344
197.974808	1.581
213.031235	39.856998
258.088684	44.213001
END IONS

BEGIN IONS
PEPMASS=332.087
CHARGE=1
MSLEVEL=2
SOURCE_INSTRUMENT=ESI-Orbitrap
FILENAME=gnps_msn_lib_pos_second_batch.mgf
SEQ=*..*
IONMODE=Positive
ORGANISM=MSNLIB-POSITIVE
NAME=zotepine [M+H]+
PI=Tomas Pluskal
DATACOLLECTOR=Corinna Brungs
SMILES=CN(C)CCOC1=Cc2ccccc2Sc2c1cc(Cl)cc2
INCHI=InChI=1S/C18H18ClNOS/c1-20(2)9-10-21-16-11-13-5-3-4-6-17(13)22-18-8-7-14(19)12-15(16)18/h3-8,11-12H,9-10H2,1-2H3
INCHIAUX=HDOZVRUNCMBHFH-UHFFFAOYSA-N
PUBMED=N/A
SUBMITUSER=jzemlin
LIBRARYQUALITY=1
SPECTRUMID=CCMSLIB00013051457
USI=mzspec:GNPS:MSNLIB-POSITIVE:accession:CCMSLIB00013051457
SCANS=103044
42.03376	3.062
42.035858	0.096
44.049377	6.812
44.051643	0.218
45.057186	0.088
56.049305	1.459
57.057114	2.072
70.064888	6.767
70.069298	0.137
70.071571	0.134
71.072678	0.155
72.071526	0.292
72.075615	0.489
72.080467	100.0
72.085022	2.543
72.087463	1.924
72.089699	1.0
72.092522	0.47
72.0952	0.212
72.097885	0.121
72.100609	0.095
95.060349	0.216
121.039993	0.121
136.075577	0.171
137.078903	0.091
137.083435	0.14
138.086716	0.07
166.122345	0.137
167.125763	0.148
173.545258	0.18
332.087097	2.821
END IONS

BEGIN IONS
PEPMASS=563.222
CHARGE=1
MSLEVEL=2
SOURCE_INSTRUMENT=ESI-Orbitrap
FILENAME=gnps_msn_lib_pos_second_batch.mgf
SEQ=*..*
IONMODE=Positive
ORGANISM=MSNLIB-POSITIVE
NAME=thiamine disulfide [M+H]+
PI=Tomas Pluskal
DATACOLLECTOR=Corinna Brungs
SMILES=C/C(=C(/CCO)SS/C(CCO)=C(\C)N(C=O)Cc1cnc(C)nc1N)N(C=O)Cc1cnc(C)nc1N
INCHI=InChI=1S/C24H34N8O4S2/c1-15(31(13-35)11-19-9-27-17(3)29-23(19)25)21(5-7-33)37-38-22(6-8-34)16(2)32(14-36)12-20-10-28-18(4)30-24(20)26/h9-10,13-14,33-34H,5-8,11-12H2,1-4H3,(H2,25,27,29)(H2,26,28,30)/b21-15+,22-16+
INCHIAUX=GFEGEDUIIYDMOX-YHARCJFQSA-N
PUBMED=N/A
SUBMITUSER=jzemlin
LIBRARYQUALITY=1
SPECTRUMID=CCMSLIB00013052194
USI=mzspec:GNPS:MSNLIB-POSITIVE:accession:CCMSLIB00013052194
SCANS=103208
40.018169	0.443
41.038574	2.301
42.033817	18.722
43.01783	1.228
43.029072	0.751
44.979324	0.413
52.01812	0.905
54.033764	22.27
55.017864	0.18
55.041592	24.263
56.049408	4.067
58.994904	0.362
59.060291	1.399
64.018074	0.345
66.033707	11.441
69.044586	17.478001
71.060234	0.688
80.049385	0.713
81.044678	3.478
82.05246	10.198
83.060272	5.538
84.044289	8.446
85.010551	0.798
85.06488	0.474
87.99762	0.212
93.044647	3.339
95.06028	0.532
96.055862	0.804
96.068138	0.253
97.010559	0.246
97.075912	0.281
99.026161	0.188
100.021484	0.554
105.044632	0.185
106.039925	0.217
107.060303	12.303
108.05555	0.668
110.063805	0.522
110.071152	59.223
110.074318	0.755
110.079018	0.476
112.021454	1.409
113.029221	0.208
115.021141	3.193
120.055573	0.236
122.071259	9.007
122.081604	0.342
123.058258	0.478
123.070374	0.713
123.079048	51.578999
123.081367	0.288
123.084259	0.391
123.088364	0.36
124.077812	0.51
124.0868	100.0
124.089661	1.546
124.092155	1.107
124.096161	0.869
124.10305	0.64
124.107597	0.583
126.037125	0.463
127.044937	0.342
131.060303	0.254
132.055573	0.298
133.063354	0.795
134.071152	0.6
137.082626	4.774
139.098038	1.591
144.048065	4.51
145.075623	0.172
146.071167	1.249
147.066391	1.275
147.078979	4.03
148.074234	0.441
148.086761	0.186
149.082062	2.01
150.036911	0.214
151.01976	0.446
154.043488	0.646
155.039719	0.173
158.071182	1.031
159.078979	0.358
160.086838	0.257
162.090195	0.312
164.027481	0.467
164.040176	0.169
165.035553	0.394
165.048019	0.251
167.092621	2.504
170.071259	0.231
171.078995	0.186
172.086914	0.727
173.082138	2.174
173.541855	1.384
174.024628	0.217
174.102951	0.309
175.03241	0.712
176.040115	0.217
178.030685	1.084
183.07901	0.211
184.0867	0.209
185.082092	0.406
187.097427	0.169
189.047867	0.18
190.043152	0.753
191.05101	0.723
192.058823	0.631
195.058502	0.173
198.089905	0.162
199.097672	6.623
200.105545	1.365
201.113434	0.227
204.058792	0.226
204.113968	2.024
207.05835	0.225
211.097839	0.376
212.105606	0.411
213.11351	0.297
215.050964	0.376
216.058914	1.33
217.054062	0.475
218.062057	0.201
219.069885	0.882
221.140015	3.275
222.069427	0.572
223.101486	0.428
231.069733	1.956
231.123917	0.684
232.07756	5.508
233.08551	5.338
234.093216	0.678
245.085358	1.242
246.092987	0.305
247.101288	0.693
249.080124	0.381
249.134354	1.908
253.111801	2.585
254.119049	0.916
263.079193	0.245
263.095734	35.258999
263.112152	0.215
264.103516	10.621
265.11145	4.381
281.106903	2.26
282.114288	1.615
283.122284	5.344
442.157471	0.441
545.212341	0.599
563.225037	2.665
END IONS

BEGIN IONS
PEPMASS=454.063
CHARGE=1
MSLEVEL=2
SOURCE_INSTRUMENT=ESI-Orbitrap
FILENAME=gnps_msn_lib_pos_second_batch.mgf
SEQ=*..*
IONMODE=Positive
ORGANISM=MSNLIB-POSITIVE
NAME=Flucloxacillin [M+H]+
PI=Tomas Pluskal
DATACOLLECTOR=Corinna Brungs
SMILES=Cc1c(C(=O)N[C@@H]2C(=O)N3[C@@H]2SC(C)(C)[C@@H]3C(=O)O)c(-c2c(F)cccc2Cl)no1
INCHI=InChI=1S/C19H17ClFN3O5S/c1-7-10(12(23-29-7)11-8(20)5-4-6-9(11)21)15(25)22-13-16(26)24-14(18(27)28)19(2,3)30-17(13)24/h4-6,13-14,17H,1-3H3,(H,22,25)(H,27,28)/t13-,14+,17-/m1/s1
INCHIAUX=UIOFUWFRIANQPC-JKIFEVAISA-N
PUBMED=N/A
SUBMITUSER=jzemlin
LIBRARYQUALITY=1
SPECTRUMID=CCMSLIB00013062330
USI=mzspec:GNPS:MSNLIB-POSITIVE:accession:CCMSLIB00013062330
SCANS=105635
43.017899	4.103
43.054298	3.266
44.979401	14.145
46.995029	6.197
53.038593	17.771
55.054211	2.015
58.994995	5.615
70.065125	16.533001
87.026306	44.370998
114.037292	100.0
142.032227	5.156
156.001114	4.165
156.996384	2.677
160.04274	84.302002
170.01712	3.397
180.001251	10.064
182.017075	26.966999
194.016678	2.317
195.996277	6.702
198.011581	4.641
240.022156	2.437
295.029724	22.809
END IONS

BEGIN IONS
PEPMASS=272.141
CHARGE=1
MSLEVEL=2
SOURCE_INSTRUMENT=ESI-Orbitrap
FILENAME=gnps_msn_lib_pos_second_batch.mgf
SEQ=*..*
IONMODE=Positive
ORGANISM=MSNLIB-POSITIVE
NAME=BUPRANOLOL [M+H]+
PI=Tomas Pluskal
DATACOLLECTOR=Corinna Brungs
SMILES=Cc1cc(OCC(O)CNC(C)(C)C)c(Cl)cc1
INCHI=InChI=1S/C14H22ClNO2/c1-10-5-6-12(15)13(7-10)18-9-11(17)8-16-14(2,3)4/h5-7,11,16-17H,8-9H2,1-4H3
INCHIAUX=HQIRNZOQPUAHHV-UHFFFAOYSA-N
PUBMED=N/A
SUBMITUSER=jzemlin
LIBRARYQUALITY=1
SPECTRUMID=CCMSLIB00013064690
USI=mzspec:GNPS:MSNLIB-POSITIVE:accession:CCMSLIB00013064690
SCANS=106217
41.038483	1.256
43.017818	0.111
44.049393	0.556
48.983955	0.135
50.015057	0.145
51.022858	0.774
53.038506	0.175
54.01902	0.099
55.017769	0.186
56.049335	30.431
56.052254	0.732
56.055634	0.288
57.033321	0.634
57.057243	0.12
57.069649	13.622
57.073032	0.314
58.065048	0.242
62.01498	0.183
63.022804	5.092
65.038445	9.534
72.983818	0.485
74.014946	0.182
74.05983	18.243
74.064117	0.19
74.93055	0.747
74.999474	0.285
75.022797	0.668
75.043541	0.286
76.030609	0.207
77.038414	0.731
78.046249	0.159
79.054062	1.114
87.022789	0.574
88.978745	0.224
89.038422	8.214
89.040779	0.097
90.04628	1.591
91.054085	19.624001
91.056641	0.33
92.061905	0.757
94.041313	0.147
95.048988	0.911
98.999466	2.685
100.075317	0.24
101.038536	0.123
101.078629	0.192
102.046272	0.655
103.054092	1.178
104.062027	0.111
105.044556	0.218
105.06971	4.407
106.077545	0.265
107.048943	0.704
108.05677	0.263
109.064613	1.397
112.007263	0.099
113.015205	0.141
114.046181	0.164
115.051437	0.091
115.05407	36.174999
115.05703	0.456
115.060188	0.133
116.061913	1.574
117.069725	11.631
117.071823	0.132
118.077576	0.994
119.048981	1.521
119.060219	0.458
120.056824	2.004
123.08033	0.49
125.015076	10.758
125.017403	0.106
126.046188	0.4
127.030724	4.01
127.054047	0.101
128.061935	0.615
129.044647	0.152
131.049042	3.299
133.064682	1.442
133.07579	0.154
134.072479	1.074
137.01503	0.369
138.023071	0.139
139.030731	0.144
141.010101	0.148
141.046417	2.495
142.017929	0.292
143.025742	0.513
145.064651	3.47
146.072433	5.029
151.030807	0.523
153.021225	0.824
153.046326	10.281
155.018173	0.112
155.02562	17.705
155.060135	0.105
163.030701	0.445
165.010132	0.148
166.01799	0.124
169.041367	5.601
170.954895	0.327
173.542725	0.47
181.031815	0.115
181.04126	20.724001
181.0448	0.329
198.067764	6.406
199.051834	0.147
216.029007	0.541
216.038895	0.394
216.066284	0.389
216.068649	0.364
216.078262	100.0
216.088181	0.144
216.090866	0.434
216.09671	1.892
216.115906	0.596
216.127213	0.809
216.141571	0.303
272.140564	32.640999
272.208771	0.186
END IONS

BEGIN IONS
PEPMASS=205.133
CHARGE=1
MSLEVEL=2
SOURCE_INSTRUMENT=LC-ESI-Orbitrap
FILENAME=FMstandards_20uMc2.mzML
SEQ=*..*
IONMODE=Positive
ORGANISM=CMMC-FOOD-BIOMARKERS
NAME=Psilocin (known structural isomers: 0; isobaric peaks in run: 1) [M+H]+
PI=Pieter Dorrestein
DATACOLLECTOR=Julius
SMILES=CN(C)CCC1=CNC2=C1C(=CC=C2)O
INCHI=InChI=1S/C12H16N2O/c1-14(2)7-6-9-8-13-10-4-3-5-11(15)12(9)10/h3-5,8,13,15H,6-7H2,1-2H3
INCHIAUX=InChI=1S/C12H16N2O/c1-14(2)7-6-9-8-13-10-4-3-5-11(15)12(9)10/h3-5,8,13,15H,6-7H2,1-2H3 [M+H]+
PUBMED=N/A
SUBMITUSER=jzemlin
LIBRARYQUALITY=1
SPECTRUMID=CCMSLIB00013576340
USI=mzspec:GNPS:CMMC-FOOD-BIOMARKERS:accession:CCMSLIB00013576340
SCANS=594
50.767189	6196.73291
51.833858	5699.375977
56.356564	5873.476562
57.01963	6552.986816
58.065979	1715800.125
58.072018	12513.826172
62.982719	6659.512207
62.986336	6136.800781
63.177235	6550.299805
63.705822	7705.993164
75.16568	6079.148926
76.888611	6510.914062
92.548157	23348.046875
92.554321	15331.514648
115.054382	119960.742188
117.057388	31747.888672
128.252731	6989.768066
132.080612	130719.539062
133.065033	9804.712891
134.060043	24927.033203
142.065079	18170.960938
159.06752	13623.96582
160.075531	2618668.75
201.277634	7449.721191
205.133377	910547.0
END IONS

BEGIN IONS
PEPMASS=285.099
CHARGE=1
MSLEVEL=2
SOURCE_INSTRUMENT=LC-ESI-Orbitrap
FILENAME=FMstandards_20uMc2.mzML
SEQ=*..*
IONMODE=Positive
ORGANISM=CMMC-FOOD-BIOMARKERS
NAME=Psilocybin (known structural isomers: 0; isobaric peaks in run: 0) [M+H]+
PI=Pieter Dorrestein
DATACOLLECTOR=Julius
SMILES=CN(C)CCC1=CNC2=C1C(=CC=C2)OP(=O)(O)O
INCHI=InChI=1S/C12H17N2O4P/c1-14(2)7-6-9-8-13-10-4-3-5-11(12(9)10)18-19(15,16)17/h3-5,8,13H,6-7H2,1-2H3,(H2,15,16,17)
INCHIAUX=InChI=1S/C12H17N2O4P/c1-14(2)7-6-9-8-13-10-4-3-5-11(12(9)10)18-19(15,16)17/h3-5,8,13H,6-7H2,1-2H3,(H2,15,16,17) [M+H]+
PUBMED=N/A
SUBMITUSER=jzemlin
LIBRARYQUALITY=1
SPECTRUMID=CCMSLIB00013576341
USI=mzspec:GNPS:CMMC-FOOD-BIOMARKERS:accession:CCMSLIB00013576341
SCANS=297
51.282631	49779.332031
54.926342	50056.0625
58.06596	10854870.0
60.009529	68798.890625
64.202667	52715.449219
90.416008	47936.695312
92.550232	437697.03125
115.054375	1324239.5
115.061943	85676.453125
116.049706	132769.265625
117.058212	60610.050781
118.065422	278751.25
132.080963	175672.96875
134.060165	92973.78125
140.049942	95293.125
142.065018	1472587.375
144.506729	56739.425781
146.060608	292606.34375
158.059875	649971.0
160.0616	98612.054688
160.064819	98985.8125
160.075455	7264739.0
170.071381	179170.484375
188.630142	62848.382812
196.015472	56431.8125
204.020782	99859.195312
205.118729	371323.15625
205.133286	19786602.0
205.184738	72442.0625
214.025497	297897.125
222.030853	1174483.0
239.991043	97717.929688
240.041611	14869281.0
285.099365	19937736.0
END IONS

BEGIN IONS
PEPMASS=132.138
CHARGE=1
MSLEVEL=2
SOURCE_INSTRUMENT=LC-ESI-Orbitrap
FILENAME=FMstandards_20uMaa.mzML
SEQ=*..*
IONMODE=Positive
ORGANISM=CMMC-FOOD-BIOMARKERS
NAME=Heptanal (known structural isomers: 0; isobaric peaks in run: 0) [M+NH4]+
PI=Pieter Dorrestein
DATACOLLECTOR=Julius
SMILES=CCCCCCC=O
INCHI=InChI=1S/C7H14O/c1-2-3-4-5-6-7-8/h7H,2-6H2,1H3
INCHIAUX=InChI=1S/C7H14O/c1-2-3-4-5-6-7-8/h7H,2-6H2,1H3 [M+NH4]+
PUBMED=N/A
SUBMITUSER=jzemlin
LIBRARYQUALITY=1
SPECTRUMID=CCMSLIB00013576584
USI=mzspec:GNPS:CMMC-FOOD-BIOMARKERS:accession:CCMSLIB00013576584
SCANS=3283
50.674526	874.421509
58.065784	2774.506836
60.045345	7250.979492
68.050102	2772.430664
72.081749	7945.429688
73.06562	1858.256714
73.089317	1126.609009
86.060532	11725.880859
86.096909	149808.671875
86.101425	1950.625244
90.055267	13003.658203
90.091743	23439.994141
92.147232	1047.933716
92.547852	5663.634277
92.554611	2944.783447
100.111916	5722.981934
108.652542	1065.103271
114.128281	12858.470703
115.135124	12126.832031
121.004837	1240.501953
132.065094	11620.629883
132.102646	4979.600098
132.138428	187196.453125
133.062241	1013.051636
END IONS

BEGIN IONS
PEPMASS=291.17
CHARGE=1
MSLEVEL=2
SOURCE_INSTRUMENT=ESI-Orbitrap
FILENAME=output_folder/converted_library.mgf
SEQ=*..*
IONMODE=Positive
ORGANISM=WFSR-LIBRARY
NAME=Procaterol_CE15 M+H
PI=Federico Padilla-Gonzalez
DATACOLLECTOR="Sjors Rasker, Wout Bergkamp"
SMILES=CC[C@@H](NC(C)C)[C@@H](O)C1=CC=C(O)C2=C1C=CC(=O)N2
INCHI=N/A
INCHIAUX=N/A
PUBMED=N/A
SUBMITUSER=jzemlin
LIBRARYQUALITY=1
SPECTRUMID=CCMSLIB00013933831
USI=mzspec:GNPS:WFSR-LIBRARY:accession:CCMSLIB00013933831
SCANS=50
52.917	2155.199951
52.917599	4667.169922
52.918201	5944.850098
52.9189	5706.189941
52.919399	3441.070068
52.919899	2942.580078
58.064899	3127.110107
60.080601	5186.509766
70.064903	456.839996
88.0755	3392.350098
100.111801	22478.240234
130.111603	232.449997
130.122406	55332.339844
154.663101	606.159973
154.678894	452.420013
162.054794	4306.220215
174.054901	2747.169922
176.070404	3673.139893
192.065399	2124.669922
214.086304	1409.079956
216.101807	13952.519531
231.112701	49781.96875
232.096695	43799.28125
244.121002	1997.089966
273.126099	440.609985
273.159698	701648.9375
273.191986	355.059998
291.17041	92108.171875
END IONS

BEGIN IONS
PEPMASS=311.113
CHARGE=1
MSLEVEL=2
SOURCE_INSTRUMENT=ESI-Orbitrap
FILENAME=output_folder/converted_library.mgf
SEQ=*..*
IONMODE=Positive
ORGANISM=WFSR-LIBRARY
NAME=Mabuterol_CE15 M+H
PI=Federico Padilla-Gonzalez
DATACOLLECTOR="Sjors Rasker, Wout Bergkamp"
SMILES=CC(C)(C)NCC(O)C1=CC(Cl)=C(N)C(=C1)C(F)(F)F
INCHI="InChI=1S/C13H18ClF3N2O/c1-12(2,3)19-6-10(20)7-4-8(13(15,16)17)11(18)9(14)5-7/h4-5,10,19-20H,6,18H2,1-3H3"
INCHIAUX=N/A
PUBMED=N/A
SUBMITUSER=jzemlin
LIBRARYQUALITY=1
SPECTRUMID=CCMSLIB00013933880
USI=mzspec:GNPS:WFSR-LIBRARY:accession:CCMSLIB00013933880
SCANS=99
52.916	572.440002
52.917599	6833.620117
52.9184	11150.120117
52.919102	4504.470215
52.919998	3582.969971
57.069801	7441.549805
154.664001	1461.160034
154.676895	933.650024
217.033905	13735.709961
237.039993	903694.0
237.067596	1222.0
255.049698	1138.689941
293.1026	339864.5625
311.072388	583.679993
311.11319	160552.125
END IONS

BEGIN IONS
PEPMASS=152.107
CHARGE=1
MSLEVEL=2
SOURCE_INSTRUMENT=ESI-Orbitrap
FILENAME=output_folder/converted_library.mgf
SEQ=*..*
IONMODE=Positive
ORGANISM=WFSR-LIBRARY
NAME=Halostachine_CE15 M+H
PI=Federico Padilla-Gonzalez
DATACOLLECTOR="Sjors Rasker, Wout Bergkamp"
SMILES=CNCC(O)C1=CC=CC=C1
INCHI="InChI=1S/C9H13NO/c1-10-7-9(11)8-5-3-2-4-6-8/h2-6,9-11H,7H2,1H3"
INCHIAUX=N/A
PUBMED=N/A
SUBMITUSER=jzemlin
LIBRARYQUALITY=1
SPECTRUMID=CCMSLIB00013936439
USI=mzspec:GNPS:WFSR-LIBRARY:accession:CCMSLIB00013936439
SCANS=2658
42.033798	19686.509766
43.0177	66972.953125
52.9175	6516.209961
52.918499	6618.72998
52.919601	4064.070068
56.049301	5387.290039
65.038399	20651.330078
82.064903	15040.339844
91.054199	20724.320312
92.049202	45112.558594
93.033203	4645.379883
93.069702	61719.109375
103.0541	11683.879883
105.062401	3824.310059
105.069702	190771.8125
107.048897	5761.350098
109.0522	2468.459961
110.059898	3982857.25
111.0439	103676.007812
117.069801	28227.599609
118.065002	12576.129883
119.072899	643472.25
121.064796	9063.219727
132.080307	3577.649902
133.089005	1575.670044
133.712494	2923.169922
134.059906	85753.328125
134.096405	5207981.5
134.480392	2096.870117
135.099899	6090.200195
152.070602	3307823.25
END IONS

BEGIN IONS
PEPMASS=548.287
CHARGE=1
MSLEVEL=2
SOURCE_INSTRUMENT=ESI-Orbitrap
FILENAME=output_folder/converted_library.mgf
SEQ=*..*
IONMODE=Positive
ORGANISM=WFSR-LIBRARY
NAME=Ergosine_CE15 M+H
PI=Federico Padilla-Gonzalez
DATACOLLECTOR="Sjors Rasker, Wout Bergkamp"
SMILES=[H][C@@]12CCCN1C(=O)[C@H](CC(C)C)N1C(=O)[C@](C)(NC(=O)[C@H]3CN(C)[C@]4([H])CC5=CNC6=CC=CC(=C56)C4=C3)O[C@@]21O
INCHI="InChI=1S/C30H37N5O5/c1-16(2)11-23-27(37)34-10-6-9-24(34)30(39)35(23)28(38)29(3,40-30)32-26(36)18-12-20-19-7-5-8-21-25(19)17(14-31-21)13-22(20)33(4)15-18/h5,7-8,12,14,16,18,22-24,31,39H,6,9-11,13,15H2,1-4H3,(H,32,36)/t18-,22-,23+,24+,29-,30+/m1/s1"
INCHIAUX=N/A
PUBMED=N/A
SUBMITUSER=jzemlin
LIBRARYQUALITY=1
SPECTRUMID=CCMSLIB00013936796
USI=mzspec:GNPS:WFSR-LIBRARY:accession:CCMSLIB00013936796
SCANS=3015
52.917198	11806.299805
52.9184	15664.25
52.919399	16649.300781
154.662094	4870.669922
154.678696	2886.129883
208.075607	16380.669922
223.101501	1771.23999
223.122894	224348.40625
225.102203	19225.730469
251.117996	8773.259766
263.139191	41127.519531
268.144409	209868.859375
277.064514	2013.969971
277.09729	100477.632812
320.139587	67931.679688
502.280792	7023.180176
530.276306	455677.46875
531.279114	18784.310547
548.287415	275227.875
549.29071	7783.819824
END IONS

BEGIN IONS
PEPMASS=576.318
CHARGE=1
MSLEVEL=2
SOURCE_INSTRUMENT=ESI-Orbitrap
FILENAME=output_folder/converted_library.mgf
SEQ=*..*
IONMODE=Positive
ORGANISM=WFSR-LIBRARY
NAME=beta-Ergocryptine_CE15 M+H
PI=Federico Padilla-Gonzalez
DATACOLLECTOR="Sjors Rasker, Wout Bergkamp"
SMILES=[H][C@@]12CCCN1C(=O)[C@]([H])([C@@H](C)CC)N1C(=O)[C@](NC(=O)[C@H]3CN(C)[C@]4([H])CC5=CNC6=C5C(=CC=C6)C4=C3)(O[C@@]21O)C(C)C
INCHI="InChI=1S/C32H41N5O5/c1-6-18(4)27-29(39)36-12-8-11-25(36)32(41)37(27)30(40)31(42-32,17(2)3)34-28(38)20-13-22-21-9-7-10-23-26(21)19(15-33-23)14-24(22)35(5)16-20/h7,9-10,13,15,17-18,20,24-25,27,33,41H,6,8,11-12,14,16H2,1-5H3,(H,34,38)/t18-,20+,24+,25-,27-,31+,32-/m0/s1"
INCHIAUX=N/A
PUBMED=N/A
SUBMITUSER=jzemlin
LIBRARYQUALITY=1
SPECTRUMID=CCMSLIB00013937013
USI=mzspec:GNPS:WFSR-LIBRARY:accession:CCMSLIB00013937013
SCANS=3232
52.9174	14377.150391
52.9193	22106.189453
52.9203	2896.669922
133.085495	2441.219971
154.662292	4750.02002
208.0755	3724.429932
223.122604	22174.509766
225.101807	9847.530273
251.118607	1272.170044
268.144287	176029.65625
269.147491	4327.5
291.170593	15852.730469
305.12851	26670.220703
348.171204	22214.259766
558.307922	23654.820312
576.320618	47197.480469
577.319824	1813.650024
END IONS

BEGIN IONS
PEPMASS=582.272
CHARGE=1
MSLEVEL=2
SOURCE_INSTRUMENT=ESI-Orbitrap
FILENAME=output_folder/converted_library.mgf
SEQ=*..*
IONMODE=Positive
ORGANISM=WFSR-LIBRARY
NAME=Ergotamine_CE15 M+H
PI=Federico Padilla-Gonzalez
DATACOLLECTOR="Sjors Rasker, Wout Bergkamp"
SMILES=CN1C[C@@H](C=C2[C@H]1CC1=CNC3=CC=CC2=C13)C(=O)N[C@]1(C)O[C@@]2(O)[C@@H]3CCCN3C(=O)[C@H](CC3=CC=CC=C3)N2C1=O
INCHI="InChI=1S/C33H35N5O5/c1-32(35-29(39)21-15-23-22-10-6-11-24-28(22)20(17-34-24)16-25(23)36(2)18-21)31(41)38-26(14-19-8-4-3-5-9-19)30(40)37-13-7-12-27(37)33(38,42)43-32/h3-6,8-11,15,17,21,25-27,34,42H,7,12-14,16,18H2,1-2H3,(H,35,39)/t21-,25-,26+,27+,32-,33+/m1/s1"
INCHIAUX=N/A
PUBMED=N/A
SUBMITUSER=jzemlin
LIBRARYQUALITY=1
SPECTRUMID=CCMSLIB00013937111
USI=mzspec:GNPS:WFSR-LIBRARY:accession:CCMSLIB00013937111
SCANS=3330
52.916801	1326.300049
52.918098	17523.019531
52.919399	13691.269531
154.662506	1791.670044
154.679001	2106.959961
208.075302	11665.540039
223.122696	123941.0
225.102097	10695.759766
251.117905	7235.259766
268.144501	83223.140625
277.097198	28321.679688
297.123901	6880.640137
320.139496	24991.25
564.261719	24779.490234
582.272217	40501.71875
END IONS

BEGIN IONS
PEPMASS=155.074
CHARGE=1
MSLEVEL=2
SOURCE_INSTRUMENT=ESI-Orbitrap
FILENAME=output_folder/converted_library.mgf
SEQ=*..*
IONMODE=Positive
ORGANISM=WFSR-LIBRARY
NAME=Dimefox_CE15 M+H
PI=Federico Padilla-Gonzalez
DATACOLLECTOR="Sjors Rasker, Wout Bergkamp"
SMILES=CN(C)P(F)(=O)N(C)C
INCHI="InChI=1S/C4H12FN2OP/c1-6(2)9(5,8)7(3)4/h1-4H3"
INCHIAUX=N/A
PUBMED=N/A
SUBMITUSER=jzemlin
LIBRARYQUALITY=1
SPECTRUMID=CCMSLIB00013938497
USI=mzspec:GNPS:WFSR-LIBRARY:accession:CCMSLIB00013938497
SCANS=4716
42.033798	4503.330078
44.049301	165176.09375
44.051498	5145.939941
52.483501	802.900024
52.9165	1161.76001
52.9175	4736.319824
52.918701	12172.290039
52.919498	1318.969971
58.064899	2870.649902
67.065102	674.72998
95.012398	3332.469971
102.776604	866.72998
110.017097	10054.150391
111.062798	1928.089966
112.032204	4931.160156
112.497704	801.799988
126.031898	1433.579956
128.026993	1254026.0
129.029907	1206.329956
135.0681	307437.3125
135.078598	3000.290039
135.085403	645.099976
146.037796	9209.990234
153.058807	82636.953125
153.078796	93033.648438
154.590698	855.669983
154.596802	4876.75
155.074402	6314552.5
155.554596	4879.629883
155.559998	830.169983
156.077393	34579.738281
END IONS

BEGIN IONS
PEPMASS=276.063
CHARGE=1
MSLEVEL=2
SOURCE_INSTRUMENT=ESI-Orbitrap
FILENAME=output_folder/converted_library.mgf
SEQ=*..*
IONMODE=Positive
ORGANISM=WFSR-LIBRARY
NAME=Paraoxon_CE15 M+H
PI=Federico Padilla-Gonzalez
DATACOLLECTOR="Sjors Rasker, Wout Bergkamp"
SMILES=CCOP(=O)(OCC)OC1=CC=C(C=C1)[N+]([O-])=O
INCHI="InChI=1S/C10H14NO6P/c1-3-15-18(14,16-4-2)17-10-7-5-9(6-8-10)11(12)13/h5-8H,3-4H2,1-2H3"
INCHIAUX=N/A
PUBMED=N/A
SUBMITUSER=jzemlin
LIBRARYQUALITY=1
SPECTRUMID=CCMSLIB00013940194
USI=mzspec:GNPS:WFSR-LIBRARY:accession:CCMSLIB00013940194
SCANS=6413
174.007507	87659.9375
220.000397	1745966.75
238.011093	44091.921875
248.031799	90406.726562
END IONS

BEGIN IONS
PEPMASS=274.02
CHARGE=1
MSLEVEL=2
SOURCE_INSTRUMENT=LC-ESI-Orbitrap
FILENAME=reframe_drugs_pos_P1_F7_id.mzML
SEQ=*..*
IONMODE=Positive
ORGANISM=REFRAME-POSITIVE-LIBRARY
NAME=Stepronin [M+H]+
PI=Pieter Dorrestein
DATACOLLECTOR=Nina Zhao
SMILES=CC(SC(=O)c1cccs1)C(=O)NCC(=O)O
INCHI="InChI=1S/C10H11NO4S2/c1-6(9(14)11-5-8(12)13)17-10(15)7-3-2-4-16-7/h2-4,6H,5H2,1H3,(H,11,14)(H,12,13)"
INCHIAUX=
PUBMED=N/A
SUBMITUSER=jzemlin
LIBRARYQUALITY=1
SPECTRUMID=CCMSLIB00016142704
USI=mzspec:GNPS:REFRAME-POSITIVE-LIBRARY:accession:CCMSLIB00016142704
SCANS=1384
54.611866	1299.388672
58.430538	1213.299805
58.896507	1211.314331
61.010986	3797.244141
64.839035	1304.373047
70.801804	1326.34729
80.778702	1321.909424
90.03717	8389.708984
90.976555	2705.976074
94.27832	1664.765259
107.534142	1308.524902
110.989853	603369.625
118.032013	48720.097656
123.682892	1323.912598
128.729828	1544.032349
141.573608	1381.454468
146.027039	53714.457031
160.567596	1395.294922
170.993271	11056.109375
198.988007	69120.554688
292.128265	1573.679688
END IONS

BEGIN IONS
PEPMASS=236.144
CHARGE=1
MSLEVEL=2
SOURCE_INSTRUMENT=LC-ESI-Orbitrap
FILENAME=reframe_drugs_pos_P2_D3_id.mzML
SEQ=*..*
IONMODE=Positive
ORGANISM=REFRAME-POSITIVE-LIBRARY
NAME=Azapetine [M+H]+
PI=Pieter Dorrestein
DATACOLLECTOR=Nina Zhao
SMILES=C=CCN1Cc2ccccc2-c2ccccc2C1
INCHI="InChI=1S/C17H17N/c1-2-11-18-12-14-7-3-5-9-16(14)17-10-6-4-8-15(17)13-18/h2-10H,1,11-13H2"
INCHIAUX=
PUBMED=N/A
SUBMITUSER=jzemlin
LIBRARYQUALITY=1
SPECTRUMID=CCMSLIB00016142783
USI=mzspec:GNPS:REFRAME-POSITIVE-LIBRARY:accession:CCMSLIB00016142783
SCANS=1343
52.625515	29411.882812
54.246296	33814.136719
56.049862	108194.4375
59.415855	36808.101562
61.803478	37634.855469
65.620972	44426.386719
68.049622	42298.1875
68.870781	63914.25
70.065445	742431.625
101.038361	34125.738281
141.069946	91932.125
144.417023	36857.316406
152.061646	83341.5
153.070267	250824.0625
165.069794	1296616.875
166.077713	4060348.25
167.073196	76331.984375
167.08548	1568637.625
168.093567	129825.945312
177.06926	51068.546875
178.077621	1411785.75
179.08551	9787844.0
180.080429	368441.34375
180.093445	47078.0625
181.101105	6614282.0
189.06958	64735.238281
191.086166	66555.625
194.096344	7117293.5
195.104507	185615.21875
203.085388	354805.9375
204.093369	557241.125
207.118073	81393.6875
219.117111	145507.421875
236.143448	31274158.0
END IONS

BEGIN IONS
PEPMASS=332.186
CHARGE=1
MSLEVEL=2
SOURCE_INSTRUMENT=LC-ESI-Orbitrap
FILENAME=reframe_drugs_pos_P1_A3_id.mzML
SEQ=*..*
IONMODE=Positive
ORGANISM=REFRAME-POSITIVE-LIBRARY
NAME=Oxitropium [M+H]+
PI=Pieter Dorrestein
DATACOLLECTOR=Nina Zhao
SMILES=CC[N+]1(C)C2CC(OC(=O)C(CO)c3ccccc3)CC1C1OC12
INCHI="InChI=1S/C19H26NO4/c1-3-20(2)15-9-13(10-16(20)18-17(15)24-18)23-19(22)14(11-21)12-7-5-4-6-8-12/h4-8,13-18,21H,3,9-11H2,1-2H3/q+1"
INCHIAUX=
PUBMED=N/A
SUBMITUSER=jzemlin
LIBRARYQUALITY=1
SPECTRUMID=CCMSLIB00016144011
USI=mzspec:GNPS:REFRAME-POSITIVE-LIBRARY:accession:CCMSLIB00016144011
SCANS=1046
50.006161	20710.169922
50.128796	20133.066406
52.269802	21441.521484
53.038883	30236.070312
53.809937	19722.693359
56.049988	28803.400391
56.998459	51953.042969
57.00087	27628.642578
57.03389	84022.523438
58.063416	19622.050781
58.065624	241261.375
59.04953	37242.496094
67.054459	81151.765625
68.049797	35927.789062
70.065269	79521.148438
72.044731	30567.263672
72.08107	52336.429688
76.585533	19647.994141
77.038773	26879.064453
79.054405	565142.375
80.049461	47144.007812
81.033607	199698.421875
81.070015	217114.640625
82.06517	134097.078125
84.080666	60811.980469
85.064926	27986.552734
91.054245	290496.40625
93.069862	127115.882812
94.065094	643995.1875
95.048927	73400.046875
96.044487	42979.523438
96.080589	152069.296875
97.052017	22988.783203
97.064781	67062.15625
98.060028	369071.0
98.096443	336620.78125
100.075798	42004.054688
103.054161	1154990.125
107.048752	56215.265625
107.07238	27208.230469
108.080727	286486.53125
110.059959	100381.75
110.096275	311327.625
120.080795	279232.75
121.064758	806815.3125
121.073578	49810.101562
121.089264	23679.09375
122.09623	172801.90625
126.091309	223522.90625
132.079285	24340.123047
136.075882	24533.734375
136.111984	99254.570312
138.091354	589642.875
138.127426	58063.242188
140.106857	37203.734375
156.101883	164371.578125
166.12262	5303998.0
184.132965	229738.3125
199.985443	23511.832031
265.971832	28447.597656
302.177094	27981.757812
308.143585	24364.941406
332.185608	13511835.0
339.934448	23850.998047
353.872772	25025.738281
END IONS

BEGIN IONS
PEPMASS=275.197
CHARGE=1
MSLEVEL=2
SOURCE_INSTRUMENT=LC-ESI-Orbitrap
FILENAME=reframe_drugs_pos_P2_E6_id.mzML
SEQ=*..*
IONMODE=Positive
ORGANISM=REFRAME-POSITIVE-LIBRARY
NAME=TYBAMATE [M+H]+
PI=Pieter Dorrestein
DATACOLLECTOR=Nina Zhao
SMILES=CCCCNC(=O)OCC(C)(CCC)COC(N)=O
INCHI="InChI=1S/C13H26N2O4/c1-4-6-8-15-12(17)19-10-13(3,7-5-2)9-18-11(14)16/h4-10H2,1-3H3,(H2,14,16)(H,15,17)"
INCHIAUX=
PUBMED=N/A
SUBMITUSER=jzemlin
LIBRARYQUALITY=1
SPECTRUMID=CCMSLIB00016144396
USI=mzspec:GNPS:REFRAME-POSITIVE-LIBRARY:accession:CCMSLIB00016144396
SCANS=1835
53.039089	3954.947998
55.054714	139250.546875
57.070362	7249.518066
58.289387	1241.279663
59.049572	8584.682617
61.115562	1204.054077
62.024055	145876.34375
63.846138	1277.227905
69.070168	28626.056641
71.085785	3621.345459
74.796494	1187.121094
88.148903	1592.904663
90.108612	1426.492554
90.976822	2207.145508
97.101135	170817.40625
99.880669	1306.489014
104.788635	1326.464233
109.940948	1351.871338
115.111572	35126.140625
118.086128	35259.792969
154.060776	1494.178833
154.941757	1968.292725
158.117523	135156.96875
176.127945	50443.886719
176.143265	1814.029297
214.180008	74447.546875
234.514526	1620.88501
250.867386	1493.146973
275.277557	8781.240234
END IONS

BEGIN IONS
PEPMASS=180.138
CHARGE=1
MSLEVEL=2
SOURCE_INSTRUMENT=LC-ESI-Orbitrap
FILENAME=reframe_drugs_pos_P3_B4_id.mzML
SEQ=*..*
IONMODE=Positive
ORGANISM=REFRAME-POSITIVE-LIBRARY
NAME=METHOXYPHENAMINE [M+H]+
PI=Pieter Dorrestein
DATACOLLECTOR=Nina Zhao
SMILES=CNC(C)Cc1ccccc1OC
INCHI="InChI=1S/C11H17NO/c1-9(12-2)8-10-6-4-5-7-11(10)13-3/h4-7,9,12H,8H2,1-3H3"
INCHIAUX=
PUBMED=N/A
SUBMITUSER=jzemlin
LIBRARYQUALITY=1
SPECTRUMID=CCMSLIB00016144633
USI=mzspec:GNPS:REFRAME-POSITIVE-LIBRARY:accession:CCMSLIB00016144633
SCANS=1045
50.208736	872.777649
60.030308	1078.682251
60.050014	1058.240356
63.560627	975.180298
69.956177	1096.22229
80.481438	1051.489258
82.404366	1147.140137
91.054321	5639.647949
93.069946	2920.222656
95.04837	1060.508667
104.163719	1103.207031
104.612625	1023.662964
109.064911	5673.230957
121.06472	75108.625
149.096054	61163.222656
156.892792	1210.154053
174.984863	3680.31958
175.362549	1178.960815
180.080658	2248.770264
180.138168	11008.291992
END IONS

BEGIN IONS
PEPMASS=178.123
CHARGE=1
MSLEVEL=2
SOURCE_INSTRUMENT=LC-ESI-Orbitrap
FILENAME=reframe_drugs_pos_P2_G5_id.mzML
SEQ=*..*
IONMODE=Positive
ORGANISM=REFRAME-POSITIVE-LIBRARY
NAME=phenmetrazine [M+H]+
PI=Pieter Dorrestein
DATACOLLECTOR=Nina Zhao
SMILES=CC1NCCOC1c1ccccc1
INCHI="InChI=1S/C11H15NO/c1-9-11(13-8-7-12-9)10-5-3-2-4-6-10/h2-6,9,11-12H,7-8H2,1H3"
INCHIAUX=
PUBMED=N/A
SUBMITUSER=jzemlin
LIBRARYQUALITY=1
SPECTRUMID=CCMSLIB00016144727
USI=mzspec:GNPS:REFRAME-POSITIVE-LIBRARY:accession:CCMSLIB00016144727
SCANS=807
56.049915	48443.375
60.044804	30439.833984
62.060371	6173.804199
63.803448	4077.105713
64.721062	3863.409668
68.049667	8545.449219
69.706955	4126.55957
70.065483	11817.086914
72.044632	14178.652344
79.054253	14616.993164
82.065247	9097.026367
86.060188	31729.210938
90.532486	4001.052734
91.054207	723548.0625
92.122566	3725.719482
93.069878	13546.974609
103.054039	11716.654297
104.049362	16978.5625
105.069862	108453.609375
106.065109	5723.084473
115.045853	7117.433105
115.054192	447606.84375
116.062363	29046.287109
117.05658	34421.070312
117.069824	1068450.0
118.065201	43623.386719
119.072884	47218.144531
119.085495	186127.78125
128.061996	110388.5625
130.065186	41989.464844
131.072891	77335.742188
131.085342	25688.625
132.080688	198575.296875
133.088501	436971.84375
134.096329	520137.21875
143.085541	98750.234375
143.096664	5441.68457
144.080444	23666.914062
145.064667	10084.904297
145.088394	37692.597656
146.095856	7564.307129
148.862671	4917.845215
158.096359	43840.75
160.112076	240510.46875
163.098785	28369.537109
168.50882	5188.303711
178.122528	5821885.5
END IONS

BEGIN IONS
PEPMASS=270.056
CHARGE=1
MSLEVEL=2
SOURCE_INSTRUMENT=LC-ESI-Orbitrap
FILENAME=reframe_drugs_pos_P2_H5_id.mzML
SEQ=*..*
IONMODE=Positive
ORGANISM=REFRAME-POSITIVE-LIBRARY
NAME=Alinidine [M+H]+
PI=Pieter Dorrestein
DATACOLLECTOR=Nina Zhao
SMILES=C=CCN(C1=NCCN1)c1c(Cl)cccc1Cl
INCHI="InChI=1S/C12H13Cl2N3/c1-2-8-17(12-15-6-7-16-12)11-9(13)4-3-5-10(11)14/h2-5H,1,6-8H2,(H,15,16)"
INCHIAUX=
PUBMED=N/A
SUBMITUSER=jzemlin
LIBRARYQUALITY=1
SPECTRUMID=CCMSLIB00016144802
USI=mzspec:GNPS:REFRAME-POSITIVE-LIBRARY:accession:CCMSLIB00016144802
SCANS=1190
51.794559	34096.957031
55.03484	30740.236328
56.839207	42811.851562
60.336258	33710.179688
60.650021	33350.648438
62.06562	51619.296875
62.857189	28850.144531
69.045219	41820.460938
84.080826	331910.15625
116.851295	38344.582031
149.072357	34253.375
153.020859	68119.460938
159.078659	67878.335938
165.021484	66516.632812
167.036774	35393.261719
171.971436	516265.625
173.986618	49999.90625
193.039993	190556.25
194.047913	3110417.0
199.989929	591573.3125
200.117996	115898.414062
220.064713	54405.300781
228.007645	275230.34375
229.0168	6405165.5
234.079895	128906.546875
235.087234	298419.3125
270.055939	17914454.0
END IONS

BEGIN IONS
PEPMASS=240.134
CHARGE=1
MSLEVEL=2
SOURCE_INSTRUMENT=LC-ESI-Orbitrap
FILENAME=reframe_drugs_pos_P2_H1_id.mzML
SEQ=*..*
IONMODE=Positive
ORGANISM=REFRAME-POSITIVE-LIBRARY
NAME=emorfazone [M+H]+
PI=Pieter Dorrestein
DATACOLLECTOR=Nina Zhao
SMILES=CCOc1c(N2CCOCC2)cnn(C)c1=O
INCHI="InChI=1S/C11H17N3O3/c1-3-17-10-9(8-12-13(2)11(10)15)14-4-6-16-7-5-14/h8H,3-7H2,1-2H3"
INCHIAUX=
PUBMED=N/A
SUBMITUSER=jzemlin
LIBRARYQUALITY=1
SPECTRUMID=CCMSLIB00016144823
USI=mzspec:GNPS:REFRAME-POSITIVE-LIBRARY:accession:CCMSLIB00016144823
SCANS=1105
52.86636	50751.765625
56.049789	138149.234375
57.045067	42622.015625
58.029148	96272.203125
63.248062	45924.714844
64.069908	58735.863281
68.049789	244844.015625
68.762619	58535.246094
69.033867	57356.730469
69.044975	74164.828125
70.02887	103225.5625
73.728622	66176.132812
80.049431	165586.53125
81.044762	108263.125
82.028854	96256.71875
84.044479	81509.960938
86.060013	917497.6875
93.044914	321737.21875
95.060143	80717.085938
97.039536	367321.25
99.055222	198406.046875
100.679749	56433.898438
107.060318	497586.78125
108.06813	48953.992188
109.039398	208754.171875
111.05529	61333.023438
112.050499	267992.5
113.070747	92244.5625
115.809975	51468.109375
122.034431	77448.554688
123.055275	168439.5625
125.034294	175722.234375
125.058006	114382.375
125.070686	208786.765625
126.042313	2718870.0
127.049919	80325.421875
135.055038	165251.984375
137.057648	71029.007812
137.07074	57703.558594
138.078308	162100.625
139.049988	150154.125
140.045319	515157.0625
140.0578	680473.3125
140.081497	76243.226562
141.029343	2809933.25
141.053101	1448977.875
141.063812	64083.679688
142.060989	1412374.25
148.063187	168995.0
150.065842	332706.0
150.076813	61948.898438
151.050217	483064.65625
152.045425	2072060.375
152.057037	85457.390625
153.052734	206079.3125
153.066055	291581.65625
154.06105	666700.3125
164.058075	72178.164062
164.081665	161858.546875
165.052979	174832.421875
165.089493	62446.160156
166.061234	716218.875
166.07402	98841.0625
167.068817	970678.1875
168.076675	10015390.0
176.057816	386568.59375
176.081818	242781.90625
178.060913	701074.125
180.076584	610461.75
181.083908	271693.375
182.056213	74741.84375
182.092209	79419.625
183.063629	77964.398438
184.083389	117201.9375
184.107956	502381.9375
192.07666	2014621.875
193.084442	4955937.5
196.070877	71281.84375
210.087326	316711.84375
211.095078	4853273.5
212.102875	10779021.0
240.134247	40754472.0
END IONS

BEGIN IONS
PEPMASS=150.128
CHARGE=1
MSLEVEL=2
SOURCE_INSTRUMENT=LC-ESI-Orbitrap
FILENAME=reframe_drugs_pos_P2_C12_id.mzML
SEQ=*..*
IONMODE=Positive
ORGANISM=REFRAME-POSITIVE-LIBRARY
NAME=phentermine [M+H]+
PI=Pieter Dorrestein
DATACOLLECTOR=Nina Zhao
SMILES=CC(C)(N)Cc1ccccc1
INCHI="InChI=1S/C10H15N/c1-10(2,11)8-9-6-4-3-5-7-9/h3-7H,8,11H2,1-2H3"
INCHIAUX=
PUBMED=N/A
SUBMITUSER=jzemlin
LIBRARYQUALITY=1
SPECTRUMID=CCMSLIB00016145847
USI=mzspec:GNPS:REFRAME-POSITIVE-LIBRARY:accession:CCMSLIB00016145847
SCANS=909
55.05476	7589.416016
56.208511	1011.292969
57.276974	1014.147644
61.746845	1195.615967
62.74662	1081.546021
63.50798	1129.593018
65.038742	4439.601562
70.065277	2357.696533
77.750702	1010.537903
88.075745	3006.102295
91.054192	743513.4375
97.442055	1153.674683
99.003517	1796.504761
105.069839	39227.023438
105.962685	4587.302734
122.019127	1289.897583
132.10173	5919.329102
133.101074	170538.28125
150.013458	1863.305908
150.112518	10123.083984
150.127228	8709.976562
END IONS

BEGIN IONS
PEPMASS=275.001
CHARGE=1
MSLEVEL=2
SOURCE_INSTRUMENT=LC-ESI-Orbitrap
FILENAME=reframe_drugs_pos_P2_D6_id.mzML
SEQ=*..*
IONMODE=Positive
ORGANISM=REFRAME-POSITIVE-LIBRARY
NAME=4-Arsonophenylglycinamide [M+H]+
PI=Pieter Dorrestein
DATACOLLECTOR=Nina Zhao
SMILES=NC(=O)CNc1ccc([As](=O)(O)O)cc1
INCHI="InChI=1S/C8H11AsN2O4/c10-8(12)5-11-7-3-1-6(2-4-7)9(13,14)15/h1-4,11H,5H2,(H2,10,12)(H2,13,14,15)"
INCHIAUX=
PUBMED=N/A
SUBMITUSER=jzemlin
LIBRARYQUALITY=1
SPECTRUMID=CCMSLIB00016146602
USI=mzspec:GNPS:REFRAME-POSITIVE-LIBRARY:accession:CCMSLIB00016146602
SCANS=207
58.8923	1283.266846
61.011093	1138.774414
73.970169	1211.73291
74.133362	1181.559937
79.054527	2594.015625
79.47953	1284.115479
84.813416	1202.95459
90.947517	2553.265137
93.057037	1410.116333
95.048828	1520.966919
104.049416	2260.401611
105.057564	4156.199707
106.064774	3337.235107
108.958267	1428.778687
120.044418	4315.487793
121.052307	11742.27832
122.060043	15426.275391
137.047379	6587.016602
151.959137	1538.510254
165.066223	2482.766357
195.949005	2171.813721
196.950653	6070.793457
211.968582	52153.140625
229.979202	9877.28418
274.940948	1452.432251
275.00061	33738.847656
END IONS

BEGIN IONS
PEPMASS=299.158
CHARGE=1
MSLEVEL=2
SOURCE_INSTRUMENT=LC-ESI-Orbitrap
FILENAME=reframe_drugs_pos_P2_B7_id.mzML
SEQ=*..*
IONMODE=Positive
ORGANISM=REFRAME-POSITIVE-LIBRARY
NAME=Thiazinamium [M+H]+
PI=Pieter Dorrestein
DATACOLLECTOR=Nina Zhao
SMILES=CC(CN1c2ccccc2Sc2ccccc21)[N+](C)(C)C
INCHI="InChI=1S/C18H23N2S/c1-14(20(2,3)4)13-19-15-9-5-7-11-17(15)21-18-12-8-6-10-16(18)19/h5-12,14H,13H2,1-4H3/q+1"
INCHIAUX=
PUBMED=N/A
SUBMITUSER=jzemlin
LIBRARYQUALITY=1
SPECTRUMID=CCMSLIB00016147393
USI=mzspec:GNPS:REFRAME-POSITIVE-LIBRARY:accession:CCMSLIB00016147393
SCANS=1549
53.566612	14796.427734
67.311386	16319.875
72.155663	18236.882812
91.054024	49187.757812
103.053955	24556.744141
105.069809	240647.96875
106.064804	57561.660156
109.010605	60132.792969
115.053619	18211.212891
121.755402	20400.845703
124.021179	16713.417969
130.064911	43077.667969
136.021423	52898.441406
147.025345	19179.207031
148.021545	35549.890625
154.065628	100945.453125
159.786377	21275.867188
162.037094	433425.5625
166.143173	34003.414062
171.026154	50004.859375
180.081329	25498.800781
194.095856	19853.226562
197.029007	65882.953125
198.036972	14466806.0
199.045074	34355.796875
206.096375	151290.96875
207.103439	157731.609375
208.112076	42139.78125
212.051743	26750.380859
224.052994	130159.6875
225.060608	388372.9375
240.083969	6326665.0
297.098541	34723.433594
299.157318	488204.09375
305.589569	18059.013672
END IONS

BEGIN IONS
PEPMASS=262.18
CHARGE=1
MSLEVEL=2
SOURCE_INSTRUMENT=LC-ESI-Orbitrap
FILENAME=reframe_drugs_pos_P2_H6_id.mzML
SEQ=*..*
IONMODE=Positive
ORGANISM=REFRAME-POSITIVE-LIBRARY
NAME=Piperocaine [M+H]+
PI=Pieter Dorrestein
DATACOLLECTOR=Nina Zhao
SMILES=CC1CCCCN1CCCOC(=O)c1ccccc1
INCHI="InChI=1S/C16H23NO2/c1-14-8-5-6-11-17(14)12-7-13-19-16(18)15-9-3-2-4-10-15/h2-4,9-10,14H,5-8,11-13H2,1H3"
INCHIAUX=
PUBMED=N/A
SUBMITUSER=jzemlin
LIBRARYQUALITY=1
SPECTRUMID=CCMSLIB00016148308
USI=mzspec:GNPS:REFRAME-POSITIVE-LIBRARY:accession:CCMSLIB00016148308
SCANS=1232
51.450863	87109.59375
55.054722	376730.15625
58.065613	128497.726562
60.402641	89828.585938
70.065384	305531.375
70.542953	87126.640625
72.08123	104627.898438
77.038643	221163.59375
83.050476	117573.109375
83.085548	218776.96875
84.080818	377038.15625
95.049126	820761.5625
98.096313	1386885.875
105.033478	26477642.0
107.684319	112710.007812
112.112015	14206064.0
136.045593	96727.367188
140.14325	14209378.0
148.292374	97728.828125
163.075302	16991034.0
232.066467	102496.304688
247.307266	118255.15625
262.180115	69992024.0
END IONS

BEGIN IONS
PEPMASS=217.979
CHARGE=1
MSLEVEL=2
SOURCE_INSTRUMENT=LC-ESI-Orbitrap
FILENAME=reframe_drugs_pos_P2_D5_id.mzML
SEQ=*..*
IONMODE=Positive
ORGANISM=REFRAME-POSITIVE-LIBRARY
NAME=ARSANILIC ACID [M+H]+
PI=Pieter Dorrestein
DATACOLLECTOR=Nina Zhao
SMILES=Nc1ccc([As](=O)(O)O)cc1
INCHI="InChI=1S/C6H8AsNO3/c8-6-3-1-5(2-4-6)7(9,10)11/h1-4H,8H2,(H2,9,10,11)"
INCHIAUX=
PUBMED=N/A
SUBMITUSER=jzemlin
LIBRARYQUALITY=1
SPECTRUMID=CCMSLIB00016150547
USI=mzspec:GNPS:REFRAME-POSITIVE-LIBRARY:accession:CCMSLIB00016150547
SCANS=236
52.331127	1071.222046
54.737621	910.177795
65.038956	13271.49707
79.946396	1230.536621
80.049492	5132.543457
84.299355	1271.531982
92.049416	9435.759766
101.84388	1341.374634
108.044365	32407.365234
109.052216	115940.710938
110.060089	4840.331055
110.237106	1184.849243
132.96138	1747.390747
141.186569	1154.963623
148.954681	1878.709595
157.010895	2109.479736
164.75267	1259.433105
180.378952	1278.844971
217.97934	54628.777344
237.118301	1537.569092
END IONS

BEGIN IONS
PEPMASS=249.16
CHARGE=1
MSLEVEL=2
SOURCE_INSTRUMENT=LC-ESI-Orbitrap
FILENAME=reframe_drugs_pos_P3_A8_id.mzML
SEQ=*..*
IONMODE=Positive
ORGANISM=REFRAME-POSITIVE-LIBRARY
NAME=Bunitrolol [M+H]+
PI=Pieter Dorrestein
DATACOLLECTOR=Nina Zhao
SMILES=CC(C)(C)NCC(O)COc1ccccc1C#N
INCHI="InChI=1S/C14H20N2O2/c1-14(2,3)16-9-12(17)10-18-13-7-5-4-6-11(13)8-15/h4-7,12,16-17H,9-10H2,1-3H3"
INCHIAUX=
PUBMED=N/A
SUBMITUSER=jzemlin
LIBRARYQUALITY=1
SPECTRUMID=CCMSLIB00016150647
USI=mzspec:GNPS:REFRAME-POSITIVE-LIBRARY:accession:CCMSLIB00016150647
SCANS=1071
54.578117	41583.980469
56.049942	6637225.5
57.057674	53429.527344
57.070328	2361715.5
65.005157	45246.003906
66.98642	44093.953125
67.422279	42899.945312
68.976387	44643.398438
74.060196	409930.59375
78.155235	47355.109375
88.162399	50942.765625
92.049461	143996.828125
100.238495	66254.3125
102.067307	48182.828125
104.049438	111235.554688
105.034203	75008.710938
118.878922	55474.214844
120.044342	5709450.5
121.028259	726261.4375
130.064758	117801.09375
131.049408	65438.9375
132.044083	113937.828125
134.060196	81664.429688
138.055252	121565.03125
141.265808	50870.40625
146.059982	210750.015625
147.044113	150385.1875
148.075333	208201.453125
150.054352	65671.179688
158.060272	89464.625
175.086517	2691814.75
176.070526	172429.640625
193.097046	38278376.0
203.724991	47265.691406
248.190674	54555.566406
249.159668	12165666.0
263.47052	94831.703125
END IONS

BEGIN IONS
PEPMASS=255.186
CHARGE=1
MSLEVEL=2
SOURCE_INSTRUMENT=LC-ESI-Orbitrap
FILENAME=reframe_drugs_pos_P2_A2_id.mzML
SEQ=*..*
IONMODE=Positive
ORGANISM=REFRAME-POSITIVE-LIBRARY
NAME=PHENBENZAMINE [M+H]+
PI=Pieter Dorrestein
DATACOLLECTOR=Nina Zhao
SMILES=CN(C)CCN(Cc1ccccc1)c1ccccc1
INCHI="InChI=1S/C17H22N2/c1-18(2)13-14-19(17-11-7-4-8-12-17)15-16-9-5-3-6-10-16/h3-12H,13-15H2,1-2H3"
INCHIAUX=
PUBMED=N/A
SUBMITUSER=jzemlin
LIBRARYQUALITY=1
SPECTRUMID=CCMSLIB00016151475
USI=mzspec:GNPS:REFRAME-POSITIVE-LIBRARY:accession:CCMSLIB00016151475
SCANS=1483
56.049828	151999.0
57.057781	287298.3125
58.065533	467051.75
58.067833	70668.773438
65.038902	84558.179688
66.706001	61181.394531
70.065422	1153655.625
72.081024	58144684.0
85.969093	63210.800781
91.054192	9060789.0
105.069817	1102519.0
106.065125	218247.671875
118.064819	522331.59375
119.072769	419396.46875
120.081047	106889.382812
122.326485	80185.554688
132.08049	515278.34375
136.113113	89636.171875
210.12767	8337027.0
255.185547	4147934.25
END IONS

BEGIN IONS
PEPMASS=232.17
CHARGE=1
MSLEVEL=2
SOURCE_INSTRUMENT=LC-ESI-Orbitrap
FILENAME=reframe_drugs_pos_P1_G4_id.mzML
SEQ=*..*
IONMODE=Positive
ORGANISM=REFRAME-POSITIVE-LIBRARY
NAME=Eptazocine [M+H]+
PI=Pieter Dorrestein
DATACOLLECTOR=Nina Zhao
SMILES=CN1CCC2(C)CC(Cc3c2cc(O)cc3)C1
INCHI="InChI=1S/C15H21NO/c1-15-5-6-16(2)10-11(9-15)7-12-3-4-13(17)8-14(12)15/h3-4,8,11,17H,5-7,9-10H2,1-2H3"
INCHIAUX=
PUBMED=N/A
SUBMITUSER=jzemlin
LIBRARYQUALITY=1
SPECTRUMID=CCMSLIB00016152962
USI=mzspec:GNPS:REFRAME-POSITIVE-LIBRARY:accession:CCMSLIB00016152962
SCANS=980
55.054676	37116.246094
55.513943	34222.28125
58.06554	557934.6875
60.117607	37682.152344
67.262772	53153.703125
67.941948	45299.855469
68.436287	65293.246094
69.070152	88905.015625
72.081047	64354.441406
73.465874	39587.324219
78.691681	40252.203125
89.159691	44059.320312
91.026245	37994.90625
102.157112	37485.085938
105.069931	77822.179688
105.967468	40898.597656
107.049164	263932.9375
110.284035	38863.082031
116.171059	42693.832031
117.069572	103933.984375
125.042816	44081.40625
131.049332	45937.03125
131.085632	269930.53125
133.064682	1668635.875
141.070129	58740.917969
144.057007	180947.796875
145.064621	1547812.875
145.10112	807451.8125
146.072891	82369.085938
147.080322	174266.5625
155.085342	272613.53125
157.06456	55020.828125
158.072556	706966.875
159.080429	2084540.5
160.088287	101310.140625
173.096024	4022331.25
174.099686	46095.496094
175.111694	2249807.25
201.127548	117849.210938
232.169601	44400624.0
END IONS

BEGIN IONS
PEPMASS=248.165
CHARGE=1
MSLEVEL=2
SOURCE_INSTRUMENT=LC-ESI-Orbitrap
FILENAME=reframe_drugs_pos_P1_H4_id.mzML
SEQ=*..*
IONMODE=Positive
ORGANISM=REFRAME-POSITIVE-LIBRARY
NAME=meperidine [M+H]+
PI=Pieter Dorrestein
DATACOLLECTOR=Nina Zhao
SMILES=CCOC(=O)C1(c2ccccc2)CCN(C)CC1
INCHI="InChI=1S/C15H21NO2/c1-3-18-14(17)15(9-11-16(2)12-10-15)13-7-5-4-6-8-13/h4-8H,3,9-12H2,1-2H3"
INCHIAUX=
PUBMED=N/A
SUBMITUSER=jzemlin
LIBRARYQUALITY=1
SPECTRUMID=CCMSLIB00016153057
USI=mzspec:GNPS:REFRAME-POSITIVE-LIBRARY:accession:CCMSLIB00016153057
SCANS=1206
55.054806	13931.551758
58.349228	11029.40625
64.820564	13161.387695
66.057564	24285.638672
70.065414	1794030.5
76.069237	22925.667969
82.065178	30441.136719
83.073044	28377.75
87.395821	12666.242188
91.054207	141936.875
96.08049	67946.945312
97.088791	29001.498047
98.096397	139418.4375
99.043922	65689.5625
103.054077	154096.125
105.06987	39311.640625
111.162773	12567.404297
116.061882	23674.806641
117.069725	134190.25
127.075027	12962.525391
129.069504	31087.695312
130.077621	14977.578125
131.085434	401866.09375
142.663254	13773.895508
143.085144	36206.03125
144.077011	14012.860352
145.065369	26720.664062
145.101166	51809.082031
151.180817	13355.432617
159.102539	15774.916016
172.112534	31089.970703
174.12764	2859606.0
175.136475	22744.185547
176.143494	175089.609375
184.112076	51077.648438
202.122452	335259.3125
218.118729	17989.419922
220.133179	2552319.5
221.629028	16394.152344
248.164429	15634619.0
266.002411	13985.876953
END IONS

BEGIN IONS
PEPMASS=207.078
CHARGE=-1
MSLEVEL=2
SOURCE_INSTRUMENT=LC-ESI-Orbitrap
FILENAME=reframe_drugs_neg_P2_B5_id.mzML
SEQ=*..*
IONMODE=Negative
ORGANISM=REFRAME-NEGATIVE-LIBRARY
NAME=ALLOBARBITAL [M-H]-
PI=Pieter Dorrestein
DATACOLLECTOR=Nina Zhao
SMILES=C=CCC1(CC=C)C(=O)NC(=O)NC1=O
INCHI="InChI=1S/C10H12N2O3/c1-3-5-10(6-4-2)7(13)11-9(15)12-8(10)14/h3-4H,1-2,5-6H2,(H2,11,12,13,14,15)"
INCHIAUX=
PUBMED=N/A
SUBMITUSER=jzemlin
LIBRARYQUALITY=1
SPECTRUMID=CCMSLIB00016152336
USI=mzspec:GNPS:REFRAME-NEGATIVE-LIBRARY:accession:CCMSLIB00016152336
SCANS=1117
54.124512	1026.662598
55.471478	1076.413696
78.034531	7665.754395
85.004051	30724.109375
85.915794	991.700562
118.06636	2265.299316
120.082115	2558.723877
122.969437	6304.537109
125.391441	1271.343262
142.955429	1558.470337
156.923065	1234.69165
157.126434	1349.49939
164.071945	229414.421875
207.077682	236268.03125
END IONS

BEGIN IONS
PEPMASS=225.088
CHARGE=-1
MSLEVEL=2
SOURCE_INSTRUMENT=LC-ESI-Orbitrap
FILENAME=reframe_drugs_neg_P1_H10_id.mzML
SEQ=*..*
IONMODE=Negative
ORGANISM=REFRAME-NEGATIVE-LIBRARY
NAME=Proxibarbal [M-H]-
PI=Pieter Dorrestein
DATACOLLECTOR=Nina Zhao
SMILES=C=CCC1(CC(C)O)C(=O)NC(=O)NC1=O
INCHI="InChI=1S/C10H14N2O4/c1-3-4-10(5-6(2)13)7(14)11-9(16)12-8(10)15/h3,6,13H,1,4-5H2,2H3,(H2,11,12,14,15,16)"
INCHIAUX=
PUBMED=N/A
SUBMITUSER=jzemlin
LIBRARYQUALITY=1
SPECTRUMID=CCMSLIB00016153593
USI=mzspec:GNPS:REFRAME-NEGATIVE-LIBRARY:accession:CCMSLIB00016153593
SCANS=871
57.033852	2382.359131
57.950985	1984.146973
60.112644	2233.353271
61.649002	2007.856323
85.004028	18486.787109
90.971855	2192.893066
94.065796	4693.561035
95.049927	22360.308594
95.054222	2027.750977
97.065613	3914.04834
109.219017	2248.008545
111.301781	2061.566406
121.065979	2897.834229
128.394791	2225.794678
137.060806	7209.12207
139.076477	96178.46875
147.874405	2067.792725
165.531525	2156.101807
166.590912	2217.952393
182.082428	271457.46875
225.088287	418441.53125
END IONS

BEGIN IONS
PEPMASS=231.078
CHARGE=-1
MSLEVEL=2
SOURCE_INSTRUMENT=LC-ESI-Orbitrap
FILENAME=reframe_drugs_neg_P2_C2_id.mzML
SEQ=*..*
IONMODE=Negative
ORGANISM=REFRAME-NEGATIVE-LIBRARY
NAME=phenobarbital [M-H]-
PI=Pieter Dorrestein
DATACOLLECTOR=Nina Zhao
SMILES=CCC1(c2ccccc2)C(=O)NC(=O)NC1=O
INCHI="InChI=1S/C12H12N2O3/c1-2-12(8-6-4-3-5-7-8)9(15)13-11(17)14-10(12)16/h3-7H,2H2,1H3,(H2,13,14,15,16,17)"
INCHIAUX=
PUBMED=N/A
SUBMITUSER=jzemlin
LIBRARYQUALITY=1
SPECTRUMID=CCMSLIB00016155375
USI=mzspec:GNPS:REFRAME-NEGATIVE-LIBRARY:accession:CCMSLIB00016155375
SCANS=1232
61.847473	3627.805176
68.779884	3349.453857
78.567856	3817.817383
85.004173	115871.328125
92.98317	3879.195068
112.911339	3939.995605
122.969658	6172.740234
144.082031	13239.254883
148.78389	4099.398438
183.424927	4127.250488
188.071854	188661.765625
231.077652	857347.75
END IONS

BEGIN IONS
PEPMASS=228.232
CHARGE=1
MSLEVEL=2
SOURCE_INSTRUMENT=LC-ESI-Orbitrap
FILENAME=ms2_all_part3.mgf
SEQ=*..*
IONMODE=Positive
ORGANISM=MULTIPLEX-SYNTHESIS-LIBRARY-ALL-PARTITION-3
NAME=dodecanoic-acid_dimethylamine (known isomers: 2; isobaric peaks: 2) M+H
PI=Pieter Dorrestein
DATACOLLECTOR=Abubaker patan
SMILES=CCCCCCCCCCCC(=O)N(C)C
INCHI=InChI=1S/C14H29NO/c1-4-5-6-7-8-9-10-11-12-13-14(16)15(2)3/h4-13H2,1-3H3
INCHIAUX=N/A
PUBMED=AP_822.mzML:scan:3011
SUBMITUSER=jzemlin
LIBRARYQUALITY=1
SPECTRUMID=CCMSLIB00015046386
USI=mzspec:GNPS:MULTIPLEX-SYNTHESIS-LIBRARY-ALL-PARTITION-3:accession:CCMSLIB00015046386
SCANS=35888
54.518318	7130.049805
55.055161	6837.589844
57.070721	51150.359375
58.06332	6920.330078
58.06596	104075.953125
67.054932	21508.490234
71.049767	10383.240234
71.359589	7283.569824
73.92881	8326.019531
74.060722	49039.128906
75.90477	6371.959961
82.803757	6750.5
83.086143	12107.070312
88.076233	195142.921875
92.54763	14767.049805
92.553551	19277.910156
102.091637	87725.0625
102.127983	37572.828125
104.755997	8099.569824
109.101479	31105.019531
116.10685	10467.259766
126.127693	336643.34375
126.1371	13391.019531
138.164948	7205.129883
144.138123	1814356.25
154.686081	9752.169922
168.174026	9041.120117
172.169586	18528.699219
186.172211	31783.119141
186.184982	1783526.0
228.231812	3682094.0
END IONS

BEGIN IONS
PEPMASS=200.201
CHARGE=1
MSLEVEL=2
SOURCE_INSTRUMENT=LC-ESI-Orbitrap
FILENAME=ms2_all_part3.mgf
SEQ=*..*
IONMODE=Positive
ORGANISM=MULTIPLEX-SYNTHESIS-LIBRARY-ALL-PARTITION-3
NAME=decanoic-acid_dimethylamine (known isomers: 2; isobaric peaks: 2) M+H
PI=Pieter Dorrestein
DATACOLLECTOR=Abubaker patan
SMILES=CCCCCCCCCC(=O)N(C)C
INCHI=InChI=1S/C12H25NO/c1-4-5-6-7-8-9-10-11-12(14)13(2)3/h4-11H2,1-3H3
INCHIAUX=N/A
PUBMED=AP_822.mzML:scan:2783
SUBMITUSER=jzemlin
LIBRARYQUALITY=1
SPECTRUMID=CCMSLIB00015047625
USI=mzspec:GNPS:MULTIPLEX-SYNTHESIS-LIBRARY-ALL-PARTITION-3:accession:CCMSLIB00015047625
SCANS=36190
50.049519	2822.300049
53.36364	1049.089966
55.05518	1482.550049
55.934719	1242.959961
57.067909	2709.27002
57.070679	46433.078125
58.065762	1750.069946
59.037621	1566.719971
64.978188	10719.629883
69.070541	2963.030029
71.049767	3493.77002
72.045151	5149.72998
72.081337	1877.98999
74.060677	18242.789062
74.096977	5392.850098
83.086159	2553.22998
86.060402	2623.76001
86.096817	5476.859863
88.070671	2905.899902
88.076187	80999.453125
90.977074	6570.549805
92.548569	3870.050049
97.06514	2064.23999
98.614532	1491.410034
100.076057	5444.740234
102.091621	43560.871094
106.978996	1744.98999
109.101357	2609.820068
114.091873	1643.569946
116.106842	3599.840088
125.961281	4208.189941
126.127998	3482.709961
127.111526	3720.040039
128.106522	1498.900024
128.95076	5550.240234
130.122925	2083.340088
144.114502	5371.779785
144.118713	2559.719971
144.138107	668036.4375
144.161682	5122.189941
146.961121	21420.470703
153.955795	7765.47998
158.153595	13895.269531
158.963379	15081.980469
176.971466	6482.0
200.139847	2507.620117
200.161774	10574.94043
200.169205	4783.399902
200.200562	1443151.5
200.239014	9857.209961
200.249954	3362.73999
END IONS

BEGIN IONS
PEPMASS=312.325
CHARGE=1
MSLEVEL=2
SOURCE_INSTRUMENT=LC-ESI-Orbitrap
FILENAME=ms2_all_part3.mgf
SEQ=*..*
IONMODE=Positive
ORGANISM=MULTIPLEX-SYNTHESIS-LIBRARY-ALL-PARTITION-3
NAME=octadecanoic-acid_dimethylamine (known isomers: 2; isobaric peaks: 1) M+H
PI=Pieter Dorrestein
DATACOLLECTOR=Abubaker patan
SMILES=CCCCCCCCCCCCCCCCCC(=O)N(C)C
INCHI=InChI=1S/C20H41NO/c1-4-5-6-7-8-9-10-11-12-13-14-15-16-17-18-19-20(22)21(2)3/h4-19H2,1-3H3
INCHIAUX=N/A
PUBMED=AP_822.mzML:scan:3270
SUBMITUSER=jzemlin
LIBRARYQUALITY=1
SPECTRUMID=CCMSLIB00015050501
USI=mzspec:GNPS:MULTIPLEX-SYNTHESIS-LIBRARY-ALL-PARTITION-3:accession:CCMSLIB00015050501
SCANS=36888
51.085388	2451.620117
57.07048	10091.219727
58.30854	2086.810059
59.67453	2209.100098
69.070213	4424.399902
71.085907	7987.410156
72.044991	4936.080078
72.540443	2993.23999
79.857307	3094.179932
83.085777	3388.5
85.101608	6102.970215
88.075851	4362.299805
88.112633	16622.449219
92.549248	15247.0
95.085701	7376.830078
98.955811	3115.959961
99.448433	2770.719971
102.091263	12806.679688
116.107292	31500.75
130.122406	19643.460938
144.137497	6863.089844
154.15831	3553.72998
224.23674	11081.200195
252.268448	17013.210938
270.278473	569720.25
312.325226	1031736.75
312.399506	6729.509766
END IONS

BEGIN IONS
PEPMASS=379.096
CHARGE=1
MSLEVEL=2
SOURCE_INSTRUMENT=LC-ESI-Orbitrap
FILENAME=ms2_all_part3.mgf
SEQ=*..*
IONMODE=Positive
ORGANISM=MULTIPLEX-SYNTHESIS-LIBRARY-ALL-PARTITION-3
NAME=carbiniciline (known isomers: 0; isobaric peaks: 2) M+H
PI=Pieter Dorrestein
DATACOLLECTOR=Abubaker patan
SMILES=O=C([C@@H]1N2C([C@H]([C@H]2SC1(C)C)NC(C(C(O)=O)c3ccccc3)=O)=O)O
INCHI=InChI=1S/C17H18N2O6S/c1-17(2)11(16(24)25)19-13(21)10(14(19)26-17)18-12(20)9(15(22)23)8-6-4-3-5-7-8/h3-7,9-11,14H,1-2H3,(H,18,20)(H,22,23)(H,24,25)/t9?,10-,11+,14-/m1/s1
INCHIAUX=N/A
PUBMED=AP_492.mzML:scan:1930
SUBMITUSER=jzemlin
LIBRARYQUALITY=1
SPECTRUMID=CCMSLIB00015241645
USI=mzspec:GNPS:MULTIPLEX-SYNTHESIS-LIBRARY-ALL-PARTITION-3:accession:CCMSLIB00015241645
SCANS=83963
53.512131	1321.26001
56.718521	1408.359985
70.832108	1410.439941
74.093231	1303.780029
79.054863	15385.169922
82.197472	1387.209961
85.011253	3654.370117
92.54985	2763.98999
95.049713	23555.259766
98.006508	3476.399902
105.045021	4940.819824
107.049583	86075.34375
112.021988	2401.600098
114.037498	2219.840088
119.049393	2920.159912
120.044571	2413.060059
124.021828	3253.280029
134.060608	1904.949951
142.031876	5482.660156
147.043777	4699.25
151.032242	6298.669922
152.016586	9687.849609
157.990845	2250.560059
160.09761	2685.26001
167.027298	11138.740234
179.027451	8163.859863
185.037796	2717.909912
192.06543	23763.449219
197.037994	43707.609375
205.048096	1733.130005
207.022369	2339.98999
211.0186	17783.009766
211.053482	77082.976562
216.048645	2124.679932
223.016479	4391.72998
225.010498	1978.300049
225.032745	57558.828125
225.049713	1205.76001
227.048615	11817.780273
232.075684	1614.459961
234.021835	2747.199951
237.03334	1597.689941
239.025467	3046.129883
239.04837	35672.621094
244.042603	2856.669922
250.087708	2712.97998
252.844666	1666.97998
253.024918	1643.48999
254.785568	1946.77002
258.059723	3649.070068
262.052246	2494.530029
267.04245	5729.330078
272.037018	2880.429932
273.068451	2217.629883
290.047729	24953.490234
304.06308	5801.609863
329.059448	2359.5
END IONS

BEGIN IONS
PEPMASS=256.263
CHARGE=1
MSLEVEL=2
SOURCE_INSTRUMENT=LC-ESI-Orbitrap
FILENAME=ms2_all_part4.mgf
SEQ=*..*
IONMODE=Positive
ORGANISM=MULTIPLEX-SYNTHESIS-LIBRARY-ALL-PARTITION-4
NAME=myristoyl-chloride_Oxytetracycline (known isomers: 0; isobaric peaks: 1) M+H
PI=Pieter Dorrestein
DATACOLLECTOR=Abubaker patan
SMILES=CCCCCCCCCCCCCC(=O)N(C)C
INCHI=InChI=1S/C16H33NO/c1-4-5-6-7-8-9-10-11-12-13-14-15-16(18)17(2)3/h4-15H2,1-3H3
INCHIAUX=N/A
PUBMED=AP_504.mzML:scan:3227
SUBMITUSER=jzemlin
LIBRARYQUALITY=1
SPECTRUMID=CCMSLIB00015033461
USI=mzspec:GNPS:MULTIPLEX-SYNTHESIS-LIBRARY-ALL-PARTITION-4:accession:CCMSLIB00015033461
SCANS=31873
52.984539	1029.75
69.714172	1237.219971
85.435783	1393.75
92.546928	2474.580078
92.553093	5143.490234
94.530128	1278.560059
116.107597	1580.900024
150.477722	1259.819946
187.665634	1418.930054
200.183197	1699.900024
200.201004	26163.390625
207.212936	1291.699951
256.263397	34033.511719
END IONS

BEGIN IONS
PEPMASS=287.222
CHARGE=1
MSLEVEL=2
SOURCE_INSTRUMENT=LC-ESI-Orbitrap
FILENAME=ms2_all_part4.mgf
SEQ=*..*
IONMODE=Positive
ORGANISM=MULTIPLEX-SYNTHESIS-LIBRARY-ALL-PARTITION-4
NAME=Isoamyl alcohol_Isoamyl alcohol_adipic acid (known isomers: 3; isobaric peaks: 1) M+H
PI=Pieter Dorrestein
DATACOLLECTOR=Abubaker patan
SMILES=CC(C)CCOC(=O)CCCCC(=O)OCCC(C)C
INCHI=InChI=1S/C16H30O4/c1-13(2)9-11-19-15(17)7-5-6-8-16(18)20-12-10-14(3)4/h13-14H,5-12H2,1-4H3
INCHIAUX=N/A
PUBMED=Hu_421.mzML:scan:3089
SUBMITUSER=jzemlin
LIBRARYQUALITY=1
SPECTRUMID=CCMSLIB00015184348
USI=mzspec:GNPS:MULTIPLEX-SYNTHESIS-LIBRARY-ALL-PARTITION-4:accession:CCMSLIB00015184348
SCANS=69807
50.842091	2360.26001
54.720188	2024.579956
55.018921	3613.530029
55.055161	90236.71875
58.65057	1837.359985
59.050072	19354.849609
59.16959	2187.689941
65.635223	2453.070068
66.126122	2314.560059
67.055138	6528.890137
68.1754	2107.27002
69.051422	2377.159912
69.07077	17698.779297
71.086357	396700.3125
79.054939	6247.919922
81.070572	17916.689453
83.04985	170564.546875
92.552589	17198.75
93.070541	18189.050781
95.086098	6493.629883
97.065308	9310.030273
97.101677	10761.80957
101.060219	697740.3125
107.085953	6367.589844
111.044456	619248.5
111.117027	11911.599609
121.101463	67950.296875
128.09639	2204.209961
129.035187	7024.680176
129.05481	1057073.25
131.05925	3678.340088
131.0858	9938.040039
131.150238	2461.719971
135.11705	3673.51001
139.101013	4434.459961
139.111847	102772.59375
142.086945	2904.0
147.065231	803099.0
149.069168	4390.689941
149.096222	19814.150391
153.127243	3433.02002
157.121628	6097.220215
167.106705	8172.180176
171.137985	15294.30957
184.16951	2920.300049
185.117676	9317.900391
199.13295	374369.84375
203.108627	3754.350098
203.127777	73842.960938
217.143433	142824.984375
261.717041	2579.02002
273.206543	6122.350098
287.222748	3403.790039
END IONS

BEGIN IONS
PEPMASS=228.196
CHARGE=1
MSLEVEL=2
SOURCE_INSTRUMENT=LC-ESI-Orbitrap
FILENAME=ms2_all_part5.mgf
SEQ=*..*
IONMODE=Positive
ORGANISM=MULTIPLEX-SYNTHESIS-LIBRARY-ALL-PARTITION-5
NAME=nonanoyl chloride_morpholine (known isomers: 0; isobaric peaks: 3) M+H
PI=Pieter Dorrestein
DATACOLLECTOR=Abubaker patan
SMILES=CCCCCCCCC(=O)N1CCOCC1
INCHI=InChI=1S/C13H25NO2/c1-2-3-4-5-6-7-8-13(15)14-9-11-16-12-10-14/h2-12H2,1H3
INCHIAUX=N/A
PUBMED=AP_812.mzML:scan:2267
SUBMITUSER=jzemlin
LIBRARYQUALITY=1
SPECTRUMID=CCMSLIB00015267568
USI=mzspec:GNPS:MULTIPLEX-SYNTHESIS-LIBRARY-ALL-PARTITION-5:accession:CCMSLIB00015267568
SCANS=12238
50.706139	1083.23999
53.41991	1107.900024
55.055012	2766.76001
61.594551	1128.810059
67.054764	5057.649902
69.070351	2611.459961
71.811882	1149.650024
77.157478	1062.319946
81.070419	7729.240234
83.085854	5543.22998
92.548721	2184.629883
93.070236	2611.860107
95.085838	22697.710938
97.065086	1326.349976
97.101357	4360.819824
109.10144	13209.009766
111.080704	1469.949951
119.085457	4504.709961
119.97467	1437.650024
123.945061	1585.23999
128.95105	1329.449951
133.100845	3667.169922
137.095657	1960.150024
146.960861	4395.189941
147.116379	1791.630005
151.111435	1536.949951
151.147827	2823.879883
163.939789	3117.5
175.147537	15848.019531
181.950424	5346.97998
182.530594	1346.780029
189.86763	1217.390015
193.157883	7064.859863
195.892853	1271.069946
205.734818	1279.849976
211.168182	2743.330078
228.194946	3359.860107
228.231171	1748.910034
END IONS

BEGIN IONS
PEPMASS=74.0606
CHARGE=1
MSLEVEL=2
SOURCE_INSTRUMENT=ESI-LC-ESI-QTOF
FILENAME=Massbank_ESI_positive_8_1_2014_peaks.mgf
SEQ=*..*
IONMODE=Positive
ORGANISM=MASSBANK
NAME=Massbank:PR100423 N,N-Dimethylformamide|DMF|DMFA|N,N-Dimethylmethanamide|Formyldimethylamine|Formic acid dimethylamide|N,N-Dimethylformamide(DMF) [M+H]+
PI=Putative Massbank Match
DATACOLLECTOR=Massbank
SMILES=[H]C(=O)N(C)C
INCHI=1S/C3H7NO/c1-4(2)3-5/h3H,1-2H3
INCHIAUX=N/A
PUBMED=N/A
SUBMITUSER=mwang87
LIBRARYQUALITY=3
SPECTRUMID=CCMSLIB00000223247
USI=mzspec:GNPS:MASSBANK:accession:CCMSLIB00000223247
SCANS=11379
74.0606	116.1
90.5199	2.641
99.5101	3.762
END IONS

BEGIN IONS
PEPMASS=180.081
CHARGE=1
MSLEVEL=2
SOURCE_INSTRUMENT=ESI-qTof
FILENAME=massbank-gnps.mgf
SEQ=*..*
IONMODE=Positive
ORGANISM=MASSBANK
NAME=Massbank:AU251701 Acridine M+H
PI=Massbank
DATACOLLECTOR=Massbank
SMILES=C1=CC2=CC3=CC=CC=C3N=C2C=C1
INCHI=1S/C13H9N/c1-3-7-12-10(5-1)9-11-6-2-4-8-13(11)14-12/h1-9H
INCHIAUX=N/A
PUBMED=N/A
SUBMITUSER=mwang87
LIBRARYQUALITY=3
SPECTRUMID=CCMSLIB00005772185
USI=mzspec:GNPS:MASSBANK:accession:CCMSLIB00005772185
SCANS=46634
180.079697	1719148.0
181.082901	164476.0
182.085495	8832.0
END IONS
